ODB Name,Step,Frame,Part Instance Name,    êﬂì_ÉâÉxÉã,X,Y,Z,Section Name,Material Name,Section Point,   U-Magnitude,          U-U1,          U-U2,       S-Mises
C:/temp/dataset/2/10_10.odb,Step-1,Increment      1: Step Time =    1.000,"PART-1-1",             1,          -15.,           20.,            0.,NA,NA,"",       9.50698,      -8.98646,      -3.10260,   1.94652E-09
C:/temp/dataset/2/10_10.odb,Step-1,Increment      1: Step Time =    1.000,"PART-1-1",             2,          -15.,           25.,            0.,NA,NA,"",       11.0082,      -10.4911,      -3.33437,   1.92623E-09
C:/temp/dataset/2/10_10.odb,Step-1,Increment      1: Step Time =    1.000,"PART-1-1",             3,          -10.,           20.,            0.,NA,NA,"",       9.35571,      -9.21823,      -1.59795,   1.68060E-09
C:/temp/dataset/2/10_10.odb,Step-1,Increment      1: Step Time =    1.000,"PART-1-1",             4,           -5.,           20.,            0.,NA,NA,"",       9.45046,      -9.45000,  -93.2930E-03,   2.82757E-09
C:/temp/dataset/2/10_10.odb,Step-1,Increment      1: Step Time =    1.000,"PART-1-1",             5,            0.,           20.,            0.,NA,NA,"",       9.78410,      -9.68177,       1.41136,   57.0587E-09
C:/temp/dataset/2/10_10.odb,Step-1,Increment      1: Step Time =    1.000,"PART-1-1",             6,            5.,           20.,            0.,NA,NA,"",       10.3335,      -9.91354,       2.91602,   1.99839E-06
C:/temp/dataset/2/10_10.odb,Step-1,Increment      1: Step Time =    1.000,"PART-1-1",             7,            5.,          12.5,            0.,NA,NA,"",       8.32323,      -7.65670,       3.26361,   47.5012E-06
C:/temp/dataset/2/10_10.odb,Step-1,Increment      1: Step Time =    1.000,"PART-1-1",             8,            5.,            5.,            0.,NA,NA,"",       6.48709,      -5.39098,       3.60828,   5.55022E-03
C:/temp/dataset/2/10_10.odb,Step-1,Increment      1: Step Time =    1.000,"PART-1-1",             9,           -5.,            5.,            0.,NA,NA,"",       4.83881,      -4.77424,   787.847E-03,   32.3244E-03
C:/temp/dataset/2/10_10.odb,Step-1,Increment      1: Step Time =    1.000,"PART-1-1",            10,          -15.,            5.,            0.,NA,NA,"",       4.63049,      -4.36667,      -1.54066,   1.45698E-03
C:/temp/dataset/2/10_10.odb,Step-1,Increment      1: Step Time =    1.000,"PART-1-1",            11,          -15.,         -3.75,            0.,NA,NA,"",       2.60207,      -2.31318,      -1.19163,   35.8093E-03
C:/temp/dataset/2/10_10.odb,Step-1,Increment      1: Step Time =    1.000,"PART-1-1",            12,          -15.,         -12.5,            0.,NA,NA,"",       1.05087,  -801.993E-03,  -679.070E-03,   52.1156E-03
C:/temp/dataset/2/10_10.odb,Step-1,Increment      1: Step Time =    1.000,"PART-1-1",            13,          -15.,        -21.25,            0.,NA,NA,"",   255.950E-03,  -91.9307E-03,  -238.871E-03,   45.4725E-03
C:/temp/dataset/2/10_10.odb,Step-1,Increment      1: Step Time =    1.000,"PART-1-1",            14,          -15.,          -30.,            0.,NA,NA,"",            0.,  -5.00879E-39,  -10.6991E-39,   16.9497E-03
C:/temp/dataset/2/10_10.odb,Step-1,Increment      1: Step Time =    1.000,"PART-1-1",            15,           15.,          -30.,            0.,NA,NA,"",            0.,  -1.77436E-39,   2.94271E-39,   4.93024E-03
C:/temp/dataset/2/10_10.odb,Step-1,Increment      1: Step Time =    1.000,"PART-1-1",            16,           15.,          -25.,            0.,NA,NA,"",   20.8593E-03,  -19.3124E-03,   7.88287E-03,   107.956E-06
C:/temp/dataset/2/10_10.odb,Step-1,Increment      1: Step Time =    1.000,"PART-1-1",            17,           15.,          -20.,            0.,NA,NA,"",   30.9377E-03,  -30.0307E-03,   7.43617E-03,   16.4552E-06
C:/temp/dataset/2/10_10.odb,Step-1,Increment      1: Step Time =    1.000,"PART-1-1",            18,            5.,          -20.,            0.,NA,NA,"",   29.0931E-03,  -29.0768E-03,  -973.842E-06,   653.160E-06
C:/temp/dataset/2/10_10.odb,Step-1,Increment      1: Step Time =    1.000,"PART-1-1",            19,           -5.,          -20.,            0.,NA,NA,"",   213.052E-03,  -93.1732E-03,   191.598E-03,   83.5891E-03
C:/temp/dataset/2/10_10.odb,Step-1,Increment      1: Step Time =    1.000,"PART-1-1",            20,           -5.,         -12.5,            0.,NA,NA,"",       1.11538,  -918.692E-03,   632.513E-03,   62.1870E-03
C:/temp/dataset/2/10_10.odb,Step-1,Increment      1: Step Time =    1.000,"PART-1-1",            21,           -5.,           -5.,            0.,NA,NA,"",       2.39696,      -2.18542,   984.559E-03,   81.3009E-03
C:/temp/dataset/2/10_10.odb,Step-1,Increment      1: Step Time =    1.000,"PART-1-1",            22,            0.,           -5.,            0.,NA,NA,"",       3.39970,      -2.26639,       2.53405,   19.7720E-03
C:/temp/dataset/2/10_10.odb,Step-1,Increment      1: Step Time =    1.000,"PART-1-1",            23,            5.,           -5.,            0.,NA,NA,"",       4.75153,      -2.43749,       4.07869,   9.90720E-03
C:/temp/dataset/2/10_10.odb,Step-1,Increment      1: Step Time =    1.000,"PART-1-1",            24,           10.,           -5.,            0.,NA,NA,"",       6.19573,      -2.66456,       5.59350,   5.41505E-03
C:/temp/dataset/2/10_10.odb,Step-1,Increment      1: Step Time =    1.000,"PART-1-1",            25,           15.,           -5.,            0.,NA,NA,"",       7.63164,      -2.88123,       7.06685,   212.916E-06
C:/temp/dataset/2/10_10.odb,Step-1,Increment      1: Step Time =    1.000,"PART-1-1",            26,           15.,          3.75,            0.,NA,NA,"",       8.64162,      -5.48833,       6.67502,   764.621E-06
C:/temp/dataset/2/10_10.odb,Step-1,Increment      1: Step Time =    1.000,"PART-1-1",            27,           15.,          12.5,            0.,NA,NA,"",       10.2608,      -8.11996,       6.27298,   52.4582E-06
C:/temp/dataset/2/10_10.odb,Step-1,Increment      1: Step Time =    1.000,"PART-1-1",            28,           15.,         21.25,            0.,NA,NA,"",       12.2498,      -10.7532,       5.86738,   1.84166E-06
C:/temp/dataset/2/10_10.odb,Step-1,Increment      1: Step Time =    1.000,"PART-1-1",            29,           15.,           30.,            0.,NA,NA,"",       14.4577,      -13.3864,       5.46178,   27.0483E-09
C:/temp/dataset/2/10_10.odb,Step-1,Increment      1: Step Time =    1.000,"PART-1-1",            30,           7.5,           30.,            0.,NA,NA,"",       13.4268,      -13.0387,       3.20480,   184.251E-09
C:/temp/dataset/2/10_10.odb,Step-1,Increment      1: Step Time =    1.000,"PART-1-1",            31,            0.,           30.,            0.,NA,NA,"",       12.7264,      -12.6911,   947.820E-03,   22.8683E-09
C:/temp/dataset/2/10_10.odb,Step-1,Increment      1: Step Time =    1.000,"PART-1-1",            32,          -7.5,           30.,            0.,NA,NA,"",       12.4127,      -12.3434,      -1.30916,   4.79328E-09
C:/temp/dataset/2/10_10.odb,Step-1,Increment      1: Step Time =    1.000,"PART-1-1",            33,          -15.,           30.,            0.,NA,NA,"",       12.5146,      -11.9958,      -3.56614,   1.85088E-09
C:/temp/dataset/2/10_10.odb,Step-1,Increment      1: Step Time =    1.000,"PART-1-1",            34,          -15.,          22.5,            0.,NA,NA,"",       10.2568,      -9.73879,      -3.21848,   2.43353E-09
C:/temp/dataset/2/10_10.odb,Step-1,Increment      1: Step Time =    1.000,"PART-1-1",            35,         -12.5,           20.,            0.,NA,NA,"",       9.40088,      -9.10235,      -2.35027,   1.67941E-09
C:/temp/dataset/2/10_10.odb,Step-1,Increment      1: Step Time =    1.000,"PART-1-1",            36,          -7.5,           20.,            0.,NA,NA,"",       9.37234,      -9.33412,  -845.620E-03,   2.25915E-09
C:/temp/dataset/2/10_10.odb,Step-1,Increment      1: Step Time =    1.000,"PART-1-1",            37,          -2.5,           20.,            0.,NA,NA,"",       9.58856,      -9.56589,   659.034E-03,   13.0137E-09
C:/temp/dataset/2/10_10.odb,Step-1,Increment      1: Step Time =    1.000,"PART-1-1",            38,           2.5,           20.,            0.,NA,NA,"",       10.0337,      -9.79766,       2.16369,   307.388E-09
C:/temp/dataset/2/10_10.odb,Step-1,Increment      1: Step Time =    1.000,"PART-1-1",            39,            5.,           15.,            0.,NA,NA,"",       8.97879,      -8.40893,       3.14777,   10.7290E-06
C:/temp/dataset/2/10_10.odb,Step-1,Increment      1: Step Time =    1.000,"PART-1-1",            40,            5.,          17.5,            0.,NA,NA,"",       9.64990,      -9.16123,       3.03190,   4.53860E-06
C:/temp/dataset/2/10_10.odb,Step-1,Increment      1: Step Time =    1.000,"PART-1-1",            41,            5.,           7.5,            0.,NA,NA,"",       7.07473,      -6.15149,       3.49443,   1.13594E-03
C:/temp/dataset/2/10_10.odb,Step-1,Increment      1: Step Time =    1.000,"PART-1-1",            42,            5.,           10.,            0.,NA,NA,"",       7.68681,      -6.90425,       3.37912,   297.364E-06
C:/temp/dataset/2/10_10.odb,Step-1,Increment      1: Step Time =    1.000,"PART-1-1",            43,      -1.66667,            5.,            0.,NA,NA,"",       5.25913,      -4.98896,       1.66394,   28.6307E-03
C:/temp/dataset/2/10_10.odb,Step-1,Increment      1: Step Time =    1.000,"PART-1-1",            44,       1.66667,            5.,            0.,NA,NA,"",       5.81966,      -5.19941,       2.61431,   17.9642E-03
C:/temp/dataset/2/10_10.odb,Step-1,Increment      1: Step Time =    1.000,"PART-1-1",            45,      -11.6667,            5.,            0.,NA,NA,"",       4.52614,      -4.46082,  -766.182E-03,   5.76827E-03
C:/temp/dataset/2/10_10.odb,Step-1,Increment      1: Step Time =    1.000,"PART-1-1",            46,      -8.33333,            5.,            0.,NA,NA,"",       4.59008,      -4.59008,  -8.17588E-03,   22.1560E-03
C:/temp/dataset/2/10_10.odb,Step-1,Increment      1: Step Time =    1.000,"PART-1-1",            47,          -15.,  -833.333E-03,            0.,NA,NA,"",       3.26477,      -2.97666,      -1.34097,   19.8889E-03
C:/temp/dataset/2/10_10.odb,Step-1,Increment      1: Step Time =    1.000,"PART-1-1",            48,          -15.,       2.08333,            0.,NA,NA,"",       3.95188,      -3.67407,      -1.45554,   4.52213E-03
C:/temp/dataset/2/10_10.odb,Step-1,Increment      1: Step Time =    1.000,"PART-1-1",            49,          -15.,      -9.58333,            0.,NA,NA,"",       1.48162,      -1.21719,  -844.771E-03,   50.5064E-03
C:/temp/dataset/2/10_10.odb,Step-1,Increment      1: Step Time =    1.000,"PART-1-1",            50,          -15.,      -6.66667,            0.,NA,NA,"",       1.99982,      -1.72094,      -1.01864,   46.3168E-03
C:/temp/dataset/2/10_10.odb,Step-1,Increment      1: Step Time =    1.000,"PART-1-1",            51,          -15.,      -18.3333,            0.,NA,NA,"",   442.340E-03,  -238.012E-03,  -372.847E-03,   51.5377E-03
C:/temp/dataset/2/10_10.odb,Step-1,Increment      1: Step Time =    1.000,"PART-1-1",            52,          -15.,      -15.4167,            0.,NA,NA,"",   705.178E-03,  -474.600E-03,  -521.566E-03,   53.3796E-03
C:/temp/dataset/2/10_10.odb,Step-1,Increment      1: Step Time =    1.000,"PART-1-1",            53,          -15.,      -27.0833,            0.,NA,NA,"",   51.3194E-03,  -3.26046E-03,  -51.2157E-03,   26.3410E-03
C:/temp/dataset/2/10_10.odb,Step-1,Increment      1: Step Time =    1.000,"PART-1-1",            54,          -15.,      -24.1667,            0.,NA,NA,"",   133.286E-03,  -21.9772E-03,  -131.462E-03,   35.6400E-03
C:/temp/dataset/2/10_10.odb,Step-1,Increment      1: Step Time =    1.000,"PART-1-1",            55,           12.,          -30.,            0.,NA,NA,"",            0.,  -7.00775E-39,   6.42061E-39,   2.36732E-03
C:/temp/dataset/2/10_10.odb,Step-1,Increment      1: Step Time =    1.000,"PART-1-1",            56,            9.,          -30.,            0.,NA,NA,"",            0.,  -6.42541E-39,  -2.10884E-39,   3.51753E-03
C:/temp/dataset/2/10_10.odb,Step-1,Increment      1: Step Time =    1.000,"PART-1-1",            57,            6.,          -30.,            0.,NA,NA,"",            0.,  -13.0355E-39,   12.8703E-39,   4.99166E-03
C:/temp/dataset/2/10_10.odb,Step-1,Increment      1: Step Time =    1.000,"PART-1-1",            58,            3.,          -30.,            0.,NA,NA,"",            0.,  -11.5355E-39,   5.56483E-39,   7.07550E-03
C:/temp/dataset/2/10_10.odb,Step-1,Increment      1: Step Time =    1.000,"PART-1-1",            59,            0.,          -30.,            0.,NA,NA,"",            0.,  -23.4556E-39,   33.7993E-39,   9.11703E-03
C:/temp/dataset/2/10_10.odb,Step-1,Increment      1: Step Time =    1.000,"PART-1-1",            60,           -3.,          -30.,            0.,NA,NA,"",            0.,  -19.6264E-39,   42.0960E-39,   9.64813E-03
C:/temp/dataset/2/10_10.odb,Step-1,Increment      1: Step Time =    1.000,"PART-1-1",            61,           -6.,          -30.,            0.,NA,NA,"",            0.,  -2.55663E-39,   30.4795E-39,   8.89504E-03
C:/temp/dataset/2/10_10.odb,Step-1,Increment      1: Step Time =    1.000,"PART-1-1",            62,           -9.,          -30.,            0.,NA,NA,"",            0.,   26.2584E-39,   22.1673E-39,   10.1122E-03
C:/temp/dataset/2/10_10.odb,Step-1,Increment      1: Step Time =    1.000,"PART-1-1",            63,          -12.,          -30.,            0.,NA,NA,"",            0.,   7.32370E-39,  -30.6028E-39,   13.5114E-03
C:/temp/dataset/2/10_10.odb,Step-1,Increment      1: Step Time =    1.000,"PART-1-1",            64,           15.,         -27.5,            0.,NA,NA,"",   12.9581E-03,  -10.9806E-03,   6.88028E-03,   1.64581E-03
C:/temp/dataset/2/10_10.odb,Step-1,Increment      1: Step Time =    1.000,"PART-1-1",            65,           15.,         -22.5,            0.,NA,NA,"",   26.4490E-03,  -25.3376E-03,   7.58644E-03,   143.028E-06
C:/temp/dataset/2/10_10.odb,Step-1,Increment      1: Step Time =    1.000,"PART-1-1",            66,       8.33333,          -20.,            0.,NA,NA,"",   29.2683E-03,  -29.1951E-03,  -2.06855E-03,   180.896E-06
C:/temp/dataset/2/10_10.odb,Step-1,Increment      1: Step Time =    1.000,"PART-1-1",            67,       11.6667,          -20.,            0.,NA,NA,"",   29.7619E-03,  -29.7262E-03,   1.45591E-03,   179.441E-06
C:/temp/dataset/2/10_10.odb,Step-1,Increment      1: Step Time =    1.000,"PART-1-1",            68,      -1.66667,          -20.,            0.,NA,NA,"",   59.9820E-03,  -32.9340E-03,   50.1317E-03,   15.7531E-03
C:/temp/dataset/2/10_10.odb,Step-1,Increment      1: Step Time =    1.000,"PART-1-1",            69,       1.66667,          -20.,            0.,NA,NA,"",   31.5418E-03,  -29.5316E-03,   11.0801E-03,   2.41843E-03
C:/temp/dataset/2/10_10.odb,Step-1,Increment      1: Step Time =    1.000,"PART-1-1",            70,           -5.,          -15.,            0.,NA,NA,"",   786.026E-03,  -597.376E-03,   510.860E-03,   62.9957E-03
C:/temp/dataset/2/10_10.odb,Step-1,Increment      1: Step Time =    1.000,"PART-1-1",            71,           -5.,         -17.5,            0.,NA,NA,"",   507.509E-03,  -331.636E-03,   384.166E-03,   71.3539E-03
C:/temp/dataset/2/10_10.odb,Step-1,Increment      1: Step Time =    1.000,"PART-1-1",            72,           -5.,          -7.5,            0.,NA,NA,"",       1.92473,      -1.73337,   836.676E-03,   64.1709E-03
C:/temp/dataset/2/10_10.odb,Step-1,Increment      1: Step Time =    1.000,"PART-1-1",            73,           -5.,          -10.,            0.,NA,NA,"",       1.49679,      -1.29981,   742.216E-03,   59.5376E-03
C:/temp/dataset/2/10_10.odb,Step-1,Increment      1: Step Time =    1.000,"PART-1-1",            74,          -2.5,           -5.,            0.,NA,NA,"",       2.83430,      -2.20498,       1.78081,   38.4922E-03
C:/temp/dataset/2/10_10.odb,Step-1,Increment      1: Step Time =    1.000,"PART-1-1",            75,           2.5,           -5.,            0.,NA,NA,"",       4.04374,      -2.34268,       3.29602,   15.9984E-03
C:/temp/dataset/2/10_10.odb,Step-1,Increment      1: Step Time =    1.000,"PART-1-1",            76,           7.5,           -5.,            0.,NA,NA,"",       5.48482,      -2.55249,       4.85470,   10.9467E-03
C:/temp/dataset/2/10_10.odb,Step-1,Increment      1: Step Time =    1.000,"PART-1-1",            77,          12.5,           -5.,            0.,NA,NA,"",       6.90528,      -2.76917,       6.32571,   1.51446E-03
C:/temp/dataset/2/10_10.odb,Step-1,Increment      1: Step Time =    1.000,"PART-1-1",            78,           15.,   833.333E-03,            0.,NA,NA,"",       8.22363,      -4.61510,       6.80654,   951.891E-06
C:/temp/dataset/2/10_10.odb,Step-1,Increment      1: Step Time =    1.000,"PART-1-1",            79,           15.,      -2.08333,            0.,NA,NA,"",       7.88350,      -3.74613,       6.93658,   774.553E-06
C:/temp/dataset/2/10_10.odb,Step-1,Increment      1: Step Time =    1.000,"PART-1-1",            80,           15.,       9.58333,            0.,NA,NA,"",       9.67002,      -7.24209,       6.40793,   211.002E-06
C:/temp/dataset/2/10_10.odb,Step-1,Increment      1: Step Time =    1.000,"PART-1-1",            81,           15.,       6.66667,            0.,NA,NA,"",       9.12722,      -6.36449,       6.54213,   509.599E-06
C:/temp/dataset/2/10_10.odb,Step-1,Increment      1: Step Time =    1.000,"PART-1-1",            82,           15.,       18.3333,            0.,NA,NA,"",       11.5567,      -9.87552,       6.00259,   2.68598E-06
C:/temp/dataset/2/10_10.odb,Step-1,Increment      1: Step Time =    1.000,"PART-1-1",            83,           15.,       15.4167,            0.,NA,NA,"",       10.8919,      -8.99778,       6.13780,   5.04648E-06
C:/temp/dataset/2/10_10.odb,Step-1,Increment      1: Step Time =    1.000,"PART-1-1",            84,           15.,       27.0833,            0.,NA,NA,"",       13.7038,      -12.5087,       5.59698,   114.849E-09
C:/temp/dataset/2/10_10.odb,Step-1,Increment      1: Step Time =    1.000,"PART-1-1",            85,           15.,       24.1667,            0.,NA,NA,"",       12.9668,      -11.6310,       5.73218,   499.838E-09
C:/temp/dataset/2/10_10.odb,Step-1,Increment      1: Step Time =    1.000,"PART-1-1",            86,           10.,           30.,            0.,NA,NA,"",       13.7369,      -13.1546,       3.95713,   198.079E-09
C:/temp/dataset/2/10_10.odb,Step-1,Increment      1: Step Time =    1.000,"PART-1-1",            87,          12.5,           30.,            0.,NA,NA,"",       14.0814,      -13.2705,       4.70945,   55.8115E-09
C:/temp/dataset/2/10_10.odb,Step-1,Increment      1: Step Time =    1.000,"PART-1-1",            88,           2.5,           30.,            0.,NA,NA,"",       12.9193,      -12.8070,       1.70015,   10.1634E-09
C:/temp/dataset/2/10_10.odb,Step-1,Increment      1: Step Time =    1.000,"PART-1-1",            89,            5.,           30.,            0.,NA,NA,"",       13.1535,      -12.9228,       2.45247,   85.8798E-09
C:/temp/dataset/2/10_10.odb,Step-1,Increment      1: Step Time =    1.000,"PART-1-1",            90,           -5.,           30.,            0.,NA,NA,"",       12.4717,      -12.4593,  -556.833E-03,   8.63610E-09
C:/temp/dataset/2/10_10.odb,Step-1,Increment      1: Step Time =    1.000,"PART-1-1",            91,          -2.5,           30.,            0.,NA,NA,"",       12.5767,      -12.5752,   195.494E-03,   16.2414E-09
C:/temp/dataset/2/10_10.odb,Step-1,Increment      1: Step Time =    1.000,"PART-1-1",            92,         -12.5,           30.,            0.,NA,NA,"",       12.4342,      -12.1117,      -2.81381,   2.64669E-09
C:/temp/dataset/2/10_10.odb,Step-1,Increment      1: Step Time =    1.000,"PART-1-1",            93,          -10.,           30.,            0.,NA,NA,"",       12.4001,      -12.2275,      -2.06149,   3.26168E-09
C:/temp/dataset/2/10_10.odb,Step-1,Increment      1: Step Time =    1.000,"PART-1-1",            94,          -15.,          27.5,            0.,NA,NA,"",       11.7609,      -11.2434,      -3.45025,   1.65215E-09
C:/temp/dataset/2/10_10.odb,Step-1,Increment      1: Step Time =    1.000,"PART-1-1",            95,      -12.4978,       24.9766,            0.,NA,NA,"",       10.9096,      -10.6001,      -2.58029,   2.24739E-09
C:/temp/dataset/2/10_10.odb,Step-1,Increment      1: Step Time =    1.000,"PART-1-1",            96,      -7.49872,       27.4475,            0.,NA,NA,"",       11.6364,      -11.5754,      -1.19046,   3.64884E-09
C:/temp/dataset/2/10_10.odb,Step-1,Increment      1: Step Time =    1.000,"PART-1-1",            97,      -7.50661,       22.4446,            0.,NA,NA,"",       10.1152,      -10.0695,  -960.925E-03,   2.37567E-09
C:/temp/dataset/2/10_10.odb,Step-1,Increment      1: Step Time =    1.000,"PART-1-1",            98,      -2.53392,       22.4091,            0.,NA,NA,"",       10.3033,      -10.2893,   537.153E-03,   10.2268E-09
C:/temp/dataset/2/10_10.odb,Step-1,Increment      1: Step Time =    1.000,"PART-1-1",            99,  -19.7467E-03,       27.3919,            0.,NA,NA,"",       11.9527,      -11.9053,       1.06277,   9.45522E-09
C:/temp/dataset/2/10_10.odb,Step-1,Increment      1: Step Time =    1.000,"PART-1-1",           100,       2.31326,       22.2671,            0.,NA,NA,"",       10.6610,      -10.4712,       2.00240,   194.471E-09
C:/temp/dataset/2/10_10.odb,Step-1,Increment      1: Step Time =    1.000,"PART-1-1",           101,       7.89882,       27.4278,            0.,NA,NA,"",       12.7569,      -12.2832,       3.44405,   184.541E-09
C:/temp/dataset/2/10_10.odb,Step-1,Increment      1: Step Time =    1.000,"PART-1-1",           102,       6.74061,       20.0564,            0.,NA,NA,"",       10.5848,      -10.0112,       3.43720,   1.24543E-06
C:/temp/dataset/2/10_10.odb,Step-1,Increment      1: Step Time =    1.000,"PART-1-1",           103,       6.76082,       17.7755,            0.,NA,NA,"",       9.97823,      -9.32575,       3.54901,   2.40942E-06
C:/temp/dataset/2/10_10.odb,Step-1,Increment      1: Step Time =    1.000,"PART-1-1",           104,       7.34933,       13.0959,            0.,NA,NA,"",       8.86954,      -7.94490,       3.94301,   69.5913E-06
C:/temp/dataset/2/10_10.odb,Step-1,Increment      1: Step Time =    1.000,"PART-1-1",           105,       12.5251,      -2.17932,            0.,NA,NA,"",       7.17698,      -3.60528,       6.20572,   931.917E-06
C:/temp/dataset/2/10_10.odb,Step-1,Increment      1: Step Time =    1.000,"PART-1-1",           106,       11.8446,      -24.9441,            0.,NA,NA,"",   19.6438E-03,  -19.5768E-03,   1.62097E-03,   1.28455E-03
C:/temp/dataset/2/10_10.odb,Step-1,Increment      1: Step Time =    1.000,"PART-1-1",           107,       2.44158,      -2.66949,            0.,NA,NA,"",       4.37779,      -3.02902,       3.16071,   11.8179E-03
C:/temp/dataset/2/10_10.odb,Step-1,Increment      1: Step Time =    1.000,"PART-1-1",           108,       7.46163,      -2.37632,            0.,NA,NA,"",       5.76203,      -3.32990,       4.70242,   11.7853E-03
C:/temp/dataset/2/10_10.odb,Step-1,Increment      1: Step Time =    1.000,"PART-1-1",           109,       7.48217,       7.95809,            0.,NA,NA,"",       7.67124,      -6.40531,       4.22138,   629.902E-06
C:/temp/dataset/2/10_10.odb,Step-1,Increment      1: Step Time =    1.000,"PART-1-1",           110,      -5.01446,       22.4347,            0.,NA,NA,"",       10.1842,      -10.1820,  -210.499E-03,   5.08498E-09
C:/temp/dataset/2/10_10.odb,Step-1,Increment      1: Step Time =    1.000,"PART-1-1",           111,  -75.1424E-03,       22.3615,            0.,NA,NA,"",       10.4674,      -10.3889,       1.27928,   44.3584E-09
C:/temp/dataset/2/10_10.odb,Step-1,Increment      1: Step Time =    1.000,"PART-1-1",           112,       4.50776,       22.1530,            0.,NA,NA,"",       10.8711,      -10.5386,       2.66808,   529.795E-09
C:/temp/dataset/2/10_10.odb,Step-1,Increment      1: Step Time =    1.000,"PART-1-1",           113,       7.06405,       15.4904,            0.,NA,NA,"",       9.42837,      -8.65219,       3.74617,   16.1285E-06
C:/temp/dataset/2/10_10.odb,Step-1,Increment      1: Step Time =    1.000,"PART-1-1",           114,       7.46285,       10.5556,            0.,NA,NA,"",       8.27076,      -7.18587,       4.09497,   204.677E-06
C:/temp/dataset/2/10_10.odb,Step-1,Increment      1: Step Time =    1.000,"PART-1-1",           115,      -2.89738,      -2.05905,            0.,NA,NA,"",       3.37486,      -3.00323,       1.53957,   23.2989E-03
C:/temp/dataset/2/10_10.odb,Step-1,Increment      1: Step Time =    1.000,"PART-1-1",           116,      -7.61206,      -10.6629,            0.,NA,NA,"",       1.15897,      -1.11042,   331.938E-03,   34.4310E-03
C:/temp/dataset/2/10_10.odb,Step-1,Increment      1: Step Time =    1.000,"PART-1-1",           117,      -6.85891,      -17.7385,            0.,NA,NA,"",   350.155E-03,  -267.344E-03,   226.132E-03,   47.5185E-03
C:/temp/dataset/2/10_10.odb,Step-1,Increment      1: Step Time =    1.000,"PART-1-1",           118,       11.9280,      -27.4687,            0.,NA,NA,"",   10.7163E-03,  -10.6145E-03,   1.47301E-03,   2.71998E-03
C:/temp/dataset/2/10_10.odb,Step-1,Increment      1: Step Time =    1.000,"PART-1-1",           119,      -7.44747,      -13.1413,            0.,NA,NA,"",   816.006E-03,  -758.433E-03,   301.074E-03,   35.8848E-03
C:/temp/dataset/2/10_10.odb,Step-1,Increment      1: Step Time =    1.000,"PART-1-1",           120,      -7.13169,      -15.4658,            0.,NA,NA,"",   556.316E-03,  -485.113E-03,   272.310E-03,   41.1804E-03
C:/temp/dataset/2/10_10.odb,Step-1,Increment      1: Step Time =    1.000,"PART-1-1",           121,      -8.02089,      -5.87394,            0.,NA,NA,"",       1.97410,      -1.95107,   300.633E-03,   17.3925E-03
C:/temp/dataset/2/10_10.odb,Step-1,Increment      1: Step Time =    1.000,"PART-1-1",           122,      -7.74476,      -8.18529,            0.,NA,NA,"",       1.55799,      -1.52011,   341.445E-03,   31.6867E-03
C:/temp/dataset/2/10_10.odb,Step-1,Increment      1: Step Time =    1.000,"PART-1-1",           123,  -21.3834E-03,      -2.74811,            0.,NA,NA,"",       3.78635,      -2.91582,       2.41547,   18.1648E-03
C:/temp/dataset/2/10_10.odb,Step-1,Increment      1: Step Time =    1.000,"PART-1-1",           124,       4.94012,      -2.49525,            0.,NA,NA,"",       5.05757,      -3.18695,       3.92713,   14.3380E-03
C:/temp/dataset/2/10_10.odb,Step-1,Increment      1: Step Time =    1.000,"PART-1-1",           125,       10.0127,      -2.27482,            0.,NA,NA,"",       6.47186,      -3.46686,       5.46497,   5.16182E-03
C:/temp/dataset/2/10_10.odb,Step-1,Increment      1: Step Time =    1.000,"PART-1-1",           126,       10.2967,       27.4669,            0.,NA,NA,"",       13.0862,      -12.4061,       4.16384,   192.905E-09
C:/temp/dataset/2/10_10.odb,Step-1,Increment      1: Step Time =    1.000,"PART-1-1",           127,       12.6750,       27.3103,            0.,NA,NA,"",       13.3926,      -12.4692,       4.88680,   239.516E-09
C:/temp/dataset/2/10_10.odb,Step-1,Increment      1: Step Time =    1.000,"PART-1-1",           128,       2.52543,       27.2659,            0.,NA,NA,"",       12.1250,      -11.9854,       1.83453,   65.8840E-09
C:/temp/dataset/2/10_10.odb,Step-1,Increment      1: Step Time =    1.000,"PART-1-1",           129,       5.32711,       26.8707,            0.,NA,NA,"",       12.2955,      -11.9963,       2.69597,   184.057E-09
C:/temp/dataset/2/10_10.odb,Step-1,Increment      1: Step Time =    1.000,"PART-1-1",           130,      -5.00948,       27.4462,            0.,NA,NA,"",       11.6987,      -11.6903,  -441.305E-03,   5.73162E-09
C:/temp/dataset/2/10_10.odb,Step-1,Increment      1: Step Time =    1.000,"PART-1-1",           131,      -2.51658,       27.4324,            0.,NA,NA,"",       11.8058,      -11.8017,   309.524E-03,   8.94714E-09
C:/temp/dataset/2/10_10.odb,Step-1,Increment      1: Step Time =    1.000,"PART-1-1",           132,      -9.99211,       27.4668,            0.,NA,NA,"",       11.6288,      -11.4656,      -1.94169,   2.70062E-09
C:/temp/dataset/2/10_10.odb,Step-1,Increment      1: Step Time =    1.000,"PART-1-1",           133,       12.5029,       21.6680,            0.,NA,NA,"",       11.9090,      -10.7633,       5.09654,   1.15987E-06
C:/temp/dataset/2/10_10.odb,Step-1,Increment      1: Step Time =    1.000,"PART-1-1",           134,      -12.7198,      -9.27859,            0.,NA,NA,"",       1.34753,      -1.25981,  -478.243E-03,   23.7630E-03
C:/temp/dataset/2/10_10.odb,Step-1,Increment      1: Step Time =    1.000,"PART-1-1",           135,      -12.2206,      -21.4876,            0.,NA,NA,"",   119.018E-03,  -46.2057E-03,  -109.683E-03,   21.6181E-03
C:/temp/dataset/2/10_10.odb,Step-1,Increment      1: Step Time =    1.000,"PART-1-1",           136,       12.4390,       11.8581,            0.,NA,NA,"",       9.56923,      -7.80806,       5.53213,   101.987E-06
C:/temp/dataset/2/10_10.odb,Step-1,Increment      1: Step Time =    1.000,"PART-1-1",           137,      -12.6285,      -12.0158,            0.,NA,NA,"",   926.762E-03,  -847.860E-03,  -374.192E-03,   23.2755E-03
C:/temp/dataset/2/10_10.odb,Step-1,Increment      1: Step Time =    1.000,"PART-1-1",           138,      -12.4213,      -14.8709,            0.,NA,NA,"",   568.478E-03,  -500.729E-03,  -269.142E-03,   21.5918E-03
C:/temp/dataset/2/10_10.odb,Step-1,Increment      1: Step Time =    1.000,"PART-1-1",           139,       12.2989,       14.8029,            0.,NA,NA,"",       10.2048,      -8.68787,       5.35341,   27.7273E-06
C:/temp/dataset/2/10_10.odb,Step-1,Increment      1: Step Time =    1.000,"PART-1-1",           140,       11.7182,       18.2155,            0.,NA,NA,"",       10.9115,      -9.68794,       5.02044,   2.63217E-06
C:/temp/dataset/2/10_10.odb,Step-1,Increment      1: Step Time =    1.000,"PART-1-1",           141,      -12.3380,      -4.01281,            0.,NA,NA,"",       2.36407,      -2.28469,  -607.445E-03,   22.3649E-03
C:/temp/dataset/2/10_10.odb,Step-1,Increment      1: Step Time =    1.000,"PART-1-1",           142,       12.5089,       6.21106,            0.,NA,NA,"",       8.43633,      -6.11217,       5.81489,   217.192E-06
C:/temp/dataset/2/10_10.odb,Step-1,Increment      1: Step Time =    1.000,"PART-1-1",           143,      -10.9765,      -1.21375,            0.,NA,NA,"",       2.99476,      -2.96427,  -426.288E-03,   25.0568E-03
C:/temp/dataset/2/10_10.odb,Step-1,Increment      1: Step Time =    1.000,"PART-1-1",           144,      -11.4273,       2.02370,            0.,NA,NA,"",       3.80709,      -3.75440,  -631.225E-03,   17.6857E-03
C:/temp/dataset/2/10_10.odb,Step-1,Increment      1: Step Time =    1.000,"PART-1-1",           145,      -12.7154,      -6.64001,            0.,NA,NA,"",       1.82641,      -1.73301,  -576.570E-03,   23.7232E-03
C:/temp/dataset/2/10_10.odb,Step-1,Increment      1: Step Time =    1.000,"PART-1-1",           146,      -11.7762,      -18.1315,            0.,NA,NA,"",   253.317E-03,  -210.197E-03,  -141.376E-03,   16.6416E-03
C:/temp/dataset/2/10_10.odb,Step-1,Increment      1: Step Time =    1.000,"PART-1-1",           147,      -12.2481,      -24.4184,            0.,NA,NA,"",   65.8433E-03,   11.5917E-03,  -64.8149E-03,   19.4394E-03
C:/temp/dataset/2/10_10.odb,Step-1,Increment      1: Step Time =    1.000,"PART-1-1",           148,       12.5340,       3.42208,            0.,NA,NA,"",       7.95327,      -5.27631,       5.95105,   192.820E-06
C:/temp/dataset/2/10_10.odb,Step-1,Increment      1: Step Time =    1.000,"PART-1-1",           149,       12.5428,   630.306E-03,            0.,NA,NA,"",       7.53184,      -4.44230,       6.08231,   676.121E-06
C:/temp/dataset/2/10_10.odb,Step-1,Increment      1: Step Time =    1.000,"PART-1-1",           150,       12.5001,       9.03097,            0.,NA,NA,"",       8.98458,      -6.96000,       5.68164,   230.760E-06
C:/temp/dataset/2/10_10.odb,Step-1,Increment      1: Step Time =    1.000,"PART-1-1",           151,       12.7192,       24.5718,            0.,NA,NA,"",       12.6857,      -11.6472,       5.02702,   475.053E-09
C:/temp/dataset/2/10_10.odb,Step-1,Increment      1: Step Time =    1.000,"PART-1-1",           152,       2.66783,      -27.4286,            0.,NA,NA,"",   21.5207E-03,  -20.9253E-03,   5.02733E-03,   6.17051E-03
C:/temp/dataset/2/10_10.odb,Step-1,Increment      1: Step Time =    1.000,"PART-1-1",           153,       8.86089,      -27.4494,            0.,NA,NA,"",   12.6097E-03,  -12.6036E-03,   392.628E-06,   3.15816E-03
C:/temp/dataset/2/10_10.odb,Step-1,Increment      1: Step Time =    1.000,"PART-1-1",           154,       5.76511,      -27.4328,            0.,NA,NA,"",   16.5985E-03,  -16.5472E-03,   1.30435E-03,   4.31223E-03
C:/temp/dataset/2/10_10.odb,Step-1,Increment      1: Step Time =    1.000,"PART-1-1",           155,  -414.647E-03,      -27.4330,            0.,NA,NA,"",   25.8183E-03,  -22.0142E-03,   13.4893E-03,   9.66273E-03
C:/temp/dataset/2/10_10.odb,Step-1,Increment      1: Step Time =    1.000,"PART-1-1",           156,      -3.42691,      -27.4460,            0.,NA,NA,"",   26.9971E-03,  -12.9328E-03,   23.6978E-03,   14.0765E-03
C:/temp/dataset/2/10_10.odb,Step-1,Increment      1: Step Time =    1.000,"PART-1-1",           157,      -6.36574,      -27.4272,            0.,NA,NA,"",   24.0262E-03,   6.62500E-03,   23.0948E-03,   14.2754E-03
C:/temp/dataset/2/10_10.odb,Step-1,Increment      1: Step Time =    1.000,"PART-1-1",           158,       10.5238,       25.0033,            0.,NA,NA,"",       12.4580,      -11.6752,       4.34636,   487.520E-09
C:/temp/dataset/2/10_10.odb,Step-1,Increment      1: Step Time =    1.000,"PART-1-1",           159,       6.26912,       22.1485,            0.,NA,NA,"",       11.0901,      -10.6189,       3.19834,   882.335E-09
C:/temp/dataset/2/10_10.odb,Step-1,Increment      1: Step Time =    1.000,"PART-1-1",           160,      -5.96402,      -2.70245,            0.,NA,NA,"",       2.81858,      -2.72569,   717.616E-03,   25.3356E-03
C:/temp/dataset/2/10_10.odb,Step-1,Increment      1: Step Time =    1.000,"PART-1-1",           161,      -12.5033,       22.4816,            0.,NA,NA,"",       10.1531,      -9.84900,      -2.46629,   1.82227E-09
C:/temp/dataset/2/10_10.odb,Step-1,Increment      1: Step Time =    1.000,"PART-1-1",           162,      -2.53325,       24.9024,            0.,NA,NA,"",       11.0477,      -11.0396,   421.782E-03,   8.89740E-09
C:/temp/dataset/2/10_10.odb,Step-1,Increment      1: Step Time =    1.000,"PART-1-1",           163,       4.43197,       24.4161,            0.,NA,NA,"",       11.5002,      -11.2161,       2.54037,   243.942E-09
C:/temp/dataset/2/10_10.odb,Step-1,Increment      1: Step Time =    1.000,"PART-1-1",           164,      -10.2797,      -8.84555,            0.,NA,NA,"",       1.35523,      -1.35267,  -83.3132E-03,   3.43778E-03
C:/temp/dataset/2/10_10.odb,Step-1,Increment      1: Step Time =    1.000,"PART-1-1",           165,       2.21534,  -332.134E-03,            0.,NA,NA,"",       4.74690,      -3.68939,       2.98688,   14.0075E-03
C:/temp/dataset/2/10_10.odb,Step-1,Increment      1: Step Time =    1.000,"PART-1-1",           166,  -74.2209E-03,       24.8536,            0.,NA,NA,"",       11.1996,      -11.1389,       1.16404,   12.3645E-09
C:/temp/dataset/2/10_10.odb,Step-1,Increment      1: Step Time =    1.000,"PART-1-1",           167,       2.30693,       24.7164,            0.,NA,NA,"",       11.3657,      -11.2080,       1.88696,   105.258E-09
C:/temp/dataset/2/10_10.odb,Step-1,Increment      1: Step Time =    1.000,"PART-1-1",           168,       9.79368,       13.9045,            0.,NA,NA,"",       9.51077,      -8.30146,       4.64118,   51.5007E-06
C:/temp/dataset/2/10_10.odb,Step-1,Increment      1: Step Time =    1.000,"PART-1-1",           169,       9.30777,       16.4521,            0.,NA,NA,"",       10.0488,      -9.04554,       4.37682,   11.2160E-06
C:/temp/dataset/2/10_10.odb,Step-1,Increment      1: Step Time =    1.000,"PART-1-1",           170,      -2.35985,       1.11806,            0.,NA,NA,"",       4.19054,      -3.87853,       1.58669,   13.0260E-03
C:/temp/dataset/2/10_10.odb,Step-1,Increment      1: Step Time =    1.000,"PART-1-1",           171,      -9.94133,      -13.9778,            0.,NA,NA,"",   609.924E-03,  -609.908E-03,  -4.40242E-03,   7.99520E-03
C:/temp/dataset/2/10_10.odb,Step-1,Increment      1: Step Time =    1.000,"PART-1-1",           172,       4.80988,   33.7751E-03,            0.,NA,NA,"",       5.43327,      -3.91580,       3.76655,   12.5191E-03
C:/temp/dataset/2/10_10.odb,Step-1,Increment      1: Step Time =    1.000,"PART-1-1",           173,       9.94126,       11.1894,            0.,NA,NA,"",       8.90342,      -7.49126,       4.81165,   148.446E-06
C:/temp/dataset/2/10_10.odb,Step-1,Increment      1: Step Time =    1.000,"PART-1-1",           174,       7.43598,   226.782E-03,            0.,NA,NA,"",       6.13030,      -4.09313,       4.56364,   7.85620E-03
C:/temp/dataset/2/10_10.odb,Step-1,Increment      1: Step Time =    1.000,"PART-1-1",           175,      -7.50368,       24.9336,            0.,NA,NA,"",       10.8719,      -10.8186,      -1.07542,   2.95047E-09
C:/temp/dataset/2/10_10.odb,Step-1,Increment      1: Step Time =    1.000,"PART-1-1",           176,      -10.1536,      -11.3797,            0.,NA,NA,"",   953.513E-03,  -952.680E-03,  -39.8553E-03,   5.76955E-03
C:/temp/dataset/2/10_10.odb,Step-1,Increment      1: Step Time =    1.000,"PART-1-1",           177,       6.92724,       24.6415,            0.,NA,NA,"",       11.8624,      -11.3996,       3.28083,   349.320E-09
C:/temp/dataset/2/10_10.odb,Step-1,Increment      1: Step Time =    1.000,"PART-1-1",           178,      -9.99868,       24.9580,            0.,NA,NA,"",       10.8651,      -10.7103,      -1.82737,   2.30724E-09
C:/temp/dataset/2/10_10.odb,Step-1,Increment      1: Step Time =    1.000,"PART-1-1",           179,       8.37028,       18.0705,            0.,NA,NA,"",       10.3054,      -9.48912,       4.01967,   3.92588E-06
C:/temp/dataset/2/10_10.odb,Step-1,Increment      1: Step Time =    1.000,"PART-1-1",           180,      -10.4068,      -6.54987,            0.,NA,NA,"",       1.77954,      -1.77352,  -146.276E-03,   9.64393E-03
C:/temp/dataset/2/10_10.odb,Step-1,Increment      1: Step Time =    1.000,"PART-1-1",           181,      -8.52723,      -17.8680,            0.,NA,NA,"",   252.107E-03,  -231.274E-03,   100.352E-03,   18.2236E-03
C:/temp/dataset/2/10_10.odb,Step-1,Increment      1: Step Time =    1.000,"PART-1-1",           182,       9.99063,       8.47585,            0.,NA,NA,"",       8.31338,      -6.67702,       4.95274,   324.544E-06
C:/temp/dataset/2/10_10.odb,Step-1,Increment      1: Step Time =    1.000,"PART-1-1",           183,      -6.87511,      -22.3968,            0.,NA,NA,"",   107.333E-03,  -30.2792E-03,   102.973E-03,   28.7140E-03
C:/temp/dataset/2/10_10.odb,Step-1,Increment      1: Step Time =    1.000,"PART-1-1",           184,       7.48189,       5.34092,            0.,NA,NA,"",       7.09994,      -5.61666,       4.34306,   1.07342E-03
C:/temp/dataset/2/10_10.odb,Step-1,Increment      1: Step Time =    1.000,"PART-1-1",           185,       10.0207,   425.902E-03,            0.,NA,NA,"",       6.83334,      -4.26796,       5.33658,   3.20787E-03
C:/temp/dataset/2/10_10.odb,Step-1,Increment      1: Step Time =    1.000,"PART-1-1",           186,      -8.86720,      -3.63325,            0.,NA,NA,"",       2.42522,      -2.42357,   89.4070E-03,   20.6881E-03
C:/temp/dataset/2/10_10.odb,Step-1,Increment      1: Step Time =    1.000,"PART-1-1",           187,       10.0155,       5.77118,            0.,NA,NA,"",       7.76287,      -5.86464,       5.08607,   351.980E-06
C:/temp/dataset/2/10_10.odb,Step-1,Increment      1: Step Time =    1.000,"PART-1-1",           188,       9.07540,       20.2179,            0.,NA,NA,"",       10.9756,      -10.1680,       4.13232,   989.602E-09
C:/temp/dataset/2/10_10.odb,Step-1,Increment      1: Step Time =    1.000,"PART-1-1",           189,       5.51479,      -24.9218,            0.,NA,NA,"",   26.8620E-03,  -26.8474E-03,   884.225E-06,   3.28245E-03
C:/temp/dataset/2/10_10.odb,Step-1,Increment      1: Step Time =    1.000,"PART-1-1",           190,       2.33502,      -24.9114,            0.,NA,NA,"",   35.3166E-03,  -34.0921E-03,   9.21932E-03,   5.27251E-03
C:/temp/dataset/2/10_10.odb,Step-1,Increment      1: Step Time =    1.000,"PART-1-1",           191,      -3.83494,      -24.9465,            0.,NA,NA,"",   64.9666E-03,  -29.9371E-03,   57.6578E-03,   19.7352E-03
C:/temp/dataset/2/10_10.odb,Step-1,Increment      1: Step Time =    1.000,"PART-1-1",           192,       8.68706,      -24.9229,            0.,NA,NA,"",   22.0081E-03,  -22.0031E-03,  -468.454E-06,   2.09010E-03
C:/temp/dataset/2/10_10.odb,Step-1,Increment      1: Step Time =    1.000,"PART-1-1",           193,  -793.545E-03,      -24.9263,            0.,NA,NA,"",   49.2871E-03,  -39.1182E-03,   29.9831E-03,   12.4322E-03
C:/temp/dataset/2/10_10.odb,Step-1,Increment      1: Step Time =    1.000,"PART-1-1",           194,      -10.0041,       22.4687,            0.,NA,NA,"",       10.1073,      -9.96097,      -1.71361,   1.78174E-09
C:/temp/dataset/2/10_10.odb,Step-1,Increment      1: Step Time =    1.000,"PART-1-1",           195,       7.76291,       22.5689,            0.,NA,NA,"",       11.4071,      -10.8147,       3.62838,   845.321E-09
C:/temp/dataset/2/10_10.odb,Step-1,Increment      1: Step Time =    1.000,"PART-1-1",           196,       10.0314,       3.09975,            0.,NA,NA,"",       7.26921,      -5.06459,       5.21454,   1.42374E-03
C:/temp/dataset/2/10_10.odb,Step-1,Increment      1: Step Time =    1.000,"PART-1-1",           197,       7.45157,       2.78517,            0.,NA,NA,"",       6.58160,      -4.84911,       4.45012,   4.51606E-03
C:/temp/dataset/2/10_10.odb,Step-1,Increment      1: Step Time =    1.000,"PART-1-1",           198,       1.23926,       2.17480,            0.,NA,NA,"",       5.06664,      -4.35258,       2.59343,   14.2775E-03
C:/temp/dataset/2/10_10.odb,Step-1,Increment      1: Step Time =    1.000,"PART-1-1",           199,       5.89388,       23.8379,            0.,NA,NA,"",       11.5097,      -11.1099,       3.00711,   419.528E-09
C:/temp/dataset/2/10_10.odb,Step-1,Increment      1: Step Time =    1.000,"PART-1-1",           200,       4.70825,       2.52712,            0.,NA,NA,"",       5.88612,      -4.63617,       3.62661,   10.4613E-03
C:/temp/dataset/2/10_10.odb,Step-1,Increment      1: Step Time =    1.000,"PART-1-1",           201,      -6.67563,      -24.8783,            0.,NA,NA,"",   58.1240E-03,  -2.06390E-03,   58.0874E-03,   20.4167E-03
C:/temp/dataset/2/10_10.odb,Step-1,Increment      1: Step Time =    1.000,"PART-1-1",           202,      -1.93740,       2.90022,            0.,NA,NA,"",       4.68561,      -4.38515,       1.65086,   17.5907E-03
C:/temp/dataset/2/10_10.odb,Step-1,Increment      1: Step Time =    1.000,"PART-1-1",           203,      -4.27328,      -22.5070,            0.,NA,NA,"",   111.695E-03,  -53.6435E-03,   97.9702E-03,   31.5844E-03
C:/temp/dataset/2/10_10.odb,Step-1,Increment      1: Step Time =    1.000,"PART-1-1",           204,      -7.29195,  -216.826E-03,            0.,NA,NA,"",       3.33567,      -3.31662,   355.998E-03,   19.7754E-03
C:/temp/dataset/2/10_10.odb,Step-1,Increment      1: Step Time =    1.000,"PART-1-1",           205,      -4.39370,   432.763E-03,            0.,NA,NA,"",       3.75211,      -3.60107,       1.05387,   15.0542E-03
C:/temp/dataset/2/10_10.odb,Step-1,Increment      1: Step Time =    1.000,"PART-1-1",           206,      -1.20581,      -22.4416,            0.,NA,NA,"",   59.3948E-03,  -46.6291E-03,   36.7896E-03,   15.9256E-03
C:/temp/dataset/2/10_10.odb,Step-1,Increment      1: Step Time =    1.000,"PART-1-1",           207,      -4.88725,       2.78210,            0.,NA,NA,"",       4.28716,      -4.19844,   867.696E-03,   17.7894E-03
C:/temp/dataset/2/10_10.odb,Step-1,Increment      1: Step Time =    1.000,"PART-1-1",           208,      -8.02678,       2.39768,            0.,NA,NA,"",       3.96186,      -3.96003,   120.393E-03,   19.7970E-03
C:/temp/dataset/2/10_10.odb,Step-1,Increment      1: Step Time =    1.000,"PART-1-1",           209,       8.51144,      -22.4401,            0.,NA,NA,"",   27.2461E-03,  -27.1980E-03,  -1.61721E-03,   1.03155E-03
C:/temp/dataset/2/10_10.odb,Step-1,Increment      1: Step Time =    1.000,"PART-1-1",           210,       5.25488,      -22.4306,            0.,NA,NA,"",   30.6106E-03,  -30.6039E-03,  -644.159E-06,   1.89909E-03
C:/temp/dataset/2/10_10.odb,Step-1,Increment      1: Step Time =    1.000,"PART-1-1",           211,       2.00226,      -22.4217,            0.,NA,NA,"",   39.0245E-03,  -37.9235E-03,   9.20429E-03,   5.07864E-03
C:/temp/dataset/2/10_10.odb,Step-1,Increment      1: Step Time =    1.000,"PART-1-1",           212,      -9.28570,      -27.3600,            0.,NA,NA,"",   23.1939E-03,   22.8715E-03,   3.85415E-03,   9.02614E-03
C:/temp/dataset/2/10_10.odb,Step-1,Increment      1: Step Time =    1.000,"PART-1-1",           213,       11.7596,      -22.4488,            0.,NA,NA,"",   25.6934E-03,  -25.6443E-03,   1.58781E-03,   307.683E-06
C:/temp/dataset/2/10_10.odb,Step-1,Increment      1: Step Time =    1.000,"PART-1-1",           214,      -12.4952,       27.4851,            0.,NA,NA,"",       11.6707,      -11.3551,      -2.69580,   2.18698E-09
C:/temp/dataset/2/10_10.odb,Step-1,Increment      1: Step Time =    1.000,"PART-1-1",           215,      -12.1608,      -27.2494,            0.,NA,NA,"",   33.9390E-03,   19.8189E-03,  -27.5513E-03,   16.2917E-03
C:/temp/dataset/2/10_10.odb,Step-1,Increment      1: Step Time =    1.000,"PART-1-1",           216,      -6.92277,      -20.0189,            0.,NA,NA,"",   183.048E-03,  -98.1990E-03,   154.479E-03,   25.8415E-03
C:/temp/dataset/2/10_10.odb,Step-1,Increment      1: Step Time =    1.000,"PART-1-1",           217,       10.3403,       22.5364,            0.,NA,NA,"",       11.7792,      -10.9244,       4.40549,   772.729E-09
C:/temp/dataset/2/10_10.odb,Step-1,Increment      1: Step Time =    1.000,"PART-1-1",           218,      -9.38591,      -16.3373,            0.,NA,NA,"",   362.905E-03,  -360.011E-03,   45.7427E-03,   11.8876E-03
C:/temp/dataset/2/10_10.odb,Step-1,Increment      1: Step Time =    1.000,"PART-1-1",           219,      -9.56004,      -22.0160,            0.,NA,NA,"",   27.3175E-03,  -21.8735E-03,   16.3645E-03,   13.4318E-03
C:/temp/dataset/2/10_10.odb,Step-1,Increment      1: Step Time =    1.000,"PART-1-1",           220,      -9.49058,      -24.6874,            0.,NA,NA,"",   20.2246E-03,   17.7692E-03,   9.65862E-03,   12.8260E-03
C:/temp/dataset/2/10_10.odb,Step-1,Increment      1: Step Time =    1.000,"PART-1-1",           221,  -968.003E-03,   33.9082E-03,            0.,NA,NA,"",       4.17027,      -3.64782,       2.02104,   12.1327E-03
C:/temp/dataset/2/10_10.odb,Step-1,Increment      1: Step Time =    1.000,"PART-1-1",           222,   333.674E-03,      -1.00763,            0.,NA,NA,"",       4.20178,      -3.41643,       2.44602,   14.0299E-03
C:/temp/dataset/2/10_10.odb,Step-1,Increment      1: Step Time =    1.000,"PART-1-1",           223,      -10.5623,      -4.72446,            0.,NA,NA,"",       2.16214,      -2.15039,  -225.067E-03,   16.8373E-03
C:/temp/dataset/2/10_10.odb,Step-1,Increment      1: Step Time =    1.000,"PART-1-1",           224,      -5.01319,       24.9269,            0.,NA,NA,"",       10.9369,      -10.9321,  -325.644E-03,   5.14113E-09
C:/temp/dataset/2/10_10.odb,Step-1,Increment      1: Step Time =    1.000,"PART-1-1",           225,      -9.24174,      -19.5473,            0.,NA,NA,"",   123.441E-03,  -116.660E-03,   40.3515E-03,   9.82274E-03
C:/temp/dataset/2/10_10.odb,Step-1,Increment      1: Step Time =    1.000,"PART-1-1",           226,       8.53639,       25.1316,            0.,NA,NA,"",       12.2094,      -11.6217,       3.74235,   345.349E-09
C:/temp/dataset/2/10_10.odb,Step-1,Increment      1: Step Time =    1.000,"PART-1-1",           227,       8.85572,       23.3093,            0.,NA,NA,"",       11.7616,      -11.0881,       3.92292,   710.819E-09
C:/temp/dataset/2/10_10.odb,Step-1,Increment      1: Step Time =    1.000,"PART-1-1",           228,      -13.7516,       22.4908,            0.,NA,NA,"",       10.1980,      -9.79389,      -2.84239,   2.12851E-09
C:/temp/dataset/2/10_10.odb,Step-1,Increment      1: Step Time =    1.000,"PART-1-1",           229,          -15.,         21.25,            0.,NA,NA,"",       9.88169,      -9.36263,      -3.16054,   2.24472E-09
C:/temp/dataset/2/10_10.odb,Step-1,Increment      1: Step Time =    1.000,"PART-1-1",           230,        -13.75,           20.,            0.,NA,NA,"",       9.44641,      -9.04441,      -2.72644,   1.68115E-09
C:/temp/dataset/2/10_10.odb,Step-1,Increment      1: Step Time =    1.000,"PART-1-1",           231,      -12.5016,       21.2408,            0.,NA,NA,"",       9.77692,      -9.47567,      -2.40828,   1.53046E-09
C:/temp/dataset/2/10_10.odb,Step-1,Increment      1: Step Time =    1.000,"PART-1-1",           232,      -9.99605,       28.7334,            0.,NA,NA,"",       12.0145,      -11.8466,      -2.00159,   2.83981E-09
C:/temp/dataset/2/10_10.odb,Step-1,Increment      1: Step Time =    1.000,"PART-1-1",           233,        -11.25,           30.,            0.,NA,NA,"",       12.4113,      -12.1696,      -2.43765,   2.88480E-09
C:/temp/dataset/2/10_10.odb,Step-1,Increment      1: Step Time =    1.000,"PART-1-1",           234,      -12.4976,       28.7426,            0.,NA,NA,"",       12.0524,      -11.7334,      -2.75480,   2.28747E-09
C:/temp/dataset/2/10_10.odb,Step-1,Increment      1: Step Time =    1.000,"PART-1-1",           235,      -11.2437,       27.4760,            0.,NA,NA,"",       11.6436,      -11.4103,      -2.31874,   2.42368E-09
C:/temp/dataset/2/10_10.odb,Step-1,Increment      1: Step Time =    1.000,"PART-1-1",           236,      -8.74541,       27.4572,            0.,NA,NA,"",       11.6264,      -11.5205,      -1.56607,   3.11384E-09
C:/temp/dataset/2/10_10.odb,Step-1,Increment      1: Step Time =    1.000,"PART-1-1",           237,      -7.49936,       28.7238,            0.,NA,NA,"",       12.0245,      -11.9594,      -1.24981,   3.88759E-09
C:/temp/dataset/2/10_10.odb,Step-1,Increment      1: Step Time =    1.000,"PART-1-1",           238,         -8.75,           30.,            0.,NA,NA,"",       12.4005,      -12.2855,      -1.68532,   4.00609E-09
C:/temp/dataset/2/10_10.odb,Step-1,Increment      1: Step Time =    1.000,"PART-1-1",           239,      -10.0020,       21.2344,            0.,NA,NA,"",       9.73150,      -9.58960,      -1.65578,   1.65671E-09
C:/temp/dataset/2/10_10.odb,Step-1,Increment      1: Step Time =    1.000,"PART-1-1",           240,      -11.2537,       22.4752,            0.,NA,NA,"",       10.1231,      -9.90498,      -2.08995,   1.74166E-09
C:/temp/dataset/2/10_10.odb,Step-1,Increment      1: Step Time =    1.000,"PART-1-1",           241,        -11.25,           20.,            0.,NA,NA,"",       9.37059,      -9.16029,      -1.97411,   1.70290E-09
C:/temp/dataset/2/10_10.odb,Step-1,Increment      1: Step Time =    1.000,"PART-1-1",           242,      -6.25410,       27.4469,            0.,NA,NA,"",       11.6614,      -11.6329,  -815.881E-03,   4.49422E-09
C:/temp/dataset/2/10_10.odb,Step-1,Increment      1: Step Time =    1.000,"PART-1-1",           243,      -7.50120,       26.1906,            0.,NA,NA,"",       11.2542,      -11.1970,      -1.13294,   3.01517E-09
C:/temp/dataset/2/10_10.odb,Step-1,Increment      1: Step Time =    1.000,"PART-1-1",           244,      -6.25844,       24.9303,            0.,NA,NA,"",       10.8979,      -10.8753,  -700.532E-03,   3.83982E-09
C:/temp/dataset/2/10_10.odb,Step-1,Increment      1: Step Time =    1.000,"PART-1-1",           245,      -5.01133,       26.1865,            0.,NA,NA,"",       11.3177,      -11.3112,  -383.475E-03,   4.46632E-09
C:/temp/dataset/2/10_10.odb,Step-1,Increment      1: Step Time =    1.000,"PART-1-1",           246,       1.11906,       22.3143,            0.,NA,NA,"",       10.5584,      -10.4301,       1.64084,   58.4796E-09
C:/temp/dataset/2/10_10.odb,Step-1,Increment      1: Step Time =    1.000,"PART-1-1",           247,  -37.5712E-03,       21.1808,            0.,NA,NA,"",       10.1251,      -10.0354,       1.34532,   18.3541E-09
C:/temp/dataset/2/10_10.odb,Step-1,Increment      1: Step Time =    1.000,"PART-1-1",           248,          1.25,           20.,            0.,NA,NA,"",       9.90239,      -9.73972,       1.78752,   47.2253E-09
C:/temp/dataset/2/10_10.odb,Step-1,Increment      1: Step Time =    1.000,"PART-1-1",           249,       2.40663,       21.1336,            0.,NA,NA,"",       10.3463,      -10.1345,       2.08304,   132.511E-09
C:/temp/dataset/2/10_10.odb,Step-1,Increment      1: Step Time =    1.000,"PART-1-1",           250,  -46.9838E-03,       26.1228,            0.,NA,NA,"",       11.5758,      -11.5221,       1.11341,   11.1123E-09
C:/temp/dataset/2/10_10.odb,Step-1,Increment      1: Step Time =    1.000,"PART-1-1",           251,       1.11635,       24.7850,            0.,NA,NA,"",       11.2771,      -11.1735,       1.52550,   48.8438E-09
C:/temp/dataset/2/10_10.odb,Step-1,Increment      1: Step Time =    1.000,"PART-1-1",           252,       2.41618,       25.9912,            0.,NA,NA,"",       11.7450,      -11.5967,       1.86075,   73.0310E-09
C:/temp/dataset/2/10_10.odb,Step-1,Increment      1: Step Time =    1.000,"PART-1-1",           253,       1.25284,       27.3289,            0.,NA,NA,"",       12.0329,      -11.9454,       1.44865,   33.5289E-09
C:/temp/dataset/2/10_10.odb,Step-1,Increment      1: Step Time =    1.000,"PART-1-1",           254,       11.4216,       22.1022,            0.,NA,NA,"",       11.8389,      -10.8438,       4.75101,   762.876E-09
C:/temp/dataset/2/10_10.odb,Step-1,Increment      1: Step Time =    1.000,"PART-1-1",           255,       9.70783,       21.3771,            0.,NA,NA,"",       11.3774,      -10.5462,       4.26891,   843.177E-09
C:/temp/dataset/2/10_10.odb,Step-1,Increment      1: Step Time =    1.000,"PART-1-1",           256,       10.3968,       19.2167,            0.,NA,NA,"",       10.9320,      -9.92798,       4.57638,   1.73701E-06
C:/temp/dataset/2/10_10.odb,Step-1,Increment      1: Step Time =    1.000,"PART-1-1",           257,       12.1105,       19.9418,            0.,NA,NA,"",       11.4084,      -10.2256,       5.05849,   934.528E-09
C:/temp/dataset/2/10_10.odb,Step-1,Increment      1: Step Time =    1.000,"PART-1-1",           258,       11.6215,       24.7876,            0.,NA,NA,"",       12.5678,      -11.6612,       4.68669,   427.811E-09
C:/temp/dataset/2/10_10.odb,Step-1,Increment      1: Step Time =    1.000,"PART-1-1",           259,       12.6971,       25.9410,            0.,NA,NA,"",       13.0373,      -12.0582,       4.95691,   342.773E-09
C:/temp/dataset/2/10_10.odb,Step-1,Increment      1: Step Time =    1.000,"PART-1-1",           260,       11.4859,       27.3886,            0.,NA,NA,"",       13.2353,      -12.4376,       4.52532,   200.833E-09
C:/temp/dataset/2/10_10.odb,Step-1,Increment      1: Step Time =    1.000,"PART-1-1",           261,       10.4103,       26.2351,            0.,NA,NA,"",       12.7704,      -12.0407,       4.25510,   325.798E-09
C:/temp/dataset/2/10_10.odb,Step-1,Increment      1: Step Time =    1.000,"PART-1-1",           262,       5.88041,       17.6377,            0.,NA,NA,"",       9.81169,      -9.24349,       3.29046,   2.04957E-06
C:/temp/dataset/2/10_10.odb,Step-1,Increment      1: Step Time =    1.000,"PART-1-1",           263,       6.75071,       18.9160,            0.,NA,NA,"",       10.2801,      -9.66848,       3.49310,   1.00640E-06
C:/temp/dataset/2/10_10.odb,Step-1,Increment      1: Step Time =    1.000,"PART-1-1",           264,       5.87030,       20.0282,            0.,NA,NA,"",       10.4566,      -9.96238,       3.17661,   1.15534E-06
C:/temp/dataset/2/10_10.odb,Step-1,Increment      1: Step Time =    1.000,"PART-1-1",           265,            5.,         18.75,            0.,NA,NA,"",       9.99030,      -9.53738,       2.97396,   3.16139E-06
C:/temp/dataset/2/10_10.odb,Step-1,Increment      1: Step Time =    1.000,"PART-1-1",           266,       12.3690,       13.3305,            0.,NA,NA,"",       9.88194,      -8.24797,       5.44277,   61.5876E-06
C:/temp/dataset/2/10_10.odb,Step-1,Increment      1: Step Time =    1.000,"PART-1-1",           267,       13.7195,       12.1790,            0.,NA,NA,"",       9.91286,      -7.96398,       5.90252,   56.7751E-06
C:/temp/dataset/2/10_10.odb,Step-1,Increment      1: Step Time =    1.000,"PART-1-1",           268,           15.,       13.9583,            0.,NA,NA,"",       10.5717,      -8.55889,       6.20540,   27.9530E-06
C:/temp/dataset/2/10_10.odb,Step-1,Increment      1: Step Time =    1.000,"PART-1-1",           269,       13.6495,       15.1098,            0.,NA,NA,"",       10.5455,      -8.84282,       5.74560,   12.4163E-06
C:/temp/dataset/2/10_10.odb,Step-1,Increment      1: Step Time =    1.000,"PART-1-1",           270,       12.5214,       4.81657,            0.,NA,NA,"",       8.18721,      -5.69389,       5.88302,   120.648E-06
C:/temp/dataset/2/10_10.odb,Step-1,Increment      1: Step Time =    1.000,"PART-1-1",           271,       13.7670,       3.58604,            0.,NA,NA,"",       8.29595,      -5.38221,       6.31305,   305.702E-06
C:/temp/dataset/2/10_10.odb,Step-1,Increment      1: Step Time =    1.000,"PART-1-1",           272,           15.,       5.20833,            0.,NA,NA,"",       8.87663,      -5.92613,       6.60875,   643.279E-06
C:/temp/dataset/2/10_10.odb,Step-1,Increment      1: Step Time =    1.000,"PART-1-1",           273,       13.7545,       6.43886,            0.,NA,NA,"",       8.77999,      -6.23824,       6.17841,   301.227E-06
C:/temp/dataset/2/10_10.odb,Step-1,Increment      1: Step Time =    1.000,"PART-1-1",           274,       13.7625,      -2.13133,            0.,NA,NA,"",       7.52936,      -3.67563,       6.57122,   378.796E-06
C:/temp/dataset/2/10_10.odb,Step-1,Increment      1: Step Time =    1.000,"PART-1-1",           275,       12.5125,      -3.58966,            0.,NA,NA,"",       7.02985,      -3.18736,       6.26575,   883.220E-06
C:/temp/dataset/2/10_10.odb,Step-1,Increment      1: Step Time =    1.000,"PART-1-1",           276,         13.75,           -5.,            0.,NA,NA,"",       7.26781,      -2.82504,       6.69628,   267.520E-06
C:/temp/dataset/2/10_10.odb,Step-1,Increment      1: Step Time =    1.000,"PART-1-1",           277,           15.,      -3.54167,            0.,NA,NA,"",       7.74596,      -3.31335,       7.00155,   387.282E-06
C:/temp/dataset/2/10_10.odb,Step-1,Increment      1: Step Time =    1.000,"PART-1-1",           278,      -9.21387,      -6.21191,            0.,NA,NA,"",       1.86100,      -1.85964,   70.9972E-03,   9.66799E-03
C:/temp/dataset/2/10_10.odb,Step-1,Increment      1: Step Time =    1.000,"PART-1-1",           279,      -8.44405,      -4.75360,            0.,NA,NA,"",       2.18593,      -2.17647,   203.141E-03,   16.2445E-03
C:/temp/dataset/2/10_10.odb,Step-1,Increment      1: Step Time =    1.000,"PART-1-1",           280,      -9.71477,      -4.17886,            0.,NA,NA,"",       2.28530,      -2.28421,  -70.6766E-03,   17.8800E-03
C:/temp/dataset/2/10_10.odb,Step-1,Increment      1: Step Time =    1.000,"PART-1-1",           281,      -10.4846,      -5.63717,            0.,NA,NA,"",       1.96651,      -1.95789,  -183.921E-03,   13.3107E-03
C:/temp/dataset/2/10_10.odb,Step-1,Increment      1: Step Time =    1.000,"PART-1-1",           282,      -5.84282,   107.969E-03,            0.,NA,NA,"",       3.52334,      -3.45416,   694.768E-03,   15.2103E-03
C:/temp/dataset/2/10_10.odb,Step-1,Increment      1: Step Time =    1.000,"PART-1-1",           283,      -4.64047,       1.60743,            0.,NA,NA,"",       4.01698,      -3.90047,   960.471E-03,   15.2153E-03
C:/temp/dataset/2/10_10.odb,Step-1,Increment      1: Step Time =    1.000,"PART-1-1",           284,      -6.45702,       2.58989,            0.,NA,NA,"",       4.10351,      -4.07480,   484.538E-03,   17.5771E-03
C:/temp/dataset/2/10_10.odb,Step-1,Increment      1: Step Time =    1.000,"PART-1-1",           285,      -7.65937,       1.09043,            0.,NA,NA,"",       3.64783,      -3.64003,   238.452E-03,   18.8578E-03
C:/temp/dataset/2/10_10.odb,Step-1,Increment      1: Step Time =    1.000,"PART-1-1",           286,      -6.51044,      -5.43697,            0.,NA,NA,"",       2.15040,      -2.06133,   612.486E-03,   40.1983E-03
C:/temp/dataset/2/10_10.odb,Step-1,Increment      1: Step Time =    1.000,"PART-1-1",           287,      -5.48201,      -3.85122,            0.,NA,NA,"",       2.59225,      -2.45023,   846.237E-03,   39.1178E-03
C:/temp/dataset/2/10_10.odb,Step-1,Increment      1: Step Time =    1.000,"PART-1-1",           288,      -7.41561,      -3.16785,            0.,NA,NA,"",       2.59463,      -2.56503,   390.804E-03,   21.8874E-03
C:/temp/dataset/2/10_10.odb,Step-1,Increment      1: Step Time =    1.000,"PART-1-1",           289,      -12.6742,      -10.6472,            0.,NA,NA,"",       1.12665,      -1.04380,  -424.048E-03,   23.6159E-03
C:/temp/dataset/2/10_10.odb,Step-1,Increment      1: Step Time =    1.000,"PART-1-1",           290,      -11.3911,      -11.6978,            0.,NA,NA,"",   919.599E-03,  -895.271E-03,  -210.123E-03,   9.41502E-03
C:/temp/dataset/2/10_10.odb,Step-1,Increment      1: Step Time =    1.000,"PART-1-1",           291,      -10.2167,      -10.1126,            0.,NA,NA,"",       1.14677,      -1.14523,  -59.4534E-03,   4.66352E-03
C:/temp/dataset/2/10_10.odb,Step-1,Increment      1: Step Time =    1.000,"PART-1-1",           292,      -11.4997,      -9.06207,            0.,NA,NA,"",       1.33280,      -1.30260,  -282.151E-03,   11.5566E-03
C:/temp/dataset/2/10_10.odb,Step-1,Increment      1: Step Time =    1.000,"PART-1-1",           293,      -13.7107,      -15.1438,            0.,NA,NA,"",   625.133E-03,  -481.865E-03,  -398.242E-03,   37.4022E-03
C:/temp/dataset/2/10_10.odb,Step-1,Increment      1: Step Time =    1.000,"PART-1-1",           294,      -12.5249,      -13.4434,            0.,NA,NA,"",   736.212E-03,  -663.534E-03,  -318.951E-03,   22.5295E-03
C:/temp/dataset/2/10_10.odb,Step-1,Increment      1: Step Time =    1.000,"PART-1-1",           295,      -13.8143,      -12.2579,            0.,NA,NA,"",   975.625E-03,  -820.123E-03,  -528.435E-03,   37.6619E-03
C:/temp/dataset/2/10_10.odb,Step-1,Increment      1: Step Time =    1.000,"PART-1-1",           296,          -15.,      -13.9583,            0.,NA,NA,"",   867.569E-03,  -627.224E-03,  -599.387E-03,   52.5901E-03
C:/temp/dataset/2/10_10.odb,Step-1,Increment      1: Step Time =    1.000,"PART-1-1",           297,      -12.0988,      -16.5012,            0.,NA,NA,"",   394.629E-03,  -340.565E-03,  -199.369E-03,   18.8905E-03
C:/temp/dataset/2/10_10.odb,Step-1,Increment      1: Step Time =    1.000,"PART-1-1",           298,      -10.5811,      -17.2344,            0.,NA,NA,"",   281.311E-03,  -275.412E-03,  -57.3081E-03,   3.03019E-03
C:/temp/dataset/2/10_10.odb,Step-1,Increment      1: Step Time =    1.000,"PART-1-1",           299,      -9.66362,      -15.1575,            0.,NA,NA,"",   478.918E-03,  -478.312E-03,   24.0884E-03,   9.94180E-03
C:/temp/dataset/2/10_10.odb,Step-1,Increment      1: Step Time =    1.000,"PART-1-1",           300,      -11.1813,      -14.4243,            0.,NA,NA,"",   567.486E-03,  -549.485E-03,  -141.798E-03,   7.36848E-03
C:/temp/dataset/2/10_10.odb,Step-1,Increment      1: Step Time =    1.000,"PART-1-1",           301,      -10.5090,      -18.8394,            0.,NA,NA,"",   164.290E-03,  -158.849E-03,  -41.9309E-03,   7.09508E-03
C:/temp/dataset/2/10_10.odb,Step-1,Increment      1: Step Time =    1.000,"PART-1-1",           302,      -8.88448,      -18.7076,            0.,NA,NA,"",   182.115E-03,  -168.708E-03,   68.5815E-03,   12.0827E-03
C:/temp/dataset/2/10_10.odb,Step-1,Increment      1: Step Time =    1.000,"PART-1-1",           303,      -8.95657,      -17.1026,            0.,NA,NA,"",   303.525E-03,  -293.690E-03,   76.6383E-03,   15.6698E-03
C:/temp/dataset/2/10_10.odb,Step-1,Increment      1: Step Time =    1.000,"PART-1-1",           304,      -8.08225,      -19.7831,            0.,NA,NA,"",   149.564E-03,  -106.975E-03,   104.526E-03,   16.6485E-03
C:/temp/dataset/2/10_10.odb,Step-1,Increment      1: Step Time =    1.000,"PART-1-1",           305,      -6.89084,      -18.8787,            0.,NA,NA,"",   247.041E-03,  -165.656E-03,   183.269E-03,   33.8263E-03
C:/temp/dataset/2/10_10.odb,Step-1,Increment      1: Step Time =    1.000,"PART-1-1",           306,      -7.69307,      -17.8032,            0.,NA,NA,"",   294.512E-03,  -246.281E-03,   161.502E-03,   32.3759E-03
C:/temp/dataset/2/10_10.odb,Step-1,Increment      1: Step Time =    1.000,"PART-1-1",           307,       7.10093,      -24.9223,            0.,NA,NA,"",   24.1053E-03,  -24.1019E-03,  -408.221E-06,   2.72558E-03
C:/temp/dataset/2/10_10.odb,Step-1,Increment      1: Step Time =    1.000,"PART-1-1",           308,       8.59925,      -23.6815,            0.,NA,NA,"",   25.0387E-03,  -25.0146E-03,  -1.09870E-03,   1.54745E-03
C:/temp/dataset/2/10_10.odb,Step-1,Increment      1: Step Time =    1.000,"PART-1-1",           309,       6.88316,      -22.4353,            0.,NA,NA,"",   28.6716E-03,  -28.6172E-03,  -1.76574E-03,   1.42137E-03
C:/temp/dataset/2/10_10.odb,Step-1,Increment      1: Step Time =    1.000,"PART-1-1",           310,       5.38484,      -23.6762,            0.,NA,NA,"",   29.6620E-03,  -29.6614E-03,   184.608E-06,   2.52380E-03
C:/temp/dataset/2/10_10.odb,Step-1,Increment      1: Step Time =    1.000,"PART-1-1",           311,       13.3798,      -22.4744,            0.,NA,NA,"",   25.7986E-03,  -25.4211E-03,   4.39686E-03,   105.622E-06
C:/temp/dataset/2/10_10.odb,Step-1,Increment      1: Step Time =    1.000,"PART-1-1",           312,           15.,        -21.25,            0.,NA,NA,"",   28.6919E-03,  -27.6969E-03,   7.49060E-03,   69.0965E-06
C:/temp/dataset/2/10_10.odb,Step-1,Increment      1: Step Time =    1.000,"PART-1-1",           313,       13.3333,          -20.,            0.,NA,NA,"",   30.2532E-03,  -29.9400E-03,   4.34226E-03,   95.3229E-06
C:/temp/dataset/2/10_10.odb,Step-1,Increment      1: Step Time =    1.000,"PART-1-1",           314,       11.7131,      -21.2244,            0.,NA,NA,"",   27.8394E-03,  -27.7984E-03,   1.50913E-03,   82.2412E-06
C:/temp/dataset/2/10_10.odb,Step-1,Increment      1: Step Time =    1.000,"PART-1-1",           315,      -2.14863,       2.00914,            0.,NA,NA,"",       4.43599,      -4.13002,       1.61894,   14.8330E-03
C:/temp/dataset/2/10_10.odb,Step-1,Increment      1: Step Time =    1.000,"PART-1-1",           316,      -1.66393,   575.985E-03,            0.,NA,NA,"",       4.17358,      -3.76427,       1.80249,   12.2752E-03
C:/temp/dataset/2/10_10.odb,Step-1,Increment      1: Step Time =    1.000,"PART-1-1",           317,   135.628E-03,       1.10435,            0.,NA,NA,"",       4.61306,      -3.99540,       2.30587,   12.9136E-03
C:/temp/dataset/2/10_10.odb,Step-1,Increment      1: Step Time =    1.000,"PART-1-1",           318,  -349.073E-03,       2.53751,            0.,NA,NA,"",       4.85481,      -4.37042,       2.11392,   15.2265E-03
C:/temp/dataset/2/10_10.odb,Step-1,Increment      1: Step Time =    1.000,"PART-1-1",           319,   156.145E-03,      -1.87787,            0.,NA,NA,"",       3.99082,      -3.16605,       2.42955,   15.3401E-03
C:/temp/dataset/2/10_10.odb,Step-1,Increment      1: Step Time =    1.000,"PART-1-1",           320,       1.21010,      -2.70880,            0.,NA,NA,"",       4.07233,      -2.96994,       2.78627,   13.7778E-03
C:/temp/dataset/2/10_10.odb,Step-1,Increment      1: Step Time =    1.000,"PART-1-1",           321,       2.32846,      -1.50081,            0.,NA,NA,"",       4.55399,      -3.36153,       3.07228,   12.6507E-03
C:/temp/dataset/2/10_10.odb,Step-1,Increment      1: Step Time =    1.000,"PART-1-1",           322,       1.27451,  -669.883E-03,            0.,NA,NA,"",       4.47098,      -3.55188,       2.71548,   13.8679E-03
C:/temp/dataset/2/10_10.odb,Step-1,Increment      1: Step Time =    1.000,"PART-1-1",           323,       4.87500,      -1.23074,            0.,NA,NA,"",       5.23513,      -3.55238,       3.84541,   12.7237E-03
C:/temp/dataset/2/10_10.odb,Step-1,Increment      1: Step Time =    1.000,"PART-1-1",           324,       6.20088,      -2.43579,            0.,NA,NA,"",       5.40842,      -3.25894,       4.31629,   13.1443E-03
C:/temp/dataset/2/10_10.odb,Step-1,Increment      1: Step Time =    1.000,"PART-1-1",           325,       7.44880,      -1.07477,            0.,NA,NA,"",       5.93513,      -3.71170,       4.63131,   9.23986E-03
C:/temp/dataset/2/10_10.odb,Step-1,Increment      1: Step Time =    1.000,"PART-1-1",           326,       6.12293,   130.279E-03,            0.,NA,NA,"",       5.77889,      -4.00486,       4.16614,   10.1630E-03
C:/temp/dataset/2/10_10.odb,Step-1,Increment      1: Step Time =    1.000,"PART-1-1",           327,          8.75,           -5.,            0.,NA,NA,"",       5.84572,      -2.61008,       5.23068,   8.37047E-03
C:/temp/dataset/2/10_10.odb,Step-1,Increment      1: Step Time =    1.000,"PART-1-1",           328,       10.0063,      -3.63741,            0.,NA,NA,"",       6.32164,      -3.06207,       5.53054,   5.36085E-03
C:/temp/dataset/2/10_10.odb,Step-1,Increment      1: Step Time =    1.000,"PART-1-1",           329,       8.73716,      -2.32557,            0.,NA,NA,"",       6.11653,      -3.39785,       5.08592,   8.16564E-03
C:/temp/dataset/2/10_10.odb,Step-1,Increment      1: Step Time =    1.000,"PART-1-1",           330,       7.48081,      -3.68816,            0.,NA,NA,"",       5.61177,      -2.94331,       4.77797,   10.7803E-03
C:/temp/dataset/2/10_10.odb,Step-1,Increment      1: Step Time =    1.000,"PART-1-1",           331,       6.24109,       7.72904,            0.,NA,NA,"",       7.36877,      -6.27827,       3.85772,   656.214E-06
C:/temp/dataset/2/10_10.odb,Step-1,Increment      1: Step Time =    1.000,"PART-1-1",           332,            5.,          6.25,            0.,NA,NA,"",       6.77850,      -5.77400,       3.55092,   1.56029E-03
C:/temp/dataset/2/10_10.odb,Step-1,Increment      1: Step Time =    1.000,"PART-1-1",           333,       6.24095,       5.17046,            0.,NA,NA,"",       6.79155,      -5.50544,       3.97683,   2.64994E-03
C:/temp/dataset/2/10_10.odb,Step-1,Increment      1: Step Time =    1.000,"PART-1-1",           334,       7.48203,       6.64950,            0.,NA,NA,"",       7.38030,      -6.01077,       4.28247,   519.046E-06
C:/temp/dataset/2/10_10.odb,Step-1,Increment      1: Step Time =    1.000,"PART-1-1",           335,       7.34508,       23.6052,            0.,NA,NA,"",       11.6320,      -11.1072,       3.45460,   580.815E-09
C:/temp/dataset/2/10_10.odb,Step-1,Increment      1: Step Time =    1.000,"PART-1-1",           336,       6.41056,       24.2397,            0.,NA,NA,"",       11.6857,      -11.2548,       3.14397,   371.953E-09
C:/temp/dataset/2/10_10.odb,Step-1,Increment      1: Step Time =    1.000,"PART-1-1",           337,       6.08150,       22.9932,            0.,NA,NA,"",       11.2988,      -10.8644,       3.10272,   559.435E-09
C:/temp/dataset/2/10_10.odb,Step-1,Increment      1: Step Time =    1.000,"PART-1-1",           338,       7.01602,       22.3587,            0.,NA,NA,"",       11.2473,      -10.7168,       3.41336,   796.559E-09
C:/temp/dataset/2/10_10.odb,Step-1,Increment      1: Step Time =    1.000,"PART-1-1",           339,      -12.5005,       23.7291,            0.,NA,NA,"",       10.5313,      -10.2245,      -2.52329,   2.04793E-09
C:/temp/dataset/2/10_10.odb,Step-1,Increment      1: Step Time =    1.000,"PART-1-1",           340,      -13.7489,       24.9883,            0.,NA,NA,"",       10.9524,      -10.5456,      -2.95733,   2.07584E-09
C:/temp/dataset/2/10_10.odb,Step-1,Increment      1: Step Time =    1.000,"PART-1-1",           341,          -15.,         23.75,            0.,NA,NA,"",       10.6324,      -10.1150,      -3.27643,   2.08648E-09
C:/temp/dataset/2/10_10.odb,Step-1,Increment      1: Step Time =    1.000,"PART-1-1",           342,      -2.52491,       26.1674,            0.,NA,NA,"",       11.4265,      -11.4207,   365.653E-03,   6.05926E-09
C:/temp/dataset/2/10_10.odb,Step-1,Increment      1: Step Time =    1.000,"PART-1-1",           343,      -1.30373,       24.8780,            0.,NA,NA,"",       11.1176,      -11.0893,   792.912E-03,   5.82415E-09
C:/temp/dataset/2/10_10.odb,Step-1,Increment      1: Step Time =    1.000,"PART-1-1",           344,      -1.26817,       27.4122,            0.,NA,NA,"",       11.8734,      -11.8535,   686.148E-03,   4.25230E-09
C:/temp/dataset/2/10_10.odb,Step-1,Increment      1: Step Time =    1.000,"PART-1-1",           345,       2.31009,       23.4917,            0.,NA,NA,"",       11.0127,      -10.8396,       1.94468,   101.615E-09
C:/temp/dataset/2/10_10.odb,Step-1,Increment      1: Step Time =    1.000,"PART-1-1",           346,       3.41051,       22.2101,            0.,NA,NA,"",       10.7614,      -10.5049,       2.33524,   221.287E-09
C:/temp/dataset/2/10_10.odb,Step-1,Increment      1: Step Time =    1.000,"PART-1-1",           347,       4.46987,       23.2845,            0.,NA,NA,"",       11.1848,      -10.8774,       2.60423,   339.068E-09
C:/temp/dataset/2/10_10.odb,Step-1,Increment      1: Step Time =    1.000,"PART-1-1",           348,       3.36945,       24.5662,            0.,NA,NA,"",       11.4285,      -11.2121,       2.21367,   172.451E-09
C:/temp/dataset/2/10_10.odb,Step-1,Increment      1: Step Time =    1.000,"PART-1-1",           349,       3.92627,       27.0683,            0.,NA,NA,"",       12.2029,      -11.9908,       2.26525,   122.456E-09
C:/temp/dataset/2/10_10.odb,Step-1,Increment      1: Step Time =    1.000,"PART-1-1",           350,       5.16355,       28.4353,            0.,NA,NA,"",       12.7227,      -12.4596,       2.57422,   110.499E-09
C:/temp/dataset/2/10_10.odb,Step-1,Increment      1: Step Time =    1.000,"PART-1-1",           351,          3.75,           30.,            0.,NA,NA,"",       13.0314,      -12.8649,       2.07631,   39.4602E-09
C:/temp/dataset/2/10_10.odb,Step-1,Increment      1: Step Time =    1.000,"PART-1-1",           352,       2.51272,       28.6330,            0.,NA,NA,"",       12.5215,      -12.3962,       1.76734,   33.3689E-09
C:/temp/dataset/2/10_10.odb,Step-1,Increment      1: Step Time =    1.000,"PART-1-1",           353,       11.0463,       14.3537,            0.,NA,NA,"",       9.85556,      -8.49465,       4.99730,   34.2295E-06
C:/temp/dataset/2/10_10.odb,Step-1,Increment      1: Step Time =    1.000,"PART-1-1",           354,       9.86747,       12.5470,            0.,NA,NA,"",       9.20278,      -7.89636,       4.72638,   101.798E-06
C:/temp/dataset/2/10_10.odb,Step-1,Increment      1: Step Time =    1.000,"PART-1-1",           355,       11.1901,       11.5237,            0.,NA,NA,"",       9.23393,      -7.64964,       5.17191,   107.612E-06
C:/temp/dataset/2/10_10.odb,Step-1,Increment      1: Step Time =    1.000,"PART-1-1",           356,       9.55073,       15.1783,            0.,NA,NA,"",       9.77551,      -8.67350,       4.50899,   30.6096E-06
C:/temp/dataset/2/10_10.odb,Step-1,Increment      1: Step Time =    1.000,"PART-1-1",           357,       8.18591,       15.9712,            0.,NA,NA,"",       9.73643,      -8.84887,       4.06150,   13.2511E-06
C:/temp/dataset/2/10_10.odb,Step-1,Increment      1: Step Time =    1.000,"PART-1-1",           358,       7.20669,       14.2932,            0.,NA,NA,"",       9.14585,      -8.29854,       3.84459,   42.6434E-06
C:/temp/dataset/2/10_10.odb,Step-1,Increment      1: Step Time =    1.000,"PART-1-1",           359,       8.57151,       13.5002,            0.,NA,NA,"",       9.18740,      -8.12319,       4.29211,   48.9408E-06
C:/temp/dataset/2/10_10.odb,Step-1,Increment      1: Step Time =    1.000,"PART-1-1",           360,       7.44377,       1.50598,            0.,NA,NA,"",       6.34704,      -4.47004,       4.50596,   5.92145E-03
C:/temp/dataset/2/10_10.odb,Step-1,Increment      1: Step Time =    1.000,"PART-1-1",           361,       8.72836,   326.342E-03,            0.,NA,NA,"",       6.48040,      -4.18063,       4.95156,   5.39120E-03
C:/temp/dataset/2/10_10.odb,Step-1,Increment      1: Step Time =    1.000,"PART-1-1",           362,       10.0261,       1.76283,            0.,NA,NA,"",       7.04241,      -4.66563,       5.27517,   2.22562E-03
C:/temp/dataset/2/10_10.odb,Step-1,Increment      1: Step Time =    1.000,"PART-1-1",           363,       8.74149,       2.94246,            0.,NA,NA,"",       6.92356,      -4.95753,       4.83308,   2.76674E-03
C:/temp/dataset/2/10_10.odb,Step-1,Increment      1: Step Time =    1.000,"PART-1-1",           364,       12.5045,       7.62102,            0.,NA,NA,"",       8.70412,      -6.53595,       5.74831,   229.812E-06
C:/temp/dataset/2/10_10.odb,Step-1,Increment      1: Step Time =    1.000,"PART-1-1",           365,           15.,         8.125,            0.,NA,NA,"",       9.39208,      -6.80320,       6.47515,   360.300E-06
C:/temp/dataset/2/10_10.odb,Step-1,Increment      1: Step Time =    1.000,"PART-1-1",           366,       13.7500,       9.30715,            0.,NA,NA,"",       9.32536,      -7.10098,       6.04470,   168.964E-06
C:/temp/dataset/2/10_10.odb,Step-1,Increment      1: Step Time =    1.000,"PART-1-1",           367,      -1.45938,      -2.40358,            0.,NA,NA,"",       3.55714,      -2.96240,       1.96910,   18.4862E-03
C:/temp/dataset/2/10_10.odb,Step-1,Increment      1: Step Time =    1.000,"PART-1-1",           368,      -2.69869,      -3.52952,            0.,NA,NA,"",       3.09192,      -2.61739,       1.64598,   24.4005E-03
C:/temp/dataset/2/10_10.odb,Step-1,Increment      1: Step Time =    1.000,"PART-1-1",           369,         -1.25,           -5.,            0.,NA,NA,"",       3.10814,      -2.23266,       2.16235,   26.2222E-03
C:/temp/dataset/2/10_10.odb,Step-1,Increment      1: Step Time =    1.000,"PART-1-1",           370,  -10.6917E-03,      -3.87406,            0.,NA,NA,"",       3.58446,      -2.59292,       2.47490,   18.0006E-03
C:/temp/dataset/2/10_10.odb,Step-1,Increment      1: Step Time =    1.000,"PART-1-1",           371,      -13.3333,            5.,            0.,NA,NA,"",       4.55968,      -4.41217,      -1.15040,   2.09145E-03
C:/temp/dataset/2/10_10.odb,Step-1,Increment      1: Step Time =    1.000,"PART-1-1",           372,          -15.,       3.54167,            0.,NA,NA,"",       4.29237,      -4.02174,      -1.49999,   1.86503E-03
C:/temp/dataset/2/10_10.odb,Step-1,Increment      1: Step Time =    1.000,"PART-1-1",           373,      -13.2137,       2.05352,            0.,NA,NA,"",       3.85574,      -3.71413,      -1.03537,   9.83816E-03
C:/temp/dataset/2/10_10.odb,Step-1,Increment      1: Step Time =    1.000,"PART-1-1",           374,      -11.5470,       3.51185,            0.,NA,NA,"",       4.17346,      -4.11416,  -701.058E-03,   10.2642E-03
C:/temp/dataset/2/10_10.odb,Step-1,Increment      1: Step Time =    1.000,"PART-1-1",           375,          -15.,      625.E-03,            0.,NA,NA,"",       3.60780,      -3.32383,      -1.40299,   12.2206E-03
C:/temp/dataset/2/10_10.odb,Step-1,Increment      1: Step Time =    1.000,"PART-1-1",           376,      -12.9883,      -1.02354,            0.,NA,NA,"",       3.09523,      -2.97069,  -869.189E-03,   18.4628E-03
C:/temp/dataset/2/10_10.odb,Step-1,Increment      1: Step Time =    1.000,"PART-1-1",           377,      -11.2019,   404.974E-03,            0.,NA,NA,"",       3.40086,      -3.35944,  -529.188E-03,   21.3027E-03
C:/temp/dataset/2/10_10.odb,Step-1,Increment      1: Step Time =    1.000,"PART-1-1",           378,      -13.6690,      -3.88141,            0.,NA,NA,"",       2.46460,      -2.29789,  -891.040E-03,   26.9974E-03
C:/temp/dataset/2/10_10.odb,Step-1,Increment      1: Step Time =    1.000,"PART-1-1",           379,      -11.6573,      -2.61328,            0.,NA,NA,"",       2.66641,      -2.61525,  -519.820E-03,   22.5350E-03
C:/temp/dataset/2/10_10.odb,Step-1,Increment      1: Step Time =    1.000,"PART-1-1",           380,          -15.,      -2.29167,            0.,NA,NA,"",       2.92816,      -2.63833,      -1.27015,   27.9364E-03
C:/temp/dataset/2/10_10.odb,Step-1,Increment      1: Step Time =    1.000,"PART-1-1",           381,           -5.,         -8.75,            0.,NA,NA,"",       1.70620,      -1.51308,   788.472E-03,   61.5065E-03
C:/temp/dataset/2/10_10.odb,Step-1,Increment      1: Step Time =    1.000,"PART-1-1",           382,      -6.37238,      -7.84264,            0.,NA,NA,"",       1.72565,      -1.61942,   596.108E-03,   46.1207E-03
C:/temp/dataset/2/10_10.odb,Step-1,Increment      1: Step Time =    1.000,"PART-1-1",           383,      -7.67841,      -9.42411,            0.,NA,NA,"",       1.35125,      -1.30765,   340.501E-03,   31.4184E-03
C:/temp/dataset/2/10_10.odb,Step-1,Increment      1: Step Time =    1.000,"PART-1-1",           384,      -6.30603,      -10.3315,            0.,NA,NA,"",       1.31382,      -1.20129,   532.011E-03,   47.2217E-03
C:/temp/dataset/2/10_10.odb,Step-1,Increment      1: Step Time =    1.000,"PART-1-1",           385,      -13.6103,      -21.3688,            0.,NA,NA,"",   188.598E-03,  -64.6487E-03,  -177.172E-03,   32.5548E-03
C:/temp/dataset/2/10_10.odb,Step-1,Increment      1: Step Time =    1.000,"PART-1-1",           386,          -15.,      -22.7083,            0.,NA,NA,"",   188.371E-03,  -49.1164E-03,  -181.855E-03,   40.4551E-03
C:/temp/dataset/2/10_10.odb,Step-1,Increment      1: Step Time =    1.000,"PART-1-1",           387,      -13.6241,      -24.2925,            0.,NA,NA,"",   101.823E-03,  -1.66262E-03,  -101.809E-03,   26.3424E-03
C:/temp/dataset/2/10_10.odb,Step-1,Increment      1: Step Time =    1.000,"PART-1-1",           388,      -12.2343,      -22.9530,            0.,NA,NA,"",   86.6389E-03,  -9.04598E-03,  -86.1654E-03,   20.4991E-03
C:/temp/dataset/2/10_10.odb,Step-1,Increment      1: Step Time =    1.000,"PART-1-1",           389,           -5.,        -16.25,            0.,NA,NA,"",   644.372E-03,  -462.043E-03,   449.145E-03,   66.1416E-03
C:/temp/dataset/2/10_10.odb,Step-1,Increment      1: Step Time =    1.000,"PART-1-1",           390,      -6.06585,      -15.2329,            0.,NA,NA,"",   665.429E-03,  -539.115E-03,   390.066E-03,   52.4376E-03
C:/temp/dataset/2/10_10.odb,Step-1,Increment      1: Step Time =    1.000,"PART-1-1",           391,      -6.99530,      -16.6022,            0.,NA,NA,"",   446.031E-03,  -368.576E-03,   251.188E-03,   42.1241E-03
C:/temp/dataset/2/10_10.odb,Step-1,Increment      1: Step Time =    1.000,"PART-1-1",           392,      -5.92946,      -17.6192,            0.,NA,NA,"",   415.490E-03,  -293.394E-03,   294.197E-03,   56.7274E-03
C:/temp/dataset/2/10_10.odb,Step-1,Increment      1: Step Time =    1.000,"PART-1-1",           393,         -13.5,          -30.,            0.,NA,NA,"",            0.,   6.97979E-39,  -28.0174E-39,   13.3061E-03
C:/temp/dataset/2/10_10.odb,Step-1,Increment      1: Step Time =    1.000,"PART-1-1",           394,      -12.0804,      -28.6247,            0.,NA,NA,"",   19.2441E-03,   15.0565E-03,  -11.9848E-03,   14.5459E-03
C:/temp/dataset/2/10_10.odb,Step-1,Increment      1: Step Time =    1.000,"PART-1-1",           395,      -13.5804,      -27.1664,            0.,NA,NA,"",   44.7964E-03,   11.0359E-03,  -43.4158E-03,   20.7891E-03
C:/temp/dataset/2/10_10.odb,Step-1,Increment      1: Step Time =    1.000,"PART-1-1",           396,          -15.,      -28.5417,            0.,NA,NA,"",   22.7482E-03,  -5.93522E-03,  -21.9602E-03,   20.7972E-03
C:/temp/dataset/2/10_10.odb,Step-1,Increment      1: Step Time =    1.000,"PART-1-1",           397,          13.5,          -30.,            0.,NA,NA,"",            0.,  -1.46316E-39,   3.70719E-39,   3.29539E-03
C:/temp/dataset/2/10_10.odb,Step-1,Increment      1: Step Time =    1.000,"PART-1-1",           398,           15.,        -28.75,            0.,NA,NA,"",   7.00123E-03,  -5.77116E-03,   3.96371E-03,   3.03204E-03
C:/temp/dataset/2/10_10.odb,Step-1,Increment      1: Step Time =    1.000,"PART-1-1",           399,       13.4640,      -27.4843,            0.,NA,NA,"",   10.5036E-03,  -10.1858E-03,   2.56421E-03,   1.77321E-03
C:/temp/dataset/2/10_10.odb,Step-1,Increment      1: Step Time =    1.000,"PART-1-1",           400,       11.9640,      -28.7343,            0.,NA,NA,"",   5.07524E-03,  -5.02070E-03,   742.059E-06,   2.60413E-03
C:/temp/dataset/2/10_10.odb,Step-1,Increment      1: Step Time =    1.000,"PART-1-1",           401,       10.2658,      -24.9335,            0.,NA,NA,"",   20.4590E-03,  -20.4577E-03,   224.388E-06,   1.69352E-03
C:/temp/dataset/2/10_10.odb,Step-1,Increment      1: Step Time =    1.000,"PART-1-1",           402,       8.77397,      -26.1861,            0.,NA,NA,"",   17.8021E-03,  -17.8020E-03,   54.4740E-06,   2.61294E-03
C:/temp/dataset/2/10_10.odb,Step-1,Increment      1: Step Time =    1.000,"PART-1-1",           403,       10.3945,      -27.4590,            0.,NA,NA,"",   11.3299E-03,  -11.3161E-03,   558.771E-06,   2.74629E-03
C:/temp/dataset/2/10_10.odb,Step-1,Increment      1: Step Time =    1.000,"PART-1-1",           404,       11.8863,      -26.2064,            0.,NA,NA,"",   15.4700E-03,  -15.3887E-03,   1.58375E-03,   1.94420E-03
C:/temp/dataset/2/10_10.odb,Step-1,Increment      1: Step Time =    1.000,"PART-1-1",           405,       8.93044,      -28.7247,            0.,NA,NA,"",   6.59715E-03,  -6.58015E-03,   473.319E-06,   3.27652E-03
C:/temp/dataset/2/10_10.odb,Step-1,Increment      1: Step Time =    1.000,"PART-1-1",           406,       7.31300,      -27.4411,            0.,NA,NA,"",   14.4161E-03,  -14.4023E-03,   629.332E-06,   3.66504E-03
C:/temp/dataset/2/10_10.odb,Step-1,Increment      1: Step Time =    1.000,"PART-1-1",           407,       5.88256,      -28.7164,            0.,NA,NA,"",   9.00034E-03,  -8.94529E-03,   993.962E-06,   4.56001E-03
C:/temp/dataset/2/10_10.odb,Step-1,Increment      1: Step Time =    1.000,"PART-1-1",           408,           7.5,          -30.,            0.,NA,NA,"",            0.,  -4.64519E-39,   2.38253E-39,   4.24472E-03
C:/temp/dataset/2/10_10.odb,Step-1,Increment      1: Step Time =    1.000,"PART-1-1",           409,       5.63995,      -26.1773,            0.,NA,NA,"",   22.5840E-03,  -22.5489E-03,   1.25886E-03,   3.69539E-03
C:/temp/dataset/2/10_10.odb,Step-1,Increment      1: Step Time =    1.000,"PART-1-1",           410,       3.92490,      -24.9166,            0.,NA,NA,"",   30.4928E-03,  -30.2820E-03,   3.57931E-03,   4.38933E-03
C:/temp/dataset/2/10_10.odb,Step-1,Increment      1: Step Time =    1.000,"PART-1-1",           411,       2.50142,      -26.1700,            0.,NA,NA,"",   29.4039E-03,  -28.4492E-03,   7.43174E-03,   5.76837E-03
C:/temp/dataset/2/10_10.odb,Step-1,Increment      1: Step Time =    1.000,"PART-1-1",           412,       4.21647,      -27.4307,            0.,NA,NA,"",   19.1232E-03,  -18.9072E-03,   2.86610E-03,   5.10023E-03
C:/temp/dataset/2/10_10.odb,Step-1,Increment      1: Step Time =    1.000,"PART-1-1",           413,       1.12659,      -27.4308,            0.,NA,NA,"",   24.2289E-03,  -22.5209E-03,   8.93570E-03,   7.56941E-03
C:/temp/dataset/2/10_10.odb,Step-1,Increment      1: Step Time =    1.000,"PART-1-1",           414,  -207.324E-03,      -28.7165,            0.,NA,NA,"",   13.8255E-03,  -12.3082E-03,   6.29691E-03,   9.23580E-03
C:/temp/dataset/2/10_10.odb,Step-1,Increment      1: Step Time =    1.000,"PART-1-1",           415,           1.5,          -30.,            0.,NA,NA,"",            0.,  -7.90629E-39,   10.0930E-39,   7.99151E-03
C:/temp/dataset/2/10_10.odb,Step-1,Increment      1: Step Time =    1.000,"PART-1-1",           416,       2.83391,      -28.7143,            0.,NA,NA,"",   11.9228E-03,  -11.5984E-03,   2.76231E-03,   6.53833E-03
C:/temp/dataset/2/10_10.odb,Step-1,Increment      1: Step Time =    1.000,"PART-1-1",           417,      -1.92078,      -27.4395,            0.,NA,NA,"",   27.2367E-03,  -19.3574E-03,   19.1606E-03,   11.4848E-03
C:/temp/dataset/2/10_10.odb,Step-1,Increment      1: Step Time =    1.000,"PART-1-1",           418,      -3.21345,      -28.7230,            0.,NA,NA,"",   12.3152E-03,  -6.91738E-03,   10.1889E-03,   11.6190E-03
C:/temp/dataset/2/10_10.odb,Step-1,Increment      1: Step Time =    1.000,"PART-1-1",           419,          -1.5,          -30.,            0.,NA,NA,"",            0.,  -6.99535E-39,   16.9400E-39,   9.13573E-03
C:/temp/dataset/2/10_10.odb,Step-1,Increment      1: Step Time =    1.000,"PART-1-1",           420,      -5.57419,      -22.4519,            0.,NA,NA,"",   124.177E-03,  -43.7824E-03,   116.202E-03,   29.3813E-03
C:/temp/dataset/2/10_10.odb,Step-1,Increment      1: Step Time =    1.000,"PART-1-1",           421,      -6.77537,      -23.6376,            0.,NA,NA,"",   79.8346E-03,  -13.2066E-03,   78.7346E-03,   24.1494E-03
C:/temp/dataset/2/10_10.odb,Step-1,Increment      1: Step Time =    1.000,"PART-1-1",           422,      -5.25528,      -24.9124,            0.,NA,NA,"",   65.1640E-03,  -17.4984E-03,   62.7706E-03,   19.7668E-03
C:/temp/dataset/2/10_10.odb,Step-1,Increment      1: Step Time =    1.000,"PART-1-1",           423,      -4.05411,      -23.7268,            0.,NA,NA,"",   86.0615E-03,  -40.3399E-03,   76.0216E-03,   24.5058E-03
C:/temp/dataset/2/10_10.odb,Step-1,Increment      1: Step Time =    1.000,"PART-1-1",           424,       13.4223,      -24.9720,            0.,NA,NA,"",   19.8466E-03,  -19.4008E-03,   4.18265E-03,   642.283E-06
C:/temp/dataset/2/10_10.odb,Step-1,Increment      1: Step Time =    1.000,"PART-1-1",           425,           15.,        -26.25,            0.,NA,NA,"",   17.4397E-03,  -15.6096E-03,   7.77708E-03,   812.246E-06
C:/temp/dataset/2/10_10.odb,Step-1,Increment      1: Step Time =    1.000,"PART-1-1",           426,       11.8021,      -23.6964,            0.,NA,NA,"",   23.0148E-03,  -22.9543E-03,   1.66877E-03,   749.891E-06
C:/temp/dataset/2/10_10.odb,Step-1,Increment      1: Step Time =    1.000,"PART-1-1",           427,       10.1355,      -22.4445,            0.,NA,NA,"",   26.1770E-03,  -26.1733E-03,  -442.532E-06,   667.143E-06
C:/temp/dataset/2/10_10.odb,Step-1,Increment      1: Step Time =    1.000,"PART-1-1",           428,      -2.31424,      -24.9364,            0.,NA,NA,"",   57.1291E-03,  -36.4001E-03,   44.0314E-03,   15.4636E-03
C:/temp/dataset/2/10_10.odb,Step-1,Increment      1: Step Time =    1.000,"PART-1-1",           429,      -3.63092,      -26.1962,            0.,NA,NA,"",   44.3373E-03,  -20.1742E-03,   39.4816E-03,   16.8350E-03
C:/temp/dataset/2/10_10.odb,Step-1,Increment      1: Step Time =    1.000,"PART-1-1",           430,  -604.096E-03,      -26.1796,            0.,NA,NA,"",   37.9682E-03,  -31.0847E-03,   21.8019E-03,   10.7543E-03
C:/temp/dataset/2/10_10.odb,Step-1,Increment      1: Step Time =    1.000,"PART-1-1",           431,      -7.52977,      -11.9021,            0.,NA,NA,"",   980.255E-03,  -927.008E-03,   318.681E-03,   34.9537E-03
C:/temp/dataset/2/10_10.odb,Step-1,Increment      1: Step Time =    1.000,"PART-1-1",           432,      -6.22373,      -12.8207,            0.,NA,NA,"",   953.730E-03,  -833.949E-03,   462.743E-03,   48.9832E-03
C:/temp/dataset/2/10_10.odb,Step-1,Increment      1: Step Time =    1.000,"PART-1-1",           433,           -5.,        -11.25,            0.,NA,NA,"",       1.29983,      -1.10224,   688.942E-03,   61.0982E-03
C:/temp/dataset/2/10_10.odb,Step-1,Increment      1: Step Time =    1.000,"PART-1-1",           434,      -10.0475,      -12.6788,            0.,NA,NA,"",   773.240E-03,  -772.991E-03,  -19.6381E-03,   6.78108E-03
C:/temp/dataset/2/10_10.odb,Step-1,Increment      1: Step Time =    1.000,"PART-1-1",           435,           -5.,         -6.25,            0.,NA,NA,"",       2.16564,      -1.96814,   903.558E-03,   77.9344E-03
C:/temp/dataset/2/10_10.odb,Step-1,Increment      1: Step Time =    1.000,"PART-1-1",           436,      -7.88282,      -7.02961,            0.,NA,NA,"",       1.75539,      -1.72380,   331.521E-03,   19.4987E-03
C:/temp/dataset/2/10_10.odb,Step-1,Increment      1: Step Time =    1.000,"PART-1-1",           437,      -13.8577,      -6.65334,            0.,NA,NA,"",       1.89871,      -1.72444,  -794.614E-03,   34.4343E-03
C:/temp/dataset/2/10_10.odb,Step-1,Increment      1: Step Time =    1.000,"PART-1-1",           438,      -12.5267,      -5.32641,            0.,NA,NA,"",       2.08521,      -1.99927,  -592.491E-03,   22.4064E-03
C:/temp/dataset/2/10_10.odb,Step-1,Increment      1: Step Time =    1.000,"PART-1-1",           439,          -15.,      -5.20833,            0.,NA,NA,"",       2.29126,      -2.00636,      -1.10650,   41.2264E-03
C:/temp/dataset/2/10_10.odb,Step-1,Increment      1: Step Time =    1.000,"PART-1-1",           440,          1.25,           -5.,            0.,NA,NA,"",       3.71352,      -2.30296,       2.91318,   17.7094E-03
C:/temp/dataset/2/10_10.odb,Step-1,Increment      1: Step Time =    1.000,"PART-1-1",           441,       2.47079,      -3.83474,            0.,NA,NA,"",       4.19968,      -2.68880,       3.22610,   12.2044E-03
C:/temp/dataset/2/10_10.odb,Step-1,Increment      1: Step Time =    1.000,"PART-1-1",           442,       3.51261,  -149.180E-03,            0.,NA,NA,"",       5.08457,      -3.80203,       3.37600,   13.2342E-03
C:/temp/dataset/2/10_10.odb,Step-1,Increment      1: Step Time =    1.000,"PART-1-1",           443,       3.69085,      -2.58237,            0.,NA,NA,"",       4.71224,      -3.10725,       3.54264,   12.7339E-03
C:/temp/dataset/2/10_10.odb,Step-1,Increment      1: Step Time =    1.000,"PART-1-1",           444,       8.74868,       5.55605,            0.,NA,NA,"",       7.42889,      -5.74102,       4.71477,   642.256E-06
C:/temp/dataset/2/10_10.odb,Step-1,Increment      1: Step Time =    1.000,"PART-1-1",           445,       10.0030,       7.12352,            0.,NA,NA,"",       8.03223,      -6.27072,       5.01944,   274.263E-06
C:/temp/dataset/2/10_10.odb,Step-1,Increment      1: Step Time =    1.000,"PART-1-1",           446,       8.73640,       8.21697,            0.,NA,NA,"",       7.98940,      -6.54122,       4.58727,   330.121E-06
C:/temp/dataset/2/10_10.odb,Step-1,Increment      1: Step Time =    1.000,"PART-1-1",           447,           15.,     -625.E-03,            0.,NA,NA,"",       8.04314,      -4.17992,       6.87170,   872.181E-06
C:/temp/dataset/2/10_10.odb,Step-1,Increment      1: Step Time =    1.000,"PART-1-1",           448,       13.7714,   731.820E-03,            0.,NA,NA,"",       7.87644,      -4.52846,       6.44448,   141.386E-06
C:/temp/dataset/2/10_10.odb,Step-1,Increment      1: Step Time =    1.000,"PART-1-1",           449,       12.5339,  -774.506E-03,            0.,NA,NA,"",       7.34439,      -4.02337,       6.14431,   576.944E-06
C:/temp/dataset/2/10_10.odb,Step-1,Increment      1: Step Time =    1.000,"PART-1-1",           450,       7.40609,       11.8257,            0.,NA,NA,"",       8.56661,      -7.56536,       4.01897,   132.467E-06
C:/temp/dataset/2/10_10.odb,Step-1,Increment      1: Step Time =    1.000,"PART-1-1",           451,       8.70206,       10.8725,            0.,NA,NA,"",       8.58412,      -7.33858,       4.45335,   156.710E-06
C:/temp/dataset/2/10_10.odb,Step-1,Increment      1: Step Time =    1.000,"PART-1-1",           452,       11.2454,       8.75341,            0.,NA,NA,"",       8.64666,      -6.81848,       5.31725,   235.189E-06
C:/temp/dataset/2/10_10.odb,Step-1,Increment      1: Step Time =    1.000,"PART-1-1",           453,       11.2622,       5.99112,            0.,NA,NA,"",       8.09756,      -5.98847,       5.45058,   189.335E-06
C:/temp/dataset/2/10_10.odb,Step-1,Increment      1: Step Time =    1.000,"PART-1-1",           454,       13.8596,       24.3693,            0.,NA,NA,"",       12.8222,      -11.6391,       5.37960,   414.412E-09
C:/temp/dataset/2/10_10.odb,Step-1,Increment      1: Step Time =    1.000,"PART-1-1",           455,       12.6110,       23.1199,            0.,NA,NA,"",       12.2955,      -11.2052,       5.06178,   753.252E-09
C:/temp/dataset/2/10_10.odb,Step-1,Increment      1: Step Time =    1.000,"PART-1-1",           456,       13.7514,       21.4590,            0.,NA,NA,"",       12.0744,      -10.7583,       5.48196,   985.385E-09
C:/temp/dataset/2/10_10.odb,Step-1,Increment      1: Step Time =    1.000,"PART-1-1",           457,           15.,       22.7083,            0.,NA,NA,"",       12.6056,      -11.1921,       5.79978,   1.07233E-06
C:/temp/dataset/2/10_10.odb,Step-1,Increment      1: Step Time =    1.000,"PART-1-1",           458,       8.83903,       17.2613,            0.,NA,NA,"",       10.1739,      -9.26733,       4.19824,   7.34095E-06
C:/temp/dataset/2/10_10.odb,Step-1,Increment      1: Step Time =    1.000,"PART-1-1",           459,       10.5130,       17.3338,            0.,NA,NA,"",       10.4792,      -9.36674,       4.69863,   6.13320E-06
C:/temp/dataset/2/10_10.odb,Step-1,Increment      1: Step Time =    1.000,"PART-1-1",           460,       8.72284,       19.1442,            0.,NA,NA,"",       10.6402,      -9.82857,       4.07600,   2.02360E-06
C:/temp/dataset/2/10_10.odb,Step-1,Increment      1: Step Time =    1.000,"PART-1-1",           461,           15.,       28.5417,            0.,NA,NA,"",       14.0788,      -12.9475,       5.52938,   43.3311E-09
C:/temp/dataset/2/10_10.odb,Step-1,Increment      1: Step Time =    1.000,"PART-1-1",           462,         13.75,           30.,            0.,NA,NA,"",       14.2657,      -13.3284,       5.08562,   27.6105E-09
C:/temp/dataset/2/10_10.odb,Step-1,Increment      1: Step Time =    1.000,"PART-1-1",           463,       12.5875,       28.6551,            0.,NA,NA,"",       13.7352,      -12.8698,       4.79813,   136.706E-09
C:/temp/dataset/2/10_10.odb,Step-1,Increment      1: Step Time =    1.000,"PART-1-1",           464,       13.8375,       27.1968,            0.,NA,NA,"",       13.5444,      -12.4889,       5.24189,   140.377E-09
C:/temp/dataset/2/10_10.odb,Step-1,Increment      1: Step Time =    1.000,"PART-1-1",           465,         11.25,           30.,            0.,NA,NA,"",       13.9050,      -13.2126,       4.33329,   132.740E-09
C:/temp/dataset/2/10_10.odb,Step-1,Increment      1: Step Time =    1.000,"PART-1-1",           466,       10.1484,       28.7335,            0.,NA,NA,"",       13.4099,      -12.7804,       4.06048,   182.432E-09
C:/temp/dataset/2/10_10.odb,Step-1,Increment      1: Step Time =    1.000,"PART-1-1",           467,       7.69941,       28.7139,            0.,NA,NA,"",       13.0901,      -12.6609,       3.32442,   171.655E-09
C:/temp/dataset/2/10_10.odb,Step-1,Increment      1: Step Time =    1.000,"PART-1-1",           468,       9.09777,       27.4473,            0.,NA,NA,"",       12.9174,      -12.3446,       3.80394,   156.800E-09
C:/temp/dataset/2/10_10.odb,Step-1,Increment      1: Step Time =    1.000,"PART-1-1",           469,          8.75,           30.,            0.,NA,NA,"",       13.5774,      -13.0967,       3.58096,   195.700E-09
C:/temp/dataset/2/10_10.odb,Step-1,Increment      1: Step Time =    1.000,"PART-1-1",           470,  -9.87333E-03,       28.6960,            0.,NA,NA,"",       12.3392,      -12.2982,       1.00530,   12.3001E-09
C:/temp/dataset/2/10_10.odb,Step-1,Increment      1: Step Time =    1.000,"PART-1-1",           471,          1.25,           30.,            0.,NA,NA,"",       12.8176,      -12.7490,       1.32398,   12.2883E-09
C:/temp/dataset/2/10_10.odb,Step-1,Increment      1: Step Time =    1.000,"PART-1-1",           472,       4.87954,       25.6434,            0.,NA,NA,"",       11.8979,      -11.6062,       2.61817,   188.775E-09
C:/temp/dataset/2/10_10.odb,Step-1,Increment      1: Step Time =    1.000,"PART-1-1",           473,      -5.00474,       28.7231,            0.,NA,NA,"",       12.0851,      -12.0748,  -499.069E-03,   6.12536E-09
C:/temp/dataset/2/10_10.odb,Step-1,Increment      1: Step Time =    1.000,"PART-1-1",           474,         -6.25,           30.,            0.,NA,NA,"",       12.4364,      -12.4014,  -932.996E-03,   6.65921E-09
C:/temp/dataset/2/10_10.odb,Step-1,Increment      1: Step Time =    1.000,"PART-1-1",           475,      -3.76303,       27.4393,            0.,NA,NA,"",       11.7462,      -11.7460,  -65.8907E-03,   6.38002E-09
C:/temp/dataset/2/10_10.odb,Step-1,Increment      1: Step Time =    1.000,"PART-1-1",           476,      -3.77322,       24.9147,            0.,NA,NA,"",       10.9860,      -10.9858,   48.0687E-03,   5.89441E-09
C:/temp/dataset/2/10_10.odb,Step-1,Increment      1: Step Time =    1.000,"PART-1-1",           477,      -13.7476,       27.4926,            0.,NA,NA,"",       11.7097,      -11.2993,      -3.07302,   1.89164E-09
C:/temp/dataset/2/10_10.odb,Step-1,Increment      1: Step Time =    1.000,"PART-1-1",           478,        -13.75,           30.,            0.,NA,NA,"",       12.4687,      -12.0537,      -3.18998,   2.31179E-09
C:/temp/dataset/2/10_10.odb,Step-1,Increment      1: Step Time =    1.000,"PART-1-1",           479,          -15.,         28.75,            0.,NA,NA,"",       12.1377,      -11.6196,      -3.50820,   1.64769E-09
C:/temp/dataset/2/10_10.odb,Step-1,Increment      1: Step Time =    1.000,"PART-1-1",           480,          -15.,         26.25,            0.,NA,NA,"",       11.3844,      -10.8673,      -3.39231,   1.76418E-09
C:/temp/dataset/2/10_10.odb,Step-1,Increment      1: Step Time =    1.000,"PART-1-1",           481,      -12.4965,       26.2309,            0.,NA,NA,"",       11.2901,      -10.9776,      -2.63804,   2.21099E-09
C:/temp/dataset/2/10_10.odb,Step-1,Increment      1: Step Time =    1.000,"PART-1-1",           482,      -10.0014,       23.7134,            0.,NA,NA,"",       10.4862,      -10.3356,      -1.77049,   1.97014E-09
C:/temp/dataset/2/10_10.odb,Step-1,Increment      1: Step Time =    1.000,"PART-1-1",           483,      -8.75535,       22.4567,            0.,NA,NA,"",       10.1041,      -10.0152,      -1.33727,   1.94919E-09
C:/temp/dataset/2/10_10.odb,Step-1,Increment      1: Step Time =    1.000,"PART-1-1",           484,      -7.50515,       23.6891,            0.,NA,NA,"",       10.4936,      -10.4440,      -1.01817,   2.53819E-09
C:/temp/dataset/2/10_10.odb,Step-1,Increment      1: Step Time =    1.000,"PART-1-1",           485,      -8.75118,       24.9458,            0.,NA,NA,"",       10.8619,      -10.7645,      -1.45140,   2.53829E-09
C:/temp/dataset/2/10_10.odb,Step-1,Increment      1: Step Time =    1.000,"PART-1-1",           486,      -3.77419,       22.4219,            0.,NA,NA,"",       10.2369,      -10.2356,   163.327E-03,   6.60482E-09
C:/temp/dataset/2/10_10.odb,Step-1,Increment      1: Step Time =    1.000,"PART-1-1",           487,      -5.00723,       21.2173,            0.,NA,NA,"",       9.81717,      -9.81600,  -151.896E-03,   3.25778E-09
C:/temp/dataset/2/10_10.odb,Step-1,Increment      1: Step Time =    1.000,"PART-1-1",           488,         -3.75,           20.,            0.,NA,NA,"",       9.51215,      -9.50795,   282.870E-03,   5.61527E-09
C:/temp/dataset/2/10_10.odb,Step-1,Increment      1: Step Time =    1.000,"PART-1-1",           489,      -2.51696,       21.2046,            0.,NA,NA,"",       9.94559,      -9.92759,   598.093E-03,   6.45850E-09
C:/temp/dataset/2/10_10.odb,Step-1,Increment      1: Step Time =    1.000,"PART-1-1",           490,         -8.75,           20.,            0.,NA,NA,"",       9.35629,      -9.27618,      -1.22178,   1.90801E-09
C:/temp/dataset/2/10_10.odb,Step-1,Increment      1: Step Time =    1.000,"PART-1-1",           491,      -7.50331,       21.2223,            0.,NA,NA,"",       9.74375,      -9.70179,  -903.273E-03,   2.11460E-09
C:/temp/dataset/2/10_10.odb,Step-1,Increment      1: Step Time =    1.000,"PART-1-1",           492,         -6.25,           20.,            0.,NA,NA,"",       9.40379,      -9.39206,  -469.456E-03,   1.56694E-09
C:/temp/dataset/2/10_10.odb,Step-1,Increment      1: Step Time =    1.000,"PART-1-1",           493,      -6.26054,       22.4396,            0.,NA,NA,"",       10.1427,      -10.1257,  -585.712E-03,   3.57615E-09
C:/temp/dataset/2/10_10.odb,Step-1,Increment      1: Step Time =    1.000,"PART-1-1",           494,         -1.25,           20.,            0.,NA,NA,"",       9.67935,      -9.62383,       1.03520,   24.7662E-09
C:/temp/dataset/2/10_10.odb,Step-1,Increment      1: Step Time =    1.000,"PART-1-1",           495,      -1.30453,       22.3853,            0.,NA,NA,"",       10.3789,      -10.3391,   908.217E-03,   15.0342E-09
C:/temp/dataset/2/10_10.odb,Step-1,Increment      1: Step Time =    1.000,"PART-1-1",           496,         -1.25,           30.,            0.,NA,NA,"",       12.6461,      -12.6331,   571.657E-03,   18.4255E-09
C:/temp/dataset/2/10_10.odb,Step-1,Increment      1: Step Time =    1.000,"PART-1-1",           497,      -2.50829,       28.7162,            0.,NA,NA,"",       12.1911,      -12.1885,   252.509E-03,   9.76115E-09
C:/temp/dataset/2/10_10.odb,Step-1,Increment      1: Step Time =    1.000,"PART-1-1",           498,         -3.75,           30.,            0.,NA,NA,"",       12.5186,      -12.5173,  -180.669E-03,   11.7337E-09
C:/temp/dataset/2/10_10.odb,Step-1,Increment      1: Step Time =    1.000,"PART-1-1",           499,          3.75,           20.,            0.,NA,NA,"",       10.1776,      -9.85560,       2.53985,   415.565E-09
C:/temp/dataset/2/10_10.odb,Step-1,Increment      1: Step Time =    1.000,"PART-1-1",           500,       4.75388,       21.0765,            0.,NA,NA,"",       10.6004,      -10.2261,       2.79205,   914.181E-09
C:/temp/dataset/2/10_10.odb,Step-1,Increment      1: Step Time =    1.000,"PART-1-1",           501,          6.25,           30.,            0.,NA,NA,"",       13.2854,      -12.9808,       2.82864,   134.302E-09
C:/temp/dataset/2/10_10.odb,Step-1,Increment      1: Step Time =    1.000,"PART-1-1",           502,       6.61296,       27.1492,            0.,NA,NA,"",       12.5219,      -12.1397,       3.07001,   168.834E-09
C:/temp/dataset/2/10_10.odb,Step-1,Increment      1: Step Time =    1.000,"PART-1-1",           503,            5.,         16.25,            0.,NA,NA,"",       9.31262,      -8.78508,       3.08984,   3.49232E-06
C:/temp/dataset/2/10_10.odb,Step-1,Increment      1: Step Time =    1.000,"PART-1-1",           504,       6.03202,       15.2452,            0.,NA,NA,"",       9.20066,      -8.53056,       3.44697,   8.74850E-06
C:/temp/dataset/2/10_10.odb,Step-1,Increment      1: Step Time =    1.000,"PART-1-1",           505,       6.91243,       16.6330,            0.,NA,NA,"",       9.70084,      -8.98896,       3.64759,   8.70316E-06
C:/temp/dataset/2/10_10.odb,Step-1,Increment      1: Step Time =    1.000,"PART-1-1",           506,            5.,         13.75,            0.,NA,NA,"",       8.64884,      -8.03280,       3.20571,   20.4234E-06
C:/temp/dataset/2/10_10.odb,Step-1,Increment      1: Step Time =    1.000,"PART-1-1",           507,       6.17466,       12.7979,            0.,NA,NA,"",       8.59278,      -7.80079,       3.60327,   51.3054E-06
C:/temp/dataset/2/10_10.odb,Step-1,Increment      1: Step Time =    1.000,"PART-1-1",           508,       12.0086,       16.5092,            0.,NA,NA,"",       10.5509,      -9.18791,       5.18692,   13.6434E-06
C:/temp/dataset/2/10_10.odb,Step-1,Increment      1: Step Time =    1.000,"PART-1-1",           509,           15.,        16.875,            0.,NA,NA,"",       11.2204,      -9.43666,       6.07020,   1.40423E-06
C:/temp/dataset/2/10_10.odb,Step-1,Increment      1: Step Time =    1.000,"PART-1-1",           510,       13.3591,       18.2744,            0.,NA,NA,"",       11.2276,      -9.78173,       5.51151,   1.50926E-06
C:/temp/dataset/2/10_10.odb,Step-1,Increment      1: Step Time =    1.000,"PART-1-1",           511,            5.,         11.25,            0.,NA,NA,"",       8.00239,      -7.28056,       3.32141,   163.001E-06
C:/temp/dataset/2/10_10.odb,Step-1,Increment      1: Step Time =    1.000,"PART-1-1",           512,       6.23142,       10.2778,            0.,NA,NA,"",       7.97495,      -7.04517,       3.73704,   158.139E-06
C:/temp/dataset/2/10_10.odb,Step-1,Increment      1: Step Time =    1.000,"PART-1-1",           513,            5.,          8.75,            0.,NA,NA,"",       7.37742,      -6.52799,       3.43681,   375.333E-06
C:/temp/dataset/2/10_10.odb,Step-1,Increment      1: Step Time =    1.000,"PART-1-1",           514,       7.47251,       9.25684,            0.,NA,NA,"",       7.96683,      -6.79559,       4.15817,   330.643E-06
C:/temp/dataset/2/10_10.odb,Step-1,Increment      1: Step Time =    1.000,"PART-1-1",           515,         11.25,           -5.,            0.,NA,NA,"",       6.54536,      -2.71546,       5.95550,   1.19113E-03
C:/temp/dataset/2/10_10.odb,Step-1,Increment      1: Step Time =    1.000,"PART-1-1",           516,       11.2689,      -2.22707,            0.,NA,NA,"",       6.82324,      -3.53535,       5.83591,   2.23697E-03
C:/temp/dataset/2/10_10.odb,Step-1,Increment      1: Step Time =    1.000,"PART-1-1",           517,          10.5,          -30.,            0.,NA,NA,"",            0.,  -3.34540E-39,   1.89214E-39,   3.00610E-03
C:/temp/dataset/2/10_10.odb,Step-1,Increment      1: Step Time =    1.000,"PART-1-1",           518,           15.,        -23.75,            0.,NA,NA,"",   23.8958E-03,  -22.5882E-03,   7.79623E-03,   15.6033E-06
C:/temp/dataset/2/10_10.odb,Step-1,Increment      1: Step Time =    1.000,"PART-1-1",           519,          3.75,           -5.,            0.,NA,NA,"",       4.38789,      -2.38621,       3.68233,   12.1689E-03
C:/temp/dataset/2/10_10.odb,Step-1,Increment      1: Step Time =    1.000,"PART-1-1",           520,       4.97006,      -3.74763,            0.,NA,NA,"",       4.89389,      -2.81913,       4.00033,   11.8255E-03
C:/temp/dataset/2/10_10.odb,Step-1,Increment      1: Step Time =    1.000,"PART-1-1",           521,       4.85412,       3.76356,            0.,NA,NA,"",       6.17945,      -5.00925,       3.61843,   7.41402E-03
C:/temp/dataset/2/10_10.odb,Step-1,Increment      1: Step Time =    1.000,"PART-1-1",           522,       3.33333,            5.,            0.,NA,NA,"",       6.14226,      -5.29806,       3.10772,   12.6843E-03
C:/temp/dataset/2/10_10.odb,Step-1,Increment      1: Step Time =    1.000,"PART-1-1",           523,       1.45296,       3.58740,            0.,NA,NA,"",       5.43460,      -4.77010,       2.60403,   14.3906E-03
C:/temp/dataset/2/10_10.odb,Step-1,Increment      1: Step Time =    1.000,"PART-1-1",           524,       2.97375,       2.35096,            0.,NA,NA,"",       5.46378,      -4.49442,       3.10694,   12.3535E-03
C:/temp/dataset/2/10_10.odb,Step-1,Increment      1: Step Time =    1.000,"PART-1-1",           525,          6.25,           -5.,            0.,NA,NA,"",       5.12208,      -2.49550,       4.47305,   9.72233E-03
C:/temp/dataset/2/10_10.odb,Step-1,Increment      1: Step Time =    1.000,"PART-1-1",           526,       12.4696,       10.4445,            0.,NA,NA,"",       9.27152,      -7.38401,       5.60690,   161.558E-06
C:/temp/dataset/2/10_10.odb,Step-1,Increment      1: Step Time =    1.000,"PART-1-1",           527,           15.,       11.0417,            0.,NA,NA,"",       9.95993,      -7.68103,       6.34051,   128.635E-06
C:/temp/dataset/2/10_10.odb,Step-1,Increment      1: Step Time =    1.000,"PART-1-1",           528,      -5.01382,       23.6808,            0.,NA,NA,"",       10.5604,      -10.5570,  -268.072E-03,   4.56768E-09
C:/temp/dataset/2/10_10.odb,Step-1,Increment      1: Step Time =    1.000,"PART-1-1",           529,      -2.53358,       23.6558,            0.,NA,NA,"",       10.6752,      -10.6645,   479.467E-03,   6.32495E-09
C:/temp/dataset/2/10_10.odb,Step-1,Increment      1: Step Time =    1.000,"PART-1-1",           530,  -74.6816E-03,       23.6075,            0.,NA,NA,"",       10.8330,      -10.7639,       1.22166,   18.1831E-09
C:/temp/dataset/2/10_10.odb,Step-1,Increment      1: Step Time =    1.000,"PART-1-1",           531,      -6.62798,      -1.45964,            0.,NA,NA,"",       3.06703,      -3.01937,   538.586E-03,   20.0804E-03
C:/temp/dataset/2/10_10.odb,Step-1,Increment      1: Step Time =    1.000,"PART-1-1",           532,      -4.43070,      -2.38075,            0.,NA,NA,"",       3.07074,      -2.86412,       1.10739,   17.6467E-03
C:/temp/dataset/2/10_10.odb,Step-1,Increment      1: Step Time =    1.000,"PART-1-1",           533,      -3.64554,  -813.143E-03,            0.,NA,NA,"",       3.54692,      -3.30546,       1.28630,   14.2181E-03
C:/temp/dataset/2/10_10.odb,Step-1,Increment      1: Step Time =    1.000,"PART-1-1",           534,         -3.75,           -5.,            0.,NA,NA,"",       2.60581,      -2.19899,       1.39810,   51.6289E-03
C:/temp/dataset/2/10_10.odb,Step-1,Increment      1: Step Time =    1.000,"PART-1-1",           535,      -13.8599,      -9.43096,            0.,NA,NA,"",       1.40071,      -1.23463,  -661.572E-03,   37.0204E-03
C:/temp/dataset/2/10_10.odb,Step-1,Increment      1: Step Time =    1.000,"PART-1-1",           536,          -15.,      -11.0417,            0.,NA,NA,"",       1.25568,  -998.837E-03,  -760.958E-03,   51.1754E-03
C:/temp/dataset/2/10_10.odb,Step-1,Increment      1: Step Time =    1.000,"PART-1-1",           537,      -11.9984,      -19.8095,            0.,NA,NA,"",   169.545E-03,  -112.079E-03,  -127.216E-03,   19.0848E-03
C:/temp/dataset/2/10_10.odb,Step-1,Increment      1: Step Time =    1.000,"PART-1-1",           538,      -13.3881,      -18.2324,            0.,NA,NA,"",   338.982E-03,  -217.551E-03,  -259.963E-03,   33.7608E-03
C:/temp/dataset/2/10_10.odb,Step-1,Increment      1: Step Time =    1.000,"PART-1-1",           539,          -15.,      -19.7917,            0.,NA,NA,"",   340.287E-03,  -154.224E-03,  -303.332E-03,   48.6716E-03
C:/temp/dataset/2/10_10.odb,Step-1,Increment      1: Step Time =    1.000,"PART-1-1",           540,           -5.,        -18.75,            0.,NA,NA,"",   367.041E-03,  -219.417E-03,   294.237E-03,   88.2580E-03
C:/temp/dataset/2/10_10.odb,Step-1,Increment      1: Step Time =    1.000,"PART-1-1",           541,      -5.96138,      -20.0094,            0.,NA,NA,"",   209.734E-03,  -92.7695E-03,   188.102E-03,   54.0260E-03
C:/temp/dataset/2/10_10.odb,Step-1,Increment      1: Step Time =    1.000,"PART-1-1",           542,           -5.,        -13.75,            0.,NA,NA,"",   943.765E-03,  -750.039E-03,   572.830E-03,   62.5264E-03
C:/temp/dataset/2/10_10.odb,Step-1,Increment      1: Step Time =    1.000,"PART-1-1",           543,      -7.28958,      -14.3036,            0.,NA,NA,"",   680.168E-03,  -615.369E-03,   289.741E-03,   38.3045E-03
C:/temp/dataset/2/10_10.odb,Step-1,Increment      1: Step Time =    1.000,"PART-1-1",           544,      -8.88285,      -11.0213,            0.,NA,NA,"",       1.03620,      -1.02654,   141.157E-03,   19.4753E-03
C:/temp/dataset/2/10_10.odb,Step-1,Increment      1: Step Time =    1.000,"PART-1-1",           545,      -9.01222,      -8.51542,            0.,NA,NA,"",       1.43789,      -1.43227,   127.000E-03,   16.5533E-03
C:/temp/dataset/2/10_10.odb,Step-1,Increment      1: Step Time =    1.000,"PART-1-1",           546,      -9.13424,  -715.290E-03,            0.,NA,NA,"",       3.13338,      -3.13306,  -44.9549E-03,   21.4618E-03
C:/temp/dataset/2/10_10.odb,Step-1,Increment      1: Step Time =    1.000,"PART-1-1",           547,      -9.92186,      -2.42350,            0.,NA,NA,"",       2.69615,      -2.69116,  -164.109E-03,   21.7805E-03
C:/temp/dataset/2/10_10.odb,Step-1,Increment      1: Step Time =    1.000,"PART-1-1",           548,      -12.7176,      -7.95930,            0.,NA,NA,"",       1.57681,      -1.48660,  -525.698E-03,   23.6560E-03
C:/temp/dataset/2/10_10.odb,Step-1,Increment      1: Step Time =    1.000,"PART-1-1",           549,          -15.,        -8.125,            0.,NA,NA,"",       1.72993,      -1.45790,  -931.227E-03,   48.4334E-03
C:/temp/dataset/2/10_10.odb,Step-1,Increment      1: Step Time =    1.000,"PART-1-1",           550,       11.2818,   528.104E-03,            0.,NA,NA,"",       7.18118,      -4.35490,       5.71000,   1.87124E-03
C:/temp/dataset/2/10_10.odb,Step-1,Increment      1: Step Time =    1.000,"PART-1-1",           551,       10.0167,  -924.457E-03,            0.,NA,NA,"",       6.64212,      -3.86714,       5.40027,   3.82639E-03
C:/temp/dataset/2/10_10.odb,Step-1,Increment      1: Step Time =    1.000,"PART-1-1",           552,       10.4320,       23.7699,            0.,NA,NA,"",       12.1175,      -11.2998,       4.37593,   502.693E-09
C:/temp/dataset/2/10_10.odb,Step-1,Increment      1: Step Time =    1.000,"PART-1-1",           553,           15.,        25.625,            0.,NA,NA,"",       13.3330,      -12.0698,       5.66458,   308.990E-09
C:/temp/dataset/2/10_10.odb,Step-1,Increment      1: Step Time =    1.000,"PART-1-1",           554,      -9.99539,       26.2124,            0.,NA,NA,"",       11.2470,      -11.0880,      -1.88453,   2.43799E-09
C:/temp/dataset/2/10_10.odb,Step-1,Increment      1: Step Time =    1.000,"PART-1-1",           555,          -15.,       -25.625,            0.,NA,NA,"",   88.4969E-03,  -8.02905E-03,  -88.1319E-03,   30.6892E-03
C:/temp/dataset/2/10_10.odb,Step-1,Increment      1: Step Time =    1.000,"PART-1-1",           556,      -12.2044,      -25.8339,            0.,NA,NA,"",   49.5931E-03,   20.4178E-03,  -45.1950E-03,   17.8099E-03
C:/temp/dataset/2/10_10.odb,Step-1,Increment      1: Step Time =    1.000,"PART-1-1",           557,          -15.,       -16.875,            0.,NA,NA,"",   563.339E-03,  -344.767E-03,  -445.518E-03,   52.4691E-03
C:/temp/dataset/2/10_10.odb,Step-1,Increment      1: Step Time =    1.000,"PART-1-1",           558,      -8.25880,      -15.9015,            0.,NA,NA,"",   445.089E-03,  -417.436E-03,   154.439E-03,   26.2804E-03
C:/temp/dataset/2/10_10.odb,Step-1,Increment      1: Step Time =    1.000,"PART-1-1",           559,       7.56555,       17.9230,            0.,NA,NA,"",       10.1401,      -9.40743,       3.78434,   2.78534E-06
C:/temp/dataset/2/10_10.odb,Step-1,Increment      1: Step Time =    1.000,"PART-1-1",           560,      -9.72707,       2.21069,            0.,NA,NA,"",       3.86158,      -3.85295,  -258.070E-03,   18.3580E-03
C:/temp/dataset/2/10_10.odb,Step-1,Increment      1: Step Time =    1.000,"PART-1-1",           561,      -8.18006,       3.69884,            0.,NA,NA,"",       4.28157,      -4.28123,   53.7415E-03,   19.2389E-03
C:/temp/dataset/2/10_10.odb,Step-1,Increment      1: Step Time =    1.000,"PART-1-1",           562,          -10.,            5.,            0.,NA,NA,"",       4.53600,      -4.51936,  -388.128E-03,   14.0228E-03
C:/temp/dataset/2/10_10.odb,Step-1,Increment      1: Step Time =    1.000,"PART-1-1",           563,      -10.3433,      -7.69771,            0.,NA,NA,"",       1.56044,      -1.55635,  -112.876E-03,   5.82251E-03
C:/temp/dataset/2/10_10.odb,Step-1,Increment      1: Step Time =    1.000,"PART-1-1",           564,      -11.5611,      -6.59494,            0.,NA,NA,"",       1.78829,      -1.75146,  -361.068E-03,   15.0322E-03
C:/temp/dataset/2/10_10.odb,Step-1,Increment      1: Step Time =    1.000,"PART-1-1",           565,      -9.40089,      -20.7816,            0.,NA,NA,"",   66.3779E-03,  -60.6266E-03,   27.0266E-03,   10.5823E-03
C:/temp/dataset/2/10_10.odb,Step-1,Increment      1: Step Time =    1.000,"PART-1-1",           566,      -8.21757,      -22.2064,            0.,NA,NA,"",   71.5616E-03,  -22.0642E-03,   68.0752E-03,   17.9583E-03
C:/temp/dataset/2/10_10.odb,Step-1,Increment      1: Step Time =    1.000,"PART-1-1",           567,      -6.89894,      -21.2078,            0.,NA,NA,"",   140.229E-03,  -53.0547E-03,   129.805E-03,   27.9429E-03
C:/temp/dataset/2/10_10.odb,Step-1,Increment      1: Step Time =    1.000,"PART-1-1",           568,      -9.14285,      -28.6800,            0.,NA,NA,"",   15.9591E-03,   15.8827E-03,   1.55992E-03,   9.17647E-03
C:/temp/dataset/2/10_10.odb,Step-1,Increment      1: Step Time =    1.000,"PART-1-1",           569,      -10.7232,      -27.3047,            0.,NA,NA,"",   26.9731E-03,   24.6400E-03,  -10.9736E-03,   9.68889E-03
C:/temp/dataset/2/10_10.odb,Step-1,Increment      1: Step Time =    1.000,"PART-1-1",           570,         -10.5,          -30.,            0.,NA,NA,"",            0.,   13.1587E-39,  -9.24520E-39,   10.6280E-03
C:/temp/dataset/2/10_10.odb,Step-1,Increment      1: Step Time =    1.000,"PART-1-1",           571,      -4.89633,      -27.4366,            0.,NA,NA,"",   25.7415E-03,  -3.90853E-03,   25.4430E-03,   13.9364E-03
C:/temp/dataset/2/10_10.odb,Step-1,Increment      1: Step Time =    1.000,"PART-1-1",           572,      -6.18287,      -28.7136,            0.,NA,NA,"",   10.9229E-03,   4.99639E-03,   9.71321E-03,   11.1289E-03
C:/temp/dataset/2/10_10.odb,Step-1,Increment      1: Step Time =    1.000,"PART-1-1",           573,          -4.5,          -30.,            0.,NA,NA,"",            0.,  -983.196E-42,   19.8433E-39,   8.62653E-03
C:/temp/dataset/2/10_10.odb,Step-1,Increment      1: Step Time =    1.000,"PART-1-1",           574,       12.5384,       2.02620,            0.,NA,NA,"",       7.73363,      -4.85886,       6.01668,   397.448E-06
C:/temp/dataset/2/10_10.odb,Step-1,Increment      1: Step Time =    1.000,"PART-1-1",           575,           15.,       2.29167,            0.,NA,NA,"",       8.42354,      -5.05128,       6.74097,   835.857E-06
C:/temp/dataset/2/10_10.odb,Step-1,Increment      1: Step Time =    1.000,"PART-1-1",           576,       9.96595,       9.83263,            0.,NA,NA,"",       8.60350,      -7.08415,       4.88213,   233.878E-06
C:/temp/dataset/2/10_10.odb,Step-1,Increment      1: Step Time =    1.000,"PART-1-1",           577,           15.,       19.7917,            0.,NA,NA,"",       11.9000,      -10.3144,       5.93498,   1.89235E-06
C:/temp/dataset/2/10_10.odb,Step-1,Increment      1: Step Time =    1.000,"PART-1-1",           578,       7.90800,       20.1372,            0.,NA,NA,"",       10.7761,      -10.0896,       3.78476,   792.066E-09
C:/temp/dataset/2/10_10.odb,Step-1,Increment      1: Step Time =    1.000,"PART-1-1",           579,       8.41916,       21.3934,            0.,NA,NA,"",       11.1860,      -10.4913,       3.88035,   797.445E-09
C:/temp/dataset/2/10_10.odb,Step-1,Increment      1: Step Time =    1.000,"PART-1-1",           580,       6.50486,       21.1025,            0.,NA,NA,"",       10.8355,      -10.3151,       3.31777,   1.00051E-06
C:/temp/dataset/2/10_10.odb,Step-1,Increment      1: Step Time =    1.000,"PART-1-1",           581,           4.5,          -30.,            0.,NA,NA,"",            0.,  -6.39853E-39,   4.94293E-39,   6.00752E-03
C:/temp/dataset/2/10_10.odb,Step-1,Increment      1: Step Time =    1.000,"PART-1-1",           582,       3.62857,      -22.4261,            0.,NA,NA,"",   33.8159E-03,  -33.6783E-03,   3.04770E-03,   2.91280E-03
C:/temp/dataset/2/10_10.odb,Step-1,Increment      1: Step Time =    1.000,"PART-1-1",           583,       2.16864,      -23.6665,            0.,NA,NA,"",   37.9892E-03,  -36.8389E-03,   9.27754E-03,   5.16924E-03
C:/temp/dataset/2/10_10.odb,Step-1,Increment      1: Step Time =    1.000,"PART-1-1",           584,      -2.73954,      -22.4743,            0.,NA,NA,"",   93.2166E-03,  -58.3047E-03,   72.7317E-03,   19.0268E-03
C:/temp/dataset/2/10_10.odb,Step-1,Increment      1: Step Time =    1.000,"PART-1-1",           585,  -999.676E-03,      -23.6839,            0.,NA,NA,"",   57.4405E-03,  -45.4719E-03,   35.0958E-03,   12.5672E-03
C:/temp/dataset/2/10_10.odb,Step-1,Increment      1: Step Time =    1.000,"PART-1-1",           586,      -7.82572,      -27.3936,            0.,NA,NA,"",   22.8594E-03,   16.3762E-03,   15.9490E-03,   10.4424E-03
C:/temp/dataset/2/10_10.odb,Step-1,Increment      1: Step Time =    1.000,"PART-1-1",           587,      -6.52069,      -26.1528,            0.,NA,NA,"",   39.2164E-03,   4.03843E-03,   39.0079E-03,   17.2169E-03
C:/temp/dataset/2/10_10.odb,Step-1,Increment      1: Step Time =    1.000,"PART-1-1",           588,      -8.08310,      -24.7829,            0.,NA,NA,"",   40.3256E-03,   10.2145E-03,   39.0105E-03,   14.5032E-03
C:/temp/dataset/2/10_10.odb,Step-1,Increment      1: Step Time =    1.000,"PART-1-1",           589,      -9.38814,      -26.0237,            0.,NA,NA,"",   24.6869E-03,   23.7157E-03,   6.85638E-03,   10.8751E-03
C:/temp/dataset/2/10_10.odb,Step-1,Increment      1: Step Time =    1.000,"PART-1-1",           590,          -7.5,          -30.,            0.,NA,NA,"",            0.,   8.26935E-39,   11.1569E-39,   8.27419E-03
C:/temp/dataset/2/10_10.odb,Step-1,Increment      1: Step Time =    1.000,"PART-1-1",           591,       7.73182,       24.8866,            0.,NA,NA,"",       12.0344,      -11.5107,       3.51159,   321.629E-09
C:/temp/dataset/2/10_10.odb,Step-1,Increment      1: Step Time =    1.000,"PART-1-1",           592,       8.21760,       26.2797,            0.,NA,NA,"",       12.4809,      -11.9524,       3.59320,   260.158E-09
C:/temp/dataset/2/10_10.odb,Step-1,Increment      1: Step Time =    1.000,"PART-1-1",           593,       6.12718,       25.7561,            0.,NA,NA,"",       12.0737,      -11.6980,       2.98840,   266.694E-09
C:/temp/dataset/2/10_10.odb,Step-1,Increment      1: Step Time =    1.000,"PART-1-1",           594,       5.38844,       22.1508,            0.,NA,NA,"",       10.9779,      -10.5788,       2.93321,   642.978E-09
C:/temp/dataset/2/10_10.odb,Step-1,Increment      1: Step Time =    1.000,"PART-1-1",           595,      -3.37677,   775.412E-03,            0.,NA,NA,"",       3.96384,      -3.73877,       1.31668,   13.0241E-03
C:/temp/dataset/2/10_10.odb,Step-1,Increment      1: Step Time =    1.000,"PART-1-1",           596,      -3.41233,       2.84116,            0.,NA,NA,"",       4.46794,      -4.28951,       1.25003,   17.2312E-03
C:/temp/dataset/2/10_10.odb,Step-1,Increment      1: Step Time =    1.000,"PART-1-1",           597,      -11.2482,       24.9673,            0.,NA,NA,"",       10.8807,      -10.6552,      -2.20383,   2.24371E-09
C:/temp/dataset/2/10_10.odb,Step-1,Increment      1: Step Time =    1.000,"PART-1-1",           598,       5.16292,       24.1270,            0.,NA,NA,"",       11.5025,      -11.1630,       2.77374,   329.556E-09
C:/temp/dataset/2/10_10.odb,Step-1,Increment      1: Step Time =    1.000,"PART-1-1",           599,            0.,            5.,            0.,NA,NA,"",       5.52398,      -5.09600,       2.13193,   23.1876E-03
C:/temp/dataset/2/10_10.odb,Step-1,Increment      1: Step Time =    1.000,"PART-1-1",           600,      -1.80204,       3.95011,            0.,NA,NA,"",       4.96789,      -4.68341,       1.65701,   22.5133E-03
C:/temp/dataset/2/10_10.odb,Step-1,Increment      1: Step Time =    1.000,"PART-1-1",           601,       9.59799,       22.9228,            0.,NA,NA,"",       11.7677,      -11.0062,       4.16420,   669.256E-09
C:/temp/dataset/2/10_10.odb,Step-1,Increment      1: Step Time =    1.000,"PART-1-1",           602,       8.30932,       22.9391,            0.,NA,NA,"",       11.5840,      -10.9514,       3.77565,   728.238E-09
C:/temp/dataset/2/10_10.odb,Step-1,Increment      1: Step Time =    1.000,"PART-1-1",           603,      -1.93269,      -1.01257,            0.,NA,NA,"",       3.76842,      -3.32141,       1.78023,   13.2827E-03
C:/temp/dataset/2/10_10.odb,Step-1,Increment      1: Step Time =    1.000,"PART-1-1",           604,      -8.69440,      -13.5596,            0.,NA,NA,"",   693.553E-03,  -678.570E-03,   143.383E-03,   21.8730E-03
C:/temp/dataset/2/10_10.odb,Step-1,Increment      1: Step Time =    1.000,"PART-1-1",           605,       6.07991,       2.65614,            0.,NA,NA,"",       6.23012,      -4.74360,       4.03888,   7.49084E-03
C:/temp/dataset/2/10_10.odb,Step-1,Increment      1: Step Time =    1.000,"PART-1-1",           606,       4.75906,       1.28045,            0.,NA,NA,"",       5.65074,      -4.27457,       3.69580,   10.8753E-03
C:/temp/dataset/2/10_10.odb,Step-1,Increment      1: Step Time =    1.000,"PART-1-1",           607,       10.0234,       4.43547,            0.,NA,NA,"",       7.50880,      -5.46410,       5.15030,   825.155E-06
C:/temp/dataset/2/10_10.odb,Step-1,Increment      1: Step Time =    1.000,"PART-1-1",           608,       7.46673,       4.06304,            0.,NA,NA,"",       6.83403,      -5.23178,       4.39686,   2.45078E-03
C:/temp/dataset/2/10_10.odb,Step-1,Increment      1: Step Time =    1.000,"PART-1-1",           609,  -317.165E-03,  -486.862E-03,            0.,NA,NA,"",       4.17895,      -3.53294,       2.23202,   13.0498E-03
C:/temp/dataset/2/10_10.odb,Step-1,Increment      1: Step Time =    1.000,"PART-1-1",           610,       1.72730,   921.331E-03,            0.,NA,NA,"",       4.89372,      -4.02206,       2.78775,   13.1140E-03
C:/temp/dataset/2/10_10.odb,Step-1,Increment      1: Step Time =    1.000,"PART-1-1",           611,      -4.63664,      -21.2535,            0.,NA,NA,"",   159.981E-03,  -74.5002E-03,   141.576E-03,   45.7541E-03
C:/temp/dataset/2/10_10.odb,Step-1,Increment      1: Step Time =    1.000,"PART-1-1",           612,       11.2827,       3.26092,            0.,NA,NA,"",       7.60961,      -5.17056,       5.58315,   785.099E-06
C:/temp/dataset/2/10_10.odb,Step-1,Increment      1: Step Time =    1.000,"PART-1-1",           613,      -11.4502,      -4.36864,            0.,NA,NA,"",       2.25537,      -2.21717,  -413.327E-03,   19.2298E-03
C:/temp/dataset/2/10_10.odb,Step-1,Increment      1: Step Time =    1.000,"PART-1-1",           614,      -10.8693,      -24.5529,            0.,NA,NA,"",   31.9113E-03,   18.1978E-03,  -26.2139E-03,   12.9972E-03
C:/temp/dataset/2/10_10.odb,Step-1,Increment      1: Step Time =    1.000,"PART-1-1",           615,      -9.52531,      -23.3517,            0.,NA,NA,"",   14.2608E-03,   3.51277E-03,   13.8213E-03,   13.3723E-03
C:/temp/dataset/2/10_10.odb,Step-1,Increment      1: Step Time =    1.000,"PART-1-1",           616,      -10.8903,      -21.7518,            0.,NA,NA,"",   53.3258E-03,  -30.7368E-03,  -43.5763E-03,   14.0723E-03
C:/temp/dataset/2/10_10.odb,Step-1,Increment      1: Step Time =    1.000,"PART-1-1",           617,       3.33333,          -20.,            0.,NA,NA,"",   29.4331E-03,  -29.3283E-03,   2.48145E-03,   650.296E-06
C:/temp/dataset/2/10_10.odb,Step-1,Increment      1: Step Time =    1.000,"PART-1-1",           618,       1.83446,      -21.2108,            0.,NA,NA,"",   35.5432E-03,  -34.3457E-03,   9.14818E-03,   2.41873E-03
C:/temp/dataset/2/10_10.odb,Step-1,Increment      1: Step Time =    1.000,"PART-1-1",           619,       5.12744,      -21.2153,            0.,NA,NA,"",   30.4496E-03,  -30.4387E-03,  -813.587E-06,   986.026E-06
C:/temp/dataset/2/10_10.odb,Step-1,Increment      1: Step Time =    1.000,"PART-1-1",           620,            0.,          -20.,            0.,NA,NA,"",   35.6504E-03,  -28.7194E-03,   21.1222E-03,   3.44151E-03
C:/temp/dataset/2/10_10.odb,Step-1,Increment      1: Step Time =    1.000,"PART-1-1",           621,      -1.43624,      -21.2208,            0.,NA,NA,"",   66.8517E-03,  -48.2985E-03,   46.2213E-03,   9.38236E-03
C:/temp/dataset/2/10_10.odb,Step-1,Increment      1: Step Time =    1.000,"PART-1-1",           622,   398.228E-03,      -22.4316,            0.,NA,NA,"",   47.7945E-03,  -42.4925E-03,   21.8792E-03,   7.74905E-03
C:/temp/dataset/2/10_10.odb,Step-1,Increment      1: Step Time =    1.000,"PART-1-1",           623,   770.736E-03,      -24.9188,            0.,NA,NA,"",   40.5364E-03,  -36.9744E-03,   16.6160E-03,   8.55387E-03
C:/temp/dataset/2/10_10.odb,Step-1,Increment      1: Step Time =    1.000,"PART-1-1",           624,      -3.33333,          -20.,            0.,NA,NA,"",   93.9171E-03,  -49.8526E-03,   79.5936E-03,   28.0426E-03
C:/temp/dataset/2/10_10.odb,Step-1,Increment      1: Step Time =    1.000,"PART-1-1",           625,       8.69606,       24.2205,            0.,NA,NA,"",       11.9843,      -11.3549,       3.83263,   503.567E-09
C:/temp/dataset/2/10_10.odb,Step-1,Increment      1: Step Time =    1.000,"PART-1-1",           626,      -3.33333,            5.,            0.,NA,NA,"",       5.02894,      -4.87986,       1.21541,   30.6292E-03
C:/temp/dataset/2/10_10.odb,Step-1,Increment      1: Step Time =    1.000,"PART-1-1",           627,      -4.94363,       3.89105,            0.,NA,NA,"",       4.56230,      -4.48691,   825.985E-03,   24.7893E-03
C:/temp/dataset/2/10_10.odb,Step-1,Increment      1: Step Time =    1.000,"PART-1-1",           628,      -6.66667,            5.,            0.,NA,NA,"",       4.69162,      -4.67611,   381.231E-03,   27.5584E-03
C:/temp/dataset/2/10_10.odb,Step-1,Increment      1: Step Time =    1.000,"PART-1-1",           629,           10.,          -20.,            0.,NA,NA,"",   29.4711E-03,  -29.4609E-03,  -773.764E-06,   158.391E-06
C:/temp/dataset/2/10_10.odb,Step-1,Increment      1: Step Time =    1.000,"PART-1-1",           630,       8.42239,      -21.2201,            0.,NA,NA,"",   28.4964E-03,  -28.4247E-03,  -2.02015E-03,   421.925E-06
C:/temp/dataset/2/10_10.odb,Step-1,Increment      1: Step Time =    1.000,"PART-1-1",           631,       6.66667,          -20.,            0.,NA,NA,"",   29.1211E-03,  -29.0216E-03,  -2.40474E-03,   175.224E-06
C:/temp/dataset/2/10_10.odb,Step-1,Increment      1: Step Time =    1.000,"PART-1-1",           632,       9.53008,       25.0675,            0.,NA,NA,"",       12.3306,      -11.6485,       4.04436,   355.775E-09
