ODB Name,Step,Frame,Part Instance Name,    êﬂì_ÉâÉxÉã,X,Y,Z,Section Name,Material Name,Section Point,   U-Magnitude,          U-U1,          U-U2,       S-Mises
C:/temp/dataset/2/10_4.odb,Step-1,Increment      1: Step Time =    1.000,"PART-1-1",             1,          -15.,           20.,            0.,NA,NA,"",       3.63959,      -3.52010,  -924.929E-03,   47.6896E-12
C:/temp/dataset/2/10_4.odb,Step-1,Increment      1: Step Time =    1.000,"PART-1-1",             2,          -15.,           25.,            0.,NA,NA,"",       4.21713,      -4.10654,  -959.439E-03,   51.5807E-12
C:/temp/dataset/2/10_4.odb,Step-1,Increment      1: Step Time =    1.000,"PART-1-1",             3,          -10.,           20.,            0.,NA,NA,"",       3.57069,      -3.55461,  -338.493E-03,   102.354E-12
C:/temp/dataset/2/10_4.odb,Step-1,Increment      1: Step Time =    1.000,"PART-1-1",             4,           -5.,           20.,            0.,NA,NA,"",       3.59768,      -3.58912,   247.943E-03,   2.20292E-09
C:/temp/dataset/2/10_4.odb,Step-1,Increment      1: Step Time =    1.000,"PART-1-1",             5,            0.,           20.,            0.,NA,NA,"",       3.71845,      -3.62363,   834.380E-03,   24.0142E-09
C:/temp/dataset/2/10_4.odb,Step-1,Increment      1: Step Time =    1.000,"PART-1-1",             6,            5.,           20.,            0.,NA,NA,"",       3.92438,      -3.65814,       1.42082,   796.339E-09
C:/temp/dataset/2/10_4.odb,Step-1,Increment      1: Step Time =    1.000,"PART-1-1",             7,            5.,          12.5,            0.,NA,NA,"",       3.14464,      -2.77855,       1.47257,   19.2363E-06
C:/temp/dataset/2/10_4.odb,Step-1,Increment      1: Step Time =    1.000,"PART-1-1",             8,            5.,            5.,            0.,NA,NA,"",       2.43136,      -1.89565,       1.52251,   2.24342E-03
C:/temp/dataset/2/10_4.odb,Step-1,Increment      1: Step Time =    1.000,"PART-1-1",             9,           -5.,            5.,            0.,NA,NA,"",       1.80060,      -1.75232,   414.182E-03,   13.0426E-03
C:/temp/dataset/2/10_4.odb,Step-1,Increment      1: Step Time =    1.000,"PART-1-1",            10,          -15.,            5.,            0.,NA,NA,"",       1.72831,      -1.65949,  -482.846E-03,   578.562E-06
C:/temp/dataset/2/10_4.odb,Step-1,Increment      1: Step Time =    1.000,"PART-1-1",            11,          -15.,         -3.75,            0.,NA,NA,"",   960.631E-03,  -870.728E-03,  -405.764E-03,   14.3537E-03
C:/temp/dataset/2/10_4.odb,Step-1,Increment      1: Step Time =    1.000,"PART-1-1",            12,          -15.,         -12.5,            0.,NA,NA,"",   378.058E-03,  -292.354E-03,  -239.702E-03,   19.9935E-03
C:/temp/dataset/2/10_4.odb,Step-1,Increment      1: Step Time =    1.000,"PART-1-1",            13,          -15.,        -21.25,            0.,NA,NA,"",   88.4102E-03,  -29.2741E-03,  -83.4230E-03,   16.5066E-03
C:/temp/dataset/2/10_4.odb,Step-1,Increment      1: Step Time =    1.000,"PART-1-1",            14,          -15.,          -30.,            0.,NA,NA,"",            0.,  -1.46935E-39,  -3.26108E-39,   5.22619E-03
C:/temp/dataset/2/10_4.odb,Step-1,Increment      1: Step Time =    1.000,"PART-1-1",            15,           15.,          -30.,            0.,NA,NA,"",            0.,  -541.193E-42,   893.949E-42,   1.49816E-03
C:/temp/dataset/2/10_4.odb,Step-1,Increment      1: Step Time =    1.000,"PART-1-1",            16,           15.,          -25.,            0.,NA,NA,"",   6.35180E-03,  -5.90999E-03,   2.32755E-03,   21.6780E-06
C:/temp/dataset/2/10_4.odb,Step-1,Increment      1: Step Time =    1.000,"PART-1-1",            17,           15.,          -20.,            0.,NA,NA,"",   9.37774E-03,  -9.12455E-03,   2.16439E-03,   5.99145E-06
C:/temp/dataset/2/10_4.odb,Step-1,Increment      1: Step Time =    1.000,"PART-1-1",            18,            5.,          -20.,            0.,NA,NA,"",   8.46107E-03,  -8.45659E-03,  -275.308E-06,   237.303E-06
C:/temp/dataset/2/10_4.odb,Step-1,Increment      1: Step Time =    1.000,"PART-1-1",            19,           -5.,          -20.,            0.,NA,NA,"",   76.6503E-03,  -26.4492E-03,   71.9424E-03,   29.6666E-03
C:/temp/dataset/2/10_4.odb,Step-1,Increment      1: Step Time =    1.000,"PART-1-1",            20,           -5.,         -12.5,            0.,NA,NA,"",   398.123E-03,  -313.867E-03,   244.927E-03,   23.5700E-03
C:/temp/dataset/2/10_4.odb,Step-1,Increment      1: Step Time =    1.000,"PART-1-1",            21,           -5.,           -5.,            0.,NA,NA,"",   863.905E-03,  -762.482E-03,   406.145E-03,   31.9362E-03
C:/temp/dataset/2/10_4.odb,Step-1,Increment      1: Step Time =    1.000,"PART-1-1",            22,            0.,           -5.,            0.,NA,NA,"",       1.24225,  -736.293E-03,       1.00053,   7.84610E-03
C:/temp/dataset/2/10_4.odb,Step-1,Increment      1: Step Time =    1.000,"PART-1-1",            23,            5.,           -5.,            0.,NA,NA,"",       1.76313,  -744.164E-03,       1.59839,   3.94069E-03
C:/temp/dataset/2/10_4.odb,Step-1,Increment      1: Step Time =    1.000,"PART-1-1",            24,           10.,           -5.,            0.,NA,NA,"",       2.32206,  -776.182E-03,       2.18850,   2.17182E-03
C:/temp/dataset/2/10_4.odb,Step-1,Increment      1: Step Time =    1.000,"PART-1-1",            25,           15.,           -5.,            0.,NA,NA,"",       2.87700,  -807.068E-03,       2.76148,   85.5951E-06
C:/temp/dataset/2/10_4.odb,Step-1,Increment      1: Step Time =    1.000,"PART-1-1",            26,           15.,          3.75,            0.,NA,NA,"",       3.26105,      -1.82206,       2.70455,   304.452E-06
C:/temp/dataset/2/10_4.odb,Step-1,Increment      1: Step Time =    1.000,"PART-1-1",            27,           15.,          12.5,            0.,NA,NA,"",       3.88669,      -2.84745,       2.64545,   21.1791E-06
C:/temp/dataset/2/10_4.odb,Step-1,Increment      1: Step Time =    1.000,"PART-1-1",            28,           15.,         21.25,            0.,NA,NA,"",       4.65711,      -3.87377,       2.58506,   742.459E-09
C:/temp/dataset/2/10_4.odb,Step-1,Increment      1: Step Time =    1.000,"PART-1-1",            29,           15.,           30.,            0.,NA,NA,"",       5.51220,      -4.90003,       2.52467,   10.4856E-09
C:/temp/dataset/2/10_4.odb,Step-1,Increment      1: Step Time =    1.000,"PART-1-1",            30,           7.5,           30.,            0.,NA,NA,"",       5.11975,      -4.84827,       1.64501,   76.4332E-09
C:/temp/dataset/2/10_4.odb,Step-1,Increment      1: Step Time =    1.000,"PART-1-1",            31,            0.,           30.,            0.,NA,NA,"",       4.85718,      -4.79650,   765.360E-03,   6.63715E-09
C:/temp/dataset/2/10_4.odb,Step-1,Increment      1: Step Time =    1.000,"PART-1-1",            32,          -7.5,           30.,            0.,NA,NA,"",       4.74612,      -4.74474,  -114.294E-03,   446.972E-12
C:/temp/dataset/2/10_4.odb,Step-1,Increment      1: Step Time =    1.000,"PART-1-1",            33,          -15.,           30.,            0.,NA,NA,"",       4.79708,      -4.69298,  -993.949E-03,   52.5810E-12
C:/temp/dataset/2/10_4.odb,Step-1,Increment      1: Step Time =    1.000,"PART-1-1",            34,          -15.,          22.5,            0.,NA,NA,"",       3.92799,      -3.81332,  -942.184E-03,   46.0281E-12
C:/temp/dataset/2/10_4.odb,Step-1,Increment      1: Step Time =    1.000,"PART-1-1",            35,         -12.5,           20.,            0.,NA,NA,"",       3.59332,      -3.53736,  -631.711E-03,   54.8243E-12
C:/temp/dataset/2/10_4.odb,Step-1,Increment      1: Step Time =    1.000,"PART-1-1",            36,          -7.5,           20.,            0.,NA,NA,"",       3.57215,      -3.57187,  -45.2747E-03,   432.461E-12
C:/temp/dataset/2/10_4.odb,Step-1,Increment      1: Step Time =    1.000,"PART-1-1",            37,          -2.5,           20.,            0.,NA,NA,"",       3.64675,      -3.60638,   541.162E-03,   5.35394E-09
C:/temp/dataset/2/10_4.odb,Step-1,Increment      1: Step Time =    1.000,"PART-1-1",            38,           2.5,           20.,            0.,NA,NA,"",       3.81150,      -3.64089,       1.12760,   121.379E-09
C:/temp/dataset/2/10_4.odb,Step-1,Increment      1: Step Time =    1.000,"PART-1-1",            39,            5.,           15.,            0.,NA,NA,"",       3.39904,      -3.07172,       1.45533,   4.35762E-06
C:/temp/dataset/2/10_4.odb,Step-1,Increment      1: Step Time =    1.000,"PART-1-1",            40,            5.,          17.5,            0.,NA,NA,"",       3.65935,      -3.36493,       1.43807,   1.80772E-06
C:/temp/dataset/2/10_4.odb,Step-1,Increment      1: Step Time =    1.000,"PART-1-1",            41,            5.,           7.5,            0.,NA,NA,"",       2.65983,      -2.19195,       1.50666,   457.948E-06
C:/temp/dataset/2/10_4.odb,Step-1,Increment      1: Step Time =    1.000,"PART-1-1",            42,            5.,           10.,            0.,NA,NA,"",       2.89756,      -2.48531,       1.48966,   119.977E-06
C:/temp/dataset/2/10_4.odb,Step-1,Increment      1: Step Time =    1.000,"PART-1-1",            43,      -1.66667,            5.,            0.,NA,NA,"",       1.96092,      -1.80822,   758.644E-03,   11.5327E-03
C:/temp/dataset/2/10_4.odb,Step-1,Increment      1: Step Time =    1.000,"PART-1-1",            44,       1.66667,            5.,            0.,NA,NA,"",       2.17533,      -1.85726,       1.13254,   7.23840E-03
C:/temp/dataset/2/10_4.odb,Step-1,Increment      1: Step Time =    1.000,"PART-1-1",            45,      -11.6667,            5.,            0.,NA,NA,"",       1.68429,      -1.67384,  -187.356E-03,   2.36639E-03
C:/temp/dataset/2/10_4.odb,Step-1,Increment      1: Step Time =    1.000,"PART-1-1",            46,      -8.33333,            5.,            0.,NA,NA,"",       1.70647,      -1.70330,   103.928E-03,   8.98283E-03
C:/temp/dataset/2/10_4.odb,Step-1,Increment      1: Step Time =    1.000,"PART-1-1",            47,          -15.,  -833.333E-03,            0.,NA,NA,"",       1.21175,      -1.12676,  -445.813E-03,   8.04015E-03
C:/temp/dataset/2/10_4.odb,Step-1,Increment      1: Step Time =    1.000,"PART-1-1",            48,          -15.,       2.08333,            0.,NA,NA,"",       1.47193,      -1.39484,  -470.105E-03,   1.86176E-03
C:/temp/dataset/2/10_4.odb,Step-1,Increment      1: Step Time =    1.000,"PART-1-1",            49,          -15.,      -9.58333,            0.,NA,NA,"",   538.339E-03,  -449.603E-03,  -296.084E-03,   19.7149E-03
C:/temp/dataset/2/10_4.odb,Step-1,Increment      1: Step Time =    1.000,"PART-1-1",            50,          -15.,      -6.66667,            0.,NA,NA,"",   732.958E-03,  -642.402E-03,  -352.912E-03,   18.3509E-03
C:/temp/dataset/2/10_4.odb,Step-1,Increment      1: Step Time =    1.000,"PART-1-1",            51,          -15.,      -18.3333,            0.,NA,NA,"",   155.199E-03,  -82.3267E-03,  -131.563E-03,   19.0587E-03
C:/temp/dataset/2/10_4.odb,Step-1,Increment      1: Step Time =    1.000,"PART-1-1",            52,          -15.,      -15.4167,            0.,NA,NA,"",   250.787E-03,  -169.777E-03,  -184.580E-03,   20.1027E-03
C:/temp/dataset/2/10_4.odb,Step-1,Increment      1: Step Time =    1.000,"PART-1-1",            53,          -15.,      -27.0833,            0.,NA,NA,"",   16.8436E-03,   654.645E-06,  -16.8309E-03,   9.03092E-03
C:/temp/dataset/2/10_4.odb,Step-1,Increment      1: Step Time =    1.000,"PART-1-1",            54,          -15.,      -24.1667,            0.,NA,NA,"",   45.2607E-03,  -4.80421E-03,  -45.0050E-03,   12.6776E-03
C:/temp/dataset/2/10_4.odb,Step-1,Increment      1: Step Time =    1.000,"PART-1-1",            55,           12.,          -30.,            0.,NA,NA,"",            0.,  -1.65046E-39,   1.38580E-39,   739.975E-06
C:/temp/dataset/2/10_4.odb,Step-1,Increment      1: Step Time =    1.000,"PART-1-1",            56,            9.,          -30.,            0.,NA,NA,"",            0.,  -1.59628E-39,  -407.605E-42,   1.11997E-03
C:/temp/dataset/2/10_4.odb,Step-1,Increment      1: Step Time =    1.000,"PART-1-1",            57,            6.,          -30.,            0.,NA,NA,"",            0.,  -3.20468E-39,   3.02162E-39,   1.63303E-03
C:/temp/dataset/2/10_4.odb,Step-1,Increment      1: Step Time =    1.000,"PART-1-1",            58,            3.,          -30.,            0.,NA,NA,"",            0.,  -2.99938E-39,   1.72845E-39,   2.38027E-03
C:/temp/dataset/2/10_4.odb,Step-1,Increment      1: Step Time =    1.000,"PART-1-1",            59,            0.,          -30.,            0.,NA,NA,"",            0.,  -5.94505E-39,   8.76801E-39,   3.15248E-03
C:/temp/dataset/2/10_4.odb,Step-1,Increment      1: Step Time =    1.000,"PART-1-1",            60,           -3.,          -30.,            0.,NA,NA,"",            0.,  -4.86164E-39,   11.4055E-39,   3.45155E-03
C:/temp/dataset/2/10_4.odb,Step-1,Increment      1: Step Time =    1.000,"PART-1-1",            61,           -6.,          -30.,            0.,NA,NA,"",            0.,  -201.518E-42,   8.73971E-39,   3.38300E-03
C:/temp/dataset/2/10_4.odb,Step-1,Increment      1: Step Time =    1.000,"PART-1-1",            62,           -9.,          -30.,            0.,NA,NA,"",            0.,   7.64951E-39,   6.51924E-39,   3.89166E-03
C:/temp/dataset/2/10_4.odb,Step-1,Increment      1: Step Time =    1.000,"PART-1-1",            63,          -12.,          -30.,            0.,NA,NA,"",            0.,   3.00439E-39,  -7.55246E-39,   4.85864E-03
C:/temp/dataset/2/10_4.odb,Step-1,Increment      1: Step Time =    1.000,"PART-1-1",            64,           15.,         -27.5,            0.,NA,NA,"",   3.95684E-03,  -3.37063E-03,   2.07253E-03,   482.403E-06
C:/temp/dataset/2/10_4.odb,Step-1,Increment      1: Step Time =    1.000,"PART-1-1",            65,           15.,         -22.5,            0.,NA,NA,"",   8.02603E-03,  -7.71573E-03,   2.21012E-03,   47.5575E-06
C:/temp/dataset/2/10_4.odb,Step-1,Increment      1: Step Time =    1.000,"PART-1-1",            66,       8.33333,          -20.,            0.,NA,NA,"",   8.80244E-03,  -8.77151E-03,  -737.275E-06,   107.198E-06
C:/temp/dataset/2/10_4.odb,Step-1,Increment      1: Step Time =    1.000,"PART-1-1",            67,       11.6667,          -20.,            0.,NA,NA,"",   9.03286E-03,  -9.02630E-03,   344.035E-06,   64.0401E-06
C:/temp/dataset/2/10_4.odb,Step-1,Increment      1: Step Time =    1.000,"PART-1-1",            68,      -1.66667,          -20.,            0.,NA,NA,"",   20.2100E-03,  -8.04836E-03,   18.5382E-03,   5.55498E-03
C:/temp/dataset/2/10_4.odb,Step-1,Increment      1: Step Time =    1.000,"PART-1-1",            69,       1.66667,          -20.,            0.,NA,NA,"",   8.98149E-03,  -7.97258E-03,   4.13584E-03,   945.847E-06
C:/temp/dataset/2/10_4.odb,Step-1,Increment      1: Step Time =    1.000,"PART-1-1",            70,           -5.,          -15.,            0.,NA,NA,"",   279.284E-03,  -200.702E-03,   194.212E-03,   23.5560E-03
C:/temp/dataset/2/10_4.odb,Step-1,Increment      1: Step Time =    1.000,"PART-1-1",            71,           -5.,         -17.5,            0.,NA,NA,"",   179.792E-03,  -107.923E-03,   143.798E-03,   26.4894E-03
C:/temp/dataset/2/10_4.odb,Step-1,Increment      1: Step Time =    1.000,"PART-1-1",            72,           -5.,          -7.5,            0.,NA,NA,"",   693.261E-03,  -604.669E-03,   339.097E-03,   25.0260E-03
C:/temp/dataset/2/10_4.odb,Step-1,Increment      1: Step Time =    1.000,"PART-1-1",            73,           -5.,          -10.,            0.,NA,NA,"",   536.795E-03,  -449.337E-03,   293.676E-03,   22.7471E-03
C:/temp/dataset/2/10_4.odb,Step-1,Increment      1: Step Time =    1.000,"PART-1-1",            74,          -2.5,           -5.,            0.,NA,NA,"",       1.02617,  -740.314E-03,   710.598E-03,   15.5004E-03
C:/temp/dataset/2/10_4.odb,Step-1,Increment      1: Step Time =    1.000,"PART-1-1",            75,           2.5,           -5.,            0.,NA,NA,"",       1.49004,  -737.436E-03,       1.29477,   6.37456E-03
C:/temp/dataset/2/10_4.odb,Step-1,Increment      1: Step Time =    1.000,"PART-1-1",            76,           7.5,           -5.,            0.,NA,NA,"",       2.04696,  -759.372E-03,       1.90090,   4.38745E-03
C:/temp/dataset/2/10_4.odb,Step-1,Increment      1: Step Time =    1.000,"PART-1-1",            77,          12.5,           -5.,            0.,NA,NA,"",       2.59622,  -790.484E-03,       2.47295,   606.292E-06
C:/temp/dataset/2/10_4.odb,Step-1,Increment      1: Step Time =    1.000,"PART-1-1",            78,           15.,   833.333E-03,            0.,NA,NA,"",       3.10068,      -1.48201,       2.72358,   378.222E-06
C:/temp/dataset/2/10_4.odb,Step-1,Increment      1: Step Time =    1.000,"PART-1-1",            79,           15.,      -2.08333,            0.,NA,NA,"",       2.97129,      -1.14375,       2.74233,   309.349E-06
C:/temp/dataset/2/10_4.odb,Step-1,Increment      1: Step Time =    1.000,"PART-1-1",            80,           15.,       9.58333,            0.,NA,NA,"",       3.65805,      -2.50532,       2.66546,   84.7807E-06
C:/temp/dataset/2/10_4.odb,Step-1,Increment      1: Step Time =    1.000,"PART-1-1",            81,           15.,       6.66667,            0.,NA,NA,"",       3.44826,      -2.16336,       2.68521,   203.910E-06
C:/temp/dataset/2/10_4.odb,Step-1,Increment      1: Step Time =    1.000,"PART-1-1",            82,           15.,       18.3333,            0.,NA,NA,"",       4.38860,      -3.53168,       2.60520,   1.07154E-06
C:/temp/dataset/2/10_4.odb,Step-1,Increment      1: Step Time =    1.000,"PART-1-1",            83,           15.,       15.4167,            0.,NA,NA,"",       4.13107,      -3.18958,       2.62533,   2.06642E-06
C:/temp/dataset/2/10_4.odb,Step-1,Increment      1: Step Time =    1.000,"PART-1-1",            84,           15.,       27.0833,            0.,NA,NA,"",       5.22024,      -4.55795,       2.54480,   47.0441E-09
C:/temp/dataset/2/10_4.odb,Step-1,Increment      1: Step Time =    1.000,"PART-1-1",            85,           15.,       24.1667,            0.,NA,NA,"",       4.93481,      -4.21586,       2.56493,   203.073E-09
C:/temp/dataset/2/10_4.odb,Step-1,Increment      1: Step Time =    1.000,"PART-1-1",            86,           10.,           30.,            0.,NA,NA,"",       5.23737,      -4.86552,       1.93823,   81.0095E-09
C:/temp/dataset/2/10_4.odb,Step-1,Increment      1: Step Time =    1.000,"PART-1-1",            87,          12.5,           30.,            0.,NA,NA,"",       5.36851,      -4.88278,       2.23145,   22.8198E-09
C:/temp/dataset/2/10_4.odb,Step-1,Increment      1: Step Time =    1.000,"PART-1-1",            88,           2.5,           30.,            0.,NA,NA,"",       4.92878,      -4.81376,       1.05858,   4.73431E-09
C:/temp/dataset/2/10_4.odb,Step-1,Increment      1: Step Time =    1.000,"PART-1-1",            89,            5.,           30.,            0.,NA,NA,"",       5.01658,      -4.83101,       1.35180,   37.2847E-09
C:/temp/dataset/2/10_4.odb,Step-1,Increment      1: Step Time =    1.000,"PART-1-1",            90,           -5.,           30.,            0.,NA,NA,"",       4.76536,      -4.76200,   178.924E-03,   1.67120E-09
C:/temp/dataset/2/10_4.odb,Step-1,Increment      1: Step Time =    1.000,"PART-1-1",            91,          -2.5,           30.,            0.,NA,NA,"",       4.80252,      -4.77925,   472.142E-03,   4.37737E-09
C:/temp/dataset/2/10_4.odb,Step-1,Increment      1: Step Time =    1.000,"PART-1-1",            92,         -12.5,           30.,            0.,NA,NA,"",       4.76207,      -4.71023,  -700.731E-03,   39.6516E-12
C:/temp/dataset/2/10_4.odb,Step-1,Increment      1: Step Time =    1.000,"PART-1-1",            93,          -10.,           30.,            0.,NA,NA,"",       4.74502,      -4.72749,  -407.513E-03,   79.7590E-12
C:/temp/dataset/2/10_4.odb,Step-1,Increment      1: Step Time =    1.000,"PART-1-1",            94,          -15.,          27.5,            0.,NA,NA,"",       4.50686,      -4.39976,  -976.694E-03,   51.4520E-12
C:/temp/dataset/2/10_4.odb,Step-1,Increment      1: Step Time =    1.000,"PART-1-1",            95,      -12.4978,       24.9766,            0.,NA,NA,"",       4.17450,      -4.12106,  -665.797E-03,   90.1081E-12
C:/temp/dataset/2/10_4.odb,Step-1,Increment      1: Step Time =    1.000,"PART-1-1",            96,      -7.49872,       27.4475,            0.,NA,NA,"",       4.44643,      -4.44538,  -96.5268E-03,   716.056E-12
C:/temp/dataset/2/10_4.odb,Step-1,Increment      1: Step Time =    1.000,"PART-1-1",            97,      -7.50661,       22.4446,            0.,NA,NA,"",       3.85905,      -3.85854,  -62.9228E-03,   728.775E-12
C:/temp/dataset/2/10_4.odb,Step-1,Increment      1: Step Time =    1.000,"PART-1-1",            98,      -2.53392,       22.4091,            0.,NA,NA,"",       3.92339,      -3.88870,   520.555E-03,   4.09686E-09
C:/temp/dataset/2/10_4.odb,Step-1,Increment      1: Step Time =    1.000,"PART-1-1",            99,  -19.7467E-03,       27.3919,            0.,NA,NA,"",       4.55790,      -4.49048,   781.045E-03,   3.98882E-09
C:/temp/dataset/2/10_4.odb,Step-1,Increment      1: Step Time =    1.000,"PART-1-1",           100,       2.31326,       22.2671,            0.,NA,NA,"",       4.05477,      -3.90550,       1.09005,   77.4520E-09
C:/temp/dataset/2/10_4.odb,Step-1,Increment      1: Step Time =    1.000,"PART-1-1",           101,       7.89882,       27.4278,            0.,NA,NA,"",       4.85994,      -4.54933,       1.70954,   74.1223E-09
C:/temp/dataset/2/10_4.odb,Step-1,Increment      1: Step Time =    1.000,"PART-1-1",           102,       6.74061,       20.0564,            0.,NA,NA,"",       4.01969,      -3.67678,       1.62458,   494.519E-09
C:/temp/dataset/2/10_4.odb,Step-1,Increment      1: Step Time =    1.000,"PART-1-1",           103,       6.76082,       17.7755,            0.,NA,NA,"",       3.78449,      -3.40939,       1.64269,   982.292E-09
C:/temp/dataset/2/10_4.odb,Step-1,Increment      1: Step Time =    1.000,"PART-1-1",           104,       7.34933,       13.0959,            0.,NA,NA,"",       3.35377,      -2.86464,       1.74401,   27.9941E-06
C:/temp/dataset/2/10_4.odb,Step-1,Increment      1: Step Time =    1.000,"PART-1-1",           105,       12.5251,      -2.17932,            0.,NA,NA,"",       2.69817,      -1.11579,       2.45665,   374.472E-06
C:/temp/dataset/2/10_4.odb,Step-1,Increment      1: Step Time =    1.000,"PART-1-1",           106,       11.8446,      -24.9441,            0.,NA,NA,"",   6.03445E-03,  -6.02037E-03,   412.045E-06,   374.049E-06
C:/temp/dataset/2/10_4.odb,Step-1,Increment      1: Step Time =    1.000,"PART-1-1",           107,       2.44158,      -2.66949,            0.,NA,NA,"",       1.61811,      -1.00635,       1.26710,   4.72257E-03
C:/temp/dataset/2/10_4.odb,Step-1,Increment      1: Step Time =    1.000,"PART-1-1",           108,       7.46163,      -2.37632,            0.,NA,NA,"",       2.15160,      -1.06422,       1.86998,   4.72639E-03
C:/temp/dataset/2/10_4.odb,Step-1,Increment      1: Step Time =    1.000,"PART-1-1",           109,       7.48217,       7.95809,            0.,NA,NA,"",       2.88863,      -2.26308,       1.79518,   252.815E-06
C:/temp/dataset/2/10_4.odb,Step-1,Increment      1: Step Time =    1.000,"PART-1-1",           110,      -5.01446,       22.4347,            0.,NA,NA,"",       3.88136,      -3.87458,   229.444E-03,   1.79616E-09
C:/temp/dataset/2/10_4.odb,Step-1,Increment      1: Step Time =    1.000,"PART-1-1",           111,  -75.1424E-03,       22.3615,            0.,NA,NA,"",       3.98317,      -3.90009,   809.267E-03,   17.1755E-09
C:/temp/dataset/2/10_4.odb,Step-1,Increment      1: Step Time =    1.000,"PART-1-1",           112,       4.50776,       22.1530,            0.,NA,NA,"",       4.13333,      -3.90726,       1.34822,   212.242E-09
C:/temp/dataset/2/10_4.odb,Step-1,Increment      1: Step Time =    1.000,"PART-1-1",           113,       7.06405,       15.4904,            0.,NA,NA,"",       3.57089,      -3.14349,       1.69403,   6.51289E-06
C:/temp/dataset/2/10_4.odb,Step-1,Increment      1: Step Time =    1.000,"PART-1-1",           114,       7.46285,       10.5556,            0.,NA,NA,"",       3.12130,      -2.56754,       1.77489,   82.2898E-06
C:/temp/dataset/2/10_4.odb,Step-1,Increment      1: Step Time =    1.000,"PART-1-1",           115,      -2.89738,      -2.05905,            0.,NA,NA,"",       1.23625,      -1.05485,   644.684E-03,   9.43808E-03
C:/temp/dataset/2/10_4.odb,Step-1,Increment      1: Step Time =    1.000,"PART-1-1",           116,      -7.61206,      -10.6629,            0.,NA,NA,"",   410.502E-03,  -386.679E-03,   137.808E-03,   13.0249E-03
C:/temp/dataset/2/10_4.odb,Step-1,Increment      1: Step Time =    1.000,"PART-1-1",           117,      -6.85891,      -17.7385,            0.,NA,NA,"",   121.459E-03,  -85.9433E-03,   85.8262E-03,   17.1604E-03
C:/temp/dataset/2/10_4.odb,Step-1,Increment      1: Step Time =    1.000,"PART-1-1",           118,       11.9280,      -27.4687,            0.,NA,NA,"",   3.32117E-03,  -3.29527E-03,   413.977E-06,   836.672E-06
C:/temp/dataset/2/10_4.odb,Step-1,Increment      1: Step Time =    1.000,"PART-1-1",           119,      -7.44747,      -13.1413,            0.,NA,NA,"",   286.332E-03,  -259.957E-03,   120.035E-03,   13.3583E-03
C:/temp/dataset/2/10_4.odb,Step-1,Increment      1: Step Time =    1.000,"PART-1-1",           120,      -7.13169,      -15.4658,            0.,NA,NA,"",   193.679E-03,  -162.534E-03,   105.329E-03,   15.2019E-03
C:/temp/dataset/2/10_4.odb,Step-1,Increment      1: Step Time =    1.000,"PART-1-1",           121,      -8.02089,      -5.87394,            0.,NA,NA,"",   710.671E-03,  -695.922E-03,   144.034E-03,   6.76028E-03
C:/temp/dataset/2/10_4.odb,Step-1,Increment      1: Step Time =    1.000,"PART-1-1",           122,      -7.74476,      -8.18529,            0.,NA,NA,"",   556.524E-03,  -536.049E-03,   149.564E-03,   12.2141E-03
C:/temp/dataset/2/10_4.odb,Step-1,Increment      1: Step Time =    1.000,"PART-1-1",           123,  -21.3834E-03,      -2.74811,            0.,NA,NA,"",       1.39145,  -990.317E-03,   977.442E-03,   7.28922E-03
C:/temp/dataset/2/10_4.odb,Step-1,Increment      1: Step Time =    1.000,"PART-1-1",           124,       4.94012,      -2.49525,            0.,NA,NA,"",       1.87988,      -1.03832,       1.56711,   5.74456E-03
C:/temp/dataset/2/10_4.odb,Step-1,Increment      1: Step Time =    1.000,"PART-1-1",           125,       10.0127,      -2.27482,            0.,NA,NA,"",       2.42568,      -1.08911,       2.16743,   2.07527E-03
C:/temp/dataset/2/10_4.odb,Step-1,Increment      1: Step Time =    1.000,"PART-1-1",           126,       10.2967,       27.4669,            0.,NA,NA,"",       4.98512,      -4.57047,       1.99052,   78.7752E-09
C:/temp/dataset/2/10_4.odb,Step-1,Increment      1: Step Time =    1.000,"PART-1-1",           127,       12.6750,       27.3103,            0.,NA,NA,"",       5.10164,      -4.56851,       2.27054,   97.4408E-09
C:/temp/dataset/2/10_4.odb,Step-1,Increment      1: Step Time =    1.000,"PART-1-1",           128,       2.52543,       27.2659,            0.,NA,NA,"",       4.62134,      -4.49327,       1.08043,   26.5403E-09
C:/temp/dataset/2/10_4.odb,Step-1,Increment      1: Step Time =    1.000,"PART-1-1",           129,       5.32711,       26.8707,            0.,NA,NA,"",       4.68406,      -4.46624,       1.41176,   73.4826E-09
C:/temp/dataset/2/10_4.odb,Step-1,Increment      1: Step Time =    1.000,"PART-1-1",           130,      -5.00948,       27.4462,            0.,NA,NA,"",       4.46667,      -4.46240,   195.438E-03,   1.77786E-09
C:/temp/dataset/2/10_4.odb,Step-1,Increment      1: Step Time =    1.000,"PART-1-1",           131,      -2.51658,       27.4324,            0.,NA,NA,"",       4.50449,      -4.47798,   487.919E-03,   3.25876E-09
C:/temp/dataset/2/10_4.odb,Step-1,Increment      1: Step Time =    1.000,"PART-1-1",           132,      -9.99211,       27.4668,            0.,NA,NA,"",       4.44748,      -4.43043,  -389.103E-03,   223.471E-12
C:/temp/dataset/2/10_4.odb,Step-1,Increment      1: Step Time =    1.000,"PART-1-1",           133,       12.5029,       21.6680,            0.,NA,NA,"",       4.52707,      -3.90557,       2.28929,   463.854E-09
C:/temp/dataset/2/10_4.odb,Step-1,Increment      1: Step Time =    1.000,"PART-1-1",           134,      -12.7198,      -9.27859,            0.,NA,NA,"",   484.913E-03,  -457.554E-03,  -160.575E-03,   9.43640E-03
C:/temp/dataset/2/10_4.odb,Step-1,Increment      1: Step Time =    1.000,"PART-1-1",           135,      -12.2206,      -21.4876,            0.,NA,NA,"",   39.8376E-03,  -12.1640E-03,  -37.9351E-03,   8.05118E-03
C:/temp/dataset/2/10_4.odb,Step-1,Increment      1: Step Time =    1.000,"PART-1-1",           136,       12.4390,       11.8581,            0.,NA,NA,"",       3.62042,      -2.75447,       2.34953,   40.9648E-06
C:/temp/dataset/2/10_4.odb,Step-1,Increment      1: Step Time =    1.000,"PART-1-1",           137,      -12.6285,      -12.0158,            0.,NA,NA,"",   329.588E-03,  -303.685E-03,  -128.078E-03,   9.11693E-03
C:/temp/dataset/2/10_4.odb,Step-1,Increment      1: Step Time =    1.000,"PART-1-1",           138,      -12.4213,      -14.8709,            0.,NA,NA,"",   198.782E-03,  -175.524E-03,  -93.3042E-03,   8.34411E-03
C:/temp/dataset/2/10_4.odb,Step-1,Increment      1: Step Time =    1.000,"PART-1-1",           139,       12.2989,       14.8029,            0.,NA,NA,"",       3.86683,      -3.09895,       2.31276,   11.1916E-06
C:/temp/dataset/2/10_4.odb,Step-1,Increment      1: Step Time =    1.000,"PART-1-1",           140,       11.7182,       18.2155,            0.,NA,NA,"",       4.14122,      -3.49521,       2.22109,   1.06869E-06
C:/temp/dataset/2/10_4.odb,Step-1,Increment      1: Step Time =    1.000,"PART-1-1",           141,      -12.3380,      -4.01281,            0.,NA,NA,"",   864.922E-03,  -844.274E-03,  -187.861E-03,   8.86748E-03
C:/temp/dataset/2/10_4.odb,Step-1,Increment      1: Step Time =    1.000,"PART-1-1",           142,       12.5089,       6.21106,            0.,NA,NA,"",       3.18178,      -2.09273,       2.39671,   85.6626E-06
C:/temp/dataset/2/10_4.odb,Step-1,Increment      1: Step Time =    1.000,"PART-1-1",           143,      -10.9765,      -1.21375,            0.,NA,NA,"",       1.10173,      -1.09699,  -102.111E-03,   9.98580E-03
C:/temp/dataset/2/10_4.odb,Step-1,Increment      1: Step Time =    1.000,"PART-1-1",           144,      -11.4273,       2.02370,            0.,NA,NA,"",       1.41130,      -1.40259,  -156.568E-03,   7.12176E-03
C:/temp/dataset/2/10_4.odb,Step-1,Increment      1: Step Time =    1.000,"PART-1-1",           145,      -12.7154,      -6.64001,            0.,NA,NA,"",   663.406E-03,  -636.046E-03,  -188.556E-03,   9.47377E-03
C:/temp/dataset/2/10_4.odb,Step-1,Increment      1: Step Time =    1.000,"PART-1-1",           146,      -11.7762,      -18.1315,            0.,NA,NA,"",   85.0916E-03,  -69.6628E-03,  -48.8638E-03,   6.43974E-03
C:/temp/dataset/2/10_4.odb,Step-1,Increment      1: Step Time =    1.000,"PART-1-1",           147,      -12.2481,      -24.4184,            0.,NA,NA,"",   23.1832E-03,   7.08674E-03,  -22.0735E-03,   7.05420E-03
C:/temp/dataset/2/10_4.odb,Step-1,Increment      1: Step Time =    1.000,"PART-1-1",           148,       12.5340,       3.42208,            0.,NA,NA,"",       2.99533,      -1.76674,       2.41881,   79.3294E-06
C:/temp/dataset/2/10_4.odb,Step-1,Increment      1: Step Time =    1.000,"PART-1-1",           149,       12.5428,   630.306E-03,            0.,NA,NA,"",       2.83342,      -1.44167,       2.43923,   274.010E-06
C:/temp/dataset/2/10_4.odb,Step-1,Increment      1: Step Time =    1.000,"PART-1-1",           150,       12.5001,       9.03097,            0.,NA,NA,"",       3.39391,      -2.42326,       2.37623,   92.2302E-06
C:/temp/dataset/2/10_4.odb,Step-1,Increment      1: Step Time =    1.000,"PART-1-1",           151,       12.7192,       24.5718,            0.,NA,NA,"",       4.82781,      -4.24764,       2.29462,   191.952E-09
C:/temp/dataset/2/10_4.odb,Step-1,Increment      1: Step Time =    1.000,"PART-1-1",           152,       2.66783,      -27.4286,            0.,NA,NA,"",   7.07411E-03,  -6.86497E-03,   1.70743E-03,   2.04081E-03
C:/temp/dataset/2/10_4.odb,Step-1,Increment      1: Step Time =    1.000,"PART-1-1",           153,       8.86089,      -27.4494,            0.,NA,NA,"",   3.97988E-03,  -3.97906E-03,   80.9789E-06,   992.304E-06
C:/temp/dataset/2/10_4.odb,Step-1,Increment      1: Step Time =    1.000,"PART-1-1",           154,       5.76511,      -27.4328,            0.,NA,NA,"",   5.34500E-03,  -5.33052E-03,   393.170E-06,   1.39208E-03
C:/temp/dataset/2/10_4.odb,Step-1,Increment      1: Step Time =    1.000,"PART-1-1",           155,  -414.647E-03,      -27.4330,            0.,NA,NA,"",   8.68847E-03,  -7.24757E-03,   4.79190E-03,   3.32391E-03
C:/temp/dataset/2/10_4.odb,Step-1,Increment      1: Step Time =    1.000,"PART-1-1",           156,      -3.42691,      -27.4460,            0.,NA,NA,"",   9.49766E-03,  -3.91975E-03,   8.65108E-03,   5.06106E-03
C:/temp/dataset/2/10_4.odb,Step-1,Increment      1: Step Time =    1.000,"PART-1-1",           157,      -6.36574,      -27.4272,            0.,NA,NA,"",   9.27318E-03,   3.33346E-03,   8.65332E-03,   5.33831E-03
C:/temp/dataset/2/10_4.odb,Step-1,Increment      1: Step Time =    1.000,"PART-1-1",           158,       10.5238,       25.0033,            0.,NA,NA,"",       4.74159,      -4.28309,       2.03415,   196.065E-09
C:/temp/dataset/2/10_4.odb,Step-1,Increment      1: Step Time =    1.000,"PART-1-1",           159,       6.26912,       22.1485,            0.,NA,NA,"",       4.21607,      -3.91890,       1.55484,   351.800E-09
C:/temp/dataset/2/10_4.odb,Step-1,Increment      1: Step Time =    1.000,"PART-1-1",           160,      -5.96402,      -2.70245,            0.,NA,NA,"",       1.02756,  -975.846E-03,   321.864E-03,   10.3528E-03
C:/temp/dataset/2/10_4.odb,Step-1,Increment      1: Step Time =    1.000,"PART-1-1",           161,      -12.5033,       22.4816,            0.,NA,NA,"",       3.88306,      -3.82840,  -649.221E-03,   74.2302E-12
C:/temp/dataset/2/10_4.odb,Step-1,Increment      1: Step Time =    1.000,"PART-1-1",           162,      -2.53325,       24.9024,            0.,NA,NA,"",       4.21134,      -4.18114,   503.426E-03,   3.64487E-09
C:/temp/dataset/2/10_4.odb,Step-1,Increment      1: Step Time =    1.000,"PART-1-1",           163,       4.43197,       24.4161,            0.,NA,NA,"",       4.37713,      -4.17217,       1.32371,   97.4237E-09
C:/temp/dataset/2/10_4.odb,Step-1,Increment      1: Step Time =    1.000,"PART-1-1",           164,      -10.2797,      -8.84555,            0.,NA,NA,"",   483.400E-03,  -483.246E-03,  -12.2153E-03,   1.19484E-03
C:/temp/dataset/2/10_4.odb,Step-1,Increment      1: Step Time =    1.000,"PART-1-1",           165,       2.21534,  -332.134E-03,            0.,NA,NA,"",       1.76026,      -1.26596,       1.22305,   5.61466E-03
C:/temp/dataset/2/10_4.odb,Step-1,Increment      1: Step Time =    1.000,"PART-1-1",           166,  -74.2209E-03,       24.8536,            0.,NA,NA,"",       4.26657,      -4.19238,   792.175E-03,   5.31054E-09
C:/temp/dataset/2/10_4.odb,Step-1,Increment      1: Step Time =    1.000,"PART-1-1",           167,       2.30693,       24.7164,            0.,NA,NA,"",       4.32770,      -4.19272,       1.07240,   42.2466E-09
C:/temp/dataset/2/10_4.odb,Step-1,Increment      1: Step Time =    1.000,"PART-1-1",           168,       9.79368,       13.9045,            0.,NA,NA,"",       3.59995,      -2.97631,       2.02515,   20.7255E-06
C:/temp/dataset/2/10_4.odb,Step-1,Increment      1: Step Time =    1.000,"PART-1-1",           169,       9.30777,       16.4521,            0.,NA,NA,"",       3.80907,      -3.27175,       1.95055,   4.53341E-06
C:/temp/dataset/2/10_4.odb,Step-1,Increment      1: Step Time =    1.000,"PART-1-1",           170,      -2.35985,       1.11806,            0.,NA,NA,"",       1.54991,      -1.38719,   691.318E-03,   5.28527E-03
C:/temp/dataset/2/10_4.odb,Step-1,Increment      1: Step Time =    1.000,"PART-1-1",           171,      -9.94133,      -13.9778,            0.,NA,NA,"",   210.837E-03,  -210.775E-03,   5.11772E-03,   2.62171E-03
C:/temp/dataset/2/10_4.odb,Step-1,Increment      1: Step Time =    1.000,"PART-1-1",           172,       4.80988,   33.7751E-03,            0.,NA,NA,"",       2.02397,      -1.32407,       1.53078,   5.01394E-03
C:/temp/dataset/2/10_4.odb,Step-1,Increment      1: Step Time =    1.000,"PART-1-1",           173,       9.94126,       11.1894,            0.,NA,NA,"",       3.36429,      -2.65888,       2.06128,   59.4937E-06
C:/temp/dataset/2/10_4.odb,Step-1,Increment      1: Step Time =    1.000,"PART-1-1",           174,       7.43598,   226.782E-03,            0.,NA,NA,"",       2.29245,      -1.36269,       1.84348,   3.15390E-03
C:/temp/dataset/2/10_4.odb,Step-1,Increment      1: Step Time =    1.000,"PART-1-1",           175,      -7.50368,       24.9336,            0.,NA,NA,"",       4.15126,      -4.15049,  -79.7584E-03,   815.937E-12
C:/temp/dataset/2/10_4.odb,Step-1,Increment      1: Step Time =    1.000,"PART-1-1",           176,      -10.1536,      -11.3797,            0.,NA,NA,"",   335.737E-03,  -335.723E-03,  -3.03141E-03,   1.70900E-03
C:/temp/dataset/2/10_4.odb,Step-1,Increment      1: Step Time =    1.000,"PART-1-1",           177,       6.92724,       24.6415,            0.,NA,NA,"",       4.51452,      -4.21583,       1.61482,   138.803E-09
C:/temp/dataset/2/10_4.odb,Step-1,Increment      1: Step Time =    1.000,"PART-1-1",           178,      -9.99868,       24.9580,            0.,NA,NA,"",       4.15288,      -4.13614,  -372.558E-03,   252.338E-12
C:/temp/dataset/2/10_4.odb,Step-1,Increment      1: Step Time =    1.000,"PART-1-1",           179,       8.37028,       18.0705,            0.,NA,NA,"",       3.90954,      -3.45510,       1.82942,   1.58918E-06
C:/temp/dataset/2/10_4.odb,Step-1,Increment      1: Step Time =    1.000,"PART-1-1",           180,      -10.4068,      -6.54987,            0.,NA,NA,"",   641.274E-03,  -640.698E-03,  -27.1866E-03,   3.78731E-03
C:/temp/dataset/2/10_4.odb,Step-1,Increment      1: Step Time =    1.000,"PART-1-1",           181,      -8.52723,      -17.8680,            0.,NA,NA,"",   84.1202E-03,  -74.2589E-03,   39.5198E-03,   6.47084E-03
C:/temp/dataset/2/10_4.odb,Step-1,Increment      1: Step Time =    1.000,"PART-1-1",           182,       9.99063,       8.47585,            0.,NA,NA,"",       3.13549,      -2.34094,       2.08598,   129.533E-06
C:/temp/dataset/2/10_4.odb,Step-1,Increment      1: Step Time =    1.000,"PART-1-1",           183,      -6.87511,      -22.3968,            0.,NA,NA,"",   39.2861E-03,  -6.47098E-03,   38.7495E-03,   11.0296E-03
C:/temp/dataset/2/10_4.odb,Step-1,Increment      1: Step Time =    1.000,"PART-1-1",           184,       7.48189,       5.34092,            0.,NA,NA,"",       2.66697,      -1.95568,       1.81330,   433.927E-06
C:/temp/dataset/2/10_4.odb,Step-1,Increment      1: Step Time =    1.000,"PART-1-1",           185,       10.0207,   425.902E-03,            0.,NA,NA,"",       2.56369,      -1.40163,       2.14661,   1.29124E-03
C:/temp/dataset/2/10_4.odb,Step-1,Increment      1: Step Time =    1.000,"PART-1-1",           186,      -8.86720,      -3.63325,            0.,NA,NA,"",   882.067E-03,  -878.735E-03,   76.5943E-03,   8.41811E-03
C:/temp/dataset/2/10_4.odb,Step-1,Increment      1: Step Time =    1.000,"PART-1-1",           187,       10.0155,       5.77118,            0.,NA,NA,"",       2.92221,      -2.02401,       2.10778,   141.825E-06
C:/temp/dataset/2/10_4.odb,Step-1,Increment      1: Step Time =    1.000,"PART-1-1",           188,       9.07540,       20.2179,            0.,NA,NA,"",       4.16862,      -3.71182,       1.89730,   394.995E-09
C:/temp/dataset/2/10_4.odb,Step-1,Increment      1: Step Time =    1.000,"PART-1-1",           189,       5.51479,      -24.9218,            0.,NA,NA,"",   8.43151E-03,  -8.42882E-03,   213.266E-06,   1.02313E-03
C:/temp/dataset/2/10_4.odb,Step-1,Increment      1: Step Time =    1.000,"PART-1-1",           190,       2.33502,      -24.9114,            0.,NA,NA,"",   11.3158E-03,  -10.8660E-03,   3.15860E-03,   1.68669E-03
C:/temp/dataset/2/10_4.odb,Step-1,Increment      1: Step Time =    1.000,"PART-1-1",           191,      -3.83494,      -24.9465,            0.,NA,NA,"",   22.9650E-03,  -8.95163E-03,   21.1485E-03,   7.11851E-03
C:/temp/dataset/2/10_4.odb,Step-1,Increment      1: Step Time =    1.000,"PART-1-1",           192,       8.68706,      -24.9229,            0.,NA,NA,"",   6.83047E-03,  -6.82594E-03,  -248.763E-06,   634.418E-06
C:/temp/dataset/2/10_4.odb,Step-1,Increment      1: Step Time =    1.000,"PART-1-1",           193,  -793.545E-03,      -24.9263,            0.,NA,NA,"",   16.4720E-03,  -12.5172E-03,   10.7072E-03,   4.27506E-03
C:/temp/dataset/2/10_4.odb,Step-1,Increment      1: Step Time =    1.000,"PART-1-1",           194,      -10.0041,       22.4687,            0.,NA,NA,"",       3.86059,      -3.84414,  -356.011E-03,   214.745E-12
C:/temp/dataset/2/10_4.odb,Step-1,Increment      1: Step Time =    1.000,"PART-1-1",           195,       7.76291,       22.5689,            0.,NA,NA,"",       4.33723,      -3.97851,       1.72714,   336.777E-09
C:/temp/dataset/2/10_4.odb,Step-1,Increment      1: Step Time =    1.000,"PART-1-1",           196,       10.0314,       3.09975,            0.,NA,NA,"",       2.73140,      -1.71204,       2.12825,   574.981E-06
C:/temp/dataset/2/10_4.odb,Step-1,Increment      1: Step Time =    1.000,"PART-1-1",           197,       7.45157,       2.78517,            0.,NA,NA,"",       2.46631,      -1.65706,       1.82670,   1.81896E-03
C:/temp/dataset/2/10_4.odb,Step-1,Increment      1: Step Time =    1.000,"PART-1-1",           198,       1.23926,       2.17480,            0.,NA,NA,"",       1.88431,      -1.53388,       1.09446,   5.73063E-03
C:/temp/dataset/2/10_4.odb,Step-1,Increment      1: Step Time =    1.000,"PART-1-1",           199,       5.89388,       23.8379,            0.,NA,NA,"",       4.37906,      -4.11445,       1.49917,   167.479E-09
C:/temp/dataset/2/10_4.odb,Step-1,Increment      1: Step Time =    1.000,"PART-1-1",           200,       4.70825,       2.52712,            0.,NA,NA,"",       2.19863,      -1.60539,       1.50222,   4.19620E-03
C:/temp/dataset/2/10_4.odb,Step-1,Increment      1: Step Time =    1.000,"PART-1-1",           201,      -6.67563,      -24.8783,            0.,NA,NA,"",   21.8722E-03,   1.66341E-03,   21.8089E-03,   7.67534E-03
C:/temp/dataset/2/10_4.odb,Step-1,Increment      1: Step Time =    1.000,"PART-1-1",           202,      -1.93740,       2.90022,            0.,NA,NA,"",       1.74014,      -1.57827,   732.893E-03,   7.13030E-03
C:/temp/dataset/2/10_4.odb,Step-1,Increment      1: Step Time =    1.000,"PART-1-1",           203,      -4.27328,      -22.5070,            0.,NA,NA,"",   39.5017E-03,  -15.9085E-03,   36.1566E-03,   11.5950E-03
C:/temp/dataset/2/10_4.odb,Step-1,Increment      1: Step Time =    1.000,"PART-1-1",           204,      -7.29195,  -216.826E-03,            0.,NA,NA,"",       1.22720,      -1.21025,   203.242E-03,   7.96640E-03
C:/temp/dataset/2/10_4.odb,Step-1,Increment      1: Step Time =    1.000,"PART-1-1",           205,      -4.39370,   432.763E-03,            0.,NA,NA,"",       1.38355,      -1.29836,   477.978E-03,   6.17923E-03
C:/temp/dataset/2/10_4.odb,Step-1,Increment      1: Step Time =    1.000,"PART-1-1",           206,      -1.20581,      -22.4416,            0.,NA,NA,"",   19.2830E-03,  -14.0844E-03,   13.1705E-03,   5.44315E-03
C:/temp/dataset/2/10_4.odb,Step-1,Increment      1: Step Time =    1.000,"PART-1-1",           207,      -4.88725,       2.78210,            0.,NA,NA,"",       1.58936,      -1.53114,   426.220E-03,   7.23952E-03
C:/temp/dataset/2/10_4.odb,Step-1,Increment      1: Step Time =    1.000,"PART-1-1",           208,      -8.02678,       2.39768,            0.,NA,NA,"",       1.46720,      -1.46109,   133.824E-03,   7.94570E-03
C:/temp/dataset/2/10_4.odb,Step-1,Increment      1: Step Time =    1.000,"PART-1-1",           209,       8.51144,      -22.4401,            0.,NA,NA,"",   8.29717E-03,  -8.27260E-03,  -638.010E-06,   286.265E-06
C:/temp/dataset/2/10_4.odb,Step-1,Increment      1: Step Time =    1.000,"PART-1-1",           210,       5.25488,      -22.4306,            0.,NA,NA,"",   9.26728E-03,  -9.26264E-03,  -293.291E-06,   538.915E-06
C:/temp/dataset/2/10_4.odb,Step-1,Increment      1: Step Time =    1.000,"PART-1-1",           211,       2.00226,      -22.4217,            0.,NA,NA,"",   11.9112E-03,  -11.4764E-03,   3.18868E-03,   1.60325E-03
C:/temp/dataset/2/10_4.odb,Step-1,Increment      1: Step Time =    1.000,"PART-1-1",           212,      -9.28570,      -27.3600,            0.,NA,NA,"",   9.56121E-03,   9.38212E-03,   1.84188E-03,   3.60710E-03
C:/temp/dataset/2/10_4.odb,Step-1,Increment      1: Step Time =    1.000,"PART-1-1",           213,       11.7596,      -22.4488,            0.,NA,NA,"",   7.82147E-03,  -7.81236E-03,   377.273E-06,   76.7923E-06
C:/temp/dataset/2/10_4.odb,Step-1,Increment      1: Step Time =    1.000,"PART-1-1",           214,      -12.4952,       27.4851,            0.,NA,NA,"",       4.46779,      -4.41530,  -682.811E-03,   70.3745E-12
C:/temp/dataset/2/10_4.odb,Step-1,Increment      1: Step Time =    1.000,"PART-1-1",           215,      -12.1608,      -27.2494,            0.,NA,NA,"",   12.5287E-03,   8.50011E-03,  -9.20414E-03,   5.82156E-03
C:/temp/dataset/2/10_4.odb,Step-1,Increment      1: Step Time =    1.000,"PART-1-1",           216,      -6.92277,      -20.0189,            0.,NA,NA,"",   64.6013E-03,  -27.8989E-03,   58.2665E-03,   9.58179E-03
C:/temp/dataset/2/10_4.odb,Step-1,Increment      1: Step Time =    1.000,"PART-1-1",           217,       10.3403,       22.5364,            0.,NA,NA,"",       4.47878,      -3.99249,       2.02965,   307.785E-09
C:/temp/dataset/2/10_4.odb,Step-1,Increment      1: Step Time =    1.000,"PART-1-1",           218,      -9.38591,      -16.3373,            0.,NA,NA,"",   122.214E-03,  -120.450E-03,   20.6920E-03,   4.12776E-03
C:/temp/dataset/2/10_4.odb,Step-1,Increment      1: Step Time =    1.000,"PART-1-1",           219,      -9.56004,      -22.0160,            0.,NA,NA,"",   7.98123E-03,  -2.95580E-03,   7.41373E-03,   5.50173E-03
C:/temp/dataset/2/10_4.odb,Step-1,Increment      1: Step Time =    1.000,"PART-1-1",           220,      -9.49058,      -24.6874,            0.,NA,NA,"",   10.2444E-03,   9.21581E-03,   4.47388E-03,   5.10647E-03
C:/temp/dataset/2/10_4.odb,Step-1,Increment      1: Step Time =    1.000,"PART-1-1",           221,  -968.003E-03,   33.9082E-03,            0.,NA,NA,"",       1.54051,      -1.28448,   850.453E-03,   4.87481E-03
C:/temp/dataset/2/10_4.odb,Step-1,Increment      1: Step Time =    1.000,"PART-1-1",           222,   333.674E-03,      -1.00763,            0.,NA,NA,"",       1.55136,      -1.18103,       1.00593,   5.64480E-03
C:/temp/dataset/2/10_4.odb,Step-1,Increment      1: Step Time =    1.000,"PART-1-1",           223,      -10.5623,      -4.72446,            0.,NA,NA,"",   785.309E-03,  -783.836E-03,  -48.0803E-03,   6.67889E-03
C:/temp/dataset/2/10_4.odb,Step-1,Increment      1: Step Time =    1.000,"PART-1-1",           224,      -5.01319,       24.9269,            0.,NA,NA,"",       4.17231,      -4.16690,   212.391E-03,   1.90852E-09
C:/temp/dataset/2/10_4.odb,Step-1,Increment      1: Step Time =    1.000,"PART-1-1",           225,      -9.24174,      -19.5473,            0.,NA,NA,"",   38.6889E-03,  -34.8650E-03,   16.7708E-03,   4.09510E-03
C:/temp/dataset/2/10_4.odb,Step-1,Increment      1: Step Time =    1.000,"PART-1-1",           226,       8.53639,       25.1316,            0.,NA,NA,"",       4.64725,      -4.28443,       1.80017,   137.661E-09
C:/temp/dataset/2/10_4.odb,Step-1,Increment      1: Step Time =    1.000,"PART-1-1",           227,       8.85572,       23.3093,            0.,NA,NA,"",       4.47344,      -4.07289,       1.85020,   283.478E-09
C:/temp/dataset/2/10_4.odb,Step-1,Increment      1: Step Time =    1.000,"PART-1-1",           228,      -13.7516,       22.4908,            0.,NA,NA,"",       3.90283,      -3.82086,  -795.703E-03,   58.6357E-12
C:/temp/dataset/2/10_4.odb,Step-1,Increment      1: Step Time =    1.000,"PART-1-1",           229,          -15.,         21.25,            0.,NA,NA,"",       3.78369,      -3.66671,  -933.557E-03,   49.0764E-12
C:/temp/dataset/2/10_4.odb,Step-1,Increment      1: Step Time =    1.000,"PART-1-1",           230,        -13.75,           20.,            0.,NA,NA,"",       3.61355,      -3.52873,  -778.320E-03,   53.5836E-12
C:/temp/dataset/2/10_4.odb,Step-1,Increment      1: Step Time =    1.000,"PART-1-1",           231,      -12.5016,       21.2408,            0.,NA,NA,"",       3.73815,      -3.68288,  -640.466E-03,   60.3760E-12
C:/temp/dataset/2/10_4.odb,Step-1,Increment      1: Step Time =    1.000,"PART-1-1",           232,      -9.99605,       28.7334,            0.,NA,NA,"",       4.59625,      -4.57896,  -398.308E-03,   129.588E-12
C:/temp/dataset/2/10_4.odb,Step-1,Increment      1: Step Time =    1.000,"PART-1-1",           233,        -11.25,           30.,            0.,NA,NA,"",       4.75128,      -4.71886,  -554.122E-03,   61.3368E-12
C:/temp/dataset/2/10_4.odb,Step-1,Increment      1: Step Time =    1.000,"PART-1-1",           234,      -12.4976,       28.7426,            0.,NA,NA,"",       4.61491,      -4.56277,  -691.771E-03,   56.6632E-12
C:/temp/dataset/2/10_4.odb,Step-1,Increment      1: Step Time =    1.000,"PART-1-1",           235,      -11.2437,       27.4760,            0.,NA,NA,"",       4.45522,      -4.42287,  -535.957E-03,   136.221E-12
C:/temp/dataset/2/10_4.odb,Step-1,Increment      1: Step Time =    1.000,"PART-1-1",           236,      -8.74541,       27.4572,            0.,NA,NA,"",       4.44454,      -4.43790,  -242.815E-03,   447.968E-12
C:/temp/dataset/2/10_4.odb,Step-1,Increment      1: Step Time =    1.000,"PART-1-1",           237,      -7.49936,       28.7238,            0.,NA,NA,"",       4.59627,      -4.59506,  -105.411E-03,   440.120E-12
C:/temp/dataset/2/10_4.odb,Step-1,Increment      1: Step Time =    1.000,"PART-1-1",           238,         -8.75,           30.,            0.,NA,NA,"",       4.74329,      -4.73611,  -260.903E-03,   259.427E-12
C:/temp/dataset/2/10_4.odb,Step-1,Increment      1: Step Time =    1.000,"PART-1-1",           239,      -10.0020,       21.2344,            0.,NA,NA,"",       3.71564,      -3.69938,  -347.252E-03,   135.523E-12
C:/temp/dataset/2/10_4.odb,Step-1,Increment      1: Step Time =    1.000,"PART-1-1",           240,      -11.2537,       22.4752,            0.,NA,NA,"",       3.86905,      -3.83627,  -502.616E-03,   136.511E-12
C:/temp/dataset/2/10_4.odb,Step-1,Increment      1: Step Time =    1.000,"PART-1-1",           241,        -11.25,           20.,            0.,NA,NA,"",       3.57901,      -3.54599,  -485.102E-03,   72.4322E-12
C:/temp/dataset/2/10_4.odb,Step-1,Increment      1: Step Time =    1.000,"PART-1-1",           242,      -6.25410,       27.4469,            0.,NA,NA,"",       4.45416,      -4.45389,   49.4558E-03,   1.16719E-09
C:/temp/dataset/2/10_4.odb,Step-1,Increment      1: Step Time =    1.000,"PART-1-1",           243,      -7.50120,       26.1906,            0.,NA,NA,"",       4.29884,      -4.29794,  -88.1426E-03,   663.119E-12
C:/temp/dataset/2/10_4.odb,Step-1,Increment      1: Step Time =    1.000,"PART-1-1",           244,      -6.25844,       24.9303,            0.,NA,NA,"",       4.15922,      -4.15869,   66.3164E-03,   1.31866E-09
C:/temp/dataset/2/10_4.odb,Step-1,Increment      1: Step Time =    1.000,"PART-1-1",           245,      -5.01133,       26.1865,            0.,NA,NA,"",       4.31946,      -4.31465,   203.915E-03,   1.53406E-09
C:/temp/dataset/2/10_4.odb,Step-1,Increment      1: Step Time =    1.000,"PART-1-1",           246,       1.11906,       22.3143,            0.,NA,NA,"",       4.01667,      -3.90280,   949.658E-03,   23.7835E-09
C:/temp/dataset/2/10_4.odb,Step-1,Increment      1: Step Time =    1.000,"PART-1-1",           247,  -37.5712E-03,       21.1808,            0.,NA,NA,"",       3.85058,      -3.76186,   821.823E-03,   7.75238E-09
C:/temp/dataset/2/10_4.odb,Step-1,Increment      1: Step Time =    1.000,"PART-1-1",           248,          1.25,           20.,            0.,NA,NA,"",       3.76240,      -3.63226,   980.989E-03,   18.4796E-09
C:/temp/dataset/2/10_4.odb,Step-1,Increment      1: Step Time =    1.000,"PART-1-1",           249,       2.40663,       21.1336,            0.,NA,NA,"",       3.93275,      -3.77319,       1.10882,   52.4184E-09
C:/temp/dataset/2/10_4.odb,Step-1,Increment      1: Step Time =    1.000,"PART-1-1",           250,  -46.9838E-03,       26.1228,            0.,NA,NA,"",       4.41212,      -4.34143,   786.610E-03,   4.64468E-09
C:/temp/dataset/2/10_4.odb,Step-1,Increment      1: Step Time =    1.000,"PART-1-1",           251,       1.11635,       24.7850,            0.,NA,NA,"",       4.29496,      -4.19255,   932.288E-03,   19.8496E-09
C:/temp/dataset/2/10_4.odb,Step-1,Increment      1: Step Time =    1.000,"PART-1-1",           252,       2.41618,       25.9912,            0.,NA,NA,"",       4.47440,      -4.34299,       1.07642,   29.2324E-09
C:/temp/dataset/2/10_4.odb,Step-1,Increment      1: Step Time =    1.000,"PART-1-1",           253,       1.25284,       27.3289,            0.,NA,NA,"",       4.58729,      -4.49187,   930.738E-03,   13.6669E-09
C:/temp/dataset/2/10_4.odb,Step-1,Increment      1: Step Time =    1.000,"PART-1-1",           254,       11.4216,       22.1022,            0.,NA,NA,"",       4.50090,      -3.94903,       2.15947,   304.079E-09
C:/temp/dataset/2/10_4.odb,Step-1,Increment      1: Step Time =    1.000,"PART-1-1",           255,       9.70783,       21.3771,            0.,NA,NA,"",       4.32370,      -3.85215,       1.96348,   335.109E-09
C:/temp/dataset/2/10_4.odb,Step-1,Increment      1: Step Time =    1.000,"PART-1-1",           256,       10.3968,       19.2167,            0.,NA,NA,"",       4.15038,      -3.60352,       2.05920,   702.653E-09
C:/temp/dataset/2/10_4.odb,Step-1,Increment      1: Step Time =    1.000,"PART-1-1",           257,       12.1105,       19.9418,            0.,NA,NA,"",       4.33345,      -3.70039,       2.25519,   378.214E-09
C:/temp/dataset/2/10_4.odb,Step-1,Increment      1: Step Time =    1.000,"PART-1-1",           258,       11.6215,       24.7876,            0.,NA,NA,"",       4.78309,      -4.26537,       2.16439,   172.601E-09
C:/temp/dataset/2/10_4.odb,Step-1,Increment      1: Step Time =    1.000,"PART-1-1",           259,       12.6971,       25.9410,            0.,NA,NA,"",       4.96400,      -4.40808,       2.28258,   138.788E-09
C:/temp/dataset/2/10_4.odb,Step-1,Increment      1: Step Time =    1.000,"PART-1-1",           260,       11.4859,       27.3886,            0.,NA,NA,"",       5.04177,      -4.56949,       2.13053,   81.9821E-09
C:/temp/dataset/2/10_4.odb,Step-1,Increment      1: Step Time =    1.000,"PART-1-1",           261,       10.4103,       26.2351,            0.,NA,NA,"",       4.86271,      -4.42678,       2.01233,   131.521E-09
C:/temp/dataset/2/10_4.odb,Step-1,Increment      1: Step Time =    1.000,"PART-1-1",           262,       5.88041,       17.6377,            0.,NA,NA,"",       3.72097,      -3.38716,       1.54038,   817.969E-09
C:/temp/dataset/2/10_4.odb,Step-1,Increment      1: Step Time =    1.000,"PART-1-1",           263,       6.75071,       18.9160,            0.,NA,NA,"",       3.90156,      -3.54308,       1.63363,   415.902E-09
C:/temp/dataset/2/10_4.odb,Step-1,Increment      1: Step Time =    1.000,"PART-1-1",           264,       5.87030,       20.0282,            0.,NA,NA,"",       3.97100,      -3.66746,       1.52270,   458.909E-09
C:/temp/dataset/2/10_4.odb,Step-1,Increment      1: Step Time =    1.000,"PART-1-1",           265,            5.,         18.75,            0.,NA,NA,"",       3.79133,      -3.51154,       1.42945,   1.25717E-06
C:/temp/dataset/2/10_4.odb,Step-1,Increment      1: Step Time =    1.000,"PART-1-1",           266,       12.3690,       13.3305,            0.,NA,NA,"",       3.74164,      -2.92671,       2.33115,   24.7479E-06
C:/temp/dataset/2/10_4.odb,Step-1,Increment      1: Step Time =    1.000,"PART-1-1",           267,       13.7195,       12.1790,            0.,NA,NA,"",       3.75270,      -2.80096,       2.49747,   22.8323E-06
C:/temp/dataset/2/10_4.odb,Step-1,Increment      1: Step Time =    1.000,"PART-1-1",           268,           15.,       13.9583,            0.,NA,NA,"",       4.00709,      -3.01852,       2.63539,   11.2899E-06
C:/temp/dataset/2/10_4.odb,Step-1,Increment      1: Step Time =    1.000,"PART-1-1",           269,       13.6495,       15.1098,            0.,NA,NA,"",       3.99782,      -3.14426,       2.46904,   5.01541E-06
C:/temp/dataset/2/10_4.odb,Step-1,Increment      1: Step Time =    1.000,"PART-1-1",           270,       12.5214,       4.81657,            0.,NA,NA,"",       3.08555,      -1.92960,       2.40775,   47.4723E-06
C:/temp/dataset/2/10_4.odb,Step-1,Increment      1: Step Time =    1.000,"PART-1-1",           271,       13.7670,       3.58604,            0.,NA,NA,"",       3.12760,      -1.79435,       2.56168,   120.891E-06
C:/temp/dataset/2/10_4.odb,Step-1,Increment      1: Step Time =    1.000,"PART-1-1",           272,           15.,       5.20833,            0.,NA,NA,"",       3.35157,      -1.99258,       2.69493,   256.722E-06
C:/temp/dataset/2/10_4.odb,Step-1,Increment      1: Step Time =    1.000,"PART-1-1",           273,       13.7545,       6.43886,            0.,NA,NA,"",       3.31431,      -2.12801,       2.54091,   120.178E-06
C:/temp/dataset/2/10_4.odb,Step-1,Increment      1: Step Time =    1.000,"PART-1-1",           274,       13.7625,      -2.13133,            0.,NA,NA,"",       2.83439,      -1.12973,       2.59952,   149.517E-06
C:/temp/dataset/2/10_4.odb,Step-1,Increment      1: Step Time =    1.000,"PART-1-1",           275,       12.5125,      -3.58966,            0.,NA,NA,"",       2.64271,  -953.185E-03,       2.46482,   352.872E-06
C:/temp/dataset/2/10_4.odb,Step-1,Increment      1: Step Time =    1.000,"PART-1-1",           276,         13.75,           -5.,            0.,NA,NA,"",       2.73637,  -798.714E-03,       2.61720,   106.469E-06
C:/temp/dataset/2/10_4.odb,Step-1,Increment      1: Step Time =    1.000,"PART-1-1",           277,           15.,      -3.54167,            0.,NA,NA,"",       2.91953,  -975.288E-03,       2.75181,   154.857E-06
C:/temp/dataset/2/10_4.odb,Step-1,Increment      1: Step Time =    1.000,"PART-1-1",           278,      -9.21387,      -6.21191,            0.,NA,NA,"",   669.929E-03,  -667.593E-03,   55.9000E-03,   3.72432E-03
C:/temp/dataset/2/10_4.odb,Step-1,Increment      1: Step Time =    1.000,"PART-1-1",           279,      -8.44405,      -4.75360,            0.,NA,NA,"",   790.560E-03,  -782.461E-03,   112.871E-03,   6.40625E-03
C:/temp/dataset/2/10_4.odb,Step-1,Increment      1: Step Time =    1.000,"PART-1-1",           280,      -9.71477,      -4.17886,            0.,NA,NA,"",   830.392E-03,  -830.290E-03,   13.0032E-03,   7.17290E-03
C:/temp/dataset/2/10_4.odb,Step-1,Increment      1: Step Time =    1.000,"PART-1-1",           281,      -10.4846,      -5.63717,            0.,NA,NA,"",   711.564E-03,  -710.593E-03,  -37.1503E-03,   5.27045E-03
C:/temp/dataset/2/10_4.odb,Step-1,Increment      1: Step Time =    1.000,"PART-1-1",           282,      -5.84282,   107.969E-03,            0.,NA,NA,"",       1.29737,      -1.25304,   336.255E-03,   6.15112E-03
C:/temp/dataset/2/10_4.odb,Step-1,Increment      1: Step Time =    1.000,"PART-1-1",           283,      -4.64047,       1.60743,            0.,NA,NA,"",       1.48551,      -1.41507,   452.035E-03,   6.21572E-03
C:/temp/dataset/2/10_4.odb,Step-1,Increment      1: Step Time =    1.000,"PART-1-1",           284,      -6.45702,       2.58989,            0.,NA,NA,"",       1.52017,      -1.49492,   275.919E-03,   7.08493E-03
C:/temp/dataset/2/10_4.odb,Step-1,Increment      1: Step Time =    1.000,"PART-1-1",           285,      -7.65937,       1.09043,            0.,NA,NA,"",       1.34697,      -1.33636,   168.733E-03,   7.58215E-03
C:/temp/dataset/2/10_4.odb,Step-1,Increment      1: Step Time =    1.000,"PART-1-1",           286,      -6.51044,      -5.43697,            0.,NA,NA,"",   774.199E-03,  -728.048E-03,   263.305E-03,   15.7875E-03
C:/temp/dataset/2/10_4.odb,Step-1,Increment      1: Step Time =    1.000,"PART-1-1",           287,      -5.48201,      -3.85122,            0.,NA,NA,"",   940.027E-03,  -867.682E-03,   361.635E-03,   15.5643E-03
C:/temp/dataset/2/10_4.odb,Step-1,Increment      1: Step Time =    1.000,"PART-1-1",           288,      -7.41561,      -3.16785,            0.,NA,NA,"",   944.038E-03,  -923.979E-03,   193.575E-03,   8.79600E-03
C:/temp/dataset/2/10_4.odb,Step-1,Increment      1: Step Time =    1.000,"PART-1-1",           289,      -12.6742,      -10.6472,            0.,NA,NA,"",   403.143E-03,  -376.615E-03,  -143.822E-03,   9.31134E-03
C:/temp/dataset/2/10_4.odb,Step-1,Increment      1: Step Time =    1.000,"PART-1-1",           290,      -11.3911,      -11.6978,            0.,NA,NA,"",   324.913E-03,  -317.939E-03,  -66.9585E-03,   3.78231E-03
C:/temp/dataset/2/10_4.odb,Step-1,Increment      1: Step Time =    1.000,"PART-1-1",           291,      -10.2167,      -10.1126,            0.,NA,NA,"",   406.600E-03,  -406.538E-03,  -7.11137E-03,   1.36995E-03
C:/temp/dataset/2/10_4.odb,Step-1,Increment      1: Step Time =    1.000,"PART-1-1",           292,      -11.4997,      -9.06207,            0.,NA,NA,"",   477.114E-03,  -469.093E-03,  -87.1208E-03,   4.69219E-03
C:/temp/dataset/2/10_4.odb,Step-1,Increment      1: Step Time =    1.000,"PART-1-1",           293,      -13.7107,      -15.1438,            0.,NA,NA,"",   220.979E-03,  -170.686E-03,  -140.349E-03,   14.1959E-03
C:/temp/dataset/2/10_4.odb,Step-1,Increment      1: Step Time =    1.000,"PART-1-1",           294,      -12.5249,      -13.4434,            0.,NA,NA,"",   259.797E-03,  -235.389E-03,  -109.939E-03,   8.76719E-03
C:/temp/dataset/2/10_4.odb,Step-1,Increment      1: Step Time =    1.000,"PART-1-1",           295,      -13.8143,      -12.2579,            0.,NA,NA,"",   349.306E-03,  -296.364E-03,  -184.887E-03,   14.5497E-03
C:/temp/dataset/2/10_4.odb,Step-1,Increment      1: Step Time =    1.000,"PART-1-1",           296,          -15.,      -13.9583,            0.,NA,NA,"",   310.400E-03,  -226.741E-03,  -211.983E-03,   19.9924E-03
C:/temp/dataset/2/10_4.odb,Step-1,Increment      1: Step Time =    1.000,"PART-1-1",           297,      -12.0988,      -16.5012,            0.,NA,NA,"",   135.786E-03,  -116.859E-03,  -69.1510E-03,   7.28723E-03
C:/temp/dataset/2/10_4.odb,Step-1,Increment      1: Step Time =    1.000,"PART-1-1",           298,      -10.5811,      -17.2344,            0.,NA,NA,"",   93.4011E-03,  -91.6895E-03,  -17.7991E-03,   1.48816E-03
C:/temp/dataset/2/10_4.odb,Step-1,Increment      1: Step Time =    1.000,"PART-1-1",           299,      -9.66362,      -15.1575,            0.,NA,NA,"",   163.622E-03,  -163.021E-03,   14.0073E-03,   3.37320E-03
C:/temp/dataset/2/10_4.odb,Step-1,Increment      1: Step Time =    1.000,"PART-1-1",           300,      -11.1813,      -14.4243,            0.,NA,NA,"",   196.620E-03,  -191.117E-03,  -46.1905E-03,   2.91537E-03
C:/temp/dataset/2/10_4.odb,Step-1,Increment      1: Step Time =    1.000,"PART-1-1",           301,      -10.5090,      -18.8394,            0.,NA,NA,"",   52.0291E-03,  -50.3816E-03,  -12.9895E-03,   3.11553E-03
C:/temp/dataset/2/10_4.odb,Step-1,Increment      1: Step Time =    1.000,"PART-1-1",           302,      -8.88448,      -18.7076,            0.,NA,NA,"",   59.3726E-03,  -52.6565E-03,   27.4299E-03,   4.48186E-03
C:/temp/dataset/2/10_4.odb,Step-1,Increment      1: Step Time =    1.000,"PART-1-1",           303,      -8.95657,      -17.1026,            0.,NA,NA,"",   101.517E-03,  -96.5336E-03,   31.4155E-03,   5.53760E-03
C:/temp/dataset/2/10_4.odb,Step-1,Increment      1: Step Time =    1.000,"PART-1-1",           304,      -8.08225,      -19.7831,            0.,NA,NA,"",   50.7510E-03,  -31.0672E-03,   40.1310E-03,   6.24047E-03
C:/temp/dataset/2/10_4.odb,Step-1,Increment      1: Step Time =    1.000,"PART-1-1",           305,      -6.89084,      -18.8787,            0.,NA,NA,"",   85.8532E-03,  -50.6947E-03,   69.2879E-03,   12.2103E-03
C:/temp/dataset/2/10_4.odb,Step-1,Increment      1: Step Time =    1.000,"PART-1-1",           306,      -7.69307,      -17.8032,            0.,NA,NA,"",   100.433E-03,  -78.9995E-03,   62.0155E-03,   11.6211E-03
C:/temp/dataset/2/10_4.odb,Step-1,Increment      1: Step Time =    1.000,"PART-1-1",           307,       7.10093,      -24.9223,            0.,NA,NA,"",   7.52078E-03,  -7.51722E-03,  -231.329E-06,   842.138E-06
C:/temp/dataset/2/10_4.odb,Step-1,Increment      1: Step Time =    1.000,"PART-1-1",           308,       8.59925,      -23.6815,            0.,NA,NA,"",   7.69381E-03,  -7.67950E-03,  -468.967E-06,   454.442E-06
C:/temp/dataset/2/10_4.odb,Step-1,Increment      1: Step Time =    1.000,"PART-1-1",           309,       6.88316,      -22.4353,            0.,NA,NA,"",   8.71113E-03,  -8.68468E-03,  -678.329E-06,   396.707E-06
C:/temp/dataset/2/10_4.odb,Step-1,Increment      1: Step Time =    1.000,"PART-1-1",           310,       5.38484,      -23.6762,            0.,NA,NA,"",   9.16055E-03,  -9.16051E-03,  -27.6651E-06,   757.438E-06
C:/temp/dataset/2/10_4.odb,Step-1,Increment      1: Step Time =    1.000,"PART-1-1",           311,       13.3798,      -22.4744,            0.,NA,NA,"",   7.84434E-03,  -7.74477E-03,   1.24587E-03,   29.2914E-06
C:/temp/dataset/2/10_4.odb,Step-1,Increment      1: Step Time =    1.000,"PART-1-1",           312,           15.,        -21.25,            0.,NA,NA,"",   8.69961E-03,  -8.42216E-03,   2.17952E-03,   21.9288E-06
C:/temp/dataset/2/10_4.odb,Step-1,Increment      1: Step Time =    1.000,"PART-1-1",           313,       13.3333,          -20.,            0.,NA,NA,"",   9.18087E-03,  -9.09853E-03,   1.22689E-03,   32.3595E-06
C:/temp/dataset/2/10_4.odb,Step-1,Increment      1: Step Time =    1.000,"PART-1-1",           314,       11.7131,      -21.2244,            0.,NA,NA,"",   8.45280E-03,  -8.44533E-03,   355.207E-06,   14.5606E-06
C:/temp/dataset/2/10_4.odb,Step-1,Increment      1: Step Time =    1.000,"PART-1-1",           315,      -2.14863,       2.00914,            0.,NA,NA,"",       1.64418,      -1.48200,   712.050E-03,   6.02081E-03
C:/temp/dataset/2/10_4.odb,Step-1,Increment      1: Step Time =    1.000,"PART-1-1",           316,      -1.66393,   575.985E-03,            0.,NA,NA,"",       1.54254,      -1.33637,   770.424E-03,   4.95515E-03
C:/temp/dataset/2/10_4.odb,Step-1,Increment      1: Step Time =    1.000,"PART-1-1",           317,   135.628E-03,       1.10435,            0.,NA,NA,"",       1.71019,      -1.40740,   971.591E-03,   5.19182E-03
C:/temp/dataset/2/10_4.odb,Step-1,Increment      1: Step Time =    1.000,"PART-1-1",           318,  -349.073E-03,       2.53751,            0.,NA,NA,"",       1.80393,      -1.55729,   910.503E-03,   6.12770E-03
C:/temp/dataset/2/10_4.odb,Step-1,Increment      1: Step Time =    1.000,"PART-1-1",           319,   156.145E-03,      -1.87787,            0.,NA,NA,"",       1.47015,      -1.08574,   991.206E-03,   6.15486E-03
C:/temp/dataset/2/10_4.odb,Step-1,Increment      1: Step Time =    1.000,"PART-1-1",           320,       1.21010,      -2.70880,            0.,NA,NA,"",       1.50083,  -997.490E-03,       1.12138,   5.50974E-03
C:/temp/dataset/2/10_4.odb,Step-1,Increment      1: Step Time =    1.000,"PART-1-1",           321,       2.32846,      -1.50081,            0.,NA,NA,"",       1.68593,      -1.13719,       1.24465,   5.06345E-03
C:/temp/dataset/2/10_4.odb,Step-1,Increment      1: Step Time =    1.000,"PART-1-1",           322,       1.27451,  -669.883E-03,            0.,NA,NA,"",       1.65446,      -1.22316,       1.11405,   5.56795E-03
C:/temp/dataset/2/10_4.odb,Step-1,Increment      1: Step Time =    1.000,"PART-1-1",           323,       4.87500,      -1.23074,            0.,NA,NA,"",       1.94785,      -1.18170,       1.54845,   5.09126E-03
C:/temp/dataset/2/10_4.odb,Step-1,Increment      1: Step Time =    1.000,"PART-1-1",           324,       6.20088,      -2.43579,            0.,NA,NA,"",       2.01518,      -1.05136,       1.71918,   5.26732E-03
C:/temp/dataset/2/10_4.odb,Step-1,Increment      1: Step Time =    1.000,"PART-1-1",           325,       7.44880,      -1.07477,            0.,NA,NA,"",       2.21764,      -1.21366,       1.85606,   3.70659E-03
C:/temp/dataset/2/10_4.odb,Step-1,Increment      1: Step Time =    1.000,"PART-1-1",           326,       6.12293,   130.279E-03,            0.,NA,NA,"",       2.15703,      -1.34346,       1.68757,   4.07357E-03
C:/temp/dataset/2/10_4.odb,Step-1,Increment      1: Step Time =    1.000,"PART-1-1",           327,          8.75,           -5.,            0.,NA,NA,"",       2.18667,  -767.911E-03,       2.04740,   3.35975E-03
C:/temp/dataset/2/10_4.odb,Step-1,Increment      1: Step Time =    1.000,"PART-1-1",           328,       10.0063,      -3.63741,            0.,NA,NA,"",       2.36888,  -931.112E-03,       2.17821,   2.15350E-03
C:/temp/dataset/2/10_4.odb,Step-1,Increment      1: Step Time =    1.000,"PART-1-1",           329,       8.73716,      -2.32557,            0.,NA,NA,"",       2.28844,      -1.07629,       2.01954,   3.27866E-03
C:/temp/dataset/2/10_4.odb,Step-1,Increment      1: Step Time =    1.000,"PART-1-1",           330,       7.48081,      -3.68816,            0.,NA,NA,"",       2.09465,  -912.671E-03,       1.88537,   4.31771E-03
C:/temp/dataset/2/10_4.odb,Step-1,Increment      1: Step Time =    1.000,"PART-1-1",           331,       6.24109,       7.72904,            0.,NA,NA,"",       2.77254,      -2.22748,       1.65084,   263.623E-06
C:/temp/dataset/2/10_4.odb,Step-1,Increment      1: Step Time =    1.000,"PART-1-1",           332,            5.,          6.25,            0.,NA,NA,"",       2.54476,      -2.04493,       1.51462,   626.646E-06
C:/temp/dataset/2/10_4.odb,Step-1,Increment      1: Step Time =    1.000,"PART-1-1",           333,       6.24095,       5.17046,            0.,NA,NA,"",       2.54836,      -1.92621,       1.66848,   1.07245E-03
C:/temp/dataset/2/10_4.odb,Step-1,Increment      1: Step Time =    1.000,"PART-1-1",           334,       7.48203,       6.64950,            0.,NA,NA,"",       2.77572,      -2.10928,       1.80432,   207.390E-06
C:/temp/dataset/2/10_4.odb,Step-1,Increment      1: Step Time =    1.000,"PART-1-1",           335,       7.34508,       23.6052,            0.,NA,NA,"",       4.42481,      -4.09717,       1.67098,   231.261E-09
C:/temp/dataset/2/10_4.odb,Step-1,Increment      1: Step Time =    1.000,"PART-1-1",           336,       6.41056,       24.2397,            0.,NA,NA,"",       4.44664,      -4.16514,       1.55699,   148.080E-09
C:/temp/dataset/2/10_4.odb,Step-1,Increment      1: Step Time =    1.000,"PART-1-1",           337,       6.08150,       22.9932,            0.,NA,NA,"",       4.29714,      -4.01667,       1.52700,   222.874E-09
C:/temp/dataset/2/10_4.odb,Step-1,Increment      1: Step Time =    1.000,"PART-1-1",           338,       7.01602,       22.3587,            0.,NA,NA,"",       4.27611,      -3.94871,       1.64099,   317.308E-09
C:/temp/dataset/2/10_4.odb,Step-1,Increment      1: Step Time =    1.000,"PART-1-1",           339,      -12.5005,       23.7291,            0.,NA,NA,"",       4.02875,      -3.97473,  -657.509E-03,   79.2185E-12
C:/temp/dataset/2/10_4.odb,Step-1,Increment      1: Step Time =    1.000,"PART-1-1",           340,      -13.7489,       24.9883,            0.,NA,NA,"",       4.19329,      -4.11380,  -812.618E-03,   64.4061E-12
C:/temp/dataset/2/10_4.odb,Step-1,Increment      1: Step Time =    1.000,"PART-1-1",           341,          -15.,         23.75,            0.,NA,NA,"",       4.07248,      -3.95993,  -950.811E-03,   47.2210E-12
C:/temp/dataset/2/10_4.odb,Step-1,Increment      1: Step Time =    1.000,"PART-1-1",           342,      -2.52491,       26.1674,            0.,NA,NA,"",       4.35784,      -4.32956,   495.672E-03,   2.50887E-09
C:/temp/dataset/2/10_4.odb,Step-1,Increment      1: Step Time =    1.000,"PART-1-1",           343,      -1.30373,       24.8780,            0.,NA,NA,"",       4.23658,      -4.18676,   647.801E-03,   2.71873E-09
C:/temp/dataset/2/10_4.odb,Step-1,Increment      1: Step Time =    1.000,"PART-1-1",           344,      -1.26817,       27.4122,            0.,NA,NA,"",       4.52889,      -4.48423,   634.482E-03,   1.46569E-09
C:/temp/dataset/2/10_4.odb,Step-1,Increment      1: Step Time =    1.000,"PART-1-1",           345,       2.31009,       23.4917,            0.,NA,NA,"",       4.19099,      -4.04911,       1.08122,   40.8299E-09
C:/temp/dataset/2/10_4.odb,Step-1,Increment      1: Step Time =    1.000,"PART-1-1",           346,       3.41051,       22.2101,            0.,NA,NA,"",       4.09220,      -3.90638,       1.21914,   88.9464E-09
C:/temp/dataset/2/10_4.odb,Step-1,Increment      1: Step Time =    1.000,"PART-1-1",           347,       4.46987,       23.2845,            0.,NA,NA,"",       4.25489,      -4.03972,       1.33597,   135.735E-09
C:/temp/dataset/2/10_4.odb,Step-1,Increment      1: Step Time =    1.000,"PART-1-1",           348,       3.36945,       24.5662,            0.,NA,NA,"",       4.35066,      -4.18245,       1.19806,   69.0383E-09
C:/temp/dataset/2/10_4.odb,Step-1,Increment      1: Step Time =    1.000,"PART-1-1",           349,       3.92627,       27.0683,            0.,NA,NA,"",       4.64983,      -4.47975,       1.24610,   49.0507E-09
C:/temp/dataset/2/10_4.odb,Step-1,Increment      1: Step Time =    1.000,"PART-1-1",           350,       5.16355,       28.4353,            0.,NA,NA,"",       4.84965,      -4.64863,       1.38178,   45.0449E-09
C:/temp/dataset/2/10_4.odb,Step-1,Increment      1: Step Time =    1.000,"PART-1-1",           351,          3.75,           30.,            0.,NA,NA,"",       4.97070,      -4.82239,       1.20519,   18.5754E-09
C:/temp/dataset/2/10_4.odb,Step-1,Increment      1: Step Time =    1.000,"PART-1-1",           352,       2.51272,       28.6330,            0.,NA,NA,"",       4.77483,      -4.65351,       1.06950,   13.4808E-09
C:/temp/dataset/2/10_4.odb,Step-1,Increment      1: Step Time =    1.000,"PART-1-1",           353,       11.0463,       14.3537,            0.,NA,NA,"",       3.73250,      -3.03763,       2.16896,   13.7902E-06
C:/temp/dataset/2/10_4.odb,Step-1,Increment      1: Step Time =    1.000,"PART-1-1",           354,       9.86747,       12.5470,            0.,NA,NA,"",       3.48045,      -2.81760,       2.04320,   40.8712E-06
C:/temp/dataset/2/10_4.odb,Step-1,Increment      1: Step Time =    1.000,"PART-1-1",           355,       11.1901,       11.5237,            0.,NA,NA,"",       3.49140,      -2.70666,       2.20541,   43.1617E-06
C:/temp/dataset/2/10_4.odb,Step-1,Increment      1: Step Time =    1.000,"PART-1-1",           356,       9.55073,       15.1783,            0.,NA,NA,"",       3.70285,      -3.12403,       1.98784,   12.3247E-06
C:/temp/dataset/2/10_4.odb,Step-1,Increment      1: Step Time =    1.000,"PART-1-1",           357,       8.18591,       15.9712,            0.,NA,NA,"",       3.68911,      -3.20762,       1.82229,   5.34926E-06
C:/temp/dataset/2/10_4.odb,Step-1,Increment      1: Step Time =    1.000,"PART-1-1",           358,       7.20669,       14.2932,            0.,NA,NA,"",       3.46113,      -3.00406,       1.71902,   17.1637E-06
C:/temp/dataset/2/10_4.odb,Step-1,Increment      1: Step Time =    1.000,"PART-1-1",           359,       8.57151,       13.5002,            0.,NA,NA,"",       3.47575,      -2.92048,       1.88459,   19.6861E-06
C:/temp/dataset/2/10_4.odb,Step-1,Increment      1: Step Time =    1.000,"PART-1-1",           360,       7.44377,       1.50598,            0.,NA,NA,"",       2.37583,      -1.50952,       1.83464,   2.37991E-03
C:/temp/dataset/2/10_4.odb,Step-1,Increment      1: Step Time =    1.000,"PART-1-1",           361,       8.72836,   326.342E-03,            0.,NA,NA,"",       2.42748,      -1.38208,       1.99562,   2.16641E-03
C:/temp/dataset/2/10_4.odb,Step-1,Increment      1: Step Time =    1.000,"PART-1-1",           362,       10.0261,       1.76283,            0.,NA,NA,"",       2.64401,      -1.55661,       2.13723,   896.762E-06
C:/temp/dataset/2/10_4.odb,Step-1,Increment      1: Step Time =    1.000,"PART-1-1",           363,       8.74149,       2.94246,            0.,NA,NA,"",       2.59811,      -1.68476,       1.97782,   1.11520E-03
C:/temp/dataset/2/10_4.odb,Step-1,Increment      1: Step Time =    1.000,"PART-1-1",           364,       12.5045,       7.62102,            0.,NA,NA,"",       3.28535,      -2.25794,       2.38648,   91.3184E-06
C:/temp/dataset/2/10_4.odb,Step-1,Increment      1: Step Time =    1.000,"PART-1-1",           365,           15.,         8.125,            0.,NA,NA,"",       3.55058,      -2.33429,       2.67538,   144.386E-06
C:/temp/dataset/2/10_4.odb,Step-1,Increment      1: Step Time =    1.000,"PART-1-1",           366,       13.7500,       9.30715,            0.,NA,NA,"",       3.52521,      -2.46427,       2.52081,   67.7155E-06
C:/temp/dataset/2/10_4.odb,Step-1,Increment      1: Step Time =    1.000,"PART-1-1",           367,      -1.45938,      -2.40358,            0.,NA,NA,"",       1.30461,      -1.02435,   807.901E-03,   7.39905E-03
C:/temp/dataset/2/10_4.odb,Step-1,Increment      1: Step Time =    1.000,"PART-1-1",           368,      -2.69869,      -3.52952,            0.,NA,NA,"",       1.12682,  -903.850E-03,   672.885E-03,   9.75211E-03
C:/temp/dataset/2/10_4.odb,Step-1,Increment      1: Step Time =    1.000,"PART-1-1",           369,         -1.25,           -5.,            0.,NA,NA,"",       1.13046,  -736.777E-03,   857.384E-03,   10.4324E-03
C:/temp/dataset/2/10_4.odb,Step-1,Increment      1: Step Time =    1.000,"PART-1-1",           370,  -10.6917E-03,      -3.87406,            0.,NA,NA,"",       1.31342,  -864.037E-03,   989.196E-03,   7.16597E-03
C:/temp/dataset/2/10_4.odb,Step-1,Increment      1: Step Time =    1.000,"PART-1-1",           371,      -13.3333,            5.,            0.,NA,NA,"",       1.69900,      -1.66585,  -334.001E-03,   861.958E-06
C:/temp/dataset/2/10_4.odb,Step-1,Increment      1: Step Time =    1.000,"PART-1-1",           372,          -15.,       3.54167,            0.,NA,NA,"",       1.60060,      -1.52783,  -477.157E-03,   768.239E-06
C:/temp/dataset/2/10_4.odb,Step-1,Increment      1: Step Time =    1.000,"PART-1-1",           373,      -13.2137,       2.05352,            0.,NA,NA,"",       1.43217,      -1.39818,  -310.158E-03,   3.98418E-03
C:/temp/dataset/2/10_4.odb,Step-1,Increment      1: Step Time =    1.000,"PART-1-1",           374,      -11.5470,       3.51185,            0.,NA,NA,"",       1.55058,      -1.54095,  -172.526E-03,   4.15765E-03
C:/temp/dataset/2/10_4.odb,Step-1,Increment      1: Step Time =    1.000,"PART-1-1",           375,          -15.,      625.E-03,            0.,NA,NA,"",       1.34169,      -1.26039,  -459.924E-03,   4.95563E-03
C:/temp/dataset/2/10_4.odb,Step-1,Increment      1: Step Time =    1.000,"PART-1-1",           376,      -12.9883,      -1.02354,            0.,NA,NA,"",       1.14308,      -1.11114,  -268.327E-03,   7.41812E-03
C:/temp/dataset/2/10_4.odb,Step-1,Increment      1: Step Time =    1.000,"PART-1-1",           377,      -11.2019,   404.974E-03,            0.,NA,NA,"",       1.25652,      -1.24982,  -129.538E-03,   8.52141E-03
C:/temp/dataset/2/10_4.odb,Step-1,Increment      1: Step Time =    1.000,"PART-1-1",           378,      -13.6690,      -3.88141,            0.,NA,NA,"",   905.628E-03,  -856.688E-03,  -293.681E-03,   10.8430E-03
C:/temp/dataset/2/10_4.odb,Step-1,Increment      1: Step Time =    1.000,"PART-1-1",           379,      -11.6573,      -2.61328,            0.,NA,NA,"",   978.099E-03,  -967.037E-03,  -146.685E-03,   8.89833E-03
C:/temp/dataset/2/10_4.odb,Step-1,Increment      1: Step Time =    1.000,"PART-1-1",           380,          -15.,      -2.29167,            0.,NA,NA,"",       1.08417,  -996.251E-03,  -427.677E-03,   11.2337E-03
C:/temp/dataset/2/10_4.odb,Step-1,Increment      1: Step Time =    1.000,"PART-1-1",           381,           -5.,         -8.75,            0.,NA,NA,"",   613.403E-03,  -525.895E-03,   315.749E-03,   23.7050E-03
C:/temp/dataset/2/10_4.odb,Step-1,Increment      1: Step Time =    1.000,"PART-1-1",           382,      -6.37238,      -7.84264,            0.,NA,NA,"",   618.474E-03,  -566.973E-03,   247.086E-03,   17.8157E-03
C:/temp/dataset/2/10_4.odb,Step-1,Increment      1: Step Time =    1.000,"PART-1-1",           383,      -7.67841,      -9.42411,            0.,NA,NA,"",   480.641E-03,  -458.292E-03,   144.859E-03,   11.9055E-03
C:/temp/dataset/2/10_4.odb,Step-1,Increment      1: Step Time =    1.000,"PART-1-1",           384,      -6.30603,      -10.3315,            0.,NA,NA,"",   468.298E-03,  -416.656E-03,   213.778E-03,   17.9804E-03
C:/temp/dataset/2/10_4.odb,Step-1,Increment      1: Step Time =    1.000,"PART-1-1",           385,      -13.6103,      -21.3688,            0.,NA,NA,"",   64.7944E-03,  -19.2125E-03,  -61.8805E-03,   11.8672E-03
C:/temp/dataset/2/10_4.odb,Step-1,Increment      1: Step Time =    1.000,"PART-1-1",           386,          -15.,      -22.7083,            0.,NA,NA,"",   64.5323E-03,  -14.1156E-03,  -62.9695E-03,   14.5572E-03
C:/temp/dataset/2/10_4.odb,Step-1,Increment      1: Step Time =    1.000,"PART-1-1",           387,      -13.6241,      -24.2925,            0.,NA,NA,"",   35.0402E-03,   2.37463E-03,  -34.9596E-03,   9.36705E-03
C:/temp/dataset/2/10_4.odb,Step-1,Increment      1: Step Time =    1.000,"PART-1-1",           388,      -12.2343,      -22.9530,            0.,NA,NA,"",   29.5842E-03,   466.583E-06,  -29.5805E-03,   7.52855E-03
C:/temp/dataset/2/10_4.odb,Step-1,Increment      1: Step Time =    1.000,"PART-1-1",           389,           -5.,        -16.25,            0.,NA,NA,"",   228.606E-03,  -153.451E-03,   169.450E-03,   24.5671E-03
C:/temp/dataset/2/10_4.odb,Step-1,Increment      1: Step Time =    1.000,"PART-1-1",           390,      -6.06585,      -15.2329,            0.,NA,NA,"",   234.416E-03,  -180.779E-03,   149.230E-03,   19.5182E-03
C:/temp/dataset/2/10_4.odb,Step-1,Increment      1: Step Time =    1.000,"PART-1-1",           391,      -6.99530,      -16.6022,            0.,NA,NA,"",   154.801E-03,  -121.379E-03,   96.0754E-03,   15.4138E-03
C:/temp/dataset/2/10_4.odb,Step-1,Increment      1: Step Time =    1.000,"PART-1-1",           392,      -5.92946,      -17.6192,            0.,NA,NA,"",   145.770E-03,  -94.7726E-03,   110.757E-03,   20.8499E-03
C:/temp/dataset/2/10_4.odb,Step-1,Increment      1: Step Time =    1.000,"PART-1-1",           393,         -13.5,          -30.,            0.,NA,NA,"",            0.,   2.65537E-39,  -9.26223E-39,   4.39797E-03
C:/temp/dataset/2/10_4.odb,Step-1,Increment      1: Step Time =    1.000,"PART-1-1",           394,      -12.0804,      -28.6247,            0.,NA,NA,"",   7.19851E-03,   5.99491E-03,  -3.98492E-03,   5.20700E-03
C:/temp/dataset/2/10_4.odb,Step-1,Increment      1: Step Time =    1.000,"PART-1-1",           395,      -13.5804,      -27.1664,            0.,NA,NA,"",   15.6442E-03,   5.47874E-03,  -14.6535E-03,   7.18550E-03
C:/temp/dataset/2/10_4.odb,Step-1,Increment      1: Step Time =    1.000,"PART-1-1",           396,          -15.,      -28.5417,            0.,NA,NA,"",   7.10490E-03,  -1.06345E-03,  -7.02486E-03,   6.90979E-03
C:/temp/dataset/2/10_4.odb,Step-1,Increment      1: Step Time =    1.000,"PART-1-1",           397,          13.5,          -30.,            0.,NA,NA,"",            0.,  -456.214E-42,   1.10940E-39,   1.00705E-03
C:/temp/dataset/2/10_4.odb,Step-1,Increment      1: Step Time =    1.000,"PART-1-1",           398,           15.,        -28.75,            0.,NA,NA,"",   2.13579E-03,  -1.76757E-03,   1.19887E-03,   913.602E-06
C:/temp/dataset/2/10_4.odb,Step-1,Increment      1: Step Time =    1.000,"PART-1-1",           399,       13.4640,      -27.4843,            0.,NA,NA,"",   3.23160E-03,  -3.14421E-03,   746.430E-06,   534.925E-06
C:/temp/dataset/2/10_4.odb,Step-1,Increment      1: Step Time =    1.000,"PART-1-1",           400,       11.9640,      -28.7343,            0.,NA,NA,"",   1.58046E-03,  -1.56623E-03,   211.634E-06,   806.262E-06
C:/temp/dataset/2/10_4.odb,Step-1,Increment      1: Step Time =    1.000,"PART-1-1",           401,       10.2658,      -24.9335,            0.,NA,NA,"",   6.31468E-03,  -6.31462E-03,  -28.1450E-06,   507.426E-06
C:/temp/dataset/2/10_4.odb,Step-1,Increment      1: Step Time =    1.000,"PART-1-1",           402,       8.77397,      -26.1861,            0.,NA,NA,"",   5.57264E-03,  -5.57235E-03,  -56.6862E-06,   807.136E-06
C:/temp/dataset/2/10_4.odb,Step-1,Increment      1: Step Time =    1.000,"PART-1-1",           403,       10.3945,      -27.4590,            0.,NA,NA,"",   3.54233E-03,  -3.53986E-03,   132.331E-06,   853.458E-06
C:/temp/dataset/2/10_4.odb,Step-1,Increment      1: Step Time =    1.000,"PART-1-1",           404,       11.8863,      -26.2064,            0.,NA,NA,"",   4.77487E-03,  -4.75607E-03,   423.282E-06,   587.643E-06
C:/temp/dataset/2/10_4.odb,Step-1,Increment      1: Step Time =    1.000,"PART-1-1",           405,       8.93044,      -28.7247,            0.,NA,NA,"",   2.09404E-03,  -2.08978E-03,   133.532E-06,   1.03479E-03
C:/temp/dataset/2/10_4.odb,Step-1,Increment      1: Step Time =    1.000,"PART-1-1",           406,       7.31300,      -27.4411,            0.,NA,NA,"",   4.59414E-03,  -4.59124E-03,   163.239E-06,   1.16756E-03
C:/temp/dataset/2/10_4.odb,Step-1,Increment      1: Step Time =    1.000,"PART-1-1",           407,       5.88256,      -28.7164,            0.,NA,NA,"",   2.92415E-03,  -2.90702E-03,   316.006E-06,   1.47755E-03
C:/temp/dataset/2/10_4.odb,Step-1,Increment      1: Step Time =    1.000,"PART-1-1",           408,           7.5,          -30.,            0.,NA,NA,"",            0.,  -1.49902E-39,   758.464E-42,   1.37283E-03
C:/temp/dataset/2/10_4.odb,Step-1,Increment      1: Step Time =    1.000,"PART-1-1",           409,       5.63995,      -26.1773,            0.,NA,NA,"",   7.19181E-03,  -7.18303E-03,   355.105E-06,   1.16999E-03
C:/temp/dataset/2/10_4.odb,Step-1,Increment      1: Step Time =    1.000,"PART-1-1",           410,       3.92490,      -24.9166,            0.,NA,NA,"",   9.64601E-03,  -9.57756E-03,   1.14713E-03,   1.39522E-03
C:/temp/dataset/2/10_4.odb,Step-1,Increment      1: Step Time =    1.000,"PART-1-1",           411,       2.50142,      -26.1700,            0.,NA,NA,"",   9.55456E-03,  -9.21219E-03,   2.53481E-03,   1.88037E-03
C:/temp/dataset/2/10_4.odb,Step-1,Increment      1: Step Time =    1.000,"PART-1-1",           412,       4.21647,      -27.4307,            0.,NA,NA,"",   6.22633E-03,  -6.15457E-03,   942.557E-06,   1.66331E-03
C:/temp/dataset/2/10_4.odb,Step-1,Increment      1: Step Time =    1.000,"PART-1-1",           413,       1.12659,      -27.4308,            0.,NA,NA,"",   8.06367E-03,  -7.43482E-03,   3.12190E-03,   2.55156E-03
C:/temp/dataset/2/10_4.odb,Step-1,Increment      1: Step Time =    1.000,"PART-1-1",           414,  -207.324E-03,      -28.7165,            0.,NA,NA,"",   4.68979E-03,  -4.12244E-03,   2.23598E-03,   3.18125E-03
C:/temp/dataset/2/10_4.odb,Step-1,Increment      1: Step Time =    1.000,"PART-1-1",           415,           1.5,          -30.,            0.,NA,NA,"",            0.,  -2.66339E-39,   3.53231E-39,   2.72713E-03
C:/temp/dataset/2/10_4.odb,Step-1,Increment      1: Step Time =    1.000,"PART-1-1",           416,       2.83391,      -28.7143,            0.,NA,NA,"",   3.96447E-03,  -3.85045E-03,   943.966E-06,   2.17903E-03
C:/temp/dataset/2/10_4.odb,Step-1,Increment      1: Step Time =    1.000,"PART-1-1",           417,      -1.92078,      -27.4395,            0.,NA,NA,"",   9.33710E-03,  -6.27903E-03,   6.91052E-03,   4.04639E-03
C:/temp/dataset/2/10_4.odb,Step-1,Increment      1: Step Time =    1.000,"PART-1-1",           418,      -3.21345,      -28.7230,            0.,NA,NA,"",   4.30081E-03,  -2.17146E-03,   3.71237E-03,   4.16486E-03
C:/temp/dataset/2/10_4.odb,Step-1,Increment      1: Step Time =    1.000,"PART-1-1",           419,          -1.5,          -30.,            0.,NA,NA,"",            0.,  -2.35531E-39,   6.08333E-39,   3.20629E-03
C:/temp/dataset/2/10_4.odb,Step-1,Increment      1: Step Time =    1.000,"PART-1-1",           420,      -5.57419,      -22.4519,            0.,NA,NA,"",   44.9594E-03,  -11.8219E-03,   43.3773E-03,   10.8365E-03
C:/temp/dataset/2/10_4.odb,Step-1,Increment      1: Step Time =    1.000,"PART-1-1",           421,      -6.77537,      -23.6376,            0.,NA,NA,"",   29.6150E-03,  -1.42824E-03,   29.5805E-03,   9.13769E-03
C:/temp/dataset/2/10_4.odb,Step-1,Increment      1: Step Time =    1.000,"PART-1-1",           422,      -5.25528,      -24.9124,            0.,NA,NA,"",   23.6515E-03,  -4.20934E-03,   23.2739E-03,   7.27808E-03
C:/temp/dataset/2/10_4.odb,Step-1,Increment      1: Step Time =    1.000,"PART-1-1",           423,      -4.05411,      -23.7268,            0.,NA,NA,"",   30.4272E-03,  -12.0113E-03,   27.9561E-03,   8.87260E-03
C:/temp/dataset/2/10_4.odb,Step-1,Increment      1: Step Time =    1.000,"PART-1-1",           424,       13.4223,      -24.9720,            0.,NA,NA,"",   6.07096E-03,  -5.95047E-03,   1.20349E-03,   182.205E-06
C:/temp/dataset/2/10_4.odb,Step-1,Increment      1: Step Time =    1.000,"PART-1-1",           425,           15.,        -26.25,            0.,NA,NA,"",   5.31994E-03,  -4.78728E-03,   2.32029E-03,   228.798E-06
C:/temp/dataset/2/10_4.odb,Step-1,Increment      1: Step Time =    1.000,"PART-1-1",           426,       11.8021,      -23.6964,            0.,NA,NA,"",   7.03563E-03,  -7.02361E-03,   411.096E-06,   208.536E-06
C:/temp/dataset/2/10_4.odb,Step-1,Increment      1: Step Time =    1.000,"PART-1-1",           427,       10.1355,      -22.4445,            0.,NA,NA,"",   7.97339E-03,  -7.96914E-03,  -260.256E-06,   180.163E-06
C:/temp/dataset/2/10_4.odb,Step-1,Increment      1: Step Time =    1.000,"PART-1-1",           428,      -2.31424,      -24.9364,            0.,NA,NA,"",   19.6245E-03,  -11.4343E-03,   15.9492E-03,   5.45473E-03
C:/temp/dataset/2/10_4.odb,Step-1,Increment      1: Step Time =    1.000,"PART-1-1",           429,      -3.63092,      -26.1962,            0.,NA,NA,"",   15.6507E-03,  -6.02623E-03,   14.4440E-03,   6.05735E-03
C:/temp/dataset/2/10_4.odb,Step-1,Increment      1: Step Time =    1.000,"PART-1-1",           430,  -604.096E-03,      -26.1796,            0.,NA,NA,"",   12.7412E-03,  -10.0990E-03,   7.76844E-03,   3.69310E-03
C:/temp/dataset/2/10_4.odb,Step-1,Increment      1: Step Time =    1.000,"PART-1-1",           431,      -7.52977,      -11.9021,            0.,NA,NA,"",   345.617E-03,  -320.461E-03,   129.444E-03,   13.1020E-03
C:/temp/dataset/2/10_4.odb,Step-1,Increment      1: Step Time =    1.000,"PART-1-1",           432,      -6.22373,      -12.8207,            0.,NA,NA,"",   337.704E-03,  -285.149E-03,   180.925E-03,   18.4502E-03
C:/temp/dataset/2/10_4.odb,Step-1,Increment      1: Step Time =    1.000,"PART-1-1",           433,           -5.,        -11.25,            0.,NA,NA,"",   465.090E-03,  -378.980E-03,   269.597E-03,   23.2501E-03
C:/temp/dataset/2/10_4.odb,Step-1,Increment      1: Step Time =    1.000,"PART-1-1",           434,      -10.0475,      -12.6788,            0.,NA,NA,"",   270.023E-03,  -270.018E-03,   1.72043E-03,   2.14050E-03
C:/temp/dataset/2/10_4.odb,Step-1,Increment      1: Step Time =    1.000,"PART-1-1",           435,           -5.,         -6.25,            0.,NA,NA,"",   781.257E-03,  -687.863E-03,   370.414E-03,   30.1766E-03
C:/temp/dataset/2/10_4.odb,Step-1,Increment      1: Step Time =    1.000,"PART-1-1",           436,      -7.88282,      -7.02961,            0.,NA,NA,"",   628.930E-03,  -610.684E-03,   150.392E-03,   7.38612E-03
C:/temp/dataset/2/10_4.odb,Step-1,Increment      1: Step Time =    1.000,"PART-1-1",           437,      -13.8577,      -6.65334,            0.,NA,NA,"",   692.868E-03,  -638.171E-03,  -269.823E-03,   13.7140E-03
C:/temp/dataset/2/10_4.odb,Step-1,Increment      1: Step Time =    1.000,"PART-1-1",           438,      -12.5267,      -5.32641,            0.,NA,NA,"",   760.168E-03,  -736.327E-03,  -188.887E-03,   8.88680E-03
C:/temp/dataset/2/10_4.odb,Step-1,Increment      1: Step Time =    1.000,"PART-1-1",           439,          -15.,      -5.20833,            0.,NA,NA,"",   843.025E-03,  -752.331E-03,  -380.379E-03,   16.4223E-03
C:/temp/dataset/2/10_4.odb,Step-1,Increment      1: Step Time =    1.000,"PART-1-1",           440,          1.25,           -5.,            0.,NA,NA,"",       1.36291,  -736.407E-03,       1.14684,   7.02822E-03
C:/temp/dataset/2/10_4.odb,Step-1,Increment      1: Step Time =    1.000,"PART-1-1",           441,       2.47079,      -3.83474,            0.,NA,NA,"",       1.54970,  -873.221E-03,       1.28025,   4.85899E-03
C:/temp/dataset/2/10_4.odb,Step-1,Increment      1: Step Time =    1.000,"PART-1-1",           442,       3.51261,  -149.180E-03,            0.,NA,NA,"",       1.88988,      -1.29485,       1.37660,   5.30203E-03
C:/temp/dataset/2/10_4.odb,Step-1,Increment      1: Step Time =    1.000,"PART-1-1",           443,       3.69085,      -2.58237,            0.,NA,NA,"",       1.74683,      -1.02214,       1.41656,   5.09633E-03
C:/temp/dataset/2/10_4.odb,Step-1,Increment      1: Step Time =    1.000,"PART-1-1",           444,       8.74868,       5.55605,            0.,NA,NA,"",       2.79359,      -1.98997,       1.96065,   260.622E-06
C:/temp/dataset/2/10_4.odb,Step-1,Increment      1: Step Time =    1.000,"PART-1-1",           445,       10.0030,       7.12352,            0.,NA,NA,"",       3.02653,      -2.18243,       2.09688,   109.043E-06
C:/temp/dataset/2/10_4.odb,Step-1,Increment      1: Step Time =    1.000,"PART-1-1",           446,       8.73640,       8.21697,            0.,NA,NA,"",       3.01089,      -2.30202,       1.94066,   132.213E-06
C:/temp/dataset/2/10_4.odb,Step-1,Increment      1: Step Time =    1.000,"PART-1-1",           447,           15.,     -625.E-03,            0.,NA,NA,"",       3.03183,      -1.31259,       2.73296,   347.169E-06
C:/temp/dataset/2/10_4.odb,Step-1,Increment      1: Step Time =    1.000,"PART-1-1",           448,       13.7714,   731.820E-03,            0.,NA,NA,"",       2.96654,      -1.46174,       2.58140,   53.8830E-06
C:/temp/dataset/2/10_4.odb,Step-1,Increment      1: Step Time =    1.000,"PART-1-1",           449,       12.5339,  -774.506E-03,            0.,NA,NA,"",       2.76179,      -1.27855,       2.44802,   234.237E-06
C:/temp/dataset/2/10_4.odb,Step-1,Increment      1: Step Time =    1.000,"PART-1-1",           450,       7.40609,       11.8257,            0.,NA,NA,"",       3.23616,      -2.71608,       1.75944,   53.2341E-06
C:/temp/dataset/2/10_4.odb,Step-1,Increment      1: Step Time =    1.000,"PART-1-1",           451,       8.70206,       10.8725,            0.,NA,NA,"",       3.24160,      -2.61321,       1.91810,   62.8275E-06
C:/temp/dataset/2/10_4.odb,Step-1,Increment      1: Step Time =    1.000,"PART-1-1",           452,       11.2454,       8.75341,            0.,NA,NA,"",       3.26378,      -2.38208,       2.23112,   93.8920E-06
C:/temp/dataset/2/10_4.odb,Step-1,Increment      1: Step Time =    1.000,"PART-1-1",           453,       11.2622,       5.99112,            0.,NA,NA,"",       3.05119,      -2.05839,       2.25229,   75.6139E-06
C:/temp/dataset/2/10_4.odb,Step-1,Increment      1: Step Time =    1.000,"PART-1-1",           454,       13.8596,       24.3693,            0.,NA,NA,"",       4.87970,      -4.23175,       2.42978,   168.095E-09
C:/temp/dataset/2/10_4.odb,Step-1,Increment      1: Step Time =    1.000,"PART-1-1",           455,       12.6110,       23.1199,            0.,NA,NA,"",       4.67672,      -4.07660,       2.29196,   302.070E-09
C:/temp/dataset/2/10_4.odb,Step-1,Increment      1: Step Time =    1.000,"PART-1-1",           456,       13.7514,       21.4590,            0.,NA,NA,"",       4.59014,      -3.88967,       2.43718,   396.447E-09
C:/temp/dataset/2/10_4.odb,Step-1,Increment      1: Step Time =    1.000,"PART-1-1",           457,           15.,       22.7083,            0.,NA,NA,"",       4.79491,      -4.04482,       2.57500,   433.001E-09
C:/temp/dataset/2/10_4.odb,Step-1,Increment      1: Step Time =    1.000,"PART-1-1",           458,       8.83903,       17.2613,            0.,NA,NA,"",       3.85806,      -3.36342,       1.88999,   2.97069E-06
C:/temp/dataset/2/10_4.odb,Step-1,Increment      1: Step Time =    1.000,"PART-1-1",           459,       10.5130,       17.3338,            0.,NA,NA,"",       3.97474,      -3.38348,       2.08582,   2.48072E-06
C:/temp/dataset/2/10_4.odb,Step-1,Increment      1: Step Time =    1.000,"PART-1-1",           460,       8.72284,       19.1442,            0.,NA,NA,"",       4.03897,      -3.58346,       1.86336,   820.909E-09
C:/temp/dataset/2/10_4.odb,Step-1,Increment      1: Step Time =    1.000,"PART-1-1",           461,           15.,       28.5417,            0.,NA,NA,"",       5.36547,      -4.72899,       2.53473,   17.8845E-09
C:/temp/dataset/2/10_4.odb,Step-1,Increment      1: Step Time =    1.000,"PART-1-1",           462,         13.75,           30.,            0.,NA,NA,"",       5.43885,      -4.89141,       2.37806,   11.1452E-09
C:/temp/dataset/2/10_4.odb,Step-1,Increment      1: Step Time =    1.000,"PART-1-1",           463,       12.5875,       28.6551,            0.,NA,NA,"",       5.23438,      -4.72565,       2.25100,   55.7551E-09
C:/temp/dataset/2/10_4.odb,Step-1,Increment      1: Step Time =    1.000,"PART-1-1",           464,       13.8375,       27.1968,            0.,NA,NA,"",       5.15945,      -4.56323,       2.40767,   57.2454E-09
C:/temp/dataset/2/10_4.odb,Step-1,Increment      1: Step Time =    1.000,"PART-1-1",           465,         11.25,           30.,            0.,NA,NA,"",       5.30131,      -4.87415,       2.08484,   54.2587E-09
C:/temp/dataset/2/10_4.odb,Step-1,Increment      1: Step Time =    1.000,"PART-1-1",           466,       10.1484,       28.7335,            0.,NA,NA,"",       5.11061,      -4.71800,       1.96438,   74.5091E-09
C:/temp/dataset/2/10_4.odb,Step-1,Increment      1: Step Time =    1.000,"PART-1-1",           467,       7.69941,       28.7139,            0.,NA,NA,"",       4.98919,      -4.69880,       1.67728,   70.2743E-09
C:/temp/dataset/2/10_4.odb,Step-1,Increment      1: Step Time =    1.000,"PART-1-1",           468,       9.09777,       27.4473,            0.,NA,NA,"",       4.92091,      -4.55990,       1.85003,   63.7714E-09
C:/temp/dataset/2/10_4.odb,Step-1,Increment      1: Step Time =    1.000,"PART-1-1",           469,          8.75,           30.,            0.,NA,NA,"",       5.17681,      -4.85690,       1.79162,   80.5418E-09
C:/temp/dataset/2/10_4.odb,Step-1,Increment      1: Step Time =    1.000,"PART-1-1",           470,  -9.87333E-03,       28.6960,            0.,NA,NA,"",       4.70742,      -4.64349,   773.202E-03,   3.24239E-09
C:/temp/dataset/2/10_4.odb,Step-1,Increment      1: Step Time =    1.000,"PART-1-1",           471,          1.25,           30.,            0.,NA,NA,"",       4.89091,      -4.80513,   911.969E-03,   2.36166E-09
C:/temp/dataset/2/10_4.odb,Step-1,Increment      1: Step Time =    1.000,"PART-1-1",           472,       4.87954,       25.6434,            0.,NA,NA,"",       4.53059,      -4.31921,       1.36774,   75.1837E-09
C:/temp/dataset/2/10_4.odb,Step-1,Increment      1: Step Time =    1.000,"PART-1-1",           473,      -5.00474,       28.7231,            0.,NA,NA,"",       4.61599,      -4.61220,   187.181E-03,   1.24296E-09
C:/temp/dataset/2/10_4.odb,Step-1,Increment      1: Step Time =    1.000,"PART-1-1",           474,         -6.25,           30.,            0.,NA,NA,"",       4.75348,      -4.75337,   32.3147E-03,   1.04083E-09
C:/temp/dataset/2/10_4.odb,Step-1,Increment      1: Step Time =    1.000,"PART-1-1",           475,      -3.76303,       27.4393,            0.,NA,NA,"",       4.48323,      -4.47019,   341.678E-03,   2.15600E-09
C:/temp/dataset/2/10_4.odb,Step-1,Increment      1: Step Time =    1.000,"PART-1-1",           476,      -3.77322,       24.9147,            0.,NA,NA,"",       4.18934,      -4.17402,   357.908E-03,   2.31763E-09
C:/temp/dataset/2/10_4.odb,Step-1,Increment      1: Step Time =    1.000,"PART-1-1",           477,      -13.7476,       27.4926,            0.,NA,NA,"",       4.48495,      -4.40753,  -829.752E-03,   58.8901E-12
C:/temp/dataset/2/10_4.odb,Step-1,Increment      1: Step Time =    1.000,"PART-1-1",           478,        -13.75,           30.,            0.,NA,NA,"",       4.77735,      -4.70160,  -847.340E-03,   49.1567E-12
C:/temp/dataset/2/10_4.odb,Step-1,Increment      1: Step Time =    1.000,"PART-1-1",           479,          -15.,         28.75,            0.,NA,NA,"",       4.65191,      -4.54637,  -985.321E-03,   51.9076E-12
C:/temp/dataset/2/10_4.odb,Step-1,Increment      1: Step Time =    1.000,"PART-1-1",           480,          -15.,         26.25,            0.,NA,NA,"",       4.36193,      -4.25315,  -968.066E-03,   49.3945E-12
C:/temp/dataset/2/10_4.odb,Step-1,Increment      1: Step Time =    1.000,"PART-1-1",           481,      -12.4965,       26.2309,            0.,NA,NA,"",       4.32112,      -4.26818,  -674.304E-03,   77.3389E-12
C:/temp/dataset/2/10_4.odb,Step-1,Increment      1: Step Time =    1.000,"PART-1-1",           482,      -10.0014,       23.7134,            0.,NA,NA,"",       4.00673,      -3.99014,  -364.285E-03,   215.578E-12
C:/temp/dataset/2/10_4.odb,Step-1,Increment      1: Step Time =    1.000,"PART-1-1",           483,      -8.75535,       22.4567,            0.,NA,NA,"",       3.85703,      -3.85134,  -209.467E-03,   465.199E-12
C:/temp/dataset/2/10_4.odb,Step-1,Increment      1: Step Time =    1.000,"PART-1-1",           484,      -7.50515,       23.6891,            0.,NA,NA,"",       4.00515,      -4.00452,  -71.3406E-03,   640.746E-12
C:/temp/dataset/2/10_4.odb,Step-1,Increment      1: Step Time =    1.000,"PART-1-1",           485,      -8.75118,       24.9458,            0.,NA,NA,"",       4.14948,      -4.14331,  -226.158E-03,   515.944E-12
C:/temp/dataset/2/10_4.odb,Step-1,Increment      1: Step Time =    1.000,"PART-1-1",           486,      -3.77419,       22.4219,            0.,NA,NA,"",       3.89971,      -3.88164,   375.000E-03,   2.66036E-09
C:/temp/dataset/2/10_4.odb,Step-1,Increment      1: Step Time =    1.000,"PART-1-1",           487,      -5.00723,       21.2173,            0.,NA,NA,"",       3.73948,      -3.73185,   238.694E-03,   1.41758E-09
C:/temp/dataset/2/10_4.odb,Step-1,Increment      1: Step Time =    1.000,"PART-1-1",           488,         -3.75,           20.,            0.,NA,NA,"",       3.61932,      -3.59775,   394.552E-03,   2.84454E-09
C:/temp/dataset/2/10_4.odb,Step-1,Increment      1: Step Time =    1.000,"PART-1-1",           489,      -2.51696,       21.2046,            0.,NA,NA,"",       3.78495,      -3.74754,   530.858E-03,   2.67900E-09
C:/temp/dataset/2/10_4.odb,Step-1,Increment      1: Step Time =    1.000,"PART-1-1",           490,         -8.75,           20.,            0.,NA,NA,"",       3.56840,      -3.56324,  -191.884E-03,   258.291E-12
C:/temp/dataset/2/10_4.odb,Step-1,Increment      1: Step Time =    1.000,"PART-1-1",           491,      -7.50331,       21.2223,            0.,NA,NA,"",       3.71560,      -3.71520,  -54.0988E-03,   438.394E-12
C:/temp/dataset/2/10_4.odb,Step-1,Increment      1: Step Time =    1.000,"PART-1-1",           492,         -6.25,           20.,            0.,NA,NA,"",       3.58193,      -3.58050,   101.334E-03,   1.25985E-09
C:/temp/dataset/2/10_4.odb,Step-1,Increment      1: Step Time =    1.000,"PART-1-1",           493,      -6.26054,       22.4396,            0.,NA,NA,"",       3.86745,      -3.86656,   83.2606E-03,   1.19663E-09
C:/temp/dataset/2/10_4.odb,Step-1,Increment      1: Step Time =    1.000,"PART-1-1",           494,         -1.25,           20.,            0.,NA,NA,"",       3.67985,      -3.61501,   687.771E-03,   11.4125E-09
C:/temp/dataset/2/10_4.odb,Step-1,Increment      1: Step Time =    1.000,"PART-1-1",           495,      -1.30453,       22.3853,            0.,NA,NA,"",       3.95075,      -3.89440,   664.911E-03,   5.55050E-09
C:/temp/dataset/2/10_4.odb,Step-1,Increment      1: Step Time =    1.000,"PART-1-1",           496,         -1.25,           30.,            0.,NA,NA,"",       4.82769,      -4.78788,   618.751E-03,   5.06084E-09
C:/temp/dataset/2/10_4.odb,Step-1,Increment      1: Step Time =    1.000,"PART-1-1",           497,      -2.50829,       28.7162,            0.,NA,NA,"",       4.65344,      -4.62862,   480.030E-03,   2.48743E-09
C:/temp/dataset/2/10_4.odb,Step-1,Increment      1: Step Time =    1.000,"PART-1-1",           498,         -3.75,           30.,            0.,NA,NA,"",       4.78172,      -4.77062,   325.533E-03,   2.75890E-09
C:/temp/dataset/2/10_4.odb,Step-1,Increment      1: Step Time =    1.000,"PART-1-1",           499,          3.75,           20.,            0.,NA,NA,"",       3.86556,      -3.64951,       1.27421,   165.289E-09
C:/temp/dataset/2/10_4.odb,Step-1,Increment      1: Step Time =    1.000,"PART-1-1",           500,       4.75388,       21.0765,            0.,NA,NA,"",       4.02812,      -3.78270,       1.38452,   364.250E-09
C:/temp/dataset/2/10_4.odb,Step-1,Increment      1: Step Time =    1.000,"PART-1-1",           501,          6.25,           30.,            0.,NA,NA,"",       5.06630,      -4.83964,       1.49841,   56.5754E-09
C:/temp/dataset/2/10_4.odb,Step-1,Increment      1: Step Time =    1.000,"PART-1-1",           502,       6.61296,       27.1492,            0.,NA,NA,"",       4.77030,      -4.50779,       1.56065,   67.4892E-09
C:/temp/dataset/2/10_4.odb,Step-1,Increment      1: Step Time =    1.000,"PART-1-1",           503,            5.,         16.25,            0.,NA,NA,"",       3.52854,      -3.21833,       1.44670,   1.43232E-06
C:/temp/dataset/2/10_4.odb,Step-1,Increment      1: Step Time =    1.000,"PART-1-1",           504,       6.03202,       15.2452,            0.,NA,NA,"",       3.48379,      -3.10761,       1.57467,   3.55053E-06
C:/temp/dataset/2/10_4.odb,Step-1,Increment      1: Step Time =    1.000,"PART-1-1",           505,       6.91243,       16.6330,            0.,NA,NA,"",       3.67675,      -3.27644,       1.66836,   3.52135E-06
C:/temp/dataset/2/10_4.odb,Step-1,Increment      1: Step Time =    1.000,"PART-1-1",           506,            5.,         13.75,            0.,NA,NA,"",       3.27101,      -2.92513,       1.46395,   8.27617E-06
C:/temp/dataset/2/10_4.odb,Step-1,Increment      1: Step Time =    1.000,"PART-1-1",           507,       6.17466,       12.7979,            0.,NA,NA,"",       3.24776,      -2.82159,       1.60827,   20.6686E-06
C:/temp/dataset/2/10_4.odb,Step-1,Increment      1: Step Time =    1.000,"PART-1-1",           508,       12.0086,       16.5092,            0.,NA,NA,"",       4.00121,      -3.29708,       2.26692,   5.50703E-06
C:/temp/dataset/2/10_4.odb,Step-1,Increment      1: Step Time =    1.000,"PART-1-1",           509,           15.,        16.875,            0.,NA,NA,"",       4.25834,      -3.36063,       2.61526,   582.186E-09
C:/temp/dataset/2/10_4.odb,Step-1,Increment      1: Step Time =    1.000,"PART-1-1",           510,       13.3591,       18.2744,            0.,NA,NA,"",       4.26234,      -3.51344,       2.41314,   609.255E-09
C:/temp/dataset/2/10_4.odb,Step-1,Increment      1: Step Time =    1.000,"PART-1-1",           511,            5.,         11.25,            0.,NA,NA,"",       3.02009,      -2.63196,       1.48114,   65.6706E-06
C:/temp/dataset/2/10_4.odb,Step-1,Increment      1: Step Time =    1.000,"PART-1-1",           512,       6.23142,       10.2778,            0.,NA,NA,"",       3.00789,      -2.52647,       1.63228,   63.5796E-06
C:/temp/dataset/2/10_4.odb,Step-1,Increment      1: Step Time =    1.000,"PART-1-1",           513,            5.,          8.75,            0.,NA,NA,"",       2.77741,      -2.33868,       1.49819,   150.630E-06
C:/temp/dataset/2/10_4.odb,Step-1,Increment      1: Step Time =    1.000,"PART-1-1",           514,       7.47251,       9.25684,            0.,NA,NA,"",       3.00335,      -2.41531,       1.78503,   132.143E-06
C:/temp/dataset/2/10_4.odb,Step-1,Increment      1: Step Time =    1.000,"PART-1-1",           515,         11.25,           -5.,            0.,NA,NA,"",       2.45713,  -783.081E-03,       2.32900,   477.389E-06
C:/temp/dataset/2/10_4.odb,Step-1,Increment      1: Step Time =    1.000,"PART-1-1",           516,       11.2689,      -2.22707,            0.,NA,NA,"",       2.56145,      -1.10213,       2.31221,   902.351E-06
C:/temp/dataset/2/10_4.odb,Step-1,Increment      1: Step Time =    1.000,"PART-1-1",           517,          10.5,          -30.,            0.,NA,NA,"",            0.,  -1.05614E-39,   565.455E-42,   948.827E-06
C:/temp/dataset/2/10_4.odb,Step-1,Increment      1: Step Time =    1.000,"PART-1-1",           518,           15.,        -23.75,            0.,NA,NA,"",   7.26257E-03,  -6.89394E-03,   2.28440E-03,   15.4111E-06
C:/temp/dataset/2/10_4.odb,Step-1,Increment      1: Step Time =    1.000,"PART-1-1",           519,          3.75,           -5.,            0.,NA,NA,"",       1.62270,  -739.665E-03,       1.44432,   4.84875E-03
C:/temp/dataset/2/10_4.odb,Step-1,Increment      1: Step Time =    1.000,"PART-1-1",           520,       4.97006,      -3.74763,            0.,NA,NA,"",       1.81745,  -894.173E-03,       1.58227,   4.71822E-03
C:/temp/dataset/2/10_4.odb,Step-1,Increment      1: Step Time =    1.000,"PART-1-1",           521,       4.85412,       3.76356,            0.,NA,NA,"",       2.31204,      -1.74874,       1.51242,   2.98420E-03
C:/temp/dataset/2/10_4.odb,Step-1,Increment      1: Step Time =    1.000,"PART-1-1",           522,       3.33333,            5.,            0.,NA,NA,"",       2.29900,      -1.87785,       1.32630,   5.11737E-03
C:/temp/dataset/2/10_4.odb,Step-1,Increment      1: Step Time =    1.000,"PART-1-1",           523,       1.45296,       3.58740,            0.,NA,NA,"",       2.02638,      -1.69326,       1.11314,   5.80225E-03
C:/temp/dataset/2/10_4.odb,Step-1,Increment      1: Step Time =    1.000,"PART-1-1",           524,       2.97375,       2.35096,            0.,NA,NA,"",       2.03644,      -1.56990,       1.29711,   4.94994E-03
C:/temp/dataset/2/10_4.odb,Step-1,Increment      1: Step Time =    1.000,"PART-1-1",           525,          6.25,           -5.,            0.,NA,NA,"",       1.90654,  -751.484E-03,       1.75219,   3.88838E-03
C:/temp/dataset/2/10_4.odb,Step-1,Increment      1: Step Time =    1.000,"PART-1-1",           526,       12.4696,       10.4445,            0.,NA,NA,"",       3.50506,      -2.58886,       2.36289,   64.6687E-06
C:/temp/dataset/2/10_4.odb,Step-1,Increment      1: Step Time =    1.000,"PART-1-1",           527,           15.,       11.0417,            0.,NA,NA,"",       3.77022,      -2.67638,       2.65547,   51.7299E-06
C:/temp/dataset/2/10_4.odb,Step-1,Increment      1: Step Time =    1.000,"PART-1-1",           528,      -5.01382,       23.6808,            0.,NA,NA,"",       4.02680,      -4.02074,   220.918E-03,   1.61642E-09
C:/temp/dataset/2/10_4.odb,Step-1,Increment      1: Step Time =    1.000,"PART-1-1",           529,      -2.53358,       23.6558,            0.,NA,NA,"",       4.06727,      -4.03492,   511.990E-03,   2.27334E-09
C:/temp/dataset/2/10_4.odb,Step-1,Increment      1: Step Time =    1.000,"PART-1-1",           530,  -74.6816E-03,       23.6075,            0.,NA,NA,"",       4.12470,      -4.04624,   800.721E-03,   7.42739E-09
C:/temp/dataset/2/10_4.odb,Step-1,Increment      1: Step Time =    1.000,"PART-1-1",           531,      -6.62798,      -1.45964,            0.,NA,NA,"",       1.12356,      -1.09230,   263.184E-03,   8.18490E-03
C:/temp/dataset/2/10_4.odb,Step-1,Increment      1: Step Time =    1.000,"PART-1-1",           532,      -4.43070,      -2.38075,            0.,NA,NA,"",       1.12190,      -1.01657,   474.603E-03,   7.11605E-03
C:/temp/dataset/2/10_4.odb,Step-1,Increment      1: Step Time =    1.000,"PART-1-1",           533,      -3.64554,  -813.143E-03,            0.,NA,NA,"",       1.30379,      -1.17864,   557.367E-03,   5.78453E-03
C:/temp/dataset/2/10_4.odb,Step-1,Increment      1: Step Time =    1.000,"PART-1-1",           534,         -3.75,           -5.,            0.,NA,NA,"",   940.790E-03,  -752.274E-03,   564.950E-03,   20.2401E-03
C:/temp/dataset/2/10_4.odb,Step-1,Increment      1: Step Time =    1.000,"PART-1-1",           535,      -13.8599,      -9.43096,            0.,NA,NA,"",   506.707E-03,  -452.184E-03,  -228.653E-03,   14.5430E-03
C:/temp/dataset/2/10_4.odb,Step-1,Increment      1: Step Time =    1.000,"PART-1-1",           536,          -15.,      -11.0417,            0.,NA,NA,"",   454.078E-03,  -366.698E-03,  -267.806E-03,   19.8053E-03
C:/temp/dataset/2/10_4.odb,Step-1,Increment      1: Step Time =    1.000,"PART-1-1",           537,      -11.9984,      -19.8095,            0.,NA,NA,"",   56.3362E-03,  -35.0321E-03,  -44.1194E-03,   7.23759E-03
C:/temp/dataset/2/10_4.odb,Step-1,Increment      1: Step Time =    1.000,"PART-1-1",           538,      -13.3881,      -18.2324,            0.,NA,NA,"",   117.610E-03,  -73.7838E-03,  -91.5863E-03,   12.5981E-03
C:/temp/dataset/2/10_4.odb,Step-1,Increment      1: Step Time =    1.000,"PART-1-1",           539,          -15.,      -19.7917,            0.,NA,NA,"",   118.486E-03,  -51.7530E-03,  -106.586E-03,   17.8462E-03
C:/temp/dataset/2/10_4.odb,Step-1,Increment      1: Step Time =    1.000,"PART-1-1",           540,           -5.,        -18.75,            0.,NA,NA,"",   129.903E-03,  -69.4934E-03,   109.751E-03,   31.6473E-03
C:/temp/dataset/2/10_4.odb,Step-1,Increment      1: Step Time =    1.000,"PART-1-1",           541,      -5.96138,      -20.0094,            0.,NA,NA,"",   75.1863E-03,  -25.7770E-03,   70.6295E-03,   19.3806E-03
C:/temp/dataset/2/10_4.odb,Step-1,Increment      1: Step Time =    1.000,"PART-1-1",           542,           -5.,        -13.75,            0.,NA,NA,"",   336.048E-03,  -254.306E-03,   219.675E-03,   23.5374E-03
C:/temp/dataset/2/10_4.odb,Step-1,Increment      1: Step Time =    1.000,"PART-1-1",           543,      -7.28958,      -14.3036,            0.,NA,NA,"",   237.704E-03,  -208.794E-03,   113.616E-03,   14.1961E-03
C:/temp/dataset/2/10_4.odb,Step-1,Increment      1: Step Time =    1.000,"PART-1-1",           544,      -8.88285,      -11.0213,            0.,NA,NA,"",   365.300E-03,  -359.407E-03,   65.3553E-03,   7.19746E-03
C:/temp/dataset/2/10_4.odb,Step-1,Increment      1: Step Time =    1.000,"PART-1-1",           545,      -9.01222,      -8.51542,            0.,NA,NA,"",   512.636E-03,  -508.133E-03,   67.7962E-03,   6.16246E-03
C:/temp/dataset/2/10_4.odb,Step-1,Increment      1: Step Time =    1.000,"PART-1-1",           546,      -9.13424,  -715.290E-03,            0.,NA,NA,"",       1.15214,      -1.15121,   46.2032E-03,   8.58320E-03
C:/temp/dataset/2/10_4.odb,Step-1,Increment      1: Step Time =    1.000,"PART-1-1",           547,      -9.92186,      -2.42350,            0.,NA,NA,"",   986.656E-03,  -986.592E-03,  -11.2594E-03,   8.72393E-03
C:/temp/dataset/2/10_4.odb,Step-1,Increment      1: Step Time =    1.000,"PART-1-1",           548,      -12.7176,      -7.95930,            0.,NA,NA,"",   570.128E-03,  -542.829E-03,  -174.308E-03,   9.40629E-03
C:/temp/dataset/2/10_4.odb,Step-1,Increment      1: Step Time =    1.000,"PART-1-1",           549,          -15.,        -8.125,            0.,NA,NA,"",   631.420E-03,  -541.523E-03,  -324.721E-03,   19.0460E-03
C:/temp/dataset/2/10_4.odb,Step-1,Increment      1: Step Time =    1.000,"PART-1-1",           550,       11.2818,   528.104E-03,            0.,NA,NA,"",       2.69798,      -1.42152,       2.29312,   754.254E-06
C:/temp/dataset/2/10_4.odb,Step-1,Increment      1: Step Time =    1.000,"PART-1-1",           551,       10.0167,  -924.457E-03,            0.,NA,NA,"",       2.49050,      -1.24530,       2.15680,   1.53864E-03
C:/temp/dataset/2/10_4.odb,Step-1,Increment      1: Step Time =    1.000,"PART-1-1",           552,       10.4320,       23.7699,            0.,NA,NA,"",       4.60977,      -4.13779,       2.03190,   200.583E-09
C:/temp/dataset/2/10_4.odb,Step-1,Increment      1: Step Time =    1.000,"PART-1-1",           553,           15.,        25.625,            0.,NA,NA,"",       5.07664,      -4.38690,       2.55487,   125.751E-09
C:/temp/dataset/2/10_4.odb,Step-1,Increment      1: Step Time =    1.000,"PART-1-1",           554,      -9.99539,       26.2124,            0.,NA,NA,"",       4.30018,      -4.28328,  -380.831E-03,   214.027E-12
C:/temp/dataset/2/10_4.odb,Step-1,Increment      1: Step Time =    1.000,"PART-1-1",           555,          -15.,       -25.625,            0.,NA,NA,"",   29.6787E-03,  -342.408E-06,  -29.6767E-03,   10.7575E-03
C:/temp/dataset/2/10_4.odb,Step-1,Increment      1: Step Time =    1.000,"PART-1-1",           556,      -12.2044,      -25.8339,            0.,NA,NA,"",   17.9563E-03,   9.47283E-03,  -15.2543E-03,   6.42236E-03
C:/temp/dataset/2/10_4.odb,Step-1,Increment      1: Step Time =    1.000,"PART-1-1",           557,          -15.,       -16.875,            0.,NA,NA,"",   199.048E-03,  -121.633E-03,  -157.561E-03,   19.5901E-03
C:/temp/dataset/2/10_4.odb,Step-1,Increment      1: Step Time =    1.000,"PART-1-1",           558,      -8.25880,      -15.9015,            0.,NA,NA,"",   152.465E-03,  -139.623E-03,   61.2454E-03,   9.55963E-03
C:/temp/dataset/2/10_4.odb,Step-1,Increment      1: Step Time =    1.000,"PART-1-1",           559,       7.56555,       17.9230,            0.,NA,NA,"",       3.84632,      -3.43224,       1.73606,   1.13349E-06
C:/temp/dataset/2/10_4.odb,Step-1,Increment      1: Step Time =    1.000,"PART-1-1",           560,      -9.72707,       2.21069,            0.,NA,NA,"",       1.43034,      -1.43028,  -12.7385E-03,   7.35547E-03
C:/temp/dataset/2/10_4.odb,Step-1,Increment      1: Step Time =    1.000,"PART-1-1",           561,      -8.18006,       3.69884,            0.,NA,NA,"",       1.58916,      -1.58475,   118.316E-03,   7.78000E-03
C:/temp/dataset/2/10_4.odb,Step-1,Increment      1: Step Time =    1.000,"PART-1-1",           562,          -10.,            5.,            0.,NA,NA,"",       1.68672,      -1.68619,  -42.5304E-03,   5.70270E-03
C:/temp/dataset/2/10_4.odb,Step-1,Increment      1: Step Time =    1.000,"PART-1-1",           563,      -10.3433,      -7.69771,            0.,NA,NA,"",   559.584E-03,  -559.252E-03,  -19.2784E-03,   2.22992E-03
C:/temp/dataset/2/10_4.odb,Step-1,Increment      1: Step Time =    1.000,"PART-1-1",           564,      -11.5611,      -6.59494,            0.,NA,NA,"",   646.750E-03,  -637.693E-03,  -107.856E-03,   6.03497E-03
C:/temp/dataset/2/10_4.odb,Step-1,Increment      1: Step Time =    1.000,"PART-1-1",           565,      -9.40089,      -20.7816,            0.,NA,NA,"",   19.5824E-03,  -15.8268E-03,   11.5318E-03,   4.49264E-03
C:/temp/dataset/2/10_4.odb,Step-1,Increment      1: Step Time =    1.000,"PART-1-1",           566,      -8.21757,      -22.2064,            0.,NA,NA,"",   26.3435E-03,  -3.08149E-03,   26.1626E-03,   7.07737E-03
C:/temp/dataset/2/10_4.odb,Step-1,Increment      1: Step Time =    1.000,"PART-1-1",           567,      -6.89894,      -21.2078,            0.,NA,NA,"",   50.7096E-03,  -13.1806E-03,   48.9667E-03,   10.5404E-03
C:/temp/dataset/2/10_4.odb,Step-1,Increment      1: Step Time =    1.000,"PART-1-1",           568,      -9.14285,      -28.6800,            0.,NA,NA,"",   6.28314E-03,   6.23367E-03,   786.930E-06,   3.61183E-03
C:/temp/dataset/2/10_4.odb,Step-1,Increment      1: Step Time =    1.000,"PART-1-1",           569,      -10.7232,      -27.3047,            0.,NA,NA,"",   10.6728E-03,   10.1099E-03,  -3.42020E-03,   3.64100E-03
C:/temp/dataset/2/10_4.odb,Step-1,Increment      1: Step Time =    1.000,"PART-1-1",           570,         -10.5,          -30.,            0.,NA,NA,"",            0.,   5.02473E-39,  -2.77128E-39,   3.95556E-03
C:/temp/dataset/2/10_4.odb,Step-1,Increment      1: Step Time =    1.000,"PART-1-1",           571,      -4.89633,      -27.4366,            0.,NA,NA,"",   9.41079E-03,  -576.329E-06,   9.39313E-03,   5.11157E-03
C:/temp/dataset/2/10_4.odb,Step-1,Increment      1: Step Time =    1.000,"PART-1-1",           572,      -6.18287,      -28.7136,            0.,NA,NA,"",   4.25924E-03,   2.20991E-03,   3.64108E-03,   4.19746E-03
C:/temp/dataset/2/10_4.odb,Step-1,Increment      1: Step Time =    1.000,"PART-1-1",           573,          -4.5,          -30.,            0.,NA,NA,"",            0.,  -183.465E-42,   7.30315E-39,   3.18627E-03
C:/temp/dataset/2/10_4.odb,Step-1,Increment      1: Step Time =    1.000,"PART-1-1",           574,       12.5384,       2.02620,            0.,NA,NA,"",       2.91082,      -1.60403,       2.42898,   161.758E-06
C:/temp/dataset/2/10_4.odb,Step-1,Increment      1: Step Time =    1.000,"PART-1-1",           575,           15.,       2.29167,            0.,NA,NA,"",       3.17726,      -1.65185,       2.71410,   332.379E-06
C:/temp/dataset/2/10_4.odb,Step-1,Increment      1: Step Time =    1.000,"PART-1-1",           576,       9.96595,       9.83263,            0.,NA,NA,"",       3.24798,      -2.49992,       2.07360,   93.6002E-06
C:/temp/dataset/2/10_4.odb,Step-1,Increment      1: Step Time =    1.000,"PART-1-1",           577,           15.,       19.7917,            0.,NA,NA,"",       4.52160,      -3.70273,       2.59513,   757.452E-09
C:/temp/dataset/2/10_4.odb,Step-1,Increment      1: Step Time =    1.000,"PART-1-1",           578,       7.90800,       20.1372,            0.,NA,NA,"",       4.09252,      -3.69430,       1.76094,   313.376E-09
C:/temp/dataset/2/10_4.odb,Step-1,Increment      1: Step Time =    1.000,"PART-1-1",           579,       8.41916,       21.3934,            0.,NA,NA,"",       4.25082,      -3.84517,       1.81222,   316.981E-09
C:/temp/dataset/2/10_4.odb,Step-1,Increment      1: Step Time =    1.000,"PART-1-1",           580,       6.50486,       21.1025,            0.,NA,NA,"",       4.11713,      -3.79784,       1.58971,   397.540E-09
C:/temp/dataset/2/10_4.odb,Step-1,Increment      1: Step Time =    1.000,"PART-1-1",           581,           4.5,          -30.,            0.,NA,NA,"",            0.,  -2.11427E-39,   1.66795E-39,   1.99708E-03
C:/temp/dataset/2/10_4.odb,Step-1,Increment      1: Step Time =    1.000,"PART-1-1",           582,       3.62857,      -22.4261,            0.,NA,NA,"",   10.2334E-03,  -10.1834E-03,   1.01042E-03,   856.770E-06
C:/temp/dataset/2/10_4.odb,Step-1,Increment      1: Step Time =    1.000,"PART-1-1",           583,       2.16864,      -23.6665,            0.,NA,NA,"",   11.8905E-03,  -11.4594E-03,   3.17257E-03,   1.63740E-03
C:/temp/dataset/2/10_4.odb,Step-1,Increment      1: Step Time =    1.000,"PART-1-1",           584,      -2.73954,      -22.4743,            0.,NA,NA,"",   32.0507E-03,  -18.0179E-03,   26.5067E-03,   6.69899E-03
C:/temp/dataset/2/10_4.odb,Step-1,Increment      1: Step Time =    1.000,"PART-1-1",           585,  -999.676E-03,      -23.6839,            0.,NA,NA,"",   18.9940E-03,  -14.2640E-03,   12.5424E-03,   4.27576E-03
C:/temp/dataset/2/10_4.odb,Step-1,Increment      1: Step Time =    1.000,"PART-1-1",           586,      -7.82572,      -27.3936,            0.,NA,NA,"",   9.28978E-03,   6.96086E-03,   6.15194E-03,   4.04898E-03
C:/temp/dataset/2/10_4.odb,Step-1,Increment      1: Step Time =    1.000,"PART-1-1",           587,      -6.52069,      -26.1528,            0.,NA,NA,"",   14.9390E-03,   3.05159E-03,   14.6240E-03,   6.45863E-03
C:/temp/dataset/2/10_4.odb,Step-1,Increment      1: Step Time =    1.000,"PART-1-1",           588,      -8.08310,      -24.7829,            0.,NA,NA,"",   16.2840E-03,   6.32876E-03,   15.0038E-03,   5.63858E-03
C:/temp/dataset/2/10_4.odb,Step-1,Increment      1: Step Time =    1.000,"PART-1-1",           589,      -9.38814,      -26.0237,            0.,NA,NA,"",   10.9428E-03,   10.4673E-03,   3.19062E-03,   4.34360E-03
C:/temp/dataset/2/10_4.odb,Step-1,Increment      1: Step Time =    1.000,"PART-1-1",           590,          -7.5,          -30.,            0.,NA,NA,"",            0.,   3.19822E-39,   4.37914E-39,   3.23607E-03
C:/temp/dataset/2/10_4.odb,Step-1,Increment      1: Step Time =    1.000,"PART-1-1",           591,       7.73182,       24.8866,            0.,NA,NA,"",       4.58030,      -4.25013,       1.70750,   127.789E-09
C:/temp/dataset/2/10_4.odb,Step-1,Increment      1: Step Time =    1.000,"PART-1-1",           592,       8.21760,       26.2797,            0.,NA,NA,"",       4.75272,      -4.41688,       1.75486,   103.982E-09
C:/temp/dataset/2/10_4.odb,Step-1,Increment      1: Step Time =    1.000,"PART-1-1",           593,       6.12718,       25.7561,            0.,NA,NA,"",       4.59724,      -4.34104,       1.51329,   106.110E-09
C:/temp/dataset/2/10_4.odb,Step-1,Increment      1: Step Time =    1.000,"PART-1-1",           594,       5.38844,       22.1508,            0.,NA,NA,"",       4.17362,      -3.91308,       1.45153,   256.948E-09
C:/temp/dataset/2/10_4.odb,Step-1,Increment      1: Step Time =    1.000,"PART-1-1",           595,      -3.37677,   775.412E-03,            0.,NA,NA,"",       1.46379,      -1.34262,   583.149E-03,   5.31228E-03
C:/temp/dataset/2/10_4.odb,Step-1,Increment      1: Step Time =    1.000,"PART-1-1",           596,      -3.41233,       2.84116,            0.,NA,NA,"",       1.65761,      -1.55443,   575.710E-03,   6.99417E-03
C:/temp/dataset/2/10_4.odb,Step-1,Increment      1: Step Time =    1.000,"PART-1-1",           597,      -11.2482,       24.9673,            0.,NA,NA,"",       4.16112,      -4.12860,  -519.178E-03,   164.103E-12
C:/temp/dataset/2/10_4.odb,Step-1,Increment      1: Step Time =    1.000,"PART-1-1",           598,       5.16292,       24.1270,            0.,NA,NA,"",       4.37712,      -4.14331,       1.41144,   131.525E-09
C:/temp/dataset/2/10_4.odb,Step-1,Increment      1: Step Time =    1.000,"PART-1-1",           599,            0.,            5.,            0.,NA,NA,"",       2.06214,      -1.83398,   942.845E-03,   9.34125E-03
C:/temp/dataset/2/10_4.odb,Step-1,Increment      1: Step Time =    1.000,"PART-1-1",           600,      -1.80204,       3.95011,            0.,NA,NA,"",       1.84878,      -1.69186,   745.386E-03,   9.09984E-03
C:/temp/dataset/2/10_4.odb,Step-1,Increment      1: Step Time =    1.000,"PART-1-1",           601,       9.59799,       22.9228,            0.,NA,NA,"",       4.47503,      -4.03269,       1.93993,   266.423E-09
C:/temp/dataset/2/10_4.odb,Step-1,Increment      1: Step Time =    1.000,"PART-1-1",           602,       8.30932,       22.9391,            0.,NA,NA,"",       4.40518,      -4.02570,       1.78867,   290.092E-09
C:/temp/dataset/2/10_4.odb,Step-1,Increment      1: Step Time =    1.000,"PART-1-1",           603,      -1.93269,      -1.01257,            0.,NA,NA,"",       1.38663,      -1.16805,   747.265E-03,   5.35188E-03
C:/temp/dataset/2/10_4.odb,Step-1,Increment      1: Step Time =    1.000,"PART-1-1",           604,      -8.69440,      -13.5596,            0.,NA,NA,"",   241.078E-03,  -233.337E-03,   60.5978E-03,   7.99292E-03
C:/temp/dataset/2/10_4.odb,Step-1,Increment      1: Step Time =    1.000,"PART-1-1",           605,       6.07991,       2.65614,            0.,NA,NA,"",       2.33095,      -1.63157,       1.66473,   3.00949E-03
C:/temp/dataset/2/10_4.odb,Step-1,Increment      1: Step Time =    1.000,"PART-1-1",           606,       4.75906,       1.28045,            0.,NA,NA,"",       2.10773,      -1.46424,       1.51609,   4.35872E-03
C:/temp/dataset/2/10_4.odb,Step-1,Increment      1: Step Time =    1.000,"PART-1-1",           607,       10.0234,       4.43547,            0.,NA,NA,"",       2.82393,      -1.86783,       2.11797,   333.387E-06
C:/temp/dataset/2/10_4.odb,Step-1,Increment      1: Step Time =    1.000,"PART-1-1",           608,       7.46673,       4.06304,            0.,NA,NA,"",       2.56394,      -1.80591,       1.82002,   989.003E-06
C:/temp/dataset/2/10_4.odb,Step-1,Increment      1: Step Time =    1.000,"PART-1-1",           609,  -317.165E-03,  -486.862E-03,            0.,NA,NA,"",       1.54314,      -1.23318,   927.649E-03,   5.24371E-03
C:/temp/dataset/2/10_4.odb,Step-1,Increment      1: Step Time =    1.000,"PART-1-1",           610,       1.72730,   921.331E-03,            0.,NA,NA,"",       1.81718,      -1.40052,       1.15787,   5.25399E-03
C:/temp/dataset/2/10_4.odb,Step-1,Increment      1: Step Time =    1.000,"PART-1-1",           611,      -4.63664,      -21.2535,            0.,NA,NA,"",   57.2080E-03,  -22.3316E-03,   52.6693E-03,   16.4437E-03
C:/temp/dataset/2/10_4.odb,Step-1,Increment      1: Step Time =    1.000,"PART-1-1",           612,       11.2827,       3.26092,            0.,NA,NA,"",       2.86272,      -1.73941,       2.27368,   318.005E-06
C:/temp/dataset/2/10_4.odb,Step-1,Increment      1: Step Time =    1.000,"PART-1-1",           613,      -11.4502,      -4.36864,            0.,NA,NA,"",   822.146E-03,  -813.797E-03,  -116.866E-03,   7.65929E-03
C:/temp/dataset/2/10_4.odb,Step-1,Increment      1: Step Time =    1.000,"PART-1-1",           614,      -10.8693,      -24.5529,            0.,NA,NA,"",   12.6183E-03,   9.44476E-03,  -8.36763E-03,   4.94546E-03
C:/temp/dataset/2/10_4.odb,Step-1,Increment      1: Step Time =    1.000,"PART-1-1",           615,      -9.52531,      -23.3517,            0.,NA,NA,"",   8.04353E-03,   5.06938E-03,   6.24498E-03,   5.39473E-03
C:/temp/dataset/2/10_4.odb,Step-1,Increment      1: Step Time =    1.000,"PART-1-1",           616,      -10.8903,      -21.7518,            0.,NA,NA,"",   15.5589E-03,  -6.30105E-03,  -14.2259E-03,   5.48368E-03
C:/temp/dataset/2/10_4.odb,Step-1,Increment      1: Step Time =    1.000,"PART-1-1",           617,       3.33333,          -20.,            0.,NA,NA,"",   8.33758E-03,  -8.27955E-03,   982.031E-06,   269.414E-06
C:/temp/dataset/2/10_4.odb,Step-1,Increment      1: Step Time =    1.000,"PART-1-1",           618,       1.83446,      -21.2108,            0.,NA,NA,"",   10.4377E-03,  -9.90683E-03,   3.28642E-03,   660.999E-06
C:/temp/dataset/2/10_4.odb,Step-1,Increment      1: Step Time =    1.000,"PART-1-1",           619,       5.12744,      -21.2153,            0.,NA,NA,"",   9.03085E-03,  -9.02603E-03,  -294.912E-06,   223.028E-06
C:/temp/dataset/2/10_4.odb,Step-1,Increment      1: Step Time =    1.000,"PART-1-1",           620,            0.,          -20.,            0.,NA,NA,"",   10.6461E-03,  -7.19820E-03,   7.84381E-03,   886.463E-06
C:/temp/dataset/2/10_4.odb,Step-1,Increment      1: Step Time =    1.000,"PART-1-1",           621,      -1.43624,      -21.2208,            0.,NA,NA,"",   21.8175E-03,  -13.9717E-03,   16.7569E-03,   3.18118E-03
C:/temp/dataset/2/10_4.odb,Step-1,Increment      1: Step Time =    1.000,"PART-1-1",           622,   398.228E-03,      -22.4316,            0.,NA,NA,"",   15.0329E-03,  -12.8734E-03,   7.76291E-03,   2.47823E-03
C:/temp/dataset/2/10_4.odb,Step-1,Increment      1: Step Time =    1.000,"PART-1-1",           623,   770.736E-03,      -24.9188,            0.,NA,NA,"",   13.1694E-03,  -11.8174E-03,   5.81230E-03,   2.86518E-03
C:/temp/dataset/2/10_4.odb,Step-1,Increment      1: Step Time =    1.000,"PART-1-1",           624,      -3.33333,          -20.,            0.,NA,NA,"",   32.0729E-03,  -12.6585E-03,   29.4692E-03,   9.21219E-03
C:/temp/dataset/2/10_4.odb,Step-1,Increment      1: Step Time =    1.000,"PART-1-1",           625,       8.69606,       24.2205,            0.,NA,NA,"",       4.55988,      -4.17866,       1.82519,   200.803E-09
C:/temp/dataset/2/10_4.odb,Step-1,Increment      1: Step Time =    1.000,"PART-1-1",           626,      -3.33333,            5.,            0.,NA,NA,"",       1.87304,      -1.78029,   582.110E-03,   12.3473E-03
C:/temp/dataset/2/10_4.odb,Step-1,Increment      1: Step Time =    1.000,"PART-1-1",           627,      -4.94363,       3.89105,            0.,NA,NA,"",       1.69481,      -1.64206,   419.570E-03,   10.0358E-03
C:/temp/dataset/2/10_4.odb,Step-1,Increment      1: Step Time =    1.000,"PART-1-1",           628,      -6.66667,            5.,            0.,NA,NA,"",       1.74471,      -1.72594,   255.210E-03,   11.1411E-03
C:/temp/dataset/2/10_4.odb,Step-1,Increment      1: Step Time =    1.000,"PART-1-1",           629,           10.,          -20.,            0.,NA,NA,"",   8.92373E-03,  -8.91701E-03,  -346.170E-06,   81.5440E-06
C:/temp/dataset/2/10_4.odb,Step-1,Increment      1: Step Time =    1.000,"PART-1-1",           630,       8.42239,      -21.2201,            0.,NA,NA,"",   8.60789E-03,  -8.57502E-03,  -751.630E-06,   87.1989E-06
C:/temp/dataset/2/10_4.odb,Step-1,Increment      1: Step Time =    1.000,"PART-1-1",           631,       6.66667,          -20.,            0.,NA,NA,"",   8.64674E-03,  -8.60815E-03,  -815.977E-06,   101.665E-06
C:/temp/dataset/2/10_4.odb,Step-1,Increment      1: Step Time =    1.000,"PART-1-1",           632,       9.53008,       25.0675,            0.,NA,NA,"",       4.69320,      -4.28376,       1.91716,   142.501E-09
