ODB Name,Step,Frame,Part Instance Name,    êﬂì_ÉâÉxÉã,X,Y,Z,Section Name,Material Name,Section Point,   U-Magnitude,          U-U1,          U-U2,       S-Mises
C:/temp/dataset/2/11_3.odb,Step-1,Increment      1: Step Time =    1.000,"PART-1-1",             1,          -15.,           20.,            0.,NA,NA,"",       1.78560,      -1.75272,  -341.097E-03,   117.869E-12
C:/temp/dataset/2/11_3.odb,Step-1,Increment      1: Step Time =    1.000,"PART-1-1",             2,          -15.,           25.,            0.,NA,NA,"",       2.06374,      -2.03401,  -349.015E-03,   110.545E-12
C:/temp/dataset/2/11_3.odb,Step-1,Increment      1: Step Time =    1.000,"PART-1-1",             3,          -10.,           20.,            0.,NA,NA,"",       1.76166,      -1.76064,  -59.8092E-03,   120.720E-12
C:/temp/dataset/2/11_3.odb,Step-1,Increment      1: Step Time =    1.000,"PART-1-1",             4,           -5.,           20.,            0.,NA,NA,"",       1.78237,      -1.76856,   221.479E-03,   311.049E-12
C:/temp/dataset/2/11_3.odb,Step-1,Increment      1: Step Time =    1.000,"PART-1-1",             5,            0.,           20.,            0.,NA,NA,"",       1.84625,      -1.77648,   502.766E-03,   5.08886E-09
C:/temp/dataset/2/11_3.odb,Step-1,Increment      1: Step Time =    1.000,"PART-1-1",             6,            5.,           20.,            0.,NA,NA,"",       1.94905,      -1.78440,   784.054E-03,   122.398E-09
C:/temp/dataset/2/11_3.odb,Step-1,Increment      1: Step Time =    1.000,"PART-1-1",             7,            5.,          12.5,            0.,NA,NA,"",       1.57793,      -1.36247,   795.937E-03,   1.98409E-06
C:/temp/dataset/2/11_3.odb,Step-1,Increment      1: Step Time =    1.000,"PART-1-1",             8,            5.,            5.,            0.,NA,NA,"",       1.23972,  -940.704E-03,   807.452E-03,   238.639E-06
C:/temp/dataset/2/11_3.odb,Step-1,Increment      1: Step Time =    1.000,"PART-1-1",             9,           -5.,            5.,            0.,NA,NA,"",   934.567E-03,  -901.621E-03,   245.957E-03,   5.65677E-03
C:/temp/dataset/2/11_3.odb,Step-1,Increment      1: Step Time =    1.000,"PART-1-1",            10,          -15.,            5.,            0.,NA,NA,"",   895.051E-03,  -865.765E-03,  -227.085E-03,   280.788E-06
C:/temp/dataset/2/11_3.odb,Step-1,Increment      1: Step Time =    1.000,"PART-1-1",            11,          -15.,         -3.75,            0.,NA,NA,"",   493.440E-03,  -452.632E-03,  -196.489E-03,   7.23183E-03
C:/temp/dataset/2/11_3.odb,Step-1,Increment      1: Step Time =    1.000,"PART-1-1",            12,          -15.,         -12.5,            0.,NA,NA,"",   189.185E-03,  -148.759E-03,  -116.884E-03,   10.1536E-03
C:/temp/dataset/2/11_3.odb,Step-1,Increment      1: Step Time =    1.000,"PART-1-1",            13,          -15.,        -21.25,            0.,NA,NA,"",   41.1757E-03,  -12.4469E-03,  -39.2494E-03,   8.16816E-03
C:/temp/dataset/2/11_3.odb,Step-1,Increment      1: Step Time =    1.000,"PART-1-1",            14,          -15.,          -30.,            0.,NA,NA,"",            0.,  -448.811E-42,  -1.15721E-39,   1.93850E-03
C:/temp/dataset/2/11_3.odb,Step-1,Increment      1: Step Time =    1.000,"PART-1-1",            15,           15.,          -30.,            0.,NA,NA,"",            0.,  -265.102E-42,   436.968E-42,   732.539E-06
C:/temp/dataset/2/11_3.odb,Step-1,Increment      1: Step Time =    1.000,"PART-1-1",            16,           15.,          -25.,            0.,NA,NA,"",   3.11344E-03,  -2.90666E-03,   1.11573E-03,   10.8952E-06
C:/temp/dataset/2/11_3.odb,Step-1,Increment      1: Step Time =    1.000,"PART-1-1",            17,           15.,          -20.,            0.,NA,NA,"",   4.59092E-03,  -4.47455E-03,   1.02711E-03,   3.49441E-06
C:/temp/dataset/2/11_3.odb,Step-1,Increment      1: Step Time =    1.000,"PART-1-1",            18,            5.,          -20.,            0.,NA,NA,"",   4.01661E-03,  -4.01318E-03,  -165.961E-06,   151.343E-06
C:/temp/dataset/2/11_3.odb,Step-1,Increment      1: Step Time =    1.000,"PART-1-1",            19,           -5.,          -20.,            0.,NA,NA,"",   41.4764E-03,  -11.9062E-03,   39.7308E-03,   15.8026E-03
C:/temp/dataset/2/11_3.odb,Step-1,Increment      1: Step Time =    1.000,"PART-1-1",            20,           -5.,         -12.5,            0.,NA,NA,"",   208.337E-03,  -158.692E-03,   134.986E-03,   12.8785E-03
C:/temp/dataset/2/11_3.odb,Step-1,Increment      1: Step Time =    1.000,"PART-1-1",            21,           -5.,           -5.,            0.,NA,NA,"",   451.940E-03,  -390.586E-03,   227.358E-03,   16.9355E-03
C:/temp/dataset/2/11_3.odb,Step-1,Increment      1: Step Time =    1.000,"PART-1-1",            22,            0.,           -5.,            0.,NA,NA,"",   658.790E-03,  -375.248E-03,   541.474E-03,   2.14697E-03
C:/temp/dataset/2/11_3.odb,Step-1,Increment      1: Step Time =    1.000,"PART-1-1",            23,            5.,           -5.,            0.,NA,NA,"",   913.611E-03,  -382.236E-03,   829.808E-03,   1.60287E-03
C:/temp/dataset/2/11_3.odb,Step-1,Increment      1: Step Time =    1.000,"PART-1-1",            24,           10.,           -5.,            0.,NA,NA,"",       1.17117,  -387.656E-03,       1.10516,   196.620E-06
C:/temp/dataset/2/11_3.odb,Step-1,Increment      1: Step Time =    1.000,"PART-1-1",            25,           15.,           -5.,            0.,NA,NA,"",       1.44068,  -395.231E-03,       1.38541,   9.53414E-06
C:/temp/dataset/2/11_3.odb,Step-1,Increment      1: Step Time =    1.000,"PART-1-1",            26,           15.,          3.75,            0.,NA,NA,"",       1.63336,  -885.997E-03,       1.37218,   83.6307E-06
C:/temp/dataset/2/11_3.odb,Step-1,Increment      1: Step Time =    1.000,"PART-1-1",            27,           15.,          12.5,            0.,NA,NA,"",       1.93527,      -1.37830,       1.35851,   1.08840E-06
C:/temp/dataset/2/11_3.odb,Step-1,Increment      1: Step Time =    1.000,"PART-1-1",            28,           15.,         21.25,            0.,NA,NA,"",       2.30371,      -1.87056,       1.34465,   72.0827E-09
C:/temp/dataset/2/11_3.odb,Step-1,Increment      1: Step Time =    1.000,"PART-1-1",            29,           15.,           30.,            0.,NA,NA,"",       2.71180,      -2.36281,       1.33079,   485.328E-12
C:/temp/dataset/2/11_3.odb,Step-1,Increment      1: Step Time =    1.000,"PART-1-1",            30,           7.5,           30.,            0.,NA,NA,"",       2.52050,      -2.35093,   908.861E-03,   3.52057E-09
C:/temp/dataset/2/11_3.odb,Step-1,Increment      1: Step Time =    1.000,"PART-1-1",            31,            0.,           30.,            0.,NA,NA,"",       2.38920,      -2.33905,   486.929E-03,   2.13429E-09
C:/temp/dataset/2/11_3.odb,Step-1,Increment      1: Step Time =    1.000,"PART-1-1",            32,          -7.5,           30.,            0.,NA,NA,"",       2.32808,      -2.32718,   64.9976E-03,   95.8752E-12
C:/temp/dataset/2/11_3.odb,Step-1,Increment      1: Step Time =    1.000,"PART-1-1",            33,          -15.,           30.,            0.,NA,NA,"",       2.34265,      -2.31530,  -356.934E-03,   120.584E-12
C:/temp/dataset/2/11_3.odb,Step-1,Increment      1: Step Time =    1.000,"PART-1-1",            34,          -15.,          22.5,            0.,NA,NA,"",       1.92455,      -1.89337,  -345.056E-03,   105.798E-12
C:/temp/dataset/2/11_3.odb,Step-1,Increment      1: Step Time =    1.000,"PART-1-1",            35,         -12.5,           20.,            0.,NA,NA,"",       1.76808,      -1.75668,  -200.453E-03,   128.105E-12
C:/temp/dataset/2/11_3.odb,Step-1,Increment      1: Step Time =    1.000,"PART-1-1",            36,          -7.5,           20.,            0.,NA,NA,"",       1.76645,      -1.76460,   80.8347E-03,   150.854E-12
C:/temp/dataset/2/11_3.odb,Step-1,Increment      1: Step Time =    1.000,"PART-1-1",            37,          -2.5,           20.,            0.,NA,NA,"",       1.80913,      -1.77252,   362.122E-03,   980.104E-12
C:/temp/dataset/2/11_3.odb,Step-1,Increment      1: Step Time =    1.000,"PART-1-1",            38,           2.5,           20.,            0.,NA,NA,"",       1.89313,      -1.78044,   643.410E-03,   21.7644E-09
C:/temp/dataset/2/11_3.odb,Step-1,Increment      1: Step Time =    1.000,"PART-1-1",            39,            5.,           15.,            0.,NA,NA,"",       1.69899,      -1.50311,   791.975E-03,   1.21357E-06
C:/temp/dataset/2/11_3.odb,Step-1,Increment      1: Step Time =    1.000,"PART-1-1",            40,            5.,          17.5,            0.,NA,NA,"",       1.82288,      -1.64375,   788.014E-03,   479.416E-09
C:/temp/dataset/2/11_3.odb,Step-1,Increment      1: Step Time =    1.000,"PART-1-1",            41,            5.,           7.5,            0.,NA,NA,"",       1.34734,      -1.08128,   803.845E-03,   43.5016E-06
C:/temp/dataset/2/11_3.odb,Step-1,Increment      1: Step Time =    1.000,"PART-1-1",            42,            5.,           10.,            0.,NA,NA,"",       1.46039,      -1.22185,   799.890E-03,   8.63532E-06
C:/temp/dataset/2/11_3.odb,Step-1,Increment      1: Step Time =    1.000,"PART-1-1",            43,      -1.66667,            5.,            0.,NA,NA,"",       1.01519,  -921.349E-03,   426.288E-03,   3.86775E-03
C:/temp/dataset/2/11_3.odb,Step-1,Increment      1: Step Time =    1.000,"PART-1-1",            44,       1.66667,            5.,            0.,NA,NA,"",       1.11914,  -934.115E-03,   616.360E-03,   1.30468E-03
C:/temp/dataset/2/11_3.odb,Step-1,Increment      1: Step Time =    1.000,"PART-1-1",            45,      -11.6667,            5.,            0.,NA,NA,"",   873.009E-03,  -870.027E-03,  -72.0875E-03,   1.19734E-03
C:/temp/dataset/2/11_3.odb,Step-1,Increment      1: Step Time =    1.000,"PART-1-1",            46,      -8.33333,            5.,            0.,NA,NA,"",   885.561E-03,  -881.784E-03,   81.6936E-03,   4.29795E-03
C:/temp/dataset/2/11_3.odb,Step-1,Increment      1: Step Time =    1.000,"PART-1-1",            47,          -15.,  -833.333E-03,            0.,NA,NA,"",   624.676E-03,  -586.875E-03,  -214.004E-03,   4.06198E-03
C:/temp/dataset/2/11_3.odb,Step-1,Increment      1: Step Time =    1.000,"PART-1-1",            48,          -15.,       2.08333,            0.,NA,NA,"",   760.722E-03,  -727.182E-03,  -223.392E-03,   951.697E-06
C:/temp/dataset/2/11_3.odb,Step-1,Increment      1: Step Time =    1.000,"PART-1-1",            49,          -15.,      -9.58333,            0.,NA,NA,"",   272.662E-03,  -231.210E-03,  -144.522E-03,   10.0256E-03
C:/temp/dataset/2/11_3.odb,Step-1,Increment      1: Step Time =    1.000,"PART-1-1",            50,          -15.,      -6.66667,            0.,NA,NA,"",   374.372E-03,  -332.589E-03,  -171.870E-03,   9.30468E-03
C:/temp/dataset/2/11_3.odb,Step-1,Increment      1: Step Time =    1.000,"PART-1-1",            51,          -15.,      -18.3333,            0.,NA,NA,"",   74.5112E-03,  -39.5314E-03,  -63.1600E-03,   9.56764E-03
C:/temp/dataset/2/11_3.odb,Step-1,Increment      1: Step Time =    1.000,"PART-1-1",            52,          -15.,      -15.4167,            0.,NA,NA,"",   123.345E-03,  -84.8055E-03,  -89.5661E-03,   10.1716E-03
C:/temp/dataset/2/11_3.odb,Step-1,Increment      1: Step Time =    1.000,"PART-1-1",            53,          -15.,      -27.0833,            0.,NA,NA,"",   7.28421E-03,   1.67161E-03,  -7.08981E-03,   4.13123E-03
C:/temp/dataset/2/11_3.odb,Step-1,Increment      1: Step Time =    1.000,"PART-1-1",            54,          -15.,      -24.1667,            0.,NA,NA,"",   20.4714E-03,  -395.031E-06,  -20.4676E-03,   6.12600E-03
C:/temp/dataset/2/11_3.odb,Step-1,Increment      1: Step Time =    1.000,"PART-1-1",            55,           12.,          -30.,            0.,NA,NA,"",            0.,  -683.359E-42,   531.137E-42,   368.306E-06
C:/temp/dataset/2/11_3.odb,Step-1,Increment      1: Step Time =    1.000,"PART-1-1",            56,            9.,          -30.,            0.,NA,NA,"",            0.,  -688.702E-42,  -140.619E-42,   564.887E-06
C:/temp/dataset/2/11_3.odb,Step-1,Increment      1: Step Time =    1.000,"PART-1-1",            57,            6.,          -30.,            0.,NA,NA,"",            0.,  -1.36298E-39,   1.22717E-39,   840.427E-06
C:/temp/dataset/2/11_3.odb,Step-1,Increment      1: Step Time =    1.000,"PART-1-1",            58,            3.,          -30.,            0.,NA,NA,"",            0.,  -1.35574E-39,   832.364E-42,   1.25261E-03
C:/temp/dataset/2/11_3.odb,Step-1,Increment      1: Step Time =    1.000,"PART-1-1",            59,            0.,          -30.,            0.,NA,NA,"",            0.,  -2.61417E-39,   3.87519E-39,   1.70155E-03
C:/temp/dataset/2/11_3.odb,Step-1,Increment      1: Step Time =    1.000,"PART-1-1",            60,           -3.,          -30.,            0.,NA,NA,"",            0.,  -2.18462E-39,   5.28785E-39,   1.92412E-03
C:/temp/dataset/2/11_3.odb,Step-1,Increment      1: Step Time =    1.000,"PART-1-1",            61,           -6.,          -30.,            0.,NA,NA,"",            0.,  -189.901E-42,   4.48038E-39,   1.93228E-03
C:/temp/dataset/2/11_3.odb,Step-1,Increment      1: Step Time =    1.000,"PART-1-1",            62,           -9.,          -30.,            0.,NA,NA,"",            0.,   3.52731E-39,   3.59085E-39,   2.11844E-03
C:/temp/dataset/2/11_3.odb,Step-1,Increment      1: Step Time =    1.000,"PART-1-1",            63,          -12.,          -30.,            0.,NA,NA,"",            0.,   1.91687E-39,  -2.23383E-39,   2.39079E-03
C:/temp/dataset/2/11_3.odb,Step-1,Increment      1: Step Time =    1.000,"PART-1-1",            64,           15.,         -27.5,            0.,NA,NA,"",   1.94148E-03,  -1.65980E-03,   1.00718E-03,   230.339E-06
C:/temp/dataset/2/11_3.odb,Step-1,Increment      1: Step Time =    1.000,"PART-1-1",            65,           15.,         -22.5,            0.,NA,NA,"",   3.92864E-03,  -3.78585E-03,   1.04953E-03,   24.4737E-06
C:/temp/dataset/2/11_3.odb,Step-1,Increment      1: Step Time =    1.000,"PART-1-1",            66,       8.33333,          -20.,            0.,NA,NA,"",   4.28914E-03,  -4.26895E-03,  -415.707E-06,   71.2710E-06
C:/temp/dataset/2/11_3.odb,Step-1,Increment      1: Step Time =    1.000,"PART-1-1",            67,       11.6667,          -20.,            0.,NA,NA,"",   4.42660E-03,  -4.42474E-03,   128.310E-06,   34.2099E-06
C:/temp/dataset/2/11_3.odb,Step-1,Increment      1: Step Time =    1.000,"PART-1-1",            68,      -1.66667,          -20.,            0.,NA,NA,"",   10.5918E-03,  -3.13621E-03,   10.1168E-03,   2.92771E-03
C:/temp/dataset/2/11_3.odb,Step-1,Increment      1: Step Time =    1.000,"PART-1-1",            69,       1.66667,          -20.,            0.,NA,NA,"",   4.16828E-03,  -3.52837E-03,   2.21928E-03,   554.580E-06
C:/temp/dataset/2/11_3.odb,Step-1,Increment      1: Step Time =    1.000,"PART-1-1",            70,           -5.,          -15.,            0.,NA,NA,"",   146.653E-03,  -100.689E-03,   106.624E-03,   12.8222E-03
C:/temp/dataset/2/11_3.odb,Step-1,Increment      1: Step Time =    1.000,"PART-1-1",            71,           -5.,         -17.5,            0.,NA,NA,"",   95.0764E-03,  -53.2820E-03,   78.7436E-03,   14.3696E-03
C:/temp/dataset/2/11_3.odb,Step-1,Increment      1: Step Time =    1.000,"PART-1-1",            72,           -5.,          -7.5,            0.,NA,NA,"",   361.936E-03,  -308.617E-03,   189.085E-03,   13.7954E-03
C:/temp/dataset/2/11_3.odb,Step-1,Increment      1: Step Time =    1.000,"PART-1-1",            73,           -5.,          -10.,            0.,NA,NA,"",   280.435E-03,  -228.406E-03,   162.710E-03,   12.5009E-03
C:/temp/dataset/2/11_3.odb,Step-1,Increment      1: Step Time =    1.000,"PART-1-1",            74,          -2.5,           -5.,            0.,NA,NA,"",   541.408E-03,  -377.961E-03,   387.644E-03,   6.70679E-03
C:/temp/dataset/2/11_3.odb,Step-1,Increment      1: Step Time =    1.000,"PART-1-1",            75,           2.5,           -5.,            0.,NA,NA,"",   788.217E-03,  -378.094E-03,   691.615E-03,   3.40466E-03
C:/temp/dataset/2/11_3.odb,Step-1,Increment      1: Step Time =    1.000,"PART-1-1",            76,           7.5,           -5.,            0.,NA,NA,"",       1.03932,  -384.364E-03,   965.630E-03,   585.963E-06
C:/temp/dataset/2/11_3.odb,Step-1,Increment      1: Step Time =    1.000,"PART-1-1",            77,          12.5,           -5.,            0.,NA,NA,"",       1.30531,  -391.314E-03,       1.24527,   45.3691E-06
C:/temp/dataset/2/11_3.odb,Step-1,Increment      1: Step Time =    1.000,"PART-1-1",            78,           15.,   833.333E-03,            0.,NA,NA,"",       1.55444,  -722.146E-03,       1.37652,   109.156E-06
C:/temp/dataset/2/11_3.odb,Step-1,Increment      1: Step Time =    1.000,"PART-1-1",            79,           15.,      -2.08333,            0.,NA,NA,"",       1.48959,  -558.634E-03,       1.38087,   50.2035E-06
C:/temp/dataset/2/11_3.odb,Step-1,Increment      1: Step Time =    1.000,"PART-1-1",            80,           15.,       9.58333,            0.,NA,NA,"",       1.82548,      -1.21419,       1.36313,   5.94939E-06
C:/temp/dataset/2/11_3.odb,Step-1,Increment      1: Step Time =    1.000,"PART-1-1",            81,           15.,       6.66667,            0.,NA,NA,"",       1.72432,      -1.05007,       1.36771,   33.7136E-06
C:/temp/dataset/2/11_3.odb,Step-1,Increment      1: Step Time =    1.000,"PART-1-1",            82,           15.,       18.3333,            0.,NA,NA,"",       2.17545,      -1.70647,       1.34927,   359.069E-09
C:/temp/dataset/2/11_3.odb,Step-1,Increment      1: Step Time =    1.000,"PART-1-1",            83,           15.,       15.4167,            0.,NA,NA,"",       2.05231,      -1.54239,       1.35389,   1.06652E-06
C:/temp/dataset/2/11_3.odb,Step-1,Increment      1: Step Time =    1.000,"PART-1-1",            84,           15.,       27.0833,            0.,NA,NA,"",       2.57249,      -2.19872,       1.33541,   2.39577E-09
C:/temp/dataset/2/11_3.odb,Step-1,Increment      1: Step Time =    1.000,"PART-1-1",            85,           15.,       24.1667,            0.,NA,NA,"",       2.43628,      -2.03464,       1.34003,   9.99264E-09
C:/temp/dataset/2/11_3.odb,Step-1,Increment      1: Step Time =    1.000,"PART-1-1",            86,           10.,           30.,            0.,NA,NA,"",       2.57817,      -2.35489,       1.04950,   1.97105E-09
C:/temp/dataset/2/11_3.odb,Step-1,Increment      1: Step Time =    1.000,"PART-1-1",            87,          12.5,           30.,            0.,NA,NA,"",       2.64209,      -2.35885,       1.19015,   1.54031E-09
C:/temp/dataset/2/11_3.odb,Step-1,Increment      1: Step Time =    1.000,"PART-1-1",            88,           2.5,           30.,            0.,NA,NA,"",       2.42560,      -2.34301,   627.573E-03,   3.91567E-09
C:/temp/dataset/2/11_3.odb,Step-1,Increment      1: Step Time =    1.000,"PART-1-1",            89,            5.,           30.,            0.,NA,NA,"",       2.46950,      -2.34697,   768.217E-03,   4.63198E-09
C:/temp/dataset/2/11_3.odb,Step-1,Increment      1: Step Time =    1.000,"PART-1-1",            90,           -5.,           30.,            0.,NA,NA,"",       2.34019,      -2.33113,   205.641E-03,   142.214E-12
C:/temp/dataset/2/11_3.odb,Step-1,Increment      1: Step Time =    1.000,"PART-1-1",            91,          -2.5,           30.,            0.,NA,NA,"",       2.36063,      -2.33509,   346.285E-03,   663.906E-12
C:/temp/dataset/2/11_3.odb,Step-1,Increment      1: Step Time =    1.000,"PART-1-1",            92,         -12.5,           30.,            0.,NA,NA,"",       2.32932,      -2.31926,  -216.290E-03,   103.509E-12
C:/temp/dataset/2/11_3.odb,Step-1,Increment      1: Step Time =    1.000,"PART-1-1",            93,          -10.,           30.,            0.,NA,NA,"",       2.32445,      -2.32322,  -75.6463E-03,   99.3723E-12
C:/temp/dataset/2/11_3.odb,Step-1,Increment      1: Step Time =    1.000,"PART-1-1",            94,          -15.,          27.5,            0.,NA,NA,"",       2.20311,      -2.17465,  -352.975E-03,   123.330E-12
C:/temp/dataset/2/11_3.odb,Step-1,Increment      1: Step Time =    1.000,"PART-1-1",            95,      -12.4978,       24.9766,            0.,NA,NA,"",       2.04727,      -2.03665,  -208.209E-03,   120.697E-12
C:/temp/dataset/2/11_3.odb,Step-1,Increment      1: Step Time =    1.000,"PART-1-1",            96,      -7.49872,       27.4475,            0.,NA,NA,"",       2.18468,      -2.18358,   69.1122E-03,   140.301E-12
C:/temp/dataset/2/11_3.odb,Step-1,Increment      1: Step Time =    1.000,"PART-1-1",            97,      -7.50661,       22.4446,            0.,NA,NA,"",       1.90366,      -1.90211,   76.5911E-03,   172.976E-12
C:/temp/dataset/2/11_3.odb,Step-1,Increment      1: Step Time =    1.000,"PART-1-1",            98,      -2.53392,       22.4091,            0.,NA,NA,"",       1.94100,      -1.90800,   356.399E-03,   1.17277E-09
C:/temp/dataset/2/11_3.odb,Step-1,Increment      1: Step Time =    1.000,"PART-1-1",            99,  -19.7467E-03,       27.3919,            0.,NA,NA,"",       2.24638,      -2.19230,   489.949E-03,   1.93915E-09
C:/temp/dataset/2/11_3.odb,Step-1,Increment      1: Step Time =    1.000,"PART-1-1",           100,       2.31326,       22.2671,            0.,NA,NA,"",       2.00880,      -1.90768,   629.314E-03,   10.7379E-09
C:/temp/dataset/2/11_3.odb,Step-1,Increment      1: Step Time =    1.000,"PART-1-1",           101,       7.89882,       27.4278,            0.,NA,NA,"",       2.39690,      -2.20686,   935.371E-03,   5.84164E-09
C:/temp/dataset/2/11_3.odb,Step-1,Increment      1: Step Time =    1.000,"PART-1-1",           102,       6.74061,       20.0564,            0.,NA,NA,"",       1.99575,      -1.79033,   881.887E-03,   183.741E-09
C:/temp/dataset/2/11_3.odb,Step-1,Increment      1: Step Time =    1.000,"PART-1-1",           103,       6.76082,       17.7755,            0.,NA,NA,"",       1.88375,      -1.66204,   886.636E-03,   349.320E-09
C:/temp/dataset/2/11_3.odb,Step-1,Increment      1: Step Time =    1.000,"PART-1-1",           104,       7.34933,       13.0959,            0.,NA,NA,"",       1.67893,      -1.39971,   927.156E-03,   1.75760E-06
C:/temp/dataset/2/11_3.odb,Step-1,Increment      1: Step Time =    1.000,"PART-1-1",           105,       12.5251,      -2.17932,            0.,NA,NA,"",       1.35828,  -549.312E-03,       1.24225,   99.0859E-06
C:/temp/dataset/2/11_3.odb,Step-1,Increment      1: Step Time =    1.000,"PART-1-1",           106,       11.8446,      -24.9441,            0.,NA,NA,"",   2.97566E-03,  -2.97081E-03,   169.821E-06,   177.434E-06
C:/temp/dataset/2/11_3.odb,Step-1,Increment      1: Step Time =    1.000,"PART-1-1",           107,       2.44158,      -2.66949,            0.,NA,NA,"",   849.146E-03,  -510.015E-03,   678.921E-03,   3.52328E-03
C:/temp/dataset/2/11_3.odb,Step-1,Increment      1: Step Time =    1.000,"PART-1-1",           108,       7.46163,      -2.37632,            0.,NA,NA,"",       1.09585,  -530.186E-03,   959.054E-03,   309.857E-06
C:/temp/dataset/2/11_3.odb,Step-1,Increment      1: Step Time =    1.000,"PART-1-1",           109,       7.48217,       7.95809,            0.,NA,NA,"",       1.45706,      -1.11093,   942.794E-03,   63.3913E-06
C:/temp/dataset/2/11_3.odb,Step-1,Increment      1: Step Time =    1.000,"PART-1-1",           110,      -5.01446,       22.4347,            0.,NA,NA,"",       1.91780,      -1.90550,   216.810E-03,   379.430E-12
C:/temp/dataset/2/11_3.odb,Step-1,Increment      1: Step Time =    1.000,"PART-1-1",           111,  -75.1424E-03,       22.3615,            0.,NA,NA,"",       1.97229,      -1.90921,   494.799E-03,   2.96899E-09
C:/temp/dataset/2/11_3.odb,Step-1,Increment      1: Step Time =    1.000,"PART-1-1",           112,       4.50776,       22.1530,            0.,NA,NA,"",       2.04816,      -1.90474,   752.952E-03,   18.4732E-09
C:/temp/dataset/2/11_3.odb,Step-1,Increment      1: Step Time =    1.000,"PART-1-1",           113,       7.06405,       15.4904,            0.,NA,NA,"",       1.78221,      -1.53397,   907.314E-03,   578.724E-09
C:/temp/dataset/2/11_3.odb,Step-1,Increment      1: Step Time =    1.000,"PART-1-1",           114,       7.46285,       10.5556,            0.,NA,NA,"",       1.56814,      -1.25700,   937.563E-03,   11.8156E-06
C:/temp/dataset/2/11_3.odb,Step-1,Increment      1: Step Time =    1.000,"PART-1-1",           115,      -2.89738,      -2.05905,            0.,NA,NA,"",   649.808E-03,  -541.771E-03,   358.798E-03,   5.84453E-03
C:/temp/dataset/2/11_3.odb,Step-1,Increment      1: Step Time =    1.000,"PART-1-1",           116,      -7.61206,      -10.6629,            0.,NA,NA,"",   212.190E-03,  -196.284E-03,   80.6037E-03,   7.28037E-03
C:/temp/dataset/2/11_3.odb,Step-1,Increment      1: Step Time =    1.000,"PART-1-1",           117,      -6.85891,      -17.7385,            0.,NA,NA,"",   64.1484E-03,  -41.7238E-03,   48.7251E-03,   9.36740E-03
C:/temp/dataset/2/11_3.odb,Step-1,Increment      1: Step Time =    1.000,"PART-1-1",           118,       11.9280,      -27.4687,            0.,NA,NA,"",   1.64589E-03,  -1.63500E-03,   189.030E-06,   412.435E-06
C:/temp/dataset/2/11_3.odb,Step-1,Increment      1: Step Time =    1.000,"PART-1-1",           119,      -7.44747,      -13.1413,            0.,NA,NA,"",   148.159E-03,  -130.885E-03,   69.4274E-03,   7.44188E-03
C:/temp/dataset/2/11_3.odb,Step-1,Increment      1: Step Time =    1.000,"PART-1-1",           120,      -7.13169,      -15.4658,            0.,NA,NA,"",   100.791E-03,  -80.8451E-03,   60.1907E-03,   8.40095E-03
C:/temp/dataset/2/11_3.odb,Step-1,Increment      1: Step Time =    1.000,"PART-1-1",           121,      -8.02089,      -5.87394,            0.,NA,NA,"",   368.008E-03,  -357.252E-03,   88.3228E-03,   3.81681E-03
C:/temp/dataset/2/11_3.odb,Step-1,Increment      1: Step Time =    1.000,"PART-1-1",           122,      -7.74476,      -8.18529,            0.,NA,NA,"",   287.824E-03,  -273.755E-03,   88.8873E-03,   6.83345E-03
C:/temp/dataset/2/11_3.odb,Step-1,Increment      1: Step Time =    1.000,"PART-1-1",           123,  -21.3834E-03,      -2.74811,            0.,NA,NA,"",   734.655E-03,  -506.369E-03,   532.268E-03,   4.76766E-03
C:/temp/dataset/2/11_3.odb,Step-1,Increment      1: Step Time =    1.000,"PART-1-1",           124,       4.94012,      -2.49525,            0.,NA,NA,"",   970.897E-03,  -520.488E-03,   819.593E-03,   1.71262E-03
C:/temp/dataset/2/11_3.odb,Step-1,Increment      1: Step Time =    1.000,"PART-1-1",           125,       10.0127,      -2.27482,            0.,NA,NA,"",       1.22675,  -539.973E-03,       1.10152,   117.441E-06
C:/temp/dataset/2/11_3.odb,Step-1,Increment      1: Step Time =    1.000,"PART-1-1",           126,       10.2967,       27.4669,            0.,NA,NA,"",       2.45806,      -2.21285,       1.07021,   5.63525E-09
C:/temp/dataset/2/11_3.odb,Step-1,Increment      1: Step Time =    1.000,"PART-1-1",           127,       12.6750,       27.3103,            0.,NA,NA,"",       2.51488,      -2.20781,       1.20425,   2.63560E-09
C:/temp/dataset/2/11_3.odb,Step-1,Increment      1: Step Time =    1.000,"PART-1-1",           128,       2.52543,       27.2659,            0.,NA,NA,"",       2.27901,      -2.18924,   633.334E-03,   1.90607E-09
C:/temp/dataset/2/11_3.odb,Step-1,Increment      1: Step Time =    1.000,"PART-1-1",           129,       5.32711,       26.8707,            0.,NA,NA,"",       2.31122,      -2.17144,   791.575E-03,   3.41181E-09
C:/temp/dataset/2/11_3.odb,Step-1,Increment      1: Step Time =    1.000,"PART-1-1",           130,      -5.00948,       27.4462,            0.,NA,NA,"",       2.19742,      -2.18745,   209.153E-03,   365.883E-12
C:/temp/dataset/2/11_3.odb,Step-1,Increment      1: Step Time =    1.000,"PART-1-1",           131,      -2.51658,       27.4324,            0.,NA,NA,"",       2.21831,      -2.19062,   349.419E-03,   1.02511E-09
C:/temp/dataset/2/11_3.odb,Step-1,Increment      1: Step Time =    1.000,"PART-1-1",           132,      -9.99211,       27.4668,            0.,NA,NA,"",       2.18188,      -2.18072,  -71.1905E-03,   115.616E-12
C:/temp/dataset/2/11_3.odb,Step-1,Increment      1: Step Time =    1.000,"PART-1-1",           133,       12.5029,       21.6680,            0.,NA,NA,"",       2.24075,      -1.89012,       1.20351,   101.802E-09
C:/temp/dataset/2/11_3.odb,Step-1,Increment      1: Step Time =    1.000,"PART-1-1",           134,      -12.7198,      -9.27859,            0.,NA,NA,"",   246.004E-03,  -234.624E-03,  -73.9562E-03,   4.62450E-03
C:/temp/dataset/2/11_3.odb,Step-1,Increment      1: Step Time =    1.000,"PART-1-1",           135,      -12.2206,      -21.4876,            0.,NA,NA,"",   16.8397E-03,  -4.04712E-03,  -16.3462E-03,   3.89090E-03
C:/temp/dataset/2/11_3.odb,Step-1,Increment      1: Step Time =    1.000,"PART-1-1",           136,       12.4390,       11.8581,            0.,NA,NA,"",       1.80773,      -1.33812,       1.21545,   3.59426E-06
C:/temp/dataset/2/11_3.odb,Step-1,Increment      1: Step Time =    1.000,"PART-1-1",           137,      -12.6285,      -12.0158,            0.,NA,NA,"",   165.109E-03,  -154.258E-03,  -58.8672E-03,   4.43669E-03
C:/temp/dataset/2/11_3.odb,Step-1,Increment      1: Step Time =    1.000,"PART-1-1",           138,      -12.4213,      -14.8709,            0.,NA,NA,"",   97.3447E-03,  -87.6519E-03,  -42.3454E-03,   4.01007E-03
C:/temp/dataset/2/11_3.odb,Step-1,Increment      1: Step Time =    1.000,"PART-1-1",           139,       12.2989,       14.8029,            0.,NA,NA,"",       1.92555,      -1.50358,       1.20290,   600.146E-09
C:/temp/dataset/2/11_3.odb,Step-1,Increment      1: Step Time =    1.000,"PART-1-1",           140,       11.7182,       18.2155,            0.,NA,NA,"",       2.05637,      -1.69464,       1.16483,   335.578E-09
C:/temp/dataset/2/11_3.odb,Step-1,Increment      1: Step Time =    1.000,"PART-1-1",           141,      -12.3380,      -4.01281,            0.,NA,NA,"",   444.811E-03,  -436.963E-03,  -83.1845E-03,   4.35760E-03
C:/temp/dataset/2/11_3.odb,Step-1,Increment      1: Step Time =    1.000,"PART-1-1",           142,       12.5089,       6.21106,            0.,NA,NA,"",       1.59692,      -1.02047,       1.22833,   44.4677E-06
C:/temp/dataset/2/11_3.odb,Step-1,Increment      1: Step Time =    1.000,"PART-1-1",           143,      -10.9765,      -1.21375,            0.,NA,NA,"",   569.231E-03,  -568.179E-03,  -34.5918E-03,   4.87212E-03
C:/temp/dataset/2/11_3.odb,Step-1,Increment      1: Step Time =    1.000,"PART-1-1",           144,      -11.4273,       2.02370,            0.,NA,NA,"",   730.226E-03,  -727.837E-03,  -59.0211E-03,   3.45090E-03
C:/temp/dataset/2/11_3.odb,Step-1,Increment      1: Step Time =    1.000,"PART-1-1",           145,      -12.7154,      -6.64001,            0.,NA,NA,"",   339.263E-03,  -328.095E-03,  -86.3318E-03,   4.66587E-03
C:/temp/dataset/2/11_3.odb,Step-1,Increment      1: Step Time =    1.000,"PART-1-1",           146,      -11.7762,      -18.1315,            0.,NA,NA,"",   39.1127E-03,  -33.1273E-03,  -20.7940E-03,   3.02933E-03
C:/temp/dataset/2/11_3.odb,Step-1,Increment      1: Step Time =    1.000,"PART-1-1",           147,      -12.2481,      -24.4184,            0.,NA,NA,"",   10.6169E-03,   5.16488E-03,  -9.27589E-03,   3.37558E-03
C:/temp/dataset/2/11_3.odb,Step-1,Increment      1: Step Time =    1.000,"PART-1-1",           148,       12.5340,       3.42208,            0.,NA,NA,"",       1.50628,  -863.600E-03,       1.23413,   56.9553E-06
C:/temp/dataset/2/11_3.odb,Step-1,Increment      1: Step Time =    1.000,"PART-1-1",           149,       12.5428,   630.306E-03,            0.,NA,NA,"",       1.42636,  -706.785E-03,       1.23894,   53.3568E-06
C:/temp/dataset/2/11_3.odb,Step-1,Increment      1: Step Time =    1.000,"PART-1-1",           150,       12.5001,       9.03097,            0.,NA,NA,"",       1.69912,      -1.17915,       1.22337,   18.0010E-06
C:/temp/dataset/2/11_3.odb,Step-1,Increment      1: Step Time =    1.000,"PART-1-1",           151,       12.7192,       24.5718,            0.,NA,NA,"",       2.38430,      -2.05382,       1.21107,   22.4434E-09
C:/temp/dataset/2/11_3.odb,Step-1,Increment      1: Step Time =    1.000,"PART-1-1",           152,       2.66783,      -27.4286,            0.,NA,NA,"",   3.67674E-03,  -3.57098E-03,   875.513E-06,   1.05859E-03
C:/temp/dataset/2/11_3.odb,Step-1,Increment      1: Step Time =    1.000,"PART-1-1",           153,       8.86089,      -27.4494,            0.,NA,NA,"",   1.99913E-03,  -1.99902E-03,   20.8204E-06,   497.131E-06
C:/temp/dataset/2/11_3.odb,Step-1,Increment      1: Step Time =    1.000,"PART-1-1",           154,       5.76511,      -27.4328,            0.,NA,NA,"",   2.72801E-03,  -2.72214E-03,   178.867E-06,   710.943E-06
C:/temp/dataset/2/11_3.odb,Step-1,Increment      1: Step Time =    1.000,"PART-1-1",           155,  -414.647E-03,      -27.4330,            0.,NA,NA,"",   4.61606E-03,  -3.84177E-03,   2.55907E-03,   1.75905E-03
C:/temp/dataset/2/11_3.odb,Step-1,Increment      1: Step Time =    1.000,"PART-1-1",           156,      -3.42691,      -27.4460,            0.,NA,NA,"",   5.21258E-03,  -2.13244E-03,   4.75644E-03,   2.74926E-03
C:/temp/dataset/2/11_3.odb,Step-1,Increment      1: Step Time =    1.000,"PART-1-1",           157,      -6.36574,      -27.4272,            0.,NA,NA,"",   5.30871E-03,   1.76453E-03,   5.00688E-03,   3.01088E-03
C:/temp/dataset/2/11_3.odb,Step-1,Increment      1: Step Time =    1.000,"PART-1-1",           158,       10.5238,       25.0033,            0.,NA,NA,"",       2.34208,      -2.07462,       1.08688,   22.6860E-09
C:/temp/dataset/2/11_3.odb,Step-1,Increment      1: Step Time =    1.000,"PART-1-1",           159,       6.26912,       22.1485,            0.,NA,NA,"",       2.08895,      -1.90728,   852.049E-03,   59.6056E-09
C:/temp/dataset/2/11_3.odb,Step-1,Increment      1: Step Time =    1.000,"PART-1-1",           160,      -5.96402,      -2.70245,            0.,NA,NA,"",   536.493E-03,  -502.902E-03,   186.854E-03,   6.00075E-03
C:/temp/dataset/2/11_3.odb,Step-1,Increment      1: Step Time =    1.000,"PART-1-1",           161,      -12.5033,       22.4816,            0.,NA,NA,"",       1.90729,      -1.89629,  -204.567E-03,   119.789E-12
C:/temp/dataset/2/11_3.odb,Step-1,Increment      1: Step Time =    1.000,"PART-1-1",           162,      -2.53325,       24.9024,            0.,NA,NA,"",       2.07837,      -2.04826,   352.488E-03,   1.17571E-09
C:/temp/dataset/2/11_3.odb,Step-1,Increment      1: Step Time =    1.000,"PART-1-1",           163,       4.43197,       24.4161,            0.,NA,NA,"",       2.16424,      -2.03193,   745.104E-03,   8.13484E-09
C:/temp/dataset/2/11_3.odb,Step-1,Increment      1: Step Time =    1.000,"PART-1-1",           164,      -10.2797,      -8.84555,            0.,NA,NA,"",   247.177E-03,  -247.150E-03,   3.68054E-03,   756.977E-06
C:/temp/dataset/2/11_3.odb,Step-1,Increment      1: Step Time =    1.000,"PART-1-1",           165,       2.21534,  -332.134E-03,            0.,NA,NA,"",   916.843E-03,  -639.151E-03,   657.333E-03,   2.80053E-03
C:/temp/dataset/2/11_3.odb,Step-1,Increment      1: Step Time =    1.000,"PART-1-1",           166,  -74.2209E-03,       24.8536,            0.,NA,NA,"",       2.10738,      -2.04941,   490.904E-03,   2.19549E-09
C:/temp/dataset/2/11_3.odb,Step-1,Increment      1: Step Time =    1.000,"PART-1-1",           167,       2.30693,       24.7164,            0.,NA,NA,"",       2.13884,      -2.04546,   625.079E-03,   3.36285E-09
C:/temp/dataset/2/11_3.odb,Step-1,Increment      1: Step Time =    1.000,"PART-1-1",           168,       9.79368,       13.9045,            0.,NA,NA,"",       1.79739,      -1.44907,       1.06339,   1.49301E-06
C:/temp/dataset/2/11_3.odb,Step-1,Increment      1: Step Time =    1.000,"PART-1-1",           169,       9.30777,       16.4521,            0.,NA,NA,"",       1.89692,      -1.59162,       1.03202,   524.073E-09
C:/temp/dataset/2/11_3.odb,Step-1,Increment      1: Step Time =    1.000,"PART-1-1",           170,      -2.35985,       1.11806,            0.,NA,NA,"",   808.548E-03,  -709.469E-03,   387.818E-03,   3.51769E-03
C:/temp/dataset/2/11_3.odb,Step-1,Increment      1: Step Time =    1.000,"PART-1-1",           171,      -9.94133,      -13.9778,            0.,NA,NA,"",   106.057E-03,  -105.664E-03,   9.11652E-03,   1.74913E-03
C:/temp/dataset/2/11_3.odb,Step-1,Increment      1: Step Time =    1.000,"PART-1-1",           172,       4.80988,   33.7751E-03,            0.,NA,NA,"",       1.04243,  -661.705E-03,   805.490E-03,   1.11007E-03
C:/temp/dataset/2/11_3.odb,Step-1,Increment      1: Step Time =    1.000,"PART-1-1",           173,       9.94126,       11.1894,            0.,NA,NA,"",       1.68488,      -1.29656,       1.07599,   7.61560E-06
C:/temp/dataset/2/11_3.odb,Step-1,Increment      1: Step Time =    1.000,"PART-1-1",           174,       7.43598,   226.782E-03,            0.,NA,NA,"",       1.16849,  -675.968E-03,   953.117E-03,   235.175E-06
C:/temp/dataset/2/11_3.odb,Step-1,Increment      1: Step Time =    1.000,"PART-1-1",           175,      -7.50368,       24.9336,            0.,NA,NA,"",       2.04344,      -2.04215,   72.8140E-03,   175.727E-12
C:/temp/dataset/2/11_3.odb,Step-1,Increment      1: Step Time =    1.000,"PART-1-1",           176,      -10.1536,      -11.3797,            0.,NA,NA,"",   170.507E-03,  -170.381E-03,   6.55088E-03,   1.23688E-03
C:/temp/dataset/2/11_3.odb,Step-1,Increment      1: Step Time =    1.000,"PART-1-1",           177,       6.92724,       24.6415,            0.,NA,NA,"",       2.23161,      -2.04857,   885.125E-03,   19.7781E-09
C:/temp/dataset/2/11_3.odb,Step-1,Increment      1: Step Time =    1.000,"PART-1-1",           178,      -9.99868,       24.9580,            0.,NA,NA,"",       2.04069,      -2.03957,  -67.5870E-03,   130.514E-12
C:/temp/dataset/2/11_3.odb,Step-1,Increment      1: Step Time =    1.000,"PART-1-1",           179,       8.37028,       18.0705,            0.,NA,NA,"",       1.94431,      -1.68118,   976.713E-03,   280.643E-09
C:/temp/dataset/2/11_3.odb,Step-1,Increment      1: Step Time =    1.000,"PART-1-1",           180,      -10.4068,      -6.54987,            0.,NA,NA,"",   329.443E-03,  -329.436E-03,  -2.04242E-03,   1.86482E-03
C:/temp/dataset/2/11_3.odb,Step-1,Increment      1: Step Time =    1.000,"PART-1-1",           181,      -8.52723,      -17.8680,            0.,NA,NA,"",   43.3672E-03,  -35.5728E-03,   24.8049E-03,   3.73332E-03
C:/temp/dataset/2/11_3.odb,Step-1,Increment      1: Step Time =    1.000,"PART-1-1",           182,       9.99063,       8.47585,            0.,NA,NA,"",       1.57537,      -1.14398,       1.08310,   33.4915E-06
C:/temp/dataset/2/11_3.odb,Step-1,Increment      1: Step Time =    1.000,"PART-1-1",           183,      -6.87511,      -22.3968,            0.,NA,NA,"",   22.3426E-03,  -2.24952E-03,   22.2291E-03,   6.19870E-03
C:/temp/dataset/2/11_3.odb,Step-1,Increment      1: Step Time =    1.000,"PART-1-1",           184,       7.48189,       5.34092,            0.,NA,NA,"",       1.35114,  -963.698E-03,   947.026E-03,   125.058E-06
C:/temp/dataset/2/11_3.odb,Step-1,Increment      1: Step Time =    1.000,"PART-1-1",           185,       10.0207,   425.902E-03,            0.,NA,NA,"",       1.29726,  -691.239E-03,       1.09776,   77.9308E-06
C:/temp/dataset/2/11_3.odb,Step-1,Increment      1: Step Time =    1.000,"PART-1-1",           186,      -8.86720,      -3.63325,            0.,NA,NA,"",   456.737E-03,  -453.309E-03,   55.8493E-03,   4.29607E-03
C:/temp/dataset/2/11_3.odb,Step-1,Increment      1: Step Time =    1.000,"PART-1-1",           187,       10.0155,       5.77118,            0.,NA,NA,"",       1.47286,  -991.815E-03,       1.08886,   64.5314E-06
C:/temp/dataset/2/11_3.odb,Step-1,Increment      1: Step Time =    1.000,"PART-1-1",           188,       9.07540,       20.2179,            0.,NA,NA,"",       2.06817,      -1.80311,       1.01298,   205.392E-09
C:/temp/dataset/2/11_3.odb,Step-1,Increment      1: Step Time =    1.000,"PART-1-1",           189,       5.51479,      -24.9218,            0.,NA,NA,"",   4.22799E-03,  -4.22762E-03,   55.5839E-06,   510.241E-06
C:/temp/dataset/2/11_3.odb,Step-1,Increment      1: Step Time =    1.000,"PART-1-1",           190,       2.33502,      -24.9114,            0.,NA,NA,"",   5.75125E-03,  -5.52135E-03,   1.60985E-03,   850.157E-06
C:/temp/dataset/2/11_3.odb,Step-1,Increment      1: Step Time =    1.000,"PART-1-1",           191,      -3.83494,      -24.9465,            0.,NA,NA,"",   12.4659E-03,  -4.53347E-03,   11.6124E-03,   3.85105E-03
C:/temp/dataset/2/11_3.odb,Step-1,Increment      1: Step Time =    1.000,"PART-1-1",           192,       8.68706,      -24.9229,            0.,NA,NA,"",   3.39457E-03,  -3.39026E-03,  -170.964E-06,   311.038E-06
C:/temp/dataset/2/11_3.odb,Step-1,Increment      1: Step Time =    1.000,"PART-1-1",           193,  -793.545E-03,      -24.9263,            0.,NA,NA,"",   8.59499E-03,  -6.42538E-03,   5.70861E-03,   2.23155E-03
C:/temp/dataset/2/11_3.odb,Step-1,Increment      1: Step Time =    1.000,"PART-1-1",           194,      -10.0041,       22.4687,            0.,NA,NA,"",       1.90060,      -1.89952,  -63.9486E-03,   132.663E-12
C:/temp/dataset/2/11_3.odb,Step-1,Increment      1: Step Time =    1.000,"PART-1-1",           195,       7.76291,       22.5689,            0.,NA,NA,"",       2.14770,      -1.93329,   935.420E-03,   60.9947E-09
C:/temp/dataset/2/11_3.odb,Step-1,Increment      1: Step Time =    1.000,"PART-1-1",           196,       10.0314,       3.09975,            0.,NA,NA,"",       1.38028,  -841.504E-03,       1.09409,   81.2521E-06
C:/temp/dataset/2/11_3.odb,Step-1,Increment      1: Step Time =    1.000,"PART-1-1",           197,       7.45157,       2.78517,            0.,NA,NA,"",       1.25443,  -819.727E-03,   949.555E-03,   121.955E-06
C:/temp/dataset/2/11_3.odb,Step-1,Increment      1: Step Time =    1.000,"PART-1-1",           198,       1.23926,       2.17480,            0.,NA,NA,"",   977.007E-03,  -774.847E-03,   595.110E-03,   2.49968E-03
C:/temp/dataset/2/11_3.odb,Step-1,Increment      1: Step Time =    1.000,"PART-1-1",           199,       5.89388,       23.8379,            0.,NA,NA,"",       2.16631,      -2.00172,   828.263E-03,   14.0477E-09
C:/temp/dataset/2/11_3.odb,Step-1,Increment      1: Step Time =    1.000,"PART-1-1",           200,       4.70825,       2.52712,            0.,NA,NA,"",       1.12817,  -800.811E-03,   794.654E-03,   682.243E-06
C:/temp/dataset/2/11_3.odb,Step-1,Increment      1: Step Time =    1.000,"PART-1-1",           201,      -6.67563,      -24.8783,            0.,NA,NA,"",   12.6155E-03,   1.29756E-03,   12.5486E-03,   4.31627E-03
C:/temp/dataset/2/11_3.odb,Step-1,Increment      1: Step Time =    1.000,"PART-1-1",           202,      -1.93740,       2.90022,            0.,NA,NA,"",   904.109E-03,  -805.135E-03,   411.305E-03,   3.25036E-03
C:/temp/dataset/2/11_3.odb,Step-1,Increment      1: Step Time =    1.000,"PART-1-1",           203,      -4.27328,      -22.5070,            0.,NA,NA,"",   21.3147E-03,  -7.64638E-03,   19.8960E-03,   6.27953E-03
C:/temp/dataset/2/11_3.odb,Step-1,Increment      1: Step Time =    1.000,"PART-1-1",           204,      -7.29195,  -216.826E-03,            0.,NA,NA,"",   637.689E-03,  -624.673E-03,   128.186E-03,   3.78918E-03
C:/temp/dataset/2/11_3.odb,Step-1,Increment      1: Step Time =    1.000,"PART-1-1",           205,      -4.39370,   432.763E-03,            0.,NA,NA,"",   721.707E-03,  -667.363E-03,   274.748E-03,   3.68201E-03
C:/temp/dataset/2/11_3.odb,Step-1,Increment      1: Step Time =    1.000,"PART-1-1",           206,      -1.20581,      -22.4416,            0.,NA,NA,"",   9.82461E-03,  -6.84113E-03,   7.05138E-03,   2.81182E-03
C:/temp/dataset/2/11_3.odb,Step-1,Increment      1: Step Time =    1.000,"PART-1-1",           207,      -4.88725,       2.78210,            0.,NA,NA,"",   825.810E-03,  -786.946E-03,   250.356E-03,   3.19316E-03
C:/temp/dataset/2/11_3.odb,Step-1,Increment      1: Step Time =    1.000,"PART-1-1",           208,      -8.02678,       2.39768,            0.,NA,NA,"",   760.958E-03,  -755.011E-03,   94.9536E-03,   3.57290E-03
C:/temp/dataset/2/11_3.odb,Step-1,Increment      1: Step Time =    1.000,"PART-1-1",           209,       8.51144,      -22.4401,            0.,NA,NA,"",   4.07242E-03,  -4.05475E-03,  -378.974E-06,   131.443E-06
C:/temp/dataset/2/11_3.odb,Step-1,Increment      1: Step Time =    1.000,"PART-1-1",           210,       5.25488,      -22.4306,            0.,NA,NA,"",   4.52726E-03,  -4.52216E-03,  -214.826E-06,   248.967E-06
C:/temp/dataset/2/11_3.odb,Step-1,Increment      1: Step Time =    1.000,"PART-1-1",           211,       2.00226,      -22.4217,            0.,NA,NA,"",   5.82238E-03,  -5.59086E-03,   1.62556E-03,   788.507E-06
C:/temp/dataset/2/11_3.odb,Step-1,Increment      1: Step Time =    1.000,"PART-1-1",           212,      -9.28570,      -27.3600,            0.,NA,NA,"",   5.43908E-03,   5.16822E-03,   1.69504E-03,   2.10647E-03
C:/temp/dataset/2/11_3.odb,Step-1,Increment      1: Step Time =    1.000,"PART-1-1",           213,       11.7596,      -22.4488,            0.,NA,NA,"",   3.83673E-03,  -3.83407E-03,   142.937E-06,   33.2641E-06
C:/temp/dataset/2/11_3.odb,Step-1,Increment      1: Step Time =    1.000,"PART-1-1",           214,      -12.4952,       27.4851,            0.,NA,NA,"",       2.18808,      -2.17778,  -212.038E-03,   115.073E-12
C:/temp/dataset/2/11_3.odb,Step-1,Increment      1: Step Time =    1.000,"PART-1-1",           215,      -12.1608,      -27.2494,            0.,NA,NA,"",   6.36516E-03,   5.14874E-03,  -3.74242E-03,   2.76784E-03
C:/temp/dataset/2/11_3.odb,Step-1,Increment      1: Step Time =    1.000,"PART-1-1",           216,      -6.92277,      -20.0189,            0.,NA,NA,"",   35.5498E-03,  -12.3849E-03,   33.3227E-03,   5.35626E-03
C:/temp/dataset/2/11_3.odb,Step-1,Increment      1: Step Time =    1.000,"PART-1-1",           217,       10.3403,       22.5364,            0.,NA,NA,"",       2.21670,      -1.93554,       1.08047,   88.0646E-09
C:/temp/dataset/2/11_3.odb,Step-1,Increment      1: Step Time =    1.000,"PART-1-1",           218,      -9.38591,      -16.3373,            0.,NA,NA,"",   61.2437E-03,  -59.1512E-03,   15.8719E-03,   2.54228E-03
C:/temp/dataset/2/11_3.odb,Step-1,Increment      1: Step Time =    1.000,"PART-1-1",           219,      -9.56004,      -22.0160,            0.,NA,NA,"",   6.58180E-03,   205.905E-06,   6.57858E-03,   3.10003E-03
C:/temp/dataset/2/11_3.odb,Step-1,Increment      1: Step Time =    1.000,"PART-1-1",           220,      -9.49058,      -24.6874,            0.,NA,NA,"",   6.98127E-03,   5.71049E-03,   4.01602E-03,   2.92143E-03
C:/temp/dataset/2/11_3.odb,Step-1,Increment      1: Step Time =    1.000,"PART-1-1",           221,  -968.003E-03,   33.9082E-03,            0.,NA,NA,"",   806.121E-03,  -655.416E-03,   469.319E-03,   3.51913E-03
C:/temp/dataset/2/11_3.odb,Step-1,Increment      1: Step Time =    1.000,"PART-1-1",           222,   333.674E-03,      -1.00763,            0.,NA,NA,"",   813.677E-03,  -601.227E-03,   548.266E-03,   3.89446E-03
C:/temp/dataset/2/11_3.odb,Step-1,Increment      1: Step Time =    1.000,"PART-1-1",           223,      -10.5623,      -4.72446,            0.,NA,NA,"",   404.550E-03,  -404.402E-03,  -10.9409E-03,   3.27746E-03
C:/temp/dataset/2/11_3.odb,Step-1,Increment      1: Step Time =    1.000,"PART-1-1",           224,      -5.01319,       24.9269,            0.,NA,NA,"",       2.05677,      -2.04571,   212.934E-03,   397.653E-12
C:/temp/dataset/2/11_3.odb,Step-1,Increment      1: Step Time =    1.000,"PART-1-1",           225,      -9.24174,      -19.5473,            0.,NA,NA,"",   19.8974E-03,  -15.5871E-03,   12.3672E-03,   2.48207E-03
C:/temp/dataset/2/11_3.odb,Step-1,Increment      1: Step Time =    1.000,"PART-1-1",           226,       8.53639,       25.1316,            0.,NA,NA,"",       2.29594,      -2.07869,   974.876E-03,   22.0326E-09
C:/temp/dataset/2/11_3.odb,Step-1,Increment      1: Step Time =    1.000,"PART-1-1",           227,       8.85572,       23.3093,            0.,NA,NA,"",       2.21330,      -1.97667,   995.726E-03,   53.9812E-09
C:/temp/dataset/2/11_3.odb,Step-1,Increment      1: Step Time =    1.000,"PART-1-1",           228,      -13.7516,       22.4908,            0.,NA,NA,"",       1.91465,      -1.89483,  -274.811E-03,   112.511E-12
C:/temp/dataset/2/11_3.odb,Step-1,Increment      1: Step Time =    1.000,"PART-1-1",           229,          -15.,         21.25,            0.,NA,NA,"",       1.85504,      -1.82304,  -343.077E-03,   110.565E-12
C:/temp/dataset/2/11_3.odb,Step-1,Increment      1: Step Time =    1.000,"PART-1-1",           230,        -13.75,           20.,            0.,NA,NA,"",       1.77547,      -1.75470,  -270.775E-03,   124.259E-12
C:/temp/dataset/2/11_3.odb,Step-1,Increment      1: Step Time =    1.000,"PART-1-1",           231,      -12.5016,       21.2408,            0.,NA,NA,"",       1.83768,      -1.82648,  -202.510E-03,   123.514E-12
C:/temp/dataset/2/11_3.odb,Step-1,Increment      1: Step Time =    1.000,"PART-1-1",           232,      -9.99605,       28.7334,            0.,NA,NA,"",       2.25316,      -2.25197,  -73.4184E-03,   104.403E-12
C:/temp/dataset/2/11_3.odb,Step-1,Increment      1: Step Time =    1.000,"PART-1-1",           233,        -11.25,           30.,            0.,NA,NA,"",       2.32582,      -2.32124,  -145.968E-03,   102.451E-12
C:/temp/dataset/2/11_3.odb,Step-1,Increment      1: Step Time =    1.000,"PART-1-1",           234,      -12.4976,       28.7426,            0.,NA,NA,"",       2.25870,      -2.24852,  -214.164E-03,   107.140E-12
C:/temp/dataset/2/11_3.odb,Step-1,Increment      1: Step Time =    1.000,"PART-1-1",           235,      -11.2437,       27.4760,            0.,NA,NA,"",       2.18385,      -2.17925,  -141.614E-03,   114.639E-12
C:/temp/dataset/2/11_3.odb,Step-1,Increment      1: Step Time =    1.000,"PART-1-1",           236,      -8.74541,       27.4572,            0.,NA,NA,"",       2.18215,      -2.18215,  -1.03915E-03,   123.563E-12
C:/temp/dataset/2/11_3.odb,Step-1,Increment      1: Step Time =    1.000,"PART-1-1",           237,      -7.49936,       28.7238,            0.,NA,NA,"",       2.25638,      -2.25538,   67.0549E-03,   116.008E-12
C:/temp/dataset/2/11_3.odb,Step-1,Increment      1: Step Time =    1.000,"PART-1-1",           238,         -8.75,           30.,            0.,NA,NA,"",       2.32520,      -2.32520,  -5.32436E-03,   98.5352E-12
C:/temp/dataset/2/11_3.odb,Step-1,Increment      1: Step Time =    1.000,"PART-1-1",           239,      -10.0020,       21.2344,            0.,NA,NA,"",       1.83113,      -1.83008,  -61.8789E-03,   128.396E-12
C:/temp/dataset/2/11_3.odb,Step-1,Increment      1: Step Time =    1.000,"PART-1-1",           240,      -11.2537,       22.4752,            0.,NA,NA,"",       1.90265,      -1.89790,  -134.258E-03,   126.490E-12
C:/temp/dataset/2/11_3.odb,Step-1,Increment      1: Step Time =    1.000,"PART-1-1",           241,        -11.25,           20.,            0.,NA,NA,"",       1.76347,      -1.75866,  -130.131E-03,   125.346E-12
C:/temp/dataset/2/11_3.odb,Step-1,Increment      1: Step Time =    1.000,"PART-1-1",           242,      -6.25410,       27.4469,            0.,NA,NA,"",       2.18994,      -2.18551,   139.132E-03,   237.301E-12
C:/temp/dataset/2/11_3.odb,Step-1,Increment      1: Step Time =    1.000,"PART-1-1",           243,      -7.50120,       26.1906,            0.,NA,NA,"",       2.11406,      -2.11286,   70.9631E-03,   155.155E-12
C:/temp/dataset/2/11_3.odb,Step-1,Increment      1: Step Time =    1.000,"PART-1-1",           244,      -6.25844,       24.9303,            0.,NA,NA,"",       2.04892,      -2.04393,   142.874E-03,   271.070E-12
C:/temp/dataset/2/11_3.odb,Step-1,Increment      1: Step Time =    1.000,"PART-1-1",           245,      -5.01133,       26.1865,            0.,NA,NA,"",       2.12708,      -2.11658,   211.043E-03,   345.890E-12
C:/temp/dataset/2/11_3.odb,Step-1,Increment      1: Step Time =    1.000,"PART-1-1",           246,       1.11906,       22.3143,            0.,NA,NA,"",       1.98949,      -1.90845,   562.057E-03,   4.52610E-09
C:/temp/dataset/2/11_3.odb,Step-1,Increment      1: Step Time =    1.000,"PART-1-1",           247,  -37.5712E-03,       21.1808,            0.,NA,NA,"",       1.90915,      -1.84284,   498.783E-03,   2.36699E-09
C:/temp/dataset/2/11_3.odb,Step-1,Increment      1: Step Time =    1.000,"PART-1-1",           248,          1.25,           20.,            0.,NA,NA,"",       1.86851,      -1.77846,   573.088E-03,   4.94547E-09
C:/temp/dataset/2/11_3.odb,Step-1,Increment      1: Step Time =    1.000,"PART-1-1",           249,       2.40663,       21.1336,            0.,NA,NA,"",       1.95077,      -1.84406,   636.362E-03,   10.8505E-09
C:/temp/dataset/2/11_3.odb,Step-1,Increment      1: Step Time =    1.000,"PART-1-1",           250,  -46.9838E-03,       26.1228,            0.,NA,NA,"",       2.17682,      -2.12085,   490.426E-03,   1.67013E-09
C:/temp/dataset/2/11_3.odb,Step-1,Increment      1: Step Time =    1.000,"PART-1-1",           251,       1.11635,       24.7850,            0.,NA,NA,"",       2.12211,      -2.04744,   557.992E-03,   2.73831E-09
C:/temp/dataset/2/11_3.odb,Step-1,Increment      1: Step Time =    1.000,"PART-1-1",           252,       2.41618,       25.9912,            0.,NA,NA,"",       2.20886,      -2.11735,   629.206E-03,   1.98022E-09
C:/temp/dataset/2/11_3.odb,Step-1,Increment      1: Step Time =    1.000,"PART-1-1",           253,       1.25284,       27.3289,            0.,NA,NA,"",       2.26162,      -2.19077,   561.641E-03,   1.80345E-09
C:/temp/dataset/2/11_3.odb,Step-1,Increment      1: Step Time =    1.000,"PART-1-1",           254,       11.4216,       22.1022,            0.,NA,NA,"",       2.22779,      -1.91283,       1.14199,   83.8336E-09
C:/temp/dataset/2/11_3.odb,Step-1,Increment      1: Step Time =    1.000,"PART-1-1",           255,       9.70783,       21.3771,            0.,NA,NA,"",       2.14243,      -1.86933,       1.04672,   133.345E-09
C:/temp/dataset/2/11_3.odb,Step-1,Increment      1: Step Time =    1.000,"PART-1-1",           256,       10.3968,       19.2167,            0.,NA,NA,"",       2.06016,      -1.74888,       1.08890,   203.422E-09
C:/temp/dataset/2/11_3.odb,Step-1,Increment      1: Step Time =    1.000,"PART-1-1",           257,       12.1105,       19.9418,            0.,NA,NA,"",       2.14823,      -1.79238,       1.18417,   197.109E-09
C:/temp/dataset/2/11_3.odb,Step-1,Increment      1: Step Time =    1.000,"PART-1-1",           258,       11.6215,       24.7876,            0.,NA,NA,"",       2.36245,      -2.06422,       1.14898,   21.1139E-09
C:/temp/dataset/2/11_3.odb,Step-1,Increment      1: Step Time =    1.000,"PART-1-1",           259,       12.6971,       25.9410,            0.,NA,NA,"",       2.44925,      -2.13081,       1.20766,   12.1868E-09
C:/temp/dataset/2/11_3.odb,Step-1,Increment      1: Step Time =    1.000,"PART-1-1",           260,       11.4859,       27.3886,            0.,NA,NA,"",       2.48573,      -2.21033,       1.13723,   3.81658E-09
C:/temp/dataset/2/11_3.odb,Step-1,Increment      1: Step Time =    1.000,"PART-1-1",           261,       10.4103,       26.2351,            0.,NA,NA,"",       2.39977,      -2.14374,       1.07855,   14.4080E-09
C:/temp/dataset/2/11_3.odb,Step-1,Increment      1: Step Time =    1.000,"PART-1-1",           262,       5.88041,       17.6377,            0.,NA,NA,"",       1.85288,      -1.65290,   837.325E-03,   321.020E-09
C:/temp/dataset/2/11_3.odb,Step-1,Increment      1: Step Time =    1.000,"PART-1-1",           263,       6.75071,       18.9160,            0.,NA,NA,"",       1.93949,      -1.72618,   884.262E-03,   239.522E-09
C:/temp/dataset/2/11_3.odb,Step-1,Increment      1: Step Time =    1.000,"PART-1-1",           264,       5.87030,       20.0282,            0.,NA,NA,"",       1.97193,      -1.78736,   832.971E-03,   128.529E-09
C:/temp/dataset/2/11_3.odb,Step-1,Increment      1: Step Time =    1.000,"PART-1-1",           265,            5.,         18.75,            0.,NA,NA,"",       1.88571,      -1.71407,   786.034E-03,   312.432E-09
C:/temp/dataset/2/11_3.odb,Step-1,Increment      1: Step Time =    1.000,"PART-1-1",           266,       12.3690,       13.3305,            0.,NA,NA,"",       1.86573,      -1.42085,       1.20918,   1.83047E-06
C:/temp/dataset/2/11_3.odb,Step-1,Increment      1: Step Time =    1.000,"PART-1-1",           267,       13.7195,       12.1790,            0.,NA,NA,"",       1.87111,      -1.35821,       1.28698,   1.47527E-06
C:/temp/dataset/2/11_3.odb,Step-1,Increment      1: Step Time =    1.000,"PART-1-1",           268,           15.,       13.9583,            0.,NA,NA,"",       1.99296,      -1.46034,       1.35620,   680.962E-09
C:/temp/dataset/2/11_3.odb,Step-1,Increment      1: Step Time =    1.000,"PART-1-1",           269,       13.6495,       15.1098,            0.,NA,NA,"",       1.98841,      -1.52298,       1.27840,   455.134E-09
C:/temp/dataset/2/11_3.odb,Step-1,Increment      1: Step Time =    1.000,"PART-1-1",           270,       12.5214,       4.81657,            0.,NA,NA,"",       1.55027,  -942.020E-03,       1.23124,   50.1003E-06
C:/temp/dataset/2/11_3.odb,Step-1,Increment      1: Step Time =    1.000,"PART-1-1",           271,       13.7670,       3.58604,            0.,NA,NA,"",       1.56953,  -874.790E-03,       1.30313,   60.5928E-06
C:/temp/dataset/2/11_3.odb,Step-1,Increment      1: Step Time =    1.000,"PART-1-1",           272,           15.,       5.20833,            0.,NA,NA,"",       1.67745,  -968.019E-03,       1.36996,   57.3920E-06
C:/temp/dataset/2/11_3.odb,Step-1,Increment      1: Step Time =    1.000,"PART-1-1",           273,       13.7545,       6.43886,            0.,NA,NA,"",       1.66030,      -1.03526,       1.29800,   30.3897E-06
C:/temp/dataset/2/11_3.odb,Step-1,Increment      1: Step Time =    1.000,"PART-1-1",           274,       13.7625,      -2.13133,            0.,NA,NA,"",       1.42378,  -553.972E-03,       1.31158,   65.2511E-06
C:/temp/dataset/2/11_3.odb,Step-1,Increment      1: Step Time =    1.000,"PART-1-1",           275,       12.5125,      -3.58966,            0.,NA,NA,"",       1.32971,  -470.352E-03,       1.24374,   63.7989E-06
C:/temp/dataset/2/11_3.odb,Step-1,Increment      1: Step Time =    1.000,"PART-1-1",           276,         13.75,           -5.,            0.,NA,NA,"",       1.37289,  -393.261E-03,       1.31536,   18.3155E-06
C:/temp/dataset/2/11_3.odb,Step-1,Increment      1: Step Time =    1.000,"PART-1-1",           277,           15.,      -3.54167,            0.,NA,NA,"",       1.46304,  -476.937E-03,       1.38312,   18.3672E-06
C:/temp/dataset/2/11_3.odb,Step-1,Increment      1: Step Time =    1.000,"PART-1-1",           278,      -9.21387,      -6.21191,            0.,NA,NA,"",   345.511E-03,  -342.977E-03,   41.7682E-03,   2.15206E-03
C:/temp/dataset/2/11_3.odb,Step-1,Increment      1: Step Time =    1.000,"PART-1-1",           279,      -8.44405,      -4.75360,            0.,NA,NA,"",   409.305E-03,  -402.682E-03,   73.3334E-03,   3.55680E-03
C:/temp/dataset/2/11_3.odb,Step-1,Increment      1: Step Time =    1.000,"PART-1-1",           280,      -9.71477,      -4.17886,            0.,NA,NA,"",   428.864E-03,  -428.314E-03,   21.7186E-03,   3.56280E-03
C:/temp/dataset/2/11_3.odb,Step-1,Increment      1: Step Time =    1.000,"PART-1-1",           281,      -10.4846,      -5.63717,            0.,NA,NA,"",   366.096E-03,  -366.042E-03,  -6.27487E-03,   2.56797E-03
C:/temp/dataset/2/11_3.odb,Step-1,Increment      1: Step Time =    1.000,"PART-1-1",           282,      -5.84282,   107.969E-03,            0.,NA,NA,"",   675.626E-03,  -645.586E-03,   199.222E-03,   3.11465E-03
C:/temp/dataset/2/11_3.odb,Step-1,Increment      1: Step Time =    1.000,"PART-1-1",           283,      -4.64047,       1.60743,            0.,NA,NA,"",   773.131E-03,  -727.155E-03,   262.634E-03,   3.15323E-03
C:/temp/dataset/2/11_3.odb,Step-1,Increment      1: Step Time =    1.000,"PART-1-1",           284,      -6.45702,       2.58989,            0.,NA,NA,"",   789.271E-03,  -770.622E-03,   170.558E-03,   3.04639E-03
C:/temp/dataset/2/11_3.odb,Step-1,Increment      1: Step Time =    1.000,"PART-1-1",           285,      -7.65937,       1.09043,            0.,NA,NA,"",   699.087E-03,  -690.088E-03,   111.808E-03,   3.50325E-03
C:/temp/dataset/2/11_3.odb,Step-1,Increment      1: Step Time =    1.000,"PART-1-1",           286,      -6.51044,      -5.43697,            0.,NA,NA,"",   402.788E-03,  -373.287E-03,   151.310E-03,   8.60077E-03
C:/temp/dataset/2/11_3.odb,Step-1,Increment      1: Step Time =    1.000,"PART-1-1",           287,      -5.48201,      -3.85122,            0.,NA,NA,"",   491.656E-03,  -446.547E-03,   205.723E-03,   8.63410E-03
C:/temp/dataset/2/11_3.odb,Step-1,Increment      1: Step Time =    1.000,"PART-1-1",           288,      -7.41561,      -3.16785,            0.,NA,NA,"",   490.796E-03,  -476.361E-03,   118.155E-03,   4.76437E-03
C:/temp/dataset/2/11_3.odb,Step-1,Increment      1: Step Time =    1.000,"PART-1-1",           289,      -12.6742,      -10.6472,            0.,NA,NA,"",   203.381E-03,  -192.307E-03,  -66.1971E-03,   4.54800E-03
C:/temp/dataset/2/11_3.odb,Step-1,Increment      1: Step Time =    1.000,"PART-1-1",           290,      -11.3911,      -11.6978,            0.,NA,NA,"",   163.645E-03,  -161.414E-03,  -26.9327E-03,   1.62427E-03
C:/temp/dataset/2/11_3.odb,Step-1,Increment      1: Step Time =    1.000,"PART-1-1",           291,      -10.2167,      -10.1126,            0.,NA,NA,"",   207.264E-03,  -207.195E-03,   5.34491E-03,   1.05629E-03
C:/temp/dataset/2/11_3.odb,Step-1,Increment      1: Step Time =    1.000,"PART-1-1",           292,      -11.4997,      -9.06207,            0.,NA,NA,"",   242.833E-03,  -240.216E-03,  -35.5565E-03,   2.13155E-03
C:/temp/dataset/2/11_3.odb,Step-1,Increment      1: Step Time =    1.000,"PART-1-1",           293,      -13.7107,      -15.1438,            0.,NA,NA,"",   108.249E-03,  -85.2305E-03,  -66.7358E-03,   7.07544E-03
C:/temp/dataset/2/11_3.odb,Step-1,Increment      1: Step Time =    1.000,"PART-1-1",           294,      -12.5249,      -13.4434,            0.,NA,NA,"",   128.907E-03,  -118.709E-03,  -50.2517E-03,   4.24188E-03
C:/temp/dataset/2/11_3.odb,Step-1,Increment      1: Step Time =    1.000,"PART-1-1",           295,      -13.8143,      -12.2579,            0.,NA,NA,"",   174.704E-03,  -150.666E-03,  -88.4364E-03,   7.29196E-03
C:/temp/dataset/2/11_3.odb,Step-1,Increment      1: Step Time =    1.000,"PART-1-1",           296,          -15.,      -13.9583,            0.,NA,NA,"",   154.112E-03,  -114.478E-03,  -103.176E-03,   10.1333E-03
C:/temp/dataset/2/11_3.odb,Step-1,Increment      1: Step Time =    1.000,"PART-1-1",           297,      -12.0988,      -16.5012,            0.,NA,NA,"",   64.9941E-03,  -57.3428E-03,  -30.5948E-03,   3.45362E-03
C:/temp/dataset/2/11_3.odb,Step-1,Increment      1: Step Time =    1.000,"PART-1-1",           298,      -10.5811,      -17.2344,            0.,NA,NA,"",   44.6263E-03,  -44.4058E-03,  -4.43092E-03,   604.097E-06
C:/temp/dataset/2/11_3.odb,Step-1,Increment      1: Step Time =    1.000,"PART-1-1",           299,      -9.66362,      -15.1575,            0.,NA,NA,"",   82.0744E-03,  -81.0307E-03,   13.0475E-03,   2.14460E-03
C:/temp/dataset/2/11_3.odb,Step-1,Increment      1: Step Time =    1.000,"PART-1-1",           300,      -11.1813,      -14.4243,            0.,NA,NA,"",   97.2488E-03,  -95.6156E-03,  -17.7476E-03,   1.15235E-03
C:/temp/dataset/2/11_3.odb,Step-1,Increment      1: Step Time =    1.000,"PART-1-1",           301,      -10.5090,      -18.8394,            0.,NA,NA,"",   23.4923E-03,  -23.3446E-03,  -2.62971E-03,   1.51487E-03
C:/temp/dataset/2/11_3.odb,Step-1,Increment      1: Step Time =    1.000,"PART-1-1",           302,      -8.88448,      -18.7076,            0.,NA,NA,"",   30.5935E-03,  -24.5848E-03,   18.2085E-03,   2.71545E-03
C:/temp/dataset/2/11_3.odb,Step-1,Increment      1: Step Time =    1.000,"PART-1-1",           303,      -8.95657,      -17.1026,            0.,NA,NA,"",   51.4134E-03,  -46.9191E-03,   21.0223E-03,   3.26803E-03
C:/temp/dataset/2/11_3.odb,Step-1,Increment      1: Step Time =    1.000,"PART-1-1",           304,      -8.08225,      -19.7831,            0.,NA,NA,"",   27.8900E-03,  -13.8051E-03,   24.2337E-03,   3.62093E-03
C:/temp/dataset/2/11_3.odb,Step-1,Increment      1: Step Time =    1.000,"PART-1-1",           305,      -6.89084,      -18.8787,            0.,NA,NA,"",   46.1247E-03,  -23.7671E-03,   39.5299E-03,   6.73804E-03
C:/temp/dataset/2/11_3.odb,Step-1,Increment      1: Step Time =    1.000,"PART-1-1",           306,      -7.69307,      -17.8032,            0.,NA,NA,"",   52.6811E-03,  -38.0695E-03,   36.4145E-03,   6.45664E-03
C:/temp/dataset/2/11_3.odb,Step-1,Increment      1: Step Time =    1.000,"PART-1-1",           307,       7.10093,      -24.9223,            0.,NA,NA,"",   3.75358E-03,  -3.74975E-03,  -169.559E-06,   417.173E-06
C:/temp/dataset/2/11_3.odb,Step-1,Increment      1: Step Time =    1.000,"PART-1-1",           308,       8.59925,      -23.6815,            0.,NA,NA,"",   3.79877E-03,  -3.78762E-03,  -290.804E-06,   217.206E-06
C:/temp/dataset/2/11_3.odb,Step-1,Increment      1: Step Time =    1.000,"PART-1-1",           309,       6.88316,      -22.4353,            0.,NA,NA,"",   4.26879E-03,  -4.24938E-03,  -406.606E-06,   182.096E-06
C:/temp/dataset/2/11_3.odb,Step-1,Increment      1: Step Time =    1.000,"PART-1-1",           310,       5.38484,      -23.6762,            0.,NA,NA,"",   4.53946E-03,  -4.53879E-03,  -77.6964E-06,   366.268E-06
C:/temp/dataset/2/11_3.odb,Step-1,Increment      1: Step Time =    1.000,"PART-1-1",           311,       13.3798,      -22.4744,            0.,NA,NA,"",   3.84459E-03,  -3.80114E-03,   576.330E-06,   15.1018E-06
C:/temp/dataset/2/11_3.odb,Step-1,Increment      1: Step Time =    1.000,"PART-1-1",           312,           15.,        -21.25,            0.,NA,NA,"",   4.25808E-03,  -4.13060E-03,   1.03411E-03,   10.9764E-06
C:/temp/dataset/2/11_3.odb,Step-1,Increment      1: Step Time =    1.000,"PART-1-1",           313,       13.3333,          -20.,            0.,NA,NA,"",   4.49808E-03,  -4.46234E-03,   565.900E-06,   16.8758E-06
C:/temp/dataset/2/11_3.odb,Step-1,Increment      1: Step Time =    1.000,"PART-1-1",           314,       11.7131,      -21.2244,            0.,NA,NA,"",   4.14131E-03,  -4.13919E-03,   132.382E-06,   5.59808E-06
C:/temp/dataset/2/11_3.odb,Step-1,Increment      1: Step Time =    1.000,"PART-1-1",           315,      -2.14863,       2.00914,            0.,NA,NA,"",   855.918E-03,  -756.937E-03,   399.552E-03,   3.27366E-03
C:/temp/dataset/2/11_3.odb,Step-1,Increment      1: Step Time =    1.000,"PART-1-1",           316,      -1.66393,   575.985E-03,            0.,NA,NA,"",   805.927E-03,  -682.659E-03,   428.363E-03,   3.48461E-03
C:/temp/dataset/2/11_3.odb,Step-1,Increment      1: Step Time =    1.000,"PART-1-1",           317,   135.628E-03,       1.10435,            0.,NA,NA,"",   891.032E-03,  -714.571E-03,   532.284E-03,   3.00243E-03
C:/temp/dataset/2/11_3.odb,Step-1,Increment      1: Step Time =    1.000,"PART-1-1",           318,  -349.073E-03,       2.53751,            0.,NA,NA,"",   936.805E-03,  -790.685E-03,   502.414E-03,   2.74247E-03
C:/temp/dataset/2/11_3.odb,Step-1,Increment      1: Step Time =    1.000,"PART-1-1",           319,   156.145E-03,      -1.87787,            0.,NA,NA,"",   773.746E-03,  -554.004E-03,   540.151E-03,   4.20569E-03
C:/temp/dataset/2/11_3.odb,Step-1,Increment      1: Step Time =    1.000,"PART-1-1",           320,       1.21010,      -2.70880,            0.,NA,NA,"",   791.005E-03,  -508.119E-03,   606.222E-03,   4.00588E-03
C:/temp/dataset/2/11_3.odb,Step-1,Increment      1: Step Time =    1.000,"PART-1-1",           321,       2.32846,      -1.50081,            0.,NA,NA,"",   881.159E-03,  -574.986E-03,   667.707E-03,   3.00615E-03
C:/temp/dataset/2/11_3.odb,Step-1,Increment      1: Step Time =    1.000,"PART-1-1",           322,       1.27451,  -669.883E-03,            0.,NA,NA,"",   865.075E-03,  -620.160E-03,   603.123E-03,   3.33176E-03
C:/temp/dataset/2/11_3.odb,Step-1,Increment      1: Step Time =    1.000,"PART-1-1",           323,       4.87500,      -1.23074,            0.,NA,NA,"",       1.00471,  -591.106E-03,   812.425E-03,   1.25153E-03
C:/temp/dataset/2/11_3.odb,Step-1,Increment      1: Step Time =    1.000,"PART-1-1",           324,       6.20088,      -2.43579,            0.,NA,NA,"",       1.03279,  -525.059E-03,   889.361E-03,   787.659E-06
C:/temp/dataset/2/11_3.odb,Step-1,Increment      1: Step Time =    1.000,"PART-1-1",           325,       7.44880,      -1.07477,            0.,NA,NA,"",       1.13041,  -602.998E-03,   956.145E-03,   225.890E-06
C:/temp/dataset/2/11_3.odb,Step-1,Increment      1: Step Time =    1.000,"PART-1-1",           326,       6.12293,   130.279E-03,            0.,NA,NA,"",       1.10484,  -668.677E-03,   879.506E-03,   610.769E-06
C:/temp/dataset/2/11_3.odb,Step-1,Increment      1: Step Time =    1.000,"PART-1-1",           327,          8.75,           -5.,            0.,NA,NA,"",       1.10483,  -385.953E-03,       1.03523,   269.508E-06
C:/temp/dataset/2/11_3.odb,Step-1,Increment      1: Step Time =    1.000,"PART-1-1",           328,       10.0063,      -3.63741,            0.,NA,NA,"",       1.19683,  -463.824E-03,       1.10329,   114.185E-06
C:/temp/dataset/2/11_3.odb,Step-1,Increment      1: Step Time =    1.000,"PART-1-1",           329,       8.73716,      -2.32557,            0.,NA,NA,"",       1.16086,  -535.075E-03,       1.03019,   104.074E-06
C:/temp/dataset/2/11_3.odb,Step-1,Increment      1: Step Time =    1.000,"PART-1-1",           330,       7.48081,      -3.68816,            0.,NA,NA,"",       1.06544,  -457.290E-03,   962.314E-03,   242.483E-06
C:/temp/dataset/2/11_3.odb,Step-1,Increment      1: Step Time =    1.000,"PART-1-1",           331,       6.24109,       7.72904,            0.,NA,NA,"",       1.40145,      -1.09611,   873.271E-03,   28.4846E-06
C:/temp/dataset/2/11_3.odb,Step-1,Increment      1: Step Time =    1.000,"PART-1-1",           332,            5.,          6.25,            0.,NA,NA,"",       1.29276,      -1.01098,   805.691E-03,   150.771E-06
C:/temp/dataset/2/11_3.odb,Step-1,Increment      1: Step Time =    1.000,"PART-1-1",           333,       6.24095,       5.17046,            0.,NA,NA,"",       1.29480,  -952.252E-03,   877.342E-03,   89.1037E-06
C:/temp/dataset/2/11_3.odb,Step-1,Increment      1: Step Time =    1.000,"PART-1-1",           334,       7.48203,       6.64950,            0.,NA,NA,"",       1.40316,      -1.03735,   944.871E-03,   83.8722E-06
C:/temp/dataset/2/11_3.odb,Step-1,Increment      1: Step Time =    1.000,"PART-1-1",           335,       7.34508,       23.6052,            0.,NA,NA,"",       2.18915,      -1.99093,   910.273E-03,   37.8582E-09
C:/temp/dataset/2/11_3.odb,Step-1,Increment      1: Step Time =    1.000,"PART-1-1",           336,       6.41056,       24.2397,            0.,NA,NA,"",       2.19889,      -2.02514,   856.694E-03,   16.5079E-09
C:/temp/dataset/2/11_3.odb,Step-1,Increment      1: Step Time =    1.000,"PART-1-1",           337,       6.08150,       22.9932,            0.,NA,NA,"",       2.12742,      -1.95450,   840.156E-03,   34.9662E-09
C:/temp/dataset/2/11_3.odb,Step-1,Increment      1: Step Time =    1.000,"PART-1-1",           338,       7.01602,       22.3587,            0.,NA,NA,"",       2.11808,      -1.92029,   893.735E-03,   59.7178E-09
C:/temp/dataset/2/11_3.odb,Step-1,Increment      1: Step Time =    1.000,"PART-1-1",           339,      -12.5005,       23.7291,            0.,NA,NA,"",       1.97727,      -1.96647,  -206.388E-03,   119.496E-12
C:/temp/dataset/2/11_3.odb,Step-1,Increment      1: Step Time =    1.000,"PART-1-1",           340,      -13.7489,       24.9883,            0.,NA,NA,"",       2.05431,      -2.03533,  -278.612E-03,   115.387E-12
C:/temp/dataset/2/11_3.odb,Step-1,Increment      1: Step Time =    1.000,"PART-1-1",           341,          -15.,         23.75,            0.,NA,NA,"",       1.99412,      -1.96369,  -347.036E-03,   108.564E-12
C:/temp/dataset/2/11_3.odb,Step-1,Increment      1: Step Time =    1.000,"PART-1-1",           342,      -2.52491,       26.1674,            0.,NA,NA,"",       2.14830,      -2.11944,   350.953E-03,   949.697E-12
C:/temp/dataset/2/11_3.odb,Step-1,Increment      1: Step Time =    1.000,"PART-1-1",           343,      -1.30373,       24.8780,            0.,NA,NA,"",       2.09178,      -2.04884,   421.696E-03,   1.68427E-09
C:/temp/dataset/2/11_3.odb,Step-1,Increment      1: Step Time =    1.000,"PART-1-1",           344,      -1.26817,       27.4122,            0.,NA,NA,"",       2.23128,      -2.19146,   419.684E-03,   1.36898E-09
C:/temp/dataset/2/11_3.odb,Step-1,Increment      1: Step Time =    1.000,"PART-1-1",           345,       2.31009,       23.4917,            0.,NA,NA,"",       2.07370,      -1.97657,   627.197E-03,   4.15305E-09
C:/temp/dataset/2/11_3.odb,Step-1,Increment      1: Step Time =    1.000,"PART-1-1",           346,       3.41051,       22.2101,            0.,NA,NA,"",       2.02764,      -1.90621,   691.133E-03,   8.61164E-09
C:/temp/dataset/2/11_3.odb,Step-1,Increment      1: Step Time =    1.000,"PART-1-1",           347,       4.46987,       23.2845,            0.,NA,NA,"",       2.10604,      -1.96834,   749.028E-03,   11.9996E-09
C:/temp/dataset/2/11_3.odb,Step-1,Increment      1: Step Time =    1.000,"PART-1-1",           348,       3.36945,       24.5662,            0.,NA,NA,"",       2.15073,      -2.03870,   685.092E-03,   3.94210E-09
C:/temp/dataset/2/11_3.odb,Step-1,Increment      1: Step Time =    1.000,"PART-1-1",           349,       3.92627,       27.0683,            0.,NA,NA,"",       2.29379,      -2.18034,   712.454E-03,   1.04736E-09
C:/temp/dataset/2/11_3.odb,Step-1,Increment      1: Step Time =    1.000,"PART-1-1",           350,       5.16355,       28.4353,            0.,NA,NA,"",       2.39003,      -2.25921,   779.896E-03,   2.23954E-09
C:/temp/dataset/2/11_3.odb,Step-1,Increment      1: Step Time =    1.000,"PART-1-1",           351,          3.75,           30.,            0.,NA,NA,"",       2.44664,      -2.34499,   697.895E-03,   4.46939E-09
C:/temp/dataset/2/11_3.odb,Step-1,Increment      1: Step Time =    1.000,"PART-1-1",           352,       2.51272,       28.6330,            0.,NA,NA,"",       2.35219,      -2.26613,   630.453E-03,   2.33314E-09
C:/temp/dataset/2/11_3.odb,Step-1,Increment      1: Step Time =    1.000,"PART-1-1",           353,       11.0463,       14.3537,            0.,NA,NA,"",       1.86106,      -1.47633,       1.13315,   592.893E-09
C:/temp/dataset/2/11_3.odb,Step-1,Increment      1: Step Time =    1.000,"PART-1-1",           354,       9.86747,       12.5470,            0.,NA,NA,"",       1.74036,      -1.37282,       1.06969,   3.76547E-06
C:/temp/dataset/2/11_3.odb,Step-1,Increment      1: Step Time =    1.000,"PART-1-1",           355,       11.1901,       11.5237,            0.,NA,NA,"",       1.74587,      -1.31734,       1.14572,   4.91955E-06
C:/temp/dataset/2/11_3.odb,Step-1,Increment      1: Step Time =    1.000,"PART-1-1",           356,       9.55073,       15.1783,            0.,NA,NA,"",       1.84638,      -1.52035,       1.04770,   670.293E-09
C:/temp/dataset/2/11_3.odb,Step-1,Increment      1: Step Time =    1.000,"PART-1-1",           357,       8.18591,       15.9712,            0.,NA,NA,"",       1.83918,      -1.56279,   969.665E-03,   310.604E-09
C:/temp/dataset/2/11_3.odb,Step-1,Increment      1: Step Time =    1.000,"PART-1-1",           358,       7.20669,       14.2932,            0.,NA,NA,"",       1.73001,      -1.46684,   917.235E-03,   777.683E-09
C:/temp/dataset/2/11_3.odb,Step-1,Increment      1: Step Time =    1.000,"PART-1-1",           359,       8.57151,       13.5002,            0.,NA,NA,"",       1.73766,      -1.42439,   995.270E-03,   961.280E-09
C:/temp/dataset/2/11_3.odb,Step-1,Increment      1: Step Time =    1.000,"PART-1-1",           360,       7.44377,       1.50598,            0.,NA,NA,"",       1.21004,  -747.802E-03,   951.309E-03,   166.212E-06
C:/temp/dataset/2/11_3.odb,Step-1,Increment      1: Step Time =    1.000,"PART-1-1",           361,       8.72836,   326.342E-03,            0.,NA,NA,"",       1.23239,  -683.563E-03,       1.02544,   120.762E-06
C:/temp/dataset/2/11_3.odb,Step-1,Increment      1: Step Time =    1.000,"PART-1-1",           362,       10.0261,       1.76283,            0.,NA,NA,"",       1.33729,  -766.321E-03,       1.09594,   65.0760E-06
C:/temp/dataset/2/11_3.odb,Step-1,Increment      1: Step Time =    1.000,"PART-1-1",           363,       8.74149,       2.94246,            0.,NA,NA,"",       1.31688,  -830.619E-03,       1.02188,   81.4350E-06
C:/temp/dataset/2/11_3.odb,Step-1,Increment      1: Step Time =    1.000,"PART-1-1",           364,       12.5045,       7.62102,            0.,NA,NA,"",       1.64691,      -1.09981,       1.22585,   30.3324E-06
C:/temp/dataset/2/11_3.odb,Step-1,Increment      1: Step Time =    1.000,"PART-1-1",           365,           15.,         8.125,            0.,NA,NA,"",       1.77373,      -1.13213,       1.36543,   18.9727E-06
C:/temp/dataset/2/11_3.odb,Step-1,Increment      1: Step Time =    1.000,"PART-1-1",           366,       13.7500,       9.30715,            0.,NA,NA,"",       1.76196,      -1.19667,       1.29324,   9.38005E-06
C:/temp/dataset/2/11_3.odb,Step-1,Increment      1: Step Time =    1.000,"PART-1-1",           367,      -1.45938,      -2.40358,            0.,NA,NA,"",   687.738E-03,  -525.056E-03,   444.184E-03,   4.57016E-03
C:/temp/dataset/2/11_3.odb,Step-1,Increment      1: Step Time =    1.000,"PART-1-1",           368,      -2.69869,      -3.52952,            0.,NA,NA,"",   593.863E-03,  -463.685E-03,   371.039E-03,   4.37540E-03
C:/temp/dataset/2/11_3.odb,Step-1,Increment      1: Step Time =    1.000,"PART-1-1",           369,         -1.25,           -5.,            0.,NA,NA,"",   597.247E-03,  -375.497E-03,   464.441E-03,   3.59760E-03
C:/temp/dataset/2/11_3.odb,Step-1,Increment      1: Step Time =    1.000,"PART-1-1",           370,  -10.6917E-03,      -3.87406,            0.,NA,NA,"",   695.934E-03,  -442.522E-03,   537.120E-03,   3.41313E-03
C:/temp/dataset/2/11_3.odb,Step-1,Increment      1: Step Time =    1.000,"PART-1-1",           371,      -13.3333,            5.,            0.,NA,NA,"",   880.183E-03,  -867.466E-03,  -149.080E-03,   436.830E-06
C:/temp/dataset/2/11_3.odb,Step-1,Increment      1: Step Time =    1.000,"PART-1-1",           372,          -15.,       3.54167,            0.,NA,NA,"",   828.122E-03,  -796.809E-03,  -225.571E-03,   393.475E-06
C:/temp/dataset/2/11_3.odb,Step-1,Increment      1: Step Time =    1.000,"PART-1-1",           373,      -13.2137,       2.05352,            0.,NA,NA,"",   740.464E-03,  -727.167E-03,  -139.694E-03,   1.95030E-03
C:/temp/dataset/2/11_3.odb,Step-1,Increment      1: Step Time =    1.000,"PART-1-1",           374,      -11.5470,       3.51185,            0.,NA,NA,"",   802.961E-03,  -800.264E-03,  -65.7601E-03,   2.04166E-03
C:/temp/dataset/2/11_3.odb,Step-1,Increment      1: Step Time =    1.000,"PART-1-1",           375,          -15.,      625.E-03,            0.,NA,NA,"",   692.590E-03,  -656.820E-03,  -219.700E-03,   2.50588E-03
C:/temp/dataset/2/11_3.odb,Step-1,Increment      1: Step Time =    1.000,"PART-1-1",           376,      -12.9883,      -1.02354,            0.,NA,NA,"",   589.619E-03,  -576.956E-03,  -121.545E-03,   3.61287E-03
C:/temp/dataset/2/11_3.odb,Step-1,Increment      1: Step Time =    1.000,"PART-1-1",           377,      -11.2019,   404.974E-03,            0.,NA,NA,"",   649.681E-03,  -647.992E-03,  -46.8219E-03,   4.14387E-03
C:/temp/dataset/2/11_3.odb,Step-1,Increment      1: Step Time =    1.000,"PART-1-1",           378,      -13.6690,      -3.88141,            0.,NA,NA,"",   465.321E-03,  -444.306E-03,  -138.261E-03,   5.38789E-03
C:/temp/dataset/2/11_3.odb,Step-1,Increment      1: Step Time =    1.000,"PART-1-1",           379,      -11.6573,      -2.61328,            0.,NA,NA,"",   504.342E-03,  -500.773E-03,  -59.8896E-03,   4.33541E-03
C:/temp/dataset/2/11_3.odb,Step-1,Increment      1: Step Time =    1.000,"PART-1-1",           380,          -15.,      -2.29167,            0.,NA,NA,"",   558.001E-03,  -518.489E-03,  -206.239E-03,   5.66002E-03
C:/temp/dataset/2/11_3.odb,Step-1,Increment      1: Step Time =    1.000,"PART-1-1",           381,           -5.,         -8.75,            0.,NA,NA,"",   320.320E-03,  -267.951E-03,   175.520E-03,   13.0464E-03
C:/temp/dataset/2/11_3.odb,Step-1,Increment      1: Step Time =    1.000,"PART-1-1",           382,      -6.37238,      -7.84264,            0.,NA,NA,"",   321.603E-03,  -289.315E-03,   140.446E-03,   9.88655E-03
C:/temp/dataset/2/11_3.odb,Step-1,Increment      1: Step Time =    1.000,"PART-1-1",           383,      -7.67841,      -9.42411,            0.,NA,NA,"",   248.473E-03,  -233.364E-03,   85.3250E-03,   6.69071E-03
C:/temp/dataset/2/11_3.odb,Step-1,Increment      1: Step Time =    1.000,"PART-1-1",           384,      -6.30603,      -10.3315,            0.,NA,NA,"",   243.585E-03,  -211.627E-03,   120.613E-03,   9.94267E-03
C:/temp/dataset/2/11_3.odb,Step-1,Increment      1: Step Time =    1.000,"PART-1-1",           385,      -13.6103,      -21.3688,            0.,NA,NA,"",   29.4234E-03,  -7.47993E-03,  -28.4567E-03,   5.77522E-03
C:/temp/dataset/2/11_3.odb,Step-1,Increment      1: Step Time =    1.000,"PART-1-1",           386,          -15.,      -22.7083,            0.,NA,NA,"",   29.6078E-03,  -4.89019E-03,  -29.2011E-03,   7.12839E-03
C:/temp/dataset/2/11_3.odb,Step-1,Increment      1: Step Time =    1.000,"PART-1-1",           387,      -13.6241,      -24.2925,            0.,NA,NA,"",   15.9184E-03,   3.02716E-03,  -15.6279E-03,   4.42985E-03
C:/temp/dataset/2/11_3.odb,Step-1,Increment      1: Step Time =    1.000,"PART-1-1",           388,      -12.2343,      -22.9530,            0.,NA,NA,"",   12.7577E-03,   2.12145E-03,  -12.5801E-03,   3.61494E-03
C:/temp/dataset/2/11_3.odb,Step-1,Increment      1: Step Time =    1.000,"PART-1-1",           389,           -5.,        -16.25,            0.,NA,NA,"",   120.387E-03,  -76.5658E-03,   92.9022E-03,   13.3467E-03
C:/temp/dataset/2/11_3.odb,Step-1,Increment      1: Step Time =    1.000,"PART-1-1",           390,      -6.06585,      -15.2329,            0.,NA,NA,"",   122.755E-03,  -90.3209E-03,   83.1323E-03,   10.6890E-03
C:/temp/dataset/2/11_3.odb,Step-1,Increment      1: Step Time =    1.000,"PART-1-1",           391,      -6.99530,      -16.6022,            0.,NA,NA,"",   81.0171E-03,  -59.7781E-03,   54.6840E-03,   8.48737E-03
C:/temp/dataset/2/11_3.odb,Step-1,Increment      1: Step Time =    1.000,"PART-1-1",           392,      -5.92946,      -17.6192,            0.,NA,NA,"",   77.0657E-03,  -46.3665E-03,   61.5571E-03,   11.3571E-03
C:/temp/dataset/2/11_3.odb,Step-1,Increment      1: Step Time =    1.000,"PART-1-1",           393,         -13.5,          -30.,            0.,NA,NA,"",            0.,   1.44944E-39,  -3.80565E-39,   1.90918E-03
C:/temp/dataset/2/11_3.odb,Step-1,Increment      1: Step Time =    1.000,"PART-1-1",           394,      -12.0804,      -28.6247,            0.,NA,NA,"",   3.76963E-03,   3.40952E-03,  -1.60788E-03,   2.51371E-03
C:/temp/dataset/2/11_3.odb,Step-1,Increment      1: Step Time =    1.000,"PART-1-1",           395,      -13.5804,      -27.1664,            0.,NA,NA,"",   7.43099E-03,   3.82329E-03,  -6.37198E-03,   3.27071E-03
C:/temp/dataset/2/11_3.odb,Step-1,Increment      1: Step Time =    1.000,"PART-1-1",           396,          -15.,      -28.5417,            0.,NA,NA,"",   2.81114E-03,   310.365E-06,  -2.79396E-03,   2.98810E-03
C:/temp/dataset/2/11_3.odb,Step-1,Increment      1: Step Time =    1.000,"PART-1-1",           397,          13.5,          -30.,            0.,NA,NA,"",            0.,  -226.767E-42,   535.627E-42,   494.035E-06
C:/temp/dataset/2/11_3.odb,Step-1,Increment      1: Step Time =    1.000,"PART-1-1",           398,           15.,        -28.75,            0.,NA,NA,"",   1.04701E-03,  -868.815E-06,   584.286E-06,   444.395E-06
C:/temp/dataset/2/11_3.odb,Step-1,Increment      1: Step Time =    1.000,"PART-1-1",           399,       13.4640,      -27.4843,            0.,NA,NA,"",   1.59343E-03,  -1.55377E-03,   353.291E-06,   260.355E-06
C:/temp/dataset/2/11_3.odb,Step-1,Increment      1: Step Time =    1.000,"PART-1-1",           400,       11.9640,      -28.7343,            0.,NA,NA,"",   785.261E-06,  -779.131E-06,   97.9269E-06,   398.967E-06
C:/temp/dataset/2/11_3.odb,Step-1,Increment      1: Step Time =    1.000,"PART-1-1",           401,       10.2658,      -24.9335,            0.,NA,NA,"",   3.12489E-03,  -3.12442E-03,  -54.4113E-06,   246.042E-06
C:/temp/dataset/2/11_3.odb,Step-1,Increment      1: Step Time =    1.000,"PART-1-1",           402,       8.77397,      -26.1861,            0.,NA,NA,"",   2.78482E-03,  -2.78412E-03,  -62.1563E-06,   399.684E-06
C:/temp/dataset/2/11_3.odb,Step-1,Increment      1: Step Time =    1.000,"PART-1-1",           403,       10.3945,      -27.4590,            0.,NA,NA,"",   1.76668E-03,  -1.76602E-03,   48.3769E-06,   424.122E-06
C:/temp/dataset/2/11_3.odb,Step-1,Increment      1: Step Time =    1.000,"PART-1-1",           404,       11.8863,      -26.2064,            0.,NA,NA,"",   2.36095E-03,  -2.35376E-03,   184.116E-06,   286.264E-06
C:/temp/dataset/2/11_3.odb,Step-1,Increment      1: Step Time =    1.000,"PART-1-1",           405,       8.93044,      -28.7247,            0.,NA,NA,"",   1.05513E-03,  -1.05346E-03,   59.2682E-06,   519.390E-06
C:/temp/dataset/2/11_3.odb,Step-1,Increment      1: Step Time =    1.000,"PART-1-1",           406,       7.31300,      -27.4411,            0.,NA,NA,"",   2.32496E-03,  -2.32414E-03,   61.4654E-06,   591.039E-06
C:/temp/dataset/2/11_3.odb,Step-1,Increment      1: Step Time =    1.000,"PART-1-1",           407,       5.88256,      -28.7164,            0.,NA,NA,"",   1.50041E-03,  -1.49245E-03,   154.318E-06,   755.453E-06
C:/temp/dataset/2/11_3.odb,Step-1,Increment      1: Step Time =    1.000,"PART-1-1",           408,           7.5,          -30.,            0.,NA,NA,"",            0.,  -764.279E-42,   376.557E-42,   700.694E-06
C:/temp/dataset/2/11_3.odb,Step-1,Increment      1: Step Time =    1.000,"PART-1-1",           409,       5.63995,      -26.1773,            0.,NA,NA,"",   3.64248E-03,  -3.63967E-03,   143.011E-06,   589.646E-06
C:/temp/dataset/2/11_3.odb,Step-1,Increment      1: Step Time =    1.000,"PART-1-1",           410,       3.92490,      -24.9166,            0.,NA,NA,"",   4.86366E-03,  -4.83357E-03,   540.166E-06,   701.039E-06
C:/temp/dataset/2/11_3.odb,Step-1,Increment      1: Step Time =    1.000,"PART-1-1",           411,       2.50142,      -26.1700,            0.,NA,NA,"",   4.91605E-03,  -4.74256E-03,   1.29447E-03,   961.928E-06
C:/temp/dataset/2/11_3.odb,Step-1,Increment      1: Step Time =    1.000,"PART-1-1",           412,       4.21647,      -27.4307,            0.,NA,NA,"",   3.20622E-03,  -3.17189E-03,   467.956E-06,   855.787E-06
C:/temp/dataset/2/11_3.odb,Step-1,Increment      1: Step Time =    1.000,"PART-1-1",           413,       1.12659,      -27.4308,            0.,NA,NA,"",   4.23493E-03,  -3.90422E-03,   1.64065E-03,   1.33776E-03
C:/temp/dataset/2/11_3.odb,Step-1,Increment      1: Step Time =    1.000,"PART-1-1",           414,  -207.324E-03,      -28.7165,            0.,NA,NA,"",   2.51536E-03,  -2.21080E-03,   1.19975E-03,   1.70030E-03
C:/temp/dataset/2/11_3.odb,Step-1,Increment      1: Step Time =    1.000,"PART-1-1",           415,           1.5,          -30.,            0.,NA,NA,"",            0.,  -1.41836E-39,   1.88683E-39,   1.45605E-03
C:/temp/dataset/2/11_3.odb,Step-1,Increment      1: Step Time =    1.000,"PART-1-1",           416,       2.83391,      -28.7143,            0.,NA,NA,"",   2.07640E-03,  -2.01775E-03,   490.042E-06,   1.13746E-03
C:/temp/dataset/2/11_3.odb,Step-1,Increment      1: Step Time =    1.000,"PART-1-1",           417,      -1.92078,      -27.4395,            0.,NA,NA,"",   5.03297E-03,  -3.36309E-03,   3.74439E-03,   2.17444E-03
C:/temp/dataset/2/11_3.odb,Step-1,Increment      1: Step Time =    1.000,"PART-1-1",           418,      -3.21345,      -28.7230,            0.,NA,NA,"",   2.38661E-03,  -1.22243E-03,   2.04977E-03,   2.28902E-03
C:/temp/dataset/2/11_3.odb,Step-1,Increment      1: Step Time =    1.000,"PART-1-1",           419,          -1.5,          -30.,            0.,NA,NA,"",            0.,  -1.29656E-39,   3.33605E-39,   1.76231E-03
C:/temp/dataset/2/11_3.odb,Step-1,Increment      1: Step Time =    1.000,"PART-1-1",           420,      -5.57419,      -22.4519,            0.,NA,NA,"",   24.7941E-03,  -5.31207E-03,   24.2184E-03,   5.97803E-03
C:/temp/dataset/2/11_3.odb,Step-1,Increment      1: Step Time =    1.000,"PART-1-1",           421,      -6.77537,      -23.6376,            0.,NA,NA,"",   16.9912E-03,  -11.1974E-06,   16.9912E-03,   5.13852E-03
C:/temp/dataset/2/11_3.odb,Step-1,Increment      1: Step Time =    1.000,"PART-1-1",           422,      -5.25528,      -24.9124,            0.,NA,NA,"",   13.1586E-03,  -1.94708E-03,   13.0137E-03,   4.02404E-03
C:/temp/dataset/2/11_3.odb,Step-1,Increment      1: Step Time =    1.000,"PART-1-1",           423,      -4.05411,      -23.7268,            0.,NA,NA,"",   16.4675E-03,  -5.91498E-03,   15.3686E-03,   4.79445E-03
C:/temp/dataset/2/11_3.odb,Step-1,Increment      1: Step Time =    1.000,"PART-1-1",           424,       13.4223,      -24.9720,            0.,NA,NA,"",   2.98450E-03,  -2.93076E-03,   563.852E-06,   85.0385E-06
C:/temp/dataset/2/11_3.odb,Step-1,Increment      1: Step Time =    1.000,"PART-1-1",           425,           15.,        -26.25,            0.,NA,NA,"",   2.60953E-03,  -2.35685E-03,   1.12023E-03,   106.317E-06
C:/temp/dataset/2/11_3.odb,Step-1,Increment      1: Step Time =    1.000,"PART-1-1",           426,       11.8021,      -23.6964,            0.,NA,NA,"",   3.45941E-03,  -3.45556E-03,   163.184E-06,   95.5386E-06
C:/temp/dataset/2/11_3.odb,Step-1,Increment      1: Step Time =    1.000,"PART-1-1",           427,       10.1355,      -22.4445,            0.,NA,NA,"",   3.91350E-03,  -3.90933E-03,  -180.586E-06,   81.4093E-06
C:/temp/dataset/2/11_3.odb,Step-1,Increment      1: Step Time =    1.000,"PART-1-1",           428,      -2.31424,      -24.9364,            0.,NA,NA,"",   10.4345E-03,  -5.86419E-03,   8.63072E-03,   2.90597E-03
C:/temp/dataset/2/11_3.odb,Step-1,Increment      1: Step Time =    1.000,"PART-1-1",           429,      -3.63092,      -26.1962,            0.,NA,NA,"",   8.53596E-03,  -3.15280E-03,   7.93236E-03,   3.28362E-03
C:/temp/dataset/2/11_3.odb,Step-1,Increment      1: Step Time =    1.000,"PART-1-1",           430,  -604.096E-03,      -26.1796,            0.,NA,NA,"",   6.70769E-03,  -5.27524E-03,   4.14305E-03,   1.93976E-03
C:/temp/dataset/2/11_3.odb,Step-1,Increment      1: Step Time =    1.000,"PART-1-1",           431,      -7.52977,      -11.9021,            0.,NA,NA,"",   178.692E-03,  -162.075E-03,   75.2517E-03,   7.31179E-03
C:/temp/dataset/2/11_3.odb,Step-1,Increment      1: Step Time =    1.000,"PART-1-1",           432,      -6.22373,      -12.8207,            0.,NA,NA,"",   175.988E-03,  -143.853E-03,   101.382E-03,   10.1534E-03
C:/temp/dataset/2/11_3.odb,Step-1,Increment      1: Step Time =    1.000,"PART-1-1",           433,           -5.,        -11.25,            0.,NA,NA,"",   243.134E-03,  -192.165E-03,   148.952E-03,   12.7383E-03
C:/temp/dataset/2/11_3.odb,Step-1,Increment      1: Step Time =    1.000,"PART-1-1",           434,      -10.0475,      -12.6788,            0.,NA,NA,"",   136.549E-03,  -136.306E-03,   8.15429E-03,   1.48589E-03
C:/temp/dataset/2/11_3.odb,Step-1,Increment      1: Step Time =    1.000,"PART-1-1",           435,           -5.,         -6.25,            0.,NA,NA,"",   408.118E-03,  -351.641E-03,   207.144E-03,   16.5346E-03
C:/temp/dataset/2/11_3.odb,Step-1,Increment      1: Step Time =    1.000,"PART-1-1",           436,      -7.88282,      -7.02961,            0.,NA,NA,"",   325.438E-03,  -312.628E-03,   90.4064E-03,   4.25173E-03
C:/temp/dataset/2/11_3.odb,Step-1,Increment      1: Step Time =    1.000,"PART-1-1",           437,      -13.8577,      -6.65334,            0.,NA,NA,"",   353.991E-03,  -329.784E-03,  -128.654E-03,   6.87828E-03
C:/temp/dataset/2/11_3.odb,Step-1,Increment      1: Step Time =    1.000,"PART-1-1",           438,      -12.5267,      -5.32641,            0.,NA,NA,"",   389.965E-03,  -380.546E-03,  -85.1922E-03,   4.35776E-03
C:/temp/dataset/2/11_3.odb,Step-1,Increment      1: Step Time =    1.000,"PART-1-1",           439,          -15.,      -5.20833,            0.,NA,NA,"",   431.938E-03,  -390.410E-03,  -184.799E-03,   8.30609E-03
C:/temp/dataset/2/11_3.odb,Step-1,Increment      1: Step Time =    1.000,"PART-1-1",           440,          1.25,           -5.,            0.,NA,NA,"",   724.223E-03,  -376.522E-03,   618.651E-03,   2.47238E-03
C:/temp/dataset/2/11_3.odb,Step-1,Increment      1: Step Time =    1.000,"PART-1-1",           441,       2.47079,      -3.83474,            0.,NA,NA,"",   816.838E-03,  -444.606E-03,   685.237E-03,   3.20156E-03
C:/temp/dataset/2/11_3.odb,Step-1,Increment      1: Step Time =    1.000,"PART-1-1",           442,       3.51261,  -149.180E-03,            0.,NA,NA,"",   979.060E-03,  -650.235E-03,   731.951E-03,   1.91471E-03
C:/temp/dataset/2/11_3.odb,Step-1,Increment      1: Step Time =    1.000,"PART-1-1",           443,       3.69085,      -2.58237,            0.,NA,NA,"",   909.674E-03,  -514.943E-03,   749.894E-03,   2.53879E-03
C:/temp/dataset/2/11_3.odb,Step-1,Increment      1: Step Time =    1.000,"PART-1-1",           444,       8.74868,       5.55605,            0.,NA,NA,"",       1.41147,  -977.747E-03,       1.01797,   78.2631E-06
C:/temp/dataset/2/11_3.odb,Step-1,Increment      1: Step Time =    1.000,"PART-1-1",           445,       10.0030,       7.12352,            0.,NA,NA,"",       1.52308,      -1.06790,       1.08598,   47.6849E-06
C:/temp/dataset/2/11_3.odb,Step-1,Increment      1: Step Time =    1.000,"PART-1-1",           446,       8.73640,       8.21697,            0.,NA,NA,"",       1.51566,      -1.12745,       1.01295,   31.6750E-06
C:/temp/dataset/2/11_3.odb,Step-1,Increment      1: Step Time =    1.000,"PART-1-1",           447,           15.,     -625.E-03,            0.,NA,NA,"",       1.52013,  -640.351E-03,       1.37868,   83.9820E-06
C:/temp/dataset/2/11_3.odb,Step-1,Increment      1: Step Time =    1.000,"PART-1-1",           448,       13.7714,   731.820E-03,            0.,NA,NA,"",       1.49017,  -714.461E-03,       1.30773,   76.5977E-06
C:/temp/dataset/2/11_3.odb,Step-1,Increment      1: Step Time =    1.000,"PART-1-1",           449,       12.5339,  -774.506E-03,            0.,NA,NA,"",       1.39049,  -628.009E-03,       1.24059,   66.6152E-06
C:/temp/dataset/2/11_3.odb,Step-1,Increment      1: Step Time =    1.000,"PART-1-1",           450,       7.40609,       11.8257,            0.,NA,NA,"",       1.62290,      -1.32835,   932.359E-03,   4.27349E-06
C:/temp/dataset/2/11_3.odb,Step-1,Increment      1: Step Time =    1.000,"PART-1-1",           451,       8.70206,       10.8725,            0.,NA,NA,"",       1.62597,      -1.27678,       1.00678,   8.91363E-06
C:/temp/dataset/2/11_3.odb,Step-1,Increment      1: Step Time =    1.000,"PART-1-1",           452,       11.2454,       8.75341,            0.,NA,NA,"",       1.63681,      -1.16156,       1.15323,   22.1157E-06
C:/temp/dataset/2/11_3.odb,Step-1,Increment      1: Step Time =    1.000,"PART-1-1",           453,       11.2622,       5.99112,            0.,NA,NA,"",       1.53449,      -1.00613,       1.15860,   49.3841E-06
C:/temp/dataset/2/11_3.odb,Step-1,Increment      1: Step Time =    1.000,"PART-1-1",           454,       13.8596,       24.3693,            0.,NA,NA,"",       2.40955,      -2.04423,       1.27555,   12.3129E-09
C:/temp/dataset/2/11_3.odb,Step-1,Increment      1: Step Time =    1.000,"PART-1-1",           455,       12.6110,       23.1199,            0.,NA,NA,"",       2.31219,      -1.97197,       1.20729,   56.9825E-09
C:/temp/dataset/2/11_3.odb,Step-1,Increment      1: Step Time =    1.000,"PART-1-1",           456,       13.7514,       21.4590,            0.,NA,NA,"",       2.27133,      -1.88034,       1.27408,   69.4560E-09
C:/temp/dataset/2/11_3.odb,Step-1,Increment      1: Step Time =    1.000,"PART-1-1",           457,           15.,       22.7083,            0.,NA,NA,"",       2.36950,      -1.95260,       1.34234,   40.9972E-09
C:/temp/dataset/2/11_3.odb,Step-1,Increment      1: Step Time =    1.000,"PART-1-1",           458,       8.83903,       17.2613,            0.,NA,NA,"",       1.92004,      -1.63640,       1.00436,   357.033E-09
C:/temp/dataset/2/11_3.odb,Step-1,Increment      1: Step Time =    1.000,"PART-1-1",           459,       10.5130,       17.3338,            0.,NA,NA,"",       1.97646,      -1.64313,       1.09842,   381.515E-09
C:/temp/dataset/2/11_3.odb,Step-1,Increment      1: Step Time =    1.000,"PART-1-1",           460,       8.72284,       19.1442,            0.,NA,NA,"",       2.00619,      -1.74215,   994.847E-03,   243.892E-09
C:/temp/dataset/2/11_3.odb,Step-1,Increment      1: Step Time =    1.000,"PART-1-1",           461,           15.,       28.5417,            0.,NA,NA,"",       2.64179,      -2.28077,       1.33310,   778.182E-12
C:/temp/dataset/2/11_3.odb,Step-1,Increment      1: Step Time =    1.000,"PART-1-1",           462,         13.75,           30.,            0.,NA,NA,"",       2.67625,      -2.36083,       1.26047,   947.369E-12
C:/temp/dataset/2/11_3.odb,Step-1,Increment      1: Step Time =    1.000,"PART-1-1",           463,       12.5875,       28.6551,            0.,NA,NA,"",       2.57815,      -2.28333,       1.19720,   898.785E-12
C:/temp/dataset/2/11_3.odb,Step-1,Increment      1: Step Time =    1.000,"PART-1-1",           464,       13.8375,       27.1968,            0.,NA,NA,"",       2.54300,      -2.20327,       1.26983,   1.16992E-09
C:/temp/dataset/2/11_3.odb,Step-1,Increment      1: Step Time =    1.000,"PART-1-1",           465,         11.25,           30.,            0.,NA,NA,"",       2.60938,      -2.35687,       1.11983,   1.66653E-09
C:/temp/dataset/2/11_3.odb,Step-1,Increment      1: Step Time =    1.000,"PART-1-1",           466,       10.1484,       28.7335,            0.,NA,NA,"",       2.51781,      -2.28387,       1.05986,   2.09271E-09
C:/temp/dataset/2/11_3.odb,Step-1,Increment      1: Step Time =    1.000,"PART-1-1",           467,       7.69941,       28.7139,            0.,NA,NA,"",       2.45838,      -2.27889,   922.116E-03,   2.22110E-09
C:/temp/dataset/2/11_3.odb,Step-1,Increment      1: Step Time =    1.000,"PART-1-1",           468,       9.09777,       27.4473,            0.,NA,NA,"",       2.42674,      -2.20985,       1.00279,   5.32602E-09
C:/temp/dataset/2/11_3.odb,Step-1,Increment      1: Step Time =    1.000,"PART-1-1",           469,          8.75,           30.,            0.,NA,NA,"",       2.54853,      -2.35291,   979.183E-03,   2.53398E-09
C:/temp/dataset/2/11_3.odb,Step-1,Increment      1: Step Time =    1.000,"PART-1-1",           470,  -9.87333E-03,       28.6960,            0.,NA,NA,"",       2.31773,      -2.26568,   488.439E-03,   1.45494E-09
C:/temp/dataset/2/11_3.odb,Step-1,Increment      1: Step Time =    1.000,"PART-1-1",           471,          1.25,           30.,            0.,NA,NA,"",       2.40644,      -2.34103,   557.251E-03,   2.97764E-09
C:/temp/dataset/2/11_3.odb,Step-1,Increment      1: Step Time =    1.000,"PART-1-1",           472,       4.87954,       25.6434,            0.,NA,NA,"",       2.23773,      -2.10169,   768.340E-03,   5.12614E-09
C:/temp/dataset/2/11_3.odb,Step-1,Increment      1: Step Time =    1.000,"PART-1-1",           473,      -5.00474,       28.7231,            0.,NA,NA,"",       2.26879,      -2.25929,   207.397E-03,   219.959E-12
C:/temp/dataset/2/11_3.odb,Step-1,Increment      1: Step Time =    1.000,"PART-1-1",           474,         -6.25,           30.,            0.,NA,NA,"",       2.33308,      -2.32915,   135.320E-03,   109.500E-12
C:/temp/dataset/2/11_3.odb,Step-1,Increment      1: Step Time =    1.000,"PART-1-1",           475,      -3.76303,       27.4393,            0.,NA,NA,"",       2.20678,      -2.18903,   279.286E-03,   644.554E-12
C:/temp/dataset/2/11_3.odb,Step-1,Increment      1: Step Time =    1.000,"PART-1-1",           476,      -3.77322,       24.9147,            0.,NA,NA,"",       2.06642,      -2.04699,   282.711E-03,   748.440E-12
C:/temp/dataset/2/11_3.odb,Step-1,Increment      1: Step Time =    1.000,"PART-1-1",           477,      -13.7476,       27.4926,            0.,NA,NA,"",       2.19448,      -2.17622,  -282.506E-03,   119.337E-12
C:/temp/dataset/2/11_3.odb,Step-1,Increment      1: Step Time =    1.000,"PART-1-1",           478,        -13.75,           30.,            0.,NA,NA,"",       2.33493,      -2.31728,  -286.612E-03,   110.450E-12
C:/temp/dataset/2/11_3.odb,Step-1,Increment      1: Step Time =    1.000,"PART-1-1",           479,          -15.,         28.75,            0.,NA,NA,"",       2.27286,      -2.24498,  -354.954E-03,   123.306E-12
C:/temp/dataset/2/11_3.odb,Step-1,Increment      1: Step Time =    1.000,"PART-1-1",           480,          -15.,         26.25,            0.,NA,NA,"",       2.13340,      -2.10433,  -350.995E-03,   115.235E-12
C:/temp/dataset/2/11_3.odb,Step-1,Increment      1: Step Time =    1.000,"PART-1-1",           481,      -12.4965,       26.2309,            0.,NA,NA,"",       2.11767,      -2.10722,  -210.123E-03,   117.891E-12
C:/temp/dataset/2/11_3.odb,Step-1,Increment      1: Step Time =    1.000,"PART-1-1",           482,      -10.0014,       23.7134,            0.,NA,NA,"",       1.97064,      -1.96954,  -65.7678E-03,   130.118E-12
C:/temp/dataset/2/11_3.odb,Step-1,Increment      1: Step Time =    1.000,"PART-1-1",           483,      -8.75535,       22.4567,            0.,NA,NA,"",       1.90083,      -1.90082,   6.32123E-03,   150.737E-12
C:/temp/dataset/2/11_3.odb,Step-1,Increment      1: Step Time =    1.000,"PART-1-1",           484,      -7.50515,       23.6891,            0.,NA,NA,"",       1.97355,      -1.97213,   74.7026E-03,   165.772E-12
C:/temp/dataset/2/11_3.odb,Step-1,Increment      1: Step Time =    1.000,"PART-1-1",           485,      -8.75118,       24.9458,            0.,NA,NA,"",       2.04086,      -2.04086,   2.61351E-03,   147.788E-12
C:/temp/dataset/2/11_3.odb,Step-1,Increment      1: Step Time =    1.000,"PART-1-1",           486,      -3.77419,       22.4219,            0.,NA,NA,"",       1.92817,      -1.90675,   286.604E-03,   781.970E-12
C:/temp/dataset/2/11_3.odb,Step-1,Increment      1: Step Time =    1.000,"PART-1-1",           487,      -5.00723,       21.2173,            0.,NA,NA,"",       1.85006,      -1.83703,   219.144E-03,   285.719E-12
C:/temp/dataset/2/11_3.odb,Step-1,Increment      1: Step Time =    1.000,"PART-1-1",           488,         -3.75,           20.,            0.,NA,NA,"",       1.79442,      -1.77054,   291.800E-03,   521.004E-12
C:/temp/dataset/2/11_3.odb,Step-1,Increment      1: Step Time =    1.000,"PART-1-1",           489,      -2.51696,       21.2046,            0.,NA,NA,"",       1.87500,      -1.84026,   359.261E-03,   816.581E-12
C:/temp/dataset/2/11_3.odb,Step-1,Increment      1: Step Time =    1.000,"PART-1-1",           490,         -8.75,           20.,            0.,NA,NA,"",       1.76265,      -1.76262,   10.5127E-03,   134.236E-12
C:/temp/dataset/2/11_3.odb,Step-1,Increment      1: Step Time =    1.000,"PART-1-1",           491,      -7.50331,       21.2223,            0.,NA,NA,"",       1.83505,      -1.83336,   78.7129E-03,   152.409E-12
C:/temp/dataset/2/11_3.odb,Step-1,Increment      1: Step Time =    1.000,"PART-1-1",           492,         -6.25,           20.,            0.,NA,NA,"",       1.77303,      -1.76658,   151.157E-03,   220.106E-12
C:/temp/dataset/2/11_3.odb,Step-1,Increment      1: Step Time =    1.000,"PART-1-1",           493,      -6.26054,       22.4396,            0.,NA,NA,"",       1.90945,      -1.90381,   146.700E-03,   258.638E-12
C:/temp/dataset/2/11_3.odb,Step-1,Increment      1: Step Time =    1.000,"PART-1-1",           494,         -1.25,           20.,            0.,NA,NA,"",       1.82643,      -1.77450,   432.444E-03,   2.64494E-09
C:/temp/dataset/2/11_3.odb,Step-1,Increment      1: Step Time =    1.000,"PART-1-1",           495,      -1.30453,       22.3853,            0.,NA,NA,"",       1.95548,      -1.90860,   425.599E-03,   1.82386E-09
C:/temp/dataset/2/11_3.odb,Step-1,Increment      1: Step Time =    1.000,"PART-1-1",           496,         -1.25,           30.,            0.,NA,NA,"",       2.37392,      -2.33707,   416.607E-03,   1.33536E-09
C:/temp/dataset/2/11_3.odb,Step-1,Increment      1: Step Time =    1.000,"PART-1-1",           497,      -2.50829,       28.7162,            0.,NA,NA,"",       2.28944,      -2.26286,   347.852E-03,   633.332E-12
C:/temp/dataset/2/11_3.odb,Step-1,Increment      1: Step Time =    1.000,"PART-1-1",           498,         -3.75,           30.,            0.,NA,NA,"",       2.34938,      -2.33311,   275.963E-03,   380.469E-12
C:/temp/dataset/2/11_3.odb,Step-1,Increment      1: Step Time =    1.000,"PART-1-1",           499,          3.75,           20.,            0.,NA,NA,"",       1.92001,      -1.78242,   713.732E-03,   25.7586E-09
C:/temp/dataset/2/11_3.odb,Step-1,Increment      1: Step Time =    1.000,"PART-1-1",           500,       4.75388,       21.0765,            0.,NA,NA,"",       1.99826,      -1.84457,   768.503E-03,   54.9496E-09
C:/temp/dataset/2/11_3.odb,Step-1,Increment      1: Step Time =    1.000,"PART-1-1",           501,          6.25,           30.,            0.,NA,NA,"",       2.49414,      -2.34895,   838.539E-03,   4.10834E-09
C:/temp/dataset/2/11_3.odb,Step-1,Increment      1: Step Time =    1.000,"PART-1-1",           502,       6.61296,       27.1492,            0.,NA,NA,"",       2.35329,      -2.18915,   863.473E-03,   4.56703E-09
C:/temp/dataset/2/11_3.odb,Step-1,Increment      1: Step Time =    1.000,"PART-1-1",           503,            5.,         16.25,            0.,NA,NA,"",       1.76062,      -1.57343,   789.994E-03,   765.834E-09
C:/temp/dataset/2/11_3.odb,Step-1,Increment      1: Step Time =    1.000,"PART-1-1",           504,       6.03202,       15.2452,            0.,NA,NA,"",       1.74007,      -1.51854,   849.645E-03,   599.520E-09
C:/temp/dataset/2/11_3.odb,Step-1,Increment      1: Step Time =    1.000,"PART-1-1",           505,       6.91243,       16.6330,            0.,NA,NA,"",       1.83253,      -1.59800,   896.975E-03,   365.289E-09
C:/temp/dataset/2/11_3.odb,Step-1,Increment      1: Step Time =    1.000,"PART-1-1",           506,            5.,         13.75,            0.,NA,NA,"",       1.63806,      -1.43279,   793.956E-03,   1.23534E-06
C:/temp/dataset/2/11_3.odb,Step-1,Increment      1: Step Time =    1.000,"PART-1-1",           507,       6.17466,       12.7979,            0.,NA,NA,"",       1.62778,      -1.38109,   861.544E-03,   782.451E-09
C:/temp/dataset/2/11_3.odb,Step-1,Increment      1: Step Time =    1.000,"PART-1-1",           508,       12.0086,       16.5092,            0.,NA,NA,"",       1.98965,      -1.59911,       1.18387,   317.263E-09
C:/temp/dataset/2/11_3.odb,Step-1,Increment      1: Step Time =    1.000,"PART-1-1",           509,           15.,        16.875,            0.,NA,NA,"",       2.11318,      -1.62443,       1.35158,   582.389E-09
C:/temp/dataset/2/11_3.odb,Step-1,Increment      1: Step Time =    1.000,"PART-1-1",           510,       13.3591,       18.2744,            0.,NA,NA,"",       2.11473,      -1.70056,       1.25705,   232.670E-09
C:/temp/dataset/2/11_3.odb,Step-1,Increment      1: Step Time =    1.000,"PART-1-1",           511,            5.,         11.25,            0.,NA,NA,"",       1.51866,      -1.29216,   797.915E-03,   4.36318E-06
C:/temp/dataset/2/11_3.odb,Step-1,Increment      1: Step Time =    1.000,"PART-1-1",           512,       6.23142,       10.2778,            0.,NA,NA,"",       1.51356,      -1.23942,   868.729E-03,   6.25807E-06
C:/temp/dataset/2/11_3.odb,Step-1,Increment      1: Step Time =    1.000,"PART-1-1",           513,            5.,          8.75,            0.,NA,NA,"",       1.40323,      -1.15154,   801.878E-03,   16.6958E-06
C:/temp/dataset/2/11_3.odb,Step-1,Increment      1: Step Time =    1.000,"PART-1-1",           514,       7.47251,       9.25684,            0.,NA,NA,"",       1.51185,      -1.18397,   940.171E-03,   30.5235E-06
C:/temp/dataset/2/11_3.odb,Step-1,Increment      1: Step Time =    1.000,"PART-1-1",           515,         11.25,           -5.,            0.,NA,NA,"",       1.23803,  -389.445E-03,       1.17518,   118.163E-06
C:/temp/dataset/2/11_3.odb,Step-1,Increment      1: Step Time =    1.000,"PART-1-1",           516,       11.2689,      -2.22707,            0.,NA,NA,"",       1.29225,  -544.647E-03,       1.17186,   103.962E-06
C:/temp/dataset/2/11_3.odb,Step-1,Increment      1: Step Time =    1.000,"PART-1-1",           517,          10.5,          -30.,            0.,NA,NA,"",            0.,  -529.495E-42,   270.033E-42,   475.628E-06
C:/temp/dataset/2/11_3.odb,Step-1,Increment      1: Step Time =    1.000,"PART-1-1",           518,           15.,        -23.75,            0.,NA,NA,"",   3.55697E-03,  -3.38609E-03,   1.08923E-03,   11.1891E-06
C:/temp/dataset/2/11_3.odb,Step-1,Increment      1: Step Time =    1.000,"PART-1-1",           519,          3.75,           -5.,            0.,NA,NA,"",   852.305E-03,  -380.212E-03,   762.799E-03,   2.56107E-03
C:/temp/dataset/2/11_3.odb,Step-1,Increment      1: Step Time =    1.000,"PART-1-1",           520,       4.97006,      -3.74763,            0.,NA,NA,"",   939.761E-03,  -450.238E-03,   824.886E-03,   1.71254E-03
C:/temp/dataset/2/11_3.odb,Step-1,Increment      1: Step Time =    1.000,"PART-1-1",           521,       4.85412,       3.76356,            0.,NA,NA,"",       1.18305,  -870.608E-03,   801.033E-03,   352.245E-06
C:/temp/dataset/2/11_3.odb,Step-1,Increment      1: Step Time =    1.000,"PART-1-1",           522,       3.33333,            5.,            0.,NA,NA,"",       1.17767,  -937.976E-03,   712.119E-03,   553.781E-06
C:/temp/dataset/2/11_3.odb,Step-1,Increment      1: Step Time =    1.000,"PART-1-1",           523,       1.45296,       3.58740,            0.,NA,NA,"",       1.04649,  -853.437E-03,   605.629E-03,   1.57365E-03
C:/temp/dataset/2/11_3.odb,Step-1,Increment      1: Step Time =    1.000,"PART-1-1",           524,       2.97375,       2.35096,            0.,NA,NA,"",       1.05090,  -787.949E-03,   695.362E-03,   1.56212E-03
C:/temp/dataset/2/11_3.odb,Step-1,Increment      1: Step Time =    1.000,"PART-1-1",           525,          6.25,           -5.,            0.,NA,NA,"",   974.862E-03,  -383.244E-03,   896.370E-03,   402.708E-06
C:/temp/dataset/2/11_3.odb,Step-1,Increment      1: Step Time =    1.000,"PART-1-1",           526,       12.4696,       10.4445,            0.,NA,NA,"",       1.75246,      -1.25864,       1.21941,   10.3048E-06
C:/temp/dataset/2/11_3.odb,Step-1,Increment      1: Step Time =    1.000,"PART-1-1",           527,           15.,       11.0417,            0.,NA,NA,"",       1.87939,      -1.29625,       1.36082,   2.62328E-06
C:/temp/dataset/2/11_3.odb,Step-1,Increment      1: Step Time =    1.000,"PART-1-1",           528,      -5.01382,       23.6808,            0.,NA,NA,"",       1.98726,      -1.97561,   214.872E-03,   351.216E-12
C:/temp/dataset/2/11_3.odb,Step-1,Increment      1: Step Time =    1.000,"PART-1-1",           529,      -2.53358,       23.6558,            0.,NA,NA,"",       2.00963,      -1.97813,   354.443E-03,   910.409E-12
C:/temp/dataset/2/11_3.odb,Step-1,Increment      1: Step Time =    1.000,"PART-1-1",           530,  -74.6816E-03,       23.6075,            0.,NA,NA,"",       2.03975,      -1.97931,   492.852E-03,   2.12021E-09
C:/temp/dataset/2/11_3.odb,Step-1,Increment      1: Step Time =    1.000,"PART-1-1",           531,      -6.62798,      -1.45964,            0.,NA,NA,"",   585.133E-03,  -563.416E-03,   157.935E-03,   4.43004E-03
C:/temp/dataset/2/11_3.odb,Step-1,Increment      1: Step Time =    1.000,"PART-1-1",           532,      -4.43070,      -2.38075,            0.,NA,NA,"",   588.096E-03,  -523.287E-03,   268.381E-03,   4.58533E-03
C:/temp/dataset/2/11_3.odb,Step-1,Increment      1: Step Time =    1.000,"PART-1-1",           533,      -3.64554,  -813.143E-03,            0.,NA,NA,"",   682.548E-03,  -605.613E-03,   314.809E-03,   4.11154E-03
C:/temp/dataset/2/11_3.odb,Step-1,Increment      1: Step Time =    1.000,"PART-1-1",           534,         -3.75,           -5.,            0.,NA,NA,"",   494.831E-03,  -384.517E-03,   311.455E-03,   9.69855E-03
C:/temp/dataset/2/11_3.odb,Step-1,Increment      1: Step Time =    1.000,"PART-1-1",           535,      -13.8599,      -9.43096,            0.,NA,NA,"",   256.701E-03,  -232.204E-03,  -109.440E-03,   7.30728E-03
C:/temp/dataset/2/11_3.odb,Step-1,Increment      1: Step Time =    1.000,"PART-1-1",           536,          -15.,      -11.0417,            0.,NA,NA,"",   228.728E-03,  -187.700E-03,  -130.710E-03,   10.0647E-03
C:/temp/dataset/2/11_3.odb,Step-1,Increment      1: Step Time =    1.000,"PART-1-1",           537,      -11.9984,      -19.8095,            0.,NA,NA,"",   24.4936E-03,  -15.5128E-03,  -18.9549E-03,   3.45620E-03
C:/temp/dataset/2/11_3.odb,Step-1,Increment      1: Step Time =    1.000,"PART-1-1",           538,      -13.3881,      -18.2324,            0.,NA,NA,"",   55.3755E-03,  -35.2071E-03,  -42.7423E-03,   6.20393E-03
C:/temp/dataset/2/11_3.odb,Step-1,Increment      1: Step Time =    1.000,"PART-1-1",           539,          -15.,      -19.7917,            0.,NA,NA,"",   56.0578E-03,  -23.8559E-03,  -50.7284E-03,   8.90147E-03
C:/temp/dataset/2/11_3.odb,Step-1,Increment      1: Step Time =    1.000,"PART-1-1",           540,           -5.,        -18.75,            0.,NA,NA,"",   69.0205E-03,  -33.7813E-03,   60.1885E-03,   16.9954E-03
C:/temp/dataset/2/11_3.odb,Step-1,Increment      1: Step Time =    1.000,"PART-1-1",           541,      -5.96138,      -20.0094,            0.,NA,NA,"",   41.1117E-03,  -11.3571E-03,   39.5119E-03,   10.4867E-03
C:/temp/dataset/2/11_3.odb,Step-1,Increment      1: Step Time =    1.000,"PART-1-1",           542,           -5.,        -13.75,            0.,NA,NA,"",   176.106E-03,  -128.130E-03,   120.813E-03,   12.8363E-03
C:/temp/dataset/2/11_3.odb,Step-1,Increment      1: Step Time =    1.000,"PART-1-1",           543,      -7.28958,      -14.3036,            0.,NA,NA,"",   123.271E-03,  -104.572E-03,   65.2728E-03,   7.87701E-03
C:/temp/dataset/2/11_3.odb,Step-1,Increment      1: Step Time =    1.000,"PART-1-1",           544,      -8.88285,      -11.0213,            0.,NA,NA,"",   187.282E-03,  -182.403E-03,   42.4697E-03,   4.18146E-03
C:/temp/dataset/2/11_3.odb,Step-1,Increment      1: Step Time =    1.000,"PART-1-1",           545,      -9.01222,      -8.51542,            0.,NA,NA,"",   263.662E-03,  -259.658E-03,   45.7780E-03,   3.62297E-03
C:/temp/dataset/2/11_3.odb,Step-1,Increment      1: Step Time =    1.000,"PART-1-1",           546,      -9.13424,  -715.290E-03,            0.,NA,NA,"",   596.933E-03,  -595.287E-03,   44.3037E-03,   4.03160E-03
C:/temp/dataset/2/11_3.odb,Step-1,Increment      1: Step Time =    1.000,"PART-1-1",           547,      -9.92186,      -2.42350,            0.,NA,NA,"",   510.174E-03,  -510.046E-03,   11.4514E-03,   4.30517E-03
C:/temp/dataset/2/11_3.odb,Step-1,Increment      1: Step Time =    1.000,"PART-1-1",           548,      -12.7176,      -7.95930,            0.,NA,NA,"",   290.511E-03,  -279.259E-03,  -80.0717E-03,   4.61578E-03
C:/temp/dataset/2/11_3.odb,Step-1,Increment      1: Step Time =    1.000,"PART-1-1",           549,          -15.,        -8.125,            0.,NA,NA,"",   321.283E-03,  -279.528E-03,  -158.389E-03,   9.67392E-03
C:/temp/dataset/2/11_3.odb,Step-1,Increment      1: Step Time =    1.000,"PART-1-1",           550,       11.2818,   528.104E-03,            0.,NA,NA,"",       1.36148,  -699.016E-03,       1.16834,   54.7877E-06
C:/temp/dataset/2/11_3.odb,Step-1,Increment      1: Step Time =    1.000,"PART-1-1",           551,       10.0167,  -924.457E-03,            0.,NA,NA,"",       1.26019,  -615.529E-03,       1.09964,   75.7292E-06
C:/temp/dataset/2/11_3.odb,Step-1,Increment      1: Step Time =    1.000,"PART-1-1",           552,       10.4320,       23.7699,            0.,NA,NA,"",       2.27919,      -2.00508,       1.08368,   51.3532E-09
C:/temp/dataset/2/11_3.odb,Step-1,Increment      1: Step Time =    1.000,"PART-1-1",           553,           15.,        25.625,            0.,NA,NA,"",       2.50396,      -2.11668,       1.33772,   4.51624E-09
C:/temp/dataset/2/11_3.odb,Step-1,Increment      1: Step Time =    1.000,"PART-1-1",           554,      -9.99539,       26.2124,            0.,NA,NA,"",       2.11128,      -2.11014,  -69.3887E-03,   122.005E-12
C:/temp/dataset/2/11_3.odb,Step-1,Increment      1: Step Time =    1.000,"PART-1-1",           555,          -15.,       -25.625,            0.,NA,NA,"",   13.2025E-03,   1.58549E-03,  -13.1070E-03,   5.08686E-03
C:/temp/dataset/2/11_3.odb,Step-1,Increment      1: Step Time =    1.000,"PART-1-1",           556,      -12.2044,      -25.8339,            0.,NA,NA,"",   8.72097E-03,   6.01605E-03,  -6.31368E-03,   3.06905E-03
C:/temp/dataset/2/11_3.odb,Step-1,Increment      1: Step Time =    1.000,"PART-1-1",           557,          -15.,       -16.875,            0.,NA,NA,"",   96.8083E-03,  -59.8250E-03,  -76.1105E-03,   9.87517E-03
C:/temp/dataset/2/11_3.odb,Step-1,Increment      1: Step Time =    1.000,"PART-1-1",           558,      -8.25880,      -15.9015,            0.,NA,NA,"",   78.3568E-03,  -69.0191E-03,   37.0965E-03,   5.41165E-03
C:/temp/dataset/2/11_3.odb,Step-1,Increment      1: Step Time =    1.000,"PART-1-1",           559,       7.56555,       17.9230,            0.,NA,NA,"",       1.91371,      -1.67161,   931.675E-03,   291.532E-09
C:/temp/dataset/2/11_3.odb,Step-1,Increment      1: Step Time =    1.000,"PART-1-1",           560,      -9.72707,       2.21069,            0.,NA,NA,"",   740.915E-03,  -740.717E-03,   17.1162E-03,   3.40340E-03
C:/temp/dataset/2/11_3.odb,Step-1,Increment      1: Step Time =    1.000,"PART-1-1",           561,      -8.18006,       3.69884,            0.,NA,NA,"",   824.210E-03,  -819.483E-03,   88.1482E-03,   3.65912E-03
C:/temp/dataset/2/11_3.odb,Step-1,Increment      1: Step Time =    1.000,"PART-1-1",           562,          -10.,            5.,            0.,NA,NA,"",   874.814E-03,  -874.804E-03,   4.23751E-03,   2.76528E-03
C:/temp/dataset/2/11_3.odb,Step-1,Increment      1: Step Time =    1.000,"PART-1-1",           563,      -10.3433,      -7.69771,            0.,NA,NA,"",   286.848E-03,  -286.846E-03,   984.887E-06,   1.08672E-03
C:/temp/dataset/2/11_3.odb,Step-1,Increment      1: Step Time =    1.000,"PART-1-1",           564,      -11.5611,      -6.59494,            0.,NA,NA,"",   331.363E-03,  -328.400E-03,  -44.2108E-03,   2.86272E-03
C:/temp/dataset/2/11_3.odb,Step-1,Increment      1: Step Time =    1.000,"PART-1-1",           565,      -9.40089,      -20.7816,            0.,NA,NA,"",   11.0127E-03,  -6.09427E-03,   9.17279E-03,   2.62921E-03
C:/temp/dataset/2/11_3.odb,Step-1,Increment      1: Step Time =    1.000,"PART-1-1",           566,      -8.21757,      -22.2064,            0.,NA,NA,"",   16.0378E-03,  -147.117E-06,   16.0371E-03,   4.08952E-03
C:/temp/dataset/2/11_3.odb,Step-1,Increment      1: Step Time =    1.000,"PART-1-1",           567,      -6.89894,      -21.2078,            0.,NA,NA,"",   28.5100E-03,  -5.24159E-03,   28.0240E-03,   5.92544E-03
C:/temp/dataset/2/11_3.odb,Step-1,Increment      1: Step Time =    1.000,"PART-1-1",           568,      -9.14285,      -28.6800,            0.,NA,NA,"",   3.41710E-03,   3.33351E-03,   751.188E-06,   2.03115E-03
C:/temp/dataset/2/11_3.odb,Step-1,Increment      1: Step Time =    1.000,"PART-1-1",           569,      -10.7232,      -27.3047,            0.,NA,NA,"",   5.81049E-03,   5.73714E-03,  -920.333E-06,   1.85412E-03
C:/temp/dataset/2/11_3.odb,Step-1,Increment      1: Step Time =    1.000,"PART-1-1",           570,         -10.5,          -30.,            0.,NA,NA,"",            0.,   2.68497E-39,  -642.259E-42,   2.04000E-03
C:/temp/dataset/2/11_3.odb,Step-1,Increment      1: Step Time =    1.000,"PART-1-1",           571,      -4.89633,      -27.4366,            0.,NA,NA,"",   5.27706E-03,  -351.429E-06,   5.26535E-03,   2.83623E-03
C:/temp/dataset/2/11_3.odb,Step-1,Increment      1: Step Time =    1.000,"PART-1-1",           572,      -6.18287,      -28.7136,            0.,NA,NA,"",   2.39444E-03,   1.10745E-03,   2.12294E-03,   2.39094E-03
C:/temp/dataset/2/11_3.odb,Step-1,Increment      1: Step Time =    1.000,"PART-1-1",           573,          -4.5,          -30.,            0.,NA,NA,"",            0.,  -174.809E-42,   4.16535E-39,   1.81721E-03
C:/temp/dataset/2/11_3.odb,Step-1,Increment      1: Step Time =    1.000,"PART-1-1",           574,       12.5384,       2.02620,            0.,NA,NA,"",       1.46475,  -785.150E-03,       1.23654,   44.4993E-06
C:/temp/dataset/2/11_3.odb,Step-1,Increment      1: Step Time =    1.000,"PART-1-1",           575,           15.,       2.29167,            0.,NA,NA,"",       1.59227,  -804.030E-03,       1.37436,   97.8203E-06
C:/temp/dataset/2/11_3.odb,Step-1,Increment      1: Step Time =    1.000,"PART-1-1",           576,       9.96595,       9.83263,            0.,NA,NA,"",       1.62925,      -1.22027,       1.07954,   17.2021E-06
C:/temp/dataset/2/11_3.odb,Step-1,Increment      1: Step Time =    1.000,"PART-1-1",           577,           15.,       19.7917,            0.,NA,NA,"",       2.23899,      -1.78851,       1.34696,   208.606E-09
C:/temp/dataset/2/11_3.odb,Step-1,Increment      1: Step Time =    1.000,"PART-1-1",           578,       7.90800,       20.1372,            0.,NA,NA,"",       2.03121,      -1.79672,   947.434E-03,   155.096E-09
C:/temp/dataset/2/11_3.odb,Step-1,Increment      1: Step Time =    1.000,"PART-1-1",           579,       8.41916,       21.3934,            0.,NA,NA,"",       2.10695,      -1.86820,   974.200E-03,   115.419E-09
C:/temp/dataset/2/11_3.odb,Step-1,Increment      1: Step Time =    1.000,"PART-1-1",           580,       6.50486,       21.1025,            0.,NA,NA,"",       2.04199,      -1.84880,   866.968E-03,   117.743E-09
C:/temp/dataset/2/11_3.odb,Step-1,Increment      1: Step Time =    1.000,"PART-1-1",           581,           4.5,          -30.,            0.,NA,NA,"",            0.,  -1.10027E-39,   864.747E-42,   1.04141E-03
C:/temp/dataset/2/11_3.odb,Step-1,Increment      1: Step Time =    1.000,"PART-1-1",           582,       3.62857,      -22.4261,            0.,NA,NA,"",   4.98584E-03,  -4.96381E-03,   468.118E-06,   403.172E-06
C:/temp/dataset/2/11_3.odb,Step-1,Increment      1: Step Time =    1.000,"PART-1-1",           583,       2.16864,      -23.6665,            0.,NA,NA,"",   5.93478E-03,  -5.71282E-03,   1.60790E-03,   811.744E-06
C:/temp/dataset/2/11_3.odb,Step-1,Increment      1: Step Time =    1.000,"PART-1-1",           584,      -2.73954,      -22.4743,            0.,NA,NA,"",   16.8932E-03,  -8.86628E-03,   14.3795E-03,   3.54645E-03
C:/temp/dataset/2/11_3.odb,Step-1,Increment      1: Step Time =    1.000,"PART-1-1",           585,  -999.676E-03,      -23.6839,            0.,NA,NA,"",   9.80785E-03,  -7.16815E-03,   6.69414E-03,   2.21487E-03
C:/temp/dataset/2/11_3.odb,Step-1,Increment      1: Step Time =    1.000,"PART-1-1",           586,      -7.82572,      -27.3936,            0.,NA,NA,"",   5.36751E-03,   3.76510E-03,   3.82546E-03,   2.37406E-03
C:/temp/dataset/2/11_3.odb,Step-1,Increment      1: Step Time =    1.000,"PART-1-1",           587,      -6.52069,      -26.1528,            0.,NA,NA,"",   8.61699E-03,   1.77311E-03,   8.43259E-03,   3.63932E-03
C:/temp/dataset/2/11_3.odb,Step-1,Increment      1: Step Time =    1.000,"PART-1-1",           588,      -8.08310,      -24.7829,            0.,NA,NA,"",   10.0696E-03,   3.95125E-03,   9.26195E-03,   3.27804E-03
C:/temp/dataset/2/11_3.odb,Step-1,Increment      1: Step Time =    1.000,"PART-1-1",           589,      -9.38814,      -26.0237,            0.,NA,NA,"",   6.66282E-03,   6.02079E-03,   2.85363E-03,   2.50603E-03
C:/temp/dataset/2/11_3.odb,Step-1,Increment      1: Step Time =    1.000,"PART-1-1",           590,          -7.5,          -30.,            0.,NA,NA,"",            0.,   1.63338E-39,   2.86355E-39,   1.83512E-03
C:/temp/dataset/2/11_3.odb,Step-1,Increment      1: Step Time =    1.000,"PART-1-1",           591,       7.73182,       24.8866,            0.,NA,NA,"",       2.26351,      -2.06363,   930.000E-03,   19.8458E-09
C:/temp/dataset/2/11_3.odb,Step-1,Increment      1: Step Time =    1.000,"PART-1-1",           592,       8.21760,       26.2797,            0.,NA,NA,"",       2.34600,      -2.14277,   955.123E-03,   13.5345E-09
C:/temp/dataset/2/11_3.odb,Step-1,Increment      1: Step Time =    1.000,"PART-1-1",           593,       6.12718,       25.7561,            0.,NA,NA,"",       2.27045,      -2.11000,   838.350E-03,   11.5698E-09
C:/temp/dataset/2/11_3.odb,Step-1,Increment      1: Step Time =    1.000,"PART-1-1",           594,       5.38844,       22.1508,            0.,NA,NA,"",       2.06806,      -1.90601,   802.500E-03,   34.0607E-09
C:/temp/dataset/2/11_3.odb,Step-1,Increment      1: Step Time =    1.000,"PART-1-1",           595,      -3.37677,   775.412E-03,            0.,NA,NA,"",   763.830E-03,  -688.539E-03,   330.680E-03,   3.38823E-03
C:/temp/dataset/2/11_3.odb,Step-1,Increment      1: Step Time =    1.000,"PART-1-1",           596,      -3.41233,       2.84116,            0.,NA,NA,"",   861.545E-03,  -796.182E-03,   329.171E-03,   3.10079E-03
C:/temp/dataset/2/11_3.odb,Step-1,Increment      1: Step Time =    1.000,"PART-1-1",           597,      -11.2482,       24.9673,            0.,NA,NA,"",       2.04277,      -2.03811,  -137.898E-03,   124.215E-12
C:/temp/dataset/2/11_3.odb,Step-1,Increment      1: Step Time =    1.000,"PART-1-1",           598,       5.16292,       24.1270,            0.,NA,NA,"",       2.16482,      -2.01683,   786.684E-03,   12.4386E-09
C:/temp/dataset/2/11_3.odb,Step-1,Increment      1: Step Time =    1.000,"PART-1-1",           599,            0.,            5.,            0.,NA,NA,"",       1.06467,  -928.590E-03,   520.806E-03,   2.54902E-03
C:/temp/dataset/2/11_3.odb,Step-1,Increment      1: Step Time =    1.000,"PART-1-1",           600,      -1.80204,       3.95011,            0.,NA,NA,"",   958.623E-03,  -862.351E-03,   418.700E-03,   3.30638E-03
C:/temp/dataset/2/11_3.odb,Step-1,Increment      1: Step Time =    1.000,"PART-1-1",           601,       9.59799,       22.9228,            0.,NA,NA,"",       2.21450,      -1.95611,       1.03810,   64.4021E-09
C:/temp/dataset/2/11_3.odb,Step-1,Increment      1: Step Time =    1.000,"PART-1-1",           602,       8.30932,       22.9391,            0.,NA,NA,"",       2.18043,      -1.95498,   965.573E-03,   53.8519E-09
C:/temp/dataset/2/11_3.odb,Step-1,Increment      1: Step Time =    1.000,"PART-1-1",           603,      -1.93269,      -1.01257,            0.,NA,NA,"",   727.778E-03,  -598.296E-03,   414.370E-03,   3.88691E-03
C:/temp/dataset/2/11_3.odb,Step-1,Increment      1: Step Time =    1.000,"PART-1-1",           604,      -8.69440,      -13.5596,            0.,NA,NA,"",   123.286E-03,  -117.217E-03,   38.2067E-03,   4.59872E-03
C:/temp/dataset/2/11_3.odb,Step-1,Increment      1: Step Time =    1.000,"PART-1-1",           605,       6.07991,       2.65614,            0.,NA,NA,"",       1.19066,  -810.327E-03,   872.377E-03,   310.692E-06
C:/temp/dataset/2/11_3.odb,Step-1,Increment      1: Step Time =    1.000,"PART-1-1",           606,       4.75906,       1.28045,            0.,NA,NA,"",       1.08370,  -731.153E-03,   799.882E-03,   839.847E-06
C:/temp/dataset/2/11_3.odb,Step-1,Increment      1: Step Time =    1.000,"PART-1-1",           607,       10.0234,       4.43547,            0.,NA,NA,"",       1.42533,  -916.647E-03,       1.09148,   71.7039E-06
C:/temp/dataset/2/11_3.odb,Step-1,Increment      1: Step Time =    1.000,"PART-1-1",           608,       7.46673,       4.06304,            0.,NA,NA,"",       1.30170,  -891.732E-03,   948.284E-03,   104.986E-06
C:/temp/dataset/2/11_3.odb,Step-1,Increment      1: Step Time =    1.000,"PART-1-1",           609,  -317.165E-03,  -486.862E-03,            0.,NA,NA,"",   808.519E-03,  -628.524E-03,   508.587E-03,   3.68808E-03
C:/temp/dataset/2/11_3.odb,Step-1,Increment      1: Step Time =    1.000,"PART-1-1",           610,       1.72730,   921.331E-03,            0.,NA,NA,"",   944.349E-03,  -707.241E-03,   625.784E-03,   2.44649E-03
C:/temp/dataset/2/11_3.odb,Step-1,Increment      1: Step Time =    1.000,"PART-1-1",           611,      -4.63664,      -21.2535,            0.,NA,NA,"",   30.8826E-03,  -10.6078E-03,   29.0036E-03,   8.81858E-03
C:/temp/dataset/2/11_3.odb,Step-1,Increment      1: Step Time =    1.000,"PART-1-1",           612,       11.2827,       3.26092,            0.,NA,NA,"",       1.44291,  -852.547E-03,       1.16411,   56.8550E-06
C:/temp/dataset/2/11_3.odb,Step-1,Increment      1: Step Time =    1.000,"PART-1-1",           613,      -11.4502,      -4.36864,            0.,NA,NA,"",   423.087E-03,  -420.524E-03,  -46.4990E-03,   3.73236E-03
C:/temp/dataset/2/11_3.odb,Step-1,Increment      1: Step Time =    1.000,"PART-1-1",           614,      -10.8693,      -24.5529,            0.,NA,NA,"",   6.56599E-03,   6.10584E-03,  -2.41474E-03,   2.53069E-03
C:/temp/dataset/2/11_3.odb,Step-1,Increment      1: Step Time =    1.000,"PART-1-1",           615,      -9.52531,      -23.3517,            0.,NA,NA,"",   6.72665E-03,   3.94090E-03,   5.45134E-03,   3.06830E-03
C:/temp/dataset/2/11_3.odb,Step-1,Increment      1: Step Time =    1.000,"PART-1-1",           616,      -10.8903,      -21.7518,            0.,NA,NA,"",   4.53818E-03,  -1.26007E-03,  -4.35973E-03,   2.75200E-03
C:/temp/dataset/2/11_3.odb,Step-1,Increment      1: Step Time =    1.000,"PART-1-1",           617,       3.33333,          -20.,            0.,NA,NA,"",   3.86088E-03,  -3.82724E-03,   508.576E-06,   196.254E-06
C:/temp/dataset/2/11_3.odb,Step-1,Increment      1: Step Time =    1.000,"PART-1-1",           618,       1.83446,      -21.2108,            0.,NA,NA,"",   4.94887E-03,  -4.64300E-03,   1.71287E-03,   293.212E-06
C:/temp/dataset/2/11_3.odb,Step-1,Increment      1: Step Time =    1.000,"PART-1-1",           619,       5.12744,      -21.2153,            0.,NA,NA,"",   4.34502E-03,  -4.34041E-03,  -200.068E-06,   82.0292E-06
C:/temp/dataset/2/11_3.odb,Step-1,Increment      1: Step Time =    1.000,"PART-1-1",           620,            0.,          -20.,            0.,NA,NA,"",   5.17624E-03,  -2.93493E-03,   4.26376E-03,   374.519E-06
C:/temp/dataset/2/11_3.odb,Step-1,Increment      1: Step Time =    1.000,"PART-1-1",           621,      -1.43624,      -21.2208,            0.,NA,NA,"",   11.1280E-03,  -6.49375E-03,   9.03683E-03,   1.63909E-03
C:/temp/dataset/2/11_3.odb,Step-1,Increment      1: Step Time =    1.000,"PART-1-1",           622,   398.228E-03,      -22.4316,            0.,NA,NA,"",   7.48504E-03,  -6.26859E-03,   4.09031E-03,   1.22819E-03
C:/temp/dataset/2/11_3.odb,Step-1,Increment      1: Step Time =    1.000,"PART-1-1",           623,   770.736E-03,      -24.9188,            0.,NA,NA,"",   6.75752E-03,  -6.03548E-03,   3.03926E-03,   1.47685E-03
C:/temp/dataset/2/11_3.odb,Step-1,Increment      1: Step Time =    1.000,"PART-1-1",           624,      -3.33333,          -20.,            0.,NA,NA,"",   17.0046E-03,  -5.11197E-03,   16.2181E-03,   4.67177E-03
C:/temp/dataset/2/11_3.odb,Step-1,Increment      1: Step Time =    1.000,"PART-1-1",           625,       8.69606,       24.2205,            0.,NA,NA,"",       2.25440,      -2.02768,   985.301E-03,   36.7321E-09
C:/temp/dataset/2/11_3.odb,Step-1,Increment      1: Step Time =    1.000,"PART-1-1",           626,      -3.33333,            5.,            0.,NA,NA,"",   971.335E-03,  -911.983E-03,   334.331E-03,   4.80559E-03
C:/temp/dataset/2/11_3.odb,Step-1,Increment      1: Step Time =    1.000,"PART-1-1",           627,      -4.94363,       3.89105,            0.,NA,NA,"",   879.822E-03,  -844.166E-03,   247.932E-03,   4.36560E-03
C:/temp/dataset/2/11_3.odb,Step-1,Increment      1: Step Time =    1.000,"PART-1-1",           628,      -6.66667,            5.,            0.,NA,NA,"",   905.672E-03,  -891.093E-03,   161.847E-03,   5.05249E-03
C:/temp/dataset/2/11_3.odb,Step-1,Increment      1: Step Time =    1.000,"PART-1-1",           629,           10.,          -20.,            0.,NA,NA,"",   4.36754E-03,  -4.36208E-03,  -218.377E-06,   51.2076E-06
C:/temp/dataset/2/11_3.odb,Step-1,Increment      1: Step Time =    1.000,"PART-1-1",           630,       8.42239,      -21.2201,            0.,NA,NA,"",   4.20365E-03,  -4.18138E-03,  -432.088E-06,   29.1508E-06
C:/temp/dataset/2/11_3.odb,Step-1,Increment      1: Step Time =    1.000,"PART-1-1",           631,       6.66667,          -20.,            0.,NA,NA,"",   4.17493E-03,  -4.15011E-03,  -454.555E-06,   81.3064E-06
C:/temp/dataset/2/11_3.odb,Step-1,Increment      1: Step Time =    1.000,"PART-1-1",           632,       9.53008,       25.0675,            0.,NA,NA,"",       2.31845,      -2.07665,       1.03088,   20.8031E-09
