ODB Name,Step,Frame,Part Instance Name,    êﬂì_ÉâÉxÉã,X,Y,Z,Section Name,Material Name,Section Point,   U-Magnitude,          U-U1,          U-U2,       S-Mises
C:/temp/dataset/2/12_9.odb,Step-1,Increment      1: Step Time =    1.000,"PART-1-1",             1,          -15.,           20.,            0.,NA,NA,"",       3.03439,      -2.99234,  -503.436E-03,   3.37247E-09
C:/temp/dataset/2/12_9.odb,Step-1,Increment      1: Step Time =    1.000,"PART-1-1",             2,          -15.,           25.,            0.,NA,NA,"",       3.48841,      -3.44878,  -524.313E-03,   3.33783E-09
C:/temp/dataset/2/12_9.odb,Step-1,Increment      1: Step Time =    1.000,"PART-1-1",             3,          -10.,           20.,            0.,NA,NA,"",       3.01358,      -3.01322,  -46.9950E-03,   3.42238E-09
C:/temp/dataset/2/12_9.odb,Step-1,Increment      1: Step Time =    1.000,"PART-1-1",             4,           -5.,           20.,            0.,NA,NA,"",       3.06160,      -3.03409,   409.446E-03,   3.44615E-09
C:/temp/dataset/2/12_9.odb,Step-1,Increment      1: Step Time =    1.000,"PART-1-1",             5,            0.,           20.,            0.,NA,NA,"",       3.17531,      -3.05497,   865.886E-03,   3.61300E-09
C:/temp/dataset/2/12_9.odb,Step-1,Increment      1: Step Time =    1.000,"PART-1-1",             6,            5.,           20.,            0.,NA,NA,"",       3.34804,      -3.07585,       1.32233,   28.8479E-09
C:/temp/dataset/2/12_9.odb,Step-1,Increment      1: Step Time =    1.000,"PART-1-1",             7,            5.,          12.5,            0.,NA,NA,"",       2.74775,      -2.39119,       1.35365,   1.86265E-06
C:/temp/dataset/2/12_9.odb,Step-1,Increment      1: Step Time =    1.000,"PART-1-1",             8,            5.,            5.,            0.,NA,NA,"",       2.19801,      -1.70679,       1.38495,   252.940E-06
C:/temp/dataset/2/12_9.odb,Step-1,Increment      1: Step Time =    1.000,"PART-1-1",             9,           -5.,            5.,            0.,NA,NA,"",       1.71778,      -1.65487,   460.632E-03,   4.63505E-03
C:/temp/dataset/2/12_9.odb,Step-1,Increment      1: Step Time =    1.000,"PART-1-1",            10,          -15.,            5.,            0.,NA,NA,"",       1.64048,      -1.59148,  -397.942E-03,   352.047E-06
C:/temp/dataset/2/12_9.odb,Step-1,Increment      1: Step Time =    1.000,"PART-1-1",            11,          -15.,         -3.75,            0.,NA,NA,"",   909.685E-03,  -844.987E-03,  -336.933E-03,   10.5834E-03
C:/temp/dataset/2/12_9.odb,Step-1,Increment      1: Step Time =    1.000,"PART-1-1",            12,          -15.,         -12.5,            0.,NA,NA,"",   343.119E-03,  -279.033E-03,  -199.678E-03,   17.0490E-03
C:/temp/dataset/2/12_9.odb,Step-1,Increment      1: Step Time =    1.000,"PART-1-1",            13,          -15.,        -21.25,            0.,NA,NA,"",   66.7685E-03,  -19.8793E-03,  -63.7405E-03,   14.1121E-03
C:/temp/dataset/2/12_9.odb,Step-1,Increment      1: Step Time =    1.000,"PART-1-1",            14,          -15.,          -30.,            0.,NA,NA,"",            0.,  -105.225E-42,  -937.682E-42,   2.17288E-03
C:/temp/dataset/2/12_9.odb,Step-1,Increment      1: Step Time =    1.000,"PART-1-1",            15,           15.,          -30.,            0.,NA,NA,"",            0.,  -585.605E-42,   967.022E-42,   1.62064E-03
C:/temp/dataset/2/12_9.odb,Step-1,Increment      1: Step Time =    1.000,"PART-1-1",            16,           15.,          -25.,            0.,NA,NA,"",   6.90128E-03,  -6.43384E-03,   2.49667E-03,   22.9853E-06
C:/temp/dataset/2/12_9.odb,Step-1,Increment      1: Step Time =    1.000,"PART-1-1",            17,           15.,          -20.,            0.,NA,NA,"",   10.2310E-03,  -9.96615E-03,   2.31296E-03,   7.16055E-06
C:/temp/dataset/2/12_9.odb,Step-1,Increment      1: Step Time =    1.000,"PART-1-1",            18,            5.,          -20.,            0.,NA,NA,"",   9.04347E-03,  -9.02687E-03,  -547.542E-06,   314.499E-06
C:/temp/dataset/2/12_9.odb,Step-1,Increment      1: Step Time =    1.000,"PART-1-1",            19,           -5.,          -20.,            0.,NA,NA,"",   87.2748E-03,  -24.6805E-03,   83.7124E-03,   32.7338E-03
C:/temp/dataset/2/12_9.odb,Step-1,Increment      1: Step Time =    1.000,"PART-1-1",            20,           -5.,         -12.5,            0.,NA,NA,"",   415.339E-03,  -310.887E-03,   275.419E-03,   25.8003E-03
C:/temp/dataset/2/12_9.odb,Step-1,Increment      1: Step Time =    1.000,"PART-1-1",            21,           -5.,           -5.,            0.,NA,NA,"",   889.439E-03,  -762.382E-03,   458.122E-03,   32.1031E-03
C:/temp/dataset/2/12_9.odb,Step-1,Increment      1: Step Time =    1.000,"PART-1-1",            22,            0.,           -5.,            0.,NA,NA,"",       1.25443,  -779.249E-03,   983.041E-03,   4.71455E-03
C:/temp/dataset/2/12_9.odb,Step-1,Increment      1: Step Time =    1.000,"PART-1-1",            23,            5.,           -5.,            0.,NA,NA,"",       1.63318,  -794.552E-03,       1.42687,   372.355E-06
C:/temp/dataset/2/12_9.odb,Step-1,Increment      1: Step Time =    1.000,"PART-1-1",            24,           10.,           -5.,            0.,NA,NA,"",       2.05167,  -814.578E-03,       1.88303,   44.8586E-06
C:/temp/dataset/2/12_9.odb,Step-1,Increment      1: Step Time =    1.000,"PART-1-1",            25,           15.,           -5.,            0.,NA,NA,"",       2.48416,  -835.399E-03,       2.33948,   2.25894E-06
C:/temp/dataset/2/12_9.odb,Step-1,Increment      1: Step Time =    1.000,"PART-1-1",            26,           15.,          3.75,            0.,NA,NA,"",       2.82390,      -1.63411,       2.30306,   14.2535E-06
C:/temp/dataset/2/12_9.odb,Step-1,Increment      1: Step Time =    1.000,"PART-1-1",            27,           15.,          12.5,            0.,NA,NA,"",       3.32511,      -2.43294,       2.26653,   1.44173E-06
C:/temp/dataset/2/12_9.odb,Step-1,Increment      1: Step Time =    1.000,"PART-1-1",            28,           15.,         21.25,            0.,NA,NA,"",       3.92643,      -3.23171,       2.22999,   18.0708E-09
C:/temp/dataset/2/12_9.odb,Step-1,Increment      1: Step Time =    1.000,"PART-1-1",            29,           15.,           30.,            0.,NA,NA,"",       4.58869,      -4.03048,       2.19345,   3.08958E-09
C:/temp/dataset/2/12_9.odb,Step-1,Increment      1: Step Time =    1.000,"PART-1-1",            30,           7.5,           30.,            0.,NA,NA,"",       4.27432,      -3.99917,       1.50879,   6.94833E-09
C:/temp/dataset/2/12_9.odb,Step-1,Increment      1: Step Time =    1.000,"PART-1-1",            31,            0.,           30.,            0.,NA,NA,"",       4.05254,      -3.96785,   824.132E-03,   3.21374E-09
C:/temp/dataset/2/12_9.odb,Step-1,Increment      1: Step Time =    1.000,"PART-1-1",            32,          -7.5,           30.,            0.,NA,NA,"",       3.93901,      -3.93654,   139.471E-03,   3.21237E-09
C:/temp/dataset/2/12_9.odb,Step-1,Increment      1: Step Time =    1.000,"PART-1-1",            33,          -15.,           30.,            0.,NA,NA,"",       3.94309,      -3.90522,  -545.191E-03,   3.38210E-09
C:/temp/dataset/2/12_9.odb,Step-1,Increment      1: Step Time =    1.000,"PART-1-1",            34,          -15.,          22.5,            0.,NA,NA,"",       3.26130,      -3.22056,  -513.874E-03,   3.30812E-09
C:/temp/dataset/2/12_9.odb,Step-1,Increment      1: Step Time =    1.000,"PART-1-1",            35,         -12.5,           20.,            0.,NA,NA,"",       3.01536,      -3.00278,  -275.215E-03,   3.40541E-09
C:/temp/dataset/2/12_9.odb,Step-1,Increment      1: Step Time =    1.000,"PART-1-1",            36,          -7.5,           20.,            0.,NA,NA,"",       3.02908,      -3.02365,   181.225E-03,   3.44057E-09
C:/temp/dataset/2/12_9.odb,Step-1,Increment      1: Step Time =    1.000,"PART-1-1",            37,          -2.5,           20.,            0.,NA,NA,"",       3.11059,      -3.04453,   637.666E-03,   3.51097E-09
C:/temp/dataset/2/12_9.odb,Step-1,Increment      1: Step Time =    1.000,"PART-1-1",            38,           2.5,           20.,            0.,NA,NA,"",       3.25481,      -3.06541,       1.09411,   5.77862E-09
C:/temp/dataset/2/12_9.odb,Step-1,Increment      1: Step Time =    1.000,"PART-1-1",            39,            5.,           15.,            0.,NA,NA,"",       2.94372,      -2.61941,       1.34321,   653.411E-09
C:/temp/dataset/2/12_9.odb,Step-1,Increment      1: Step Time =    1.000,"PART-1-1",            40,            5.,          17.5,            0.,NA,NA,"",       3.14408,      -2.84763,       1.33277,   94.2448E-09
C:/temp/dataset/2/12_9.odb,Step-1,Increment      1: Step Time =    1.000,"PART-1-1",            41,            5.,           7.5,            0.,NA,NA,"",       2.37334,      -1.93478,       1.37454,   38.7273E-06
C:/temp/dataset/2/12_9.odb,Step-1,Increment      1: Step Time =    1.000,"PART-1-1",            42,            5.,           10.,            0.,NA,NA,"",       2.55719,      -2.16298,       1.36409,   8.52355E-06
C:/temp/dataset/2/12_9.odb,Step-1,Increment      1: Step Time =    1.000,"PART-1-1",            43,      -1.66667,            5.,            0.,NA,NA,"",       1.84610,      -1.67839,   768.829E-03,   1.45116E-03
C:/temp/dataset/2/12_9.odb,Step-1,Increment      1: Step Time =    1.000,"PART-1-1",            44,       1.66667,            5.,            0.,NA,NA,"",       2.00805,      -1.69380,       1.07856,   190.868E-06
C:/temp/dataset/2/12_9.odb,Step-1,Increment      1: Step Time =    1.000,"PART-1-1",            45,      -11.6667,            5.,            0.,NA,NA,"",       1.60853,      -1.60437,  -115.594E-03,   1.53793E-03
C:/temp/dataset/2/12_9.odb,Step-1,Increment      1: Step Time =    1.000,"PART-1-1",            46,      -8.33333,            5.,            0.,NA,NA,"",       1.63472,      -1.62628,   165.984E-03,   4.79673E-03
C:/temp/dataset/2/12_9.odb,Step-1,Increment      1: Step Time =    1.000,"PART-1-1",            47,          -15.,  -833.333E-03,            0.,NA,NA,"",       1.14863,      -1.08827,  -367.452E-03,   5.75631E-03
C:/temp/dataset/2/12_9.odb,Step-1,Increment      1: Step Time =    1.000,"PART-1-1",            48,          -15.,       2.08333,            0.,NA,NA,"",       1.39538,      -1.34077,  -386.527E-03,   1.27638E-03
C:/temp/dataset/2/12_9.odb,Step-1,Increment      1: Step Time =    1.000,"PART-1-1",            49,          -15.,      -9.58333,            0.,NA,NA,"",   500.212E-03,  -434.547E-03,  -247.753E-03,   16.3575E-03
C:/temp/dataset/2/12_9.odb,Step-1,Increment      1: Step Time =    1.000,"PART-1-1",            50,          -15.,      -6.66667,            0.,NA,NA,"",   690.130E-03,  -623.947E-03,  -294.904E-03,   14.5077E-03
C:/temp/dataset/2/12_9.odb,Step-1,Increment      1: Step Time =    1.000,"PART-1-1",            51,          -15.,      -18.3333,            0.,NA,NA,"",   127.451E-03,  -71.4206E-03,  -105.560E-03,   16.5983E-03
C:/temp/dataset/2/12_9.odb,Step-1,Increment      1: Step Time =    1.000,"PART-1-1",            52,          -15.,      -15.4167,            0.,NA,NA,"",   218.923E-03,  -157.649E-03,  -151.902E-03,   17.4585E-03
C:/temp/dataset/2/12_9.odb,Step-1,Increment      1: Step Time =    1.000,"PART-1-1",            53,          -15.,      -27.0833,            0.,NA,NA,"",   11.1965E-03,   5.90009E-03,  -9.51582E-03,   6.45476E-03
C:/temp/dataset/2/12_9.odb,Step-1,Increment      1: Step Time =    1.000,"PART-1-1",            54,          -15.,      -24.1667,            0.,NA,NA,"",   31.6985E-03,   2.75456E-03,  -31.5786E-03,   10.3242E-03
C:/temp/dataset/2/12_9.odb,Step-1,Increment      1: Step Time =    1.000,"PART-1-1",            55,           12.,          -30.,            0.,NA,NA,"",            0.,  -1.79956E-39,   1.48656E-39,   806.437E-06
C:/temp/dataset/2/12_9.odb,Step-1,Increment      1: Step Time =    1.000,"PART-1-1",            56,            9.,          -30.,            0.,NA,NA,"",            0.,  -1.79059E-39,  -521.458E-42,   1.23478E-03
C:/temp/dataset/2/12_9.odb,Step-1,Increment      1: Step Time =    1.000,"PART-1-1",            57,            6.,          -30.,            0.,NA,NA,"",            0.,  -3.61902E-39,   3.34577E-39,   1.83701E-03
C:/temp/dataset/2/12_9.odb,Step-1,Increment      1: Step Time =    1.000,"PART-1-1",            58,            3.,          -30.,            0.,NA,NA,"",            0.,  -3.53823E-39,   1.81864E-39,   2.74997E-03
C:/temp/dataset/2/12_9.odb,Step-1,Increment      1: Step Time =    1.000,"PART-1-1",            59,            0.,          -30.,            0.,NA,NA,"",            0.,  -7.24058E-39,   10.3772E-39,   3.77936E-03
C:/temp/dataset/2/12_9.odb,Step-1,Increment      1: Step Time =    1.000,"PART-1-1",            60,           -3.,          -30.,            0.,NA,NA,"",            0.,  -6.66290E-39,   14.3139E-39,   4.35567E-03
C:/temp/dataset/2/12_9.odb,Step-1,Increment      1: Step Time =    1.000,"PART-1-1",            61,           -6.,          -30.,            0.,NA,NA,"",            0.,  -2.17684E-39,   13.0025E-39,   4.33266E-03
C:/temp/dataset/2/12_9.odb,Step-1,Increment      1: Step Time =    1.000,"PART-1-1",            62,           -9.,          -30.,            0.,NA,NA,"",            0.,   8.99325E-39,   12.2149E-39,   4.33231E-03
C:/temp/dataset/2/12_9.odb,Step-1,Increment      1: Step Time =    1.000,"PART-1-1",            63,          -12.,          -30.,            0.,NA,NA,"",            0.,   5.90900E-39,  -784.305E-42,   4.22995E-03
C:/temp/dataset/2/12_9.odb,Step-1,Increment      1: Step Time =    1.000,"PART-1-1",            64,           15.,         -27.5,            0.,NA,NA,"",   4.29255E-03,  -3.66355E-03,   2.23704E-03,   517.152E-06
C:/temp/dataset/2/12_9.odb,Step-1,Increment      1: Step Time =    1.000,"PART-1-1",            65,           15.,         -22.5,            0.,NA,NA,"",   8.73511E-03,  -8.40979E-03,   2.36172E-03,   51.7407E-06
C:/temp/dataset/2/12_9.odb,Step-1,Increment      1: Step Time =    1.000,"PART-1-1",            66,       8.33333,          -20.,            0.,NA,NA,"",   9.59316E-03,  -9.54414E-03,  -968.591E-06,   142.337E-06
C:/temp/dataset/2/12_9.odb,Step-1,Increment      1: Step Time =    1.000,"PART-1-1",            67,       11.6667,          -20.,            0.,NA,NA,"",   9.86370E-03,  -9.85949E-03,   288.038E-06,   71.3071E-06
C:/temp/dataset/2/12_9.odb,Step-1,Increment      1: Step Time =    1.000,"PART-1-1",            68,      -1.66667,          -20.,            0.,NA,NA,"",   22.2104E-03,  -6.90296E-03,   21.1104E-03,   6.00516E-03
C:/temp/dataset/2/12_9.odb,Step-1,Increment      1: Step Time =    1.000,"PART-1-1",            69,       1.66667,          -20.,            0.,NA,NA,"",   9.09464E-03,  -7.96384E-03,   4.39201E-03,   1.16878E-03
C:/temp/dataset/2/12_9.odb,Step-1,Increment      1: Step Time =    1.000,"PART-1-1",            70,           -5.,          -15.,            0.,NA,NA,"",   296.262E-03,  -198.960E-03,   219.514E-03,   25.9024E-03
C:/temp/dataset/2/12_9.odb,Step-1,Increment      1: Step Time =    1.000,"PART-1-1",            71,           -5.,         -17.5,            0.,NA,NA,"",   195.375E-03,  -106.682E-03,   163.678E-03,   29.2773E-03
C:/temp/dataset/2/12_9.odb,Step-1,Increment      1: Step Time =    1.000,"PART-1-1",            72,           -5.,          -7.5,            0.,NA,NA,"",   708.593E-03,  -597.958E-03,   380.197E-03,   27.6636E-03
C:/temp/dataset/2/12_9.odb,Step-1,Increment      1: Step Time =    1.000,"PART-1-1",            73,           -5.,          -10.,            0.,NA,NA,"",   553.511E-03,  -444.759E-03,   329.490E-03,   25.0998E-03
C:/temp/dataset/2/12_9.odb,Step-1,Increment      1: Step Time =    1.000,"PART-1-1",            74,          -2.5,           -5.,            0.,NA,NA,"",       1.07241,  -764.415E-03,   752.159E-03,   15.7376E-03
C:/temp/dataset/2/12_9.odb,Step-1,Increment      1: Step Time =    1.000,"PART-1-1",            75,           2.5,           -5.,            0.,NA,NA,"",       1.43448,  -785.322E-03,       1.20042,   1.53423E-03
C:/temp/dataset/2/12_9.odb,Step-1,Increment      1: Step Time =    1.000,"PART-1-1",            76,           7.5,           -5.,            0.,NA,NA,"",       1.83993,  -804.317E-03,       1.65481,   160.439E-06
C:/temp/dataset/2/12_9.odb,Step-1,Increment      1: Step Time =    1.000,"PART-1-1",            77,          12.5,           -5.,            0.,NA,NA,"",       2.26672,  -824.961E-03,       2.11127,   7.86107E-06
C:/temp/dataset/2/12_9.odb,Step-1,Increment      1: Step Time =    1.000,"PART-1-1",            78,           15.,   833.333E-03,            0.,NA,NA,"",       2.68906,      -1.36784,       2.31518,   22.6409E-06
C:/temp/dataset/2/12_9.odb,Step-1,Increment      1: Step Time =    1.000,"PART-1-1",            79,           15.,      -2.08333,            0.,NA,NA,"",       2.57487,      -1.10162,       2.32731,   8.88735E-06
C:/temp/dataset/2/12_9.odb,Step-1,Increment      1: Step Time =    1.000,"PART-1-1",            80,           15.,       9.58333,            0.,NA,NA,"",       3.14436,      -2.16668,       2.27871,   2.27838E-06
C:/temp/dataset/2/12_9.odb,Step-1,Increment      1: Step Time =    1.000,"PART-1-1",            81,           15.,       6.66667,            0.,NA,NA,"",       2.97653,      -1.90040,       2.29090,   1.65129E-06
C:/temp/dataset/2/12_9.odb,Step-1,Increment      1: Step Time =    1.000,"PART-1-1",            82,           15.,       18.3333,            0.,NA,NA,"",       3.71769,      -2.96546,       2.24217,   81.3845E-09
C:/temp/dataset/2/12_9.odb,Step-1,Increment      1: Step Time =    1.000,"PART-1-1",            83,           15.,       15.4167,            0.,NA,NA,"",       3.51678,      -2.69920,       2.25435,   464.964E-09
C:/temp/dataset/2/12_9.odb,Step-1,Increment      1: Step Time =    1.000,"PART-1-1",            84,           15.,       27.0833,            0.,NA,NA,"",       4.36282,      -3.76423,       2.20563,   5.09407E-09
C:/temp/dataset/2/12_9.odb,Step-1,Increment      1: Step Time =    1.000,"PART-1-1",            85,           15.,       24.1667,            0.,NA,NA,"",       4.14180,      -3.49797,       2.21781,   10.5042E-09
C:/temp/dataset/2/12_9.odb,Step-1,Increment      1: Step Time =    1.000,"PART-1-1",            86,           10.,           30.,            0.,NA,NA,"",       4.36969,      -4.00961,       1.73701,   6.83811E-09
C:/temp/dataset/2/12_9.odb,Step-1,Increment      1: Step Time =    1.000,"PART-1-1",            87,          12.5,           30.,            0.,NA,NA,"",       4.47470,      -4.02005,       1.96523,   4.17491E-09
C:/temp/dataset/2/12_9.odb,Step-1,Increment      1: Step Time =    1.000,"PART-1-1",            88,           2.5,           30.,            0.,NA,NA,"",       4.11512,      -3.97829,       1.05235,   3.79064E-09
C:/temp/dataset/2/12_9.odb,Step-1,Increment      1: Step Time =    1.000,"PART-1-1",            89,            5.,           30.,            0.,NA,NA,"",       4.18925,      -3.98873,       1.28057,   5.36046E-09
C:/temp/dataset/2/12_9.odb,Step-1,Increment      1: Step Time =    1.000,"PART-1-1",            90,           -5.,           30.,            0.,NA,NA,"",       3.96406,      -3.94698,   367.691E-03,   3.15306E-09
C:/temp/dataset/2/12_9.odb,Step-1,Increment      1: Step Time =    1.000,"PART-1-1",            91,          -2.5,           30.,            0.,NA,NA,"",       4.00203,      -3.95741,   595.911E-03,   3.11542E-09
C:/temp/dataset/2/12_9.odb,Step-1,Increment      1: Step Time =    1.000,"PART-1-1",            92,         -12.5,           30.,            0.,NA,NA,"",       3.92847,      -3.91566,  -316.970E-03,   3.30036E-09
C:/temp/dataset/2/12_9.odb,Step-1,Increment      1: Step Time =    1.000,"PART-1-1",            93,          -10.,           30.,            0.,NA,NA,"",       3.92710,      -3.92610,  -88.7498E-03,   3.26471E-09
C:/temp/dataset/2/12_9.odb,Step-1,Increment      1: Step Time =    1.000,"PART-1-1",            94,          -15.,          27.5,            0.,NA,NA,"",       3.71568,      -3.67700,  -534.752E-03,   3.38405E-09
C:/temp/dataset/2/12_9.odb,Step-1,Increment      1: Step Time =    1.000,"PART-1-1",            95,      -12.4978,       24.9766,            0.,NA,NA,"",       3.46972,      -3.45709,  -295.791E-03,   3.34374E-09
C:/temp/dataset/2/12_9.odb,Step-1,Increment      1: Step Time =    1.000,"PART-1-1",            96,      -7.49872,       27.4475,            0.,NA,NA,"",       3.70658,      -3.70353,   150.246E-03,   3.27494E-09
C:/temp/dataset/2/12_9.odb,Step-1,Increment      1: Step Time =    1.000,"PART-1-1",            97,      -7.50661,       22.4446,            0.,NA,NA,"",       3.25126,      -3.24679,   170.414E-03,   3.38993E-09
C:/temp/dataset/2/12_9.odb,Step-1,Increment      1: Step Time =    1.000,"PART-1-1",            98,      -2.53392,       22.4091,            0.,NA,NA,"",       3.32352,      -3.26431,   624.510E-03,   3.47034E-09
C:/temp/dataset/2/12_9.odb,Step-1,Increment      1: Step Time =    1.000,"PART-1-1",            99,  -19.7467E-03,       27.3919,            0.,NA,NA,"",       3.82162,      -3.72969,   833.219E-03,   3.39788E-09
C:/temp/dataset/2/12_9.odb,Step-1,Increment      1: Step Time =    1.000,"PART-1-1",           100,       2.31326,       22.2671,            0.,NA,NA,"",       3.44138,      -3.27159,       1.06759,   5.06337E-09
C:/temp/dataset/2/12_9.odb,Step-1,Increment      1: Step Time =    1.000,"PART-1-1",           101,       7.89882,       27.4278,            0.,NA,NA,"",       4.07478,      -3.76602,       1.55594,   3.63255E-09
C:/temp/dataset/2/12_9.odb,Step-1,Increment      1: Step Time =    1.000,"PART-1-1",           102,       6.74061,       20.0564,            0.,NA,NA,"",       3.42502,      -3.08827,       1.48099,   40.4798E-09
C:/temp/dataset/2/12_9.odb,Step-1,Increment      1: Step Time =    1.000,"PART-1-1",           103,       6.76082,       17.7755,            0.,NA,NA,"",       3.24381,      -2.88013,       1.49236,   170.641E-09
C:/temp/dataset/2/12_9.odb,Step-1,Increment      1: Step Time =    1.000,"PART-1-1",           104,       7.34933,       13.0959,            0.,NA,NA,"",       2.91207,      -2.45539,       1.56562,   1.23417E-06
C:/temp/dataset/2/12_9.odb,Step-1,Increment      1: Step Time =    1.000,"PART-1-1",           105,       12.5251,      -2.17932,            0.,NA,NA,"",       2.36418,      -1.08251,       2.10179,   26.5024E-06
C:/temp/dataset/2/12_9.odb,Step-1,Increment      1: Step Time =    1.000,"PART-1-1",           106,       11.8446,      -24.9441,            0.,NA,NA,"",   6.57956E-03,  -6.56845E-03,   382.240E-06,   395.851E-06
C:/temp/dataset/2/12_9.odb,Step-1,Increment      1: Step Time =    1.000,"PART-1-1",           107,       2.44158,      -2.66949,            0.,NA,NA,"",       1.54742,  -995.222E-03,       1.18492,   1.10246E-03
C:/temp/dataset/2/12_9.odb,Step-1,Increment      1: Step Time =    1.000,"PART-1-1",           108,       7.46163,      -2.37632,            0.,NA,NA,"",       1.94401,      -1.04329,       1.64034,   138.970E-06
C:/temp/dataset/2/12_9.odb,Step-1,Increment      1: Step Time =    1.000,"PART-1-1",           109,       7.48217,       7.95809,            0.,NA,NA,"",       2.55056,      -1.98694,       1.59920,   23.5225E-06
C:/temp/dataset/2/12_9.odb,Step-1,Increment      1: Step Time =    1.000,"PART-1-1",           110,      -5.01446,       22.4347,            0.,NA,NA,"",       3.28052,      -3.25629,   397.960E-03,   3.41115E-09
C:/temp/dataset/2/12_9.odb,Step-1,Increment      1: Step Time =    1.000,"PART-1-1",           111,  -75.1424E-03,       22.3615,            0.,NA,NA,"",       3.37869,      -3.27024,   849.166E-03,   3.70329E-09
C:/temp/dataset/2/12_9.odb,Step-1,Increment      1: Step Time =    1.000,"PART-1-1",           112,       4.50776,       22.1530,            0.,NA,NA,"",       3.50770,      -3.27034,       1.26840,   7.61028E-09
C:/temp/dataset/2/12_9.odb,Step-1,Increment      1: Step Time =    1.000,"PART-1-1",           113,       7.06405,       15.4904,            0.,NA,NA,"",       3.07952,      -2.67280,       1.52958,   463.017E-09
C:/temp/dataset/2/12_9.odb,Step-1,Increment      1: Step Time =    1.000,"PART-1-1",           114,       7.46285,       10.5556,            0.,NA,NA,"",       2.73191,      -2.22397,       1.58659,   5.28712E-06
C:/temp/dataset/2/12_9.odb,Step-1,Increment      1: Step Time =    1.000,"PART-1-1",           115,      -2.89738,      -2.05905,            0.,NA,NA,"",       1.24493,      -1.03886,   686.029E-03,   11.3579E-03
C:/temp/dataset/2/12_9.odb,Step-1,Increment      1: Step Time =    1.000,"PART-1-1",           116,      -7.61206,      -10.6629,            0.,NA,NA,"",   418.087E-03,  -380.077E-03,   174.178E-03,   15.2171E-03
C:/temp/dataset/2/12_9.odb,Step-1,Increment      1: Step Time =    1.000,"PART-1-1",           117,      -6.85891,      -17.7385,            0.,NA,NA,"",   134.794E-03,  -82.9129E-03,   106.278E-03,   19.8463E-03
C:/temp/dataset/2/12_9.odb,Step-1,Increment      1: Step Time =    1.000,"PART-1-1",           118,       11.9280,      -27.4687,            0.,NA,NA,"",   3.62358E-03,  -3.59913E-03,   420.258E-06,   908.502E-06
C:/temp/dataset/2/12_9.odb,Step-1,Increment      1: Step Time =    1.000,"PART-1-1",           119,      -7.44747,      -13.1413,            0.,NA,NA,"",   296.383E-03,  -254.985E-03,   151.081E-03,   15.7288E-03
C:/temp/dataset/2/12_9.odb,Step-1,Increment      1: Step Time =    1.000,"PART-1-1",           120,      -7.13169,      -15.4658,            0.,NA,NA,"",   205.818E-03,  -158.749E-03,   130.995E-03,   17.7162E-03
C:/temp/dataset/2/12_9.odb,Step-1,Increment      1: Step Time =    1.000,"PART-1-1",           121,      -8.02089,      -5.87394,            0.,NA,NA,"",   711.839E-03,  -686.017E-03,   189.991E-03,   8.39835E-03
C:/temp/dataset/2/12_9.odb,Step-1,Increment      1: Step Time =    1.000,"PART-1-1",           122,      -7.74476,      -8.18529,            0.,NA,NA,"",   560.799E-03,  -527.395E-03,   190.657E-03,   13.9949E-03
C:/temp/dataset/2/12_9.odb,Step-1,Increment      1: Step Time =    1.000,"PART-1-1",           123,  -21.3834E-03,      -2.74811,            0.,NA,NA,"",       1.37624,  -981.094E-03,   965.143E-03,   6.39239E-03
C:/temp/dataset/2/12_9.odb,Step-1,Increment      1: Step Time =    1.000,"PART-1-1",           124,       4.94012,      -2.49525,            0.,NA,NA,"",       1.74211,      -1.02193,       1.41088,   170.566E-06
C:/temp/dataset/2/12_9.odb,Step-1,Increment      1: Step Time =    1.000,"PART-1-1",           125,       10.0127,      -2.27482,            0.,NA,NA,"",       2.15361,      -1.06329,       1.87281,   58.5388E-06
C:/temp/dataset/2/12_9.odb,Step-1,Increment      1: Step Time =    1.000,"PART-1-1",           126,       10.2967,       27.4669,            0.,NA,NA,"",       4.17551,      -3.77960,       1.77468,   3.82556E-09
C:/temp/dataset/2/12_9.odb,Step-1,Increment      1: Step Time =    1.000,"PART-1-1",           127,       12.6750,       27.3103,            0.,NA,NA,"",       4.26875,      -3.77523,       1.99244,   5.45518E-09
C:/temp/dataset/2/12_9.odb,Step-1,Increment      1: Step Time =    1.000,"PART-1-1",           128,       2.52543,       27.2659,            0.,NA,NA,"",       3.87822,      -3.72881,       1.06609,   3.81856E-09
C:/temp/dataset/2/12_9.odb,Step-1,Increment      1: Step Time =    1.000,"PART-1-1",           129,       5.32711,       26.8707,            0.,NA,NA,"",       3.93376,      -3.70443,       1.32350,   4.16996E-09
C:/temp/dataset/2/12_9.odb,Step-1,Increment      1: Step Time =    1.000,"PART-1-1",           130,      -5.00948,       27.4462,            0.,NA,NA,"",       3.73294,      -3.71380,   377.489E-03,   3.25562E-09
C:/temp/dataset/2/12_9.odb,Step-1,Increment      1: Step Time =    1.000,"PART-1-1",           131,      -2.51658,       27.4324,            0.,NA,NA,"",       3.77181,      -3.72295,   605.119E-03,   3.26599E-09
C:/temp/dataset/2/12_9.odb,Step-1,Increment      1: Step Time =    1.000,"PART-1-1",           132,      -9.99211,       27.4668,            0.,NA,NA,"",       3.69569,      -3.69488,  -77.4521E-03,   3.30111E-09
C:/temp/dataset/2/12_9.odb,Step-1,Increment      1: Step Time =    1.000,"PART-1-1",           133,       12.5029,       21.6680,            0.,NA,NA,"",       3.82428,      -3.25945,       2.00029,   15.0487E-09
C:/temp/dataset/2/12_9.odb,Step-1,Increment      1: Step Time =    1.000,"PART-1-1",           134,      -12.7198,      -9.27859,            0.,NA,NA,"",   459.760E-03,  -445.248E-03,  -114.599E-03,   6.70959E-03
C:/temp/dataset/2/12_9.odb,Step-1,Increment      1: Step Time =    1.000,"PART-1-1",           135,      -12.2206,      -21.4876,            0.,NA,NA,"",   21.4352E-03,  -5.88088E-03,  -20.6127E-03,   6.15151E-03
C:/temp/dataset/2/12_9.odb,Step-1,Increment      1: Step Time =    1.000,"PART-1-1",           136,       12.4390,       11.8581,            0.,NA,NA,"",       3.11926,      -2.36365,       2.03542,   1.15407E-06
C:/temp/dataset/2/12_9.odb,Step-1,Increment      1: Step Time =    1.000,"PART-1-1",           137,      -12.6285,      -12.0158,            0.,NA,NA,"",   306.291E-03,  -293.060E-03,  -89.0485E-03,   6.46125E-03
C:/temp/dataset/2/12_9.odb,Step-1,Increment      1: Step Time =    1.000,"PART-1-1",           138,      -12.4213,      -14.8709,            0.,NA,NA,"",   177.109E-03,  -166.177E-03,  -61.2614E-03,   5.78562E-03
C:/temp/dataset/2/12_9.odb,Step-1,Increment      1: Step Time =    1.000,"PART-1-1",           139,       12.2989,       14.8029,            0.,NA,NA,"",       3.31184,      -2.63190,       2.01033,   732.098E-09
C:/temp/dataset/2/12_9.odb,Step-1,Increment      1: Step Time =    1.000,"PART-1-1",           140,       11.7182,       18.2155,            0.,NA,NA,"",       3.52491,      -2.94100,       1.94307,   156.985E-09
C:/temp/dataset/2/12_9.odb,Step-1,Increment      1: Step Time =    1.000,"PART-1-1",           141,      -12.3380,      -4.01281,            0.,NA,NA,"",   832.768E-03,  -822.805E-03,  -128.428E-03,   6.47432E-03
C:/temp/dataset/2/12_9.odb,Step-1,Increment      1: Step Time =    1.000,"PART-1-1",           142,       12.5089,       6.21106,            0.,NA,NA,"",       2.77171,      -1.84840,       2.06538,   11.4058E-06
C:/temp/dataset/2/12_9.odb,Step-1,Increment      1: Step Time =    1.000,"PART-1-1",           143,      -10.9765,      -1.21375,            0.,NA,NA,"",       1.06461,      -1.06392,  -38.2929E-03,   6.77866E-03
C:/temp/dataset/2/12_9.odb,Step-1,Increment      1: Step Time =    1.000,"PART-1-1",           144,      -11.4273,       2.02370,            0.,NA,NA,"",       1.35077,      -1.34801,  -86.2882E-03,   4.22353E-03
C:/temp/dataset/2/12_9.odb,Step-1,Increment      1: Step Time =    1.000,"PART-1-1",           145,      -12.7154,      -6.64001,            0.,NA,NA,"",   635.318E-03,  -620.683E-03,  -135.581E-03,   6.85699E-03
C:/temp/dataset/2/12_9.odb,Step-1,Increment      1: Step Time =    1.000,"PART-1-1",           146,      -11.7762,      -18.1315,            0.,NA,NA,"",   66.8510E-03,  -62.1269E-03,  -24.6840E-03,   4.10785E-03
C:/temp/dataset/2/12_9.odb,Step-1,Increment      1: Step Time =    1.000,"PART-1-1",           147,      -12.2481,      -24.4184,            0.,NA,NA,"",   15.9901E-03,   11.5383E-03,  -11.0703E-03,   5.47100E-03
C:/temp/dataset/2/12_9.odb,Step-1,Increment      1: Step Time =    1.000,"PART-1-1",           148,       12.5340,       3.42208,            0.,NA,NA,"",       2.61991,      -1.59386,       2.07931,   20.4678E-06
C:/temp/dataset/2/12_9.odb,Step-1,Increment      1: Step Time =    1.000,"PART-1-1",           149,       12.5428,   630.306E-03,            0.,NA,NA,"",       2.48361,      -1.33902,       2.09173,   21.6739E-06
C:/temp/dataset/2/12_9.odb,Step-1,Increment      1: Step Time =    1.000,"PART-1-1",           150,       12.5001,       9.03097,            0.,NA,NA,"",       2.94082,      -2.10582,       2.05280,   2.06347E-06
C:/temp/dataset/2/12_9.odb,Step-1,Increment      1: Step Time =    1.000,"PART-1-1",           151,       12.7192,       24.5718,            0.,NA,NA,"",       4.05714,      -3.52543,       2.00790,   3.93246E-09
C:/temp/dataset/2/12_9.odb,Step-1,Increment      1: Step Time =    1.000,"PART-1-1",           152,       2.66783,      -27.4286,            0.,NA,NA,"",   8.13815E-03,  -7.93773E-03,   1.79499E-03,   2.31194E-03
C:/temp/dataset/2/12_9.odb,Step-1,Increment      1: Step Time =    1.000,"PART-1-1",           153,       8.86089,      -27.4494,            0.,NA,NA,"",   4.39393E-03,  -4.39381E-03,   31.8809E-06,   1.09219E-03
C:/temp/dataset/2/12_9.odb,Step-1,Increment      1: Step Time =    1.000,"PART-1-1",           154,       5.76511,      -27.4328,            0.,NA,NA,"",   6.00414E-03,  -5.99440E-03,   341.957E-06,   1.55778E-03
C:/temp/dataset/2/12_9.odb,Step-1,Increment      1: Step Time =    1.000,"PART-1-1",           155,  -414.647E-03,      -27.4330,            0.,NA,NA,"",   10.3079E-03,  -8.79359E-03,   5.37817E-03,   3.79104E-03
C:/temp/dataset/2/12_9.odb,Step-1,Increment      1: Step Time =    1.000,"PART-1-1",           156,      -3.42691,      -27.4460,            0.,NA,NA,"",   11.6743E-03,  -5.61634E-03,   10.2345E-03,   5.89350E-03
C:/temp/dataset/2/12_9.odb,Step-1,Increment      1: Step Time =    1.000,"PART-1-1",           157,      -6.36574,      -27.4272,            0.,NA,NA,"",   11.6533E-03,   2.22921E-03,   11.4381E-03,   6.61016E-03
C:/temp/dataset/2/12_9.odb,Step-1,Increment      1: Step Time =    1.000,"PART-1-1",           158,       10.5238,       25.0033,            0.,NA,NA,"",       3.98788,      -3.55566,       1.80569,   2.78740E-09
C:/temp/dataset/2/12_9.odb,Step-1,Increment      1: Step Time =    1.000,"PART-1-1",           159,       6.26912,       22.1485,            0.,NA,NA,"",       3.57536,      -3.27728,       1.42921,   6.12666E-09
C:/temp/dataset/2/12_9.odb,Step-1,Increment      1: Step Time =    1.000,"PART-1-1",           160,      -5.96402,      -2.70245,            0.,NA,NA,"",       1.03513,  -964.340E-03,   376.222E-03,   12.2934E-03
C:/temp/dataset/2/12_9.odb,Step-1,Increment      1: Step Time =    1.000,"PART-1-1",           161,      -12.5033,       22.4816,            0.,NA,NA,"",       3.24194,      -3.22931,  -285.875E-03,   3.36243E-09
C:/temp/dataset/2/12_9.odb,Step-1,Increment      1: Step Time =    1.000,"PART-1-1",           162,      -2.53325,       24.9024,            0.,NA,NA,"",       3.54553,      -3.49193,   614.161E-03,   3.38156E-09
C:/temp/dataset/2/12_9.odb,Step-1,Increment      1: Step Time =    1.000,"PART-1-1",           163,       4.43197,       24.4161,            0.,NA,NA,"",       3.69519,      -3.47661,       1.25203,   3.92241E-09
C:/temp/dataset/2/12_9.odb,Step-1,Increment      1: Step Time =    1.000,"PART-1-1",           164,      -10.2797,      -8.84555,            0.,NA,NA,"",   474.072E-03,  -473.068E-03,   30.8484E-03,   2.70171E-03
C:/temp/dataset/2/12_9.odb,Step-1,Increment      1: Step Time =    1.000,"PART-1-1",           165,       2.21534,  -332.134E-03,            0.,NA,NA,"",       1.66997,      -1.20771,       1.15335,   938.846E-06
C:/temp/dataset/2/12_9.odb,Step-1,Increment      1: Step Time =    1.000,"PART-1-1",           166,  -74.2209E-03,       24.8536,            0.,NA,NA,"",       3.59692,      -3.49773,   838.845E-03,   3.47092E-09
C:/temp/dataset/2/12_9.odb,Step-1,Increment      1: Step Time =    1.000,"PART-1-1",           167,       2.30693,       24.7164,            0.,NA,NA,"",       3.65142,      -3.49515,       1.05679,   4.06500E-09
C:/temp/dataset/2/12_9.odb,Step-1,Increment      1: Step Time =    1.000,"PART-1-1",           168,       9.79368,       13.9045,            0.,NA,NA,"",       3.10423,      -2.53942,       1.78538,   947.243E-09
C:/temp/dataset/2/12_9.odb,Step-1,Increment      1: Step Time =    1.000,"PART-1-1",           169,       9.30777,       16.4521,            0.,NA,NA,"",       3.26602,      -2.76995,       1.73039,   353.823E-09
C:/temp/dataset/2/12_9.odb,Step-1,Increment      1: Step Time =    1.000,"PART-1-1",           170,      -2.35985,       1.11806,            0.,NA,NA,"",       1.50488,      -1.32250,   718.100E-03,   4.71561E-03
C:/temp/dataset/2/12_9.odb,Step-1,Increment      1: Step Time =    1.000,"PART-1-1",           171,      -9.94133,      -13.9778,            0.,NA,NA,"",   206.988E-03,  -203.705E-03,   36.7190E-03,   5.08793E-03
C:/temp/dataset/2/12_9.odb,Step-1,Increment      1: Step Time =    1.000,"PART-1-1",           172,       4.80988,   33.7751E-03,            0.,NA,NA,"",       1.86952,      -1.25182,       1.38855,   239.260E-06
C:/temp/dataset/2/12_9.odb,Step-1,Increment      1: Step Time =    1.000,"PART-1-1",           173,       9.94126,       11.1894,            0.,NA,NA,"",       2.92077,      -2.29218,       1.81019,   1.32174E-06
C:/temp/dataset/2/12_9.odb,Step-1,Increment      1: Step Time =    1.000,"PART-1-1",           174,       7.43598,   226.782E-03,            0.,NA,NA,"",       2.07079,      -1.28063,       1.62732,   128.801E-06
C:/temp/dataset/2/12_9.odb,Step-1,Increment      1: Step Time =    1.000,"PART-1-1",           175,      -7.50368,       24.9336,            0.,NA,NA,"",       3.47772,      -3.47402,   160.289E-03,   3.33748E-09
C:/temp/dataset/2/12_9.odb,Step-1,Increment      1: Step Time =    1.000,"PART-1-1",           176,      -10.1536,      -11.3797,            0.,NA,NA,"",   329.132E-03,  -327.320E-03,   34.4906E-03,   4.06789E-03
C:/temp/dataset/2/12_9.odb,Step-1,Increment      1: Step Time =    1.000,"PART-1-1",           177,       6.92724,       24.6415,            0.,NA,NA,"",       3.80663,      -3.50761,       1.47888,   2.17096E-09
C:/temp/dataset/2/12_9.odb,Step-1,Increment      1: Step Time =    1.000,"PART-1-1",           178,      -9.99868,       24.9580,            0.,NA,NA,"",       3.46649,      -3.46583,  -67.5766E-03,   3.33990E-09
C:/temp/dataset/2/12_9.odb,Step-1,Increment      1: Step Time =    1.000,"PART-1-1",           179,       8.37028,       18.0705,            0.,NA,NA,"",       3.34265,      -2.91378,       1.63805,   163.010E-09
C:/temp/dataset/2/12_9.odb,Step-1,Increment      1: Step Time =    1.000,"PART-1-1",           180,      -10.4068,      -6.54987,            0.,NA,NA,"",   628.464E-03,  -628.107E-03,   21.1821E-03,   3.74533E-03
C:/temp/dataset/2/12_9.odb,Step-1,Increment      1: Step Time =    1.000,"PART-1-1",           181,      -8.52723,      -17.8680,            0.,NA,NA,"",   92.7066E-03,  -69.6096E-03,   61.2293E-03,   8.74892E-03
C:/temp/dataset/2/12_9.odb,Step-1,Increment      1: Step Time =    1.000,"PART-1-1",           182,       9.99063,       8.47585,            0.,NA,NA,"",       2.74136,      -2.04467,       1.82603,   6.71555E-06
C:/temp/dataset/2/12_9.odb,Step-1,Increment      1: Step Time =    1.000,"PART-1-1",           183,      -6.87511,      -22.3968,            0.,NA,NA,"",   50.0304E-03,  -5.83467E-03,   49.6890E-03,   13.1133E-03
C:/temp/dataset/2/12_9.odb,Step-1,Increment      1: Step Time =    1.000,"PART-1-1",           184,       7.48189,       5.34092,            0.,NA,NA,"",       2.37659,      -1.74804,       1.61014,   60.8121E-06
C:/temp/dataset/2/12_9.odb,Step-1,Increment      1: Step Time =    1.000,"PART-1-1",           185,       10.0207,   425.902E-03,            0.,NA,NA,"",       2.27682,      -1.30977,       1.86237,   52.9852E-06
C:/temp/dataset/2/12_9.odb,Step-1,Increment      1: Step Time =    1.000,"PART-1-1",           186,      -8.86720,      -3.63325,            0.,NA,NA,"",   872.311E-03,  -862.621E-03,   129.660E-03,   7.72532E-03
C:/temp/dataset/2/12_9.odb,Step-1,Increment      1: Step Time =    1.000,"PART-1-1",           187,       10.0155,       5.77118,            0.,NA,NA,"",       2.57224,      -1.79785,       1.83961,   23.1296E-06
C:/temp/dataset/2/12_9.odb,Step-1,Increment      1: Step Time =    1.000,"PART-1-1",           188,       9.07540,       20.2179,            0.,NA,NA,"",       3.54359,      -3.11275,       1.69345,   64.6081E-09
C:/temp/dataset/2/12_9.odb,Step-1,Increment      1: Step Time =    1.000,"PART-1-1",           189,       5.51479,      -24.9218,            0.,NA,NA,"",   9.34164E-03,  -9.34164E-03,   5.80203E-06,   1.11768E-03
C:/temp/dataset/2/12_9.odb,Step-1,Increment      1: Step Time =    1.000,"PART-1-1",           190,       2.33502,      -24.9114,            0.,NA,NA,"",   12.6488E-03,  -12.2342E-03,   3.21202E-03,   1.83851E-03
C:/temp/dataset/2/12_9.odb,Step-1,Increment      1: Step Time =    1.000,"PART-1-1",           191,      -3.83494,      -24.9465,            0.,NA,NA,"",   27.0794E-03,  -10.9260E-03,   24.7774E-03,   8.14362E-03
C:/temp/dataset/2/12_9.odb,Step-1,Increment      1: Step Time =    1.000,"PART-1-1",           192,       8.68706,      -24.9229,            0.,NA,NA,"",   7.49812E-03,  -7.48715E-03,  -405.435E-06,   686.049E-06
C:/temp/dataset/2/12_9.odb,Step-1,Increment      1: Step Time =    1.000,"PART-1-1",           193,  -793.545E-03,      -24.9263,            0.,NA,NA,"",   18.6891E-03,  -14.4337E-03,   11.8722E-03,   4.68527E-03
C:/temp/dataset/2/12_9.odb,Step-1,Increment      1: Step Time =    1.000,"PART-1-1",           194,      -10.0041,       22.4687,            0.,NA,NA,"",       3.23908,      -3.23857,  -57.6758E-03,   3.37786E-09
C:/temp/dataset/2/12_9.odb,Step-1,Increment      1: Step Time =    1.000,"PART-1-1",           195,       7.76291,       22.5689,            0.,NA,NA,"",       3.67159,      -3.32190,       1.56382,   5.49575E-09
C:/temp/dataset/2/12_9.odb,Step-1,Increment      1: Step Time =    1.000,"PART-1-1",           196,       10.0314,       3.09975,            0.,NA,NA,"",       2.41777,      -1.55396,       1.85224,   42.7609E-06
C:/temp/dataset/2/12_9.odb,Step-1,Increment      1: Step Time =    1.000,"PART-1-1",           197,       7.45157,       2.78517,            0.,NA,NA,"",       2.21627,      -1.51445,       1.61812,   120.701E-06
C:/temp/dataset/2/12_9.odb,Step-1,Increment      1: Step Time =    1.000,"PART-1-1",           198,       1.23926,       2.17480,            0.,NA,NA,"",       1.77706,      -1.43261,       1.05147,   1.01367E-03
C:/temp/dataset/2/12_9.odb,Step-1,Increment      1: Step Time =    1.000,"PART-1-1",           199,       5.89388,       23.8379,            0.,NA,NA,"",       3.70010,      -3.42993,       1.38790,   5.29903E-09
C:/temp/dataset/2/12_9.odb,Step-1,Increment      1: Step Time =    1.000,"PART-1-1",           200,       4.70825,       2.52712,            0.,NA,NA,"",       2.01540,      -1.47935,       1.36871,   181.682E-06
C:/temp/dataset/2/12_9.odb,Step-1,Increment      1: Step Time =    1.000,"PART-1-1",           201,      -6.67563,      -24.8783,            0.,NA,NA,"",   28.3247E-03,   963.340E-06,   28.3083E-03,   9.34096E-03
C:/temp/dataset/2/12_9.odb,Step-1,Increment      1: Step Time =    1.000,"PART-1-1",           202,      -1.93740,       2.90022,            0.,NA,NA,"",       1.66352,      -1.48416,   751.383E-03,   2.84744E-03
C:/temp/dataset/2/12_9.odb,Step-1,Increment      1: Step Time =    1.000,"PART-1-1",           203,      -4.27328,      -22.5070,            0.,NA,NA,"",   45.5987E-03,  -16.9910E-03,   42.3148E-03,   13.0761E-03
C:/temp/dataset/2/12_9.odb,Step-1,Increment      1: Step Time =    1.000,"PART-1-1",           204,      -7.29195,  -216.826E-03,            0.,NA,NA,"",       1.20257,      -1.17338,   263.359E-03,   5.33404E-03
C:/temp/dataset/2/12_9.odb,Step-1,Increment      1: Step Time =    1.000,"PART-1-1",           205,      -4.39370,   432.763E-03,            0.,NA,NA,"",       1.35738,      -1.25087,   527.067E-03,   6.18918E-03
C:/temp/dataset/2/12_9.odb,Step-1,Increment      1: Step Time =    1.000,"PART-1-1",           206,      -1.20581,      -22.4416,            0.,NA,NA,"",   21.0664E-03,  -15.1034E-03,   14.6861E-03,   5.82242E-03
C:/temp/dataset/2/12_9.odb,Step-1,Increment      1: Step Time =    1.000,"PART-1-1",           207,      -4.88725,       2.78210,            0.,NA,NA,"",       1.53168,      -1.45573,   476.327E-03,   3.55757E-03
C:/temp/dataset/2/12_9.odb,Step-1,Increment      1: Step Time =    1.000,"PART-1-1",           208,      -8.02678,       2.39768,            0.,NA,NA,"",       1.41386,      -1.40005,   197.150E-03,   3.69678E-03
C:/temp/dataset/2/12_9.odb,Step-1,Increment      1: Step Time =    1.000,"PART-1-1",           209,       8.51144,      -22.4401,            0.,NA,NA,"",   9.04783E-03,  -9.00569E-03,  -872.280E-06,   291.690E-06
C:/temp/dataset/2/12_9.odb,Step-1,Increment      1: Step Time =    1.000,"PART-1-1",           210,       5.25488,      -22.4306,            0.,NA,NA,"",   10.0649E-03,  -10.0456E-03,  -622.575E-06,   542.547E-06
C:/temp/dataset/2/12_9.odb,Step-1,Increment      1: Step Time =    1.000,"PART-1-1",           211,       2.00226,      -22.4217,            0.,NA,NA,"",   12.7664E-03,  -12.3670E-03,   3.16825E-03,   1.65289E-03
C:/temp/dataset/2/12_9.odb,Step-1,Increment      1: Step Time =    1.000,"PART-1-1",           212,      -9.28570,      -27.3600,            0.,NA,NA,"",   11.1580E-03,   9.59584E-03,   5.69396E-03,   4.72701E-03
C:/temp/dataset/2/12_9.odb,Step-1,Increment      1: Step Time =    1.000,"PART-1-1",           213,       11.7596,      -22.4488,            0.,NA,NA,"",   8.52193E-03,  -8.51575E-03,   324.647E-06,   76.4747E-06
C:/temp/dataset/2/12_9.odb,Step-1,Increment      1: Step Time =    1.000,"PART-1-1",           214,      -12.4952,       27.4851,            0.,NA,NA,"",       3.69878,      -3.68610,  -306.032E-03,   3.33144E-09
C:/temp/dataset/2/12_9.odb,Step-1,Increment      1: Step Time =    1.000,"PART-1-1",           215,      -12.1608,      -27.2494,            0.,NA,NA,"",   11.6784E-03,   10.9327E-03,  -4.10629E-03,   4.57405E-03
C:/temp/dataset/2/12_9.odb,Step-1,Increment      1: Step Time =    1.000,"PART-1-1",           216,      -6.92277,      -20.0189,            0.,NA,NA,"",   78.0758E-03,  -25.3444E-03,   73.8478E-03,   11.4722E-03
C:/temp/dataset/2/12_9.odb,Step-1,Increment      1: Step Time =    1.000,"PART-1-1",           217,       10.3403,       22.5364,            0.,NA,NA,"",       3.78472,      -3.32969,       1.79924,   18.1648E-09
C:/temp/dataset/2/12_9.odb,Step-1,Increment      1: Step Time =    1.000,"PART-1-1",           218,      -9.38591,      -16.3373,            0.,NA,NA,"",   123.729E-03,  -114.634E-03,   46.5611E-03,   6.56570E-03
C:/temp/dataset/2/12_9.odb,Step-1,Increment      1: Step Time =    1.000,"PART-1-1",           219,      -9.56004,      -22.0160,            0.,NA,NA,"",   21.6654E-03,   400.861E-06,   21.6617E-03,   6.38232E-03
C:/temp/dataset/2/12_9.odb,Step-1,Increment      1: Step Time =    1.000,"PART-1-1",           220,      -9.49058,      -24.6874,            0.,NA,NA,"",   17.1284E-03,   10.7959E-03,   13.2977E-03,   6.30321E-03
C:/temp/dataset/2/12_9.odb,Step-1,Increment      1: Step Time =    1.000,"PART-1-1",           221,  -968.003E-03,   33.9082E-03,            0.,NA,NA,"",       1.49940,      -1.23062,   856.601E-03,   3.13759E-03
C:/temp/dataset/2/12_9.odb,Step-1,Increment      1: Step Time =    1.000,"PART-1-1",           222,   333.674E-03,      -1.00763,            0.,NA,NA,"",       1.50621,      -1.13989,   984.541E-03,   2.49975E-03
C:/temp/dataset/2/12_9.odb,Step-1,Increment      1: Step Time =    1.000,"PART-1-1",           223,      -10.5623,      -4.72446,            0.,NA,NA,"",   767.365E-03,  -767.346E-03,   5.28700E-03,   5.36526E-03
C:/temp/dataset/2/12_9.odb,Step-1,Increment      1: Step Time =    1.000,"PART-1-1",           224,      -5.01319,       24.9269,            0.,NA,NA,"",       3.50531,      -3.48381,   387.670E-03,   3.34261E-09
C:/temp/dataset/2/12_9.odb,Step-1,Increment      1: Step Time =    1.000,"PART-1-1",           225,      -9.24174,      -19.5473,            0.,NA,NA,"",   46.8535E-03,  -30.2825E-03,   35.7522E-03,   5.68919E-03
C:/temp/dataset/2/12_9.odb,Step-1,Increment      1: Step Time =    1.000,"PART-1-1",           226,       8.53639,       25.1316,            0.,NA,NA,"",       3.91197,      -3.55907,       1.62373,   1.48882E-09
C:/temp/dataset/2/12_9.odb,Step-1,Increment      1: Step Time =    1.000,"PART-1-1",           227,       8.85572,       23.3093,            0.,NA,NA,"",       3.77846,      -3.39404,       1.66049,   6.32197E-09
C:/temp/dataset/2/12_9.odb,Step-1,Increment      1: Step Time =    1.000,"PART-1-1",           228,      -13.7516,       22.4908,            0.,NA,NA,"",       3.24963,      -3.22493,  -399.875E-03,   3.33532E-09
C:/temp/dataset/2/12_9.odb,Step-1,Increment      1: Step Time =    1.000,"PART-1-1",           229,          -15.,         21.25,            0.,NA,NA,"",       3.14782,      -3.10645,  -508.655E-03,   3.33400E-09
C:/temp/dataset/2/12_9.odb,Step-1,Increment      1: Step Time =    1.000,"PART-1-1",           230,        -13.75,           20.,            0.,NA,NA,"",       3.02274,      -2.99756,  -389.326E-03,   3.39363E-09
C:/temp/dataset/2/12_9.odb,Step-1,Increment      1: Step Time =    1.000,"PART-1-1",           231,      -12.5016,       21.2408,            0.,NA,NA,"",       3.12865,      -3.11604,  -280.545E-03,   3.38428E-09
C:/temp/dataset/2/12_9.odb,Step-1,Increment      1: Step Time =    1.000,"PART-1-1",           232,      -9.99605,       28.7334,            0.,NA,NA,"",       3.81140,      -3.81049,  -83.1009E-03,   3.28227E-09
C:/temp/dataset/2/12_9.odb,Step-1,Increment      1: Step Time =    1.000,"PART-1-1",           233,        -11.25,           30.,            0.,NA,NA,"",       3.92612,      -3.92088,  -202.860E-03,   3.28898E-09
C:/temp/dataset/2/12_9.odb,Step-1,Increment      1: Step Time =    1.000,"PART-1-1",           234,      -12.4976,       28.7426,            0.,NA,NA,"",       3.81362,      -3.80088,  -311.501E-03,   3.31503E-09
C:/temp/dataset/2/12_9.odb,Step-1,Increment      1: Step Time =    1.000,"PART-1-1",           235,      -11.2437,       27.4760,            0.,NA,NA,"",       3.69547,      -3.69049,  -191.742E-03,   3.31523E-09
C:/temp/dataset/2/12_9.odb,Step-1,Increment      1: Step Time =    1.000,"PART-1-1",           236,      -8.74541,       27.4572,            0.,NA,NA,"",       3.69939,      -3.69921,   36.3967E-03,   3.28827E-09
C:/temp/dataset/2/12_9.odb,Step-1,Increment      1: Step Time =    1.000,"PART-1-1",           237,      -7.49936,       28.7238,            0.,NA,NA,"",       3.82278,      -3.82003,   144.858E-03,   3.24270E-09
C:/temp/dataset/2/12_9.odb,Step-1,Increment      1: Step Time =    1.000,"PART-1-1",           238,         -8.75,           30.,            0.,NA,NA,"",       3.93140,      -3.93132,   25.3604E-03,   3.23932E-09
C:/temp/dataset/2/12_9.odb,Step-1,Increment      1: Step Time =    1.000,"PART-1-1",           239,      -10.0020,       21.2344,            0.,NA,NA,"",       3.12633,      -3.12589,  -52.3354E-03,   3.39942E-09
C:/temp/dataset/2/12_9.odb,Step-1,Increment      1: Step Time =    1.000,"PART-1-1",           240,      -11.2537,       22.4752,            0.,NA,NA,"",       3.23850,      -3.23394,  -171.775E-03,   3.37031E-09
C:/temp/dataset/2/12_9.odb,Step-1,Increment      1: Step Time =    1.000,"PART-1-1",           241,        -11.25,           20.,            0.,NA,NA,"",       3.01231,      -3.00800,  -161.105E-03,   3.40889E-09
C:/temp/dataset/2/12_9.odb,Step-1,Increment      1: Step Time =    1.000,"PART-1-1",           242,      -6.25410,       27.4469,            0.,NA,NA,"",       3.71804,      -3.70867,   263.867E-03,   3.26543E-09
C:/temp/dataset/2/12_9.odb,Step-1,Increment      1: Step Time =    1.000,"PART-1-1",           243,      -7.50120,       26.1906,            0.,NA,NA,"",       3.59213,      -3.58878,   155.267E-03,   3.30497E-09
C:/temp/dataset/2/12_9.odb,Step-1,Increment      1: Step Time =    1.000,"PART-1-1",           244,      -6.25844,       24.9303,            0.,NA,NA,"",       3.48969,      -3.47891,   273.979E-03,   3.33748E-09
C:/temp/dataset/2/12_9.odb,Step-1,Increment      1: Step Time =    1.000,"PART-1-1",           245,      -5.01133,       26.1865,            0.,NA,NA,"",       3.61908,      -3.59880,   382.579E-03,   3.29880E-09
C:/temp/dataset/2/12_9.odb,Step-1,Increment      1: Step Time =    1.000,"PART-1-1",           246,       1.11906,       22.3143,            0.,NA,NA,"",       3.40843,      -3.27091,   958.380E-03,   4.15126E-09
C:/temp/dataset/2/12_9.odb,Step-1,Increment      1: Step Time =    1.000,"PART-1-1",           247,  -37.5712E-03,       21.1808,            0.,NA,NA,"",       3.27680,      -3.16260,   857.526E-03,   3.65589E-09
C:/temp/dataset/2/12_9.odb,Step-1,Increment      1: Step Time =    1.000,"PART-1-1",           248,          1.25,           20.,            0.,NA,NA,"",       3.21328,      -3.06019,   979.997E-03,   4.34172E-09
C:/temp/dataset/2/12_9.odb,Step-1,Increment      1: Step Time =    1.000,"PART-1-1",           249,       2.40663,       21.1336,            0.,NA,NA,"",       3.34778,      -3.16850,       1.08085,   4.96720E-09
C:/temp/dataset/2/12_9.odb,Step-1,Increment      1: Step Time =    1.000,"PART-1-1",           250,  -46.9838E-03,       26.1228,            0.,NA,NA,"",       3.70916,      -3.61371,   836.032E-03,   3.43145E-09
C:/temp/dataset/2/12_9.odb,Step-1,Increment      1: Step Time =    1.000,"PART-1-1",           251,       1.11635,       24.7850,            0.,NA,NA,"",       3.62263,      -3.49644,   947.817E-03,   3.70738E-09
C:/temp/dataset/2/12_9.odb,Step-1,Increment      1: Step Time =    1.000,"PART-1-1",           252,       2.41618,       25.9912,            0.,NA,NA,"",       3.76471,      -3.61198,       1.06144,   3.75793E-09
C:/temp/dataset/2/12_9.odb,Step-1,Increment      1: Step Time =    1.000,"PART-1-1",           253,       1.25284,       27.3289,            0.,NA,NA,"",       3.84826,      -3.72925,   949.654E-03,   3.53590E-09
C:/temp/dataset/2/12_9.odb,Step-1,Increment      1: Step Time =    1.000,"PART-1-1",           254,       11.4216,       22.1022,            0.,NA,NA,"",       3.80306,      -3.29457,       1.89976,   14.7387E-09
C:/temp/dataset/2/12_9.odb,Step-1,Increment      1: Step Time =    1.000,"PART-1-1",           255,       9.70783,       21.3771,            0.,NA,NA,"",       3.66415,      -3.22122,       1.74635,   35.1943E-09
C:/temp/dataset/2/12_9.odb,Step-1,Increment      1: Step Time =    1.000,"PART-1-1",           256,       10.3968,       19.2167,            0.,NA,NA,"",       3.53101,      -3.02687,       1.81826,   90.5385E-09
C:/temp/dataset/2/12_9.odb,Step-1,Increment      1: Step Time =    1.000,"PART-1-1",           257,       12.1105,       19.9418,            0.,NA,NA,"",       3.67408,      -3.10022,       1.97168,   76.8038E-09
C:/temp/dataset/2/12_9.odb,Step-1,Increment      1: Step Time =    1.000,"PART-1-1",           258,       11.6215,       24.7876,            0.,NA,NA,"",       4.02136,      -3.54055,       1.90680,   2.85468E-09
C:/temp/dataset/2/12_9.odb,Step-1,Increment      1: Step Time =    1.000,"PART-1-1",           259,       12.6971,       25.9410,            0.,NA,NA,"",       4.16241,      -3.65033,       2.00017,   4.10058E-09
C:/temp/dataset/2/12_9.odb,Step-1,Increment      1: Step Time =    1.000,"PART-1-1",           260,       11.4859,       27.3886,            0.,NA,NA,"",       4.22098,      -3.77742,       1.88356,   4.45535E-09
C:/temp/dataset/2/12_9.odb,Step-1,Increment      1: Step Time =    1.000,"PART-1-1",           261,       10.4103,       26.2351,            0.,NA,NA,"",       4.08121,      -3.66763,       1.79018,   2.92931E-09
C:/temp/dataset/2/12_9.odb,Step-1,Increment      1: Step Time =    1.000,"PART-1-1",           262,       5.88041,       17.6377,            0.,NA,NA,"",       3.19329,      -2.86388,       1.41256,   101.072E-09
C:/temp/dataset/2/12_9.odb,Step-1,Increment      1: Step Time =    1.000,"PART-1-1",           263,       6.75071,       18.9160,            0.,NA,NA,"",       3.33401,      -2.98420,       1.48667,   107.909E-09
C:/temp/dataset/2/12_9.odb,Step-1,Increment      1: Step Time =    1.000,"PART-1-1",           264,       5.87030,       20.0282,            0.,NA,NA,"",       3.38581,      -3.08206,       1.40166,   23.6933E-09
C:/temp/dataset/2/12_9.odb,Step-1,Increment      1: Step Time =    1.000,"PART-1-1",           265,            5.,         18.75,            0.,NA,NA,"",       3.24565,      -2.96174,       1.32755,   36.6849E-09
C:/temp/dataset/2/12_9.odb,Step-1,Increment      1: Step Time =    1.000,"PART-1-1",           266,       12.3690,       13.3305,            0.,NA,NA,"",       3.21417,      -2.49777,       2.02287,   697.560E-09
C:/temp/dataset/2/12_9.odb,Step-1,Increment      1: Step Time =    1.000,"PART-1-1",           267,       13.7195,       12.1790,            0.,NA,NA,"",       3.22157,      -2.39830,       2.15097,   839.705E-09
C:/temp/dataset/2/12_9.odb,Step-1,Increment      1: Step Time =    1.000,"PART-1-1",           268,           15.,       13.9583,            0.,NA,NA,"",       3.41969,      -2.56607,       2.26044,   802.850E-09
C:/temp/dataset/2/12_9.odb,Step-1,Increment      1: Step Time =    1.000,"PART-1-1",           269,       13.6495,       15.1098,            0.,NA,NA,"",       3.41351,      -2.66555,       2.13234,   382.462E-09
C:/temp/dataset/2/12_9.odb,Step-1,Increment      1: Step Time =    1.000,"PART-1-1",           270,       12.5214,       4.81657,            0.,NA,NA,"",       2.69387,      -1.72113,       2.07235,   15.5356E-06
C:/temp/dataset/2/12_9.odb,Step-1,Increment      1: Step Time =    1.000,"PART-1-1",           271,       13.7670,       3.58604,            0.,NA,NA,"",       2.72143,      -1.61398,       2.19118,   15.7206E-06
C:/temp/dataset/2/12_9.odb,Step-1,Increment      1: Step Time =    1.000,"PART-1-1",           272,           15.,       5.20833,            0.,NA,NA,"",       2.89816,      -1.76726,       2.29698,   7.54145E-06
C:/temp/dataset/2/12_9.odb,Step-1,Increment      1: Step Time =    1.000,"PART-1-1",           273,       13.7545,       6.43886,            0.,NA,NA,"",       2.87361,      -1.87440,       2.17813,   5.89460E-06
C:/temp/dataset/2/12_9.odb,Step-1,Increment      1: Step Time =    1.000,"PART-1-1",           274,       13.7625,      -2.13133,            0.,NA,NA,"",       2.46919,      -1.09206,       2.21456,   16.3042E-06
C:/temp/dataset/2/12_9.odb,Step-1,Increment      1: Step Time =    1.000,"PART-1-1",           275,       12.5125,      -3.58966,            0.,NA,NA,"",       2.31238,  -953.748E-03,       2.10653,   15.1658E-06
C:/temp/dataset/2/12_9.odb,Step-1,Increment      1: Step Time =    1.000,"PART-1-1",           276,         13.75,           -5.,            0.,NA,NA,"",       2.37519,  -830.178E-03,       2.22538,   3.46904E-06
C:/temp/dataset/2/12_9.odb,Step-1,Increment      1: Step Time =    1.000,"PART-1-1",           277,           15.,      -3.54167,            0.,NA,NA,"",       2.52641,  -968.509E-03,       2.33339,   3.08664E-06
C:/temp/dataset/2/12_9.odb,Step-1,Increment      1: Step Time =    1.000,"PART-1-1",           278,      -9.21387,      -6.21191,            0.,NA,NA,"",   664.154E-03,  -656.138E-03,   102.871E-03,   5.06698E-03
C:/temp/dataset/2/12_9.odb,Step-1,Increment      1: Step Time =    1.000,"PART-1-1",           279,      -8.44405,      -4.75360,            0.,NA,NA,"",   786.968E-03,  -770.048E-03,   162.306E-03,   7.81212E-03
C:/temp/dataset/2/12_9.odb,Step-1,Increment      1: Step Time =    1.000,"PART-1-1",           280,      -9.71477,      -4.17886,            0.,NA,NA,"",   816.522E-03,  -813.848E-03,   66.0169E-03,   5.99524E-03
C:/temp/dataset/2/12_9.odb,Step-1,Increment      1: Step Time =    1.000,"PART-1-1",           281,      -10.4846,      -5.63717,            0.,NA,NA,"",   696.451E-03,  -696.319E-03,   13.5943E-03,   4.41430E-03
C:/temp/dataset/2/12_9.odb,Step-1,Increment      1: Step Time =    1.000,"PART-1-1",           282,      -5.84282,   107.969E-03,            0.,NA,NA,"",       1.27423,      -1.21216,   392.826E-03,   4.82619E-03
C:/temp/dataset/2/12_9.odb,Step-1,Increment      1: Step Time =    1.000,"PART-1-1",           283,      -4.64047,       1.60743,            0.,NA,NA,"",       1.44304,      -1.35303,   501.663E-03,   4.39321E-03
C:/temp/dataset/2/12_9.odb,Step-1,Increment      1: Step Time =    1.000,"PART-1-1",           284,      -6.45702,       2.58989,            0.,NA,NA,"",       1.46646,      -1.42782,   334.427E-03,   3.10243E-03
C:/temp/dataset/2/12_9.odb,Step-1,Increment      1: Step Time =    1.000,"PART-1-1",           285,      -7.65937,       1.09043,            0.,NA,NA,"",       1.30724,      -1.28668,   230.909E-03,   4.24879E-03
C:/temp/dataset/2/12_9.odb,Step-1,Increment      1: Step Time =    1.000,"PART-1-1",           286,      -6.51044,      -5.43697,            0.,NA,NA,"",   783.954E-03,  -720.746E-03,   308.398E-03,   16.6087E-03
C:/temp/dataset/2/12_9.odb,Step-1,Increment      1: Step Time =    1.000,"PART-1-1",           287,      -5.48201,      -3.85122,            0.,NA,NA,"",   960.239E-03,  -866.744E-03,   413.298E-03,   17.8277E-03
C:/temp/dataset/2/12_9.odb,Step-1,Increment      1: Step Time =    1.000,"PART-1-1",           288,      -7.41561,      -3.16785,            0.,NA,NA,"",   943.364E-03,  -910.449E-03,   247.019E-03,   9.35318E-03
C:/temp/dataset/2/12_9.odb,Step-1,Increment      1: Step Time =    1.000,"PART-1-1",           289,      -12.6742,      -10.6472,            0.,NA,NA,"",   379.072E-03,  -365.267E-03,  -101.370E-03,   6.62084E-03
C:/temp/dataset/2/12_9.odb,Step-1,Increment      1: Step Time =    1.000,"PART-1-1",           290,      -11.3911,      -11.6978,            0.,NA,NA,"",   309.818E-03,  -308.490E-03,  -28.6486E-03,   1.42340E-03
C:/temp/dataset/2/12_9.odb,Step-1,Increment      1: Step Time =    1.000,"PART-1-1",           291,      -10.2167,      -10.1126,            0.,NA,NA,"",   398.728E-03,  -397.344E-03,   33.1975E-03,   3.65788E-03
C:/temp/dataset/2/12_9.odb,Step-1,Increment      1: Step Time =    1.000,"PART-1-1",           292,      -11.4997,      -9.06207,            0.,NA,NA,"",   459.921E-03,  -457.944E-03,  -42.5954E-03,   2.46803E-03
C:/temp/dataset/2/12_9.odb,Step-1,Increment      1: Step Time =    1.000,"PART-1-1",           293,      -13.7107,      -15.1438,            0.,NA,NA,"",   192.939E-03,  -159.977E-03,  -107.856E-03,   11.5885E-03
C:/temp/dataset/2/12_9.odb,Step-1,Increment      1: Step Time =    1.000,"PART-1-1",           294,      -12.5249,      -13.4434,            0.,NA,NA,"",   237.416E-03,  -225.442E-03,  -74.4481E-03,   6.15854E-03
C:/temp/dataset/2/12_9.odb,Step-1,Increment      1: Step Time =    1.000,"PART-1-1",           295,      -13.8143,      -12.2579,            0.,NA,NA,"",   319.368E-03,  -284.449E-03,  -145.206E-03,   11.7374E-03
C:/temp/dataset/2/12_9.odb,Step-1,Increment      1: Step Time =    1.000,"PART-1-1",           296,          -15.,      -13.9583,            0.,NA,NA,"",   276.941E-03,  -214.043E-03,  -175.733E-03,   17.1965E-03
C:/temp/dataset/2/12_9.odb,Step-1,Increment      1: Step Time =    1.000,"PART-1-1",           297,      -12.0988,      -16.5012,            0.,NA,NA,"",   115.918E-03,  -108.385E-03,  -41.1049E-03,   4.79417E-03
C:/temp/dataset/2/12_9.odb,Step-1,Increment      1: Step Time =    1.000,"PART-1-1",           298,      -10.5811,      -17.2344,            0.,NA,NA,"",   85.3028E-03,  -84.9932E-03,   7.26040E-03,   1.45836E-03
C:/temp/dataset/2/12_9.odb,Step-1,Increment      1: Step Time =    1.000,"PART-1-1",           299,      -9.66362,      -15.1575,            0.,NA,NA,"",   162.338E-03,  -156.614E-03,   42.7294E-03,   5.83044E-03
C:/temp/dataset/2/12_9.odb,Step-1,Increment      1: Step Time =    1.000,"PART-1-1",           300,      -11.1813,      -14.4243,            0.,NA,NA,"",   183.504E-03,  -182.945E-03,  -14.3196E-03,   692.519E-06
C:/temp/dataset/2/12_9.odb,Step-1,Increment      1: Step Time =    1.000,"PART-1-1",           301,      -10.5090,      -18.8394,            0.,NA,NA,"",   45.1715E-03,  -44.3478E-03,   8.58682E-03,   2.39065E-03
C:/temp/dataset/2/12_9.odb,Step-1,Increment      1: Step Time =    1.000,"PART-1-1",           302,      -8.88448,      -18.7076,            0.,NA,NA,"",   67.7504E-03,  -48.0066E-03,   47.8067E-03,   6.58199E-03
C:/temp/dataset/2/12_9.odb,Step-1,Increment      1: Step Time =    1.000,"PART-1-1",           303,      -8.95657,      -17.1026,            0.,NA,NA,"",   106.712E-03,  -91.3279E-03,   55.1970E-03,   7.91957E-03
C:/temp/dataset/2/12_9.odb,Step-1,Increment      1: Step Time =    1.000,"PART-1-1",           304,      -8.08225,      -19.7831,            0.,NA,NA,"",   63.7902E-03,  -27.5565E-03,   57.5311E-03,   8.17127E-03
C:/temp/dataset/2/12_9.odb,Step-1,Increment      1: Step Time =    1.000,"PART-1-1",           305,      -6.89084,      -18.8787,            0.,NA,NA,"",   99.2348E-03,  -47.5795E-03,   87.0847E-03,   14.4928E-03
C:/temp/dataset/2/12_9.odb,Step-1,Increment      1: Step Time =    1.000,"PART-1-1",           306,      -7.69307,      -17.8032,            0.,NA,NA,"",   111.967E-03,  -75.1183E-03,   83.0287E-03,   14.1309E-03
C:/temp/dataset/2/12_9.odb,Step-1,Increment      1: Step Time =    1.000,"PART-1-1",           307,       7.10093,      -24.9223,            0.,NA,NA,"",   8.29251E-03,  -8.28116E-03,  -433.639E-06,   915.139E-06
C:/temp/dataset/2/12_9.odb,Step-1,Increment      1: Step Time =    1.000,"PART-1-1",           308,       8.59925,      -23.6815,            0.,NA,NA,"",   8.41575E-03,  -8.38877E-03,  -673.290E-06,   480.218E-06
C:/temp/dataset/2/12_9.odb,Step-1,Increment      1: Step Time =    1.000,"PART-1-1",           309,       6.88316,      -22.4353,            0.,NA,NA,"",   9.49043E-03,  -9.43982E-03,  -978.852E-06,   400.865E-06
C:/temp/dataset/2/12_9.odb,Step-1,Increment      1: Step Time =    1.000,"PART-1-1",           310,       5.38484,      -23.6762,            0.,NA,NA,"",   10.0505E-03,  -10.0458E-03,  -309.085E-06,   801.644E-06
C:/temp/dataset/2/12_9.odb,Step-1,Increment      1: Step Time =    1.000,"PART-1-1",           311,       13.3798,      -22.4744,            0.,NA,NA,"",   8.54157E-03,  -8.44256E-03,   1.29676E-03,   32.0779E-06
C:/temp/dataset/2/12_9.odb,Step-1,Increment      1: Step Time =    1.000,"PART-1-1",           312,           15.,        -21.25,            0.,NA,NA,"",   9.48004E-03,  -9.18956E-03,   2.32876E-03,   23.3653E-06
C:/temp/dataset/2/12_9.odb,Step-1,Increment      1: Step Time =    1.000,"PART-1-1",           313,       13.3333,          -20.,            0.,NA,NA,"",   10.0206E-03,  -9.93933E-03,   1.27369E-03,   35.7674E-06
C:/temp/dataset/2/12_9.odb,Step-1,Increment      1: Step Time =    1.000,"PART-1-1",           314,       11.7131,      -21.2244,            0.,NA,NA,"",   9.21616E-03,  -9.21129E-03,   299.468E-06,   13.0807E-06
C:/temp/dataset/2/12_9.odb,Step-1,Increment      1: Step Time =    1.000,"PART-1-1",           315,      -2.14863,       2.00914,            0.,NA,NA,"",       1.58360,      -1.40286,   734.710E-03,   3.59225E-03
C:/temp/dataset/2/12_9.odb,Step-1,Increment      1: Step Time =    1.000,"PART-1-1",           316,      -1.66393,   575.985E-03,            0.,NA,NA,"",       1.50045,      -1.27685,   788.046E-03,   3.91357E-03
C:/temp/dataset/2/12_9.odb,Step-1,Increment      1: Step Time =    1.000,"PART-1-1",           317,   135.628E-03,       1.10435,            0.,NA,NA,"",       1.63749,      -1.33094,   953.934E-03,   2.01866E-03
C:/temp/dataset/2/12_9.odb,Step-1,Increment      1: Step Time =    1.000,"PART-1-1",           318,  -349.073E-03,       2.53751,            0.,NA,NA,"",       1.71513,      -1.45890,   901.823E-03,   1.73737E-03
C:/temp/dataset/2/12_9.odb,Step-1,Increment      1: Step Time =    1.000,"PART-1-1",           319,   156.145E-03,      -1.87787,            0.,NA,NA,"",       1.44002,      -1.06055,   974.117E-03,   3.74885E-03
C:/temp/dataset/2/12_9.odb,Step-1,Increment      1: Step Time =    1.000,"PART-1-1",           320,       1.21010,      -2.70880,            0.,NA,NA,"",       1.45958,  -987.196E-03,       1.07509,   2.85140E-03
C:/temp/dataset/2/12_9.odb,Step-1,Increment      1: Step Time =    1.000,"PART-1-1",           321,       2.32846,      -1.50081,            0.,NA,NA,"",       1.60650,      -1.10148,       1.16944,   731.613E-06
C:/temp/dataset/2/12_9.odb,Step-1,Increment      1: Step Time =    1.000,"PART-1-1",           322,       1.27451,  -669.883E-03,            0.,NA,NA,"",       1.58757,      -1.17362,       1.06912,   1.66763E-03
C:/temp/dataset/2/12_9.odb,Step-1,Increment      1: Step Time =    1.000,"PART-1-1",           323,       4.87500,      -1.23074,            0.,NA,NA,"",       1.80311,      -1.13667,       1.39971,   157.900E-06
C:/temp/dataset/2/12_9.odb,Step-1,Increment      1: Step Time =    1.000,"PART-1-1",           324,       6.20088,      -2.43579,            0.,NA,NA,"",       1.84217,      -1.03261,       1.52555,   136.111E-06
C:/temp/dataset/2/12_9.odb,Step-1,Increment      1: Step Time =    1.000,"PART-1-1",           325,       7.44880,      -1.07477,            0.,NA,NA,"",       2.00487,      -1.16194,       1.63383,   106.856E-06
C:/temp/dataset/2/12_9.odb,Step-1,Increment      1: Step Time =    1.000,"PART-1-1",           326,       6.12293,   130.279E-03,            0.,NA,NA,"",       1.96904,      -1.26623,       1.50791,   147.869E-06
C:/temp/dataset/2/12_9.odb,Step-1,Increment      1: Step Time =    1.000,"PART-1-1",           327,          8.75,           -5.,            0.,NA,NA,"",       1.94531,  -809.413E-03,       1.76892,   99.9814E-06
C:/temp/dataset/2/12_9.odb,Step-1,Increment      1: Step Time =    1.000,"PART-1-1",           328,       10.0063,      -3.63741,            0.,NA,NA,"",       2.09957,  -938.948E-03,       1.87791,   38.9333E-06
C:/temp/dataset/2/12_9.odb,Step-1,Increment      1: Step Time =    1.000,"PART-1-1",           329,       8.73716,      -2.32557,            0.,NA,NA,"",       2.04817,      -1.05330,       1.75657,   96.7158E-06
C:/temp/dataset/2/12_9.odb,Step-1,Increment      1: Step Time =    1.000,"PART-1-1",           330,       7.48081,      -3.68816,            0.,NA,NA,"",       1.88889,  -923.880E-03,       1.64753,   103.476E-06
C:/temp/dataset/2/12_9.odb,Step-1,Increment      1: Step Time =    1.000,"PART-1-1",           331,       6.24109,       7.72904,            0.,NA,NA,"",       2.46085,      -1.96087,       1.48686,   16.0253E-06
C:/temp/dataset/2/12_9.odb,Step-1,Increment      1: Step Time =    1.000,"PART-1-1",           332,            5.,          6.25,            0.,NA,NA,"",       2.28444,      -1.82070,       1.37975,   51.7446E-06
C:/temp/dataset/2/12_9.odb,Step-1,Increment      1: Step Time =    1.000,"PART-1-1",           333,       6.24095,       5.17046,            0.,NA,NA,"",       2.28615,      -1.72739,       1.49754,   112.940E-06
C:/temp/dataset/2/12_9.odb,Step-1,Increment      1: Step Time =    1.000,"PART-1-1",           334,       7.48203,       6.64950,            0.,NA,NA,"",       2.46222,      -1.86751,       1.60465,   21.6455E-06
C:/temp/dataset/2/12_9.odb,Step-1,Increment      1: Step Time =    1.000,"PART-1-1",           335,       7.34508,       23.6052,            0.,NA,NA,"",       3.73832,      -3.41475,       1.52135,   2.66481E-09
C:/temp/dataset/2/12_9.odb,Step-1,Increment      1: Step Time =    1.000,"PART-1-1",           336,       6.41056,       24.2397,            0.,NA,NA,"",       3.75326,      -3.46877,       1.43339,   3.46206E-09
C:/temp/dataset/2/12_9.odb,Step-1,Increment      1: Step Time =    1.000,"PART-1-1",           337,       6.08150,       22.9932,            0.,NA,NA,"",       3.63741,      -3.35361,       1.40856,   3.48554E-09
C:/temp/dataset/2/12_9.odb,Step-1,Increment      1: Step Time =    1.000,"PART-1-1",           338,       7.01602,       22.3587,            0.,NA,NA,"",       3.62310,      -3.29959,       1.49652,   5.28028E-09
C:/temp/dataset/2/12_9.odb,Step-1,Increment      1: Step Time =    1.000,"PART-1-1",           339,      -12.5005,       23.7291,            0.,NA,NA,"",       3.35582,      -3.34320,  -290.833E-03,   3.35169E-09
C:/temp/dataset/2/12_9.odb,Step-1,Increment      1: Step Time =    1.000,"PART-1-1",           340,      -13.7489,       24.9883,            0.,NA,NA,"",       3.47720,      -3.45293,  -410.052E-03,   3.34083E-09
C:/temp/dataset/2/12_9.odb,Step-1,Increment      1: Step Time =    1.000,"PART-1-1",           341,          -15.,         23.75,            0.,NA,NA,"",       3.37483,      -3.33467,  -519.094E-03,   3.32712E-09
C:/temp/dataset/2/12_9.odb,Step-1,Increment      1: Step Time =    1.000,"PART-1-1",           342,      -2.52491,       26.1674,            0.,NA,NA,"",       3.65859,      -3.60744,   609.640E-03,   3.31797E-09
C:/temp/dataset/2/12_9.odb,Step-1,Increment      1: Step Time =    1.000,"PART-1-1",           343,      -1.30373,       24.8780,            0.,NA,NA,"",       3.56954,      -3.49483,   726.503E-03,   3.38920E-09
C:/temp/dataset/2/12_9.odb,Step-1,Increment      1: Step Time =    1.000,"PART-1-1",           344,      -1.26817,       27.4122,            0.,NA,NA,"",       3.79508,      -3.72632,   719.169E-03,   3.32182E-09
C:/temp/dataset/2/12_9.odb,Step-1,Increment      1: Step Time =    1.000,"PART-1-1",           345,       2.31009,       23.4917,            0.,NA,NA,"",       3.54619,      -3.38337,       1.06219,   4.09764E-09
C:/temp/dataset/2/12_9.odb,Step-1,Increment      1: Step Time =    1.000,"PART-1-1",           346,       3.41051,       22.2101,            0.,NA,NA,"",       3.47324,      -3.27096,       1.16800,   5.85969E-09
C:/temp/dataset/2/12_9.odb,Step-1,Increment      1: Step Time =    1.000,"PART-1-1",           347,       4.46987,       23.2845,            0.,NA,NA,"",       3.60118,      -3.37347,       1.26022,   4.74932E-09
C:/temp/dataset/2/12_9.odb,Step-1,Increment      1: Step Time =    1.000,"PART-1-1",           348,       3.36945,       24.5662,            0.,NA,NA,"",       3.67206,      -3.48588,       1.15441,   3.90493E-09
C:/temp/dataset/2/12_9.odb,Step-1,Increment      1: Step Time =    1.000,"PART-1-1",           349,       3.92627,       27.0683,            0.,NA,NA,"",       3.90395,      -3.71662,       1.19479,   3.98969E-09
C:/temp/dataset/2/12_9.odb,Step-1,Increment      1: Step Time =    1.000,"PART-1-1",           350,       5.16355,       28.4353,            0.,NA,NA,"",       4.06097,      -3.84658,       1.30204,   4.31023E-09
C:/temp/dataset/2/12_9.odb,Step-1,Increment      1: Step Time =    1.000,"PART-1-1",           351,          3.75,           30.,            0.,NA,NA,"",       4.15078,      -3.98351,       1.16646,   4.52545E-09
C:/temp/dataset/2/12_9.odb,Step-1,Increment      1: Step Time =    1.000,"PART-1-1",           352,       2.51272,       28.6330,            0.,NA,NA,"",       3.99647,      -3.85355,       1.05922,   3.69441E-09
C:/temp/dataset/2/12_9.odb,Step-1,Increment      1: Step Time =    1.000,"PART-1-1",           353,       11.0463,       14.3537,            0.,NA,NA,"",       3.20741,      -2.58566,       1.89786,   688.978E-09
C:/temp/dataset/2/12_9.odb,Step-1,Increment      1: Step Time =    1.000,"PART-1-1",           354,       9.86747,       12.5470,            0.,NA,NA,"",       3.01133,      -2.41580,       1.79779,   916.569E-09
C:/temp/dataset/2/12_9.odb,Step-1,Increment      1: Step Time =    1.000,"PART-1-1",           355,       11.1901,       11.5237,            0.,NA,NA,"",       3.01933,      -2.32791,       1.92280,   717.197E-09
C:/temp/dataset/2/12_9.odb,Step-1,Increment      1: Step Time =    1.000,"PART-1-1",           356,       9.55073,       15.1783,            0.,NA,NA,"",       3.18395,      -2.65469,       1.75789,   579.098E-09
C:/temp/dataset/2/12_9.odb,Step-1,Increment      1: Step Time =    1.000,"PART-1-1",           357,       8.18591,       15.9712,            0.,NA,NA,"",       3.17218,      -2.72137,       1.62998,   362.462E-09
C:/temp/dataset/2/12_9.odb,Step-1,Increment      1: Step Time =    1.000,"PART-1-1",           358,       7.20669,       14.2932,            0.,NA,NA,"",       2.99494,      -2.56410,       1.54760,   772.508E-09
C:/temp/dataset/2/12_9.odb,Step-1,Increment      1: Step Time =    1.000,"PART-1-1",           359,       8.57151,       13.5002,            0.,NA,NA,"",       3.00738,      -2.49741,       1.67550,   690.096E-09
C:/temp/dataset/2/12_9.odb,Step-1,Increment      1: Step Time =    1.000,"PART-1-1",           360,       7.44377,       1.50598,            0.,NA,NA,"",       2.14157,      -1.39751,       1.62274,   104.344E-06
C:/temp/dataset/2/12_9.odb,Step-1,Increment      1: Step Time =    1.000,"PART-1-1",           361,       8.72836,   326.342E-03,            0.,NA,NA,"",       2.17302,      -1.29522,       1.74483,   84.2264E-06
C:/temp/dataset/2/12_9.odb,Step-1,Increment      1: Step Time =    1.000,"PART-1-1",           362,       10.0261,       1.76283,            0.,NA,NA,"",       2.34517,      -1.43185,       1.85731,   41.2669E-06
C:/temp/dataset/2/12_9.odb,Step-1,Increment      1: Step Time =    1.000,"PART-1-1",           363,       8.74149,       2.94246,            0.,NA,NA,"",       2.31617,      -1.53421,       1.73518,   67.2091E-06
C:/temp/dataset/2/12_9.odb,Step-1,Increment      1: Step Time =    1.000,"PART-1-1",           364,       12.5045,       7.62102,            0.,NA,NA,"",       2.85462,      -1.97711,       2.05909,   6.07226E-06
C:/temp/dataset/2/12_9.odb,Step-1,Increment      1: Step Time =    1.000,"PART-1-1",           365,           15.,         8.125,            0.,NA,NA,"",       3.05870,      -2.03355,       2.28480,   768.078E-09
C:/temp/dataset/2/12_9.odb,Step-1,Increment      1: Step Time =    1.000,"PART-1-1",           366,       13.7500,       9.30715,            0.,NA,NA,"",       3.04205,      -2.13625,       2.16575,   1.30142E-06
C:/temp/dataset/2/12_9.odb,Step-1,Increment      1: Step Time =    1.000,"PART-1-1",           367,      -1.45938,      -2.40358,            0.,NA,NA,"",       1.30637,      -1.01079,   827.590E-03,   6.34015E-03
C:/temp/dataset/2/12_9.odb,Step-1,Increment      1: Step Time =    1.000,"PART-1-1",           368,      -2.69869,      -3.52952,            0.,NA,NA,"",       1.15580,  -907.564E-03,   715.687E-03,   10.6493E-03
C:/temp/dataset/2/12_9.odb,Step-1,Increment      1: Step Time =    1.000,"PART-1-1",           369,         -1.25,           -5.,            0.,NA,NA,"",       1.16830,  -771.271E-03,   877.527E-03,   8.79786E-03
C:/temp/dataset/2/12_9.odb,Step-1,Increment      1: Step Time =    1.000,"PART-1-1",           370,  -10.6917E-03,      -3.87406,            0.,NA,NA,"",       1.31132,  -876.381E-03,   975.457E-03,   5.65876E-03
C:/temp/dataset/2/12_9.odb,Step-1,Increment      1: Step Time =    1.000,"PART-1-1",           371,      -13.3333,            5.,            0.,NA,NA,"",       1.61782,      -1.59741,  -256.161E-03,   566.461E-06
C:/temp/dataset/2/12_9.odb,Step-1,Increment      1: Step Time =    1.000,"PART-1-1",           372,          -15.,       3.54167,            0.,NA,NA,"",       1.51819,      -1.46652,  -392.714E-03,   541.984E-06
C:/temp/dataset/2/12_9.odb,Step-1,Increment      1: Step Time =    1.000,"PART-1-1",           373,      -13.2137,       2.05352,            0.,NA,NA,"",       1.36429,      -1.34397,  -234.555E-03,   2.43327E-03
C:/temp/dataset/2/12_9.odb,Step-1,Increment      1: Step Time =    1.000,"PART-1-1",           374,      -11.5470,       3.51185,            0.,NA,NA,"",       1.48128,      -1.47782,  -101.176E-03,   2.56014E-03
C:/temp/dataset/2/12_9.odb,Step-1,Increment      1: Step Time =    1.000,"PART-1-1",           375,          -15.,      625.E-03,            0.,NA,NA,"",       1.27176,      -1.21414,  -378.468E-03,   3.48271E-03
C:/temp/dataset/2/12_9.odb,Step-1,Increment      1: Step Time =    1.000,"PART-1-1",           376,      -12.9883,      -1.02354,            0.,NA,NA,"",       1.09326,      -1.07500,  -198.931E-03,   4.75182E-03
C:/temp/dataset/2/12_9.odb,Step-1,Increment      1: Step Time =    1.000,"PART-1-1",           377,      -11.2019,   404.974E-03,            0.,NA,NA,"",       1.20766,      -1.20607,  -61.8921E-03,   5.46695E-03
C:/temp/dataset/2/12_9.odb,Step-1,Increment      1: Step Time =    1.000,"PART-1-1",           378,      -13.6690,      -3.88141,            0.,NA,NA,"",   864.284E-03,  -833.134E-03,  -229.942E-03,   7.67864E-03
C:/temp/dataset/2/12_9.odb,Step-1,Increment      1: Step Time =    1.000,"PART-1-1",           379,      -11.6573,      -2.61328,            0.,NA,NA,"",   944.639E-03,  -940.801E-03,  -85.0651E-03,   6.20023E-03
C:/temp/dataset/2/12_9.odb,Step-1,Increment      1: Step Time =    1.000,"PART-1-1",           380,          -15.,      -2.29167,            0.,NA,NA,"",       1.02749,  -964.735E-03,  -353.597E-03,   8.15307E-03
C:/temp/dataset/2/12_9.odb,Step-1,Increment      1: Step Time =    1.000,"PART-1-1",           381,           -5.,         -8.75,            0.,NA,NA,"",   629.450E-03,  -520.390E-03,   354.121E-03,   26.1508E-03
C:/temp/dataset/2/12_9.odb,Step-1,Increment      1: Step Time =    1.000,"PART-1-1",           382,      -6.37238,      -7.84264,            0.,NA,NA,"",   629.471E-03,  -559.401E-03,   288.625E-03,   19.9791E-03
C:/temp/dataset/2/12_9.odb,Step-1,Increment      1: Step Time =    1.000,"PART-1-1",           383,      -7.67841,      -9.42411,            0.,NA,NA,"",   486.627E-03,  -450.636E-03,   183.665E-03,   14.0086E-03
C:/temp/dataset/2/12_9.odb,Step-1,Increment      1: Step Time =    1.000,"PART-1-1",           384,      -6.30603,      -10.3315,            0.,NA,NA,"",   480.927E-03,  -410.983E-03,   249.767E-03,   20.2763E-03
C:/temp/dataset/2/12_9.odb,Step-1,Increment      1: Step Time =    1.000,"PART-1-1",           385,      -13.6103,      -21.3688,            0.,NA,NA,"",   44.8413E-03,  -11.4014E-03,  -43.3676E-03,   9.53434E-03
C:/temp/dataset/2/12_9.odb,Step-1,Increment      1: Step Time =    1.000,"PART-1-1",           386,          -15.,      -22.7083,            0.,NA,NA,"",   46.7716E-03,  -5.61570E-03,  -46.4333E-03,   12.1806E-03
C:/temp/dataset/2/12_9.odb,Step-1,Increment      1: Step Time =    1.000,"PART-1-1",           387,      -13.6241,      -24.2925,            0.,NA,NA,"",   24.2241E-03,   8.41624E-03,  -22.7150E-03,   7.07785E-03
C:/temp/dataset/2/12_9.odb,Step-1,Increment      1: Step Time =    1.000,"PART-1-1",           388,      -12.2343,      -22.9530,            0.,NA,NA,"",   16.4845E-03,   5.86473E-03,  -15.4059E-03,   5.76408E-03
C:/temp/dataset/2/12_9.odb,Step-1,Increment      1: Step Time =    1.000,"PART-1-1",           389,           -5.,        -16.25,            0.,NA,NA,"",   245.094E-03,  -152.179E-03,   192.127E-03,   27.1115E-03
C:/temp/dataset/2/12_9.odb,Step-1,Increment      1: Step Time =    1.000,"PART-1-1",           390,      -6.06585,      -15.2329,            0.,NA,NA,"",   249.441E-03,  -178.057E-03,   174.690E-03,   21.9637E-03
C:/temp/dataset/2/12_9.odb,Step-1,Increment      1: Step Time =    1.000,"PART-1-1",           391,      -6.99530,      -16.6022,            0.,NA,NA,"",   167.655E-03,  -117.957E-03,   119.141E-03,   17.9568E-03
C:/temp/dataset/2/12_9.odb,Step-1,Increment      1: Step Time =    1.000,"PART-1-1",           392,      -5.92946,      -17.6192,            0.,NA,NA,"",   159.966E-03,  -92.5231E-03,   130.494E-03,   23.5057E-03
C:/temp/dataset/2/12_9.odb,Step-1,Increment      1: Step Time =    1.000,"PART-1-1",           393,         -13.5,          -30.,            0.,NA,NA,"",            0.,   2.92959E-39,  -4.59193E-39,   3.01297E-03
C:/temp/dataset/2/12_9.odb,Step-1,Increment      1: Step Time =    1.000,"PART-1-1",           394,      -12.0804,      -28.6247,            0.,NA,NA,"",   7.18056E-03,   6.97048E-03,  -1.72418E-03,   4.29915E-03
C:/temp/dataset/2/12_9.odb,Step-1,Increment      1: Step Time =    1.000,"PART-1-1",           395,      -13.5804,      -27.1664,            0.,NA,NA,"",   12.6797E-03,   9.11287E-03,  -8.81654E-03,   4.97165E-03
C:/temp/dataset/2/12_9.odb,Step-1,Increment      1: Step Time =    1.000,"PART-1-1",           396,          -15.,      -28.5417,            0.,NA,NA,"",   4.15141E-03,   2.53498E-03,  -3.28757E-03,   4.27587E-03
C:/temp/dataset/2/12_9.odb,Step-1,Increment      1: Step Time =    1.000,"PART-1-1",           397,          13.5,          -30.,            0.,NA,NA,"",            0.,  -496.106E-42,   1.18788E-39,   1.08937E-03
C:/temp/dataset/2/12_9.odb,Step-1,Increment      1: Step Time =    1.000,"PART-1-1",           398,           15.,        -28.75,            0.,NA,NA,"",   2.31393E-03,  -1.91722E-03,   1.29559E-03,   986.554E-06
C:/temp/dataset/2/12_9.odb,Step-1,Increment      1: Step Time =    1.000,"PART-1-1",           399,       13.4640,      -27.4843,            0.,NA,NA,"",   3.51379E-03,  -3.42392E-03,   789.614E-06,   576.389E-06
C:/temp/dataset/2/12_9.odb,Step-1,Increment      1: Step Time =    1.000,"PART-1-1",           400,       11.9640,      -28.7343,            0.,NA,NA,"",   1.72446E-03,  -1.71073E-03,   217.181E-06,   876.645E-06
C:/temp/dataset/2/12_9.odb,Step-1,Increment      1: Step Time =    1.000,"PART-1-1",           401,       10.2658,      -24.9335,            0.,NA,NA,"",   6.90488E-03,  -6.90372E-03,  -126.382E-06,   543.654E-06
C:/temp/dataset/2/12_9.odb,Step-1,Increment      1: Step Time =    1.000,"PART-1-1",           402,       8.77397,      -26.1861,            0.,NA,NA,"",   6.13609E-03,  -6.13404E-03,  -158.333E-06,   879.445E-06
C:/temp/dataset/2/12_9.odb,Step-1,Increment      1: Step Time =    1.000,"PART-1-1",           403,       10.3945,      -27.4590,            0.,NA,NA,"",   3.88485E-03,  -3.88350E-03,   102.357E-06,   932.846E-06
C:/temp/dataset/2/12_9.odb,Step-1,Increment      1: Step Time =    1.000,"PART-1-1",           404,       11.8863,      -26.2064,            0.,NA,NA,"",   5.20854E-03,  -5.19225E-03,   411.666E-06,   633.121E-06
C:/temp/dataset/2/12_9.odb,Step-1,Increment      1: Step Time =    1.000,"PART-1-1",           405,       8.93044,      -28.7247,            0.,NA,NA,"",   2.31336E-03,  -2.31008E-03,   123.113E-06,   1.13802E-03
C:/temp/dataset/2/12_9.odb,Step-1,Increment      1: Step Time =    1.000,"PART-1-1",           406,       7.31300,      -27.4411,            0.,NA,NA,"",   5.11077E-03,  -5.10968E-03,   105.176E-06,   1.29772E-03
C:/temp/dataset/2/12_9.odb,Step-1,Increment      1: Step Time =    1.000,"PART-1-1",           407,       5.88256,      -28.7164,            0.,NA,NA,"",   3.29406E-03,  -3.27891E-03,   315.649E-06,   1.65219E-03
C:/temp/dataset/2/12_9.odb,Step-1,Increment      1: Step Time =    1.000,"PART-1-1",           408,           7.5,          -30.,            0.,NA,NA,"",            0.,  -1.67298E-39,   796.648E-42,   1.53198E-03
C:/temp/dataset/2/12_9.odb,Step-1,Increment      1: Step Time =    1.000,"PART-1-1",           409,       5.63995,      -26.1773,            0.,NA,NA,"",   8.02920E-03,  -8.02592E-03,   229.580E-06,   1.29270E-03
C:/temp/dataset/2/12_9.odb,Step-1,Increment      1: Step Time =    1.000,"PART-1-1",           410,       3.92490,      -24.9166,            0.,NA,NA,"",   10.7355E-03,  -10.6894E-03,   993.444E-06,   1.52098E-03
C:/temp/dataset/2/12_9.odb,Step-1,Increment      1: Step Time =    1.000,"PART-1-1",           411,       2.50142,      -26.1700,            0.,NA,NA,"",   10.8490E-03,  -10.5294E-03,   2.61412E-03,   2.08611E-03
C:/temp/dataset/2/12_9.odb,Step-1,Increment      1: Step Time =    1.000,"PART-1-1",           412,       4.21647,      -27.4307,            0.,NA,NA,"",   7.06694E-03,  -7.00424E-03,   939.237E-06,   1.87570E-03
C:/temp/dataset/2/12_9.odb,Step-1,Increment      1: Step Time =    1.000,"PART-1-1",           413,       1.12659,      -27.4308,            0.,NA,NA,"",   9.39891E-03,  -8.75855E-03,   3.40988E-03,   2.90702E-03
C:/temp/dataset/2/12_9.odb,Step-1,Increment      1: Step Time =    1.000,"PART-1-1",           414,  -207.324E-03,      -28.7165,            0.,NA,NA,"",   5.65919E-03,  -5.05360E-03,   2.54707E-03,   3.72603E-03
C:/temp/dataset/2/12_9.odb,Step-1,Increment      1: Step Time =    1.000,"PART-1-1",           415,           1.5,          -30.,            0.,NA,NA,"",            0.,  -3.17617E-39,   4.03992E-39,   3.22258E-03
C:/temp/dataset/2/12_9.odb,Step-1,Increment      1: Step Time =    1.000,"PART-1-1",           416,       2.83391,      -28.7143,            0.,NA,NA,"",   4.59099E-03,  -4.47553E-03,   1.02317E-03,   2.48906E-03
C:/temp/dataset/2/12_9.odb,Step-1,Increment      1: Step Time =    1.000,"PART-1-1",           417,      -1.92078,      -27.4395,            0.,NA,NA,"",   11.2639E-03,  -7.97992E-03,   7.94963E-03,   4.67889E-03
C:/temp/dataset/2/12_9.odb,Step-1,Increment      1: Step Time =    1.000,"PART-1-1",           418,      -3.21345,      -28.7230,            0.,NA,NA,"",   5.50885E-03,  -3.24018E-03,   4.45518E-03,   5.03535E-03
C:/temp/dataset/2/12_9.odb,Step-1,Increment      1: Step Time =    1.000,"PART-1-1",           419,          -1.5,          -30.,            0.,NA,NA,"",            0.,  -3.07286E-39,   7.27351E-39,   3.97204E-03
C:/temp/dataset/2/12_9.odb,Step-1,Increment      1: Step Time =    1.000,"PART-1-1",           420,      -5.57419,      -22.4519,            0.,NA,NA,"",   53.6519E-03,  -12.2435E-03,   52.2362E-03,   12.7170E-03
C:/temp/dataset/2/12_9.odb,Step-1,Increment      1: Step Time =    1.000,"PART-1-1",           421,      -6.77537,      -23.6376,            0.,NA,NA,"",   38.1921E-03,  -1.58886E-03,   38.1590E-03,   11.0286E-03
C:/temp/dataset/2/12_9.odb,Step-1,Increment      1: Step Time =    1.000,"PART-1-1",           422,      -5.25528,      -24.9124,            0.,NA,NA,"",   28.9131E-03,  -5.72532E-03,   28.3405E-03,   8.63747E-03
C:/temp/dataset/2/12_9.odb,Step-1,Increment      1: Step Time =    1.000,"PART-1-1",           423,      -4.05411,      -23.7268,            0.,NA,NA,"",   35.4967E-03,  -13.6801E-03,   32.7547E-03,   10.0703E-03
C:/temp/dataset/2/12_9.odb,Step-1,Increment      1: Step Time =    1.000,"PART-1-1",           424,       13.4223,      -24.9720,            0.,NA,NA,"",   6.60493E-03,  -6.48294E-03,   1.26357E-03,   191.169E-06
C:/temp/dataset/2/12_9.odb,Step-1,Increment      1: Step Time =    1.000,"PART-1-1",           425,           15.,        -26.25,            0.,NA,NA,"",   5.77590E-03,  -5.20828E-03,   2.49698E-03,   242.534E-06
C:/temp/dataset/2/12_9.odb,Step-1,Increment      1: Step Time =    1.000,"PART-1-1",           426,       11.8021,      -23.6964,            0.,NA,NA,"",   7.66642E-03,  -7.65755E-03,   368.776E-06,   215.983E-06
C:/temp/dataset/2/12_9.odb,Step-1,Increment      1: Step Time =    1.000,"PART-1-1",           427,       10.1355,      -22.4445,            0.,NA,NA,"",   8.69283E-03,  -8.68325E-03,  -408.053E-06,   182.371E-06
C:/temp/dataset/2/12_9.odb,Step-1,Increment      1: Step Time =    1.000,"PART-1-1",           428,      -2.31424,      -24.9364,            0.,NA,NA,"",   22.6282E-03,  -13.4837E-03,   18.1721E-03,   6.13123E-03
C:/temp/dataset/2/12_9.odb,Step-1,Increment      1: Step Time =    1.000,"PART-1-1",           429,      -3.63092,      -26.1962,            0.,NA,NA,"",   18.7741E-03,  -7.99964E-03,   16.9844E-03,   6.99532E-03
C:/temp/dataset/2/12_9.odb,Step-1,Increment      1: Step Time =    1.000,"PART-1-1",           430,  -604.096E-03,      -26.1796,            0.,NA,NA,"",   14.7716E-03,  -11.9746E-03,   8.64922E-03,   4.12858E-03
C:/temp/dataset/2/12_9.odb,Step-1,Increment      1: Step Time =    1.000,"PART-1-1",           431,      -7.52977,      -11.9021,            0.,NA,NA,"",   354.547E-03,  -314.752E-03,   163.201E-03,   15.3722E-03
C:/temp/dataset/2/12_9.odb,Step-1,Increment      1: Step Time =    1.000,"PART-1-1",           432,      -6.22373,      -12.8207,            0.,NA,NA,"",   351.966E-03,  -281.202E-03,   211.673E-03,   20.7495E-03
C:/temp/dataset/2/12_9.odb,Step-1,Increment      1: Step Time =    1.000,"PART-1-1",           433,           -5.,        -11.25,            0.,NA,NA,"",   482.087E-03,  -375.204E-03,   302.705E-03,   25.5557E-03
C:/temp/dataset/2/12_9.odb,Step-1,Increment      1: Step Time =    1.000,"PART-1-1",           434,      -10.0475,      -12.6788,            0.,NA,NA,"",   264.835E-03,  -262.336E-03,   36.2943E-03,   4.56369E-03
C:/temp/dataset/2/12_9.odb,Step-1,Increment      1: Step Time =    1.000,"PART-1-1",           435,           -5.,         -6.25,            0.,NA,NA,"",   798.973E-03,  -681.638E-03,   416.807E-03,   33.8863E-03
C:/temp/dataset/2/12_9.odb,Step-1,Increment      1: Step Time =    1.000,"PART-1-1",           436,      -7.88282,      -7.02961,            0.,NA,NA,"",   632.157E-03,  -601.689E-03,   193.889E-03,   8.74829E-03
C:/temp/dataset/2/12_9.odb,Step-1,Increment      1: Step Time =    1.000,"PART-1-1",           437,      -13.8577,      -6.65334,            0.,NA,NA,"",   657.278E-03,  -621.378E-03,  -214.251E-03,   10.3985E-03
C:/temp/dataset/2/12_9.odb,Step-1,Increment      1: Step Time =    1.000,"PART-1-1",           438,      -12.5267,      -5.32641,            0.,NA,NA,"",   730.685E-03,  -718.540E-03,  -132.671E-03,   6.40264E-03
C:/temp/dataset/2/12_9.odb,Step-1,Increment      1: Step Time =    1.000,"PART-1-1",           439,          -15.,      -5.20833,            0.,NA,NA,"",   796.625E-03,  -730.855E-03,  -316.958E-03,   12.6170E-03
C:/temp/dataset/2/12_9.odb,Step-1,Increment      1: Step Time =    1.000,"PART-1-1",           440,          1.25,           -5.,            0.,NA,NA,"",       1.34021,  -782.450E-03,       1.08809,   273.833E-06
C:/temp/dataset/2/12_9.odb,Step-1,Increment      1: Step Time =    1.000,"PART-1-1",           441,       2.47079,      -3.83474,            0.,NA,NA,"",       1.48826,  -890.549E-03,       1.19241,   655.724E-06
C:/temp/dataset/2/12_9.odb,Step-1,Increment      1: Step Time =    1.000,"PART-1-1",           442,       3.51261,  -149.180E-03,            0.,NA,NA,"",       1.76838,      -1.22955,       1.27097,   410.314E-06
C:/temp/dataset/2/12_9.odb,Step-1,Increment      1: Step Time =    1.000,"PART-1-1",           443,       3.69085,      -2.58237,            0.,NA,NA,"",       1.64352,      -1.00861,       1.29763,   295.800E-06
C:/temp/dataset/2/12_9.odb,Step-1,Increment      1: Step Time =    1.000,"PART-1-1",           444,       8.74868,       5.55605,            0.,NA,NA,"",       2.47356,      -1.77294,       1.72488,   37.2672E-06
C:/temp/dataset/2/12_9.odb,Step-1,Increment      1: Step Time =    1.000,"PART-1-1",           445,       10.0030,       7.12352,            0.,NA,NA,"",       2.65527,      -1.92126,       1.83282,   13.0244E-06
C:/temp/dataset/2/12_9.odb,Step-1,Increment      1: Step Time =    1.000,"PART-1-1",           446,       8.73640,       8.21697,            0.,NA,NA,"",       2.64509,      -2.01580,       1.71261,   9.18857E-06
C:/temp/dataset/2/12_9.odb,Step-1,Increment      1: Step Time =    1.000,"PART-1-1",           447,           15.,     -625.E-03,            0.,NA,NA,"",       2.62920,      -1.23472,       2.32124,   16.5390E-06
C:/temp/dataset/2/12_9.odb,Step-1,Increment      1: Step Time =    1.000,"PART-1-1",           448,       13.7714,   731.820E-03,            0.,NA,NA,"",       2.58592,      -1.35343,       2.20346,   21.6344E-06
C:/temp/dataset/2/12_9.odb,Step-1,Increment      1: Step Time =    1.000,"PART-1-1",           449,       12.5339,  -774.506E-03,            0.,NA,NA,"",       2.42122,      -1.21076,       2.09676,   21.6138E-06
C:/temp/dataset/2/12_9.odb,Step-1,Increment      1: Step Time =    1.000,"PART-1-1",           450,       7.40609,       11.8257,            0.,NA,NA,"",       2.82103,      -2.33968,       1.57610,   1.87168E-06
C:/temp/dataset/2/12_9.odb,Step-1,Increment      1: Step Time =    1.000,"PART-1-1",           451,       8.70206,       10.8725,            0.,NA,NA,"",       2.82550,      -2.25808,       1.69839,   1.86404E-06
C:/temp/dataset/2/12_9.odb,Step-1,Increment      1: Step Time =    1.000,"PART-1-1",           452,       11.2454,       8.75341,            0.,NA,NA,"",       2.84041,      -2.07524,       1.93941,   3.71043E-06
C:/temp/dataset/2/12_9.odb,Step-1,Increment      1: Step Time =    1.000,"PART-1-1",           453,       11.2622,       5.99112,            0.,NA,NA,"",       2.67133,      -1.82312,       1.95249,   16.3708E-06
C:/temp/dataset/2/12_9.odb,Step-1,Increment      1: Step Time =    1.000,"PART-1-1",           454,       13.8596,       24.3693,            0.,NA,NA,"",       4.09832,      -3.51170,       2.11286,   6.64319E-09
C:/temp/dataset/2/12_9.odb,Step-1,Increment      1: Step Time =    1.000,"PART-1-1",           455,       12.6110,       23.1199,            0.,NA,NA,"",       3.94018,      -3.39244,       2.00409,   4.60518E-09
C:/temp/dataset/2/12_9.odb,Step-1,Increment      1: Step Time =    1.000,"PART-1-1",           456,       13.7514,       21.4590,            0.,NA,NA,"",       3.87396,      -3.24558,       2.11514,   6.84146E-09
C:/temp/dataset/2/12_9.odb,Step-1,Increment      1: Step Time =    1.000,"PART-1-1",           457,           15.,       22.7083,            0.,NA,NA,"",       4.03335,      -3.36484,       2.22390,   9.84875E-09
C:/temp/dataset/2/12_9.odb,Step-1,Increment      1: Step Time =    1.000,"PART-1-1",           458,       8.83903,       17.2613,            0.,NA,NA,"",       3.30345,      -2.84186,       1.68422,   255.984E-09
C:/temp/dataset/2/12_9.odb,Step-1,Increment      1: Step Time =    1.000,"PART-1-1",           459,       10.5130,       17.3338,            0.,NA,NA,"",       3.39519,      -2.85547,       1.83673,   224.770E-09
C:/temp/dataset/2/12_9.odb,Step-1,Increment      1: Step Time =    1.000,"PART-1-1",           460,       8.72284,       19.1442,            0.,NA,NA,"",       3.44304,      -3.01327,       1.66575,   112.948E-09
C:/temp/dataset/2/12_9.odb,Step-1,Increment      1: Step Time =    1.000,"PART-1-1",           461,           15.,       28.5417,            0.,NA,NA,"",       4.47520,      -3.89736,       2.19954,   3.62414E-09
C:/temp/dataset/2/12_9.odb,Step-1,Increment      1: Step Time =    1.000,"PART-1-1",           462,         13.75,           30.,            0.,NA,NA,"",       4.53061,      -4.02527,       2.07934,   3.47184E-09
C:/temp/dataset/2/12_9.odb,Step-1,Increment      1: Step Time =    1.000,"PART-1-1",           463,       12.5875,       28.6551,            0.,NA,NA,"",       4.37120,      -3.89764,       1.97884,   4.50244E-09
C:/temp/dataset/2/12_9.odb,Step-1,Increment      1: Step Time =    1.000,"PART-1-1",           464,       13.8375,       27.1968,            0.,NA,NA,"",       4.31472,      -3.76973,       2.09904,   4.76188E-09
C:/temp/dataset/2/12_9.odb,Step-1,Increment      1: Step Time =    1.000,"PART-1-1",           465,         11.25,           30.,            0.,NA,NA,"",       4.42103,      -4.01483,       1.85112,   5.59571E-09
C:/temp/dataset/2/12_9.odb,Step-1,Increment      1: Step Time =    1.000,"PART-1-1",           466,       10.1484,       28.7335,            0.,NA,NA,"",       4.27211,      -3.89461,       1.75585,   5.06360E-09
C:/temp/dataset/2/12_9.odb,Step-1,Increment      1: Step Time =    1.000,"PART-1-1",           467,       7.69941,       28.7139,            0.,NA,NA,"",       4.17405,      -3.88259,       1.53237,   5.12597E-09
C:/temp/dataset/2/12_9.odb,Step-1,Increment      1: Step Time =    1.000,"PART-1-1",           468,       9.09777,       27.4473,            0.,NA,NA,"",       4.12400,      -3.77281,       1.66531,   3.53910E-09
C:/temp/dataset/2/12_9.odb,Step-1,Increment      1: Step Time =    1.000,"PART-1-1",           469,          8.75,           30.,            0.,NA,NA,"",       4.32076,      -4.00439,       1.62290,   6.90497E-09
C:/temp/dataset/2/12_9.odb,Step-1,Increment      1: Step Time =    1.000,"PART-1-1",           470,  -9.87333E-03,       28.6960,            0.,NA,NA,"",       3.93697,      -3.84877,   828.675E-03,   3.28392E-09
C:/temp/dataset/2/12_9.odb,Step-1,Increment      1: Step Time =    1.000,"PART-1-1",           471,          1.25,           30.,            0.,NA,NA,"",       4.08235,      -3.97307,   938.242E-03,   3.46586E-09
C:/temp/dataset/2/12_9.odb,Step-1,Increment      1: Step Time =    1.000,"PART-1-1",           472,       4.87954,       25.6434,            0.,NA,NA,"",       3.81447,      -3.59052,       1.28777,   3.76202E-09
C:/temp/dataset/2/12_9.odb,Step-1,Increment      1: Step Time =    1.000,"PART-1-1",           473,      -5.00474,       28.7231,            0.,NA,NA,"",       3.84847,      -3.83039,   372.590E-03,   3.20415E-09
C:/temp/dataset/2/12_9.odb,Step-1,Increment      1: Step Time =    1.000,"PART-1-1",           474,         -6.25,           30.,            0.,NA,NA,"",       3.94990,      -3.94176,   253.581E-03,   3.18473E-09
C:/temp/dataset/2/12_9.odb,Step-1,Increment      1: Step Time =    1.000,"PART-1-1",           475,      -3.76303,       27.4393,            0.,NA,NA,"",       3.75069,      -3.71837,   491.304E-03,   3.25997E-09
C:/temp/dataset/2/12_9.odb,Step-1,Increment      1: Step Time =    1.000,"PART-1-1",           476,      -3.77322,       24.9147,            0.,NA,NA,"",       3.52365,      -3.48787,   500.915E-03,   3.35751E-09
C:/temp/dataset/2/12_9.odb,Step-1,Increment      1: Step Time =    1.000,"PART-1-1",           477,      -13.7476,       27.4926,            0.,NA,NA,"",       3.70548,      -3.68155,  -420.392E-03,   3.35850E-09
C:/temp/dataset/2/12_9.odb,Step-1,Increment      1: Step Time =    1.000,"PART-1-1",           478,        -13.75,           30.,            0.,NA,NA,"",       3.93413,      -3.91044,  -431.080E-03,   3.33438E-09
C:/temp/dataset/2/12_9.odb,Step-1,Increment      1: Step Time =    1.000,"PART-1-1",           479,          -15.,         28.75,            0.,NA,NA,"",       3.82937,      -3.79111,  -539.971E-03,   3.38823E-09
C:/temp/dataset/2/12_9.odb,Step-1,Increment      1: Step Time =    1.000,"PART-1-1",           480,          -15.,         26.25,            0.,NA,NA,"",       3.60203,      -3.56289,  -529.532E-03,   3.35726E-09
C:/temp/dataset/2/12_9.odb,Step-1,Increment      1: Step Time =    1.000,"PART-1-1",           481,      -12.4965,       26.2309,            0.,NA,NA,"",       3.58425,      -3.57160,  -300.912E-03,   3.33799E-09
C:/temp/dataset/2/12_9.odb,Step-1,Increment      1: Step Time =    1.000,"PART-1-1",           482,      -10.0014,       23.7134,            0.,NA,NA,"",       3.35278,      -3.35220,  -62.6263E-03,   3.35900E-09
C:/temp/dataset/2/12_9.odb,Step-1,Increment      1: Step Time =    1.000,"PART-1-1",           483,      -8.75535,       22.4567,            0.,NA,NA,"",       3.24317,      -3.24268,   56.3692E-03,   3.38389E-09
C:/temp/dataset/2/12_9.odb,Step-1,Increment      1: Step Time =    1.000,"PART-1-1",           484,      -7.50515,       23.6891,            0.,NA,NA,"",       3.36447,      -3.36040,   165.352E-03,   3.36255E-09
C:/temp/dataset/2/12_9.odb,Step-1,Increment      1: Step Time =    1.000,"PART-1-1",           485,      -8.75118,       24.9458,            0.,NA,NA,"",       3.47024,      -3.46993,   46.3561E-03,   3.33817E-09
C:/temp/dataset/2/12_9.odb,Step-1,Increment      1: Step Time =    1.000,"PART-1-1",           486,      -3.77419,       22.4219,            0.,NA,NA,"",       3.30014,      -3.26030,   511.235E-03,   3.43662E-09
C:/temp/dataset/2/12_9.odb,Step-1,Increment      1: Step Time =    1.000,"PART-1-1",           487,      -5.00723,       21.2173,            0.,NA,NA,"",       3.17099,      -3.14519,   403.703E-03,   3.42885E-09
C:/temp/dataset/2/12_9.odb,Step-1,Increment      1: Step Time =    1.000,"PART-1-1",           488,         -3.75,           20.,            0.,NA,NA,"",       3.08408,      -3.03931,   523.556E-03,   3.47107E-09
C:/temp/dataset/2/12_9.odb,Step-1,Increment      1: Step Time =    1.000,"PART-1-1",           489,      -2.51696,       21.2046,            0.,NA,NA,"",       3.21693,      -3.15442,   631.088E-03,   3.49293E-09
C:/temp/dataset/2/12_9.odb,Step-1,Increment      1: Step Time =    1.000,"PART-1-1",           490,         -8.75,           20.,            0.,NA,NA,"",       3.01918,      -3.01844,   67.1152E-03,   3.43133E-09
C:/temp/dataset/2/12_9.odb,Step-1,Increment      1: Step Time =    1.000,"PART-1-1",           491,      -7.50331,       21.2223,            0.,NA,NA,"",       3.14015,      -3.13522,   175.820E-03,   3.41597E-09
C:/temp/dataset/2/12_9.odb,Step-1,Increment      1: Step Time =    1.000,"PART-1-1",           492,         -6.25,           20.,            0.,NA,NA,"",       3.04324,      -3.02887,   295.336E-03,   3.45141E-09
C:/temp/dataset/2/12_9.odb,Step-1,Increment      1: Step Time =    1.000,"PART-1-1",           493,      -6.26054,       22.4396,            0.,NA,NA,"",       3.26393,      -3.25154,   284.187E-03,   3.40050E-09
C:/temp/dataset/2/12_9.odb,Step-1,Increment      1: Step Time =    1.000,"PART-1-1",           494,         -1.25,           20.,            0.,NA,NA,"",       3.14104,      -3.04975,   751.776E-03,   3.67840E-09
C:/temp/dataset/2/12_9.odb,Step-1,Increment      1: Step Time =    1.000,"PART-1-1",           495,      -1.30453,       22.3853,            0.,NA,NA,"",       3.34933,      -3.26728,   736.838E-03,   3.54894E-09
C:/temp/dataset/2/12_9.odb,Step-1,Increment      1: Step Time =    1.000,"PART-1-1",           496,         -1.25,           30.,            0.,NA,NA,"",       4.02574,      -3.96263,   710.021E-03,   3.15653E-09
C:/temp/dataset/2/12_9.odb,Step-1,Increment      1: Step Time =    1.000,"PART-1-1",           497,      -2.50829,       28.7162,            0.,NA,NA,"",       3.88685,      -3.84018,   600.515E-03,   3.19357E-09
C:/temp/dataset/2/12_9.odb,Step-1,Increment      1: Step Time =    1.000,"PART-1-1",           498,         -3.75,           30.,            0.,NA,NA,"",       3.98145,      -3.95219,   481.801E-03,   3.13999E-09
C:/temp/dataset/2/12_9.odb,Step-1,Increment      1: Step Time =    1.000,"PART-1-1",           499,          3.75,           20.,            0.,NA,NA,"",       3.29978,      -3.07063,       1.20822,   10.8125E-09
C:/temp/dataset/2/12_9.odb,Step-1,Increment      1: Step Time =    1.000,"PART-1-1",           500,       4.75388,       21.0765,            0.,NA,NA,"",       3.42731,      -3.17309,       1.29536,   10.0635E-09
C:/temp/dataset/2/12_9.odb,Step-1,Increment      1: Step Time =    1.000,"PART-1-1",           501,          6.25,           30.,            0.,NA,NA,"",       4.23046,      -3.99395,       1.39468,   6.15296E-09
C:/temp/dataset/2/12_9.odb,Step-1,Increment      1: Step Time =    1.000,"PART-1-1",           502,       6.61296,       27.1492,            0.,NA,NA,"",       4.00309,      -3.73522,       1.43972,   3.62833E-09
C:/temp/dataset/2/12_9.odb,Step-1,Increment      1: Step Time =    1.000,"PART-1-1",           503,            5.,         16.25,            0.,NA,NA,"",       3.04341,      -2.73352,       1.33799,   350.410E-09
C:/temp/dataset/2/12_9.odb,Step-1,Increment      1: Step Time =    1.000,"PART-1-1",           504,       6.03202,       15.2452,            0.,NA,NA,"",       3.01083,      -2.64610,       1.43639,   380.673E-09
C:/temp/dataset/2/12_9.odb,Step-1,Increment      1: Step Time =    1.000,"PART-1-1",           505,       6.91243,       16.6330,            0.,NA,NA,"",       3.16098,      -2.77646,       1.51097,   293.046E-09
C:/temp/dataset/2/12_9.odb,Step-1,Increment      1: Step Time =    1.000,"PART-1-1",           506,            5.,         13.75,            0.,NA,NA,"",       2.84513,      -2.50530,       1.34843,   726.366E-09
C:/temp/dataset/2/12_9.odb,Step-1,Increment      1: Step Time =    1.000,"PART-1-1",           507,       6.17466,       12.7979,            0.,NA,NA,"",       2.82893,      -2.42329,       1.45963,   1.05115E-06
C:/temp/dataset/2/12_9.odb,Step-1,Increment      1: Step Time =    1.000,"PART-1-1",           508,       12.0086,       16.5092,            0.,NA,NA,"",       3.41638,      -2.78645,       1.97670,   358.378E-09
C:/temp/dataset/2/12_9.odb,Step-1,Increment      1: Step Time =    1.000,"PART-1-1",           509,           15.,        16.875,            0.,NA,NA,"",       3.61618,      -2.83233,       2.24826,   221.860E-09
C:/temp/dataset/2/12_9.odb,Step-1,Increment      1: Step Time =    1.000,"PART-1-1",           510,       13.3591,       18.2744,            0.,NA,NA,"",       3.61947,      -2.95323,       2.09262,   80.8519E-09
C:/temp/dataset/2/12_9.odb,Step-1,Increment      1: Step Time =    1.000,"PART-1-1",           511,            5.,         11.25,            0.,NA,NA,"",       2.65172,      -2.27708,       1.35887,   3.74087E-06
C:/temp/dataset/2/12_9.odb,Step-1,Increment      1: Step Time =    1.000,"PART-1-1",           512,       6.23142,       10.2778,            0.,NA,NA,"",       2.64347,      -2.19347,       1.47534,   2.38534E-06
C:/temp/dataset/2/12_9.odb,Step-1,Increment      1: Step Time =    1.000,"PART-1-1",           513,            5.,          8.75,            0.,NA,NA,"",       2.46433,      -2.04887,       1.36932,   5.87101E-06
C:/temp/dataset/2/12_9.odb,Step-1,Increment      1: Step Time =    1.000,"PART-1-1",           514,       7.47251,       9.25684,            0.,NA,NA,"",       2.64012,      -2.10545,       1.59289,   6.65313E-06
C:/temp/dataset/2/12_9.odb,Step-1,Increment      1: Step Time =    1.000,"PART-1-1",           515,         11.25,           -5.,            0.,NA,NA,"",       2.15885,  -819.759E-03,       1.99716,   27.8217E-06
C:/temp/dataset/2/12_9.odb,Step-1,Increment      1: Step Time =    1.000,"PART-1-1",           516,       11.2689,      -2.22707,            0.,NA,NA,"",       2.25843,      -1.07290,       1.98731,   41.5699E-06
C:/temp/dataset/2/12_9.odb,Step-1,Increment      1: Step Time =    1.000,"PART-1-1",           517,          10.5,          -30.,            0.,NA,NA,"",            0.,  -1.15880E-39,   586.791E-42,   1.04055E-03
C:/temp/dataset/2/12_9.odb,Step-1,Increment      1: Step Time =    1.000,"PART-1-1",           518,           15.,        -23.75,            0.,NA,NA,"",   7.89685E-03,  -7.50881E-03,   2.44502E-03,   19.8119E-06
C:/temp/dataset/2/12_9.odb,Step-1,Increment      1: Step Time =    1.000,"PART-1-1",           519,          3.75,           -5.,            0.,NA,NA,"",       1.53247,  -789.748E-03,       1.31330,   612.980E-06
C:/temp/dataset/2/12_9.odb,Step-1,Increment      1: Step Time =    1.000,"PART-1-1",           520,       4.97006,      -3.74763,            0.,NA,NA,"",       1.68461,  -908.155E-03,       1.41886,   185.381E-06
C:/temp/dataset/2/12_9.odb,Step-1,Increment      1: Step Time =    1.000,"PART-1-1",           521,       4.85412,       3.76356,            0.,NA,NA,"",       2.10572,      -1.59320,       1.37687,   148.157E-06
C:/temp/dataset/2/12_9.odb,Step-1,Increment      1: Step Time =    1.000,"PART-1-1",           522,       3.33333,            5.,            0.,NA,NA,"",       2.09993,      -1.70044,       1.23216,   280.327E-06
C:/temp/dataset/2/12_9.odb,Step-1,Increment      1: Step Time =    1.000,"PART-1-1",           523,       1.45296,       3.58740,            0.,NA,NA,"",       1.89120,      -1.56285,       1.06495,   484.746E-06
C:/temp/dataset/2/12_9.odb,Step-1,Increment      1: Step Time =    1.000,"PART-1-1",           524,       2.97375,       2.35096,            0.,NA,NA,"",       1.89347,      -1.45593,       1.21056,   356.807E-06
C:/temp/dataset/2/12_9.odb,Step-1,Increment      1: Step Time =    1.000,"PART-1-1",           525,          6.25,           -5.,            0.,NA,NA,"",       1.73577,  -799.380E-03,       1.54074,   253.301E-06
C:/temp/dataset/2/12_9.odb,Step-1,Increment      1: Step Time =    1.000,"PART-1-1",           526,       12.4696,       10.4445,            0.,NA,NA,"",       3.02860,      -2.23473,       2.04411,   536.485E-09
C:/temp/dataset/2/12_9.odb,Step-1,Increment      1: Step Time =    1.000,"PART-1-1",           527,           15.,       11.0417,            0.,NA,NA,"",       3.23325,      -2.29981,       2.27262,   1.73877E-06
C:/temp/dataset/2/12_9.odb,Step-1,Increment      1: Step Time =    1.000,"PART-1-1",           528,      -5.01382,       23.6808,            0.,NA,NA,"",       3.39286,      -3.37005,   392.815E-03,   3.37384E-09
C:/temp/dataset/2/12_9.odb,Step-1,Increment      1: Step Time =    1.000,"PART-1-1",           529,      -2.53358,       23.6558,            0.,NA,NA,"",       3.43443,      -3.37812,   619.336E-03,   3.41308E-09
C:/temp/dataset/2/12_9.odb,Step-1,Increment      1: Step Time =    1.000,"PART-1-1",           530,  -74.6816E-03,       23.6075,            0.,NA,NA,"",       3.48765,      -3.38399,   844.006E-03,   3.51683E-09
C:/temp/dataset/2/12_9.odb,Step-1,Increment      1: Step Time =    1.000,"PART-1-1",           531,      -6.62798,      -1.45964,            0.,NA,NA,"",       1.11515,      -1.06817,   320.272E-03,   8.04034E-03
C:/temp/dataset/2/12_9.odb,Step-1,Increment      1: Step Time =    1.000,"PART-1-1",           532,      -4.43070,      -2.38075,            0.,NA,NA,"",       1.13483,      -1.00527,   526.571E-03,   9.72653E-03
C:/temp/dataset/2/12_9.odb,Step-1,Increment      1: Step Time =    1.000,"PART-1-1",           533,      -3.64554,  -813.143E-03,            0.,NA,NA,"",       1.29516,      -1.14648,   602.507E-03,   7.75875E-03
C:/temp/dataset/2/12_9.odb,Step-1,Increment      1: Step Time =    1.000,"PART-1-1",           534,         -3.75,           -5.,            0.,NA,NA,"",   985.863E-03,  -765.557E-03,   621.167E-03,   13.0650E-03
C:/temp/dataset/2/12_9.odb,Step-1,Increment      1: Step Time =    1.000,"PART-1-1",           535,      -13.8599,      -9.43096,            0.,NA,NA,"",   474.600E-03,  -438.598E-03,  -181.320E-03,   11.4710E-03
C:/temp/dataset/2/12_9.odb,Step-1,Increment      1: Step Time =    1.000,"PART-1-1",           536,          -15.,      -11.0417,            0.,NA,NA,"",   417.631E-03,  -352.624E-03,  -223.769E-03,   16.6605E-03
C:/temp/dataset/2/12_9.odb,Step-1,Increment      1: Step Time =    1.000,"PART-1-1",           537,      -11.9984,      -19.8095,            0.,NA,NA,"",   36.4986E-03,  -28.0326E-03,  -23.3735E-03,   5.10858E-03
C:/temp/dataset/2/12_9.odb,Step-1,Increment      1: Step Time =    1.000,"PART-1-1",           538,      -13.3881,      -18.2324,            0.,NA,NA,"",   92.6309E-03,  -64.6039E-03,  -66.3838E-03,   10.1623E-03
C:/temp/dataset/2/12_9.odb,Step-1,Increment      1: Step Time =    1.000,"PART-1-1",           539,          -15.,      -19.7917,            0.,NA,NA,"",   93.5149E-03,  -41.5616E-03,  -83.7715E-03,   15.4234E-03
C:/temp/dataset/2/12_9.odb,Step-1,Increment      1: Step Time =    1.000,"PART-1-1",           540,           -5.,        -18.75,            0.,NA,NA,"",   143.238E-03,  -68.3529E-03,   125.877E-03,   35.1316E-03
C:/temp/dataset/2/12_9.odb,Step-1,Increment      1: Step Time =    1.000,"PART-1-1",           541,      -5.96138,      -20.0094,            0.,NA,NA,"",   88.0400E-03,  -23.5296E-03,   84.8375E-03,   22.0306E-03
C:/temp/dataset/2/12_9.odb,Step-1,Increment      1: Step Time =    1.000,"PART-1-1",           542,           -5.,        -13.75,            0.,NA,NA,"",   353.295E-03,  -252.020E-03,   247.595E-03,   25.8229E-03
C:/temp/dataset/2/12_9.odb,Step-1,Increment      1: Step Time =    1.000,"PART-1-1",           543,      -7.28958,      -14.3036,            0.,NA,NA,"",   248.944E-03,  -204.472E-03,   142.001E-03,   16.6349E-03
C:/temp/dataset/2/12_9.odb,Step-1,Increment      1: Step Time =    1.000,"PART-1-1",           544,      -8.88285,      -11.0213,            0.,NA,NA,"",   366.492E-03,  -351.953E-03,   102.201E-03,   9.45587E-03
C:/temp/dataset/2/12_9.odb,Step-1,Increment      1: Step Time =    1.000,"PART-1-1",           545,      -9.01222,      -8.51542,            0.,NA,NA,"",   510.681E-03,  -498.756E-03,   109.715E-03,   8.23515E-03
C:/temp/dataset/2/12_9.odb,Step-1,Increment      1: Step Time =    1.000,"PART-1-1",           546,      -9.13424,  -715.290E-03,            0.,NA,NA,"",       1.12228,      -1.11706,   108.155E-03,   5.19858E-03
C:/temp/dataset/2/12_9.odb,Step-1,Increment      1: Step Time =    1.000,"PART-1-1",           547,      -9.92186,      -2.42350,            0.,NA,NA,"",   963.480E-03,  -962.314E-03,   47.3970E-03,   6.65518E-03
C:/temp/dataset/2/12_9.odb,Step-1,Increment      1: Step Time =    1.000,"PART-1-1",           548,      -12.7176,      -7.95930,            0.,NA,NA,"",   543.834E-03,  -529.303E-03,  -124.875E-03,   6.72545E-03
C:/temp/dataset/2/12_9.odb,Step-1,Increment      1: Step Time =    1.000,"PART-1-1",           549,          -15.,        -8.125,            0.,NA,NA,"",   591.226E-03,  -525.087E-03,  -271.720E-03,   15.4601E-03
C:/temp/dataset/2/12_9.odb,Step-1,Increment      1: Step Time =    1.000,"PART-1-1",           550,       11.2818,   528.104E-03,            0.,NA,NA,"",       2.37965,      -1.32440,       1.97705,   36.7384E-06
C:/temp/dataset/2/12_9.odb,Step-1,Increment      1: Step Time =    1.000,"PART-1-1",           551,       10.0167,  -924.457E-03,            0.,NA,NA,"",       2.21262,      -1.18650,       1.86759,   47.7609E-06
C:/temp/dataset/2/12_9.odb,Step-1,Increment      1: Step Time =    1.000,"PART-1-1",           552,       10.4320,       23.7699,            0.,NA,NA,"",       3.88599,      -3.44267,       1.80247,   8.68216E-09
C:/temp/dataset/2/12_9.odb,Step-1,Increment      1: Step Time =    1.000,"PART-1-1",           553,           15.,        25.625,            0.,NA,NA,"",       4.25166,      -3.63110,       2.21172,   7.14163E-09
C:/temp/dataset/2/12_9.odb,Step-1,Increment      1: Step Time =    1.000,"PART-1-1",           554,      -9.99539,       26.2124,            0.,NA,NA,"",       3.58109,      -3.58036,  -72.5144E-03,   3.32011E-09
C:/temp/dataset/2/12_9.odb,Step-1,Increment      1: Step Time =    1.000,"PART-1-1",           555,          -15.,       -25.625,            0.,NA,NA,"",   20.2572E-03,   6.28926E-03,  -19.2562E-03,   8.32679E-03
C:/temp/dataset/2/12_9.odb,Step-1,Increment      1: Step Time =    1.000,"PART-1-1",           556,      -12.2044,      -25.8339,            0.,NA,NA,"",   14.8022E-03,   12.9015E-03,  -7.25653E-03,   5.02628E-03
C:/temp/dataset/2/12_9.odb,Step-1,Increment      1: Step Time =    1.000,"PART-1-1",           557,          -15.,       -16.875,            0.,NA,NA,"",   169.041E-03,  -110.087E-03,  -128.279E-03,   17.0386E-03
C:/temp/dataset/2/12_9.odb,Step-1,Increment      1: Step Time =    1.000,"PART-1-1",           558,      -8.25880,      -15.9015,            0.,NA,NA,"",   160.438E-03,  -134.814E-03,   86.9796E-03,   12.0289E-03
C:/temp/dataset/2/12_9.odb,Step-1,Increment      1: Step Time =    1.000,"PART-1-1",           559,       7.56555,       17.9230,            0.,NA,NA,"",       3.29275,      -2.89695,       1.56520,   151.230E-09
C:/temp/dataset/2/12_9.odb,Step-1,Increment      1: Step Time =    1.000,"PART-1-1",           560,      -9.72707,       2.21069,            0.,NA,NA,"",       1.37428,      -1.37321,   54.0890E-03,   3.73567E-03
C:/temp/dataset/2/12_9.odb,Step-1,Increment      1: Step Time =    1.000,"PART-1-1",           561,      -8.18006,       3.69884,            0.,NA,NA,"",       1.52475,      -1.51391,   181.504E-03,   4.06826E-03
C:/temp/dataset/2/12_9.odb,Step-1,Increment      1: Step Time =    1.000,"PART-1-1",           562,          -10.,            5.,            0.,NA,NA,"",       1.61431,      -1.61412,   24.3142E-03,   3.20788E-03
C:/temp/dataset/2/12_9.odb,Step-1,Increment      1: Step Time =    1.000,"PART-1-1",           563,      -10.3433,      -7.69771,            0.,NA,NA,"",   548.645E-03,  -548.014E-03,   26.3091E-03,   2.74322E-03
C:/temp/dataset/2/12_9.odb,Step-1,Increment      1: Step Time =    1.000,"PART-1-1",           564,      -11.5611,      -6.59494,            0.,NA,NA,"",   626.316E-03,  -623.691E-03,  -57.2775E-03,   4.03358E-03
C:/temp/dataset/2/12_9.odb,Step-1,Increment      1: Step Time =    1.000,"PART-1-1",           565,      -9.40089,      -20.7816,            0.,NA,NA,"",   30.5337E-03,  -11.8202E-03,   28.1529E-03,   5.66506E-03
C:/temp/dataset/2/12_9.odb,Step-1,Increment      1: Step Time =    1.000,"PART-1-1",           566,      -8.21757,      -22.2064,            0.,NA,NA,"",   38.9243E-03,  -1.08612E-03,   38.9091E-03,   8.89243E-03
C:/temp/dataset/2/12_9.odb,Step-1,Increment      1: Step Time =    1.000,"PART-1-1",           567,      -6.89894,      -21.2078,            0.,NA,NA,"",   63.2876E-03,  -11.4944E-03,   62.2351E-03,   12.6573E-03
C:/temp/dataset/2/12_9.odb,Step-1,Increment      1: Step Time =    1.000,"PART-1-1",           568,      -9.14285,      -28.6800,            0.,NA,NA,"",   6.64781E-03,   6.13333E-03,   2.56429E-03,   4.33936E-03
C:/temp/dataset/2/12_9.odb,Step-1,Increment      1: Step Time =    1.000,"PART-1-1",           569,      -10.7232,      -27.3047,            0.,NA,NA,"",   11.3384E-03,   11.2989E-03,   945.186E-06,   3.54535E-03
C:/temp/dataset/2/12_9.odb,Step-1,Increment      1: Step Time =    1.000,"PART-1-1",           570,         -10.5,          -30.,            0.,NA,NA,"",            0.,   5.13165E-39,   1.23374E-39,   3.88928E-03
C:/temp/dataset/2/12_9.odb,Step-1,Increment      1: Step Time =    1.000,"PART-1-1",           571,      -4.89633,      -27.4366,            0.,NA,NA,"",   11.7659E-03,  -2.08278E-03,   11.5801E-03,   6.17297E-03
C:/temp/dataset/2/12_9.odb,Step-1,Increment      1: Step Time =    1.000,"PART-1-1",           572,      -6.18287,      -28.7136,            0.,NA,NA,"",   5.11104E-03,   1.40573E-03,   4.91392E-03,   5.32480E-03
C:/temp/dataset/2/12_9.odb,Step-1,Increment      1: Step Time =    1.000,"PART-1-1",           573,          -4.5,          -30.,            0.,NA,NA,"",            0.,  -920.505E-42,   9.46806E-39,   4.15458E-03
C:/temp/dataset/2/12_9.odb,Step-1,Increment      1: Step Time =    1.000,"PART-1-1",           574,       12.5384,       2.02620,            0.,NA,NA,"",       2.54947,      -1.46643,       2.08552,   18.0711E-06
C:/temp/dataset/2/12_9.odb,Step-1,Increment      1: Step Time =    1.000,"PART-1-1",           575,           15.,       2.29167,            0.,NA,NA,"",       2.75408,      -1.50097,       2.30913,   19.1048E-06
C:/temp/dataset/2/12_9.odb,Step-1,Increment      1: Step Time =    1.000,"PART-1-1",           576,       9.96595,       9.83263,            0.,NA,NA,"",       2.82977,      -2.16842,       1.81811,   2.29828E-06
C:/temp/dataset/2/12_9.odb,Step-1,Increment      1: Step Time =    1.000,"PART-1-1",           577,           15.,       19.7917,            0.,NA,NA,"",       3.82116,      -3.09859,       2.23608,   37.2088E-09
C:/temp/dataset/2/12_9.odb,Step-1,Increment      1: Step Time =    1.000,"PART-1-1",           578,       7.90800,       20.1372,            0.,NA,NA,"",       3.48317,      -3.10051,       1.58722,   41.4622E-09
C:/temp/dataset/2/12_9.odb,Step-1,Increment      1: Step Time =    1.000,"PART-1-1",           579,       8.41916,       21.3934,            0.,NA,NA,"",       3.60606,      -3.21733,       1.62864,   29.4707E-09
C:/temp/dataset/2/12_9.odb,Step-1,Increment      1: Step Time =    1.000,"PART-1-1",           580,       6.50486,       21.1025,            0.,NA,NA,"",       3.49963,      -3.18278,       1.45510,   18.8679E-09
C:/temp/dataset/2/12_9.odb,Step-1,Increment      1: Step Time =    1.000,"PART-1-1",           581,           4.5,          -30.,            0.,NA,NA,"",            0.,  -2.42240E-39,   1.83211E-39,   2.28320E-03
C:/temp/dataset/2/12_9.odb,Step-1,Increment      1: Step Time =    1.000,"PART-1-1",           582,       3.62857,      -22.4261,            0.,NA,NA,"",   11.0347E-03,  -11.0084E-03,   761.420E-06,   864.494E-06
C:/temp/dataset/2/12_9.odb,Step-1,Increment      1: Step Time =    1.000,"PART-1-1",           583,       2.16864,      -23.6665,            0.,NA,NA,"",   13.0430E-03,  -12.6535E-03,   3.16395E-03,   1.72559E-03
C:/temp/dataset/2/12_9.odb,Step-1,Increment      1: Step Time =    1.000,"PART-1-1",           584,      -2.73954,      -22.4743,            0.,NA,NA,"",   35.8659E-03,  -19.3562E-03,   30.1944E-03,   7.41275E-03
C:/temp/dataset/2/12_9.odb,Step-1,Increment      1: Step Time =    1.000,"PART-1-1",           585,  -999.676E-03,      -23.6839,            0.,NA,NA,"",   21.1511E-03,  -15.9283E-03,   13.9161E-03,   4.64209E-03
C:/temp/dataset/2/12_9.odb,Step-1,Increment      1: Step Time =    1.000,"PART-1-1",           586,      -7.82572,      -27.3936,            0.,NA,NA,"",   11.4681E-03,   6.42483E-03,   9.49936E-03,   5.40178E-03
C:/temp/dataset/2/12_9.odb,Step-1,Increment      1: Step Time =    1.000,"PART-1-1",           587,      -6.52069,      -26.1528,            0.,NA,NA,"",   19.2332E-03,   1.97874E-03,   19.1312E-03,   7.93246E-03
C:/temp/dataset/2/12_9.odb,Step-1,Increment      1: Step Time =    1.000,"PART-1-1",           588,      -8.08310,      -24.7829,            0.,NA,NA,"",   23.6971E-03,   6.66466E-03,   22.7406E-03,   7.29717E-03
C:/temp/dataset/2/12_9.odb,Step-1,Increment      1: Step Time =    1.000,"PART-1-1",           589,      -9.38814,      -26.0237,            0.,NA,NA,"",   14.7176E-03,   11.2992E-03,   9.43057E-03,   5.49223E-03
C:/temp/dataset/2/12_9.odb,Step-1,Increment      1: Step Time =    1.000,"PART-1-1",           590,          -7.5,          -30.,            0.,NA,NA,"",            0.,   2.74871E-39,   7.53590E-39,   3.99779E-03
C:/temp/dataset/2/12_9.odb,Step-1,Increment      1: Step Time =    1.000,"PART-1-1",           591,       7.73182,       24.8866,            0.,NA,NA,"",       3.85889,      -3.53334,       1.55131,   1.59151E-09
C:/temp/dataset/2/12_9.odb,Step-1,Increment      1: Step Time =    1.000,"PART-1-1",           592,       8.21760,       26.2797,            0.,NA,NA,"",       3.99272,      -3.66255,       1.58984,   2.02223E-09
C:/temp/dataset/2/12_9.odb,Step-1,Increment      1: Step Time =    1.000,"PART-1-1",           593,       6.12718,       25.7561,            0.,NA,NA,"",       3.86868,      -3.60602,       1.40119,   2.91225E-09
C:/temp/dataset/2/12_9.odb,Step-1,Increment      1: Step Time =    1.000,"PART-1-1",           594,       5.38844,       22.1508,            0.,NA,NA,"",       3.54078,      -3.27381,       1.34881,   4.65648E-09
C:/temp/dataset/2/12_9.odb,Step-1,Increment      1: Step Time =    1.000,"PART-1-1",           595,      -3.37677,   775.412E-03,            0.,NA,NA,"",       1.43008,      -1.28721,   623.085E-03,   4.97522E-03
C:/temp/dataset/2/12_9.odb,Step-1,Increment      1: Step Time =    1.000,"PART-1-1",           596,      -3.41233,       2.84116,            0.,NA,NA,"",       1.59301,      -1.47038,   612.916E-03,   3.16175E-03
C:/temp/dataset/2/12_9.odb,Step-1,Increment      1: Step Time =    1.000,"PART-1-1",           597,      -11.2482,       24.9673,            0.,NA,NA,"",       3.46623,      -3.46146,  -181.684E-03,   3.34174E-09
C:/temp/dataset/2/12_9.odb,Step-1,Increment      1: Step Time =    1.000,"PART-1-1",           598,       5.16292,       24.1270,            0.,NA,NA,"",       3.69695,      -3.45327,       1.31997,   4.08258E-09
C:/temp/dataset/2/12_9.odb,Step-1,Increment      1: Step Time =    1.000,"PART-1-1",           599,            0.,            5.,            0.,NA,NA,"",       1.92326,      -1.68667,   924.156E-03,   550.912E-06
C:/temp/dataset/2/12_9.odb,Step-1,Increment      1: Step Time =    1.000,"PART-1-1",           600,      -1.80204,       3.95011,            0.,NA,NA,"",       1.75364,      -1.58034,   760.108E-03,   1.87738E-03
C:/temp/dataset/2/12_9.odb,Step-1,Increment      1: Step Time =    1.000,"PART-1-1",           601,       9.59799,       22.9228,            0.,NA,NA,"",       3.78082,      -3.36187,       1.72987,   9.75928E-09
C:/temp/dataset/2/12_9.odb,Step-1,Increment      1: Step Time =    1.000,"PART-1-1",           602,       8.30932,       22.9391,            0.,NA,NA,"",       3.72492,      -3.35797,       1.61216,   5.44573E-09
C:/temp/dataset/2/12_9.odb,Step-1,Increment      1: Step Time =    1.000,"PART-1-1",           603,      -1.93269,      -1.01257,            0.,NA,NA,"",       1.37177,      -1.13387,   772.075E-03,   5.94754E-03
C:/temp/dataset/2/12_9.odb,Step-1,Increment      1: Step Time =    1.000,"PART-1-1",           604,      -8.69440,      -13.5596,            0.,NA,NA,"",   245.194E-03,  -227.329E-03,   91.8784E-03,   10.4058E-03
C:/temp/dataset/2/12_9.odb,Step-1,Increment      1: Step Time =    1.000,"PART-1-1",           605,       6.07991,       2.65614,            0.,NA,NA,"",       2.11455,      -1.49692,       1.49350,   135.701E-06
C:/temp/dataset/2/12_9.odb,Step-1,Increment      1: Step Time =    1.000,"PART-1-1",           606,       4.75906,       1.28045,            0.,NA,NA,"",       1.94041,      -1.36549,       1.37864,   155.994E-06
C:/temp/dataset/2/12_9.odb,Step-1,Increment      1: Step Time =    1.000,"PART-1-1",           607,       10.0234,       4.43547,            0.,NA,NA,"",       2.49322,      -1.67591,       1.84593,   30.5528E-06
C:/temp/dataset/2/12_9.odb,Step-1,Increment      1: Step Time =    1.000,"PART-1-1",           608,       7.46673,       4.06304,            0.,NA,NA,"",       2.29488,      -1.63128,       1.61413,   73.0278E-06
C:/temp/dataset/2/12_9.odb,Step-1,Increment      1: Step Time =    1.000,"PART-1-1",           609,  -317.165E-03,  -486.862E-03,            0.,NA,NA,"",       1.50095,      -1.18532,   920.806E-03,   2.92005E-03
C:/temp/dataset/2/12_9.odb,Step-1,Increment      1: Step Time =    1.000,"PART-1-1",           610,       1.72730,   921.331E-03,            0.,NA,NA,"",       1.72003,      -1.32027,       1.10245,   774.604E-06
C:/temp/dataset/2/12_9.odb,Step-1,Increment      1: Step Time =    1.000,"PART-1-1",           611,      -4.63664,      -21.2535,            0.,NA,NA,"",   65.3727E-03,  -22.5877E-03,   61.3465E-03,   18.3299E-03
C:/temp/dataset/2/12_9.odb,Step-1,Increment      1: Step Time =    1.000,"PART-1-1",           612,       11.2827,       3.26092,            0.,NA,NA,"",       2.51822,      -1.57391,       1.96577,   30.1410E-06
C:/temp/dataset/2/12_9.odb,Step-1,Increment      1: Step Time =    1.000,"PART-1-1",           613,      -11.4502,      -4.36864,            0.,NA,NA,"",   797.117E-03,  -794.807E-03,  -60.6484E-03,   5.62425E-03
C:/temp/dataset/2/12_9.odb,Step-1,Increment      1: Step Time =    1.000,"PART-1-1",           614,      -10.8693,      -24.5529,            0.,NA,NA,"",   12.5182E-03,   12.4196E-03,   1.56828E-03,   4.69506E-03
C:/temp/dataset/2/12_9.odb,Step-1,Increment      1: Step Time =    1.000,"PART-1-1",           615,      -9.52531,      -23.3517,            0.,NA,NA,"",   19.2804E-03,   7.49551E-03,   17.7637E-03,   6.48511E-03
C:/temp/dataset/2/12_9.odb,Step-1,Increment      1: Step Time =    1.000,"PART-1-1",           616,      -10.8903,      -21.7518,            0.,NA,NA,"",   2.18647E-03,  -1.51504E-03,   1.57648E-03,   4.69145E-03
C:/temp/dataset/2/12_9.odb,Step-1,Increment      1: Step Time =    1.000,"PART-1-1",           617,       3.33333,          -20.,            0.,NA,NA,"",   8.66729E-03,  -8.62742E-03,   830.303E-06,   421.432E-06
C:/temp/dataset/2/12_9.odb,Step-1,Increment      1: Step Time =    1.000,"PART-1-1",           618,       1.83446,      -21.2108,            0.,NA,NA,"",   10.8599E-03,  -10.3357E-03,   3.33337E-03,   603.888E-06
C:/temp/dataset/2/12_9.odb,Step-1,Increment      1: Step Time =    1.000,"PART-1-1",           619,       5.12744,      -21.2153,            0.,NA,NA,"",   9.70496E-03,  -9.68576E-03,  -610.275E-06,   182.951E-06
C:/temp/dataset/2/12_9.odb,Step-1,Increment      1: Step Time =    1.000,"PART-1-1",           620,            0.,          -20.,            0.,NA,NA,"",   10.9793E-03,  -6.64014E-03,   8.74379E-03,   743.894E-06
C:/temp/dataset/2/12_9.odb,Step-1,Increment      1: Step Time =    1.000,"PART-1-1",           621,      -1.43624,      -21.2208,            0.,NA,NA,"",   23.5358E-03,  -14.1339E-03,   18.8193E-03,   3.37291E-03
C:/temp/dataset/2/12_9.odb,Step-1,Increment      1: Step Time =    1.000,"PART-1-1",           622,   398.228E-03,      -22.4316,            0.,NA,NA,"",   16.1527E-03,  -13.8348E-03,   8.33707E-03,   2.55897E-03
C:/temp/dataset/2/12_9.odb,Step-1,Increment      1: Step Time =    1.000,"PART-1-1",           623,   770.736E-03,      -24.9188,            0.,NA,NA,"",   14.8209E-03,  -13.4496E-03,   6.22627E-03,   3.13134E-03
C:/temp/dataset/2/12_9.odb,Step-1,Increment      1: Step Time =    1.000,"PART-1-1",           624,      -3.33333,          -20.,            0.,NA,NA,"",   35.9880E-03,  -10.8431E-03,   34.3157E-03,   9.66520E-03
C:/temp/dataset/2/12_9.odb,Step-1,Increment      1: Step Time =    1.000,"PART-1-1",           625,       8.69606,       24.2205,            0.,NA,NA,"",       3.84486,      -3.47656,       1.64211,   2.91433E-09
C:/temp/dataset/2/12_9.odb,Step-1,Increment      1: Step Time =    1.000,"PART-1-1",           626,      -3.33333,            5.,            0.,NA,NA,"",       1.77700,      -1.66762,   613.820E-03,   3.03866E-03
C:/temp/dataset/2/12_9.odb,Step-1,Increment      1: Step Time =    1.000,"PART-1-1",           627,      -4.94363,       3.89105,            0.,NA,NA,"",       1.62357,      -1.55454,   468.373E-03,   3.84374E-03
C:/temp/dataset/2/12_9.odb,Step-1,Increment      1: Step Time =    1.000,"PART-1-1",           628,      -6.66667,            5.,            0.,NA,NA,"",       1.66963,      -1.64039,   311.132E-03,   4.85427E-03
C:/temp/dataset/2/12_9.odb,Step-1,Increment      1: Step Time =    1.000,"PART-1-1",           629,           10.,          -20.,            0.,NA,NA,"",   9.74446E-03,  -9.73167E-03,  -499.045E-06,   103.564E-06
C:/temp/dataset/2/12_9.odb,Step-1,Increment      1: Step Time =    1.000,"PART-1-1",           630,       8.42239,      -21.2201,            0.,NA,NA,"",   9.37225E-03,  -9.31935E-03,  -994.387E-06,   72.1238E-06
C:/temp/dataset/2/12_9.odb,Step-1,Increment      1: Step Time =    1.000,"PART-1-1",           631,       6.66667,          -20.,            0.,NA,NA,"",   9.37211E-03,  -9.30720E-03,  -1.10120E-03,   166.180E-06
C:/temp/dataset/2/12_9.odb,Step-1,Increment      1: Step Time =    1.000,"PART-1-1",           632,       9.53008,       25.0675,            0.,NA,NA,"",       3.94906,      -3.55737,       1.71471,   771.645E-12
