ODB Name,Step,Frame,Part Instance Name,    êﬂì_ÉâÉxÉã,X,Y,Z,Section Name,Material Name,Section Point,   U-Magnitude,          U-U1,          U-U2,       S-Mises
C:/temp/dataset/2/13_1.odb,Step-1,Increment      1: Step Time =    1.000,"PART-1-1",             1,          -15.,           20.,            0.,NA,NA,"",   456.369E-03,  -452.207E-03,  -61.4971E-03,   17.7183E-09
C:/temp/dataset/2/13_1.odb,Step-1,Increment      1: Step Time =    1.000,"PART-1-1",             2,          -15.,           25.,            0.,NA,NA,"",   509.057E-03,  -505.295E-03,  -61.7790E-03,   17.6891E-09
C:/temp/dataset/2/13_1.odb,Step-1,Increment      1: Step Time =    1.000,"PART-1-1",             3,          -10.,           20.,            0.,NA,NA,"",   452.567E-03,  -452.489E-03,  -8.40963E-03,   15.4281E-09
C:/temp/dataset/2/13_1.odb,Step-1,Increment      1: Step Time =    1.000,"PART-1-1",             4,           -5.,           20.,            0.,NA,NA,"",   454.970E-03,  -452.771E-03,   44.6779E-03,   21.0373E-09
C:/temp/dataset/2/13_1.odb,Step-1,Increment      1: Step Time =    1.000,"PART-1-1",             5,            0.,           20.,            0.,NA,NA,"",   463.481E-03,  -453.052E-03,   97.7655E-03,   27.7046E-09
C:/temp/dataset/2/13_1.odb,Step-1,Increment      1: Step Time =    1.000,"PART-1-1",             6,            5.,           20.,            0.,NA,NA,"",   477.775E-03,  -453.334E-03,   150.853E-03,   91.2091E-09
C:/temp/dataset/2/13_1.odb,Step-1,Increment      1: Step Time =    1.000,"PART-1-1",             7,            5.,          12.5,            0.,NA,NA,"",   403.159E-03,  -373.701E-03,   151.275E-03,   82.0663E-09
C:/temp/dataset/2/13_1.odb,Step-1,Increment      1: Step Time =    1.000,"PART-1-1",             8,            5.,            5.,            0.,NA,NA,"",   330.889E-03,  -294.067E-03,   151.698E-03,   772.580E-09
C:/temp/dataset/2/13_1.odb,Step-1,Increment      1: Step Time =    1.000,"PART-1-1",             9,           -5.,            5.,            0.,NA,NA,"",   297.115E-03,  -293.603E-03,   45.5494E-03,   47.8818E-06
C:/temp/dataset/2/13_1.odb,Step-1,Increment      1: Step Time =    1.000,"PART-1-1",            10,          -15.,            5.,            0.,NA,NA,"",   299.805E-03,  -293.394E-03,  -61.6689E-03,   4.40141E-06
C:/temp/dataset/2/13_1.odb,Step-1,Increment      1: Step Time =    1.000,"PART-1-1",            11,          -15.,         -3.75,            0.,NA,NA,"",   208.302E-03,  -198.973E-03,  -61.6396E-03,   123.580E-06
C:/temp/dataset/2/13_1.odb,Step-1,Increment      1: Step Time =    1.000,"PART-1-1",            12,          -15.,         -12.5,            0.,NA,NA,"",   115.137E-03,  -99.6221E-03,  -57.7240E-03,   1.65397E-03
C:/temp/dataset/2/13_1.odb,Step-1,Increment      1: Step Time =    1.000,"PART-1-1",            13,          -15.,        -21.25,            0.,NA,NA,"",   37.9424E-03,  -22.5403E-03,  -30.5215E-03,   4.42632E-03
C:/temp/dataset/2/13_1.odb,Step-1,Increment      1: Step Time =    1.000,"PART-1-1",            14,          -15.,          -30.,            0.,NA,NA,"",            0.,  -1.31002E-39,  -2.40467E-39,   3.79400E-03
C:/temp/dataset/2/13_1.odb,Step-1,Increment      1: Step Time =    1.000,"PART-1-1",            15,           15.,          -30.,            0.,NA,NA,"",            0.,  -333.534E-42,   557.970E-42,   932.584E-06
C:/temp/dataset/2/13_1.odb,Step-1,Increment      1: Step Time =    1.000,"PART-1-1",            16,           15.,          -25.,            0.,NA,NA,"",   3.94947E-03,  -3.60288E-03,   1.61790E-03,   48.6904E-06
C:/temp/dataset/2/13_1.odb,Step-1,Increment      1: Step Time =    1.000,"PART-1-1",            17,           15.,          -20.,            0.,NA,NA,"",   5.95863E-03,  -5.74373E-03,   1.58583E-03,   4.88534E-06
C:/temp/dataset/2/13_1.odb,Step-1,Increment      1: Step Time =    1.000,"PART-1-1",            18,            5.,          -20.,            0.,NA,NA,"",   6.15919E-03,  -6.14955E-03,  -344.427E-06,   232.671E-06
C:/temp/dataset/2/13_1.odb,Step-1,Increment      1: Step Time =    1.000,"PART-1-1",            19,           -5.,          -20.,            0.,NA,NA,"",   23.9343E-03,  -18.1478E-03,   15.6047E-03,   7.89429E-03
C:/temp/dataset/2/13_1.odb,Step-1,Increment      1: Step Time =    1.000,"PART-1-1",            20,           -5.,         -12.5,            0.,NA,NA,"",   110.803E-03,  -102.364E-03,   42.4142E-03,   1.89069E-03
C:/temp/dataset/2/13_1.odb,Step-1,Increment      1: Step Time =    1.000,"PART-1-1",            21,           -5.,           -5.,            0.,NA,NA,"",   193.350E-03,  -187.799E-03,   45.9948E-03,   547.094E-06
C:/temp/dataset/2/13_1.odb,Step-1,Increment      1: Step Time =    1.000,"PART-1-1",            22,            0.,           -5.,            0.,NA,NA,"",   212.188E-03,  -187.603E-03,   99.1389E-03,   20.6714E-06
C:/temp/dataset/2/13_1.odb,Step-1,Increment      1: Step Time =    1.000,"PART-1-1",            23,            5.,           -5.,            0.,NA,NA,"",   241.833E-03,  -187.884E-03,   152.259E-03,   2.01857E-06
C:/temp/dataset/2/13_1.odb,Step-1,Increment      1: Step Time =    1.000,"PART-1-1",            24,           10.,           -5.,            0.,NA,NA,"",   278.526E-03,  -188.169E-03,   205.351E-03,   268.370E-09
C:/temp/dataset/2/13_1.odb,Step-1,Increment      1: Step Time =    1.000,"PART-1-1",            25,           15.,           -5.,            0.,NA,NA,"",   319.853E-03,  -188.451E-03,   258.441E-03,   11.1363E-09
C:/temp/dataset/2/13_1.odb,Step-1,Increment      1: Step Time =    1.000,"PART-1-1",            26,           15.,          3.75,            0.,NA,NA,"",   381.706E-03,  -281.359E-03,   257.947E-03,   167.168E-09
C:/temp/dataset/2/13_1.odb,Step-1,Increment      1: Step Time =    1.000,"PART-1-1",            27,           15.,          12.5,            0.,NA,NA,"",   454.265E-03,  -374.265E-03,   257.453E-03,   98.0527E-09
C:/temp/dataset/2/13_1.odb,Step-1,Increment      1: Step Time =    1.000,"PART-1-1",            28,           15.,         21.25,            0.,NA,NA,"",   533.175E-03,  -467.170E-03,   256.959E-03,   66.4101E-09
C:/temp/dataset/2/13_1.odb,Step-1,Increment      1: Step Time =    1.000,"PART-1-1",            29,           15.,           30.,            0.,NA,NA,"",   616.001E-03,  -560.074E-03,   256.466E-03,   16.1379E-09
C:/temp/dataset/2/13_1.odb,Step-1,Increment      1: Step Time =    1.000,"PART-1-1",            30,           7.5,           30.,            0.,NA,NA,"",   586.924E-03,  -559.651E-03,   176.834E-03,   41.7298E-09
C:/temp/dataset/2/13_1.odb,Step-1,Increment      1: Step Time =    1.000,"PART-1-1",            31,            0.,           30.,            0.,NA,NA,"",   567.612E-03,  -559.228E-03,   97.2018E-03,   48.3148E-09
C:/temp/dataset/2/13_1.odb,Step-1,Increment      1: Step Time =    1.000,"PART-1-1",            32,          -7.5,           30.,            0.,NA,NA,"",   559.081E-03,  -558.805E-03,   17.5704E-03,   30.4553E-09
C:/temp/dataset/2/13_1.odb,Step-1,Increment      1: Step Time =    1.000,"PART-1-1",            33,          -15.,           30.,            0.,NA,NA,"",   561.820E-03,  -558.382E-03,  -62.0608E-03,   16.9999E-09
C:/temp/dataset/2/13_1.odb,Step-1,Increment      1: Step Time =    1.000,"PART-1-1",            34,          -15.,          22.5,            0.,NA,NA,"",   482.702E-03,  -478.751E-03,  -61.6380E-03,   20.8791E-09
C:/temp/dataset/2/13_1.odb,Step-1,Increment      1: Step Time =    1.000,"PART-1-1",            35,         -12.5,           20.,            0.,NA,NA,"",   453.696E-03,  -452.348E-03,  -34.9534E-03,   15.1030E-09
C:/temp/dataset/2/13_1.odb,Step-1,Increment      1: Step Time =    1.000,"PART-1-1",            36,          -7.5,           20.,            0.,NA,NA,"",   452.993E-03,  -452.630E-03,   18.1341E-03,   17.7291E-09
C:/temp/dataset/2/13_1.odb,Step-1,Increment      1: Step Time =    1.000,"PART-1-1",            37,          -2.5,           20.,            0.,NA,NA,"",   458.477E-03,  -452.912E-03,   71.2217E-03,   25.6597E-09
C:/temp/dataset/2/13_1.odb,Step-1,Increment      1: Step Time =    1.000,"PART-1-1",            38,           2.5,           20.,            0.,NA,NA,"",   469.933E-03,  -453.193E-03,   124.309E-03,   45.7127E-09
C:/temp/dataset/2/13_1.odb,Step-1,Increment      1: Step Time =    1.000,"PART-1-1",            39,            5.,           15.,            0.,NA,NA,"",   427.830E-03,  -400.246E-03,   151.135E-03,   75.7328E-09
C:/temp/dataset/2/13_1.odb,Step-1,Increment      1: Step Time =    1.000,"PART-1-1",            40,            5.,          17.5,            0.,NA,NA,"",   452.713E-03,  -426.790E-03,   150.994E-03,   78.3138E-09
C:/temp/dataset/2/13_1.odb,Step-1,Increment      1: Step Time =    1.000,"PART-1-1",            41,            5.,           7.5,            0.,NA,NA,"",   354.629E-03,  -320.612E-03,   151.557E-03,   96.9840E-09
C:/temp/dataset/2/13_1.odb,Step-1,Increment      1: Step Time =    1.000,"PART-1-1",            42,            5.,           10.,            0.,NA,NA,"",   378.741E-03,  -347.157E-03,   151.416E-03,   98.2526E-09
C:/temp/dataset/2/13_1.odb,Step-1,Increment      1: Step Time =    1.000,"PART-1-1",            43,      -1.66667,            5.,            0.,NA,NA,"",   304.654E-03,  -293.705E-03,   80.9411E-03,   13.5351E-06
C:/temp/dataset/2/13_1.odb,Step-1,Increment      1: Step Time =    1.000,"PART-1-1",            44,       1.66667,            5.,            0.,NA,NA,"",   316.058E-03,  -293.878E-03,   116.313E-03,   1.23070E-06
C:/temp/dataset/2/13_1.odb,Step-1,Increment      1: Step Time =    1.000,"PART-1-1",            45,      -11.6667,            5.,            0.,NA,NA,"",   294.692E-03,  -293.560E-03,  -25.8041E-03,   28.4810E-06
C:/temp/dataset/2/13_1.odb,Step-1,Increment      1: Step Time =    1.000,"PART-1-1",            46,      -8.33333,            5.,            0.,NA,NA,"",   293.767E-03,  -293.597E-03,   9.99545E-03,   66.2450E-06
C:/temp/dataset/2/13_1.odb,Step-1,Increment      1: Step Time =    1.000,"PART-1-1",            47,          -15.,  -833.333E-03,            0.,NA,NA,"",   238.743E-03,  -230.685E-03,  -61.5039E-03,   87.6370E-06
C:/temp/dataset/2/13_1.odb,Step-1,Increment      1: Step Time =    1.000,"PART-1-1",            48,          -15.,       2.08333,            0.,NA,NA,"",   269.182E-03,  -262.059E-03,  -61.5150E-03,   28.1772E-06
C:/temp/dataset/2/13_1.odb,Step-1,Increment      1: Step Time =    1.000,"PART-1-1",            49,          -15.,      -9.58333,            0.,NA,NA,"",   146.317E-03,  -133.095E-03,  -60.7824E-03,   599.604E-06
C:/temp/dataset/2/13_1.odb,Step-1,Increment      1: Step Time =    1.000,"PART-1-1",            50,          -15.,      -6.66667,            0.,NA,NA,"",   177.549E-03,  -166.494E-03,  -61.6721E-03,   32.3020E-06
C:/temp/dataset/2/13_1.odb,Step-1,Increment      1: Step Time =    1.000,"PART-1-1",            51,          -15.,      -18.3333,            0.,NA,NA,"",   59.2072E-03,  -41.7605E-03,  -41.9708E-03,   3.99702E-03
C:/temp/dataset/2/13_1.odb,Step-1,Increment      1: Step Time =    1.000,"PART-1-1",            52,          -15.,      -15.4167,            0.,NA,NA,"",   85.4546E-03,  -68.2085E-03,  -51.4789E-03,   2.97571E-03
C:/temp/dataset/2/13_1.odb,Step-1,Increment      1: Step Time =    1.000,"PART-1-1",            53,          -15.,      -27.0833,            0.,NA,NA,"",   10.2587E-03,  -4.70561E-03,  -9.11576E-03,   3.79989E-03
C:/temp/dataset/2/13_1.odb,Step-1,Increment      1: Step Time =    1.000,"PART-1-1",            54,          -15.,      -24.1667,            0.,NA,NA,"",   22.0289E-03,  -10.7983E-03,  -19.2008E-03,   4.09779E-03
C:/temp/dataset/2/13_1.odb,Step-1,Increment      1: Step Time =    1.000,"PART-1-1",            55,           12.,          -30.,            0.,NA,NA,"",            0.,  -478.684E-42,   341.094E-42,   414.792E-06
C:/temp/dataset/2/13_1.odb,Step-1,Increment      1: Step Time =    1.000,"PART-1-1",            56,            9.,          -30.,            0.,NA,NA,"",            0.,  -441.852E-42,   67.0605E-42,   584.536E-06
C:/temp/dataset/2/13_1.odb,Step-1,Increment      1: Step Time =    1.000,"PART-1-1",            57,            6.,          -30.,            0.,NA,NA,"",            0.,  -688.782E-42,   518.143E-42,   766.609E-06
C:/temp/dataset/2/13_1.odb,Step-1,Increment      1: Step Time =    1.000,"PART-1-1",            58,            3.,          -30.,            0.,NA,NA,"",            0.,  -753.461E-42,   430.981E-42,   997.354E-06
C:/temp/dataset/2/13_1.odb,Step-1,Increment      1: Step Time =    1.000,"PART-1-1",            59,            0.,          -30.,            0.,NA,NA,"",            0.,  -992.388E-42,   1.29011E-39,   1.17444E-03
C:/temp/dataset/2/13_1.odb,Step-1,Increment      1: Step Time =    1.000,"PART-1-1",            60,           -3.,          -30.,            0.,NA,NA,"",            0.,  -749.839E-42,   1.59047E-39,   1.09422E-03
C:/temp/dataset/2/13_1.odb,Step-1,Increment      1: Step Time =    1.000,"PART-1-1",            61,           -6.,          -30.,            0.,NA,NA,"",            0.,  -103.859E-42,   1.11148E-39,   663.843E-06
C:/temp/dataset/2/13_1.odb,Step-1,Increment      1: Step Time =    1.000,"PART-1-1",            62,           -9.,          -30.,            0.,NA,NA,"",            0.,   450.939E-42,  -211.529E-42,   593.856E-06
C:/temp/dataset/2/13_1.odb,Step-1,Increment      1: Step Time =    1.000,"PART-1-1",            63,          -12.,          -30.,            0.,NA,NA,"",            0.,  -369.381E-42,  -2.52899E-39,   1.52663E-03
C:/temp/dataset/2/13_1.odb,Step-1,Increment      1: Step Time =    1.000,"PART-1-1",            64,           15.,         -27.5,            0.,NA,NA,"",   2.42841E-03,  -2.02455E-03,   1.34104E-03,   342.530E-06
C:/temp/dataset/2/13_1.odb,Step-1,Increment      1: Step Time =    1.000,"PART-1-1",            65,           15.,         -22.5,            0.,NA,NA,"",   5.06686E-03,  -4.80393E-03,   1.61102E-03,   21.0608E-06
C:/temp/dataset/2/13_1.odb,Step-1,Increment      1: Step Time =    1.000,"PART-1-1",            66,       8.33333,          -20.,            0.,NA,NA,"",   5.75710E-03,  -5.75075E-03,  -270.229E-06,   64.9752E-06
C:/temp/dataset/2/13_1.odb,Step-1,Increment      1: Step Time =    1.000,"PART-1-1",            67,       11.6667,          -20.,            0.,NA,NA,"",   5.71484E-03,  -5.69889E-03,   426.601E-06,   18.5718E-06
C:/temp/dataset/2/13_1.odb,Step-1,Increment      1: Step Time =    1.000,"PART-1-1",            68,      -1.66667,          -20.,            0.,NA,NA,"",   9.81763E-03,  -8.96316E-03,   4.00593E-03,   1.85838E-03
C:/temp/dataset/2/13_1.odb,Step-1,Increment      1: Step Time =    1.000,"PART-1-1",            69,       1.66667,          -20.,            0.,NA,NA,"",   7.14425E-03,  -7.11558E-03,   639.465E-06,   446.940E-06
C:/temp/dataset/2/13_1.odb,Step-1,Increment      1: Step Time =    1.000,"PART-1-1",            70,           -5.,          -15.,            0.,NA,NA,"",   81.4000E-03,  -72.4792E-03,   37.0503E-03,   2.82776E-03
C:/temp/dataset/2/13_1.odb,Step-1,Increment      1: Step Time =    1.000,"PART-1-1",            71,           -5.,         -17.5,            0.,NA,NA,"",   54.6719E-03,  -45.5778E-03,   30.1941E-03,   4.69448E-03
C:/temp/dataset/2/13_1.odb,Step-1,Increment      1: Step Time =    1.000,"PART-1-1",            72,           -5.,          -7.5,            0.,NA,NA,"",   168.169E-03,  -161.821E-03,   45.7688E-03,   1.05314E-03
C:/temp/dataset/2/13_1.odb,Step-1,Increment      1: Step Time =    1.000,"PART-1-1",            73,           -5.,          -10.,            0.,NA,NA,"",   140.388E-03,  -133.067E-03,   44.7421E-03,   1.30940E-03
C:/temp/dataset/2/13_1.odb,Step-1,Increment      1: Step Time =    1.000,"PART-1-1",            74,          -2.5,           -5.,            0.,NA,NA,"",   201.008E-03,  -187.464E-03,   72.5346E-03,   66.6428E-06
C:/temp/dataset/2/13_1.odb,Step-1,Increment      1: Step Time =    1.000,"PART-1-1",            75,           2.5,           -5.,            0.,NA,NA,"",   225.939E-03,  -187.739E-03,   125.708E-03,   6.16417E-06
C:/temp/dataset/2/13_1.odb,Step-1,Increment      1: Step Time =    1.000,"PART-1-1",            76,           7.5,           -5.,            0.,NA,NA,"",   259.472E-03,  -188.027E-03,   178.806E-03,   527.636E-09
C:/temp/dataset/2/13_1.odb,Step-1,Increment      1: Step Time =    1.000,"PART-1-1",            77,          12.5,           -5.,            0.,NA,NA,"",   298.725E-03,  -188.310E-03,   231.896E-03,   57.8461E-09
C:/temp/dataset/2/13_1.odb,Step-1,Increment      1: Step Time =    1.000,"PART-1-1",            78,           15.,   833.333E-03,            0.,NA,NA,"",   359.607E-03,  -250.390E-03,   258.112E-03,   155.520E-09
C:/temp/dataset/2/13_1.odb,Step-1,Increment      1: Step Time =    1.000,"PART-1-1",            79,           15.,      -2.08333,            0.,NA,NA,"",   338.899E-03,  -219.420E-03,   258.277E-03,   58.7631E-09
C:/temp/dataset/2/13_1.odb,Step-1,Increment      1: Step Time =    1.000,"PART-1-1",            80,           15.,       9.58333,            0.,NA,NA,"",   429.208E-03,  -343.296E-03,   257.618E-03,   107.537E-09
C:/temp/dataset/2/13_1.odb,Step-1,Increment      1: Step Time =    1.000,"PART-1-1",            81,           15.,       6.66667,            0.,NA,NA,"",   404.970E-03,  -312.328E-03,   257.782E-03,   129.682E-09
C:/temp/dataset/2/13_1.odb,Step-1,Increment      1: Step Time =    1.000,"PART-1-1",            82,           15.,       18.3333,            0.,NA,NA,"",   506.344E-03,  -436.202E-03,   257.124E-03,   82.9318E-09
C:/temp/dataset/2/13_1.odb,Step-1,Increment      1: Step Time =    1.000,"PART-1-1",            83,           15.,       15.4167,            0.,NA,NA,"",   480.012E-03,  -405.233E-03,   257.288E-03,   92.8084E-09
C:/temp/dataset/2/13_1.odb,Step-1,Increment      1: Step Time =    1.000,"PART-1-1",            84,           15.,       27.0833,            0.,NA,NA,"",   588.058E-03,  -529.106E-03,   256.630E-03,   25.3036E-09
C:/temp/dataset/2/13_1.odb,Step-1,Increment      1: Step Time =    1.000,"PART-1-1",            85,           15.,       24.1667,            0.,NA,NA,"",   560.433E-03,  -498.138E-03,   256.795E-03,   43.5840E-09
C:/temp/dataset/2/13_1.odb,Step-1,Increment      1: Step Time =    1.000,"PART-1-1",            86,           10.,           30.,            0.,NA,NA,"",   595.592E-03,  -559.792E-03,   203.378E-03,   26.4029E-09
C:/temp/dataset/2/13_1.odb,Step-1,Increment      1: Step Time =    1.000,"PART-1-1",            87,          12.5,           30.,            0.,NA,NA,"",   605.301E-03,  -559.933E-03,   229.922E-03,   16.1087E-09
C:/temp/dataset/2/13_1.odb,Step-1,Increment      1: Step Time =    1.000,"PART-1-1",            88,           2.5,           30.,            0.,NA,NA,"",   572.893E-03,  -559.369E-03,   123.746E-03,   52.9519E-09
C:/temp/dataset/2/13_1.odb,Step-1,Increment      1: Step Time =    1.000,"PART-1-1",            89,            5.,           30.,            0.,NA,NA,"",   579.343E-03,  -559.510E-03,   150.290E-03,   50.9071E-09
C:/temp/dataset/2/13_1.odb,Step-1,Increment      1: Step Time =    1.000,"PART-1-1",            90,           -5.,           30.,            0.,NA,NA,"",   560.684E-03,  -558.946E-03,   44.1141E-03,   35.9660E-09
C:/temp/dataset/2/13_1.odb,Step-1,Increment      1: Step Time =    1.000,"PART-1-1",            91,          -2.5,           30.,            0.,NA,NA,"",   563.534E-03,  -559.087E-03,   70.6579E-03,   42.0486E-09
C:/temp/dataset/2/13_1.odb,Step-1,Increment      1: Step Time =    1.000,"PART-1-1",            92,         -12.5,           30.,            0.,NA,NA,"",   559.651E-03,  -558.523E-03,  -35.5171E-03,   22.3749E-09
C:/temp/dataset/2/13_1.odb,Step-1,Increment      1: Step Time =    1.000,"PART-1-1",            93,          -10.,           30.,            0.,NA,NA,"",   558.736E-03,  -558.664E-03,  -8.97338E-03,   25.5713E-09
C:/temp/dataset/2/13_1.odb,Step-1,Increment      1: Step Time =    1.000,"PART-1-1",            94,          -15.,          27.5,            0.,NA,NA,"",   535.431E-03,  -531.838E-03,  -61.9199E-03,   15.5029E-09
C:/temp/dataset/2/13_1.odb,Step-1,Increment      1: Step Time =    1.000,"PART-1-1",            95,      -12.4978,       24.9766,            0.,NA,NA,"",   506.412E-03,  -505.187E-03,  -35.2102E-03,   19.0138E-09
C:/temp/dataset/2/13_1.odb,Step-1,Increment      1: Step Time =    1.000,"PART-1-1",            96,      -7.49872,       27.4475,            0.,NA,NA,"",   532.000E-03,  -531.704E-03,   17.7279E-03,   23.2986E-09
C:/temp/dataset/2/13_1.odb,Step-1,Increment      1: Step Time =    1.000,"PART-1-1",            97,      -7.50661,       22.4446,            0.,NA,NA,"",   478.920E-03,  -478.585E-03,   17.9261E-03,   15.4882E-09
C:/temp/dataset/2/13_1.odb,Step-1,Increment      1: Step Time =    1.000,"PART-1-1",            98,      -2.53392,       22.4091,            0.,NA,NA,"",   483.687E-03,  -478.488E-03,   70.7257E-03,   16.7995E-09
C:/temp/dataset/2/13_1.odb,Step-1,Increment      1: Step Time =    1.000,"PART-1-1",            99,  -19.7467E-03,       27.3919,            0.,NA,NA,"",   540.339E-03,  -531.536E-03,   97.1391E-03,   29.6139E-09
C:/temp/dataset/2/13_1.odb,Step-1,Increment      1: Step Time =    1.000,"PART-1-1",           100,       2.31326,       22.2671,            0.,NA,NA,"",   492.650E-03,  -477.254E-03,   122.199E-03,   24.4019E-09
C:/temp/dataset/2/13_1.odb,Step-1,Increment      1: Step Time =    1.000,"PART-1-1",           101,       7.89882,       27.4278,            0.,NA,NA,"",   562.359E-03,  -532.363E-03,   181.213E-03,   36.5042E-09
C:/temp/dataset/2/13_1.odb,Step-1,Increment      1: Step Time =    1.000,"PART-1-1",           102,       6.74061,       20.0564,            0.,NA,NA,"",   484.580E-03,  -454.031E-03,   169.331E-03,   14.5392E-09
C:/temp/dataset/2/13_1.odb,Step-1,Increment      1: Step Time =    1.000,"PART-1-1",           103,       6.76082,       17.7755,            0.,NA,NA,"",   462.093E-03,  -429.814E-03,   169.674E-03,   46.6792E-09
C:/temp/dataset/2/13_1.odb,Step-1,Increment      1: Step Time =    1.000,"PART-1-1",           104,       7.34933,       13.0959,            0.,NA,NA,"",   419.003E-03,  -380.161E-03,   176.186E-03,   41.3031E-09
C:/temp/dataset/2/13_1.odb,Step-1,Increment      1: Step Time =    1.000,"PART-1-1",           105,       12.5251,      -2.17932,            0.,NA,NA,"",   318.534E-03,  -218.262E-03,   232.003E-03,   146.432E-09
C:/temp/dataset/2/13_1.odb,Step-1,Increment      1: Step Time =    1.000,"PART-1-1",           106,       11.8446,      -24.9441,            0.,NA,NA,"",   3.63447E-03,  -3.60902E-03,   429.391E-06,   269.821E-06
C:/temp/dataset/2/13_1.odb,Step-1,Increment      1: Step Time =    1.000,"PART-1-1",           107,       2.44158,      -2.66949,            0.,NA,NA,"",   246.504E-03,  -212.485E-03,   124.957E-03,   5.50590E-06
C:/temp/dataset/2/13_1.odb,Step-1,Increment      1: Step Time =    1.000,"PART-1-1",           108,       7.46163,      -2.37632,            0.,NA,NA,"",   279.963E-03,  -215.884E-03,   178.251E-03,   416.305E-09
C:/temp/dataset/2/13_1.odb,Step-1,Increment      1: Step Time =    1.000,"PART-1-1",           109,       7.48217,       7.95809,            0.,NA,NA,"",   371.038E-03,  -325.616E-03,   177.886E-03,   70.1394E-09
C:/temp/dataset/2/13_1.odb,Step-1,Increment      1: Step Time =    1.000,"PART-1-1",           110,      -5.01446,       22.4347,            0.,NA,NA,"",   480.674E-03,  -478.620E-03,   44.3871E-03,   15.9621E-09
C:/temp/dataset/2/13_1.odb,Step-1,Increment      1: Step Time =    1.000,"PART-1-1",           111,  -75.1424E-03,       22.3615,            0.,NA,NA,"",   487.829E-03,  -478.122E-03,   96.8345E-03,   19.8357E-09
C:/temp/dataset/2/13_1.odb,Step-1,Increment      1: Step Time =    1.000,"PART-1-1",           112,       4.50776,       22.1530,            0.,NA,NA,"",   497.901E-03,  -476.166E-03,   145.505E-03,   18.1516E-09
C:/temp/dataset/2/13_1.odb,Step-1,Increment      1: Step Time =    1.000,"PART-1-1",           113,       7.06405,       15.4904,            0.,NA,NA,"",   440.934E-03,  -405.569E-03,   173.023E-03,   43.0153E-09
C:/temp/dataset/2/13_1.odb,Step-1,Increment      1: Step Time =    1.000,"PART-1-1",           114,       7.46285,       10.5556,            0.,NA,NA,"",   395.304E-03,  -353.195E-03,   177.535E-03,   36.7920E-09
C:/temp/dataset/2/13_1.odb,Step-1,Increment      1: Step Time =    1.000,"PART-1-1",           115,      -2.89738,      -2.05905,            0.,NA,NA,"",   228.968E-03,  -218.573E-03,   68.2079E-03,   94.5574E-06
C:/temp/dataset/2/13_1.odb,Step-1,Increment      1: Step Time =    1.000,"PART-1-1",           116,      -7.61206,      -10.6629,            0.,NA,NA,"",   123.176E-03,  -122.212E-03,   15.3803E-03,   1.82494E-03
C:/temp/dataset/2/13_1.odb,Step-1,Increment      1: Step Time =    1.000,"PART-1-1",           117,      -6.85891,      -17.7385,            0.,NA,NA,"",   43.5435E-03,  -41.3953E-03,   13.5080E-03,   3.69841E-03
C:/temp/dataset/2/13_1.odb,Step-1,Increment      1: Step Time =    1.000,"PART-1-1",           118,       11.9280,      -27.4687,            0.,NA,NA,"",   1.93011E-03,  -1.90177E-03,   329.520E-06,   500.628E-06
C:/temp/dataset/2/13_1.odb,Step-1,Increment      1: Step Time =    1.000,"PART-1-1",           119,      -7.44747,      -13.1413,            0.,NA,NA,"",   93.1531E-03,  -91.9568E-03,   14.8814E-03,   2.08122E-03
C:/temp/dataset/2/13_1.odb,Step-1,Increment      1: Step Time =    1.000,"PART-1-1",           120,      -7.13169,      -15.4658,            0.,NA,NA,"",   66.7346E-03,  -65.0452E-03,   14.9210E-03,   2.34735E-03
C:/temp/dataset/2/13_1.odb,Step-1,Increment      1: Step Time =    1.000,"PART-1-1",           121,      -8.02089,      -5.87394,            0.,NA,NA,"",   177.722E-03,  -177.194E-03,   13.6957E-03,   656.209E-06
C:/temp/dataset/2/13_1.odb,Step-1,Increment      1: Step Time =    1.000,"PART-1-1",           122,      -7.74476,      -8.18529,            0.,NA,NA,"",   152.295E-03,  -151.486E-03,   15.6825E-03,   1.21644E-03
C:/temp/dataset/2/13_1.odb,Step-1,Increment      1: Step Time =    1.000,"PART-1-1",           123,  -21.3834E-03,      -2.74811,            0.,NA,NA,"",   233.458E-03,  -211.525E-03,   98.7920E-03,   29.7962E-06
C:/temp/dataset/2/13_1.odb,Step-1,Increment      1: Step Time =    1.000,"PART-1-1",           124,       4.94012,      -2.49525,            0.,NA,NA,"",   262.581E-03,  -214.480E-03,   151.482E-03,   1.52137E-06
C:/temp/dataset/2/13_1.odb,Step-1,Increment      1: Step Time =    1.000,"PART-1-1",           125,       10.0127,      -2.27482,            0.,NA,NA,"",   298.825E-03,  -217.106E-03,   205.332E-03,   242.107E-09
C:/temp/dataset/2/13_1.odb,Step-1,Increment      1: Step Time =    1.000,"PART-1-1",           126,       10.2967,       27.4669,            0.,NA,NA,"",   571.585E-03,  -532.913E-03,   206.671E-03,   34.4576E-09
C:/temp/dataset/2/13_1.odb,Step-1,Increment      1: Step Time =    1.000,"PART-1-1",           127,       12.6750,       27.3103,            0.,NA,NA,"",   579.794E-03,  -531.384E-03,   231.932E-03,   27.3664E-09
C:/temp/dataset/2/13_1.odb,Step-1,Increment      1: Step Time =    1.000,"PART-1-1",           128,       2.52543,       27.2659,            0.,NA,NA,"",   544.683E-03,  -530.341E-03,   124.170E-03,   30.3879E-09
C:/temp/dataset/2/13_1.odb,Step-1,Increment      1: Step Time =    1.000,"PART-1-1",           129,       5.32711,       26.8707,            0.,NA,NA,"",   548.354E-03,  -526.303E-03,   153.939E-03,   31.8536E-09
C:/temp/dataset/2/13_1.odb,Step-1,Increment      1: Step Time =    1.000,"PART-1-1",           130,      -5.00948,       27.4462,            0.,NA,NA,"",   533.660E-03,  -531.830E-03,   44.1574E-03,   25.5421E-09
C:/temp/dataset/2/13_1.odb,Step-1,Increment      1: Step Time =    1.000,"PART-1-1",           131,      -2.51658,       27.4324,            0.,NA,NA,"",   536.493E-03,  -531.824E-03,   70.6266E-03,   27.7663E-09
C:/temp/dataset/2/13_1.odb,Step-1,Increment      1: Step Time =    1.000,"PART-1-1",           132,      -9.99211,       27.4668,            0.,NA,NA,"",   531.840E-03,  -531.768E-03,  -8.74679E-03,   21.1609E-09
C:/temp/dataset/2/13_1.odb,Step-1,Increment      1: Step Time =    1.000,"PART-1-1",           133,       12.5029,       21.6680,            0.,NA,NA,"",   524.763E-03,  -471.468E-03,   230.422E-03,   45.1036E-09
C:/temp/dataset/2/13_1.odb,Step-1,Increment      1: Step Time =    1.000,"PART-1-1",           134,      -12.7198,      -9.27859,            0.,NA,NA,"",   141.005E-03,  -136.352E-03,  -35.9262E-03,   917.073E-06
C:/temp/dataset/2/13_1.odb,Step-1,Increment      1: Step Time =    1.000,"PART-1-1",           135,      -12.2206,      -21.4876,            0.,NA,NA,"",   23.1793E-03,  -17.1529E-03,  -15.5902E-03,   2.21927E-03
C:/temp/dataset/2/13_1.odb,Step-1,Increment      1: Step Time =    1.000,"PART-1-1",           136,       12.4390,       11.8581,            0.,NA,NA,"",   433.531E-03,  -367.305E-03,   230.297E-03,   55.9139E-09
C:/temp/dataset/2/13_1.odb,Step-1,Increment      1: Step Time =    1.000,"PART-1-1",           137,      -12.6285,      -12.0158,            0.,NA,NA,"",   109.322E-03,  -104.066E-03,  -33.4892E-03,   1.53229E-03
C:/temp/dataset/2/13_1.odb,Step-1,Increment      1: Step Time =    1.000,"PART-1-1",           138,      -12.4213,      -14.8709,            0.,NA,NA,"",   77.0764E-03,  -71.5431E-03,  -28.6767E-03,   2.04424E-03
C:/temp/dataset/2/13_1.odb,Step-1,Increment      1: Step Time =    1.000,"PART-1-1",           139,       12.2989,       14.8029,            0.,NA,NA,"",   459.491E-03,  -398.565E-03,   228.644E-03,   49.4918E-09
C:/temp/dataset/2/13_1.odb,Step-1,Increment      1: Step Time =    1.000,"PART-1-1",           140,       11.7182,       18.2155,            0.,NA,NA,"",   488.295E-03,  -434.765E-03,   222.285E-03,   40.3229E-09
C:/temp/dataset/2/13_1.odb,Step-1,Increment      1: Step Time =    1.000,"PART-1-1",           141,      -12.3380,      -4.01281,            0.,NA,NA,"",   199.028E-03,  -196.350E-03,  -32.5445E-03,   100.929E-06
C:/temp/dataset/2/13_1.odb,Step-1,Increment      1: Step Time =    1.000,"PART-1-1",           142,       12.5089,       6.21106,            0.,NA,NA,"",   384.695E-03,  -307.350E-03,   231.358E-03,   74.7015E-09
C:/temp/dataset/2/13_1.odb,Step-1,Increment      1: Step Time =    1.000,"PART-1-1",           143,      -10.9765,      -1.21375,            0.,NA,NA,"",   227.614E-03,  -226.906E-03,  -17.9348E-03,   43.3314E-06
C:/temp/dataset/2/13_1.odb,Step-1,Increment      1: Step Time =    1.000,"PART-1-1",           144,      -11.4273,       2.02370,            0.,NA,NA,"",   262.641E-03,  -261.630E-03,  -23.0192E-03,   55.6181E-06
C:/temp/dataset/2/13_1.odb,Step-1,Increment      1: Step Time =    1.000,"PART-1-1",           145,      -12.7154,      -6.64001,            0.,NA,NA,"",   170.848E-03,  -166.913E-03,  -36.4562E-03,   399.175E-06
C:/temp/dataset/2/13_1.odb,Step-1,Increment      1: Step Time =    1.000,"PART-1-1",           146,      -11.7762,      -18.1315,            0.,NA,NA,"",   43.6244E-03,  -39.2281E-03,  -19.0852E-03,   2.10113E-03
C:/temp/dataset/2/13_1.odb,Step-1,Increment      1: Step Time =    1.000,"PART-1-1",           147,      -12.2481,      -24.4184,            0.,NA,NA,"",   11.6438E-03,  -6.26957E-03,  -9.81177E-03,   2.22389E-03
C:/temp/dataset/2/13_1.odb,Step-1,Increment      1: Step Time =    1.000,"PART-1-1",           148,       12.5340,       3.42208,            0.,NA,NA,"",   361.748E-03,  -277.738E-03,   231.782E-03,   90.0539E-09
C:/temp/dataset/2/13_1.odb,Step-1,Increment      1: Step Time =    1.000,"PART-1-1",           149,       12.5428,   630.306E-03,            0.,NA,NA,"",   339.692E-03,  -248.096E-03,   232.033E-03,   128.621E-09
C:/temp/dataset/2/13_1.odb,Step-1,Increment      1: Step Time =    1.000,"PART-1-1",           150,       12.5001,       9.03097,            0.,NA,NA,"",   408.870E-03,  -337.291E-03,   231.105E-03,   60.0772E-09
C:/temp/dataset/2/13_1.odb,Step-1,Increment      1: Step Time =    1.000,"PART-1-1",           151,       12.7192,       24.5718,            0.,NA,NA,"",   553.532E-03,  -502.311E-03,   232.555E-03,   37.5268E-09
C:/temp/dataset/2/13_1.odb,Step-1,Increment      1: Step Time =    1.000,"PART-1-1",           152,       2.66783,      -27.4286,            0.,NA,NA,"",   3.31337E-03,  -3.25803E-03,   603.072E-06,   916.035E-06
C:/temp/dataset/2/13_1.odb,Step-1,Increment      1: Step Time =    1.000,"PART-1-1",           153,       8.86089,      -27.4494,            0.,NA,NA,"",   2.16343E-03,  -2.16017E-03,   118.747E-06,   550.259E-06
C:/temp/dataset/2/13_1.odb,Step-1,Increment      1: Step Time =    1.000,"PART-1-1",           154,       5.76511,      -27.4328,            0.,NA,NA,"",   2.69814E-03,  -2.68973E-03,   212.954E-06,   695.256E-06
C:/temp/dataset/2/13_1.odb,Step-1,Increment      1: Step Time =    1.000,"PART-1-1",           155,  -414.647E-03,      -27.4330,            0.,NA,NA,"",   3.75306E-03,  -3.48083E-03,   1.40332E-03,   1.24085E-03
C:/temp/dataset/2/13_1.odb,Step-1,Increment      1: Step Time =    1.000,"PART-1-1",           156,      -3.42691,      -27.4460,            0.,NA,NA,"",   3.50593E-03,  -2.71916E-03,   2.21308E-03,   1.49676E-03
C:/temp/dataset/2/13_1.odb,Step-1,Increment      1: Step Time =    1.000,"PART-1-1",           157,      -6.36574,      -27.4272,            0.,NA,NA,"",   2.09608E-03,  -1.11684E-03,   1.77376E-03,   1.17530E-03
C:/temp/dataset/2/13_1.odb,Step-1,Increment      1: Step Time =    1.000,"PART-1-1",           158,       10.5238,       25.0033,            0.,NA,NA,"",   548.259E-03,  -506.769E-03,   209.221E-03,   38.4467E-09
C:/temp/dataset/2/13_1.odb,Step-1,Increment      1: Step Time =    1.000,"PART-1-1",           159,       6.26912,       22.1485,            0.,NA,NA,"",   503.734E-03,  -476.218E-03,   164.207E-03,   26.9516E-09
C:/temp/dataset/2/13_1.odb,Step-1,Increment      1: Step Time =    1.000,"PART-1-1",           160,      -5.96402,      -2.70245,            0.,NA,NA,"",   214.482E-03,  -211.470E-03,   35.8131E-03,   132.114E-06
C:/temp/dataset/2/13_1.odb,Step-1,Increment      1: Step Time =    1.000,"PART-1-1",           161,      -12.5033,       22.4816,            0.,NA,NA,"",   479.984E-03,  -478.696E-03,  -35.1279E-03,   16.6757E-09
C:/temp/dataset/2/13_1.odb,Step-1,Increment      1: Step Time =    1.000,"PART-1-1",           162,      -2.53325,       24.9024,            0.,NA,NA,"",   509.872E-03,  -504.961E-03,   70.5923E-03,   18.0717E-09
C:/temp/dataset/2/13_1.odb,Step-1,Increment      1: Step Time =    1.000,"PART-1-1",           163,       4.43197,       24.4161,            0.,NA,NA,"",   520.665E-03,  -500.190E-03,   144.573E-03,   16.9983E-09
C:/temp/dataset/2/13_1.odb,Step-1,Increment      1: Step Time =    1.000,"PART-1-1",           164,      -10.2797,      -8.84555,            0.,NA,NA,"",   142.387E-03,  -141.975E-03,  -10.8157E-03,   1.15129E-03
C:/temp/dataset/2/13_1.odb,Step-1,Increment      1: Step Time =    1.000,"PART-1-1",           165,       2.21534,  -332.134E-03,            0.,NA,NA,"",   267.013E-03,  -237.291E-03,   122.428E-03,   4.80128E-06
C:/temp/dataset/2/13_1.odb,Step-1,Increment      1: Step Time =    1.000,"PART-1-1",           166,  -74.2209E-03,       24.8536,            0.,NA,NA,"",   513.764E-03,  -504.581E-03,   96.7038E-03,   17.3155E-09
C:/temp/dataset/2/13_1.odb,Step-1,Increment      1: Step Time =    1.000,"PART-1-1",           167,       2.30693,       24.7164,            0.,NA,NA,"",   517.834E-03,  -503.259E-03,   121.994E-03,   16.4685E-09
C:/temp/dataset/2/13_1.odb,Step-1,Increment      1: Step Time =    1.000,"PART-1-1",           168,       9.79368,       13.9045,            0.,NA,NA,"",   438.262E-03,  -388.885E-03,   202.094E-03,   17.1870E-09
C:/temp/dataset/2/13_1.odb,Step-1,Increment      1: Step Time =    1.000,"PART-1-1",           169,       9.30777,       16.4521,            0.,NA,NA,"",   460.114E-03,  -415.906E-03,   196.792E-03,   14.0581E-09
C:/temp/dataset/2/13_1.odb,Step-1,Increment      1: Step Time =    1.000,"PART-1-1",           170,      -2.35985,       1.11806,            0.,NA,NA,"",   262.973E-03,  -252.402E-03,   73.8077E-03,   25.8001E-06
C:/temp/dataset/2/13_1.odb,Step-1,Increment      1: Step Time =    1.000,"PART-1-1",           171,      -9.94133,      -13.9778,            0.,NA,NA,"",   81.3429E-03,  -80.9377E-03,  -8.10894E-03,   2.03043E-03
C:/temp/dataset/2/13_1.odb,Step-1,Increment      1: Step Time =    1.000,"PART-1-1",           172,       4.80988,   33.7751E-03,            0.,NA,NA,"",   284.123E-03,  -241.327E-03,   149.957E-03,   1.00677E-06
C:/temp/dataset/2/13_1.odb,Step-1,Increment      1: Step Time =    1.000,"PART-1-1",           173,       9.94126,       11.1894,            0.,NA,NA,"",   413.747E-03,  -360.064E-03,   203.814E-03,   20.0592E-09
C:/temp/dataset/2/13_1.odb,Step-1,Increment      1: Step Time =    1.000,"PART-1-1",           174,       7.43598,   226.782E-03,            0.,NA,NA,"",   301.542E-03,  -243.524E-03,   177.831E-03,   459.063E-09
C:/temp/dataset/2/13_1.odb,Step-1,Increment      1: Step Time =    1.000,"PART-1-1",           175,      -7.50368,       24.9336,            0.,NA,NA,"",   505.327E-03,  -505.012E-03,   17.8169E-03,   18.5110E-09
C:/temp/dataset/2/13_1.odb,Step-1,Increment      1: Step Time =    1.000,"PART-1-1",           176,      -10.1536,      -11.3797,            0.,NA,NA,"",   112.175E-03,  -111.734E-03,  -9.93585E-03,   1.72846E-03
C:/temp/dataset/2/13_1.odb,Step-1,Increment      1: Step Time =    1.000,"PART-1-1",           177,       6.92724,       24.6415,            0.,NA,NA,"",   531.028E-03,  -502.724E-03,   171.054E-03,   31.3020E-09
C:/temp/dataset/2/13_1.odb,Step-1,Increment      1: Step Time =    1.000,"PART-1-1",           178,      -9.99868,       24.9580,            0.,NA,NA,"",   505.205E-03,  -505.131E-03,  -8.67513E-03,   18.7105E-09
C:/temp/dataset/2/13_1.odb,Step-1,Increment      1: Step Time =    1.000,"PART-1-1",           179,       8.37028,       18.0705,            0.,NA,NA,"",   471.588E-03,  -433.037E-03,   186.746E-03,   7.78174E-09
C:/temp/dataset/2/13_1.odb,Step-1,Increment      1: Step Time =    1.000,"PART-1-1",           180,      -10.4068,      -6.54987,            0.,NA,NA,"",   168.864E-03,  -168.451E-03,  -11.8122E-03,   600.029E-06
C:/temp/dataset/2/13_1.odb,Step-1,Increment      1: Step Time =    1.000,"PART-1-1",           181,      -8.52723,      -17.8680,            0.,NA,NA,"",   39.4254E-03,  -39.3849E-03,   1.78746E-03,   2.37702E-03
C:/temp/dataset/2/13_1.odb,Step-1,Increment      1: Step Time =    1.000,"PART-1-1",           182,       9.99063,       8.47585,            0.,NA,NA,"",   389.290E-03,  -331.255E-03,   204.492E-03,   26.4876E-09
C:/temp/dataset/2/13_1.odb,Step-1,Increment      1: Step Time =    1.000,"PART-1-1",           183,      -6.87511,      -22.3968,            0.,NA,NA,"",   12.3878E-03,  -10.3156E-03,   6.85901E-03,   1.82985E-03
C:/temp/dataset/2/13_1.odb,Step-1,Increment      1: Step Time =    1.000,"PART-1-1",           184,       7.48189,       5.34092,            0.,NA,NA,"",   346.981E-03,  -297.827E-03,   178.031E-03,   183.766E-09
C:/temp/dataset/2/13_1.odb,Step-1,Increment      1: Step Time =    1.000,"PART-1-1",           185,       10.0207,   425.902E-03,            0.,NA,NA,"",   320.224E-03,  -245.783E-03,   205.265E-03,   164.271E-09
C:/temp/dataset/2/13_1.odb,Step-1,Increment      1: Step Time =    1.000,"PART-1-1",           186,      -8.86720,      -3.63325,            0.,NA,NA,"",   201.139E-03,  -201.079E-03,   4.91027E-03,   162.733E-06
C:/temp/dataset/2/13_1.odb,Step-1,Increment      1: Step Time =    1.000,"PART-1-1",           187,       10.0155,       5.77118,            0.,NA,NA,"",   365.400E-03,  -302.539E-03,   204.908E-03,   56.2878E-09
C:/temp/dataset/2/13_1.odb,Step-1,Increment      1: Step Time =    1.000,"PART-1-1",           188,       9.07540,       20.2179,            0.,NA,NA,"",   495.483E-03,  -455.877E-03,   194.112E-03,   23.9615E-09
C:/temp/dataset/2/13_1.odb,Step-1,Increment      1: Step Time =    1.000,"PART-1-1",           189,       5.51479,      -24.9218,            0.,NA,NA,"",   4.69910E-03,  -4.69625E-03,   163.729E-06,   581.548E-06
C:/temp/dataset/2/13_1.odb,Step-1,Increment      1: Step Time =    1.000,"PART-1-1",           190,       2.33502,      -24.9114,            0.,NA,NA,"",   5.85474E-03,  -5.76647E-03,   1.01279E-03,   846.684E-06
C:/temp/dataset/2/13_1.odb,Step-1,Increment      1: Step Time =    1.000,"PART-1-1",           191,      -3.83494,      -24.9465,            0.,NA,NA,"",   8.12137E-03,  -6.27623E-03,   5.15418E-03,   2.01417E-03
C:/temp/dataset/2/13_1.odb,Step-1,Increment      1: Step Time =    1.000,"PART-1-1",           192,       8.68706,      -24.9229,            0.,NA,NA,"",   3.96609E-03,  -3.96585E-03,   43.2415E-06,   403.211E-06
C:/temp/dataset/2/13_1.odb,Step-1,Increment      1: Step Time =    1.000,"PART-1-1",           193,  -793.545E-03,      -24.9263,            0.,NA,NA,"",   7.31233E-03,  -6.67930E-03,   2.97609E-03,   1.56361E-03
C:/temp/dataset/2/13_1.odb,Step-1,Increment      1: Step Time =    1.000,"PART-1-1",           194,      -10.0041,       22.4687,            0.,NA,NA,"",   478.778E-03,  -478.701E-03,  -8.59216E-03,   15.6657E-09
C:/temp/dataset/2/13_1.odb,Step-1,Increment      1: Step Time =    1.000,"PART-1-1",           195,       7.76291,       22.5689,            0.,NA,NA,"",   513.373E-03,  -480.766E-03,   180.044E-03,   31.5919E-09
C:/temp/dataset/2/13_1.odb,Step-1,Increment      1: Step Time =    1.000,"PART-1-1",           196,       10.0314,       3.09975,            0.,NA,NA,"",   342.477E-03,  -274.175E-03,   205.228E-03,   120.695E-09
C:/temp/dataset/2/13_1.odb,Step-1,Increment      1: Step Time =    1.000,"PART-1-1",           197,       7.45157,       2.78517,            0.,NA,NA,"",   323.889E-03,  -270.689E-03,   177.853E-03,   396.379E-09
C:/temp/dataset/2/13_1.odb,Step-1,Increment      1: Step Time =    1.000,"PART-1-1",           198,       1.23926,       2.17480,            0.,NA,NA,"",   286.617E-03,  -263.856E-03,   111.935E-03,   5.91054E-06
C:/temp/dataset/2/13_1.odb,Step-1,Increment      1: Step Time =    1.000,"PART-1-1",           199,       5.89388,       23.8379,            0.,NA,NA,"",   519.431E-03,  -494.133E-03,   160.128E-03,   24.2759E-09
C:/temp/dataset/2/13_1.odb,Step-1,Increment      1: Step Time =    1.000,"PART-1-1",           200,       4.70825,       2.52712,            0.,NA,NA,"",   306.329E-03,  -267.795E-03,   148.740E-03,   757.095E-09
C:/temp/dataset/2/13_1.odb,Step-1,Increment      1: Step Time =    1.000,"PART-1-1",           201,      -6.67563,      -24.8783,            0.,NA,NA,"",   6.16249E-03,  -4.47286E-03,   4.23908E-03,   1.50213E-03
C:/temp/dataset/2/13_1.odb,Step-1,Increment      1: Step Time =    1.000,"PART-1-1",           202,      -1.93740,       2.90022,            0.,NA,NA,"",   282.426E-03,  -271.385E-03,   78.1961E-03,   20.3362E-06
C:/temp/dataset/2/13_1.odb,Step-1,Increment      1: Step Time =    1.000,"PART-1-1",           203,      -4.27328,      -22.5070,            0.,NA,NA,"",   13.6427E-03,  -10.8083E-03,   8.32490E-03,   3.08403E-03
C:/temp/dataset/2/13_1.odb,Step-1,Increment      1: Step Time =    1.000,"PART-1-1",           204,      -7.29195,  -216.826E-03,            0.,NA,NA,"",   238.817E-03,  -237.843E-03,   21.5412E-03,   43.5489E-06
C:/temp/dataset/2/13_1.odb,Step-1,Increment      1: Step Time =    1.000,"PART-1-1",           205,      -4.39370,   432.763E-03,            0.,NA,NA,"",   250.473E-03,  -244.958E-03,   52.2691E-03,   55.3547E-06
C:/temp/dataset/2/13_1.odb,Step-1,Increment      1: Step Time =    1.000,"PART-1-1",           206,      -1.20581,      -22.4416,            0.,NA,NA,"",   9.61721E-03,  -9.02194E-03,   3.33097E-03,   2.04317E-03
C:/temp/dataset/2/13_1.odb,Step-1,Increment      1: Step Time =    1.000,"PART-1-1",           207,      -4.88725,       2.78210,            0.,NA,NA,"",   274.028E-03,  -269.983E-03,   46.9067E-03,   36.4264E-06
C:/temp/dataset/2/13_1.odb,Step-1,Increment      1: Step Time =    1.000,"PART-1-1",           208,      -8.02678,       2.39768,            0.,NA,NA,"",   266.107E-03,  -265.765E-03,   13.4839E-03,   28.8757E-06
C:/temp/dataset/2/13_1.odb,Step-1,Increment      1: Step Time =    1.000,"PART-1-1",           209,       8.51144,      -22.4401,            0.,NA,NA,"",   5.17147E-03,  -5.16998E-03,  -123.849E-06,   243.663E-06
C:/temp/dataset/2/13_1.odb,Step-1,Increment      1: Step Time =    1.000,"PART-1-1",           210,       5.25488,      -22.4306,            0.,NA,NA,"",   5.88074E-03,  -5.87984E-03,  -102.995E-06,   418.955E-06
C:/temp/dataset/2/13_1.odb,Step-1,Increment      1: Step Time =    1.000,"PART-1-1",           211,       2.00226,      -22.4217,            0.,NA,NA,"",   7.29427E-03,  -7.24651E-03,   833.337E-06,   833.912E-06
C:/temp/dataset/2/13_1.odb,Step-1,Increment      1: Step Time =    1.000,"PART-1-1",           212,      -9.28570,      -27.3600,            0.,NA,NA,"",   552.347E-06,  -80.4842E-06,  -546.452E-06,   323.350E-06
C:/temp/dataset/2/13_1.odb,Step-1,Increment      1: Step Time =    1.000,"PART-1-1",           213,       11.7596,      -22.4488,            0.,NA,NA,"",   4.88129E-03,  -4.85939E-03,   461.894E-06,   91.3011E-06
C:/temp/dataset/2/13_1.odb,Step-1,Increment      1: Step Time =    1.000,"PART-1-1",           214,      -12.4952,       27.4851,            0.,NA,NA,"",   532.994E-03,  -531.822E-03,  -35.3245E-03,   18.9951E-09
C:/temp/dataset/2/13_1.odb,Step-1,Increment      1: Step Time =    1.000,"PART-1-1",           215,      -12.1608,      -27.2494,            0.,NA,NA,"",   4.59714E-03,  -1.24121E-03,  -4.42640E-03,   2.06931E-03
C:/temp/dataset/2/13_1.odb,Step-1,Increment      1: Step Time =    1.000,"PART-1-1",           216,      -6.92277,      -20.0189,            0.,NA,NA,"",   22.8156E-03,  -20.8313E-03,   9.30643E-03,   2.25919E-03
C:/temp/dataset/2/13_1.odb,Step-1,Increment      1: Step Time =    1.000,"PART-1-1",           217,       10.3403,       22.5364,            0.,NA,NA,"",   523.414E-03,  -480.566E-03,   207.411E-03,   38.5493E-09
C:/temp/dataset/2/13_1.odb,Step-1,Increment      1: Step Time =    1.000,"PART-1-1",           218,      -9.38591,      -16.3373,            0.,NA,NA,"",   54.9426E-03,  -54.8159E-03,  -3.72947E-03,   2.02281E-03
C:/temp/dataset/2/13_1.odb,Step-1,Increment      1: Step Time =    1.000,"PART-1-1",           219,      -9.56004,      -22.0160,            0.,NA,NA,"",   12.5548E-03,  -12.2660E-03,  -2.67733E-03,   873.297E-06
C:/temp/dataset/2/13_1.odb,Step-1,Increment      1: Step Time =    1.000,"PART-1-1",           220,      -9.49058,      -24.6874,            0.,NA,NA,"",   4.29115E-03,  -4.05044E-03,  -1.41700E-03,   416.511E-06
C:/temp/dataset/2/13_1.odb,Step-1,Increment      1: Step Time =    1.000,"PART-1-1",           221,  -968.003E-03,   33.9082E-03,            0.,NA,NA,"",   256.750E-03,  -240.973E-03,   88.6124E-03,   21.3110E-06
C:/temp/dataset/2/13_1.odb,Step-1,Increment      1: Step Time =    1.000,"PART-1-1",           222,   333.674E-03,      -1.00763,            0.,NA,NA,"",   251.805E-03,  -230.010E-03,   102.474E-03,   19.5359E-06
C:/temp/dataset/2/13_1.odb,Step-1,Increment      1: Step Time =    1.000,"PART-1-1",           223,      -10.5623,      -4.72446,            0.,NA,NA,"",   189.264E-03,  -188.792E-03,  -13.3550E-03,   264.230E-06
C:/temp/dataset/2/13_1.odb,Step-1,Increment      1: Step Time =    1.000,"PART-1-1",           224,      -5.01319,       24.9269,            0.,NA,NA,"",   507.017E-03,  -505.082E-03,   44.2601E-03,   18.4221E-09
C:/temp/dataset/2/13_1.odb,Step-1,Increment      1: Step Time =    1.000,"PART-1-1",           225,      -9.24174,      -19.5473,            0.,NA,NA,"",   25.9945E-03,  -25.8931E-03,  -2.29381E-03,   1.39785E-03
C:/temp/dataset/2/13_1.odb,Step-1,Increment      1: Step Time =    1.000,"PART-1-1",           226,       8.53639,       25.1316,            0.,NA,NA,"",   541.728E-03,  -508.019E-03,   188.112E-03,   37.3795E-09
C:/temp/dataset/2/13_1.odb,Step-1,Increment      1: Step Time =    1.000,"PART-1-1",           227,       8.85572,       23.3093,            0.,NA,NA,"",   524.908E-03,  -488.688E-03,   191.605E-03,   36.3335E-09
C:/temp/dataset/2/13_1.odb,Step-1,Increment      1: Step Time =    1.000,"PART-1-1",           228,      -13.7516,       22.4908,            0.,NA,NA,"",   481.162E-03,  -478.724E-03,  -48.3830E-03,   18.7813E-09
C:/temp/dataset/2/13_1.odb,Step-1,Increment      1: Step Time =    1.000,"PART-1-1",           229,          -15.,         21.25,            0.,NA,NA,"",   469.533E-03,  -465.479E-03,  -61.5676E-03,   19.6269E-09
C:/temp/dataset/2/13_1.odb,Step-1,Increment      1: Step Time =    1.000,"PART-1-1",           230,        -13.75,           20.,            0.,NA,NA,"",   454.841E-03,  -452.277E-03,  -48.2252E-03,   15.7070E-09
C:/temp/dataset/2/13_1.odb,Step-1,Increment      1: Step Time =    1.000,"PART-1-1",           231,      -12.5016,       21.2408,            0.,NA,NA,"",   466.839E-03,  -465.522E-03,  -35.0406E-03,   14.8731E-09
C:/temp/dataset/2/13_1.odb,Step-1,Increment      1: Step Time =    1.000,"PART-1-1",           232,      -9.99605,       28.7334,            0.,NA,NA,"",   545.288E-03,  -545.216E-03,  -8.86008E-03,   22.9256E-09
C:/temp/dataset/2/13_1.odb,Step-1,Increment      1: Step Time =    1.000,"PART-1-1",           233,        -11.25,           30.,            0.,NA,NA,"",   559.036E-03,  -558.593E-03,  -22.2453E-03,   23.4596E-09
C:/temp/dataset/2/13_1.odb,Step-1,Increment      1: Step Time =    1.000,"PART-1-1",           234,      -12.4976,       28.7426,            0.,NA,NA,"",   546.322E-03,  -545.172E-03,  -35.4208E-03,   20.0347E-09
C:/temp/dataset/2/13_1.odb,Step-1,Increment      1: Step Time =    1.000,"PART-1-1",           235,      -11.2437,       27.4760,            0.,NA,NA,"",   532.251E-03,  -531.795E-03,  -22.0356E-03,   20.0018E-09
C:/temp/dataset/2/13_1.odb,Step-1,Increment      1: Step Time =    1.000,"PART-1-1",           236,      -8.74541,       27.4572,            0.,NA,NA,"",   531.755E-03,  -531.736E-03,   4.49054E-03,   22.1970E-09
C:/temp/dataset/2/13_1.odb,Step-1,Increment      1: Step Time =    1.000,"PART-1-1",           237,      -7.49936,       28.7238,            0.,NA,NA,"",   545.540E-03,  -545.255E-03,   17.6491E-03,   26.4360E-09
C:/temp/dataset/2/13_1.odb,Step-1,Increment      1: Step Time =    1.000,"PART-1-1",           238,         -8.75,           30.,            0.,NA,NA,"",   558.751E-03,  -558.734E-03,   4.29849E-03,   27.9702E-09
C:/temp/dataset/2/13_1.odb,Step-1,Increment      1: Step Time =    1.000,"PART-1-1",           239,      -10.0020,       21.2344,            0.,NA,NA,"",   465.672E-03,  -465.595E-03,  -8.50090E-03,   14.7621E-09
C:/temp/dataset/2/13_1.odb,Step-1,Increment      1: Step Time =    1.000,"PART-1-1",           240,      -11.2537,       22.4752,            0.,NA,NA,"",   479.197E-03,  -478.699E-03,  -21.8600E-03,   15.9498E-09
C:/temp/dataset/2/13_1.odb,Step-1,Increment      1: Step Time =    1.000,"PART-1-1",           241,        -11.25,           20.,            0.,NA,NA,"",   452.938E-03,  -452.418E-03,  -21.6815E-03,   15.3576E-09
C:/temp/dataset/2/13_1.odb,Step-1,Increment      1: Step Time =    1.000,"PART-1-1",           242,      -6.25410,       27.4469,            0.,NA,NA,"",   532.667E-03,  -531.767E-03,   30.9427E-03,   24.3954E-09
C:/temp/dataset/2/13_1.odb,Step-1,Increment      1: Step Time =    1.000,"PART-1-1",           243,      -7.50120,       26.1906,            0.,NA,NA,"",   518.663E-03,  -518.358E-03,   17.7724E-03,   20.5082E-09
C:/temp/dataset/2/13_1.odb,Step-1,Increment      1: Step Time =    1.000,"PART-1-1",           244,      -6.25844,       24.9303,            0.,NA,NA,"",   506.000E-03,  -505.047E-03,   31.0385E-03,   18.4644E-09
C:/temp/dataset/2/13_1.odb,Step-1,Increment      1: Step Time =    1.000,"PART-1-1",           245,      -5.01133,       26.1865,            0.,NA,NA,"",   520.337E-03,  -518.456E-03,   44.2088E-03,   21.3781E-09
C:/temp/dataset/2/13_1.odb,Step-1,Increment      1: Step Time =    1.000,"PART-1-1",           246,       1.11906,       22.3143,            0.,NA,NA,"",   490.081E-03,  -477.688E-03,   109.517E-03,   18.3688E-09
C:/temp/dataset/2/13_1.odb,Step-1,Increment      1: Step Time =    1.000,"PART-1-1",           247,  -37.5712E-03,       21.1808,            0.,NA,NA,"",   475.645E-03,  -465.587E-03,   97.3000E-03,   23.6867E-09
C:/temp/dataset/2/13_1.odb,Step-1,Increment      1: Step Time =    1.000,"PART-1-1",           248,          1.25,           20.,            0.,NA,NA,"",   466.529E-03,  -453.123E-03,   111.037E-03,   33.8124E-09
C:/temp/dataset/2/13_1.odb,Step-1,Increment      1: Step Time =    1.000,"PART-1-1",           249,       2.40663,       21.1336,            0.,NA,NA,"",   481.274E-03,  -465.224E-03,   123.254E-03,   29.2989E-09
C:/temp/dataset/2/13_1.odb,Step-1,Increment      1: Step Time =    1.000,"PART-1-1",           250,  -46.9838E-03,       26.1228,            0.,NA,NA,"",   527.047E-03,  -518.058E-03,   96.9215E-03,   22.5280E-09
C:/temp/dataset/2/13_1.odb,Step-1,Increment      1: Step Time =    1.000,"PART-1-1",           251,       1.11635,       24.7850,            0.,NA,NA,"",   515.648E-03,  -503.920E-03,   109.349E-03,   15.9100E-09
C:/temp/dataset/2/13_1.odb,Step-1,Increment      1: Step Time =    1.000,"PART-1-1",           252,       2.41618,       25.9912,            0.,NA,NA,"",   531.254E-03,  -516.800E-03,   123.082E-03,   22.8229E-09
C:/temp/dataset/2/13_1.odb,Step-1,Increment      1: Step Time =    1.000,"PART-1-1",           253,       1.25284,       27.3289,            0.,NA,NA,"",   542.347E-03,  -530.938E-03,   110.654E-03,   29.9845E-09
C:/temp/dataset/2/13_1.odb,Step-1,Increment      1: Step Time =    1.000,"PART-1-1",           254,       11.4216,       22.1022,            0.,NA,NA,"",   523.943E-03,  -476.017E-03,   218.917E-03,   40.2852E-09
C:/temp/dataset/2/13_1.odb,Step-1,Increment      1: Step Time =    1.000,"PART-1-1",           255,       9.70783,       21.3771,            0.,NA,NA,"",   509.447E-03,  -468.221E-03,   200.762E-03,   31.1349E-09
C:/temp/dataset/2/13_1.odb,Step-1,Increment      1: Step Time =    1.000,"PART-1-1",           256,       10.3968,       19.2167,            0.,NA,NA,"",   491.587E-03,  -445.321E-03,   208.199E-03,   29.3338E-09
C:/temp/dataset/2/13_1.odb,Step-1,Increment      1: Step Time =    1.000,"PART-1-1",           257,       12.1105,       19.9418,            0.,NA,NA,"",   506.508E-03,  -453.117E-03,   226.354E-03,   42.8881E-09
C:/temp/dataset/2/13_1.odb,Step-1,Increment      1: Step Time =    1.000,"PART-1-1",           258,       11.6215,       24.7876,            0.,NA,NA,"",   550.774E-03,  -504.540E-03,   220.888E-03,   36.8457E-09
C:/temp/dataset/2/13_1.odb,Step-1,Increment      1: Step Time =    1.000,"PART-1-1",           259,       12.6971,       25.9410,            0.,NA,NA,"",   566.629E-03,  -516.848E-03,   232.243E-03,   31.8763E-09
C:/temp/dataset/2/13_1.odb,Step-1,Increment      1: Step Time =    1.000,"PART-1-1",           260,       11.4859,       27.3886,            0.,NA,NA,"",   575.565E-03,  -532.149E-03,   219.301E-03,   30.5282E-09
C:/temp/dataset/2/13_1.odb,Step-1,Increment      1: Step Time =    1.000,"PART-1-1",           261,       10.4103,       26.2351,            0.,NA,NA,"",   559.889E-03,  -519.841E-03,   207.946E-03,   35.8684E-09
C:/temp/dataset/2/13_1.odb,Step-1,Increment      1: Step Time =    1.000,"PART-1-1",           262,       5.88041,       17.6377,            0.,NA,NA,"",   457.329E-03,  -428.302E-03,   160.334E-03,   59.5638E-09
C:/temp/dataset/2/13_1.odb,Step-1,Increment      1: Step Time =    1.000,"PART-1-1",           263,       6.75071,       18.9160,            0.,NA,NA,"",   473.315E-03,  -441.923E-03,   169.503E-03,   26.0005E-09
C:/temp/dataset/2/13_1.odb,Step-1,Increment      1: Step Time =    1.000,"PART-1-1",           264,       5.87030,       20.0282,            0.,NA,NA,"",   481.100E-03,  -453.683E-03,   160.092E-03,   45.7040E-09
C:/temp/dataset/2/13_1.odb,Step-1,Increment      1: Step Time =    1.000,"PART-1-1",           265,            5.,         18.75,            0.,NA,NA,"",   465.223E-03,  -440.062E-03,   150.924E-03,   85.2267E-09
C:/temp/dataset/2/13_1.odb,Step-1,Increment      1: Step Time =    1.000,"PART-1-1",           266,       12.3690,       13.3305,            0.,NA,NA,"",   446.425E-03,  -382.935E-03,   229.471E-03,   52.4585E-09
C:/temp/dataset/2/13_1.odb,Step-1,Increment      1: Step Time =    1.000,"PART-1-1",           267,       13.7195,       12.1790,            0.,NA,NA,"",   443.798E-03,  -370.785E-03,   243.875E-03,   76.8322E-09
C:/temp/dataset/2/13_1.odb,Step-1,Increment      1: Step Time =    1.000,"PART-1-1",           268,           15.,       13.9583,            0.,NA,NA,"",   467.059E-03,  -389.749E-03,   257.371E-03,   95.6196E-09
C:/temp/dataset/2/13_1.odb,Step-1,Increment      1: Step Time =    1.000,"PART-1-1",           269,       13.6495,       15.1098,            0.,NA,NA,"",   469.633E-03,  -401.899E-03,   242.966E-03,   70.7764E-09
C:/temp/dataset/2/13_1.odb,Step-1,Increment      1: Step Time =    1.000,"PART-1-1",           270,       12.5214,       4.81657,            0.,NA,NA,"",   373.104E-03,  -292.544E-03,   231.570E-03,   82.8716E-09
C:/temp/dataset/2/13_1.odb,Step-1,Increment      1: Step Time =    1.000,"PART-1-1",           271,       13.7670,       3.58604,            0.,NA,NA,"",   371.626E-03,  -279.549E-03,   244.865E-03,   125.389E-09
C:/temp/dataset/2/13_1.odb,Step-1,Increment      1: Step Time =    1.000,"PART-1-1",           272,           15.,       5.20833,            0.,NA,NA,"",   393.205E-03,  -296.843E-03,   257.865E-03,   145.496E-09
C:/temp/dataset/2/13_1.odb,Step-1,Increment      1: Step Time =    1.000,"PART-1-1",           273,       13.7545,       6.43886,            0.,NA,NA,"",   394.734E-03,  -309.839E-03,   244.570E-03,   98.6715E-09
C:/temp/dataset/2/13_1.odb,Step-1,Increment      1: Step Time =    1.000,"PART-1-1",           274,       13.7625,      -2.13133,            0.,NA,NA,"",   328.611E-03,  -218.841E-03,   245.140E-03,   93.5617E-09
C:/temp/dataset/2/13_1.odb,Step-1,Increment      1: Step Time =    1.000,"PART-1-1",           275,       12.5125,      -3.58966,            0.,NA,NA,"",   308.425E-03,  -203.286E-03,   231.950E-03,   83.4355E-09
C:/temp/dataset/2/13_1.odb,Step-1,Increment      1: Step Time =    1.000,"PART-1-1",           276,         13.75,           -5.,            0.,NA,NA,"",   309.184E-03,  -188.380E-03,   245.169E-03,   31.7406E-09
C:/temp/dataset/2/13_1.odb,Step-1,Increment      1: Step Time =    1.000,"PART-1-1",           277,           15.,      -3.54167,            0.,NA,NA,"",   329.149E-03,  -203.935E-03,   258.359E-03,   25.5824E-09
C:/temp/dataset/2/13_1.odb,Step-1,Increment      1: Step Time =    1.000,"PART-1-1",           278,      -9.21387,      -6.21191,            0.,NA,NA,"",   172.799E-03,  -172.797E-03,   900.082E-06,   586.284E-06
C:/temp/dataset/2/13_1.odb,Step-1,Increment      1: Step Time =    1.000,"PART-1-1",           279,      -8.44405,      -4.75360,            0.,NA,NA,"",   189.384E-03,  -189.151E-03,   9.38799E-03,   388.515E-06
C:/temp/dataset/2/13_1.odb,Step-1,Increment      1: Step Time =    1.000,"PART-1-1",           280,      -9.71477,      -4.17886,            0.,NA,NA,"",   195.034E-03,  -194.989E-03,  -4.21382E-03,   206.017E-06
C:/temp/dataset/2/13_1.odb,Step-1,Increment      1: Step Time =    1.000,"PART-1-1",           281,      -10.4846,      -5.63717,            0.,NA,NA,"",   179.142E-03,  -178.701E-03,  -12.5575E-03,   424.876E-06
C:/temp/dataset/2/13_1.odb,Step-1,Increment      1: Step Time =    1.000,"PART-1-1",           282,      -5.84282,   107.969E-03,            0.,NA,NA,"",   244.201E-03,  -241.392E-03,   36.9332E-03,   45.6023E-06
C:/temp/dataset/2/13_1.odb,Step-1,Increment      1: Step Time =    1.000,"PART-1-1",           283,      -4.64047,       1.60743,            0.,NA,NA,"",   262.202E-03,  -257.469E-03,   49.5963E-03,   40.2932E-06
C:/temp/dataset/2/13_1.odb,Step-1,Increment      1: Step Time =    1.000,"PART-1-1",           284,      -6.45702,       2.58989,            0.,NA,NA,"",   269.573E-03,  -267.874E-03,   30.2234E-03,   28.6988E-06
C:/temp/dataset/2/13_1.odb,Step-1,Increment      1: Step Time =    1.000,"PART-1-1",           285,      -7.65937,       1.09043,            0.,NA,NA,"",   252.405E-03,  -251.797E-03,   17.5143E-03,   30.2669E-06
C:/temp/dataset/2/13_1.odb,Step-1,Increment      1: Step Time =    1.000,"PART-1-1",           286,      -6.51044,      -5.43697,            0.,NA,NA,"",   185.183E-03,  -182.723E-03,   30.0806E-03,   580.732E-06
C:/temp/dataset/2/13_1.odb,Step-1,Increment      1: Step Time =    1.000,"PART-1-1",           287,      -5.48201,      -3.85122,            0.,NA,NA,"",   203.542E-03,  -199.384E-03,   40.9325E-03,   133.599E-06
C:/temp/dataset/2/13_1.odb,Step-1,Increment      1: Step Time =    1.000,"PART-1-1",           288,      -7.41561,      -3.16785,            0.,NA,NA,"",   207.339E-03,  -206.329E-03,   20.4342E-03,   91.7075E-06
C:/temp/dataset/2/13_1.odb,Step-1,Increment      1: Step Time =    1.000,"PART-1-1",           289,      -12.6742,      -10.6472,            0.,NA,NA,"",   125.144E-03,  -120.198E-03,  -34.8347E-03,   1.21836E-03
C:/temp/dataset/2/13_1.odb,Step-1,Increment      1: Step Time =    1.000,"PART-1-1",           290,      -11.3911,      -11.6978,            0.,NA,NA,"",   109.850E-03,  -107.689E-03,  -21.6815E-03,   1.53737E-03
C:/temp/dataset/2/13_1.odb,Step-1,Increment      1: Step Time =    1.000,"PART-1-1",           291,      -10.2167,      -10.1126,            0.,NA,NA,"",   127.372E-03,  -126.948E-03,  -10.3895E-03,   1.43455E-03
C:/temp/dataset/2/13_1.odb,Step-1,Increment      1: Step Time =    1.000,"PART-1-1",           292,      -11.4997,      -9.06207,            0.,NA,NA,"",   140.960E-03,  -139.020E-03,  -23.3022E-03,   981.653E-06
C:/temp/dataset/2/13_1.odb,Step-1,Increment      1: Step Time =    1.000,"PART-1-1",           293,      -13.7107,      -15.1438,            0.,NA,NA,"",   80.1047E-03,  -69.5953E-03,  -39.6643E-03,   2.30127E-03
C:/temp/dataset/2/13_1.odb,Step-1,Increment      1: Step Time =    1.000,"PART-1-1",           294,      -12.5249,      -13.4434,            0.,NA,NA,"",   92.8879E-03,  -87.4868E-03,  -31.2125E-03,   1.77571E-03
C:/temp/dataset/2/13_1.odb,Step-1,Increment      1: Step Time =    1.000,"PART-1-1",           295,      -13.8143,      -12.2579,            0.,NA,NA,"",   111.287E-03,  -101.693E-03,  -45.2049E-03,   1.41173E-03
C:/temp/dataset/2/13_1.odb,Step-1,Increment      1: Step Time =    1.000,"PART-1-1",           296,          -15.,      -13.9583,            0.,NA,NA,"",   99.9803E-03,  -83.4827E-03,  -55.0155E-03,   2.30683E-03
C:/temp/dataset/2/13_1.odb,Step-1,Increment      1: Step Time =    1.000,"PART-1-1",           297,      -12.0988,      -16.5012,            0.,NA,NA,"",   59.4325E-03,  -54.4455E-03,  -23.8308E-03,   2.06465E-03
C:/temp/dataset/2/13_1.odb,Step-1,Increment      1: Step Time =    1.000,"PART-1-1",           298,      -10.5811,      -17.2344,            0.,NA,NA,"",   47.8928E-03,  -46.3668E-03,  -11.9933E-03,   1.82080E-03
C:/temp/dataset/2/13_1.odb,Step-1,Increment      1: Step Time =    1.000,"PART-1-1",           299,      -9.66362,      -15.1575,            0.,NA,NA,"",   67.8431E-03,  -67.5922E-03,  -5.82902E-03,   2.03871E-03
C:/temp/dataset/2/13_1.odb,Step-1,Increment      1: Step Time =    1.000,"PART-1-1",           300,      -11.1813,      -14.4243,            0.,NA,NA,"",   78.1787E-03,  -75.9560E-03,  -18.5094E-03,   1.88816E-03
C:/temp/dataset/2/13_1.odb,Step-1,Increment      1: Step Time =    1.000,"PART-1-1",           301,      -10.5090,      -18.8394,            0.,NA,NA,"",   33.8407E-03,  -32.2848E-03,  -10.1432E-03,   1.64378E-03
C:/temp/dataset/2/13_1.odb,Step-1,Increment      1: Step Time =    1.000,"PART-1-1",           302,      -8.88448,      -18.7076,            0.,NA,NA,"",   32.1786E-03,  -32.1761E-03,  -397.534E-06,   1.83464E-03
C:/temp/dataset/2/13_1.odb,Step-1,Increment      1: Step Time =    1.000,"PART-1-1",           303,      -8.95657,      -17.1026,            0.,NA,NA,"",   47.0102E-03,  -47.0035E-03,  -793.409E-06,   2.17823E-03
C:/temp/dataset/2/13_1.odb,Step-1,Increment      1: Step Time =    1.000,"PART-1-1",           304,      -8.08225,      -19.7831,            0.,NA,NA,"",   23.7258E-03,  -23.4035E-03,   3.89749E-03,   1.75402E-03
C:/temp/dataset/2/13_1.odb,Step-1,Increment      1: Step Time =    1.000,"PART-1-1",           305,      -6.89084,      -18.8787,            0.,NA,NA,"",   31.4051E-03,  -29.5317E-03,   10.6845E-03,   2.75488E-03
C:/temp/dataset/2/13_1.odb,Step-1,Increment      1: Step Time =    1.000,"PART-1-1",           306,      -7.69307,      -17.8032,            0.,NA,NA,"",   40.7676E-03,  -40.1117E-03,   7.28338E-03,   2.66782E-03
C:/temp/dataset/2/13_1.odb,Step-1,Increment      1: Step Time =    1.000,"PART-1-1",           307,       7.10093,      -24.9223,            0.,NA,NA,"",   4.28551E-03,  -4.28540E-03,   30.3870E-06,   497.654E-06
C:/temp/dataset/2/13_1.odb,Step-1,Increment      1: Step Time =    1.000,"PART-1-1",           308,       8.59925,      -23.6815,            0.,NA,NA,"",   4.63862E-03,  -4.63845E-03,  -38.9796E-06,   321.308E-06
C:/temp/dataset/2/13_1.odb,Step-1,Increment      1: Step Time =    1.000,"PART-1-1",           309,       6.88316,      -22.4353,            0.,NA,NA,"",   5.46971E-03,  -5.46630E-03,  -192.991E-06,   326.236E-06
C:/temp/dataset/2/13_1.odb,Step-1,Increment      1: Step Time =    1.000,"PART-1-1",           310,       5.38484,      -23.6762,            0.,NA,NA,"",   5.41464E-03,  -5.41440E-03,   51.1461E-06,   489.896E-06
C:/temp/dataset/2/13_1.odb,Step-1,Increment      1: Step Time =    1.000,"PART-1-1",           311,       13.3798,      -22.4744,            0.,NA,NA,"",   4.91514E-03,  -4.81540E-03,   985.185E-06,   35.2343E-06
C:/temp/dataset/2/13_1.odb,Step-1,Increment      1: Step Time =    1.000,"PART-1-1",           312,           15.,        -21.25,            0.,NA,NA,"",   5.51546E-03,  -5.27917E-03,   1.59710E-03,   12.0794E-06
C:/temp/dataset/2/13_1.odb,Step-1,Increment      1: Step Time =    1.000,"PART-1-1",           313,       13.3333,          -20.,            0.,NA,NA,"",   5.80917E-03,  -5.72592E-03,   979.924E-06,   12.7232E-06
C:/temp/dataset/2/13_1.odb,Step-1,Increment      1: Step Time =    1.000,"PART-1-1",           314,       11.7131,      -21.2244,            0.,NA,NA,"",   5.33224E-03,  -5.31370E-03,   444.204E-06,   38.0467E-06
C:/temp/dataset/2/13_1.odb,Step-1,Increment      1: Step Time =    1.000,"PART-1-1",           315,      -2.14863,       2.00914,            0.,NA,NA,"",   272.701E-03,  -261.896E-03,   76.0032E-03,   22.1974E-06
C:/temp/dataset/2/13_1.odb,Step-1,Increment      1: Step Time =    1.000,"PART-1-1",           316,      -1.66393,   575.985E-03,            0.,NA,NA,"",   259.708E-03,  -246.685E-03,   81.2103E-03,   24.3513E-06
C:/temp/dataset/2/13_1.odb,Step-1,Increment      1: Step Time =    1.000,"PART-1-1",           317,   135.628E-03,       1.10435,            0.,NA,NA,"",   271.609E-03,  -252.420E-03,   100.277E-03,   13.6678E-06
C:/temp/dataset/2/13_1.odb,Step-1,Increment      1: Step Time =    1.000,"PART-1-1",           318,  -349.073E-03,       2.53751,            0.,NA,NA,"",   284.000E-03,  -267.618E-03,   95.0622E-03,   12.3761E-06
C:/temp/dataset/2/13_1.odb,Step-1,Increment      1: Step Time =    1.000,"PART-1-1",           319,   156.145E-03,      -1.87787,            0.,NA,NA,"",   242.614E-03,  -220.759E-03,   100.631E-03,   18.0715E-06
C:/temp/dataset/2/13_1.odb,Step-1,Increment      1: Step Time =    1.000,"PART-1-1",           320,       1.21010,      -2.70880,            0.,NA,NA,"",   239.711E-03,  -212.002E-03,   111.876E-03,   7.92192E-06
C:/temp/dataset/2/13_1.odb,Step-1,Increment      1: Step Time =    1.000,"PART-1-1",           321,       2.32846,      -1.50081,            0.,NA,NA,"",   256.663E-03,  -224.892E-03,   123.692E-03,   2.93102E-06
C:/temp/dataset/2/13_1.odb,Step-1,Increment      1: Step Time =    1.000,"PART-1-1",           322,       1.27451,  -669.883E-03,            0.,NA,NA,"",   259.305E-03,  -233.652E-03,   112.453E-03,   10.6050E-06
C:/temp/dataset/2/13_1.odb,Step-1,Increment      1: Step Time =    1.000,"PART-1-1",           323,       4.87500,      -1.23074,            0.,NA,NA,"",   273.233E-03,  -227.903E-03,   150.720E-03,   604.031E-09
C:/temp/dataset/2/13_1.odb,Step-1,Increment      1: Step Time =    1.000,"PART-1-1",           324,       6.20088,      -2.43579,            0.,NA,NA,"",   271.080E-03,  -215.182E-03,   164.867E-03,   593.009E-09
C:/temp/dataset/2/13_1.odb,Step-1,Increment      1: Step Time =    1.000,"PART-1-1",           325,       7.44880,      -1.07477,            0.,NA,NA,"",   290.625E-03,  -229.704E-03,   178.041E-03,   262.228E-09
C:/temp/dataset/2/13_1.odb,Step-1,Increment      1: Step Time =    1.000,"PART-1-1",           326,       6.12293,   130.279E-03,            0.,NA,NA,"",   292.629E-03,  -242.425E-03,   163.895E-03,   385.924E-09
C:/temp/dataset/2/13_1.odb,Step-1,Increment      1: Step Time =    1.000,"PART-1-1",           327,          8.75,           -5.,            0.,NA,NA,"",   268.840E-03,  -188.098E-03,   192.079E-03,   383.000E-09
C:/temp/dataset/2/13_1.odb,Step-1,Increment      1: Step Time =    1.000,"PART-1-1",           328,       10.0063,      -3.63741,            0.,NA,NA,"",   288.491E-03,  -202.637E-03,   205.342E-03,   202.906E-09
C:/temp/dataset/2/13_1.odb,Step-1,Increment      1: Step Time =    1.000,"PART-1-1",           329,       8.73716,      -2.32557,            0.,NA,NA,"",   289.230E-03,  -216.495E-03,   191.792E-03,   281.764E-09
C:/temp/dataset/2/13_1.odb,Step-1,Increment      1: Step Time =    1.000,"PART-1-1",           330,       7.48081,      -3.68816,            0.,NA,NA,"",   269.552E-03,  -201.956E-03,   178.528E-03,   297.124E-09
C:/temp/dataset/2/13_1.odb,Step-1,Increment      1: Step Time =    1.000,"PART-1-1",           331,       6.24109,       7.72904,            0.,NA,NA,"",   362.679E-03,  -323.114E-03,   164.722E-03,   62.7573E-09
C:/temp/dataset/2/13_1.odb,Step-1,Increment      1: Step Time =    1.000,"PART-1-1",           332,            5.,          6.25,            0.,NA,NA,"",   342.708E-03,  -307.340E-03,   151.627E-03,   122.681E-09
C:/temp/dataset/2/13_1.odb,Step-1,Increment      1: Step Time =    1.000,"PART-1-1",           333,       6.24095,       5.17046,            0.,NA,NA,"",   338.770E-03,  -295.947E-03,   164.864E-03,   294.554E-09
C:/temp/dataset/2/13_1.odb,Step-1,Increment      1: Step Time =    1.000,"PART-1-1",           334,       7.48203,       6.64950,            0.,NA,NA,"",   358.942E-03,  -311.722E-03,   177.959E-03,   90.2919E-09
C:/temp/dataset/2/13_1.odb,Step-1,Increment      1: Step Time =    1.000,"PART-1-1",           335,       7.34508,       23.6052,            0.,NA,NA,"",   522.140E-03,  -491.745E-03,   175.549E-03,   31.3418E-09
C:/temp/dataset/2/13_1.odb,Step-1,Increment      1: Step Time =    1.000,"PART-1-1",           336,       6.41056,       24.2397,            0.,NA,NA,"",   525.216E-03,  -498.429E-03,   165.591E-03,   27.3798E-09
C:/temp/dataset/2/13_1.odb,Step-1,Increment      1: Step Time =    1.000,"PART-1-1",           337,       6.08150,       22.9932,            0.,NA,NA,"",   511.560E-03,  -485.176E-03,   162.167E-03,   23.4495E-09
C:/temp/dataset/2/13_1.odb,Step-1,Increment      1: Step Time =    1.000,"PART-1-1",           338,       7.01602,       22.3587,            0.,NA,NA,"",   508.509E-03,  -478.492E-03,   172.126E-03,   27.0331E-09
C:/temp/dataset/2/13_1.odb,Step-1,Increment      1: Step Time =    1.000,"PART-1-1",           339,      -12.5005,       23.7291,            0.,NA,NA,"",   493.197E-03,  -491.942E-03,  -35.1691E-03,   17.9391E-09
C:/temp/dataset/2/13_1.odb,Step-1,Increment      1: Step Time =    1.000,"PART-1-1",           340,      -13.7489,       24.9883,            0.,NA,NA,"",   507.563E-03,  -505.241E-03,  -48.4946E-03,   18.3066E-09
C:/temp/dataset/2/13_1.odb,Step-1,Increment      1: Step Time =    1.000,"PART-1-1",           341,          -15.,         23.75,            0.,NA,NA,"",   495.877E-03,  -492.023E-03,  -61.7085E-03,   18.8012E-09
C:/temp/dataset/2/13_1.odb,Step-1,Increment      1: Step Time =    1.000,"PART-1-1",           342,      -2.52491,       26.1674,            0.,NA,NA,"",   523.179E-03,  -518.393E-03,   70.6094E-03,   22.0977E-09
C:/temp/dataset/2/13_1.odb,Step-1,Increment      1: Step Time =    1.000,"PART-1-1",           343,      -1.30373,       24.8780,            0.,NA,NA,"",   511.655E-03,  -504.771E-03,   83.6481E-03,   17.7749E-09
C:/temp/dataset/2/13_1.odb,Step-1,Increment      1: Step Time =    1.000,"PART-1-1",           344,      -1.26817,       27.4122,            0.,NA,NA,"",   538.256E-03,  -531.680E-03,   83.8828E-03,   28.7008E-09
C:/temp/dataset/2/13_1.odb,Step-1,Increment      1: Step Time =    1.000,"PART-1-1",           345,       2.31009,       23.4917,            0.,NA,NA,"",   505.231E-03,  -490.256E-03,   122.096E-03,   14.1016E-09
C:/temp/dataset/2/13_1.odb,Step-1,Increment      1: Step Time =    1.000,"PART-1-1",           346,       3.41051,       22.2101,            0.,NA,NA,"",   495.145E-03,  -476.710E-03,   133.852E-03,   13.9966E-09
C:/temp/dataset/2/13_1.odb,Step-1,Increment      1: Step Time =    1.000,"PART-1-1",           347,       4.46987,       23.2845,            0.,NA,NA,"",   509.268E-03,  -488.178E-03,   145.039E-03,   13.2862E-09
C:/temp/dataset/2/13_1.odb,Step-1,Increment      1: Step Time =    1.000,"PART-1-1",           348,       3.36945,       24.5662,            0.,NA,NA,"",   519.126E-03,  -501.724E-03,   133.283E-03,   15.8354E-09
C:/temp/dataset/2/13_1.odb,Step-1,Increment      1: Step Time =    1.000,"PART-1-1",           349,       3.92627,       27.0683,            0.,NA,NA,"",   546.315E-03,  -528.322E-03,   139.054E-03,   30.3465E-09
C:/temp/dataset/2/13_1.odb,Step-1,Increment      1: Step Time =    1.000,"PART-1-1",           350,       5.16355,       28.4353,            0.,NA,NA,"",   563.814E-03,  -542.906E-03,   152.114E-03,   40.5748E-09
C:/temp/dataset/2/13_1.odb,Step-1,Increment      1: Step Time =    1.000,"PART-1-1",           351,          3.75,           30.,            0.,NA,NA,"",   575.974E-03,  -559.439E-03,   137.018E-03,   52.1547E-09
C:/temp/dataset/2/13_1.odb,Step-1,Increment      1: Step Time =    1.000,"PART-1-1",           352,       2.51272,       28.6330,            0.,NA,NA,"",   558.778E-03,  -544.855E-03,   123.958E-03,   41.3159E-09
C:/temp/dataset/2/13_1.odb,Step-1,Increment      1: Step Time =    1.000,"PART-1-1",           353,       11.0463,       14.3537,            0.,NA,NA,"",   448.779E-03,  -393.725E-03,   215.369E-03,   30.9585E-09
C:/temp/dataset/2/13_1.odb,Step-1,Increment      1: Step Time =    1.000,"PART-1-1",           354,       9.86747,       12.5470,            0.,NA,NA,"",   425.936E-03,  -374.475E-03,   202.954E-03,   18.3773E-09
C:/temp/dataset/2/13_1.odb,Step-1,Increment      1: Step Time =    1.000,"PART-1-1",           355,       11.1901,       11.5237,            0.,NA,NA,"",   423.532E-03,  -363.685E-03,   217.056E-03,   33.6731E-09
C:/temp/dataset/2/13_1.odb,Step-1,Increment      1: Step Time =    1.000,"PART-1-1",           356,       9.55073,       15.1783,            0.,NA,NA,"",   449.110E-03,  -402.395E-03,   199.443E-03,   15.0747E-09
C:/temp/dataset/2/13_1.odb,Step-1,Increment      1: Step Time =    1.000,"PART-1-1",           357,       8.18591,       15.9712,            0.,NA,NA,"",   450.440E-03,  -410.738E-03,   184.907E-03,   23.6238E-09
C:/temp/dataset/2/13_1.odb,Step-1,Increment      1: Step Time =    1.000,"PART-1-1",           358,       7.20669,       14.2932,            0.,NA,NA,"",   429.918E-03,  -392.865E-03,   174.605E-03,   42.5812E-09
C:/temp/dataset/2/13_1.odb,Step-1,Increment      1: Step Time =    1.000,"PART-1-1",           359,       8.57151,       13.5002,            0.,NA,NA,"",   428.523E-03,  -384.523E-03,   189.140E-03,   22.8006E-09
C:/temp/dataset/2/13_1.odb,Step-1,Increment      1: Step Time =    1.000,"PART-1-1",           360,       7.44377,       1.50598,            0.,NA,NA,"",   312.620E-03,  -257.107E-03,   177.842E-03,   259.441E-09
C:/temp/dataset/2/13_1.odb,Step-1,Increment      1: Step Time =    1.000,"PART-1-1",           361,       8.72836,   326.342E-03,            0.,NA,NA,"",   310.719E-03,  -244.653E-03,   191.548E-03,   227.099E-09
C:/temp/dataset/2/13_1.odb,Step-1,Increment      1: Step Time =    1.000,"PART-1-1",           362,       10.0261,       1.76283,            0.,NA,NA,"",   331.233E-03,  -259.979E-03,   205.246E-03,   106.390E-09
C:/temp/dataset/2/13_1.odb,Step-1,Increment      1: Step Time =    1.000,"PART-1-1",           363,       8.74149,       2.94246,            0.,NA,NA,"",   333.027E-03,  -272.432E-03,   191.540E-03,   155.516E-09
C:/temp/dataset/2/13_1.odb,Step-1,Increment      1: Step Time =    1.000,"PART-1-1",           364,       12.5045,       7.62102,            0.,NA,NA,"",   396.684E-03,  -322.320E-03,   231.232E-03,   67.1200E-09
C:/temp/dataset/2/13_1.odb,Step-1,Increment      1: Step Time =    1.000,"PART-1-1",           365,           15.,         8.125,            0.,NA,NA,"",   416.977E-03,  -327.812E-03,   257.700E-03,   116.421E-09
C:/temp/dataset/2/13_1.odb,Step-1,Increment      1: Step Time =    1.000,"PART-1-1",           366,       13.7500,       9.30715,            0.,NA,NA,"",   418.942E-03,  -340.293E-03,   244.362E-03,   82.8356E-09
C:/temp/dataset/2/13_1.odb,Step-1,Increment      1: Step Time =    1.000,"PART-1-1",           367,      -1.45938,      -2.40358,            0.,NA,NA,"",   230.710E-03,  -215.079E-03,   83.4749E-03,   51.2370E-06
C:/temp/dataset/2/13_1.odb,Step-1,Increment      1: Step Time =    1.000,"PART-1-1",           368,      -2.69869,      -3.52952,            0.,NA,NA,"",   214.934E-03,  -203.105E-03,   70.3192E-03,   52.7704E-06
C:/temp/dataset/2/13_1.odb,Step-1,Increment      1: Step Time =    1.000,"PART-1-1",           369,         -1.25,           -5.,            0.,NA,NA,"",   206.240E-03,  -187.513E-03,   85.8696E-03,   34.7525E-06
C:/temp/dataset/2/13_1.odb,Step-1,Increment      1: Step Time =    1.000,"PART-1-1",           370,  -10.6917E-03,      -3.87406,            0.,NA,NA,"",   222.750E-03,  -199.553E-03,   98.9752E-03,   9.57400E-06
C:/temp/dataset/2/13_1.odb,Step-1,Increment      1: Step Time =    1.000,"PART-1-1",           371,      -13.3333,            5.,            0.,NA,NA,"",   296.728E-03,  -293.486E-03,  -43.7406E-03,   10.9404E-06
C:/temp/dataset/2/13_1.odb,Step-1,Increment      1: Step Time =    1.000,"PART-1-1",           372,          -15.,       3.54167,            0.,NA,NA,"",   284.464E-03,  -277.718E-03,  -61.5833E-03,   10.9764E-06
C:/temp/dataset/2/13_1.odb,Step-1,Increment      1: Step Time =    1.000,"PART-1-1",           373,      -13.2137,       2.05352,            0.,NA,NA,"",   265.248E-03,  -261.855E-03,  -42.2905E-03,   36.2412E-06
C:/temp/dataset/2/13_1.odb,Step-1,Increment      1: Step Time =    1.000,"PART-1-1",           374,      -11.5470,       3.51185,            0.,NA,NA,"",   278.649E-03,  -277.577E-03,  -24.4112E-03,   36.7358E-06
C:/temp/dataset/2/13_1.odb,Step-1,Increment      1: Step Time =    1.000,"PART-1-1",           375,          -15.,      625.E-03,            0.,NA,NA,"",   253.953E-03,  -246.396E-03,  -61.4929E-03,   56.9073E-06
C:/temp/dataset/2/13_1.odb,Step-1,Increment      1: Step Time =    1.000,"PART-1-1",           376,      -12.9883,      -1.02354,            0.,NA,NA,"",   232.231E-03,  -228.808E-03,  -39.7277E-03,   46.3799E-06
C:/temp/dataset/2/13_1.odb,Step-1,Increment      1: Step Time =    1.000,"PART-1-1",           377,      -11.2019,   404.974E-03,            0.,NA,NA,"",   245.145E-03,  -244.287E-03,  -20.4813E-03,   47.6844E-06
C:/temp/dataset/2/13_1.odb,Step-1,Increment      1: Step Time =    1.000,"PART-1-1",           378,      -13.6690,      -3.88141,            0.,NA,NA,"",   203.188E-03,  -197.664E-03,  -47.0545E-03,   75.0407E-06
C:/temp/dataset/2/13_1.odb,Step-1,Increment      1: Step Time =    1.000,"PART-1-1",           379,      -11.6573,      -2.61328,            0.,NA,NA,"",   213.208E-03,  -211.711E-03,  -25.2240E-03,   45.2225E-06
C:/temp/dataset/2/13_1.odb,Step-1,Increment      1: Step Time =    1.000,"PART-1-1",           380,          -15.,      -2.29167,            0.,NA,NA,"",   223.540E-03,  -214.897E-03,  -61.5606E-03,   103.777E-06
C:/temp/dataset/2/13_1.odb,Step-1,Increment      1: Step Time =    1.000,"PART-1-1",           381,           -5.,         -8.75,            0.,NA,NA,"",   154.478E-03,  -147.662E-03,   45.3801E-03,   1.09283E-03
C:/temp/dataset/2/13_1.odb,Step-1,Increment      1: Step Time =    1.000,"PART-1-1",           382,      -6.37238,      -7.84264,            0.,NA,NA,"",   159.615E-03,  -156.663E-03,   30.5575E-03,   1.08357E-03
C:/temp/dataset/2/13_1.odb,Step-1,Increment      1: Step Time =    1.000,"PART-1-1",           383,      -7.67841,      -9.42411,            0.,NA,NA,"",   137.915E-03,  -137.025E-03,   15.6350E-03,   1.47001E-03
C:/temp/dataset/2/13_1.odb,Step-1,Increment      1: Step Time =    1.000,"PART-1-1",           384,      -6.30603,      -10.3315,            0.,NA,NA,"",   131.064E-03,  -127.670E-03,   29.6323E-03,   1.45780E-03
C:/temp/dataset/2/13_1.odb,Step-1,Increment      1: Step Time =    1.000,"PART-1-1",           385,      -13.6103,      -21.3688,            0.,NA,NA,"",   30.1056E-03,  -19.5397E-03,  -22.9030E-03,   3.29827E-03
C:/temp/dataset/2/13_1.odb,Step-1,Increment      1: Step Time =    1.000,"PART-1-1",           386,          -15.,      -22.7083,            0.,NA,NA,"",   29.3946E-03,  -15.8350E-03,  -24.7649E-03,   4.25428E-03
C:/temp/dataset/2/13_1.odb,Step-1,Increment      1: Step Time =    1.000,"PART-1-1",           387,      -13.6241,      -24.2925,            0.,NA,NA,"",   16.7503E-03,  -8.26184E-03,  -14.5711E-03,   3.14911E-03
C:/temp/dataset/2/13_1.odb,Step-1,Increment      1: Step Time =    1.000,"PART-1-1",           388,      -12.2343,      -22.9530,            0.,NA,NA,"",   16.6724E-03,  -10.8050E-03,  -12.6972E-03,   2.20951E-03
C:/temp/dataset/2/13_1.odb,Step-1,Increment      1: Step Time =    1.000,"PART-1-1",           389,           -5.,        -16.25,            0.,NA,NA,"",   68.2777E-03,  -59.2214E-03,   33.9804E-03,   3.51448E-03
C:/temp/dataset/2/13_1.odb,Step-1,Increment      1: Step Time =    1.000,"PART-1-1",           390,      -6.06585,      -15.2329,            0.,NA,NA,"",   73.3267E-03,  -68.7209E-03,   25.5781E-03,   2.42319E-03
C:/temp/dataset/2/13_1.odb,Step-1,Increment      1: Step Time =    1.000,"PART-1-1",           391,      -6.99530,      -16.6022,            0.,NA,NA,"",   54.6356E-03,  -52.7044E-03,   14.3979E-03,   2.71647E-03
C:/temp/dataset/2/13_1.odb,Step-1,Increment      1: Step Time =    1.000,"PART-1-1",           392,      -5.92946,      -17.6192,            0.,NA,NA,"",   47.5983E-03,  -42.9867E-03,   20.4388E-03,   3.57140E-03
C:/temp/dataset/2/13_1.odb,Step-1,Increment      1: Step Time =    1.000,"PART-1-1",           393,         -13.5,          -30.,            0.,NA,NA,"",            0.,   492.886E-42,  -4.89370E-39,   2.46005E-03
C:/temp/dataset/2/13_1.odb,Step-1,Increment      1: Step Time =    1.000,"PART-1-1",           394,      -12.0804,      -28.6247,            0.,NA,NA,"",   1.93964E-03,   185.252E-06,  -1.93078E-03,   1.77415E-03
C:/temp/dataset/2/13_1.odb,Step-1,Increment      1: Step Time =    1.000,"PART-1-1",           395,      -13.5804,      -27.1664,            0.,NA,NA,"",   7.15278E-03,  -2.53723E-03,  -6.68766E-03,   2.92376E-03
C:/temp/dataset/2/13_1.odb,Step-1,Increment      1: Step Time =    1.000,"PART-1-1",           396,          -15.,      -28.5417,            0.,NA,NA,"",   5.27978E-03,  -3.00871E-03,  -4.33863E-03,   3.53528E-03
C:/temp/dataset/2/13_1.odb,Step-1,Increment      1: Step Time =    1.000,"PART-1-1",           397,          13.5,          -30.,            0.,NA,NA,"",            0.,  -254.071E-42,   732.717E-42,   612.899E-06
C:/temp/dataset/2/13_1.odb,Step-1,Increment      1: Step Time =    1.000,"PART-1-1",           398,           15.,        -28.75,            0.,NA,NA,"",   1.31257E-03,  -1.06833E-03,   762.567E-06,   586.729E-06
C:/temp/dataset/2/13_1.odb,Step-1,Increment      1: Step Time =    1.000,"PART-1-1",           399,       13.4640,      -27.4843,            0.,NA,NA,"",   1.92943E-03,  -1.85269E-03,   538.731E-06,   343.647E-06
C:/temp/dataset/2/13_1.odb,Step-1,Increment      1: Step Time =    1.000,"PART-1-1",           400,       11.9640,      -28.7343,            0.,NA,NA,"",   900.295E-06,  -885.818E-06,   160.798E-06,   469.710E-06
C:/temp/dataset/2/13_1.odb,Step-1,Increment      1: Step Time =    1.000,"PART-1-1",           401,       10.2658,      -24.9335,            0.,NA,NA,"",   3.73937E-03,  -3.73521E-03,   176.289E-06,   335.533E-06
C:/temp/dataset/2/13_1.odb,Step-1,Increment      1: Step Time =    1.000,"PART-1-1",           402,       8.77397,      -26.1861,            0.,NA,NA,"",   3.13005E-03,  -3.12847E-03,   99.7086E-06,   477.104E-06
C:/temp/dataset/2/13_1.odb,Step-1,Increment      1: Step Time =    1.000,"PART-1-1",           403,       10.3945,      -27.4590,            0.,NA,NA,"",   1.99360E-03,  -1.98747E-03,   156.152E-06,   492.019E-06
C:/temp/dataset/2/13_1.odb,Step-1,Increment      1: Step Time =    1.000,"PART-1-1",           404,       11.8863,      -26.2064,            0.,NA,NA,"",   2.82199E-03,  -2.79527E-03,   387.452E-06,   374.318E-06
C:/temp/dataset/2/13_1.odb,Step-1,Increment      1: Step Time =    1.000,"PART-1-1",           405,       8.93044,      -28.7247,            0.,NA,NA,"",   1.11113E-03,  -1.10672E-03,   98.9063E-06,   558.839E-06
C:/temp/dataset/2/13_1.odb,Step-1,Increment      1: Step Time =    1.000,"PART-1-1",           406,       7.31300,      -27.4411,            0.,NA,NA,"",   2.40973E-03,  -2.40578E-03,   137.978E-06,   613.629E-06
C:/temp/dataset/2/13_1.odb,Step-1,Increment      1: Step Time =    1.000,"PART-1-1",           407,       5.88256,      -28.7164,            0.,NA,NA,"",   1.42188E-03,  -1.41384E-03,   150.970E-06,   721.452E-06
C:/temp/dataset/2/13_1.odb,Step-1,Increment      1: Step Time =    1.000,"PART-1-1",           408,           7.5,          -30.,            0.,NA,NA,"",            0.,  -743.998E-42,   377.408E-42,   674.536E-06
C:/temp/dataset/2/13_1.odb,Step-1,Increment      1: Step Time =    1.000,"PART-1-1",           409,       5.63995,      -26.1773,            0.,NA,NA,"",   3.79480E-03,  -3.78865E-03,   216.071E-06,   627.102E-06
C:/temp/dataset/2/13_1.odb,Step-1,Increment      1: Step Time =    1.000,"PART-1-1",           410,       3.92490,      -24.9166,            0.,NA,NA,"",   5.22101E-03,  -5.20192E-03,   446.058E-06,   727.626E-06
C:/temp/dataset/2/13_1.odb,Step-1,Increment      1: Step Time =    1.000,"PART-1-1",           411,       2.50142,      -26.1700,            0.,NA,NA,"",   4.68628E-03,  -4.60708E-03,   857.910E-06,   883.193E-06
C:/temp/dataset/2/13_1.odb,Step-1,Increment      1: Step Time =    1.000,"PART-1-1",           412,       4.21647,      -27.4307,            0.,NA,NA,"",   3.01810E-03,  -2.99410E-03,   379.894E-06,   792.814E-06
C:/temp/dataset/2/13_1.odb,Step-1,Increment      1: Step Time =    1.000,"PART-1-1",           413,       1.12659,      -27.4308,            0.,NA,NA,"",   3.61418E-03,  -3.47680E-03,   986.991E-06,   1.04997E-03
C:/temp/dataset/2/13_1.odb,Step-1,Increment      1: Step Time =    1.000,"PART-1-1",           414,  -207.324E-03,      -28.7165,            0.,NA,NA,"",   1.95712E-03,  -1.83970E-03,   667.703E-06,   1.19331E-03
C:/temp/dataset/2/13_1.odb,Step-1,Increment      1: Step Time =    1.000,"PART-1-1",           415,           1.5,          -30.,            0.,NA,NA,"",            0.,  -1.12475E-39,   1.14278E-39,   1.07791E-03
C:/temp/dataset/2/13_1.odb,Step-1,Increment      1: Step Time =    1.000,"PART-1-1",           416,       2.83391,      -28.7143,            0.,NA,NA,"",   1.76913E-03,  -1.73702E-03,   335.560E-06,   946.332E-06
C:/temp/dataset/2/13_1.odb,Step-1,Increment      1: Step Time =    1.000,"PART-1-1",           417,      -1.92078,      -27.4395,            0.,NA,NA,"",   3.78272E-03,  -3.27748E-03,   1.88868E-03,   1.34350E-03
C:/temp/dataset/2/13_1.odb,Step-1,Increment      1: Step Time =    1.000,"PART-1-1",           418,      -3.21345,      -28.7230,            0.,NA,NA,"",   1.65109E-03,  -1.33897E-03,   966.059E-06,   1.27910E-03
C:/temp/dataset/2/13_1.odb,Step-1,Increment      1: Step Time =    1.000,"PART-1-1",           419,          -1.5,          -30.,            0.,NA,NA,"",            0.,  -1.02963E-39,   1.71396E-39,   1.12096E-03
C:/temp/dataset/2/13_1.odb,Step-1,Increment      1: Step Time =    1.000,"PART-1-1",           420,      -5.57419,      -22.4519,            0.,NA,NA,"",   14.0353E-03,  -10.5820E-03,   9.22009E-03,   2.41174E-03
C:/temp/dataset/2/13_1.odb,Step-1,Increment      1: Step Time =    1.000,"PART-1-1",           421,      -6.77537,      -23.6376,            0.,NA,NA,"",   8.90492E-03,  -6.98454E-03,   5.52392E-03,   1.60885E-03
C:/temp/dataset/2/13_1.odb,Step-1,Increment      1: Step Time =    1.000,"PART-1-1",           422,      -5.25528,      -24.9124,            0.,NA,NA,"",   7.54351E-03,  -5.45944E-03,   5.20568E-03,   1.75994E-03
C:/temp/dataset/2/13_1.odb,Step-1,Increment      1: Step Time =    1.000,"PART-1-1",           423,      -4.05411,      -23.7268,            0.,NA,NA,"",   10.6626E-03,  -8.36653E-03,   6.60998E-03,   2.44490E-03
C:/temp/dataset/2/13_1.odb,Step-1,Increment      1: Step Time =    1.000,"PART-1-1",           424,       13.4223,      -24.9720,            0.,NA,NA,"",   3.71244E-03,  -3.60020E-03,   905.952E-06,   144.198E-06
C:/temp/dataset/2/13_1.odb,Step-1,Increment      1: Step Time =    1.000,"PART-1-1",           425,           15.,        -26.25,            0.,NA,NA,"",   3.28236E-03,  -2.89058E-03,   1.55512E-03,   184.420E-06
C:/temp/dataset/2/13_1.odb,Step-1,Increment      1: Step Time =    1.000,"PART-1-1",           426,       11.8021,      -23.6964,            0.,NA,NA,"",   4.31859E-03,  -4.29372E-03,   462.777E-06,   173.556E-06
C:/temp/dataset/2/13_1.odb,Step-1,Increment      1: Step Time =    1.000,"PART-1-1",           427,       10.1355,      -22.4445,            0.,NA,NA,"",   4.96668E-03,  -4.96584E-03,   91.7769E-06,   167.366E-06
C:/temp/dataset/2/13_1.odb,Step-1,Increment      1: Step Time =    1.000,"PART-1-1",           428,      -2.31424,      -24.9364,            0.,NA,NA,"",   7.81596E-03,  -6.61958E-03,   4.15577E-03,   1.74650E-03
C:/temp/dataset/2/13_1.odb,Step-1,Increment      1: Step Time =    1.000,"PART-1-1",           429,      -3.63092,      -26.1962,            0.,NA,NA,"",   5.63212E-03,  -4.32319E-03,   3.60983E-03,   1.75187E-03
C:/temp/dataset/2/13_1.odb,Step-1,Increment      1: Step Time =    1.000,"PART-1-1",           430,  -604.096E-03,      -26.1796,            0.,NA,NA,"",   5.56608E-03,  -5.10629E-03,   2.21517E-03,   1.37146E-03
C:/temp/dataset/2/13_1.odb,Step-1,Increment      1: Step Time =    1.000,"PART-1-1",           431,      -7.52977,      -11.9021,            0.,NA,NA,"",   108.113E-03,  -107.042E-03,   15.1763E-03,   1.99996E-03
C:/temp/dataset/2/13_1.odb,Step-1,Increment      1: Step Time =    1.000,"PART-1-1",           432,      -6.22373,      -12.8207,            0.,NA,NA,"",   100.764E-03,  -96.9165E-03,   27.5766E-03,   1.84914E-03
C:/temp/dataset/2/13_1.odb,Step-1,Increment      1: Step Time =    1.000,"PART-1-1",           433,           -5.,        -11.25,            0.,NA,NA,"",   126.072E-03,  -118.217E-03,   43.8033E-03,   1.58424E-03
C:/temp/dataset/2/13_1.odb,Step-1,Increment      1: Step Time =    1.000,"PART-1-1",           434,      -10.0475,      -12.6788,            0.,NA,NA,"",   96.6204E-03,  -96.1974E-03,  -9.03185E-03,   1.87629E-03
C:/temp/dataset/2/13_1.odb,Step-1,Increment      1: Step Time =    1.000,"PART-1-1",           435,           -5.,         -6.25,            0.,NA,NA,"",   181.344E-03,  -175.442E-03,   45.8889E-03,   838.283E-06
C:/temp/dataset/2/13_1.odb,Step-1,Increment      1: Step Time =    1.000,"PART-1-1",           436,      -7.88282,      -7.02961,            0.,NA,NA,"",   165.111E-03,  -164.447E-03,   14.7996E-03,   950.207E-06
C:/temp/dataset/2/13_1.odb,Step-1,Increment      1: Step Time =    1.000,"PART-1-1",           437,      -13.8577,      -6.65334,            0.,NA,NA,"",   173.723E-03,  -166.692E-03,  -48.9216E-03,   207.087E-06
C:/temp/dataset/2/13_1.odb,Step-1,Increment      1: Step Time =    1.000,"PART-1-1",           438,      -12.5267,      -5.32641,            0.,NA,NA,"",   185.003E-03,  -181.753E-03,  -34.5283E-03,   244.119E-06
C:/temp/dataset/2/13_1.odb,Step-1,Increment      1: Step Time =    1.000,"PART-1-1",           439,          -15.,      -5.20833,            0.,NA,NA,"",   192.985E-03,  -182.854E-03,  -61.7073E-03,   50.2772E-06
C:/temp/dataset/2/13_1.odb,Step-1,Increment      1: Step Time =    1.000,"PART-1-1",           440,          1.25,           -5.,            0.,NA,NA,"",   218.772E-03,  -187.674E-03,   112.426E-03,   10.5846E-06
C:/temp/dataset/2/13_1.odb,Step-1,Increment      1: Step Time =    1.000,"PART-1-1",           441,       2.47079,      -3.83474,            0.,NA,NA,"",   236.123E-03,  -200.117E-03,   125.330E-03,   1.71793E-06
C:/temp/dataset/2/13_1.odb,Step-1,Increment      1: Step Time =    1.000,"PART-1-1",           442,       3.51261,  -149.180E-03,            0.,NA,NA,"",   275.350E-03,  -239.310E-03,   136.193E-03,   2.31698E-06
C:/temp/dataset/2/13_1.odb,Step-1,Increment      1: Step Time =    1.000,"PART-1-1",           443,       3.69085,      -2.58237,            0.,NA,NA,"",   254.323E-03,  -213.483E-03,   138.221E-03,   2.13436E-06
C:/temp/dataset/2/13_1.odb,Step-1,Increment      1: Step Time =    1.000,"PART-1-1",           444,       8.74868,       5.55605,            0.,NA,NA,"",   356.048E-03,  -300.183E-03,   191.469E-03,   98.2673E-09
C:/temp/dataset/2/13_1.odb,Step-1,Increment      1: Step Time =    1.000,"PART-1-1",           445,       10.0030,       7.12352,            0.,NA,NA,"",   377.261E-03,  -316.897E-03,   204.700E-03,   44.0326E-09
C:/temp/dataset/2/13_1.odb,Step-1,Increment      1: Step Time =    1.000,"PART-1-1",           446,       8.73640,       8.21697,            0.,NA,NA,"",   380.030E-03,  -328.436E-03,   191.189E-03,   40.1486E-09
C:/temp/dataset/2/13_1.odb,Step-1,Increment      1: Step Time =    1.000,"PART-1-1",           447,           15.,     -625.E-03,            0.,NA,NA,"",   349.063E-03,  -234.905E-03,   258.195E-03,   110.969E-09
C:/temp/dataset/2/13_1.odb,Step-1,Increment      1: Step Time =    1.000,"PART-1-1",           448,       13.7714,   731.820E-03,            0.,NA,NA,"",   349.546E-03,  -249.243E-03,   245.073E-03,   135.107E-09
C:/temp/dataset/2/13_1.odb,Step-1,Increment      1: Step Time =    1.000,"PART-1-1",           449,       12.5339,  -774.506E-03,            0.,NA,NA,"",   328.945E-03,  -233.179E-03,   232.018E-03,   130.361E-09
C:/temp/dataset/2/13_1.odb,Step-1,Increment      1: Step Time =    1.000,"PART-1-1",           450,       7.40609,       11.8257,            0.,NA,NA,"",   407.102E-03,  -366.678E-03,   176.861E-03,   39.3990E-09
C:/temp/dataset/2/13_1.odb,Step-1,Increment      1: Step Time =    1.000,"PART-1-1",           451,       8.70206,       10.8725,            0.,NA,NA,"",   404.403E-03,  -356.630E-03,   190.675E-03,   24.2469E-09
C:/temp/dataset/2/13_1.odb,Step-1,Increment      1: Step Time =    1.000,"PART-1-1",           452,       11.2454,       8.75341,            0.,NA,NA,"",   398.967E-03,  -334.273E-03,   217.799E-03,   36.5571E-09
C:/temp/dataset/2/13_1.odb,Step-1,Increment      1: Step Time =    1.000,"PART-1-1",           453,       11.2622,       5.99112,            0.,NA,NA,"",   374.931E-03,  -304.944E-03,   218.133E-03,   50.9439E-09
C:/temp/dataset/2/13_1.odb,Step-1,Increment      1: Step Time =    1.000,"PART-1-1",           454,       13.8596,       24.3693,            0.,NA,NA,"",   556.857E-03,  -500.224E-03,   244.675E-03,   38.1378E-09
C:/temp/dataset/2/13_1.odb,Step-1,Increment      1: Step Time =    1.000,"PART-1-1",           455,       12.6110,       23.1199,            0.,NA,NA,"",   539.118E-03,  -486.889E-03,   231.488E-03,   40.8910E-09
C:/temp/dataset/2/13_1.odb,Step-1,Increment      1: Step Time =    1.000,"PART-1-1",           456,       13.7514,       21.4590,            0.,NA,NA,"",   528.815E-03,  -469.319E-03,   243.691E-03,   53.7902E-09
C:/temp/dataset/2/13_1.odb,Step-1,Increment      1: Step Time =    1.000,"PART-1-1",           457,           15.,       22.7083,            0.,NA,NA,"",   546.754E-03,  -482.654E-03,   256.877E-03,   55.1052E-09
C:/temp/dataset/2/13_1.odb,Step-1,Increment      1: Step Time =    1.000,"PART-1-1",           458,       8.83903,       17.2613,            0.,NA,NA,"",   465.780E-03,  -424.471E-03,   191.769E-03,   9.87968E-09
C:/temp/dataset/2/13_1.odb,Step-1,Increment      1: Step Time =    1.000,"PART-1-1",           459,       10.5130,       17.3338,            0.,NA,NA,"",   474.149E-03,  -425.336E-03,   209.538E-03,   24.1568E-09
C:/temp/dataset/2/13_1.odb,Step-1,Increment      1: Step Time =    1.000,"PART-1-1",           460,       8.72284,       19.1442,            0.,NA,NA,"",   483.534E-03,  -444.457E-03,   190.429E-03,   12.6714E-09
C:/temp/dataset/2/13_1.odb,Step-1,Increment      1: Step Time =    1.000,"PART-1-1",           461,           15.,       28.5417,            0.,NA,NA,"",   601.992E-03,  -544.590E-03,   256.548E-03,   20.9113E-09
C:/temp/dataset/2/13_1.odb,Step-1,Increment      1: Step Time =    1.000,"PART-1-1",           462,         13.75,           30.,            0.,NA,NA,"",   610.530E-03,  -560.003E-03,   243.194E-03,   15.5027E-09
C:/temp/dataset/2/13_1.odb,Step-1,Increment      1: Step Time =    1.000,"PART-1-1",           463,       12.5875,       28.6551,            0.,NA,NA,"",   592.512E-03,  -545.658E-03,   230.927E-03,   21.5667E-09
C:/temp/dataset/2/13_1.odb,Step-1,Increment      1: Step Time =    1.000,"PART-1-1",           464,       13.8375,       27.1968,            0.,NA,NA,"",   583.809E-03,  -530.245E-03,   244.281E-03,   24.1183E-09
C:/temp/dataset/2/13_1.odb,Step-1,Increment      1: Step Time =    1.000,"PART-1-1",           465,         11.25,           30.,            0.,NA,NA,"",   600.319E-03,  -559.862E-03,   216.650E-03,   20.5749E-09
C:/temp/dataset/2/13_1.odb,Step-1,Increment      1: Step Time =    1.000,"PART-1-1",           466,       10.1484,       28.7335,            0.,NA,NA,"",   583.555E-03,  -546.353E-03,   205.024E-03,   29.0552E-09
C:/temp/dataset/2/13_1.odb,Step-1,Increment      1: Step Time =    1.000,"PART-1-1",           467,       7.69941,       28.7139,            0.,NA,NA,"",   574.607E-03,  -546.007E-03,   179.023E-03,   37.2373E-09
C:/temp/dataset/2/13_1.odb,Step-1,Increment      1: Step Time =    1.000,"PART-1-1",           468,       9.09777,       27.4473,            0.,NA,NA,"",   566.848E-03,  -532.638E-03,   193.942E-03,   35.1928E-09
C:/temp/dataset/2/13_1.odb,Step-1,Increment      1: Step Time =    1.000,"PART-1-1",           469,          8.75,           30.,            0.,NA,NA,"",   591.125E-03,  -559.721E-03,   190.106E-03,   33.9259E-09
C:/temp/dataset/2/13_1.odb,Step-1,Increment      1: Step Time =    1.000,"PART-1-1",           470,  -9.87333E-03,       28.6960,            0.,NA,NA,"",   553.971E-03,  -545.382E-03,   97.1704E-03,   38.5049E-09
C:/temp/dataset/2/13_1.odb,Step-1,Increment      1: Step Time =    1.000,"PART-1-1",           471,          1.25,           30.,            0.,NA,NA,"",   570.104E-03,  -559.298E-03,   110.474E-03,   50.4875E-09
C:/temp/dataset/2/13_1.odb,Step-1,Increment      1: Step Time =    1.000,"PART-1-1",           472,       4.87954,       25.6434,            0.,NA,NA,"",   534.509E-03,  -513.246E-03,   149.256E-03,   24.2721E-09
C:/temp/dataset/2/13_1.odb,Step-1,Increment      1: Step Time =    1.000,"PART-1-1",           473,      -5.00474,       28.7231,            0.,NA,NA,"",   547.171E-03,  -545.388E-03,   44.1358E-03,   30.2883E-09
C:/temp/dataset/2/13_1.odb,Step-1,Increment      1: Step Time =    1.000,"PART-1-1",           474,         -6.25,           30.,            0.,NA,NA,"",   559.726E-03,  -558.875E-03,   30.8423E-03,   33.1856E-09
C:/temp/dataset/2/13_1.odb,Step-1,Increment      1: Step Time =    1.000,"PART-1-1",           475,      -3.76303,       27.4393,            0.,NA,NA,"",   534.915E-03,  -531.827E-03,   57.3920E-03,   26.6205E-09
C:/temp/dataset/2/13_1.odb,Step-1,Increment      1: Step Time =    1.000,"PART-1-1",           476,      -3.77322,       24.9147,            0.,NA,NA,"",   508.276E-03,  -505.022E-03,   57.4262E-03,   18.2701E-09
C:/temp/dataset/2/13_1.odb,Step-1,Increment      1: Step Time =    1.000,"PART-1-1",           477,      -13.7476,       27.4926,            0.,NA,NA,"",   534.048E-03,  -531.830E-03,  -48.6222E-03,   17.1484E-09
C:/temp/dataset/2/13_1.odb,Step-1,Increment      1: Step Time =    1.000,"PART-1-1",           478,        -13.75,           30.,            0.,NA,NA,"",   560.580E-03,  -558.452E-03,  -48.7890E-03,   20.0117E-09
C:/temp/dataset/2/13_1.odb,Step-1,Increment      1: Step Time =    1.000,"PART-1-1",           479,          -15.,         28.75,            0.,NA,NA,"",   548.624E-03,  -545.110E-03,  -61.9904E-03,   15.6663E-09
C:/temp/dataset/2/13_1.odb,Step-1,Increment      1: Step Time =    1.000,"PART-1-1",           480,          -15.,         26.25,            0.,NA,NA,"",   522.242E-03,  -518.566E-03,  -61.8494E-03,   16.5868E-09
C:/temp/dataset/2/13_1.odb,Step-1,Increment      1: Step Time =    1.000,"PART-1-1",           481,      -12.4965,       26.2309,            0.,NA,NA,"",   519.702E-03,  -518.504E-03,  -35.2673E-03,   18.9401E-09
C:/temp/dataset/2/13_1.odb,Step-1,Increment      1: Step Time =    1.000,"PART-1-1",           482,      -10.0014,       23.7134,            0.,NA,NA,"",   491.991E-03,  -491.916E-03,  -8.63365E-03,   16.9070E-09
C:/temp/dataset/2/13_1.odb,Step-1,Increment      1: Step Time =    1.000,"PART-1-1",           483,      -8.75535,       22.4567,            0.,NA,NA,"",   478.665E-03,  -478.643E-03,   4.66695E-03,   15.5047E-09
C:/temp/dataset/2/13_1.odb,Step-1,Increment      1: Step Time =    1.000,"PART-1-1",           484,      -7.50515,       23.6891,            0.,NA,NA,"",   492.123E-03,  -491.798E-03,   17.8715E-03,   16.4566E-09
C:/temp/dataset/2/13_1.odb,Step-1,Increment      1: Step Time =    1.000,"PART-1-1",           485,      -8.75118,       24.9458,            0.,NA,NA,"",   505.092E-03,  -505.072E-03,   4.57086E-03,   18.6016E-09
C:/temp/dataset/2/13_1.odb,Step-1,Increment      1: Step Time =    1.000,"PART-1-1",           486,      -3.77419,       22.4219,            0.,NA,NA,"",   482.003E-03,  -478.554E-03,   57.5564E-03,   16.2880E-09
C:/temp/dataset/2/13_1.odb,Step-1,Increment      1: Step Time =    1.000,"PART-1-1",           487,      -5.00723,       21.2173,            0.,NA,NA,"",   467.820E-03,  -465.695E-03,   44.5325E-03,   17.4915E-09
C:/temp/dataset/2/13_1.odb,Step-1,Increment      1: Step Time =    1.000,"PART-1-1",           488,         -3.75,           20.,            0.,NA,NA,"",   456.534E-03,  -452.841E-03,   57.9498E-03,   23.2711E-09
C:/temp/dataset/2/13_1.odb,Step-1,Increment      1: Step Time =    1.000,"PART-1-1",           489,      -2.51696,       21.2046,            0.,NA,NA,"",   471.077E-03,  -465.700E-03,   70.9737E-03,   20.1441E-09
C:/temp/dataset/2/13_1.odb,Step-1,Increment      1: Step Time =    1.000,"PART-1-1",           490,         -8.75,           20.,            0.,NA,NA,"",   452.585E-03,  -452.559E-03,   4.86224E-03,   16.3768E-09
C:/temp/dataset/2/13_1.odb,Step-1,Increment      1: Step Time =    1.000,"PART-1-1",           491,      -7.50331,       21.2223,            0.,NA,NA,"",   465.956E-03,  -465.607E-03,   18.0301E-03,   15.6126E-09
C:/temp/dataset/2/13_1.odb,Step-1,Increment      1: Step Time =    1.000,"PART-1-1",           492,         -6.25,           20.,            0.,NA,NA,"",   453.788E-03,  -452.700E-03,   31.4060E-03,   19.2541E-09
C:/temp/dataset/2/13_1.odb,Step-1,Increment      1: Step Time =    1.000,"PART-1-1",           493,      -6.26054,       22.4396,            0.,NA,NA,"",   479.615E-03,  -478.602E-03,   31.1566E-03,   15.6417E-09
C:/temp/dataset/2/13_1.odb,Step-1,Increment      1: Step Time =    1.000,"PART-1-1",           494,         -1.25,           20.,            0.,NA,NA,"",   460.795E-03,  -452.982E-03,   84.4936E-03,   26.2661E-09
C:/temp/dataset/2/13_1.odb,Step-1,Increment      1: Step Time =    1.000,"PART-1-1",           495,      -1.30453,       22.3853,            0.,NA,NA,"",   485.587E-03,  -478.305E-03,   83.7801E-03,   17.8149E-09
C:/temp/dataset/2/13_1.odb,Step-1,Increment      1: Step Time =    1.000,"PART-1-1",           496,         -1.25,           30.,            0.,NA,NA,"",   565.421E-03,  -559.157E-03,   83.9299E-03,   45.0702E-09
C:/temp/dataset/2/13_1.odb,Step-1,Increment      1: Step Time =    1.000,"PART-1-1",           497,      -2.50829,       28.7162,            0.,NA,NA,"",   550.011E-03,  -545.455E-03,   70.6423E-03,   34.3955E-09
C:/temp/dataset/2/13_1.odb,Step-1,Increment      1: Step Time =    1.000,"PART-1-1",           498,         -3.75,           30.,            0.,NA,NA,"",   561.954E-03,  -559.016E-03,   57.3860E-03,   38.9342E-09
C:/temp/dataset/2/13_1.odb,Step-1,Increment      1: Step Time =    1.000,"PART-1-1",           499,          3.75,           20.,            0.,NA,NA,"",   473.684E-03,  -453.264E-03,   137.581E-03,   53.0396E-09
C:/temp/dataset/2/13_1.odb,Step-1,Increment      1: Step Time =    1.000,"PART-1-1",           500,       4.75388,       21.0765,            0.,NA,NA,"",   487.801E-03,  -464.750E-03,   148.179E-03,   41.6224E-09
C:/temp/dataset/2/13_1.odb,Step-1,Increment      1: Step Time =    1.000,"PART-1-1",           501,          6.25,           30.,            0.,NA,NA,"",   582.995E-03,  -559.580E-03,   163.562E-03,   46.5641E-09
C:/temp/dataset/2/13_1.odb,Step-1,Increment      1: Step Time =    1.000,"PART-1-1",           502,       6.61296,       27.1492,            0.,NA,NA,"",   555.225E-03,  -529.333E-03,   167.576E-03,   33.7892E-09
C:/temp/dataset/2/13_1.odb,Step-1,Increment      1: Step Time =    1.000,"PART-1-1",           503,            5.,         16.25,            0.,NA,NA,"",   440.247E-03,  -413.518E-03,   151.064E-03,   73.9356E-09
C:/temp/dataset/2/13_1.odb,Step-1,Increment      1: Step Time =    1.000,"PART-1-1",           504,       6.03202,       15.2452,            0.,NA,NA,"",   434.285E-03,  -402.907E-03,   162.079E-03,   59.9111E-09
C:/temp/dataset/2/13_1.odb,Step-1,Increment      1: Step Time =    1.000,"PART-1-1",           505,       6.91243,       16.6330,            0.,NA,NA,"",   451.472E-03,  -417.692E-03,   171.348E-03,   42.0177E-09
C:/temp/dataset/2/13_1.odb,Step-1,Increment      1: Step Time =    1.000,"PART-1-1",           506,            5.,         13.75,            0.,NA,NA,"",   415.465E-03,  -386.973E-03,   151.205E-03,   78.1935E-09
C:/temp/dataset/2/13_1.odb,Step-1,Increment      1: Step Time =    1.000,"PART-1-1",           507,       6.17466,       12.7979,            0.,NA,NA,"",   410.956E-03,  -376.931E-03,   163.731E-03,   60.9090E-09
C:/temp/dataset/2/13_1.odb,Step-1,Increment      1: Step Time =    1.000,"PART-1-1",           508,       12.0086,       16.5092,            0.,NA,NA,"",   473.755E-03,  -416.665E-03,   225.464E-03,   44.5492E-09
C:/temp/dataset/2/13_1.odb,Step-1,Increment      1: Step Time =    1.000,"PART-1-1",           509,           15.,        16.875,            0.,NA,NA,"",   493.111E-03,  -420.717E-03,   257.206E-03,   87.9577E-09
C:/temp/dataset/2/13_1.odb,Step-1,Increment      1: Step Time =    1.000,"PART-1-1",           510,       13.3591,       18.2744,            0.,NA,NA,"",   497.096E-03,  -435.484E-03,   239.704E-03,   60.5615E-09
C:/temp/dataset/2/13_1.odb,Step-1,Increment      1: Step Time =    1.000,"PART-1-1",           511,            5.,         11.25,            0.,NA,NA,"",   390.915E-03,  -360.429E-03,   151.346E-03,   89.6197E-09
C:/temp/dataset/2/13_1.odb,Step-1,Increment      1: Step Time =    1.000,"PART-1-1",           512,       6.23142,       10.2778,            0.,NA,NA,"",   386.879E-03,  -350.176E-03,   164.476E-03,   66.1694E-09
C:/temp/dataset/2/13_1.odb,Step-1,Increment      1: Step Time =    1.000,"PART-1-1",           513,            5.,          8.75,            0.,NA,NA,"",   366.643E-03,  -333.884E-03,   151.487E-03,   81.3772E-09
C:/temp/dataset/2/13_1.odb,Step-1,Increment      1: Step Time =    1.000,"PART-1-1",           514,       7.47251,       9.25684,            0.,NA,NA,"",   383.115E-03,  -339.405E-03,   177.711E-03,   56.6901E-09
C:/temp/dataset/2/13_1.odb,Step-1,Increment      1: Step Time =    1.000,"PART-1-1",           515,         11.25,           -5.,            0.,NA,NA,"",   288.497E-03,  -188.239E-03,   218.624E-03,   157.479E-09
C:/temp/dataset/2/13_1.odb,Step-1,Increment      1: Step Time =    1.000,"PART-1-1",           516,       11.2689,      -2.22707,            0.,NA,NA,"",   308.548E-03,  -217.684E-03,   218.668E-03,   190.597E-09
C:/temp/dataset/2/13_1.odb,Step-1,Increment      1: Step Time =    1.000,"PART-1-1",           517,          10.5,          -30.,            0.,NA,NA,"",            0.,  -569.376E-42,   366.014E-42,   512.096E-06
C:/temp/dataset/2/13_1.odb,Step-1,Increment      1: Step Time =    1.000,"PART-1-1",           518,           15.,        -23.75,            0.,NA,NA,"",   4.55310E-03,  -4.25076E-03,   1.63149E-03,   18.6055E-06
C:/temp/dataset/2/13_1.odb,Step-1,Increment      1: Step Time =    1.000,"PART-1-1",           519,          3.75,           -5.,            0.,NA,NA,"",   233.644E-03,  -187.811E-03,   138.985E-03,   2.28836E-06
C:/temp/dataset/2/13_1.odb,Step-1,Increment      1: Step Time =    1.000,"PART-1-1",           520,       4.97006,      -3.74763,            0.,NA,NA,"",   252.069E-03,  -201.181E-03,   151.871E-03,   653.658E-09
C:/temp/dataset/2/13_1.odb,Step-1,Increment      1: Step Time =    1.000,"PART-1-1",           521,       4.85412,       3.76356,            0.,NA,NA,"",   318.571E-03,  -280.931E-03,   150.218E-03,   324.641E-09
C:/temp/dataset/2/13_1.odb,Step-1,Increment      1: Step Time =    1.000,"PART-1-1",           522,       3.33333,            5.,            0.,NA,NA,"",   323.073E-03,  -293.971E-03,   134.004E-03,   343.291E-09
C:/temp/dataset/2/13_1.odb,Step-1,Increment      1: Step Time =    1.000,"PART-1-1",           523,       1.45296,       3.58740,            0.,NA,NA,"",   301.318E-03,  -278.869E-03,   114.125E-03,   3.07792E-06
C:/temp/dataset/2/13_1.odb,Step-1,Increment      1: Step Time =    1.000,"PART-1-1",           524,       2.97375,       2.35096,            0.,NA,NA,"",   296.059E-03,  -265.826E-03,   130.335E-03,   2.76842E-06
C:/temp/dataset/2/13_1.odb,Step-1,Increment      1: Step Time =    1.000,"PART-1-1",           525,          6.25,           -5.,            0.,NA,NA,"",   250.456E-03,  -187.956E-03,   165.533E-03,   1.10286E-06
C:/temp/dataset/2/13_1.odb,Step-1,Increment      1: Step Time =    1.000,"PART-1-1",           526,       12.4696,       10.4445,            0.,NA,NA,"",   421.114E-03,  -352.298E-03,   230.701E-03,   57.6028E-09
C:/temp/dataset/2/13_1.odb,Step-1,Increment      1: Step Time =    1.000,"PART-1-1",           527,           15.,       11.0417,            0.,NA,NA,"",   441.642E-03,  -358.781E-03,   257.535E-03,   102.390E-09
C:/temp/dataset/2/13_1.odb,Step-1,Increment      1: Step Time =    1.000,"PART-1-1",           528,      -5.01382,       23.6808,            0.,NA,NA,"",   493.844E-03,  -491.851E-03,   44.3236E-03,   16.1506E-09
C:/temp/dataset/2/13_1.odb,Step-1,Increment      1: Step Time =    1.000,"PART-1-1",           529,      -2.53358,       23.6558,            0.,NA,NA,"",   496.776E-03,  -491.725E-03,   70.6590E-03,   15.9712E-09
C:/temp/dataset/2/13_1.odb,Step-1,Increment      1: Step Time =    1.000,"PART-1-1",           530,  -74.6816E-03,       23.6075,            0.,NA,NA,"",   500.790E-03,  -491.351E-03,   96.7692E-03,   15.2841E-09
C:/temp/dataset/2/13_1.odb,Step-1,Increment      1: Step Time =    1.000,"PART-1-1",           531,      -6.62798,      -1.45964,            0.,NA,NA,"",   226.435E-03,  -224.608E-03,   28.7077E-03,   59.0741E-06
C:/temp/dataset/2/13_1.odb,Step-1,Increment      1: Step Time =    1.000,"PART-1-1",           532,      -4.43070,      -2.38075,            0.,NA,NA,"",   221.234E-03,  -215.042E-03,   51.9754E-03,   100.213E-06
C:/temp/dataset/2/13_1.odb,Step-1,Increment      1: Step Time =    1.000,"PART-1-1",           533,      -3.64554,  -813.143E-03,            0.,NA,NA,"",   239.454E-03,  -231.753E-03,   60.2425E-03,   45.7535E-06
C:/temp/dataset/2/13_1.odb,Step-1,Increment      1: Step Time =    1.000,"PART-1-1",           534,         -3.75,           -5.,            0.,NA,NA,"",   196.712E-03,  -187.601E-03,   59.1731E-03,   215.028E-06
C:/temp/dataset/2/13_1.odb,Step-1,Increment      1: Step Time =    1.000,"PART-1-1",           535,      -13.8599,      -9.43096,            0.,NA,NA,"",   142.982E-03,  -134.663E-03,  -48.0590E-03,   653.851E-06
C:/temp/dataset/2/13_1.odb,Step-1,Increment      1: Step Time =    1.000,"PART-1-1",           536,          -15.,      -11.0417,            0.,NA,NA,"",   130.648E-03,  -116.266E-03,  -59.5911E-03,   1.12112E-03
C:/temp/dataset/2/13_1.odb,Step-1,Increment      1: Step Time =    1.000,"PART-1-1",           537,      -11.9984,      -19.8095,            0.,NA,NA,"",   31.9984E-03,  -26.7083E-03,  -17.6228E-03,   2.05876E-03
C:/temp/dataset/2/13_1.odb,Step-1,Increment      1: Step Time =    1.000,"PART-1-1",           538,      -13.3881,      -18.2324,            0.,NA,NA,"",   50.1709E-03,  -40.1481E-03,  -30.0873E-03,   2.88483E-03
C:/temp/dataset/2/13_1.odb,Step-1,Increment      1: Step Time =    1.000,"PART-1-1",           539,          -15.,      -19.7917,            0.,NA,NA,"",   47.9246E-03,  -31.1816E-03,  -36.3934E-03,   4.23467E-03
C:/temp/dataset/2/13_1.odb,Step-1,Increment      1: Step Time =    1.000,"PART-1-1",           540,           -5.,        -18.75,            0.,NA,NA,"",   40.8330E-03,  -33.2729E-03,   23.6695E-03,   6.60231E-03
C:/temp/dataset/2/13_1.odb,Step-1,Increment      1: Step Time =    1.000,"PART-1-1",           541,      -5.96138,      -20.0094,            0.,NA,NA,"",   23.2589E-03,  -19.0709E-03,   13.3145E-03,   4.73839E-03
C:/temp/dataset/2/13_1.odb,Step-1,Increment      1: Step Time =    1.000,"PART-1-1",           542,           -5.,        -13.75,            0.,NA,NA,"",   95.4737E-03,  -86.6781E-03,   40.0266E-03,   2.34043E-03
C:/temp/dataset/2/13_1.odb,Step-1,Increment      1: Step Time =    1.000,"PART-1-1",           543,      -7.28958,      -14.3036,            0.,NA,NA,"",   79.6796E-03,  -78.2363E-03,   15.0969E-03,   2.08085E-03
C:/temp/dataset/2/13_1.odb,Step-1,Increment      1: Step Time =    1.000,"PART-1-1",           544,      -8.88285,      -11.0213,            0.,NA,NA,"",   116.777E-03,  -116.752E-03,   2.43396E-03,   1.70083E-03
C:/temp/dataset/2/13_1.odb,Step-1,Increment      1: Step Time =    1.000,"PART-1-1",           545,      -9.01222,      -8.51542,            0.,NA,NA,"",   146.634E-03,  -146.616E-03,   2.30087E-03,   1.12480E-03
C:/temp/dataset/2/13_1.odb,Step-1,Increment      1: Step Time =    1.000,"PART-1-1",           546,      -9.13424,  -715.290E-03,            0.,NA,NA,"",   232.396E-03,  -232.389E-03,   1.86846E-03,   36.4125E-06
C:/temp/dataset/2/13_1.odb,Step-1,Increment      1: Step Time =    1.000,"PART-1-1",           547,      -9.92186,      -2.42350,            0.,NA,NA,"",   214.061E-03,  -213.962E-03,  -6.48365E-03,   84.2725E-06
C:/temp/dataset/2/13_1.odb,Step-1,Increment      1: Step Time =    1.000,"PART-1-1",           548,      -12.7176,      -7.95930,            0.,NA,NA,"",   156.024E-03,  -151.751E-03,  -36.2662E-03,   651.292E-06
C:/temp/dataset/2/13_1.odb,Step-1,Increment      1: Step Time =    1.000,"PART-1-1",           549,          -15.,        -8.125,            0.,NA,NA,"",   161.984E-03,  -149.889E-03,  -61.4151E-03,   309.004E-06
C:/temp/dataset/2/13_1.odb,Step-1,Increment      1: Step Time =    1.000,"PART-1-1",           550,       11.2818,   528.104E-03,            0.,NA,NA,"",   329.828E-03,  -246.939E-03,   218.649E-03,   138.616E-09
C:/temp/dataset/2/13_1.odb,Step-1,Increment      1: Step Time =    1.000,"PART-1-1",           551,       10.0167,  -924.457E-03,            0.,NA,NA,"",   309.377E-03,  -231.445E-03,   205.299E-03,   179.678E-09
C:/temp/dataset/2/13_1.odb,Step-1,Increment      1: Step Time =    1.000,"PART-1-1",           552,       10.4320,       23.7699,            0.,NA,NA,"",   535.820E-03,  -493.667E-03,   208.316E-03,   38.2513E-09
C:/temp/dataset/2/13_1.odb,Step-1,Increment      1: Step Time =    1.000,"PART-1-1",           553,           15.,        25.625,            0.,NA,NA,"",   574.203E-03,  -513.622E-03,   256.712E-03,   33.5811E-09
C:/temp/dataset/2/13_1.odb,Step-1,Increment      1: Step Time =    1.000,"PART-1-1",           554,      -9.99539,       26.2124,            0.,NA,NA,"",   518.523E-03,  -518.450E-03,  -8.71096E-03,   19.7179E-09
C:/temp/dataset/2/13_1.odb,Step-1,Increment      1: Step Time =    1.000,"PART-1-1",           555,          -15.,       -25.625,            0.,NA,NA,"",   15.8206E-03,  -7.30033E-03,  -14.0355E-03,   3.89488E-03
C:/temp/dataset/2/13_1.odb,Step-1,Increment      1: Step Time =    1.000,"PART-1-1",           556,      -12.2044,      -25.8339,            0.,NA,NA,"",   7.70349E-03,  -3.14805E-03,  -7.03090E-03,   2.10288E-03
C:/temp/dataset/2/13_1.odb,Step-1,Increment      1: Step Time =    1.000,"PART-1-1",           557,          -15.,       -16.875,            0.,NA,NA,"",   71.7452E-03,  -54.1750E-03,  -47.0366E-03,   3.49291E-03
C:/temp/dataset/2/13_1.odb,Step-1,Increment      1: Step Time =    1.000,"PART-1-1",           558,      -8.25880,      -15.9015,            0.,NA,NA,"",   59.8540E-03,  -59.6384E-03,   5.07502E-03,   2.10878E-03
C:/temp/dataset/2/13_1.odb,Step-1,Increment      1: Step Time =    1.000,"PART-1-1",           559,       7.56555,       17.9230,            0.,NA,NA,"",   466.784E-03,  -431.426E-03,   178.210E-03,   26.3707E-09
C:/temp/dataset/2/13_1.odb,Step-1,Increment      1: Step Time =    1.000,"PART-1-1",           560,      -9.72707,       2.21069,            0.,NA,NA,"",   263.745E-03,  -263.702E-03,  -4.73306E-03,   35.4595E-06
C:/temp/dataset/2/13_1.odb,Step-1,Increment      1: Step Time =    1.000,"PART-1-1",           561,      -8.18006,       3.69884,            0.,NA,NA,"",   279.923E-03,  -279.676E-03,   11.7435E-03,   44.7055E-06
C:/temp/dataset/2/13_1.odb,Step-1,Increment      1: Step Time =    1.000,"PART-1-1",           562,          -10.,            5.,            0.,NA,NA,"",   293.698E-03,  -293.592E-03,  -7.87801E-03,   49.8476E-06
C:/temp/dataset/2/13_1.odb,Step-1,Increment      1: Step Time =    1.000,"PART-1-1",           563,      -10.3433,      -7.69771,            0.,NA,NA,"",   155.765E-03,  -155.355E-03,  -11.2905E-03,   863.517E-06
C:/temp/dataset/2/13_1.odb,Step-1,Increment      1: Step Time =    1.000,"PART-1-1",           564,      -11.5611,      -6.59494,            0.,NA,NA,"",   169.330E-03,  -167.610E-03,  -24.0733E-03,   479.342E-06
C:/temp/dataset/2/13_1.odb,Step-1,Increment      1: Step Time =    1.000,"PART-1-1",           565,      -9.40089,      -20.7816,            0.,NA,NA,"",   18.3924E-03,  -18.2063E-03,  -2.60958E-03,   1.01506E-03
C:/temp/dataset/2/13_1.odb,Step-1,Increment      1: Step Time =    1.000,"PART-1-1",           566,      -8.21757,      -22.2064,            0.,NA,NA,"",   11.2485E-03,  -10.9026E-03,   2.76814E-03,   800.125E-06
C:/temp/dataset/2/13_1.odb,Step-1,Increment      1: Step Time =    1.000,"PART-1-1",           567,      -6.89894,      -21.2078,            0.,NA,NA,"",   16.5538E-03,  -14.2923E-03,   8.35201E-03,   1.85090E-03
C:/temp/dataset/2/13_1.odb,Step-1,Increment      1: Step Time =    1.000,"PART-1-1",           568,      -9.14285,      -28.6800,            0.,NA,NA,"",   599.855E-06,   541.992E-06,  -257.043E-06,   410.298E-06
C:/temp/dataset/2/13_1.odb,Step-1,Increment      1: Step Time =    1.000,"PART-1-1",           569,      -10.7232,      -27.3047,            0.,NA,NA,"",   2.28288E-03,  -297.606E-06,  -2.26340E-03,   1.10629E-03
C:/temp/dataset/2/13_1.odb,Step-1,Increment      1: Step Time =    1.000,"PART-1-1",           570,         -10.5,          -30.,            0.,NA,NA,"",            0.,   759.039E-42,  -2.04919E-39,   1.00347E-03
C:/temp/dataset/2/13_1.odb,Step-1,Increment      1: Step Time =    1.000,"PART-1-1",           571,      -4.89633,      -27.4366,            0.,NA,NA,"",   2.95466E-03,  -1.96321E-03,   2.20813E-03,   1.32980E-03
C:/temp/dataset/2/13_1.odb,Step-1,Increment      1: Step Time =    1.000,"PART-1-1",           572,      -6.18287,      -28.7136,            0.,NA,NA,"",   808.813E-06,  -286.319E-06,   756.439E-06,   883.767E-06
C:/temp/dataset/2/13_1.odb,Step-1,Increment      1: Step Time =    1.000,"PART-1-1",           573,          -4.5,          -30.,            0.,NA,NA,"",            0.,  -452.583E-42,   1.74459E-39,   842.716E-06
C:/temp/dataset/2/13_1.odb,Step-1,Increment      1: Step Time =    1.000,"PART-1-1",           574,       12.5384,       2.02620,            0.,NA,NA,"",   350.580E-03,  -262.917E-03,   231.907E-03,   100.563E-09
C:/temp/dataset/2/13_1.odb,Step-1,Increment      1: Step Time =    1.000,"PART-1-1",           575,           15.,       2.29167,            0.,NA,NA,"",   370.498E-03,  -265.874E-03,   258.030E-03,   163.358E-09
C:/temp/dataset/2/13_1.odb,Step-1,Increment      1: Step Time =    1.000,"PART-1-1",           576,       9.96595,       9.83263,            0.,NA,NA,"",   401.446E-03,  -345.660E-03,   204.153E-03,   22.1753E-09
C:/temp/dataset/2/13_1.odb,Step-1,Increment      1: Step Time =    1.000,"PART-1-1",           577,           15.,       19.7917,            0.,NA,NA,"",   519.702E-03,  -451.686E-03,   257.041E-03,   74.9387E-09
C:/temp/dataset/2/13_1.odb,Step-1,Increment      1: Step Time =    1.000,"PART-1-1",           578,       7.90800,       20.1372,            0.,NA,NA,"",   489.904E-03,  -454.954E-03,   181.722E-03,   13.2270E-09
C:/temp/dataset/2/13_1.odb,Step-1,Increment      1: Step Time =    1.000,"PART-1-1",           579,       8.41916,       21.3934,            0.,NA,NA,"",   504.305E-03,  -468.321E-03,   187.078E-03,   27.1327E-09
C:/temp/dataset/2/13_1.odb,Step-1,Increment      1: Step Time =    1.000,"PART-1-1",           580,       6.50486,       21.1025,            0.,NA,NA,"",   494.118E-03,  -465.125E-03,   166.769E-03,   19.1682E-09
C:/temp/dataset/2/13_1.odb,Step-1,Increment      1: Step Time =    1.000,"PART-1-1",           581,           4.5,          -30.,            0.,NA,NA,"",            0.,  -957.601E-42,   642.675E-42,   879.765E-06
C:/temp/dataset/2/13_1.odb,Step-1,Increment      1: Step Time =    1.000,"PART-1-1",           582,       3.62857,      -22.4261,            0.,NA,NA,"",   6.47583E-03,  -6.47101E-03,   249.610E-06,   570.541E-06
C:/temp/dataset/2/13_1.odb,Step-1,Increment      1: Step Time =    1.000,"PART-1-1",           583,       2.16864,      -23.6665,            0.,NA,NA,"",   6.68520E-03,  -6.61692E-03,   952.966E-06,   838.485E-06
C:/temp/dataset/2/13_1.odb,Step-1,Increment      1: Step Time =    1.000,"PART-1-1",           584,      -2.73954,      -22.4743,            0.,NA,NA,"",   12.5612E-03,  -10.7414E-03,   6.51201E-03,   2.17015E-03
C:/temp/dataset/2/13_1.odb,Step-1,Increment      1: Step Time =    1.000,"PART-1-1",           585,  -999.676E-03,      -23.6839,            0.,NA,NA,"",   8.77429E-03,  -8.10474E-03,   3.36174E-03,   1.63212E-03
C:/temp/dataset/2/13_1.odb,Step-1,Increment      1: Step Time =    1.000,"PART-1-1",           586,      -7.82572,      -27.3936,            0.,NA,NA,"",   963.236E-06,  -418.159E-06,   867.737E-06,   577.336E-06
C:/temp/dataset/2/13_1.odb,Step-1,Increment      1: Step Time =    1.000,"PART-1-1",           587,      -6.52069,      -26.1528,            0.,NA,NA,"",   3.87586E-03,  -2.53181E-03,   2.93466E-03,   1.32716E-03
C:/temp/dataset/2/13_1.odb,Step-1,Increment      1: Step Time =    1.000,"PART-1-1",           588,      -8.08310,      -24.7829,            0.,NA,NA,"",   4.41095E-03,  -3.99262E-03,   1.87496E-03,   600.082E-06
C:/temp/dataset/2/13_1.odb,Step-1,Increment      1: Step Time =    1.000,"PART-1-1",           589,      -9.38814,      -26.0237,            0.,NA,NA,"",   1.86048E-03,  -1.62666E-03,  -902.976E-06,   342.200E-06
C:/temp/dataset/2/13_1.odb,Step-1,Increment      1: Step Time =    1.000,"PART-1-1",           590,          -7.5,          -30.,            0.,NA,NA,"",            0.,   380.335E-42,   511.764E-42,   363.390E-06
C:/temp/dataset/2/13_1.odb,Step-1,Increment      1: Step Time =    1.000,"PART-1-1",           591,       7.73182,       24.8866,            0.,NA,NA,"",   536.331E-03,  -505.372E-03,   179.583E-03,   34.0737E-09
C:/temp/dataset/2/13_1.odb,Step-1,Increment      1: Step Time =    1.000,"PART-1-1",           592,       8.21760,       26.2797,            0.,NA,NA,"",   551.995E-03,  -520.191E-03,   184.663E-03,   36.3373E-09
C:/temp/dataset/2/13_1.odb,Step-1,Increment      1: Step Time =    1.000,"PART-1-1",           593,       6.12718,       25.7561,            0.,NA,NA,"",   539.564E-03,  -514.513E-03,   162.497E-03,   30.6181E-09
C:/temp/dataset/2/13_1.odb,Step-1,Increment      1: Step Time =    1.000,"PART-1-1",           594,       5.38844,       22.1508,            0.,NA,NA,"",   500.739E-03,  -476.192E-03,   154.856E-03,   16.9980E-09
C:/temp/dataset/2/13_1.odb,Step-1,Increment      1: Step Time =    1.000,"PART-1-1",           595,      -3.37677,   775.412E-03,            0.,NA,NA,"",   256.550E-03,  -248.685E-03,   63.0361E-03,   35.1889E-06
C:/temp/dataset/2/13_1.odb,Step-1,Increment      1: Step Time =    1.000,"PART-1-1",           596,      -3.41233,       2.84116,            0.,NA,NA,"",   277.816E-03,  -270.681E-03,   62.5555E-03,   27.8754E-06
C:/temp/dataset/2/13_1.odb,Step-1,Increment      1: Step Time =    1.000,"PART-1-1",           597,      -11.2482,       24.9673,            0.,NA,NA,"",   505.635E-03,  -505.159E-03,  -21.9427E-03,   18.8101E-09
C:/temp/dataset/2/13_1.odb,Step-1,Increment      1: Step Time =    1.000,"PART-1-1",           598,       5.16292,       24.1270,            0.,NA,NA,"",   519.981E-03,  -497.162E-03,   152.350E-03,   20.4753E-09
C:/temp/dataset/2/13_1.odb,Step-1,Increment      1: Step Time =    1.000,"PART-1-1",           599,            0.,            5.,            0.,NA,NA,"",   309.900E-03,  -293.787E-03,   98.6256E-03,   6.78037E-06
C:/temp/dataset/2/13_1.odb,Step-1,Increment      1: Step Time =    1.000,"PART-1-1",           600,      -1.80204,       3.95011,            0.,NA,NA,"",   293.543E-03,  -282.552E-03,   79.5703E-03,   13.7355E-06
C:/temp/dataset/2/13_1.odb,Step-1,Increment      1: Step Time =    1.000,"PART-1-1",           601,       9.59799,       22.9228,            0.,NA,NA,"",   524.086E-03,  -484.627E-03,   199.508E-03,   36.8078E-09
C:/temp/dataset/2/13_1.odb,Step-1,Increment      1: Step Time =    1.000,"PART-1-1",           602,       8.30932,       22.9391,            0.,NA,NA,"",   519.125E-03,  -484.727E-03,   185.825E-03,   34.0446E-09
C:/temp/dataset/2/13_1.odb,Step-1,Increment      1: Step Time =    1.000,"PART-1-1",           603,      -1.93269,      -1.01257,            0.,NA,NA,"",   242.793E-03,  -229.780E-03,   78.4198E-03,   42.8373E-06
C:/temp/dataset/2/13_1.odb,Step-1,Increment      1: Step Time =    1.000,"PART-1-1",           604,      -8.69440,      -13.5596,            0.,NA,NA,"",   86.2328E-03,  -86.1839E-03,   2.90376E-03,   1.91946E-03
C:/temp/dataset/2/13_1.odb,Step-1,Increment      1: Step Time =    1.000,"PART-1-1",           605,       6.07991,       2.65614,            0.,NA,NA,"",   314.892E-03,  -269.242E-03,   163.296E-03,   200.075E-09
C:/temp/dataset/2/13_1.odb,Step-1,Increment      1: Step Time =    1.000,"PART-1-1",           606,       4.75906,       1.28045,            0.,NA,NA,"",   295.138E-03,  -254.561E-03,   149.349E-03,   373.027E-09
C:/temp/dataset/2/13_1.odb,Step-1,Increment      1: Step Time =    1.000,"PART-1-1",           607,       10.0234,       4.43547,            0.,NA,NA,"",   353.839E-03,  -288.357E-03,   205.068E-03,   71.2738E-09
C:/temp/dataset/2/13_1.odb,Step-1,Increment      1: Step Time =    1.000,"PART-1-1",           608,       7.46673,       4.06304,            0.,NA,NA,"",   335.359E-03,  -284.258E-03,   177.942E-03,   207.429E-09
C:/temp/dataset/2/13_1.odb,Step-1,Increment      1: Step Time =    1.000,"PART-1-1",           609,  -317.165E-03,  -486.862E-03,            0.,NA,NA,"",   254.129E-03,  -235.485E-03,   95.5435E-03,   18.3018E-06
C:/temp/dataset/2/13_1.odb,Step-1,Increment      1: Step Time =    1.000,"PART-1-1",           610,       1.72730,   921.331E-03,            0.,NA,NA,"",   276.619E-03,  -250.573E-03,   117.180E-03,   4.53682E-06
C:/temp/dataset/2/13_1.odb,Step-1,Increment      1: Step Time =    1.000,"PART-1-1",           611,      -4.63664,      -21.2535,            0.,NA,NA,"",   18.6033E-03,  -14.2928E-03,   11.9079E-03,   4.43873E-03
C:/temp/dataset/2/13_1.odb,Step-1,Increment      1: Step Time =    1.000,"PART-1-1",           612,       11.2827,       3.26092,            0.,NA,NA,"",   351.989E-03,  -275.956E-03,   218.505E-03,   91.7589E-09
C:/temp/dataset/2/13_1.odb,Step-1,Increment      1: Step Time =    1.000,"PART-1-1",           613,      -11.4502,      -4.36864,            0.,NA,NA,"",   193.907E-03,  -192.548E-03,  -22.9177E-03,   182.441E-06
C:/temp/dataset/2/13_1.odb,Step-1,Increment      1: Step Time =    1.000,"PART-1-1",           614,      -10.8693,      -24.5529,            0.,NA,NA,"",   7.25452E-03,  -4.84564E-03,  -5.39888E-03,   1.27138E-03
C:/temp/dataset/2/13_1.odb,Step-1,Increment      1: Step Time =    1.000,"PART-1-1",           615,      -9.52531,      -23.3517,            0.,NA,NA,"",   7.75096E-03,  -7.51120E-03,  -1.91291E-03,   551.279E-06
C:/temp/dataset/2/13_1.odb,Step-1,Increment      1: Step Time =    1.000,"PART-1-1",           616,      -10.8903,      -21.7518,            0.,NA,NA,"",   16.9439E-03,  -14.5000E-03,  -8.76610E-03,   1.49221E-03
C:/temp/dataset/2/13_1.odb,Step-1,Increment      1: Step Time =    1.000,"PART-1-1",           617,       3.33333,          -20.,            0.,NA,NA,"",   6.56025E-03,  -6.55975E-03,  -81.1678E-06,   327.427E-06
C:/temp/dataset/2/13_1.odb,Step-1,Increment      1: Step Time =    1.000,"PART-1-1",           618,       1.83446,      -21.2108,            0.,NA,NA,"",   7.32509E-03,  -7.29476E-03,   665.951E-06,   578.004E-06
C:/temp/dataset/2/13_1.odb,Step-1,Increment      1: Step Time =    1.000,"PART-1-1",           619,       5.12744,      -21.2153,            0.,NA,NA,"",   6.14499E-03,  -6.14117E-03,  -216.752E-06,   302.065E-06
C:/temp/dataset/2/13_1.odb,Step-1,Increment      1: Step Time =    1.000,"PART-1-1",           620,            0.,          -20.,            0.,NA,NA,"",   7.81865E-03,  -7.68700E-03,   1.42874E-03,   836.408E-06
C:/temp/dataset/2/13_1.odb,Step-1,Increment      1: Step Time =    1.000,"PART-1-1",           621,      -1.43624,      -21.2208,            0.,NA,NA,"",   10.7653E-03,  -10.0108E-03,   3.95913E-03,   1.32558E-03
C:/temp/dataset/2/13_1.odb,Step-1,Increment      1: Step Time =    1.000,"PART-1-1",           622,   398.228E-03,      -22.4316,            0.,NA,NA,"",   8.36318E-03,  -8.11339E-03,   2.02872E-03,   1.17232E-03
C:/temp/dataset/2/13_1.odb,Step-1,Increment      1: Step Time =    1.000,"PART-1-1",           623,   770.736E-03,      -24.9188,            0.,NA,NA,"",   6.48755E-03,  -6.25383E-03,   1.72564E-03,   1.18447E-03
C:/temp/dataset/2/13_1.odb,Step-1,Increment      1: Step Time =    1.000,"PART-1-1",           624,      -3.33333,          -20.,            0.,NA,NA,"",   13.5602E-03,  -12.0212E-03,   6.27450E-03,   3.49946E-03
C:/temp/dataset/2/13_1.odb,Step-1,Increment      1: Step Time =    1.000,"PART-1-1",           625,       8.69606,       24.2205,            0.,NA,NA,"",   533.294E-03,  -498.354E-03,   189.859E-03,   36.3595E-09
C:/temp/dataset/2/13_1.odb,Step-1,Increment      1: Step Time =    1.000,"PART-1-1",           626,      -3.33333,            5.,            0.,NA,NA,"",   300.378E-03,  -293.642E-03,   63.2551E-03,   29.6689E-06
C:/temp/dataset/2/13_1.odb,Step-1,Increment      1: Step Time =    1.000,"PART-1-1",           627,      -4.94363,       3.89105,            0.,NA,NA,"",   285.571E-03,  -281.804E-03,   46.2317E-03,   36.5981E-06
C:/temp/dataset/2/13_1.odb,Step-1,Increment      1: Step Time =    1.000,"PART-1-1",           628,      -6.66667,            5.,            0.,NA,NA,"",   294.908E-03,  -293.595E-03,   27.8039E-03,   57.9561E-06
C:/temp/dataset/2/13_1.odb,Step-1,Increment      1: Step Time =    1.000,"PART-1-1",           629,           10.,          -20.,            0.,NA,NA,"",   5.69712E-03,  -5.69712E-03,   4.19958E-06,   24.2035E-06
C:/temp/dataset/2/13_1.odb,Step-1,Increment      1: Step Time =    1.000,"PART-1-1",           630,       8.42239,      -21.2201,            0.,NA,NA,"",   5.53118E-03,  -5.52705E-03,  -213.709E-06,   144.886E-06
C:/temp/dataset/2/13_1.odb,Step-1,Increment      1: Step Time =    1.000,"PART-1-1",           631,       6.66667,          -20.,            0.,NA,NA,"",   5.90541E-03,  -5.89134E-03,  -407.417E-06,   147.126E-06
C:/temp/dataset/2/13_1.odb,Step-1,Increment      1: Step Time =    1.000,"PART-1-1",           632,       9.53008,       25.0675,            0.,NA,NA,"",   544.901E-03,  -507.394E-03,   198.666E-03,   37.5180E-09
