ODB Name,Step,Frame,Part Instance Name,    êﬂì_ÉâÉxÉã,X,Y,Z,Section Name,Material Name,Section Point,   U-Magnitude,          U-U1,          U-U2,       S-Mises
C:/temp/dataset/2/15_8.odb,Step-1,Increment      1: Step Time =    1.000,"PART-1-1",             1,          -15.,           20.,            0.,NA,NA,"",   115.067E-03,   114.808E-03,   7.72230E-03,   97.8668E-12
C:/temp/dataset/2/15_8.odb,Step-1,Increment      1: Step Time =    1.000,"PART-1-1",             2,          -15.,           25.,            0.,NA,NA,"",   129.351E-03,   129.121E-03,   7.70182E-03,   110.301E-12
C:/temp/dataset/2/15_8.odb,Step-1,Increment      1: Step Time =    1.000,"PART-1-1",             3,          -10.,           20.,            0.,NA,NA,"",   114.976E-03,   114.787E-03,  -6.59112E-03,   194.161E-12
C:/temp/dataset/2/15_8.odb,Step-1,Increment      1: Step Time =    1.000,"PART-1-1",             4,           -5.,           20.,            0.,NA,NA,"",   116.655E-03,   114.767E-03,  -20.9045E-03,   385.180E-12
C:/temp/dataset/2/15_8.odb,Step-1,Increment      1: Step Time =    1.000,"PART-1-1",             5,            0.,           20.,            0.,NA,NA,"",   120.029E-03,   114.746E-03,  -35.2179E-03,   542.183E-12
C:/temp/dataset/2/15_8.odb,Step-1,Increment      1: Step Time =    1.000,"PART-1-1",             6,            5.,           20.,            0.,NA,NA,"",   124.961E-03,   114.726E-03,  -49.5314E-03,   1.77071E-09
C:/temp/dataset/2/15_8.odb,Step-1,Increment      1: Step Time =    1.000,"PART-1-1",             7,            5.,          12.5,            0.,NA,NA,"",   105.579E-03,   93.2557E-03,  -49.5006E-03,   1.50183E-09
C:/temp/dataset/2/15_8.odb,Step-1,Increment      1: Step Time =    1.000,"PART-1-1",             8,            5.,            5.,            0.,NA,NA,"",   87.1806E-03,   71.7856E-03,  -49.4699E-03,   4.42433E-09
C:/temp/dataset/2/15_8.odb,Step-1,Increment      1: Step Time =    1.000,"PART-1-1",             9,           -5.,            5.,            0.,NA,NA,"",   74.7895E-03,   71.8263E-03,  -20.8435E-03,   34.9344E-09
C:/temp/dataset/2/15_8.odb,Step-1,Increment      1: Step Time =    1.000,"PART-1-1",            10,          -15.,            5.,            0.,NA,NA,"",   72.2874E-03,   71.8674E-03,   7.78119E-03,   23.9077E-09
C:/temp/dataset/2/15_8.odb,Step-1,Increment      1: Step Time =    1.000,"PART-1-1",            11,          -15.,         -3.75,            0.,NA,NA,"",   47.4708E-03,   46.8224E-03,   7.81902E-03,   1.45033E-06
C:/temp/dataset/2/15_8.odb,Step-1,Increment      1: Step Time =    1.000,"PART-1-1",            12,          -15.,         -12.5,            0.,NA,NA,"",   23.0610E-03,   21.6653E-03,   7.90093E-03,   8.83645E-06
C:/temp/dataset/2/15_8.odb,Step-1,Increment      1: Step Time =    1.000,"PART-1-1",            13,          -15.,        -21.25,            0.,NA,NA,"",   6.03848E-03,  -3.11134E-03,   5.17521E-03,   1.04162E-03
C:/temp/dataset/2/15_8.odb,Step-1,Increment      1: Step Time =    1.000,"PART-1-1",            14,          -15.,          -30.,            0.,NA,NA,"",            0.,  -902.925E-42,  -1.25814E-39,   2.16289E-03
C:/temp/dataset/2/15_8.odb,Step-1,Increment      1: Step Time =    1.000,"PART-1-1",            15,           15.,          -30.,            0.,NA,NA,"",            0.,   870.213E-42,  -1.29147E-39,   2.25801E-03
C:/temp/dataset/2/15_8.odb,Step-1,Increment      1: Step Time =    1.000,"PART-1-1",            16,           15.,          -25.,            0.,NA,NA,"",   7.90254E-03,   7.86027E-03,  -816.324E-06,   664.082E-06
C:/temp/dataset/2/15_8.odb,Step-1,Increment      1: Step Time =    1.000,"PART-1-1",            17,           15.,          -20.,            0.,NA,NA,"",   5.55986E-03,   5.52182E-03,   649.241E-06,   47.9154E-06
C:/temp/dataset/2/15_8.odb,Step-1,Increment      1: Step Time =    1.000,"PART-1-1",            18,            5.,          -20.,            0.,NA,NA,"",   30.0443E-03,  -4.02848E-03,  -29.7730E-03,   3.90611E-03
C:/temp/dataset/2/15_8.odb,Step-1,Increment      1: Step Time =    1.000,"PART-1-1",            19,           -5.,          -20.,            0.,NA,NA,"",   26.8810E-03,   1.34428E-03,  -26.8474E-03,   4.76911E-03
C:/temp/dataset/2/15_8.odb,Step-1,Increment      1: Step Time =    1.000,"PART-1-1",            20,           -5.,         -12.5,            0.,NA,NA,"",   30.1016E-03,   21.8557E-03,  -20.6986E-03,   34.1092E-06
C:/temp/dataset/2/15_8.odb,Step-1,Increment      1: Step Time =    1.000,"PART-1-1",            21,           -5.,           -5.,            0.,NA,NA,"",   47.9459E-03,   43.1990E-03,  -20.8004E-03,   2.21261E-06
C:/temp/dataset/2/15_8.odb,Step-1,Increment      1: Step Time =    1.000,"PART-1-1",            22,            0.,           -5.,            0.,NA,NA,"",   55.6557E-03,   43.1793E-03,  -35.1156E-03,   84.0482E-09
C:/temp/dataset/2/15_8.odb,Step-1,Increment      1: Step Time =    1.000,"PART-1-1",            23,            5.,           -5.,            0.,NA,NA,"",   65.6194E-03,   43.1589E-03,  -49.4290E-03,   4.51220E-09
C:/temp/dataset/2/15_8.odb,Step-1,Increment      1: Step Time =    1.000,"PART-1-1",            24,           10.,           -5.,            0.,NA,NA,"",   76.9676E-03,   43.1384E-03,  -63.7423E-03,   1.02499E-09
C:/temp/dataset/2/15_8.odb,Step-1,Increment      1: Step Time =    1.000,"PART-1-1",            25,           15.,           -5.,            0.,NA,NA,"",   89.1731E-03,   43.1179E-03,  -78.0557E-03,   65.2412E-12
C:/temp/dataset/2/15_8.odb,Step-1,Increment      1: Step Time =    1.000,"PART-1-1",            26,           15.,          3.75,            0.,NA,NA,"",   103.658E-03,   68.1663E-03,  -78.0916E-03,   1.75635E-09
C:/temp/dataset/2/15_8.odb,Step-1,Increment      1: Step Time =    1.000,"PART-1-1",            27,           15.,          12.5,            0.,NA,NA,"",   121.626E-03,   93.2147E-03,  -78.1274E-03,   1.68415E-09
C:/temp/dataset/2/15_8.odb,Step-1,Increment      1: Step Time =    1.000,"PART-1-1",            28,           15.,         21.25,            0.,NA,NA,"",   141.759E-03,   118.263E-03,  -78.1633E-03,   1.03455E-09
C:/temp/dataset/2/15_8.odb,Step-1,Increment      1: Step Time =    1.000,"PART-1-1",            29,           15.,           30.,            0.,NA,NA,"",   163.258E-03,   143.312E-03,  -78.1991E-03,   73.7037E-12
C:/temp/dataset/2/15_8.odb,Step-1,Increment      1: Step Time =    1.000,"PART-1-1",            30,           7.5,           30.,            0.,NA,NA,"",   154.160E-03,   143.342E-03,  -56.7290E-03,   582.287E-12
C:/temp/dataset/2/15_8.odb,Step-1,Increment      1: Step Time =    1.000,"PART-1-1",            31,            0.,           30.,            0.,NA,NA,"",   147.645E-03,   143.373E-03,  -35.2589E-03,   706.146E-12
C:/temp/dataset/2/15_8.odb,Step-1,Increment      1: Step Time =    1.000,"PART-1-1",            32,          -7.5,           30.,            0.,NA,NA,"",   144.065E-03,   143.404E-03,  -13.7888E-03,   366.306E-12
C:/temp/dataset/2/15_8.odb,Step-1,Increment      1: Step Time =    1.000,"PART-1-1",            33,          -15.,           30.,            0.,NA,NA,"",   143.640E-03,   143.435E-03,   7.68133E-03,   87.1183E-12
C:/temp/dataset/2/15_8.odb,Step-1,Increment      1: Step Time =    1.000,"PART-1-1",            34,          -15.,          22.5,            0.,NA,NA,"",   122.208E-03,   121.964E-03,   7.71206E-03,   166.706E-12
C:/temp/dataset/2/15_8.odb,Step-1,Increment      1: Step Time =    1.000,"PART-1-1",            35,         -12.5,           20.,            0.,NA,NA,"",   114.799E-03,   114.798E-03,   565.594E-06,   133.583E-12
C:/temp/dataset/2/15_8.odb,Step-1,Increment      1: Step Time =    1.000,"PART-1-1",            36,          -7.5,           20.,            0.,NA,NA,"",   115.597E-03,   114.777E-03,  -13.7478E-03,   290.159E-12
C:/temp/dataset/2/15_8.odb,Step-1,Increment      1: Step Time =    1.000,"PART-1-1",            37,          -2.5,           20.,            0.,NA,NA,"",   118.138E-03,   114.757E-03,  -28.0612E-03,   483.913E-12
C:/temp/dataset/2/15_8.odb,Step-1,Increment      1: Step Time =    1.000,"PART-1-1",            38,           2.5,           20.,            0.,NA,NA,"",   122.311E-03,   114.736E-03,  -42.3747E-03,   821.495E-12
C:/temp/dataset/2/15_8.odb,Step-1,Increment      1: Step Time =    1.000,"PART-1-1",            39,            5.,           15.,            0.,NA,NA,"",   111.955E-03,   100.412E-03,  -49.5109E-03,   1.39212E-09
C:/temp/dataset/2/15_8.odb,Step-1,Increment      1: Step Time =    1.000,"PART-1-1",            40,            5.,          17.5,            0.,NA,NA,"",   118.421E-03,   107.569E-03,  -49.5211E-03,   1.44246E-09
C:/temp/dataset/2/15_8.odb,Step-1,Increment      1: Step Time =    1.000,"PART-1-1",            41,            5.,           7.5,            0.,NA,NA,"",   93.1675E-03,   78.9423E-03,  -49.4802E-03,   1.93276E-09
C:/temp/dataset/2/15_8.odb,Step-1,Increment      1: Step Time =    1.000,"PART-1-1",            42,            5.,           10.,            0.,NA,NA,"",   99.3093E-03,   86.0990E-03,  -49.4904E-03,   1.45270E-09
C:/temp/dataset/2/15_8.odb,Step-1,Increment      1: Step Time =    1.000,"PART-1-1",            43,      -1.66667,            5.,            0.,NA,NA,"",   77.9767E-03,   71.8128E-03,  -30.3855E-03,   44.0347E-09
C:/temp/dataset/2/15_8.odb,Step-1,Increment      1: Step Time =    1.000,"PART-1-1",            44,       1.66667,            5.,            0.,NA,NA,"",   82.1544E-03,   71.7992E-03,  -39.9277E-03,   17.8568E-09
C:/temp/dataset/2/15_8.odb,Step-1,Increment      1: Step Time =    1.000,"PART-1-1",            45,      -11.6667,            5.,            0.,NA,NA,"",   71.8753E-03,   71.8537E-03,  -1.76027E-03,   19.9733E-09
C:/temp/dataset/2/15_8.odb,Step-1,Increment      1: Step Time =    1.000,"PART-1-1",            46,      -8.33333,            5.,            0.,NA,NA,"",   72.7235E-03,   71.8400E-03,  -11.3018E-03,   25.6945E-09
C:/temp/dataset/2/15_8.odb,Step-1,Increment      1: Step Time =    1.000,"PART-1-1",            47,          -15.,  -833.333E-03,            0.,NA,NA,"",   55.7199E-03,   55.1705E-03,   7.80537E-03,   359.440E-09
C:/temp/dataset/2/15_8.odb,Step-1,Increment      1: Step Time =    1.000,"PART-1-1",            48,          -15.,       2.08333,            0.,NA,NA,"",   63.9950E-03,   63.5187E-03,   7.79313E-03,   34.4453E-09
C:/temp/dataset/2/15_8.odb,Step-1,Increment      1: Step Time =    1.000,"PART-1-1",            49,          -15.,      -9.58333,            0.,NA,NA,"",   31.1150E-03,   30.1035E-03,   7.86914E-03,   10.8212E-06
C:/temp/dataset/2/15_8.odb,Step-1,Increment      1: Step Time =    1.000,"PART-1-1",            50,          -15.,      -6.66667,            0.,NA,NA,"",   39.2626E-03,   38.4723E-03,   7.83790E-03,   4.80138E-06
C:/temp/dataset/2/15_8.odb,Step-1,Increment      1: Step Time =    1.000,"PART-1-1",            51,          -15.,      -18.3333,            0.,NA,NA,"",   8.39918E-03,   4.44579E-03,   7.12609E-03,   496.757E-06
C:/temp/dataset/2/15_8.odb,Step-1,Increment      1: Step Time =    1.000,"PART-1-1",            52,          -15.,      -15.4167,            0.,NA,NA,"",   15.2269E-03,   13.0686E-03,   7.81476E-03,   96.7520E-06
C:/temp/dataset/2/15_8.odb,Step-1,Increment      1: Step Time =    1.000,"PART-1-1",            53,          -15.,      -27.0833,            0.,NA,NA,"",   6.40531E-03,  -6.24667E-03,  -1.41673E-03,   652.290E-06
C:/temp/dataset/2/15_8.odb,Step-1,Increment      1: Step Time =    1.000,"PART-1-1",            54,          -15.,      -24.1667,            0.,NA,NA,"",   7.62086E-03,  -7.38962E-03,   1.86306E-03,   1.38363E-03
C:/temp/dataset/2/15_8.odb,Step-1,Increment      1: Step Time =    1.000,"PART-1-1",            55,           12.,          -30.,            0.,NA,NA,"",            0.,   1.89690E-39,  -1.16308E-39,   1.80285E-03
C:/temp/dataset/2/15_8.odb,Step-1,Increment      1: Step Time =    1.000,"PART-1-1",            56,            9.,          -30.,            0.,NA,NA,"",            0.,   1.78016E-39,  -1.60676E-39,   2.79884E-03
C:/temp/dataset/2/15_8.odb,Step-1,Increment      1: Step Time =    1.000,"PART-1-1",            57,            6.,          -30.,            0.,NA,NA,"",            0.,   2.88706E-39,  -5.11460E-39,   3.70873E-03
C:/temp/dataset/2/15_8.odb,Step-1,Increment      1: Step Time =    1.000,"PART-1-1",            58,            3.,          -30.,            0.,NA,NA,"",            0.,   611.953E-42,  -6.86057E-39,   4.40888E-03
C:/temp/dataset/2/15_8.odb,Step-1,Increment      1: Step Time =    1.000,"PART-1-1",            59,            0.,          -30.,            0.,NA,NA,"",            0.,   1.07675E-39,  -7.71683E-39,   4.66276E-03
C:/temp/dataset/2/15_8.odb,Step-1,Increment      1: Step Time =    1.000,"PART-1-1",            60,           -3.,          -30.,            0.,NA,NA,"",            0.,  -434.777E-42,  -6.33385E-39,   4.43701E-03
C:/temp/dataset/2/15_8.odb,Step-1,Increment      1: Step Time =    1.000,"PART-1-1",            61,           -6.,          -30.,            0.,NA,NA,"",            0.,  -1.41627E-39,  -3.96696E-39,   3.76782E-03
C:/temp/dataset/2/15_8.odb,Step-1,Increment      1: Step Time =    1.000,"PART-1-1",            62,           -9.,          -30.,            0.,NA,NA,"",            0.,  -2.56677E-39,  -3.14383E-39,   2.90819E-03
C:/temp/dataset/2/15_8.odb,Step-1,Increment      1: Step Time =    1.000,"PART-1-1",            63,          -12.,          -30.,            0.,NA,NA,"",            0.,  -2.06739E-39,  -1.22264E-39,   1.95151E-03
C:/temp/dataset/2/15_8.odb,Step-1,Increment      1: Step Time =    1.000,"PART-1-1",            64,           15.,         -27.5,            0.,NA,NA,"",   5.99853E-03,   5.58282E-03,  -2.19420E-03,   197.963E-06
C:/temp/dataset/2/15_8.odb,Step-1,Increment      1: Step Time =    1.000,"PART-1-1",            65,           15.,         -22.5,            0.,NA,NA,"",   7.16543E-03,   7.14744E-03,   507.385E-06,   348.675E-06
C:/temp/dataset/2/15_8.odb,Step-1,Increment      1: Step Time =    1.000,"PART-1-1",            66,       8.33333,          -20.,            0.,NA,NA,"",   6.68653E-03,   1.99856E-03,  -6.38086E-03,   2.04212E-03
C:/temp/dataset/2/15_8.odb,Step-1,Increment      1: Step Time =    1.000,"PART-1-1",            67,       11.6667,          -20.,            0.,NA,NA,"",   4.92938E-03,   4.78810E-03,  -1.17171E-03,   609.732E-06
C:/temp/dataset/2/15_8.odb,Step-1,Increment      1: Step Time =    1.000,"PART-1-1",            68,      -1.66667,          -20.,            0.,NA,NA,"",   51.4569E-03,   549.921E-06,  -51.4540E-03,   7.83755E-03
C:/temp/dataset/2/15_8.odb,Step-1,Increment      1: Step Time =    1.000,"PART-1-1",            69,       1.66667,          -20.,            0.,NA,NA,"",   51.9274E-03,  -909.500E-06,  -51.9195E-03,   7.59010E-03
C:/temp/dataset/2/15_8.odb,Step-1,Increment      1: Step Time =    1.000,"PART-1-1",            70,           -5.,          -15.,            0.,NA,NA,"",   25.6639E-03,   14.9227E-03,  -20.8793E-03,   158.890E-06
C:/temp/dataset/2/15_8.odb,Step-1,Increment      1: Step Time =    1.000,"PART-1-1",            71,           -5.,         -17.5,            0.,NA,NA,"",   22.6185E-03,   8.59649E-03,  -20.9212E-03,   1.01177E-03
C:/temp/dataset/2/15_8.odb,Step-1,Increment      1: Step Time =    1.000,"PART-1-1",            72,           -5.,          -7.5,            0.,NA,NA,"",   41.6068E-03,   36.0463E-03,  -20.7795E-03,   6.06046E-06
C:/temp/dataset/2/15_8.odb,Step-1,Increment      1: Step Time =    1.000,"PART-1-1",            73,           -5.,          -10.,            0.,NA,NA,"",   35.5921E-03,   28.9146E-03,  -20.7544E-03,   15.0001E-06
C:/temp/dataset/2/15_8.odb,Step-1,Increment      1: Step Time =    1.000,"PART-1-1",            74,          -2.5,           -5.,            0.,NA,NA,"",   51.4492E-03,   43.1895E-03,  -27.9587E-03,   323.683E-09
C:/temp/dataset/2/15_8.odb,Step-1,Increment      1: Step Time =    1.000,"PART-1-1",            75,           2.5,           -5.,            0.,NA,NA,"",   60.4195E-03,   43.1691E-03,  -42.2723E-03,   15.1687E-09
C:/temp/dataset/2/15_8.odb,Step-1,Increment      1: Step Time =    1.000,"PART-1-1",            76,           7.5,           -5.,            0.,NA,NA,"",   71.1600E-03,   43.1486E-03,  -56.5856E-03,   1.85510E-09
C:/temp/dataset/2/15_8.odb,Step-1,Increment      1: Step Time =    1.000,"PART-1-1",            77,          12.5,           -5.,            0.,NA,NA,"",   82.9862E-03,   43.1282E-03,  -70.8990E-03,   386.134E-12
C:/temp/dataset/2/15_8.odb,Step-1,Increment      1: Step Time =    1.000,"PART-1-1",            78,           15.,   833.333E-03,            0.,NA,NA,"",   98.3589E-03,   59.8168E-03,  -78.0796E-03,   1.07488E-09
C:/temp/dataset/2/15_8.odb,Step-1,Increment      1: Step Time =    1.000,"PART-1-1",            79,           15.,      -2.08333,            0.,NA,NA,"",   93.5064E-03,   51.4674E-03,  -78.0677E-03,   263.562E-12
C:/temp/dataset/2/15_8.odb,Step-1,Increment      1: Step Time =    1.000,"PART-1-1",            80,           15.,       9.58333,            0.,NA,NA,"",   115.344E-03,   84.8653E-03,  -78.1155E-03,   1.86591E-09
C:/temp/dataset/2/15_8.odb,Step-1,Increment      1: Step Time =    1.000,"PART-1-1",            81,           15.,       6.66667,            0.,NA,NA,"",   109.338E-03,   76.5158E-03,  -78.1035E-03,   1.98044E-09
C:/temp/dataset/2/15_8.odb,Step-1,Increment      1: Step Time =    1.000,"PART-1-1",            82,           15.,       18.3333,            0.,NA,NA,"",   134.865E-03,   109.914E-03,  -78.1513E-03,   1.33724E-09
C:/temp/dataset/2/15_8.odb,Step-1,Increment      1: Step Time =    1.000,"PART-1-1",            83,           15.,       15.4167,            0.,NA,NA,"",   128.145E-03,   101.564E-03,  -78.1394E-03,   1.53711E-09
C:/temp/dataset/2/15_8.odb,Step-1,Increment      1: Step Time =    1.000,"PART-1-1",            84,           15.,       27.0833,            0.,NA,NA,"",   155.974E-03,   134.962E-03,  -78.1872E-03,   260.071E-12
C:/temp/dataset/2/15_8.odb,Step-1,Increment      1: Step Time =    1.000,"PART-1-1",            85,           15.,       24.1667,            0.,NA,NA,"",   148.802E-03,   126.613E-03,  -78.1752E-03,   616.819E-12
C:/temp/dataset/2/15_8.odb,Step-1,Increment      1: Step Time =    1.000,"PART-1-1",            86,           10.,           30.,            0.,NA,NA,"",   156.925E-03,   143.332E-03,  -63.8857E-03,   288.806E-12
C:/temp/dataset/2/15_8.odb,Step-1,Increment      1: Step Time =    1.000,"PART-1-1",            87,          12.5,           30.,            0.,NA,NA,"",   159.963E-03,   143.322E-03,  -71.0424E-03,   104.202E-12
C:/temp/dataset/2/15_8.odb,Step-1,Increment      1: Step Time =    1.000,"PART-1-1",            88,           2.5,           30.,            0.,NA,NA,"",   149.506E-03,   143.363E-03,  -42.4156E-03,   790.735E-12
C:/temp/dataset/2/15_8.odb,Step-1,Increment      1: Step Time =    1.000,"PART-1-1",            89,            5.,           30.,            0.,NA,NA,"",   151.682E-03,   143.353E-03,  -49.5723E-03,   751.576E-12
C:/temp/dataset/2/15_8.odb,Step-1,Increment      1: Step Time =    1.000,"PART-1-1",            90,           -5.,           30.,            0.,NA,NA,"",   144.915E-03,   143.394E-03,  -20.9455E-03,   473.938E-12
C:/temp/dataset/2/15_8.odb,Step-1,Increment      1: Step Time =    1.000,"PART-1-1",            91,          -2.5,           30.,            0.,NA,NA,"",   146.111E-03,   143.383E-03,  -28.1022E-03,   589.533E-12
C:/temp/dataset/2/15_8.odb,Step-1,Increment      1: Step Time =    1.000,"PART-1-1",            92,         -12.5,           30.,            0.,NA,NA,"",   143.425E-03,   143.424E-03,   524.618E-06,   198.172E-12
C:/temp/dataset/2/15_8.odb,Step-1,Increment      1: Step Time =    1.000,"PART-1-1",            93,          -10.,           30.,            0.,NA,NA,"",   143.567E-03,   143.414E-03,  -6.63209E-03,   266.144E-12
C:/temp/dataset/2/15_8.odb,Step-1,Increment      1: Step Time =    1.000,"PART-1-1",            94,          -15.,          27.5,            0.,NA,NA,"",   136.495E-03,   136.278E-03,   7.69157E-03,   111.651E-12
C:/temp/dataset/2/15_8.odb,Step-1,Increment      1: Step Time =    1.000,"PART-1-1",            95,      -12.4978,       24.9766,            0.,NA,NA,"",   129.045E-03,   129.044E-03,   538.816E-06,   166.020E-12
C:/temp/dataset/2/15_8.odb,Step-1,Increment      1: Step Time =    1.000,"PART-1-1",            96,      -7.49872,       27.4475,            0.,NA,NA,"",   136.793E-03,   136.097E-03,  -13.7820E-03,   221.961E-12
C:/temp/dataset/2/15_8.odb,Step-1,Increment      1: Step Time =    1.000,"PART-1-1",            97,      -7.50661,       22.4446,            0.,NA,NA,"",   122.548E-03,   121.775E-03,  -13.7389E-03,   160.386E-12
C:/temp/dataset/2/15_8.odb,Step-1,Increment      1: Step Time =    1.000,"PART-1-1",            98,      -2.53392,       22.4091,            0.,NA,NA,"",   124.828E-03,   121.653E-03,  -27.9740E-03,   254.963E-12
C:/temp/dataset/2/15_8.odb,Step-1,Increment      1: Step Time =    1.000,"PART-1-1",            99,  -19.7467E-03,       27.3919,            0.,NA,NA,"",   140.390E-03,   135.907E-03,  -35.1917E-03,   354.850E-12
C:/temp/dataset/2/15_8.odb,Step-1,Increment      1: Step Time =    1.000,"PART-1-1",           100,       2.31326,       22.2671,            0.,NA,NA,"",   128.247E-03,   121.227E-03,  -41.8494E-03,   483.319E-12
C:/temp/dataset/2/15_8.odb,Step-1,Increment      1: Step Time =    1.000,"PART-1-1",           101,       7.89882,       27.4278,            0.,NA,NA,"",   147.776E-03,   135.977E-03,  -57.8602E-03,   532.636E-12
C:/temp/dataset/2/15_8.odb,Step-1,Increment      1: Step Time =    1.000,"PART-1-1",           102,       6.74061,       20.0564,            0.,NA,NA,"",   127.159E-03,   114.880E-03,  -54.5144E-03,   456.831E-12
C:/temp/dataset/2/15_8.odb,Step-1,Increment      1: Step Time =    1.000,"PART-1-1",           103,       6.76082,       17.7755,            0.,NA,NA,"",   121.313E-03,   108.351E-03,  -54.5629E-03,   919.512E-12
C:/temp/dataset/2/15_8.odb,Step-1,Increment      1: Step Time =    1.000,"PART-1-1",           104,       7.34933,       13.0959,            0.,NA,NA,"",   110.352E-03,   94.9519E-03,  -56.2285E-03,   794.629E-12
C:/temp/dataset/2/15_8.odb,Step-1,Increment      1: Step Time =    1.000,"PART-1-1",           105,       12.5251,      -2.17932,            0.,NA,NA,"",   87.5226E-03,   51.2027E-03,  -70.9823E-03,   820.358E-12
C:/temp/dataset/2/15_8.odb,Step-1,Increment      1: Step Time =    1.000,"PART-1-1",           106,       11.8446,      -24.9441,            0.,NA,NA,"",   8.64961E-03,   8.61038E-03,  -822.886E-06,   480.537E-06
C:/temp/dataset/2/15_8.odb,Step-1,Increment      1: Step Time =    1.000,"PART-1-1",           107,       2.44158,      -2.66949,            0.,NA,NA,"",   65.2515E-03,   49.8409E-03,  -42.1146E-03,   15.9347E-09
C:/temp/dataset/2/15_8.odb,Step-1,Increment      1: Step Time =    1.000,"PART-1-1",           108,       7.46163,      -2.37632,            0.,NA,NA,"",   75.8757E-03,   50.6596E-03,  -56.4866E-03,   1.18145E-09
C:/temp/dataset/2/15_8.odb,Step-1,Increment      1: Step Time =    1.000,"PART-1-1",           109,       7.48217,       7.95809,            0.,NA,NA,"",   98.1896E-03,   80.2435E-03,  -56.5877E-03,   1.09289E-09
C:/temp/dataset/2/15_8.odb,Step-1,Increment      1: Step Time =    1.000,"PART-1-1",           110,      -5.01446,       22.4347,            0.,NA,NA,"",   123.513E-03,   121.736E-03,  -20.8731E-03,   206.280E-12
C:/temp/dataset/2/15_8.odb,Step-1,Increment      1: Step Time =    1.000,"PART-1-1",           111,  -75.1424E-03,       22.3615,            0.,NA,NA,"",   126.451E-03,   121.507E-03,  -35.0125E-03,   340.916E-12
C:/temp/dataset/2/15_8.odb,Step-1,Increment      1: Step Time =    1.000,"PART-1-1",           112,       4.50776,       22.1530,            0.,NA,NA,"",   130.120E-03,   120.891E-03,  -48.1311E-03,   409.025E-12
C:/temp/dataset/2/15_8.odb,Step-1,Increment      1: Step Time =    1.000,"PART-1-1",           113,       7.06405,       15.4904,            0.,NA,NA,"",   115.915E-03,   101.808E-03,  -55.4216E-03,   836.881E-12
C:/temp/dataset/2/15_8.odb,Step-1,Increment      1: Step Time =    1.000,"PART-1-1",           114,       7.46285,       10.5556,            0.,NA,NA,"",   104.330E-03,   87.6794E-03,  -56.5430E-03,   901.495E-12
C:/temp/dataset/2/15_8.odb,Step-1,Increment      1: Step Time =    1.000,"PART-1-1",           115,      -2.89738,      -2.05905,            0.,NA,NA,"",   58.1692E-03,   51.6103E-03,  -26.8334E-03,   166.873E-09
C:/temp/dataset/2/15_8.odb,Step-1,Increment      1: Step Time =    1.000,"PART-1-1",           116,      -7.61206,      -10.6629,            0.,NA,NA,"",   30.1367E-03,   27.0353E-03,  -13.3158E-03,   17.8700E-06
C:/temp/dataset/2/15_8.odb,Step-1,Increment      1: Step Time =    1.000,"PART-1-1",           117,      -6.85891,      -17.7385,            0.,NA,NA,"",   16.8840E-03,   7.70054E-03,  -15.0257E-03,   1.26458E-03
C:/temp/dataset/2/15_8.odb,Step-1,Increment      1: Step Time =    1.000,"PART-1-1",           118,       11.9280,      -27.4687,            0.,NA,NA,"",   6.18709E-03,   6.13468E-03,  -803.634E-06,   1.57699E-03
C:/temp/dataset/2/15_8.odb,Step-1,Increment      1: Step Time =    1.000,"PART-1-1",           119,      -7.44747,      -13.1413,            0.,NA,NA,"",   24.2995E-03,   20.0496E-03,  -13.7287E-03,   77.9388E-06
C:/temp/dataset/2/15_8.odb,Step-1,Increment      1: Step Time =    1.000,"PART-1-1",           120,      -7.13169,      -15.4658,            0.,NA,NA,"",   20.1127E-03,   13.7013E-03,  -14.7239E-03,   312.600E-06
C:/temp/dataset/2/15_8.odb,Step-1,Increment      1: Step Time =    1.000,"PART-1-1",           121,      -8.02089,      -5.87394,            0.,NA,NA,"",   42.4857E-03,   40.7097E-03,  -12.1557E-03,   2.98910E-06
C:/temp/dataset/2/15_8.odb,Step-1,Increment      1: Step Time =    1.000,"PART-1-1",           122,      -7.74476,      -8.18529,            0.,NA,NA,"",   36.4670E-03,   34.0954E-03,  -12.9362E-03,   4.40830E-06
C:/temp/dataset/2/15_8.odb,Step-1,Increment      1: Step Time =    1.000,"PART-1-1",           123,  -21.3834E-03,      -2.74811,            0.,NA,NA,"",   60.7634E-03,   49.6259E-03,  -35.0636E-03,   55.3243E-09
C:/temp/dataset/2/15_8.odb,Step-1,Increment      1: Step Time =    1.000,"PART-1-1",           124,       4.94012,      -2.49525,            0.,NA,NA,"",   70.4299E-03,   50.3294E-03,  -49.2678E-03,   5.46566E-09
C:/temp/dataset/2/15_8.odb,Step-1,Increment      1: Step Time =    1.000,"PART-1-1",           125,       10.0127,      -2.27482,            0.,NA,NA,"",   81.6333E-03,   50.9397E-03,  -63.7899E-03,   1.00197E-09
C:/temp/dataset/2/15_8.odb,Step-1,Increment      1: Step Time =    1.000,"PART-1-1",           126,       10.2967,       27.4669,            0.,NA,NA,"",   150.688E-03,   136.079E-03,  -64.7248E-03,   498.513E-12
C:/temp/dataset/2/15_8.odb,Step-1,Increment      1: Step Time =    1.000,"PART-1-1",           127,       12.6750,       27.3103,            0.,NA,NA,"",   153.330E-03,   135.621E-03,  -71.5324E-03,   331.189E-12
C:/temp/dataset/2/15_8.odb,Step-1,Increment      1: Step Time =    1.000,"PART-1-1",           128,       2.52543,       27.2659,            0.,NA,NA,"",   142.036E-03,   135.536E-03,  -42.4772E-03,   379.163E-12
C:/temp/dataset/2/15_8.odb,Step-1,Increment      1: Step Time =    1.000,"PART-1-1",           129,       5.32711,       26.8707,            0.,NA,NA,"",   143.566E-03,   134.393E-03,  -50.4959E-03,   437.709E-12
C:/temp/dataset/2/15_8.odb,Step-1,Increment      1: Step Time =    1.000,"PART-1-1",           130,      -5.00948,       27.4462,            0.,NA,NA,"",   137.680E-03,   136.083E-03,  -20.9079E-03,   268.523E-12
C:/temp/dataset/2/15_8.odb,Step-1,Increment      1: Step Time =    1.000,"PART-1-1",           131,      -2.51658,       27.4324,            0.,NA,NA,"",   138.894E-03,   136.033E-03,  -28.0442E-03,   314.735E-12
C:/temp/dataset/2/15_8.odb,Step-1,Increment      1: Step Time =    1.000,"PART-1-1",           132,      -9.99211,       27.4668,            0.,NA,NA,"",   136.324E-03,   136.162E-03,  -6.64430E-03,   176.357E-12
C:/temp/dataset/2/15_8.odb,Step-1,Increment      1: Step Time =    1.000,"PART-1-1",           133,       12.5029,       21.6680,            0.,NA,NA,"",   138.984E-03,   119.470E-03,  -71.0165E-03,   671.556E-12
C:/temp/dataset/2/15_8.odb,Step-1,Increment      1: Step Time =    1.000,"PART-1-1",           134,      -12.7198,      -9.27859,            0.,NA,NA,"",   31.0018E-03,   30.9741E-03,   1.31184E-03,   4.06158E-06
C:/temp/dataset/2/15_8.odb,Step-1,Increment      1: Step Time =    1.000,"PART-1-1",           135,      -12.2206,      -21.4876,            0.,NA,NA,"",   4.45500E-03,  -4.45500E-03,   205.088E-09,   525.246E-06
C:/temp/dataset/2/15_8.odb,Step-1,Increment      1: Step Time =    1.000,"PART-1-1",           136,       12.4390,       11.8581,            0.,NA,NA,"",   115.600E-03,   91.3875E-03,  -70.7935E-03,   825.282E-12
C:/temp/dataset/2/15_8.odb,Step-1,Increment      1: Step Time =    1.000,"PART-1-1",           137,      -12.6285,      -12.0158,            0.,NA,NA,"",   23.0939E-03,   23.0694E-03,   1.06351E-03,   29.8983E-06
C:/temp/dataset/2/15_8.odb,Step-1,Increment      1: Step Time =    1.000,"PART-1-1",           138,      -12.4213,      -14.8709,            0.,NA,NA,"",   14.6727E-03,   14.6635E-03,   521.085E-06,   157.486E-06
C:/temp/dataset/2/15_8.odb,Step-1,Increment      1: Step Time =    1.000,"PART-1-1",           139,       12.2989,       14.8029,            0.,NA,NA,"",   122.150E-03,   99.8184E-03,  -70.4046E-03,   723.895E-12
C:/temp/dataset/2/15_8.odb,Step-1,Increment      1: Step Time =    1.000,"PART-1-1",           140,       11.7182,       18.2155,            0.,NA,NA,"",   129.373E-03,   109.590E-03,  -68.7561E-03,   575.843E-12
C:/temp/dataset/2/15_8.odb,Step-1,Increment      1: Step Time =    1.000,"PART-1-1",           141,      -12.3380,      -4.01281,            0.,NA,NA,"",   46.0601E-03,   46.0597E-03,   197.452E-06,   1.77050E-06
C:/temp/dataset/2/15_8.odb,Step-1,Increment      1: Step Time =    1.000,"PART-1-1",           142,       12.5089,       6.21106,            0.,NA,NA,"",   103.417E-03,   75.2217E-03,  -70.9704E-03,   980.321E-12
C:/temp/dataset/2/15_8.odb,Step-1,Increment      1: Step Time =    1.000,"PART-1-1",           143,      -10.9765,      -1.21375,            0.,NA,NA,"",   54.1919E-03,   54.0647E-03,  -3.71108E-03,   672.839E-09
C:/temp/dataset/2/15_8.odb,Step-1,Increment      1: Step Time =    1.000,"PART-1-1",           144,      -11.4273,       2.02370,            0.,NA,NA,"",   63.3800E-03,   63.3333E-03,  -2.43316E-03,   115.259E-09
C:/temp/dataset/2/15_8.odb,Step-1,Increment      1: Step Time =    1.000,"PART-1-1",           145,      -12.7154,      -6.64001,            0.,NA,NA,"",   38.5625E-03,   38.5410E-03,   1.28810E-03,   3.46765E-06
C:/temp/dataset/2/15_8.odb,Step-1,Increment      1: Step Time =    1.000,"PART-1-1",           146,      -11.7762,      -18.1315,            0.,NA,NA,"",   4.92476E-03,   4.83850E-03,  -917.692E-06,   521.533E-06
C:/temp/dataset/2/15_8.odb,Step-1,Increment      1: Step Time =    1.000,"PART-1-1",           147,      -12.2481,      -24.4184,            0.,NA,NA,"",   8.56113E-03,  -8.55493E-03,  -325.871E-06,   397.964E-06
C:/temp/dataset/2/15_8.odb,Step-1,Increment      1: Step Time =    1.000,"PART-1-1",           148,       12.5340,       3.42208,            0.,NA,NA,"",   97.8074E-03,   67.2377E-03,  -71.0308E-03,   1.05214E-09
C:/temp/dataset/2/15_8.odb,Step-1,Increment      1: Step Time =    1.000,"PART-1-1",           149,       12.5428,   630.306E-03,            0.,NA,NA,"",   92.5061E-03,   59.2457E-03,  -71.0446E-03,   1.08305E-09
C:/temp/dataset/2/15_8.odb,Step-1,Increment      1: Step Time =    1.000,"PART-1-1",           150,       12.5001,       9.03097,            0.,NA,NA,"",   109.420E-03,   83.2943E-03,  -70.9568E-03,   912.746E-12
C:/temp/dataset/2/15_8.odb,Step-1,Increment      1: Step Time =    1.000,"PART-1-1",           151,       12.7192,       24.5718,            0.,NA,NA,"",   146.498E-03,   127.782E-03,  -71.6476E-03,   532.478E-12
C:/temp/dataset/2/15_8.odb,Step-1,Increment      1: Step Time =    1.000,"PART-1-1",           152,       2.66783,      -27.4286,            0.,NA,NA,"",   10.8434E-03,   4.56513E-03,  -9.83562E-03,   5.23999E-03
C:/temp/dataset/2/15_8.odb,Step-1,Increment      1: Step Time =    1.000,"PART-1-1",           153,       8.86089,      -27.4494,            0.,NA,NA,"",   7.61048E-03,   7.25874E-03,  -2.28695E-03,   2.21907E-03
C:/temp/dataset/2/15_8.odb,Step-1,Increment      1: Step Time =    1.000,"PART-1-1",           154,       5.76511,      -27.4328,            0.,NA,NA,"",   9.53236E-03,   7.47375E-03,  -5.91683E-03,   3.59786E-03
C:/temp/dataset/2/15_8.odb,Step-1,Increment      1: Step Time =    1.000,"PART-1-1",           155,  -414.647E-03,      -27.4330,            0.,NA,NA,"",   11.1156E-03,  -625.584E-06,  -11.0979E-03,   5.80194E-03
C:/temp/dataset/2/15_8.odb,Step-1,Increment      1: Step Time =    1.000,"PART-1-1",           156,      -3.42691,      -27.4460,            0.,NA,NA,"",   10.4279E-03,  -5.25338E-03,  -9.00791E-03,   4.89021E-03
C:/temp/dataset/2/15_8.odb,Step-1,Increment      1: Step Time =    1.000,"PART-1-1",           157,      -6.36574,      -27.4272,            0.,NA,NA,"",   9.17248E-03,  -7.37799E-03,  -5.44975E-03,   3.37072E-03
C:/temp/dataset/2/15_8.odb,Step-1,Increment      1: Step Time =    1.000,"PART-1-1",           158,       10.5238,       25.0033,            0.,NA,NA,"",   144.638E-03,   129.026E-03,  -65.3647E-03,   589.842E-12
C:/temp/dataset/2/15_8.odb,Step-1,Increment      1: Step Time =    1.000,"PART-1-1",           159,       6.26912,       22.1485,            0.,NA,NA,"",   132.050E-03,   120.871E-03,  -53.1732E-03,   552.420E-12
C:/temp/dataset/2/15_8.odb,Step-1,Increment      1: Step Time =    1.000,"PART-1-1",           160,      -5.96402,      -2.70245,            0.,NA,NA,"",   52.9527E-03,   49.7806E-03,  -18.0520E-03,   821.413E-09
C:/temp/dataset/2/15_8.odb,Step-1,Increment      1: Step Time =    1.000,"PART-1-1",           161,      -12.5033,       22.4816,            0.,NA,NA,"",   121.903E-03,   121.902E-03,   564.754E-06,   103.818E-12
C:/temp/dataset/2/15_8.odb,Step-1,Increment      1: Step Time =    1.000,"PART-1-1",           162,      -2.53325,       24.9024,            0.,NA,NA,"",   131.796E-03,   128.791E-03,  -27.9862E-03,   147.487E-12
C:/temp/dataset/2/15_8.odb,Step-1,Increment      1: Step Time =    1.000,"PART-1-1",           163,       4.43197,       24.4161,            0.,NA,NA,"",   136.087E-03,   127.370E-03,  -47.9234E-03,   242.485E-12
C:/temp/dataset/2/15_8.odb,Step-1,Increment      1: Step Time =    1.000,"PART-1-1",           164,      -10.2797,      -8.84555,            0.,NA,NA,"",   32.7115E-03,   32.2137E-03,  -5.68500E-03,   5.56821E-06
C:/temp/dataset/2/15_8.odb,Step-1,Increment      1: Step Time =    1.000,"PART-1-1",           165,       2.21534,  -332.134E-03,            0.,NA,NA,"",   70.1161E-03,   56.5329E-03,  -41.4765E-03,   18.3245E-09
C:/temp/dataset/2/15_8.odb,Step-1,Increment      1: Step Time =    1.000,"PART-1-1",           166,  -74.2209E-03,       24.8536,            0.,NA,NA,"",   133.324E-03,   128.641E-03,  -35.0254E-03,   135.869E-12
C:/temp/dataset/2/15_8.odb,Step-1,Increment      1: Step Time =    1.000,"PART-1-1",           167,       2.30693,       24.7164,            0.,NA,NA,"",   134.892E-03,   128.238E-03,  -41.8413E-03,   165.300E-12
C:/temp/dataset/2/15_8.odb,Step-1,Increment      1: Step Time =    1.000,"PART-1-1",           168,       9.79368,       13.9045,            0.,NA,NA,"",   116.004E-03,   97.2568E-03,  -63.2292E-03,   157.949E-12
C:/temp/dataset/2/15_8.odb,Step-1,Increment      1: Step Time =    1.000,"PART-1-1",           169,       9.30777,       16.4521,            0.,NA,NA,"",   121.475E-03,   104.552E-03,  -61.8486E-03,   172.770E-12
C:/temp/dataset/2/15_8.odb,Step-1,Increment      1: Step Time =    1.000,"PART-1-1",           170,      -2.35985,       1.11806,            0.,NA,NA,"",   67.0119E-03,   60.7031E-03,  -28.3852E-03,   40.0364E-09
C:/temp/dataset/2/15_8.odb,Step-1,Increment      1: Step Time =    1.000,"PART-1-1",           171,      -9.94133,      -13.9778,            0.,NA,NA,"",   18.6707E-03,   17.5081E-03,  -6.48547E-03,   133.152E-06
C:/temp/dataset/2/15_8.odb,Step-1,Increment      1: Step Time =    1.000,"PART-1-1",           172,       4.80988,   33.7751E-03,            0.,NA,NA,"",   75.5381E-03,   57.5697E-03,  -48.9053E-03,   6.39281E-09
C:/temp/dataset/2/15_8.odb,Step-1,Increment      1: Step Time =    1.000,"PART-1-1",           173,       9.94126,       11.1894,            0.,NA,NA,"",   109.806E-03,   89.4837E-03,  -63.6405E-03,   158.376E-12
C:/temp/dataset/2/15_8.odb,Step-1,Increment      1: Step Time =    1.000,"PART-1-1",           174,       7.43598,   226.782E-03,            0.,NA,NA,"",   80.9974E-03,   58.1115E-03,  -56.4238E-03,   2.39864E-09
C:/temp/dataset/2/15_8.odb,Step-1,Increment      1: Step Time =    1.000,"PART-1-1",           175,      -7.50368,       24.9336,            0.,NA,NA,"",   129.633E-03,   128.900E-03,  -13.7575E-03,   149.834E-12
C:/temp/dataset/2/15_8.odb,Step-1,Increment      1: Step Time =    1.000,"PART-1-1",           176,      -10.1536,      -11.3797,            0.,NA,NA,"",   25.6758E-03,   24.9591E-03,  -6.02405E-03,   27.7344E-06
C:/temp/dataset/2/15_8.odb,Step-1,Increment      1: Step Time =    1.000,"PART-1-1",           177,       6.92724,       24.6415,            0.,NA,NA,"",   139.347E-03,   128.005E-03,  -55.0675E-03,   501.755E-12
C:/temp/dataset/2/15_8.odb,Step-1,Increment      1: Step Time =    1.000,"PART-1-1",           178,      -9.99868,       24.9580,            0.,NA,NA,"",   129.150E-03,   128.981E-03,  -6.61521E-03,   155.659E-12
C:/temp/dataset/2/15_8.odb,Step-1,Increment      1: Step Time =    1.000,"PART-1-1",           179,       8.37028,       18.0705,            0.,NA,NA,"",   124.191E-03,   109.188E-03,  -59.1715E-03,   243.497E-12
C:/temp/dataset/2/15_8.odb,Step-1,Increment      1: Step Time =    1.000,"PART-1-1",           180,      -10.4068,      -6.54987,            0.,NA,NA,"",   39.1520E-03,   38.7879E-03,  -5.32754E-03,   3.46523E-06
C:/temp/dataset/2/15_8.odb,Step-1,Increment      1: Step Time =    1.000,"PART-1-1",           181,      -8.52723,      -17.8680,            0.,NA,NA,"",   11.7965E-03,   6.74874E-03,  -9.67527E-03,   843.115E-06
C:/temp/dataset/2/15_8.odb,Step-1,Increment      1: Step Time =    1.000,"PART-1-1",           182,       9.99063,       8.47585,            0.,NA,NA,"",   103.654E-03,   81.7154E-03,  -63.7707E-03,   208.745E-12
C:/temp/dataset/2/15_8.odb,Step-1,Increment      1: Step Time =    1.000,"PART-1-1",           183,      -6.87511,      -22.3968,            0.,NA,NA,"",   14.8753E-03,  -8.04536E-03,  -12.5119E-03,   1.96190E-03
C:/temp/dataset/2/15_8.odb,Step-1,Increment      1: Step Time =    1.000,"PART-1-1",           184,       7.48189,       5.34092,            0.,NA,NA,"",   92.1609E-03,   72.7514E-03,  -56.5762E-03,   891.051E-12
C:/temp/dataset/2/15_8.odb,Step-1,Increment      1: Step Time =    1.000,"PART-1-1",           185,       10.0207,   425.902E-03,            0.,NA,NA,"",   86.6935E-03,   58.6709E-03,  -63.8239E-03,   1.26508E-09
C:/temp/dataset/2/15_8.odb,Step-1,Increment      1: Step Time =    1.000,"PART-1-1",           186,      -8.86720,      -3.63325,            0.,NA,NA,"",   48.1245E-03,   47.1284E-03,  -9.74050E-03,   1.66439E-06
C:/temp/dataset/2/15_8.odb,Step-1,Increment      1: Step Time =    1.000,"PART-1-1",           187,       10.0155,       5.77118,            0.,NA,NA,"",   97.7053E-03,   73.9727E-03,  -63.8307E-03,   470.593E-12
C:/temp/dataset/2/15_8.odb,Step-1,Increment      1: Step Time =    1.000,"PART-1-1",           188,       9.07540,       20.2179,            0.,NA,NA,"",   130.564E-03,   115.333E-03,  -61.1988E-03,   404.680E-12
C:/temp/dataset/2/15_8.odb,Step-1,Increment      1: Step Time =    1.000,"PART-1-1",           189,       5.51479,      -24.9218,            0.,NA,NA,"",   16.5761E-03,   10.4461E-03,  -12.8703E-03,   4.06085E-03
C:/temp/dataset/2/15_8.odb,Step-1,Increment      1: Step Time =    1.000,"PART-1-1",           190,       2.33502,      -24.9114,            0.,NA,NA,"",   23.2725E-03,   5.66492E-03,  -22.5725E-03,   6.42302E-03
C:/temp/dataset/2/15_8.odb,Step-1,Increment      1: Step Time =    1.000,"PART-1-1",           191,      -3.83494,      -24.9465,            0.,NA,NA,"",   20.1647E-03,  -8.18436E-03,  -18.4291E-03,   5.32416E-03
C:/temp/dataset/2/15_8.odb,Step-1,Increment      1: Step Time =    1.000,"PART-1-1",           192,       8.68706,      -24.9229,            0.,NA,NA,"",   10.7861E-03,   10.0065E-03,  -4.02632E-03,   1.70859E-03
C:/temp/dataset/2/15_8.odb,Step-1,Increment      1: Step Time =    1.000,"PART-1-1",           193,  -793.545E-03,      -24.9263,            0.,NA,NA,"",   24.5386E-03,  -1.91957E-03,  -24.4634E-03,   6.81978E-03
C:/temp/dataset/2/15_8.odb,Step-1,Increment      1: Step Time =    1.000,"PART-1-1",           194,      -10.0041,       22.4687,            0.,NA,NA,"",   122.033E-03,   121.855E-03,  -6.58955E-03,   122.123E-12
C:/temp/dataset/2/15_8.odb,Step-1,Increment      1: Step Time =    1.000,"PART-1-1",           195,       7.76291,       22.5689,            0.,NA,NA,"",   134.912E-03,   122.069E-03,  -57.4512E-03,   561.294E-12
C:/temp/dataset/2/15_8.odb,Step-1,Increment      1: Step Time =    1.000,"PART-1-1",           196,       10.0314,       3.09975,            0.,NA,NA,"",   92.0751E-03,   66.3252E-03,  -63.8654E-03,   1.11581E-09
C:/temp/dataset/2/15_8.odb,Step-1,Increment      1: Step Time =    1.000,"PART-1-1",           197,       7.45157,       2.78517,            0.,NA,NA,"",   86.4386E-03,   65.4353E-03,  -56.4789E-03,   2.25962E-09
C:/temp/dataset/2/15_8.odb,Step-1,Increment      1: Step Time =    1.000,"PART-1-1",           198,       1.23926,       2.17480,            0.,NA,NA,"",   74.5420E-03,   63.7134E-03,  -38.6926E-03,   19.5510E-09
C:/temp/dataset/2/15_8.odb,Step-1,Increment      1: Step Time =    1.000,"PART-1-1",           199,       5.89388,       23.8379,            0.,NA,NA,"",   136.080E-03,   125.709E-03,  -52.1060E-03,   414.894E-12
C:/temp/dataset/2/15_8.odb,Step-1,Increment      1: Step Time =    1.000,"PART-1-1",           200,       4.70825,       2.52712,            0.,NA,NA,"",   80.9410E-03,   64.7078E-03,  -48.6246E-03,   5.83481E-09
C:/temp/dataset/2/15_8.odb,Step-1,Increment      1: Step Time =    1.000,"PART-1-1",           201,      -6.67563,      -24.8783,            0.,NA,NA,"",   14.1990E-03,  -10.1267E-03,  -9.95303E-03,   3.04659E-03
C:/temp/dataset/2/15_8.odb,Step-1,Increment      1: Step Time =    1.000,"PART-1-1",           202,      -1.93740,       2.90022,            0.,NA,NA,"",   72.1548E-03,   65.8031E-03,  -29.6018E-03,   18.3648E-09
C:/temp/dataset/2/15_8.odb,Step-1,Increment      1: Step Time =    1.000,"PART-1-1",           203,      -4.27328,      -22.5070,            0.,NA,NA,"",   28.0234E-03,  -7.88836E-03,  -26.8902E-03,   5.93482E-03
C:/temp/dataset/2/15_8.odb,Step-1,Increment      1: Step Time =    1.000,"PART-1-1",           204,      -7.29195,  -216.826E-03,            0.,NA,NA,"",   58.6621E-03,   56.9021E-03,  -14.2616E-03,   412.141E-09
C:/temp/dataset/2/15_8.odb,Step-1,Increment      1: Step Time =    1.000,"PART-1-1",           205,      -4.39370,   432.763E-03,            0.,NA,NA,"",   62.9324E-03,   58.7497E-03,  -22.5603E-03,   153.813E-09
C:/temp/dataset/2/15_8.odb,Step-1,Increment      1: Step Time =    1.000,"PART-1-1",           206,      -1.20581,      -22.4416,            0.,NA,NA,"",   39.5081E-03,  -2.38346E-03,  -39.4361E-03,   7.27119E-03
C:/temp/dataset/2/15_8.odb,Step-1,Increment      1: Step Time =    1.000,"PART-1-1",           207,      -4.88725,       2.78210,            0.,NA,NA,"",   68.8103E-03,   65.4770E-03,  -21.1572E-03,   52.1398E-09
C:/temp/dataset/2/15_8.odb,Step-1,Increment      1: Step Time =    1.000,"PART-1-1",           208,      -8.02678,       2.39768,            0.,NA,NA,"",   65.5293E-03,   64.3895E-03,  -12.1688E-03,   133.896E-09
C:/temp/dataset/2/15_8.odb,Step-1,Increment      1: Step Time =    1.000,"PART-1-1",           209,       8.51144,      -22.4401,            0.,NA,NA,"",   9.37727E-03,   8.10269E-03,  -4.72013E-03,   1.01122E-03
C:/temp/dataset/2/15_8.odb,Step-1,Increment      1: Step Time =    1.000,"PART-1-1",           210,       5.25488,      -22.4306,            0.,NA,NA,"",   22.5629E-03,   9.06576E-03,  -20.6615E-03,   5.11723E-03
C:/temp/dataset/2/15_8.odb,Step-1,Increment      1: Step Time =    1.000,"PART-1-1",           211,       2.00226,      -22.4217,            0.,NA,NA,"",   38.4054E-03,   3.94689E-03,  -38.2020E-03,   7.60251E-03
C:/temp/dataset/2/15_8.odb,Step-1,Increment      1: Step Time =    1.000,"PART-1-1",           212,      -9.28570,      -27.3600,            0.,NA,NA,"",   7.74570E-03,  -7.36533E-03,  -2.39746E-03,   2.14276E-03
C:/temp/dataset/2/15_8.odb,Step-1,Increment      1: Step Time =    1.000,"PART-1-1",           213,       11.7596,      -22.4488,            0.,NA,NA,"",   7.37649E-03,   7.34147E-03,  -717.917E-06,   480.369E-06
C:/temp/dataset/2/15_8.odb,Step-1,Increment      1: Step Time =    1.000,"PART-1-1",           214,      -12.4952,       27.4851,            0.,NA,NA,"",   136.226E-03,   136.225E-03,   521.199E-06,   132.825E-12
C:/temp/dataset/2/15_8.odb,Step-1,Increment      1: Step Time =    1.000,"PART-1-1",           215,      -12.1608,      -27.2494,            0.,NA,NA,"",   6.80900E-03,  -6.77732E-03,  -656.040E-06,   1.61703E-03
C:/temp/dataset/2/15_8.odb,Step-1,Increment      1: Step Time =    1.000,"PART-1-1",           216,      -6.92277,      -20.0189,            0.,NA,NA,"",   13.8693E-03,   167.837E-06,  -13.8683E-03,   1.39324E-03
C:/temp/dataset/2/15_8.odb,Step-1,Increment      1: Step Time =    1.000,"PART-1-1",           217,       10.3403,       22.5364,            0.,NA,NA,"",   138.124E-03,   121.965E-03,  -64.8292E-03,   604.788E-12
C:/temp/dataset/2/15_8.odb,Step-1,Increment      1: Step Time =    1.000,"PART-1-1",           218,      -9.38591,      -16.3373,            0.,NA,NA,"",   13.2818E-03,   10.8378E-03,  -7.67787E-03,   397.400E-06
C:/temp/dataset/2/15_8.odb,Step-1,Increment      1: Step Time =    1.000,"PART-1-1",           219,      -9.56004,      -22.0160,            0.,NA,NA,"",   7.72184E-03,  -5.99756E-03,  -4.86376E-03,   633.688E-06
C:/temp/dataset/2/15_8.odb,Step-1,Increment      1: Step Time =    1.000,"PART-1-1",           220,      -9.49058,      -24.6874,            0.,NA,NA,"",   10.2444E-03,  -9.47523E-03,  -3.89459E-03,   1.31558E-03
C:/temp/dataset/2/15_8.odb,Step-1,Increment      1: Step Time =    1.000,"PART-1-1",           221,  -968.003E-03,   33.9082E-03,            0.,NA,NA,"",   66.0648E-03,   57.5939E-03,  -32.3651E-03,   31.1659E-09
C:/temp/dataset/2/15_8.odb,Step-1,Increment      1: Step Time =    1.000,"PART-1-1",           222,   333.674E-03,      -1.00763,            0.,NA,NA,"",   65.4538E-03,   54.6069E-03,  -36.0871E-03,   16.3386E-09
C:/temp/dataset/2/15_8.odb,Step-1,Increment      1: Step Time =    1.000,"PART-1-1",           223,      -10.5623,      -4.72446,            0.,NA,NA,"",   44.2840E-03,   44.0137E-03,  -4.88569E-03,   2.17428E-06
C:/temp/dataset/2/15_8.odb,Step-1,Increment      1: Step Time =    1.000,"PART-1-1",           224,      -5.01319,       24.9269,            0.,NA,NA,"",   130.553E-03,   128.871E-03,  -20.8870E-03,   148.843E-12
C:/temp/dataset/2/15_8.odb,Step-1,Increment      1: Step Time =    1.000,"PART-1-1",           225,      -9.24174,      -19.5473,            0.,NA,NA,"",   6.71708E-03,   1.08511E-03,  -6.62886E-03,   789.968E-06
C:/temp/dataset/2/15_8.odb,Step-1,Increment      1: Step Time =    1.000,"PART-1-1",           226,       8.53639,       25.1316,            0.,NA,NA,"",   142.499E-03,   129.402E-03,  -59.6760E-03,   592.175E-12
C:/temp/dataset/2/15_8.odb,Step-1,Increment      1: Step Time =    1.000,"PART-1-1",           227,       8.85572,       23.3093,            0.,NA,NA,"",   138.173E-03,   124.183E-03,  -60.5826E-03,   596.050E-12
C:/temp/dataset/2/15_8.odb,Step-1,Increment      1: Step Time =    1.000,"PART-1-1",           228,      -13.7516,       22.4908,            0.,NA,NA,"",   122.003E-03,   121.933E-03,   4.13840E-03,   133.476E-12
C:/temp/dataset/2/15_8.odb,Step-1,Increment      1: Step Time =    1.000,"PART-1-1",           229,          -15.,         21.25,            0.,NA,NA,"",   118.637E-03,   118.386E-03,   7.71718E-03,   136.070E-12
C:/temp/dataset/2/15_8.odb,Step-1,Increment      1: Step Time =    1.000,"PART-1-1",           230,        -13.75,           20.,            0.,NA,NA,"",   114.877E-03,   114.803E-03,   4.14395E-03,   97.4497E-12
C:/temp/dataset/2/15_8.odb,Step-1,Increment      1: Step Time =    1.000,"PART-1-1",           231,      -12.5016,       21.2408,            0.,NA,NA,"",   118.351E-03,   118.350E-03,   565.172E-06,   66.4333E-12
C:/temp/dataset/2/15_8.odb,Step-1,Increment      1: Step Time =    1.000,"PART-1-1",           232,      -9.99605,       28.7334,            0.,NA,NA,"",   139.946E-03,   139.788E-03,  -6.63820E-03,   207.360E-12
C:/temp/dataset/2/15_8.odb,Step-1,Increment      1: Step Time =    1.000,"PART-1-1",           233,        -11.25,           30.,            0.,NA,NA,"",   143.452E-03,   143.419E-03,  -3.05374E-03,   223.713E-12
C:/temp/dataset/2/15_8.odb,Step-1,Increment      1: Step Time =    1.000,"PART-1-1",           234,      -12.4976,       28.7426,            0.,NA,NA,"",   139.826E-03,   139.825E-03,   522.907E-06,   137.539E-12
C:/temp/dataset/2/15_8.odb,Step-1,Increment      1: Step Time =    1.000,"PART-1-1",           235,      -11.2437,       27.4760,            0.,NA,NA,"",   136.228E-03,   136.194E-03,  -3.06155E-03,   150.733E-12
C:/temp/dataset/2/15_8.odb,Step-1,Increment      1: Step Time =    1.000,"PART-1-1",           236,      -8.74541,       27.4572,            0.,NA,NA,"",   136.512E-03,   136.130E-03,  -10.2132E-03,   198.624E-12
C:/temp/dataset/2/15_8.odb,Step-1,Increment      1: Step Time =    1.000,"PART-1-1",           237,      -7.49936,       28.7238,            0.,NA,NA,"",   140.429E-03,   139.750E-03,  -13.7854E-03,   283.107E-12
C:/temp/dataset/2/15_8.odb,Step-1,Increment      1: Step Time =    1.000,"PART-1-1",           238,         -8.75,           30.,            0.,NA,NA,"",   143.772E-03,   143.409E-03,  -10.2104E-03,   316.013E-12
C:/temp/dataset/2/15_8.odb,Step-1,Increment      1: Step Time =    1.000,"PART-1-1",           239,      -10.0020,       21.2344,            0.,NA,NA,"",   118.504E-03,   118.321E-03,  -6.59033E-03,   136.873E-12
C:/temp/dataset/2/15_8.odb,Step-1,Increment      1: Step Time =    1.000,"PART-1-1",           240,      -11.2537,       22.4752,            0.,NA,NA,"",   121.915E-03,   121.878E-03,  -3.01240E-03,   104.559E-12
C:/temp/dataset/2/15_8.odb,Step-1,Increment      1: Step Time =    1.000,"PART-1-1",           241,        -11.25,           20.,            0.,NA,NA,"",   114.832E-03,   114.792E-03,  -3.01276E-03,   158.267E-12
C:/temp/dataset/2/15_8.odb,Step-1,Increment      1: Step Time =    1.000,"PART-1-1",           242,      -6.25410,       27.4469,            0.,NA,NA,"",   137.191E-03,   136.090E-03,  -17.3450E-03,   244.853E-12
C:/temp/dataset/2/15_8.odb,Step-1,Increment      1: Step Time =    1.000,"PART-1-1",           243,      -7.50120,       26.1906,            0.,NA,NA,"",   133.212E-03,   132.499E-03,  -13.7698E-03,   170.103E-12
C:/temp/dataset/2/15_8.odb,Step-1,Increment      1: Step Time =    1.000,"PART-1-1",           244,      -6.25844,       24.9303,            0.,NA,NA,"",   130.045E-03,   128.886E-03,  -17.3222E-03,   149.426E-12
C:/temp/dataset/2/15_8.odb,Step-1,Increment      1: Step Time =    1.000,"PART-1-1",           245,      -5.01133,       26.1865,            0.,NA,NA,"",   134.115E-03,   132.477E-03,  -20.8974E-03,   186.982E-12
C:/temp/dataset/2/15_8.odb,Step-1,Increment      1: Step Time =    1.000,"PART-1-1",           246,       1.11906,       22.3143,            0.,NA,NA,"",   127.306E-03,   121.367E-03,  -38.4309E-03,   349.928E-12
C:/temp/dataset/2/15_8.odb,Step-1,Increment      1: Step Time =    1.000,"PART-1-1",           247,  -37.5712E-03,       21.1808,            0.,NA,NA,"",   123.235E-03,   118.127E-03,  -35.1152E-03,   439.817E-12
C:/temp/dataset/2/15_8.odb,Step-1,Increment      1: Step Time =    1.000,"PART-1-1",           248,          1.25,           20.,            0.,NA,NA,"",   121.123E-03,   114.741E-03,  -38.7963E-03,   635.814E-12
C:/temp/dataset/2/15_8.odb,Step-1,Increment      1: Step Time =    1.000,"PART-1-1",           249,       2.40663,       21.1336,            0.,NA,NA,"",   125.272E-03,   117.981E-03,  -42.1120E-03,   552.950E-12
C:/temp/dataset/2/15_8.odb,Step-1,Increment      1: Step Time =    1.000,"PART-1-1",           250,  -46.9838E-03,       26.1228,            0.,NA,NA,"",   136.854E-03,   132.274E-03,  -35.1085E-03,   216.648E-12
C:/temp/dataset/2/15_8.odb,Step-1,Increment      1: Step Time =    1.000,"PART-1-1",           251,       1.11635,       24.7850,            0.,NA,NA,"",   134.067E-03,   128.440E-03,  -38.4333E-03,   134.595E-12
C:/temp/dataset/2/15_8.odb,Step-1,Increment      1: Step Time =    1.000,"PART-1-1",           252,       2.41618,       25.9912,            0.,NA,NA,"",   138.462E-03,   131.887E-03,  -42.1593E-03,   245.971E-12
C:/temp/dataset/2/15_8.odb,Step-1,Increment      1: Step Time =    1.000,"PART-1-1",           253,       1.25284,       27.3289,            0.,NA,NA,"",   141.168E-03,   135.722E-03,  -38.8345E-03,   364.945E-12
C:/temp/dataset/2/15_8.odb,Step-1,Increment      1: Step Time =    1.000,"PART-1-1",           254,       11.4216,       22.1022,            0.,NA,NA,"",   138.514E-03,   120.717E-03,  -67.9229E-03,   605.540E-12
C:/temp/dataset/2/15_8.odb,Step-1,Increment      1: Step Time =    1.000,"PART-1-1",           255,       9.70783,       21.3771,            0.,NA,NA,"",   134.344E-03,   118.649E-03,  -63.0140E-03,   495.040E-12
C:/temp/dataset/2/15_8.odb,Step-1,Increment      1: Step Time =    1.000,"PART-1-1",           256,       10.3968,       19.2167,            0.,NA,NA,"",   129.883E-03,   112.461E-03,  -64.9774E-03,   417.173E-12
C:/temp/dataset/2/15_8.odb,Step-1,Increment      1: Step Time =    1.000,"PART-1-1",           257,       12.1105,       19.9418,            0.,NA,NA,"",   134.169E-03,   114.530E-03,  -69.8863E-03,   627.968E-12
C:/temp/dataset/2/15_8.odb,Step-1,Increment      1: Step Time =    1.000,"PART-1-1",           258,       11.6215,       24.7876,            0.,NA,NA,"",   145.536E-03,   128.404E-03,  -68.5061E-03,   537.089E-12
C:/temp/dataset/2/15_8.odb,Step-1,Increment      1: Step Time =    1.000,"PART-1-1",           259,       12.6971,       25.9410,            0.,NA,NA,"",   149.901E-03,   131.702E-03,  -71.5900E-03,   420.609E-12
C:/temp/dataset/2/15_8.odb,Step-1,Increment      1: Step Time =    1.000,"PART-1-1",           260,       11.4859,       27.3886,            0.,NA,NA,"",   151.976E-03,   135.850E-03,  -68.1286E-03,   410.507E-12
C:/temp/dataset/2/15_8.odb,Step-1,Increment      1: Step Time =    1.000,"PART-1-1",           261,       10.4103,       26.2351,            0.,NA,NA,"",   147.652E-03,   132.553E-03,  -65.0447E-03,   532.750E-12
C:/temp/dataset/2/15_8.odb,Step-1,Increment      1: Step Time =    1.000,"PART-1-1",           262,       5.88041,       17.6377,            0.,NA,NA,"",   119.849E-03,   107.960E-03,  -52.0420E-03,   1.12924E-09
C:/temp/dataset/2/15_8.odb,Step-1,Increment      1: Step Time =    1.000,"PART-1-1",           263,       6.75071,       18.9160,            0.,NA,NA,"",   124.227E-03,   111.615E-03,  -54.5387E-03,   593.819E-12
C:/temp/dataset/2/15_8.odb,Step-1,Increment      1: Step Time =    1.000,"PART-1-1",           264,       5.87030,       20.0282,            0.,NA,NA,"",   126.040E-03,   114.803E-03,  -52.0229E-03,   996.549E-12
C:/temp/dataset/2/15_8.odb,Step-1,Increment      1: Step Time =    1.000,"PART-1-1",           265,            5.,         18.75,            0.,NA,NA,"",   121.682E-03,   111.147E-03,  -49.5262E-03,   1.62655E-09
C:/temp/dataset/2/15_8.odb,Step-1,Increment      1: Step Time =    1.000,"PART-1-1",           266,       12.3690,       13.3305,            0.,NA,NA,"",   118.845E-03,   95.6030E-03,  -70.5990E-03,   778.984E-12
C:/temp/dataset/2/15_8.odb,Step-1,Increment      1: Step Time =    1.000,"PART-1-1",           267,       13.7195,       12.1790,            0.,NA,NA,"",   118.591E-03,   92.3011E-03,  -74.4605E-03,   1.25093E-09
C:/temp/dataset/2/15_8.odb,Step-1,Increment      1: Step Time =    1.000,"PART-1-1",           268,           15.,       13.9583,            0.,NA,NA,"",   124.858E-03,   97.3895E-03,  -78.1334E-03,   1.60562E-09
C:/temp/dataset/2/15_8.odb,Step-1,Increment      1: Step Time =    1.000,"PART-1-1",           269,       13.6495,       15.1098,            0.,NA,NA,"",   125.120E-03,   100.691E-03,  -74.2720E-03,   1.12441E-09
C:/temp/dataset/2/15_8.odb,Step-1,Increment      1: Step Time =    1.000,"PART-1-1",           270,       12.5214,       4.81657,            0.,NA,NA,"",   100.572E-03,   71.2297E-03,  -71.0006E-03,   978.395E-12
C:/temp/dataset/2/15_8.odb,Step-1,Increment      1: Step Time =    1.000,"PART-1-1",           271,       13.7670,       3.58604,            0.,NA,NA,"",   100.712E-03,   67.7020E-03,  -74.5612E-03,   1.33440E-09
C:/temp/dataset/2/15_8.odb,Step-1,Increment      1: Step Time =    1.000,"PART-1-1",           272,           15.,       5.20833,            0.,NA,NA,"",   106.454E-03,   72.3410E-03,  -78.0975E-03,   1.87802E-09
C:/temp/dataset/2/15_8.odb,Step-1,Increment      1: Step Time =    1.000,"PART-1-1",           273,       13.7545,       6.43886,            0.,NA,NA,"",   106.357E-03,   75.8688E-03,  -74.5370E-03,   1.47139E-09
C:/temp/dataset/2/15_8.odb,Step-1,Increment      1: Step Time =    1.000,"PART-1-1",           274,       13.7625,      -2.13133,            0.,NA,NA,"",   90.4945E-03,   51.3351E-03,  -74.5250E-03,   510.852E-12
C:/temp/dataset/2/15_8.odb,Step-1,Increment      1: Step Time =    1.000,"PART-1-1",           275,       12.5125,      -3.58966,            0.,NA,NA,"",   85.1890E-03,   47.1654E-03,  -70.9407E-03,   470.349E-12
C:/temp/dataset/2/15_8.odb,Step-1,Increment      1: Step Time =    1.000,"PART-1-1",           276,         13.75,           -5.,            0.,NA,NA,"",   86.0609E-03,   43.1230E-03,  -74.4774E-03,   209.508E-12
C:/temp/dataset/2/15_8.odb,Step-1,Increment      1: Step Time =    1.000,"PART-1-1",           277,           15.,      -3.54167,            0.,NA,NA,"",   91.2700E-03,   47.2926E-03,  -78.0617E-03,   101.842E-12
C:/temp/dataset/2/15_8.odb,Step-1,Increment      1: Step Time =    1.000,"PART-1-1",           278,      -9.21387,      -6.21191,            0.,NA,NA,"",   40.6983E-03,   39.7483E-03,  -8.74203E-03,   2.67855E-06
C:/temp/dataset/2/15_8.odb,Step-1,Increment      1: Step Time =    1.000,"PART-1-1",           279,      -8.44405,      -4.75360,            0.,NA,NA,"",   45.2630E-03,   43.9189E-03,  -10.9484E-03,   2.21869E-06
C:/temp/dataset/2/15_8.odb,Step-1,Increment      1: Step Time =    1.000,"PART-1-1",           280,      -9.71477,      -4.17886,            0.,NA,NA,"",   46.1541E-03,   45.5710E-03,  -7.31337E-03,   1.88098E-06
C:/temp/dataset/2/15_8.odb,Step-1,Increment      1: Step Time =    1.000,"PART-1-1",           281,      -10.4846,      -5.63717,            0.,NA,NA,"",   41.7144E-03,   41.4007E-03,  -5.10636E-03,   2.61102E-06
C:/temp/dataset/2/15_8.odb,Step-1,Increment      1: Step Time =    1.000,"PART-1-1",           282,      -5.84282,   107.969E-03,            0.,NA,NA,"",   60.6859E-03,   57.8258E-03,  -18.4109E-03,   214.853E-09
C:/temp/dataset/2/15_8.odb,Step-1,Increment      1: Step Time =    1.000,"PART-1-1",           283,      -4.64047,       1.60743,            0.,NA,NA,"",   65.8473E-03,   62.1133E-03,  -21.8587E-03,   80.0482E-09
C:/temp/dataset/2/15_8.odb,Step-1,Increment      1: Step Time =    1.000,"PART-1-1",           284,      -6.45702,       2.58989,            0.,NA,NA,"",   67.0371E-03,   64.9332E-03,  -16.6629E-03,   79.3983E-09
C:/temp/dataset/2/15_8.odb,Step-1,Increment      1: Step Time =    1.000,"PART-1-1",           285,      -7.65937,       1.09043,            0.,NA,NA,"",   62.0690E-03,   60.6459E-03,  -13.2152E-03,   238.860E-09
C:/temp/dataset/2/15_8.odb,Step-1,Increment      1: Step Time =    1.000,"PART-1-1",           286,      -6.51044,      -5.43697,            0.,NA,NA,"",   45.0723E-03,   41.9532E-03,  -16.4756E-03,   1.89191E-06
C:/temp/dataset/2/15_8.odb,Step-1,Increment      1: Step Time =    1.000,"PART-1-1",           287,      -5.48201,      -3.85122,            0.,NA,NA,"",   50.3855E-03,   46.4900E-03,  -19.4264E-03,   1.18922E-06
C:/temp/dataset/2/15_8.odb,Step-1,Increment      1: Step Time =    1.000,"PART-1-1",           288,      -7.41561,      -3.16785,            0.,NA,NA,"",   50.4074E-03,   48.4541E-03,  -13.8962E-03,   1.00448E-06
C:/temp/dataset/2/15_8.odb,Step-1,Increment      1: Step Time =    1.000,"PART-1-1",           289,      -12.6742,      -10.6472,            0.,NA,NA,"",   27.0616E-03,   27.0356E-03,   1.18661E-03,   15.0430E-06
C:/temp/dataset/2/15_8.odb,Step-1,Increment      1: Step Time =    1.000,"PART-1-1",           290,      -11.3911,      -11.6978,            0.,NA,NA,"",   24.1390E-03,   24.0114E-03,  -2.47836E-03,   26.2904E-06
C:/temp/dataset/2/15_8.odb,Step-1,Increment      1: Step Time =    1.000,"PART-1-1",           291,      -10.2167,      -10.1126,            0.,NA,NA,"",   29.1799E-03,   28.5851E-03,  -5.86174E-03,   14.6722E-06
C:/temp/dataset/2/15_8.odb,Step-1,Increment      1: Step Time =    1.000,"PART-1-1",           292,      -11.4997,      -9.06207,            0.,NA,NA,"",   31.6709E-03,   31.5950E-03,  -2.19069E-03,   3.19179E-06
C:/temp/dataset/2/15_8.odb,Step-1,Increment      1: Step Time =    1.000,"PART-1-1",           293,      -13.7107,      -15.1438,            0.,NA,NA,"",   14.4412E-03,   13.8430E-03,   4.11324E-03,   103.407E-06
C:/temp/dataset/2/15_8.odb,Step-1,Increment      1: Step Time =    1.000,"PART-1-1",           294,      -12.5249,      -13.4434,            0.,NA,NA,"",   18.9153E-03,   18.8991E-03,   782.793E-06,   90.4833E-06
C:/temp/dataset/2/15_8.odb,Step-1,Increment      1: Step Time =    1.000,"PART-1-1",           295,      -13.8143,      -12.2579,            0.,NA,NA,"",   22.8072E-03,   22.3650E-03,   4.46953E-03,   15.0567E-06
C:/temp/dataset/2/15_8.odb,Step-1,Increment      1: Step Time =    1.000,"PART-1-1",           296,          -15.,      -13.9583,            0.,NA,NA,"",   19.0983E-03,   17.3899E-03,   7.89538E-03,   49.0863E-06
C:/temp/dataset/2/15_8.odb,Step-1,Increment      1: Step Time =    1.000,"PART-1-1",           297,      -12.0988,      -16.5012,            0.,NA,NA,"",   9.78539E-03,   9.78144E-03,  -278.127E-06,   332.837E-06
C:/temp/dataset/2/15_8.odb,Step-1,Increment      1: Step Time =    1.000,"PART-1-1",           298,      -10.5811,      -17.2344,            0.,NA,NA,"",   8.84492E-03,   7.83016E-03,  -4.11354E-03,   396.811E-06
C:/temp/dataset/2/15_8.odb,Step-1,Increment      1: Step Time =    1.000,"PART-1-1",           299,      -9.66362,      -15.1575,            0.,NA,NA,"",   15.8686E-03,   14.1664E-03,  -7.15022E-03,   264.905E-06
C:/temp/dataset/2/15_8.odb,Step-1,Increment      1: Step Time =    1.000,"PART-1-1",           300,      -11.1813,      -14.4243,            0.,NA,NA,"",   16.3549E-03,   16.0849E-03,  -2.95923E-03,   127.844E-06
C:/temp/dataset/2/15_8.odb,Step-1,Increment      1: Step Time =    1.000,"PART-1-1",           301,      -10.5090,      -18.8394,            0.,NA,NA,"",   4.81010E-03,   2.94303E-03,  -3.80469E-03,   619.122E-06
C:/temp/dataset/2/15_8.odb,Step-1,Increment      1: Step Time =    1.000,"PART-1-1",           302,      -8.88448,      -18.7076,            0.,NA,NA,"",   8.90870E-03,   3.88436E-03,  -8.01727E-03,   772.236E-06
C:/temp/dataset/2/15_8.odb,Step-1,Increment      1: Step Time =    1.000,"PART-1-1",           303,      -8.95657,      -17.1026,            0.,NA,NA,"",   12.3390E-03,   8.76648E-03,  -8.68330E-03,   568.562E-06
C:/temp/dataset/2/15_8.odb,Step-1,Increment      1: Step Time =    1.000,"PART-1-1",           304,      -8.08225,      -19.7831,            0.,NA,NA,"",   9.76959E-03,   630.948E-06,  -9.74919E-03,   871.846E-06
C:/temp/dataset/2/15_8.odb,Step-1,Increment      1: Step Time =    1.000,"PART-1-1",           305,      -6.89084,      -18.8787,            0.,NA,NA,"",   15.5356E-03,   4.58010E-03,  -14.8451E-03,   1.08143E-03
C:/temp/dataset/2/15_8.odb,Step-1,Increment      1: Step Time =    1.000,"PART-1-1",           306,      -7.69307,      -17.8032,            0.,NA,NA,"",   14.3377E-03,   7.26477E-03,  -12.3610E-03,   664.654E-06
C:/temp/dataset/2/15_8.odb,Step-1,Increment      1: Step Time =    1.000,"PART-1-1",           307,       7.10093,      -24.9223,            0.,NA,NA,"",   13.2786E-03,   10.6894E-03,  -7.87781E-03,   2.69483E-03
C:/temp/dataset/2/15_8.odb,Step-1,Increment      1: Step Time =    1.000,"PART-1-1",           308,       8.59925,      -23.6815,            0.,NA,NA,"",   10.7333E-03,   9.71401E-03,  -4.56535E-03,   1.21923E-03
C:/temp/dataset/2/15_8.odb,Step-1,Increment      1: Step Time =    1.000,"PART-1-1",           309,       6.88316,      -22.4353,            0.,NA,NA,"",   14.2968E-03,   8.95889E-03,  -11.1417E-03,   2.51858E-03
C:/temp/dataset/2/15_8.odb,Step-1,Increment      1: Step Time =    1.000,"PART-1-1",           310,       5.38484,      -23.6762,            0.,NA,NA,"",   19.6826E-03,   10.4915E-03,  -16.6533E-03,   4.30536E-03
C:/temp/dataset/2/15_8.odb,Step-1,Increment      1: Step Time =    1.000,"PART-1-1",           311,       13.3798,      -22.4744,            0.,NA,NA,"",   7.26996E-03,   7.26615E-03,  -235.517E-06,   368.565E-06
C:/temp/dataset/2/15_8.odb,Step-1,Increment      1: Step Time =    1.000,"PART-1-1",           312,           15.,        -21.25,            0.,NA,NA,"",   6.25053E-03,   6.21668E-03,   649.637E-06,   156.399E-06
C:/temp/dataset/2/15_8.odb,Step-1,Increment      1: Step Time =    1.000,"PART-1-1",           313,       13.3333,          -20.,            0.,NA,NA,"",   5.35876E-03,   5.35638E-03,  -159.823E-06,   242.467E-06
C:/temp/dataset/2/15_8.odb,Step-1,Increment      1: Step Time =    1.000,"PART-1-1",           314,       11.7131,      -21.2244,            0.,NA,NA,"",   6.10160E-03,   6.04026E-03,  -862.973E-06,   439.685E-06
C:/temp/dataset/2/15_8.odb,Step-1,Increment      1: Step Time =    1.000,"PART-1-1",           315,      -2.14863,       2.00914,            0.,NA,NA,"",   69.5814E-03,   63.2531E-03,  -28.9935E-03,   23.2239E-09
C:/temp/dataset/2/15_8.odb,Step-1,Increment      1: Step Time =    1.000,"PART-1-1",           316,      -1.66393,   575.985E-03,            0.,NA,NA,"",   66.4921E-03,   59.1485E-03,  -30.3752E-03,   22.2021E-09
C:/temp/dataset/2/15_8.odb,Step-1,Increment      1: Step Time =    1.000,"PART-1-1",           317,   135.628E-03,       1.10435,            0.,NA,NA,"",   70.2934E-03,   60.6536E-03,  -35.5288E-03,   13.6190E-09
C:/temp/dataset/2/15_8.odb,Step-1,Increment      1: Step Time =    1.000,"PART-1-1",           318,  -349.073E-03,       2.53751,            0.,NA,NA,"",   73.2097E-03,   64.7582E-03,  -34.1472E-03,   13.3138E-09
C:/temp/dataset/2/15_8.odb,Step-1,Increment      1: Step Time =    1.000,"PART-1-1",           319,   156.145E-03,      -1.87787,            0.,NA,NA,"",   63.1009E-03,   52.1164E-03,  -35.5754E-03,   27.8929E-09
C:/temp/dataset/2/15_8.odb,Step-1,Increment      1: Step Time =    1.000,"PART-1-1",           320,       1.21010,      -2.70880,            0.,NA,NA,"",   62.9486E-03,   49.7334E-03,  -38.5891E-03,   29.9552E-09
C:/temp/dataset/2/15_8.odb,Step-1,Increment      1: Step Time =    1.000,"PART-1-1",           321,       2.32846,      -1.50081,            0.,NA,NA,"",   67.6440E-03,   53.1869E-03,  -41.7956E-03,   12.8855E-09
C:/temp/dataset/2/15_8.odb,Step-1,Increment      1: Step Time =    1.000,"PART-1-1",           322,       1.27451,  -669.883E-03,            0.,NA,NA,"",   67.7646E-03,   55.5699E-03,  -38.7818E-03,   16.5690E-09
C:/temp/dataset/2/15_8.odb,Step-1,Increment      1: Step Time =    1.000,"PART-1-1",           323,       4.87500,      -1.23074,            0.,NA,NA,"",   72.9387E-03,   53.9496E-03,  -49.0866E-03,   5.26827E-09
C:/temp/dataset/2/15_8.odb,Step-1,Increment      1: Step Time =    1.000,"PART-1-1",           324,       6.20088,      -2.43579,            0.,NA,NA,"",   73.1142E-03,   50.4945E-03,  -52.8772E-03,   3.28676E-09
C:/temp/dataset/2/15_8.odb,Step-1,Increment      1: Step Time =    1.000,"PART-1-1",           325,       7.44880,      -1.07477,            0.,NA,NA,"",   78.3899E-03,   54.3855E-03,  -56.4552E-03,   1.67514E-09
C:/temp/dataset/2/15_8.odb,Step-1,Increment      1: Step Time =    1.000,"PART-1-1",           326,       6.12293,   130.279E-03,            0.,NA,NA,"",   78.2246E-03,   57.8406E-03,  -52.6646E-03,   4.22695E-09
C:/temp/dataset/2/15_8.odb,Step-1,Increment      1: Step Time =    1.000,"PART-1-1",           327,          8.75,           -5.,            0.,NA,NA,"",   74.0342E-03,   43.1435E-03,  -60.1640E-03,   1.31094E-09
C:/temp/dataset/2/15_8.odb,Step-1,Increment      1: Step Time =    1.000,"PART-1-1",           328,       10.0063,      -3.63741,            0.,NA,NA,"",   79.2388E-03,   47.0390E-03,  -63.7661E-03,   837.069E-12
C:/temp/dataset/2/15_8.odb,Step-1,Increment      1: Step Time =    1.000,"PART-1-1",           329,       8.73716,      -2.32557,            0.,NA,NA,"",   78.7223E-03,   50.7996E-03,  -60.1382E-03,   770.517E-12
C:/temp/dataset/2/15_8.odb,Step-1,Increment      1: Step Time =    1.000,"PART-1-1",           330,       7.48081,      -3.68816,            0.,NA,NA,"",   73.4597E-03,   46.9041E-03,  -56.5361E-03,   1.37394E-09
C:/temp/dataset/2/15_8.odb,Step-1,Increment      1: Step Time =    1.000,"PART-1-1",           331,       6.24109,       7.72904,            0.,NA,NA,"",   95.6432E-03,   79.5929E-03,  -53.0339E-03,   1.37956E-09
C:/temp/dataset/2/15_8.odb,Step-1,Increment      1: Step Time =    1.000,"PART-1-1",           332,            5.,          6.25,            0.,NA,NA,"",   90.1527E-03,   75.3640E-03,  -49.4750E-03,   1.87723E-09
C:/temp/dataset/2/15_8.odb,Step-1,Increment      1: Step Time =    1.000,"PART-1-1",           333,       6.24095,       5.17046,            0.,NA,NA,"",   89.6336E-03,   72.2685E-03,  -53.0230E-03,   2.23157E-09
C:/temp/dataset/2/15_8.odb,Step-1,Increment      1: Step Time =    1.000,"PART-1-1",           334,       7.48203,       6.64950,            0.,NA,NA,"",   95.1492E-03,   76.4975E-03,  -56.5819E-03,   765.717E-12
C:/temp/dataset/2/15_8.odb,Step-1,Increment      1: Step Time =    1.000,"PART-1-1",           335,       7.34508,       23.6052,            0.,NA,NA,"",   137.111E-03,   125.037E-03,  -56.2593E-03,   530.586E-12
C:/temp/dataset/2/15_8.odb,Step-1,Increment      1: Step Time =    1.000,"PART-1-1",           336,       6.41056,       24.2397,            0.,NA,NA,"",   137.711E-03,   126.857E-03,  -53.5867E-03,   450.120E-12
C:/temp/dataset/2/15_8.odb,Step-1,Increment      1: Step Time =    1.000,"PART-1-1",           337,       6.08150,       22.9932,            0.,NA,NA,"",   134.057E-03,   123.290E-03,  -52.6396E-03,   450.560E-12
C:/temp/dataset/2/15_8.odb,Step-1,Increment      1: Step Time =    1.000,"PART-1-1",           338,       7.01602,       22.3587,            0.,NA,NA,"",   133.470E-03,   121.470E-03,  -55.3122E-03,   520.743E-12
C:/temp/dataset/2/15_8.odb,Step-1,Increment      1: Step Time =    1.000,"PART-1-1",           339,      -12.5005,       23.7291,            0.,NA,NA,"",   125.474E-03,   125.473E-03,   551.785E-06,   138.867E-12
C:/temp/dataset/2/15_8.odb,Step-1,Increment      1: Step Time =    1.000,"PART-1-1",           340,      -13.7489,       24.9883,            0.,NA,NA,"",   129.148E-03,   129.083E-03,   4.12031E-03,   138.604E-12
C:/temp/dataset/2/15_8.odb,Step-1,Increment      1: Step Time =    1.000,"PART-1-1",           341,          -15.,         23.75,            0.,NA,NA,"",   125.779E-03,   125.543E-03,   7.70694E-03,   125.478E-12
C:/temp/dataset/2/15_8.odb,Step-1,Increment      1: Step Time =    1.000,"PART-1-1",           342,      -2.52491,       26.1674,            0.,NA,NA,"",   135.343E-03,   132.412E-03,  -28.0152E-03,   201.919E-12
C:/temp/dataset/2/15_8.odb,Step-1,Increment      1: Step Time =    1.000,"PART-1-1",           343,      -1.30373,       24.8780,            0.,NA,NA,"",   132.516E-03,   128.716E-03,  -31.5058E-03,   144.478E-12
C:/temp/dataset/2/15_8.odb,Step-1,Increment      1: Step Time =    1.000,"PART-1-1",           344,      -1.26817,       27.4122,            0.,NA,NA,"",   139.598E-03,   135.970E-03,  -31.6180E-03,   334.702E-12
C:/temp/dataset/2/15_8.odb,Step-1,Increment      1: Step Time =    1.000,"PART-1-1",           345,       2.31009,       23.4917,            0.,NA,NA,"",   131.565E-03,   124.733E-03,  -41.8453E-03,   229.629E-12
C:/temp/dataset/2/15_8.odb,Step-1,Increment      1: Step Time =    1.000,"PART-1-1",           346,       3.41051,       22.2101,            0.,NA,NA,"",   129.149E-03,   121.059E-03,  -44.9902E-03,   321.341E-12
C:/temp/dataset/2/15_8.odb,Step-1,Increment      1: Step Time =    1.000,"PART-1-1",           347,       4.46987,       23.2845,            0.,NA,NA,"",   133.098E-03,   124.131E-03,  -48.0272E-03,   266.474E-12
C:/temp/dataset/2/15_8.odb,Step-1,Increment      1: Step Time =    1.000,"PART-1-1",           348,       3.36945,       24.5662,            0.,NA,NA,"",   135.456E-03,   127.804E-03,  -44.8823E-03,   177.680E-12
C:/temp/dataset/2/15_8.odb,Step-1,Increment      1: Step Time =    1.000,"PART-1-1",           349,       3.92627,       27.0683,            0.,NA,NA,"",   142.746E-03,   134.965E-03,  -46.4866E-03,   390.045E-12
C:/temp/dataset/2/15_8.odb,Step-1,Increment      1: Step Time =    1.000,"PART-1-1",           350,       5.16355,       28.4353,            0.,NA,NA,"",   147.611E-03,   138.873E-03,  -50.0341E-03,   573.093E-12
C:/temp/dataset/2/15_8.odb,Step-1,Increment      1: Step Time =    1.000,"PART-1-1",           351,          3.75,           30.,            0.,NA,NA,"",   150.555E-03,   143.358E-03,  -45.9940E-03,   775.242E-12
C:/temp/dataset/2/15_8.odb,Step-1,Increment      1: Step Time =    1.000,"PART-1-1",           352,       2.51272,       28.6330,            0.,NA,NA,"",   145.766E-03,   139.449E-03,  -42.4464E-03,   578.987E-12
C:/temp/dataset/2/15_8.odb,Step-1,Increment      1: Step Time =    1.000,"PART-1-1",           353,       11.0463,       14.3537,            0.,NA,NA,"",   119.055E-03,   98.5376E-03,  -66.8169E-03,   357.177E-12
C:/temp/dataset/2/15_8.odb,Step-1,Increment      1: Step Time =    1.000,"PART-1-1",           354,       9.86747,       12.5470,            0.,NA,NA,"",   112.880E-03,   93.3703E-03,  -63.4348E-03,   161.581E-12
C:/temp/dataset/2/15_8.odb,Step-1,Increment      1: Step Time =    1.000,"PART-1-1",           355,       11.1901,       11.5237,            0.,NA,NA,"",   112.680E-03,   90.4356E-03,  -67.2170E-03,   419.395E-12
C:/temp/dataset/2/15_8.odb,Step-1,Increment      1: Step Time =    1.000,"PART-1-1",           356,       9.55073,       15.1783,            0.,NA,NA,"",   118.713E-03,   100.904E-03,  -62.5389E-03,   156.253E-12
C:/temp/dataset/2/15_8.odb,Step-1,Increment      1: Step Time =    1.000,"PART-1-1",           357,       8.18591,       15.9712,            0.,NA,NA,"",   118.677E-03,   103.180E-03,  -58.6351E-03,   478.485E-12
C:/temp/dataset/2/15_8.odb,Step-1,Increment      1: Step Time =    1.000,"PART-1-1",           358,       7.20669,       14.2932,            0.,NA,NA,"",   113.115E-03,   98.3799E-03,  -55.8250E-03,   811.894E-12
C:/temp/dataset/2/15_8.odb,Step-1,Increment      1: Step Time =    1.000,"PART-1-1",           359,       8.57151,       13.5002,            0.,NA,NA,"",   113.153E-03,   96.1044E-03,  -59.7288E-03,   442.646E-12
C:/temp/dataset/2/15_8.odb,Step-1,Increment      1: Step Time =    1.000,"PART-1-1",           360,       7.44377,       1.50598,            0.,NA,NA,"",   83.6822E-03,   61.7734E-03,  -56.4513E-03,   2.13992E-09
C:/temp/dataset/2/15_8.odb,Step-1,Increment      1: Step Time =    1.000,"PART-1-1",           361,       8.72836,   326.342E-03,            0.,NA,NA,"",   83.8118E-03,   58.3912E-03,  -60.1239E-03,   1.70733E-09
C:/temp/dataset/2/15_8.odb,Step-1,Increment      1: Step Time =    1.000,"PART-1-1",           362,       10.0261,       1.76283,            0.,NA,NA,"",   89.3429E-03,   62.4981E-03,  -63.8447E-03,   1.20464E-09
C:/temp/dataset/2/15_8.odb,Step-1,Increment      1: Step Time =    1.000,"PART-1-1",           363,       8.74149,       2.94246,            0.,NA,NA,"",   89.2239E-03,   65.8802E-03,  -60.1722E-03,   1.61677E-09
C:/temp/dataset/2/15_8.odb,Step-1,Increment      1: Step Time =    1.000,"PART-1-1",           364,       12.5045,       7.62102,            0.,NA,NA,"",   106.385E-03,   79.2580E-03,  -70.9636E-03,   928.849E-12
C:/temp/dataset/2/15_8.odb,Step-1,Increment      1: Step Time =    1.000,"PART-1-1",           365,           15.,         8.125,            0.,NA,NA,"",   112.303E-03,   80.6905E-03,  -78.1095E-03,   1.92595E-09
C:/temp/dataset/2/15_8.odb,Step-1,Increment      1: Step Time =    1.000,"PART-1-1",           366,       13.7500,       9.30715,            0.,NA,NA,"",   112.361E-03,   84.0798E-03,  -74.5361E-03,   1.38528E-09
C:/temp/dataset/2/15_8.odb,Step-1,Increment      1: Step Time =    1.000,"PART-1-1",           367,      -1.45938,      -2.40358,            0.,NA,NA,"",   59.3296E-03,   50.6181E-03,  -30.9485E-03,   55.2657E-09
C:/temp/dataset/2/15_8.odb,Step-1,Increment      1: Step Time =    1.000,"PART-1-1",           368,      -2.69869,      -3.52952,            0.,NA,NA,"",   54.7475E-03,   47.3999E-03,  -27.3960E-03,   126.664E-09
C:/temp/dataset/2/15_8.odb,Step-1,Increment      1: Step Time =    1.000,"PART-1-1",           369,         -1.25,           -5.,            0.,NA,NA,"",   53.4742E-03,   43.1844E-03,  -31.5372E-03,   64.5027E-09
C:/temp/dataset/2/15_8.odb,Step-1,Increment      1: Step Time =    1.000,"PART-1-1",           370,  -10.6917E-03,      -3.87406,            0.,NA,NA,"",   58.1763E-03,   46.4026E-03,  -35.0896E-03,   32.2537E-09
C:/temp/dataset/2/15_8.odb,Step-1,Increment      1: Step Time =    1.000,"PART-1-1",           371,      -13.3333,            5.,            0.,NA,NA,"",   71.9236E-03,   71.8606E-03,   3.01048E-03,   9.67904E-09
C:/temp/dataset/2/15_8.odb,Step-1,Increment      1: Step Time =    1.000,"PART-1-1",           372,          -15.,       3.54167,            0.,NA,NA,"",   68.1395E-03,   67.6930E-03,   7.78715E-03,   10.4383E-09
C:/temp/dataset/2/15_8.odb,Step-1,Increment      1: Step Time =    1.000,"PART-1-1",           373,      -13.2137,       2.05352,            0.,NA,NA,"",   63.4826E-03,   63.4260E-03,   2.68003E-03,   58.3406E-09
C:/temp/dataset/2/15_8.odb,Step-1,Increment      1: Step Time =    1.000,"PART-1-1",           374,      -11.5470,       3.51185,            0.,NA,NA,"",   67.6260E-03,   67.5935E-03,  -2.09670E-03,   55.8782E-09
C:/temp/dataset/2/15_8.odb,Step-1,Increment      1: Step Time =    1.000,"PART-1-1",           375,          -15.,      625.E-03,            0.,NA,NA,"",   59.8548E-03,   59.3445E-03,   7.79912E-03,   188.124E-09
C:/temp/dataset/2/15_8.odb,Step-1,Increment      1: Step Time =    1.000,"PART-1-1",           376,      -12.9883,      -1.02354,            0.,NA,NA,"",   54.6562E-03,   54.6179E-03,   2.04746E-03,   343.027E-09
C:/temp/dataset/2/15_8.odb,Step-1,Increment      1: Step Time =    1.000,"PART-1-1",           377,      -11.2019,   404.974E-03,            0.,NA,NA,"",   58.7793E-03,   58.6990E-03,  -3.07196E-03,   364.189E-09
C:/temp/dataset/2/15_8.odb,Step-1,Increment      1: Step Time =    1.000,"PART-1-1",           378,      -13.6690,      -3.88141,            0.,NA,NA,"",   46.6142E-03,   46.4415E-03,   4.00889E-03,   1.12107E-06
C:/temp/dataset/2/15_8.odb,Step-1,Increment      1: Step Time =    1.000,"PART-1-1",           379,      -11.6573,      -2.61328,            0.,NA,NA,"",   50.0929E-03,   50.0620E-03,  -1.75701E-03,   1.16199E-06
C:/temp/dataset/2/15_8.odb,Step-1,Increment      1: Step Time =    1.000,"PART-1-1",           380,          -15.,      -2.29167,            0.,NA,NA,"",   51.5913E-03,   50.9965E-03,   7.81185E-03,   884.876E-09
C:/temp/dataset/2/15_8.odb,Step-1,Increment      1: Step Time =    1.000,"PART-1-1",           381,           -5.,         -8.75,            0.,NA,NA,"",   38.5512E-03,   32.4786E-03,  -20.7686E-03,   9.59799E-06
C:/temp/dataset/2/15_8.odb,Step-1,Increment      1: Step Time =    1.000,"PART-1-1",           382,      -6.37238,      -7.84264,            0.,NA,NA,"",   38.9126E-03,   35.0712E-03,  -16.8583E-03,   3.07455E-06
C:/temp/dataset/2/15_8.odb,Step-1,Increment      1: Step Time =    1.000,"PART-1-1",           383,      -7.67841,      -9.42411,            0.,NA,NA,"",   33.2578E-03,   30.5583E-03,  -13.1251E-03,   7.12091E-06
C:/temp/dataset/2/15_8.odb,Step-1,Increment      1: Step Time =    1.000,"PART-1-1",           384,      -6.30603,      -10.3315,            0.,NA,NA,"",   32.7444E-03,   27.9690E-03,  -17.0273E-03,   3.86274E-06
C:/temp/dataset/2/15_8.odb,Step-1,Increment      1: Step Time =    1.000,"PART-1-1",           385,      -13.6103,      -21.3688,            0.,NA,NA,"",   4.55766E-03,  -3.88544E-03,   2.38235E-03,   649.021E-06
C:/temp/dataset/2/15_8.odb,Step-1,Increment      1: Step Time =    1.000,"PART-1-1",           386,          -15.,      -22.7083,            0.,NA,NA,"",   6.84875E-03,  -5.81859E-03,   3.61239E-03,   1.21323E-03
C:/temp/dataset/2/15_8.odb,Step-1,Increment      1: Step Time =    1.000,"PART-1-1",           387,      -13.6241,      -24.2925,            0.,NA,NA,"",   8.18492E-03,  -8.14872E-03,   769.023E-06,   699.194E-06
C:/temp/dataset/2/15_8.odb,Step-1,Increment      1: Step Time =    1.000,"PART-1-1",           388,      -12.2343,      -22.9530,            0.,NA,NA,"",   7.16675E-03,  -7.16440E-03,  -183.419E-06,   231.106E-06
C:/temp/dataset/2/15_8.odb,Step-1,Increment      1: Step Time =    1.000,"PART-1-1",           389,           -5.,        -16.25,            0.,NA,NA,"",   23.6689E-03,   11.4203E-03,  -20.7314E-03,   458.164E-06
C:/temp/dataset/2/15_8.odb,Step-1,Increment      1: Step Time =    1.000,"PART-1-1",           390,      -6.06585,      -15.2329,            0.,NA,NA,"",   22.7430E-03,   14.2715E-03,  -17.7079E-03,   151.385E-06
C:/temp/dataset/2/15_8.odb,Step-1,Increment      1: Step Time =    1.000,"PART-1-1",           391,      -6.99530,      -16.6022,            0.,NA,NA,"",   18.4222E-03,   10.7798E-03,  -14.9390E-03,   657.731E-06
C:/temp/dataset/2/15_8.odb,Step-1,Increment      1: Step Time =    1.000,"PART-1-1",           392,      -5.92946,      -17.6192,            0.,NA,NA,"",   20.7227E-03,   8.43604E-03,  -18.9278E-03,   555.263E-06
C:/temp/dataset/2/15_8.odb,Step-1,Increment      1: Step Time =    1.000,"PART-1-1",           393,         -13.5,          -30.,            0.,NA,NA,"",            0.,  -1.29017E-39,  -1.07975E-39,   1.91865E-03
C:/temp/dataset/2/15_8.odb,Step-1,Increment      1: Step Time =    1.000,"PART-1-1",           394,      -12.0804,      -28.6247,            0.,NA,NA,"",   3.82178E-03,  -3.80380E-03,  -370.308E-06,   1.80228E-03
C:/temp/dataset/2/15_8.odb,Step-1,Increment      1: Step Time =    1.000,"PART-1-1",           395,      -13.5804,      -27.1664,            0.,NA,NA,"",   6.43530E-03,  -6.43399E-03,  -129.891E-06,   916.336E-06
C:/temp/dataset/2/15_8.odb,Step-1,Increment      1: Step Time =    1.000,"PART-1-1",           396,          -15.,      -28.5417,            0.,NA,NA,"",   3.74665E-03,  -3.51929E-03,  -1.28531E-03,   900.545E-06
C:/temp/dataset/2/15_8.odb,Step-1,Increment      1: Step Time =    1.000,"PART-1-1",           397,          13.5,          -30.,            0.,NA,NA,"",            0.,   1.21380E-39,  -1.47320E-39,   1.87793E-03
C:/temp/dataset/2/15_8.odb,Step-1,Increment      1: Step Time =    1.000,"PART-1-1",           398,           15.,        -28.75,            0.,NA,NA,"",   3.38513E-03,   3.04290E-03,  -1.48318E-03,   1.11411E-03
C:/temp/dataset/2/15_8.odb,Step-1,Increment      1: Step Time =    1.000,"PART-1-1",           399,       13.4640,      -27.4843,            0.,NA,NA,"",   5.67147E-03,   5.64430E-03,  -554.447E-06,   887.981E-06
C:/temp/dataset/2/15_8.odb,Step-1,Increment      1: Step Time =    1.000,"PART-1-1",           400,       11.9640,      -28.7343,            0.,NA,NA,"",   3.34811E-03,   3.32027E-03,  -430.831E-06,   1.71066E-03
C:/temp/dataset/2/15_8.odb,Step-1,Increment      1: Step Time =    1.000,"PART-1-1",           401,       10.2658,      -24.9335,            0.,NA,NA,"",   9.41385E-03,   9.22663E-03,  -1.86813E-03,   1.06081E-03
C:/temp/dataset/2/15_8.odb,Step-1,Increment      1: Step Time =    1.000,"PART-1-1",           402,       8.77397,      -26.1861,            0.,NA,NA,"",   9.80534E-03,   9.24086E-03,  -3.27890E-03,   1.95421E-03
C:/temp/dataset/2/15_8.odb,Step-1,Increment      1: Step Time =    1.000,"PART-1-1",           403,       10.3945,      -27.4590,            0.,NA,NA,"",   6.79447E-03,   6.68368E-03,  -1.22201E-03,   1.76952E-03
C:/temp/dataset/2/15_8.odb,Step-1,Increment      1: Step Time =    1.000,"PART-1-1",           404,       11.8863,      -26.2064,            0.,NA,NA,"",   7.88199E-03,   7.83827E-03,  -829.060E-06,   992.901E-06
C:/temp/dataset/2/15_8.odb,Step-1,Increment      1: Step Time =    1.000,"PART-1-1",           405,       8.93044,      -28.7247,            0.,NA,NA,"",   4.43073E-03,   4.24917E-03,  -1.25537E-03,   2.45836E-03
C:/temp/dataset/2/15_8.odb,Step-1,Increment      1: Step Time =    1.000,"PART-1-1",           406,       7.31300,      -27.4411,            0.,NA,NA,"",   8.60615E-03,   7.66403E-03,  -3.91516E-03,   2.79965E-03
C:/temp/dataset/2/15_8.odb,Step-1,Increment      1: Step Time =    1.000,"PART-1-1",           407,       5.88256,      -28.7164,            0.,NA,NA,"",   5.25354E-03,   4.44235E-03,  -2.80450E-03,   3.63146E-03
C:/temp/dataset/2/15_8.odb,Step-1,Increment      1: Step Time =    1.000,"PART-1-1",           408,           7.5,          -30.,            0.,NA,NA,"",            0.,   3.03343E-39,  -4.55122E-39,   3.20558E-03
C:/temp/dataset/2/15_8.odb,Step-1,Increment      1: Step Time =    1.000,"PART-1-1",           409,       5.63995,      -26.1773,            0.,NA,NA,"",   13.1979E-03,   9.39868E-03,  -9.26551E-03,   3.83273E-03
C:/temp/dataset/2/15_8.odb,Step-1,Increment      1: Step Time =    1.000,"PART-1-1",           410,       3.92490,      -24.9166,            0.,NA,NA,"",   20.2142E-03,   8.76583E-03,  -18.2147E-03,   5.20433E-03
C:/temp/dataset/2/15_8.odb,Step-1,Increment      1: Step Time =    1.000,"PART-1-1",           411,       2.50142,      -26.1700,            0.,NA,NA,"",   16.7294E-03,   5.50656E-03,  -15.7972E-03,   5.81004E-03
C:/temp/dataset/2/15_8.odb,Step-1,Increment      1: Step Time =    1.000,"PART-1-1",           412,       4.21647,      -27.4307,            0.,NA,NA,"",   10.2627E-03,   6.43702E-03,  -7.99295E-03,   4.35544E-03
C:/temp/dataset/2/15_8.odb,Step-1,Increment      1: Step Time =    1.000,"PART-1-1",           413,       1.12659,      -27.4308,            0.,NA,NA,"",   11.0722E-03,   2.10527E-03,  -10.8702E-03,   5.48454E-03
C:/temp/dataset/2/15_8.odb,Step-1,Increment      1: Step Time =    1.000,"PART-1-1",           414,  -207.324E-03,      -28.7165,            0.,NA,NA,"",   5.07823E-03,  -145.021E-06,  -5.07616E-03,   5.15850E-03
C:/temp/dataset/2/15_8.odb,Step-1,Increment      1: Step Time =    1.000,"PART-1-1",           415,           1.5,          -30.,            0.,NA,NA,"",            0.,   1.15894E-39,  -10.0225E-39,   4.46589E-03
C:/temp/dataset/2/15_8.odb,Step-1,Increment      1: Step Time =    1.000,"PART-1-1",           416,       2.83391,      -28.7143,            0.,NA,NA,"",   5.30315E-03,   2.88206E-03,  -4.45164E-03,   4.75783E-03
C:/temp/dataset/2/15_8.odb,Step-1,Increment      1: Step Time =    1.000,"PART-1-1",           417,      -1.92078,      -27.4395,            0.,NA,NA,"",   10.8414E-03,  -3.17574E-03,  -10.3658E-03,   5.31094E-03
C:/temp/dataset/2/15_8.odb,Step-1,Increment      1: Step Time =    1.000,"PART-1-1",           418,      -3.21345,      -28.7230,            0.,NA,NA,"",   5.22130E-03,  -2.96593E-03,  -4.29712E-03,   4.62037E-03
C:/temp/dataset/2/15_8.odb,Step-1,Increment      1: Step Time =    1.000,"PART-1-1",           419,          -1.5,          -30.,            0.,NA,NA,"",            0.,  -1.00084E-39,  -10.0696E-39,   4.46582E-03
C:/temp/dataset/2/15_8.odb,Step-1,Increment      1: Step Time =    1.000,"PART-1-1",           420,      -5.57419,      -22.4519,            0.,NA,NA,"",   20.8444E-03,  -8.56483E-03,  -19.0035E-03,   3.86359E-03
C:/temp/dataset/2/15_8.odb,Step-1,Increment      1: Step Time =    1.000,"PART-1-1",           421,      -6.77537,      -23.6376,            0.,NA,NA,"",   15.2232E-03,  -9.79885E-03,  -11.6503E-03,   2.50110E-03
C:/temp/dataset/2/15_8.odb,Step-1,Increment      1: Step Time =    1.000,"PART-1-1",           422,      -5.25528,      -24.9124,            0.,NA,NA,"",   17.2424E-03,  -9.67418E-03,  -14.2727E-03,   4.08163E-03
C:/temp/dataset/2/15_8.odb,Step-1,Increment      1: Step Time =    1.000,"PART-1-1",           423,      -4.05411,      -23.7268,            0.,NA,NA,"",   24.4367E-03,  -8.60721E-03,  -22.8707E-03,   5.43865E-03
C:/temp/dataset/2/15_8.odb,Step-1,Increment      1: Step Time =    1.000,"PART-1-1",           424,       13.4223,      -24.9720,            0.,NA,NA,"",   8.29776E-03,   8.27513E-03,  -612.544E-06,   324.777E-06
C:/temp/dataset/2/15_8.odb,Step-1,Increment      1: Step Time =    1.000,"PART-1-1",           425,           15.,        -26.25,            0.,NA,NA,"",   7.46634E-03,   7.27479E-03,  -1.68037E-03,   409.714E-06
C:/temp/dataset/2/15_8.odb,Step-1,Increment      1: Step Time =    1.000,"PART-1-1",           426,       11.8021,      -23.6964,            0.,NA,NA,"",   8.36388E-03,   8.33008E-03,  -751.182E-06,   287.212E-06
C:/temp/dataset/2/15_8.odb,Step-1,Increment      1: Step Time =    1.000,"PART-1-1",           427,       10.1355,      -22.4445,            0.,NA,NA,"",   7.84476E-03,   7.57404E-03,  -2.04309E-03,   417.757E-06
C:/temp/dataset/2/15_8.odb,Step-1,Increment      1: Step Time =    1.000,"PART-1-1",           428,      -2.31424,      -24.9364,            0.,NA,NA,"",   22.9693E-03,  -5.42215E-03,  -22.3201E-03,   6.02850E-03
C:/temp/dataset/2/15_8.odb,Step-1,Increment      1: Step Time =    1.000,"PART-1-1",           429,      -3.63092,      -26.1962,            0.,NA,NA,"",   15.4154E-03,  -6.98748E-03,  -13.7408E-03,   5.10368E-03
C:/temp/dataset/2/15_8.odb,Step-1,Increment      1: Step Time =    1.000,"PART-1-1",           430,  -604.096E-03,      -26.1796,            0.,NA,NA,"",   17.5770E-03,  -1.28338E-03,  -17.5301E-03,   6.26452E-03
C:/temp/dataset/2/15_8.odb,Step-1,Increment      1: Step Time =    1.000,"PART-1-1",           431,      -7.52977,      -11.9021,            0.,NA,NA,"",   27.1402E-03,   23.5288E-03,  -13.5271E-03,   48.4798E-06
C:/temp/dataset/2/15_8.odb,Step-1,Increment      1: Step Time =    1.000,"PART-1-1",           432,      -6.22373,      -12.8207,            0.,NA,NA,"",   27.1813E-03,   20.9806E-03,  -17.2812E-03,   43.9123E-06
C:/temp/dataset/2/15_8.odb,Step-1,Increment      1: Step Time =    1.000,"PART-1-1",           433,           -5.,        -11.25,            0.,NA,NA,"",   32.7454E-03,   25.3590E-03,  -20.7168E-03,   20.3254E-06
C:/temp/dataset/2/15_8.odb,Step-1,Increment      1: Step Time =    1.000,"PART-1-1",           434,      -10.0475,      -12.6788,            0.,NA,NA,"",   22.1409E-03,   21.2310E-03,  -6.28213E-03,   78.7680E-06
C:/temp/dataset/2/15_8.odb,Step-1,Increment      1: Step Time =    1.000,"PART-1-1",           435,           -5.,         -6.25,            0.,NA,NA,"",   44.7446E-03,   39.6211E-03,  -20.7906E-03,   4.25596E-06
C:/temp/dataset/2/15_8.odb,Step-1,Increment      1: Step Time =    1.000,"PART-1-1",           436,      -7.88282,      -7.02961,            0.,NA,NA,"",   39.4494E-03,   37.4011E-03,  -12.5462E-03,   2.81233E-06
C:/temp/dataset/2/15_8.odb,Step-1,Increment      1: Step Time =    1.000,"PART-1-1",           437,      -13.8577,      -6.65334,            0.,NA,NA,"",   38.7768E-03,   38.5073E-03,   4.56423E-03,   2.97322E-06
C:/temp/dataset/2/15_8.odb,Step-1,Increment      1: Step Time =    1.000,"PART-1-1",           438,      -12.5267,      -5.32641,            0.,NA,NA,"",   42.3075E-03,   42.3010E-03,   742.663E-06,   2.29827E-06
C:/temp/dataset/2/15_8.odb,Step-1,Increment      1: Step Time =    1.000,"PART-1-1",           439,          -15.,      -5.20833,            0.,NA,NA,"",   43.3604E-03,   42.6480E-03,   7.82749E-03,   2.93924E-06
C:/temp/dataset/2/15_8.odb,Step-1,Increment      1: Step Time =    1.000,"PART-1-1",           440,          1.25,           -5.,            0.,NA,NA,"",   57.9762E-03,   43.1742E-03,  -38.6940E-03,   39.1477E-09
C:/temp/dataset/2/15_8.odb,Step-1,Increment      1: Step Time =    1.000,"PART-1-1",           441,       2.47079,      -3.83474,            0.,NA,NA,"",   62.7933E-03,   46.5050E-03,  -42.1935E-03,   9.79267E-09
C:/temp/dataset/2/15_8.odb,Step-1,Increment      1: Step Time =    1.000,"PART-1-1",           442,       3.51261,  -149.180E-03,            0.,NA,NA,"",   72.7810E-03,   57.0513E-03,  -45.1909E-03,   11.5291E-09
C:/temp/dataset/2/15_8.odb,Step-1,Increment      1: Step Time =    1.000,"PART-1-1",           443,       3.69085,      -2.58237,            0.,NA,NA,"",   67.7953E-03,   50.0851E-03,  -45.6912E-03,   10.4485E-09
C:/temp/dataset/2/15_8.odb,Step-1,Increment      1: Step Time =    1.000,"PART-1-1",           444,       8.74868,       5.55605,            0.,NA,NA,"",   94.9023E-03,   73.3621E-03,  -60.2034E-03,   622.653E-12
C:/temp/dataset/2/15_8.odb,Step-1,Increment      1: Step Time =    1.000,"PART-1-1",           445,       10.0030,       7.12352,            0.,NA,NA,"",   100.649E-03,   77.8441E-03,  -63.8007E-03,   236.631E-12
C:/temp/dataset/2/15_8.odb,Step-1,Increment      1: Step Time =    1.000,"PART-1-1",           446,       8.73640,       8.21697,            0.,NA,NA,"",   100.892E-03,   80.9795E-03,  -60.1792E-03,   528.763E-12
C:/temp/dataset/2/15_8.odb,Step-1,Increment      1: Step Time =    1.000,"PART-1-1",           447,           15.,     -625.E-03,            0.,NA,NA,"",   95.8725E-03,   55.6421E-03,  -78.0736E-03,   664.121E-12
C:/temp/dataset/2/15_8.odb,Step-1,Increment      1: Step Time =    1.000,"PART-1-1",           448,       13.7714,   731.820E-03,            0.,NA,NA,"",   95.4122E-03,   59.5313E-03,  -74.5621E-03,   946.278E-12
C:/temp/dataset/2/15_8.odb,Step-1,Increment      1: Step Time =    1.000,"PART-1-1",           449,       12.5339,  -774.506E-03,            0.,NA,NA,"",   89.9590E-03,   55.2242E-03,  -71.0134E-03,   941.293E-12
C:/temp/dataset/2/15_8.odb,Step-1,Increment      1: Step Time =    1.000,"PART-1-1",           450,       7.40609,       11.8257,            0.,NA,NA,"",   107.322E-03,   91.3157E-03,  -56.3857E-03,   836.998E-12
C:/temp/dataset/2/15_8.odb,Step-1,Increment      1: Step Time =    1.000,"PART-1-1",           451,       8.70206,       10.8725,            0.,NA,NA,"",   107.041E-03,   88.5816E-03,  -60.0918E-03,   475.092E-12
C:/temp/dataset/2/15_8.odb,Step-1,Increment      1: Step Time =    1.000,"PART-1-1",           452,       11.2454,       8.75341,            0.,NA,NA,"",   106.513E-03,   82.5048E-03,  -67.3638E-03,   484.305E-12
C:/temp/dataset/2/15_8.odb,Step-1,Increment      1: Step Time =    1.000,"PART-1-1",           453,       11.2622,       5.99112,            0.,NA,NA,"",   100.536E-03,   74.5972E-03,  -67.4006E-03,   668.743E-12
C:/temp/dataset/2/15_8.odb,Step-1,Increment      1: Step Time =    1.000,"PART-1-1",           454,       13.8596,       24.3693,            0.,NA,NA,"",   147.617E-03,   127.197E-03,  -74.9114E-03,   518.599E-12
C:/temp/dataset/2/15_8.odb,Step-1,Increment      1: Step Time =    1.000,"PART-1-1",           455,       12.6110,       23.1199,            0.,NA,NA,"",   142.729E-03,   123.626E-03,  -71.3320E-03,   593.629E-12
C:/temp/dataset/2/15_8.odb,Step-1,Increment      1: Step Time =    1.000,"PART-1-1",           456,       13.7514,       21.4590,            0.,NA,NA,"",   140.332E-03,   118.867E-03,  -74.5899E-03,   810.590E-12
C:/temp/dataset/2/15_8.odb,Step-1,Increment      1: Step Time =    1.000,"PART-1-1",           457,           15.,       22.7083,            0.,NA,NA,"",   145.263E-03,   122.438E-03,  -78.1693E-03,   828.349E-12
C:/temp/dataset/2/15_8.odb,Step-1,Increment      1: Step Time =    1.000,"PART-1-1",           458,       8.83903,       17.2613,            0.,NA,NA,"",   122.811E-03,   106.870E-03,  -60.5101E-03,   203.678E-12
C:/temp/dataset/2/15_8.odb,Step-1,Increment      1: Step Time =    1.000,"PART-1-1",           459,       10.5130,       17.3338,            0.,NA,NA,"",   125.413E-03,   107.071E-03,  -65.3023E-03,   273.156E-12
C:/temp/dataset/2/15_8.odb,Step-1,Increment      1: Step Time =    1.000,"PART-1-1",           460,       8.72284,       19.1442,            0.,NA,NA,"",   127.376E-03,   112.261E-03,  -60.1852E-03,   236.836E-12
C:/temp/dataset/2/15_8.odb,Step-1,Increment      1: Step Time =    1.000,"PART-1-1",           461,           15.,       28.5417,            0.,NA,NA,"",   159.603E-03,   139.137E-03,  -78.1932E-03,   169.452E-12
C:/temp/dataset/2/15_8.odb,Step-1,Increment      1: Step Time =    1.000,"PART-1-1",           462,         13.75,           30.,            0.,NA,NA,"",   161.580E-03,   143.317E-03,  -74.6208E-03,   69.5839E-12
C:/temp/dataset/2/15_8.odb,Step-1,Increment      1: Step Time =    1.000,"PART-1-1",           463,       12.5875,       28.6551,            0.,NA,NA,"",   156.634E-03,   139.472E-03,  -71.2874E-03,   219.501E-12
C:/temp/dataset/2/15_8.odb,Step-1,Increment      1: Step Time =    1.000,"PART-1-1",           464,       13.8375,       27.1968,            0.,NA,NA,"",   154.622E-03,   135.292E-03,  -74.8598E-03,   229.508E-12
C:/temp/dataset/2/15_8.odb,Step-1,Increment      1: Step Time =    1.000,"PART-1-1",           465,         11.25,           30.,            0.,NA,NA,"",   158.411E-03,   143.327E-03,  -67.4641E-03,   170.164E-12
C:/temp/dataset/2/15_8.odb,Step-1,Increment      1: Step Time =    1.000,"PART-1-1",           466,       10.1484,       28.7335,            0.,NA,NA,"",   153.795E-03,   139.706E-03,  -64.3053E-03,   367.498E-12
C:/temp/dataset/2/15_8.odb,Step-1,Increment      1: Step Time =    1.000,"PART-1-1",           467,       7.69941,       28.7139,            0.,NA,NA,"",   150.955E-03,   139.660E-03,  -57.2946E-03,   514.064E-12
C:/temp/dataset/2/15_8.odb,Step-1,Increment      1: Step Time =    1.000,"PART-1-1",           468,       9.09777,       27.4473,            0.,NA,NA,"",   149.200E-03,   136.028E-03,  -61.2925E-03,   509.523E-12
C:/temp/dataset/2/15_8.odb,Step-1,Increment      1: Step Time =    1.000,"PART-1-1",           469,          8.75,           30.,            0.,NA,NA,"",   155.507E-03,   143.337E-03,  -60.3074E-03,   434.524E-12
C:/temp/dataset/2/15_8.odb,Step-1,Increment      1: Step Time =    1.000,"PART-1-1",           470,  -9.87333E-03,       28.6960,            0.,NA,NA,"",   144.015E-03,   139.640E-03,  -35.2253E-03,   522.963E-12
C:/temp/dataset/2/15_8.odb,Step-1,Increment      1: Step Time =    1.000,"PART-1-1",           471,          1.25,           30.,            0.,NA,NA,"",   148.535E-03,   143.368E-03,  -38.8373E-03,   746.106E-12
C:/temp/dataset/2/15_8.odb,Step-1,Increment      1: Step Time =    1.000,"PART-1-1",           472,       4.87954,       25.6434,            0.,NA,NA,"",   139.827E-03,   130.882E-03,  -49.2097E-03,   323.678E-12
C:/temp/dataset/2/15_8.odb,Step-1,Increment      1: Step Time =    1.000,"PART-1-1",           473,      -5.00474,       28.7231,            0.,NA,NA,"",   141.296E-03,   139.738E-03,  -20.9267E-03,   361.733E-12
C:/temp/dataset/2/15_8.odb,Step-1,Increment      1: Step Time =    1.000,"PART-1-1",           474,         -6.25,           30.,            0.,NA,NA,"",   144.447E-03,   143.399E-03,  -17.3672E-03,   420.042E-12
C:/temp/dataset/2/15_8.odb,Step-1,Increment      1: Step Time =    1.000,"PART-1-1",           475,      -3.76303,       27.4393,            0.,NA,NA,"",   138.242E-03,   136.058E-03,  -24.4761E-03,   291.083E-12
C:/temp/dataset/2/15_8.odb,Step-1,Increment      1: Step Time =    1.000,"PART-1-1",           476,      -3.77322,       24.9147,            0.,NA,NA,"",   131.128E-03,   128.831E-03,  -24.4366E-03,   148.413E-12
C:/temp/dataset/2/15_8.odb,Step-1,Increment      1: Step Time =    1.000,"PART-1-1",           477,      -13.7476,       27.4926,            0.,NA,NA,"",   136.313E-03,   136.251E-03,   4.10638E-03,   115.156E-12
C:/temp/dataset/2/15_8.odb,Step-1,Increment      1: Step Time =    1.000,"PART-1-1",           478,        -13.75,           30.,            0.,NA,NA,"",   143.488E-03,   143.429E-03,   4.10297E-03,   147.345E-12
C:/temp/dataset/2/15_8.odb,Step-1,Increment      1: Step Time =    1.000,"PART-1-1",           479,          -15.,         28.75,            0.,NA,NA,"",   140.067E-03,   139.856E-03,   7.68645E-03,   86.0321E-12
C:/temp/dataset/2/15_8.odb,Step-1,Increment      1: Step Time =    1.000,"PART-1-1",           480,          -15.,         26.25,            0.,NA,NA,"",   132.923E-03,   132.700E-03,   7.69669E-03,   97.4024E-12
C:/temp/dataset/2/15_8.odb,Step-1,Increment      1: Step Time =    1.000,"PART-1-1",           481,      -12.4965,       26.2309,            0.,NA,NA,"",   132.636E-03,   132.634E-03,   530.008E-06,   149.590E-12
C:/temp/dataset/2/15_8.odb,Step-1,Increment      1: Step Time =    1.000,"PART-1-1",           482,      -10.0014,       23.7134,            0.,NA,NA,"",   125.591E-03,   125.418E-03,  -6.60238E-03,   126.538E-12
C:/temp/dataset/2/15_8.odb,Step-1,Increment      1: Step Time =    1.000,"PART-1-1",           483,      -8.75535,       22.4567,            0.,NA,NA,"",   122.238E-03,   121.815E-03,  -10.1642E-03,   139.726E-12
C:/temp/dataset/2/15_8.odb,Step-1,Increment      1: Step Time =    1.000,"PART-1-1",           484,      -7.50515,       23.6891,            0.,NA,NA,"",   126.090E-03,   125.338E-03,  -13.7482E-03,   132.328E-12
C:/temp/dataset/2/15_8.odb,Step-1,Increment      1: Step Time =    1.000,"PART-1-1",           485,      -8.75118,       24.9458,            0.,NA,NA,"",   129.342E-03,   128.940E-03,  -10.1864E-03,   152.402E-12
C:/temp/dataset/2/15_8.odb,Step-1,Increment      1: Step Time =    1.000,"PART-1-1",           486,      -3.77419,       22.4219,            0.,NA,NA,"",   124.121E-03,   121.695E-03,  -24.4236E-03,   229.907E-12
C:/temp/dataset/2/15_8.odb,Step-1,Increment      1: Step Time =    1.000,"PART-1-1",           487,      -5.00723,       21.2173,            0.,NA,NA,"",   120.082E-03,   118.252E-03,  -20.8888E-03,   285.580E-12
C:/temp/dataset/2/15_8.odb,Step-1,Increment      1: Step Time =    1.000,"PART-1-1",           488,         -3.75,           20.,            0.,NA,NA,"",   117.344E-03,   114.762E-03,  -24.4829E-03,   434.391E-12
C:/temp/dataset/2/15_8.odb,Step-1,Increment      1: Step Time =    1.000,"PART-1-1",           489,      -2.51696,       21.2046,            0.,NA,NA,"",   121.480E-03,   118.205E-03,  -28.0176E-03,   361.296E-12
C:/temp/dataset/2/15_8.odb,Step-1,Increment      1: Step Time =    1.000,"PART-1-1",           490,         -8.75,           20.,            0.,NA,NA,"",   115.232E-03,   114.782E-03,  -10.1695E-03,   241.698E-12
C:/temp/dataset/2/15_8.odb,Step-1,Increment      1: Step Time =    1.000,"PART-1-1",           491,      -7.50331,       21.2223,            0.,NA,NA,"",   119.072E-03,   118.276E-03,  -13.7434E-03,   211.065E-12
C:/temp/dataset/2/15_8.odb,Step-1,Increment      1: Step Time =    1.000,"PART-1-1",           492,         -6.25,           20.,            0.,NA,NA,"",   116.072E-03,   114.772E-03,  -17.3262E-03,   337.432E-12
C:/temp/dataset/2/15_8.odb,Step-1,Increment      1: Step Time =    1.000,"PART-1-1",           493,      -6.26054,       22.4396,            0.,NA,NA,"",   122.980E-03,   121.756E-03,  -17.3060E-03,   182.453E-12
C:/temp/dataset/2/15_8.odb,Step-1,Increment      1: Step Time =    1.000,"PART-1-1",           494,         -1.25,           20.,            0.,NA,NA,"",   119.033E-03,   114.751E-03,  -31.6396E-03,   510.971E-12
C:/temp/dataset/2/15_8.odb,Step-1,Increment      1: Step Time =    1.000,"PART-1-1",           495,      -1.30453,       22.3853,            0.,NA,NA,"",   125.593E-03,   121.580E-03,  -31.4933E-03,   289.832E-12
C:/temp/dataset/2/15_8.odb,Step-1,Increment      1: Step Time =    1.000,"PART-1-1",           496,         -1.25,           30.,            0.,NA,NA,"",   146.837E-03,   143.378E-03,  -31.6806E-03,   646.034E-12
C:/temp/dataset/2/15_8.odb,Step-1,Increment      1: Step Time =    1.000,"PART-1-1",           497,      -2.50829,       28.7162,            0.,NA,NA,"",   142.501E-03,   139.708E-03,  -28.0732E-03,   442.877E-12
C:/temp/dataset/2/15_8.odb,Step-1,Increment      1: Step Time =    1.000,"PART-1-1",           498,         -3.75,           30.,            0.,NA,NA,"",   145.471E-03,   143.388E-03,  -24.5239E-03,   530.706E-12
C:/temp/dataset/2/15_8.odb,Step-1,Increment      1: Step Time =    1.000,"PART-1-1",           499,          3.75,           20.,            0.,NA,NA,"",   123.592E-03,   114.731E-03,  -45.9530E-03,   1.06172E-09
C:/temp/dataset/2/15_8.odb,Step-1,Increment      1: Step Time =    1.000,"PART-1-1",           500,       4.75388,       21.0765,            0.,NA,NA,"",   127.528E-03,   117.808E-03,  -48.8312E-03,   890.447E-12
C:/temp/dataset/2/15_8.odb,Step-1,Increment      1: Step Time =    1.000,"PART-1-1",           501,          6.25,           30.,            0.,NA,NA,"",   152.884E-03,   143.348E-03,  -53.1507E-03,   671.308E-12
C:/temp/dataset/2/15_8.odb,Step-1,Increment      1: Step Time =    1.000,"PART-1-1",           502,       6.61296,       27.1492,            0.,NA,NA,"",   145.638E-03,   135.185E-03,  -54.1781E-03,   477.529E-12
C:/temp/dataset/2/15_8.odb,Step-1,Increment      1: Step Time =    1.000,"PART-1-1",           503,            5.,         16.25,            0.,NA,NA,"",   115.178E-03,   103.991E-03,  -49.5160E-03,   1.37031E-09
C:/temp/dataset/2/15_8.odb,Step-1,Increment      1: Step Time =    1.000,"PART-1-1",           504,       6.03202,       15.2452,            0.,NA,NA,"",   113.912E-03,   101.110E-03,  -52.4662E-03,   1.12042E-09
C:/temp/dataset/2/15_8.odb,Step-1,Increment      1: Step Time =    1.000,"PART-1-1",           505,       6.91243,       16.6330,            0.,NA,NA,"",   118.599E-03,   105.079E-03,  -54.9923E-03,   827.548E-12
C:/temp/dataset/2/15_8.odb,Step-1,Increment      1: Step Time =    1.000,"PART-1-1",           506,            5.,         13.75,            0.,NA,NA,"",   108.755E-03,   96.8341E-03,  -49.5058E-03,   1.44156E-09
C:/temp/dataset/2/15_8.odb,Step-1,Increment      1: Step Time =    1.000,"PART-1-1",           507,       6.17466,       12.7979,            0.,NA,NA,"",   107.936E-03,   94.1038E-03,  -52.8645E-03,   1.14563E-09
C:/temp/dataset/2/15_8.odb,Step-1,Increment      1: Step Time =    1.000,"PART-1-1",           508,       12.0086,       16.5092,            0.,NA,NA,"",   125.715E-03,   104.704E-03,  -69.5803E-03,   642.101E-12
C:/temp/dataset/2/15_8.odb,Step-1,Increment      1: Step Time =    1.000,"PART-1-1",           509,           15.,        16.875,            0.,NA,NA,"",   131.482E-03,   105.739E-03,  -78.1454E-03,   1.43642E-09
C:/temp/dataset/2/15_8.odb,Step-1,Increment      1: Step Time =    1.000,"PART-1-1",           510,       13.3591,       18.2744,            0.,NA,NA,"",   132.064E-03,   109.752E-03,  -73.4537E-03,   934.654E-12
C:/temp/dataset/2/15_8.odb,Step-1,Increment      1: Step Time =    1.000,"PART-1-1",           511,            5.,         11.25,            0.,NA,NA,"",   102.430E-03,   89.6774E-03,  -49.4955E-03,   1.47691E-09
C:/temp/dataset/2/15_8.odb,Step-1,Increment      1: Step Time =    1.000,"PART-1-1",           512,       6.23142,       10.2778,            0.,NA,NA,"",   101.787E-03,   86.8892E-03,  -53.0167E-03,   1.17503E-09
C:/temp/dataset/2/15_8.odb,Step-1,Increment      1: Step Time =    1.000,"PART-1-1",           513,            5.,          8.75,            0.,NA,NA,"",   96.2209E-03,   82.5207E-03,  -49.4853E-03,   1.56695E-09
C:/temp/dataset/2/15_8.odb,Step-1,Increment      1: Step Time =    1.000,"PART-1-1",           514,       7.47251,       9.25684,            0.,NA,NA,"",   101.238E-03,   83.9615E-03,  -56.5654E-03,   849.954E-12
C:/temp/dataset/2/15_8.odb,Step-1,Increment      1: Step Time =    1.000,"PART-1-1",           515,         11.25,           -5.,            0.,NA,NA,"",   79.9534E-03,   43.1333E-03,  -67.3207E-03,   667.438E-12
C:/temp/dataset/2/15_8.odb,Step-1,Increment      1: Step Time =    1.000,"PART-1-1",           516,       11.2689,      -2.22707,            0.,NA,NA,"",   84.5527E-03,   51.0712E-03,  -67.3861E-03,   854.850E-12
C:/temp/dataset/2/15_8.odb,Step-1,Increment      1: Step Time =    1.000,"PART-1-1",           517,          10.5,          -30.,            0.,NA,NA,"",            0.,   2.51761E-39,  -2.14751E-39,   2.31194E-03
C:/temp/dataset/2/15_8.odb,Step-1,Increment      1: Step Time =    1.000,"PART-1-1",           518,           15.,        -23.75,            0.,NA,NA,"",   7.78003E-03,   7.77957E-03,  -84.6362E-06,   496.146E-06
C:/temp/dataset/2/15_8.odb,Step-1,Increment      1: Step Time =    1.000,"PART-1-1",           519,          3.75,           -5.,            0.,NA,NA,"",   62.9715E-03,   43.1640E-03,  -45.8506E-03,   4.56476E-09
C:/temp/dataset/2/15_8.odb,Step-1,Increment      1: Step Time =    1.000,"PART-1-1",           520,       4.97006,      -3.74763,            0.,NA,NA,"",   67.9726E-03,   46.7441E-03,  -49.3484E-03,   2.55382E-09
C:/temp/dataset/2/15_8.odb,Step-1,Increment      1: Step Time =    1.000,"PART-1-1",           521,       4.85412,       3.76356,            0.,NA,NA,"",   84.0431E-03,   68.2467E-03,  -49.0473E-03,   3.52978E-09
C:/temp/dataset/2/15_8.odb,Step-1,Increment      1: Step Time =    1.000,"PART-1-1",           522,       3.33333,            5.,            0.,NA,NA,"",   84.5703E-03,   71.7924E-03,  -44.6988E-03,   10.6797E-09
C:/temp/dataset/2/15_8.odb,Step-1,Increment      1: Step Time =    1.000,"PART-1-1",           523,       1.45296,       3.58740,            0.,NA,NA,"",   78.3339E-03,   67.7563E-03,  -39.3101E-03,   12.5236E-09
C:/temp/dataset/2/15_8.odb,Step-1,Increment      1: Step Time =    1.000,"PART-1-1",           524,       2.97375,       2.35096,            0.,NA,NA,"",   77.6471E-03,   64.2106E-03,  -43.6586E-03,   10.3769E-09
C:/temp/dataset/2/15_8.odb,Step-1,Increment      1: Step Time =    1.000,"PART-1-1",           525,          6.25,           -5.,            0.,NA,NA,"",   68.3522E-03,   43.1538E-03,  -53.0073E-03,   1.38808E-09
C:/temp/dataset/2/15_8.odb,Step-1,Increment      1: Step Time =    1.000,"PART-1-1",           526,       12.4696,       10.4445,            0.,NA,NA,"",   112.480E-03,   87.3409E-03,  -70.8752E-03,   867.335E-12
C:/temp/dataset/2/15_8.odb,Step-1,Increment      1: Step Time =    1.000,"PART-1-1",           527,           15.,       11.0417,            0.,NA,NA,"",   118.453E-03,   89.0400E-03,  -78.1215E-03,   1.77083E-09
C:/temp/dataset/2/15_8.odb,Step-1,Increment      1: Step Time =    1.000,"PART-1-1",           528,      -5.01382,       23.6808,            0.,NA,NA,"",   127.032E-03,   125.304E-03,  -20.8800E-03,   145.404E-12
C:/temp/dataset/2/15_8.odb,Step-1,Increment      1: Step Time =    1.000,"PART-1-1",           529,      -2.53358,       23.6558,            0.,NA,NA,"",   128.310E-03,   125.222E-03,  -27.9801E-03,   163.858E-12
C:/temp/dataset/2/15_8.odb,Step-1,Increment      1: Step Time =    1.000,"PART-1-1",           530,  -74.6816E-03,       23.6075,            0.,NA,NA,"",   129.884E-03,   125.074E-03,  -35.0189E-03,   190.970E-12
C:/temp/dataset/2/15_8.odb,Step-1,Increment      1: Step Time =    1.000,"PART-1-1",           531,      -6.62798,      -1.45964,            0.,NA,NA,"",   55.7346E-03,   53.3413E-03,  -16.1570E-03,   548.806E-09
C:/temp/dataset/2/15_8.odb,Step-1,Increment      1: Step Time =    1.000,"PART-1-1",           532,      -4.43070,      -2.38075,            0.,NA,NA,"",   55.4410E-03,   50.6956E-03,  -22.4424E-03,   233.120E-09
C:/temp/dataset/2/15_8.odb,Step-1,Increment      1: Step Time =    1.000,"PART-1-1",           533,      -3.64554,  -813.143E-03,            0.,NA,NA,"",   60.4547E-03,   55.1800E-03,  -24.6967E-03,   90.5567E-09
C:/temp/dataset/2/15_8.odb,Step-1,Increment      1: Step Time =    1.000,"PART-1-1",           534,         -3.75,           -5.,            0.,NA,NA,"",   49.5999E-03,   43.1945E-03,  -24.3802E-03,   478.051E-09
C:/temp/dataset/2/15_8.odb,Step-1,Increment      1: Step Time =    1.000,"PART-1-1",           535,      -13.8599,      -9.43096,            0.,NA,NA,"",   30.8830E-03,   30.5401E-03,   4.58908E-03,   4.75751E-06
C:/temp/dataset/2/15_8.odb,Step-1,Increment      1: Step Time =    1.000,"PART-1-1",           536,          -15.,      -11.0417,            0.,NA,NA,"",   27.0728E-03,   25.8975E-03,   7.89031E-03,   5.03279E-06
C:/temp/dataset/2/15_8.odb,Step-1,Increment      1: Step Time =    1.000,"PART-1-1",           537,      -11.9984,      -19.8095,            0.,NA,NA,"",   348.098E-06,  -125.788E-06,  -324.576E-06,   516.629E-06
C:/temp/dataset/2/15_8.odb,Step-1,Increment      1: Step Time =    1.000,"PART-1-1",           538,      -13.3881,      -18.2324,            0.,NA,NA,"",   5.36470E-03,   4.49616E-03,   2.92654E-03,   361.443E-06
C:/temp/dataset/2/15_8.odb,Step-1,Increment      1: Step Time =    1.000,"PART-1-1",           539,          -15.,      -19.7917,            0.,NA,NA,"",   6.33173E-03,   414.164E-06,   6.31817E-03,   756.113E-06
C:/temp/dataset/2/15_8.odb,Step-1,Increment      1: Step Time =    1.000,"PART-1-1",           540,           -5.,        -18.75,            0.,NA,NA,"",   23.9550E-03,   5.39893E-03,  -23.3387E-03,   2.70354E-03
C:/temp/dataset/2/15_8.odb,Step-1,Increment      1: Step Time =    1.000,"PART-1-1",           541,      -5.96138,      -20.0094,            0.,NA,NA,"",   18.3897E-03,   1.06133E-03,  -18.3591E-03,   1.32008E-03
C:/temp/dataset/2/15_8.odb,Step-1,Increment      1: Step Time =    1.000,"PART-1-1",           542,           -5.,        -13.75,            0.,NA,NA,"",   27.7575E-03,   18.4073E-03,  -20.7762E-03,   91.6135E-06
C:/temp/dataset/2/15_8.odb,Step-1,Increment      1: Step Time =    1.000,"PART-1-1",           543,      -7.28958,      -14.3036,            0.,NA,NA,"",   22.0272E-03,   16.8324E-03,  -14.2080E-03,   130.261E-06
C:/temp/dataset/2/15_8.odb,Step-1,Increment      1: Step Time =    1.000,"PART-1-1",           544,      -8.88285,      -11.0213,            0.,NA,NA,"",   27.7405E-03,   26.0022E-03,  -9.66559E-03,   19.0587E-06
C:/temp/dataset/2/15_8.odb,Step-1,Increment      1: Step Time =    1.000,"PART-1-1",           545,      -9.01222,      -8.51542,            0.,NA,NA,"",   34.4400E-03,   33.1563E-03,  -9.31515E-03,   3.32802E-06
C:/temp/dataset/2/15_8.odb,Step-1,Increment      1: Step Time =    1.000,"PART-1-1",           546,      -9.13424,  -715.290E-03,            0.,NA,NA,"",   56.2062E-03,   55.4832E-03,  -8.98653E-03,   451.691E-09
C:/temp/dataset/2/15_8.odb,Step-1,Increment      1: Step Time =    1.000,"PART-1-1",           547,      -9.92186,      -2.42350,            0.,NA,NA,"",   51.0419E-03,   50.5969E-03,  -6.72588E-03,   1.03378E-06
C:/temp/dataset/2/15_8.odb,Step-1,Increment      1: Step Time =    1.000,"PART-1-1",           548,      -12.7176,      -7.95930,            0.,NA,NA,"",   34.7856E-03,   34.7613E-03,   1.29994E-03,   2.25581E-06
C:/temp/dataset/2/15_8.odb,Step-1,Increment      1: Step Time =    1.000,"PART-1-1",           549,          -15.,        -8.125,            0.,NA,NA,"",   35.1793E-03,   34.2917E-03,   7.85243E-03,   6.83206E-06
C:/temp/dataset/2/15_8.odb,Step-1,Increment      1: Step Time =    1.000,"PART-1-1",           550,       11.2818,   528.104E-03,            0.,NA,NA,"",   89.5738E-03,   58.9583E-03,  -67.4343E-03,   1.12025E-09
C:/temp/dataset/2/15_8.odb,Step-1,Increment      1: Step Time =    1.000,"PART-1-1",           551,       10.0167,  -924.457E-03,            0.,NA,NA,"",   84.1127E-03,   54.8053E-03,  -63.8069E-03,   1.06965E-09
C:/temp/dataset/2/15_8.odb,Step-1,Increment      1: Step Time =    1.000,"PART-1-1",           552,       10.4320,       23.7699,            0.,NA,NA,"",   141.374E-03,   125.495E-03,  -65.0970E-03,   592.666E-12
C:/temp/dataset/2/15_8.odb,Step-1,Increment      1: Step Time =    1.000,"PART-1-1",           553,           15.,        25.625,            0.,NA,NA,"",   152.373E-03,   130.787E-03,  -78.1812E-03,   429.717E-12
C:/temp/dataset/2/15_8.odb,Step-1,Increment      1: Step Time =    1.000,"PART-1-1",           554,      -9.99539,       26.2124,            0.,NA,NA,"",   132.737E-03,   132.571E-03,  -6.62976E-03,   155.844E-12
C:/temp/dataset/2/15_8.odb,Step-1,Increment      1: Step Time =    1.000,"PART-1-1",           555,          -15.,       -25.625,            0.,NA,NA,"",   7.68014E-03,  -7.68010E-03,  -26.9799E-06,   1.04339E-03
C:/temp/dataset/2/15_8.odb,Step-1,Increment      1: Step Time =    1.000,"PART-1-1",           556,      -12.2044,      -25.8339,            0.,NA,NA,"",   8.38407E-03,  -8.36734E-03,  -529.500E-06,   985.591E-06
C:/temp/dataset/2/15_8.odb,Step-1,Increment      1: Step Time =    1.000,"PART-1-1",           557,          -15.,       -16.875,            0.,NA,NA,"",   11.5712E-03,   8.71896E-03,   7.60740E-03,   284.668E-06
C:/temp/dataset/2/15_8.odb,Step-1,Increment      1: Step Time =    1.000,"PART-1-1",           558,      -8.25880,      -15.9015,            0.,NA,NA,"",   16.6251E-03,   12.3452E-03,  -11.1351E-03,   328.344E-06
C:/temp/dataset/2/15_8.odb,Step-1,Increment      1: Step Time =    1.000,"PART-1-1",           559,       7.56555,       17.9230,            0.,NA,NA,"",   122.738E-03,   108.769E-03,  -56.8672E-03,   562.250E-12
C:/temp/dataset/2/15_8.odb,Step-1,Increment      1: Step Time =    1.000,"PART-1-1",           560,      -9.72707,       2.21069,            0.,NA,NA,"",   64.2774E-03,   63.8614E-03,  -7.30099E-03,   109.289E-09
C:/temp/dataset/2/15_8.odb,Step-1,Increment      1: Step Time =    1.000,"PART-1-1",           561,      -8.18006,       3.69884,            0.,NA,NA,"",   69.1183E-03,   68.1148E-03,  -11.7353E-03,   73.7226E-09
C:/temp/dataset/2/15_8.odb,Step-1,Increment      1: Step Time =    1.000,"PART-1-1",           562,          -10.,            5.,            0.,NA,NA,"",   72.1431E-03,   71.8469E-03,  -6.53104E-03,   18.5022E-09
C:/temp/dataset/2/15_8.odb,Step-1,Increment      1: Step Time =    1.000,"PART-1-1",           563,      -10.3433,      -7.69771,            0.,NA,NA,"",   35.9252E-03,   35.5006E-03,  -5.50680E-03,   2.95946E-06
C:/temp/dataset/2/15_8.odb,Step-1,Increment      1: Step Time =    1.000,"PART-1-1",           564,      -11.5611,      -6.59494,            0.,NA,NA,"",   38.7172E-03,   38.6644E-03,  -2.02040E-03,   2.77835E-06
C:/temp/dataset/2/15_8.odb,Step-1,Increment      1: Step Time =    1.000,"PART-1-1",           565,      -9.40089,      -20.7816,            0.,NA,NA,"",   6.31625E-03,  -2.78492E-03,  -5.66915E-03,   654.207E-06
C:/temp/dataset/2/15_8.odb,Step-1,Increment      1: Step Time =    1.000,"PART-1-1",           566,      -8.21757,      -22.2064,            0.,NA,NA,"",   10.5534E-03,  -6.84441E-03,  -8.03299E-03,   1.05110E-03
C:/temp/dataset/2/15_8.odb,Step-1,Increment      1: Step Time =    1.000,"PART-1-1",           567,      -6.89894,      -21.2078,            0.,NA,NA,"",   13.8235E-03,  -4.30038E-03,  -13.1375E-03,   909.184E-06
C:/temp/dataset/2/15_8.odb,Step-1,Increment      1: Step Time =    1.000,"PART-1-1",           568,      -9.14285,      -28.6800,            0.,NA,NA,"",   4.62138E-03,  -4.41645E-03,  -1.36094E-03,   2.48638E-03
C:/temp/dataset/2/15_8.odb,Step-1,Increment      1: Step Time =    1.000,"PART-1-1",           569,      -10.7232,      -27.3047,            0.,NA,NA,"",   7.21714E-03,  -7.10145E-03,  -1.28704E-03,   1.75120E-03
C:/temp/dataset/2/15_8.odb,Step-1,Increment      1: Step Time =    1.000,"PART-1-1",           570,         -10.5,          -30.,            0.,NA,NA,"",            0.,  -2.71835E-39,  -2.24513E-39,   2.43447E-03
C:/temp/dataset/2/15_8.odb,Step-1,Increment      1: Step Time =    1.000,"PART-1-1",           571,      -4.89633,      -27.4366,            0.,NA,NA,"",   9.88778E-03,  -6.66875E-03,  -7.30041E-03,   4.06508E-03
C:/temp/dataset/2/15_8.odb,Step-1,Increment      1: Step Time =    1.000,"PART-1-1",           572,      -6.18287,      -28.7136,            0.,NA,NA,"",   5.18020E-03,  -4.37217E-03,  -2.77823E-03,   3.54058E-03
C:/temp/dataset/2/15_8.odb,Step-1,Increment      1: Step Time =    1.000,"PART-1-1",           573,          -4.5,          -30.,            0.,NA,NA,"",            0.,  -2.60350E-39,  -7.91008E-39,   4.03261E-03
C:/temp/dataset/2/15_8.odb,Step-1,Increment      1: Step Time =    1.000,"PART-1-1",           574,       12.5384,       2.02620,            0.,NA,NA,"",   95.1098E-03,   63.2417E-03,  -71.0377E-03,   1.04918E-09
C:/temp/dataset/2/15_8.odb,Step-1,Increment      1: Step Time =    1.000,"PART-1-1",           575,           15.,       2.29167,            0.,NA,NA,"",   100.957E-03,   63.9916E-03,  -78.0856E-03,   1.42237E-09
C:/temp/dataset/2/15_8.odb,Step-1,Increment      1: Step Time =    1.000,"PART-1-1",           576,       9.96595,       9.83263,            0.,NA,NA,"",   106.704E-03,   85.5996E-03,  -63.7056E-03,   160.655E-12
C:/temp/dataset/2/15_8.odb,Step-1,Increment      1: Step Time =    1.000,"PART-1-1",           577,           15.,       19.7917,            0.,NA,NA,"",   138.292E-03,   114.088E-03,  -78.1573E-03,   1.19176E-09
C:/temp/dataset/2/15_8.odb,Step-1,Increment      1: Step Time =    1.000,"PART-1-1",           578,       7.90800,       20.1372,            0.,NA,NA,"",   128.829E-03,   115.107E-03,  -57.8566E-03,   336.466E-12
C:/temp/dataset/2/15_8.odb,Step-1,Increment      1: Step Time =    1.000,"PART-1-1",           579,       8.41916,       21.3934,            0.,NA,NA,"",   132.700E-03,   118.701E-03,  -59.3250E-03,   473.543E-12
C:/temp/dataset/2/15_8.odb,Step-1,Increment      1: Step Time =    1.000,"PART-1-1",           580,       6.50486,       21.1025,            0.,NA,NA,"",   129.591E-03,   117.876E-03,  -53.8438E-03,   497.726E-12
C:/temp/dataset/2/15_8.odb,Step-1,Increment      1: Step Time =    1.000,"PART-1-1",           581,           4.5,          -30.,            0.,NA,NA,"",            0.,   2.72266E-39,  -7.70880E-39,   4.00172E-03
C:/temp/dataset/2/15_8.odb,Step-1,Increment      1: Step Time =    1.000,"PART-1-1",           582,       3.62857,      -22.4261,            0.,NA,NA,"",   31.7335E-03,   7.22406E-03,  -30.9003E-03,   6.30855E-03
C:/temp/dataset/2/15_8.odb,Step-1,Increment      1: Step Time =    1.000,"PART-1-1",           583,       2.16864,      -23.6665,            0.,NA,NA,"",   30.5152E-03,   5.32201E-03,  -30.0476E-03,   6.93776E-03
C:/temp/dataset/2/15_8.odb,Step-1,Increment      1: Step Time =    1.000,"PART-1-1",           584,      -2.73954,      -22.4743,            0.,NA,NA,"",   34.6013E-03,  -5.71743E-03,  -34.1257E-03,   6.63807E-03
C:/temp/dataset/2/15_8.odb,Step-1,Increment      1: Step Time =    1.000,"PART-1-1",           585,  -999.676E-03,      -23.6839,            0.,NA,NA,"",   32.0156E-03,  -2.49511E-03,  -31.9182E-03,   7.07806E-03
C:/temp/dataset/2/15_8.odb,Step-1,Increment      1: Step Time =    1.000,"PART-1-1",           586,      -7.82572,      -27.3936,            0.,NA,NA,"",   8.48359E-03,  -7.58338E-03,  -3.80312E-03,   2.67467E-03
C:/temp/dataset/2/15_8.odb,Step-1,Increment      1: Step Time =    1.000,"PART-1-1",           587,      -6.52069,      -26.1528,            0.,NA,NA,"",   12.2352E-03,  -9.32536E-03,  -7.92065E-03,   3.19685E-03
C:/temp/dataset/2/15_8.odb,Step-1,Increment      1: Step Time =    1.000,"PART-1-1",           588,      -8.08310,      -24.7829,            0.,NA,NA,"",   11.9634E-03,  -9.98633E-03,  -6.58760E-03,   2.10379E-03
C:/temp/dataset/2/15_8.odb,Step-1,Increment      1: Step Time =    1.000,"PART-1-1",           589,      -9.38814,      -26.0237,            0.,NA,NA,"",   9.70674E-03,  -9.13814E-03,  -3.27342E-03,   1.75398E-03
C:/temp/dataset/2/15_8.odb,Step-1,Increment      1: Step Time =    1.000,"PART-1-1",           590,          -7.5,          -30.,            0.,NA,NA,"",            0.,  -3.04413E-39,  -4.82889E-39,   3.29073E-03
C:/temp/dataset/2/15_8.odb,Step-1,Increment      1: Step Time =    1.000,"PART-1-1",           591,       7.73182,       24.8866,            0.,NA,NA,"",   140.911E-03,   128.703E-03,  -57.3717E-03,   540.683E-12
C:/temp/dataset/2/15_8.odb,Step-1,Increment      1: Step Time =    1.000,"PART-1-1",           592,       8.21760,       26.2797,            0.,NA,NA,"",   145.121E-03,   132.689E-03,  -58.7681E-03,   550.686E-12
C:/temp/dataset/2/15_8.odb,Step-1,Increment      1: Step Time =    1.000,"PART-1-1",           593,       6.12718,       25.7561,            0.,NA,NA,"",   141.418E-03,   131.199E-03,  -52.7817E-03,   451.823E-12
C:/temp/dataset/2/15_8.odb,Step-1,Increment      1: Step Time =    1.000,"PART-1-1",           594,       5.38844,       22.1508,            0.,NA,NA,"",   131.064E-03,   120.881E-03,  -50.6522E-03,   422.512E-12
C:/temp/dataset/2/15_8.odb,Step-1,Increment      1: Step Time =    1.000,"PART-1-1",           595,      -3.37677,   775.412E-03,            0.,NA,NA,"",   64.9315E-03,   59.7264E-03,  -25.4727E-03,   70.6861E-09
C:/temp/dataset/2/15_8.odb,Step-1,Increment      1: Step Time =    1.000,"PART-1-1",           596,      -3.41233,       2.84116,            0.,NA,NA,"",   70.3756E-03,   65.6400E-03,  -25.3795E-03,   17.5097E-09
C:/temp/dataset/2/15_8.odb,Step-1,Increment      1: Step Time =    1.000,"PART-1-1",           597,      -11.2482,       24.9673,            0.,NA,NA,"",   129.048E-03,   129.012E-03,  -3.03820E-03,   159.008E-12
C:/temp/dataset/2/15_8.odb,Step-1,Increment      1: Step Time =    1.000,"PART-1-1",           598,       5.16292,       24.1270,            0.,NA,NA,"",   136.065E-03,   126.539E-03,  -50.0147E-03,   328.724E-12
C:/temp/dataset/2/15_8.odb,Step-1,Increment      1: Step Time =    1.000,"PART-1-1",           599,            0.,            5.,            0.,NA,NA,"",   79.9506E-03,   71.8060E-03,  -35.1566E-03,   30.8107E-09
C:/temp/dataset/2/15_8.odb,Step-1,Increment      1: Step Time =    1.000,"PART-1-1",           600,      -1.80204,       3.95011,            0.,NA,NA,"",   75.0610E-03,   68.8079E-03,  -29.9937E-03,   28.3076E-09
C:/temp/dataset/2/15_8.odb,Step-1,Increment      1: Step Time =    1.000,"PART-1-1",           601,       9.59799,       22.9228,            0.,NA,NA,"",   138.128E-03,   123.074E-03,  -62.7059E-03,   588.969E-12
C:/temp/dataset/2/15_8.odb,Step-1,Increment      1: Step Time =    1.000,"PART-1-1",           602,       8.30932,       22.9391,            0.,NA,NA,"",   136.539E-03,   123.126E-03,  -59.0169E-03,   577.570E-12
C:/temp/dataset/2/15_8.odb,Step-1,Increment      1: Step Time =    1.000,"PART-1-1",           603,      -1.93269,      -1.01257,            0.,NA,NA,"",   62.1088E-03,   54.6021E-03,  -29.5993E-03,   33.7107E-09
C:/temp/dataset/2/15_8.odb,Step-1,Increment      1: Step Time =    1.000,"PART-1-1",           604,      -8.69440,      -13.5596,            0.,NA,NA,"",   21.3684E-03,   18.8144E-03,  -10.1304E-03,   83.6902E-06
C:/temp/dataset/2/15_8.odb,Step-1,Increment      1: Step Time =    1.000,"PART-1-1",           605,       6.07991,       2.65614,            0.,NA,NA,"",   83.6420E-03,   65.0715E-03,  -52.5518E-03,   3.59878E-09
C:/temp/dataset/2/15_8.odb,Step-1,Increment      1: Step Time =    1.000,"PART-1-1",           606,       4.75906,       1.28045,            0.,NA,NA,"",   78.2047E-03,   61.1387E-03,  -48.7650E-03,   5.52950E-09
C:/temp/dataset/2/15_8.odb,Step-1,Increment      1: Step Time =    1.000,"PART-1-1",           607,       10.0234,       4.43547,            0.,NA,NA,"",   94.8549E-03,   70.1490E-03,  -63.8481E-03,   782.303E-12
C:/temp/dataset/2/15_8.odb,Step-1,Increment      1: Step Time =    1.000,"PART-1-1",           608,       7.46673,       4.06304,            0.,NA,NA,"",   89.2707E-03,   69.0933E-03,  -56.5275E-03,   1.31066E-09
C:/temp/dataset/2/15_8.odb,Step-1,Increment      1: Step Time =    1.000,"PART-1-1",           609,  -317.165E-03,  -486.862E-03,            0.,NA,NA,"",   65.7167E-03,   56.1004E-03,  -34.2261E-03,   16.1920E-09
C:/temp/dataset/2/15_8.odb,Step-1,Increment      1: Step Time =    1.000,"PART-1-1",           610,       1.72730,   921.331E-03,            0.,NA,NA,"",   72.2604E-03,   60.1232E-03,  -40.0845E-03,   13.6089E-09
C:/temp/dataset/2/15_8.odb,Step-1,Increment      1: Step Time =    1.000,"PART-1-1",           611,      -4.63664,      -21.2535,            0.,NA,NA,"",   28.5975E-03,  -6.13346E-03,  -27.9320E-03,   5.24903E-03
C:/temp/dataset/2/15_8.odb,Step-1,Increment      1: Step Time =    1.000,"PART-1-1",           612,       11.2827,       3.26092,            0.,NA,NA,"",   94.9158E-03,   66.7815E-03,  -67.4481E-03,   1.03361E-09
C:/temp/dataset/2/15_8.odb,Step-1,Increment      1: Step Time =    1.000,"PART-1-1",           613,      -11.4502,      -4.36864,            0.,NA,NA,"",   45.0980E-03,   45.0370E-03,  -2.34419E-03,   1.78823E-06
C:/temp/dataset/2/15_8.odb,Step-1,Increment      1: Step Time =    1.000,"PART-1-1",           614,      -10.8693,      -24.5529,            0.,NA,NA,"",   9.19278E-03,  -8.98875E-03,  -1.92603E-03,   848.796E-06
C:/temp/dataset/2/15_8.odb,Step-1,Increment      1: Step Time =    1.000,"PART-1-1",           615,      -9.52531,      -23.3517,            0.,NA,NA,"",   9.52241E-03,  -8.44764E-03,  -4.39474E-03,   826.890E-06
C:/temp/dataset/2/15_8.odb,Step-1,Increment      1: Step Time =    1.000,"PART-1-1",           616,      -10.8903,      -21.7518,            0.,NA,NA,"",   5.68296E-03,  -5.20587E-03,  -2.27925E-03,   449.961E-06
C:/temp/dataset/2/15_8.odb,Step-1,Increment      1: Step Time =    1.000,"PART-1-1",           617,       3.33333,          -20.,            0.,NA,NA,"",   47.1396E-03,  -2.81777E-03,  -47.0553E-03,   6.62411E-03
C:/temp/dataset/2/15_8.odb,Step-1,Increment      1: Step Time =    1.000,"PART-1-1",           618,       1.83446,      -21.2108,            0.,NA,NA,"",   45.5743E-03,   1.16626E-03,  -45.5594E-03,   7.36101E-03
C:/temp/dataset/2/15_8.odb,Step-1,Increment      1: Step Time =    1.000,"PART-1-1",           619,       5.12744,      -21.2153,            0.,NA,NA,"",   25.5941E-03,   6.03264E-03,  -24.8730E-03,   4.60935E-03
C:/temp/dataset/2/15_8.odb,Step-1,Increment      1: Step Time =    1.000,"PART-1-1",           620,            0.,          -20.,            0.,NA,NA,"",   54.0438E-03,   78.6437E-06,  -54.0438E-03,   6.89806E-03
C:/temp/dataset/2/15_8.odb,Step-1,Increment      1: Step Time =    1.000,"PART-1-1",           621,      -1.43624,      -21.2208,            0.,NA,NA,"",   45.5924E-03,  -1.35738E-03,  -45.5722E-03,   7.27886E-03
C:/temp/dataset/2/15_8.odb,Step-1,Increment      1: Step Time =    1.000,"PART-1-1",           622,   398.228E-03,      -22.4316,            0.,NA,NA,"",   40.1438E-03,   596.636E-06,  -40.1393E-03,   7.07186E-03
C:/temp/dataset/2/15_8.odb,Step-1,Increment      1: Step Time =    1.000,"PART-1-1",           623,   770.736E-03,      -24.9188,            0.,NA,NA,"",   24.8218E-03,   2.00932E-03,  -24.7403E-03,   6.50545E-03
C:/temp/dataset/2/15_8.odb,Step-1,Increment      1: Step Time =    1.000,"PART-1-1",           624,      -3.33333,          -20.,            0.,NA,NA,"",   46.1589E-03,   1.85804E-03,  -46.1214E-03,   6.31824E-03
C:/temp/dataset/2/15_8.odb,Step-1,Increment      1: Step Time =    1.000,"PART-1-1",           625,       8.69606,       24.2205,            0.,NA,NA,"",   140.328E-03,   126.792E-03,  -60.1293E-03,   583.754E-12
C:/temp/dataset/2/15_8.odb,Step-1,Increment      1: Step Time =    1.000,"PART-1-1",           626,      -3.33333,            5.,            0.,NA,NA,"",   76.2506E-03,   71.8196E-03,  -25.6145E-03,   41.4703E-09
C:/temp/dataset/2/15_8.odb,Step-1,Increment      1: Step Time =    1.000,"PART-1-1",           627,      -4.94363,       3.89105,            0.,NA,NA,"",   71.7918E-03,   68.6517E-03,  -21.0003E-03,   31.2793E-09
C:/temp/dataset/2/15_8.odb,Step-1,Increment      1: Step Time =    1.000,"PART-1-1",           628,      -6.66667,            5.,            0.,NA,NA,"",   73.6093E-03,   71.8331E-03,  -16.0727E-03,   8.45708E-09
C:/temp/dataset/2/15_8.odb,Step-1,Increment      1: Step Time =    1.000,"PART-1-1",           629,           10.,          -20.,            0.,NA,NA,"",   4.56971E-03,   3.68238E-03,  -2.70598E-03,   960.410E-06
C:/temp/dataset/2/15_8.odb,Step-1,Increment      1: Step Time =    1.000,"PART-1-1",           630,       8.42239,      -21.2201,            0.,NA,NA,"",   7.28848E-03,   4.93000E-03,  -5.36816E-03,   814.209E-06
C:/temp/dataset/2/15_8.odb,Step-1,Increment      1: Step Time =    1.000,"PART-1-1",           631,       6.66667,          -20.,            0.,NA,NA,"",   12.3220E-03,  -1.45074E-03,  -12.2363E-03,   1.27210E-03
C:/temp/dataset/2/15_8.odb,Step-1,Increment      1: Step Time =    1.000,"PART-1-1",           632,       9.53008,       25.0675,            0.,NA,NA,"",   143.544E-03,   129.214E-03,  -62.5203E-03,   583.097E-12
