ODB Name,Step,Frame,Part Instance Name,    êﬂì_ÉâÉxÉã,X,Y,Z,Section Name,Material Name,Section Point,   U-Magnitude,          U-U1,          U-U2,       S-Mises
C:/temp/dataset/2/16_1.odb,Step-1,Increment      1: Step Time =    1.000,"PART-1-1",             1,          -15.,           20.,            0.,NA,NA,"",   402.937E-06,   391.959E-06,   93.4150E-06,   477.573E-18
C:/temp/dataset/2/16_1.odb,Step-1,Increment      1: Step Time =    1.000,"PART-1-1",             2,          -15.,           25.,            0.,NA,NA,"",   421.749E-06,   411.273E-06,   93.4149E-06,   874.410E-18
C:/temp/dataset/2/16_1.odb,Step-1,Increment      1: Step Time =    1.000,"PART-1-1",             3,          -10.,           20.,            0.,NA,NA,"",   398.902E-06,   391.959E-06,   74.1009E-06,   498.123E-18
C:/temp/dataset/2/16_1.odb,Step-1,Increment      1: Step Time =    1.000,"PART-1-1",             4,           -5.,           20.,            0.,NA,NA,"",   395.770E-06,   391.959E-06,   54.7868E-06,   821.220E-18
C:/temp/dataset/2/16_1.odb,Step-1,Increment      1: Step Time =    1.000,"PART-1-1",             5,            0.,           20.,            0.,NA,NA,"",   393.561E-06,   391.959E-06,   35.4727E-06,   448.212E-18
C:/temp/dataset/2/16_1.odb,Step-1,Increment      1: Step Time =    1.000,"PART-1-1",             6,            5.,           20.,            0.,NA,NA,"",   392.292E-06,   391.959E-06,   16.1586E-06,   2.80311E-15
C:/temp/dataset/2/16_1.odb,Step-1,Increment      1: Step Time =    1.000,"PART-1-1",             7,            5.,          12.5,            0.,NA,NA,"",   363.347E-06,   362.988E-06,   16.1586E-06,   210.055E-15
C:/temp/dataset/2/16_1.odb,Step-1,Increment      1: Step Time =    1.000,"PART-1-1",             8,            5.,            5.,            0.,NA,NA,"",   334.408E-06,   334.017E-06,   16.1587E-06,   32.7941E-12
C:/temp/dataset/2/16_1.odb,Step-1,Increment      1: Step Time =    1.000,"PART-1-1",             9,           -5.,            5.,            0.,NA,NA,"",   338.479E-06,   334.015E-06,   54.7897E-06,   1.43688E-09
C:/temp/dataset/2/16_1.odb,Step-1,Increment      1: Step Time =    1.000,"PART-1-1",            10,          -15.,            5.,            0.,NA,NA,"",   346.811E-06,   334.000E-06,   93.3884E-06,   288.173E-12
C:/temp/dataset/2/16_1.odb,Step-1,Increment      1: Step Time =    1.000,"PART-1-1",            11,          -15.,         -3.75,            0.,NA,NA,"",   314.433E-06,   300.255E-06,   93.3563E-06,   12.7141E-09
C:/temp/dataset/2/16_1.odb,Step-1,Increment      1: Step Time =    1.000,"PART-1-1",            12,          -15.,         -12.5,            0.,NA,NA,"",   283.465E-06,   267.365E-06,   94.1710E-06,   555.715E-09
C:/temp/dataset/2/16_1.odb,Step-1,Increment      1: Step Time =    1.000,"PART-1-1",            13,          -15.,        -21.25,            0.,NA,NA,"",   228.513E-06,   199.796E-06,   110.905E-06,   637.055E-09
C:/temp/dataset/2/16_1.odb,Step-1,Increment      1: Step Time =    1.000,"PART-1-1",            14,          -15.,          -30.,            0.,NA,NA,"",            0.,   14.4488E-42,   23.9356E-42,   38.3568E-06
C:/temp/dataset/2/16_1.odb,Step-1,Increment      1: Step Time =    1.000,"PART-1-1",            15,           15.,          -30.,            0.,NA,NA,"",            0.,   595.231E-42,  -1.06514E-39,   1.75456E-03
C:/temp/dataset/2/16_1.odb,Step-1,Increment      1: Step Time =    1.000,"PART-1-1",            16,           15.,          -25.,            0.,NA,NA,"",   6.52977E-03,   3.67219E-03,  -5.39935E-03,   1.04467E-03
C:/temp/dataset/2/16_1.odb,Step-1,Increment      1: Step Time =    1.000,"PART-1-1",            17,           15.,          -20.,            0.,NA,NA,"",   11.5500E-03,   5.83736E-03,  -9.96629E-03,   998.977E-06
C:/temp/dataset/2/16_1.odb,Step-1,Increment      1: Step Time =    1.000,"PART-1-1",            18,            5.,          -20.,            0.,NA,NA,"",   4.76428E-03,   2.69360E-03,  -3.92974E-03,   600.046E-06
C:/temp/dataset/2/16_1.odb,Step-1,Increment      1: Step Time =    1.000,"PART-1-1",            19,           -5.,          -20.,            0.,NA,NA,"",   339.024E-06,   326.582E-06,   91.0028E-06,   64.1972E-06
C:/temp/dataset/2/16_1.odb,Step-1,Increment      1: Step Time =    1.000,"PART-1-1",            20,           -5.,         -12.5,            0.,NA,NA,"",   271.288E-06,   265.522E-06,   55.6348E-06,   675.276E-09
C:/temp/dataset/2/16_1.odb,Step-1,Increment      1: Step Time =    1.000,"PART-1-1",            21,           -5.,           -5.,            0.,NA,NA,"",   300.419E-06,   295.383E-06,   54.7752E-06,   12.7875E-09
C:/temp/dataset/2/16_1.odb,Step-1,Increment      1: Step Time =    1.000,"PART-1-1",            22,            0.,           -5.,            0.,NA,NA,"",   297.511E-06,   295.389E-06,   35.4720E-06,   633.113E-12
C:/temp/dataset/2/16_1.odb,Step-1,Increment      1: Step Time =    1.000,"PART-1-1",            23,            5.,           -5.,            0.,NA,NA,"",   295.830E-06,   295.389E-06,   16.1588E-06,   60.2397E-12
C:/temp/dataset/2/16_1.odb,Step-1,Increment      1: Step Time =    1.000,"PART-1-1",            24,           10.,           -5.,            0.,NA,NA,"",   295.405E-06,   295.389E-06,  -3.15531E-06,   5.01574E-12
C:/temp/dataset/2/16_1.odb,Step-1,Increment      1: Step Time =    1.000,"PART-1-1",            25,           15.,           -5.,            0.,NA,NA,"",   296.242E-06,   295.389E-06,  -22.4694E-06,   335.534E-15
C:/temp/dataset/2/16_1.odb,Step-1,Increment      1: Step Time =    1.000,"PART-1-1",            26,           15.,          3.75,            0.,NA,NA,"",   329.954E-06,   329.188E-06,  -22.4695E-06,   944.505E-15
C:/temp/dataset/2/16_1.odb,Step-1,Increment      1: Step Time =    1.000,"PART-1-1",            27,           15.,          12.5,            0.,NA,NA,"",   363.683E-06,   362.988E-06,  -22.4696E-06,   174.059E-15
C:/temp/dataset/2/16_1.odb,Step-1,Increment      1: Step Time =    1.000,"PART-1-1",            28,           15.,         21.25,            0.,NA,NA,"",   397.423E-06,   396.788E-06,  -22.4696E-06,   3.00288E-15
C:/temp/dataset/2/16_1.odb,Step-1,Increment      1: Step Time =    1.000,"PART-1-1",            29,           15.,           30.,            0.,NA,NA,"",   431.173E-06,   430.587E-06,  -22.4697E-06,   737.320E-18
C:/temp/dataset/2/16_1.odb,Step-1,Increment      1: Step Time =    1.000,"PART-1-1",            30,           7.5,           30.,            0.,NA,NA,"",   430.636E-06,   430.587E-06,   6.50146E-06,   432.981E-18
C:/temp/dataset/2/16_1.odb,Step-1,Increment      1: Step Time =    1.000,"PART-1-1",            31,            0.,           30.,            0.,NA,NA,"",   432.046E-06,   430.587E-06,   35.4726E-06,   889.110E-18
C:/temp/dataset/2/16_1.odb,Step-1,Increment      1: Step Time =    1.000,"PART-1-1",            32,          -7.5,           30.,            0.,NA,NA,"",   435.383E-06,   430.587E-06,   64.4438E-06,   441.812E-18
C:/temp/dataset/2/16_1.odb,Step-1,Increment      1: Step Time =    1.000,"PART-1-1",            33,          -15.,           30.,            0.,NA,NA,"",   440.604E-06,   430.588E-06,   93.4149E-06,   848.738E-18
C:/temp/dataset/2/16_1.odb,Step-1,Increment      1: Step Time =    1.000,"PART-1-1",            34,          -15.,          22.5,            0.,NA,NA,"",   412.337E-06,   401.616E-06,   93.4150E-06,   801.879E-18
C:/temp/dataset/2/16_1.odb,Step-1,Increment      1: Step Time =    1.000,"PART-1-1",            35,         -12.5,           20.,            0.,NA,NA,"",   400.808E-06,   391.959E-06,   83.7579E-06,   484.078E-18
C:/temp/dataset/2/16_1.odb,Step-1,Increment      1: Step Time =    1.000,"PART-1-1",            36,          -7.5,           20.,            0.,NA,NA,"",   397.222E-06,   391.959E-06,   64.4438E-06,   605.051E-18
C:/temp/dataset/2/16_1.odb,Step-1,Increment      1: Step Time =    1.000,"PART-1-1",            37,          -2.5,           20.,            0.,NA,NA,"",   394.549E-06,   391.959E-06,   45.1297E-06,   702.940E-18
C:/temp/dataset/2/16_1.odb,Step-1,Increment      1: Step Time =    1.000,"PART-1-1",            38,           2.5,           20.,            0.,NA,NA,"",   392.808E-06,   391.959E-06,   25.8156E-06,   825.949E-18
C:/temp/dataset/2/16_1.odb,Step-1,Increment      1: Step Time =    1.000,"PART-1-1",            39,            5.,           15.,            0.,NA,NA,"",   372.995E-06,   372.645E-06,   16.1586E-06,   70.7992E-15
C:/temp/dataset/2/16_1.odb,Step-1,Increment      1: Step Time =    1.000,"PART-1-1",            40,            5.,          17.5,            0.,NA,NA,"",   382.643E-06,   382.302E-06,   16.1586E-06,   9.65947E-15
C:/temp/dataset/2/16_1.odb,Step-1,Increment      1: Step Time =    1.000,"PART-1-1",            41,            5.,           7.5,            0.,NA,NA,"",   344.054E-06,   343.674E-06,   16.1587E-06,   4.56876E-12
C:/temp/dataset/2/16_1.odb,Step-1,Increment      1: Step Time =    1.000,"PART-1-1",            42,            5.,           10.,            0.,NA,NA,"",   353.700E-06,   353.331E-06,   16.1587E-06,   1.05365E-12
C:/temp/dataset/2/16_1.odb,Step-1,Increment      1: Step Time =    1.000,"PART-1-1",            43,      -1.66667,            5.,            0.,NA,NA,"",   336.636E-06,   334.017E-06,   41.9120E-06,   174.113E-12
C:/temp/dataset/2/16_1.odb,Step-1,Increment      1: Step Time =    1.000,"PART-1-1",            44,       1.66667,            5.,            0.,NA,NA,"",   335.277E-06,   334.017E-06,   29.0350E-06,   61.1639E-12
C:/temp/dataset/2/16_1.odb,Step-1,Increment      1: Step Time =    1.000,"PART-1-1",            45,      -11.6667,            5.,            0.,NA,NA,"",   343.572E-06,   334.002E-06,   80.5274E-06,   1.31276E-09
C:/temp/dataset/2/16_1.odb,Step-1,Increment      1: Step Time =    1.000,"PART-1-1",            46,      -8.33333,            5.,            0.,NA,NA,"",   340.793E-06,   334.009E-06,   67.6634E-06,   2.69172E-09
C:/temp/dataset/2/16_1.odb,Step-1,Increment      1: Step Time =    1.000,"PART-1-1",            47,          -15.,  -833.333E-03,            0.,NA,NA,"",   325.185E-06,   311.490E-06,   93.3784E-06,   6.00474E-09
C:/temp/dataset/2/16_1.odb,Step-1,Increment      1: Step Time =    1.000,"PART-1-1",            48,          -15.,       2.08333,            0.,NA,NA,"",   335.984E-06,   322.744E-06,   93.3879E-06,   1.36968E-09
C:/temp/dataset/2/16_1.odb,Step-1,Increment      1: Step Time =    1.000,"PART-1-1",            49,          -15.,      -9.58333,            0.,NA,NA,"",   293.403E-06,   278.136E-06,   93.4125E-06,   100.368E-09
C:/temp/dataset/2/16_1.odb,Step-1,Increment      1: Step Time =    1.000,"PART-1-1",            50,          -15.,      -6.66667,            0.,NA,NA,"",   303.788E-06,   289.098E-06,   93.3235E-06,   11.8224E-09
C:/temp/dataset/2/16_1.odb,Step-1,Increment      1: Step Time =    1.000,"PART-1-1",            51,          -15.,      -18.3333,            0.,NA,NA,"",   258.000E-06,   236.081E-06,   104.066E-06,   2.74061E-06
C:/temp/dataset/2/16_1.odb,Step-1,Increment      1: Step Time =    1.000,"PART-1-1",            52,          -15.,      -15.4167,            0.,NA,NA,"",   273.181E-06,   255.297E-06,   97.2191E-06,   1.97572E-06
C:/temp/dataset/2/16_1.odb,Step-1,Increment      1: Step Time =    1.000,"PART-1-1",            53,          -15.,      -27.0833,            0.,NA,NA,"",   103.877E-06,   76.7353E-06,   70.0152E-06,   19.8009E-06
C:/temp/dataset/2/16_1.odb,Step-1,Increment      1: Step Time =    1.000,"PART-1-1",            54,          -15.,      -24.1667,            0.,NA,NA,"",   175.687E-06,   142.600E-06,   102.621E-06,   7.40633E-06
C:/temp/dataset/2/16_1.odb,Step-1,Increment      1: Step Time =    1.000,"PART-1-1",            55,           12.,          -30.,            0.,NA,NA,"",            0.,   490.728E-42,  -1.39710E-39,   756.002E-06
C:/temp/dataset/2/16_1.odb,Step-1,Increment      1: Step Time =    1.000,"PART-1-1",            56,            9.,          -30.,            0.,NA,NA,"",            0.,  -201.819E-42,  -1.11741E-39,   657.361E-06
C:/temp/dataset/2/16_1.odb,Step-1,Increment      1: Step Time =    1.000,"PART-1-1",            57,            6.,          -30.,            0.,NA,NA,"",            0.,  -47.1355E-42,  -714.151E-42,   482.200E-06
C:/temp/dataset/2/16_1.odb,Step-1,Increment      1: Step Time =    1.000,"PART-1-1",            58,            3.,          -30.,            0.,NA,NA,"",            0.,  -252.706E-42,  -478.263E-42,   320.587E-06
C:/temp/dataset/2/16_1.odb,Step-1,Increment      1: Step Time =    1.000,"PART-1-1",            59,            0.,          -30.,            0.,NA,NA,"",            0.,  -94.2808E-42,  -112.506E-42,   171.842E-06
C:/temp/dataset/2/16_1.odb,Step-1,Increment      1: Step Time =    1.000,"PART-1-1",            60,           -3.,          -30.,            0.,NA,NA,"",            0.,  -50.7172E-42,  -14.5511E-42,   71.5626E-06
C:/temp/dataset/2/16_1.odb,Step-1,Increment      1: Step Time =    1.000,"PART-1-1",            61,           -6.,          -30.,            0.,NA,NA,"",            0.,  -17.2374E-42,   12.3244E-42,   20.5161E-06
C:/temp/dataset/2/16_1.odb,Step-1,Increment      1: Step Time =    1.000,"PART-1-1",            62,           -9.,          -30.,            0.,NA,NA,"",            0.,   2.59661E-42,   16.8212E-42,   10.5100E-06
C:/temp/dataset/2/16_1.odb,Step-1,Increment      1: Step Time =    1.000,"PART-1-1",            63,          -12.,          -30.,            0.,NA,NA,"",            0.,   14.1321E-42,   22.0494E-42,   12.9571E-06
C:/temp/dataset/2/16_1.odb,Step-1,Increment      1: Step Time =    1.000,"PART-1-1",            64,           15.,         -27.5,            0.,NA,NA,"",   3.87958E-03,   2.41700E-03,  -3.03467E-03,   1.22056E-03
C:/temp/dataset/2/16_1.odb,Step-1,Increment      1: Step Time =    1.000,"PART-1-1",            65,           15.,         -22.5,            0.,NA,NA,"",   9.09823E-03,   4.80103E-03,  -7.72838E-03,   1.02180E-03
C:/temp/dataset/2/16_1.odb,Step-1,Increment      1: Step Time =    1.000,"PART-1-1",            66,       8.33333,          -20.,            0.,NA,NA,"",   7.91712E-03,   3.19648E-03,  -7.24315E-03,   986.418E-06
C:/temp/dataset/2/16_1.odb,Step-1,Increment      1: Step Time =    1.000,"PART-1-1",            67,       11.6667,          -20.,            0.,NA,NA,"",   9.69894E-03,   4.38554E-03,  -8.65081E-03,   981.884E-06
C:/temp/dataset/2/16_1.odb,Step-1,Increment      1: Step Time =    1.000,"PART-1-1",            68,      -1.66667,          -20.,            0.,NA,NA,"",   721.267E-06,   718.069E-06,  -67.8483E-06,   168.218E-06
C:/temp/dataset/2/16_1.odb,Step-1,Increment      1: Step Time =    1.000,"PART-1-1",            69,       1.66667,          -20.,            0.,NA,NA,"",   1.63931E-03,   1.41945E-03,  -820.046E-06,   383.392E-06
C:/temp/dataset/2/16_1.odb,Step-1,Increment      1: Step Time =    1.000,"PART-1-1",            70,           -5.,          -15.,            0.,NA,NA,"",   263.813E-06,   257.046E-06,   59.3704E-06,   3.08563E-06
C:/temp/dataset/2/16_1.odb,Step-1,Increment      1: Step Time =    1.000,"PART-1-1",            71,           -5.,         -17.5,            0.,NA,NA,"",   265.715E-06,   256.962E-06,   67.6406E-06,   14.5824E-06
C:/temp/dataset/2/16_1.odb,Step-1,Increment      1: Step Time =    1.000,"PART-1-1",            72,           -5.,          -7.5,            0.,NA,NA,"",   290.803E-06,   285.603E-06,   54.7464E-06,   15.2714E-09
C:/temp/dataset/2/16_1.odb,Step-1,Increment      1: Step Time =    1.000,"PART-1-1",            73,           -5.,          -10.,            0.,NA,NA,"",   281.100E-06,   275.681E-06,   54.9286E-06,   198.991E-09
C:/temp/dataset/2/16_1.odb,Step-1,Increment      1: Step Time =    1.000,"PART-1-1",            74,          -2.5,           -5.,            0.,NA,NA,"",   298.817E-06,   295.389E-06,   45.1266E-06,   2.14972E-09
C:/temp/dataset/2/16_1.odb,Step-1,Increment      1: Step Time =    1.000,"PART-1-1",            75,           2.5,           -5.,            0.,NA,NA,"",   296.515E-06,   295.389E-06,   25.8157E-06,   141.149E-12
C:/temp/dataset/2/16_1.odb,Step-1,Increment      1: Step Time =    1.000,"PART-1-1",            76,           7.5,           -5.,            0.,NA,NA,"",   295.460E-06,   295.389E-06,   6.50174E-06,   13.0804E-12
C:/temp/dataset/2/16_1.odb,Step-1,Increment      1: Step Time =    1.000,"PART-1-1",            77,          12.5,           -5.,            0.,NA,NA,"",   295.666E-06,   295.389E-06,  -12.8124E-06,   542.580E-15
C:/temp/dataset/2/16_1.odb,Step-1,Increment      1: Step Time =    1.000,"PART-1-1",            78,           15.,   833.333E-03,            0.,NA,NA,"",   318.715E-06,   317.922E-06,  -22.4695E-06,   1.74182E-12
C:/temp/dataset/2/16_1.odb,Step-1,Increment      1: Step Time =    1.000,"PART-1-1",            79,           15.,      -2.08333,            0.,NA,NA,"",   307.477E-06,   306.655E-06,  -22.4694E-06,   707.186E-15
C:/temp/dataset/2/16_1.odb,Step-1,Increment      1: Step Time =    1.000,"PART-1-1",            80,           15.,       9.58333,            0.,NA,NA,"",   352.438E-06,   351.721E-06,  -22.4695E-06,   348.450E-15
C:/temp/dataset/2/16_1.odb,Step-1,Increment      1: Step Time =    1.000,"PART-1-1",            81,           15.,       6.66667,            0.,NA,NA,"",   341.195E-06,   340.455E-06,  -22.4695E-06,   207.658E-15
C:/temp/dataset/2/16_1.odb,Step-1,Increment      1: Step Time =    1.000,"PART-1-1",            82,           15.,       18.3333,            0.,NA,NA,"",   386.175E-06,   385.521E-06,  -22.4696E-06,   6.50185E-15
C:/temp/dataset/2/16_1.odb,Step-1,Increment      1: Step Time =    1.000,"PART-1-1",            83,           15.,       15.4167,            0.,NA,NA,"",   374.928E-06,   374.254E-06,  -22.4696E-06,   44.7022E-15
C:/temp/dataset/2/16_1.odb,Step-1,Increment      1: Step Time =    1.000,"PART-1-1",            84,           15.,       27.0833,            0.,NA,NA,"",   419.922E-06,   419.321E-06,  -22.4697E-06,   816.273E-18
C:/temp/dataset/2/16_1.odb,Step-1,Increment      1: Step Time =    1.000,"PART-1-1",            85,           15.,       24.1667,            0.,NA,NA,"",   408.672E-06,   408.054E-06,  -22.4696E-06,   757.471E-18
C:/temp/dataset/2/16_1.odb,Step-1,Increment      1: Step Time =    1.000,"PART-1-1",            86,           10.,           30.,            0.,NA,NA,"",   430.599E-06,   430.587E-06,  -3.15559E-06,   989.706E-18
C:/temp/dataset/2/16_1.odb,Step-1,Increment      1: Step Time =    1.000,"PART-1-1",            87,          12.5,           30.,            0.,NA,NA,"",   430.778E-06,   430.587E-06,  -12.8126E-06,   647.811E-18
C:/temp/dataset/2/16_1.odb,Step-1,Increment      1: Step Time =    1.000,"PART-1-1",            88,           2.5,           30.,            0.,NA,NA,"",   431.361E-06,   430.587E-06,   25.8156E-06,   432.668E-18
C:/temp/dataset/2/16_1.odb,Step-1,Increment      1: Step Time =    1.000,"PART-1-1",            89,            5.,           30.,            0.,NA,NA,"",   430.890E-06,   430.587E-06,   16.1585E-06,   843.408E-18
C:/temp/dataset/2/16_1.odb,Step-1,Increment      1: Step Time =    1.000,"PART-1-1",            90,           -5.,           30.,            0.,NA,NA,"",   434.059E-06,   430.587E-06,   54.7867E-06,   733.589E-18
C:/temp/dataset/2/16_1.odb,Step-1,Increment      1: Step Time =    1.000,"PART-1-1",            91,          -2.5,           30.,            0.,NA,NA,"",   432.946E-06,   430.587E-06,   45.1297E-06,   714.464E-18
C:/temp/dataset/2/16_1.odb,Step-1,Increment      1: Step Time =    1.000,"PART-1-1",            92,         -12.5,           30.,            0.,NA,NA,"",   438.658E-06,   430.587E-06,   83.7579E-06,   601.980E-18
C:/temp/dataset/2/16_1.odb,Step-1,Increment      1: Step Time =    1.000,"PART-1-1",            93,          -10.,           30.,            0.,NA,NA,"",   436.917E-06,   430.587E-06,   74.1008E-06,   720.783E-18
C:/temp/dataset/2/16_1.odb,Step-1,Increment      1: Step Time =    1.000,"PART-1-1",            94,          -15.,          27.5,            0.,NA,NA,"",   431.171E-06,   420.930E-06,   93.4149E-06,   553.517E-18
C:/temp/dataset/2/16_1.odb,Step-1,Increment      1: Step Time =    1.000,"PART-1-1",            95,      -12.4978,       24.9766,            0.,NA,NA,"",   419.625E-06,   411.183E-06,   83.7493E-06,   695.958E-18
C:/temp/dataset/2/16_1.odb,Step-1,Increment      1: Step Time =    1.000,"PART-1-1",            96,      -7.49872,       27.4475,            0.,NA,NA,"",   425.634E-06,   420.728E-06,   64.4388E-06,   657.572E-18
C:/temp/dataset/2/16_1.odb,Step-1,Increment      1: Step Time =    1.000,"PART-1-1",            97,      -7.50661,       22.4446,            0.,NA,NA,"",   406.546E-06,   401.402E-06,   64.4694E-06,   509.057E-18
C:/temp/dataset/2/16_1.odb,Step-1,Increment      1: Step Time =    1.000,"PART-1-1",            98,      -2.53392,       22.4091,            0.,NA,NA,"",   403.810E-06,   401.265E-06,   45.2608E-06,   662.834E-18
C:/temp/dataset/2/16_1.odb,Step-1,Increment      1: Step Time =    1.000,"PART-1-1",            99,  -19.7467E-03,       27.3919,            0.,NA,NA,"",   422.013E-06,   420.513E-06,   35.5489E-06,   737.155E-18
C:/temp/dataset/2/16_1.odb,Step-1,Increment      1: Step Time =    1.000,"PART-1-1",           100,       2.31326,       22.2671,            0.,NA,NA,"",   401.594E-06,   400.717E-06,   26.5370E-06,   842.414E-18
C:/temp/dataset/2/16_1.odb,Step-1,Increment      1: Step Time =    1.000,"PART-1-1",           101,       7.89882,       27.4278,            0.,NA,NA,"",   420.681E-06,   420.651E-06,   4.96092E-06,   657.352E-18
C:/temp/dataset/2/16_1.odb,Step-1,Increment      1: Step Time =    1.000,"PART-1-1",           102,       6.74061,       20.0564,            0.,NA,NA,"",   392.291E-06,   392.177E-06,   9.43493E-06,   3.64468E-15
C:/temp/dataset/2/16_1.odb,Step-1,Increment      1: Step Time =    1.000,"PART-1-1",           103,       6.76082,       17.7755,            0.,NA,NA,"",   383.480E-06,   383.366E-06,   9.35688E-06,   17.7813E-15
C:/temp/dataset/2/16_1.odb,Step-1,Increment      1: Step Time =    1.000,"PART-1-1",           104,       7.34933,       13.0959,            0.,NA,NA,"",   365.358E-06,   365.290E-06,   7.08360E-06,   167.635E-15
C:/temp/dataset/2/16_1.odb,Step-1,Increment      1: Step Time =    1.000,"PART-1-1",           105,       12.5251,      -2.17932,            0.,NA,NA,"",   306.556E-06,   306.284E-06,  -12.9092E-06,   2.34717E-12
C:/temp/dataset/2/16_1.odb,Step-1,Increment      1: Step Time =    1.000,"PART-1-1",           106,       11.8446,      -24.9441,            0.,NA,NA,"",   4.76902E-03,   2.21596E-03,  -4.22292E-03,   1.06865E-03
C:/temp/dataset/2/16_1.odb,Step-1,Increment      1: Step Time =    1.000,"PART-1-1",           107,       2.44158,      -2.66949,            0.,NA,NA,"",   305.503E-06,   304.391E-06,   26.0414E-06,   94.5019E-12
C:/temp/dataset/2/16_1.odb,Step-1,Increment      1: Step Time =    1.000,"PART-1-1",           108,       7.46163,      -2.37632,            0.,NA,NA,"",   305.596E-06,   305.523E-06,   6.64995E-06,   14.9029E-12
C:/temp/dataset/2/16_1.odb,Step-1,Increment      1: Step Time =    1.000,"PART-1-1",           109,       7.48217,       7.95809,            0.,NA,NA,"",   345.506E-06,   345.443E-06,   6.57049E-06,   2.35934E-12
C:/temp/dataset/2/16_1.odb,Step-1,Increment      1: Step Time =    1.000,"PART-1-1",           110,      -5.01446,       22.4347,            0.,NA,NA,"",   405.093E-06,   401.364E-06,   54.8426E-06,   759.487E-18
C:/temp/dataset/2/16_1.odb,Step-1,Increment      1: Step Time =    1.000,"PART-1-1",           111,  -75.1424E-03,       22.3615,            0.,NA,NA,"",   402.673E-06,   401.081E-06,   35.7629E-06,   748.075E-18
C:/temp/dataset/2/16_1.odb,Step-1,Increment      1: Step Time =    1.000,"PART-1-1",           112,       4.50776,       22.1530,            0.,NA,NA,"",   400.683E-06,   400.276E-06,   18.0600E-06,   1.41578E-15
C:/temp/dataset/2/16_1.odb,Step-1,Increment      1: Step Time =    1.000,"PART-1-1",           113,       7.06405,       15.4904,            0.,NA,NA,"",   374.629E-06,   374.539E-06,   8.18557E-06,   55.3725E-15
C:/temp/dataset/2/16_1.odb,Step-1,Increment      1: Step Time =    1.000,"PART-1-1",           114,       7.46285,       10.5556,            0.,NA,NA,"",   355.539E-06,   355.477E-06,   6.64511E-06,   575.760E-15
C:/temp/dataset/2/16_1.odb,Step-1,Increment      1: Step Time =    1.000,"PART-1-1",           115,      -2.89738,      -2.05905,            0.,NA,NA,"",   310.280E-06,   306.751E-06,   46.6638E-06,   2.55247E-09
C:/temp/dataset/2/16_1.odb,Step-1,Increment      1: Step Time =    1.000,"PART-1-1",           116,      -7.61206,      -10.6629,            0.,NA,NA,"",   280.528E-06,   272.961E-06,   64.7176E-06,   373.467E-09
C:/temp/dataset/2/16_1.odb,Step-1,Increment      1: Step Time =    1.000,"PART-1-1",           117,      -6.85891,      -17.7385,            0.,NA,NA,"",   256.263E-06,   248.537E-06,   62.4483E-06,   7.51637E-06
C:/temp/dataset/2/16_1.odb,Step-1,Increment      1: Step Time =    1.000,"PART-1-1",           118,       11.9280,      -27.4687,            0.,NA,NA,"",   2.31797E-03,   1.13764E-03,  -2.01960E-03,   1.05108E-03
C:/temp/dataset/2/16_1.odb,Step-1,Increment      1: Step Time =    1.000,"PART-1-1",           119,      -7.44747,      -13.1413,            0.,NA,NA,"",   270.299E-06,   262.668E-06,   63.7699E-06,   980.320E-09
C:/temp/dataset/2/16_1.odb,Step-1,Increment      1: Step Time =    1.000,"PART-1-1",           120,      -7.13169,      -15.4658,            0.,NA,NA,"",   261.432E-06,   253.925E-06,   62.1984E-06,   1.87667E-06
C:/temp/dataset/2/16_1.odb,Step-1,Increment      1: Step Time =    1.000,"PART-1-1",           121,      -8.02089,      -5.87394,            0.,NA,NA,"",   299.462E-06,   291.993E-06,   66.4659E-06,   25.0086E-09
C:/temp/dataset/2/16_1.odb,Step-1,Increment      1: Step Time =    1.000,"PART-1-1",           122,      -7.74476,      -8.18529,            0.,NA,NA,"",   290.371E-06,   282.918E-06,   65.3648E-06,   112.938E-09
C:/temp/dataset/2/16_1.odb,Step-1,Increment      1: Step Time =    1.000,"PART-1-1",           123,  -21.3834E-03,      -2.74811,            0.,NA,NA,"",   306.159E-06,   304.087E-06,   35.5549E-06,   641.822E-12
C:/temp/dataset/2/16_1.odb,Step-1,Increment      1: Step Time =    1.000,"PART-1-1",           124,       4.94012,      -2.49525,            0.,NA,NA,"",   305.504E-06,   305.064E-06,   16.3901E-06,   35.3409E-12
C:/temp/dataset/2/16_1.odb,Step-1,Increment      1: Step Time =    1.000,"PART-1-1",           125,       10.0127,      -2.27482,            0.,NA,NA,"",   305.932E-06,   305.915E-06,  -3.20439E-06,   6.23153E-12
C:/temp/dataset/2/16_1.odb,Step-1,Increment      1: Step Time =    1.000,"PART-1-1",           126,       10.2967,       27.4669,            0.,NA,NA,"",   420.824E-06,   420.802E-06,  -4.30180E-06,   726.558E-18
C:/temp/dataset/2/16_1.odb,Step-1,Increment      1: Step Time =    1.000,"PART-1-1",           127,       12.6750,       27.3103,            0.,NA,NA,"",   420.414E-06,   420.197E-06,  -13.4887E-06,   1.00729E-15
C:/temp/dataset/2/16_1.odb,Step-1,Increment      1: Step Time =    1.000,"PART-1-1",           128,       2.52543,       27.2659,            0.,NA,NA,"",   420.813E-06,   420.026E-06,   25.7173E-06,   676.457E-18
C:/temp/dataset/2/16_1.odb,Step-1,Increment      1: Step Time =    1.000,"PART-1-1",           129,       5.32711,       26.8707,            0.,NA,NA,"",   418.764E-06,   418.499E-06,   14.8950E-06,   1.01696E-15
C:/temp/dataset/2/16_1.odb,Step-1,Increment      1: Step Time =    1.000,"PART-1-1",           130,      -5.00948,       27.4462,            0.,NA,NA,"",   424.279E-06,   420.722E-06,   54.8233E-06,   652.650E-18
C:/temp/dataset/2/16_1.odb,Step-1,Increment      1: Step Time =    1.000,"PART-1-1",           131,      -2.51658,       27.4324,            0.,NA,NA,"",   423.090E-06,   420.669E-06,   45.1937E-06,   773.756E-18
C:/temp/dataset/2/16_1.odb,Step-1,Increment      1: Step Time =    1.000,"PART-1-1",           132,      -9.99211,       27.4668,            0.,NA,NA,"",   427.271E-06,   420.802E-06,   74.0703E-06,   709.648E-18
C:/temp/dataset/2/16_1.odb,Step-1,Increment      1: Step Time =    1.000,"PART-1-1",           133,       12.5029,       21.6680,            0.,NA,NA,"",   398.609E-06,   398.402E-06,  -12.8237E-06,   1.45441E-15
C:/temp/dataset/2/16_1.odb,Step-1,Increment      1: Step Time =    1.000,"PART-1-1",           134,      -12.7198,      -9.27859,            0.,NA,NA,"",   291.805E-06,   279.285E-06,   84.5589E-06,   188.881E-09
C:/temp/dataset/2/16_1.odb,Step-1,Increment      1: Step Time =    1.000,"PART-1-1",           135,      -12.2206,      -21.4876,            0.,NA,NA,"",   211.001E-06,   195.174E-06,   80.1790E-06,   9.24720E-06
C:/temp/dataset/2/16_1.odb,Step-1,Increment      1: Step Time =    1.000,"PART-1-1",           136,       12.4390,       11.8581,            0.,NA,NA,"",   360.728E-06,   360.508E-06,  -12.5769E-06,   174.614E-15
C:/temp/dataset/2/16_1.odb,Step-1,Increment      1: Step Time =    1.000,"PART-1-1",           137,      -12.6285,      -12.0158,            0.,NA,NA,"",   282.133E-06,   269.307E-06,   84.0999E-06,   601.575E-09
C:/temp/dataset/2/16_1.odb,Step-1,Increment      1: Step Time =    1.000,"PART-1-1",           138,      -12.4213,      -14.8709,            0.,NA,NA,"",   271.484E-06,   258.577E-06,   82.7146E-06,   1.37880E-06
C:/temp/dataset/2/16_1.odb,Step-1,Increment      1: Step Time =    1.000,"PART-1-1",           139,       12.2989,       14.8029,            0.,NA,NA,"",   372.078E-06,   371.884E-06,  -12.0358E-06,   86.4054E-15
C:/temp/dataset/2/16_1.odb,Step-1,Increment      1: Step Time =    1.000,"PART-1-1",           140,       11.7182,       18.2155,            0.,NA,NA,"",   385.190E-06,   385.066E-06,  -9.79252E-06,   16.3339E-15
C:/temp/dataset/2/16_1.odb,Step-1,Increment      1: Step Time =    1.000,"PART-1-1",           141,      -12.3380,      -4.01281,            0.,NA,NA,"",   310.567E-06,   299.237E-06,   83.1213E-06,   4.34057E-09
C:/temp/dataset/2/16_1.odb,Step-1,Increment      1: Step Time =    1.000,"PART-1-1",           142,       12.5089,       6.21106,            0.,NA,NA,"",   338.938E-06,   338.695E-06,  -12.8469E-06,   999.150E-15
C:/temp/dataset/2/16_1.odb,Step-1,Increment      1: Step Time =    1.000,"PART-1-1",           143,      -10.9765,      -1.21375,            0.,NA,NA,"",   319.651E-06,   310.020E-06,   77.8726E-06,   4.09951E-09
C:/temp/dataset/2/16_1.odb,Step-1,Increment      1: Step Time =    1.000,"PART-1-1",           144,      -11.4273,       2.02370,            0.,NA,NA,"",   332.194E-06,   322.515E-06,   79.6063E-06,   2.84052E-09
C:/temp/dataset/2/16_1.odb,Step-1,Increment      1: Step Time =    1.000,"PART-1-1",           145,      -12.7154,      -6.64001,            0.,NA,NA,"",   301.304E-06,   289.192E-06,   84.5696E-06,   38.2455E-09
C:/temp/dataset/2/16_1.odb,Step-1,Increment      1: Step Time =    1.000,"PART-1-1",           146,      -11.7762,      -18.1315,            0.,NA,NA,"",   253.173E-06,   240.726E-06,   78.4066E-06,   1.40801E-06
C:/temp/dataset/2/16_1.odb,Step-1,Increment      1: Step Time =    1.000,"PART-1-1",           147,      -12.2481,      -24.4184,            0.,NA,NA,"",   142.096E-06,   126.227E-06,   65.2530E-06,   17.5657E-06
C:/temp/dataset/2/16_1.odb,Step-1,Increment      1: Step Time =    1.000,"PART-1-1",           148,       12.5340,       3.42208,            0.,NA,NA,"",   328.177E-06,   327.922E-06,  -12.9437E-06,   1.99977E-12
C:/temp/dataset/2/16_1.odb,Step-1,Increment      1: Step Time =    1.000,"PART-1-1",           149,       12.5428,   630.306E-03,            0.,NA,NA,"",   317.403E-06,   317.137E-06,  -12.9777E-06,   2.25567E-12
C:/temp/dataset/2/16_1.odb,Step-1,Increment      1: Step Time =    1.000,"PART-1-1",           150,       12.5001,       9.03097,            0.,NA,NA,"",   349.822E-06,   349.588E-06,  -12.8129E-06,   154.323E-15
C:/temp/dataset/2/16_1.odb,Step-1,Increment      1: Step Time =    1.000,"PART-1-1",           151,       12.7192,       24.5718,            0.,NA,NA,"",   409.847E-06,   409.619E-06,  -13.6591E-06,   980.193E-18
C:/temp/dataset/2/16_1.odb,Step-1,Increment      1: Step Time =    1.000,"PART-1-1",           152,       2.66783,      -27.4286,            0.,NA,NA,"",   604.349E-06,  -438.513E-06,  -415.865E-06,   241.609E-06
C:/temp/dataset/2/16_1.odb,Step-1,Increment      1: Step Time =    1.000,"PART-1-1",           153,       8.86089,      -27.4494,            0.,NA,NA,"",   1.51831E-03,   218.280E-06,  -1.50254E-03,   766.147E-06
C:/temp/dataset/2/16_1.odb,Step-1,Increment      1: Step Time =    1.000,"PART-1-1",           154,       5.76511,      -27.4328,            0.,NA,NA,"",   1.01902E-03,  -306.952E-06,  -971.692E-06,   496.845E-06
C:/temp/dataset/2/16_1.odb,Step-1,Increment      1: Step Time =    1.000,"PART-1-1",           155,  -414.647E-03,      -27.4330,            0.,NA,NA,"",   308.527E-06,  -296.722E-06,  -84.5281E-06,   106.854E-06
C:/temp/dataset/2/16_1.odb,Step-1,Increment      1: Step Time =    1.000,"PART-1-1",           156,      -3.42691,      -27.4460,            0.,NA,NA,"",   128.296E-06,  -125.678E-06,   25.7897E-06,   61.7815E-06
C:/temp/dataset/2/16_1.odb,Step-1,Increment      1: Step Time =    1.000,"PART-1-1",           157,      -6.36574,      -27.4272,            0.,NA,NA,"",   43.6743E-06,  -20.2792E-06,   38.6807E-06,   35.4859E-06
C:/temp/dataset/2/16_1.odb,Step-1,Increment      1: Step Time =    1.000,"PART-1-1",           158,       10.5238,       25.0033,            0.,NA,NA,"",   411.319E-06,   411.286E-06,  -5.17881E-06,   1.13022E-15
C:/temp/dataset/2/16_1.odb,Step-1,Increment      1: Step Time =    1.000,"PART-1-1",           159,       6.26912,       22.1485,            0.,NA,NA,"",   400.417E-06,   400.259E-06,   11.2562E-06,   1.11661E-15
C:/temp/dataset/2/16_1.odb,Step-1,Increment      1: Step Time =    1.000,"PART-1-1",           160,      -5.96402,      -2.70245,            0.,NA,NA,"",   309.846E-06,   304.271E-06,   58.5123E-06,   5.64662E-09
C:/temp/dataset/2/16_1.odb,Step-1,Increment      1: Step Time =    1.000,"PART-1-1",           161,      -12.5033,       22.4816,            0.,NA,NA,"",   410.190E-06,   401.545E-06,   83.7705E-06,   766.412E-18
C:/temp/dataset/2/16_1.odb,Step-1,Increment      1: Step Time =    1.000,"PART-1-1",           162,      -2.53325,       24.9024,            0.,NA,NA,"",   413.381E-06,   410.896E-06,   45.2581E-06,   481.543E-18
C:/temp/dataset/2/16_1.odb,Step-1,Increment      1: Step Time =    1.000,"PART-1-1",           163,       4.43197,       24.4161,            0.,NA,NA,"",   409.429E-06,   409.018E-06,   18.3527E-06,   835.617E-18
C:/temp/dataset/2/16_1.odb,Step-1,Increment      1: Step Time =    1.000,"PART-1-1",           164,      -10.2797,      -8.84555,            0.,NA,NA,"",   290.479E-06,   280.631E-06,   74.9940E-06,   179.682E-09
C:/temp/dataset/2/16_1.odb,Step-1,Increment      1: Step Time =    1.000,"PART-1-1",           165,       2.21534,  -332.134E-03,            0.,NA,NA,"",   314.573E-06,   313.420E-06,   26.9153E-06,   77.7477E-12
C:/temp/dataset/2/16_1.odb,Step-1,Increment      1: Step Time =    1.000,"PART-1-1",           166,  -74.2209E-03,       24.8536,            0.,NA,NA,"",   412.261E-06,   410.708E-06,   35.7593E-06,   898.983E-18
C:/temp/dataset/2/16_1.odb,Step-1,Increment      1: Step Time =    1.000,"PART-1-1",           167,       2.30693,       24.7164,            0.,NA,NA,"",   411.037E-06,   410.178E-06,   26.5614E-06,   487.905E-18
C:/temp/dataset/2/16_1.odb,Step-1,Increment      1: Step Time =    1.000,"PART-1-1",           168,       9.79368,       13.9045,            0.,NA,NA,"",   368.421E-06,   368.413E-06,  -2.35851E-06,   128.800E-15
C:/temp/dataset/2/16_1.odb,Step-1,Increment      1: Step Time =    1.000,"PART-1-1",           169,       9.30777,       16.4521,            0.,NA,NA,"",   378.254E-06,   378.254E-06,  -481.526E-09,   38.0656E-15
C:/temp/dataset/2/16_1.odb,Step-1,Increment      1: Step Time =    1.000,"PART-1-1",           170,      -2.35985,       1.11806,            0.,NA,NA,"",   322.123E-06,   319.022E-06,   44.5896E-06,   694.331E-12
C:/temp/dataset/2/16_1.odb,Step-1,Increment      1: Step Time =    1.000,"PART-1-1",           171,      -9.94133,      -13.9778,            0.,NA,NA,"",   270.655E-06,   261.046E-06,   71.4777E-06,   1.27620E-06
C:/temp/dataset/2/16_1.odb,Step-1,Increment      1: Step Time =    1.000,"PART-1-1",           172,       4.80988,   33.7751E-03,            0.,NA,NA,"",   315.286E-06,   314.833E-06,   16.8931E-06,   31.0249E-12
C:/temp/dataset/2/16_1.odb,Step-1,Increment      1: Step Time =    1.000,"PART-1-1",           173,       9.94126,       11.1894,            0.,NA,NA,"",   357.937E-06,   357.925E-06,  -2.92856E-06,   156.150E-15
C:/temp/dataset/2/16_1.odb,Step-1,Increment      1: Step Time =    1.000,"PART-1-1",           174,       7.43598,   226.782E-03,            0.,NA,NA,"",   315.651E-06,   315.579E-06,   6.74900E-06,   18.4394E-12
C:/temp/dataset/2/16_1.odb,Step-1,Increment      1: Step Time =    1.000,"PART-1-1",           175,      -7.50368,       24.9336,            0.,NA,NA,"",   416.041E-06,   411.017E-06,   64.4580E-06,   834.512E-18
C:/temp/dataset/2/16_1.odb,Step-1,Increment      1: Step Time =    1.000,"PART-1-1",           176,      -10.1536,      -11.3797,            0.,NA,NA,"",   280.826E-06,   270.939E-06,   73.8610E-06,   583.554E-09
C:/temp/dataset/2/16_1.odb,Step-1,Increment      1: Step Time =    1.000,"PART-1-1",           177,       6.92724,       24.6415,            0.,NA,NA,"",   409.981E-06,   409.888E-06,   8.71395E-06,   766.178E-18
C:/temp/dataset/2/16_1.odb,Step-1,Increment      1: Step Time =    1.000,"PART-1-1",           178,      -9.99868,       24.9580,            0.,NA,NA,"",   417.735E-06,   411.111E-06,   74.0957E-06,   702.877E-18
C:/temp/dataset/2/16_1.odb,Step-1,Increment      1: Step Time =    1.000,"PART-1-1",           179,       8.37028,       18.0705,            0.,NA,NA,"",   384.519E-06,   384.506E-06,   3.13980E-06,   18.5663E-15
C:/temp/dataset/2/16_1.odb,Step-1,Increment      1: Step Time =    1.000,"PART-1-1",           180,      -10.4068,      -6.54987,            0.,NA,NA,"",   299.179E-06,   289.457E-06,   75.6469E-06,   49.4459E-09
C:/temp/dataset/2/16_1.odb,Step-1,Increment      1: Step Time =    1.000,"PART-1-1",           181,      -8.52723,      -17.8680,            0.,NA,NA,"",   256.955E-06,   249.091E-06,   63.0806E-06,   4.65607E-06
C:/temp/dataset/2/16_1.odb,Step-1,Increment      1: Step Time =    1.000,"PART-1-1",           182,       9.99063,       8.47585,            0.,NA,NA,"",   347.457E-06,   347.443E-06,  -3.11925E-06,   520.152E-15
C:/temp/dataset/2/16_1.odb,Step-1,Increment      1: Step Time =    1.000,"PART-1-1",           183,      -6.87511,      -22.3968,            0.,NA,NA,"",   231.988E-06,   208.023E-06,   102.689E-06,   46.6898E-06
C:/temp/dataset/2/16_1.odb,Step-1,Increment      1: Step Time =    1.000,"PART-1-1",           184,       7.48189,       5.34092,            0.,NA,NA,"",   335.398E-06,   335.334E-06,   6.57159E-06,   6.30217E-12
C:/temp/dataset/2/16_1.odb,Step-1,Increment      1: Step Time =    1.000,"PART-1-1",           185,       10.0207,   425.902E-03,            0.,NA,NA,"",   316.364E-06,   316.348E-06,  -3.23547E-06,   5.65922E-12
C:/temp/dataset/2/16_1.odb,Step-1,Increment      1: Step Time =    1.000,"PART-1-1",           186,      -8.86720,      -3.63325,            0.,NA,NA,"",   308.663E-06,   300.681E-06,   69.7380E-06,   5.52018E-09
C:/temp/dataset/2/16_1.odb,Step-1,Increment      1: Step Time =    1.000,"PART-1-1",           187,       10.0155,       5.77118,            0.,NA,NA,"",   337.011E-06,   336.996E-06,  -3.21514E-06,   2.15324E-12
C:/temp/dataset/2/16_1.odb,Step-1,Increment      1: Step Time =    1.000,"PART-1-1",           188,       9.07540,       20.2179,            0.,NA,NA,"",   392.801E-06,   392.801E-06,   416.055E-09,   5.97030E-15
C:/temp/dataset/2/16_1.odb,Step-1,Increment      1: Step Time =    1.000,"PART-1-1",           189,       5.51479,      -24.9218,            0.,NA,NA,"",   2.01157E-03,  -28.9321E-06,  -2.01137E-03,   558.984E-06
C:/temp/dataset/2/16_1.odb,Step-1,Increment      1: Step Time =    1.000,"PART-1-1",           190,       2.33502,      -24.9114,            0.,NA,NA,"",   714.111E-06,  -260.352E-06,  -664.960E-06,   182.540E-06
C:/temp/dataset/2/16_1.odb,Step-1,Increment      1: Step Time =    1.000,"PART-1-1",           191,      -3.83494,      -24.9465,            0.,NA,NA,"",   101.133E-06,   5.73472E-06,   100.970E-06,   68.8767E-06
C:/temp/dataset/2/16_1.odb,Step-1,Increment      1: Step Time =    1.000,"PART-1-1",           192,       8.68706,      -24.9229,            0.,NA,NA,"",   3.43680E-03,   916.152E-06,  -3.31244E-03,   897.788E-06
C:/temp/dataset/2/16_1.odb,Step-1,Increment      1: Step Time =    1.000,"PART-1-1",           193,  -793.545E-03,      -24.9263,            0.,NA,NA,"",   134.776E-06,  -126.580E-06,  -46.2825E-06,   79.8520E-06
C:/temp/dataset/2/16_1.odb,Step-1,Increment      1: Step Time =    1.000,"PART-1-1",           194,      -10.0041,       22.4687,            0.,NA,NA,"",   408.279E-06,   401.496E-06,   74.1166E-06,   685.759E-18
C:/temp/dataset/2/16_1.odb,Step-1,Increment      1: Step Time =    1.000,"PART-1-1",           195,       7.76291,       22.5689,            0.,NA,NA,"",   401.920E-06,   401.882E-06,   5.48593E-06,   1.36440E-15
C:/temp/dataset/2/16_1.odb,Step-1,Increment      1: Step Time =    1.000,"PART-1-1",           196,       10.0314,       3.09975,            0.,NA,NA,"",   326.693E-06,   326.676E-06,  -3.27674E-06,   4.84226E-12
C:/temp/dataset/2/16_1.odb,Step-1,Increment      1: Step Time =    1.000,"PART-1-1",           197,       7.45157,       2.78517,            0.,NA,NA,"",   325.530E-06,   325.461E-06,   6.68872E-06,   16.1237E-12
C:/temp/dataset/2/16_1.odb,Step-1,Increment      1: Step Time =    1.000,"PART-1-1",           198,       1.23926,       2.17480,            0.,NA,NA,"",   324.557E-06,   323.104E-06,   30.6860E-06,   82.6521E-12
C:/temp/dataset/2/16_1.odb,Step-1,Increment      1: Step Time =    1.000,"PART-1-1",           199,       5.89388,       23.8379,            0.,NA,NA,"",   406.983E-06,   406.784E-06,   12.7057E-06,   1.39567E-15
C:/temp/dataset/2/16_1.odb,Step-1,Increment      1: Step Time =    1.000,"PART-1-1",           200,       4.70825,       2.52712,            0.,NA,NA,"",   324.925E-06,   324.465E-06,   17.2857E-06,   36.9070E-12
C:/temp/dataset/2/16_1.odb,Step-1,Increment      1: Step Time =    1.000,"PART-1-1",           201,      -6.67563,      -24.8783,            0.,NA,NA,"",   118.050E-06,   74.5887E-06,   91.5002E-06,   47.5257E-06
C:/temp/dataset/2/16_1.odb,Step-1,Increment      1: Step Time =    1.000,"PART-1-1",           202,      -1.93740,       2.90022,            0.,NA,NA,"",   328.725E-06,   325.906E-06,   42.9581E-06,   571.181E-12
C:/temp/dataset/2/16_1.odb,Step-1,Increment      1: Step Time =    1.000,"PART-1-1",           203,      -4.27328,      -22.5070,            0.,NA,NA,"",   276.075E-06,   241.209E-06,   134.297E-06,   73.1957E-06
C:/temp/dataset/2/16_1.odb,Step-1,Increment      1: Step Time =    1.000,"PART-1-1",           204,      -7.29195,  -216.826E-03,            0.,NA,NA,"",   320.259E-06,   313.870E-06,   63.6467E-06,   2.93328E-09
C:/temp/dataset/2/16_1.odb,Step-1,Increment      1: Step Time =    1.000,"PART-1-1",           205,      -4.39370,   432.763E-03,            0.,NA,NA,"",   320.695E-06,   316.377E-06,   52.4470E-06,   2.43256E-09
C:/temp/dataset/2/16_1.odb,Step-1,Increment      1: Step Time =    1.000,"PART-1-1",           206,      -1.20581,      -22.4416,            0.,NA,NA,"",   343.118E-06,   342.881E-06,   12.7460E-06,   92.4843E-06
C:/temp/dataset/2/16_1.odb,Step-1,Increment      1: Step Time =    1.000,"PART-1-1",           207,      -4.88725,       2.78210,            0.,NA,NA,"",   329.957E-06,   325.449E-06,   54.3550E-06,   1.54791E-09
C:/temp/dataset/2/16_1.odb,Step-1,Increment      1: Step Time =    1.000,"PART-1-1",           208,      -8.02678,       2.39768,            0.,NA,NA,"",   330.714E-06,   323.963E-06,   66.4824E-06,   1.64681E-09
C:/temp/dataset/2/16_1.odb,Step-1,Increment      1: Step Time =    1.000,"PART-1-1",           209,       8.51144,      -22.4401,            0.,NA,NA,"",   5.69085E-03,   1.94597E-03,  -5.34780E-03,   1.02647E-03
C:/temp/dataset/2/16_1.odb,Step-1,Increment      1: Step Time =    1.000,"PART-1-1",           210,       5.25488,      -22.4306,            0.,NA,NA,"",   3.14677E-03,   720.888E-06,  -3.06308E-03,   695.155E-06
C:/temp/dataset/2/16_1.odb,Step-1,Increment      1: Step Time =    1.000,"PART-1-1",           211,       2.00226,      -22.4217,            0.,NA,NA,"",   792.769E-06,   414.121E-06,  -676.008E-06,   93.5338E-06
C:/temp/dataset/2/16_1.odb,Step-1,Increment      1: Step Time =    1.000,"PART-1-1",           212,      -9.28570,      -27.3600,            0.,NA,NA,"",   43.3709E-06,   29.6742E-06,   31.6303E-06,   23.5013E-06
C:/temp/dataset/2/16_1.odb,Step-1,Increment      1: Step Time =    1.000,"PART-1-1",           213,       11.7596,      -22.4488,            0.,NA,NA,"",   7.33835E-03,   3.35617E-03,  -6.52591E-03,   1.01495E-03
C:/temp/dataset/2/16_1.odb,Step-1,Increment      1: Step Time =    1.000,"PART-1-1",           214,      -12.4952,       27.4851,            0.,NA,NA,"",   429.123E-06,   420.873E-06,   83.7394E-06,   748.824E-18
C:/temp/dataset/2/16_1.odb,Step-1,Increment      1: Step Time =    1.000,"PART-1-1",           215,      -12.1608,      -27.2494,            0.,NA,NA,"",   65.0122E-06,   54.9876E-06,   34.6834E-06,   20.7788E-06
C:/temp/dataset/2/16_1.odb,Step-1,Increment      1: Step Time =    1.000,"PART-1-1",           216,      -6.92277,      -20.0189,            0.,NA,NA,"",   273.497E-06,   263.924E-06,   71.7279E-06,   25.1903E-06
C:/temp/dataset/2/16_1.odb,Step-1,Increment      1: Step Time =    1.000,"PART-1-1",           217,       10.3403,       22.5364,            0.,NA,NA,"",   401.782E-06,   401.757E-06,  -4.46991E-06,   1.96417E-15
C:/temp/dataset/2/16_1.odb,Step-1,Increment      1: Step Time =    1.000,"PART-1-1",           218,      -9.38591,      -16.3373,            0.,NA,NA,"",   261.229E-06,   252.557E-06,   66.7482E-06,   1.51148E-06
C:/temp/dataset/2/16_1.odb,Step-1,Increment      1: Step Time =    1.000,"PART-1-1",           219,      -9.56004,      -22.0160,            0.,NA,NA,"",   206.011E-06,   191.020E-06,   77.1474E-06,   20.3985E-06
C:/temp/dataset/2/16_1.odb,Step-1,Increment      1: Step Time =    1.000,"PART-1-1",           220,      -9.49058,      -24.6874,            0.,NA,NA,"",   125.137E-06,   106.333E-06,   65.9732E-06,   28.6162E-06
C:/temp/dataset/2/16_1.odb,Step-1,Increment      1: Step Time =    1.000,"PART-1-1",           221,  -968.003E-03,   33.9082E-03,            0.,NA,NA,"",   317.267E-06,   314.834E-06,   39.2121E-06,   606.432E-12
C:/temp/dataset/2/16_1.odb,Step-1,Increment      1: Step Time =    1.000,"PART-1-1",           222,   333.674E-03,      -1.00763,            0.,NA,NA,"",   312.685E-06,   310.810E-06,   34.1836E-06,   421.743E-12
C:/temp/dataset/2/16_1.odb,Step-1,Increment      1: Step Time =    1.000,"PART-1-1",           223,      -10.5623,      -4.72446,            0.,NA,NA,"",   306.140E-06,   296.486E-06,   76.2772E-06,   12.9180E-09
C:/temp/dataset/2/16_1.odb,Step-1,Increment      1: Step Time =    1.000,"PART-1-1",           224,      -5.01319,       24.9269,            0.,NA,NA,"",   414.633E-06,   410.991E-06,   54.8377E-06,   729.525E-18
C:/temp/dataset/2/16_1.odb,Step-1,Increment      1: Step Time =    1.000,"PART-1-1",           225,      -9.24174,      -19.5473,            0.,NA,NA,"",   247.029E-06,   237.317E-06,   68.5855E-06,   9.07176E-06
C:/temp/dataset/2/16_1.odb,Step-1,Increment      1: Step Time =    1.000,"PART-1-1",           226,       8.53639,       25.1316,            0.,NA,NA,"",   411.789E-06,   411.782E-06,   2.49810E-06,   1.20309E-15
C:/temp/dataset/2/16_1.odb,Step-1,Increment      1: Step Time =    1.000,"PART-1-1",           227,       8.85572,       23.3093,            0.,NA,NA,"",   404.744E-06,   404.742E-06,   1.26460E-06,   1.16720E-15
C:/temp/dataset/2/16_1.odb,Step-1,Increment      1: Step Time =    1.000,"PART-1-1",           228,      -13.7516,       22.4908,            0.,NA,NA,"",   411.237E-06,   401.581E-06,   88.5927E-06,   812.525E-18
C:/temp/dataset/2/16_1.odb,Step-1,Increment      1: Step Time =    1.000,"PART-1-1",           229,          -15.,         21.25,            0.,NA,NA,"",   407.636E-06,   396.788E-06,   93.4150E-06,   645.096E-18
C:/temp/dataset/2/16_1.odb,Step-1,Increment      1: Step Time =    1.000,"PART-1-1",           230,        -13.75,           20.,            0.,NA,NA,"",   401.845E-06,   391.959E-06,   88.5865E-06,   477.696E-18
C:/temp/dataset/2/16_1.odb,Step-1,Increment      1: Step Time =    1.000,"PART-1-1",           231,      -12.5016,       21.2408,            0.,NA,NA,"",   405.498E-06,   396.752E-06,   83.7642E-06,   585.088E-18
C:/temp/dataset/2/16_1.odb,Step-1,Increment      1: Step Time =    1.000,"PART-1-1",           232,      -9.99605,       28.7334,            0.,NA,NA,"",   432.093E-06,   425.695E-06,   74.0856E-06,   855.795E-18
C:/temp/dataset/2/16_1.odb,Step-1,Increment      1: Step Time =    1.000,"PART-1-1",           233,        -11.25,           30.,            0.,NA,NA,"",   437.762E-06,   430.587E-06,   78.9293E-06,   759.523E-18
C:/temp/dataset/2/16_1.odb,Step-1,Increment      1: Step Time =    1.000,"PART-1-1",           234,      -12.4976,       28.7426,            0.,NA,NA,"",   433.889E-06,   425.730E-06,   83.7486E-06,   703.936E-18
C:/temp/dataset/2/16_1.odb,Step-1,Increment      1: Step Time =    1.000,"PART-1-1",           235,      -11.2437,       27.4760,            0.,NA,NA,"",   428.171E-06,   420.838E-06,   78.9048E-06,   699.688E-18
C:/temp/dataset/2/16_1.odb,Step-1,Increment      1: Step Time =    1.000,"PART-1-1",           236,      -8.74541,       27.4572,            0.,NA,NA,"",   426.426E-06,   420.765E-06,   69.2546E-06,   686.325E-18
C:/temp/dataset/2/16_1.odb,Step-1,Increment      1: Step Time =    1.000,"PART-1-1",           237,      -7.49936,       28.7238,            0.,NA,NA,"",   430.508E-06,   425.658E-06,   64.4413E-06,   640.582E-18
C:/temp/dataset/2/16_1.odb,Step-1,Increment      1: Step Time =    1.000,"PART-1-1",           238,         -8.75,           30.,            0.,NA,NA,"",   436.124E-06,   430.587E-06,   69.2723E-06,   563.790E-18
C:/temp/dataset/2/16_1.odb,Step-1,Increment      1: Step Time =    1.000,"PART-1-1",           239,      -10.0020,       21.2344,            0.,NA,NA,"",   403.590E-06,   396.727E-06,   74.1088E-06,   589.134E-18
C:/temp/dataset/2/16_1.odb,Step-1,Increment      1: Step Time =    1.000,"PART-1-1",           240,      -11.2537,       22.4752,            0.,NA,NA,"",   409.208E-06,   401.520E-06,   78.9436E-06,   603.503E-18
C:/temp/dataset/2/16_1.odb,Step-1,Increment      1: Step Time =    1.000,"PART-1-1",           241,        -11.25,           20.,            0.,NA,NA,"",   399.827E-06,   391.959E-06,   78.9294E-06,   483.236E-18
C:/temp/dataset/2/16_1.odb,Step-1,Increment      1: Step Time =    1.000,"PART-1-1",           242,      -6.25410,       27.4469,            0.,NA,NA,"",   424.930E-06,   420.725E-06,   59.6311E-06,   665.286E-18
C:/temp/dataset/2/16_1.odb,Step-1,Increment      1: Step Time =    1.000,"PART-1-1",           243,      -7.50120,       26.1906,            0.,NA,NA,"",   420.837E-06,   415.872E-06,   64.4484E-06,   644.606E-18
C:/temp/dataset/2/16_1.odb,Step-1,Increment      1: Step Time =    1.000,"PART-1-1",           244,      -6.25844,       24.9303,            0.,NA,NA,"",   415.310E-06,   411.004E-06,   59.6479E-06,   554.042E-18
C:/temp/dataset/2/16_1.odb,Step-1,Increment      1: Step Time =    1.000,"PART-1-1",           245,      -5.01133,       26.1865,            0.,NA,NA,"",   419.456E-06,   415.857E-06,   54.8305E-06,   802.104E-18
C:/temp/dataset/2/16_1.odb,Step-1,Increment      1: Step Time =    1.000,"PART-1-1",           246,       1.11906,       22.3143,            0.,NA,NA,"",   402.107E-06,   400.899E-06,   31.1499E-06,   679.197E-18
C:/temp/dataset/2/16_1.odb,Step-1,Increment      1: Step Time =    1.000,"PART-1-1",           247,  -37.5712E-03,       21.1808,            0.,NA,NA,"",   398.117E-06,   396.520E-06,   35.6178E-06,   597.666E-18
C:/temp/dataset/2/16_1.odb,Step-1,Increment      1: Step Time =    1.000,"PART-1-1",           248,          1.25,           20.,            0.,NA,NA,"",   393.155E-06,   391.959E-06,   30.6442E-06,   698.692E-18
C:/temp/dataset/2/16_1.odb,Step-1,Increment      1: Step Time =    1.000,"PART-1-1",           249,       2.40663,       21.1336,            0.,NA,NA,"",   397.201E-06,   396.338E-06,   26.1763E-06,   723.722E-18
C:/temp/dataset/2/16_1.odb,Step-1,Increment      1: Step Time =    1.000,"PART-1-1",           250,  -46.9838E-03,       26.1228,            0.,NA,NA,"",   417.137E-06,   415.610E-06,   35.6541E-06,   893.926E-18
C:/temp/dataset/2/16_1.odb,Step-1,Increment      1: Step Time =    1.000,"PART-1-1",           251,       1.11635,       24.7850,            0.,NA,NA,"",   411.624E-06,   410.443E-06,   31.1604E-06,   667.853E-18
C:/temp/dataset/2/16_1.odb,Step-1,Increment      1: Step Time =    1.000,"PART-1-1",           252,       2.41618,       25.9912,            0.,NA,NA,"",   415.924E-06,   415.102E-06,   26.1394E-06,   534.286E-18
C:/temp/dataset/2/16_1.odb,Step-1,Increment      1: Step Time =    1.000,"PART-1-1",           253,       1.25284,       27.3289,            0.,NA,NA,"",   421.384E-06,   420.270E-06,   30.6331E-06,   671.427E-18
C:/temp/dataset/2/16_1.odb,Step-1,Increment      1: Step Time =    1.000,"PART-1-1",           254,       11.4216,       22.1022,            0.,NA,NA,"",   400.173E-06,   400.080E-06,  -8.64679E-06,   1.49732E-15
C:/temp/dataset/2/16_1.odb,Step-1,Increment      1: Step Time =    1.000,"PART-1-1",           255,       9.70783,       21.3771,            0.,NA,NA,"",   397.284E-06,   397.279E-06,  -2.02693E-06,   3.32542E-15
C:/temp/dataset/2/16_1.odb,Step-1,Increment      1: Step Time =    1.000,"PART-1-1",           256,       10.3968,       19.2167,            0.,NA,NA,"",   388.962E-06,   388.933E-06,  -4.68823E-06,   9.70562E-15
C:/temp/dataset/2/16_1.odb,Step-1,Increment      1: Step Time =    1.000,"PART-1-1",           257,       12.1105,       19.9418,            0.,NA,NA,"",   391.897E-06,   391.734E-06,  -11.3081E-06,   7.75366E-15
C:/temp/dataset/2/16_1.odb,Step-1,Increment      1: Step Time =    1.000,"PART-1-1",           258,       11.6215,       24.7876,            0.,NA,NA,"",   410.561E-06,   410.453E-06,  -9.41898E-06,   948.272E-18
C:/temp/dataset/2/16_1.odb,Step-1,Increment      1: Step Time =    1.000,"PART-1-1",           259,       12.6971,       25.9410,            0.,NA,NA,"",   415.130E-06,   414.908E-06,  -13.5739E-06,   948.417E-18
C:/temp/dataset/2/16_1.odb,Step-1,Increment      1: Step Time =    1.000,"PART-1-1",           260,       11.4859,       27.3886,            0.,NA,NA,"",   420.594E-06,   420.500E-06,  -8.89523E-06,   864.907E-18
C:/temp/dataset/2/16_1.odb,Step-1,Increment      1: Step Time =    1.000,"PART-1-1",           261,       10.4103,       26.2351,            0.,NA,NA,"",   416.071E-06,   416.044E-06,  -4.74030E-06,   898.495E-18
C:/temp/dataset/2/16_1.odb,Step-1,Increment      1: Step Time =    1.000,"PART-1-1",           262,       5.88041,       17.6377,            0.,NA,NA,"",   383.047E-06,   382.834E-06,   12.7577E-06,   10.3852E-15
C:/temp/dataset/2/16_1.odb,Step-1,Increment      1: Step Time =    1.000,"PART-1-1",           263,       6.75071,       18.9160,            0.,NA,NA,"",   387.885E-06,   387.772E-06,   9.39590E-06,   11.0773E-15
C:/temp/dataset/2/16_1.odb,Step-1,Increment      1: Step Time =    1.000,"PART-1-1",           264,       5.87030,       20.0282,            0.,NA,NA,"",   392.277E-06,   392.068E-06,   12.7968E-06,   1.66943E-15
C:/temp/dataset/2/16_1.odb,Step-1,Increment      1: Step Time =    1.000,"PART-1-1",           265,            5.,         18.75,            0.,NA,NA,"",   387.468E-06,   387.131E-06,   16.1586E-06,   2.66707E-15
C:/temp/dataset/2/16_1.odb,Step-1,Increment      1: Step Time =    1.000,"PART-1-1",           266,       12.3690,       13.3305,            0.,NA,NA,"",   366.403E-06,   366.196E-06,  -12.3064E-06,   110.623E-15
C:/temp/dataset/2/16_1.odb,Step-1,Increment      1: Step Time =    1.000,"PART-1-1",           267,       13.7195,       12.1790,            0.,NA,NA,"",   362.172E-06,   361.748E-06,  -17.5233E-06,   115.765E-15
C:/temp/dataset/2/16_1.odb,Step-1,Increment      1: Step Time =    1.000,"PART-1-1",           268,           15.,       13.9583,            0.,NA,NA,"",   369.305E-06,   368.621E-06,  -22.4696E-06,   95.7038E-15
C:/temp/dataset/2/16_1.odb,Step-1,Increment      1: Step Time =    1.000,"PART-1-1",           269,       13.6495,       15.1098,            0.,NA,NA,"",   373.468E-06,   373.069E-06,  -17.2527E-06,   44.4765E-15
C:/temp/dataset/2/16_1.odb,Step-1,Increment      1: Step Time =    1.000,"PART-1-1",           270,       12.5214,       4.81657,            0.,NA,NA,"",   333.558E-06,   333.308E-06,  -12.8953E-06,   1.42097E-12
C:/temp/dataset/2/16_1.odb,Step-1,Increment      1: Step Time =    1.000,"PART-1-1",           271,       13.7670,       3.58604,            0.,NA,NA,"",   329.032E-06,   328.555E-06,  -17.7066E-06,   1.33540E-12
C:/temp/dataset/2/16_1.odb,Step-1,Increment      1: Step Time =    1.000,"PART-1-1",           272,           15.,       5.20833,            0.,NA,NA,"",   335.575E-06,   334.822E-06,  -22.4695E-06,   301.552E-15
C:/temp/dataset/2/16_1.odb,Step-1,Increment      1: Step Time =    1.000,"PART-1-1",           273,       13.7545,       6.43886,            0.,NA,NA,"",   340.034E-06,   339.575E-06,  -17.6582E-06,   487.367E-15
C:/temp/dataset/2/16_1.odb,Step-1,Increment      1: Step Time =    1.000,"PART-1-1",           274,       13.7625,      -2.13133,            0.,NA,NA,"",   306.980E-06,   306.470E-06,  -17.6893E-06,   1.41155E-12
C:/temp/dataset/2/16_1.odb,Step-1,Increment      1: Step Time =    1.000,"PART-1-1",           275,       12.5125,      -3.58966,            0.,NA,NA,"",   301.111E-06,   300.836E-06,  -12.8608E-06,   1.22444E-12
C:/temp/dataset/2/16_1.odb,Step-1,Increment      1: Step Time =    1.000,"PART-1-1",           276,         13.75,           -5.,            0.,NA,NA,"",   295.915E-06,   295.389E-06,  -17.6409E-06,   204.825E-15
C:/temp/dataset/2/16_1.odb,Step-1,Increment      1: Step Time =    1.000,"PART-1-1",           277,           15.,      -3.54167,            0.,NA,NA,"",   301.859E-06,   301.022E-06,  -22.4694E-06,   207.738E-15
C:/temp/dataset/2/16_1.odb,Step-1,Increment      1: Step Time =    1.000,"PART-1-1",           278,      -9.21387,      -6.21191,            0.,NA,NA,"",   299.272E-06,   290.714E-06,   71.0584E-06,   34.4928E-09
C:/temp/dataset/2/16_1.odb,Step-1,Increment      1: Step Time =    1.000,"PART-1-1",           279,      -8.44405,      -4.75360,            0.,NA,NA,"",   304.073E-06,   296.348E-06,   68.1035E-06,   13.9373E-09
C:/temp/dataset/2/16_1.odb,Step-1,Increment      1: Step Time =    1.000,"PART-1-1",           280,      -9.71477,      -4.17886,            0.,NA,NA,"",   307.377E-06,   298.581E-06,   73.0096E-06,   8.73565E-09
C:/temp/dataset/2/16_1.odb,Step-1,Increment      1: Step Time =    1.000,"PART-1-1",           281,      -10.4846,      -5.63717,            0.,NA,NA,"",   302.661E-06,   292.972E-06,   75.9697E-06,   31.4107E-09
C:/temp/dataset/2/16_1.odb,Step-1,Increment      1: Step Time =    1.000,"PART-1-1",           282,      -5.84282,   107.969E-03,            0.,NA,NA,"",   320.426E-06,   315.124E-06,   58.0471E-06,   2.44722E-09
C:/temp/dataset/2/16_1.odb,Step-1,Increment      1: Step Time =    1.000,"PART-1-1",           283,      -4.64047,       1.60743,            0.,NA,NA,"",   325.326E-06,   320.913E-06,   53.4014E-06,   1.72466E-09
C:/temp/dataset/2/16_1.odb,Step-1,Increment      1: Step Time =    1.000,"PART-1-1",           284,      -6.45702,       2.58989,            0.,NA,NA,"",   330.279E-06,   324.706E-06,   60.4195E-06,   1.48620E-09
C:/temp/dataset/2/16_1.odb,Step-1,Increment      1: Step Time =    1.000,"PART-1-1",           285,      -7.65937,       1.09043,            0.,NA,NA,"",   325.486E-06,   318.917E-06,   65.0648E-06,   2.06308E-09
C:/temp/dataset/2/16_1.odb,Step-1,Increment      1: Step Time =    1.000,"PART-1-1",           286,      -6.51044,      -5.43697,            0.,NA,NA,"",   299.876E-06,   293.684E-06,   60.6228E-06,   9.75558E-09
C:/temp/dataset/2/16_1.odb,Step-1,Increment      1: Step Time =    1.000,"PART-1-1",           287,      -5.48201,      -3.85122,            0.,NA,NA,"",   305.132E-06,   299.829E-06,   56.6432E-06,   4.29953E-09
C:/temp/dataset/2/16_1.odb,Step-1,Increment      1: Step Time =    1.000,"PART-1-1",           288,      -7.41561,      -3.16785,            0.,NA,NA,"",   309.199E-06,   302.476E-06,   64.1268E-06,   4.85425E-09
C:/temp/dataset/2/16_1.odb,Step-1,Increment      1: Step Time =    1.000,"PART-1-1",           289,      -12.6742,      -10.6472,            0.,NA,NA,"",   286.947E-06,   274.269E-06,   84.3503E-06,   372.374E-09
C:/temp/dataset/2/16_1.odb,Step-1,Increment      1: Step Time =    1.000,"PART-1-1",           290,      -11.3911,      -11.6978,            0.,NA,NA,"",   281.454E-06,   270.190E-06,   78.8278E-06,   508.754E-09
C:/temp/dataset/2/16_1.odb,Step-1,Increment      1: Step Time =    1.000,"PART-1-1",           291,      -10.2167,      -10.1126,            0.,NA,NA,"",   285.660E-06,   275.767E-06,   74.5291E-06,   365.271E-09
C:/temp/dataset/2/16_1.odb,Step-1,Increment      1: Step Time =    1.000,"PART-1-1",           292,      -11.4997,      -9.06207,            0.,NA,NA,"",   291.115E-06,   279.978E-06,   79.7506E-06,   164.341E-09
C:/temp/dataset/2/16_1.odb,Step-1,Increment      1: Step Time =    1.000,"PART-1-1",           293,      -13.7107,      -15.1438,            0.,NA,NA,"",   272.732E-06,   257.382E-06,   90.2058E-06,   1.16584E-06
C:/temp/dataset/2/16_1.odb,Step-1,Increment      1: Step Time =    1.000,"PART-1-1",           294,      -12.5249,      -13.4434,            0.,NA,NA,"",   277.031E-06,   264.142E-06,   83.5199E-06,   921.272E-09
C:/temp/dataset/2/16_1.odb,Step-1,Increment      1: Step Time =    1.000,"PART-1-1",           295,      -13.8143,      -12.2579,            0.,NA,NA,"",   282.890E-06,   268.426E-06,   89.2963E-06,   452.210E-09
C:/temp/dataset/2/16_1.odb,Step-1,Increment      1: Step Time =    1.000,"PART-1-1",           296,          -15.,      -13.9583,            0.,NA,NA,"",   278.504E-06,   261.701E-06,   95.2735E-06,   1.18552E-06
C:/temp/dataset/2/16_1.odb,Step-1,Increment      1: Step Time =    1.000,"PART-1-1",           297,      -12.0988,      -16.5012,            0.,NA,NA,"",   263.803E-06,   251.183E-06,   80.6154E-06,   806.628E-09
C:/temp/dataset/2/16_1.odb,Step-1,Increment      1: Step Time =    1.000,"PART-1-1",           298,      -10.5811,      -17.2344,            0.,NA,NA,"",   257.971E-06,   247.849E-06,   71.5520E-06,   1.18125E-06
C:/temp/dataset/2/16_1.odb,Step-1,Increment      1: Step Time =    1.000,"PART-1-1",           299,      -9.66362,      -15.1575,            0.,NA,NA,"",   265.504E-06,   256.365E-06,   69.0610E-06,   1.35530E-06
C:/temp/dataset/2/16_1.odb,Step-1,Increment      1: Step Time =    1.000,"PART-1-1",           300,      -11.1813,      -14.4243,            0.,NA,NA,"",   270.973E-06,   259.949E-06,   76.5016E-06,   1.08765E-06
C:/temp/dataset/2/16_1.odb,Step-1,Increment      1: Step Time =    1.000,"PART-1-1",           301,      -10.5090,      -18.8394,            0.,NA,NA,"",   248.079E-06,   237.501E-06,   71.6685E-06,   5.09884E-06
C:/temp/dataset/2/16_1.odb,Step-1,Increment      1: Step Time =    1.000,"PART-1-1",           302,      -8.88448,      -18.7076,            0.,NA,NA,"",   254.051E-06,   245.395E-06,   65.7511E-06,   5.54126E-06
C:/temp/dataset/2/16_1.odb,Step-1,Increment      1: Step Time =    1.000,"PART-1-1",           303,      -8.95657,      -17.1026,            0.,NA,NA,"",   258.035E-06,   249.774E-06,   64.7689E-06,   2.40145E-06
C:/temp/dataset/2/16_1.odb,Step-1,Increment      1: Step Time =    1.000,"PART-1-1",           304,      -8.08225,      -19.7831,            0.,NA,NA,"",   255.564E-06,   246.072E-06,   69.0031E-06,   16.3860E-06
C:/temp/dataset/2/16_1.odb,Step-1,Increment      1: Step Time =    1.000,"PART-1-1",           305,      -6.89084,      -18.8787,            0.,NA,NA,"",   268.793E-06,   261.381E-06,   62.6856E-06,   8.97489E-06
C:/temp/dataset/2/16_1.odb,Step-1,Increment      1: Step Time =    1.000,"PART-1-1",           306,      -7.69307,      -17.8032,            0.,NA,NA,"",   257.332E-06,   250.012E-06,   60.9395E-06,   3.37535E-06
C:/temp/dataset/2/16_1.odb,Step-1,Increment      1: Step Time =    1.000,"PART-1-1",           307,       7.10093,      -24.9223,            0.,NA,NA,"",   2.73799E-03,   366.890E-06,  -2.71330E-03,   731.585E-06
C:/temp/dataset/2/16_1.odb,Step-1,Increment      1: Step Time =    1.000,"PART-1-1",           308,       8.59925,      -23.6815,            0.,NA,NA,"",   4.51439E-03,   1.38241E-03,  -4.29752E-03,   956.395E-06
C:/temp/dataset/2/16_1.odb,Step-1,Increment      1: Step Time =    1.000,"PART-1-1",           309,       6.88316,      -22.4353,            0.,NA,NA,"",   4.53922E-03,   1.26102E-03,  -4.36055E-03,   880.798E-06
C:/temp/dataset/2/16_1.odb,Step-1,Increment      1: Step Time =    1.000,"PART-1-1",           310,       5.38484,      -23.6762,            0.,NA,NA,"",   2.55548E-03,   269.198E-06,  -2.54126E-03,   597.923E-06
C:/temp/dataset/2/16_1.odb,Step-1,Increment      1: Step Time =    1.000,"PART-1-1",           311,       13.3798,      -22.4744,            0.,NA,NA,"",   8.16916E-03,   4.06802E-03,  -7.08424E-03,   1.01708E-03
C:/temp/dataset/2/16_1.odb,Step-1,Increment      1: Step Time =    1.000,"PART-1-1",           312,           15.,        -21.25,            0.,NA,NA,"",   10.3355E-03,   5.33345E-03,  -8.85305E-03,   1.00952E-03
C:/temp/dataset/2/16_1.odb,Step-1,Increment      1: Step Time =    1.000,"PART-1-1",           313,       13.3333,          -20.,            0.,NA,NA,"",   10.6130E-03,   5.09712E-03,  -9.30888E-03,   989.402E-06
C:/temp/dataset/2/16_1.odb,Step-1,Increment      1: Step Time =    1.000,"PART-1-1",           314,       11.7131,      -21.2244,            0.,NA,NA,"",   8.53426E-03,   3.88814E-03,  -7.59710E-03,   998.361E-06
C:/temp/dataset/2/16_1.odb,Step-1,Increment      1: Step Time =    1.000,"PART-1-1",           315,      -2.14863,       2.00914,            0.,NA,NA,"",   325.422E-06,   322.464E-06,   43.7739E-06,   630.884E-12
C:/temp/dataset/2/16_1.odb,Step-1,Increment      1: Step Time =    1.000,"PART-1-1",           316,      -1.66393,   575.985E-03,            0.,NA,NA,"",   319.686E-06,   316.928E-06,   41.9009E-06,   665.374E-12
C:/temp/dataset/2/16_1.odb,Step-1,Increment      1: Step Time =    1.000,"PART-1-1",           317,   135.628E-03,       1.10435,            0.,NA,NA,"",   320.878E-06,   318.969E-06,   34.9492E-06,   316.299E-12
C:/temp/dataset/2/16_1.odb,Step-1,Increment      1: Step Time =    1.000,"PART-1-1",           318,  -349.073E-03,       2.53751,            0.,NA,NA,"",   326.587E-06,   324.505E-06,   36.8218E-06,   307.764E-12
C:/temp/dataset/2/16_1.odb,Step-1,Increment      1: Step Time =    1.000,"PART-1-1",           319,   156.145E-03,      -1.87787,            0.,NA,NA,"",   309.420E-06,   307.449E-06,   34.8692E-06,   397.977E-12
C:/temp/dataset/2/16_1.odb,Step-1,Increment      1: Step Time =    1.000,"PART-1-1",           320,       1.21010,      -2.70880,            0.,NA,NA,"",   305.794E-06,   304.239E-06,   30.7982E-06,   164.444E-12
C:/temp/dataset/2/16_1.odb,Step-1,Increment      1: Step Time =    1.000,"PART-1-1",           321,       2.32846,      -1.50081,            0.,NA,NA,"",   310.038E-06,   308.905E-06,   26.4784E-06,   27.2301E-12
C:/temp/dataset/2/16_1.odb,Step-1,Increment      1: Step Time =    1.000,"PART-1-1",           322,       1.27451,  -669.883E-03,            0.,NA,NA,"",   313.607E-06,   312.115E-06,   30.5495E-06,   213.054E-12
C:/temp/dataset/2/16_1.odb,Step-1,Increment      1: Step Time =    1.000,"PART-1-1",           323,       4.87500,      -1.23074,            0.,NA,NA,"",   310.395E-06,   309.949E-06,   16.6416E-06,   24.5908E-12
C:/temp/dataset/2/16_1.odb,Step-1,Increment      1: Step Time =    1.000,"PART-1-1",           324,       6.20088,      -2.43579,            0.,NA,NA,"",   305.511E-06,   305.294E-06,   11.5200E-06,   22.5613E-12
C:/temp/dataset/2/16_1.odb,Step-1,Increment      1: Step Time =    1.000,"PART-1-1",           325,       7.44880,      -1.07477,            0.,NA,NA,"",   310.623E-06,   310.551E-06,   6.69947E-06,   12.7571E-12
C:/temp/dataset/2/16_1.odb,Step-1,Increment      1: Step Time =    1.000,"PART-1-1",           326,       6.12293,   130.279E-03,            0.,NA,NA,"",   315.427E-06,   315.206E-06,   11.8211E-06,   19.5795E-12
C:/temp/dataset/2/16_1.odb,Step-1,Increment      1: Step Time =    1.000,"PART-1-1",           327,          8.75,           -5.,            0.,NA,NA,"",   295.393E-06,   295.389E-06,   1.67322E-06,   8.62589E-12
C:/temp/dataset/2/16_1.odb,Step-1,Increment      1: Step Time =    1.000,"PART-1-1",           328,       10.0063,      -3.63741,            0.,NA,NA,"",   300.669E-06,   300.652E-06,  -3.17985E-06,   4.17201E-12
C:/temp/dataset/2/16_1.odb,Step-1,Increment      1: Step Time =    1.000,"PART-1-1",           329,       8.73716,      -2.32557,            0.,NA,NA,"",   305.724E-06,   305.719E-06,   1.72278E-06,   10.4823E-12
C:/temp/dataset/2/16_1.odb,Step-1,Increment      1: Step Time =    1.000,"PART-1-1",           330,       7.48081,      -3.68816,            0.,NA,NA,"",   300.528E-06,   300.456E-06,   6.57584E-06,   9.61178E-12
C:/temp/dataset/2/16_1.odb,Step-1,Increment      1: Step Time =    1.000,"PART-1-1",           331,       6.24109,       7.72904,            0.,NA,NA,"",   344.746E-06,   344.559E-06,   11.3646E-06,   1.99449E-12
C:/temp/dataset/2/16_1.odb,Step-1,Increment      1: Step Time =    1.000,"PART-1-1",           332,            5.,          6.25,            0.,NA,NA,"",   339.230E-06,   338.845E-06,   16.1587E-06,   5.06135E-12
C:/temp/dataset/2/16_1.odb,Step-1,Increment      1: Step Time =    1.000,"PART-1-1",           333,       6.24095,       5.17046,            0.,NA,NA,"",   334.868E-06,   334.675E-06,   11.3651E-06,   13.6808E-12
C:/temp/dataset/2/16_1.odb,Step-1,Increment      1: Step Time =    1.000,"PART-1-1",           334,       7.48203,       6.64950,            0.,NA,NA,"",   340.452E-06,   340.389E-06,   6.57104E-06,   1.85683E-12
C:/temp/dataset/2/16_1.odb,Step-1,Increment      1: Step Time =    1.000,"PART-1-1",           335,       7.34508,       23.6052,            0.,NA,NA,"",   405.947E-06,   405.885E-06,   7.09994E-06,   1.07750E-15
C:/temp/dataset/2/16_1.odb,Step-1,Increment      1: Step Time =    1.000,"PART-1-1",           336,       6.41056,       24.2397,            0.,NA,NA,"",   408.477E-06,   408.336E-06,   10.7098E-06,   1.01860E-15
C:/temp/dataset/2/16_1.odb,Step-1,Increment      1: Step Time =    1.000,"PART-1-1",           337,       6.08150,       22.9932,            0.,NA,NA,"",   403.699E-06,   403.521E-06,   11.9809E-06,   1.06439E-15
C:/temp/dataset/2/16_1.odb,Step-1,Increment      1: Step Time =    1.000,"PART-1-1",           338,       7.01602,       22.3587,            0.,NA,NA,"",   401.158E-06,   401.070E-06,   8.37106E-06,   1.31297E-15
C:/temp/dataset/2/16_1.odb,Step-1,Increment      1: Step Time =    1.000,"PART-1-1",           339,      -12.5005,       23.7291,            0.,NA,NA,"",   414.907E-06,   406.364E-06,   83.7599E-06,   725.640E-18
C:/temp/dataset/2/16_1.odb,Step-1,Increment      1: Step Time =    1.000,"PART-1-1",           340,      -13.7489,       24.9883,            0.,NA,NA,"",   420.661E-06,   411.228E-06,   88.5821E-06,   730.750E-18
C:/temp/dataset/2/16_1.odb,Step-1,Increment      1: Step Time =    1.000,"PART-1-1",           341,          -15.,         23.75,            0.,NA,NA,"",   417.042E-06,   406.445E-06,   93.4150E-06,   843.630E-18
C:/temp/dataset/2/16_1.odb,Step-1,Increment      1: Step Time =    1.000,"PART-1-1",           342,      -2.52491,       26.1674,            0.,NA,NA,"",   418.235E-06,   415.783E-06,   45.2259E-06,   534.284E-18
C:/temp/dataset/2/16_1.odb,Step-1,Increment      1: Step Time =    1.000,"PART-1-1",           343,      -1.30373,       24.8780,            0.,NA,NA,"",   412.794E-06,   410.802E-06,   40.5087E-06,   709.839E-18
C:/temp/dataset/2/16_1.odb,Step-1,Increment      1: Step Time =    1.000,"PART-1-1",           344,      -1.26817,       27.4122,            0.,NA,NA,"",   422.524E-06,   420.591E-06,   40.3713E-06,   624.746E-18
C:/temp/dataset/2/16_1.odb,Step-1,Increment      1: Step Time =    1.000,"PART-1-1",           345,       2.31009,       23.4917,            0.,NA,NA,"",   406.315E-06,   405.447E-06,   26.5492E-06,   693.829E-18
C:/temp/dataset/2/16_1.odb,Step-1,Increment      1: Step Time =    1.000,"PART-1-1",           346,       3.41051,       22.2101,            0.,NA,NA,"",   401.117E-06,   400.496E-06,   22.2985E-06,   1.14848E-15
C:/temp/dataset/2/16_1.odb,Step-1,Increment      1: Step Time =    1.000,"PART-1-1",           347,       4.46987,       23.2845,            0.,NA,NA,"",   405.056E-06,   404.647E-06,   18.2064E-06,   1.01564E-15
C:/temp/dataset/2/16_1.odb,Step-1,Increment      1: Step Time =    1.000,"PART-1-1",           348,       3.36945,       24.5662,            0.,NA,NA,"",   410.213E-06,   409.598E-06,   22.4571E-06,   762.017E-18
C:/temp/dataset/2/16_1.odb,Step-1,Increment      1: Step Time =    1.000,"PART-1-1",           349,       3.92627,       27.0683,            0.,NA,NA,"",   419.754E-06,   419.263E-06,   20.3062E-06,   869.358E-18
C:/temp/dataset/2/16_1.odb,Step-1,Increment      1: Step Time =    1.000,"PART-1-1",           350,       5.16355,       28.4353,            0.,NA,NA,"",   424.827E-06,   424.543E-06,   15.5267E-06,   788.573E-18
C:/temp/dataset/2/16_1.odb,Step-1,Increment      1: Step Time =    1.000,"PART-1-1",           351,          3.75,           30.,            0.,NA,NA,"",   431.099E-06,   430.587E-06,   20.9870E-06,   454.981E-18
C:/temp/dataset/2/16_1.odb,Step-1,Increment      1: Step Time =    1.000,"PART-1-1",           352,       2.51272,       28.6330,            0.,NA,NA,"",   426.087E-06,   425.307E-06,   25.7665E-06,   538.144E-18
C:/temp/dataset/2/16_1.odb,Step-1,Increment      1: Step Time =    1.000,"PART-1-1",           353,       11.0463,       14.3537,            0.,NA,NA,"",   370.219E-06,   370.149E-06,  -7.19716E-06,   89.8421E-15
C:/temp/dataset/2/16_1.odb,Step-1,Increment      1: Step Time =    1.000,"PART-1-1",           354,       9.86747,       12.5470,            0.,NA,NA,"",   363.179E-06,   363.169E-06,  -2.64353E-06,   150.228E-15
C:/temp/dataset/2/16_1.odb,Step-1,Increment      1: Step Time =    1.000,"PART-1-1",           355,       11.1901,       11.5237,            0.,NA,NA,"",   359.300E-06,   359.217E-06,  -7.75275E-06,   132.953E-15
C:/temp/dataset/2/16_1.odb,Step-1,Increment      1: Step Time =    1.000,"PART-1-1",           356,       9.55073,       15.1783,            0.,NA,NA,"",   373.336E-06,   373.334E-06,  -1.42002E-06,   77.4671E-15
C:/temp/dataset/2/16_1.odb,Step-1,Increment      1: Step Time =    1.000,"PART-1-1",           357,       8.18591,       15.9712,            0.,NA,NA,"",   376.416E-06,   376.397E-06,   3.85202E-06,   44.0929E-15
C:/temp/dataset/2/16_1.odb,Step-1,Increment      1: Step Time =    1.000,"PART-1-1",           358,       7.20669,       14.2932,            0.,NA,NA,"",   369.993E-06,   369.915E-06,   7.63459E-06,   105.846E-15
C:/temp/dataset/2/16_1.odb,Step-1,Increment      1: Step Time =    1.000,"PART-1-1",           359,       8.57151,       13.5002,            0.,NA,NA,"",   366.859E-06,   366.852E-06,   2.36255E-06,   98.9236E-15
C:/temp/dataset/2/16_1.odb,Step-1,Increment      1: Step Time =    1.000,"PART-1-1",           360,       7.44377,       1.50598,            0.,NA,NA,"",   320.590E-06,   320.520E-06,   6.71886E-06,   13.8573E-12
C:/temp/dataset/2/16_1.odb,Step-1,Increment      1: Step Time =    1.000,"PART-1-1",           361,       8.72836,   326.342E-03,            0.,NA,NA,"",   315.968E-06,   315.963E-06,   1.75676E-06,   10.9039E-12
C:/temp/dataset/2/16_1.odb,Step-1,Increment      1: Step Time =    1.000,"PART-1-1",           362,       10.0261,       1.76283,            0.,NA,NA,"",   321.529E-06,   321.512E-06,  -3.25610E-06,   4.58996E-12
C:/temp/dataset/2/16_1.odb,Step-1,Increment      1: Step Time =    1.000,"PART-1-1",           363,       8.74149,       2.94246,            0.,NA,NA,"",   326.073E-06,   326.069E-06,   1.70599E-06,   8.16376E-12
C:/temp/dataset/2/16_1.odb,Step-1,Increment      1: Step Time =    1.000,"PART-1-1",           364,       12.5045,       7.62102,            0.,NA,NA,"",   344.380E-06,   344.141E-06,  -12.8299E-06,   418.343E-15
C:/temp/dataset/2/16_1.odb,Step-1,Increment      1: Step Time =    1.000,"PART-1-1",           365,           15.,         8.125,            0.,NA,NA,"",   346.817E-06,   346.088E-06,  -22.4695E-06,   325.449E-15
C:/temp/dataset/2/16_1.odb,Step-1,Increment      1: Step Time =    1.000,"PART-1-1",           366,       13.7500,       9.30715,            0.,NA,NA,"",   351.098E-06,   350.655E-06,  -17.6412E-06,   207.581E-15
C:/temp/dataset/2/16_1.odb,Step-1,Increment      1: Step Time =    1.000,"PART-1-1",           367,      -1.45938,      -2.40358,            0.,NA,NA,"",   308.172E-06,   305.418E-06,   41.1088E-06,   1.13682E-09
C:/temp/dataset/2/16_1.odb,Step-1,Increment      1: Step Time =    1.000,"PART-1-1",           368,      -2.69869,      -3.52952,            0.,NA,NA,"",   304.546E-06,   301.068E-06,   45.8940E-06,   1.08022E-09
C:/temp/dataset/2/16_1.odb,Step-1,Increment      1: Step Time =    1.000,"PART-1-1",           369,         -1.25,           -5.,            0.,NA,NA,"",   298.126E-06,   295.390E-06,   40.3004E-06,   553.376E-12
C:/temp/dataset/2/16_1.odb,Step-1,Increment      1: Step Time =    1.000,"PART-1-1",           370,  -10.6917E-03,      -3.87406,            0.,NA,NA,"",   301.835E-06,   299.738E-06,   35.5137E-06,   239.922E-12
C:/temp/dataset/2/16_1.odb,Step-1,Increment      1: Step Time =    1.000,"PART-1-1",           371,      -13.3333,            5.,            0.,NA,NA,"",   345.135E-06,   334.001E-06,   86.9578E-06,   471.066E-12
C:/temp/dataset/2/16_1.odb,Step-1,Increment      1: Step Time =    1.000,"PART-1-1",           372,          -15.,       3.54167,            0.,NA,NA,"",   341.395E-06,   328.373E-06,   93.3886E-06,   533.557E-12
C:/temp/dataset/2/16_1.odb,Step-1,Increment      1: Step Time =    1.000,"PART-1-1",           373,      -13.2137,       2.05352,            0.,NA,NA,"",   334.022E-06,   322.629E-06,   86.4958E-06,   1.83400E-09
C:/temp/dataset/2/16_1.odb,Step-1,Increment      1: Step Time =    1.000,"PART-1-1",           374,      -11.5470,       3.51185,            0.,NA,NA,"",   337.883E-06,   328.259E-06,   80.0667E-06,   1.84456E-09
C:/temp/dataset/2/16_1.odb,Step-1,Increment      1: Step Time =    1.000,"PART-1-1",           375,          -15.,      625.E-03,            0.,NA,NA,"",   330.580E-06,   317.116E-06,   93.3845E-06,   3.57686E-09
C:/temp/dataset/2/16_1.odb,Step-1,Increment      1: Step Time =    1.000,"PART-1-1",           376,      -12.9883,      -1.02354,            0.,NA,NA,"",   322.334E-06,   310.753E-06,   85.6250E-06,   2.97445E-09
C:/temp/dataset/2/16_1.odb,Step-1,Increment      1: Step Time =    1.000,"PART-1-1",           377,      -11.2019,   404.974E-03,            0.,NA,NA,"",   325.921E-06,   316.267E-06,   78.7386E-06,   3.15414E-09
C:/temp/dataset/2/16_1.odb,Step-1,Increment      1: Step Time =    1.000,"PART-1-1",           378,      -13.6690,      -3.88141,            0.,NA,NA,"",   312.463E-06,   299.745E-06,   88.2393E-06,   5.15600E-09
C:/temp/dataset/2/16_1.odb,Step-1,Increment      1: Step Time =    1.000,"PART-1-1",           379,      -11.6573,      -2.61328,            0.,NA,NA,"",   315.080E-06,   304.623E-06,   80.4989E-06,   3.24579E-09
C:/temp/dataset/2/16_1.odb,Step-1,Increment      1: Step Time =    1.000,"PART-1-1",           380,          -15.,      -2.29167,            0.,NA,NA,"",   319.801E-06,   305.868E-06,   93.3689E-06,   8.39876E-09
C:/temp/dataset/2/16_1.odb,Step-1,Increment      1: Step Time =    1.000,"PART-1-1",           381,           -5.,         -8.75,            0.,NA,NA,"",   285.950E-06,   280.655E-06,   54.7761E-06,   114.363E-09
C:/temp/dataset/2/16_1.odb,Step-1,Increment      1: Step Time =    1.000,"PART-1-1",           382,      -6.37238,      -7.84264,            0.,NA,NA,"",   290.534E-06,   284.249E-06,   60.1060E-06,   53.2459E-09
C:/temp/dataset/2/16_1.odb,Step-1,Increment      1: Step Time =    1.000,"PART-1-1",           383,      -7.67841,      -9.42411,            0.,NA,NA,"",   285.505E-06,   277.993E-06,   65.0603E-06,   243.164E-09
C:/temp/dataset/2/16_1.odb,Step-1,Increment      1: Step Time =    1.000,"PART-1-1",           384,      -6.30603,      -10.3315,            0.,NA,NA,"",   280.715E-06,   274.238E-06,   59.9534E-06,   213.837E-09
C:/temp/dataset/2/16_1.odb,Step-1,Increment      1: Step Time =    1.000,"PART-1-1",           385,      -13.6103,      -21.3688,            0.,NA,NA,"",   217.475E-06,   197.215E-06,   91.6615E-06,   4.79543E-06
C:/temp/dataset/2/16_1.odb,Step-1,Increment      1: Step Time =    1.000,"PART-1-1",           386,          -15.,      -22.7083,            0.,NA,NA,"",   204.649E-06,   173.147E-06,   109.094E-06,   3.59951E-06
C:/temp/dataset/2/16_1.odb,Step-1,Increment      1: Step Time =    1.000,"PART-1-1",           387,      -13.6241,      -24.2925,            0.,NA,NA,"",   156.466E-06,   135.333E-06,   78.5273E-06,   11.4131E-06
C:/temp/dataset/2/16_1.odb,Step-1,Increment      1: Step Time =    1.000,"PART-1-1",           388,      -12.2343,      -22.9530,            0.,NA,NA,"",   179.531E-06,   163.075E-06,   75.0864E-06,   13.0739E-06
C:/temp/dataset/2/16_1.odb,Step-1,Increment      1: Step Time =    1.000,"PART-1-1",           389,           -5.,        -16.25,            0.,NA,NA,"",   260.639E-06,   253.061E-06,   62.3902E-06,   3.82781E-06
C:/temp/dataset/2/16_1.odb,Step-1,Increment      1: Step Time =    1.000,"PART-1-1",           390,      -6.06585,      -15.2329,            0.,NA,NA,"",   261.945E-06,   254.678E-06,   61.2726E-06,   1.76399E-06
C:/temp/dataset/2/16_1.odb,Step-1,Increment      1: Step Time =    1.000,"PART-1-1",           391,      -6.99530,      -16.6022,            0.,NA,NA,"",   259.066E-06,   251.527E-06,   62.0400E-06,   2.46520E-06
C:/temp/dataset/2/16_1.odb,Step-1,Increment      1: Step Time =    1.000,"PART-1-1",           392,      -5.92946,      -17.6192,            0.,NA,NA,"",   262.270E-06,   253.982E-06,   65.4129E-06,   6.94348E-06
C:/temp/dataset/2/16_1.odb,Step-1,Increment      1: Step Time =    1.000,"PART-1-1",           393,         -13.5,          -30.,            0.,NA,NA,"",            0.,   4.53320E-42,   38.4012E-42,   24.8107E-06
C:/temp/dataset/2/16_1.odb,Step-1,Increment      1: Step Time =    1.000,"PART-1-1",           394,      -12.0804,      -28.6247,            0.,NA,NA,"",   27.4407E-06,   22.7092E-06,   15.4040E-06,   17.2669E-06
C:/temp/dataset/2/16_1.odb,Step-1,Increment      1: Step Time =    1.000,"PART-1-1",           395,      -13.5804,      -27.1664,            0.,NA,NA,"",   76.9665E-06,   63.6630E-06,   43.2536E-06,   18.4714E-06
C:/temp/dataset/2/16_1.odb,Step-1,Increment      1: Step Time =    1.000,"PART-1-1",           396,          -15.,      -28.5417,            0.,NA,NA,"",   57.6507E-06,   43.4478E-06,   37.8932E-06,   26.3102E-06
C:/temp/dataset/2/16_1.odb,Step-1,Increment      1: Step Time =    1.000,"PART-1-1",           397,          13.5,          -30.,            0.,NA,NA,"",            0.,   192.746E-42,  -2.17738E-39,   1.20700E-03
C:/temp/dataset/2/16_1.odb,Step-1,Increment      1: Step Time =    1.000,"PART-1-1",           398,           15.,        -28.75,            0.,NA,NA,"",   2.19709E-03,   1.55408E-03,  -1.55308E-03,   1.35166E-03
C:/temp/dataset/2/16_1.odb,Step-1,Increment      1: Step Time =    1.000,"PART-1-1",           399,       13.4640,      -27.4843,            0.,NA,NA,"",   2.81950E-03,   1.64964E-03,  -2.28654E-03,   1.10952E-03
C:/temp/dataset/2/16_1.odb,Step-1,Increment      1: Step Time =    1.000,"PART-1-1",           400,       11.9640,      -28.7343,            0.,NA,NA,"",   1.01802E-03,   464.860E-06,  -905.685E-06,   908.137E-06
C:/temp/dataset/2/16_1.odb,Step-1,Increment      1: Step Time =    1.000,"PART-1-1",           401,       10.2658,      -24.9335,            0.,NA,NA,"",   4.10115E-03,   1.54329E-03,  -3.79969E-03,   974.313E-06
C:/temp/dataset/2/16_1.odb,Step-1,Increment      1: Step Time =    1.000,"PART-1-1",           402,       8.77397,      -26.1861,            0.,NA,NA,"",   2.43055E-03,   526.570E-06,  -2.37282E-03,   837.898E-06
C:/temp/dataset/2/16_1.odb,Step-1,Increment      1: Step Time =    1.000,"PART-1-1",           403,       10.3945,      -27.4590,            0.,NA,NA,"",   1.82135E-03,   621.198E-06,  -1.71214E-03,   899.994E-06
C:/temp/dataset/2/16_1.odb,Step-1,Increment      1: Step Time =    1.000,"PART-1-1",           404,       11.8863,      -26.2064,            0.,NA,NA,"",   3.51818E-03,   1.66457E-03,  -3.09949E-03,   1.03727E-03
C:/temp/dataset/2/16_1.odb,Step-1,Increment      1: Step Time =    1.000,"PART-1-1",           405,       8.93044,      -28.7247,            0.,NA,NA,"",   705.811E-06,   31.7457E-06,  -705.097E-06,   693.143E-06
C:/temp/dataset/2/16_1.odb,Step-1,Increment      1: Step Time =    1.000,"PART-1-1",           406,       7.31300,      -27.4411,            0.,NA,NA,"",   1.25101E-03,  -90.4796E-06,  -1.24773E-03,   629.539E-06
C:/temp/dataset/2/16_1.odb,Step-1,Increment      1: Step Time =    1.000,"PART-1-1",           407,       5.88256,      -28.7164,            0.,NA,NA,"",   531.295E-06,  -251.696E-06,  -467.893E-06,   484.781E-06
C:/temp/dataset/2/16_1.odb,Step-1,Increment      1: Step Time =    1.000,"PART-1-1",           408,           7.5,          -30.,            0.,NA,NA,"",            0.,  -142.393E-42,  -1.27233E-39,   566.325E-06
C:/temp/dataset/2/16_1.odb,Step-1,Increment      1: Step Time =    1.000,"PART-1-1",           409,       5.63995,      -26.1773,            0.,NA,NA,"",   1.50010E-03,  -226.061E-06,  -1.48297E-03,   524.463E-06
C:/temp/dataset/2/16_1.odb,Step-1,Increment      1: Step Time =    1.000,"PART-1-1",           410,       3.92490,      -24.9166,            0.,NA,NA,"",   1.31060E-03,  -233.616E-06,  -1.28961E-03,   346.628E-06
C:/temp/dataset/2/16_1.odb,Step-1,Increment      1: Step Time =    1.000,"PART-1-1",           411,       2.50142,      -26.1700,            0.,NA,NA,"",   706.359E-06,  -419.138E-06,  -568.565E-06,   210.296E-06
C:/temp/dataset/2/16_1.odb,Step-1,Increment      1: Step Time =    1.000,"PART-1-1",           412,       4.21647,      -27.4307,            0.,NA,NA,"",   801.682E-06,  -422.289E-06,  -681.444E-06,   358.983E-06
C:/temp/dataset/2/16_1.odb,Step-1,Increment      1: Step Time =    1.000,"PART-1-1",           413,       1.12659,      -27.4308,            0.,NA,NA,"",   444.098E-06,  -387.178E-06,  -217.522E-06,   161.670E-06
C:/temp/dataset/2/16_1.odb,Step-1,Increment      1: Step Time =    1.000,"PART-1-1",           414,  -207.324E-03,      -28.7165,            0.,NA,NA,"",   228.559E-06,  -218.367E-06,  -67.4941E-06,   128.678E-06
C:/temp/dataset/2/16_1.odb,Step-1,Increment      1: Step Time =    1.000,"PART-1-1",           415,           1.5,          -30.,            0.,NA,NA,"",            0.,  -216.665E-42,  -381.173E-42,   242.442E-06
C:/temp/dataset/2/16_1.odb,Step-1,Increment      1: Step Time =    1.000,"PART-1-1",           416,       2.83391,      -28.7143,            0.,NA,NA,"",   389.798E-06,  -315.964E-06,  -228.275E-06,   276.314E-06
C:/temp/dataset/2/16_1.odb,Step-1,Increment      1: Step Time =    1.000,"PART-1-1",           417,      -1.92078,      -27.4395,            0.,NA,NA,"",   206.487E-06,  -206.192E-06,  -11.0333E-06,   78.0171E-06
C:/temp/dataset/2/16_1.odb,Step-1,Increment      1: Step Time =    1.000,"PART-1-1",           418,      -3.21345,      -28.7230,            0.,NA,NA,"",   99.4374E-06,  -99.4235E-06,  -1.66588E-06,   52.2683E-06
C:/temp/dataset/2/16_1.odb,Step-1,Increment      1: Step Time =    1.000,"PART-1-1",           419,          -1.5,          -30.,            0.,NA,NA,"",            0.,  -122.920E-42,  -125.782E-42,   120.841E-06
C:/temp/dataset/2/16_1.odb,Step-1,Increment      1: Step Time =    1.000,"PART-1-1",           420,      -5.57419,      -22.4519,            0.,NA,NA,"",   255.838E-06,   223.412E-06,   124.662E-06,   61.3746E-06
C:/temp/dataset/2/16_1.odb,Step-1,Increment      1: Step Time =    1.000,"PART-1-1",           421,      -6.77537,      -23.6376,            0.,NA,NA,"",   176.710E-06,   142.529E-06,   104.461E-06,   44.4965E-06
C:/temp/dataset/2/16_1.odb,Step-1,Increment      1: Step Time =    1.000,"PART-1-1",           422,      -5.25528,      -24.9124,            0.,NA,NA,"",   114.655E-06,   47.2053E-06,   104.487E-06,   56.5635E-06
C:/temp/dataset/2/16_1.odb,Step-1,Increment      1: Step Time =    1.000,"PART-1-1",           423,      -4.05411,      -23.7268,            0.,NA,NA,"",   177.589E-06,   125.462E-06,   125.687E-06,   61.6351E-06
C:/temp/dataset/2/16_1.odb,Step-1,Increment      1: Step Time =    1.000,"PART-1-1",           424,       13.4223,      -24.9720,            0.,NA,NA,"",   5.62154E-03,   2.96332E-03,  -4.77708E-03,   1.06007E-03
C:/temp/dataset/2/16_1.odb,Step-1,Increment      1: Step Time =    1.000,"PART-1-1",           425,           15.,        -26.25,            0.,NA,NA,"",   5.28192E-03,   3.12606E-03,  -4.25752E-03,   1.11696E-03
C:/temp/dataset/2/16_1.odb,Step-1,Increment      1: Step Time =    1.000,"PART-1-1",           426,       11.8021,      -23.6964,            0.,NA,NA,"",   6.06659E-03,   2.78621E-03,  -5.38892E-03,   1.04036E-03
C:/temp/dataset/2/16_1.odb,Step-1,Increment      1: Step Time =    1.000,"PART-1-1",           427,       10.1355,      -22.4445,            0.,NA,NA,"",   6.51304E-03,   2.64187E-03,  -5.95317E-03,   996.692E-06
C:/temp/dataset/2/16_1.odb,Step-1,Increment      1: Step Time =    1.000,"PART-1-1",           428,      -2.31424,      -24.9364,            0.,NA,NA,"",   82.8600E-06,  -49.7207E-06,   66.2844E-06,   68.8504E-06
C:/temp/dataset/2/16_1.odb,Step-1,Increment      1: Step Time =    1.000,"PART-1-1",           429,      -3.63092,      -26.1962,            0.,NA,NA,"",   106.545E-06,  -84.8829E-06,   64.3952E-06,   56.3537E-06
C:/temp/dataset/2/16_1.odb,Step-1,Increment      1: Step Time =    1.000,"PART-1-1",           430,  -604.096E-03,      -26.1796,            0.,NA,NA,"",   268.891E-06,  -258.688E-06,  -73.3672E-06,   82.0925E-06
C:/temp/dataset/2/16_1.odb,Step-1,Increment      1: Step Time =    1.000,"PART-1-1",           431,      -7.52977,      -11.9021,            0.,NA,NA,"",   275.464E-06,   267.857E-06,   64.2878E-06,   703.110E-09
C:/temp/dataset/2/16_1.odb,Step-1,Increment      1: Step Time =    1.000,"PART-1-1",           432,      -6.22373,      -12.8207,            0.,NA,NA,"",   270.791E-06,   264.016E-06,   60.1935E-06,   597.141E-09
C:/temp/dataset/2/16_1.odb,Step-1,Increment      1: Step Time =    1.000,"PART-1-1",           433,           -5.,        -11.25,            0.,NA,NA,"",   276.144E-06,   270.589E-06,   55.1138E-06,   436.854E-09
C:/temp/dataset/2/16_1.odb,Step-1,Increment      1: Step Time =    1.000,"PART-1-1",           434,      -10.0475,      -12.6788,            0.,NA,NA,"",   275.696E-06,   265.904E-06,   72.8261E-06,   830.943E-09
C:/temp/dataset/2/16_1.odb,Step-1,Increment      1: Step Time =    1.000,"PART-1-1",           435,           -5.,         -6.25,            0.,NA,NA,"",   295.623E-06,   290.509E-06,   54.7508E-06,   6.16496E-09
C:/temp/dataset/2/16_1.odb,Step-1,Increment      1: Step Time =    1.000,"PART-1-1",           436,      -7.88282,      -7.02961,            0.,NA,NA,"",   294.941E-06,   287.480E-06,   65.9200E-06,   71.3894E-09
C:/temp/dataset/2/16_1.odb,Step-1,Increment      1: Step Time =    1.000,"PART-1-1",           437,      -13.8577,      -6.65334,            0.,NA,NA,"",   302.522E-06,   289.146E-06,   88.9613E-06,   17.0194E-09
C:/temp/dataset/2/16_1.odb,Step-1,Increment      1: Step Time =    1.000,"PART-1-1",           438,      -12.5267,      -5.32641,            0.,NA,NA,"",   305.913E-06,   294.198E-06,   83.8461E-06,   20.3256E-09
C:/temp/dataset/2/16_1.odb,Step-1,Increment      1: Step Time =    1.000,"PART-1-1",           439,          -15.,      -5.20833,            0.,NA,NA,"",   309.090E-06,   294.661E-06,   93.3364E-06,   8.46680E-09
C:/temp/dataset/2/16_1.odb,Step-1,Increment      1: Step Time =    1.000,"PART-1-1",           440,          1.25,           -5.,            0.,NA,NA,"",   296.974E-06,   295.389E-06,   30.6440E-06,   269.459E-12
C:/temp/dataset/2/16_1.odb,Step-1,Increment      1: Step Time =    1.000,"PART-1-1",           441,       2.47079,      -3.83474,            0.,NA,NA,"",   301.009E-06,   299.890E-06,   25.9285E-06,   28.5126E-12
C:/temp/dataset/2/16_1.odb,Step-1,Increment      1: Step Time =    1.000,"PART-1-1",           442,       3.51261,  -149.180E-03,            0.,NA,NA,"",   314.889E-06,   314.126E-06,   21.9043E-06,   34.7449E-12
C:/temp/dataset/2/16_1.odb,Step-1,Increment      1: Step Time =    1.000,"PART-1-1",           443,       3.69085,      -2.58237,            0.,NA,NA,"",   305.465E-06,   304.727E-06,   21.2158E-06,   41.8918E-12
C:/temp/dataset/2/16_1.odb,Step-1,Increment      1: Step Time =    1.000,"PART-1-1",           444,       8.74868,       5.55605,            0.,NA,NA,"",   336.169E-06,   336.165E-06,   1.67823E-06,   3.82096E-12
C:/temp/dataset/2/16_1.odb,Step-1,Increment      1: Step Time =    1.000,"PART-1-1",           445,       10.0030,       7.12352,            0.,NA,NA,"",   342.234E-06,   342.220E-06,  -3.16719E-06,   1.16914E-12
C:/temp/dataset/2/16_1.odb,Step-1,Increment      1: Step Time =    1.000,"PART-1-1",           446,       8.73640,       8.21697,            0.,NA,NA,"",   346.448E-06,   346.443E-06,   1.72562E-06,   816.601E-15
C:/temp/dataset/2/16_1.odb,Step-1,Increment      1: Step Time =    1.000,"PART-1-1",           447,           15.,     -625.E-03,            0.,NA,NA,"",   313.096E-06,   312.288E-06,  -22.4695E-06,   1.29673E-12
C:/temp/dataset/2/16_1.odb,Step-1,Increment      1: Step Time =    1.000,"PART-1-1",           448,       13.7714,   731.820E-03,            0.,NA,NA,"",   318.024E-06,   317.530E-06,  -17.7236E-06,   1.96069E-12
C:/temp/dataset/2/16_1.odb,Step-1,Increment      1: Step Time =    1.000,"PART-1-1",           449,       12.5339,  -774.506E-03,            0.,NA,NA,"",   311.980E-06,   311.711E-06,  -12.9434E-06,   2.02054E-12
C:/temp/dataset/2/16_1.odb,Step-1,Increment      1: Step Time =    1.000,"PART-1-1",           450,       7.40609,       11.8257,            0.,NA,NA,"",   360.449E-06,   360.383E-06,   6.86436E-06,   265.632E-15
C:/temp/dataset/2/16_1.odb,Step-1,Increment      1: Step Time =    1.000,"PART-1-1",           451,       8.70206,       10.8725,            0.,NA,NA,"",   356.706E-06,   356.701E-06,   1.85828E-06,   255.691E-15
C:/temp/dataset/2/16_1.odb,Step-1,Increment      1: Step Time =    1.000,"PART-1-1",           452,       11.2454,       8.75341,            0.,NA,NA,"",   348.607E-06,   348.516E-06,  -7.96606E-06,   283.067E-15
C:/temp/dataset/2/16_1.odb,Step-1,Increment      1: Step Time =    1.000,"PART-1-1",           453,       11.2622,       5.99112,            0.,NA,NA,"",   337.941E-06,   337.845E-06,  -8.03099E-06,   1.52513E-12
C:/temp/dataset/2/16_1.odb,Step-1,Increment      1: Step Time =    1.000,"PART-1-1",           454,       13.8596,       24.3693,            0.,NA,NA,"",   409.236E-06,   408.837E-06,  -18.0644E-06,   763.247E-18
C:/temp/dataset/2/16_1.odb,Step-1,Increment      1: Step Time =    1.000,"PART-1-1",           455,       12.6110,       23.1199,            0.,NA,NA,"",   404.228E-06,   404.011E-06,  -13.2414E-06,   807.644E-18
C:/temp/dataset/2/16_1.odb,Step-1,Increment      1: Step Time =    1.000,"PART-1-1",           456,       13.7514,       21.4590,            0.,NA,NA,"",   397.986E-06,   397.595E-06,  -17.6467E-06,   1.05619E-15
C:/temp/dataset/2/16_1.odb,Step-1,Increment      1: Step Time =    1.000,"PART-1-1",           457,           15.,       22.7083,            0.,NA,NA,"",   403.048E-06,   402.421E-06,  -22.4696E-06,   1.62712E-15
C:/temp/dataset/2/16_1.odb,Step-1,Increment      1: Step Time =    1.000,"PART-1-1",           458,       8.83903,       17.2613,            0.,NA,NA,"",   381.382E-06,   381.380E-06,   1.32914E-06,   27.7427E-15
C:/temp/dataset/2/16_1.odb,Step-1,Increment      1: Step Time =    1.000,"PART-1-1",           459,       10.5130,       17.3338,            0.,NA,NA,"",   381.695E-06,   381.660E-06,  -5.13702E-06,   24.6413E-15
C:/temp/dataset/2/16_1.odb,Step-1,Increment      1: Step Time =    1.000,"PART-1-1",           460,       8.72284,       19.1442,            0.,NA,NA,"",   388.657E-06,   388.653E-06,   1.77792E-06,   12.1401E-15
C:/temp/dataset/2/16_1.odb,Step-1,Increment      1: Step Time =    1.000,"PART-1-1",           461,           15.,       28.5417,            0.,NA,NA,"",   425.548E-06,   424.954E-06,  -22.4697E-06,   818.563E-18
C:/temp/dataset/2/16_1.odb,Step-1,Increment      1: Step Time =    1.000,"PART-1-1",           462,         13.75,           30.,            0.,NA,NA,"",   430.949E-06,   430.587E-06,  -17.6412E-06,   791.301E-18
C:/temp/dataset/2/16_1.odb,Step-1,Increment      1: Step Time =    1.000,"PART-1-1",           463,       12.5875,       28.6551,            0.,NA,NA,"",   425.596E-06,   425.392E-06,  -13.1507E-06,   729.171E-18
C:/temp/dataset/2/16_1.odb,Step-1,Increment      1: Step Time =    1.000,"PART-1-1",           464,       13.8375,       27.1968,            0.,NA,NA,"",   420.144E-06,   419.759E-06,  -17.9792E-06,   740.265E-18
C:/temp/dataset/2/16_1.odb,Step-1,Increment      1: Step Time =    1.000,"PART-1-1",           465,         11.25,           30.,            0.,NA,NA,"",   430.661E-06,   430.587E-06,  -7.98412E-06,   696.323E-18
C:/temp/dataset/2/16_1.odb,Step-1,Increment      1: Step Time =    1.000,"PART-1-1",           466,       10.1484,       28.7335,            0.,NA,NA,"",   425.711E-06,   425.695E-06,  -3.72870E-06,   699.674E-18
C:/temp/dataset/2/16_1.odb,Step-1,Increment      1: Step Time =    1.000,"PART-1-1",           467,       7.69941,       28.7139,            0.,NA,NA,"",   425.658E-06,   425.619E-06,   5.73119E-06,   655.188E-18
C:/temp/dataset/2/16_1.odb,Step-1,Increment      1: Step Time =    1.000,"PART-1-1",           468,       9.09777,       27.4473,            0.,NA,NA,"",   420.727E-06,   420.727E-06,   329.562E-09,   639.150E-18
C:/temp/dataset/2/16_1.odb,Step-1,Increment      1: Step Time =    1.000,"PART-1-1",           469,          8.75,           30.,            0.,NA,NA,"",   430.591E-06,   430.587E-06,   1.67293E-06,   650.284E-18
C:/temp/dataset/2/16_1.odb,Step-1,Increment      1: Step Time =    1.000,"PART-1-1",           470,  -9.87333E-03,       28.6960,            0.,NA,NA,"",   427.029E-06,   425.550E-06,   35.5108E-06,   738.977E-18
C:/temp/dataset/2/16_1.odb,Step-1,Increment      1: Step Time =    1.000,"PART-1-1",           471,          1.25,           30.,            0.,NA,NA,"",   431.676E-06,   430.587E-06,   30.6441E-06,   656.419E-18
C:/temp/dataset/2/16_1.odb,Step-1,Increment      1: Step Time =    1.000,"PART-1-1",           472,       4.87954,       25.6434,            0.,NA,NA,"",   414.092E-06,   413.759E-06,   16.6239E-06,   880.609E-18
C:/temp/dataset/2/16_1.odb,Step-1,Increment      1: Step Time =    1.000,"PART-1-1",           473,      -5.00474,       28.7231,            0.,NA,NA,"",   429.169E-06,   425.655E-06,   54.8050E-06,   618.841E-18
C:/temp/dataset/2/16_1.odb,Step-1,Increment      1: Step Time =    1.000,"PART-1-1",           474,         -6.25,           30.,            0.,NA,NA,"",   434.695E-06,   430.587E-06,   59.6152E-06,   506.610E-18
C:/temp/dataset/2/16_1.odb,Step-1,Increment      1: Step Time =    1.000,"PART-1-1",           475,      -3.76303,       27.4393,            0.,NA,NA,"",   423.658E-06,   420.696E-06,   50.0085E-06,   779.488E-18
C:/temp/dataset/2/16_1.odb,Step-1,Increment      1: Step Time =    1.000,"PART-1-1",           476,      -3.77322,       24.9147,            0.,NA,NA,"",   413.980E-06,   410.944E-06,   50.0479E-06,   590.472E-18
C:/temp/dataset/2/16_1.odb,Step-1,Increment      1: Step Time =    1.000,"PART-1-1",           477,      -13.7476,       27.4926,            0.,NA,NA,"",   430.121E-06,   420.902E-06,   88.5771E-06,   612.001E-18
C:/temp/dataset/2/16_1.odb,Step-1,Increment      1: Step Time =    1.000,"PART-1-1",           478,        -13.75,           30.,            0.,NA,NA,"",   439.606E-06,   430.587E-06,   88.5864E-06,   608.673E-18
C:/temp/dataset/2/16_1.odb,Step-1,Increment      1: Step Time =    1.000,"PART-1-1",           479,          -15.,         28.75,            0.,NA,NA,"",   435.887E-06,   425.759E-06,   93.4149E-06,   783.337E-18
C:/temp/dataset/2/16_1.odb,Step-1,Increment      1: Step Time =    1.000,"PART-1-1",           480,          -15.,         26.25,            0.,NA,NA,"",   426.459E-06,   416.102E-06,   93.4149E-06,   614.501E-18
C:/temp/dataset/2/16_1.odb,Step-1,Increment      1: Step Time =    1.000,"PART-1-1",           481,      -12.4965,       26.2309,            0.,NA,NA,"",   424.373E-06,   416.028E-06,   83.7443E-06,   715.310E-18
C:/temp/dataset/2/16_1.odb,Step-1,Increment      1: Step Time =    1.000,"PART-1-1",           482,      -10.0014,       23.7134,            0.,NA,NA,"",   413.006E-06,   406.303E-06,   74.1062E-06,   619.477E-18
C:/temp/dataset/2/16_1.odb,Step-1,Increment      1: Step Time =    1.000,"PART-1-1",           483,      -8.75535,       22.4567,            0.,NA,NA,"",   407.385E-06,   401.449E-06,   69.2930E-06,   715.595E-18
C:/temp/dataset/2/16_1.odb,Step-1,Increment      1: Step Time =    1.000,"PART-1-1",           484,      -7.50515,       23.6891,            0.,NA,NA,"",   411.293E-06,   406.210E-06,   64.4637E-06,   555.238E-18
C:/temp/dataset/2/16_1.odb,Step-1,Increment      1: Step Time =    1.000,"PART-1-1",           485,      -8.75118,       24.9458,            0.,NA,NA,"",   416.861E-06,   411.064E-06,   69.2769E-06,   906.913E-18
C:/temp/dataset/2/16_1.odb,Step-1,Increment      1: Step Time =    1.000,"PART-1-1",           486,      -3.77419,       22.4219,            0.,NA,NA,"",   404.424E-06,   401.314E-06,   50.0517E-06,   649.629E-18
C:/temp/dataset/2/16_1.odb,Step-1,Increment      1: Step Time =    1.000,"PART-1-1",           487,      -5.00723,       21.2173,            0.,NA,NA,"",   400.431E-06,   396.662E-06,   54.8147E-06,   644.962E-18
C:/temp/dataset/2/16_1.odb,Step-1,Increment      1: Step Time =    1.000,"PART-1-1",           488,         -3.75,           20.,            0.,NA,NA,"",   395.130E-06,   391.959E-06,   49.9583E-06,   820.956E-18
C:/temp/dataset/2/16_1.odb,Step-1,Increment      1: Step Time =    1.000,"PART-1-1",           489,      -2.51696,       21.2046,            0.,NA,NA,"",   399.179E-06,   396.612E-06,   45.1952E-06,   575.027E-18
C:/temp/dataset/2/16_1.odb,Step-1,Increment      1: Step Time =    1.000,"PART-1-1",           490,         -8.75,           20.,            0.,NA,NA,"",   398.034E-06,   391.959E-06,   69.2724E-06,   440.973E-18
C:/temp/dataset/2/16_1.odb,Step-1,Increment      1: Step Time =    1.000,"PART-1-1",           491,      -7.50331,       21.2223,            0.,NA,NA,"",   401.883E-06,   396.681E-06,   64.4566E-06,   629.749E-18
C:/temp/dataset/2/16_1.odb,Step-1,Increment      1: Step Time =    1.000,"PART-1-1",           492,         -6.25,           20.,            0.,NA,NA,"",   396.467E-06,   391.959E-06,   59.6153E-06,   820.834E-18
C:/temp/dataset/2/16_1.odb,Step-1,Increment      1: Step Time =    1.000,"PART-1-1",           493,      -6.26054,       22.4396,            0.,NA,NA,"",   405.792E-06,   401.383E-06,   59.6560E-06,   664.816E-18
C:/temp/dataset/2/16_1.odb,Step-1,Increment      1: Step Time =    1.000,"PART-1-1",           494,         -1.25,           20.,            0.,NA,NA,"",   394.026E-06,   391.959E-06,   40.3012E-06,   517.945E-18
C:/temp/dataset/2/16_1.odb,Step-1,Increment      1: Step Time =    1.000,"PART-1-1",           495,      -1.30453,       22.3853,            0.,NA,NA,"",   403.214E-06,   401.173E-06,   40.5118E-06,   715.660E-18
C:/temp/dataset/2/16_1.odb,Step-1,Increment      1: Step Time =    1.000,"PART-1-1",           496,         -1.25,           30.,            0.,NA,NA,"",   432.469E-06,   430.587E-06,   40.3011E-06,   783.387E-18
C:/temp/dataset/2/16_1.odb,Step-1,Increment      1: Step Time =    1.000,"PART-1-1",           497,      -2.50829,       28.7162,            0.,NA,NA,"",   428.017E-06,   425.628E-06,   45.1617E-06,   775.378E-18
C:/temp/dataset/2/16_1.odb,Step-1,Increment      1: Step Time =    1.000,"PART-1-1",           498,         -3.75,           30.,            0.,NA,NA,"",   433.476E-06,   430.587E-06,   49.9582E-06,   767.331E-18
C:/temp/dataset/2/16_1.odb,Step-1,Increment      1: Step Time =    1.000,"PART-1-1",           499,          3.75,           20.,            0.,NA,NA,"",   392.521E-06,   391.959E-06,   20.9871E-06,   744.008E-18
C:/temp/dataset/2/16_1.odb,Step-1,Increment      1: Step Time =    1.000,"PART-1-1",           500,       4.75388,       21.0765,            0.,NA,NA,"",   396.487E-06,   396.117E-06,   17.1093E-06,   887.618E-18
C:/temp/dataset/2/16_1.odb,Step-1,Increment      1: Step Time =    1.000,"PART-1-1",           501,          6.25,           30.,            0.,NA,NA,"",   430.736E-06,   430.587E-06,   11.3300E-06,   732.181E-18
C:/temp/dataset/2/16_1.odb,Step-1,Increment      1: Step Time =    1.000,"PART-1-1",           502,       6.61296,       27.1492,            0.,NA,NA,"",   419.693E-06,   419.575E-06,   9.92795E-06,   784.118E-18
C:/temp/dataset/2/16_1.odb,Step-1,Increment      1: Step Time =    1.000,"PART-1-1",           503,            5.,         16.25,            0.,NA,NA,"",   377.819E-06,   377.474E-06,   16.1586E-06,   36.4143E-15
C:/temp/dataset/2/16_1.odb,Step-1,Increment      1: Step Time =    1.000,"PART-1-1",           504,       6.03202,       15.2452,            0.,NA,NA,"",   373.791E-06,   373.592E-06,   12.1721E-06,   42.4649E-15
C:/temp/dataset/2/16_1.odb,Step-1,Increment      1: Step Time =    1.000,"PART-1-1",           505,       6.91243,       16.6330,            0.,NA,NA,"",   379.054E-06,   378.953E-06,   8.77123E-06,   33.6472E-15
C:/temp/dataset/2/16_1.odb,Step-1,Increment      1: Step Time =    1.000,"PART-1-1",           506,            5.,         13.75,            0.,NA,NA,"",   368.171E-06,   367.817E-06,   16.1586E-06,   74.9987E-15
C:/temp/dataset/2/16_1.odb,Step-1,Increment      1: Step Time =    1.000,"PART-1-1",           507,       6.17466,       12.7979,            0.,NA,NA,"",   364.324E-06,   364.139E-06,   11.6211E-06,   146.147E-15
C:/temp/dataset/2/16_1.odb,Step-1,Increment      1: Step Time =    1.000,"PART-1-1",           508,       12.0086,       16.5092,            0.,NA,NA,"",   378.632E-06,   378.475E-06,  -10.9142E-06,   42.4848E-15
C:/temp/dataset/2/16_1.odb,Step-1,Increment      1: Step Time =    1.000,"PART-1-1",           509,           15.,        16.875,            0.,NA,NA,"",   380.552E-06,   379.888E-06,  -22.4696E-06,   21.4437E-15
C:/temp/dataset/2/16_1.odb,Step-1,Increment      1: Step Time =    1.000,"PART-1-1",           510,       13.3591,       18.2744,            0.,NA,NA,"",   385.631E-06,   385.293E-06,  -16.1311E-06,   8.03635E-15
C:/temp/dataset/2/16_1.odb,Step-1,Increment      1: Step Time =    1.000,"PART-1-1",           511,            5.,         11.25,            0.,NA,NA,"",   358.524E-06,   358.159E-06,   16.1586E-06,   492.034E-15
C:/temp/dataset/2/16_1.odb,Step-1,Increment      1: Step Time =    1.000,"PART-1-1",           512,       6.23142,       10.2778,            0.,NA,NA,"",   354.587E-06,   354.404E-06,   11.4019E-06,   307.276E-15
C:/temp/dataset/2/16_1.odb,Step-1,Increment      1: Step Time =    1.000,"PART-1-1",           513,            5.,          8.75,            0.,NA,NA,"",   348.877E-06,   348.502E-06,   16.1587E-06,   692.105E-15
C:/temp/dataset/2/16_1.odb,Step-1,Increment      1: Step Time =    1.000,"PART-1-1",           514,       7.47251,       9.25684,            0.,NA,NA,"",   350.523E-06,   350.460E-06,   6.60780E-06,   626.266E-15
C:/temp/dataset/2/16_1.odb,Step-1,Increment      1: Step Time =    1.000,"PART-1-1",           515,         11.25,           -5.,            0.,NA,NA,"",   295.496E-06,   295.389E-06,  -7.98384E-06,   2.76026E-12
C:/temp/dataset/2/16_1.odb,Step-1,Increment      1: Step Time =    1.000,"PART-1-1",           516,       11.2689,      -2.22707,            0.,NA,NA,"",   306.206E-06,   306.100E-06,  -8.05679E-06,   4.22922E-12
C:/temp/dataset/2/16_1.odb,Step-1,Increment      1: Step Time =    1.000,"PART-1-1",           517,          10.5,          -30.,            0.,NA,NA,"",            0.,   92.5810E-42,  -1.72416E-39,   729.336E-06
C:/temp/dataset/2/16_1.odb,Step-1,Increment      1: Step Time =    1.000,"PART-1-1",           518,           15.,        -23.75,            0.,NA,NA,"",   7.82229E-03,   4.24500E-03,  -6.57025E-03,   1.03486E-03
C:/temp/dataset/2/16_1.odb,Step-1,Increment      1: Step Time =    1.000,"PART-1-1",           519,          3.75,           -5.,            0.,NA,NA,"",   296.133E-06,   295.389E-06,   20.9873E-06,   60.7643E-12
C:/temp/dataset/2/16_1.odb,Step-1,Increment      1: Step Time =    1.000,"PART-1-1",           520,       4.97006,      -3.74763,            0.,NA,NA,"",   300.667E-06,   300.226E-06,   16.2744E-06,   27.7280E-12
C:/temp/dataset/2/16_1.odb,Step-1,Increment      1: Step Time =    1.000,"PART-1-1",           521,       4.85412,       3.76356,            0.,NA,NA,"",   329.665E-06,   329.241E-06,   16.7222E-06,   23.0974E-12
C:/temp/dataset/2/16_1.odb,Step-1,Increment      1: Step Time =    1.000,"PART-1-1",           522,       3.33333,            5.,            0.,NA,NA,"",   334.780E-06,   334.017E-06,   22.5968E-06,   44.5155E-12
C:/temp/dataset/2/16_1.odb,Step-1,Increment      1: Step Time =    1.000,"PART-1-1",           523,       1.45296,       3.58740,            0.,NA,NA,"",   329.914E-06,   328.560E-06,   29.8605E-06,   53.3290E-12
C:/temp/dataset/2/16_1.odb,Step-1,Increment      1: Step Time =    1.000,"PART-1-1",           524,       2.97375,       2.35096,            0.,NA,NA,"",   324.671E-06,   323.784E-06,   23.9858E-06,   32.3808E-12
C:/temp/dataset/2/16_1.odb,Step-1,Increment      1: Step Time =    1.000,"PART-1-1",           525,          6.25,           -5.,            0.,NA,NA,"",   295.606E-06,   295.389E-06,   11.3303E-06,   33.4952E-12
C:/temp/dataset/2/16_1.odb,Step-1,Increment      1: Step Time =    1.000,"PART-1-1",           526,       12.4696,       10.4445,            0.,NA,NA,"",   355.275E-06,   355.048E-06,  -12.6949E-06,   102.069E-15
C:/temp/dataset/2/16_1.odb,Step-1,Increment      1: Step Time =    1.000,"PART-1-1",           527,           15.,       11.0417,            0.,NA,NA,"",   358.060E-06,   357.355E-06,  -22.4696E-06,   256.665E-15
C:/temp/dataset/2/16_1.odb,Step-1,Increment      1: Step Time =    1.000,"PART-1-1",           528,      -5.01382,       23.6808,            0.,NA,NA,"",   409.863E-06,   406.177E-06,   54.8401E-06,   818.640E-18
C:/temp/dataset/2/16_1.odb,Step-1,Increment      1: Step Time =    1.000,"PART-1-1",           529,      -2.53358,       23.6558,            0.,NA,NA,"",   408.595E-06,   406.081E-06,   45.2594E-06,   676.589E-18
C:/temp/dataset/2/16_1.odb,Step-1,Increment      1: Step Time =    1.000,"PART-1-1",           530,  -74.6816E-03,       23.6075,            0.,NA,NA,"",   407.467E-06,   405.894E-06,   35.7611E-06,   783.988E-18
C:/temp/dataset/2/16_1.odb,Step-1,Increment      1: Step Time =    1.000,"PART-1-1",           531,      -6.62798,      -1.45964,            0.,NA,NA,"",   315.050E-06,   309.072E-06,   61.0812E-06,   3.59311E-09
C:/temp/dataset/2/16_1.odb,Step-1,Increment      1: Step Time =    1.000,"PART-1-1",           532,      -4.43070,      -2.38075,            0.,NA,NA,"",   310.002E-06,   305.510E-06,   52.5853E-06,   3.34655E-09
C:/temp/dataset/2/16_1.odb,Step-1,Increment      1: Step Time =    1.000,"PART-1-1",           533,      -3.64554,  -813.143E-03,            0.,NA,NA,"",   315.480E-06,   311.564E-06,   49.5549E-06,   1.76803E-09
C:/temp/dataset/2/16_1.odb,Step-1,Increment      1: Step Time =    1.000,"PART-1-1",           534,         -3.75,           -5.,            0.,NA,NA,"",   299.580E-06,   295.386E-06,   49.9529E-06,   5.04735E-09
C:/temp/dataset/2/16_1.odb,Step-1,Increment      1: Step Time =    1.000,"PART-1-1",           535,      -13.8599,      -9.43096,            0.,NA,NA,"",   292.618E-06,   278.739E-06,   89.0487E-06,   112.737E-09
C:/temp/dataset/2/16_1.odb,Step-1,Increment      1: Step Time =    1.000,"PART-1-1",           536,          -15.,      -11.0417,            0.,NA,NA,"",   288.361E-06,   272.734E-06,   93.6382E-06,   320.878E-09
C:/temp/dataset/2/16_1.odb,Step-1,Increment      1: Step Time =    1.000,"PART-1-1",           537,      -11.9984,      -19.8095,            0.,NA,NA,"",   236.681E-06,   222.680E-06,   80.1978E-06,   4.94044E-06
C:/temp/dataset/2/16_1.odb,Step-1,Increment      1: Step Time =    1.000,"PART-1-1",           538,      -13.3881,      -18.2324,            0.,NA,NA,"",   255.036E-06,   238.496E-06,   90.3489E-06,   1.42673E-06
C:/temp/dataset/2/16_1.odb,Step-1,Increment      1: Step Time =    1.000,"PART-1-1",           539,          -15.,      -19.7917,            0.,NA,NA,"",   245.781E-06,   220.635E-06,   108.297E-06,   1.62342E-06
C:/temp/dataset/2/16_1.odb,Step-1,Increment      1: Step Time =    1.000,"PART-1-1",           540,           -5.,        -18.75,            0.,NA,NA,"",   272.860E-06,   262.020E-06,   76.1465E-06,   13.9381E-06
C:/temp/dataset/2/16_1.odb,Step-1,Increment      1: Step Time =    1.000,"PART-1-1",           541,      -5.96138,      -20.0094,            0.,NA,NA,"",   299.553E-06,   290.645E-06,   72.5086E-06,   38.7385E-06
C:/temp/dataset/2/16_1.odb,Step-1,Increment      1: Step Time =    1.000,"PART-1-1",           542,           -5.,        -13.75,            0.,NA,NA,"",   266.797E-06,   260.681E-06,   56.8003E-06,   1.79064E-06
C:/temp/dataset/2/16_1.odb,Step-1,Increment      1: Step Time =    1.000,"PART-1-1",           543,      -7.28958,      -14.3036,            0.,NA,NA,"",   265.798E-06,   258.203E-06,   63.0873E-06,   1.34920E-06
C:/temp/dataset/2/16_1.odb,Step-1,Increment      1: Step Time =    1.000,"PART-1-1",           544,      -8.88285,      -11.0213,            0.,NA,NA,"",   280.518E-06,   271.838E-06,   69.2433E-06,   413.080E-09
C:/temp/dataset/2/16_1.odb,Step-1,Increment      1: Step Time =    1.000,"PART-1-1",           545,      -9.01222,      -8.51542,            0.,NA,NA,"",   290.347E-06,   281.741E-06,   70.1667E-06,   127.567E-09
C:/temp/dataset/2/16_1.odb,Step-1,Increment      1: Step Time =    1.000,"PART-1-1",           546,      -9.13424,  -715.290E-03,            0.,NA,NA,"",   319.871E-06,   311.945E-06,   70.7631E-06,   2.66063E-09
C:/temp/dataset/2/16_1.odb,Step-1,Increment      1: Step Time =    1.000,"PART-1-1",           547,      -9.92186,      -2.42350,            0.,NA,NA,"",   314.147E-06,   305.353E-06,   73.8075E-06,   3.60043E-09
C:/temp/dataset/2/16_1.odb,Step-1,Increment      1: Step Time =    1.000,"PART-1-1",           548,      -12.7176,      -7.95930,            0.,NA,NA,"",   296.520E-06,   284.204E-06,   84.5714E-06,   110.169E-09
C:/temp/dataset/2/16_1.odb,Step-1,Increment      1: Step Time =    1.000,"PART-1-1",           549,          -15.,        -8.125,            0.,NA,NA,"",   298.546E-06,   283.585E-06,   93.3255E-06,   48.8332E-09
C:/temp/dataset/2/16_1.odb,Step-1,Increment      1: Step Time =    1.000,"PART-1-1",           550,       11.2818,   528.104E-03,            0.,NA,NA,"",   316.846E-06,   316.743E-06,  -8.10659E-06,   3.96842E-12
C:/temp/dataset/2/16_1.odb,Step-1,Increment      1: Step Time =    1.000,"PART-1-1",           551,       10.0167,  -924.457E-03,            0.,NA,NA,"",   311.148E-06,   311.132E-06,  -3.21993E-06,   5.18331E-12
C:/temp/dataset/2/16_1.odb,Step-1,Increment      1: Step Time =    1.000,"PART-1-1",           552,       10.4320,       23.7699,            0.,NA,NA,"",   406.550E-06,   406.521E-06,  -4.82436E-06,   1.50073E-15
C:/temp/dataset/2/16_1.odb,Step-1,Increment      1: Step Time =    1.000,"PART-1-1",           553,           15.,        25.625,            0.,NA,NA,"",   414.297E-06,   413.687E-06,  -22.4697E-06,   621.663E-18
C:/temp/dataset/2/16_1.odb,Step-1,Increment      1: Step Time =    1.000,"PART-1-1",           554,      -9.99539,       26.2124,            0.,NA,NA,"",   422.502E-06,   415.957E-06,   74.0830E-06,   608.791E-18
C:/temp/dataset/2/16_1.odb,Step-1,Increment      1: Step Time =    1.000,"PART-1-1",           555,          -15.,       -25.625,            0.,NA,NA,"",   143.138E-06,   111.261E-06,   90.0537E-06,   13.3049E-06
C:/temp/dataset/2/16_1.odb,Step-1,Increment      1: Step Time =    1.000,"PART-1-1",           556,      -12.2044,      -25.8339,            0.,NA,NA,"",   102.722E-06,   89.0936E-06,   51.1278E-06,   18.7277E-06
C:/temp/dataset/2/16_1.odb,Step-1,Increment      1: Step Time =    1.000,"PART-1-1",           557,          -15.,       -16.875,            0.,NA,NA,"",   266.978E-06,   247.320E-06,   100.550E-06,   2.31248E-06
C:/temp/dataset/2/16_1.odb,Step-1,Increment      1: Step Time =    1.000,"PART-1-1",           558,      -8.25880,      -15.9015,            0.,NA,NA,"",   261.058E-06,   253.083E-06,   64.0344E-06,   1.29666E-06
C:/temp/dataset/2/16_1.odb,Step-1,Increment      1: Step Time =    1.000,"PART-1-1",           559,       7.56555,       17.9230,            0.,NA,NA,"",   383.987E-06,   383.936E-06,   6.24834E-06,   15.9778E-15
C:/temp/dataset/2/16_1.odb,Step-1,Increment      1: Step Time =    1.000,"PART-1-1",           560,      -9.72707,       2.21069,            0.,NA,NA,"",   331.389E-06,   323.239E-06,   73.0460E-06,   1.68295E-09
C:/temp/dataset/2/16_1.odb,Step-1,Increment      1: Step Time =    1.000,"PART-1-1",           561,      -8.18006,       3.69884,            0.,NA,NA,"",   335.753E-06,   328.985E-06,   67.0730E-06,   1.97390E-09
C:/temp/dataset/2/16_1.odb,Step-1,Increment      1: Step Time =    1.000,"PART-1-1",           562,          -10.,            5.,            0.,NA,NA,"",   342.125E-06,   334.005E-06,   74.0966E-06,   2.16007E-09
C:/temp/dataset/2/16_1.odb,Step-1,Increment      1: Step Time =    1.000,"PART-1-1",           563,      -10.3433,      -7.69771,            0.,NA,NA,"",   294.835E-06,   285.043E-06,   75.3525E-06,   113.337E-09
C:/temp/dataset/2/16_1.odb,Step-1,Increment      1: Step Time =    1.000,"PART-1-1",           564,      -11.5611,      -6.59494,            0.,NA,NA,"",   300.218E-06,   289.332E-06,   80.1112E-06,   41.2083E-09
C:/temp/dataset/2/16_1.odb,Step-1,Increment      1: Step Time =    1.000,"PART-1-1",           565,      -9.40089,      -20.7816,            0.,NA,NA,"",   231.134E-06,   219.130E-06,   73.5168E-06,   14.1324E-06
C:/temp/dataset/2/16_1.odb,Step-1,Increment      1: Step Time =    1.000,"PART-1-1",           566,      -8.21757,      -22.2064,            0.,NA,NA,"",   214.374E-06,   196.646E-06,   85.3609E-06,   32.1903E-06
C:/temp/dataset/2/16_1.odb,Step-1,Increment      1: Step Time =    1.000,"PART-1-1",           567,      -6.89894,      -21.2078,            0.,NA,NA,"",   262.724E-06,   247.164E-06,   89.0739E-06,   33.9454E-06
C:/temp/dataset/2/16_1.odb,Step-1,Increment      1: Step Time =    1.000,"PART-1-1",           568,      -9.14285,      -28.6800,            0.,NA,NA,"",   16.7808E-06,   9.71478E-06,   13.6827E-06,   15.5371E-06
C:/temp/dataset/2/16_1.odb,Step-1,Increment      1: Step Time =    1.000,"PART-1-1",           569,      -10.7232,      -27.3047,            0.,NA,NA,"",   53.3807E-06,   44.1138E-06,   30.0577E-06,   21.4482E-06
C:/temp/dataset/2/16_1.odb,Step-1,Increment      1: Step Time =    1.000,"PART-1-1",           570,         -10.5,          -30.,            0.,NA,NA,"",            0.,   8.42180E-42,   25.8610E-42,   12.2102E-06
C:/temp/dataset/2/16_1.odb,Step-1,Increment      1: Step Time =    1.000,"PART-1-1",           571,      -4.89633,      -27.4366,            0.,NA,NA,"",   74.0495E-06,  -63.3918E-06,   38.2728E-06,   45.9765E-06
C:/temp/dataset/2/16_1.odb,Step-1,Increment      1: Step Time =    1.000,"PART-1-1",           572,      -6.18287,      -28.7136,            0.,NA,NA,"",   27.8251E-06,  -24.4797E-06,   13.2281E-06,   20.8082E-06
C:/temp/dataset/2/16_1.odb,Step-1,Increment      1: Step Time =    1.000,"PART-1-1",           573,          -4.5,          -30.,            0.,NA,NA,"",            0.,  -45.6557E-42,  -15.8697E-42,   44.7121E-06
C:/temp/dataset/2/16_1.odb,Step-1,Increment      1: Step Time =    1.000,"PART-1-1",           574,       12.5384,       2.02620,            0.,NA,NA,"",   322.790E-06,   322.529E-06,  -12.9607E-06,   1.84067E-12
C:/temp/dataset/2/16_1.odb,Step-1,Increment      1: Step Time =    1.000,"PART-1-1",           575,           15.,       2.29167,            0.,NA,NA,"",   324.334E-06,   323.555E-06,  -22.4695E-06,   1.38985E-12
C:/temp/dataset/2/16_1.odb,Step-1,Increment      1: Step Time =    1.000,"PART-1-1",           576,       9.96595,       9.83263,            0.,NA,NA,"",   352.697E-06,   352.684E-06,  -3.02390E-06,   241.890E-15
C:/temp/dataset/2/16_1.odb,Step-1,Increment      1: Step Time =    1.000,"PART-1-1",           577,           15.,       19.7917,            0.,NA,NA,"",   391.799E-06,   391.154E-06,  -22.4696E-06,   2.46449E-15
C:/temp/dataset/2/16_1.odb,Step-1,Increment      1: Step Time =    1.000,"PART-1-1",           578,       7.90800,       20.1372,            0.,NA,NA,"",   392.520E-06,   392.489E-06,   4.92549E-06,   3.69303E-15
C:/temp/dataset/2/16_1.odb,Step-1,Increment      1: Step Time =    1.000,"PART-1-1",           579,       8.41916,       21.3934,            0.,NA,NA,"",   397.353E-06,   397.342E-06,   2.95099E-06,   3.05881E-15
C:/temp/dataset/2/16_1.odb,Step-1,Increment      1: Step Time =    1.000,"PART-1-1",           580,       6.50486,       21.1025,            0.,NA,NA,"",   396.353E-06,   396.218E-06,   10.3456E-06,   1.67490E-15
C:/temp/dataset/2/16_1.odb,Step-1,Increment      1: Step Time =    1.000,"PART-1-1",           581,           4.5,          -30.,            0.,NA,NA,"",            0.,  -244.260E-42,  -798.205E-42,   395.369E-06
C:/temp/dataset/2/16_1.odb,Step-1,Increment      1: Step Time =    1.000,"PART-1-1",           582,       3.62857,      -22.4261,            0.,NA,NA,"",   1.75381E-03,   465.283E-06,  -1.69096E-03,   312.775E-06
C:/temp/dataset/2/16_1.odb,Step-1,Increment      1: Step Time =    1.000,"PART-1-1",           583,       2.16864,      -23.6665,            0.,NA,NA,"",   709.115E-06,   8.27134E-06,  -709.067E-06,   109.817E-06
C:/temp/dataset/2/16_1.odb,Step-1,Increment      1: Step Time =    1.000,"PART-1-1",           584,      -2.73954,      -22.4743,            0.,NA,NA,"",   303.506E-06,   283.744E-06,   107.730E-06,   80.6169E-06
C:/temp/dataset/2/16_1.odb,Step-1,Increment      1: Step Time =    1.000,"PART-1-1",           585,  -999.676E-03,      -23.6839,            0.,NA,NA,"",   89.8366E-06,   89.8359E-06,   350.826E-09,   64.7462E-06
C:/temp/dataset/2/16_1.odb,Step-1,Increment      1: Step Time =    1.000,"PART-1-1",           586,      -7.82572,      -27.3936,            0.,NA,NA,"",   37.2135E-06,   10.7387E-06,   35.6304E-06,   28.1838E-06
C:/temp/dataset/2/16_1.odb,Step-1,Increment      1: Step Time =    1.000,"PART-1-1",           587,      -6.52069,      -26.1528,            0.,NA,NA,"",   69.5582E-06,   16.1652E-06,   67.6537E-06,   38.8663E-06
C:/temp/dataset/2/16_1.odb,Step-1,Increment      1: Step Time =    1.000,"PART-1-1",           588,      -8.08310,      -24.7829,            0.,NA,NA,"",   122.229E-06,   94.5143E-06,   77.5045E-06,   37.5650E-06
C:/temp/dataset/2/16_1.odb,Step-1,Increment      1: Step Time =    1.000,"PART-1-1",           589,      -9.38814,      -26.0237,            0.,NA,NA,"",   82.0954E-06,   64.4316E-06,   50.8746E-06,   25.8654E-06
C:/temp/dataset/2/16_1.odb,Step-1,Increment      1: Step Time =    1.000,"PART-1-1",           590,          -7.5,          -30.,            0.,NA,NA,"",            0.,  -6.03960E-42,   16.6068E-42,   11.6420E-06
C:/temp/dataset/2/16_1.odb,Step-1,Increment      1: Step Time =    1.000,"PART-1-1",           591,       7.73182,       24.8866,            0.,NA,NA,"",   410.873E-06,   410.835E-06,   5.60602E-06,   1.10280E-15
C:/temp/dataset/2/16_1.odb,Step-1,Increment      1: Step Time =    1.000,"PART-1-1",           592,       8.21760,       26.2797,            0.,NA,NA,"",   416.233E-06,   416.217E-06,   3.72951E-06,   737.702E-18
C:/temp/dataset/2/16_1.odb,Step-1,Increment      1: Step Time =    1.000,"PART-1-1",           593,       6.12718,       25.7561,            0.,NA,NA,"",   414.362E-06,   414.194E-06,   11.8045E-06,   927.993E-18
C:/temp/dataset/2/16_1.odb,Step-1,Increment      1: Step Time =    1.000,"PART-1-1",           594,       5.38844,       22.1508,            0.,NA,NA,"",   400.535E-06,   400.267E-06,   14.6581E-06,   1.06513E-15
C:/temp/dataset/2/16_1.odb,Step-1,Increment      1: Step Time =    1.000,"PART-1-1",           595,      -3.37677,   775.412E-03,            0.,NA,NA,"",   321.383E-06,   317.699E-06,   48.5182E-06,   1.41439E-09
C:/temp/dataset/2/16_1.odb,Step-1,Increment      1: Step Time =    1.000,"PART-1-1",           596,      -3.41233,       2.84116,            0.,NA,NA,"",   329.292E-06,   325.678E-06,   48.6564E-06,   1.01346E-09
C:/temp/dataset/2/16_1.odb,Step-1,Increment      1: Step Time =    1.000,"PART-1-1",           597,      -11.2482,       24.9673,            0.,NA,NA,"",   418.653E-06,   411.147E-06,   78.9225E-06,   744.495E-18
C:/temp/dataset/2/16_1.odb,Step-1,Increment      1: Step Time =    1.000,"PART-1-1",           598,       5.16292,       24.1270,            0.,NA,NA,"",   408.196E-06,   407.901E-06,   15.5292E-06,   1.01991E-15
C:/temp/dataset/2/16_1.odb,Step-1,Increment      1: Step Time =    1.000,"PART-1-1",           599,            0.,            5.,            0.,NA,NA,"",   335.896E-06,   334.017E-06,   35.4734E-06,   52.0171E-12
C:/temp/dataset/2/16_1.odb,Step-1,Increment      1: Step Time =    1.000,"PART-1-1",           600,      -1.80204,       3.95011,            0.,NA,NA,"",   332.679E-06,   329.961E-06,   42.4351E-06,   304.597E-12
C:/temp/dataset/2/16_1.odb,Step-1,Increment      1: Step Time =    1.000,"PART-1-1",           601,       9.59799,       22.9228,            0.,NA,NA,"",   403.253E-06,   403.249E-06,  -1.60265E-06,   1.35539E-15
C:/temp/dataset/2/16_1.odb,Step-1,Increment      1: Step Time =    1.000,"PART-1-1",           602,       8.30932,       22.9391,            0.,NA,NA,"",   403.326E-06,   403.312E-06,   3.37527E-06,   1.22057E-15
C:/temp/dataset/2/16_1.odb,Step-1,Increment      1: Step Time =    1.000,"PART-1-1",           603,      -1.93269,      -1.01257,            0.,NA,NA,"",   313.745E-06,   310.792E-06,   42.9382E-06,   1.00198E-09
C:/temp/dataset/2/16_1.odb,Step-1,Increment      1: Step Time =    1.000,"PART-1-1",           604,      -8.69440,      -13.5596,            0.,NA,NA,"",   270.245E-06,   261.731E-06,   67.2981E-06,   929.266E-09
C:/temp/dataset/2/16_1.odb,Step-1,Increment      1: Step Time =    1.000,"PART-1-1",           605,       6.07991,       2.65614,            0.,NA,NA,"",   325.184E-06,   324.963E-06,   11.9872E-06,   19.9892E-12
C:/temp/dataset/2/16_1.odb,Step-1,Increment      1: Step Time =    1.000,"PART-1-1",           606,       4.75906,       1.28045,            0.,NA,NA,"",   320.105E-06,   319.649E-06,   17.0894E-06,   24.3714E-12
C:/temp/dataset/2/16_1.odb,Step-1,Increment      1: Step Time =    1.000,"PART-1-1",           607,       10.0234,       4.43547,            0.,NA,NA,"",   331.852E-06,   331.836E-06,  -3.24594E-06,   3.23230E-12
C:/temp/dataset/2/16_1.odb,Step-1,Increment      1: Step Time =    1.000,"PART-1-1",           608,       7.46673,       4.06304,            0.,NA,NA,"",   330.464E-06,   330.398E-06,   6.63015E-06,   8.65183E-12
C:/temp/dataset/2/16_1.odb,Step-1,Increment      1: Step Time =    1.000,"PART-1-1",           609,  -317.165E-03,  -486.862E-03,            0.,NA,NA,"",   314.968E-06,   312.822E-06,   36.6978E-06,   431.331E-12
C:/temp/dataset/2/16_1.odb,Step-1,Increment      1: Step Time =    1.000,"PART-1-1",           610,       1.72730,   921.331E-03,            0.,NA,NA,"",   319.562E-06,   318.262E-06,   28.8006E-06,   75.3028E-12
C:/temp/dataset/2/16_1.odb,Step-1,Increment      1: Step Time =    1.000,"PART-1-1",           611,      -4.63664,      -21.2535,            0.,NA,NA,"",   352.894E-06,   330.956E-06,   122.484E-06,   59.8310E-06
C:/temp/dataset/2/16_1.odb,Step-1,Increment      1: Step Time =    1.000,"PART-1-1",           612,       11.2827,       3.26092,            0.,NA,NA,"",   327.399E-06,   327.299E-06,  -8.11022E-06,   3.28578E-12
C:/temp/dataset/2/16_1.odb,Step-1,Increment      1: Step Time =    1.000,"PART-1-1",           613,      -11.4502,      -4.36864,            0.,NA,NA,"",   308.343E-06,   297.864E-06,   79.7017E-06,   7.84591E-09
C:/temp/dataset/2/16_1.odb,Step-1,Increment      1: Step Time =    1.000,"PART-1-1",           614,      -10.8693,      -24.5529,            0.,NA,NA,"",   132.634E-06,   117.136E-06,   62.2181E-06,   22.8424E-06
C:/temp/dataset/2/16_1.odb,Step-1,Increment      1: Step Time =    1.000,"PART-1-1",           615,      -9.52531,      -23.3517,            0.,NA,NA,"",   169.052E-06,   151.519E-06,   74.9699E-06,   23.9948E-06
C:/temp/dataset/2/16_1.odb,Step-1,Increment      1: Step Time =    1.000,"PART-1-1",           616,      -10.8903,      -21.7518,            0.,NA,NA,"",   205.697E-06,   191.603E-06,   74.8308E-06,   14.7256E-06
C:/temp/dataset/2/16_1.odb,Step-1,Increment      1: Step Time =    1.000,"PART-1-1",           617,       3.33333,          -20.,            0.,NA,NA,"",   2.62210E-03,   2.05686E-03,  -1.62626E-03,   324.816E-06
C:/temp/dataset/2/16_1.odb,Step-1,Increment      1: Step Time =    1.000,"PART-1-1",           618,       1.83446,      -21.2108,            0.,NA,NA,"",   1.21437E-03,   989.840E-06,  -703.506E-06,   182.197E-06
C:/temp/dataset/2/16_1.odb,Step-1,Increment      1: Step Time =    1.000,"PART-1-1",           619,       5.12744,      -21.2153,            0.,NA,NA,"",   3.76906E-03,   1.31275E-03,  -3.53305E-03,   658.634E-06
C:/temp/dataset/2/16_1.odb,Step-1,Increment      1: Step Time =    1.000,"PART-1-1",           620,            0.,          -20.,            0.,NA,NA,"",   1.04970E-03,   1.00450E-03,  -304.736E-06,   246.289E-06
C:/temp/dataset/2/16_1.odb,Step-1,Increment      1: Step Time =    1.000,"PART-1-1",           621,      -1.43624,      -21.2208,            0.,NA,NA,"",   557.970E-06,   557.831E-06,  -12.4550E-06,   119.223E-06
C:/temp/dataset/2/16_1.odb,Step-1,Increment      1: Step Time =    1.000,"PART-1-1",           622,   398.228E-03,      -22.4316,            0.,NA,NA,"",   452.245E-06,   393.325E-06,  -223.206E-06,   76.1820E-06
C:/temp/dataset/2/16_1.odb,Step-1,Increment      1: Step Time =    1.000,"PART-1-1",           623,   770.736E-03,      -24.9188,            0.,NA,NA,"",   337.116E-06,  -207.268E-06,  -265.871E-06,   96.0635E-06
C:/temp/dataset/2/16_1.odb,Step-1,Increment      1: Step Time =    1.000,"PART-1-1",           624,      -3.33333,          -20.,            0.,NA,NA,"",   493.842E-06,   491.032E-06,   52.6118E-06,   128.176E-06
C:/temp/dataset/2/16_1.odb,Step-1,Increment      1: Step Time =    1.000,"PART-1-1",           625,       8.69606,       24.2205,            0.,NA,NA,"",   408.266E-06,   408.262E-06,   1.88135E-06,   1.18873E-15
C:/temp/dataset/2/16_1.odb,Step-1,Increment      1: Step Time =    1.000,"PART-1-1",           626,      -3.33333,            5.,            0.,NA,NA,"",   337.498E-06,   334.017E-06,   48.3509E-06,   736.443E-12
C:/temp/dataset/2/16_1.odb,Step-1,Increment      1: Step Time =    1.000,"PART-1-1",           627,      -4.94363,       3.89105,            0.,NA,NA,"",   334.217E-06,   329.732E-06,   54.5725E-06,   1.24119E-09
C:/temp/dataset/2/16_1.odb,Step-1,Increment      1: Step Time =    1.000,"PART-1-1",           628,      -6.66667,            5.,            0.,NA,NA,"",   339.578E-06,   334.012E-06,   61.2275E-06,   2.07766E-09
C:/temp/dataset/2/16_1.odb,Step-1,Increment      1: Step Time =    1.000,"PART-1-1",           629,           10.,          -20.,            0.,NA,NA,"",   8.85525E-03,   3.73814E-03,  -8.02756E-03,   943.199E-06
C:/temp/dataset/2/16_1.odb,Step-1,Increment      1: Step Time =    1.000,"PART-1-1",           630,       8.42239,      -21.2201,            0.,NA,NA,"",   6.83736E-03,   2.62882E-03,  -6.31180E-03,   996.494E-06
C:/temp/dataset/2/16_1.odb,Step-1,Increment      1: Step Time =    1.000,"PART-1-1",           631,       6.66667,          -20.,            0.,NA,NA,"",   6.95032E-03,   2.95422E-03,  -6.29122E-03,   871.873E-06
C:/temp/dataset/2/16_1.odb,Step-1,Increment      1: Step Time =    1.000,"PART-1-1",           632,       9.53008,       25.0675,            0.,NA,NA,"",   411.536E-06,   411.534E-06,  -1.34036E-06,   935.979E-18
