ODB Name,Step,Frame,Part Instance Name,    êﬂì_ÉâÉxÉã,X,Y,Z,Section Name,Material Name,Section Point,   U-Magnitude,          U-U1,          U-U2,       S-Mises
C:/temp/dataset/2/16_5.odb,Step-1,Increment      1: Step Time =    1.000,"PART-1-1",             1,          -15.,           20.,            0.,NA,NA,"",   1.89497E-03,   1.83940E-03,   455.538E-06,   406.823E-18
C:/temp/dataset/2/16_5.odb,Step-1,Increment      1: Step Time =    1.000,"PART-1-1",             2,          -15.,           25.,            0.,NA,NA,"",   1.97961E-03,   1.92648E-03,   455.537E-06,   167.708E-18
C:/temp/dataset/2/16_5.odb,Step-1,Increment      1: Step Time =    1.000,"PART-1-1",             3,          -10.,           20.,            0.,NA,NA,"",   1.87594E-03,   1.83940E-03,   368.459E-06,   107.097E-18
C:/temp/dataset/2/16_5.odb,Step-1,Increment      1: Step Time =    1.000,"PART-1-1",             4,           -5.,           20.,            0.,NA,NA,"",   1.86080E-03,   1.83940E-03,   281.381E-06,   44.4423E-18
C:/temp/dataset/2/16_5.odb,Step-1,Increment      1: Step Time =    1.000,"PART-1-1",             5,            0.,           20.,            0.,NA,NA,"",   1.84963E-03,   1.83940E-03,   194.302E-06,   253.265E-18
C:/temp/dataset/2/16_5.odb,Step-1,Increment      1: Step Time =    1.000,"PART-1-1",             6,            5.,           20.,            0.,NA,NA,"",   1.84252E-03,   1.83940E-03,   107.223E-06,   15.2848E-15
C:/temp/dataset/2/16_5.odb,Step-1,Increment      1: Step Time =    1.000,"PART-1-1",             7,            5.,          12.5,            0.,NA,NA,"",   1.71214E-03,   1.70878E-03,   107.224E-06,   1.03260E-12
C:/temp/dataset/2/16_5.odb,Step-1,Increment      1: Step Time =    1.000,"PART-1-1",             8,            5.,            5.,            0.,NA,NA,"",   1.58180E-03,   1.57816E-03,   107.225E-06,   161.568E-12
C:/temp/dataset/2/16_5.odb,Step-1,Increment      1: Step Time =    1.000,"PART-1-1",             9,           -5.,            5.,            0.,NA,NA,"",   1.60305E-03,   1.57815E-03,   281.396E-06,   7.09881E-09
C:/temp/dataset/2/16_5.odb,Step-1,Increment      1: Step Time =    1.000,"PART-1-1",            10,          -15.,            5.,            0.,NA,NA,"",   1.64248E-03,   1.57808E-03,   455.408E-06,   1.41872E-09
C:/temp/dataset/2/16_5.odb,Step-1,Increment      1: Step Time =    1.000,"PART-1-1",            11,          -15.,         -3.75,            0.,NA,NA,"",   1.49687E-03,   1.42596E-03,   455.251E-06,   62.4959E-09
C:/temp/dataset/2/16_5.odb,Step-1,Increment      1: Step Time =    1.000,"PART-1-1",            12,          -15.,         -12.5,            0.,NA,NA,"",   1.35807E-03,   1.27805E-03,   459.282E-06,   2.74403E-06
C:/temp/dataset/2/16_5.odb,Step-1,Increment      1: Step Time =    1.000,"PART-1-1",            13,          -15.,        -21.25,            0.,NA,NA,"",   1.10132E-03,   959.174E-06,   541.199E-06,   3.07453E-06
C:/temp/dataset/2/16_5.odb,Step-1,Increment      1: Step Time =    1.000,"PART-1-1",            14,          -15.,          -30.,            0.,NA,NA,"",            0.,   69.5955E-42,   115.410E-42,   184.941E-06
C:/temp/dataset/2/16_5.odb,Step-1,Increment      1: Step Time =    1.000,"PART-1-1",            15,           15.,          -30.,            0.,NA,NA,"",            0.,   2.96603E-39,  -5.30734E-39,   8.74619E-03
C:/temp/dataset/2/16_5.odb,Step-1,Increment      1: Step Time =    1.000,"PART-1-1",            16,           15.,          -25.,            0.,NA,NA,"",   32.5549E-03,   18.2789E-03,  -26.9388E-03,   5.21072E-03
C:/temp/dataset/2/16_5.odb,Step-1,Increment      1: Step Time =    1.000,"PART-1-1",            17,           15.,          -20.,            0.,NA,NA,"",   57.5848E-03,   29.0259E-03,  -49.7344E-03,   4.98591E-03
C:/temp/dataset/2/16_5.odb,Step-1,Increment      1: Step Time =    1.000,"PART-1-1",            18,            5.,          -20.,            0.,NA,NA,"",   23.7092E-03,   13.3149E-03,  -19.6173E-03,   2.99361E-03
C:/temp/dataset/2/16_5.odb,Step-1,Increment      1: Step Time =    1.000,"PART-1-1",            19,           -5.,          -20.,            0.,NA,NA,"",   1.64930E-03,   1.58393E-03,   459.726E-06,   318.289E-06
C:/temp/dataset/2/16_5.odb,Step-1,Increment      1: Step Time =    1.000,"PART-1-1",            20,           -5.,         -12.5,            0.,NA,NA,"",   1.30073E-03,   1.26899E-03,   285.580E-06,   3.33359E-06
C:/temp/dataset/2/16_5.odb,Step-1,Increment      1: Step Time =    1.000,"PART-1-1",            21,           -5.,           -5.,            0.,NA,NA,"",   1.43189E-03,   1.40398E-03,   281.326E-06,   62.9458E-09
C:/temp/dataset/2/16_5.odb,Step-1,Increment      1: Step Time =    1.000,"PART-1-1",            22,            0.,           -5.,            0.,NA,NA,"",   1.41739E-03,   1.40401E-03,   194.301E-06,   3.10942E-09
C:/temp/dataset/2/16_5.odb,Step-1,Increment      1: Step Time =    1.000,"PART-1-1",            23,            5.,           -5.,            0.,NA,NA,"",   1.40809E-03,   1.40400E-03,   107.227E-06,   296.244E-12
C:/temp/dataset/2/16_5.odb,Step-1,Increment      1: Step Time =    1.000,"PART-1-1",            24,           10.,           -5.,            0.,NA,NA,"",   1.40415E-03,   1.40400E-03,   20.1483E-06,   24.7730E-12
C:/temp/dataset/2/16_5.odb,Step-1,Increment      1: Step Time =    1.000,"PART-1-1",            25,           15.,           -5.,            0.,NA,NA,"",   1.40560E-03,   1.40400E-03,  -66.9305E-06,   1.65559E-12
C:/temp/dataset/2/16_5.odb,Step-1,Increment      1: Step Time =    1.000,"PART-1-1",            26,           15.,          3.75,            0.,NA,NA,"",   1.55783E-03,   1.55639E-03,  -66.9318E-06,   4.71095E-12
C:/temp/dataset/2/16_5.odb,Step-1,Increment      1: Step Time =    1.000,"PART-1-1",            27,           15.,          12.5,            0.,NA,NA,"",   1.71009E-03,   1.70878E-03,  -66.9332E-06,   855.857E-15
C:/temp/dataset/2/16_5.odb,Step-1,Increment      1: Step Time =    1.000,"PART-1-1",            28,           15.,         21.25,            0.,NA,NA,"",   1.86237E-03,   1.86117E-03,  -66.9345E-06,   14.8931E-15
C:/temp/dataset/2/16_5.odb,Step-1,Increment      1: Step Time =    1.000,"PART-1-1",            29,           15.,           30.,            0.,NA,NA,"",   2.01467E-03,   2.01355E-03,  -66.9358E-06,   306.365E-18
C:/temp/dataset/2/16_5.odb,Step-1,Increment      1: Step Time =    1.000,"PART-1-1",            30,           7.5,           30.,            0.,NA,NA,"",   2.01456E-03,   2.01356E-03,   63.6823E-06,   2.94597E-15
C:/temp/dataset/2/16_5.odb,Step-1,Increment      1: Step Time =    1.000,"PART-1-1",            31,            0.,           30.,            0.,NA,NA,"",   2.02291E-03,   2.01356E-03,   194.300E-06,   204.213E-18
C:/temp/dataset/2/16_5.odb,Step-1,Increment      1: Step Time =    1.000,"PART-1-1",            32,          -7.5,           30.,            0.,NA,NA,"",   2.03960E-03,   2.01356E-03,   324.918E-06,   227.843E-18
C:/temp/dataset/2/16_5.odb,Step-1,Increment      1: Step Time =    1.000,"PART-1-1",            33,          -15.,           30.,            0.,NA,NA,"",   2.06444E-03,   2.01356E-03,   455.537E-06,   11.2210E-18
C:/temp/dataset/2/16_5.odb,Step-1,Increment      1: Step Time =    1.000,"PART-1-1",            34,          -15.,          22.5,            0.,NA,NA,"",   1.93726E-03,   1.88294E-03,   455.538E-06,   331.474E-18
C:/temp/dataset/2/16_5.odb,Step-1,Increment      1: Step Time =    1.000,"PART-1-1",            35,         -12.5,           20.,            0.,NA,NA,"",   1.88498E-03,   1.83940E-03,   411.999E-06,   292.012E-18
C:/temp/dataset/2/16_5.odb,Step-1,Increment      1: Step Time =    1.000,"PART-1-1",            36,          -7.5,           20.,            0.,NA,NA,"",   1.86788E-03,   1.83940E-03,   324.920E-06,   219.949E-18
C:/temp/dataset/2/16_5.odb,Step-1,Increment      1: Step Time =    1.000,"PART-1-1",            37,          -2.5,           20.,            0.,NA,NA,"",   1.85471E-03,   1.83940E-03,   237.841E-06,   139.601E-18
C:/temp/dataset/2/16_5.odb,Step-1,Increment      1: Step Time =    1.000,"PART-1-1",            38,           2.5,           20.,            0.,NA,NA,"",   1.84557E-03,   1.83940E-03,   150.762E-06,   1.05190E-15
C:/temp/dataset/2/16_5.odb,Step-1,Increment      1: Step Time =    1.000,"PART-1-1",            39,            5.,           15.,            0.,NA,NA,"",   1.75560E-03,   1.75232E-03,   107.224E-06,   349.187E-15
C:/temp/dataset/2/16_5.odb,Step-1,Increment      1: Step Time =    1.000,"PART-1-1",            40,            5.,          17.5,            0.,NA,NA,"",   1.79906E-03,   1.79586E-03,   107.224E-06,   43.3751E-15
C:/temp/dataset/2/16_5.odb,Step-1,Increment      1: Step Time =    1.000,"PART-1-1",            41,            5.,           7.5,            0.,NA,NA,"",   1.62524E-03,   1.62170E-03,   107.225E-06,   22.4996E-12
C:/temp/dataset/2/16_5.odb,Step-1,Increment      1: Step Time =    1.000,"PART-1-1",            42,            5.,           10.,            0.,NA,NA,"",   1.66869E-03,   1.66524E-03,   107.225E-06,   5.18488E-12
C:/temp/dataset/2/16_5.odb,Step-1,Increment      1: Step Time =    1.000,"PART-1-1",            43,      -1.66667,            5.,            0.,NA,NA,"",   1.59389E-03,   1.57816E-03,   223.336E-06,   867.092E-12
C:/temp/dataset/2/16_5.odb,Step-1,Increment      1: Step Time =    1.000,"PART-1-1",            44,       1.66667,            5.,            0.,NA,NA,"",   1.58679E-03,   1.57816E-03,   165.279E-06,   299.020E-12
C:/temp/dataset/2/16_5.odb,Step-1,Increment      1: Step Time =    1.000,"PART-1-1",            45,      -11.6667,            5.,            0.,NA,NA,"",   1.62736E-03,   1.57809E-03,   397.430E-06,   6.47821E-09
C:/temp/dataset/2/16_5.odb,Step-1,Increment      1: Step Time =    1.000,"PART-1-1",            46,      -8.33333,            5.,            0.,NA,NA,"",   1.61421E-03,   1.57812E-03,   339.437E-06,   13.2842E-09
C:/temp/dataset/2/16_5.odb,Step-1,Increment      1: Step Time =    1.000,"PART-1-1",            47,          -15.,  -833.333E-03,            0.,NA,NA,"",   1.54522E-03,   1.47660E-03,   455.360E-06,   29.5767E-09
C:/temp/dataset/2/16_5.odb,Step-1,Increment      1: Step Time =    1.000,"PART-1-1",            48,          -15.,       2.08333,            0.,NA,NA,"",   1.59379E-03,   1.52734E-03,   455.406E-06,   6.76173E-09
C:/temp/dataset/2/16_5.odb,Step-1,Increment      1: Step Time =    1.000,"PART-1-1",            49,          -15.,      -9.58333,            0.,NA,NA,"",   1.40245E-03,   1.32641E-03,   455.534E-06,   497.640E-09
C:/temp/dataset/2/16_5.odb,Step-1,Increment      1: Step Time =    1.000,"PART-1-1",            50,          -15.,      -6.66667,            0.,NA,NA,"",   1.44903E-03,   1.37571E-03,   455.091E-06,   57.6413E-09
C:/temp/dataset/2/16_5.odb,Step-1,Increment      1: Step Time =    1.000,"PART-1-1",            51,          -15.,      -18.3333,            0.,NA,NA,"",   1.24179E-03,   1.13316E-03,   507.941E-06,   13.4049E-06
C:/temp/dataset/2/16_5.odb,Step-1,Increment      1: Step Time =    1.000,"PART-1-1",            52,          -15.,      -15.4167,            0.,NA,NA,"",   1.31198E-03,   1.22324E-03,   474.312E-06,   9.73479E-06
C:/temp/dataset/2/16_5.odb,Step-1,Increment      1: Step Time =    1.000,"PART-1-1",            53,          -15.,      -27.0833,            0.,NA,NA,"",   499.904E-06,   367.397E-06,   339.002E-06,   96.5544E-06
C:/temp/dataset/2/16_5.odb,Step-1,Increment      1: Step Time =    1.000,"PART-1-1",            54,          -15.,      -24.1667,            0.,NA,NA,"",   846.534E-06,   683.400E-06,   499.584E-06,   36.7490E-06
C:/temp/dataset/2/16_5.odb,Step-1,Increment      1: Step Time =    1.000,"PART-1-1",            55,           12.,          -30.,            0.,NA,NA,"",            0.,   3.64994E-39,  -9.41029E-39,   3.76687E-03
C:/temp/dataset/2/16_5.odb,Step-1,Increment      1: Step Time =    1.000,"PART-1-1",            56,            9.,          -30.,            0.,NA,NA,"",            0.,  -1.89863E-39,  -7.47411E-39,   3.28207E-03
C:/temp/dataset/2/16_5.odb,Step-1,Increment      1: Step Time =    1.000,"PART-1-1",            57,            6.,          -30.,            0.,NA,NA,"",            0.,   56.1080E-42,  -4.53651E-39,   2.41155E-03
C:/temp/dataset/2/16_5.odb,Step-1,Increment      1: Step Time =    1.000,"PART-1-1",            58,            3.,          -30.,            0.,NA,NA,"",            0.,  -1.92244E-39,  -3.41538E-39,   1.60681E-03
C:/temp/dataset/2/16_5.odb,Step-1,Increment      1: Step Time =    1.000,"PART-1-1",            59,            0.,          -30.,            0.,NA,NA,"",            0.,  -526.005E-42,  -611.979E-42,   864.126E-06
C:/temp/dataset/2/16_5.odb,Step-1,Increment      1: Step Time =    1.000,"PART-1-1",            60,           -3.,          -30.,            0.,NA,NA,"",            0.,  -305.420E-42,  -34.4215E-42,   362.570E-06
C:/temp/dataset/2/16_5.odb,Step-1,Increment      1: Step Time =    1.000,"PART-1-1",            61,           -6.,          -30.,            0.,NA,NA,"",            0.,  -113.607E-42,   99.6043E-42,   106.198E-06
C:/temp/dataset/2/16_5.odb,Step-1,Increment      1: Step Time =    1.000,"PART-1-1",            62,           -9.,          -30.,            0.,NA,NA,"",            0.,   18.9988E-42,   111.658E-42,   51.0073E-06
C:/temp/dataset/2/16_5.odb,Step-1,Increment      1: Step Time =    1.000,"PART-1-1",            63,          -12.,          -30.,            0.,NA,NA,"",            0.,   93.4820E-42,   150.585E-42,   62.5322E-06
C:/temp/dataset/2/16_5.odb,Step-1,Increment      1: Step Time =    1.000,"PART-1-1",            64,           15.,         -27.5,            0.,NA,NA,"",   19.3465E-03,   12.0401E-03,  -15.1434E-03,   6.08960E-03
C:/temp/dataset/2/16_5.odb,Step-1,Increment      1: Step Time =    1.000,"PART-1-1",            65,           15.,         -22.5,            0.,NA,NA,"",   45.3593E-03,   23.8825E-03,  -38.5629E-03,   5.09907E-03
C:/temp/dataset/2/16_5.odb,Step-1,Increment      1: Step Time =    1.000,"PART-1-1",            66,       8.33333,          -20.,            0.,NA,NA,"",   39.4497E-03,   15.8126E-03,  -36.1420E-03,   4.92255E-03
C:/temp/dataset/2/16_5.odb,Step-1,Increment      1: Step Time =    1.000,"PART-1-1",            67,       11.6667,          -20.,            0.,NA,NA,"",   48.3455E-03,   21.7652E-03,  -43.1690E-03,   4.90112E-03
C:/temp/dataset/2/16_5.odb,Step-1,Increment      1: Step Time =    1.000,"PART-1-1",            68,      -1.66667,          -20.,            0.,NA,NA,"",   3.54288E-03,   3.52736E-03,  -331.291E-06,   835.749E-06
C:/temp/dataset/2/16_5.odb,Step-1,Increment      1: Step Time =    1.000,"PART-1-1",            69,       1.66667,          -20.,            0.,NA,NA,"",   8.11496E-03,   7.01167E-03,  -4.08523E-03,   1.91029E-03
C:/temp/dataset/2/16_5.odb,Step-1,Increment      1: Step Time =    1.000,"PART-1-1",            70,           -5.,          -15.,            0.,NA,NA,"",   1.26832E-03,   1.23134E-03,   304.024E-06,   15.2522E-06
C:/temp/dataset/2/16_5.odb,Step-1,Increment      1: Step Time =    1.000,"PART-1-1",            71,           -5.,         -17.5,            0.,NA,NA,"",   1.28243E-03,   1.23521E-03,   344.782E-06,   72.1676E-06
C:/temp/dataset/2/16_5.odb,Step-1,Increment      1: Step Time =    1.000,"PART-1-1",            72,           -5.,          -7.5,            0.,NA,NA,"",   1.38860E-03,   1.35983E-03,   281.187E-06,   75.9275E-09
C:/temp/dataset/2/16_5.odb,Step-1,Increment      1: Step Time =    1.000,"PART-1-1",            73,           -5.,          -10.,            0.,NA,NA,"",   1.34491E-03,   1.31499E-03,   282.091E-06,   985.450E-09
C:/temp/dataset/2/16_5.odb,Step-1,Increment      1: Step Time =    1.000,"PART-1-1",            74,          -2.5,           -5.,            0.,NA,NA,"",   1.42401E-03,   1.40401E-03,   237.829E-06,   10.5537E-09
C:/temp/dataset/2/16_5.odb,Step-1,Increment      1: Step Time =    1.000,"PART-1-1",            75,           2.5,           -5.,            0.,NA,NA,"",   1.41208E-03,   1.40401E-03,   150.766E-06,   693.626E-12
C:/temp/dataset/2/16_5.odb,Step-1,Increment      1: Step Time =    1.000,"PART-1-1",            76,           7.5,           -5.,            0.,NA,NA,"",   1.40545E-03,   1.40400E-03,   63.6877E-06,   64.5277E-12
C:/temp/dataset/2/16_5.odb,Step-1,Increment      1: Step Time =    1.000,"PART-1-1",            77,          12.5,           -5.,            0.,NA,NA,"",   1.40420E-03,   1.40400E-03,  -23.3911E-06,   2.69429E-12
C:/temp/dataset/2/16_5.odb,Step-1,Increment      1: Step Time =    1.000,"PART-1-1",            78,           15.,   833.333E-03,            0.,NA,NA,"",   1.50708E-03,   1.50559E-03,  -66.9314E-06,   8.64538E-12
C:/temp/dataset/2/16_5.odb,Step-1,Increment      1: Step Time =    1.000,"PART-1-1",            79,           15.,      -2.08333,            0.,NA,NA,"",   1.45634E-03,   1.45480E-03,  -66.9309E-06,   3.51246E-12
C:/temp/dataset/2/16_5.odb,Step-1,Increment      1: Step Time =    1.000,"PART-1-1",            80,           15.,       9.58333,            0.,NA,NA,"",   1.65933E-03,   1.65798E-03,  -66.9327E-06,   1.70623E-12
C:/temp/dataset/2/16_5.odb,Step-1,Increment      1: Step Time =    1.000,"PART-1-1",            81,           15.,       6.66667,            0.,NA,NA,"",   1.60858E-03,   1.60719E-03,  -66.9323E-06,   993.191E-15
C:/temp/dataset/2/16_5.odb,Step-1,Increment      1: Step Time =    1.000,"PART-1-1",            82,           15.,       18.3333,            0.,NA,NA,"",   1.81161E-03,   1.81037E-03,  -66.9341E-06,   32.1427E-15
C:/temp/dataset/2/16_5.odb,Step-1,Increment      1: Step Time =    1.000,"PART-1-1",            83,           15.,       15.4167,            0.,NA,NA,"",   1.76085E-03,   1.75957E-03,  -66.9336E-06,   219.041E-15
C:/temp/dataset/2/16_5.odb,Step-1,Increment      1: Step Time =    1.000,"PART-1-1",            84,           15.,       27.0833,            0.,NA,NA,"",   1.96390E-03,   1.96276E-03,  -66.9354E-06,   1.88343E-15
C:/temp/dataset/2/16_5.odb,Step-1,Increment      1: Step Time =    1.000,"PART-1-1",            85,           15.,       24.1667,            0.,NA,NA,"",   1.91313E-03,   1.91196E-03,  -66.9349E-06,   5.71166E-15
C:/temp/dataset/2/16_5.odb,Step-1,Increment      1: Step Time =    1.000,"PART-1-1",            86,           10.,           30.,            0.,NA,NA,"",   2.01366E-03,   2.01355E-03,   20.1429E-06,   2.69112E-15
C:/temp/dataset/2/16_5.odb,Step-1,Increment      1: Step Time =    1.000,"PART-1-1",            87,          12.5,           30.,            0.,NA,NA,"",   2.01369E-03,   2.01355E-03,  -23.3965E-06,   960.139E-18
C:/temp/dataset/2/16_5.odb,Step-1,Increment      1: Step Time =    1.000,"PART-1-1",            88,           2.5,           30.,            0.,NA,NA,"",   2.01919E-03,   2.01356E-03,   150.761E-06,   681.042E-18
C:/temp/dataset/2/16_5.odb,Step-1,Increment      1: Step Time =    1.000,"PART-1-1",            89,            5.,           30.,            0.,NA,NA,"",   2.01641E-03,   2.01356E-03,   107.222E-06,   1.89828E-15
C:/temp/dataset/2/16_5.odb,Step-1,Increment      1: Step Time =    1.000,"PART-1-1",            90,           -5.,           30.,            0.,NA,NA,"",   2.03312E-03,   2.01356E-03,   281.379E-06,   317.156E-18
C:/temp/dataset/2/16_5.odb,Step-1,Increment      1: Step Time =    1.000,"PART-1-1",            91,          -2.5,           30.,            0.,NA,NA,"",   2.02755E-03,   2.01356E-03,   237.840E-06,   228.549E-18
C:/temp/dataset/2/16_5.odb,Step-1,Increment      1: Step Time =    1.000,"PART-1-1",            92,         -12.5,           30.,            0.,NA,NA,"",   2.05528E-03,   2.01356E-03,   411.997E-06,   12.3726E-18
C:/temp/dataset/2/16_5.odb,Step-1,Increment      1: Step Time =    1.000,"PART-1-1",            93,          -10.,           30.,            0.,NA,NA,"",   2.04699E-03,   2.01356E-03,   368.458E-06,   277.387E-18
C:/temp/dataset/2/16_5.odb,Step-1,Increment      1: Step Time =    1.000,"PART-1-1",            94,          -15.,          27.5,            0.,NA,NA,"",   2.02200E-03,   1.97002E-03,   455.537E-06,   61.0460E-18
C:/temp/dataset/2/16_5.odb,Step-1,Increment      1: Step Time =    1.000,"PART-1-1",            95,      -12.4978,       24.9766,            0.,NA,NA,"",   1.96963E-03,   1.92607E-03,   411.959E-06,   309.546E-18
C:/temp/dataset/2/16_5.odb,Step-1,Increment      1: Step Time =    1.000,"PART-1-1",            96,      -7.49872,       27.4475,            0.,NA,NA,"",   1.99573E-03,   1.96910E-03,   324.896E-06,   301.625E-18
C:/temp/dataset/2/16_5.odb,Step-1,Increment      1: Step Time =    1.000,"PART-1-1",            97,      -7.50661,       22.4446,            0.,NA,NA,"",   1.90984E-03,   1.88197E-03,   325.035E-06,   176.405E-18
C:/temp/dataset/2/16_5.odb,Step-1,Increment      1: Step Time =    1.000,"PART-1-1",            98,      -2.53392,       22.4091,            0.,NA,NA,"",   1.89640E-03,   1.88136E-03,   238.432E-06,   210.701E-18
C:/temp/dataset/2/16_5.odb,Step-1,Increment      1: Step Time =    1.000,"PART-1-1",            99,  -19.7467E-03,       27.3919,            0.,NA,NA,"",   1.97774E-03,   1.96813E-03,   194.645E-06,   467.176E-18
C:/temp/dataset/2/16_5.odb,Step-1,Increment      1: Step Time =    1.000,"PART-1-1",           100,       2.31326,       22.2671,            0.,NA,NA,"",   1.88518E-03,   1.87888E-03,   154.014E-06,   1.84011E-15
C:/temp/dataset/2/16_5.odb,Step-1,Increment      1: Step Time =    1.000,"PART-1-1",           101,       7.89882,       27.4278,            0.,NA,NA,"",   1.96957E-03,   1.96876E-03,   56.7370E-06,   1.54913E-15
C:/temp/dataset/2/16_5.odb,Step-1,Increment      1: Step Time =    1.000,"PART-1-1",           102,       6.74061,       20.0564,            0.,NA,NA,"",   1.84199E-03,   1.84038E-03,   76.9091E-06,   16.1809E-15
C:/temp/dataset/2/16_5.odb,Step-1,Increment      1: Step Time =    1.000,"PART-1-1",           103,       6.76082,       17.7755,            0.,NA,NA,"",   1.80228E-03,   1.80066E-03,   76.5575E-06,   86.4178E-15
C:/temp/dataset/2/16_5.odb,Step-1,Increment      1: Step Time =    1.000,"PART-1-1",           104,       7.34933,       13.0959,            0.,NA,NA,"",   1.72044E-03,   1.71916E-03,   66.3089E-06,   823.480E-15
C:/temp/dataset/2/16_5.odb,Step-1,Increment      1: Step Time =    1.000,"PART-1-1",           105,       12.5251,      -2.17932,            0.,NA,NA,"",   1.45332E-03,   1.45313E-03,  -23.8280E-06,   11.6118E-12
C:/temp/dataset/2/16_5.odb,Step-1,Increment      1: Step Time =    1.000,"PART-1-1",           106,       11.8446,      -24.9441,            0.,NA,NA,"",   23.7623E-03,   10.9970E-03,  -21.0644E-03,   5.33214E-03
C:/temp/dataset/2/16_5.odb,Step-1,Increment      1: Step Time =    1.000,"PART-1-1",           107,       2.44158,      -2.66949,            0.,NA,NA,"",   1.45254E-03,   1.44459E-03,   151.783E-06,   464.933E-12
C:/temp/dataset/2/16_5.odb,Step-1,Increment      1: Step Time =    1.000,"PART-1-1",           108,       7.46163,      -2.37632,            0.,NA,NA,"",   1.45113E-03,   1.44970E-03,   64.3556E-06,   73.2953E-12
C:/temp/dataset/2/16_5.odb,Step-1,Increment      1: Step Time =    1.000,"PART-1-1",           109,       7.48217,       7.95809,            0.,NA,NA,"",   1.63093E-03,   1.62968E-03,   63.9961E-06,   11.6350E-12
C:/temp/dataset/2/16_5.odb,Step-1,Increment      1: Step Time =    1.000,"PART-1-1",           110,      -5.01446,       22.4347,            0.,NA,NA,"",   1.90276E-03,   1.88180E-03,   281.632E-06,   179.782E-18
C:/temp/dataset/2/16_5.odb,Step-1,Increment      1: Step Time =    1.000,"PART-1-1",           111,  -75.1424E-03,       22.3615,            0.,NA,NA,"",   1.89067E-03,   1.88053E-03,   195.610E-06,   438.812E-18
C:/temp/dataset/2/16_5.odb,Step-1,Increment      1: Step Time =    1.000,"PART-1-1",           112,       4.50776,       22.1530,            0.,NA,NA,"",   1.88046E-03,   1.87689E-03,   115.796E-06,   5.05854E-15
C:/temp/dataset/2/16_5.odb,Step-1,Increment      1: Step Time =    1.000,"PART-1-1",           113,       7.06405,       15.4904,            0.,NA,NA,"",   1.76230E-03,   1.76086E-03,   71.2769E-06,   271.988E-15
C:/temp/dataset/2/16_5.odb,Step-1,Increment      1: Step Time =    1.000,"PART-1-1",           114,       7.46285,       10.5556,            0.,NA,NA,"",   1.67615E-03,   1.67492E-03,   64.3322E-06,   2.83448E-12
C:/temp/dataset/2/16_5.odb,Step-1,Increment      1: Step Time =    1.000,"PART-1-1",           115,      -2.89738,      -2.05905,            0.,NA,NA,"",   1.47567E-03,   1.45523E-03,   244.760E-06,   12.5757E-09
C:/temp/dataset/2/16_5.odb,Step-1,Increment      1: Step Time =    1.000,"PART-1-1",           116,      -7.61206,      -10.6629,            0.,NA,NA,"",   1.34285E-03,   1.30266E-03,   326.088E-06,   1.84184E-06
C:/temp/dataset/2/16_5.odb,Step-1,Increment      1: Step Time =    1.000,"PART-1-1",           117,      -6.85891,      -17.7385,            0.,NA,NA,"",   1.23507E-03,   1.19392E-03,   316.160E-06,   37.2690E-06
C:/temp/dataset/2/16_5.odb,Step-1,Increment      1: Step Time =    1.000,"PART-1-1",           118,       11.9280,      -27.4687,            0.,NA,NA,"",   11.5468E-03,   5.64492E-03,  -10.0729E-03,   5.24251E-03
C:/temp/dataset/2/16_5.odb,Step-1,Increment      1: Step Time =    1.000,"PART-1-1",           119,      -7.44747,      -13.1413,            0.,NA,NA,"",   1.29651E-03,   1.25597E-03,   321.686E-06,   4.82741E-06
C:/temp/dataset/2/16_5.odb,Step-1,Increment      1: Step Time =    1.000,"PART-1-1",           120,      -7.13169,      -15.4658,            0.,NA,NA,"",   1.25668E-03,   1.21671E-03,   314.432E-06,   9.27595E-06
C:/temp/dataset/2/16_5.odb,Step-1,Increment      1: Step Time =    1.000,"PART-1-1",           121,      -8.02089,      -5.87394,            0.,NA,NA,"",   1.42830E-03,   1.38869E-03,   334.043E-06,   123.921E-09
C:/temp/dataset/2/16_5.odb,Step-1,Increment      1: Step Time =    1.000,"PART-1-1",           122,      -7.74476,      -8.18529,            0.,NA,NA,"",   1.38730E-03,   1.34771E-03,   329.064E-06,   558.090E-09
C:/temp/dataset/2/16_5.odb,Step-1,Increment      1: Step Time =    1.000,"PART-1-1",           123,  -21.3834E-03,      -2.74811,            0.,NA,NA,"",   1.45629E-03,   1.44322E-03,   194.675E-06,   3.16002E-09
C:/temp/dataset/2/16_5.odb,Step-1,Increment      1: Step Time =    1.000,"PART-1-1",           124,       4.94012,      -2.49525,            0.,NA,NA,"",   1.45167E-03,   1.44763E-03,   108.269E-06,   173.633E-12
C:/temp/dataset/2/16_5.odb,Step-1,Increment      1: Step Time =    1.000,"PART-1-1",           125,       10.0127,      -2.27482,            0.,NA,NA,"",   1.45160E-03,   1.45146E-03,   19.9267E-06,   30.7278E-12
C:/temp/dataset/2/16_5.odb,Step-1,Increment      1: Step Time =    1.000,"PART-1-1",           126,       10.2967,       27.4669,            0.,NA,NA,"",   1.96950E-03,   1.96944E-03,   14.9755E-06,   1.82070E-15
C:/temp/dataset/2/16_5.odb,Step-1,Increment      1: Step Time =    1.000,"PART-1-1",           127,       12.6750,       27.3103,            0.,NA,NA,"",   1.96689E-03,   1.96671E-03,  -26.4440E-06,   2.84623E-15
C:/temp/dataset/2/16_5.odb,Step-1,Increment      1: Step Time =    1.000,"PART-1-1",           128,       2.52543,       27.2659,            0.,NA,NA,"",   1.97168E-03,   1.96594E-03,   150.319E-06,   1.10316E-15
C:/temp/dataset/2/16_5.odb,Step-1,Increment      1: Step Time =    1.000,"PART-1-1",           129,       5.32711,       26.8707,            0.,NA,NA,"",   1.96169E-03,   1.95906E-03,   101.525E-06,   1.85658E-15
C:/temp/dataset/2/16_5.odb,Step-1,Increment      1: Step Time =    1.000,"PART-1-1",           130,      -5.00948,       27.4462,            0.,NA,NA,"",   1.98911E-03,   1.96908E-03,   281.545E-06,   229.745E-18
C:/temp/dataset/2/16_5.odb,Step-1,Increment      1: Step Time =    1.000,"PART-1-1",           131,      -2.51658,       27.4324,            0.,NA,NA,"",   1.98319E-03,   1.96884E-03,   238.129E-06,   219.761E-18
C:/temp/dataset/2/16_5.odb,Step-1,Increment      1: Step Time =    1.000,"PART-1-1",           132,      -9.99211,       27.4668,            0.,NA,NA,"",   2.00359E-03,   1.96944E-03,   368.321E-06,   285.182E-18
C:/temp/dataset/2/16_5.odb,Step-1,Increment      1: Step Time =    1.000,"PART-1-1",           133,       12.5029,       21.6680,            0.,NA,NA,"",   1.86859E-03,   1.86845E-03,  -23.4452E-06,   5.55115E-15
C:/temp/dataset/2/16_5.odb,Step-1,Increment      1: Step Time =    1.000,"PART-1-1",           134,      -12.7198,      -9.27859,            0.,NA,NA,"",   1.39493E-03,   1.33158E-03,   415.592E-06,   932.632E-09
C:/temp/dataset/2/16_5.odb,Step-1,Increment      1: Step Time =    1.000,"PART-1-1",           135,      -12.2206,      -21.4876,            0.,NA,NA,"",   1.01643E-03,   936.592E-06,   394.877E-06,   45.6683E-06
C:/temp/dataset/2/16_5.odb,Step-1,Increment      1: Step Time =    1.000,"PART-1-1",           136,       12.4390,       11.8581,            0.,NA,NA,"",   1.69775E-03,   1.69760E-03,  -22.3317E-06,   856.519E-15
C:/temp/dataset/2/16_5.odb,Step-1,Increment      1: Step Time =    1.000,"PART-1-1",           137,      -12.6285,      -12.0158,            0.,NA,NA,"",   1.35164E-03,   1.28684E-03,   413.478E-06,   2.96465E-06
C:/temp/dataset/2/16_5.odb,Step-1,Increment      1: Step Time =    1.000,"PART-1-1",           138,      -12.4213,      -14.8709,            0.,NA,NA,"",   1.30370E-03,   1.23854E-03,   406.992E-06,   6.77389E-06
C:/temp/dataset/2/16_5.odb,Step-1,Increment      1: Step Time =    1.000,"PART-1-1",           139,       12.2989,       14.8029,            0.,NA,NA,"",   1.74900E-03,   1.74889E-03,  -19.8923E-06,   424.982E-15
C:/temp/dataset/2/16_5.odb,Step-1,Increment      1: Step Time =    1.000,"PART-1-1",           140,       11.7182,       18.2155,            0.,NA,NA,"",   1.80834E-03,   1.80832E-03,  -9.77867E-06,   80.0757E-15
C:/temp/dataset/2/16_5.odb,Step-1,Increment      1: Step Time =    1.000,"PART-1-1",           141,      -12.3380,      -4.01281,            0.,NA,NA,"",   1.47908E-03,   1.42137E-03,   409.126E-06,   21.4366E-09
C:/temp/dataset/2/16_5.odb,Step-1,Increment      1: Step Time =    1.000,"PART-1-1",           142,       12.5089,       6.21106,            0.,NA,NA,"",   1.59943E-03,   1.59925E-03,  -23.5479E-06,   4.94880E-12
C:/temp/dataset/2/16_5.odb,Step-1,Increment      1: Step Time =    1.000,"PART-1-1",           143,      -10.9765,      -1.21375,            0.,NA,NA,"",   1.51968E-03,   1.46998E-03,   385.466E-06,   20.1238E-09
C:/temp/dataset/2/16_5.odb,Step-1,Increment      1: Step Time =    1.000,"PART-1-1",           144,      -11.4273,       2.02370,            0.,NA,NA,"",   1.57616E-03,   1.52630E-03,   393.279E-06,   14.0019E-09
C:/temp/dataset/2/16_5.odb,Step-1,Increment      1: Step Time =    1.000,"PART-1-1",           145,      -12.7154,      -6.64001,            0.,NA,NA,"",   1.43753E-03,   1.37613E-03,   415.652E-06,   189.436E-09
C:/temp/dataset/2/16_5.odb,Step-1,Increment      1: Step Time =    1.000,"PART-1-1",           146,      -11.7762,      -18.1315,            0.,NA,NA,"",   1.21877E-03,   1.15573E-03,   386.909E-06,   7.01391E-06
C:/temp/dataset/2/16_5.odb,Step-1,Increment      1: Step Time =    1.000,"PART-1-1",           147,      -12.2481,      -24.4184,            0.,NA,NA,"",   683.182E-06,   603.013E-06,   321.111E-06,   86.0518E-06
C:/temp/dataset/2/16_5.odb,Step-1,Increment      1: Step Time =    1.000,"PART-1-1",           148,       12.5340,       3.42208,            0.,NA,NA,"",   1.55087E-03,   1.55068E-03,  -23.9843E-06,   9.87596E-12
C:/temp/dataset/2/16_5.odb,Step-1,Increment      1: Step Time =    1.000,"PART-1-1",           149,       12.5428,   630.306E-03,            0.,NA,NA,"",   1.50225E-03,   1.50206E-03,  -24.1372E-06,   11.1330E-12
C:/temp/dataset/2/16_5.odb,Step-1,Increment      1: Step Time =    1.000,"PART-1-1",           150,       12.5001,       9.03097,            0.,NA,NA,"",   1.64853E-03,   1.64836E-03,  -23.3950E-06,   761.195E-15
C:/temp/dataset/2/16_5.odb,Step-1,Increment      1: Step Time =    1.000,"PART-1-1",           151,       12.7192,       24.5718,            0.,NA,NA,"",   1.91921E-03,   1.91902E-03,  -27.2123E-06,   3.49164E-15
C:/temp/dataset/2/16_5.odb,Step-1,Increment      1: Step Time =    1.000,"PART-1-1",           152,       2.66783,      -27.4286,            0.,NA,NA,"",   3.03876E-03,  -2.21994E-03,  -2.07507E-03,   1.21008E-03
C:/temp/dataset/2/16_5.odb,Step-1,Increment      1: Step Time =    1.000,"PART-1-1",           153,       8.86089,      -27.4494,            0.,NA,NA,"",   7.56826E-03,   1.05049E-03,  -7.49500E-03,   3.82228E-03
C:/temp/dataset/2/16_5.odb,Step-1,Increment      1: Step Time =    1.000,"PART-1-1",           154,       5.76511,      -27.4328,            0.,NA,NA,"",   5.09586E-03,  -1.56994E-03,  -4.84800E-03,   2.48101E-03
C:/temp/dataset/2/16_5.odb,Step-1,Increment      1: Step Time =    1.000,"PART-1-1",           155,  -414.647E-03,      -27.4330,            0.,NA,NA,"",   1.56334E-03,  -1.50526E-03,  -422.162E-06,   537.967E-06
C:/temp/dataset/2/16_5.odb,Step-1,Increment      1: Step Time =    1.000,"PART-1-1",           156,      -3.42691,      -27.4460,            0.,NA,NA,"",   659.104E-06,  -646.506E-06,   128.248E-06,   310.391E-06
C:/temp/dataset/2/16_5.odb,Step-1,Increment      1: Step Time =    1.000,"PART-1-1",           157,      -6.36574,      -27.4272,            0.,NA,NA,"",   225.441E-06,  -117.167E-06,   192.602E-06,   176.820E-06
C:/temp/dataset/2/16_5.odb,Step-1,Increment      1: Step Time =    1.000,"PART-1-1",           158,       10.5238,       25.0033,            0.,NA,NA,"",   1.92657E-03,   1.92653E-03,   11.0217E-06,   3.31428E-15
C:/temp/dataset/2/16_5.odb,Step-1,Increment      1: Step Time =    1.000,"PART-1-1",           159,       6.26912,       22.1485,            0.,NA,NA,"",   1.87875E-03,   1.87682E-03,   85.1202E-06,   4.14535E-15
C:/temp/dataset/2/16_5.odb,Step-1,Increment      1: Step Time =    1.000,"PART-1-1",           160,      -5.96402,      -2.70245,            0.,NA,NA,"",   1.47452E-03,   1.44405E-03,   298.181E-06,   27.7437E-09
C:/temp/dataset/2/16_5.odb,Step-1,Increment      1: Step Time =    1.000,"PART-1-1",           161,      -12.5033,       22.4816,            0.,NA,NA,"",   1.92719E-03,   1.88262E-03,   412.055E-06,   220.715E-18
C:/temp/dataset/2/16_5.odb,Step-1,Increment      1: Step Time =    1.000,"PART-1-1",           162,      -2.53325,       24.9024,            0.,NA,NA,"",   1.93949E-03,   1.92478E-03,   238.419E-06,   287.159E-18
C:/temp/dataset/2/16_5.odb,Step-1,Increment      1: Step Time =    1.000,"PART-1-1",           163,       4.43197,       24.4161,            0.,NA,NA,"",   1.91988E-03,   1.91631E-03,   117.115E-06,   2.18878E-15
C:/temp/dataset/2/16_5.odb,Step-1,Increment      1: Step Time =    1.000,"PART-1-1",           164,      -10.2797,      -8.84555,            0.,NA,NA,"",   1.38839E-03,   1.33751E-03,   372.406E-06,   887.193E-09
C:/temp/dataset/2/16_5.odb,Step-1,Increment      1: Step Time =    1.000,"PART-1-1",           165,       2.21534,  -332.134E-03,            0.,NA,NA,"",   1.49344E-03,   1.48530E-03,   155.723E-06,   384.246E-12
C:/temp/dataset/2/16_5.odb,Step-1,Increment      1: Step Time =    1.000,"PART-1-1",           166,  -74.2209E-03,       24.8536,            0.,NA,NA,"",   1.93384E-03,   1.92393E-03,   195.594E-06,   447.915E-18
C:/temp/dataset/2/16_5.odb,Step-1,Increment      1: Step Time =    1.000,"PART-1-1",           167,       2.30693,       24.7164,            0.,NA,NA,"",   1.92771E-03,   1.92154E-03,   154.124E-06,   1.47997E-15
C:/temp/dataset/2/16_5.odb,Step-1,Increment      1: Step Time =    1.000,"PART-1-1",           168,       9.79368,       13.9045,            0.,NA,NA,"",   1.73340E-03,   1.73324E-03,   23.7385E-06,   633.422E-15
C:/temp/dataset/2/16_5.odb,Step-1,Increment      1: Step Time =    1.000,"PART-1-1",           169,       9.30777,       16.4521,            0.,NA,NA,"",   1.77790E-03,   1.77761E-03,   32.2007E-06,   186.678E-15
C:/temp/dataset/2/16_5.odb,Step-1,Increment      1: Step Time =    1.000,"PART-1-1",           170,      -2.35985,       1.11806,            0.,NA,NA,"",   1.52879E-03,   1.51056E-03,   235.409E-06,   3.43213E-09
C:/temp/dataset/2/16_5.odb,Step-1,Increment      1: Step Time =    1.000,"PART-1-1",           171,      -9.94133,      -13.9778,            0.,NA,NA,"",   1.29895E-03,   1.24932E-03,   355.635E-06,   6.27688E-06
C:/temp/dataset/2/16_5.odb,Step-1,Increment      1: Step Time =    1.000,"PART-1-1",           172,       4.80988,   33.7751E-03,            0.,NA,NA,"",   1.49576E-03,   1.49167E-03,   110.537E-06,   152.187E-12
C:/temp/dataset/2/16_5.odb,Step-1,Increment      1: Step Time =    1.000,"PART-1-1",           173,       9.94126,       11.1894,            0.,NA,NA,"",   1.68609E-03,   1.68595E-03,   21.1687E-06,   765.787E-15
C:/temp/dataset/2/16_5.odb,Step-1,Increment      1: Step Time =    1.000,"PART-1-1",           174,       7.43598,   226.782E-03,            0.,NA,NA,"",   1.49644E-03,   1.49503E-03,   64.8018E-06,   90.7076E-12
C:/temp/dataset/2/16_5.odb,Step-1,Increment      1: Step Time =    1.000,"PART-1-1",           175,      -7.50368,       24.9336,            0.,NA,NA,"",   1.95256E-03,   1.92532E-03,   324.983E-06,   190.229E-18
C:/temp/dataset/2/16_5.odb,Step-1,Increment      1: Step Time =    1.000,"PART-1-1",           176,      -10.1536,      -11.3797,            0.,NA,NA,"",   1.34491E-03,   1.29386E-03,   367.024E-06,   2.87641E-06
C:/temp/dataset/2/16_5.odb,Step-1,Increment      1: Step Time =    1.000,"PART-1-1",           177,       6.92724,       24.6415,            0.,NA,NA,"",   1.92164E-03,   1.92023E-03,   73.6580E-06,   2.38148E-15
C:/temp/dataset/2/16_5.odb,Step-1,Increment      1: Step Time =    1.000,"PART-1-1",           178,      -9.99868,       24.9580,            0.,NA,NA,"",   1.96068E-03,   1.92575E-03,   368.436E-06,   263.182E-18
C:/temp/dataset/2/16_5.odb,Step-1,Increment      1: Step Time =    1.000,"PART-1-1",           179,       8.37028,       18.0705,            0.,NA,NA,"",   1.80645E-03,   1.80579E-03,   48.5274E-06,   90.8377E-15
C:/temp/dataset/2/16_5.odb,Step-1,Increment      1: Step Time =    1.000,"PART-1-1",           180,      -10.4068,      -6.54987,            0.,NA,NA,"",   1.42754E-03,   1.37729E-03,   375.420E-06,   244.591E-09
C:/temp/dataset/2/16_5.odb,Step-1,Increment      1: Step Time =    1.000,"PART-1-1",           181,      -8.52723,      -17.8680,            0.,NA,NA,"",   1.23801E-03,   1.19683E-03,   316.656E-06,   23.1222E-06
C:/temp/dataset/2/16_5.odb,Step-1,Increment      1: Step Time =    1.000,"PART-1-1",           182,       9.99063,       8.47585,            0.,NA,NA,"",   1.63882E-03,   1.63870E-03,   20.3093E-06,   2.57003E-12
C:/temp/dataset/2/16_5.odb,Step-1,Increment      1: Step Time =    1.000,"PART-1-1",           183,      -6.87511,      -22.3968,            0.,NA,NA,"",   1.12429E-03,   999.486E-06,   514.826E-06,   230.820E-06
C:/temp/dataset/2/16_5.odb,Step-1,Increment      1: Step Time =    1.000,"PART-1-1",           184,       7.48189,       5.34092,            0.,NA,NA,"",   1.58539E-03,   1.58410E-03,   64.0014E-06,   31.0836E-12
C:/temp/dataset/2/16_5.odb,Step-1,Increment      1: Step Time =    1.000,"PART-1-1",           185,       10.0207,   425.902E-03,            0.,NA,NA,"",   1.49863E-03,   1.49850E-03,   19.7862E-06,   27.8767E-12
C:/temp/dataset/2/16_5.odb,Step-1,Increment      1: Step Time =    1.000,"PART-1-1",           186,      -8.86720,      -3.63325,            0.,NA,NA,"",   1.46986E-03,   1.42787E-03,   348.797E-06,   27.2085E-09
C:/temp/dataset/2/16_5.odb,Step-1,Increment      1: Step Time =    1.000,"PART-1-1",           187,       10.0155,       5.77118,            0.,NA,NA,"",   1.59172E-03,   1.59159E-03,   19.8773E-06,   10.6384E-12
C:/temp/dataset/2/16_5.odb,Step-1,Increment      1: Step Time =    1.000,"PART-1-1",           188,       9.07540,       20.2179,            0.,NA,NA,"",   1.84355E-03,   1.84319E-03,   36.2470E-06,   28.1076E-15
C:/temp/dataset/2/16_5.odb,Step-1,Increment      1: Step Time =    1.000,"PART-1-1",           189,       5.51479,      -24.9218,            0.,NA,NA,"",   10.0358E-03,  -213.013E-06,  -10.0335E-03,   2.78989E-03
C:/temp/dataset/2/16_5.odb,Step-1,Increment      1: Step Time =    1.000,"PART-1-1",           190,       2.33502,      -24.9114,            0.,NA,NA,"",   3.58017E-03,  -1.35282E-03,  -3.31474E-03,   915.087E-06
C:/temp/dataset/2/16_5.odb,Step-1,Increment      1: Step Time =    1.000,"PART-1-1",           191,      -3.83494,      -24.9465,            0.,NA,NA,"",   504.985E-06,  -5.21050E-06,   504.958E-06,   342.332E-06
C:/temp/dataset/2/16_5.odb,Step-1,Increment      1: Step Time =    1.000,"PART-1-1",           192,       8.68706,      -24.9229,            0.,NA,NA,"",   17.1270E-03,   4.50015E-03,  -16.5252E-03,   4.47886E-03
C:/temp/dataset/2/16_5.odb,Step-1,Increment      1: Step Time =    1.000,"PART-1-1",           193,  -793.545E-03,      -24.9263,            0.,NA,NA,"",   711.422E-06,  -673.460E-06,  -229.290E-06,   400.199E-06
C:/temp/dataset/2/16_5.odb,Step-1,Increment      1: Step Time =    1.000,"PART-1-1",           194,      -10.0041,       22.4687,            0.,NA,NA,"",   1.91813E-03,   1.88240E-03,   368.530E-06,   249.629E-18
C:/temp/dataset/2/16_5.odb,Step-1,Increment      1: Step Time =    1.000,"PART-1-1",           195,       7.76291,       22.5689,            0.,NA,NA,"",   1.88506E-03,   1.88414E-03,   59.1046E-06,   3.37322E-15
C:/temp/dataset/2/16_5.odb,Step-1,Increment      1: Step Time =    1.000,"PART-1-1",           196,       10.0314,       3.09975,            0.,NA,NA,"",   1.54519E-03,   1.54507E-03,   19.5999E-06,   23.8659E-12
C:/temp/dataset/2/16_5.odb,Step-1,Increment      1: Step Time =    1.000,"PART-1-1",           197,       7.45157,       2.78517,            0.,NA,NA,"",   1.54094E-03,   1.53959E-03,   64.5298E-06,   79.4005E-12
C:/temp/dataset/2/16_5.odb,Step-1,Increment      1: Step Time =    1.000,"PART-1-1",           198,       1.23926,       2.17480,            0.,NA,NA,"",   1.53868E-03,   1.52896E-03,   172.723E-06,   410.237E-12
C:/temp/dataset/2/16_5.odb,Step-1,Increment      1: Step Time =    1.000,"PART-1-1",           199,       5.89388,       23.8379,            0.,NA,NA,"",   1.90844E-03,   1.90624E-03,   91.6550E-06,   3.62770E-15
C:/temp/dataset/2/16_5.odb,Step-1,Increment      1: Step Time =    1.000,"PART-1-1",           200,       4.70825,       2.52712,            0.,NA,NA,"",   1.53920E-03,   1.53509E-03,   112.307E-06,   181.208E-12
C:/temp/dataset/2/16_5.odb,Step-1,Increment      1: Step Time =    1.000,"PART-1-1",           201,      -6.67563,      -24.8783,            0.,NA,NA,"",   571.603E-06,   343.034E-06,   457.228E-06,   235.156E-06
C:/temp/dataset/2/16_5.odb,Step-1,Increment      1: Step Time =    1.000,"PART-1-1",           202,      -1.93740,       2.90022,            0.,NA,NA,"",   1.55837E-03,   1.54159E-03,   228.053E-06,   2.82123E-09
C:/temp/dataset/2/16_5.odb,Step-1,Increment      1: Step Time =    1.000,"PART-1-1",           203,      -4.27328,      -22.5070,            0.,NA,NA,"",   1.34178E-03,   1.16051E-03,   673.496E-06,   362.615E-06
C:/temp/dataset/2/16_5.odb,Step-1,Increment      1: Step Time =    1.000,"PART-1-1",           204,      -7.29195,  -216.826E-03,            0.,NA,NA,"",   1.52165E-03,   1.48733E-03,   321.331E-06,   14.4125E-09
C:/temp/dataset/2/16_5.odb,Step-1,Increment      1: Step Time =    1.000,"PART-1-1",           205,      -4.39370,   432.763E-03,            0.,NA,NA,"",   1.52291E-03,   1.49863E-03,   270.835E-06,   11.9813E-09
C:/temp/dataset/2/16_5.odb,Step-1,Increment      1: Step Time =    1.000,"PART-1-1",           206,      -1.20581,      -22.4416,            0.,NA,NA,"",   1.66017E-03,   1.65878E-03,   67.7427E-06,   457.965E-06
C:/temp/dataset/2/16_5.odb,Step-1,Increment      1: Step Time =    1.000,"PART-1-1",           207,      -4.88725,       2.78210,            0.,NA,NA,"",   1.56469E-03,   1.53954E-03,   279.437E-06,   7.63188E-09
C:/temp/dataset/2/16_5.odb,Step-1,Increment      1: Step Time =    1.000,"PART-1-1",           208,      -8.02678,       2.39768,            0.,NA,NA,"",   1.56882E-03,   1.53283E-03,   334.114E-06,   8.10439E-09
C:/temp/dataset/2/16_5.odb,Step-1,Increment      1: Step Time =    1.000,"PART-1-1",           209,       8.51144,      -22.4401,            0.,NA,NA,"",   28.3595E-03,   9.60586E-03,  -26.6831E-03,   5.11947E-03
C:/temp/dataset/2/16_5.odb,Step-1,Increment      1: Step Time =    1.000,"PART-1-1",           210,       5.25488,      -22.4306,            0.,NA,NA,"",   15.6766E-03,   3.50120E-03,  -15.2806E-03,   3.46762E-03
C:/temp/dataset/2/16_5.odb,Step-1,Increment      1: Step Time =    1.000,"PART-1-1",           211,       2.00226,      -22.4217,            0.,NA,NA,"",   3.91738E-03,   2.00151E-03,  -3.36747E-03,   468.047E-06
C:/temp/dataset/2/16_5.odb,Step-1,Increment      1: Step Time =    1.000,"PART-1-1",           212,      -9.28570,      -27.3600,            0.,NA,NA,"",   206.613E-06,   134.279E-06,   157.029E-06,   115.262E-06
C:/temp/dataset/2/16_5.odb,Step-1,Increment      1: Step Time =    1.000,"PART-1-1",           213,       11.7596,      -22.4488,            0.,NA,NA,"",   36.5742E-03,   16.6562E-03,  -32.5614E-03,   5.06474E-03
C:/temp/dataset/2/16_5.odb,Step-1,Increment      1: Step Time =    1.000,"PART-1-1",           214,      -12.4952,       27.4851,            0.,NA,NA,"",   2.01237E-03,   1.96976E-03,   411.914E-06,   92.8577E-18
C:/temp/dataset/2/16_5.odb,Step-1,Increment      1: Step Time =    1.000,"PART-1-1",           215,      -12.1608,      -27.2494,            0.,NA,NA,"",   311.405E-06,   260.805E-06,   170.158E-06,   100.855E-06
C:/temp/dataset/2/16_5.odb,Step-1,Increment      1: Step Time =    1.000,"PART-1-1",           216,      -6.92277,      -20.0189,            0.,NA,NA,"",   1.32408E-03,   1.27362E-03,   362.036E-06,   124.757E-06
C:/temp/dataset/2/16_5.odb,Step-1,Increment      1: Step Time =    1.000,"PART-1-1",           217,       10.3403,       22.5364,            0.,NA,NA,"",   1.88362E-03,   1.88357E-03,   14.2181E-06,   7.65386E-15
C:/temp/dataset/2/16_5.odb,Step-1,Increment      1: Step Time =    1.000,"PART-1-1",           218,      -9.38591,      -16.3373,            0.,NA,NA,"",   1.25635E-03,   1.21134E-03,   333.278E-06,   7.41203E-06
C:/temp/dataset/2/16_5.odb,Step-1,Increment      1: Step Time =    1.000,"PART-1-1",           219,      -9.56004,      -22.0160,            0.,NA,NA,"",   993.930E-06,   916.506E-06,   384.595E-06,   100.616E-06
C:/temp/dataset/2/16_5.odb,Step-1,Increment      1: Step Time =    1.000,"PART-1-1",           220,      -9.49058,      -24.6874,            0.,NA,NA,"",   601.429E-06,   503.848E-06,   328.410E-06,   140.772E-06
C:/temp/dataset/2/16_5.odb,Step-1,Increment      1: Step Time =    1.000,"PART-1-1",           221,  -968.003E-03,   33.9082E-03,            0.,NA,NA,"",   1.50655E-03,   1.49168E-03,   211.164E-06,   2.99266E-09
C:/temp/dataset/2/16_5.odb,Step-1,Increment      1: Step Time =    1.000,"PART-1-1",           222,   333.674E-03,      -1.00763,            0.,NA,NA,"",   1.48554E-03,   1.47353E-03,   188.492E-06,   2.08179E-09
C:/temp/dataset/2/16_5.odb,Step-1,Increment      1: Step Time =    1.000,"PART-1-1",           223,      -10.5623,      -4.72446,            0.,NA,NA,"",   1.45886E-03,   1.40897E-03,   378.275E-06,   64.0165E-09
C:/temp/dataset/2/16_5.odb,Step-1,Increment      1: Step Time =    1.000,"PART-1-1",           224,      -5.01319,       24.9269,            0.,NA,NA,"",   1.94569E-03,   1.92521E-03,   281.610E-06,   108.624E-18
C:/temp/dataset/2/16_5.odb,Step-1,Increment      1: Step Time =    1.000,"PART-1-1",           225,      -9.24174,      -19.5473,            0.,NA,NA,"",   1.19168E-03,   1.14129E-03,   342.885E-06,   44.9152E-06
C:/temp/dataset/2/16_5.odb,Step-1,Increment      1: Step Time =    1.000,"PART-1-1",           226,       8.53639,       25.1316,            0.,NA,NA,"",   1.92931E-03,   1.92877E-03,   45.6335E-06,   1.64339E-15
C:/temp/dataset/2/16_5.odb,Step-1,Increment      1: Step Time =    1.000,"PART-1-1",           227,       8.85572,       23.3093,            0.,NA,NA,"",   1.89745E-03,   1.89703E-03,   40.0724E-06,   3.85320E-15
C:/temp/dataset/2/16_5.odb,Step-1,Increment      1: Step Time =    1.000,"PART-1-1",           228,      -13.7516,       22.4908,            0.,NA,NA,"",   1.93211E-03,   1.88278E-03,   433.796E-06,   143.868E-18
C:/temp/dataset/2/16_5.odb,Step-1,Increment      1: Step Time =    1.000,"PART-1-1",           229,          -15.,         21.25,            0.,NA,NA,"",   1.91611E-03,   1.86117E-03,   455.538E-06,   342.147E-18
C:/temp/dataset/2/16_5.odb,Step-1,Increment      1: Step Time =    1.000,"PART-1-1",           230,        -13.75,           20.,            0.,NA,NA,"",   1.88985E-03,   1.83940E-03,   433.768E-06,   47.6664E-18
C:/temp/dataset/2/16_5.odb,Step-1,Increment      1: Step Time =    1.000,"PART-1-1",           231,      -12.5016,       21.2408,            0.,NA,NA,"",   1.90608E-03,   1.86101E-03,   412.027E-06,   187.087E-18
C:/temp/dataset/2/16_5.odb,Step-1,Increment      1: Step Time =    1.000,"PART-1-1",           232,      -9.99605,       28.7334,            0.,NA,NA,"",   2.02528E-03,   1.99150E-03,   368.389E-06,   73.4521E-18
C:/temp/dataset/2/16_5.odb,Step-1,Increment      1: Step Time =    1.000,"PART-1-1",           233,        -11.25,           30.,            0.,NA,NA,"",   2.05102E-03,   2.01356E-03,   390.227E-06,   4.78706E-18
C:/temp/dataset/2/16_5.odb,Step-1,Increment      1: Step Time =    1.000,"PART-1-1",           234,      -12.4976,       28.7426,            0.,NA,NA,"",   2.03382E-03,   1.99166E-03,   411.956E-06,   17.2981E-18
C:/temp/dataset/2/16_5.odb,Step-1,Increment      1: Step Time =    1.000,"PART-1-1",           235,      -11.2437,       27.4760,            0.,NA,NA,"",   2.00786E-03,   1.96960E-03,   390.117E-06,   71.6912E-18
C:/temp/dataset/2/16_5.odb,Step-1,Increment      1: Step Time =    1.000,"PART-1-1",           236,      -8.74541,       27.4572,            0.,NA,NA,"",   1.99954E-03,   1.96927E-03,   346.609E-06,   36.0128E-18
C:/temp/dataset/2/16_5.odb,Step-1,Increment      1: Step Time =    1.000,"PART-1-1",           237,      -7.49936,       28.7238,            0.,NA,NA,"",   2.01766E-03,   1.99133E-03,   324.907E-06,   141.214E-18
C:/temp/dataset/2/16_5.odb,Step-1,Increment      1: Step Time =    1.000,"PART-1-1",           238,         -8.75,           30.,            0.,NA,NA,"",   2.04319E-03,   2.01356E-03,   346.688E-06,   157.724E-18
C:/temp/dataset/2/16_5.odb,Step-1,Increment      1: Step Time =    1.000,"PART-1-1",           239,      -10.0020,       21.2344,            0.,NA,NA,"",   1.89703E-03,   1.86090E-03,   368.495E-06,   64.9093E-18
C:/temp/dataset/2/16_5.odb,Step-1,Increment      1: Step Time =    1.000,"PART-1-1",           240,      -11.2537,       22.4752,            0.,NA,NA,"",   1.92254E-03,   1.88251E-03,   390.293E-06,   161.767E-18
C:/temp/dataset/2/16_5.odb,Step-1,Increment      1: Step Time =    1.000,"PART-1-1",           241,        -11.25,           20.,            0.,NA,NA,"",   1.88034E-03,   1.83940E-03,   390.229E-06,   38.2348E-18
C:/temp/dataset/2/16_5.odb,Step-1,Increment      1: Step Time =    1.000,"PART-1-1",           242,      -6.25410,       27.4469,            0.,NA,NA,"",   1.99230E-03,   1.96909E-03,   303.220E-06,   74.8366E-18
C:/temp/dataset/2/16_5.odb,Step-1,Increment      1: Step Time =    1.000,"PART-1-1",           243,      -7.50120,       26.1906,            0.,NA,NA,"",   1.97414E-03,   1.94721E-03,   324.940E-06,   87.5749E-18
C:/temp/dataset/2/16_5.odb,Step-1,Increment      1: Step Time =    1.000,"PART-1-1",           244,      -6.25844,       24.9303,            0.,NA,NA,"",   1.94901E-03,   1.92526E-03,   303.296E-06,   116.807E-18
C:/temp/dataset/2/16_5.odb,Step-1,Increment      1: Step Time =    1.000,"PART-1-1",           245,      -5.01133,       26.1865,            0.,NA,NA,"",   1.96740E-03,   1.94714E-03,   281.577E-06,   26.9623E-18
C:/temp/dataset/2/16_5.odb,Step-1,Increment      1: Step Time =    1.000,"PART-1-1",           246,       1.11906,       22.3143,            0.,NA,NA,"",   1.88782E-03,   1.87970E-03,   174.812E-06,   1.06339E-15
C:/temp/dataset/2/16_5.odb,Step-1,Increment      1: Step Time =    1.000,"PART-1-1",           247,  -37.5712E-03,       21.1808,            0.,NA,NA,"",   1.87015E-03,   1.85996E-03,   194.956E-06,   235.007E-18
C:/temp/dataset/2/16_5.odb,Step-1,Increment      1: Step Time =    1.000,"PART-1-1",           248,          1.25,           20.,            0.,NA,NA,"",   1.84747E-03,   1.83940E-03,   172.532E-06,   509.360E-18
C:/temp/dataset/2/16_5.odb,Step-1,Increment      1: Step Time =    1.000,"PART-1-1",           249,       2.40663,       21.1336,            0.,NA,NA,"",   1.86538E-03,   1.85914E-03,   152.388E-06,   926.586E-18
C:/temp/dataset/2/16_5.odb,Step-1,Increment      1: Step Time =    1.000,"PART-1-1",           250,  -46.9838E-03,       26.1228,            0.,NA,NA,"",   1.95579E-03,   1.94603E-03,   195.119E-06,   325.347E-18
C:/temp/dataset/2/16_5.odb,Step-1,Increment      1: Step Time =    1.000,"PART-1-1",           251,       1.11635,       24.7850,            0.,NA,NA,"",   1.93067E-03,   1.92273E-03,   174.859E-06,   883.239E-18
C:/temp/dataset/2/16_5.odb,Step-1,Increment      1: Step Time =    1.000,"PART-1-1",           252,       2.41618,       25.9912,            0.,NA,NA,"",   1.94969E-03,   1.94374E-03,   152.221E-06,   1.11494E-15
C:/temp/dataset/2/16_5.odb,Step-1,Increment      1: Step Time =    1.000,"PART-1-1",           253,       1.25284,       27.3289,            0.,NA,NA,"",   1.97459E-03,   1.96704E-03,   172.482E-06,   699.177E-18
C:/temp/dataset/2/16_5.odb,Step-1,Increment      1: Step Time =    1.000,"PART-1-1",           254,       11.4216,       22.1022,            0.,NA,NA,"",   1.87601E-03,   1.87601E-03,  -4.61357E-06,   5.72534E-15
C:/temp/dataset/2/16_5.odb,Step-1,Increment      1: Step Time =    1.000,"PART-1-1",           255,       9.70783,       21.3771,            0.,NA,NA,"",   1.86355E-03,   1.86338E-03,   25.2326E-06,   15.1354E-15
C:/temp/dataset/2/16_5.odb,Step-1,Increment      1: Step Time =    1.000,"PART-1-1",           256,       10.3968,       19.2167,            0.,NA,NA,"",   1.82580E-03,   1.82575E-03,   13.2342E-06,   46.5966E-15
C:/temp/dataset/2/16_5.odb,Step-1,Increment      1: Step Time =    1.000,"PART-1-1",           257,       12.1105,       19.9418,            0.,NA,NA,"",   1.83846E-03,   1.83838E-03,  -16.6119E-06,   37.1538E-15
C:/temp/dataset/2/16_5.odb,Step-1,Increment      1: Step Time =    1.000,"PART-1-1",           258,       11.6215,       24.7876,            0.,NA,NA,"",   1.92279E-03,   1.92278E-03,  -8.09531E-06,   2.66505E-15
C:/temp/dataset/2/16_5.odb,Step-1,Increment      1: Step Time =    1.000,"PART-1-1",           259,       12.6971,       25.9410,            0.,NA,NA,"",   1.94305E-03,   1.94286E-03,  -26.8282E-06,   2.84691E-15
C:/temp/dataset/2/16_5.odb,Step-1,Increment      1: Step Time =    1.000,"PART-1-1",           260,       11.4859,       27.3886,            0.,NA,NA,"",   1.96808E-03,   1.96807E-03,  -5.73428E-06,   2.19768E-15
C:/temp/dataset/2/16_5.odb,Step-1,Increment      1: Step Time =    1.000,"PART-1-1",           261,       10.4103,       26.2351,            0.,NA,NA,"",   1.94803E-03,   1.94799E-03,   12.9986E-06,   2.23540E-15
C:/temp/dataset/2/16_5.odb,Step-1,Increment      1: Step Time =    1.000,"PART-1-1",           262,       5.88041,       17.6377,            0.,NA,NA,"",   1.80060E-03,   1.79826E-03,   91.8905E-06,   50.0819E-15
C:/temp/dataset/2/16_5.odb,Step-1,Increment      1: Step Time =    1.000,"PART-1-1",           263,       6.75071,       18.9160,            0.,NA,NA,"",   1.82213E-03,   1.82052E-03,   76.7333E-06,   53.7585E-15
C:/temp/dataset/2/16_5.odb,Step-1,Increment      1: Step Time =    1.000,"PART-1-1",           264,       5.87030,       20.0282,            0.,NA,NA,"",   1.84219E-03,   1.83989E-03,   92.0661E-06,   7.86492E-15
C:/temp/dataset/2/16_5.odb,Step-1,Increment      1: Step Time =    1.000,"PART-1-1",           265,            5.,         18.75,            0.,NA,NA,"",   1.82079E-03,   1.81763E-03,   107.223E-06,   9.97911E-15
C:/temp/dataset/2/16_5.odb,Step-1,Increment      1: Step Time =    1.000,"PART-1-1",           266,       12.3690,       13.3305,            0.,NA,NA,"",   1.72337E-03,   1.72324E-03,  -21.1120E-06,   542.339E-15
C:/temp/dataset/2/16_5.odb,Step-1,Increment      1: Step Time =    1.000,"PART-1-1",           267,       13.7195,       12.1790,            0.,NA,NA,"",   1.70377E-03,   1.70319E-03,  -44.6324E-06,   567.723E-15
C:/temp/dataset/2/16_5.odb,Step-1,Increment      1: Step Time =    1.000,"PART-1-1",           268,           15.,       13.9583,            0.,NA,NA,"",   1.73547E-03,   1.73418E-03,  -66.9334E-06,   469.442E-15
C:/temp/dataset/2/16_5.odb,Step-1,Increment      1: Step Time =    1.000,"PART-1-1",           269,       13.6495,       15.1098,            0.,NA,NA,"",   1.75477E-03,   1.75423E-03,  -43.4130E-06,   217.862E-15
C:/temp/dataset/2/16_5.odb,Step-1,Increment      1: Step Time =    1.000,"PART-1-1",           270,       12.5214,       4.81657,            0.,NA,NA,"",   1.57515E-03,   1.57497E-03,  -23.7661E-06,   7.02625E-12
C:/temp/dataset/2/16_5.odb,Step-1,Increment      1: Step Time =    1.000,"PART-1-1",           271,       13.7670,       3.58604,            0.,NA,NA,"",   1.55420E-03,   1.55354E-03,  -45.4581E-06,   6.61128E-12
C:/temp/dataset/2/16_5.odb,Step-1,Increment      1: Step Time =    1.000,"PART-1-1",           272,           15.,       5.20833,            0.,NA,NA,"",   1.58320E-03,   1.58179E-03,  -66.9321E-06,   1.52864E-12
C:/temp/dataset/2/16_5.odb,Step-1,Increment      1: Step Time =    1.000,"PART-1-1",           273,       13.7545,       6.43886,            0.,NA,NA,"",   1.60386E-03,   1.60322E-03,  -45.2401E-06,   2.41238E-12
C:/temp/dataset/2/16_5.odb,Step-1,Increment      1: Step Time =    1.000,"PART-1-1",           274,       13.7625,      -2.13133,            0.,NA,NA,"",   1.45467E-03,   1.45396E-03,  -45.3795E-06,   6.98691E-12
C:/temp/dataset/2/16_5.odb,Step-1,Increment      1: Step Time =    1.000,"PART-1-1",           275,       12.5125,      -3.58966,            0.,NA,NA,"",   1.42876E-03,   1.42857E-03,  -23.6095E-06,   6.06282E-12
C:/temp/dataset/2/16_5.odb,Step-1,Increment      1: Step Time =    1.000,"PART-1-1",           276,         13.75,           -5.,            0.,NA,NA,"",   1.40473E-03,   1.40400E-03,  -45.1608E-06,   1.02205E-12
C:/temp/dataset/2/16_5.odb,Step-1,Increment      1: Step Time =    1.000,"PART-1-1",           277,           15.,      -3.54167,            0.,NA,NA,"",   1.43097E-03,   1.42940E-03,  -66.9307E-06,   1.03479E-12
C:/temp/dataset/2/16_5.odb,Step-1,Increment      1: Step Time =    1.000,"PART-1-1",           278,      -9.21387,      -6.21191,            0.,NA,NA,"",   1.42771E-03,   1.38293E-03,   354.741E-06,   170.704E-09
C:/temp/dataset/2/16_5.odb,Step-1,Increment      1: Step Time =    1.000,"PART-1-1",           279,      -8.44405,      -4.75360,            0.,NA,NA,"",   1.44913E-03,   1.40833E-03,   341.427E-06,   69.1137E-09
C:/temp/dataset/2/16_5.odb,Step-1,Increment      1: Step Time =    1.000,"PART-1-1",           280,      -9.71477,      -4.17886,            0.,NA,NA,"",   1.46425E-03,   1.41841E-03,   363.546E-06,   43.2680E-09
C:/temp/dataset/2/16_5.odb,Step-1,Increment      1: Step Time =    1.000,"PART-1-1",           281,      -10.4846,      -5.63717,            0.,NA,NA,"",   1.44321E-03,   1.39313E-03,   376.885E-06,   155.460E-09
C:/temp/dataset/2/16_5.odb,Step-1,Increment      1: Step Time =    1.000,"PART-1-1",           282,      -5.84282,   107.969E-03,            0.,NA,NA,"",   1.52206E-03,   1.49299E-03,   296.084E-06,   12.0458E-09
C:/temp/dataset/2/16_5.odb,Step-1,Increment      1: Step Time =    1.000,"PART-1-1",           283,      -4.64047,       1.60743,            0.,NA,NA,"",   1.54380E-03,   1.51908E-03,   275.138E-06,   8.49859E-09
C:/temp/dataset/2/16_5.odb,Step-1,Increment      1: Step Time =    1.000,"PART-1-1",           284,      -6.45702,       2.58989,            0.,NA,NA,"",   1.56652E-03,   1.53618E-03,   306.780E-06,   7.32159E-09
C:/temp/dataset/2/16_5.odb,Step-1,Increment      1: Step Time =    1.000,"PART-1-1",           285,      -7.65937,       1.09043,            0.,NA,NA,"",   1.54524E-03,   1.51008E-03,   327.724E-06,   10.1419E-09
C:/temp/dataset/2/16_5.odb,Step-1,Increment      1: Step Time =    1.000,"PART-1-1",           286,      -6.51044,      -5.43697,            0.,NA,NA,"",   1.42981E-03,   1.39631E-03,   307.696E-06,   48.4470E-09
C:/temp/dataset/2/16_5.odb,Step-1,Increment      1: Step Time =    1.000,"PART-1-1",           287,      -5.48201,      -3.85122,            0.,NA,NA,"",   1.45320E-03,   1.42403E-03,   289.751E-06,   21.0382E-09
C:/temp/dataset/2/16_5.odb,Step-1,Increment      1: Step Time =    1.000,"PART-1-1",           288,      -7.41561,      -3.16785,            0.,NA,NA,"",   1.47195E-03,   1.43596E-03,   323.497E-06,   23.8922E-09
C:/temp/dataset/2/16_5.odb,Step-1,Increment      1: Step Time =    1.000,"PART-1-1",           289,      -12.6742,      -10.6472,            0.,NA,NA,"",   1.37318E-03,   1.30908E-03,   414.638E-06,   1.83557E-06
C:/temp/dataset/2/16_5.odb,Step-1,Increment      1: Step Time =    1.000,"PART-1-1",           290,      -11.3911,      -11.6978,            0.,NA,NA,"",   1.34817E-03,   1.29068E-03,   389.498E-06,   2.50678E-06
C:/temp/dataset/2/16_5.odb,Step-1,Increment      1: Step Time =    1.000,"PART-1-1",           291,      -10.2167,      -10.1126,            0.,NA,NA,"",   1.36669E-03,   1.31559E-03,   370.216E-06,   1.80085E-06
C:/temp/dataset/2/16_5.odb,Step-1,Increment      1: Step Time =    1.000,"PART-1-1",           292,      -11.4997,      -9.06207,            0.,NA,NA,"",   1.39155E-03,   1.33465E-03,   393.871E-06,   811.343E-09
C:/temp/dataset/2/16_5.odb,Step-1,Increment      1: Step Time =    1.000,"PART-1-1",           293,      -13.7107,      -15.1438,            0.,NA,NA,"",   1.30985E-03,   1.23309E-03,   441.819E-06,   5.73524E-06
C:/temp/dataset/2/16_5.odb,Step-1,Increment      1: Step Time =    1.000,"PART-1-1",           294,      -12.5249,      -13.4434,            0.,NA,NA,"",   1.32877E-03,   1.26368E-03,   410.789E-06,   4.52946E-06
C:/temp/dataset/2/16_5.odb,Step-1,Increment      1: Step Time =    1.000,"PART-1-1",           295,      -13.8143,      -12.2579,            0.,NA,NA,"",   1.35533E-03,   1.28289E-03,   437.172E-06,   2.23015E-06
C:/temp/dataset/2/16_5.odb,Step-1,Increment      1: Step Time =    1.000,"PART-1-1",           296,          -15.,      -13.9583,            0.,NA,NA,"",   1.33591E-03,   1.25248E-03,   464.724E-06,   5.84291E-06
C:/temp/dataset/2/16_5.odb,Step-1,Increment      1: Step Time =    1.000,"PART-1-1",           297,      -12.0988,      -16.5012,            0.,NA,NA,"",   1.26849E-03,   1.20470E-03,   397.196E-06,   3.94864E-06
C:/temp/dataset/2/16_5.odb,Step-1,Increment      1: Step Time =    1.000,"PART-1-1",           298,      -10.5811,      -17.2344,            0.,NA,NA,"",   1.24136E-03,   1.18950E-03,   355.068E-06,   5.82432E-06
C:/temp/dataset/2/16_5.odb,Step-1,Increment      1: Step Time =    1.000,"PART-1-1",           299,      -9.66362,      -15.1575,            0.,NA,NA,"",   1.27549E-03,   1.22817E-03,   344.189E-06,   6.65059E-06
C:/temp/dataset/2/16_5.odb,Step-1,Increment      1: Step Time =    1.000,"PART-1-1",           300,      -11.1813,      -14.4243,            0.,NA,NA,"",   1.30086E-03,   1.24461E-03,   378.385E-06,   5.34496E-06
C:/temp/dataset/2/16_5.odb,Step-1,Increment      1: Step Time =    1.000,"PART-1-1",           301,      -10.5090,      -18.8394,            0.,NA,NA,"",   1.19521E-03,   1.14100E-03,   355.882E-06,   25.2827E-06
C:/temp/dataset/2/16_5.odb,Step-1,Increment      1: Step Time =    1.000,"PART-1-1",           302,      -8.88448,      -18.7076,            0.,NA,NA,"",   1.22500E-03,   1.17989E-03,   329.380E-06,   27.4625E-06
C:/temp/dataset/2/16_5.odb,Step-1,Increment      1: Step Time =    1.000,"PART-1-1",           303,      -8.95657,      -17.1026,            0.,NA,NA,"",   1.24197E-03,   1.19889E-03,   324.254E-06,   11.9063E-06
C:/temp/dataset/2/16_5.odb,Step-1,Increment      1: Step Time =    1.000,"PART-1-1",           304,      -8.08225,      -19.7831,            0.,NA,NA,"",   1.23466E-03,   1.18494E-03,   346.844E-06,   81.1452E-06
C:/temp/dataset/2/16_5.odb,Step-1,Increment      1: Step Time =    1.000,"PART-1-1",           305,      -6.89084,      -18.8787,            0.,NA,NA,"",   1.29876E-03,   1.25941E-03,   317.284E-06,   44.4716E-06
C:/temp/dataset/2/16_5.odb,Step-1,Increment      1: Step Time =    1.000,"PART-1-1",           306,      -7.69307,      -17.8032,            0.,NA,NA,"",   1.24001E-03,   1.20131E-03,   307.376E-06,   16.7283E-06
C:/temp/dataset/2/16_5.odb,Step-1,Increment      1: Step Time =    1.000,"PART-1-1",           307,       7.10093,      -24.9223,            0.,NA,NA,"",   13.6505E-03,   1.75869E-03,  -13.5367E-03,   3.65008E-03
C:/temp/dataset/2/16_5.odb,Step-1,Increment      1: Step Time =    1.000,"PART-1-1",           308,       8.59925,      -23.6815,            0.,NA,NA,"",   22.4972E-03,   6.81089E-03,  -21.4414E-03,   4.77074E-03
C:/temp/dataset/2/16_5.odb,Step-1,Increment      1: Step Time =    1.000,"PART-1-1",           309,       6.88316,      -22.4353,            0.,NA,NA,"",   22.6200E-03,   6.18887E-03,  -21.7569E-03,   4.39269E-03
C:/temp/dataset/2/16_5.odb,Step-1,Increment      1: Step Time =    1.000,"PART-1-1",           310,       5.38484,      -23.6762,            0.,NA,NA,"",   12.7393E-03,   1.26105E-03,  -12.6767E-03,   2.98398E-03
C:/temp/dataset/2/16_5.odb,Step-1,Increment      1: Step Time =    1.000,"PART-1-1",           311,       13.3798,      -22.4744,            0.,NA,NA,"",   40.7206E-03,   20.2168E-03,  -35.3475E-03,   5.07542E-03
C:/temp/dataset/2/16_5.odb,Step-1,Increment      1: Step Time =    1.000,"PART-1-1",           312,           15.,        -21.25,            0.,NA,NA,"",   51.5288E-03,   26.5253E-03,  -44.1772E-03,   5.03830E-03
C:/temp/dataset/2/16_5.odb,Step-1,Increment      1: Step Time =    1.000,"PART-1-1",           313,       13.3333,          -20.,            0.,NA,NA,"",   52.9087E-03,   25.3243E-03,  -46.4544E-03,   4.93829E-03
C:/temp/dataset/2/16_5.odb,Step-1,Increment      1: Step Time =    1.000,"PART-1-1",           314,       11.7131,      -21.2244,            0.,NA,NA,"",   42.5368E-03,   19.2957E-03,  -37.9085E-03,   4.98264E-03
C:/temp/dataset/2/16_5.odb,Step-1,Increment      1: Step Time =    1.000,"PART-1-1",           315,      -2.14863,       2.00914,            0.,NA,NA,"",   1.54357E-03,   1.52608E-03,   231.731E-06,   3.11593E-09
C:/temp/dataset/2/16_5.odb,Step-1,Increment      1: Step Time =    1.000,"PART-1-1",           316,      -1.66393,   575.985E-03,            0.,NA,NA,"",   1.51763E-03,   1.50112E-03,   223.287E-06,   3.28619E-09
C:/temp/dataset/2/16_5.odb,Step-1,Increment      1: Step Time =    1.000,"PART-1-1",           317,   135.628E-03,       1.10435,            0.,NA,NA,"",   1.52247E-03,   1.51032E-03,   191.944E-06,   1.56293E-09
C:/temp/dataset/2/16_5.odb,Step-1,Increment      1: Step Time =    1.000,"PART-1-1",           318,  -349.073E-03,       2.53751,            0.,NA,NA,"",   1.54830E-03,   1.53528E-03,   200.387E-06,   1.52160E-09
C:/temp/dataset/2/16_5.odb,Step-1,Increment      1: Step Time =    1.000,"PART-1-1",           319,   156.145E-03,      -1.87787,            0.,NA,NA,"",   1.47091E-03,   1.45838E-03,   191.583E-06,   1.96366E-09
C:/temp/dataset/2/16_5.odb,Step-1,Increment      1: Step Time =    1.000,"PART-1-1",           320,       1.21010,      -2.70880,            0.,NA,NA,"",   1.45426E-03,   1.44391E-03,   173.229E-06,   809.037E-12
C:/temp/dataset/2/16_5.odb,Step-1,Increment      1: Step Time =    1.000,"PART-1-1",           321,       2.32846,      -1.50081,            0.,NA,NA,"",   1.47299E-03,   1.46495E-03,   153.753E-06,   136.233E-12
C:/temp/dataset/2/16_5.odb,Step-1,Increment      1: Step Time =    1.000,"PART-1-1",           322,       1.27451,  -669.883E-03,            0.,NA,NA,"",   1.48939E-03,   1.47942E-03,   172.108E-06,   1.05308E-09
C:/temp/dataset/2/16_5.odb,Step-1,Increment      1: Step Time =    1.000,"PART-1-1",           323,       4.87500,      -1.23074,            0.,NA,NA,"",   1.47372E-03,   1.46965E-03,   109.403E-06,   120.558E-12
C:/temp/dataset/2/16_5.odb,Step-1,Increment      1: Step Time =    1.000,"PART-1-1",           324,       6.20088,      -2.43579,            0.,NA,NA,"",   1.45123E-03,   1.44866E-03,   86.3125E-06,   110.765E-12
C:/temp/dataset/2/16_5.odb,Step-1,Increment      1: Step Time =    1.000,"PART-1-1",           325,       7.44880,      -1.07477,            0.,NA,NA,"",   1.47378E-03,   1.47236E-03,   64.5787E-06,   62.7363E-12
C:/temp/dataset/2/16_5.odb,Step-1,Increment      1: Step Time =    1.000,"PART-1-1",           326,       6.12293,   130.279E-03,            0.,NA,NA,"",   1.49592E-03,   1.49335E-03,   87.6696E-06,   96.0216E-12
C:/temp/dataset/2/16_5.odb,Step-1,Increment      1: Step Time =    1.000,"PART-1-1",           327,          8.75,           -5.,            0.,NA,NA,"",   1.40463E-03,   1.40400E-03,   41.9180E-06,   42.6004E-12
C:/temp/dataset/2/16_5.odb,Step-1,Increment      1: Step Time =    1.000,"PART-1-1",           328,       10.0063,      -3.63741,            0.,NA,NA,"",   1.42787E-03,   1.42773E-03,   20.0375E-06,   20.5946E-12
C:/temp/dataset/2/16_5.odb,Step-1,Increment      1: Step Time =    1.000,"PART-1-1",           329,       8.73716,      -2.32557,            0.,NA,NA,"",   1.45119E-03,   1.45058E-03,   42.1411E-06,   51.5809E-12
C:/temp/dataset/2/16_5.odb,Step-1,Increment      1: Step Time =    1.000,"PART-1-1",           330,       7.48081,      -3.68816,            0.,NA,NA,"",   1.42829E-03,   1.42685E-03,   64.0216E-06,   47.3336E-12
C:/temp/dataset/2/16_5.odb,Step-1,Increment      1: Step Time =    1.000,"PART-1-1",           331,       6.24109,       7.72904,            0.,NA,NA,"",   1.62794E-03,   1.62569E-03,   85.6106E-06,   9.81626E-12
C:/temp/dataset/2/16_5.odb,Step-1,Increment      1: Step Time =    1.000,"PART-1-1",           332,            5.,          6.25,            0.,NA,NA,"",   1.60352E-03,   1.59993E-03,   107.225E-06,   24.9413E-12
C:/temp/dataset/2/16_5.odb,Step-1,Increment      1: Step Time =    1.000,"PART-1-1",           333,       6.24095,       5.17046,            0.,NA,NA,"",   1.58345E-03,   1.58113E-03,   85.6134E-06,   67.3860E-12
C:/temp/dataset/2/16_5.odb,Step-1,Increment      1: Step Time =    1.000,"PART-1-1",           334,       7.48203,       6.64950,            0.,NA,NA,"",   1.60816E-03,   1.60689E-03,   63.9987E-06,   9.17085E-12
C:/temp/dataset/2/16_5.odb,Step-1,Increment      1: Step Time =    1.000,"PART-1-1",           335,       7.34508,       23.6052,            0.,NA,NA,"",   1.90334E-03,   1.90218E-03,   66.3813E-06,   2.67311E-15
C:/temp/dataset/2/16_5.odb,Step-1,Increment      1: Step Time =    1.000,"PART-1-1",           336,       6.41056,       24.2397,            0.,NA,NA,"",   1.91502E-03,   1.91323E-03,   82.6565E-06,   2.70199E-15
C:/temp/dataset/2/16_5.odb,Step-1,Increment      1: Step Time =    1.000,"PART-1-1",           337,       6.08150,       22.9932,            0.,NA,NA,"",   1.89359E-03,   1.89153E-03,   88.3876E-06,   2.87781E-15
C:/temp/dataset/2/16_5.odb,Step-1,Increment      1: Step Time =    1.000,"PART-1-1",           338,       7.01602,       22.3587,            0.,NA,NA,"",   1.88186E-03,   1.88048E-03,   72.1124E-06,   3.69866E-15
C:/temp/dataset/2/16_5.odb,Step-1,Increment      1: Step Time =    1.000,"PART-1-1",           339,      -12.5005,       23.7291,            0.,NA,NA,"",   1.94841E-03,   1.90435E-03,   412.007E-06,   100.698E-18
C:/temp/dataset/2/16_5.odb,Step-1,Increment      1: Step Time =    1.000,"PART-1-1",           340,      -13.7489,       24.9883,            0.,NA,NA,"",   1.97451E-03,   1.92628E-03,   433.748E-06,   61.0003E-18
C:/temp/dataset/2/16_5.odb,Step-1,Increment      1: Step Time =    1.000,"PART-1-1",           341,          -15.,         23.75,            0.,NA,NA,"",   1.95843E-03,   1.90471E-03,   455.537E-06,   136.471E-18
C:/temp/dataset/2/16_5.odb,Step-1,Increment      1: Step Time =    1.000,"PART-1-1",           342,      -2.52491,       26.1674,            0.,NA,NA,"",   1.96134E-03,   1.94681E-03,   238.274E-06,   68.5346E-18
C:/temp/dataset/2/16_5.odb,Step-1,Increment      1: Step Time =    1.000,"PART-1-1",           343,      -1.30373,       24.8780,            0.,NA,NA,"",   1.93655E-03,   1.92435E-03,   217.007E-06,   303.445E-18
C:/temp/dataset/2/16_5.odb,Step-1,Increment      1: Step Time =    1.000,"PART-1-1",           344,      -1.26817,       27.4122,            0.,NA,NA,"",   1.98034E-03,   1.96849E-03,   216.387E-06,   213.189E-18
C:/temp/dataset/2/16_5.odb,Step-1,Increment      1: Step Time =    1.000,"PART-1-1",           345,       2.31009,       23.4917,            0.,NA,NA,"",   1.90645E-03,   1.90021E-03,   154.069E-06,   1.20774E-15
C:/temp/dataset/2/16_5.odb,Step-1,Increment      1: Step Time =    1.000,"PART-1-1",           346,       3.41051,       22.2101,            0.,NA,NA,"",   1.88273E-03,   1.87789E-03,   134.905E-06,   2.77541E-15
C:/temp/dataset/2/16_5.odb,Step-1,Increment      1: Step Time =    1.000,"PART-1-1",           347,       4.46987,       23.2845,            0.,NA,NA,"",   1.90017E-03,   1.89660E-03,   116.455E-06,   2.98645E-15
C:/temp/dataset/2/16_5.odb,Step-1,Increment      1: Step Time =    1.000,"PART-1-1",           348,       3.36945,       24.5662,            0.,NA,NA,"",   1.92371E-03,   1.91892E-03,   135.620E-06,   1.84453E-15
C:/temp/dataset/2/16_5.odb,Step-1,Increment      1: Step Time =    1.000,"PART-1-1",           349,       3.92627,       27.0683,            0.,NA,NA,"",   1.96653E-03,   1.96250E-03,   125.922E-06,   1.46695E-15
C:/temp/dataset/2/16_5.odb,Step-1,Increment      1: Step Time =    1.000,"PART-1-1",           350,       5.16355,       28.4353,            0.,NA,NA,"",   1.98905E-03,   1.98631E-03,   104.373E-06,   1.37066E-15
C:/temp/dataset/2/16_5.odb,Step-1,Increment      1: Step Time =    1.000,"PART-1-1",           351,          3.75,           30.,            0.,NA,NA,"",   2.01768E-03,   2.01356E-03,   128.991E-06,   1.23916E-15
C:/temp/dataset/2/16_5.odb,Step-1,Increment      1: Step Time =    1.000,"PART-1-1",           352,       2.51272,       28.6330,            0.,NA,NA,"",   1.99543E-03,   1.98975E-03,   150.540E-06,   687.144E-18
C:/temp/dataset/2/16_5.odb,Step-1,Increment      1: Step Time =    1.000,"PART-1-1",           353,       11.0463,       14.3537,            0.,NA,NA,"",   1.74106E-03,   1.74106E-03,   1.92308E-06,   441.538E-15
C:/temp/dataset/2/16_5.odb,Step-1,Increment      1: Step Time =    1.000,"PART-1-1",           354,       9.86747,       12.5470,            0.,NA,NA,"",   1.70974E-03,   1.70960E-03,   22.4536E-06,   736.717E-15
C:/temp/dataset/2/16_5.odb,Step-1,Increment      1: Step Time =    1.000,"PART-1-1",           355,       11.1901,       11.5237,            0.,NA,NA,"",   1.69178E-03,   1.69178E-03,  -581.482E-09,   650.197E-15
C:/temp/dataset/2/16_5.odb,Step-1,Increment      1: Step Time =    1.000,"PART-1-1",           356,       9.55073,       15.1783,            0.,NA,NA,"",   1.75565E-03,   1.75542E-03,   27.9696E-06,   380.573E-15
C:/temp/dataset/2/16_5.odb,Step-1,Increment      1: Step Time =    1.000,"PART-1-1",           357,       8.18591,       15.9712,            0.,NA,NA,"",   1.76999E-03,   1.76923E-03,   51.7388E-06,   216.594E-15
C:/temp/dataset/2/16_5.odb,Step-1,Increment      1: Step Time =    1.000,"PART-1-1",           358,       7.20669,       14.2932,            0.,NA,NA,"",   1.74137E-03,   1.74001E-03,   68.7929E-06,   519.919E-15
C:/temp/dataset/2/16_5.odb,Step-1,Increment      1: Step Time =    1.000,"PART-1-1",           359,       8.57151,       13.5002,            0.,NA,NA,"",   1.72679E-03,   1.72620E-03,   45.0237E-06,   484.767E-15
C:/temp/dataset/2/16_5.odb,Step-1,Increment      1: Step Time =    1.000,"PART-1-1",           360,       7.44377,       1.50598,            0.,NA,NA,"",   1.51869E-03,   1.51731E-03,   64.6658E-06,   68.1677E-12
C:/temp/dataset/2/16_5.odb,Step-1,Increment      1: Step Time =    1.000,"PART-1-1",           361,       8.72836,   326.342E-03,            0.,NA,NA,"",   1.49736E-03,   1.49677E-03,   42.2940E-06,   53.6308E-12
C:/temp/dataset/2/16_5.odb,Step-1,Increment      1: Step Time =    1.000,"PART-1-1",           362,       10.0261,       1.76283,            0.,NA,NA,"",   1.52191E-03,   1.52178E-03,   19.6931E-06,   22.6088E-12
C:/temp/dataset/2/16_5.odb,Step-1,Increment      1: Step Time =    1.000,"PART-1-1",           363,       8.74149,       2.94246,            0.,NA,NA,"",   1.54290E-03,   1.54233E-03,   42.0648E-06,   40.1897E-12
C:/temp/dataset/2/16_5.odb,Step-1,Increment      1: Step Time =    1.000,"PART-1-1",           364,       12.5045,       7.62102,            0.,NA,NA,"",   1.62398E-03,   1.62381E-03,  -23.4715E-06,   2.08186E-12
C:/temp/dataset/2/16_5.odb,Step-1,Increment      1: Step Time =    1.000,"PART-1-1",           365,           15.,         8.125,            0.,NA,NA,"",   1.63396E-03,   1.63258E-03,  -66.9325E-06,   1.58396E-12
C:/temp/dataset/2/16_5.odb,Step-1,Increment      1: Step Time =    1.000,"PART-1-1",           366,       13.7500,       9.30715,            0.,NA,NA,"",   1.65379E-03,   1.65317E-03,  -45.1639E-06,   1.01482E-12
C:/temp/dataset/2/16_5.odb,Step-1,Increment      1: Step Time =    1.000,"PART-1-1",           367,      -1.45938,      -2.40358,            0.,NA,NA,"",   1.46578E-03,   1.44922E-03,   219.715E-06,   5.60718E-09
C:/temp/dataset/2/16_5.odb,Step-1,Increment      1: Step Time =    1.000,"PART-1-1",           368,      -2.69869,      -3.52952,            0.,NA,NA,"",   1.44983E-03,   1.42961E-03,   241.288E-06,   5.32052E-09
C:/temp/dataset/2/16_5.odb,Step-1,Increment      1: Step Time =    1.000,"PART-1-1",           369,         -1.25,           -5.,            0.,NA,NA,"",   1.42054E-03,   1.40401E-03,   216.070E-06,   2.72655E-09
C:/temp/dataset/2/16_5.odb,Step-1,Increment      1: Step Time =    1.000,"PART-1-1",           370,  -10.6917E-03,      -3.87406,            0.,NA,NA,"",   1.43684E-03,   1.42362E-03,   194.489E-06,   1.18063E-09
C:/temp/dataset/2/16_5.odb,Step-1,Increment      1: Step Time =    1.000,"PART-1-1",           371,      -13.3333,            5.,            0.,NA,NA,"",   1.63468E-03,   1.57808E-03,   426.419E-06,   2.32624E-09
C:/temp/dataset/2/16_5.odb,Step-1,Increment      1: Step Time =    1.000,"PART-1-1",           372,          -15.,       3.54167,            0.,NA,NA,"",   1.61812E-03,   1.55271E-03,   455.409E-06,   2.63311E-09
C:/temp/dataset/2/16_5.odb,Step-1,Increment      1: Step Time =    1.000,"PART-1-1",           373,      -13.2137,       2.05352,            0.,NA,NA,"",   1.58469E-03,   1.52682E-03,   424.336E-06,   9.04348E-09
C:/temp/dataset/2/16_5.odb,Step-1,Increment      1: Step Time =    1.000,"PART-1-1",           374,      -11.5470,       3.51185,            0.,NA,NA,"",   1.60176E-03,   1.55220E-03,   395.354E-06,   9.09540E-09
C:/temp/dataset/2/16_5.odb,Step-1,Increment      1: Step Time =    1.000,"PART-1-1",           375,          -15.,      625.E-03,            0.,NA,NA,"",   1.56948E-03,   1.50197E-03,   455.389E-06,   17.6231E-09
C:/temp/dataset/2/16_5.odb,Step-1,Increment      1: Step Time =    1.000,"PART-1-1",           376,      -12.9883,      -1.02354,            0.,NA,NA,"",   1.53209E-03,   1.47328E-03,   420.410E-06,   14.6321E-09
C:/temp/dataset/2/16_5.odb,Step-1,Increment      1: Step Time =    1.000,"PART-1-1",           377,      -11.2019,   404.974E-03,            0.,NA,NA,"",   1.54791E-03,   1.49814E-03,   389.368E-06,   15.5066E-09
C:/temp/dataset/2/16_5.odb,Step-1,Increment      1: Step Time =    1.000,"PART-1-1",           378,      -13.6690,      -3.88141,            0.,NA,NA,"",   1.48782E-03,   1.42366E-03,   432.191E-06,   25.3299E-09
C:/temp/dataset/2/16_5.odb,Step-1,Increment      1: Step Time =    1.000,"PART-1-1",           379,      -11.6573,      -2.61328,            0.,NA,NA,"",   1.49925E-03,   1.44565E-03,   397.306E-06,   15.9582E-09
C:/temp/dataset/2/16_5.odb,Step-1,Increment      1: Step Time =    1.000,"PART-1-1",           380,          -15.,      -2.29167,            0.,NA,NA,"",   1.52101E-03,   1.45126E-03,   455.313E-06,   41.2918E-09
C:/temp/dataset/2/16_5.odb,Step-1,Increment      1: Step Time =    1.000,"PART-1-1",           381,           -5.,         -8.75,            0.,NA,NA,"",   1.36674E-03,   1.33747E-03,   281.335E-06,   566.527E-09
C:/temp/dataset/2/16_5.odb,Step-1,Increment      1: Step Time =    1.000,"PART-1-1",           382,      -6.37238,      -7.84264,            0.,NA,NA,"",   1.38773E-03,   1.35371E-03,   305.374E-06,   263.217E-09
C:/temp/dataset/2/16_5.odb,Step-1,Increment      1: Step Time =    1.000,"PART-1-1",           383,      -7.67841,      -9.42411,            0.,NA,NA,"",   1.36535E-03,   1.32545E-03,   327.670E-06,   1.19976E-06
C:/temp/dataset/2/16_5.odb,Step-1,Increment      1: Step Time =    1.000,"PART-1-1",           384,      -6.30603,      -10.3315,            0.,NA,NA,"",   1.34343E-03,   1.30841E-03,   304.732E-06,   1.05590E-06
C:/temp/dataset/2/16_5.odb,Step-1,Increment      1: Step Time =    1.000,"PART-1-1",           385,      -13.6103,      -21.3688,            0.,NA,NA,"",   1.04760E-03,   946.550E-06,   448.888E-06,   23.7376E-06
C:/temp/dataset/2/16_5.odb,Step-1,Increment      1: Step Time =    1.000,"PART-1-1",           386,          -15.,      -22.7083,            0.,NA,NA,"",   986.334E-06,   830.647E-06,   531.865E-06,   17.9911E-06
C:/temp/dataset/2/16_5.odb,Step-1,Increment      1: Step Time =    1.000,"PART-1-1",           387,      -13.6241,      -24.2925,            0.,NA,NA,"",   752.915E-06,   647.715E-06,   383.856E-06,   56.1584E-06
C:/temp/dataset/2/16_5.odb,Step-1,Increment      1: Step Time =    1.000,"PART-1-1",           388,      -12.2343,      -22.9530,            0.,NA,NA,"",   864.243E-06,   781.193E-06,   369.667E-06,   64.2339E-06
C:/temp/dataset/2/16_5.odb,Step-1,Increment      1: Step Time =    1.000,"PART-1-1",           389,           -5.,        -16.25,            0.,NA,NA,"",   1.25495E-03,   1.21375E-03,   318.922E-06,   18.8492E-06
C:/temp/dataset/2/16_5.odb,Step-1,Increment      1: Step Time =    1.000,"PART-1-1",           390,      -6.06585,      -15.2329,            0.,NA,NA,"",   1.25919E-03,   1.22002E-03,   311.631E-06,   8.69996E-06
C:/temp/dataset/2/16_5.odb,Step-1,Increment      1: Step Time =    1.000,"PART-1-1",           391,      -6.99530,      -16.6022,            0.,NA,NA,"",   1.24696E-03,   1.20681E-03,   313.888E-06,   12.1443E-06
C:/temp/dataset/2/16_5.odb,Step-1,Increment      1: Step Time =    1.000,"PART-1-1",           392,      -5.92946,      -17.6192,            0.,NA,NA,"",   1.26512E-03,   1.22073E-03,   332.203E-06,   34.3421E-06
C:/temp/dataset/2/16_5.odb,Step-1,Increment      1: Step Time =    1.000,"PART-1-1",           393,         -13.5,          -30.,            0.,NA,NA,"",            0.,   21.3362E-42,   186.593E-42,   119.734E-06
C:/temp/dataset/2/16_5.odb,Step-1,Increment      1: Step Time =    1.000,"PART-1-1",           394,      -12.0804,      -28.6247,            0.,NA,NA,"",   131.115E-06,   107.168E-06,   75.5394E-06,   83.5334E-06
C:/temp/dataset/2/16_5.odb,Step-1,Increment      1: Step Time =    1.000,"PART-1-1",           395,      -13.5804,      -27.1664,            0.,NA,NA,"",   369.820E-06,   303.707E-06,   211.019E-06,   90.1274E-06
C:/temp/dataset/2/16_5.odb,Step-1,Increment      1: Step Time =    1.000,"PART-1-1",           396,          -15.,      -28.5417,            0.,NA,NA,"",   277.528E-06,   208.529E-06,   183.133E-06,   127.357E-06
C:/temp/dataset/2/16_5.odb,Step-1,Increment      1: Step Time =    1.000,"PART-1-1",           397,          13.5,          -30.,            0.,NA,NA,"",            0.,   953.425E-42,  -10.8534E-39,   6.01459E-03
C:/temp/dataset/2/16_5.odb,Step-1,Increment      1: Step Time =    1.000,"PART-1-1",           398,           15.,        -28.75,            0.,NA,NA,"",   10.9548E-03,   7.74450E-03,  -7.74795E-03,   6.73817E-03
C:/temp/dataset/2/16_5.odb,Step-1,Increment      1: Step Time =    1.000,"PART-1-1",           399,       13.4640,      -27.4843,            0.,NA,NA,"",   14.0453E-03,   8.20446E-03,  -11.3999E-03,   5.53362E-03
C:/temp/dataset/2/16_5.odb,Step-1,Increment      1: Step Time =    1.000,"PART-1-1",           400,       11.9640,      -28.7343,            0.,NA,NA,"",   5.06841E-03,   2.30176E-03,  -4.51560E-03,   4.52714E-03
C:/temp/dataset/2/16_5.odb,Step-1,Increment      1: Step Time =    1.000,"PART-1-1",           401,       10.2658,      -24.9335,            0.,NA,NA,"",   20.4347E-03,   7.63381E-03,  -18.9552E-03,   4.86075E-03
C:/temp/dataset/2/16_5.odb,Step-1,Increment      1: Step Time =    1.000,"PART-1-1",           402,       8.77397,      -26.1861,            0.,NA,NA,"",   12.1133E-03,   2.57241E-03,  -11.8370E-03,   4.18024E-03
C:/temp/dataset/2/16_5.odb,Step-1,Increment      1: Step Time =    1.000,"PART-1-1",           403,       10.3945,      -27.4590,            0.,NA,NA,"",   9.07124E-03,   3.06380E-03,  -8.53818E-03,   4.48872E-03
C:/temp/dataset/2/16_5.odb,Step-1,Increment      1: Step Time =    1.000,"PART-1-1",           404,       11.8863,      -26.2064,            0.,NA,NA,"",   17.5272E-03,   8.25966E-03,  -15.4590E-03,   5.17440E-03
C:/temp/dataset/2/16_5.odb,Step-1,Increment      1: Step Time =    1.000,"PART-1-1",           405,       8.93044,      -28.7247,            0.,NA,NA,"",   3.51963E-03,   138.024E-06,  -3.51692E-03,   3.45889E-03
C:/temp/dataset/2/16_5.odb,Step-1,Increment      1: Step Time =    1.000,"PART-1-1",           406,       7.31300,      -27.4411,            0.,NA,NA,"",   6.24390E-03,  -490.823E-06,  -6.22458E-03,   3.14175E-03
C:/temp/dataset/2/16_5.odb,Step-1,Increment      1: Step Time =    1.000,"PART-1-1",           407,       5.88256,      -28.7164,            0.,NA,NA,"",   2.66087E-03,  -1.27634E-03,  -2.33478E-03,   2.42271E-03
C:/temp/dataset/2/16_5.odb,Step-1,Increment      1: Step Time =    1.000,"PART-1-1",           408,           7.5,          -30.,            0.,NA,NA,"",            0.,  -719.931E-42,  -6.34680E-39,   2.82954E-03
C:/temp/dataset/2/16_5.odb,Step-1,Increment      1: Step Time =    1.000,"PART-1-1",           409,       5.63995,      -26.1773,            0.,NA,NA,"",   7.49194E-03,  -1.18207E-03,  -7.39810E-03,   2.61835E-03
C:/temp/dataset/2/16_5.odb,Step-1,Increment      1: Step Time =    1.000,"PART-1-1",           410,       3.92490,      -24.9166,            0.,NA,NA,"",   6.54788E-03,  -1.22744E-03,  -6.43180E-03,   1.73117E-03
C:/temp/dataset/2/16_5.odb,Step-1,Increment      1: Step Time =    1.000,"PART-1-1",           411,       2.50142,      -26.1700,            0.,NA,NA,"",   3.54977E-03,  -2.13551E-03,  -2.83557E-03,   1.05353E-03
C:/temp/dataset/2/16_5.odb,Step-1,Increment      1: Step Time =    1.000,"PART-1-1",           412,       4.21647,      -27.4307,            0.,NA,NA,"",   4.01893E-03,  -2.14272E-03,  -3.40008E-03,   1.79409E-03
C:/temp/dataset/2/16_5.odb,Step-1,Increment      1: Step Time =    1.000,"PART-1-1",           413,       1.12659,      -27.4308,            0.,NA,NA,"",   2.24059E-03,  -1.96005E-03,  -1.08555E-03,   811.553E-06
C:/temp/dataset/2/16_5.odb,Step-1,Increment      1: Step Time =    1.000,"PART-1-1",           414,  -207.324E-03,      -28.7165,            0.,NA,NA,"",   1.15332E-03,  -1.10283E-03,  -337.518E-06,   647.835E-06
C:/temp/dataset/2/16_5.odb,Step-1,Increment      1: Step Time =    1.000,"PART-1-1",           415,           1.5,          -30.,            0.,NA,NA,"",            0.,  -1.08962E-39,  -1.90495E-39,   1.21665E-03
C:/temp/dataset/2/16_5.odb,Step-1,Increment      1: Step Time =    1.000,"PART-1-1",           416,       2.83391,      -28.7143,            0.,NA,NA,"",   1.95943E-03,  -1.59383E-03,  -1.13977E-03,   1.38446E-03
C:/temp/dataset/2/16_5.odb,Step-1,Increment      1: Step Time =    1.000,"PART-1-1",           417,      -1.92078,      -27.4395,            0.,NA,NA,"",   1.05211E-03,  -1.05064E-03,  -55.5139E-06,   393.093E-06
C:/temp/dataset/2/16_5.odb,Step-1,Increment      1: Step Time =    1.000,"PART-1-1",           418,      -3.21345,      -28.7230,            0.,NA,NA,"",   506.423E-06,  -506.345E-06,  -8.89644E-06,   265.146E-06
C:/temp/dataset/2/16_5.odb,Step-1,Increment      1: Step Time =    1.000,"PART-1-1",           419,          -1.5,          -30.,            0.,NA,NA,"",            0.,  -620.248E-42,  -630.265E-42,   609.037E-06
C:/temp/dataset/2/16_5.odb,Step-1,Increment      1: Step Time =    1.000,"PART-1-1",           420,      -5.57419,      -22.4519,            0.,NA,NA,"",   1.24283E-03,   1.07422E-03,   625.041E-06,   303.810E-06
C:/temp/dataset/2/16_5.odb,Step-1,Increment      1: Step Time =    1.000,"PART-1-1",           421,      -6.77537,      -23.6376,            0.,NA,NA,"",   855.230E-06,   676.880E-06,   522.734E-06,   219.821E-06
C:/temp/dataset/2/16_5.odb,Step-1,Increment      1: Step Time =    1.000,"PART-1-1",           422,      -5.25528,      -24.9124,            0.,NA,NA,"",   560.859E-06,   204.276E-06,   522.335E-06,   280.600E-06
C:/temp/dataset/2/16_5.odb,Step-1,Increment      1: Step Time =    1.000,"PART-1-1",           423,      -4.05411,      -23.7268,            0.,NA,NA,"",   860.505E-06,   586.864E-06,   629.333E-06,   305.387E-06
C:/temp/dataset/2/16_5.odb,Step-1,Increment      1: Step Time =    1.000,"PART-1-1",           424,       13.4223,      -24.9720,            0.,NA,NA,"",   28.0193E-03,   14.7351E-03,  -23.8319E-03,   5.28864E-03
C:/temp/dataset/2/16_5.odb,Step-1,Increment      1: Step Time =    1.000,"PART-1-1",           425,           15.,        -26.25,            0.,NA,NA,"",   26.3377E-03,   15.5684E-03,  -21.2439E-03,   5.57145E-03
C:/temp/dataset/2/16_5.odb,Step-1,Increment      1: Step Time =    1.000,"PART-1-1",           426,       11.8021,      -23.6964,            0.,NA,NA,"",   30.2325E-03,   13.8274E-03,  -26.8850E-03,   5.19114E-03
C:/temp/dataset/2/16_5.odb,Step-1,Increment      1: Step Time =    1.000,"PART-1-1",           427,       10.1355,      -22.4445,            0.,NA,NA,"",   32.4565E-03,   13.0837E-03,  -29.7025E-03,   4.97231E-03
C:/temp/dataset/2/16_5.odb,Step-1,Increment      1: Step Time =    1.000,"PART-1-1",           428,      -2.31424,      -24.9364,            0.,NA,NA,"",   437.987E-06,  -285.587E-06,   332.074E-06,   343.732E-06
C:/temp/dataset/2/16_5.odb,Step-1,Increment      1: Step Time =    1.000,"PART-1-1",           429,      -3.63092,      -26.1962,            0.,NA,NA,"",   553.692E-06,  -450.802E-06,   321.485E-06,   281.270E-06
C:/temp/dataset/2/16_5.odb,Step-1,Increment      1: Step Time =    1.000,"PART-1-1",           430,  -604.096E-03,      -26.1796,            0.,NA,NA,"",   1.37434E-03,  -1.32484E-03,  -365.531E-06,   413.141E-06
C:/temp/dataset/2/16_5.odb,Step-1,Increment      1: Step Time =    1.000,"PART-1-1",           431,      -7.52977,      -11.9021,            0.,NA,NA,"",   1.31993E-03,   1.27952E-03,   324.104E-06,   3.46411E-06
C:/temp/dataset/2/16_5.odb,Step-1,Increment      1: Step Time =    1.000,"PART-1-1",           432,      -6.22373,      -12.8207,            0.,NA,NA,"",   1.29867E-03,   1.26209E-03,   306.052E-06,   2.94181E-06
C:/temp/dataset/2/16_5.odb,Step-1,Increment      1: Step Time =    1.000,"PART-1-1",           433,           -5.,        -11.25,            0.,NA,NA,"",   1.32256E-03,   1.29192E-03,   283.009E-06,   2.15657E-06
C:/temp/dataset/2/16_5.odb,Step-1,Increment      1: Step Time =    1.000,"PART-1-1",           434,      -10.0475,      -12.6788,            0.,NA,NA,"",   1.32172E-03,   1.27115E-03,   362.098E-06,   4.08836E-06
C:/temp/dataset/2/16_5.odb,Step-1,Increment      1: Step Time =    1.000,"PART-1-1",           435,           -5.,         -6.25,            0.,NA,NA,"",   1.41030E-03,   1.38198E-03,   281.207E-06,   30.7738E-09
C:/temp/dataset/2/16_5.odb,Step-1,Increment      1: Step Time =    1.000,"PART-1-1",           436,      -7.88282,      -7.02961,            0.,NA,NA,"",   1.40792E-03,   1.36832E-03,   331.576E-06,   352.935E-09
C:/temp/dataset/2/16_5.odb,Step-1,Increment      1: Step Time =    1.000,"PART-1-1",           437,      -13.8577,      -6.65334,            0.,NA,NA,"",   1.44318E-03,   1.37592E-03,   435.444E-06,   84.3743E-09
C:/temp/dataset/2/16_5.odb,Step-1,Increment      1: Step Time =    1.000,"PART-1-1",           438,      -12.5267,      -5.32641,            0.,NA,NA,"",   1.45820E-03,   1.39867E-03,   412.392E-06,   100.777E-09
C:/temp/dataset/2/16_5.odb,Step-1,Increment      1: Step Time =    1.000,"PART-1-1",           439,          -15.,      -5.20833,            0.,NA,NA,"",   1.47285E-03,   1.40076E-03,   455.153E-06,   41.2388E-09
C:/temp/dataset/2/16_5.odb,Step-1,Increment      1: Step Time =    1.000,"PART-1-1",           440,          1.25,           -5.,            0.,NA,NA,"",   1.41457E-03,   1.40401E-03,   172.534E-06,   1.32276E-09
C:/temp/dataset/2/16_5.odb,Step-1,Increment      1: Step Time =    1.000,"PART-1-1",           441,       2.47079,      -3.83474,            0.,NA,NA,"",   1.43231E-03,   1.42430E-03,   151.274E-06,   139.585E-12
C:/temp/dataset/2/16_5.odb,Step-1,Increment      1: Step Time =    1.000,"PART-1-1",           442,       3.51261,  -149.180E-03,            0.,NA,NA,"",   1.49443E-03,   1.48848E-03,   133.130E-06,   171.320E-12
C:/temp/dataset/2/16_5.odb,Step-1,Increment      1: Step Time =    1.000,"PART-1-1",           443,       3.69085,      -2.58237,            0.,NA,NA,"",   1.45194E-03,   1.44611E-03,   130.026E-06,   205.572E-12
C:/temp/dataset/2/16_5.odb,Step-1,Increment      1: Step Time =    1.000,"PART-1-1",           444,       8.74868,       5.55605,            0.,NA,NA,"",   1.58840E-03,   1.58785E-03,   41.9393E-06,   18.8451E-12
C:/temp/dataset/2/16_5.odb,Step-1,Increment      1: Step Time =    1.000,"PART-1-1",           445,       10.0030,       7.12352,            0.,NA,NA,"",   1.61527E-03,   1.61514E-03,   20.0933E-06,   5.78535E-12
C:/temp/dataset/2/16_5.odb,Step-1,Increment      1: Step Time =    1.000,"PART-1-1",           446,       8.73640,       8.21697,            0.,NA,NA,"",   1.63473E-03,   1.63419E-03,   42.1527E-06,   4.03667E-12
C:/temp/dataset/2/16_5.odb,Step-1,Increment      1: Step Time =    1.000,"PART-1-1",           447,           15.,     -625.E-03,            0.,NA,NA,"",   1.48171E-03,   1.48020E-03,  -66.9312E-06,   6.43678E-12
C:/temp/dataset/2/16_5.odb,Step-1,Increment      1: Step Time =    1.000,"PART-1-1",           448,       13.7714,   731.820E-03,            0.,NA,NA,"",   1.50452E-03,   1.50383E-03,  -45.5343E-06,   9.69902E-12
C:/temp/dataset/2/16_5.odb,Step-1,Increment      1: Step Time =    1.000,"PART-1-1",           449,       12.5339,  -774.506E-03,            0.,NA,NA,"",   1.47779E-03,   1.47759E-03,  -23.9826E-06,   9.98595E-12
C:/temp/dataset/2/16_5.odb,Step-1,Increment      1: Step Time =    1.000,"PART-1-1",           450,       7.40609,       11.8257,            0.,NA,NA,"",   1.69829E-03,   1.69704E-03,   65.3205E-06,   1.30381E-12
C:/temp/dataset/2/16_5.odb,Step-1,Increment      1: Step Time =    1.000,"PART-1-1",           451,       8.70206,       10.8725,            0.,NA,NA,"",   1.68098E-03,   1.68044E-03,   42.7505E-06,   1.25656E-12
C:/temp/dataset/2/16_5.odb,Step-1,Increment      1: Step Time =    1.000,"PART-1-1",           452,       11.2454,       8.75341,            0.,NA,NA,"",   1.64353E-03,   1.64353E-03,  -1.54287E-06,   1.40174E-12
C:/temp/dataset/2/16_5.odb,Step-1,Increment      1: Step Time =    1.000,"PART-1-1",           453,       11.2622,       5.99112,            0.,NA,NA,"",   1.59542E-03,   1.59542E-03,  -1.83530E-06,   7.53861E-12
C:/temp/dataset/2/16_5.odb,Step-1,Increment      1: Step Time =    1.000,"PART-1-1",           454,       13.8596,       24.3693,            0.,NA,NA,"",   1.91607E-03,   1.91549E-03,  -47.0736E-06,   3.80563E-15
C:/temp/dataset/2/16_5.odb,Step-1,Increment      1: Step Time =    1.000,"PART-1-1",           455,       12.6110,       23.1199,            0.,NA,NA,"",   1.89390E-03,   1.89373E-03,  -25.3288E-06,   1.37911E-15
C:/temp/dataset/2/16_5.odb,Step-1,Increment      1: Step Time =    1.000,"PART-1-1",           456,       13.7514,       21.4590,            0.,NA,NA,"",   1.86535E-03,   1.86481E-03,  -45.1899E-06,   4.25180E-15
C:/temp/dataset/2/16_5.odb,Step-1,Increment      1: Step Time =    1.000,"PART-1-1",           457,           15.,       22.7083,            0.,NA,NA,"",   1.88775E-03,   1.88656E-03,  -66.9347E-06,   8.25412E-15
C:/temp/dataset/2/16_5.odb,Step-1,Increment      1: Step Time =    1.000,"PART-1-1",           458,       8.83903,       17.2613,            0.,NA,NA,"",   1.79215E-03,   1.79170E-03,   40.3641E-06,   136.308E-15
C:/temp/dataset/2/16_5.odb,Step-1,Increment      1: Step Time =    1.000,"PART-1-1",           459,       10.5130,       17.3338,            0.,NA,NA,"",   1.79300E-03,   1.79296E-03,   11.2110E-06,   120.767E-15
C:/temp/dataset/2/16_5.odb,Step-1,Increment      1: Step Time =    1.000,"PART-1-1",           460,       8.72284,       19.1442,            0.,NA,NA,"",   1.82498E-03,   1.82449E-03,   42.3872E-06,   58.5125E-15
C:/temp/dataset/2/16_5.odb,Step-1,Increment      1: Step Time =    1.000,"PART-1-1",           461,           15.,       28.5417,            0.,NA,NA,"",   1.98928E-03,   1.98816E-03,  -66.9356E-06,   695.012E-18
C:/temp/dataset/2/16_5.odb,Step-1,Increment      1: Step Time =    1.000,"PART-1-1",           462,         13.75,           30.,            0.,NA,NA,"",   2.01406E-03,   2.01355E-03,  -45.1661E-06,   336.354E-18
C:/temp/dataset/2/16_5.odb,Step-1,Increment      1: Step Time =    1.000,"PART-1-1",           463,       12.5875,       28.6551,            0.,NA,NA,"",   1.99029E-03,   1.99013E-03,  -24.9202E-06,   1.74514E-15
C:/temp/dataset/2/16_5.odb,Step-1,Increment      1: Step Time =    1.000,"PART-1-1",           464,       13.8375,       27.1968,            0.,NA,NA,"",   1.96529E-03,   1.96473E-03,  -46.6897E-06,   1.78979E-15
C:/temp/dataset/2/16_5.odb,Step-1,Increment      1: Step Time =    1.000,"PART-1-1",           465,         11.25,           30.,            0.,NA,NA,"",   2.01356E-03,   2.01355E-03,  -1.62678E-06,   1.95206E-15
C:/temp/dataset/2/16_5.odb,Step-1,Increment      1: Step Time =    1.000,"PART-1-1",           466,       10.1484,       28.7335,            0.,NA,NA,"",   1.99157E-03,   1.99150E-03,   17.5592E-06,   1.94630E-15
C:/temp/dataset/2/16_5.odb,Step-1,Increment      1: Step Time =    1.000,"PART-1-1",           467,       7.69941,       28.7139,            0.,NA,NA,"",   1.99207E-03,   1.99116E-03,   60.2096E-06,   2.08659E-15
C:/temp/dataset/2/16_5.odb,Step-1,Increment      1: Step Time =    1.000,"PART-1-1",           468,       9.09777,       27.4473,            0.,NA,NA,"",   1.96942E-03,   1.96910E-03,   35.8562E-06,   1.30063E-15
C:/temp/dataset/2/16_5.odb,Step-1,Increment      1: Step Time =    1.000,"PART-1-1",           469,          8.75,           30.,            0.,NA,NA,"",   2.01399E-03,   2.01355E-03,   41.9126E-06,   2.98009E-15
C:/temp/dataset/2/16_5.odb,Step-1,Increment      1: Step Time =    1.000,"PART-1-1",           470,  -9.87333E-03,       28.6960,            0.,NA,NA,"",   2.00032E-03,   1.99085E-03,   194.472E-06,   289.432E-18
C:/temp/dataset/2/16_5.odb,Step-1,Increment      1: Step Time =    1.000,"PART-1-1",           471,          1.25,           30.,            0.,NA,NA,"",   2.02093E-03,   2.01356E-03,   172.531E-06,   344.084E-18
C:/temp/dataset/2/16_5.odb,Step-1,Increment      1: Step Time =    1.000,"PART-1-1",           472,       4.87954,       25.6434,            0.,NA,NA,"",   1.94076E-03,   1.93768E-03,   109.320E-06,   1.76474E-15
C:/temp/dataset/2/16_5.odb,Step-1,Increment      1: Step Time =    1.000,"PART-1-1",           473,      -5.00474,       28.7231,            0.,NA,NA,"",   2.01111E-03,   1.99132E-03,   281.462E-06,   190.336E-18
C:/temp/dataset/2/16_5.odb,Step-1,Increment      1: Step Time =    1.000,"PART-1-1",           474,         -6.25,           30.,            0.,NA,NA,"",   2.03625E-03,   2.01356E-03,   303.149E-06,   105.662E-18
C:/temp/dataset/2/16_5.odb,Step-1,Increment      1: Step Time =    1.000,"PART-1-1",           475,      -3.76303,       27.4393,            0.,NA,NA,"",   1.98603E-03,   1.96896E-03,   259.837E-06,   146.651E-18
C:/temp/dataset/2/16_5.odb,Step-1,Increment      1: Step Time =    1.000,"PART-1-1",           476,      -3.77322,       24.9147,            0.,NA,NA,"",   1.94247E-03,   1.92499E-03,   260.014E-06,   140.666E-18
C:/temp/dataset/2/16_5.odb,Step-1,Increment      1: Step Time =    1.000,"PART-1-1",           477,      -13.7476,       27.4926,            0.,NA,NA,"",   2.01707E-03,   1.96989E-03,   433.725E-06,   14.8256E-18
C:/temp/dataset/2/16_5.odb,Step-1,Increment      1: Step Time =    1.000,"PART-1-1",           478,        -13.75,           30.,            0.,NA,NA,"",   2.05975E-03,   2.01356E-03,   433.767E-06,   4.48438E-18
C:/temp/dataset/2/16_5.odb,Step-1,Increment      1: Step Time =    1.000,"PART-1-1",           479,          -15.,         28.75,            0.,NA,NA,"",   2.04322E-03,   1.99179E-03,   455.537E-06,   9.77131E-18
C:/temp/dataset/2/16_5.odb,Step-1,Increment      1: Step Time =    1.000,"PART-1-1",           480,          -15.,         26.25,            0.,NA,NA,"",   2.00080E-03,   1.94825E-03,   455.537E-06,   76.2394E-18
C:/temp/dataset/2/16_5.odb,Step-1,Increment      1: Step Time =    1.000,"PART-1-1",           481,      -12.4965,       26.2309,            0.,NA,NA,"",   1.99100E-03,   1.94792E-03,   411.937E-06,   74.0398E-18
C:/temp/dataset/2/16_5.odb,Step-1,Increment      1: Step Time =    1.000,"PART-1-1",           482,      -10.0014,       23.7134,            0.,NA,NA,"",   1.93940E-03,   1.90407E-03,   368.483E-06,   142.581E-18
C:/temp/dataset/2/16_5.odb,Step-1,Increment      1: Step Time =    1.000,"PART-1-1",           483,      -8.75535,       22.4567,            0.,NA,NA,"",   1.91386E-03,   1.88218E-03,   346.782E-06,   40.7140E-18
C:/temp/dataset/2/16_5.odb,Step-1,Increment      1: Step Time =    1.000,"PART-1-1",           484,      -7.50515,       23.6891,            0.,NA,NA,"",   1.93119E-03,   1.90365E-03,   325.009E-06,   106.995E-18
C:/temp/dataset/2/16_5.odb,Step-1,Increment      1: Step Time =    1.000,"PART-1-1",           485,      -8.75118,       24.9458,            0.,NA,NA,"",   1.95650E-03,   1.92554E-03,   346.709E-06,   96.7646E-18
C:/temp/dataset/2/16_5.odb,Step-1,Increment      1: Step Time =    1.000,"PART-1-1",           486,      -3.77419,       22.4219,            0.,NA,NA,"",   1.89946E-03,   1.88158E-03,   260.032E-06,   212.993E-18
C:/temp/dataset/2/16_5.odb,Step-1,Increment      1: Step Time =    1.000,"PART-1-1",           487,      -5.00723,       21.2173,            0.,NA,NA,"",   1.88178E-03,   1.86060E-03,   281.506E-06,   49.1113E-18
C:/temp/dataset/2/16_5.odb,Step-1,Increment      1: Step Time =    1.000,"PART-1-1",           488,         -3.75,           20.,            0.,NA,NA,"",   1.85763E-03,   1.83940E-03,   259.611E-06,   5.86532E-18
C:/temp/dataset/2/16_5.odb,Step-1,Increment      1: Step Time =    1.000,"PART-1-1",           489,      -2.51696,       21.2046,            0.,NA,NA,"",   1.87556E-03,   1.86038E-03,   238.136E-06,   81.3346E-18
C:/temp/dataset/2/16_5.odb,Step-1,Increment      1: Step Time =    1.000,"PART-1-1",           490,         -8.75,           20.,            0.,NA,NA,"",   1.87179E-03,   1.83940E-03,   346.690E-06,   155.243E-18
C:/temp/dataset/2/16_5.odb,Step-1,Increment      1: Step Time =    1.000,"PART-1-1",           491,      -7.50331,       21.2223,            0.,NA,NA,"",   1.88885E-03,   1.86069E-03,   324.977E-06,   99.0013E-18
C:/temp/dataset/2/16_5.odb,Step-1,Increment      1: Step Time =    1.000,"PART-1-1",           492,         -6.25,           20.,            0.,NA,NA,"",   1.86421E-03,   1.83940E-03,   303.150E-06,   27.2637E-18
C:/temp/dataset/2/16_5.odb,Step-1,Increment      1: Step Time =    1.000,"PART-1-1",           493,      -6.26054,       22.4396,            0.,NA,NA,"",   1.90618E-03,   1.88189E-03,   303.333E-06,   135.424E-18
C:/temp/dataset/2/16_5.odb,Step-1,Increment      1: Step Time =    1.000,"PART-1-1",           494,         -1.25,           20.,            0.,NA,NA,"",   1.85205E-03,   1.83940E-03,   216.072E-06,   163.025E-18
C:/temp/dataset/2/16_5.odb,Step-1,Increment      1: Step Time =    1.000,"PART-1-1",           495,      -1.30453,       22.3853,            0.,NA,NA,"",   1.89342E-03,   1.88094E-03,   217.021E-06,   195.621E-18
C:/temp/dataset/2/16_5.odb,Step-1,Increment      1: Step Time =    1.000,"PART-1-1",           496,         -1.25,           30.,            0.,NA,NA,"",   2.02512E-03,   2.01356E-03,   216.070E-06,   35.4110E-18
C:/temp/dataset/2/16_5.odb,Step-1,Increment      1: Step Time =    1.000,"PART-1-1",           497,      -2.50829,       28.7162,            0.,NA,NA,"",   2.00537E-03,   1.99120E-03,   237.984E-06,   221.651E-18
C:/temp/dataset/2/16_5.odb,Step-1,Increment      1: Step Time =    1.000,"PART-1-1",           498,         -3.75,           30.,            0.,NA,NA,"",   2.03022E-03,   2.01356E-03,   259.609E-06,   238.303E-18
C:/temp/dataset/2/16_5.odb,Step-1,Increment      1: Step Time =    1.000,"PART-1-1",           499,          3.75,           20.,            0.,NA,NA,"",   1.84392E-03,   1.83940E-03,   128.993E-06,   4.38316E-15
C:/temp/dataset/2/16_5.odb,Step-1,Increment      1: Step Time =    1.000,"PART-1-1",           500,       4.75388,       21.0765,            0.,NA,NA,"",   1.86149E-03,   1.85815E-03,   111.509E-06,   5.02069E-15
C:/temp/dataset/2/16_5.odb,Step-1,Increment      1: Step Time =    1.000,"PART-1-1",           501,          6.25,           30.,            0.,NA,NA,"",   2.01537E-03,   2.01356E-03,   85.4519E-06,   2.47079E-15
C:/temp/dataset/2/16_5.odb,Step-1,Increment      1: Step Time =    1.000,"PART-1-1",           502,       6.61296,       27.1492,            0.,NA,NA,"",   1.96550E-03,   1.96391E-03,   79.1311E-06,   1.51614E-15
C:/temp/dataset/2/16_5.odb,Step-1,Increment      1: Step Time =    1.000,"PART-1-1",           503,            5.,         16.25,            0.,NA,NA,"",   1.77733E-03,   1.77409E-03,   107.224E-06,   179.116E-15
C:/temp/dataset/2/16_5.odb,Step-1,Increment      1: Step Time =    1.000,"PART-1-1",           504,       6.03202,       15.2452,            0.,NA,NA,"",   1.75886E-03,   1.75659E-03,   89.2504E-06,   208.566E-15
C:/temp/dataset/2/16_5.odb,Step-1,Increment      1: Step Time =    1.000,"PART-1-1",           505,       6.91243,       16.6330,            0.,NA,NA,"",   1.78229E-03,   1.78076E-03,   73.9172E-06,   164.792E-15
C:/temp/dataset/2/16_5.odb,Step-1,Increment      1: Step Time =    1.000,"PART-1-1",           506,            5.,         13.75,            0.,NA,NA,"",   1.73387E-03,   1.73055E-03,   107.224E-06,   368.300E-15
C:/temp/dataset/2/16_5.odb,Step-1,Increment      1: Step Time =    1.000,"PART-1-1",           507,       6.17466,       12.7979,            0.,NA,NA,"",   1.71616E-03,   1.71397E-03,   86.7666E-06,   716.729E-15
C:/temp/dataset/2/16_5.odb,Step-1,Increment      1: Step Time =    1.000,"PART-1-1",           508,       12.0086,       16.5092,            0.,NA,NA,"",   1.77866E-03,   1.77860E-03,  -14.8355E-06,   208.759E-15
C:/temp/dataset/2/16_5.odb,Step-1,Increment      1: Step Time =    1.000,"PART-1-1",           509,           15.,        16.875,            0.,NA,NA,"",   1.78623E-03,   1.78497E-03,  -66.9338E-06,   104.366E-15
C:/temp/dataset/2/16_5.odb,Step-1,Increment      1: Step Time =    1.000,"PART-1-1",           510,       13.3591,       18.2744,            0.,NA,NA,"",   1.80975E-03,   1.80934E-03,  -38.3564E-06,   38.5946E-15
C:/temp/dataset/2/16_5.odb,Step-1,Increment      1: Step Time =    1.000,"PART-1-1",           511,            5.,         11.25,            0.,NA,NA,"",   1.69041E-03,   1.68701E-03,   107.224E-06,   2.41855E-12
C:/temp/dataset/2/16_5.odb,Step-1,Increment      1: Step Time =    1.000,"PART-1-1",           512,       6.23142,       10.2778,            0.,NA,NA,"",   1.67228E-03,   1.67008E-03,   85.7784E-06,   1.50727E-12
C:/temp/dataset/2/16_5.odb,Step-1,Increment      1: Step Time =    1.000,"PART-1-1",           513,            5.,          8.75,            0.,NA,NA,"",   1.64696E-03,   1.64347E-03,   107.225E-06,   3.40181E-12
C:/temp/dataset/2/16_5.odb,Step-1,Increment      1: Step Time =    1.000,"PART-1-1",           514,       7.47251,       9.25684,            0.,NA,NA,"",   1.65354E-03,   1.65230E-03,   64.1642E-06,   3.08659E-12
C:/temp/dataset/2/16_5.odb,Step-1,Increment      1: Step Time =    1.000,"PART-1-1",           515,         11.25,           -5.,            0.,NA,NA,"",   1.40400E-03,   1.40400E-03,  -1.62141E-06,   13.6429E-12
C:/temp/dataset/2/16_5.odb,Step-1,Increment      1: Step Time =    1.000,"PART-1-1",           516,       11.2689,      -2.22707,            0.,NA,NA,"",   1.45230E-03,   1.45230E-03,  -1.95064E-06,   20.8726E-12
C:/temp/dataset/2/16_5.odb,Step-1,Increment      1: Step Time =    1.000,"PART-1-1",           517,          10.5,          -30.,            0.,NA,NA,"",            0.,   453.704E-42,  -8.59605E-39,   3.63861E-03
C:/temp/dataset/2/16_5.odb,Step-1,Increment      1: Step Time =    1.000,"PART-1-1",           518,           15.,        -23.75,            0.,NA,NA,"",   38.9979E-03,   21.1225E-03,  -32.7822E-03,   5.16283E-03
C:/temp/dataset/2/16_5.odb,Step-1,Increment      1: Step Time =    1.000,"PART-1-1",           519,          3.75,           -5.,            0.,NA,NA,"",   1.40992E-03,   1.40401E-03,   128.997E-06,   298.770E-12
C:/temp/dataset/2/16_5.odb,Step-1,Increment      1: Step Time =    1.000,"PART-1-1",           520,       4.97006,      -3.74763,            0.,NA,NA,"",   1.42988E-03,   1.42582E-03,   107.748E-06,   136.235E-12
C:/temp/dataset/2/16_5.odb,Step-1,Increment      1: Step Time =    1.000,"PART-1-1",           521,       4.85412,       3.76356,            0.,NA,NA,"",   1.56049E-03,   1.55663E-03,   109.766E-06,   113.437E-12
C:/temp/dataset/2/16_5.odb,Step-1,Increment      1: Step Time =    1.000,"PART-1-1",           522,       3.33333,            5.,            0.,NA,NA,"",   1.58403E-03,   1.57816E-03,   136.252E-06,   218.206E-12
C:/temp/dataset/2/16_5.odb,Step-1,Increment      1: Step Time =    1.000,"PART-1-1",           523,       1.45296,       3.58740,            0.,NA,NA,"",   1.56273E-03,   1.55356E-03,   169.001E-06,   263.600E-12
C:/temp/dataset/2/16_5.odb,Step-1,Increment      1: Step Time =    1.000,"PART-1-1",           524,       2.97375,       2.35096,            0.,NA,NA,"",   1.53864E-03,   1.53203E-03,   142.515E-06,   161.103E-12
C:/temp/dataset/2/16_5.odb,Step-1,Increment      1: Step Time =    1.000,"PART-1-1",           525,          6.25,           -5.,            0.,NA,NA,"",   1.40660E-03,   1.40400E-03,   85.4573E-06,   164.838E-12
C:/temp/dataset/2/16_5.odb,Step-1,Increment      1: Step Time =    1.000,"PART-1-1",           526,       12.4696,       10.4445,            0.,NA,NA,"",   1.67314E-03,   1.67298E-03,  -22.8633E-06,   495.495E-15
C:/temp/dataset/2/16_5.odb,Step-1,Increment      1: Step Time =    1.000,"PART-1-1",           527,           15.,       11.0417,            0.,NA,NA,"",   1.68471E-03,   1.68338E-03,  -66.9329E-06,   1.25812E-12
C:/temp/dataset/2/16_5.odb,Step-1,Increment      1: Step Time =    1.000,"PART-1-1",           528,      -5.01382,       23.6808,            0.,NA,NA,"",   1.92422E-03,   1.90350E-03,   281.621E-06,   126.869E-18
C:/temp/dataset/2/16_5.odb,Step-1,Increment      1: Step Time =    1.000,"PART-1-1",           529,      -2.53358,       23.6558,            0.,NA,NA,"",   1.91794E-03,   1.90307E-03,   238.426E-06,   82.4742E-18
C:/temp/dataset/2/16_5.odb,Step-1,Increment      1: Step Time =    1.000,"PART-1-1",           530,  -74.6816E-03,       23.6075,            0.,NA,NA,"",   1.91226E-03,   1.90223E-03,   195.602E-06,   389.250E-18
C:/temp/dataset/2/16_5.odb,Step-1,Increment      1: Step Time =    1.000,"PART-1-1",           531,      -6.62798,      -1.45964,            0.,NA,NA,"",   1.49808E-03,   1.46570E-03,   309.764E-06,   17.6499E-09
C:/temp/dataset/2/16_5.odb,Step-1,Increment      1: Step Time =    1.000,"PART-1-1",           532,      -4.43070,      -2.38075,            0.,NA,NA,"",   1.47484E-03,   1.44964E-03,   271.457E-06,   16.4821E-09
C:/temp/dataset/2/16_5.odb,Step-1,Increment      1: Step Time =    1.000,"PART-1-1",           533,      -3.64554,  -813.143E-03,            0.,NA,NA,"",   1.49926E-03,   1.47693E-03,   257.795E-06,   8.71240E-09
C:/temp/dataset/2/16_5.odb,Step-1,Increment      1: Step Time =    1.000,"PART-1-1",           534,         -3.75,           -5.,            0.,NA,NA,"",   1.42779E-03,   1.40399E-03,   259.587E-06,   24.8606E-09
C:/temp/dataset/2/16_5.odb,Step-1,Increment      1: Step Time =    1.000,"PART-1-1",           535,      -13.8599,      -9.43096,            0.,NA,NA,"",   1.39878E-03,   1.32914E-03,   435.874E-06,   557.234E-09
C:/temp/dataset/2/16_5.odb,Step-1,Increment      1: Step Time =    1.000,"PART-1-1",           536,          -15.,      -11.0417,            0.,NA,NA,"",   1.37990E-03,   1.30215E-03,   456.652E-06,   1.58482E-06
C:/temp/dataset/2/16_5.odb,Step-1,Increment      1: Step Time =    1.000,"PART-1-1",           537,      -11.9984,      -19.8095,            0.,NA,NA,"",   1.14014E-03,   1.06938E-03,   395.396E-06,   24.4443E-06
C:/temp/dataset/2/16_5.odb,Step-1,Increment      1: Step Time =    1.000,"PART-1-1",           538,      -13.3881,      -18.2324,            0.,NA,NA,"",   1.22757E-03,   1.14485E-03,   443.011E-06,   7.02866E-06
C:/temp/dataset/2/16_5.odb,Step-1,Increment      1: Step Time =    1.000,"PART-1-1",           539,          -15.,      -19.7917,            0.,NA,NA,"",   1.18394E-03,   1.05938E-03,   528.606E-06,   7.83461E-06
C:/temp/dataset/2/16_5.odb,Step-1,Increment      1: Step Time =    1.000,"PART-1-1",           540,           -5.,        -18.75,            0.,NA,NA,"",   1.32017E-03,   1.26231E-03,   386.546E-06,   69.0393E-06
C:/temp/dataset/2/16_5.odb,Step-1,Increment      1: Step Time =    1.000,"PART-1-1",           541,      -5.96138,      -20.0094,            0.,NA,NA,"",   1.45305E-03,   1.40590E-03,   367.165E-06,   191.958E-06
C:/temp/dataset/2/16_5.odb,Step-1,Increment      1: Step Time =    1.000,"PART-1-1",           542,           -5.,        -13.75,            0.,NA,NA,"",   1.28075E-03,   1.24718E-03,   291.332E-06,   8.84198E-06
C:/temp/dataset/2/16_5.odb,Step-1,Increment      1: Step Time =    1.000,"PART-1-1",           543,      -7.28958,      -14.3036,            0.,NA,NA,"",   1.27627E-03,   1.23587E-03,   318.574E-06,   6.63801E-06
C:/temp/dataset/2/16_5.odb,Step-1,Increment      1: Step Time =    1.000,"PART-1-1",           544,      -8.88285,      -11.0213,            0.,NA,NA,"",   1.34313E-03,   1.29771E-03,   346.329E-06,   2.03659E-06
C:/temp/dataset/2/16_5.odb,Step-1,Increment      1: Step Time =    1.000,"PART-1-1",           545,      -9.01222,      -8.51542,            0.,NA,NA,"",   1.38749E-03,   1.34244E-03,   350.672E-06,   629.930E-09
C:/temp/dataset/2/16_5.odb,Step-1,Increment      1: Step Time =    1.000,"PART-1-1",           546,      -9.13424,  -715.290E-03,            0.,NA,NA,"",   1.52030E-03,   1.47866E-03,   353.416E-06,   13.0720E-09
C:/temp/dataset/2/16_5.odb,Step-1,Increment      1: Step Time =    1.000,"PART-1-1",           547,      -9.92186,      -2.42350,            0.,NA,NA,"",   1.49473E-03,   1.44894E-03,   367.142E-06,   17.7166E-09
C:/temp/dataset/2/16_5.odb,Step-1,Increment      1: Step Time =    1.000,"PART-1-1",           548,      -12.7176,      -7.95930,            0.,NA,NA,"",   1.41606E-03,   1.35368E-03,   415.657E-06,   544.168E-09
C:/temp/dataset/2/16_5.odb,Step-1,Increment      1: Step Time =    1.000,"PART-1-1",           549,          -15.,        -8.125,            0.,NA,NA,"",   1.42550E-03,   1.35090E-03,   455.103E-06,   242.464E-09
C:/temp/dataset/2/16_5.odb,Step-1,Increment      1: Step Time =    1.000,"PART-1-1",           550,       11.2818,   528.104E-03,            0.,NA,NA,"",   1.50028E-03,   1.50028E-03,  -2.17546E-06,   19.5548E-12
C:/temp/dataset/2/16_5.odb,Step-1,Increment      1: Step Time =    1.000,"PART-1-1",           551,       10.0167,  -924.457E-03,            0.,NA,NA,"",   1.47512E-03,   1.47498E-03,   19.8565E-06,   25.5369E-12
C:/temp/dataset/2/16_5.odb,Step-1,Increment      1: Step Time =    1.000,"PART-1-1",           552,       10.4320,       23.7699,            0.,NA,NA,"",   1.90509E-03,   1.90505E-03,   12.6199E-06,   3.91667E-15
C:/temp/dataset/2/16_5.odb,Step-1,Increment      1: Step Time =    1.000,"PART-1-1",           553,           15.,        25.625,            0.,NA,NA,"",   1.93852E-03,   1.93736E-03,  -66.9352E-06,   3.35116E-15
C:/temp/dataset/2/16_5.odb,Step-1,Increment      1: Step Time =    1.000,"PART-1-1",           554,      -9.99539,       26.2124,            0.,NA,NA,"",   1.98213E-03,   1.94759E-03,   368.378E-06,   65.2268E-18
C:/temp/dataset/2/16_5.odb,Step-1,Increment      1: Step Time =    1.000,"PART-1-1",           555,          -15.,       -25.625,            0.,NA,NA,"",   689.238E-06,   532.736E-06,   437.311E-06,   65.2523E-06
C:/temp/dataset/2/16_5.odb,Step-1,Increment      1: Step Time =    1.000,"PART-1-1",           556,      -12.2044,      -25.8339,            0.,NA,NA,"",   493.039E-06,   424.155E-06,   251.355E-06,   91.2888E-06
C:/temp/dataset/2/16_5.odb,Step-1,Increment      1: Step Time =    1.000,"PART-1-1",           557,          -15.,       -16.875,            0.,NA,NA,"",   1.28373E-03,   1.18624E-03,   490.702E-06,   11.3488E-06
C:/temp/dataset/2/16_5.odb,Step-1,Increment      1: Step Time =    1.000,"PART-1-1",           558,      -8.25880,      -15.9015,            0.,NA,NA,"",   1.25518E-03,   1.21326E-03,   321.695E-06,   6.37907E-06
C:/temp/dataset/2/16_5.odb,Step-1,Increment      1: Step Time =    1.000,"PART-1-1",           559,       7.56555,       17.9230,            0.,NA,NA,"",   1.80431E-03,   1.80322E-03,   62.5425E-06,   77.5315E-15
C:/temp/dataset/2/16_5.odb,Step-1,Increment      1: Step Time =    1.000,"PART-1-1",           560,      -9.72707,       2.21069,            0.,NA,NA,"",   1.57221E-03,   1.52957E-03,   363.705E-06,   8.28848E-09
C:/temp/dataset/2/16_5.odb,Step-1,Increment      1: Step Time =    1.000,"PART-1-1",           561,      -8.18006,       3.69884,            0.,NA,NA,"",   1.59152E-03,   1.55548E-03,   336.776E-06,   9.73083E-09
C:/temp/dataset/2/16_5.odb,Step-1,Increment      1: Step Time =    1.000,"PART-1-1",           562,          -10.,            5.,            0.,NA,NA,"",   1.62054E-03,   1.57810E-03,   368.440E-06,   10.6601E-09
C:/temp/dataset/2/16_5.odb,Step-1,Increment      1: Step Time =    1.000,"PART-1-1",           563,      -10.3433,      -7.69771,            0.,NA,NA,"",   1.40799E-03,   1.35739E-03,   374.071E-06,   559.744E-09
C:/temp/dataset/2/16_5.odb,Step-1,Increment      1: Step Time =    1.000,"PART-1-1",           564,      -11.5611,      -6.59494,            0.,NA,NA,"",   1.43244E-03,   1.37675E-03,   395.550E-06,   203.905E-09
C:/temp/dataset/2/16_5.odb,Step-1,Increment      1: Step Time =    1.000,"PART-1-1",           565,      -9.40089,      -20.7816,            0.,NA,NA,"",   1.11545E-03,   1.05334E-03,   367.027E-06,   69.7635E-06
C:/temp/dataset/2/16_5.odb,Step-1,Increment      1: Step Time =    1.000,"PART-1-1",           566,      -8.21757,      -22.2064,            0.,NA,NA,"",   1.03618E-03,   943.981E-06,   427.283E-06,   159.002E-06
C:/temp/dataset/2/16_5.odb,Step-1,Increment      1: Step Time =    1.000,"PART-1-1",           567,      -6.89894,      -21.2078,            0.,NA,NA,"",   1.27328E-03,   1.19192E-03,   447.865E-06,   167.785E-06
C:/temp/dataset/2/16_5.odb,Step-1,Increment      1: Step Time =    1.000,"PART-1-1",           568,      -9.14285,      -28.6800,            0.,NA,NA,"",   79.4049E-06,   41.5324E-06,   67.6772E-06,   75.5718E-06
C:/temp/dataset/2/16_5.odb,Step-1,Increment      1: Step Time =    1.000,"PART-1-1",           569,      -10.7232,      -27.3047,            0.,NA,NA,"",   254.568E-06,   206.691E-06,   148.607E-06,   104.743E-06
C:/temp/dataset/2/16_5.odb,Step-1,Increment      1: Step Time =    1.000,"PART-1-1",           570,         -10.5,          -30.,            0.,NA,NA,"",            0.,   38.5259E-42,   126.680E-42,   58.8034E-06
C:/temp/dataset/2/16_5.odb,Step-1,Increment      1: Step Time =    1.000,"PART-1-1",           571,      -4.89633,      -27.4366,            0.,NA,NA,"",   384.415E-06,  -333.853E-06,   190.571E-06,   230.525E-06
C:/temp/dataset/2/16_5.odb,Step-1,Increment      1: Step Time =    1.000,"PART-1-1",           572,      -6.18287,      -28.7136,            0.,NA,NA,"",   145.954E-06,  -130.408E-06,   65.5479E-06,   105.123E-06
C:/temp/dataset/2/16_5.odb,Step-1,Increment      1: Step Time =    1.000,"PART-1-1",           573,          -4.5,          -30.,            0.,NA,NA,"",            0.,  -233.309E-42,  -81.1828E-42,   227.988E-06
C:/temp/dataset/2/16_5.odb,Step-1,Increment      1: Step Time =    1.000,"PART-1-1",           574,       12.5384,       2.02620,            0.,NA,NA,"",   1.52656E-03,   1.52637E-03,  -24.0607E-06,   9.08559E-12
C:/temp/dataset/2/16_5.odb,Step-1,Increment      1: Step Time =    1.000,"PART-1-1",           575,           15.,       2.29167,            0.,NA,NA,"",   1.53245E-03,   1.53099E-03,  -66.9316E-06,   6.90936E-12
C:/temp/dataset/2/16_5.odb,Step-1,Increment      1: Step Time =    1.000,"PART-1-1",           576,       9.96595,       9.83263,            0.,NA,NA,"",   1.66245E-03,   1.66232E-03,   20.7390E-06,   1.18809E-12
C:/temp/dataset/2/16_5.odb,Step-1,Increment      1: Step Time =    1.000,"PART-1-1",           577,           15.,       19.7917,            0.,NA,NA,"",   1.83699E-03,   1.83577E-03,  -66.9343E-06,   12.3068E-15
C:/temp/dataset/2/16_5.odb,Step-1,Increment      1: Step Time =    1.000,"PART-1-1",           578,       7.90800,       20.1372,            0.,NA,NA,"",   1.84266E-03,   1.84179E-03,   56.5781E-06,   16.9878E-15
C:/temp/dataset/2/16_5.odb,Step-1,Increment      1: Step Time =    1.000,"PART-1-1",           579,       8.41916,       21.3934,            0.,NA,NA,"",   1.86427E-03,   1.86366E-03,   47.6758E-06,   12.7698E-15
C:/temp/dataset/2/16_5.odb,Step-1,Increment      1: Step Time =    1.000,"PART-1-1",           580,       6.50486,       21.1025,            0.,NA,NA,"",   1.86036E-03,   1.85860E-03,   81.0147E-06,   6.28524E-15
C:/temp/dataset/2/16_5.odb,Step-1,Increment      1: Step Time =    1.000,"PART-1-1",           581,           4.5,          -30.,            0.,NA,NA,"",            0.,  -1.22825E-39,  -3.98473E-39,   1.97904E-03
C:/temp/dataset/2/16_5.odb,Step-1,Increment      1: Step Time =    1.000,"PART-1-1",           582,       3.62857,      -22.4261,            0.,NA,NA,"",   8.72411E-03,   2.24161E-03,  -8.43121E-03,   1.56096E-03
C:/temp/dataset/2/16_5.odb,Step-1,Increment      1: Step Time =    1.000,"PART-1-1",           583,       2.16864,      -23.6665,            0.,NA,NA,"",   3.53355E-03,  -19.9344E-06,  -3.53349E-03,   551.537E-06
C:/temp/dataset/2/16_5.odb,Step-1,Increment      1: Step Time =    1.000,"PART-1-1",           584,      -2.73954,      -22.4743,            0.,NA,NA,"",   1.47184E-03,   1.36872E-03,   541.234E-06,   399.289E-06
C:/temp/dataset/2/16_5.odb,Step-1,Increment      1: Step Time =    1.000,"PART-1-1",           585,  -999.676E-03,      -23.6839,            0.,NA,NA,"",   400.856E-06,   400.829E-06,   4.70555E-06,   321.424E-06
C:/temp/dataset/2/16_5.odb,Step-1,Increment      1: Step Time =    1.000,"PART-1-1",           586,      -7.82572,      -27.3936,            0.,NA,NA,"",   181.483E-06,   38.8247E-06,   177.281E-06,   139.620E-06
C:/temp/dataset/2/16_5.odb,Step-1,Increment      1: Step Time =    1.000,"PART-1-1",           587,      -6.52069,      -26.1528,            0.,NA,NA,"",   342.497E-06,   57.7326E-06,   337.597E-06,   192.420E-06
C:/temp/dataset/2/16_5.odb,Step-1,Increment      1: Step Time =    1.000,"PART-1-1",           588,      -8.08310,      -24.7829,            0.,NA,NA,"",   588.839E-06,   443.906E-06,   386.882E-06,   185.418E-06
C:/temp/dataset/2/16_5.odb,Step-1,Increment      1: Step Time =    1.000,"PART-1-1",           589,      -9.38814,      -26.0237,            0.,NA,NA,"",   393.108E-06,   300.885E-06,   252.987E-06,   126.851E-06
C:/temp/dataset/2/16_5.odb,Step-1,Increment      1: Step Time =    1.000,"PART-1-1",           590,          -7.5,          -30.,            0.,NA,NA,"",            0.,  -34.5042E-42,   81.1646E-42,   60.3991E-06
C:/temp/dataset/2/16_5.odb,Step-1,Increment      1: Step Time =    1.000,"PART-1-1",           591,       7.73182,       24.8866,            0.,NA,NA,"",   1.92542E-03,   1.92450E-03,   59.6458E-06,   1.76248E-15
C:/temp/dataset/2/16_5.odb,Step-1,Increment      1: Step Time =    1.000,"PART-1-1",           592,       8.21760,       26.2797,            0.,NA,NA,"",   1.94944E-03,   1.94876E-03,   51.1852E-06,   1.43817E-15
C:/temp/dataset/2/16_5.odb,Step-1,Increment      1: Step Time =    1.000,"PART-1-1",           593,       6.12718,       25.7561,            0.,NA,NA,"",   1.94162E-03,   1.93964E-03,   87.5916E-06,   1.98987E-15
C:/temp/dataset/2/16_5.odb,Step-1,Increment      1: Step Time =    1.000,"PART-1-1",           594,       5.38844,       22.1508,            0.,NA,NA,"",   1.87954E-03,   1.87686E-03,   100.458E-06,   4.05594E-15
C:/temp/dataset/2/16_5.odb,Step-1,Increment      1: Step Time =    1.000,"PART-1-1",           595,      -3.37677,   775.412E-03,            0.,NA,NA,"",   1.52574E-03,   1.50460E-03,   253.121E-06,   6.97174E-09
C:/temp/dataset/2/16_5.odb,Step-1,Increment      1: Step Time =    1.000,"PART-1-1",           596,      -3.41233,       2.84116,            0.,NA,NA,"",   1.56132E-03,   1.54056E-03,   253.745E-06,   4.99993E-09
C:/temp/dataset/2/16_5.odb,Step-1,Increment      1: Step Time =    1.000,"PART-1-1",           597,      -11.2482,       24.9673,            0.,NA,NA,"",   1.96504E-03,   1.92591E-03,   390.197E-06,   136.288E-18
C:/temp/dataset/2/16_5.odb,Step-1,Increment      1: Step Time =    1.000,"PART-1-1",           598,       5.16292,       24.1270,            0.,NA,NA,"",   1.91412E-03,   1.91127E-03,   104.385E-06,   2.77236E-15
C:/temp/dataset/2/16_5.odb,Step-1,Increment      1: Step Time =    1.000,"PART-1-1",           599,            0.,            5.,            0.,NA,NA,"",   1.59008E-03,   1.57816E-03,   194.307E-06,   261.988E-12
C:/temp/dataset/2/16_5.odb,Step-1,Increment      1: Step Time =    1.000,"PART-1-1",           600,      -1.80204,       3.95011,            0.,NA,NA,"",   1.57612E-03,   1.55988E-03,   225.695E-06,   1.50668E-09
C:/temp/dataset/2/16_5.odb,Step-1,Increment      1: Step Time =    1.000,"PART-1-1",           601,       9.59799,       22.9228,            0.,NA,NA,"",   1.89050E-03,   1.89030E-03,   27.1452E-06,   4.04566E-15
C:/temp/dataset/2/16_5.odb,Step-1,Increment      1: Step Time =    1.000,"PART-1-1",           602,       8.30932,       22.9391,            0.,NA,NA,"",   1.89123E-03,   1.89058E-03,   49.5885E-06,   3.82913E-15
C:/temp/dataset/2/16_5.odb,Step-1,Increment      1: Step Time =    1.000,"PART-1-1",           603,      -1.93269,      -1.01257,            0.,NA,NA,"",   1.49098E-03,   1.47345E-03,   227.963E-06,   4.94792E-09
C:/temp/dataset/2/16_5.odb,Step-1,Increment      1: Step Time =    1.000,"PART-1-1",           604,      -8.69440,      -13.5596,            0.,NA,NA,"",   1.29660E-03,   1.25203E-03,   337.049E-06,   4.57100E-06
C:/temp/dataset/2/16_5.odb,Step-1,Increment      1: Step Time =    1.000,"PART-1-1",           605,       6.07991,       2.65614,            0.,NA,NA,"",   1.53988E-03,   1.53734E-03,   88.4182E-06,   98.1275E-12
C:/temp/dataset/2/16_5.odb,Step-1,Increment      1: Step Time =    1.000,"PART-1-1",           606,       4.75906,       1.28045,            0.,NA,NA,"",   1.51748E-03,   1.51338E-03,   111.422E-06,   119.462E-12
C:/temp/dataset/2/16_5.odb,Step-1,Increment      1: Step Time =    1.000,"PART-1-1",           607,       10.0234,       4.43547,            0.,NA,NA,"",   1.56845E-03,   1.56833E-03,   19.7386E-06,   15.9464E-12
C:/temp/dataset/2/16_5.odb,Step-1,Increment      1: Step Time =    1.000,"PART-1-1",           608,       7.46673,       4.06304,            0.,NA,NA,"",   1.56317E-03,   1.56184E-03,   64.2656E-06,   42.6267E-12
C:/temp/dataset/2/16_5.odb,Step-1,Increment      1: Step Time =    1.000,"PART-1-1",           609,  -317.165E-03,  -486.862E-03,            0.,NA,NA,"",   1.49601E-03,   1.48261E-03,   199.828E-06,   2.13111E-09
C:/temp/dataset/2/16_5.odb,Step-1,Increment      1: Step Time =    1.000,"PART-1-1",           610,       1.72730,   921.331E-03,            0.,NA,NA,"",   1.51605E-03,   1.50713E-03,   164.223E-06,   373.362E-12
C:/temp/dataset/2/16_5.odb,Step-1,Increment      1: Step Time =    1.000,"PART-1-1",           611,      -4.63664,      -21.2535,            0.,NA,NA,"",   1.71984E-03,   1.60588E-03,   615.611E-06,   296.046E-06
C:/temp/dataset/2/16_5.odb,Step-1,Increment      1: Step Time =    1.000,"PART-1-1",           612,       11.2827,       3.26092,            0.,NA,NA,"",   1.54787E-03,   1.54787E-03,  -2.19218E-06,   16.2007E-12
C:/temp/dataset/2/16_5.odb,Step-1,Increment      1: Step Time =    1.000,"PART-1-1",           613,      -11.4502,      -4.36864,            0.,NA,NA,"",   1.46893E-03,   1.41518E-03,   393.713E-06,   38.9636E-09
C:/temp/dataset/2/16_5.odb,Step-1,Increment      1: Step Time =    1.000,"PART-1-1",           614,      -10.8693,      -24.5529,            0.,NA,NA,"",   637.378E-06,   557.945E-06,   308.137E-06,   112.172E-06
C:/temp/dataset/2/16_5.odb,Step-1,Increment      1: Step Time =    1.000,"PART-1-1",           615,      -9.52531,      -23.3517,            0.,NA,NA,"",   814.577E-06,   723.896E-06,   373.511E-06,   118.066E-06
C:/temp/dataset/2/16_5.odb,Step-1,Increment      1: Step Time =    1.000,"PART-1-1",           616,      -10.8903,      -21.7518,            0.,NA,NA,"",   991.288E-06,   919.282E-06,   370.909E-06,   72.6712E-06
C:/temp/dataset/2/16_5.odb,Step-1,Increment      1: Step Time =    1.000,"PART-1-1",           617,       3.33333,          -20.,            0.,NA,NA,"",   13.0187E-03,   10.1796E-03,  -8.11557E-03,   1.61361E-03
C:/temp/dataset/2/16_5.odb,Step-1,Increment      1: Step Time =    1.000,"PART-1-1",           618,       1.83446,      -21.2108,            0.,NA,NA,"",   6.00016E-03,   4.86941E-03,  -3.50582E-03,   905.797E-06
C:/temp/dataset/2/16_5.odb,Step-1,Increment      1: Step Time =    1.000,"PART-1-1",           619,       5.12744,      -21.2153,            0.,NA,NA,"",   18.7651E-03,   6.44200E-03,  -17.6246E-03,   3.28672E-03
C:/temp/dataset/2/16_5.odb,Step-1,Increment      1: Step Time =    1.000,"PART-1-1",           620,            0.,          -20.,            0.,NA,NA,"",   5.17615E-03,   4.95018E-03,  -1.51271E-03,   1.22401E-03
C:/temp/dataset/2/16_5.odb,Step-1,Increment      1: Step Time =    1.000,"PART-1-1",           621,      -1.43624,      -21.2208,            0.,NA,NA,"",   2.72958E-03,   2.72900E-03,  -56.4162E-06,   591.186E-06
C:/temp/dataset/2/16_5.odb,Step-1,Increment      1: Step Time =    1.000,"PART-1-1",           622,   398.228E-03,      -22.4316,            0.,NA,NA,"",   2.20428E-03,   1.90489E-03,  -1.10915E-03,   377.039E-06
C:/temp/dataset/2/16_5.odb,Step-1,Increment      1: Step Time =    1.000,"PART-1-1",           623,   770.736E-03,      -24.9188,            0.,NA,NA,"",   1.70953E-03,  -1.08124E-03,  -1.32416E-03,   483.405E-06
C:/temp/dataset/2/16_5.odb,Step-1,Increment      1: Step Time =    1.000,"PART-1-1",           624,      -3.33333,          -20.,            0.,NA,NA,"",   2.41493E-03,   2.39989E-03,   269.122E-06,   636.378E-06
C:/temp/dataset/2/16_5.odb,Step-1,Increment      1: Step Time =    1.000,"PART-1-1",           625,       8.69606,       24.2205,            0.,NA,NA,"",   1.91338E-03,   1.91290E-03,   42.8529E-06,   2.45356E-15
C:/temp/dataset/2/16_5.odb,Step-1,Increment      1: Step Time =    1.000,"PART-1-1",           626,      -3.33333,            5.,            0.,NA,NA,"",   1.59821E-03,   1.57816E-03,   252.367E-06,   3.64285E-09
C:/temp/dataset/2/16_5.odb,Step-1,Increment      1: Step Time =    1.000,"PART-1-1",           627,      -4.94363,       3.89105,            0.,NA,NA,"",   1.58386E-03,   1.55884E-03,   280.418E-06,   6.12541E-09
C:/temp/dataset/2/16_5.odb,Step-1,Increment      1: Step Time =    1.000,"PART-1-1",           628,      -6.66667,            5.,            0.,NA,NA,"",   1.60838E-03,   1.57814E-03,   310.422E-06,   10.2570E-09
C:/temp/dataset/2/16_5.odb,Step-1,Increment      1: Step Time =    1.000,"PART-1-1",           629,           10.,          -20.,            0.,NA,NA,"",   44.1349E-03,   18.5244E-03,  -40.0591E-03,   4.70704E-03
C:/temp/dataset/2/16_5.odb,Step-1,Increment      1: Step Time =    1.000,"PART-1-1",           630,       8.42239,      -21.2201,            0.,NA,NA,"",   34.0704E-03,   12.9967E-03,  -31.4941E-03,   4.97156E-03
C:/temp/dataset/2/16_5.odb,Step-1,Increment      1: Step Time =    1.000,"PART-1-1",           631,       6.66667,          -20.,            0.,NA,NA,"",   34.6256E-03,   14.5915E-03,  -31.4009E-03,   4.34837E-03
C:/temp/dataset/2/16_5.odb,Step-1,Increment      1: Step Time =    1.000,"PART-1-1",           632,       9.53008,       25.0675,            0.,NA,NA,"",   1.92786E-03,   1.92765E-03,   28.3276E-06,   2.02507E-15
