ODB Name,Step,Frame,Part Instance Name,    êﬂì_ÉâÉxÉã,X,Y,Z,Section Name,Material Name,Section Point,   U-Magnitude,          U-U1,          U-U2,       S-Mises
C:/temp/dataset/2/17_7.odb,Step-1,Increment      1: Step Time =    1.000,"PART-1-1",             1,          -15.,           20.,            0.,NA,NA,"",   40.8898E-03,  -40.7160E-03,  -3.76575E-03,   11.7644E-15
C:/temp/dataset/2/17_7.odb,Step-1,Increment      1: Step Time =    1.000,"PART-1-1",             2,          -15.,           25.,            0.,NA,NA,"",   44.0990E-03,  -43.9378E-03,  -3.76679E-03,   11.3623E-15
C:/temp/dataset/2/17_7.odb,Step-1,Increment      1: Step Time =    1.000,"PART-1-1",             3,          -10.,           20.,            0.,NA,NA,"",   40.7207E-03,  -40.7171E-03,  -543.953E-06,   11.2508E-15
C:/temp/dataset/2/17_7.odb,Step-1,Increment      1: Step Time =    1.000,"PART-1-1",             4,           -5.,           20.,            0.,NA,NA,"",   40.8061E-03,  -40.7181E-03,   2.67785E-03,   11.3646E-15
C:/temp/dataset/2/17_7.odb,Step-1,Increment      1: Step Time =    1.000,"PART-1-1",             5,            0.,           20.,            0.,NA,NA,"",   41.1443E-03,  -40.7192E-03,   5.89965E-03,   11.7179E-15
C:/temp/dataset/2/17_7.odb,Step-1,Increment      1: Step Time =    1.000,"PART-1-1",             6,            5.,           20.,            0.,NA,NA,"",   41.7293E-03,  -40.7202E-03,   9.12145E-03,   100.743E-15
C:/temp/dataset/2/17_7.odb,Step-1,Increment      1: Step Time =    1.000,"PART-1-1",             7,            5.,          12.5,            0.,NA,NA,"",   37.0289E-03,  -35.8875E-03,   9.12301E-03,   4.85183E-12
C:/temp/dataset/2/17_7.odb,Step-1,Increment      1: Step Time =    1.000,"PART-1-1",             8,            5.,            5.,            0.,NA,NA,"",   32.3675E-03,  -31.0548E-03,   9.12457E-03,   759.013E-12
C:/temp/dataset/2/17_7.odb,Step-1,Increment      1: Step Time =    1.000,"PART-1-1",             9,           -5.,            5.,            0.,NA,NA,"",   31.1682E-03,  -31.0527E-03,   2.68089E-03,   26.0149E-09
C:/temp/dataset/2/17_7.odb,Step-1,Increment      1: Step Time =    1.000,"PART-1-1",            10,          -15.,            5.,            0.,NA,NA,"",   31.2774E-03,  -31.0503E-03,  -3.76228E-03,   7.05886E-09
C:/temp/dataset/2/17_7.odb,Step-1,Increment      1: Step Time =    1.000,"PART-1-1",            11,          -15.,         -3.75,            0.,NA,NA,"",   25.6896E-03,  -25.4130E-03,  -3.75970E-03,   345.268E-09
C:/temp/dataset/2/17_7.odb,Step-1,Increment      1: Step Time =    1.000,"PART-1-1",            12,          -15.,         -12.5,            0.,NA,NA,"",   20.1559E-03,  -19.8001E-03,  -3.77063E-03,   10.5981E-06
C:/temp/dataset/2/17_7.odb,Step-1,Increment      1: Step Time =    1.000,"PART-1-1",            13,          -15.,        -21.25,            0.,NA,NA,"",   14.1129E-03,  -13.4277E-03,  -4.34412E-03,   97.8718E-06
C:/temp/dataset/2/17_7.odb,Step-1,Increment      1: Step Time =    1.000,"PART-1-1",            14,          -15.,          -30.,            0.,NA,NA,"",            0.,  -894.383E-42,  -1.43747E-39,   2.30842E-03
C:/temp/dataset/2/17_7.odb,Step-1,Increment      1: Step Time =    1.000,"PART-1-1",            15,           15.,          -30.,            0.,NA,NA,"",            0.,  -3.21154E-39,   5.75869E-39,   9.34897E-03
C:/temp/dataset/2/17_7.odb,Step-1,Increment      1: Step Time =    1.000,"PART-1-1",            16,           15.,          -25.,            0.,NA,NA,"",   55.1530E-03,  -46.8799E-03,   29.0539E-03,   5.20267E-03
C:/temp/dataset/2/17_7.odb,Step-1,Increment      1: Step Time =    1.000,"PART-1-1",            17,           15.,          -20.,            0.,NA,NA,"",   101.022E-03,  -92.4927E-03,   40.6261E-03,   6.96483E-03
C:/temp/dataset/2/17_7.odb,Step-1,Increment      1: Step Time =    1.000,"PART-1-1",            18,            5.,          -20.,            0.,NA,NA,"",   35.5296E-03,  -35.2100E-03,   4.75493E-03,   3.82822E-03
C:/temp/dataset/2/17_7.odb,Step-1,Increment      1: Step Time =    1.000,"PART-1-1",            19,           -5.,          -20.,            0.,NA,NA,"",   16.3715E-03,  -16.2693E-03,   1.82647E-03,   756.701E-06
C:/temp/dataset/2/17_7.odb,Step-1,Increment      1: Step Time =    1.000,"PART-1-1",            20,           -5.,         -12.5,            0.,NA,NA,"",   19.9313E-03,  -19.7515E-03,   2.67150E-03,   13.6862E-06
C:/temp/dataset/2/17_7.odb,Step-1,Increment      1: Step Time =    1.000,"PART-1-1",            21,           -5.,           -5.,            0.,NA,NA,"",   24.7549E-03,  -24.6091E-03,   2.68340E-03,   348.605E-09
C:/temp/dataset/2/17_7.odb,Step-1,Increment      1: Step Time =    1.000,"PART-1-1",            22,            0.,           -5.,            0.,NA,NA,"",   25.3086E-03,  -24.6102E-03,   5.90486E-03,   18.3592E-09
C:/temp/dataset/2/17_7.odb,Step-1,Increment      1: Step Time =    1.000,"PART-1-1",            23,            5.,           -5.,            0.,NA,NA,"",   26.2489E-03,  -24.6112E-03,   9.12664E-03,   1.58904E-09
C:/temp/dataset/2/17_7.odb,Step-1,Increment      1: Step Time =    1.000,"PART-1-1",            24,           10.,           -5.,            0.,NA,NA,"",   27.5363E-03,  -24.6122E-03,   12.3484E-03,   95.3166E-12
C:/temp/dataset/2/17_7.odb,Step-1,Increment      1: Step Time =    1.000,"PART-1-1",            25,           15.,           -5.,            0.,NA,NA,"",   29.1246E-03,  -24.6133E-03,   15.5702E-03,   6.65163E-12
C:/temp/dataset/2/17_7.odb,Step-1,Increment      1: Step Time =    1.000,"PART-1-1",            26,           15.,          3.75,            0.,NA,NA,"",   34.0224E-03,  -30.2514E-03,   15.5684E-03,   4.85902E-12
C:/temp/dataset/2/17_7.odb,Step-1,Increment      1: Step Time =    1.000,"PART-1-1",            27,           15.,          12.5,            0.,NA,NA,"",   39.1201E-03,  -35.8896E-03,   15.5666E-03,   4.26993E-12
C:/temp/dataset/2/17_7.odb,Step-1,Increment      1: Step Time =    1.000,"PART-1-1",            28,           15.,         21.25,            0.,NA,NA,"",   44.3488E-03,  -41.5277E-03,   15.5648E-03,   103.024E-15
C:/temp/dataset/2/17_7.odb,Step-1,Increment      1: Step Time =    1.000,"PART-1-1",            29,           15.,           30.,            0.,NA,NA,"",   49.6671E-03,  -47.1659E-03,   15.5630E-03,   10.7650E-15
C:/temp/dataset/2/17_7.odb,Step-1,Increment      1: Step Time =    1.000,"PART-1-1",            30,           7.5,           30.,            0.,NA,NA,"",   48.3695E-03,  -47.1643E-03,   10.7303E-03,   23.3776E-15
C:/temp/dataset/2/17_7.odb,Step-1,Increment      1: Step Time =    1.000,"PART-1-1",            31,            0.,           30.,            0.,NA,NA,"",   47.5301E-03,  -47.1628E-03,   5.89757E-03,   11.7101E-15
C:/temp/dataset/2/17_7.odb,Step-1,Increment      1: Step Time =    1.000,"PART-1-1",            32,          -7.5,           30.,            0.,NA,NA,"",   47.1732E-03,  -47.1612E-03,   1.06487E-03,   11.6335E-15
C:/temp/dataset/2/17_7.odb,Step-1,Increment      1: Step Time =    1.000,"PART-1-1",            33,          -15.,           30.,            0.,NA,NA,"",   47.3099E-03,  -47.1596E-03,  -3.76783E-03,   11.3515E-15
C:/temp/dataset/2/17_7.odb,Step-1,Increment      1: Step Time =    1.000,"PART-1-1",            34,          -15.,          22.5,            0.,NA,NA,"",   42.4942E-03,  -42.3269E-03,  -3.76627E-03,   11.5096E-15
C:/temp/dataset/2/17_7.odb,Step-1,Increment      1: Step Time =    1.000,"PART-1-1",            35,         -12.5,           20.,            0.,NA,NA,"",   40.7735E-03,  -40.7166E-03,  -2.15485E-03,   11.3889E-15
C:/temp/dataset/2/17_7.odb,Step-1,Increment      1: Step Time =    1.000,"PART-1-1",            36,          -7.5,           20.,            0.,NA,NA,"",   40.7316E-03,  -40.7176E-03,   1.06695E-03,   11.6236E-15
C:/temp/dataset/2/17_7.odb,Step-1,Increment      1: Step Time =    1.000,"PART-1-1",            37,          -2.5,           20.,            0.,NA,NA,"",   40.9439E-03,  -40.7186E-03,   4.28875E-03,   10.9764E-15
C:/temp/dataset/2/17_7.odb,Step-1,Increment      1: Step Time =    1.000,"PART-1-1",            38,           2.5,           20.,            0.,NA,NA,"",   41.4065E-03,  -40.7197E-03,   7.51055E-03,   13.3728E-15
C:/temp/dataset/2/17_7.odb,Step-1,Increment      1: Step Time =    1.000,"PART-1-1",            39,            5.,           15.,            0.,NA,NA,"",   38.5921E-03,  -37.4984E-03,   9.12249E-03,   1.53856E-12
C:/temp/dataset/2/17_7.odb,Step-1,Increment      1: Step Time =    1.000,"PART-1-1",            40,            5.,          17.5,            0.,NA,NA,"",   40.1590E-03,  -39.1093E-03,   9.12197E-03,   215.702E-15
C:/temp/dataset/2/17_7.odb,Step-1,Increment      1: Step Time =    1.000,"PART-1-1",            41,            5.,           7.5,            0.,NA,NA,"",   33.9160E-03,  -32.6657E-03,   9.12405E-03,   109.554E-12
C:/temp/dataset/2/17_7.odb,Step-1,Increment      1: Step Time =    1.000,"PART-1-1",            42,            5.,           10.,            0.,NA,NA,"",   35.4700E-03,  -34.2766E-03,   9.12353E-03,   26.6167E-12
C:/temp/dataset/2/17_7.odb,Step-1,Increment      1: Step Time =    1.000,"PART-1-1",            43,      -1.66667,            5.,            0.,NA,NA,"",   31.4266E-03,  -31.0534E-03,   4.82881E-03,   1.20452E-09
C:/temp/dataset/2/17_7.odb,Step-1,Increment      1: Step Time =    1.000,"PART-1-1",            44,       1.66667,            5.,            0.,NA,NA,"",   31.8282E-03,  -31.0541E-03,   6.97669E-03,   2.25932E-09
C:/temp/dataset/2/17_7.odb,Step-1,Increment      1: Step Time =    1.000,"PART-1-1",            45,      -11.6667,            5.,            0.,NA,NA,"",   31.0930E-03,  -31.0510E-03,  -1.61465E-03,   26.4217E-09
C:/temp/dataset/2/17_7.odb,Step-1,Increment      1: Step Time =    1.000,"PART-1-1",            46,      -8.33333,            5.,            0.,NA,NA,"",   31.0564E-03,  -31.0519E-03,   533.028E-06,   53.7742E-09
C:/temp/dataset/2/17_7.odb,Step-1,Increment      1: Step Time =    1.000,"PART-1-1",            47,          -15.,  -833.333E-03,            0.,NA,NA,"",   27.5498E-03,  -27.2919E-03,  -3.76085E-03,   140.796E-09
C:/temp/dataset/2/17_7.odb,Step-1,Increment      1: Step Time =    1.000,"PART-1-1",            48,          -15.,       2.08333,            0.,NA,NA,"",   29.4126E-03,  -29.1711E-03,  -3.76166E-03,   26.6773E-09
C:/temp/dataset/2/17_7.odb,Step-1,Increment      1: Step Time =    1.000,"PART-1-1",            49,          -15.,      -9.58333,            0.,NA,NA,"",   21.9872E-03,  -21.6637E-03,  -3.75769E-03,   1.21768E-06
C:/temp/dataset/2/17_7.odb,Step-1,Increment      1: Step Time =    1.000,"PART-1-1",            50,          -15.,      -6.66667,            0.,NA,NA,"",   23.8339E-03,  -23.5358E-03,  -3.75799E-03,   546.245E-09
C:/temp/dataset/2/17_7.odb,Step-1,Increment      1: Step Time =    1.000,"PART-1-1",            51,          -15.,      -18.3333,            0.,NA,NA,"",   16.4102E-03,  -15.9077E-03,  -4.02987E-03,   98.6099E-06
C:/temp/dataset/2/17_7.odb,Step-1,Increment      1: Step Time =    1.000,"PART-1-1",            52,          -15.,      -15.4167,            0.,NA,NA,"",   18.3306E-03,  -17.9247E-03,  -3.83582E-03,   45.1044E-06
C:/temp/dataset/2/17_7.odb,Step-1,Increment      1: Step Time =    1.000,"PART-1-1",            53,          -15.,      -27.0833,            0.,NA,NA,"",   6.65533E-03,  -5.53414E-03,  -3.69686E-03,   804.317E-06
C:/temp/dataset/2/17_7.odb,Step-1,Increment      1: Step Time =    1.000,"PART-1-1",            54,          -15.,      -24.1667,            0.,NA,NA,"",   10.9698E-03,  -10.0277E-03,  -4.44758E-03,   82.6024E-06
C:/temp/dataset/2/17_7.odb,Step-1,Increment      1: Step Time =    1.000,"PART-1-1",            55,           12.,          -30.,            0.,NA,NA,"",            0.,  -3.81432E-39,   3.19282E-39,   1.86996E-03
C:/temp/dataset/2/17_7.odb,Step-1,Increment      1: Step Time =    1.000,"PART-1-1",            56,            9.,          -30.,            0.,NA,NA,"",            0.,  -2.94299E-39,  -2.62006E-39,   2.72885E-03
C:/temp/dataset/2/17_7.odb,Step-1,Increment      1: Step Time =    1.000,"PART-1-1",            57,            6.,          -30.,            0.,NA,NA,"",            0.,  -2.68171E-39,  -401.686E-42,   2.91498E-03
C:/temp/dataset/2/17_7.odb,Step-1,Increment      1: Step Time =    1.000,"PART-1-1",            58,            3.,          -30.,            0.,NA,NA,"",            0.,  -3.43132E-39,  -3.10220E-39,   2.68610E-03
C:/temp/dataset/2/17_7.odb,Step-1,Increment      1: Step Time =    1.000,"PART-1-1",            59,            0.,          -30.,            0.,NA,NA,"",            0.,  -2.07068E-39,  -154.384E-42,   2.29975E-03
C:/temp/dataset/2/17_7.odb,Step-1,Increment      1: Step Time =    1.000,"PART-1-1",            60,           -3.,          -30.,            0.,NA,NA,"",            0.,  -1.75121E-39,   30.9225E-42,   1.89758E-03
C:/temp/dataset/2/17_7.odb,Step-1,Increment      1: Step Time =    1.000,"PART-1-1",            61,           -6.,          -30.,            0.,NA,NA,"",            0.,  -1.45036E-39,   108.166E-42,   1.53407E-03
C:/temp/dataset/2/17_7.odb,Step-1,Increment      1: Step Time =    1.000,"PART-1-1",            62,           -9.,          -30.,            0.,NA,NA,"",            0.,  -1.58755E-39,  -1.28355E-39,   1.24884E-03
C:/temp/dataset/2/17_7.odb,Step-1,Increment      1: Step Time =    1.000,"PART-1-1",            63,          -12.,          -30.,            0.,NA,NA,"",            0.,  -1.56527E-39,  -1.39619E-39,   935.692E-06
C:/temp/dataset/2/17_7.odb,Step-1,Increment      1: Step Time =    1.000,"PART-1-1",            64,           15.,         -27.5,            0.,NA,NA,"",   24.6758E-03,  -18.2027E-03,   16.6600E-03,   6.11680E-03
C:/temp/dataset/2/17_7.odb,Step-1,Increment      1: Step Time =    1.000,"PART-1-1",            65,           15.,         -22.5,            0.,NA,NA,"",   82.4982E-03,  -75.4665E-03,   33.3282E-03,   7.50200E-03
C:/temp/dataset/2/17_7.odb,Step-1,Increment      1: Step Time =    1.000,"PART-1-1",            66,       8.33333,          -20.,            0.,NA,NA,"",   50.2983E-03,  -49.5365E-03,   8.72103E-03,   5.93346E-03
C:/temp/dataset/2/17_7.odb,Step-1,Increment      1: Step Time =    1.000,"PART-1-1",            67,       11.6667,          -20.,            0.,NA,NA,"",   72.9539E-03,  -70.1929E-03,   19.8802E-03,   7.64030E-03
C:/temp/dataset/2/17_7.odb,Step-1,Increment      1: Step Time =    1.000,"PART-1-1",            68,      -1.66667,          -20.,            0.,NA,NA,"",   20.3194E-03,  -20.1585E-03,   2.55181E-03,   1.55507E-03
C:/temp/dataset/2/17_7.odb,Step-1,Increment      1: Step Time =    1.000,"PART-1-1",            69,       1.66667,          -20.,            0.,NA,NA,"",   26.2166E-03,  -26.0011E-03,   3.35467E-03,   2.43854E-03
C:/temp/dataset/2/17_7.odb,Step-1,Increment      1: Step Time =    1.000,"PART-1-1",            70,           -5.,          -15.,            0.,NA,NA,"",   18.3269E-03,  -18.1414E-03,   2.60047E-03,   54.0897E-06
C:/temp/dataset/2/17_7.odb,Step-1,Increment      1: Step Time =    1.000,"PART-1-1",            71,           -5.,         -17.5,            0.,NA,NA,"",   16.8358E-03,  -16.6620E-03,   2.41282E-03,   227.812E-06
C:/temp/dataset/2/17_7.odb,Step-1,Increment      1: Step Time =    1.000,"PART-1-1",            72,           -5.,          -7.5,            0.,NA,NA,"",   23.1518E-03,  -22.9956E-03,   2.68509E-03,   305.458E-09
C:/temp/dataset/2/17_7.odb,Step-1,Increment      1: Step Time =    1.000,"PART-1-1",            73,           -5.,          -10.,            0.,NA,NA,"",   21.5454E-03,  -21.3776E-03,   2.68375E-03,   2.76616E-06
C:/temp/dataset/2/17_7.odb,Step-1,Increment      1: Step Time =    1.000,"PART-1-1",            74,          -2.5,           -5.,            0.,NA,NA,"",   24.9815E-03,  -24.6097E-03,   4.29402E-03,   64.2632E-09
C:/temp/dataset/2/17_7.odb,Step-1,Increment      1: Step Time =    1.000,"PART-1-1",            75,           2.5,           -5.,            0.,NA,NA,"",   25.7327E-03,  -24.6107E-03,   7.51574E-03,   3.91494E-09
C:/temp/dataset/2/17_7.odb,Step-1,Increment      1: Step Time =    1.000,"PART-1-1",            76,           7.5,           -5.,            0.,NA,NA,"",   26.8520E-03,  -24.6117E-03,   10.7375E-03,   278.121E-12
C:/temp/dataset/2/17_7.odb,Step-1,Increment      1: Step Time =    1.000,"PART-1-1",            77,          12.5,           -5.,            0.,NA,NA,"",   28.2958E-03,  -24.6127E-03,   13.9593E-03,   9.33126E-12
C:/temp/dataset/2/17_7.odb,Step-1,Increment      1: Step Time =    1.000,"PART-1-1",            78,           15.,   833.333E-03,            0.,NA,NA,"",   32.3630E-03,  -28.3720E-03,   15.5690E-03,   17.7469E-12
C:/temp/dataset/2/17_7.odb,Step-1,Increment      1: Step Time =    1.000,"PART-1-1",            79,           15.,      -2.08333,            0.,NA,NA,"",   30.7290E-03,  -26.4926E-03,   15.5696E-03,   7.61507E-12
C:/temp/dataset/2/17_7.odb,Step-1,Increment      1: Step Time =    1.000,"PART-1-1",            80,           15.,       9.58333,            0.,NA,NA,"",   37.4036E-03,  -34.0102E-03,   15.5672E-03,   10.9292E-12
C:/temp/dataset/2/17_7.odb,Step-1,Increment      1: Step Time =    1.000,"PART-1-1",            81,           15.,       6.66667,            0.,NA,NA,"",   35.7036E-03,  -32.1308E-03,   15.5678E-03,   14.9448E-12
C:/temp/dataset/2/17_7.odb,Step-1,Increment      1: Step Time =    1.000,"PART-1-1",            82,           15.,       18.3333,            0.,NA,NA,"",   42.5943E-03,  -39.6483E-03,   15.5654E-03,   98.4416E-15
C:/temp/dataset/2/17_7.odb,Step-1,Increment      1: Step Time =    1.000,"PART-1-1",            83,           15.,       15.4167,            0.,NA,NA,"",   40.8509E-03,  -37.7689E-03,   15.5660E-03,   857.146E-15
C:/temp/dataset/2/17_7.odb,Step-1,Increment      1: Step Time =    1.000,"PART-1-1",            84,           15.,       27.0833,            0.,NA,NA,"",   47.8862E-03,  -45.2865E-03,   15.5636E-03,   17.2084E-15
C:/temp/dataset/2/17_7.odb,Step-1,Increment      1: Step Time =    1.000,"PART-1-1",            85,           15.,       24.1667,            0.,NA,NA,"",   46.1131E-03,  -43.4071E-03,   15.5642E-03,   40.6168E-15
C:/temp/dataset/2/17_7.odb,Step-1,Increment      1: Step Time =    1.000,"PART-1-1",            86,           10.,           30.,            0.,NA,NA,"",   48.7527E-03,  -47.1648E-03,   12.3412E-03,   23.1507E-15
C:/temp/dataset/2/17_7.odb,Step-1,Increment      1: Step Time =    1.000,"PART-1-1",            87,          12.5,           30.,            0.,NA,NA,"",   49.1857E-03,  -47.1653E-03,   13.9521E-03,   14.2312E-15
C:/temp/dataset/2/17_7.odb,Step-1,Increment      1: Step Time =    1.000,"PART-1-1",            88,           2.5,           30.,            0.,NA,NA,"",   47.7572E-03,  -47.1633E-03,   7.50848E-03,   13.0740E-15
C:/temp/dataset/2/17_7.odb,Step-1,Increment      1: Step Time =    1.000,"PART-1-1",            89,            5.,           30.,            0.,NA,NA,"",   48.0373E-03,  -47.1638E-03,   9.11938E-03,   17.9015E-15
C:/temp/dataset/2/17_7.odb,Step-1,Increment      1: Step Time =    1.000,"PART-1-1",            90,           -5.,           30.,            0.,NA,NA,"",   47.2376E-03,  -47.1617E-03,   2.67577E-03,   11.0526E-15
C:/temp/dataset/2/17_7.odb,Step-1,Increment      1: Step Time =    1.000,"PART-1-1",            91,          -2.5,           30.,            0.,NA,NA,"",   47.3567E-03,  -47.1622E-03,   4.28667E-03,   10.8285E-15
C:/temp/dataset/2/17_7.odb,Step-1,Increment      1: Step Time =    1.000,"PART-1-1",            92,         -12.5,           30.,            0.,NA,NA,"",   47.2095E-03,  -47.1602E-03,  -2.15693E-03,   11.4359E-15
C:/temp/dataset/2/17_7.odb,Step-1,Increment      1: Step Time =    1.000,"PART-1-1",            93,          -10.,           30.,            0.,NA,NA,"",   47.1638E-03,  -47.1607E-03,  -546.029E-06,   11.5642E-15
C:/temp/dataset/2/17_7.odb,Step-1,Increment      1: Step Time =    1.000,"PART-1-1",            94,          -15.,          27.5,            0.,NA,NA,"",   45.7043E-03,  -45.5487E-03,  -3.76731E-03,   11.4205E-15
C:/temp/dataset/2/17_7.odb,Step-1,Increment      1: Step Time =    1.000,"PART-1-1",            95,      -12.4978,       24.9766,            0.,NA,NA,"",   43.9761E-03,  -43.9233E-03,  -2.15445E-03,   11.4421E-15
C:/temp/dataset/2/17_7.odb,Step-1,Increment      1: Step Time =    1.000,"PART-1-1",            96,      -7.49872,       27.4475,            0.,NA,NA,"",   45.5290E-03,  -45.5165E-03,   1.06623E-03,   11.3156E-15
C:/temp/dataset/2/17_7.odb,Step-1,Increment      1: Step Time =    1.000,"PART-1-1",            97,      -7.50661,       22.4446,            0.,NA,NA,"",   42.3061E-03,  -42.2928E-03,   1.06218E-03,   11.1688E-15
C:/temp/dataset/2/17_7.odb,Step-1,Increment      1: Step Time =    1.000,"PART-1-1",            98,      -2.53392,       22.4091,            0.,NA,NA,"",   42.4857E-03,  -42.2710E-03,   4.26639E-03,   11.7012E-15
C:/temp/dataset/2/17_7.odb,Step-1,Increment      1: Step Time =    1.000,"PART-1-1",            99,  -19.7467E-03,       27.3919,            0.,NA,NA,"",   45.8614E-03,  -45.4822E-03,   5.88539E-03,   11.8795E-15
C:/temp/dataset/2/17_7.odb,Step-1,Increment      1: Step Time =    1.000,"PART-1-1",           100,       2.31326,       22.2671,            0.,NA,NA,"",   42.8229E-03,  -42.1805E-03,   7.38975E-03,   17.4660E-15
C:/temp/dataset/2/17_7.odb,Step-1,Increment      1: Step Time =    1.000,"PART-1-1",           101,       7.89882,       27.4278,            0.,NA,NA,"",   46.8147E-03,  -45.5070E-03,   10.9878E-03,   16.0380E-15
C:/temp/dataset/2/17_7.odb,Step-1,Increment      1: Step Time =    1.000,"PART-1-1",           102,       6.74061,       20.0564,            0.,NA,NA,"",   42.0243E-03,  -40.7569E-03,   10.2430E-03,   51.9603E-15
C:/temp/dataset/2/17_7.odb,Step-1,Increment      1: Step Time =    1.000,"PART-1-1",           103,       6.76082,       17.7755,            0.,NA,NA,"",   40.6039E-03,  -39.2872E-03,   10.2565E-03,   359.260E-15
C:/temp/dataset/2/17_7.odb,Step-1,Increment      1: Step Time =    1.000,"PART-1-1",           104,       7.34933,       13.0959,            0.,NA,NA,"",   37.7994E-03,  -36.2719E-03,   10.6367E-03,   4.69032E-12
C:/temp/dataset/2/17_7.odb,Step-1,Increment      1: Step Time =    1.000,"PART-1-1",           105,       12.5251,      -2.17932,            0.,NA,NA,"",   29.8975E-03,  -26.4303E-03,   13.9749E-03,   37.2834E-12
C:/temp/dataset/2/17_7.odb,Step-1,Increment      1: Step Time =    1.000,"PART-1-1",           106,       11.8446,      -24.9441,            0.,NA,NA,"",   36.5091E-03,  -35.9584E-03,   6.31755E-03,   5.85922E-03
C:/temp/dataset/2/17_7.odb,Step-1,Increment      1: Step Time =    1.000,"PART-1-1",           107,       2.44158,      -2.66949,            0.,NA,NA,"",   27.1619E-03,  -26.1123E-03,   7.47761E-03,   2.55911E-09
C:/temp/dataset/2/17_7.odb,Step-1,Increment      1: Step Time =    1.000,"PART-1-1",           108,       7.46163,      -2.37632,            0.,NA,NA,"",   28.4001E-03,  -26.3023E-03,   10.7123E-03,   389.392E-12
C:/temp/dataset/2/17_7.odb,Step-1,Increment      1: Step Time =    1.000,"PART-1-1",           109,       7.48217,       7.95809,            0.,NA,NA,"",   34.6618E-03,  -32.9614E-03,   10.7234E-03,   53.8501E-12
C:/temp/dataset/2/17_7.odb,Step-1,Increment      1: Step Time =    1.000,"PART-1-1",           110,      -5.01446,       22.4347,            0.,NA,NA,"",   42.3710E-03,  -42.2869E-03,   2.66803E-03,   11.5755E-15
C:/temp/dataset/2/17_7.odb,Step-1,Increment      1: Step Time =    1.000,"PART-1-1",           111,  -75.1424E-03,       22.3615,            0.,NA,NA,"",   42.6441E-03,  -42.2408E-03,   5.85074E-03,   11.7441E-15
C:/temp/dataset/2/17_7.odb,Step-1,Increment      1: Step Time =    1.000,"PART-1-1",           112,       4.50776,       22.1530,            0.,NA,NA,"",   43.0179E-03,  -42.1074E-03,   8.80383E-03,   32.4958E-15
C:/temp/dataset/2/17_7.odb,Step-1,Increment      1: Step Time =    1.000,"PART-1-1",           113,       7.06405,       15.4904,            0.,NA,NA,"",   39.2328E-03,  -37.8148E-03,   10.4524E-03,   1.36101E-12
C:/temp/dataset/2/17_7.odb,Step-1,Increment      1: Step Time =    1.000,"PART-1-1",           114,       7.46285,       10.5556,            0.,NA,NA,"",   36.2533E-03,  -34.6351E-03,   10.7104E-03,   14.6479E-12
C:/temp/dataset/2/17_7.odb,Step-1,Increment      1: Step Time =    1.000,"PART-1-1",           115,      -2.89738,      -2.05905,            0.,NA,NA,"",   26.8103E-03,  -26.5046E-03,   4.03729E-03,   59.2509E-09
C:/temp/dataset/2/17_7.odb,Step-1,Increment      1: Step Time =    1.000,"PART-1-1",           116,      -7.61206,      -10.6629,            0.,NA,NA,"",   20.9705E-03,  -20.9465E-03,   1.00351E-03,   7.95004E-06
C:/temp/dataset/2/17_7.odb,Step-1,Increment      1: Step Time =    1.000,"PART-1-1",           117,      -6.85891,      -17.7385,            0.,NA,NA,"",   16.4650E-03,  -16.3977E-03,   1.48751E-03,   101.067E-06
C:/temp/dataset/2/17_7.odb,Step-1,Increment      1: Step Time =    1.000,"PART-1-1",           118,       11.9280,      -27.4687,            0.,NA,NA,"",   14.3530E-03,  -14.0897E-03,   2.73696E-03,   4.15351E-03
C:/temp/dataset/2/17_7.odb,Step-1,Increment      1: Step Time =    1.000,"PART-1-1",           119,      -7.44747,      -13.1413,            0.,NA,NA,"",   19.3608E-03,  -19.3285E-03,   1.11760E-03,   23.5635E-06
C:/temp/dataset/2/17_7.odb,Step-1,Increment      1: Step Time =    1.000,"PART-1-1",           120,      -7.13169,      -15.4658,            0.,NA,NA,"",   17.8623E-03,  -17.8133E-03,   1.32229E-03,   41.9755E-06
C:/temp/dataset/2/17_7.odb,Step-1,Increment      1: Step Time =    1.000,"PART-1-1",           121,      -8.02089,      -5.87394,            0.,NA,NA,"",   24.0563E-03,  -24.0450E-03,   736.181E-06,   347.960E-09
C:/temp/dataset/2/17_7.odb,Step-1,Increment      1: Step Time =    1.000,"PART-1-1",           122,      -7.74476,      -8.18529,            0.,NA,NA,"",   22.5713E-03,  -22.5527E-03,   915.156E-06,   2.00918E-06
C:/temp/dataset/2/17_7.odb,Step-1,Increment      1: Step Time =    1.000,"PART-1-1",           123,  -21.3834E-03,      -2.74811,            0.,NA,NA,"",   26.7186E-03,  -26.0612E-03,   5.89060E-03,   15.7406E-09
C:/temp/dataset/2/17_7.odb,Step-1,Increment      1: Step Time =    1.000,"PART-1-1",           124,       4.94012,      -2.49525,            0.,NA,NA,"",   27.7550E-03,  -26.2251E-03,   9.08754E-03,   1.02161E-09
C:/temp/dataset/2/17_7.odb,Step-1,Increment      1: Step Time =    1.000,"PART-1-1",           125,       10.0127,      -2.27482,            0.,NA,NA,"",   29.1197E-03,  -26.3682E-03,   12.3561E-03,   135.001E-12
C:/temp/dataset/2/17_7.odb,Step-1,Increment      1: Step Time =    1.000,"PART-1-1",           126,       10.2967,       27.4669,            0.,NA,NA,"",   47.2260E-03,  -45.5327E-03,   12.5329E-03,   16.9232E-15
C:/temp/dataset/2/17_7.odb,Step-1,Increment      1: Step Time =    1.000,"PART-1-1",           127,       12.6750,       27.3103,            0.,NA,NA,"",   47.5597E-03,  -45.4322E-03,   14.0654E-03,   21.2218E-15
C:/temp/dataset/2/17_7.odb,Step-1,Increment      1: Step Time =    1.000,"PART-1-1",           128,       2.52543,       27.2659,            0.,NA,NA,"",   46.0210E-03,  -45.4016E-03,   7.52543E-03,   13.4719E-15
C:/temp/dataset/2/17_7.odb,Step-1,Increment      1: Step Time =    1.000,"PART-1-1",           129,       5.32711,       26.8707,            0.,NA,NA,"",   46.1016E-03,  -45.1475E-03,   9.33080E-03,   16.3552E-15
C:/temp/dataset/2/17_7.odb,Step-1,Increment      1: Step Time =    1.000,"PART-1-1",           130,      -5.00948,       27.4462,            0.,NA,NA,"",   45.5944E-03,  -45.5161E-03,   2.67019E-03,   11.3462E-15
C:/temp/dataset/2/17_7.odb,Step-1,Increment      1: Step Time =    1.000,"PART-1-1",           131,      -2.51658,       27.4324,            0.,NA,NA,"",   45.7082E-03,  -45.5077E-03,   4.27652E-03,   11.6399E-15
C:/temp/dataset/2/17_7.odb,Step-1,Increment      1: Step Time =    1.000,"PART-1-1",           132,      -9.99211,       27.4668,            0.,NA,NA,"",   45.5316E-03,  -45.5284E-03,  -540.418E-06,   11.2642E-15
C:/temp/dataset/2/17_7.odb,Step-1,Increment      1: Step Time =    1.000,"PART-1-1",           133,       12.5029,       21.6680,            0.,NA,NA,"",   44.0649E-03,  -41.7966E-03,   13.9557E-03,   34.5492E-15
C:/temp/dataset/2/17_7.odb,Step-1,Increment      1: Step Time =    1.000,"PART-1-1",           134,      -12.7198,      -9.27859,            0.,NA,NA,"",   21.9790E-03,  -21.8594E-03,  -2.28969E-03,   3.61230E-06
C:/temp/dataset/2/17_7.odb,Step-1,Increment      1: Step Time =    1.000,"PART-1-1",           135,      -12.2206,      -21.4876,            0.,NA,NA,"",   13.3922E-03,  -13.2583E-03,  -1.88905E-03,   174.392E-06
C:/temp/dataset/2/17_7.odb,Step-1,Increment      1: Step Time =    1.000,"PART-1-1",           136,       12.4390,       11.8581,            0.,NA,NA,"",   38.1074E-03,  -35.4754E-03,   13.9166E-03,   5.37916E-12
C:/temp/dataset/2/17_7.odb,Step-1,Increment      1: Step Time =    1.000,"PART-1-1",           137,      -12.6285,      -12.0158,            0.,NA,NA,"",   20.2349E-03,  -20.1119E-03,  -2.22800E-03,   13.5670E-06
C:/temp/dataset/2/17_7.odb,Step-1,Increment      1: Step Time =    1.000,"PART-1-1",           138,      -12.4213,      -14.8709,            0.,NA,NA,"",   18.4125E-03,  -18.2947E-03,  -2.07896E-03,   38.7068E-06
C:/temp/dataset/2/17_7.odb,Step-1,Increment      1: Step Time =    1.000,"PART-1-1",           139,       12.2989,       14.8029,            0.,NA,NA,"",   39.8483E-03,  -37.3729E-03,   13.8257E-03,   2.16019E-12
C:/temp/dataset/2/17_7.odb,Step-1,Increment      1: Step Time =    1.000,"PART-1-1",           140,       11.7182,       18.2155,            0.,NA,NA,"",   41.7953E-03,  -39.5717E-03,   13.4508E-03,   332.398E-15
C:/temp/dataset/2/17_7.odb,Step-1,Increment      1: Step Time =    1.000,"PART-1-1",           141,      -12.3380,      -4.01281,            0.,NA,NA,"",   25.3268E-03,  -25.2441E-03,  -2.04545E-03,   143.383E-09
C:/temp/dataset/2/17_7.odb,Step-1,Increment      1: Step Time =    1.000,"PART-1-1",           142,       12.5089,       6.21106,            0.,NA,NA,"",   34.7640E-03,  -31.8367E-03,   13.9628E-03,   14.0428E-12
C:/temp/dataset/2/17_7.odb,Step-1,Increment      1: Step Time =    1.000,"PART-1-1",           143,      -10.9765,      -1.21375,            0.,NA,NA,"",   27.0728E-03,  -27.0476E-03,  -1.16892E-03,   122.737E-09
C:/temp/dataset/2/17_7.odb,Step-1,Increment      1: Step Time =    1.000,"PART-1-1",           144,      -11.4273,       2.02370,            0.,NA,NA,"",   29.1700E-03,  -29.1334E-03,  -1.45989E-03,   62.7429E-09
C:/temp/dataset/2/17_7.odb,Step-1,Increment      1: Step Time =    1.000,"PART-1-1",           145,      -12.7154,      -6.64001,            0.,NA,NA,"",   23.6640E-03,  -23.5531E-03,  -2.28790E-03,   534.464E-09
C:/temp/dataset/2/17_7.odb,Step-1,Increment      1: Step Time =    1.000,"PART-1-1",           146,      -11.7762,      -18.1315,            0.,NA,NA,"",   16.1999E-03,  -16.1221E-03,  -1.58532E-03,   38.5134E-06
C:/temp/dataset/2/17_7.odb,Step-1,Increment      1: Step Time =    1.000,"PART-1-1",           147,      -12.2481,      -24.4184,            0.,NA,NA,"",   9.69818E-03,  -9.56060E-03,  -1.62777E-03,   593.715E-06
C:/temp/dataset/2/17_7.odb,Step-1,Increment      1: Step Time =    1.000,"PART-1-1",           148,       12.5340,       3.42208,            0.,NA,NA,"",   33.1331E-03,  -30.0396E-03,   13.9795E-03,   37.5925E-12
C:/temp/dataset/2/17_7.odb,Step-1,Increment      1: Step Time =    1.000,"PART-1-1",           149,       12.5428,   630.306E-03,            0.,NA,NA,"",   31.5141E-03,  -28.2407E-03,   13.9857E-03,   45.2849E-12
C:/temp/dataset/2/17_7.odb,Step-1,Increment      1: Step Time =    1.000,"PART-1-1",           150,       12.5001,       9.03097,            0.,NA,NA,"",   36.4329E-03,  -33.6537E-03,   13.9565E-03,   6.31035E-12
C:/temp/dataset/2/17_7.odb,Step-1,Increment      1: Step Time =    1.000,"PART-1-1",           151,       12.7192,       24.5718,            0.,NA,NA,"",   45.8860E-03,  -43.6677E-03,   14.0944E-03,   26.1698E-15
C:/temp/dataset/2/17_7.odb,Step-1,Increment      1: Step Time =    1.000,"PART-1-1",           152,       2.66783,      -27.4286,            0.,NA,NA,"",   9.84569E-03,  -9.79631E-03,  -984.828E-06,   2.58882E-03
C:/temp/dataset/2/17_7.odb,Step-1,Increment      1: Step Time =    1.000,"PART-1-1",           153,       8.86089,      -27.4494,            0.,NA,NA,"",   12.7184E-03,  -12.6977E-03,  -725.643E-06,   3.68617E-03
C:/temp/dataset/2/17_7.odb,Step-1,Increment      1: Step Time =    1.000,"PART-1-1",           154,       5.76511,      -27.4328,            0.,NA,NA,"",   11.4577E-03,  -11.3936E-03,  -1.21070E-03,   3.09792E-03
C:/temp/dataset/2/17_7.odb,Step-1,Increment      1: Step Time =    1.000,"PART-1-1",           155,  -414.647E-03,      -27.4330,            0.,NA,NA,"",   8.19643E-03,  -8.17175E-03,  -635.668E-06,   2.10872E-03
C:/temp/dataset/2/17_7.odb,Step-1,Increment      1: Step Time =    1.000,"PART-1-1",           156,      -3.42691,      -27.4460,            0.,NA,NA,"",   6.74811E-03,  -6.73846E-03,  -360.823E-06,   1.72301E-03
C:/temp/dataset/2/17_7.odb,Step-1,Increment      1: Step Time =    1.000,"PART-1-1",           157,      -6.36574,      -27.4272,            0.,NA,NA,"",   5.65541E-03,  -5.65098E-03,  -223.919E-06,   1.42304E-03
C:/temp/dataset/2/17_7.odb,Step-1,Increment      1: Step Time =    1.000,"PART-1-1",           158,       10.5238,       25.0033,            0.,NA,NA,"",   45.7380E-03,  -43.9453E-03,   12.6797E-03,   23.8495E-15
C:/temp/dataset/2/17_7.odb,Step-1,Increment      1: Step Time =    1.000,"PART-1-1",           159,       6.26912,       22.1485,            0.,NA,NA,"",   43.2620E-03,  -42.1049E-03,   9.93878E-03,   34.3990E-15
C:/temp/dataset/2/17_7.odb,Step-1,Increment      1: Step Time =    1.000,"PART-1-1",           160,      -5.96402,      -2.70245,            0.,NA,NA,"",   26.1708E-03,  -26.0895E-03,   2.06135E-03,   159.759E-09
C:/temp/dataset/2/17_7.odb,Step-1,Increment      1: Step Time =    1.000,"PART-1-1",           161,      -12.5033,       22.4816,            0.,NA,NA,"",   42.3706E-03,  -42.3156E-03,  -2.15747E-03,   11.2202E-15
C:/temp/dataset/2/17_7.odb,Step-1,Increment      1: Step Time =    1.000,"PART-1-1",           162,      -2.53325,       24.9024,            0.,NA,NA,"",   44.0845E-03,  -43.8776E-03,   4.26631E-03,   11.6514E-15
C:/temp/dataset/2/17_7.odb,Step-1,Increment      1: Step Time =    1.000,"PART-1-1",           163,       4.43197,       24.4161,            0.,NA,NA,"",   44.4365E-03,  -43.5656E-03,   8.75452E-03,   17.5151E-15
C:/temp/dataset/2/17_7.odb,Step-1,Increment      1: Step Time =    1.000,"PART-1-1",           164,      -10.2797,      -8.84555,            0.,NA,NA,"",   22.1435E-03,  -22.1319E-03,  -715.492E-06,   3.45584E-06
C:/temp/dataset/2/17_7.odb,Step-1,Increment      1: Step Time =    1.000,"PART-1-1",           165,       2.21534,  -332.134E-03,            0.,NA,NA,"",   28.5749E-03,  -27.6184E-03,   7.33135E-03,   1.87139E-09
C:/temp/dataset/2/17_7.odb,Step-1,Increment      1: Step Time =    1.000,"PART-1-1",           166,  -74.2209E-03,       24.8536,            0.,NA,NA,"",   44.2352E-03,  -43.8466E-03,   5.85082E-03,   12.0995E-15
C:/temp/dataset/2/17_7.odb,Step-1,Increment      1: Step Time =    1.000,"PART-1-1",           167,       2.30693,       24.7164,            0.,NA,NA,"",   44.3775E-03,  -43.7587E-03,   7.38516E-03,   14.3131E-15
C:/temp/dataset/2/17_7.odb,Step-1,Increment      1: Step Time =    1.000,"PART-1-1",           168,       9.79368,       13.9045,            0.,NA,NA,"",   38.7671E-03,  -36.7935E-03,   12.2116E-03,   3.53164E-12
C:/temp/dataset/2/17_7.odb,Step-1,Increment      1: Step Time =    1.000,"PART-1-1",           169,       9.30777,       16.4521,            0.,NA,NA,"",   40.2344E-03,  -38.4349E-03,   11.8979E-03,   895.495E-15
C:/temp/dataset/2/17_7.odb,Step-1,Increment      1: Step Time =    1.000,"PART-1-1",           170,      -2.35985,       1.11806,            0.,NA,NA,"",   28.8863E-03,  -28.5519E-03,   4.38296E-03,   11.9612E-09
C:/temp/dataset/2/17_7.odb,Step-1,Increment      1: Step Time =    1.000,"PART-1-1",           171,      -9.94133,      -13.9778,            0.,NA,NA,"",   18.8346E-03,  -18.8294E-03,  -443.799E-06,   33.4825E-06
C:/temp/dataset/2/17_7.odb,Step-1,Increment      1: Step Time =    1.000,"PART-1-1",           172,       4.80988,   33.7751E-03,            0.,NA,NA,"",   29.2735E-03,  -27.8547E-03,   9.00309E-03,   978.548E-12
C:/temp/dataset/2/17_7.odb,Step-1,Increment      1: Step Time =    1.000,"PART-1-1",           173,       9.94126,       11.1894,            0.,NA,NA,"",   37.1423E-03,  -35.0440E-03,   12.3072E-03,   5.73988E-12
C:/temp/dataset/2/17_7.odb,Step-1,Increment      1: Step Time =    1.000,"PART-1-1",           174,       7.43598,   226.782E-03,            0.,NA,NA,"",   29.9541E-03,  -27.9796E-03,   10.6952E-03,   476.643E-12
C:/temp/dataset/2/17_7.odb,Step-1,Increment      1: Step Time =    1.000,"PART-1-1",           175,      -7.50368,       24.9336,            0.,NA,NA,"",   43.9095E-03,  -43.8966E-03,   1.06355E-03,   11.4436E-15
C:/temp/dataset/2/17_7.odb,Step-1,Increment      1: Step Time =    1.000,"PART-1-1",           176,      -10.1536,      -11.3797,            0.,NA,NA,"",   20.5101E-03,  -20.5007E-03,  -620.271E-06,   12.9535E-06
C:/temp/dataset/2/17_7.odb,Step-1,Increment      1: Step Time =    1.000,"PART-1-1",           177,       6.92724,       24.6415,            0.,NA,NA,"",   44.9228E-03,  -43.7114E-03,   10.3623E-03,   16.2359E-15
C:/temp/dataset/2/17_7.odb,Step-1,Increment      1: Step Time =    1.000,"PART-1-1",           178,      -9.99868,       24.9580,            0.,NA,NA,"",   43.9152E-03,  -43.9118E-03,  -544.131E-06,   11.3877E-15
C:/temp/dataset/2/17_7.odb,Step-1,Increment      1: Step Time =    1.000,"PART-1-1",           179,       8.37028,       18.0705,            0.,NA,NA,"",   41.0612E-03,  -39.4776E-03,   11.2935E-03,   411.173E-15
C:/temp/dataset/2/17_7.odb,Step-1,Increment      1: Step Time =    1.000,"PART-1-1",           180,      -10.4068,      -6.54987,            0.,NA,NA,"",   23.6238E-03,  -23.6102E-03,  -800.756E-06,   802.954E-09
C:/temp/dataset/2/17_7.odb,Step-1,Increment      1: Step Time =    1.000,"PART-1-1",           181,      -8.52723,      -17.8680,            0.,NA,NA,"",   16.3575E-03,  -16.3474E-03,   573.761E-06,   57.5626E-06
C:/temp/dataset/2/17_7.odb,Step-1,Increment      1: Step Time =    1.000,"PART-1-1",           182,       9.99063,       8.47585,            0.,NA,NA,"",   35.5086E-03,  -33.2955E-03,   12.3396E-03,   13.0691E-12
C:/temp/dataset/2/17_7.odb,Step-1,Increment      1: Step Time =    1.000,"PART-1-1",           183,      -6.87511,      -22.3968,            0.,NA,NA,"",   13.7302E-03,  -13.7116E-03,   715.176E-06,   871.817E-06
C:/temp/dataset/2/17_7.odb,Step-1,Increment      1: Step Time =    1.000,"PART-1-1",           184,       7.48189,       5.34092,            0.,NA,NA,"",   33.0624E-03,  -31.2750E-03,   10.7237E-03,   135.865E-12
C:/temp/dataset/2/17_7.odb,Step-1,Increment      1: Step Time =    1.000,"PART-1-1",           185,       10.0207,   425.902E-03,            0.,NA,NA,"",   30.7062E-03,  -28.1085E-03,   12.3607E-03,   132.617E-12
C:/temp/dataset/2/17_7.odb,Step-1,Increment      1: Step Time =    1.000,"PART-1-1",           186,      -8.86720,      -3.63325,            0.,NA,NA,"",   25.4899E-03,  -25.4892E-03,   190.411E-06,   166.765E-09
C:/temp/dataset/2/17_7.odb,Step-1,Increment      1: Step Time =    1.000,"PART-1-1",           187,       10.0155,       5.77118,            0.,NA,NA,"",   33.8858E-03,  -31.5527E-03,   12.3562E-03,   39.8453E-12
C:/temp/dataset/2/17_7.odb,Step-1,Increment      1: Step Time =    1.000,"PART-1-1",           188,       9.07540,       20.2179,            0.,NA,NA,"",   42.5166E-03,  -40.8614E-03,   11.7474E-03,   93.4405E-15
C:/temp/dataset/2/17_7.odb,Step-1,Increment      1: Step Time =    1.000,"PART-1-1",           189,       5.51479,      -24.9218,            0.,NA,NA,"",   22.5714E-03,  -22.5504E-03,  -972.910E-06,   3.30843E-03
C:/temp/dataset/2/17_7.odb,Step-1,Increment      1: Step Time =    1.000,"PART-1-1",           190,       2.33502,      -24.9114,            0.,NA,NA,"",   18.1434E-03,  -18.1303E-03,  -689.872E-06,   2.54200E-03
C:/temp/dataset/2/17_7.odb,Step-1,Increment      1: Step Time =    1.000,"PART-1-1",           191,      -3.83494,      -24.9465,            0.,NA,NA,"",   12.0039E-03,  -12.0039E-03,   45.1876E-06,   1.52598E-03
C:/temp/dataset/2/17_7.odb,Step-1,Increment      1: Step Time =    1.000,"PART-1-1",           192,       8.68706,      -24.9229,            0.,NA,NA,"",   28.1207E-03,  -28.1200E-03,   187.428E-06,   4.21494E-03
C:/temp/dataset/2/17_7.odb,Step-1,Increment      1: Step Time =    1.000,"PART-1-1",           193,  -793.545E-03,      -24.9263,            0.,NA,NA,"",   14.6228E-03,  -14.6207E-03,  -249.849E-06,   1.93638E-03
C:/temp/dataset/2/17_7.odb,Step-1,Increment      1: Step Time =    1.000,"PART-1-1",           194,      -10.0041,       22.4687,            0.,NA,NA,"",   42.3114E-03,  -42.3078E-03,  -547.095E-06,   11.1447E-15
C:/temp/dataset/2/17_7.odb,Step-1,Increment      1: Step Time =    1.000,"PART-1-1",           195,       7.76291,       22.5689,            0.,NA,NA,"",   43.7558E-03,  -42.3761E-03,   10.9012E-03,   25.1317E-15
C:/temp/dataset/2/17_7.odb,Step-1,Increment      1: Step Time =    1.000,"PART-1-1",           196,       10.0314,       3.09975,            0.,NA,NA,"",   32.2933E-03,  -29.8314E-03,   12.3670E-03,   108.910E-12
C:/temp/dataset/2/17_7.odb,Step-1,Increment      1: Step Time =    1.000,"PART-1-1",           197,       7.45157,       2.78517,            0.,NA,NA,"",   31.5027E-03,  -29.6281E-03,   10.7047E-03,   386.477E-12
C:/temp/dataset/2/17_7.odb,Step-1,Increment      1: Step Time =    1.000,"PART-1-1",           198,       1.23926,       2.17480,            0.,NA,NA,"",   29.9919E-03,  -29.2336E-03,   6.70188E-03,   1.46347E-09
C:/temp/dataset/2/17_7.odb,Step-1,Increment      1: Step Time =    1.000,"PART-1-1",           199,       5.89388,       23.8379,            0.,NA,NA,"",   44.2684E-03,  -43.1933E-03,   9.69663E-03,   23.2750E-15
C:/temp/dataset/2/17_7.odb,Step-1,Increment      1: Step Time =    1.000,"PART-1-1",           200,       4.70825,       2.52712,            0.,NA,NA,"",   30.7870E-03,  -29.4613E-03,   8.93709E-03,   1.08720E-09
C:/temp/dataset/2/17_7.odb,Step-1,Increment      1: Step Time =    1.000,"PART-1-1",           201,      -6.67563,      -24.8783,            0.,NA,NA,"",   10.3585E-03,  -10.3581E-03,   91.6912E-06,   1.20955E-03
C:/temp/dataset/2/17_7.odb,Step-1,Increment      1: Step Time =    1.000,"PART-1-1",           202,      -1.93740,       2.90022,            0.,NA,NA,"",   30.0629E-03,  -29.7003E-03,   4.65478E-03,   10.6085E-09
C:/temp/dataset/2/17_7.odb,Step-1,Increment      1: Step Time =    1.000,"PART-1-1",           203,      -4.27328,      -22.5070,            0.,NA,NA,"",   15.4625E-03,  -15.4353E-03,   916.551E-06,   1.23203E-03
C:/temp/dataset/2/17_7.odb,Step-1,Increment      1: Step Time =    1.000,"PART-1-1",           204,      -7.29195,  -216.826E-03,            0.,NA,NA,"",   27.7170E-03,  -27.6908E-03,   1.20502E-03,   82.6421E-09
C:/temp/dataset/2/17_7.odb,Step-1,Increment      1: Step Time =    1.000,"PART-1-1",           205,      -4.39370,   432.763E-03,            0.,NA,NA,"",   28.2774E-03,  -28.1099E-03,   3.07254E-03,   57.3379E-09
C:/temp/dataset/2/17_7.odb,Step-1,Increment      1: Step Time =    1.000,"PART-1-1",           206,      -1.20581,      -22.4416,            0.,NA,NA,"",   18.8535E-03,  -18.8280E-03,   979.258E-06,   1.71168E-03
C:/temp/dataset/2/17_7.odb,Step-1,Increment      1: Step Time =    1.000,"PART-1-1",           207,      -4.88725,       2.78210,            0.,NA,NA,"",   29.7513E-03,  -29.6236E-03,   2.75398E-03,   33.5828E-09
C:/temp/dataset/2/17_7.odb,Step-1,Increment      1: Step Time =    1.000,"PART-1-1",           208,      -8.02678,       2.39768,            0.,NA,NA,"",   29.3843E-03,  -29.3752E-03,   731.033E-06,   41.1654E-09
C:/temp/dataset/2/17_7.odb,Step-1,Increment      1: Step Time =    1.000,"PART-1-1",           209,       8.51144,      -22.4401,            0.,NA,NA,"",   41.8163E-03,  -41.6702E-03,   3.49269E-03,   4.76620E-03
C:/temp/dataset/2/17_7.odb,Step-1,Increment      1: Step Time =    1.000,"PART-1-1",           210,       5.25488,      -22.4306,            0.,NA,NA,"",   31.3677E-03,  -31.3457E-03,   1.17647E-03,   3.53204E-03
C:/temp/dataset/2/17_7.odb,Step-1,Increment      1: Step Time =    1.000,"PART-1-1",           211,       2.00226,      -22.4217,            0.,NA,NA,"",   23.9725E-03,  -23.9542E-03,   935.279E-06,   2.48071E-03
C:/temp/dataset/2/17_7.odb,Step-1,Increment      1: Step Time =    1.000,"PART-1-1",           212,      -9.28570,      -27.3600,            0.,NA,NA,"",   4.92516E-03,  -4.91480E-03,  -319.366E-06,   1.23184E-03
C:/temp/dataset/2/17_7.odb,Step-1,Increment      1: Step Time =    1.000,"PART-1-1",           213,       11.7596,      -22.4488,            0.,NA,NA,"",   57.8978E-03,  -56.5496E-03,   12.4217E-03,   6.46887E-03
C:/temp/dataset/2/17_7.odb,Step-1,Increment      1: Step Time =    1.000,"PART-1-1",           214,      -12.4952,       27.4851,            0.,NA,NA,"",   45.5906E-03,  -45.5397E-03,  -2.15332E-03,   11.3054E-15
C:/temp/dataset/2/17_7.odb,Step-1,Increment      1: Step Time =    1.000,"PART-1-1",           215,      -12.1608,      -27.2494,            0.,NA,NA,"",   4.95880E-03,  -4.84638E-03,  -1.04992E-03,   1.15441E-03
C:/temp/dataset/2/17_7.odb,Step-1,Increment      1: Step Time =    1.000,"PART-1-1",           216,      -6.92277,      -20.0189,            0.,NA,NA,"",   15.4646E-03,  -15.4069E-03,   1.33487E-03,   355.499E-06
C:/temp/dataset/2/17_7.odb,Step-1,Increment      1: Step Time =    1.000,"PART-1-1",           217,       10.3403,       22.5364,            0.,NA,NA,"",   44.1792E-03,  -42.3556E-03,   12.5620E-03,   23.1506E-15
C:/temp/dataset/2/17_7.odb,Step-1,Increment      1: Step Time =    1.000,"PART-1-1",           218,      -9.38591,      -16.3373,            0.,NA,NA,"",   17.3097E-03,  -17.3097E-03,  -9.27578E-06,   51.5100E-06
C:/temp/dataset/2/17_7.odb,Step-1,Increment      1: Step Time =    1.000,"PART-1-1",           219,      -9.56004,      -22.0160,            0.,NA,NA,"",   13.0387E-03,  -13.0371E-03,  -208.061E-06,   443.443E-06
C:/temp/dataset/2/17_7.odb,Step-1,Increment      1: Step Time =    1.000,"PART-1-1",           220,      -9.49058,      -24.6874,            0.,NA,NA,"",   9.52532E-03,  -9.51904E-03,  -345.810E-06,   881.367E-06
C:/temp/dataset/2/17_7.odb,Step-1,Increment      1: Step Time =    1.000,"PART-1-1",           221,  -968.003E-03,   33.9082E-03,            0.,NA,NA,"",   28.3496E-03,  -27.8536E-03,   5.28005E-03,   12.3304E-09
C:/temp/dataset/2/17_7.odb,Step-1,Increment      1: Step Time =    1.000,"PART-1-1",           222,   333.674E-03,      -1.00763,            0.,NA,NA,"",   27.8629E-03,  -27.1827E-03,   6.11902E-03,   8.38653E-09
C:/temp/dataset/2/17_7.odb,Step-1,Increment      1: Step Time =    1.000,"PART-1-1",           223,      -10.5623,      -4.72446,            0.,NA,NA,"",   24.8024E-03,  -24.7860E-03,  -901.625E-06,   205.718E-09
C:/temp/dataset/2/17_7.odb,Step-1,Increment      1: Step Time =    1.000,"PART-1-1",           224,      -5.01319,       24.9269,            0.,NA,NA,"",   43.9739E-03,  -43.8928E-03,   2.66833E-03,   11.4603E-15
C:/temp/dataset/2/17_7.odb,Step-1,Increment      1: Step Time =    1.000,"PART-1-1",           225,      -9.24174,      -19.5473,            0.,NA,NA,"",   15.2307E-03,  -15.2300E-03,   144.598E-06,   137.205E-06
C:/temp/dataset/2/17_7.odb,Step-1,Increment      1: Step Time =    1.000,"PART-1-1",           226,       8.53639,       25.1316,            0.,NA,NA,"",   45.4793E-03,  -44.0276E-03,   11.3991E-03,   13.9971E-15
C:/temp/dataset/2/17_7.odb,Step-1,Increment      1: Step Time =    1.000,"PART-1-1",           227,       8.85572,       23.3093,            0.,NA,NA,"",   44.3970E-03,  -42.8533E-03,   11.6052E-03,   20.7374E-15
C:/temp/dataset/2/17_7.odb,Step-1,Increment      1: Step Time =    1.000,"PART-1-1",           228,      -13.7516,       22.4908,            0.,NA,NA,"",   42.4248E-03,  -42.3213E-03,  -2.96187E-03,   11.2221E-15
C:/temp/dataset/2/17_7.odb,Step-1,Increment      1: Step Time =    1.000,"PART-1-1",           229,          -15.,         21.25,            0.,NA,NA,"",   41.6919E-03,  -41.5215E-03,  -3.76601E-03,   11.6007E-15
C:/temp/dataset/2/17_7.odb,Step-1,Increment      1: Step Time =    1.000,"PART-1-1",           230,        -13.75,           20.,            0.,NA,NA,"",   40.8238E-03,  -40.7163E-03,  -2.96030E-03,   11.6016E-15
C:/temp/dataset/2/17_7.odb,Step-1,Increment      1: Step Time =    1.000,"PART-1-1",           231,      -12.5016,       21.2408,            0.,NA,NA,"",   41.5720E-03,  -41.5161E-03,  -2.15616E-03,   11.3029E-15
C:/temp/dataset/2/17_7.odb,Step-1,Increment      1: Step Time =    1.000,"PART-1-1",           232,      -9.99605,       28.7334,            0.,NA,NA,"",   46.3477E-03,  -46.3445E-03,  -543.223E-06,   11.4564E-15
C:/temp/dataset/2/17_7.odb,Step-1,Increment      1: Step Time =    1.000,"PART-1-1",           233,        -11.25,           30.,            0.,NA,NA,"",   47.1798E-03,  -47.1604E-03,  -1.35148E-03,   11.4163E-15
C:/temp/dataset/2/17_7.odb,Step-1,Increment      1: Step Time =    1.000,"PART-1-1",           234,      -12.4976,       28.7426,            0.,NA,NA,"",   46.4000E-03,  -46.3499E-03,  -2.15512E-03,   11.4097E-15
C:/temp/dataset/2/17_7.odb,Step-1,Increment      1: Step Time =    1.000,"PART-1-1",           235,      -11.2437,       27.4760,            0.,NA,NA,"",   45.5540E-03,  -45.5340E-03,  -1.34687E-03,   11.3253E-15
C:/temp/dataset/2/17_7.odb,Step-1,Increment      1: Step Time =    1.000,"PART-1-1",           236,      -8.74541,       27.4572,            0.,NA,NA,"",   45.5232E-03,  -45.5224E-03,   262.906E-06,   11.3163E-15
C:/temp/dataset/2/17_7.odb,Step-1,Increment      1: Step Time =    1.000,"PART-1-1",           237,      -7.49936,       28.7238,            0.,NA,NA,"",   46.3511E-03,  -46.3388E-03,   1.06555E-03,   11.4684E-15
C:/temp/dataset/2/17_7.odb,Step-1,Increment      1: Step Time =    1.000,"PART-1-1",           238,         -8.75,           30.,            0.,NA,NA,"",   47.1616E-03,  -47.1609E-03,   259.422E-06,   11.7105E-15
C:/temp/dataset/2/17_7.odb,Step-1,Increment      1: Step Time =    1.000,"PART-1-1",           239,      -10.0020,       21.2344,            0.,NA,NA,"",   41.5160E-03,  -41.5125E-03,  -545.524E-06,   11.2634E-15
C:/temp/dataset/2/17_7.odb,Step-1,Increment      1: Step Time =    1.000,"PART-1-1",           240,      -11.2537,       22.4752,            0.,NA,NA,"",   42.3333E-03,  -42.3117E-03,  -1.35228E-03,   11.3215E-15
C:/temp/dataset/2/17_7.odb,Step-1,Increment      1: Step Time =    1.000,"PART-1-1",           241,        -11.25,           20.,            0.,NA,NA,"",   40.7392E-03,  -40.7168E-03,  -1.34940E-03,   11.3954E-15
C:/temp/dataset/2/17_7.odb,Step-1,Increment      1: Step Time =    1.000,"PART-1-1",           242,      -6.25410,       27.4469,            0.,NA,NA,"",   45.5546E-03,  -45.5163E-03,   1.86821E-03,   11.4795E-15
C:/temp/dataset/2/17_7.odb,Step-1,Increment      1: Step Time =    1.000,"PART-1-1",           243,      -7.50120,       26.1906,            0.,NA,NA,"",   44.7192E-03,  -44.7066E-03,   1.06489E-03,   11.4713E-15
C:/temp/dataset/2/17_7.odb,Step-1,Increment      1: Step Time =    1.000,"PART-1-1",           244,      -6.25844,       24.9303,            0.,NA,NA,"",   43.9344E-03,  -43.8947E-03,   1.86594E-03,   11.3654E-15
C:/temp/dataset/2/17_7.odb,Step-1,Increment      1: Step Time =    1.000,"PART-1-1",           245,      -5.01133,       26.1865,            0.,NA,NA,"",   44.7841E-03,  -44.7045E-03,   2.66926E-03,   11.4343E-15
C:/temp/dataset/2/17_7.odb,Step-1,Increment      1: Step Time =    1.000,"PART-1-1",           246,       1.11906,       22.3143,            0.,NA,NA,"",   42.7266E-03,  -42.2106E-03,   6.62025E-03,   13.5000E-15
C:/temp/dataset/2/17_7.odb,Step-1,Increment      1: Step Time =    1.000,"PART-1-1",           247,  -37.5712E-03,       21.1808,            0.,NA,NA,"",   41.8940E-03,  -41.4800E-03,   5.87520E-03,   11.2180E-15
C:/temp/dataset/2/17_7.odb,Step-1,Increment      1: Step Time =    1.000,"PART-1-1",           248,          1.25,           20.,            0.,NA,NA,"",   41.2678E-03,  -40.7194E-03,   6.70510E-03,   11.0387E-15
C:/temp/dataset/2/17_7.odb,Step-1,Increment      1: Step Time =    1.000,"PART-1-1",           249,       2.40663,       21.1336,            0.,NA,NA,"",   42.1143E-03,  -41.4501E-03,   7.45015E-03,   12.6905E-15
C:/temp/dataset/2/17_7.odb,Step-1,Increment      1: Step Time =    1.000,"PART-1-1",           250,  -46.9838E-03,       26.1228,            0.,NA,NA,"",   45.0482E-03,  -44.6644E-03,   5.86811E-03,   11.9927E-15
C:/temp/dataset/2/17_7.odb,Step-1,Increment      1: Step Time =    1.000,"PART-1-1",           251,       1.11635,       24.7850,            0.,NA,NA,"",   44.2998E-03,  -43.8026E-03,   6.61799E-03,   13.0843E-15
C:/temp/dataset/2/17_7.odb,Step-1,Increment      1: Step Time =    1.000,"PART-1-1",           252,       2.41618,       25.9912,            0.,NA,NA,"",   45.1992E-03,  -44.5801E-03,   7.45530E-03,   13.4020E-15
C:/temp/dataset/2/17_7.odb,Step-1,Increment      1: Step Time =    1.000,"PART-1-1",           253,       1.25284,       27.3289,            0.,NA,NA,"",   45.9340E-03,  -45.4419E-03,   6.70541E-03,   12.3399E-15
C:/temp/dataset/2/17_7.odb,Step-1,Increment      1: Step Time =    1.000,"PART-1-1",           254,       11.4216,       22.1022,            0.,NA,NA,"",   44.1157E-03,  -42.0761E-03,   13.2588E-03,   14.4795E-15
C:/temp/dataset/2/17_7.odb,Step-1,Increment      1: Step Time =    1.000,"PART-1-1",           255,       9.70783,       21.3771,            0.,NA,NA,"",   43.3475E-03,  -41.6085E-03,   12.1547E-03,   43.2560E-15
C:/temp/dataset/2/17_7.odb,Step-1,Increment      1: Step Time =    1.000,"PART-1-1",           256,       10.3968,       19.2167,            0.,NA,NA,"",   42.1439E-03,  -40.2166E-03,   12.5991E-03,   191.195E-15
C:/temp/dataset/2/17_7.odb,Step-1,Increment      1: Step Time =    1.000,"PART-1-1",           257,       12.1105,       19.9418,            0.,NA,NA,"",   42.9299E-03,  -40.6841E-03,   13.7032E-03,   139.278E-15
C:/temp/dataset/2/17_7.odb,Step-1,Increment      1: Step Time =    1.000,"PART-1-1",           258,       11.6215,       24.7876,            0.,NA,NA,"",   45.8064E-03,  -43.8065E-03,   13.3871E-03,   22.3177E-15
C:/temp/dataset/2/17_7.odb,Step-1,Increment      1: Step Time =    1.000,"PART-1-1",           259,       12.6971,       25.9410,            0.,NA,NA,"",   46.7220E-03,  -44.5500E-03,   14.0799E-03,   22.0992E-15
C:/temp/dataset/2/17_7.odb,Step-1,Increment      1: Step Time =    1.000,"PART-1-1",           260,       11.4859,       27.3886,            0.,NA,NA,"",   47.3869E-03,  -45.4824E-03,   13.2992E-03,   18.2695E-15
C:/temp/dataset/2/17_7.odb,Step-1,Increment      1: Step Time =    1.000,"PART-1-1",           261,       10.4103,       26.2351,            0.,NA,NA,"",   46.4811E-03,  -44.7390E-03,   12.6063E-03,   18.8667E-15
C:/temp/dataset/2/17_7.odb,Step-1,Increment      1: Step Time =    1.000,"PART-1-1",           262,       5.88041,       17.6377,            0.,NA,NA,"",   40.3780E-03,  -39.1982E-03,   9.68924E-03,   198.323E-15
C:/temp/dataset/2/17_7.odb,Step-1,Increment      1: Step Time =    1.000,"PART-1-1",           263,       6.75071,       18.9160,            0.,NA,NA,"",   41.3137E-03,  -40.0220E-03,   10.2498E-03,   212.693E-15
C:/temp/dataset/2/17_7.odb,Step-1,Increment      1: Step Time =    1.000,"PART-1-1",           264,       5.87030,       20.0282,            0.,NA,NA,"",   41.8733E-03,  -40.7386E-03,   9.68224E-03,   37.2496E-15
C:/temp/dataset/2/17_7.odb,Step-1,Increment      1: Step Time =    1.000,"PART-1-1",           265,            5.,         18.75,            0.,NA,NA,"",   40.9438E-03,  -39.9147E-03,   9.12171E-03,   87.7651E-15
C:/temp/dataset/2/17_7.odb,Step-1,Increment      1: Step Time =    1.000,"PART-1-1",           266,       12.3690,       13.3305,            0.,NA,NA,"",   38.9760E-03,  -36.4242E-03,   13.8711E-03,   3.39758E-12
C:/temp/dataset/2/17_7.odb,Step-1,Increment      1: Step Time =    1.000,"PART-1-1",           267,       13.7195,       12.1790,            0.,NA,NA,"",   38.6077E-03,  -35.6825E-03,   14.7416E-03,   3.33121E-12
C:/temp/dataset/2/17_7.odb,Step-1,Increment      1: Step Time =    1.000,"PART-1-1",           268,           15.,       13.9583,            0.,NA,NA,"",   39.9838E-03,  -36.8293E-03,   15.5663E-03,   2.32527E-12
C:/temp/dataset/2/17_7.odb,Step-1,Increment      1: Step Time =    1.000,"PART-1-1",           269,       13.6495,       15.1098,            0.,NA,NA,"",   40.3428E-03,  -37.5709E-03,   14.6958E-03,   1.05527E-12
C:/temp/dataset/2/17_7.odb,Step-1,Increment      1: Step Time =    1.000,"PART-1-1",           270,       12.5214,       4.81657,            0.,NA,NA,"",   33.9465E-03,  -30.9382E-03,   13.9711E-03,   23.9075E-12
C:/temp/dataset/2/17_7.odb,Step-1,Increment      1: Step Time =    1.000,"PART-1-1",           271,       13.7670,       3.58604,            0.,NA,NA,"",   33.5711E-03,  -30.1455E-03,   14.7740E-03,   20.4885E-12
C:/temp/dataset/2/17_7.odb,Step-1,Increment      1: Step Time =    1.000,"PART-1-1",           272,           15.,       5.20833,            0.,NA,NA,"",   34.8605E-03,  -31.1911E-03,   15.5681E-03,   8.21323E-12
C:/temp/dataset/2/17_7.odb,Step-1,Increment      1: Step Time =    1.000,"PART-1-1",           273,       13.7545,       6.43886,            0.,NA,NA,"",   35.2275E-03,  -31.9838E-03,   14.7653E-03,   10.0006E-12
C:/temp/dataset/2/17_7.odb,Step-1,Increment      1: Step Time =    1.000,"PART-1-1",           274,       13.7625,      -2.13133,            0.,NA,NA,"",   30.3056E-03,  -26.4615E-03,   14.7723E-03,   21.2292E-12
C:/temp/dataset/2/17_7.odb,Step-1,Increment      1: Step Time =    1.000,"PART-1-1",           275,       12.5125,      -3.58966,            0.,NA,NA,"",   29.0934E-03,  -25.5215E-03,   13.9671E-03,   18.0827E-12
C:/temp/dataset/2/17_7.odb,Step-1,Increment      1: Step Time =    1.000,"PART-1-1",           276,         13.75,           -5.,            0.,NA,NA,"",   28.7019E-03,  -24.6130E-03,   14.7648E-03,   1.30988E-12
C:/temp/dataset/2/17_7.odb,Step-1,Increment      1: Step Time =    1.000,"PART-1-1",           277,           15.,      -3.54167,            0.,NA,NA,"",   29.9228E-03,  -25.5529E-03,   15.5699E-03,   2.20170E-12
C:/temp/dataset/2/17_7.odb,Step-1,Increment      1: Step Time =    1.000,"PART-1-1",           278,      -9.21387,      -6.21191,            0.,NA,NA,"",   23.8275E-03,  -23.8274E-03,  -32.3819E-06,   534.458E-09
C:/temp/dataset/2/17_7.odb,Step-1,Increment      1: Step Time =    1.000,"PART-1-1",           279,      -8.44405,      -4.75360,            0.,NA,NA,"",   24.7717E-03,  -24.7673E-03,   463.248E-06,   197.110E-09
C:/temp/dataset/2/17_7.odb,Step-1,Increment      1: Step Time =    1.000,"PART-1-1",           280,      -9.71477,      -4.17886,            0.,NA,NA,"",   25.1401E-03,  -25.1375E-03,  -355.662E-06,   167.432E-09
C:/temp/dataset/2/17_7.odb,Step-1,Increment      1: Step Time =    1.000,"PART-1-1",           281,      -10.4846,      -5.63717,            0.,NA,NA,"",   24.2131E-03,  -24.1981E-03,  -851.320E-06,   482.292E-09
C:/temp/dataset/2/17_7.odb,Step-1,Increment      1: Step Time =    1.000,"PART-1-1",           282,      -5.84282,   107.969E-03,            0.,NA,NA,"",   27.9822E-03,  -27.9004E-03,   2.13878E-03,   60.7358E-09
C:/temp/dataset/2/17_7.odb,Step-1,Increment      1: Step Time =    1.000,"PART-1-1",           283,      -4.64047,       1.60743,            0.,NA,NA,"",   29.0134E-03,  -28.8668E-03,   2.91325E-03,   39.1208E-09
C:/temp/dataset/2/17_7.odb,Step-1,Increment      1: Step Time =    1.000,"PART-1-1",           284,      -6.45702,       2.58989,            0.,NA,NA,"",   29.5508E-03,  -29.4994E-03,   1.74250E-03,   34.3886E-09
C:/temp/dataset/2/17_7.odb,Step-1,Increment      1: Step Time =    1.000,"PART-1-1",           285,      -7.65937,       1.09043,            0.,NA,NA,"",   28.5494E-03,  -28.5330E-03,   968.022E-06,   55.7535E-09
C:/temp/dataset/2/17_7.odb,Step-1,Increment      1: Step Time =    1.000,"PART-1-1",           286,      -6.51044,      -5.43697,            0.,NA,NA,"",   24.3871E-03,  -24.3270E-03,   1.70988E-03,   113.860E-09
C:/temp/dataset/2/17_7.odb,Step-1,Increment      1: Step Time =    1.000,"PART-1-1",           287,      -5.48201,      -3.85122,            0.,NA,NA,"",   25.4601E-03,  -25.3493E-03,   2.37238E-03,   159.673E-09
C:/temp/dataset/2/17_7.odb,Step-1,Increment      1: Step Time =    1.000,"PART-1-1",           288,      -7.41561,      -3.16785,            0.,NA,NA,"",   25.8140E-03,  -25.7894E-03,   1.12586E-03,   136.436E-09
C:/temp/dataset/2/17_7.odb,Step-1,Increment      1: Step Time =    1.000,"PART-1-1",           289,      -12.6742,      -10.6472,            0.,NA,NA,"",   21.1054E-03,  -20.9842E-03,  -2.25937E-03,   8.21624E-06
C:/temp/dataset/2/17_7.odb,Step-1,Increment      1: Step Time =    1.000,"PART-1-1",           290,      -11.3911,      -11.6978,            0.,NA,NA,"",   20.3575E-03,  -20.3078E-03,  -1.42120E-03,   11.6122E-06
C:/temp/dataset/2/17_7.odb,Step-1,Increment      1: Step Time =    1.000,"PART-1-1",           291,      -10.2167,      -10.1126,            0.,NA,NA,"",   21.3266E-03,  -21.3161E-03,  -670.340E-06,   7.96714E-06
C:/temp/dataset/2/17_7.odb,Step-1,Increment      1: Step Time =    1.000,"PART-1-1",           292,      -11.4997,      -9.06207,            0.,NA,NA,"",   22.0472E-03,  -21.9960E-03,  -1.50233E-03,   3.18407E-06
C:/temp/dataset/2/17_7.odb,Step-1,Increment      1: Step Time =    1.000,"PART-1-1",           293,      -13.7107,      -15.1438,            0.,NA,NA,"",   18.3608E-03,  -18.1196E-03,  -2.96656E-03,   30.0257E-06
C:/temp/dataset/2/17_7.odb,Step-1,Increment      1: Step Time =    1.000,"PART-1-1",           294,      -12.5249,      -13.4434,            0.,NA,NA,"",   19.3256E-03,  -19.2049E-03,  -2.15666E-03,   24.5837E-06
C:/temp/dataset/2/17_7.odb,Step-1,Increment      1: Step Time =    1.000,"PART-1-1",           295,      -13.8143,      -12.2579,            0.,NA,NA,"",   20.1827E-03,  -19.9580E-03,  -3.00323E-03,   9.61270E-06
C:/temp/dataset/2/17_7.odb,Step-1,Increment      1: Step Time =    1.000,"PART-1-1",           296,          -15.,      -13.9583,            0.,NA,NA,"",   19.2444E-03,  -18.8671E-03,  -3.79227E-03,   26.4792E-06
C:/temp/dataset/2/17_7.odb,Step-1,Increment      1: Step Time =    1.000,"PART-1-1",           297,      -12.0988,      -16.5012,            0.,NA,NA,"",   17.3359E-03,  -17.2378E-03,  -1.84247E-03,   36.6186E-06
C:/temp/dataset/2/17_7.odb,Step-1,Increment      1: Step Time =    1.000,"PART-1-1",           298,      -10.5811,      -17.2344,            0.,NA,NA,"",   16.7563E-03,  -16.7388E-03,  -764.585E-06,   39.1053E-06
C:/temp/dataset/2/17_7.odb,Step-1,Increment      1: Step Time =    1.000,"PART-1-1",           299,      -9.66362,      -15.1575,            0.,NA,NA,"",   18.0638E-03,  -18.0623E-03,  -229.410E-06,   42.4350E-06
C:/temp/dataset/2/17_7.odb,Step-1,Increment      1: Step Time =    1.000,"PART-1-1",           300,      -11.1813,      -14.4243,            0.,NA,NA,"",   18.6061E-03,  -18.5642E-03,  -1.24748E-03,   30.0841E-06
C:/temp/dataset/2/17_7.odb,Step-1,Increment      1: Step Time =    1.000,"PART-1-1",           301,      -10.5090,      -18.8394,            0.,NA,NA,"",   15.6608E-03,  -15.6459E-03,  -682.410E-06,   68.4209E-06
C:/temp/dataset/2/17_7.odb,Step-1,Increment      1: Step Time =    1.000,"PART-1-1",           302,      -8.88448,      -18.7076,            0.,NA,NA,"",   15.8300E-03,  -15.8258E-03,   365.723E-06,   79.0838E-06
C:/temp/dataset/2/17_7.odb,Step-1,Increment      1: Step Time =    1.000,"PART-1-1",           303,      -8.95657,      -17.1026,            0.,NA,NA,"",   16.8148E-03,  -16.8124E-03,   286.930E-06,   46.9187E-06
C:/temp/dataset/2/17_7.odb,Step-1,Increment      1: Step Time =    1.000,"PART-1-1",           304,      -8.08225,      -19.7831,            0.,NA,NA,"",   15.2706E-03,  -15.2502E-03,   789.665E-06,   233.701E-06
C:/temp/dataset/2/17_7.odb,Step-1,Increment      1: Step Time =    1.000,"PART-1-1",           305,      -6.89084,      -18.8787,            0.,NA,NA,"",   15.9945E-03,  -15.9270E-03,   1.46751E-03,   120.286E-06
C:/temp/dataset/2/17_7.odb,Step-1,Increment      1: Step Time =    1.000,"PART-1-1",           306,      -7.69307,      -17.8032,            0.,NA,NA,"",   16.4215E-03,  -16.3874E-03,   1.05827E-03,   50.1625E-06
C:/temp/dataset/2/17_7.odb,Step-1,Increment      1: Step Time =    1.000,"PART-1-1",           307,       7.10093,      -24.9223,            0.,NA,NA,"",   25.1499E-03,  -25.1393E-03,  -729.603E-06,   3.74882E-03
C:/temp/dataset/2/17_7.odb,Step-1,Increment      1: Step Time =    1.000,"PART-1-1",           308,       8.59925,      -23.6815,            0.,NA,NA,"",   35.4414E-03,  -35.4078E-03,   1.54288E-03,   4.34464E-03
C:/temp/dataset/2/17_7.odb,Step-1,Increment      1: Step Time =    1.000,"PART-1-1",           309,       6.88316,      -22.4353,            0.,NA,NA,"",   36.1275E-03,  -36.0802E-03,   1.84872E-03,   4.15773E-03
C:/temp/dataset/2/17_7.odb,Step-1,Increment      1: Step Time =    1.000,"PART-1-1",           310,       5.38484,      -23.6762,            0.,NA,NA,"",   27.3784E-03,  -27.3781E-03,  -133.234E-06,   3.32830E-03
C:/temp/dataset/2/17_7.odb,Step-1,Increment      1: Step Time =    1.000,"PART-1-1",           311,       13.3798,      -22.4744,            0.,NA,NA,"",   69.2376E-03,  -65.6439E-03,   22.0163E-03,   6.92241E-03
C:/temp/dataset/2/17_7.odb,Step-1,Increment      1: Step Time =    1.000,"PART-1-1",           312,           15.,        -21.25,            0.,NA,NA,"",   91.8142E-03,  -84.0703E-03,   36.9057E-03,   6.97837E-03
C:/temp/dataset/2/17_7.odb,Step-1,Increment      1: Step Time =    1.000,"PART-1-1",           313,       13.3333,          -20.,            0.,NA,NA,"",   86.7953E-03,  -81.6037E-03,   29.5678E-03,   7.32169E-03
C:/temp/dataset/2/17_7.odb,Step-1,Increment      1: Step Time =    1.000,"PART-1-1",           314,       11.7131,      -21.2244,            0.,NA,NA,"",   65.9325E-03,  -63.9444E-03,   16.0691E-03,   6.83786E-03
C:/temp/dataset/2/17_7.odb,Step-1,Increment      1: Step Time =    1.000,"PART-1-1",           315,      -2.14863,       2.00914,            0.,NA,NA,"",   29.4746E-03,  -29.1261E-03,   4.51887E-03,   11.7913E-09
C:/temp/dataset/2/17_7.odb,Step-1,Increment      1: Step Time =    1.000,"PART-1-1",           316,      -1.66393,   575.985E-03,            0.,NA,NA,"",   28.6136E-03,  -28.2027E-03,   4.83150E-03,   12.4892E-09
C:/temp/dataset/2/17_7.odb,Step-1,Increment      1: Step Time =    1.000,"PART-1-1",           317,   135.628E-03,       1.10435,            0.,NA,NA,"",   29.1655E-03,  -28.5436E-03,   5.99096E-03,   5.66806E-09
C:/temp/dataset/2/17_7.odb,Step-1,Increment      1: Step Time =    1.000,"PART-1-1",           318,  -349.073E-03,       2.53751,            0.,NA,NA,"",   30.0091E-03,  -29.4669E-03,   5.67834E-03,   5.17931E-09
C:/temp/dataset/2/17_7.odb,Step-1,Increment      1: Step Time =    1.000,"PART-1-1",           319,   156.145E-03,      -1.87787,            0.,NA,NA,"",   27.2908E-03,  -26.6219E-03,   6.00481E-03,   8.37056E-09
C:/temp/dataset/2/17_7.odb,Step-1,Increment      1: Step Time =    1.000,"PART-1-1",           320,       1.21010,      -2.70880,            0.,NA,NA,"",   26.9295E-03,  -26.0868E-03,   6.68411E-03,   4.43013E-09
C:/temp/dataset/2/17_7.odb,Step-1,Increment      1: Step Time =    1.000,"PART-1-1",           321,       2.32846,      -1.50081,            0.,NA,NA,"",   27.8671E-03,  -26.8654E-03,   7.40448E-03,   572.913E-12
C:/temp/dataset/2/17_7.odb,Step-1,Increment      1: Step Time =    1.000,"PART-1-1",           322,       1.27451,  -669.883E-03,            0.,NA,NA,"",   28.2138E-03,  -27.4006E-03,   6.72519E-03,   3.85788E-09
C:/temp/dataset/2/17_7.odb,Step-1,Increment      1: Step Time =    1.000,"PART-1-1",           323,       4.87500,      -1.23074,            0.,NA,NA,"",   28.5127E-03,  -27.0399E-03,   9.04531E-03,   798.971E-12
C:/temp/dataset/2/17_7.odb,Step-1,Increment      1: Step Time =    1.000,"PART-1-1",           324,       6.20088,      -2.43579,            0.,NA,NA,"",   28.0676E-03,  -26.2637E-03,   9.89991E-03,   665.966E-12
C:/temp/dataset/2/17_7.odb,Step-1,Increment      1: Step Time =    1.000,"PART-1-1",           325,       7.44880,      -1.07477,            0.,NA,NA,"",   29.1754E-03,  -27.1410E-03,   10.7037E-03,   336.604E-12
C:/temp/dataset/2/17_7.odb,Step-1,Increment      1: Step Time =    1.000,"PART-1-1",           326,       6.12293,   130.279E-03,            0.,NA,NA,"",   29.6036E-03,  -27.9172E-03,   9.84915E-03,   620.901E-12
C:/temp/dataset/2/17_7.odb,Step-1,Increment      1: Step Time =    1.000,"PART-1-1",           327,          8.75,           -5.,            0.,NA,NA,"",   27.1844E-03,  -24.6120E-03,   11.5430E-03,   162.435E-12
C:/temp/dataset/2/17_7.odb,Step-1,Increment      1: Step Time =    1.000,"PART-1-1",           328,       10.0063,      -3.63741,            0.,NA,NA,"",   28.3254E-03,  -25.4902E-03,   12.3523E-03,   82.1531E-12
C:/temp/dataset/2/17_7.odb,Step-1,Increment      1: Step Time =    1.000,"PART-1-1",           329,       8.73716,      -2.32557,            0.,NA,NA,"",   28.7504E-03,  -26.3353E-03,   11.5342E-03,   264.177E-12
C:/temp/dataset/2/17_7.odb,Step-1,Increment      1: Step Time =    1.000,"PART-1-1",           330,       7.48081,      -3.68816,            0.,NA,NA,"",   27.6239E-03,  -25.4570E-03,   10.7249E-03,   233.001E-12
C:/temp/dataset/2/17_7.odb,Step-1,Increment      1: Step Time =    1.000,"PART-1-1",           331,       6.24109,       7.72904,            0.,NA,NA,"",   34.2813E-03,  -32.8135E-03,   9.92371E-03,   51.0637E-12
C:/temp/dataset/2/17_7.odb,Step-1,Increment      1: Step Time =    1.000,"PART-1-1",           332,            5.,          6.25,            0.,NA,NA,"",   33.1410E-03,  -31.8602E-03,   9.12431E-03,   122.638E-12
C:/temp/dataset/2/17_7.odb,Step-1,Increment      1: Step Time =    1.000,"PART-1-1",           333,       6.24095,       5.17046,            0.,NA,NA,"",   32.7069E-03,  -31.1649E-03,   9.92415E-03,   321.655E-12
C:/temp/dataset/2/17_7.odb,Step-1,Increment      1: Step Time =    1.000,"PART-1-1",           334,       7.48203,       6.64950,            0.,NA,NA,"",   33.8611E-03,  -32.1182E-03,   10.7235E-03,   42.6032E-12
C:/temp/dataset/2/17_7.odb,Step-1,Increment      1: Step Time =    1.000,"PART-1-1",           335,       7.34508,       23.6052,            0.,NA,NA,"",   44.3373E-03,  -43.0437E-03,   10.6318E-03,   19.9303E-15
C:/temp/dataset/2/17_7.odb,Step-1,Increment      1: Step Time =    1.000,"PART-1-1",           336,       6.41056,       24.2397,            0.,NA,NA,"",   44.5948E-03,  -43.4524E-03,   10.0295E-03,   19.1904E-15
C:/temp/dataset/2/17_7.odb,Step-1,Increment      1: Step Time =    1.000,"PART-1-1",           337,       6.08150,       22.9932,            0.,NA,NA,"",   43.7645E-03,  -42.6491E-03,   9.81770E-03,   23.2520E-15
C:/temp/dataset/2/17_7.odb,Step-1,Increment      1: Step Time =    1.000,"PART-1-1",           338,       7.01602,       22.3587,            0.,NA,NA,"",   43.5067E-03,  -42.2405E-03,   10.4200E-03,   27.1682E-15
C:/temp/dataset/2/17_7.odb,Step-1,Increment      1: Step Time =    1.000,"PART-1-1",           339,      -12.5005,       23.7291,            0.,NA,NA,"",   43.1733E-03,  -43.1194E-03,  -2.15596E-03,   11.3291E-15
C:/temp/dataset/2/17_7.odb,Step-1,Increment      1: Step Time =    1.000,"PART-1-1",           340,      -13.7489,       24.9883,            0.,NA,NA,"",   44.0302E-03,  -43.9306E-03,  -2.96062E-03,   11.4398E-15
C:/temp/dataset/2/17_7.odb,Step-1,Increment      1: Step Time =    1.000,"PART-1-1",           341,          -15.,         23.75,            0.,NA,NA,"",   43.2965E-03,  -43.1324E-03,  -3.76653E-03,   11.4480E-15
C:/temp/dataset/2/17_7.odb,Step-1,Increment      1: Step Time =    1.000,"PART-1-1",           342,      -2.52491,       26.1674,            0.,NA,NA,"",   44.8963E-03,  -44.6927E-03,   4.27142E-03,   11.6127E-15
C:/temp/dataset/2/17_7.odb,Step-1,Increment      1: Step Time =    1.000,"PART-1-1",           343,      -1.30373,       24.8780,            0.,NA,NA,"",   44.1528E-03,  -43.8621E-03,   5.05856E-03,   11.8858E-15
C:/temp/dataset/2/17_7.odb,Step-1,Increment      1: Step Time =    1.000,"PART-1-1",           344,      -1.26817,       27.4122,            0.,NA,NA,"",   45.7778E-03,  -45.4950E-03,   5.08096E-03,   11.6465E-15
C:/temp/dataset/2/17_7.odb,Step-1,Increment      1: Step Time =    1.000,"PART-1-1",           345,       2.31009,       23.4917,            0.,NA,NA,"",   43.6000E-03,  -42.9696E-03,   7.38746E-03,   14.4288E-15
C:/temp/dataset/2/17_7.odb,Step-1,Increment      1: Step Time =    1.000,"PART-1-1",           346,       3.41051,       22.2101,            0.,NA,NA,"",   42.9147E-03,  -42.1439E-03,   8.09679E-03,   19.8489E-15
C:/temp/dataset/2/17_7.odb,Step-1,Increment      1: Step Time =    1.000,"PART-1-1",           347,       4.46987,       23.2845,            0.,NA,NA,"",   43.7269E-03,  -42.8365E-03,   8.77917E-03,   21.9421E-15
C:/temp/dataset/2/17_7.odb,Step-1,Increment      1: Step Time =    1.000,"PART-1-1",           348,       3.36945,       24.5662,            0.,NA,NA,"",   44.4016E-03,  -43.6621E-03,   8.06984E-03,   15.4396E-15
C:/temp/dataset/2/17_7.odb,Step-1,Increment      1: Step Time =    1.000,"PART-1-1",           349,       3.92627,       27.0683,            0.,NA,NA,"",   46.0523E-03,  -45.2745E-03,   8.42812E-03,   14.7397E-15
C:/temp/dataset/2/17_7.odb,Step-1,Increment      1: Step Time =    1.000,"PART-1-1",           350,       5.16355,       28.4353,            0.,NA,NA,"",   47.0685E-03,  -46.1556E-03,   9.22509E-03,   15.7031E-15
C:/temp/dataset/2/17_7.odb,Step-1,Increment      1: Step Time =    1.000,"PART-1-1",           351,          3.75,           30.,            0.,NA,NA,"",   47.8907E-03,  -47.1635E-03,   8.31393E-03,   15.0498E-15
C:/temp/dataset/2/17_7.odb,Step-1,Increment      1: Step Time =    1.000,"PART-1-1",           352,       2.51272,       28.6330,            0.,NA,NA,"",   46.8889E-03,  -46.2824E-03,   7.51695E-03,   12.8829E-15
C:/temp/dataset/2/17_7.odb,Step-1,Increment      1: Step Time =    1.000,"PART-1-1",           353,       11.0463,       14.3537,            0.,NA,NA,"",   39.3020E-03,  -37.0832E-03,   13.0186E-03,   2.39447E-12
C:/temp/dataset/2/17_7.odb,Step-1,Increment      1: Step Time =    1.000,"PART-1-1",           354,       9.86747,       12.5470,            0.,NA,NA,"",   37.9533E-03,  -35.9188E-03,   12.2594E-03,   5.03870E-12
C:/temp/dataset/2/17_7.odb,Step-1,Increment      1: Step Time =    1.000,"PART-1-1",           355,       11.1901,       11.5237,            0.,NA,NA,"",   37.6187E-03,  -35.2597E-03,   13.1119E-03,   4.79730E-12
C:/temp/dataset/2/17_7.odb,Step-1,Increment      1: Step Time =    1.000,"PART-1-1",           356,       9.55073,       15.1783,            0.,NA,NA,"",   39.4987E-03,  -37.6142E-03,   12.0548E-03,   2.09792E-12
C:/temp/dataset/2/17_7.odb,Step-1,Increment      1: Step Time =    1.000,"PART-1-1",           357,       8.18591,       15.9712,            0.,NA,NA,"",   39.7290E-03,  -38.1249E-03,   11.1752E-03,   1.09039E-12
C:/temp/dataset/2/17_7.odb,Step-1,Increment      1: Step Time =    1.000,"PART-1-1",           358,       7.20669,       14.2932,            0.,NA,NA,"",   38.5149E-03,  -37.0434E-03,   10.5445E-03,   2.92107E-12
C:/temp/dataset/2/17_7.odb,Step-1,Increment      1: Step Time =    1.000,"PART-1-1",           359,       8.57151,       13.5002,            0.,NA,NA,"",   38.2773E-03,  -36.5327E-03,   11.4241E-03,   2.88502E-12
C:/temp/dataset/2/17_7.odb,Step-1,Increment      1: Step Time =    1.000,"PART-1-1",           360,       7.44377,       1.50598,            0.,NA,NA,"",   30.7271E-03,  -28.8039E-03,   10.7000E-03,   357.539E-12
C:/temp/dataset/2/17_7.odb,Step-1,Increment      1: Step Time =    1.000,"PART-1-1",           361,       8.72836,   326.342E-03,            0.,NA,NA,"",   30.3210E-03,  -28.0440E-03,   11.5279E-03,   284.242E-12
C:/temp/dataset/2/17_7.odb,Step-1,Increment      1: Step Time =    1.000,"PART-1-1",           362,       10.0261,       1.76283,            0.,NA,NA,"",   31.4980E-03,  -28.9699E-03,   12.3638E-03,   108.022E-12
C:/temp/dataset/2/17_7.odb,Step-1,Increment      1: Step Time =    1.000,"PART-1-1",           363,       8.74149,       2.94246,            0.,NA,NA,"",   31.8894E-03,  -29.7298E-03,   11.5359E-03,   200.518E-12
C:/temp/dataset/2/17_7.odb,Step-1,Increment      1: Step Time =    1.000,"PART-1-1",           364,       12.5045,       7.62102,            0.,NA,NA,"",   35.5966E-03,  -32.7452E-03,   13.9596E-03,   3.45926E-12
C:/temp/dataset/2/17_7.odb,Step-1,Increment      1: Step Time =    1.000,"PART-1-1",           365,           15.,         8.125,            0.,NA,NA,"",   36.5514E-03,  -33.0705E-03,   15.5675E-03,   13.9381E-12
C:/temp/dataset/2/17_7.odb,Step-1,Increment      1: Step Time =    1.000,"PART-1-1",           366,       13.7500,       9.30715,            0.,NA,NA,"",   36.9122E-03,  -33.8320E-03,   14.7619E-03,   7.34186E-12
C:/temp/dataset/2/17_7.odb,Step-1,Increment      1: Step Time =    1.000,"PART-1-1",           367,      -1.45938,      -2.40358,            0.,NA,NA,"",   26.7475E-03,  -26.2829E-03,   4.96396E-03,   24.1975E-09
C:/temp/dataset/2/17_7.odb,Step-1,Increment      1: Step Time =    1.000,"PART-1-1",           368,      -2.69869,      -3.52952,            0.,NA,NA,"",   25.8944E-03,  -25.5571E-03,   4.16569E-03,   27.2848E-09
C:/temp/dataset/2/17_7.odb,Step-1,Increment      1: Step Time =    1.000,"PART-1-1",           369,         -1.25,           -5.,            0.,NA,NA,"",   25.1327E-03,  -24.6099E-03,   5.09941E-03,   13.4784E-09
C:/temp/dataset/2/17_7.odb,Step-1,Increment      1: Step Time =    1.000,"PART-1-1",           370,  -10.6917E-03,      -3.87406,            0.,NA,NA,"",   26.0131E-03,  -25.3357E-03,   5.89772E-03,   6.44182E-09
C:/temp/dataset/2/17_7.odb,Step-1,Increment      1: Step Time =    1.000,"PART-1-1",           371,      -13.3333,            5.,            0.,NA,NA,"",   31.1668E-03,  -31.0507E-03,  -2.68846E-03,   8.91388E-09
C:/temp/dataset/2/17_7.odb,Step-1,Increment      1: Step Time =    1.000,"PART-1-1",           372,          -15.,       3.54167,            0.,NA,NA,"",   30.3448E-03,  -30.1107E-03,  -3.76198E-03,   10.7026E-09
C:/temp/dataset/2/17_7.odb,Step-1,Increment      1: Step Time =    1.000,"PART-1-1",           373,      -13.2137,       2.05352,            0.,NA,NA,"",   29.2689E-03,  -29.1522E-03,  -2.61075E-03,   39.4125E-09
C:/temp/dataset/2/17_7.odb,Step-1,Increment      1: Step Time =    1.000,"PART-1-1",           374,      -11.5470,       3.51185,            0.,NA,NA,"",   30.1315E-03,  -30.0922E-03,  -1.53727E-03,   39.6655E-09
C:/temp/dataset/2/17_7.odb,Step-1,Increment      1: Step Time =    1.000,"PART-1-1",           375,          -15.,      625.E-03,            0.,NA,NA,"",   28.4809E-03,  -28.2315E-03,  -3.76129E-03,   82.0433E-09
C:/temp/dataset/2/17_7.odb,Step-1,Increment      1: Step Time =    1.000,"PART-1-1",           376,      -12.9883,      -1.02354,            0.,NA,NA,"",   27.2812E-03,  -27.1697E-03,  -2.46485E-03,   77.8187E-09
C:/temp/dataset/2/17_7.odb,Step-1,Increment      1: Step Time =    1.000,"PART-1-1",           377,      -11.2019,   404.974E-03,            0.,NA,NA,"",   28.1212E-03,  -28.0905E-03,  -1.31438E-03,   84.9960E-09
C:/temp/dataset/2/17_7.odb,Step-1,Increment      1: Step Time =    1.000,"PART-1-1",           378,      -13.6690,      -3.88141,            0.,NA,NA,"",   25.4943E-03,  -25.3285E-03,  -2.90254E-03,   158.697E-09
C:/temp/dataset/2/17_7.odb,Step-1,Increment      1: Step Time =    1.000,"PART-1-1",           379,      -11.6573,      -2.61328,            0.,NA,NA,"",   26.1951E-03,  -26.1457E-03,  -1.60723E-03,   116.295E-09
C:/temp/dataset/2/17_7.odb,Step-1,Increment      1: Step Time =    1.000,"PART-1-1",           380,          -15.,      -2.29167,            0.,NA,NA,"",   26.6193E-03,  -26.3523E-03,  -3.76033E-03,   224.487E-09
C:/temp/dataset/2/17_7.odb,Step-1,Increment      1: Step Time =    1.000,"PART-1-1",           381,           -5.,         -8.75,            0.,NA,NA,"",   22.3491E-03,  -22.1871E-03,   2.68547E-03,   1.52500E-06
C:/temp/dataset/2/17_7.odb,Step-1,Increment      1: Step Time =    1.000,"PART-1-1",           382,      -6.37238,      -7.84264,            0.,NA,NA,"",   22.8449E-03,  -22.7739E-03,   1.79930E-03,   916.852E-09
C:/temp/dataset/2/17_7.odb,Step-1,Increment      1: Step Time =    1.000,"PART-1-1",           383,      -7.67841,      -9.42411,            0.,NA,NA,"",   21.7722E-03,  -21.7510E-03,   959.022E-06,   4.97960E-06
C:/temp/dataset/2/17_7.odb,Step-1,Increment      1: Step Time =    1.000,"PART-1-1",           384,      -6.30603,      -10.3315,            0.,NA,NA,"",   21.2408E-03,  -21.1608E-03,   1.84097E-03,   4.08321E-06
C:/temp/dataset/2/17_7.odb,Step-1,Increment      1: Step Time =    1.000,"PART-1-1",           385,      -13.6103,      -21.3688,            0.,NA,NA,"",   13.6798E-03,  -13.3378E-03,  -3.03975E-03,   82.1345E-06
C:/temp/dataset/2/17_7.odb,Step-1,Increment      1: Step Time =    1.000,"PART-1-1",           386,          -15.,      -22.7083,            0.,NA,NA,"",   12.6670E-03,  -11.8585E-03,  -4.45299E-03,   19.7208E-06
C:/temp/dataset/2/17_7.odb,Step-1,Increment      1: Step Time =    1.000,"PART-1-1",           387,      -13.6241,      -24.2925,            0.,NA,NA,"",   10.2314E-03,  -9.82396E-03,  -2.85855E-03,   301.496E-06
C:/temp/dataset/2/17_7.odb,Step-1,Increment      1: Step Time =    1.000,"PART-1-1",           388,      -12.2343,      -22.9530,            0.,NA,NA,"",   11.7165E-03,  -11.5751E-03,  -1.81467E-03,   366.057E-06
C:/temp/dataset/2/17_7.odb,Step-1,Increment      1: Step Time =    1.000,"PART-1-1",           389,           -5.,        -16.25,            0.,NA,NA,"",   17.5332E-03,  -17.3486E-03,   2.53722E-03,   93.7693E-06
C:/temp/dataset/2/17_7.odb,Step-1,Increment      1: Step Time =    1.000,"PART-1-1",           390,      -6.06585,      -15.2329,            0.,NA,NA,"",   18.0723E-03,  -17.9669E-03,   1.94872E-03,   38.2152E-06
C:/temp/dataset/2/17_7.odb,Step-1,Increment      1: Step Time =    1.000,"PART-1-1",           391,      -6.99530,      -16.6022,            0.,NA,NA,"",   17.1576E-03,  -17.0998E-03,   1.40725E-03,   64.1636E-06
C:/temp/dataset/2/17_7.odb,Step-1,Increment      1: Step Time =    1.000,"PART-1-1",           392,      -5.92946,      -17.6192,            0.,NA,NA,"",   16.6362E-03,  -16.5256E-03,   1.91450E-03,   118.924E-06
C:/temp/dataset/2/17_7.odb,Step-1,Increment      1: Step Time =    1.000,"PART-1-1",           393,         -13.5,          -30.,            0.,NA,NA,"",            0.,  -463.779E-42,  -1.79902E-39,   1.49240E-03
C:/temp/dataset/2/17_7.odb,Step-1,Increment      1: Step Time =    1.000,"PART-1-1",           394,      -12.0804,      -28.6247,            0.,NA,NA,"",   2.25054E-03,  -2.19902E-03,  -478.797E-06,   1.08352E-03
C:/temp/dataset/2/17_7.odb,Step-1,Increment      1: Step Time =    1.000,"PART-1-1",           395,      -13.5804,      -27.1664,            0.,NA,NA,"",   5.27500E-03,  -4.98590E-03,  -1.72232E-03,   796.228E-06
C:/temp/dataset/2/17_7.odb,Step-1,Increment      1: Step Time =    1.000,"PART-1-1",           396,          -15.,      -28.5417,            0.,NA,NA,"",   3.63925E-03,  -2.95579E-03,  -2.12309E-03,   1.41003E-03
C:/temp/dataset/2/17_7.odb,Step-1,Increment      1: Step Time =    1.000,"PART-1-1",           397,          13.5,          -30.,            0.,NA,NA,"",            0.,  -503.159E-42,   8.02514E-39,   5.16915E-03
C:/temp/dataset/2/17_7.odb,Step-1,Increment      1: Step Time =    1.000,"PART-1-1",           398,           15.,        -28.75,            0.,NA,NA,"",   12.5896E-03,  -9.10827E-03,   8.69124E-03,   7.18868E-03
C:/temp/dataset/2/17_7.odb,Step-1,Increment      1: Step Time =    1.000,"PART-1-1",           399,       13.4640,      -27.4843,            0.,NA,NA,"",   16.6588E-03,  -14.9132E-03,   7.42375E-03,   3.70727E-03
C:/temp/dataset/2/17_7.odb,Step-1,Increment      1: Step Time =    1.000,"PART-1-1",           400,       11.9640,      -28.7343,            0.,NA,NA,"",   5.45801E-03,  -5.30622E-03,   1.27822E-03,   2.98003E-03
C:/temp/dataset/2/17_7.odb,Step-1,Increment      1: Step Time =    1.000,"PART-1-1",           401,       10.2658,      -24.9335,            0.,NA,NA,"",   31.7115E-03,  -31.6309E-03,   2.25884E-03,   4.62573E-03
C:/temp/dataset/2/17_7.odb,Step-1,Increment      1: Step Time =    1.000,"PART-1-1",           402,       8.77397,      -26.1861,            0.,NA,NA,"",   20.3613E-03,  -20.3544E-03,  -529.986E-06,   3.86348E-03
C:/temp/dataset/2/17_7.odb,Step-1,Increment      1: Step Time =    1.000,"PART-1-1",           403,       10.3945,      -27.4590,            0.,NA,NA,"",   13.3508E-03,  -13.3492E-03,   208.217E-06,   3.83584E-03
C:/temp/dataset/2/17_7.odb,Step-1,Increment      1: Step Time =    1.000,"PART-1-1",           404,       11.8863,      -26.2064,            0.,NA,NA,"",   25.0468E-03,  -24.7187E-03,   4.04133E-03,   4.66710E-03
C:/temp/dataset/2/17_7.odb,Step-1,Increment      1: Step Time =    1.000,"PART-1-1",           405,       8.93044,      -28.7247,            0.,NA,NA,"",   5.85113E-03,  -5.83749E-03,  -399.335E-06,   3.17205E-03
C:/temp/dataset/2/17_7.odb,Step-1,Increment      1: Step Time =    1.000,"PART-1-1",           406,       7.31300,      -27.4411,            0.,NA,NA,"",   12.1616E-03,  -12.1100E-03,  -1.11865E-03,   3.33930E-03
C:/temp/dataset/2/17_7.odb,Step-1,Increment      1: Step Time =    1.000,"PART-1-1",           407,       5.88256,      -28.7164,            0.,NA,NA,"",   5.68891E-03,  -5.64272E-03,  -723.436E-06,   2.97699E-03
C:/temp/dataset/2/17_7.odb,Step-1,Increment      1: Step Time =    1.000,"PART-1-1",           408,           7.5,          -30.,            0.,NA,NA,"",            0.,  -3.22941E-39,  -1.43434E-39,   2.80666E-03
C:/temp/dataset/2/17_7.odb,Step-1,Increment      1: Step Time =    1.000,"PART-1-1",           409,       5.63995,      -26.1773,            0.,NA,NA,"",   17.1455E-03,  -17.0941E-03,  -1.32741E-03,   3.15898E-03
C:/temp/dataset/2/17_7.odb,Step-1,Increment      1: Step Time =    1.000,"PART-1-1",           410,       3.92490,      -24.9166,            0.,NA,NA,"",   20.2444E-03,  -20.2243E-03,  -902.286E-06,   2.92570E-03
C:/temp/dataset/2/17_7.odb,Step-1,Increment      1: Step Time =    1.000,"PART-1-1",           411,       2.50142,      -26.1700,            0.,NA,NA,"",   14.2293E-03,  -14.1935E-03,  -1.00918E-03,   2.52666E-03
C:/temp/dataset/2/17_7.odb,Step-1,Increment      1: Step Time =    1.000,"PART-1-1",           412,       4.21647,      -27.4307,            0.,NA,NA,"",   10.6898E-03,  -10.6294E-03,  -1.13540E-03,   2.84138E-03
C:/temp/dataset/2/17_7.odb,Step-1,Increment      1: Step Time =    1.000,"PART-1-1",           413,       1.12659,      -27.4308,            0.,NA,NA,"",   9.01475E-03,  -8.97840E-03,  -808.726E-06,   2.34656E-03
C:/temp/dataset/2/17_7.odb,Step-1,Increment      1: Step Time =    1.000,"PART-1-1",           414,  -207.324E-03,      -28.7165,            0.,NA,NA,"",   4.28970E-03,  -4.26579E-03,  -452.290E-06,   2.17966E-03
C:/temp/dataset/2/17_7.odb,Step-1,Increment      1: Step Time =    1.000,"PART-1-1",           415,           1.5,          -30.,            0.,NA,NA,"",            0.,  -2.78232E-39,  -1.54764E-39,   2.49228E-03
C:/temp/dataset/2/17_7.odb,Step-1,Increment      1: Step Time =    1.000,"PART-1-1",           416,       2.83391,      -28.7143,            0.,NA,NA,"",   5.06748E-03,  -5.02810E-03,  -630.511E-06,   2.60978E-03
C:/temp/dataset/2/17_7.odb,Step-1,Increment      1: Step Time =    1.000,"PART-1-1",           417,      -1.92078,      -27.4395,            0.,NA,NA,"",   7.44507E-03,  -7.42921E-03,  -485.643E-06,   1.91435E-03
C:/temp/dataset/2/17_7.odb,Step-1,Increment      1: Step Time =    1.000,"PART-1-1",           418,      -3.21345,      -28.7230,            0.,NA,NA,"",   3.53856E-03,  -3.52638E-03,  -293.330E-06,   1.78926E-03
C:/temp/dataset/2/17_7.odb,Step-1,Increment      1: Step Time =    1.000,"PART-1-1",           419,          -1.5,          -30.,            0.,NA,NA,"",            0.,  -2.35367E-39,  -1.15158E-39,   2.09848E-03
C:/temp/dataset/2/17_7.odb,Step-1,Increment      1: Step Time =    1.000,"PART-1-1",           420,      -5.57419,      -22.4519,            0.,NA,NA,"",   14.5001E-03,  -14.4743E-03,   865.000E-06,   1.07453E-03
C:/temp/dataset/2/17_7.odb,Step-1,Increment      1: Step Time =    1.000,"PART-1-1",           421,      -6.77537,      -23.6376,            0.,NA,NA,"",   12.2222E-03,  -12.2164E-03,   377.370E-06,   1.02599E-03
C:/temp/dataset/2/17_7.odb,Step-1,Increment      1: Step Time =    1.000,"PART-1-1",           422,      -5.25528,      -24.9124,            0.,NA,NA,"",   11.1110E-03,  -11.1104E-03,   118.768E-06,   1.36831E-03
C:/temp/dataset/2/17_7.odb,Step-1,Increment      1: Step Time =    1.000,"PART-1-1",           423,      -4.05411,      -23.7268,            0.,NA,NA,"",   13.9700E-03,  -13.9628E-03,   447.439E-06,   1.34626E-03
C:/temp/dataset/2/17_7.odb,Step-1,Increment      1: Step Time =    1.000,"PART-1-1",           424,       13.4223,      -24.9720,            0.,NA,NA,"",   43.1491E-03,  -41.2435E-03,   12.6814E-03,   5.69420E-03
C:/temp/dataset/2/17_7.odb,Step-1,Increment      1: Step Time =    1.000,"PART-1-1",           425,           15.,        -26.25,            0.,NA,NA,"",   37.4576E-03,  -29.1581E-03,   23.5133E-03,   4.91949E-03
C:/temp/dataset/2/17_7.odb,Step-1,Increment      1: Step Time =    1.000,"PART-1-1",           426,       11.8021,      -23.6964,            0.,NA,NA,"",   47.5333E-03,  -46.6557E-03,   9.09208E-03,   6.15915E-03
C:/temp/dataset/2/17_7.odb,Step-1,Increment      1: Step Time =    1.000,"PART-1-1",           427,       10.1355,      -22.4445,            0.,NA,NA,"",   48.8883E-03,  -48.4213E-03,   6.74129E-03,   5.49457E-03
C:/temp/dataset/2/17_7.odb,Step-1,Increment      1: Step Time =    1.000,"PART-1-1",           428,      -2.31424,      -24.9364,            0.,NA,NA,"",   13.2226E-03,  -13.2224E-03,  -75.9299E-06,   1.72810E-03
C:/temp/dataset/2/17_7.odb,Step-1,Increment      1: Step Time =    1.000,"PART-1-1",           429,      -3.63092,      -26.1962,            0.,NA,NA,"",   9.56478E-03,  -9.56184E-03,  -237.298E-06,   1.60794E-03
C:/temp/dataset/2/17_7.odb,Step-1,Increment      1: Step Time =    1.000,"PART-1-1",           430,  -604.096E-03,      -26.1796,            0.,NA,NA,"",   11.6381E-03,  -11.6245E-03,  -561.370E-06,   1.99799E-03
C:/temp/dataset/2/17_7.odb,Step-1,Increment      1: Step Time =    1.000,"PART-1-1",           431,      -7.52977,      -11.9021,            0.,NA,NA,"",   20.1672E-03,  -20.1393E-03,   1.05957E-03,   16.1751E-06
C:/temp/dataset/2/17_7.odb,Step-1,Increment      1: Step Time =    1.000,"PART-1-1",           432,      -6.22373,      -12.8207,            0.,NA,NA,"",   19.6271E-03,  -19.5365E-03,   1.88321E-03,   13.8041E-06
C:/temp/dataset/2/17_7.odb,Step-1,Increment      1: Step Time =    1.000,"PART-1-1",           433,           -5.,        -11.25,            0.,NA,NA,"",   20.7395E-03,  -20.5654E-03,   2.68149E-03,   8.58726E-06
C:/temp/dataset/2/17_7.odb,Step-1,Increment      1: Step Time =    1.000,"PART-1-1",           434,      -10.0475,      -12.6788,            0.,NA,NA,"",   19.6712E-03,  -19.6638E-03,  -537.006E-06,   21.1960E-06
C:/temp/dataset/2/17_7.odb,Step-1,Increment      1: Step Time =    1.000,"PART-1-1",           435,           -5.,         -6.25,            0.,NA,NA,"",   23.9536E-03,  -23.8027E-03,   2.68439E-03,   268.347E-09
C:/temp/dataset/2/17_7.odb,Step-1,Increment      1: Step Time =    1.000,"PART-1-1",           436,      -7.88282,      -7.02961,            0.,NA,NA,"",   23.3141E-03,  -23.2994E-03,   825.568E-06,   1.21149E-06
C:/temp/dataset/2/17_7.odb,Step-1,Increment      1: Step Time =    1.000,"PART-1-1",           437,      -13.8577,      -6.65334,            0.,NA,NA,"",   23.7377E-03,  -23.5444E-03,  -3.02313E-03,   266.122E-09
C:/temp/dataset/2/17_7.odb,Step-1,Increment      1: Step Time =    1.000,"PART-1-1",           438,      -12.5267,      -5.32641,            0.,NA,NA,"",   24.4943E-03,  -24.3983E-03,  -2.16669E-03,   247.179E-09
C:/temp/dataset/2/17_7.odb,Step-1,Increment      1: Step Time =    1.000,"PART-1-1",           439,          -15.,      -5.20833,            0.,NA,NA,"",   24.7610E-03,  -24.4740E-03,  -3.75884E-03,   365.434E-09
C:/temp/dataset/2/17_7.odb,Step-1,Increment      1: Step Time =    1.000,"PART-1-1",           440,          1.25,           -5.,            0.,NA,NA,"",   25.5088E-03,  -24.6104E-03,   6.71030E-03,   8.07936E-09
C:/temp/dataset/2/17_7.odb,Step-1,Increment      1: Step Time =    1.000,"PART-1-1",           441,       2.47079,      -3.83474,            0.,NA,NA,"",   26.4463E-03,  -25.3615E-03,   7.49668E-03,   1.13397E-09
C:/temp/dataset/2/17_7.odb,Step-1,Increment      1: Step Time =    1.000,"PART-1-1",           442,       3.51261,  -149.180E-03,            0.,NA,NA,"",   28.9140E-03,  -27.7365E-03,   8.16722E-03,   1.11289E-09
C:/temp/dataset/2/17_7.odb,Step-1,Increment      1: Step Time =    1.000,"PART-1-1",           443,       3.69085,      -2.58237,            0.,NA,NA,"",   27.4482E-03,  -26.1687E-03,   8.28258E-03,   1.37595E-09
C:/temp/dataset/2/17_7.odb,Step-1,Increment      1: Step Time =    1.000,"PART-1-1",           444,       8.74868,       5.55605,            0.,NA,NA,"",   33.4664E-03,  -31.4139E-03,   11.5399E-03,   81.4489E-12
C:/temp/dataset/2/17_7.odb,Step-1,Increment      1: Step Time =    1.000,"PART-1-1",           445,       10.0030,       7.12352,            0.,NA,NA,"",   34.6957E-03,  -32.4241E-03,   12.3479E-03,   18.9509E-12
C:/temp/dataset/2/17_7.odb,Step-1,Increment      1: Step Time =    1.000,"PART-1-1",           446,       8.73640,       8.21697,            0.,NA,NA,"",   35.0780E-03,  -33.1284E-03,   11.5315E-03,   19.2508E-12
C:/temp/dataset/2/17_7.odb,Step-1,Increment      1: Step Time =    1.000,"PART-1-1",           447,           15.,     -625.E-03,            0.,NA,NA,"",   31.5426E-03,  -27.4323E-03,   15.5693E-03,   12.9978E-12
C:/temp/dataset/2/17_7.odb,Step-1,Increment      1: Step Time =    1.000,"PART-1-1",           448,       13.7714,   731.820E-03,            0.,NA,NA,"",   31.9315E-03,  -28.3064E-03,   14.7774E-03,   31.4263E-12
C:/temp/dataset/2/17_7.odb,Step-1,Increment      1: Step Time =    1.000,"PART-1-1",           449,       12.5339,  -774.506E-03,            0.,NA,NA,"",   30.7031E-03,  -27.3355E-03,   13.9803E-03,   35.9613E-12
C:/temp/dataset/2/17_7.odb,Step-1,Increment      1: Step Time =    1.000,"PART-1-1",           450,       7.40609,       11.8257,            0.,NA,NA,"",   37.0254E-03,  -35.4535E-03,   10.6735E-03,   7.90430E-12
C:/temp/dataset/2/17_7.odb,Step-1,Increment      1: Step Time =    1.000,"PART-1-1",           451,       8.70206,       10.8725,            0.,NA,NA,"",   36.6913E-03,  -34.8396E-03,   11.5088E-03,   8.11244E-12
C:/temp/dataset/2/17_7.odb,Step-1,Increment      1: Step Time =    1.000,"PART-1-1",           452,       11.2454,       8.75341,            0.,NA,NA,"",   35.9642E-03,  -33.4746E-03,   13.1481E-03,   7.63265E-12
C:/temp/dataset/2/17_7.odb,Step-1,Increment      1: Step Time =    1.000,"PART-1-1",           453,       11.2622,       5.99112,            0.,NA,NA,"",   34.3180E-03,  -31.6947E-03,   13.1595E-03,   27.1381E-12
C:/temp/dataset/2/17_7.odb,Step-1,Increment      1: Step Time =    1.000,"PART-1-1",           454,       13.8596,       24.3693,            0.,NA,NA,"",   45.9936E-03,  -43.5374E-03,   14.8293E-03,   30.2752E-15
C:/temp/dataset/2/17_7.odb,Step-1,Increment      1: Step Time =    1.000,"PART-1-1",           455,       12.6110,       23.1199,            0.,NA,NA,"",   44.9748E-03,  -42.7321E-03,   14.0250E-03,   25.8114E-15
C:/temp/dataset/2/17_7.odb,Step-1,Increment      1: Step Time =    1.000,"PART-1-1",           456,       13.7514,       21.4590,            0.,NA,NA,"",   44.1995E-03,  -41.6621E-03,   14.7602E-03,   42.0875E-15
C:/temp/dataset/2/17_7.odb,Step-1,Increment      1: Step Time =    1.000,"PART-1-1",           457,           15.,       22.7083,            0.,NA,NA,"",   45.2298E-03,  -42.4674E-03,   15.5645E-03,   61.3530E-15
C:/temp/dataset/2/17_7.odb,Step-1,Increment      1: Step Time =    1.000,"PART-1-1",           458,       8.83903,       17.2613,            0.,NA,NA,"",   40.6454E-03,  -38.9563E-03,   11.5957E-03,   640.563E-15
C:/temp/dataset/2/17_7.odb,Step-1,Increment      1: Step Time =    1.000,"PART-1-1",           459,       10.5130,       17.3338,            0.,NA,NA,"",   41.0110E-03,  -39.0033E-03,   12.6743E-03,   558.249E-15
C:/temp/dataset/2/17_7.odb,Step-1,Increment      1: Step Time =    1.000,"PART-1-1",           460,       8.72284,       19.1442,            0.,NA,NA,"",   41.7889E-03,  -40.1695E-03,   11.5205E-03,   243.533E-15
C:/temp/dataset/2/17_7.odb,Step-1,Increment      1: Step Time =    1.000,"PART-1-1",           461,           15.,       28.5417,            0.,NA,NA,"",   48.7758E-03,  -46.2262E-03,   15.5633E-03,   12.9703E-15
C:/temp/dataset/2/17_7.odb,Step-1,Increment      1: Step Time =    1.000,"PART-1-1",           462,         13.75,           30.,            0.,NA,NA,"",   49.4204E-03,  -47.1656E-03,   14.7575E-03,   12.0755E-15
C:/temp/dataset/2/17_7.odb,Step-1,Increment      1: Step Time =    1.000,"PART-1-1",           463,       12.5875,       28.6551,            0.,NA,NA,"",   48.3717E-03,  -46.2988E-03,   14.0087E-03,   16.6602E-15
C:/temp/dataset/2/17_7.odb,Step-1,Increment      1: Step Time =    1.000,"PART-1-1",           464,       13.8375,       27.1968,            0.,NA,NA,"",   47.7173E-03,  -45.3594E-03,   14.8145E-03,   17.4886E-15
C:/temp/dataset/2/17_7.odb,Step-1,Increment      1: Step Time =    1.000,"PART-1-1",           465,         11.25,           30.,            0.,NA,NA,"",   48.9630E-03,  -47.1651E-03,   13.1466E-03,   18.9555E-15
C:/temp/dataset/2/17_7.odb,Step-1,Increment      1: Step Time =    1.000,"PART-1-1",           466,       10.1484,       28.7335,            0.,NA,NA,"",   47.9884E-03,  -46.3488E-03,   12.4370E-03,   19.1881E-15
C:/temp/dataset/2/17_7.odb,Step-1,Increment      1: Step Time =    1.000,"PART-1-1",           467,       7.69941,       28.7139,            0.,NA,NA,"",   47.5911E-03,  -46.3356E-03,   10.8590E-03,   19.3615E-15
C:/temp/dataset/2/17_7.odb,Step-1,Increment      1: Step Time =    1.000,"PART-1-1",           468,       9.09777,       27.4473,            0.,NA,NA,"",   47.0145E-03,  -45.5198E-03,   11.7603E-03,   15.5034E-15
C:/temp/dataset/2/17_7.odb,Step-1,Increment      1: Step Time =    1.000,"PART-1-1",           469,          8.75,           30.,            0.,NA,NA,"",   48.5548E-03,  -47.1646E-03,   11.5357E-03,   23.5124E-15
C:/temp/dataset/2/17_7.odb,Step-1,Increment      1: Step Time =    1.000,"PART-1-1",           470,  -9.87333E-03,       28.6960,            0.,NA,NA,"",   46.6956E-03,  -46.3225E-03,   5.89148E-03,   11.8401E-15
C:/temp/dataset/2/17_7.odb,Step-1,Increment      1: Step Time =    1.000,"PART-1-1",           471,          1.25,           30.,            0.,NA,NA,"",   47.6370E-03,  -47.1630E-03,   6.70303E-03,   12.3582E-15
C:/temp/dataset/2/17_7.odb,Step-1,Increment      1: Step Time =    1.000,"PART-1-1",           472,       4.87954,       25.6434,            0.,NA,NA,"",   45.2689E-03,  -44.3565E-03,   9.04266E-03,   15.8707E-15
C:/temp/dataset/2/17_7.odb,Step-1,Increment      1: Step Time =    1.000,"PART-1-1",           473,      -5.00474,       28.7231,            0.,NA,NA,"",   46.4160E-03,  -46.3389E-03,   2.67298E-03,   11.2263E-15
C:/temp/dataset/2/17_7.odb,Step-1,Increment      1: Step Time =    1.000,"PART-1-1",           474,         -6.25,           30.,            0.,NA,NA,"",   47.1985E-03,  -47.1615E-03,   1.87032E-03,   11.2638E-15
C:/temp/dataset/2/17_7.odb,Step-1,Increment      1: Step Time =    1.000,"PART-1-1",           475,      -3.76303,       27.4393,            0.,NA,NA,"",   45.6443E-03,  -45.5119E-03,   3.47336E-03,   11.4643E-15
C:/temp/dataset/2/17_7.odb,Step-1,Increment      1: Step Time =    1.000,"PART-1-1",           476,      -3.77322,       24.9147,            0.,NA,NA,"",   44.0220E-03,  -43.8852E-03,   3.46732E-03,   11.5407E-15
C:/temp/dataset/2/17_7.odb,Step-1,Increment      1: Step Time =    1.000,"PART-1-1",           477,      -13.7476,       27.4926,            0.,NA,NA,"",   45.6403E-03,  -45.5442E-03,  -2.96031E-03,   11.2917E-15
C:/temp/dataset/2/17_7.odb,Step-1,Increment      1: Step Time =    1.000,"PART-1-1",           478,        -13.75,           30.,            0.,NA,NA,"",   47.2529E-03,  -47.1599E-03,  -2.96238E-03,   11.4028E-15
C:/temp/dataset/2/17_7.odb,Step-1,Increment      1: Step Time =    1.000,"PART-1-1",           479,          -15.,         28.75,            0.,NA,NA,"",   46.5070E-03,  -46.3542E-03,  -3.76757E-03,   11.3655E-15
C:/temp/dataset/2/17_7.odb,Step-1,Increment      1: Step Time =    1.000,"PART-1-1",           480,          -15.,         26.25,            0.,NA,NA,"",   44.9016E-03,  -44.7433E-03,  -3.76705E-03,   11.4320E-15
C:/temp/dataset/2/17_7.odb,Step-1,Increment      1: Step Time =    1.000,"PART-1-1",           481,      -12.4965,       26.2309,            0.,NA,NA,"",   44.7833E-03,  -44.7315E-03,  -2.15388E-03,   11.3329E-15
C:/temp/dataset/2/17_7.odb,Step-1,Increment      1: Step Time =    1.000,"PART-1-1",           482,      -10.0014,       23.7134,            0.,NA,NA,"",   43.1133E-03,  -43.1098E-03,  -545.613E-06,   11.1899E-15
C:/temp/dataset/2/17_7.odb,Step-1,Increment      1: Step Time =    1.000,"PART-1-1",           483,      -8.75535,       22.4567,            0.,NA,NA,"",   42.3011E-03,  -42.3003E-03,   257.542E-06,   11.2017E-15
C:/temp/dataset/2/17_7.odb,Step-1,Increment      1: Step Time =    1.000,"PART-1-1",           484,      -7.50515,       23.6891,            0.,NA,NA,"",   43.1078E-03,  -43.0947E-03,   1.06286E-03,   11.3486E-15
C:/temp/dataset/2/17_7.odb,Step-1,Increment      1: Step Time =    1.000,"PART-1-1",           485,      -8.75118,       24.9458,            0.,NA,NA,"",   43.9050E-03,  -43.9042E-03,   259.710E-06,   11.3479E-15
C:/temp/dataset/2/17_7.odb,Step-1,Increment      1: Step Time =    1.000,"PART-1-1",           486,      -3.77419,       22.4219,            0.,NA,NA,"",   42.4209E-03,  -42.2789E-03,   3.46721E-03,   11.5676E-15
C:/temp/dataset/2/17_7.odb,Step-1,Increment      1: Step Time =    1.000,"PART-1-1",           487,      -5.00723,       21.2173,            0.,NA,NA,"",   41.5885E-03,  -41.5025E-03,   2.67294E-03,   11.4705E-15
C:/temp/dataset/2/17_7.odb,Step-1,Increment      1: Step Time =    1.000,"PART-1-1",           488,         -3.75,           20.,            0.,NA,NA,"",   40.8671E-03,  -40.7184E-03,   3.48330E-03,   11.1935E-15
C:/temp/dataset/2/17_7.odb,Step-1,Increment      1: Step Time =    1.000,"PART-1-1",           489,      -2.51696,       21.2046,            0.,NA,NA,"",   41.7147E-03,  -41.4948E-03,   4.27757E-03,   11.3765E-15
C:/temp/dataset/2/17_7.odb,Step-1,Increment      1: Step Time =    1.000,"PART-1-1",           490,         -8.75,           20.,            0.,NA,NA,"",   40.7182E-03,  -40.7173E-03,   261.498E-06,   11.3461E-15
C:/temp/dataset/2/17_7.odb,Step-1,Increment      1: Step Time =    1.000,"PART-1-1",           491,      -7.50331,       21.2223,            0.,NA,NA,"",   41.5188E-03,  -41.5052E-03,   1.06456E-03,   11.2634E-15
C:/temp/dataset/2/17_7.odb,Step-1,Increment      1: Step Time =    1.000,"PART-1-1",           492,         -6.25,           20.,            0.,NA,NA,"",   40.7609E-03,  -40.7179E-03,   1.87240E-03,   11.3956E-15
C:/temp/dataset/2/17_7.odb,Step-1,Increment      1: Step Time =    1.000,"PART-1-1",           493,      -6.26054,       22.4396,            0.,NA,NA,"",   42.3310E-03,  -42.2898E-03,   1.86510E-03,   11.4797E-15
C:/temp/dataset/2/17_7.odb,Step-1,Increment      1: Step Time =    1.000,"PART-1-1",           494,         -1.25,           20.,            0.,NA,NA,"",   41.0363E-03,  -40.7189E-03,   5.09420E-03,   11.7625E-15
C:/temp/dataset/2/17_7.odb,Step-1,Increment      1: Step Time =    1.000,"PART-1-1",           495,      -1.30453,       22.3853,            0.,NA,NA,"",   42.5576E-03,  -42.2559E-03,   5.05857E-03,   11.5879E-15
C:/temp/dataset/2/17_7.odb,Step-1,Increment      1: Step Time =    1.000,"PART-1-1",           496,         -1.25,           30.,            0.,NA,NA,"",   47.4366E-03,  -47.1625E-03,   5.09212E-03,   11.3039E-15
C:/temp/dataset/2/17_7.odb,Step-1,Increment      1: Step Time =    1.000,"PART-1-1",           497,      -2.50829,       28.7162,            0.,NA,NA,"",   46.5324E-03,  -46.3350E-03,   4.28160E-03,   11.3537E-15
C:/temp/dataset/2/17_7.odb,Step-1,Increment      1: Step Time =    1.000,"PART-1-1",           498,         -3.75,           30.,            0.,NA,NA,"",   47.2903E-03,  -47.1620E-03,   3.48122E-03,   11.0513E-15
C:/temp/dataset/2/17_7.odb,Step-1,Increment      1: Step Time =    1.000,"PART-1-1",           499,          3.75,           20.,            0.,NA,NA,"",   41.5604E-03,  -40.7199E-03,   8.31600E-03,   31.0172E-15
C:/temp/dataset/2/17_7.odb,Step-1,Increment      1: Step Time =    1.000,"PART-1-1",           500,       4.75388,       21.0765,            0.,NA,NA,"",   42.3725E-03,  -41.4138E-03,   8.96264E-03,   43.9570E-15
C:/temp/dataset/2/17_7.odb,Step-1,Increment      1: Step Time =    1.000,"PART-1-1",           501,          6.25,           30.,            0.,NA,NA,"",   48.1970E-03,  -47.1641E-03,   9.92483E-03,   20.5309E-15
C:/temp/dataset/2/17_7.odb,Step-1,Increment      1: Step Time =    1.000,"PART-1-1",           502,       6.61296,       27.1492,            0.,NA,NA,"",   46.4518E-03,  -45.3272E-03,   10.1593E-03,   15.4310E-15
C:/temp/dataset/2/17_7.odb,Step-1,Increment      1: Step Time =    1.000,"PART-1-1",           503,            5.,         16.25,            0.,NA,NA,"",   39.3751E-03,  -38.3038E-03,   9.12223E-03,   730.462E-15
C:/temp/dataset/2/17_7.odb,Step-1,Increment      1: Step Time =    1.000,"PART-1-1",           504,       6.03202,       15.2452,            0.,NA,NA,"",   38.9078E-03,  -37.6566E-03,   9.78743E-03,   951.954E-15
C:/temp/dataset/2/17_7.odb,Step-1,Increment      1: Step Time =    1.000,"PART-1-1",           505,       6.91243,       16.6330,            0.,NA,NA,"",   39.9173E-03,  -38.5510E-03,   10.3544E-03,   785.403E-15
C:/temp/dataset/2/17_7.odb,Step-1,Increment      1: Step Time =    1.000,"PART-1-1",           506,            5.,         13.75,            0.,NA,NA,"",   37.8100E-03,  -36.6929E-03,   9.12275E-03,   1.68806E-12
C:/temp/dataset/2/17_7.odb,Step-1,Increment      1: Step Time =    1.000,"PART-1-1",           507,       6.17466,       12.7979,            0.,NA,NA,"",   37.4080E-03,  -36.0797E-03,   9.87985E-03,   3.91054E-12
C:/temp/dataset/2/17_7.odb,Step-1,Increment      1: Step Time =    1.000,"PART-1-1",           508,       12.0086,       16.5092,            0.,NA,NA,"",   40.8181E-03,  -38.4723E-03,   13.6382E-03,   1.05844E-12
C:/temp/dataset/2/17_7.odb,Step-1,Increment      1: Step Time =    1.000,"PART-1-1",           509,           15.,        16.875,            0.,NA,NA,"",   41.7211E-03,  -38.7086E-03,   15.5657E-03,   381.825E-15
C:/temp/dataset/2/17_7.odb,Step-1,Increment      1: Step Time =    1.000,"PART-1-1",           510,       13.3591,       18.2744,            0.,NA,NA,"",   42.1834E-03,  -39.6100E-03,   14.5081E-03,   150.669E-15
C:/temp/dataset/2/17_7.odb,Step-1,Increment      1: Step Time =    1.000,"PART-1-1",           511,            5.,         11.25,            0.,NA,NA,"",   36.2489E-03,  -35.0820E-03,   9.12327E-03,   13.0368E-12
C:/temp/dataset/2/17_7.odb,Step-1,Increment      1: Step Time =    1.000,"PART-1-1",           512,       6.23142,       10.2778,            0.,NA,NA,"",   35.8546E-03,  -34.4558E-03,   9.91695E-03,   9.10416E-12
C:/temp/dataset/2/17_7.odb,Step-1,Increment      1: Step Time =    1.000,"PART-1-1",           513,            5.,          8.75,            0.,NA,NA,"",   34.6924E-03,  -33.4711E-03,   9.12379E-03,   19.1705E-12
C:/temp/dataset/2/17_7.odb,Step-1,Increment      1: Step Time =    1.000,"PART-1-1",           514,       7.47251,       9.25684,            0.,NA,NA,"",   35.4566E-03,  -33.7982E-03,   10.7169E-03,   17.5103E-12
C:/temp/dataset/2/17_7.odb,Step-1,Increment      1: Step Time =    1.000,"PART-1-1",           515,         11.25,           -5.,            0.,NA,NA,"",   27.9070E-03,  -24.6125E-03,   13.1539E-03,   48.0642E-12
C:/temp/dataset/2/17_7.odb,Step-1,Increment      1: Step Time =    1.000,"PART-1-1",           516,       11.2689,      -2.22707,            0.,NA,NA,"",   29.5000E-03,  -26.3993E-03,   13.1655E-03,   84.8471E-12
C:/temp/dataset/2/17_7.odb,Step-1,Increment      1: Step Time =    1.000,"PART-1-1",           517,          10.5,          -30.,            0.,NA,NA,"",            0.,  -2.68528E-39,   958.246E-42,   2.27831E-03
C:/temp/dataset/2/17_7.odb,Step-1,Increment      1: Step Time =    1.000,"PART-1-1",           518,           15.,        -23.75,            0.,NA,NA,"",   71.9605E-03,  -64.8120E-03,   31.2685E-03,   6.47437E-03
C:/temp/dataset/2/17_7.odb,Step-1,Increment      1: Step Time =    1.000,"PART-1-1",           519,          3.75,           -5.,            0.,NA,NA,"",   25.9796E-03,  -24.6109E-03,   8.32119E-03,   1.62408E-09
C:/temp/dataset/2/17_7.odb,Step-1,Increment      1: Step Time =    1.000,"PART-1-1",           520,       4.97006,      -3.74763,            0.,NA,NA,"",   27.0004E-03,  -25.4182E-03,   9.10709E-03,   774.790E-12
C:/temp/dataset/2/17_7.odb,Step-1,Increment      1: Step Time =    1.000,"PART-1-1",           521,       4.85412,       3.76356,            0.,NA,NA,"",   31.5770E-03,  -30.2580E-03,   9.03083E-03,   662.228E-12
C:/temp/dataset/2/17_7.odb,Step-1,Increment      1: Step Time =    1.000,"PART-1-1",           522,       3.33333,            5.,            0.,NA,NA,"",   32.0810E-03,  -31.0544E-03,   8.05063E-03,   1.43074E-09
C:/temp/dataset/2/17_7.odb,Step-1,Increment      1: Step Time =    1.000,"PART-1-1",           523,       1.45296,       3.58740,            0.,NA,NA,"",   30.9100E-03,  -30.1438E-03,   6.83929E-03,   1.20840E-09
C:/temp/dataset/2/17_7.odb,Step-1,Increment      1: Step Time =    1.000,"PART-1-1",           524,       2.97375,       2.35096,            0.,NA,NA,"",   30.3713E-03,  -29.3474E-03,   7.81948E-03,   603.843E-12
C:/temp/dataset/2/17_7.odb,Step-1,Increment      1: Step Time =    1.000,"PART-1-1",           525,          6.25,           -5.,            0.,NA,NA,"",   26.5400E-03,  -24.6114E-03,   9.93209E-03,   838.840E-12
C:/temp/dataset/2/17_7.odb,Step-1,Increment      1: Step Time =    1.000,"PART-1-1",           526,       12.4696,       10.4445,            0.,NA,NA,"",   37.2684E-03,  -34.5646E-03,   13.9365E-03,   5.51370E-12
C:/temp/dataset/2/17_7.odb,Step-1,Increment      1: Step Time =    1.000,"PART-1-1",           527,           15.,       11.0417,            0.,NA,NA,"",   38.2599E-03,  -34.9499E-03,   15.5669E-03,   7.51325E-12
C:/temp/dataset/2/17_7.odb,Step-1,Increment      1: Step Time =    1.000,"PART-1-1",           528,      -5.01382,       23.6808,            0.,NA,NA,"",   43.1724E-03,  -43.0899E-03,   2.66818E-03,   11.4531E-15
C:/temp/dataset/2/17_7.odb,Step-1,Increment      1: Step Time =    1.000,"PART-1-1",           529,      -2.53358,       23.6558,            0.,NA,NA,"",   43.2850E-03,  -43.0743E-03,   4.26635E-03,   11.5457E-15
C:/temp/dataset/2/17_7.odb,Step-1,Increment      1: Step Time =    1.000,"PART-1-1",           530,  -74.6816E-03,       23.6075,            0.,NA,NA,"",   43.4395E-03,  -43.0437E-03,   5.85078E-03,   12.1671E-15
C:/temp/dataset/2/17_7.odb,Step-1,Increment      1: Step Time =    1.000,"PART-1-1",           531,      -6.62798,      -1.45964,            0.,NA,NA,"",   26.9397E-03,  -26.8902E-03,   1.63314E-03,   103.263E-09
C:/temp/dataset/2/17_7.odb,Step-1,Increment      1: Step Time =    1.000,"PART-1-1",           532,      -4.43070,      -2.38075,            0.,NA,NA,"",   26.4732E-03,  -26.2970E-03,   3.04940E-03,   79.5487E-09
C:/temp/dataset/2/17_7.odb,Step-1,Increment      1: Step Time =    1.000,"PART-1-1",           533,      -3.64554,  -813.143E-03,            0.,NA,NA,"",   27.5377E-03,  -27.3073E-03,   3.55493E-03,   40.1953E-09
C:/temp/dataset/2/17_7.odb,Step-1,Increment      1: Step Time =    1.000,"PART-1-1",           534,         -3.75,           -5.,            0.,NA,NA,"",   24.8554E-03,  -24.6093E-03,   3.48863E-03,   122.688E-09
C:/temp/dataset/2/17_7.odb,Step-1,Increment      1: Step Time =    1.000,"PART-1-1",           535,      -13.8599,      -9.43096,            0.,NA,NA,"",   21.9712E-03,  -21.7620E-03,  -3.02504E-03,   1.96029E-06
C:/temp/dataset/2/17_7.odb,Step-1,Increment      1: Step Time =    1.000,"PART-1-1",           536,          -15.,      -11.0417,            0.,NA,NA,"",   21.0690E-03,  -20.7307E-03,  -3.76075E-03,   5.96903E-06
C:/temp/dataset/2/17_7.odb,Step-1,Increment      1: Step Time =    1.000,"PART-1-1",           537,      -11.9984,      -19.8095,            0.,NA,NA,"",   14.9284E-03,  -14.8264E-03,  -1.74217E-03,   78.8104E-06
C:/temp/dataset/2/17_7.odb,Step-1,Increment      1: Step Time =    1.000,"PART-1-1",           538,      -13.3881,      -18.2324,            0.,NA,NA,"",   16.2758E-03,  -16.0327E-03,  -2.80263E-03,   45.0734E-06
C:/temp/dataset/2/17_7.odb,Step-1,Increment      1: Step Time =    1.000,"PART-1-1",           539,          -15.,      -19.7917,            0.,NA,NA,"",   15.3374E-03,  -14.7537E-03,  -4.19121E-03,   97.0298E-06
C:/temp/dataset/2/17_7.odb,Step-1,Increment      1: Step Time =    1.000,"PART-1-1",           540,           -5.,        -18.75,            0.,NA,NA,"",   16.1749E-03,  -16.0284E-03,   2.17182E-03,   226.605E-06
C:/temp/dataset/2/17_7.odb,Step-1,Increment      1: Step Time =    1.000,"PART-1-1",           541,      -5.96138,      -20.0094,            0.,NA,NA,"",   15.8919E-03,  -15.7959E-03,   1.74448E-03,   495.718E-06
C:/temp/dataset/2/17_7.odb,Step-1,Increment      1: Step Time =    1.000,"PART-1-1",           542,           -5.,        -13.75,            0.,NA,NA,"",   19.1222E-03,  -18.9379E-03,   2.64847E-03,   34.3285E-06
C:/temp/dataset/2/17_7.odb,Step-1,Increment      1: Step Time =    1.000,"PART-1-1",           543,      -7.28958,      -14.3036,            0.,NA,NA,"",   18.6106E-03,  -18.5706E-03,   1.22003E-03,   34.9871E-06
C:/temp/dataset/2/17_7.odb,Step-1,Increment      1: Step Time =    1.000,"PART-1-1",           544,      -8.88285,      -11.0213,            0.,NA,NA,"",   20.7220E-03,  -20.7211E-03,   192.480E-06,   9.00698E-06
C:/temp/dataset/2/17_7.odb,Step-1,Increment      1: Step Time =    1.000,"PART-1-1",           545,      -9.01222,      -8.51542,            0.,NA,NA,"",   22.3417E-03,  -22.3415E-03,   99.8746E-06,   2.42705E-06
C:/temp/dataset/2/17_7.odb,Step-1,Increment      1: Step Time =    1.000,"PART-1-1",           546,      -9.13424,  -715.290E-03,            0.,NA,NA,"",   27.3692E-03,  -27.3692E-03,   17.9714E-06,   77.3416E-09
C:/temp/dataset/2/17_7.odb,Step-1,Increment      1: Step Time =    1.000,"PART-1-1",           547,      -9.92186,      -2.42350,            0.,NA,NA,"",   26.2730E-03,  -26.2684E-03,  -489.301E-06,   113.362E-09
C:/temp/dataset/2/17_7.odb,Step-1,Increment      1: Step Time =    1.000,"PART-1-1",           548,      -12.7176,      -7.95930,            0.,NA,NA,"",   22.8204E-03,  -22.7053E-03,  -2.28893E-03,   2.03734E-06
C:/temp/dataset/2/17_7.odb,Step-1,Increment      1: Step Time =    1.000,"PART-1-1",           549,          -15.,        -8.125,            0.,NA,NA,"",   22.9090E-03,  -22.5988E-03,  -3.75711E-03,   455.553E-09
C:/temp/dataset/2/17_7.odb,Step-1,Increment      1: Step Time =    1.000,"PART-1-1",           550,       11.2818,   528.104E-03,            0.,NA,NA,"",   31.1021E-03,  -28.1746E-03,   13.1732E-03,   90.3171E-12
C:/temp/dataset/2/17_7.odb,Step-1,Increment      1: Step Time =    1.000,"PART-1-1",           551,       10.0167,  -924.457E-03,            0.,NA,NA,"",   29.9108E-03,  -27.2383E-03,   12.3584E-03,   119.701E-12
C:/temp/dataset/2/17_7.odb,Step-1,Increment      1: Step Time =    1.000,"PART-1-1",           552,       10.4320,       23.7699,            0.,NA,NA,"",   44.9583E-03,  -43.1505E-03,   12.6208E-03,   8.68266E-15
C:/temp/dataset/2/17_7.odb,Step-1,Increment      1: Step Time =    1.000,"PART-1-1",           553,           15.,        25.625,            0.,NA,NA,"",   46.9986E-03,  -44.3468E-03,   15.5639E-03,   27.8330E-15
C:/temp/dataset/2/17_7.odb,Step-1,Increment      1: Step Time =    1.000,"PART-1-1",           554,      -9.99539,       26.2124,            0.,NA,NA,"",   44.7234E-03,  -44.7201E-03,  -542.274E-06,   11.2916E-15
C:/temp/dataset/2/17_7.odb,Step-1,Increment      1: Step Time =    1.000,"PART-1-1",           555,          -15.,       -25.625,            0.,NA,NA,"",   9.08102E-03,  -8.00159E-03,  -4.29413E-03,   408.997E-06
C:/temp/dataset/2/17_7.odb,Step-1,Increment      1: Step Time =    1.000,"PART-1-1",           556,      -12.2044,      -25.8339,            0.,NA,NA,"",   7.40393E-03,  -7.27735E-03,  -1.36321E-03,   843.619E-06
C:/temp/dataset/2/17_7.odb,Step-1,Increment      1: Step Time =    1.000,"PART-1-1",           557,          -15.,       -16.875,            0.,NA,NA,"",   17.3984E-03,  -16.9514E-03,  -3.91854E-03,   69.1943E-06
C:/temp/dataset/2/17_7.odb,Step-1,Increment      1: Step Time =    1.000,"PART-1-1",           558,      -8.25880,      -15.9015,            0.,NA,NA,"",   17.5666E-03,  -17.5539E-03,   667.165E-06,   39.2942E-06
C:/temp/dataset/2/17_7.odb,Step-1,Increment      1: Step Time =    1.000,"PART-1-1",           559,       7.56555,       17.9230,            0.,NA,NA,"",   40.8298E-03,  -39.3824E-03,   10.7750E-03,   329.870E-15
C:/temp/dataset/2/17_7.odb,Step-1,Increment      1: Step Time =    1.000,"PART-1-1",           560,      -9.72707,       2.21069,            0.,NA,NA,"",   29.2566E-03,  -29.2543E-03,  -364.463E-06,   39.8927E-09
C:/temp/dataset/2/17_7.odb,Step-1,Increment      1: Step Time =    1.000,"PART-1-1",           561,      -8.18006,       3.69884,            0.,NA,NA,"",   30.2201E-03,  -30.2135E-03,   632.030E-06,   43.3080E-09
C:/temp/dataset/2/17_7.odb,Step-1,Increment      1: Step Time =    1.000,"PART-1-1",           562,          -10.,            5.,            0.,NA,NA,"",   31.0562E-03,  -31.0514E-03,  -540.834E-06,   43.2590E-09
C:/temp/dataset/2/17_7.odb,Step-1,Increment      1: Step Time =    1.000,"PART-1-1",           563,      -10.3433,      -7.69771,            0.,NA,NA,"",   22.8836E-03,  -22.8711E-03,  -758.782E-06,   2.12819E-06
C:/temp/dataset/2/17_7.odb,Step-1,Increment      1: Step Time =    1.000,"PART-1-1",           564,      -11.5611,      -6.59494,            0.,NA,NA,"",   23.6323E-03,  -23.5818E-03,  -1.54445E-03,   639.020E-09
C:/temp/dataset/2/17_7.odb,Step-1,Increment      1: Step Time =    1.000,"PART-1-1",           565,      -9.40089,      -20.7816,            0.,NA,NA,"",   14.2480E-03,  -14.2480E-03,  -16.6649E-06,   280.360E-06
C:/temp/dataset/2/17_7.odb,Step-1,Increment      1: Step Time =    1.000,"PART-1-1",           566,      -8.21757,      -22.2064,            0.,NA,NA,"",   13.2586E-03,  -13.2535E-03,   369.859E-06,   640.412E-06
C:/temp/dataset/2/17_7.odb,Step-1,Increment      1: Step Time =    1.000,"PART-1-1",           567,      -6.89894,      -21.2078,            0.,NA,NA,"",   14.7705E-03,  -14.7321E-03,   1.06330E-03,   604.919E-06
C:/temp/dataset/2/17_7.odb,Step-1,Increment      1: Step Time =    1.000,"PART-1-1",           568,      -9.14285,      -28.6800,            0.,NA,NA,"",   2.48752E-03,  -2.47698E-03,  -228.745E-06,   1.22052E-03
C:/temp/dataset/2/17_7.odb,Step-1,Increment      1: Step Time =    1.000,"PART-1-1",           569,      -10.7232,      -27.3047,            0.,NA,NA,"",   4.81976E-03,  -4.79242E-03,  -512.706E-06,   1.12055E-03
C:/temp/dataset/2/17_7.odb,Step-1,Increment      1: Step Time =    1.000,"PART-1-1",           570,         -10.5,          -30.,            0.,NA,NA,"",            0.,  -1.25362E-39,  -866.399E-42,   1.12417E-03
C:/temp/dataset/2/17_7.odb,Step-1,Increment      1: Step Time =    1.000,"PART-1-1",           571,      -4.89633,      -27.4366,            0.,NA,NA,"",   6.17289E-03,  -6.16690E-03,  -271.777E-06,   1.57282E-03
C:/temp/dataset/2/17_7.odb,Step-1,Increment      1: Step Time =    1.000,"PART-1-1",           572,      -6.18287,      -28.7136,            0.,NA,NA,"",   2.92957E-03,  -2.92277E-03,  -199.498E-06,   1.46471E-03
C:/temp/dataset/2/17_7.odb,Step-1,Increment      1: Step Time =    1.000,"PART-1-1",           573,          -4.5,          -30.,            0.,NA,NA,"",            0.,  -1.93703E-39,  -815.905E-42,   1.71664E-03
C:/temp/dataset/2/17_7.odb,Step-1,Increment      1: Step Time =    1.000,"PART-1-1",           574,       12.5384,       2.02620,            0.,NA,NA,"",   32.3212E-03,  -29.1401E-03,   13.9826E-03,   36.4987E-12
C:/temp/dataset/2/17_7.odb,Step-1,Increment      1: Step Time =    1.000,"PART-1-1",           575,           15.,       2.29167,            0.,NA,NA,"",   33.1898E-03,  -29.3117E-03,   15.5687E-03,   10.5607E-12
C:/temp/dataset/2/17_7.odb,Step-1,Increment      1: Step Time =    1.000,"PART-1-1",           576,       9.96595,       9.83263,            0.,NA,NA,"",   36.3241E-03,  -34.1698E-03,   12.3234E-03,   9.03791E-12
C:/temp/dataset/2/17_7.odb,Step-1,Increment      1: Step Time =    1.000,"PART-1-1",           577,           15.,       19.7917,            0.,NA,NA,"",   43.4702E-03,  -40.5880E-03,   15.5651E-03,   50.5562E-15
C:/temp/dataset/2/17_7.odb,Step-1,Increment      1: Step Time =    1.000,"PART-1-1",           578,       7.90800,       20.1372,            0.,NA,NA,"",   42.2644E-03,  -40.8092E-03,   10.9952E-03,   46.0661E-15
C:/temp/dataset/2/17_7.odb,Step-1,Increment      1: Step Time =    1.000,"PART-1-1",           579,       8.41916,       21.3934,            0.,NA,NA,"",   43.1319E-03,  -41.6187E-03,   11.3243E-03,   34.0765E-15
C:/temp/dataset/2/17_7.odb,Step-1,Increment      1: Step Time =    1.000,"PART-1-1",           580,       6.50486,       21.1025,            0.,NA,NA,"",   42.6421E-03,  -41.4309E-03,   10.0909E-03,   17.9709E-15
C:/temp/dataset/2/17_7.odb,Step-1,Increment      1: Step Time =    1.000,"PART-1-1",           581,           4.5,          -30.,            0.,NA,NA,"",            0.,  -3.13578E-39,  -1.80200E-39,   2.80178E-03
C:/temp/dataset/2/17_7.odb,Step-1,Increment      1: Step Time =    1.000,"PART-1-1",           582,       3.62857,      -22.4261,            0.,NA,NA,"",   27.3466E-03,  -27.3301E-03,   948.267E-06,   3.00195E-03
C:/temp/dataset/2/17_7.odb,Step-1,Increment      1: Step Time =    1.000,"PART-1-1",           583,       2.16864,      -23.6665,            0.,NA,NA,"",   21.4396E-03,  -21.4396E-03,  -24.9511E-06,   2.44716E-03
C:/temp/dataset/2/17_7.odb,Step-1,Increment      1: Step Time =    1.000,"PART-1-1",           584,      -2.73954,      -22.4743,            0.,NA,NA,"",   16.9626E-03,  -16.9364E-03,   941.842E-06,   1.44942E-03
C:/temp/dataset/2/17_7.odb,Step-1,Increment      1: Step Time =    1.000,"PART-1-1",           585,  -999.676E-03,      -23.6839,            0.,NA,NA,"",   17.0376E-03,  -17.0352E-03,   284.109E-06,   1.79129E-03
C:/temp/dataset/2/17_7.odb,Step-1,Increment      1: Step Time =    1.000,"PART-1-1",           586,      -7.82572,      -27.3936,            0.,NA,NA,"",   5.25131E-03,  -5.24619E-03,  -231.792E-06,   1.31377E-03
C:/temp/dataset/2/17_7.odb,Step-1,Increment      1: Step Time =    1.000,"PART-1-1",           587,      -6.52069,      -26.1528,            0.,NA,NA,"",   8.13688E-03,  -8.13607E-03,  -114.388E-06,   1.30830E-03
C:/temp/dataset/2/17_7.odb,Step-1,Increment      1: Step Time =    1.000,"PART-1-1",           588,      -8.08310,      -24.7829,            0.,NA,NA,"",   9.85469E-03,  -9.85460E-03,  -43.0145E-06,   1.04818E-03
C:/temp/dataset/2/17_7.odb,Step-1,Increment      1: Step Time =    1.000,"PART-1-1",           589,      -9.38814,      -26.0237,            0.,NA,NA,"",   7.35079E-03,  -7.34196E-03,  -360.168E-06,   1.06327E-03
C:/temp/dataset/2/17_7.odb,Step-1,Increment      1: Step Time =    1.000,"PART-1-1",           590,          -7.5,          -30.,            0.,NA,NA,"",            0.,  -1.55739E-39,  -656.095E-42,   1.38910E-03
C:/temp/dataset/2/17_7.odb,Step-1,Increment      1: Step Time =    1.000,"PART-1-1",           591,       7.73182,       24.8866,            0.,NA,NA,"",   45.1987E-03,  -43.8695E-03,   10.8807E-03,   13.8562E-15
C:/temp/dataset/2/17_7.odb,Step-1,Increment      1: Step Time =    1.000,"PART-1-1",           592,       8.21760,       26.2797,            0.,NA,NA,"",   46.1454E-03,  -44.7673E-03,   11.1934E-03,   14.3333E-15
C:/temp/dataset/2/17_7.odb,Step-1,Increment      1: Step Time =    1.000,"PART-1-1",           593,       6.12718,       25.7561,            0.,NA,NA,"",   45.5074E-03,  -44.4294E-03,   9.84657E-03,   16.1713E-15
C:/temp/dataset/2/17_7.odb,Step-1,Increment      1: Step Time =    1.000,"PART-1-1",           594,       5.38844,       22.1508,            0.,NA,NA,"",   43.1364E-03,  -42.1061E-03,   9.37130E-03,   31.8669E-15
C:/temp/dataset/2/17_7.odb,Step-1,Increment      1: Step Time =    1.000,"PART-1-1",           595,      -3.37677,   775.412E-03,            0.,NA,NA,"",   28.5751E-03,  -28.3309E-03,   3.72775E-03,   31.4518E-09
C:/temp/dataset/2/17_7.odb,Step-1,Increment      1: Step Time =    1.000,"PART-1-1",           596,      -3.41233,       2.84116,            0.,NA,NA,"",   29.8924E-03,  -29.6620E-03,   3.70439E-03,   20.8640E-09
C:/temp/dataset/2/17_7.odb,Step-1,Increment      1: Step Time =    1.000,"PART-1-1",           597,      -11.2482,       24.9673,            0.,NA,NA,"",   43.9383E-03,  -43.9176E-03,  -1.34929E-03,   11.4362E-15
C:/temp/dataset/2/17_7.odb,Step-1,Increment      1: Step Time =    1.000,"PART-1-1",           598,       5.16292,       24.1270,            0.,NA,NA,"",   44.3496E-03,  -43.3795E-03,   9.22558E-03,   19.4902E-15
C:/temp/dataset/2/17_7.odb,Step-1,Increment      1: Step Time =    1.000,"PART-1-1",           599,            0.,            5.,            0.,NA,NA,"",   31.6098E-03,  -31.0538E-03,   5.90275E-03,   1.02354E-09
C:/temp/dataset/2/17_7.odb,Step-1,Increment      1: Step Time =    1.000,"PART-1-1",           600,      -1.80204,       3.95011,            0.,NA,NA,"",   30.7447E-03,  -30.3769E-03,   4.74179E-03,   5.07193E-09
C:/temp/dataset/2/17_7.odb,Step-1,Increment      1: Step Time =    1.000,"PART-1-1",           601,       9.59799,       22.9228,            0.,NA,NA,"",   44.2849E-03,  -42.6045E-03,   12.0836E-03,   13.2129E-15
C:/temp/dataset/2/17_7.odb,Step-1,Increment      1: Step Time =    1.000,"PART-1-1",           602,       8.30932,       22.9391,            0.,NA,NA,"",   44.0755E-03,  -42.6147E-03,   11.2532E-03,   21.4310E-15
C:/temp/dataset/2/17_7.odb,Step-1,Increment      1: Step Time =    1.000,"PART-1-1",           603,      -1.93269,      -1.01257,            0.,NA,NA,"",   27.5755E-03,  -27.1791E-03,   4.65867E-03,   19.0166E-09
C:/temp/dataset/2/17_7.odb,Step-1,Increment      1: Step Time =    1.000,"PART-1-1",           604,      -8.69440,      -13.5596,            0.,NA,NA,"",   19.0769E-03,  -19.0738E-03,   342.030E-06,   24.0617E-06
C:/temp/dataset/2/17_7.odb,Step-1,Increment      1: Step Time =    1.000,"PART-1-1",           605,       6.07991,       2.65614,            0.,NA,NA,"",   31.1342E-03,  -29.5447E-03,   9.82091E-03,   588.128E-12
C:/temp/dataset/2/17_7.odb,Step-1,Increment      1: Step Time =    1.000,"PART-1-1",           606,       4.75906,       1.28045,            0.,NA,NA,"",   30.0290E-03,  -28.6580E-03,   8.97009E-03,   801.245E-12
C:/temp/dataset/2/17_7.odb,Step-1,Increment      1: Step Time =    1.000,"PART-1-1",           607,       10.0234,       4.43547,            0.,NA,NA,"",   33.0879E-03,  -30.6921E-03,   12.3616E-03,   67.6232E-12
C:/temp/dataset/2/17_7.odb,Step-1,Increment      1: Step Time =    1.000,"PART-1-1",           608,       7.46673,       4.06304,            0.,NA,NA,"",   32.2815E-03,  -30.4516E-03,   10.7142E-03,   199.912E-12
C:/temp/dataset/2/17_7.odb,Step-1,Increment      1: Step Time =    1.000,"PART-1-1",           609,  -317.165E-03,  -486.862E-03,            0.,NA,NA,"",   28.1022E-03,  -27.5182E-03,   5.69954E-03,   7.79106E-09
C:/temp/dataset/2/17_7.odb,Step-1,Increment      1: Step Time =    1.000,"PART-1-1",           610,       1.72730,   921.331E-03,            0.,NA,NA,"",   29.2792E-03,  -28.4260E-03,   7.01661E-03,   1.16405E-09
C:/temp/dataset/2/17_7.odb,Step-1,Increment      1: Step Time =    1.000,"PART-1-1",           611,      -4.63664,      -21.2535,            0.,NA,NA,"",   16.3295E-03,  -16.2710E-03,   1.38141E-03,   974.137E-06
C:/temp/dataset/2/17_7.odb,Step-1,Increment      1: Step Time =    1.000,"PART-1-1",           612,       11.2827,       3.26092,            0.,NA,NA,"",   32.7058E-03,  -29.9355E-03,   13.1732E-03,   71.3837E-12
C:/temp/dataset/2/17_7.odb,Step-1,Increment      1: Step Time =    1.000,"PART-1-1",           613,      -11.4502,      -4.36864,            0.,NA,NA,"",   25.0584E-03,  -25.0151E-03,  -1.47359E-03,   122.271E-09
C:/temp/dataset/2/17_7.odb,Step-1,Increment      1: Step Time =    1.000,"PART-1-1",           614,      -10.8693,      -24.5529,            0.,NA,NA,"",   9.49396E-03,  -9.45390E-03,  -871.226E-06,   735.092E-06
C:/temp/dataset/2/17_7.odb,Step-1,Increment      1: Step Time =    1.000,"PART-1-1",           615,      -9.52531,      -23.3517,            0.,NA,NA,"",   11.4475E-03,  -11.4441E-03,  -280.517E-06,   661.900E-06
C:/temp/dataset/2/17_7.odb,Step-1,Increment      1: Step Time =    1.000,"PART-1-1",           616,      -10.8903,      -21.7518,            0.,NA,NA,"",   13.1149E-03,  -13.0811E-03,  -941.239E-06,   303.446E-06
C:/temp/dataset/2/17_7.odb,Step-1,Increment      1: Step Time =    1.000,"PART-1-1",           617,       3.33333,          -20.,            0.,NA,NA,"",   30.3376E-03,  -30.0847E-03,   3.90890E-03,   3.12568E-03
C:/temp/dataset/2/17_7.odb,Step-1,Increment      1: Step Time =    1.000,"PART-1-1",           618,       1.83446,      -21.2108,            0.,NA,NA,"",   25.5759E-03,  -25.4899E-03,   2.09570E-03,   2.38230E-03
C:/temp/dataset/2/17_7.odb,Step-1,Increment      1: Step Time =    1.000,"PART-1-1",           619,       5.12744,      -21.2153,            0.,NA,NA,"",   34.1290E-03,  -34.0104E-03,   2.84283E-03,   3.55596E-03
C:/temp/dataset/2/17_7.odb,Step-1,Increment      1: Step Time =    1.000,"PART-1-1",           620,            0.,          -20.,            0.,NA,NA,"",   22.9330E-03,  -22.7430E-03,   2.94601E-03,   1.99730E-03
C:/temp/dataset/2/17_7.odb,Step-1,Increment      1: Step Time =    1.000,"PART-1-1",           621,      -1.43624,      -21.2208,            0.,NA,NA,"",   19.8874E-03,  -19.8104E-03,   1.74817E-03,   1.57589E-03
C:/temp/dataset/2/17_7.odb,Step-1,Increment      1: Step Time =    1.000,"PART-1-1",           622,   398.228E-03,      -22.4316,            0.,NA,NA,"",   21.1698E-03,  -21.1482E-03,   956.866E-06,   2.09522E-03
C:/temp/dataset/2/17_7.odb,Step-1,Increment      1: Step Time =    1.000,"PART-1-1",           623,   770.736E-03,      -24.9188,            0.,NA,NA,"",   16.2755E-03,  -16.2691E-03,  -456.518E-06,   2.23908E-03
C:/temp/dataset/2/17_7.odb,Step-1,Increment      1: Step Time =    1.000,"PART-1-1",           624,      -3.33333,          -20.,            0.,NA,NA,"",   18.1356E-03,  -18.0031E-03,   2.18885E-03,   1.28352E-03
C:/temp/dataset/2/17_7.odb,Step-1,Increment      1: Step Time =    1.000,"PART-1-1",           625,       8.69606,       24.2205,            0.,NA,NA,"",   44.9374E-03,  -43.4404E-03,   11.5022E-03,   14.8038E-15
C:/temp/dataset/2/17_7.odb,Step-1,Increment      1: Step Time =    1.000,"PART-1-1",           626,      -3.33333,            5.,            0.,NA,NA,"",   31.2792E-03,  -31.0531E-03,   3.75485E-03,   11.7166E-09
C:/temp/dataset/2/17_7.odb,Step-1,Increment      1: Step Time =    1.000,"PART-1-1",           627,      -4.94363,       3.89105,            0.,NA,NA,"",   30.4596E-03,  -30.3381E-03,   2.71743E-03,   24.8998E-09
C:/temp/dataset/2/17_7.odb,Step-1,Increment      1: Step Time =    1.000,"PART-1-1",           628,      -6.66667,            5.,            0.,NA,NA,"",   31.0938E-03,  -31.0523E-03,   1.60694E-03,   40.2930E-09
C:/temp/dataset/2/17_7.odb,Step-1,Increment      1: Step Time =    1.000,"PART-1-1",           629,           10.,          -20.,            0.,NA,NA,"",   60.6659E-03,  -59.2652E-03,   12.9610E-03,   6.80749E-03
C:/temp/dataset/2/17_7.odb,Step-1,Increment      1: Step Time =    1.000,"PART-1-1",           630,       8.42239,      -21.2201,            0.,NA,NA,"",   46.9502E-03,  -46.5842E-03,   5.85077E-03,   5.19184E-03
C:/temp/dataset/2/17_7.odb,Step-1,Increment      1: Step Time =    1.000,"PART-1-1",           631,       6.66667,          -20.,            0.,NA,NA,"",   42.0791E-03,  -41.6183E-03,   6.21026E-03,   4.84290E-03
C:/temp/dataset/2/17_7.odb,Step-1,Increment      1: Step Time =    1.000,"PART-1-1",           632,       9.53008,       25.0675,            0.,NA,NA,"",   45.6043E-03,  -43.9864E-03,   12.0394E-03,   14.9644E-15
