ODB Name,Step,Frame,Part Instance Name,    êﬂì_ÉâÉxÉã,X,Y,Z,Section Name,Material Name,Section Point,   U-Magnitude,          U-U1,          U-U2,       S-Mises
C:/temp/dataset/2/21_9.odb,Step-1,Increment     11: Step Time =    1.000,"PART-1-1",             1,          -15.,           20.,            0.,NA,NA,"",       19.1405,       17.0762,       8.64639,   9.17129E-03
C:/temp/dataset/2/21_9.odb,Step-1,Increment     11: Step Time =    1.000,"PART-1-1",             2,          -15.,           25.,            0.,NA,NA,"",       21.6750,       20.3967,       7.33348,   5.39661E-03
C:/temp/dataset/2/21_9.odb,Step-1,Increment     11: Step Time =    1.000,"PART-1-1",             3,          -10.,           20.,            0.,NA,NA,"",       16.6388,       15.7847,       5.26251,   9.84823E-03
C:/temp/dataset/2/21_9.odb,Step-1,Increment     11: Step Time =    1.000,"PART-1-1",             4,           -5.,           20.,            0.,NA,NA,"",       14.6567,       14.5385,       1.85726,   20.5160E-03
C:/temp/dataset/2/21_9.odb,Step-1,Increment     11: Step Time =    1.000,"PART-1-1",             5,            0.,           20.,            0.,NA,NA,"",       13.4824,       13.3983,      -1.50397,   31.0104E-03
C:/temp/dataset/2/21_9.odb,Step-1,Increment     11: Step Time =    1.000,"PART-1-1",             6,            5.,           20.,            0.,NA,NA,"",       13.2915,       12.3544,      -4.90248,   104.017E-03
C:/temp/dataset/2/21_9.odb,Step-1,Increment     11: Step Time =    1.000,"PART-1-1",             7,            5.,          12.5,            0.,NA,NA,"",       9.30680,       8.25909,      -4.28999,   70.9834E-03
C:/temp/dataset/2/21_9.odb,Step-1,Increment     11: Step Time =    1.000,"PART-1-1",             8,            5.,            5.,            0.,NA,NA,"",       6.02493,       4.55473,      -3.94388,   118.496E-03
C:/temp/dataset/2/21_9.odb,Step-1,Increment     11: Step Time =    1.000,"PART-1-1",             9,           -5.,            5.,            0.,NA,NA,"",       4.54927,       4.36950,      -1.26621,   39.8174E-03
C:/temp/dataset/2/21_9.odb,Step-1,Increment     11: Step Time =    1.000,"PART-1-1",            10,          -15.,            5.,            0.,NA,NA,"",       4.53197,       4.45500,   831.673E-03,   1.32999E-03
C:/temp/dataset/2/21_9.odb,Step-1,Increment     11: Step Time =    1.000,"PART-1-1",            11,          -15.,         -3.75,            0.,NA,NA,"",       2.74698,       2.58063,   941.402E-03,   32.1069E-03
C:/temp/dataset/2/21_9.odb,Step-1,Increment     11: Step Time =    1.000,"PART-1-1",            12,          -15.,         -12.5,            0.,NA,NA,"",       1.26649,       1.03482,   730.164E-03,   51.6888E-03
C:/temp/dataset/2/21_9.odb,Step-1,Increment     11: Step Time =    1.000,"PART-1-1",            13,          -15.,        -21.25,            0.,NA,NA,"",   380.041E-03,   188.171E-03,   330.186E-03,   54.7132E-03
C:/temp/dataset/2/21_9.odb,Step-1,Increment     11: Step Time =    1.000,"PART-1-1",            14,          -15.,          -30.,            0.,NA,NA,"",            0.,   26.0473E-42,   46.7711E-42,   35.9195E-03
C:/temp/dataset/2/21_9.odb,Step-1,Increment     11: Step Time =    1.000,"PART-1-1",            15,           15.,          -30.,            0.,NA,NA,"",            0.,   4.99703E-42,  -8.29008E-42,   5.95694E-03
C:/temp/dataset/2/21_9.odb,Step-1,Increment     11: Step Time =    1.000,"PART-1-1",            16,           15.,          -25.,            0.,NA,NA,"",   25.2181E-03,   23.1456E-03,  -10.0117E-03,   221.725E-06
C:/temp/dataset/2/21_9.odb,Step-1,Increment     11: Step Time =    1.000,"PART-1-1",            17,           15.,          -20.,            0.,NA,NA,"",   37.6915E-03,   36.4291E-03,  -9.67320E-03,   23.6005E-06
C:/temp/dataset/2/21_9.odb,Step-1,Increment     11: Step Time =    1.000,"PART-1-1",            18,            5.,          -20.,            0.,NA,NA,"",   37.4566E-03,   37.4311E-03,   1.38312E-03,   1.12166E-03
C:/temp/dataset/2/21_9.odb,Step-1,Increment     11: Step Time =    1.000,"PART-1-1",            19,           -5.,          -20.,            0.,NA,NA,"",   199.719E-03,   115.177E-03,  -163.162E-03,   73.9613E-03
C:/temp/dataset/2/21_9.odb,Step-1,Increment     11: Step Time =    1.000,"PART-1-1",            20,           -5.,         -12.5,            0.,NA,NA,"",       1.08422,   927.380E-03,  -561.695E-03,   41.3085E-03
C:/temp/dataset/2/21_9.odb,Step-1,Increment     11: Step Time =    1.000,"PART-1-1",            21,           -5.,           -5.,            0.,NA,NA,"",       2.23182,       2.04226,  -900.113E-03,   49.2403E-03
C:/temp/dataset/2/21_9.odb,Step-1,Increment     11: Step Time =    1.000,"PART-1-1",            22,            0.,           -5.,            0.,NA,NA,"",       2.71044,       1.67055,      -2.13443,   48.8400E-03
C:/temp/dataset/2/21_9.odb,Step-1,Increment     11: Step Time =    1.000,"PART-1-1",            23,            5.,           -5.,            0.,NA,NA,"",       3.75807,       1.21087,      -3.55766,   51.8389E-03
C:/temp/dataset/2/21_9.odb,Step-1,Increment     11: Step Time =    1.000,"PART-1-1",            24,           10.,           -5.,            0.,NA,NA,"",       5.31604,   723.150E-03,      -5.26663,   20.5946E-03
C:/temp/dataset/2/21_9.odb,Step-1,Increment     11: Step Time =    1.000,"PART-1-1",            25,           15.,           -5.,            0.,NA,NA,"",       7.09797,   352.104E-03,      -7.08923,   1.66089E-03
C:/temp/dataset/2/21_9.odb,Step-1,Increment     11: Step Time =    1.000,"PART-1-1",            26,           15.,          3.75,            0.,NA,NA,"",       8.52194,       3.42476,      -7.80350,   49.9708E-03
C:/temp/dataset/2/21_9.odb,Step-1,Increment     11: Step Time =    1.000,"PART-1-1",            27,           15.,          12.5,            0.,NA,NA,"",       11.4762,       6.98867,      -9.10286,   62.6017E-03
C:/temp/dataset/2/21_9.odb,Step-1,Increment     11: Step Time =    1.000,"PART-1-1",            28,           15.,         21.25,            0.,NA,NA,"",       15.7325,       11.4122,      -10.8293,   42.2417E-03
C:/temp/dataset/2/21_9.odb,Step-1,Increment     11: Step Time =    1.000,"PART-1-1",            29,           15.,           30.,            0.,NA,NA,"",       20.7690,       16.5010,      -12.6122,   1.31240E-03
C:/temp/dataset/2/21_9.odb,Step-1,Increment     11: Step Time =    1.000,"PART-1-1",            30,           7.5,           30.,            0.,NA,NA,"",       19.7876,       17.9724,      -8.27909,   31.5534E-03
C:/temp/dataset/2/21_9.odb,Step-1,Increment     11: Step Time =    1.000,"PART-1-1",            31,            0.,           30.,            0.,NA,NA,"",       20.1505,       19.7881,      -3.80467,   35.0835E-03
C:/temp/dataset/2/21_9.odb,Step-1,Increment     11: Step Time =    1.000,"PART-1-1",            32,          -7.5,           30.,            0.,NA,NA,"",       21.7991,       21.7743,       1.03936,   12.5948E-03
C:/temp/dataset/2/21_9.odb,Step-1,Increment     11: Step Time =    1.000,"PART-1-1",            33,          -15.,           30.,            0.,NA,NA,"",       24.4900,       23.7307,       6.05104,   391.043E-06
C:/temp/dataset/2/21_9.odb,Step-1,Increment     11: Step Time =    1.000,"PART-1-1",            34,          -15.,          22.5,            0.,NA,NA,"",       20.3690,       18.7383,       7.98552,   8.98934E-03
C:/temp/dataset/2/21_9.odb,Step-1,Increment     11: Step Time =    1.000,"PART-1-1",            35,         -12.5,           20.,            0.,NA,NA,"",       17.8492,       16.4359,       6.96107,   9.71966E-03
C:/temp/dataset/2/21_9.odb,Step-1,Increment     11: Step Time =    1.000,"PART-1-1",            36,          -7.5,           20.,            0.,NA,NA,"",       15.5597,       15.1485,       3.55355,   14.9084E-03
C:/temp/dataset/2/21_9.odb,Step-1,Increment     11: Step Time =    1.000,"PART-1-1",            37,          -2.5,           20.,            0.,NA,NA,"",       13.9557,       13.9546,   170.557E-03,   26.5640E-03
C:/temp/dataset/2/21_9.odb,Step-1,Increment     11: Step Time =    1.000,"PART-1-1",            38,           2.5,           20.,            0.,NA,NA,"",       13.2473,       12.8632,      -3.16698,   44.9464E-03
C:/temp/dataset/2/21_9.odb,Step-1,Increment     11: Step Time =    1.000,"PART-1-1",            39,            5.,           15.,            0.,NA,NA,"",       10.5754,       9.57805,      -4.48324,   68.7380E-03
C:/temp/dataset/2/21_9.odb,Step-1,Increment     11: Step Time =    1.000,"PART-1-1",            40,            5.,          17.5,            0.,NA,NA,"",       11.9168,       10.9447,      -4.71423,   74.9015E-03
C:/temp/dataset/2/21_9.odb,Step-1,Increment     11: Step Time =    1.000,"PART-1-1",            41,            5.,           7.5,            0.,NA,NA,"",       7.04485,       5.79703,      -4.00304,   80.8572E-03
C:/temp/dataset/2/21_9.odb,Step-1,Increment     11: Step Time =    1.000,"PART-1-1",            42,            5.,           10.,            0.,NA,NA,"",       8.12912,       6.99998,      -4.13314,   70.4854E-03
C:/temp/dataset/2/21_9.odb,Step-1,Increment     11: Step Time =    1.000,"PART-1-1",            43,      -1.66667,            5.,            0.,NA,NA,"",       4.87548,       4.40713,      -2.08508,   48.4379E-03
C:/temp/dataset/2/21_9.odb,Step-1,Increment     11: Step Time =    1.000,"PART-1-1",            44,       1.66667,            5.,            0.,NA,NA,"",       5.35640,       4.44120,      -2.99446,   61.0019E-03
C:/temp/dataset/2/21_9.odb,Step-1,Increment     11: Step Time =    1.000,"PART-1-1",            45,      -11.6667,            5.,            0.,NA,NA,"",       4.38789,       4.38552,   144.175E-03,   5.05938E-03
C:/temp/dataset/2/21_9.odb,Step-1,Increment     11: Step Time =    1.000,"PART-1-1",            46,      -8.33333,            5.,            0.,NA,NA,"",       4.38757,       4.35455,  -537.282E-03,   22.1213E-03
C:/temp/dataset/2/21_9.odb,Step-1,Increment     11: Step Time =    1.000,"PART-1-1",            47,          -15.,  -833.333E-03,            0.,NA,NA,"",       3.34015,       3.20527,   939.593E-03,   17.5089E-03
C:/temp/dataset/2/21_9.odb,Step-1,Increment     11: Step Time =    1.000,"PART-1-1",            48,          -15.,       2.08333,            0.,NA,NA,"",       3.94257,       3.83934,   896.307E-03,   3.88437E-03
C:/temp/dataset/2/21_9.odb,Step-1,Increment     11: Step Time =    1.000,"PART-1-1",            49,          -15.,      -9.58333,            0.,NA,NA,"",       1.69713,       1.48217,   826.689E-03,   47.3153E-03
C:/temp/dataset/2/21_9.odb,Step-1,Increment     11: Step Time =    1.000,"PART-1-1",            50,          -15.,      -6.66667,            0.,NA,NA,"",       2.19254,       1.99950,   899.566E-03,   41.8664E-03
C:/temp/dataset/2/21_9.odb,Step-1,Increment     11: Step Time =    1.000,"PART-1-1",            51,          -15.,      -18.3333,            0.,NA,NA,"",   606.975E-03,   378.814E-03,   474.256E-03,   57.8055E-03
C:/temp/dataset/2/21_9.odb,Step-1,Increment     11: Step Time =    1.000,"PART-1-1",            52,          -15.,      -15.4167,            0.,NA,NA,"",   902.364E-03,   663.537E-03,   611.539E-03,   56.2734E-03
C:/temp/dataset/2/21_9.odb,Step-1,Increment     11: Step Time =    1.000,"PART-1-1",            53,          -15.,      -27.0833,            0.,NA,NA,"",   96.8607E-03,   36.1931E-03,   89.8446E-03,   39.3401E-03
C:/temp/dataset/2/21_9.odb,Step-1,Increment     11: Step Time =    1.000,"PART-1-1",            54,          -15.,      -24.1667,            0.,NA,NA,"",   215.524E-03,   82.6777E-03,   199.035E-03,   46.3319E-03
C:/temp/dataset/2/21_9.odb,Step-1,Increment     11: Step Time =    1.000,"PART-1-1",            55,           12.,          -30.,            0.,NA,NA,"",            0.,   9.47612E-39,  -10.5800E-39,   2.75011E-03
C:/temp/dataset/2/21_9.odb,Step-1,Increment     11: Step Time =    1.000,"PART-1-1",            56,            9.,          -30.,            0.,NA,NA,"",            0.,   7.60452E-39,   4.66862E-39,   3.96573E-03
C:/temp/dataset/2/21_9.odb,Step-1,Increment     11: Step Time =    1.000,"PART-1-1",            57,            6.,          -30.,            0.,NA,NA,"",            0.,   16.6648E-39,  -18.7471E-39,   5.37372E-03
C:/temp/dataset/2/21_9.odb,Step-1,Increment     11: Step Time =    1.000,"PART-1-1",            58,            3.,          -30.,            0.,NA,NA,"",            0.,   12.4765E-39,  -2.53439E-39,   7.20485E-03
C:/temp/dataset/2/21_9.odb,Step-1,Increment     11: Step Time =    1.000,"PART-1-1",            59,            0.,          -30.,            0.,NA,NA,"",            0.,   27.3181E-39,  -39.1098E-39,   8.62188E-03
C:/temp/dataset/2/21_9.odb,Step-1,Increment     11: Step Time =    1.000,"PART-1-1",            60,           -3.,          -30.,            0.,NA,NA,"",            0.,   21.0615E-39,  -40.9155E-39,   8.02707E-03
C:/temp/dataset/2/21_9.odb,Step-1,Increment     11: Step Time =    1.000,"PART-1-1",            61,           -6.,          -30.,            0.,NA,NA,"",            0.,  -1.60803E-39,  -15.8950E-39,   6.31401E-03
C:/temp/dataset/2/21_9.odb,Step-1,Increment     11: Step Time =    1.000,"PART-1-1",            62,           -9.,          -30.,            0.,NA,NA,"",            0.,  -16.2277E-39,   2.07098E-39,   9.93815E-03
C:/temp/dataset/2/21_9.odb,Step-1,Increment     11: Step Time =    1.000,"PART-1-1",            63,          -12.,          -30.,            0.,NA,NA,"",            0.,   19.8266E-39,   76.4198E-39,   17.9521E-03
C:/temp/dataset/2/21_9.odb,Step-1,Increment     11: Step Time =    1.000,"PART-1-1",            64,           15.,         -27.5,            0.,NA,NA,"",   15.5905E-03,   13.0814E-03,  -8.48178E-03,   2.09854E-03
C:/temp/dataset/2/21_9.odb,Step-1,Increment     11: Step Time =    1.000,"PART-1-1",            65,           15.,         -22.5,            0.,NA,NA,"",   32.1535E-03,   30.6126E-03,  -9.83436E-03,   151.692E-06
C:/temp/dataset/2/21_9.odb,Step-1,Increment     11: Step Time =    1.000,"PART-1-1",            66,       8.33333,          -20.,            0.,NA,NA,"",   36.0617E-03,   36.0130E-03,   1.87349E-03,   188.747E-06
C:/temp/dataset/2/21_9.odb,Step-1,Increment     11: Step Time =    1.000,"PART-1-1",            67,       11.6667,          -20.,            0.,NA,NA,"",   36.1925E-03,   36.1128E-03,  -2.40029E-03,   164.891E-06
C:/temp/dataset/2/21_9.odb,Step-1,Increment     11: Step Time =    1.000,"PART-1-1",            68,      -1.66667,          -20.,            0.,NA,NA,"",   65.7284E-03,   50.7336E-03,  -41.7890E-03,   15.9391E-03
C:/temp/dataset/2/21_9.odb,Step-1,Increment     11: Step Time =    1.000,"PART-1-1",            69,       1.66667,          -20.,            0.,NA,NA,"",   42.3906E-03,   41.4766E-03,  -8.75526E-03,   2.70953E-03
C:/temp/dataset/2/21_9.odb,Step-1,Increment     11: Step Time =    1.000,"PART-1-1",            70,           -5.,          -15.,            0.,NA,NA,"",   766.499E-03,   623.505E-03,  -445.827E-03,   44.2260E-03
C:/temp/dataset/2/21_9.odb,Step-1,Increment     11: Step Time =    1.000,"PART-1-1",            71,           -5.,         -17.5,            0.,NA,NA,"",   489.103E-03,   359.721E-03,  -331.395E-03,   56.4725E-03
C:/temp/dataset/2/21_9.odb,Step-1,Increment     11: Step Time =    1.000,"PART-1-1",            72,           -5.,          -7.5,            0.,NA,NA,"",       1.83955,       1.66556,  -780.930E-03,   36.1937E-03
C:/temp/dataset/2/21_9.odb,Step-1,Increment     11: Step Time =    1.000,"PART-1-1",            73,           -5.,          -10.,            0.,NA,NA,"",       1.44351,       1.27658,  -673.848E-03,   36.0910E-03
C:/temp/dataset/2/21_9.odb,Step-1,Increment     11: Step Time =    1.000,"PART-1-1",            74,          -2.5,           -5.,            0.,NA,NA,"",       2.39132,       1.85631,      -1.50749,   49.4019E-03
C:/temp/dataset/2/21_9.odb,Step-1,Increment     11: Step Time =    1.000,"PART-1-1",            75,           2.5,           -5.,            0.,NA,NA,"",       3.16507,       1.45405,      -2.81130,   55.0668E-03
C:/temp/dataset/2/21_9.odb,Step-1,Increment     11: Step Time =    1.000,"PART-1-1",            76,           7.5,           -5.,            0.,NA,NA,"",       4.48444,   958.662E-03,      -4.38077,   39.6327E-03
C:/temp/dataset/2/21_9.odb,Step-1,Increment     11: Step Time =    1.000,"PART-1-1",            77,          12.5,           -5.,            0.,NA,NA,"",       6.20365,   523.202E-03,      -6.18155,   4.19938E-03
C:/temp/dataset/2/21_9.odb,Step-1,Increment     11: Step Time =    1.000,"PART-1-1",            78,           15.,   833.333E-03,            0.,NA,NA,"",       7.88312,       2.40356,      -7.50776,   27.5428E-03
C:/temp/dataset/2/21_9.odb,Step-1,Increment     11: Step Time =    1.000,"PART-1-1",            79,           15.,      -2.08333,            0.,NA,NA,"",       7.41552,       1.39357,      -7.28340,   5.75065E-03
C:/temp/dataset/2/21_9.odb,Step-1,Increment     11: Step Time =    1.000,"PART-1-1",            80,           15.,       9.58333,            0.,NA,NA,"",       10.3315,       5.70080,      -8.61633,   64.3657E-03
C:/temp/dataset/2/21_9.odb,Step-1,Increment     11: Step Time =    1.000,"PART-1-1",            81,           15.,       6.66667,            0.,NA,NA,"",       9.34103,       4.51344,      -8.17824,   62.1030E-03
C:/temp/dataset/2/21_9.odb,Step-1,Increment     11: Step Time =    1.000,"PART-1-1",            82,           15.,       18.3333,            0.,NA,NA,"",       14.1844,       9.84333,      -10.2130,   54.6987E-03
C:/temp/dataset/2/21_9.odb,Step-1,Increment     11: Step Time =    1.000,"PART-1-1",            83,           15.,       15.4167,            0.,NA,NA,"",       12.7627,       8.36974,      -9.63504,   60.6912E-03
C:/temp/dataset/2/21_9.odb,Step-1,Increment     11: Step Time =    1.000,"PART-1-1",            84,           15.,       27.0833,            0.,NA,NA,"",       19.0717,       14.7824,      -12.0504,   4.51773E-03
C:/temp/dataset/2/21_9.odb,Step-1,Increment     11: Step Time =    1.000,"PART-1-1",            85,           15.,       24.1667,            0.,NA,NA,"",       17.3782,       13.0704,      -11.4528,   22.7678E-03
C:/temp/dataset/2/21_9.odb,Step-1,Increment     11: Step Time =    1.000,"PART-1-1",            86,           10.,           30.,            0.,NA,NA,"",       19.9740,       17.4558,      -9.70860,   16.5847E-03
C:/temp/dataset/2/21_9.odb,Step-1,Increment     11: Step Time =    1.000,"PART-1-1",            87,          12.5,           30.,            0.,NA,NA,"",       20.3084,       16.9744,      -11.1489,   3.33796E-03
C:/temp/dataset/2/21_9.odb,Step-1,Increment     11: Step Time =    1.000,"PART-1-1",            88,           2.5,           30.,            0.,NA,NA,"",       19.8799,       19.1485,      -5.34301,   40.6095E-03
C:/temp/dataset/2/21_9.odb,Step-1,Increment     11: Step Time =    1.000,"PART-1-1",            89,            5.,           30.,            0.,NA,NA,"",       19.7572,       18.5385,      -6.83164,   39.4801E-03
C:/temp/dataset/2/21_9.odb,Step-1,Increment     11: Step Time =    1.000,"PART-1-1",            90,           -5.,           30.,            0.,NA,NA,"",       21.1172,       21.1085,  -605.276E-03,   20.0055E-03
C:/temp/dataset/2/21_9.odb,Step-1,Increment     11: Step Time =    1.000,"PART-1-1",            91,          -2.5,           30.,            0.,NA,NA,"",       20.5648,       20.4443,      -2.22262,   27.6433E-03
C:/temp/dataset/2/21_9.odb,Step-1,Increment     11: Step Time =    1.000,"PART-1-1",            92,         -12.5,           30.,            0.,NA,NA,"",       23.4989,       23.0876,       4.37715,   982.127E-06
C:/temp/dataset/2/21_9.odb,Step-1,Increment     11: Step Time =    1.000,"PART-1-1",            93,          -10.,           30.,            0.,NA,NA,"",       22.5980,       22.4357,       2.70329,   5.77297E-03
C:/temp/dataset/2/21_9.odb,Step-1,Increment     11: Step Time =    1.000,"PART-1-1",            94,          -15.,          27.5,            0.,NA,NA,"",       23.0522,       22.0597,       6.69160,   990.717E-06
C:/temp/dataset/2/21_9.odb,Step-1,Increment     11: Step Time =    1.000,"PART-1-1",            95,      -12.4978,       24.9766,            0.,NA,NA,"",       20.5355,       19.7403,       5.65924,   8.01379E-03
C:/temp/dataset/2/21_9.odb,Step-1,Increment     11: Step Time =    1.000,"PART-1-1",            96,      -7.49872,       27.4475,            0.,NA,NA,"",       20.1397,       20.0698,       1.67603,   11.8175E-03
C:/temp/dataset/2/21_9.odb,Step-1,Increment     11: Step Time =    1.000,"PART-1-1",            97,      -7.50661,       22.4446,            0.,NA,NA,"",       17.0252,       16.7718,       2.92622,   10.8864E-03
C:/temp/dataset/2/21_9.odb,Step-1,Increment     11: Step Time =    1.000,"PART-1-1",            98,      -2.53392,       22.4091,            0.,NA,NA,"",       15.5260,       15.5206,  -407.144E-03,   16.3877E-03
C:/temp/dataset/2/21_9.odb,Step-1,Increment     11: Step Time =    1.000,"PART-1-1",            99,  -19.7467E-03,       27.3919,            0.,NA,NA,"",       18.3873,       18.1048,      -3.21089,   18.3599E-03
C:/temp/dataset/2/21_9.odb,Step-1,Increment     11: Step Time =    1.000,"PART-1-1",           100,       2.31326,       22.2671,            0.,NA,NA,"",       14.7644,       14.3261,      -3.57113,   30.6149E-03
C:/temp/dataset/2/21_9.odb,Step-1,Increment     11: Step Time =    1.000,"PART-1-1",           101,       7.89882,       27.4278,            0.,NA,NA,"",       18.1943,       16.3320,      -8.01877,   24.3182E-03
C:/temp/dataset/2/21_9.odb,Step-1,Increment     11: Step Time =    1.000,"PART-1-1",           102,       6.74061,       20.0564,            0.,NA,NA,"",       13.4613,       12.0756,      -5.94873,   28.0336E-03
C:/temp/dataset/2/21_9.odb,Step-1,Increment     11: Step Time =    1.000,"PART-1-1",           103,       6.76082,       17.7755,            0.,NA,NA,"",       12.1937,       10.7995,      -5.66183,   52.2399E-03
C:/temp/dataset/2/21_9.odb,Step-1,Increment     11: Step Time =    1.000,"PART-1-1",           104,       7.34933,       13.0959,            0.,NA,NA,"",       9.86245,       8.21697,      -5.45429,   41.6549E-03
C:/temp/dataset/2/21_9.odb,Step-1,Increment     11: Step Time =    1.000,"PART-1-1",           105,       12.5251,      -2.17932,            0.,NA,NA,"",       6.55467,       1.52619,      -6.37451,   19.8601E-03
C:/temp/dataset/2/21_9.odb,Step-1,Increment     11: Step Time =    1.000,"PART-1-1",           106,       11.8446,      -24.9441,            0.,NA,NA,"",   23.4488E-03,   23.3195E-03,  -2.45865E-03,   1.64731E-03
C:/temp/dataset/2/21_9.odb,Step-1,Increment     11: Step Time =    1.000,"PART-1-1",           107,       2.44158,      -2.66949,            0.,NA,NA,"",       3.58917,       2.16866,      -2.85991,   26.9220E-03
C:/temp/dataset/2/21_9.odb,Step-1,Increment     11: Step Time =    1.000,"PART-1-1",           108,       7.46163,      -2.37632,            0.,NA,NA,"",       4.86480,       1.87121,      -4.49053,   30.0097E-03
C:/temp/dataset/2/21_9.odb,Step-1,Increment     11: Step Time =    1.000,"PART-1-1",           109,       7.48217,       7.95809,            0.,NA,NA,"",       7.65402,       5.71957,      -5.08631,   45.2762E-03
C:/temp/dataset/2/21_9.odb,Step-1,Increment     11: Step Time =    1.000,"PART-1-1",           110,      -5.01446,       22.4347,            0.,NA,NA,"",       16.1871,       16.1389,       1.24768,   13.3605E-03
C:/temp/dataset/2/21_9.odb,Step-1,Increment     11: Step Time =    1.000,"PART-1-1",           111,  -75.1424E-03,       22.3615,            0.,NA,NA,"",       15.0565,       14.9193,      -2.02823,   21.4263E-03
C:/temp/dataset/2/21_9.odb,Step-1,Increment     11: Step Time =    1.000,"PART-1-1",           112,       4.50776,       22.1530,            0.,NA,NA,"",       14.6452,       13.7774,      -4.96643,   25.5700E-03
C:/temp/dataset/2/21_9.odb,Step-1,Increment     11: Step Time =    1.000,"PART-1-1",           113,       7.06405,       15.4904,            0.,NA,NA,"",       11.0140,       9.50927,      -5.55707,   45.2260E-03
C:/temp/dataset/2/21_9.odb,Step-1,Increment     11: Step Time =    1.000,"PART-1-1",           114,       7.46285,       10.5556,            0.,NA,NA,"",       8.72049,       6.93939,      -5.28126,   42.7750E-03
C:/temp/dataset/2/21_9.odb,Step-1,Increment     11: Step Time =    1.000,"PART-1-1",           115,      -2.89738,      -2.05905,            0.,NA,NA,"",       3.01510,       2.62688,      -1.47998,   14.4918E-03
C:/temp/dataset/2/21_9.odb,Step-1,Increment     11: Step Time =    1.000,"PART-1-1",           116,      -7.61206,      -10.6629,            0.,NA,NA,"",       1.20469,       1.17628,  -260.073E-03,   18.1679E-03
C:/temp/dataset/2/21_9.odb,Step-1,Increment     11: Step Time =    1.000,"PART-1-1",           117,      -6.85891,      -17.7385,            0.,NA,NA,"",   355.436E-03,   320.976E-03,  -152.674E-03,   35.5364E-03
C:/temp/dataset/2/21_9.odb,Step-1,Increment     11: Step Time =    1.000,"PART-1-1",           118,       11.9280,      -27.4687,            0.,NA,NA,"",   12.6175E-03,   12.4598E-03,  -1.98921E-03,   3.24276E-03
C:/temp/dataset/2/21_9.odb,Step-1,Increment     11: Step Time =    1.000,"PART-1-1",           119,      -7.44747,      -13.1413,            0.,NA,NA,"",   859.035E-03,   831.191E-03,  -216.940E-03,   20.4058E-03
C:/temp/dataset/2/21_9.odb,Step-1,Increment     11: Step Time =    1.000,"PART-1-1",           120,      -7.13169,      -15.4658,            0.,NA,NA,"",   583.278E-03,   551.896E-03,  -188.742E-03,   26.6619E-03
C:/temp/dataset/2/21_9.odb,Step-1,Increment     11: Step Time =    1.000,"PART-1-1",           121,      -8.02089,      -5.87394,            0.,NA,NA,"",       1.99830,       1.97436,  -308.339E-03,   11.6230E-03
C:/temp/dataset/2/21_9.odb,Step-1,Increment     11: Step Time =    1.000,"PART-1-1",           122,      -7.74476,      -8.18529,            0.,NA,NA,"",       1.59631,       1.56775,  -300.608E-03,   14.8503E-03
C:/temp/dataset/2/21_9.odb,Step-1,Increment     11: Step Time =    1.000,"PART-1-1",           123,  -21.3834E-03,      -2.74811,            0.,NA,NA,"",       3.17164,       2.30335,      -2.18033,   28.0105E-03
C:/temp/dataset/2/21_9.odb,Step-1,Increment     11: Step Time =    1.000,"PART-1-1",           124,       4.94012,      -2.49525,            0.,NA,NA,"",       4.16337,       2.03987,      -3.62941,   27.8910E-03
C:/temp/dataset/2/21_9.odb,Step-1,Increment     11: Step Time =    1.000,"PART-1-1",           125,       10.0127,      -2.27482,            0.,NA,NA,"",       5.68532,       1.69009,      -5.42830,   29.4072E-03
C:/temp/dataset/2/21_9.odb,Step-1,Increment     11: Step Time =    1.000,"PART-1-1",           126,       10.2967,       27.4669,            0.,NA,NA,"",       18.4622,       15.8908,      -9.39869,   22.4700E-03
C:/temp/dataset/2/21_9.odb,Step-1,Increment     11: Step Time =    1.000,"PART-1-1",           127,       12.6750,       27.3103,            0.,NA,NA,"",       18.7335,       15.3540,      -10.7331,   15.0711E-03
C:/temp/dataset/2/21_9.odb,Step-1,Increment     11: Step Time =    1.000,"PART-1-1",           128,       2.52543,       27.2659,            0.,NA,NA,"",       18.0529,       17.4073,      -4.78473,   18.8093E-03
C:/temp/dataset/2/21_9.odb,Step-1,Increment     11: Step Time =    1.000,"PART-1-1",           129,       5.32711,       26.8707,            0.,NA,NA,"",       17.7225,       16.5244,      -6.40570,   19.7570E-03
C:/temp/dataset/2/21_9.odb,Step-1,Increment     11: Step Time =    1.000,"PART-1-1",           130,      -5.00948,       27.4462,            0.,NA,NA,"",       19.4155,       19.4155,   22.1961E-03,   14.1196E-03
C:/temp/dataset/2/21_9.odb,Step-1,Increment     11: Step Time =    1.000,"PART-1-1",           131,      -2.51658,       27.4324,            0.,NA,NA,"",       18.8302,       18.7612,      -1.61032,   16.4620E-03
C:/temp/dataset/2/21_9.odb,Step-1,Increment     11: Step Time =    1.000,"PART-1-1",           132,      -9.99211,       27.4668,            0.,NA,NA,"",       21.0068,       20.7393,       3.34127,   8.94763E-03
C:/temp/dataset/2/21_9.odb,Step-1,Increment     11: Step Time =    1.000,"PART-1-1",           133,       12.5029,       21.6680,            0.,NA,NA,"",       15.3396,       12.0596,      -9.47995,   28.5601E-03
C:/temp/dataset/2/21_9.odb,Step-1,Increment     11: Step Time =    1.000,"PART-1-1",           134,      -12.7198,      -9.27859,            0.,NA,NA,"",       1.54456,       1.46757,   481.566E-03,   27.6266E-03
C:/temp/dataset/2/21_9.odb,Step-1,Increment     11: Step Time =    1.000,"PART-1-1",           135,      -12.2206,      -21.4876,            0.,NA,NA,"",   219.791E-03,   121.467E-03,   183.177E-03,   30.2239E-03
C:/temp/dataset/2/21_9.odb,Step-1,Increment     11: Step Time =    1.000,"PART-1-1",           136,       12.4390,       11.8581,            0.,NA,NA,"",       10.4158,       6.96168,      -7.74752,   25.9690E-03
C:/temp/dataset/2/21_9.odb,Step-1,Increment     11: Step Time =    1.000,"PART-1-1",           137,      -12.6285,      -12.0158,            0.,NA,NA,"",       1.12691,       1.04079,   432.047E-03,   29.0129E-03
C:/temp/dataset/2/21_9.odb,Step-1,Increment     11: Step Time =    1.000,"PART-1-1",           138,      -12.4213,      -14.8709,            0.,NA,NA,"",   752.880E-03,   662.799E-03,   357.108E-03,   29.5837E-03
C:/temp/dataset/2/21_9.odb,Step-1,Increment     11: Step Time =    1.000,"PART-1-1",           139,       12.2989,       14.8029,            0.,NA,NA,"",       11.6851,       8.40247,      -8.12030,   23.3081E-03
C:/temp/dataset/2/21_9.odb,Step-1,Increment     11: Step Time =    1.000,"PART-1-1",           140,       11.7182,       18.2155,            0.,NA,NA,"",       13.2480,       10.2570,      -8.38478,   19.8763E-03
C:/temp/dataset/2/21_9.odb,Step-1,Increment     11: Step Time =    1.000,"PART-1-1",           141,      -12.3380,      -4.01281,            0.,NA,NA,"",       2.48478,       2.44638,   435.171E-03,   23.0885E-03
C:/temp/dataset/2/21_9.odb,Step-1,Increment     11: Step Time =    1.000,"PART-1-1",           142,       12.5089,       6.21106,            0.,NA,NA,"",       8.38365,       4.51229,      -7.06574,   29.7020E-03
C:/temp/dataset/2/21_9.odb,Step-1,Increment     11: Step Time =    1.000,"PART-1-1",           143,      -10.9765,      -1.21375,            0.,NA,NA,"",       3.02279,       3.01904,   150.418E-03,   25.1514E-03
C:/temp/dataset/2/21_9.odb,Step-1,Increment     11: Step Time =    1.000,"PART-1-1",           144,      -11.4273,       2.02370,            0.,NA,NA,"",       3.75415,       3.75037,   168.459E-03,   17.3074E-03
C:/temp/dataset/2/21_9.odb,Step-1,Increment     11: Step Time =    1.000,"PART-1-1",           145,      -12.7154,      -6.64001,            0.,NA,NA,"",       1.99913,       1.93514,   501.731E-03,   25.8670E-03
C:/temp/dataset/2/21_9.odb,Step-1,Increment     11: Step Time =    1.000,"PART-1-1",           146,      -11.7762,      -18.1315,            0.,NA,NA,"",   398.695E-03,   323.605E-03,   232.890E-03,   26.6166E-03
C:/temp/dataset/2/21_9.odb,Step-1,Increment     11: Step Time =    1.000,"PART-1-1",           147,      -12.2481,      -24.4184,            0.,NA,NA,"",   116.990E-03,   32.2955E-03,   112.444E-03,   27.8384E-03
C:/temp/dataset/2/21_9.odb,Step-1,Increment     11: Step Time =    1.000,"PART-1-1",           148,       12.5340,       3.42208,            0.,NA,NA,"",       7.62803,       3.46105,      -6.79765,   31.8890E-03
C:/temp/dataset/2/21_9.odb,Step-1,Increment     11: Step Time =    1.000,"PART-1-1",           149,       12.5428,   630.306E-03,            0.,NA,NA,"",       7.02830,       2.48662,      -6.57372,   30.6575E-03
C:/temp/dataset/2/21_9.odb,Step-1,Increment     11: Step Time =    1.000,"PART-1-1",           150,       12.5001,       9.03097,            0.,NA,NA,"",       9.32610,       5.68178,      -7.39551,   27.6746E-03
C:/temp/dataset/2/21_9.odb,Step-1,Increment     11: Step Time =    1.000,"PART-1-1",           151,       12.7192,       24.5718,            0.,NA,NA,"",       17.0958,       13.7185,      -10.2014,   24.5195E-03
C:/temp/dataset/2/21_9.odb,Step-1,Increment     11: Step Time =    1.000,"PART-1-1",           152,       2.66783,      -27.4286,            0.,NA,NA,"",   22.8801E-03,   22.3165E-03,  -5.04678E-03,   6.51797E-03
C:/temp/dataset/2/21_9.odb,Step-1,Increment     11: Step Time =    1.000,"PART-1-1",           153,       8.86089,      -27.4494,            0.,NA,NA,"",   14.4334E-03,   14.4168E-03,  -693.544E-06,   3.64347E-03
C:/temp/dataset/2/21_9.odb,Step-1,Increment     11: Step Time =    1.000,"PART-1-1",           154,       5.76511,      -27.4328,            0.,NA,NA,"",   18.3669E-03,   18.2990E-03,  -1.57747E-03,   4.76377E-03
C:/temp/dataset/2/21_9.odb,Step-1,Increment     11: Step Time =    1.000,"PART-1-1",           155,  -414.647E-03,      -27.4330,            0.,NA,NA,"",   25.9808E-03,   22.8057E-03,  -12.4459E-03,   9.54784E-03
C:/temp/dataset/2/21_9.odb,Step-1,Increment     11: Step Time =    1.000,"PART-1-1",           156,      -3.42691,      -27.4460,            0.,NA,NA,"",   24.2054E-03,   13.5257E-03,  -20.0738E-03,   12.6698E-03
C:/temp/dataset/2/21_9.odb,Step-1,Increment     11: Step Time =    1.000,"PART-1-1",           157,      -6.36574,      -27.4272,            0.,NA,NA,"",   15.4258E-03,  -4.02845E-03,  -14.8905E-03,   10.4928E-03
C:/temp/dataset/2/21_9.odb,Step-1,Increment     11: Step Time =    1.000,"PART-1-1",           158,       10.5238,       25.0033,            0.,NA,NA,"",       16.9695,       14.3642,      -9.03501,   27.7250E-03
C:/temp/dataset/2/21_9.odb,Step-1,Increment     11: Step Time =    1.000,"PART-1-1",           159,       6.26912,       22.1485,            0.,NA,NA,"",       14.7066,       13.4094,      -6.03915,   27.7487E-03
C:/temp/dataset/2/21_9.odb,Step-1,Increment     11: Step Time =    1.000,"PART-1-1",           160,      -5.96402,      -2.70245,            0.,NA,NA,"",       2.68846,       2.57573,  -770.348E-03,   23.7597E-03
C:/temp/dataset/2/21_9.odb,Step-1,Increment     11: Step Time =    1.000,"PART-1-1",           161,      -12.5033,       22.4816,            0.,NA,NA,"",       19.1567,       18.0883,       6.30792,   9.46775E-03
C:/temp/dataset/2/21_9.odb,Step-1,Increment     11: Step Time =    1.000,"PART-1-1",           162,      -2.53325,       24.9024,            0.,NA,NA,"",       17.1570,       17.1275,      -1.00615,   12.3119E-03
C:/temp/dataset/2/21_9.odb,Step-1,Increment     11: Step Time =    1.000,"PART-1-1",           163,       4.43197,       24.4161,            0.,NA,NA,"",       16.1148,       15.1934,      -5.37109,   13.0147E-03
C:/temp/dataset/2/21_9.odb,Step-1,Increment     11: Step Time =    1.000,"PART-1-1",           164,      -10.2797,      -8.84555,            0.,NA,NA,"",       1.49276,       1.48885,   107.985E-03,   10.1586E-03
C:/temp/dataset/2/21_9.odb,Step-1,Increment     11: Step Time =    1.000,"PART-1-1",           165,       2.21534,  -332.134E-03,            0.,NA,NA,"",       4.07856,       2.88932,      -2.87862,   12.5144E-03
C:/temp/dataset/2/21_9.odb,Step-1,Increment     11: Step Time =    1.000,"PART-1-1",           166,  -74.2209E-03,       24.8536,            0.,NA,NA,"",       16.7038,       16.4992,      -2.60609,   11.8594E-03
C:/temp/dataset/2/21_9.odb,Step-1,Increment     11: Step Time =    1.000,"PART-1-1",           167,       2.30693,       24.7164,            0.,NA,NA,"",       16.3785,       15.8553,      -4.10640,   12.8938E-03
C:/temp/dataset/2/21_9.odb,Step-1,Increment     11: Step Time =    1.000,"PART-1-1",           168,       9.79368,       13.9045,            0.,NA,NA,"",       10.6748,       8.28331,      -6.73343,   10.5882E-03
C:/temp/dataset/2/21_9.odb,Step-1,Increment     11: Step Time =    1.000,"PART-1-1",           169,       9.30777,       16.4521,            0.,NA,NA,"",       11.8365,       9.67163,      -6.82366,   13.0780E-03
C:/temp/dataset/2/21_9.odb,Step-1,Increment     11: Step Time =    1.000,"PART-1-1",           170,      -2.35985,       1.11806,            0.,NA,NA,"",       3.84027,       3.43059,      -1.72590,   18.2013E-03
C:/temp/dataset/2/21_9.odb,Step-1,Increment     11: Step Time =    1.000,"PART-1-1",           171,      -9.94133,      -13.9778,            0.,NA,NA,"",   740.732E-03,   734.985E-03,   92.0893E-03,   8.43453E-03
C:/temp/dataset/2/21_9.odb,Step-1,Increment     11: Step Time =    1.000,"PART-1-1",           172,       4.80988,   33.7751E-03,            0.,NA,NA,"",       4.66714,       2.86193,      -3.68668,   15.7121E-03
C:/temp/dataset/2/21_9.odb,Step-1,Increment     11: Step Time =    1.000,"PART-1-1",           173,       9.94126,       11.1894,            0.,NA,NA,"",       9.49141,       6.93394,      -6.48131,   8.58877E-03
C:/temp/dataset/2/21_9.odb,Step-1,Increment     11: Step Time =    1.000,"PART-1-1",           174,       7.43598,   226.782E-03,            0.,NA,NA,"",       5.35248,       2.73840,      -4.59894,   31.0396E-03
C:/temp/dataset/2/21_9.odb,Step-1,Increment     11: Step Time =    1.000,"PART-1-1",           175,      -7.50368,       24.9336,            0.,NA,NA,"",       18.5548,       18.4115,       2.30118,   12.3561E-03
C:/temp/dataset/2/21_9.odb,Step-1,Increment     11: Step Time =    1.000,"PART-1-1",           176,      -10.1536,      -11.3797,            0.,NA,NA,"",       1.09548,       1.09034,   106.032E-03,   9.15668E-03
C:/temp/dataset/2/21_9.odb,Step-1,Increment     11: Step Time =    1.000,"PART-1-1",           177,       6.92724,       24.6415,            0.,NA,NA,"",       16.3435,       14.8137,      -6.90415,   22.6477E-03
C:/temp/dataset/2/21_9.odb,Step-1,Increment     11: Step Time =    1.000,"PART-1-1",           178,      -9.99868,       24.9580,            0.,NA,NA,"",       19.4884,       19.0783,       3.97732,   11.1962E-03
C:/temp/dataset/2/21_9.odb,Step-1,Increment     11: Step Time =    1.000,"PART-1-1",           179,       8.37028,       18.0705,            0.,NA,NA,"",       12.5408,       10.6911,      -6.55534,   18.7492E-03
C:/temp/dataset/2/21_9.odb,Step-1,Increment     11: Step Time =    1.000,"PART-1-1",           180,      -10.4068,      -6.54987,            0.,NA,NA,"",       1.89897,       1.89572,   111.126E-03,   14.8256E-03
C:/temp/dataset/2/21_9.odb,Step-1,Increment     11: Step Time =    1.000,"PART-1-1",           181,      -8.52723,      -17.8680,            0.,NA,NA,"",   306.690E-03,   306.261E-03,  -16.2127E-03,   13.8011E-03
C:/temp/dataset/2/21_9.odb,Step-1,Increment     11: Step Time =    1.000,"PART-1-1",           182,       9.99063,       8.47585,            0.,NA,NA,"",       8.42200,       5.68141,      -6.21705,   5.34812E-03
C:/temp/dataset/2/21_9.odb,Step-1,Increment     11: Step Time =    1.000,"PART-1-1",           183,      -6.87511,      -22.3968,            0.,NA,NA,"",   84.4083E-03,   53.7242E-03,  -65.1035E-03,   21.6941E-03
C:/temp/dataset/2/21_9.odb,Step-1,Increment     11: Step Time =    1.000,"PART-1-1",           184,       7.48189,       5.34092,            0.,NA,NA,"",       6.70011,       4.56750,      -4.90198,   25.1666E-03
C:/temp/dataset/2/21_9.odb,Step-1,Increment     11: Step Time =    1.000,"PART-1-1",           185,       10.0207,   425.902E-03,            0.,NA,NA,"",       6.16226,       2.60415,      -5.58497,   34.7740E-03
C:/temp/dataset/2/21_9.odb,Step-1,Increment     11: Step Time =    1.000,"PART-1-1",           186,      -8.86720,      -3.63325,            0.,NA,NA,"",       2.44831,       2.44047,  -195.703E-03,   22.8595E-03
C:/temp/dataset/2/21_9.odb,Step-1,Increment     11: Step Time =    1.000,"PART-1-1",           187,       10.0155,       5.77118,            0.,NA,NA,"",       7.50158,       4.53791,      -5.97336,   13.5294E-03
C:/temp/dataset/2/21_9.odb,Step-1,Increment     11: Step Time =    1.000,"PART-1-1",           188,       9.07540,       20.2179,            0.,NA,NA,"",       13.8518,       11.7793,      -7.28833,   18.6079E-03
C:/temp/dataset/2/21_9.odb,Step-1,Increment     11: Step Time =    1.000,"PART-1-1",           189,       5.51479,      -24.9218,            0.,NA,NA,"",   30.9788E-03,   30.9491E-03,  -1.35727E-03,   3.81934E-03
C:/temp/dataset/2/21_9.odb,Step-1,Increment     11: Step Time =    1.000,"PART-1-1",           190,       2.33502,      -24.9114,            0.,NA,NA,"",   39.5003E-03,   38.4331E-03,  -9.12014E-03,   5.87876E-03
C:/temp/dataset/2/21_9.odb,Step-1,Increment     11: Step Time =    1.000,"PART-1-1",           191,      -3.83494,      -24.9465,            0.,NA,NA,"",   60.3475E-03,   35.8025E-03,  -48.5798E-03,   17.8342E-03
C:/temp/dataset/2/21_9.odb,Step-1,Increment     11: Step Time =    1.000,"PART-1-1",           192,       8.68706,      -24.9229,            0.,NA,NA,"",   25.8621E-03,   25.8621E-03,  -43.3467E-06,   2.54813E-03
C:/temp/dataset/2/21_9.odb,Step-1,Increment     11: Step Time =    1.000,"PART-1-1",           193,  -793.545E-03,      -24.9263,            0.,NA,NA,"",   51.7268E-03,   43.8256E-03,  -27.4769E-03,   12.6454E-03
C:/temp/dataset/2/21_9.odb,Step-1,Increment     11: Step Time =    1.000,"PART-1-1",           194,      -10.0041,       22.4687,            0.,NA,NA,"",       18.0335,       17.4329,       4.61520,   12.3509E-03
C:/temp/dataset/2/21_9.odb,Step-1,Increment     11: Step Time =    1.000,"PART-1-1",           195,       7.76291,       22.5689,            0.,NA,NA,"",       15.0974,       13.3856,      -6.98269,   26.4412E-03
C:/temp/dataset/2/21_9.odb,Step-1,Increment     11: Step Time =    1.000,"PART-1-1",           196,       10.0314,       3.09975,            0.,NA,NA,"",       6.75727,       3.52782,      -5.76327,   29.9789E-03
C:/temp/dataset/2/21_9.odb,Step-1,Increment     11: Step Time =    1.000,"PART-1-1",           197,       7.45157,       2.78517,            0.,NA,NA,"",       5.94658,       3.60563,      -4.72877,   32.6729E-03
C:/temp/dataset/2/21_9.odb,Step-1,Increment     11: Step Time =    1.000,"PART-1-1",           198,       1.23926,       2.17480,            0.,NA,NA,"",       4.55616,       3.65291,      -2.72302,   33.4033E-03
C:/temp/dataset/2/21_9.odb,Step-1,Increment     11: Step Time =    1.000,"PART-1-1",           199,       5.89388,       23.8379,            0.,NA,NA,"",       15.7687,       14.5246,      -6.13924,   19.4883E-03
C:/temp/dataset/2/21_9.odb,Step-1,Increment     11: Step Time =    1.000,"PART-1-1",           200,       4.70825,       2.52712,            0.,NA,NA,"",       5.25887,       3.67999,      -3.75678,   25.9305E-03
C:/temp/dataset/2/21_9.odb,Step-1,Increment     11: Step Time =    1.000,"PART-1-1",           201,      -6.67563,      -24.8783,            0.,NA,NA,"",   40.0328E-03,   13.3871E-03,  -37.7281E-03,   14.7133E-03
C:/temp/dataset/2/21_9.odb,Step-1,Increment     11: Step Time =    1.000,"PART-1-1",           202,      -1.93740,       2.90022,            0.,NA,NA,"",       4.32782,       3.88233,      -1.91248,   33.6138E-03
C:/temp/dataset/2/21_9.odb,Step-1,Increment     11: Step Time =    1.000,"PART-1-1",           203,      -4.27328,      -22.5070,            0.,NA,NA,"",   105.461E-03,   67.1767E-03,  -81.2973E-03,   29.6341E-03
C:/temp/dataset/2/21_9.odb,Step-1,Increment     11: Step Time =    1.000,"PART-1-1",           204,      -7.29195,  -216.826E-03,            0.,NA,NA,"",       3.23283,       3.18002,  -581.935E-03,   25.7234E-03
C:/temp/dataset/2/21_9.odb,Step-1,Increment     11: Step Time =    1.000,"PART-1-1",           205,      -4.39370,   432.763E-03,            0.,NA,NA,"",       3.50921,       3.29086,      -1.21853,   21.4533E-03
C:/temp/dataset/2/21_9.odb,Step-1,Increment     11: Step Time =    1.000,"PART-1-1",           206,      -1.20581,      -22.4416,            0.,NA,NA,"",   65.6216E-03,   57.5026E-03,  -31.6172E-03,   16.6618E-03
C:/temp/dataset/2/21_9.odb,Step-1,Increment     11: Step Time =    1.000,"PART-1-1",           207,      -4.88725,       2.78210,            0.,NA,NA,"",       4.04533,       3.86281,      -1.20142,   27.0537E-03
C:/temp/dataset/2/21_9.odb,Step-1,Increment     11: Step Time =    1.000,"PART-1-1",           208,      -8.02678,       2.39768,            0.,NA,NA,"",       3.82705,       3.79193,  -517.325E-03,   23.7558E-03
C:/temp/dataset/2/21_9.odb,Step-1,Increment     11: Step Time =    1.000,"PART-1-1",           209,       8.51144,      -22.4401,            0.,NA,NA,"",   32.9410E-03,   32.9217E-03,   1.12757E-03,   1.42520E-03
C:/temp/dataset/2/21_9.odb,Step-1,Increment     11: Step Time =    1.000,"PART-1-1",           210,       5.25488,      -22.4306,            0.,NA,NA,"",   37.2851E-03,   37.2832E-03,   368.193E-06,   2.56089E-03
C:/temp/dataset/2/21_9.odb,Step-1,Increment     11: Step Time =    1.000,"PART-1-1",           211,       2.00226,      -22.4217,            0.,NA,NA,"",   46.8969E-03,   46.1418E-03,  -8.38184E-03,   5.87147E-03
C:/temp/dataset/2/21_9.odb,Step-1,Increment     11: Step Time =    1.000,"PART-1-1",           212,      -9.28570,      -27.3600,            0.,NA,NA,"",   17.5067E-03,  -14.2586E-03,   10.1576E-03,   7.29472E-03
C:/temp/dataset/2/21_9.odb,Step-1,Increment     11: Step Time =    1.000,"PART-1-1",           213,       11.7596,      -22.4488,            0.,NA,NA,"",   31.0927E-03,   30.9853E-03,  -2.58251E-03,   485.043E-06
C:/temp/dataset/2/21_9.odb,Step-1,Increment     11: Step Time =    1.000,"PART-1-1",           214,      -12.4952,       27.4851,            0.,NA,NA,"",       21.9857,       21.4055,       5.01765,   5.03799E-03
C:/temp/dataset/2/21_9.odb,Step-1,Increment     11: Step Time =    1.000,"PART-1-1",           215,      -12.1608,      -27.2494,            0.,NA,NA,"",   49.5988E-03,  -265.734E-06,   49.5981E-03,   24.2898E-03
C:/temp/dataset/2/21_9.odb,Step-1,Increment     11: Step Time =    1.000,"PART-1-1",           216,      -6.92277,      -20.0189,            0.,NA,NA,"",   166.365E-03,   135.982E-03,  -95.8445E-03,   19.5433E-03
C:/temp/dataset/2/21_9.odb,Step-1,Increment     11: Step Time =    1.000,"PART-1-1",           217,       10.3403,       22.5364,            0.,NA,NA,"",       15.4311,       12.9218,      -8.43479,   27.9359E-03
C:/temp/dataset/2/21_9.odb,Step-1,Increment     11: Step Time =    1.000,"PART-1-1",           218,      -9.38591,      -16.3373,            0.,NA,NA,"",   462.033E-03,   459.776E-03,   45.6156E-03,   8.12785E-03
C:/temp/dataset/2/21_9.odb,Step-1,Increment     11: Step Time =    1.000,"PART-1-1",           219,      -9.56004,      -22.0160,            0.,NA,NA,"",   79.8404E-03,   68.4310E-03,   41.1302E-03,   14.4023E-03
C:/temp/dataset/2/21_9.odb,Step-1,Increment     11: Step Time =    1.000,"PART-1-1",           220,      -9.49058,      -24.6874,            0.,NA,NA,"",   25.2479E-03,   7.34227E-03,   24.1567E-03,   10.7647E-03
C:/temp/dataset/2/21_9.odb,Step-1,Increment     11: Step Time =    1.000,"PART-1-1",           221,  -968.003E-03,   33.9082E-03,            0.,NA,NA,"",       3.71634,       3.11281,      -2.03018,   11.6186E-03
C:/temp/dataset/2/21_9.odb,Step-1,Increment     11: Step Time =    1.000,"PART-1-1",           222,   333.674E-03,      -1.00763,            0.,NA,NA,"",       3.62580,       2.77768,      -2.33044,   11.3581E-03
C:/temp/dataset/2/21_9.odb,Step-1,Increment     11: Step Time =    1.000,"PART-1-1",           223,      -10.5623,      -4.72446,            0.,NA,NA,"",       2.25807,       2.25474,   122.691E-03,   19.7325E-03
C:/temp/dataset/2/21_9.odb,Step-1,Increment     11: Step Time =    1.000,"PART-1-1",           224,      -5.01319,       24.9269,            0.,NA,NA,"",       17.7774,       17.7661,   633.806E-03,   12.2596E-03
C:/temp/dataset/2/21_9.odb,Step-1,Increment     11: Step Time =    1.000,"PART-1-1",           225,      -9.24174,      -19.5473,            0.,NA,NA,"",   187.845E-03,   184.329E-03,   36.1721E-03,   10.0615E-03
C:/temp/dataset/2/21_9.odb,Step-1,Increment     11: Step Time =    1.000,"PART-1-1",           226,       8.53639,       25.1316,            0.,NA,NA,"",       16.7946,       14.8050,      -7.92906,   27.0674E-03
C:/temp/dataset/2/21_9.odb,Step-1,Increment     11: Step Time =    1.000,"PART-1-1",           227,       8.85572,       23.3093,            0.,NA,NA,"",       15.6868,       13.6392,      -7.74894,   27.6196E-03
C:/temp/dataset/2/21_9.odb,Step-1,Increment     11: Step Time =    1.000,"PART-1-1",           228,      -13.7516,       22.4908,            0.,NA,NA,"",       19.7529,       18.4142,       7.14800,   8.61989E-03
C:/temp/dataset/2/21_9.odb,Step-1,Increment     11: Step Time =    1.000,"PART-1-1",           229,          -15.,         21.25,            0.,NA,NA,"",       19.7443,       17.9079,       8.31540,   9.10663E-03
C:/temp/dataset/2/21_9.odb,Step-1,Increment     11: Step Time =    1.000,"PART-1-1",           230,        -13.75,           20.,            0.,NA,NA,"",       18.4847,       16.7564,       7.80415,   9.02928E-03
C:/temp/dataset/2/21_9.odb,Step-1,Increment     11: Step Time =    1.000,"PART-1-1",           231,      -12.5016,       21.2408,            0.,NA,NA,"",       18.4935,       17.2629,       6.63341,   9.24476E-03
C:/temp/dataset/2/21_9.odb,Step-1,Increment     11: Step Time =    1.000,"PART-1-1",           232,      -9.99605,       28.7334,            0.,NA,NA,"",       21.7957,       21.5849,       3.02408,   6.42062E-03
C:/temp/dataset/2/21_9.odb,Step-1,Increment     11: Step Time =    1.000,"PART-1-1",           233,        -11.25,           30.,            0.,NA,NA,"",       23.0365,       22.7629,       3.53972,   3.37486E-03
C:/temp/dataset/2/21_9.odb,Step-1,Increment     11: Step Time =    1.000,"PART-1-1",           234,      -12.4976,       28.7426,            0.,NA,NA,"",       22.7358,       22.2450,       4.69829,   2.63720E-03
C:/temp/dataset/2/21_9.odb,Step-1,Increment     11: Step Time =    1.000,"PART-1-1",           235,      -11.2437,       27.4760,            0.,NA,NA,"",       21.4839,       21.0735,       4.17950,   6.93145E-03
C:/temp/dataset/2/21_9.odb,Step-1,Increment     11: Step Time =    1.000,"PART-1-1",           236,      -8.74541,       27.4572,            0.,NA,NA,"",       20.5583,       20.4048,       2.50759,   10.3557E-03
C:/temp/dataset/2/21_9.odb,Step-1,Increment     11: Step Time =    1.000,"PART-1-1",           237,      -7.49936,       28.7238,            0.,NA,NA,"",       20.9628,       20.9186,       1.35956,   10.9294E-03
C:/temp/dataset/2/21_9.odb,Step-1,Increment     11: Step Time =    1.000,"PART-1-1",           238,         -8.75,           30.,            0.,NA,NA,"",       22.1848,       22.1059,       1.86951,   9.19897E-03
C:/temp/dataset/2/21_9.odb,Step-1,Increment     11: Step Time =    1.000,"PART-1-1",           239,      -10.0020,       21.2344,            0.,NA,NA,"",       17.3305,       16.6133,       4.93408,   10.7530E-03
C:/temp/dataset/2/21_9.odb,Step-1,Increment     11: Step Time =    1.000,"PART-1-1",           240,      -11.2537,       22.4752,            0.,NA,NA,"",       18.5823,       17.7613,       5.46244,   11.0359E-03
C:/temp/dataset/2/21_9.odb,Step-1,Increment     11: Step Time =    1.000,"PART-1-1",           241,        -11.25,           20.,            0.,NA,NA,"",       17.2346,       16.1129,       6.11625,   9.77118E-03
C:/temp/dataset/2/21_9.odb,Step-1,Increment     11: Step Time =    1.000,"PART-1-1",           242,      -6.25410,       27.4469,            0.,NA,NA,"",       19.7601,       19.7419,   847.000E-03,   12.9221E-03
C:/temp/dataset/2/21_9.odb,Step-1,Increment     11: Step Time =    1.000,"PART-1-1",           243,      -7.50120,       26.1906,            0.,NA,NA,"",       19.3418,       19.2394,       1.98843,   11.5049E-03
C:/temp/dataset/2/21_9.odb,Step-1,Increment     11: Step Time =    1.000,"PART-1-1",           244,      -6.25844,       24.9303,            0.,NA,NA,"",       18.1465,       18.0872,       1.46581,   12.2895E-03
C:/temp/dataset/2/21_9.odb,Step-1,Increment     11: Step Time =    1.000,"PART-1-1",           245,      -5.01133,       26.1865,            0.,NA,NA,"",       18.5920,       18.5891,   327.567E-03,   12.1775E-03
C:/temp/dataset/2/21_9.odb,Step-1,Increment     11: Step Time =    1.000,"PART-1-1",           246,       1.11906,       22.3143,            0.,NA,NA,"",       14.8858,       14.6194,      -2.80326,   23.1406E-03
C:/temp/dataset/2/21_9.odb,Step-1,Increment     11: Step Time =    1.000,"PART-1-1",           247,  -37.5712E-03,       21.1808,            0.,NA,NA,"",       14.2697,       14.1598,      -1.76791,   25.7220E-03
C:/temp/dataset/2/21_9.odb,Step-1,Increment     11: Step Time =    1.000,"PART-1-1",           248,          1.25,           20.,            0.,NA,NA,"",       13.3352,       13.1296,      -2.33213,   36.2719E-03
C:/temp/dataset/2/21_9.odb,Step-1,Increment     11: Step Time =    1.000,"PART-1-1",           249,       2.40663,       21.1336,            0.,NA,NA,"",       14.0136,       13.5995,      -3.38128,   32.4179E-03
C:/temp/dataset/2/21_9.odb,Step-1,Increment     11: Step Time =    1.000,"PART-1-1",           250,  -46.9838E-03,       26.1228,            0.,NA,NA,"",       17.5430,       17.3000,      -2.90991,   13.0103E-03
C:/temp/dataset/2/21_9.odb,Step-1,Increment     11: Step Time =    1.000,"PART-1-1",           251,       1.11635,       24.7850,            0.,NA,NA,"",       16.5202,       16.1749,      -3.35973,   12.2787E-03
C:/temp/dataset/2/21_9.odb,Step-1,Increment     11: Step Time =    1.000,"PART-1-1",           252,       2.41618,       25.9912,            0.,NA,NA,"",       17.2148,       16.6304,      -4.44719,   13.3586E-03
C:/temp/dataset/2/21_9.odb,Step-1,Increment     11: Step Time =    1.000,"PART-1-1",           253,       1.25284,       27.3289,            0.,NA,NA,"",       18.1977,       17.7517,      -4.00379,   18.4633E-03
C:/temp/dataset/2/21_9.odb,Step-1,Increment     11: Step Time =    1.000,"PART-1-1",           254,       11.4216,       22.1022,            0.,NA,NA,"",       15.3679,       12.4879,      -8.95679,   26.9059E-03
C:/temp/dataset/2/21_9.odb,Step-1,Increment     11: Step Time =    1.000,"PART-1-1",           255,       9.70783,       21.3771,            0.,NA,NA,"",       14.6336,       12.3468,      -7.85486,   22.3621E-03
C:/temp/dataset/2/21_9.odb,Step-1,Increment     11: Step Time =    1.000,"PART-1-1",           256,       10.3968,       19.2167,            0.,NA,NA,"",       13.5135,       11.0060,      -7.84111,   15.5759E-03
C:/temp/dataset/2/21_9.odb,Step-1,Increment     11: Step Time =    1.000,"PART-1-1",           257,       12.1105,       19.9418,            0.,NA,NA,"",       14.2743,       11.1453,      -8.91848,   24.4387E-03
C:/temp/dataset/2/21_9.odb,Step-1,Increment     11: Step Time =    1.000,"PART-1-1",           258,       11.6215,       24.7876,            0.,NA,NA,"",       17.0177,       14.0403,      -9.61634,   25.2643E-03
C:/temp/dataset/2/21_9.odb,Step-1,Increment     11: Step Time =    1.000,"PART-1-1",           259,       12.6971,       25.9410,            0.,NA,NA,"",       17.9136,       14.5354,      -10.4699,   19.4519E-03
C:/temp/dataset/2/21_9.odb,Step-1,Increment     11: Step Time =    1.000,"PART-1-1",           260,       11.4859,       27.3886,            0.,NA,NA,"",       18.5824,       15.6214,      -10.0637,   18.3665E-03
C:/temp/dataset/2/21_9.odb,Step-1,Increment     11: Step Time =    1.000,"PART-1-1",           261,       10.4103,       26.2351,            0.,NA,NA,"",       17.7152,       15.1274,      -9.21889,   24.4213E-03
C:/temp/dataset/2/21_9.odb,Step-1,Increment     11: Step Time =    1.000,"PART-1-1",           262,       5.88041,       17.6377,            0.,NA,NA,"",       12.0425,       10.8733,      -5.17630,   60.3881E-03
C:/temp/dataset/2/21_9.odb,Step-1,Increment     11: Step Time =    1.000,"PART-1-1",           263,       6.75071,       18.9160,            0.,NA,NA,"",       12.8090,       11.4275,      -5.78647,   36.1205E-03
C:/temp/dataset/2/21_9.odb,Step-1,Increment     11: Step Time =    1.000,"PART-1-1",           264,       5.87030,       20.0282,            0.,NA,NA,"",       13.3606,       12.2060,      -5.43322,   59.9278E-03
C:/temp/dataset/2/21_9.odb,Step-1,Increment     11: Step Time =    1.000,"PART-1-1",           265,            5.,         18.75,            0.,NA,NA,"",       12.6175,       11.6591,      -4.82348,   92.6104E-03
C:/temp/dataset/2/21_9.odb,Step-1,Increment     11: Step Time =    1.000,"PART-1-1",           266,       12.3690,       13.3305,            0.,NA,NA,"",       11.0310,       7.66944,      -7.92853,   24.7969E-03
C:/temp/dataset/2/21_9.odb,Step-1,Increment     11: Step Time =    1.000,"PART-1-1",           267,       13.7195,       12.1790,            0.,NA,NA,"",       10.9296,       6.97251,      -8.41666,   44.2065E-03
C:/temp/dataset/2/21_9.odb,Step-1,Increment     11: Step Time =    1.000,"PART-1-1",           268,           15.,       13.9583,            0.,NA,NA,"",       12.1023,       7.66789,      -9.36315,   61.4019E-03
C:/temp/dataset/2/21_9.odb,Step-1,Increment     11: Step Time =    1.000,"PART-1-1",           269,       13.6495,       15.1098,            0.,NA,NA,"",       12.2038,       8.38357,      -8.86846,   41.8056E-03
C:/temp/dataset/2/21_9.odb,Step-1,Increment     11: Step Time =    1.000,"PART-1-1",           270,       12.5214,       4.81657,            0.,NA,NA,"",       7.98448,       3.97437,      -6.92505,   30.1662E-03
C:/temp/dataset/2/21_9.odb,Step-1,Increment     11: Step Time =    1.000,"PART-1-1",           271,       13.7670,       3.58604,            0.,NA,NA,"",       8.07309,       3.43702,      -7.30490,   38.3175E-03
C:/temp/dataset/2/21_9.odb,Step-1,Increment     11: Step Time =    1.000,"PART-1-1",           272,           15.,       5.20833,            0.,NA,NA,"",       8.90904,       3.95768,      -7.98172,   56.2844E-03
C:/temp/dataset/2/21_9.odb,Step-1,Increment     11: Step Time =    1.000,"PART-1-1",           273,       13.7545,       6.43886,            0.,NA,NA,"",       8.85342,       4.50835,      -7.61956,   45.2188E-03
C:/temp/dataset/2/21_9.odb,Step-1,Increment     11: Step Time =    1.000,"PART-1-1",           274,       13.7625,      -2.13133,            0.,NA,NA,"",       6.98830,       1.45632,      -6.83487,   11.2434E-03
C:/temp/dataset/2/21_9.odb,Step-1,Increment     11: Step Time =    1.000,"PART-1-1",           275,       12.5125,      -3.58966,            0.,NA,NA,"",       6.36342,       1.03221,      -6.27914,   10.5621E-03
C:/temp/dataset/2/21_9.odb,Step-1,Increment     11: Step Time =    1.000,"PART-1-1",           276,         13.75,           -5.,            0.,NA,NA,"",       6.65105,   435.942E-03,      -6.63675,   1.79179E-03
C:/temp/dataset/2/21_9.odb,Step-1,Increment     11: Step Time =    1.000,"PART-1-1",           277,           15.,      -3.54167,            0.,NA,NA,"",       7.23883,   876.443E-03,      -7.18557,   2.03885E-03
C:/temp/dataset/2/21_9.odb,Step-1,Increment     11: Step Time =    1.000,"PART-1-1",           278,      -9.21387,      -6.21191,            0.,NA,NA,"",       1.93725,       1.93495,  -94.4418E-03,   10.8902E-03
C:/temp/dataset/2/21_9.odb,Step-1,Increment     11: Step Time =    1.000,"PART-1-1",           279,      -8.44405,      -4.75360,            0.,NA,NA,"",       2.21221,       2.19761,  -253.800E-03,   15.0327E-03
C:/temp/dataset/2/21_9.odb,Step-1,Increment     11: Step Time =    1.000,"PART-1-1",           280,      -9.71477,      -4.17886,            0.,NA,NA,"",       2.34669,       2.34644,  -34.4658E-03,   20.6457E-03
C:/temp/dataset/2/21_9.odb,Step-1,Increment     11: Step Time =    1.000,"PART-1-1",           281,      -10.4846,      -5.63717,            0.,NA,NA,"",       2.07540,       2.07211,   116.887E-03,   17.4634E-03
C:/temp/dataset/2/21_9.odb,Step-1,Increment     11: Step Time =    1.000,"PART-1-1",           282,      -5.84282,   107.969E-03,            0.,NA,NA,"",       3.35427,       3.23379,  -890.924E-03,   23.1473E-03
C:/temp/dataset/2/21_9.odb,Step-1,Increment     11: Step Time =    1.000,"PART-1-1",           283,      -4.64047,       1.60743,            0.,NA,NA,"",       3.77958,       3.58075,      -1.20976,   23.5145E-03
C:/temp/dataset/2/21_9.odb,Step-1,Increment     11: Step Time =    1.000,"PART-1-1",           284,      -6.45702,       2.58989,            0.,NA,NA,"",       3.91872,       3.82539,  -850.139E-03,   24.6081E-03
C:/temp/dataset/2/21_9.odb,Step-1,Increment     11: Step Time =    1.000,"PART-1-1",           285,      -7.65937,       1.09043,            0.,NA,NA,"",       3.53240,       3.48938,  -549.637E-03,   23.7058E-03
C:/temp/dataset/2/21_9.odb,Step-1,Increment     11: Step Time =    1.000,"PART-1-1",           286,      -6.51044,      -5.43697,            0.,NA,NA,"",       2.09866,       2.01392,  -590.367E-03,   22.1314E-03
C:/temp/dataset/2/21_9.odb,Step-1,Increment     11: Step Time =    1.000,"PART-1-1",           287,      -5.48201,      -3.85122,            0.,NA,NA,"",       2.44740,       2.30247,  -829.704E-03,   24.1932E-03
C:/temp/dataset/2/21_9.odb,Step-1,Increment     11: Step Time =    1.000,"PART-1-1",           288,      -7.41561,      -3.16785,            0.,NA,NA,"",       2.54952,       2.50520,  -473.309E-03,   22.6935E-03
C:/temp/dataset/2/21_9.odb,Step-1,Increment     11: Step Time =    1.000,"PART-1-1",           289,      -12.6742,      -10.6472,            0.,NA,NA,"",       1.32768,       1.24614,   458.116E-03,   28.3601E-03
C:/temp/dataset/2/21_9.odb,Step-1,Increment     11: Step Time =    1.000,"PART-1-1",           290,      -11.3911,      -11.6978,            0.,NA,NA,"",       1.09669,       1.06241,   272.031E-03,   18.1488E-03
C:/temp/dataset/2/21_9.odb,Step-1,Increment     11: Step Time =    1.000,"PART-1-1",           291,      -10.2167,      -10.1126,            0.,NA,NA,"",       1.28821,       1.28372,   107.448E-03,   9.22459E-03
C:/temp/dataset/2/21_9.odb,Step-1,Increment     11: Step Time =    1.000,"PART-1-1",           292,      -11.4997,      -9.06207,            0.,NA,NA,"",       1.50524,       1.47582,   296.127E-03,   18.4199E-03
C:/temp/dataset/2/21_9.odb,Step-1,Increment     11: Step Time =    1.000,"PART-1-1",           293,      -13.7107,      -15.1438,            0.,NA,NA,"",   819.315E-03,   659.407E-03,   486.270E-03,   42.7260E-03
C:/temp/dataset/2/21_9.odb,Step-1,Increment     11: Step Time =    1.000,"PART-1-1",           294,      -12.5249,      -13.4434,            0.,NA,NA,"",   930.452E-03,   842.329E-03,   395.249E-03,   29.3084E-03
C:/temp/dataset/2/21_9.odb,Step-1,Increment     11: Step Time =    1.000,"PART-1-1",           295,      -13.8143,      -12.2579,            0.,NA,NA,"",       1.18741,       1.03487,   582.240E-03,   40.2288E-03
C:/temp/dataset/2/21_9.odb,Step-1,Increment     11: Step Time =    1.000,"PART-1-1",           296,          -15.,      -13.9583,            0.,NA,NA,"",       1.07599,   839.111E-03,   673.540E-03,   53.8327E-03
C:/temp/dataset/2/21_9.odb,Step-1,Increment     11: Step Time =    1.000,"PART-1-1",           297,      -12.0988,      -16.5012,            0.,NA,NA,"",   561.189E-03,   478.607E-03,   293.033E-03,   27.8852E-03
C:/temp/dataset/2/21_9.odb,Step-1,Increment     11: Step Time =    1.000,"PART-1-1",           298,      -10.5811,      -17.2344,            0.,NA,NA,"",   412.214E-03,   384.287E-03,   149.145E-03,   14.8336E-03
C:/temp/dataset/2/21_9.odb,Step-1,Increment     11: Step Time =    1.000,"PART-1-1",           299,      -9.66362,      -15.1575,            0.,NA,NA,"",   595.141E-03,   591.320E-03,   67.3357E-03,   8.28180E-03
C:/temp/dataset/2/21_9.odb,Step-1,Increment     11: Step Time =    1.000,"PART-1-1",           300,      -11.1813,      -14.4243,            0.,NA,NA,"",   731.991E-03,   695.054E-03,   229.587E-03,   17.7173E-03
C:/temp/dataset/2/21_9.odb,Step-1,Increment     11: Step Time =    1.000,"PART-1-1",           301,      -10.5090,      -18.8394,            0.,NA,NA,"",   279.604E-03,   248.817E-03,   127.549E-03,   16.9787E-03
C:/temp/dataset/2/21_9.odb,Step-1,Increment     11: Step Time =    1.000,"PART-1-1",           302,      -8.88448,      -18.7076,            0.,NA,NA,"",   240.505E-03,   240.188E-03,   12.3444E-03,   9.53852E-03
C:/temp/dataset/2/21_9.odb,Step-1,Increment     11: Step Time =    1.000,"PART-1-1",           303,      -8.95657,      -17.1026,            0.,NA,NA,"",   381.001E-03,   380.815E-03,   11.8809E-03,   10.7490E-03
C:/temp/dataset/2/21_9.odb,Step-1,Increment     11: Step Time =    1.000,"PART-1-1",           304,      -8.08225,      -19.7831,            0.,NA,NA,"",   163.108E-03,   159.246E-03,  -35.2846E-03,   12.0679E-03
C:/temp/dataset/2/21_9.odb,Step-1,Increment     11: Step Time =    1.000,"PART-1-1",           305,      -6.89084,      -18.8787,            0.,NA,NA,"",   241.539E-03,   212.137E-03,  -115.494E-03,   23.7241E-03
C:/temp/dataset/2/21_9.odb,Step-1,Increment     11: Step Time =    1.000,"PART-1-1",           306,      -7.69307,      -17.8032,            0.,NA,NA,"",   321.286E-03,   310.772E-03,  -81.5198E-03,   21.3754E-03
C:/temp/dataset/2/21_9.odb,Step-1,Increment     11: Step Time =    1.000,"PART-1-1",           307,       7.10093,      -24.9223,            0.,NA,NA,"",   28.0849E-03,   28.0848E-03,  -87.8765E-06,   3.23355E-03
C:/temp/dataset/2/21_9.odb,Step-1,Increment     11: Step Time =    1.000,"PART-1-1",           308,       8.59925,      -23.6815,            0.,NA,NA,"",   29.8699E-03,   29.8646E-03,   564.640E-06,   1.97405E-03
C:/temp/dataset/2/21_9.odb,Step-1,Increment     11: Step Time =    1.000,"PART-1-1",           309,       6.88316,      -22.4353,            0.,NA,NA,"",   34.7626E-03,   34.7357E-03,   1.36701E-03,   1.94383E-03
C:/temp/dataset/2/21_9.odb,Step-1,Increment     11: Step Time =    1.000,"PART-1-1",           310,       5.38484,      -23.6762,            0.,NA,NA,"",   35.0714E-03,   35.0658E-03,  -624.871E-06,   3.12096E-03
C:/temp/dataset/2/21_9.odb,Step-1,Increment     11: Step Time =    1.000,"PART-1-1",           311,       13.3798,      -22.4744,            0.,NA,NA,"",   31.2711E-03,   30.7048E-03,  -5.92395E-03,   173.941E-06
C:/temp/dataset/2/21_9.odb,Step-1,Increment     11: Step Time =    1.000,"PART-1-1",           312,           15.,        -21.25,            0.,NA,NA,"",   34.9306E-03,   33.5458E-03,  -9.73758E-03,   80.2105E-06
C:/temp/dataset/2/21_9.odb,Step-1,Increment     11: Step Time =    1.000,"PART-1-1",           313,       13.3333,          -20.,            0.,NA,NA,"",   36.7957E-03,   36.3219E-03,  -5.88576E-03,   96.8586E-06
C:/temp/dataset/2/21_9.odb,Step-1,Increment     11: Step Time =    1.000,"PART-1-1",           314,       11.7131,      -21.2244,            0.,NA,NA,"",   33.8248E-03,   33.7334E-03,  -2.48477E-03,   176.167E-06
C:/temp/dataset/2/21_9.odb,Step-1,Increment     11: Step Time =    1.000,"PART-1-1",           315,      -2.14863,       2.00914,            0.,NA,NA,"",       4.08312,       3.65623,      -1.81765,   25.5432E-03
C:/temp/dataset/2/21_9.odb,Step-1,Increment     11: Step Time =    1.000,"PART-1-1",           316,      -1.66393,   575.985E-03,            0.,NA,NA,"",       3.77465,       3.27486,      -1.87705,   14.8953E-03
C:/temp/dataset/2/21_9.odb,Step-1,Increment     11: Step Time =    1.000,"PART-1-1",           317,   135.628E-03,       1.10435,            0.,NA,NA,"",       4.12305,       3.37547,      -2.36766,   17.5714E-03
C:/temp/dataset/2/21_9.odb,Step-1,Increment     11: Step Time =    1.000,"PART-1-1",           318,  -349.073E-03,       2.53751,            0.,NA,NA,"",       4.42631,       3.77823,      -2.30592,   30.6930E-03
C:/temp/dataset/2/21_9.odb,Step-1,Increment     11: Step Time =    1.000,"PART-1-1",           319,   156.145E-03,      -1.87787,            0.,NA,NA,"",       3.39425,       2.53866,      -2.25304,   18.3284E-03
C:/temp/dataset/2/21_9.odb,Step-1,Increment     11: Step Time =    1.000,"PART-1-1",           320,       1.21010,      -2.70880,            0.,NA,NA,"",       3.36406,       2.23854,      -2.51114,   27.1871E-03
C:/temp/dataset/2/21_9.odb,Step-1,Increment     11: Step Time =    1.000,"PART-1-1",           321,       2.32846,      -1.50081,            0.,NA,NA,"",       3.82448,       2.53070,      -2.86743,   17.8950E-03
C:/temp/dataset/2/21_9.odb,Step-1,Increment     11: Step Time =    1.000,"PART-1-1",           322,       1.27451,  -669.883E-03,            0.,NA,NA,"",       3.84548,       2.83274,      -2.60064,   11.3201E-03
C:/temp/dataset/2/21_9.odb,Step-1,Increment     11: Step Time =    1.000,"PART-1-1",           323,       4.87500,      -1.23074,            0.,NA,NA,"",       4.40255,       2.45089,      -3.65727,   20.2721E-03
C:/temp/dataset/2/21_9.odb,Step-1,Increment     11: Step Time =    1.000,"PART-1-1",           324,       6.20088,      -2.43579,            0.,NA,NA,"",       4.49811,       1.95724,      -4.04996,   28.1574E-03
C:/temp/dataset/2/21_9.odb,Step-1,Increment     11: Step Time =    1.000,"PART-1-1",           325,       7.44880,      -1.07477,            0.,NA,NA,"",       5.09690,       2.30606,      -4.54538,   29.3963E-03
C:/temp/dataset/2/21_9.odb,Step-1,Increment     11: Step Time =    1.000,"PART-1-1",           326,       6.12293,   130.279E-03,            0.,NA,NA,"",       4.99253,       2.80443,      -4.13044,   22.8988E-03
C:/temp/dataset/2/21_9.odb,Step-1,Increment     11: Step Time =    1.000,"PART-1-1",           327,          8.75,           -5.,            0.,NA,NA,"",       4.89008,   837.704E-03,      -4.81780,   30.2350E-03
C:/temp/dataset/2/21_9.odb,Step-1,Increment     11: Step Time =    1.000,"PART-1-1",           328,       10.0063,      -3.63741,            0.,NA,NA,"",       5.48674,       1.21729,      -5.35000,   21.7499E-03
C:/temp/dataset/2/21_9.odb,Step-1,Increment     11: Step Time =    1.000,"PART-1-1",           329,       8.73716,      -2.32557,            0.,NA,NA,"",       5.26367,       1.78016,      -4.95352,   29.4737E-03
C:/temp/dataset/2/21_9.odb,Step-1,Increment     11: Step Time =    1.000,"PART-1-1",           330,       7.48081,      -3.68816,            0.,NA,NA,"",       4.65963,       1.42436,      -4.43659,   32.0488E-03
C:/temp/dataset/2/21_9.odb,Step-1,Increment     11: Step Time =    1.000,"PART-1-1",           331,       6.24109,       7.72904,            0.,NA,NA,"",       7.32865,       5.74501,      -4.55017,   59.6334E-03
C:/temp/dataset/2/21_9.odb,Step-1,Increment     11: Step Time =    1.000,"PART-1-1",           332,            5.,          6.25,            0.,NA,NA,"",       6.54492,       5.20049,      -3.97378,   103.013E-03
C:/temp/dataset/2/21_9.odb,Step-1,Increment     11: Step Time =    1.000,"PART-1-1",           333,       6.24095,       5.17046,            0.,NA,NA,"",       6.34420,       4.57090,      -4.39951,   62.8839E-03
C:/temp/dataset/2/21_9.odb,Step-1,Increment     11: Step Time =    1.000,"PART-1-1",           334,       7.48203,       6.64950,            0.,NA,NA,"",       7.15240,       5.11853,      -4.99574,   28.7826E-03
C:/temp/dataset/2/21_9.odb,Step-1,Increment     11: Step Time =    1.000,"PART-1-1",           335,       7.34508,       23.6052,            0.,NA,NA,"",       15.7128,       14.0955,      -6.94321,   24.4827E-03
C:/temp/dataset/2/21_9.odb,Step-1,Increment     11: Step Time =    1.000,"PART-1-1",           336,       6.41056,       24.2397,            0.,NA,NA,"",       16.0535,       14.6686,      -6.52292,   20.5085E-03
C:/temp/dataset/2/21_9.odb,Step-1,Increment     11: Step Time =    1.000,"PART-1-1",           337,       6.08150,       22.9932,            0.,NA,NA,"",       15.2341,       13.9653,      -6.08676,   22.6043E-03
C:/temp/dataset/2/21_9.odb,Step-1,Increment     11: Step Time =    1.000,"PART-1-1",           338,       7.01602,       22.3587,            0.,NA,NA,"",       14.8951,       13.3953,      -6.51378,   25.5320E-03
C:/temp/dataset/2/21_9.odb,Step-1,Increment     11: Step Time =    1.000,"PART-1-1",           339,      -12.5005,       23.7291,            0.,NA,NA,"",       19.8379,       18.9145,       5.98192,   8.42185E-03
C:/temp/dataset/2/21_9.odb,Step-1,Increment     11: Step Time =    1.000,"PART-1-1",           340,      -13.7489,       24.9883,            0.,NA,NA,"",       21.0961,       20.0704,       6.49819,   5.98131E-03
C:/temp/dataset/2/21_9.odb,Step-1,Increment     11: Step Time =    1.000,"PART-1-1",           341,          -15.,         23.75,            0.,NA,NA,"",       21.0129,       19.5677,       7.65804,   7.28602E-03
C:/temp/dataset/2/21_9.odb,Step-1,Increment     11: Step Time =    1.000,"PART-1-1",           342,      -2.52491,       26.1674,            0.,NA,NA,"",       17.9902,       17.9425,      -1.30935,   12.6144E-03
C:/temp/dataset/2/21_9.odb,Step-1,Increment     11: Step Time =    1.000,"PART-1-1",           343,      -1.30373,       24.8780,            0.,NA,NA,"",       16.9078,       16.8107,      -1.80912,   12.2500E-03
C:/temp/dataset/2/21_9.odb,Step-1,Increment     11: Step Time =    1.000,"PART-1-1",           344,      -1.26817,       27.4122,            0.,NA,NA,"",       18.5879,       18.4304,      -2.41483,   17.3542E-03
C:/temp/dataset/2/21_9.odb,Step-1,Increment     11: Step Time =    1.000,"PART-1-1",           345,       2.31009,       23.4917,            0.,NA,NA,"",       15.5721,       15.0903,      -3.84350,   18.0704E-03
C:/temp/dataset/2/21_9.odb,Step-1,Increment     11: Step Time =    1.000,"PART-1-1",           346,       3.41051,       22.2101,            0.,NA,NA,"",       14.6876,       14.0496,      -4.28197,   23.0543E-03
C:/temp/dataset/2/21_9.odb,Step-1,Increment     11: Step Time =    1.000,"PART-1-1",           347,       4.46987,       23.2845,            0.,NA,NA,"",       15.3770,       14.4833,      -5.16578,   17.6319E-03
C:/temp/dataset/2/21_9.odb,Step-1,Increment     11: Step Time =    1.000,"PART-1-1",           348,       3.36945,       24.5662,            0.,NA,NA,"",       16.2295,       15.5209,      -4.74311,   11.6062E-03
C:/temp/dataset/2/21_9.odb,Step-1,Increment     11: Step Time =    1.000,"PART-1-1",           349,       3.92627,       27.0683,            0.,NA,NA,"",       17.8603,       16.9585,      -5.60366,   18.2708E-03
C:/temp/dataset/2/21_9.odb,Step-1,Increment     11: Step Time =    1.000,"PART-1-1",           350,       5.16355,       28.4353,            0.,NA,NA,"",       18.7398,       17.5309,      -6.62194,   28.6287E-03
C:/temp/dataset/2/21_9.odb,Step-1,Increment     11: Step Time =    1.000,"PART-1-1",           351,          3.75,           30.,            0.,NA,NA,"",       19.7991,       18.8383,      -6.09303,   40.2564E-03
C:/temp/dataset/2/21_9.odb,Step-1,Increment     11: Step Time =    1.000,"PART-1-1",           352,       2.51272,       28.6330,            0.,NA,NA,"",       18.9629,       18.2740,      -5.06486,   29.1286E-03
C:/temp/dataset/2/21_9.odb,Step-1,Increment     11: Step Time =    1.000,"PART-1-1",           353,       11.0463,       14.3537,            0.,NA,NA,"",       11.1623,       8.34121,      -7.41762,   7.23617E-03
C:/temp/dataset/2/21_9.odb,Step-1,Increment     11: Step Time =    1.000,"PART-1-1",           354,       9.86747,       12.5470,            0.,NA,NA,"",       10.0668,       7.59867,      -6.60307,   9.56893E-03
C:/temp/dataset/2/21_9.odb,Step-1,Increment     11: Step Time =    1.000,"PART-1-1",           355,       11.1901,       11.5237,            0.,NA,NA,"",       9.93732,       6.94545,      -7.10712,   9.35528E-03
C:/temp/dataset/2/21_9.odb,Step-1,Increment     11: Step Time =    1.000,"PART-1-1",           356,       9.55073,       15.1783,            0.,NA,NA,"",       11.2407,       8.96872,      -6.77614,   11.7154E-03
C:/temp/dataset/2/21_9.odb,Step-1,Increment     11: Step Time =    1.000,"PART-1-1",           357,       8.18591,       15.9712,            0.,NA,NA,"",       11.4092,       9.58888,      -6.18252,   28.8293E-03
C:/temp/dataset/2/21_9.odb,Step-1,Increment     11: Step Time =    1.000,"PART-1-1",           358,       7.20669,       14.2932,            0.,NA,NA,"",       10.4260,       8.85517,      -5.50340,   43.3227E-03
C:/temp/dataset/2/21_9.odb,Step-1,Increment     11: Step Time =    1.000,"PART-1-1",           359,       8.57151,       13.5002,            0.,NA,NA,"",       10.2507,       8.24813,      -6.08641,   26.0620E-03
C:/temp/dataset/2/21_9.odb,Step-1,Increment     11: Step Time =    1.000,"PART-1-1",           360,       7.44377,       1.50598,            0.,NA,NA,"",       5.63513,       3.16578,      -4.66181,   30.2164E-03
C:/temp/dataset/2/21_9.odb,Step-1,Increment     11: Step Time =    1.000,"PART-1-1",           361,       8.72836,   326.342E-03,            0.,NA,NA,"",       5.74379,       2.67121,      -5.08485,   32.4943E-03
C:/temp/dataset/2/21_9.odb,Step-1,Increment     11: Step Time =    1.000,"PART-1-1",           362,       10.0261,       1.76283,            0.,NA,NA,"",       6.44262,       3.05973,      -5.66970,   32.4925E-03
C:/temp/dataset/2/21_9.odb,Step-1,Increment     11: Step Time =    1.000,"PART-1-1",           363,       8.74149,       2.94246,            0.,NA,NA,"",       6.33835,       3.56804,      -5.23868,   29.4356E-03
C:/temp/dataset/2/21_9.odb,Step-1,Increment     11: Step Time =    1.000,"PART-1-1",           364,       12.5045,       7.62102,            0.,NA,NA,"",       8.83362,       5.08317,      -7.22455,   28.3285E-03
C:/temp/dataset/2/21_9.odb,Step-1,Increment     11: Step Time =    1.000,"PART-1-1",           365,           15.,         8.125,            0.,NA,NA,"",       9.81565,       5.09437,      -8.39013,   63.3035E-03
C:/temp/dataset/2/21_9.odb,Step-1,Increment     11: Step Time =    1.000,"PART-1-1",           366,       13.7500,       9.30715,            0.,NA,NA,"",       9.81514,       5.68798,      -7.99899,   45.9031E-03
C:/temp/dataset/2/21_9.odb,Step-1,Increment     11: Step Time =    1.000,"PART-1-1",           367,      -1.45938,      -2.40358,            0.,NA,NA,"",       3.07322,       2.47603,      -1.82042,   20.3377E-03
C:/temp/dataset/2/21_9.odb,Step-1,Increment     11: Step Time =    1.000,"PART-1-1",           368,      -2.69869,      -3.52952,            0.,NA,NA,"",       2.69507,       2.24909,      -1.48493,   29.6128E-03
C:/temp/dataset/2/21_9.odb,Step-1,Increment     11: Step Time =    1.000,"PART-1-1",           369,         -1.25,           -5.,            0.,NA,NA,"",       2.53399,       1.76432,      -1.81887,   47.4649E-03
C:/temp/dataset/2/21_9.odb,Step-1,Increment     11: Step Time =    1.000,"PART-1-1",           370,  -10.6917E-03,      -3.87406,            0.,NA,NA,"",       2.92895,       1.98421,      -2.15444,   38.1665E-03
C:/temp/dataset/2/21_9.odb,Step-1,Increment     11: Step Time =    1.000,"PART-1-1",           371,      -13.3333,            5.,            0.,NA,NA,"",       4.44439,       4.41776,   485.769E-03,   1.85010E-03
C:/temp/dataset/2/21_9.odb,Step-1,Increment     11: Step Time =    1.000,"PART-1-1",           372,          -15.,       3.54167,            0.,NA,NA,"",       4.23830,       4.14912,   864.879E-03,   1.62875E-03
C:/temp/dataset/2/21_9.odb,Step-1,Increment     11: Step Time =    1.000,"PART-1-1",           373,      -13.2137,       2.05352,            0.,NA,NA,"",       3.82754,       3.79133,   525.221E-03,   9.42756E-03
C:/temp/dataset/2/21_9.odb,Step-1,Increment     11: Step Time =    1.000,"PART-1-1",           374,      -11.5470,       3.51185,            0.,NA,NA,"",       4.07777,       4.07479,   155.848E-03,   9.80202E-03
C:/temp/dataset/2/21_9.odb,Step-1,Increment     11: Step Time =    1.000,"PART-1-1",           375,          -15.,      625.E-03,            0.,NA,NA,"",       3.64196,       3.52327,   922.193E-03,   10.7181E-03
C:/temp/dataset/2/21_9.odb,Step-1,Increment     11: Step Time =    1.000,"PART-1-1",           376,      -12.9883,      -1.02354,            0.,NA,NA,"",       3.15300,       3.10773,   532.353E-03,   18.3783E-03
C:/temp/dataset/2/21_9.odb,Step-1,Increment     11: Step Time =    1.000,"PART-1-1",           377,      -11.2019,   404.974E-03,            0.,NA,NA,"",       3.38999,       3.38617,   160.902E-03,   21.0677E-03
C:/temp/dataset/2/21_9.odb,Step-1,Increment     11: Step Time =    1.000,"PART-1-1",           378,      -13.6690,      -3.88141,            0.,NA,NA,"",       2.60161,       2.51060,   682.086E-03,   26.1607E-03
C:/temp/dataset/2/21_9.odb,Step-1,Increment     11: Step Time =    1.000,"PART-1-1",           379,      -11.6573,      -2.61328,            0.,NA,NA,"",       2.74268,       2.72645,   297.951E-03,   22.8839E-03
C:/temp/dataset/2/21_9.odb,Step-1,Increment     11: Step Time =    1.000,"PART-1-1",           380,          -15.,      -2.29167,            0.,NA,NA,"",       3.04069,       2.88972,   946.215E-03,   24.9538E-03
C:/temp/dataset/2/21_9.odb,Step-1,Increment     11: Step Time =    1.000,"PART-1-1",           381,           -5.,         -8.75,            0.,NA,NA,"",       1.63880,       1.46873,  -726.971E-03,   35.7699E-03
C:/temp/dataset/2/21_9.odb,Step-1,Increment     11: Step Time =    1.000,"PART-1-1",           382,      -6.37238,      -7.84264,            0.,NA,NA,"",       1.69844,       1.61015,  -540.460E-03,   24.4326E-03
C:/temp/dataset/2/21_9.odb,Step-1,Increment     11: Step Time =    1.000,"PART-1-1",           383,      -7.67841,      -9.42411,            0.,NA,NA,"",       1.39467,       1.36599,  -281.422E-03,   15.3911E-03
C:/temp/dataset/2/21_9.odb,Step-1,Increment     11: Step Time =    1.000,"PART-1-1",           384,      -6.30603,      -10.3315,            0.,NA,NA,"",       1.30861,       1.22476,  -460.888E-03,   27.0029E-03
C:/temp/dataset/2/21_9.odb,Step-1,Increment     11: Step Time =    1.000,"PART-1-1",           385,      -13.6103,      -21.3688,            0.,NA,NA,"",   299.380E-03,   151.548E-03,   258.189E-03,   42.0393E-03
C:/temp/dataset/2/21_9.odb,Step-1,Increment     11: Step Time =    1.000,"PART-1-1",           386,          -15.,      -22.7083,            0.,NA,NA,"",   291.145E-03,   126.356E-03,   262.296E-03,   50.4327E-03
C:/temp/dataset/2/21_9.odb,Step-1,Increment     11: Step Time =    1.000,"PART-1-1",           387,      -13.6241,      -24.2925,            0.,NA,NA,"",   167.645E-03,   54.7606E-03,   158.449E-03,   36.6720E-03
C:/temp/dataset/2/21_9.odb,Step-1,Increment     11: Step Time =    1.000,"PART-1-1",           388,      -12.2343,      -22.9530,            0.,NA,NA,"",   162.061E-03,   67.6718E-03,   147.256E-03,   28.9231E-03
C:/temp/dataset/2/21_9.odb,Step-1,Increment     11: Step Time =    1.000,"PART-1-1",           389,           -5.,        -16.25,            0.,NA,NA,"",   627.510E-03,   491.319E-03,  -390.351E-03,   48.3018E-03
C:/temp/dataset/2/21_9.odb,Step-1,Increment     11: Step Time =    1.000,"PART-1-1",           390,      -6.06585,      -15.2329,            0.,NA,NA,"",   665.124E-03,   586.099E-03,  -314.448E-03,   35.4236E-03
C:/temp/dataset/2/21_9.odb,Step-1,Increment     11: Step Time =    1.000,"PART-1-1",           391,      -6.99530,      -16.6022,            0.,NA,NA,"",   462.379E-03,   429.496E-03,  -171.254E-03,   28.3730E-03
C:/temp/dataset/2/21_9.odb,Step-1,Increment     11: Step Time =    1.000,"PART-1-1",           392,      -5.92946,      -17.6192,            0.,NA,NA,"",   406.648E-03,   335.755E-03,  -229.414E-03,   41.7352E-03
C:/temp/dataset/2/21_9.odb,Step-1,Increment     11: Step Time =    1.000,"PART-1-1",           393,         -13.5,          -30.,            0.,NA,NA,"",            0.,  -19.4444E-42,   113.483E-42,   24.6103E-03
C:/temp/dataset/2/21_9.odb,Step-1,Increment     11: Step Time =    1.000,"PART-1-1",           394,      -12.0804,      -28.6247,            0.,NA,NA,"",   22.8190E-03,  -7.27003E-03,   21.6299E-03,   20.7798E-03
C:/temp/dataset/2/21_9.odb,Step-1,Increment     11: Step Time =    1.000,"PART-1-1",           395,      -13.5804,      -27.1664,            0.,NA,NA,"",   72.3083E-03,   14.1871E-03,   70.9029E-03,   31.7054E-03
C:/temp/dataset/2/21_9.odb,Step-1,Increment     11: Step Time =    1.000,"PART-1-1",           396,          -15.,      -28.5417,            0.,NA,NA,"",   49.1686E-03,   25.7360E-03,   41.8952E-03,   35.2432E-03
C:/temp/dataset/2/21_9.odb,Step-1,Increment     11: Step Time =    1.000,"PART-1-1",           397,          13.5,          -30.,            0.,NA,NA,"",            0.,   3.97829E-42,  -10.3836E-42,   3.94505E-03
C:/temp/dataset/2/21_9.odb,Step-1,Increment     11: Step Time =    1.000,"PART-1-1",           398,           15.,        -28.75,            0.,NA,NA,"",   8.42285E-03,   6.88987E-03,  -4.84500E-03,   3.70652E-03
C:/temp/dataset/2/21_9.odb,Step-1,Increment     11: Step Time =    1.000,"PART-1-1",           399,       13.4640,      -27.4843,            0.,NA,NA,"",   12.5027E-03,   12.0585E-03,  -3.30300E-03,   2.17097E-03
C:/temp/dataset/2/21_9.odb,Step-1,Increment     11: Step Time =    1.000,"PART-1-1",           400,       11.9640,      -28.7343,            0.,NA,NA,"",   5.93052E-03,   5.84895E-03,  -980.262E-06,   3.07188E-03
C:/temp/dataset/2/21_9.odb,Step-1,Increment     11: Step Time =    1.000,"PART-1-1",           401,       10.2658,      -24.9335,            0.,NA,NA,"",   24.2465E-03,   24.2320E-03,  -839.781E-06,   2.10031E-03
C:/temp/dataset/2/21_9.odb,Step-1,Increment     11: Step Time =    1.000,"PART-1-1",           402,       8.77397,      -26.1861,            0.,NA,NA,"",   20.6422E-03,   20.6365E-03,  -485.972E-06,   3.09385E-03
C:/temp/dataset/2/21_9.odb,Step-1,Increment     11: Step Time =    1.000,"PART-1-1",           403,       10.3945,      -27.4590,            0.,NA,NA,"",   13.1648E-03,   13.1343E-03,  -895.598E-06,   3.21871E-03
C:/temp/dataset/2/21_9.odb,Step-1,Increment     11: Step Time =    1.000,"PART-1-1",           404,       11.8863,      -26.2064,            0.,NA,NA,"",   18.3329E-03,   18.1916E-03,  -2.27142E-03,   2.37462E-03
C:/temp/dataset/2/21_9.odb,Step-1,Increment     11: Step Time =    1.000,"PART-1-1",           405,       8.93044,      -28.7247,            0.,NA,NA,"",   7.48295E-03,   7.45618E-03,  -632.447E-06,   3.74357E-03
C:/temp/dataset/2/21_9.odb,Step-1,Increment     11: Step Time =    1.000,"PART-1-1",           406,       7.31300,      -27.4411,            0.,NA,NA,"",   16.2419E-03,   16.2158E-03,  -920.500E-06,   4.12882E-03
C:/temp/dataset/2/21_9.odb,Step-1,Increment     11: Step Time =    1.000,"PART-1-1",           407,       5.88256,      -28.7164,            0.,NA,NA,"",   9.81564E-03,   9.75156E-03,  -1.11979E-03,   4.98972E-03
C:/temp/dataset/2/21_9.odb,Step-1,Increment     11: Step Time =    1.000,"PART-1-1",           408,           7.5,          -30.,            0.,NA,NA,"",            0.,   13.5506E-42,  -6.24419E-42,   4.65967E-03
C:/temp/dataset/2/21_9.odb,Step-1,Increment     11: Step Time =    1.000,"PART-1-1",           409,       5.63995,      -26.1773,            0.,NA,NA,"",   25.4638E-03,   25.4099E-03,  -1.65643E-03,   4.19552E-03
C:/temp/dataset/2/21_9.odb,Step-1,Increment     11: Step Time =    1.000,"PART-1-1",           410,       3.92490,      -24.9166,            0.,NA,NA,"",   34.7114E-03,   34.4925E-03,  -3.89184E-03,   4.98307E-03
C:/temp/dataset/2/21_9.odb,Step-1,Increment     11: Step Time =    1.000,"PART-1-1",           411,       2.50142,      -26.1700,            0.,NA,NA,"",   32.0227E-03,   31.1438E-03,  -7.45093E-03,   6.24002E-03
C:/temp/dataset/2/21_9.odb,Step-1,Increment     11: Step Time =    1.000,"PART-1-1",           412,       4.21647,      -27.4307,            0.,NA,NA,"",   20.7590E-03,   20.5306E-03,  -3.07044E-03,   5.50848E-03
C:/temp/dataset/2/21_9.odb,Step-1,Increment     11: Step Time =    1.000,"PART-1-1",           413,       1.12659,      -27.4308,            0.,NA,NA,"",   25.1424E-03,   23.6331E-03,  -8.58004E-03,   7.71398E-03
C:/temp/dataset/2/21_9.odb,Step-1,Increment     11: Step Time =    1.000,"PART-1-1",           414,  -207.324E-03,      -28.7165,            0.,NA,NA,"",   13.5922E-03,   12.3025E-03,  -5.77911E-03,   8.92786E-03
C:/temp/dataset/2/21_9.odb,Step-1,Increment     11: Step Time =    1.000,"PART-1-1",           415,           1.5,          -30.,            0.,NA,NA,"",            0.,   24.9459E-42,  -30.1573E-42,   7.81970E-03
C:/temp/dataset/2/21_9.odb,Step-1,Increment     11: Step Time =    1.000,"PART-1-1",           416,       2.83391,      -28.7143,            0.,NA,NA,"",   12.4242E-03,   12.1168E-03,  -2.74649E-03,   6.78026E-03
C:/temp/dataset/2/21_9.odb,Step-1,Increment     11: Step Time =    1.000,"PART-1-1",           417,      -1.92078,      -27.4395,            0.,NA,NA,"",   26.2269E-03,   19.9313E-03,  -17.0468E-03,   10.7677E-03
C:/temp/dataset/2/21_9.odb,Step-1,Increment     11: Step Time =    1.000,"PART-1-1",           418,      -3.21345,      -28.7230,            0.,NA,NA,"",   10.7058E-03,   6.49215E-03,  -8.51266E-03,   10.1162E-03
C:/temp/dataset/2/21_9.odb,Step-1,Increment     11: Step Time =    1.000,"PART-1-1",           419,          -1.5,          -30.,            0.,NA,NA,"",            0.,   23.0556E-42,  -53.0307E-42,   8.09463E-03
C:/temp/dataset/2/21_9.odb,Step-1,Increment     11: Step Time =    1.000,"PART-1-1",           420,      -5.57419,      -22.4519,            0.,NA,NA,"",   109.034E-03,   60.3816E-03,  -90.7875E-03,   23.0450E-03
C:/temp/dataset/2/21_9.odb,Step-1,Increment     11: Step Time =    1.000,"PART-1-1",           421,      -6.77537,      -23.6376,            0.,NA,NA,"",   58.7276E-03,   29.8987E-03,  -50.5471E-03,   17.0588E-03
C:/temp/dataset/2/21_9.odb,Step-1,Increment     11: Step Time =    1.000,"PART-1-1",           422,      -5.25528,      -24.9124,            0.,NA,NA,"",   54.8215E-03,   25.3546E-03,  -48.6060E-03,   15.9396E-03
C:/temp/dataset/2/21_9.odb,Step-1,Increment     11: Step Time =    1.000,"PART-1-1",           423,      -4.05411,      -23.7268,            0.,NA,NA,"",   80.7175E-03,   50.0751E-03,  -63.3072E-03,   22.2920E-03
C:/temp/dataset/2/21_9.odb,Step-1,Increment     11: Step Time =    1.000,"PART-1-1",           424,       13.4223,      -24.9720,            0.,NA,NA,"",   23.8408E-03,   23.1952E-03,  -5.51088E-03,   853.429E-06
C:/temp/dataset/2/21_9.odb,Step-1,Increment     11: Step Time =    1.000,"PART-1-1",           425,           15.,        -26.25,            0.,NA,NA,"",   21.0266E-03,   18.6394E-03,  -9.73102E-03,   1.08547E-03
C:/temp/dataset/2/21_9.odb,Step-1,Increment     11: Step Time =    1.000,"PART-1-1",           426,       11.8021,      -23.6964,            0.,NA,NA,"",   27.6745E-03,   27.5503E-03,  -2.61897E-03,   1.01826E-03
C:/temp/dataset/2/21_9.odb,Step-1,Increment     11: Step Time =    1.000,"PART-1-1",           427,       10.1355,      -22.4445,            0.,NA,NA,"",   31.6488E-03,   31.6481E-03,  -216.826E-06,   952.160E-06
C:/temp/dataset/2/21_9.odb,Step-1,Increment     11: Step Time =    1.000,"PART-1-1",           428,      -2.31424,      -24.9364,            0.,NA,NA,"",   56.7319E-03,   41.3224E-03,  -38.8712E-03,   14.6923E-03
C:/temp/dataset/2/21_9.odb,Step-1,Increment     11: Step Time =    1.000,"PART-1-1",           429,      -3.63092,      -26.1962,            0.,NA,NA,"",   40.5163E-03,   22.9416E-03,  -33.3955E-03,   15.1349E-03
C:/temp/dataset/2/21_9.odb,Step-1,Increment     11: Step Time =    1.000,"PART-1-1",           430,  -604.096E-03,      -26.1796,            0.,NA,NA,"",   39.0452E-03,   33.4707E-03,  -20.1058E-03,   10.7916E-03
C:/temp/dataset/2/21_9.odb,Step-1,Increment     11: Step Time =    1.000,"PART-1-1",           431,      -7.52977,      -11.9021,            0.,NA,NA,"",       1.02592,   997.736E-03,  -238.827E-03,   19.2458E-03
C:/temp/dataset/2/21_9.odb,Step-1,Increment     11: Step Time =    1.000,"PART-1-1",           432,      -6.22373,      -12.8207,            0.,NA,NA,"",   956.284E-03,   876.114E-03,  -383.278E-03,   30.5167E-03
C:/temp/dataset/2/21_9.odb,Step-1,Increment     11: Step Time =    1.000,"PART-1-1",           433,           -5.,        -11.25,            0.,NA,NA,"",       1.25913,       1.09682,  -618.369E-03,   38.7692E-03
C:/temp/dataset/2/21_9.odb,Step-1,Increment     11: Step Time =    1.000,"PART-1-1",           434,      -10.0475,      -12.6788,            0.,NA,NA,"",   911.108E-03,   905.713E-03,   99.0034E-03,   8.70713E-03
C:/temp/dataset/2/21_9.odb,Step-1,Increment     11: Step Time =    1.000,"PART-1-1",           435,           -5.,         -6.25,            0.,NA,NA,"",       2.04678,       1.86568,  -841.761E-03,   39.7234E-03
C:/temp/dataset/2/21_9.odb,Step-1,Increment     11: Step Time =    1.000,"PART-1-1",           436,      -7.88282,      -7.02961,            0.,NA,NA,"",       1.78694,       1.76018,  -308.080E-03,   9.46328E-03
C:/temp/dataset/2/21_9.odb,Step-1,Increment     11: Step Time =    1.000,"PART-1-1",           437,      -13.8577,      -6.65334,            0.,NA,NA,"",       2.08556,       1.96509,   698.555E-03,   33.4173E-03
C:/temp/dataset/2/21_9.odb,Step-1,Increment     11: Step Time =    1.000,"PART-1-1",           438,      -12.5267,      -5.32641,            0.,NA,NA,"",       2.23449,       2.18405,   472.111E-03,   23.9290E-03
C:/temp/dataset/2/21_9.odb,Step-1,Increment     11: Step Time =    1.000,"PART-1-1",           439,          -15.,      -5.20833,            0.,NA,NA,"",       2.46337,       2.28299,   925.286E-03,   37.0880E-03
C:/temp/dataset/2/21_9.odb,Step-1,Increment     11: Step Time =    1.000,"PART-1-1",           440,          1.25,           -5.,            0.,NA,NA,"",       2.92089,       1.56620,      -2.46548,   51.7778E-03
C:/temp/dataset/2/21_9.odb,Step-1,Increment     11: Step Time =    1.000,"PART-1-1",           441,       2.47079,      -3.83474,            0.,NA,NA,"",       3.36195,       1.81223,      -2.83169,   40.6365E-03
C:/temp/dataset/2/21_9.odb,Step-1,Increment     11: Step Time =    1.000,"PART-1-1",           442,       3.51261,  -149.180E-03,            0.,NA,NA,"",       4.35704,       2.87804,      -3.27119,   11.6139E-03
C:/temp/dataset/2/21_9.odb,Step-1,Increment     11: Step Time =    1.000,"PART-1-1",           443,       3.69085,      -2.58237,            0.,NA,NA,"",       3.85980,       2.10733,      -3.23376,   26.8365E-03
C:/temp/dataset/2/21_9.odb,Step-1,Increment     11: Step Time =    1.000,"PART-1-1",           444,       8.74868,       5.55605,            0.,NA,NA,"",       7.08878,       4.55670,      -5.43022,   14.6754E-03
C:/temp/dataset/2/21_9.odb,Step-1,Increment     11: Step Time =    1.000,"PART-1-1",           445,       10.0030,       7.12352,            0.,NA,NA,"",       7.94172,       5.09665,      -6.09057,   6.30952E-03
C:/temp/dataset/2/21_9.odb,Step-1,Increment     11: Step Time =    1.000,"PART-1-1",           446,       8.73640,       8.21697,            0.,NA,NA,"",       8.02176,       5.69700,      -5.64736,   23.8924E-03
C:/temp/dataset/2/21_9.odb,Step-1,Increment     11: Step Time =    1.000,"PART-1-1",           447,           15.,     -625.E-03,            0.,NA,NA,"",       7.62980,       1.90073,      -7.38925,   16.6368E-03
C:/temp/dataset/2/21_9.odb,Step-1,Increment     11: Step Time =    1.000,"PART-1-1",           448,       13.7714,   731.820E-03,            0.,NA,NA,"",       7.45928,       2.43974,      -7.04901,   25.5075E-03
C:/temp/dataset/2/21_9.odb,Step-1,Increment     11: Step Time =    1.000,"PART-1-1",           449,       12.5339,  -774.506E-03,            0.,NA,NA,"",       6.77564,       2.00801,      -6.47126,   24.9535E-03
C:/temp/dataset/2/21_9.odb,Step-1,Increment     11: Step Time =    1.000,"PART-1-1",           450,       7.40609,       11.8257,            0.,NA,NA,"",       9.27728,       7.56961,      -5.36367,   41.7904E-03
C:/temp/dataset/2/21_9.odb,Step-1,Increment     11: Step Time =    1.000,"PART-1-1",           451,       8.70206,       10.8725,            0.,NA,NA,"",       9.08875,       6.93503,      -5.87459,   25.1448E-03
C:/temp/dataset/2/21_9.odb,Step-1,Increment     11: Step Time =    1.000,"PART-1-1",           452,       11.2454,       8.75341,            0.,NA,NA,"",       8.86059,       5.67972,      -6.80080,   12.3383E-03
C:/temp/dataset/2/21_9.odb,Step-1,Increment     11: Step Time =    1.000,"PART-1-1",           453,       11.2622,       5.99112,            0.,NA,NA,"",       7.93288,       4.52433,      -6.51621,   19.2550E-03
C:/temp/dataset/2/21_9.odb,Step-1,Increment     11: Step Time =    1.000,"PART-1-1",           454,       13.8596,       24.3693,            0.,NA,NA,"",       17.2210,       13.3969,      -10.8206,   20.7702E-03
C:/temp/dataset/2/21_9.odb,Step-1,Increment     11: Step Time =    1.000,"PART-1-1",           455,       12.6110,       23.1199,            0.,NA,NA,"",       16.2101,       12.8828,      -9.83869,   26.1982E-03
C:/temp/dataset/2/21_9.odb,Step-1,Increment     11: Step Time =    1.000,"PART-1-1",           456,       13.7514,       21.4590,            0.,NA,NA,"",       15.5155,       11.7365,      -10.1482,   32.8975E-03
C:/temp/dataset/2/21_9.odb,Step-1,Increment     11: Step Time =    1.000,"PART-1-1",           457,           15.,       22.7083,            0.,NA,NA,"",       16.5461,       12.2322,      -11.1420,   32.5781E-03
C:/temp/dataset/2/21_9.odb,Step-1,Increment     11: Step Time =    1.000,"PART-1-1",           458,       8.83903,       17.2613,            0.,NA,NA,"",       12.1804,       10.1776,      -6.69168,   16.3022E-03
C:/temp/dataset/2/21_9.odb,Step-1,Increment     11: Step Time =    1.000,"PART-1-1",           459,       10.5130,       17.3338,            0.,NA,NA,"",       12.5235,       9.96189,      -7.58941,   6.34392E-03
C:/temp/dataset/2/21_9.odb,Step-1,Increment     11: Step Time =    1.000,"PART-1-1",           460,       8.72284,       19.1442,            0.,NA,NA,"",       13.1859,       11.2285,      -6.91300,   13.7661E-03
C:/temp/dataset/2/21_9.odb,Step-1,Increment     11: Step Time =    1.000,"PART-1-1",           461,           15.,       28.5417,            0.,NA,NA,"",       19.9206,       15.6430,      -12.3340,   1.58856E-03
C:/temp/dataset/2/21_9.odb,Step-1,Increment     11: Step Time =    1.000,"PART-1-1",           462,         13.75,           30.,            0.,NA,NA,"",       20.5248,       16.7380,      -11.8788,   1.40300E-03
C:/temp/dataset/2/21_9.odb,Step-1,Increment     11: Step Time =    1.000,"PART-1-1",           463,       12.5875,       28.6551,            0.,NA,NA,"",       19.5244,       16.1679,      -10.9453,   8.08757E-03
C:/temp/dataset/2/21_9.odb,Step-1,Increment     11: Step Time =    1.000,"PART-1-1",           464,       13.8375,       27.1968,            0.,NA,NA,"",       18.8887,       15.0704,      -11.3871,   8.61912E-03
C:/temp/dataset/2/21_9.odb,Step-1,Increment     11: Step Time =    1.000,"PART-1-1",           465,         11.25,           30.,            0.,NA,NA,"",       20.1242,       17.2127,      -10.4262,   9.94454E-03
C:/temp/dataset/2/21_9.odb,Step-1,Increment     11: Step Time =    1.000,"PART-1-1",           466,       10.1484,       28.7335,            0.,NA,NA,"",       19.2237,       16.6785,      -9.55914,   17.0342E-03
C:/temp/dataset/2/21_9.odb,Step-1,Increment     11: Step Time =    1.000,"PART-1-1",           467,       7.69941,       28.7139,            0.,NA,NA,"",       18.9947,       17.1555,      -8.15417,   25.5010E-03
C:/temp/dataset/2/21_9.odb,Step-1,Increment     11: Step Time =    1.000,"PART-1-1",           468,       9.09777,       27.4473,            0.,NA,NA,"",       18.3123,       16.1082,      -8.71022,   23.0954E-03
C:/temp/dataset/2/21_9.odb,Step-1,Increment     11: Step Time =    1.000,"PART-1-1",           469,          8.75,           30.,            0.,NA,NA,"",       19.8620,       17.7088,      -8.99445,   24.1066E-03
C:/temp/dataset/2/21_9.odb,Step-1,Increment     11: Step Time =    1.000,"PART-1-1",           470,  -9.87333E-03,       28.6960,            0.,NA,NA,"",       19.2638,       18.9417,      -3.50761,   25.7924E-03
C:/temp/dataset/2/21_9.odb,Step-1,Increment     11: Step Time =    1.000,"PART-1-1",           471,          1.25,           30.,            0.,NA,NA,"",       19.9968,       19.4654,      -4.57943,   37.7353E-03
C:/temp/dataset/2/21_9.odb,Step-1,Increment     11: Step Time =    1.000,"PART-1-1",           472,       4.87954,       25.6434,            0.,NA,NA,"",       16.9175,       15.8589,      -5.89034,   14.8508E-03
C:/temp/dataset/2/21_9.odb,Step-1,Increment     11: Step Time =    1.000,"PART-1-1",           473,      -5.00474,       28.7231,            0.,NA,NA,"",       20.2601,       20.2580,  -290.008E-03,   15.8394E-03
C:/temp/dataset/2/21_9.odb,Step-1,Increment     11: Step Time =    1.000,"PART-1-1",           474,         -6.25,           30.,            0.,NA,NA,"",       21.4427,       21.4416,   214.132E-03,   16.3130E-03
C:/temp/dataset/2/21_9.odb,Step-1,Increment     11: Step Time =    1.000,"PART-1-1",           475,      -3.76303,       27.4393,            0.,NA,NA,"",       19.1034,       19.0867,  -797.093E-03,   15.2272E-03
C:/temp/dataset/2/21_9.odb,Step-1,Increment     11: Step Time =    1.000,"PART-1-1",           476,      -3.77322,       24.9147,            0.,NA,NA,"",       17.4455,       17.4444,  -188.442E-03,   12.2832E-03
C:/temp/dataset/2/21_9.odb,Step-1,Increment     11: Step Time =    1.000,"PART-1-1",           477,      -13.7476,       27.4926,            0.,NA,NA,"",       22.5090,       21.7339,       5.85569,   2.67330E-03
C:/temp/dataset/2/21_9.odb,Step-1,Increment     11: Step Time =    1.000,"PART-1-1",           478,        -13.75,           30.,            0.,NA,NA,"",       23.9834,       23.4098,       5.21432,   394.423E-06
C:/temp/dataset/2/21_9.odb,Step-1,Increment     11: Step Time =    1.000,"PART-1-1",           479,          -15.,         28.75,            0.,NA,NA,"",       23.7646,       22.8946,       6.37149,   390.052E-06
C:/temp/dataset/2/21_9.odb,Step-1,Increment     11: Step Time =    1.000,"PART-1-1",           480,          -15.,         26.25,            0.,NA,NA,"",       22.3553,       21.2272,       7.01190,   3.13266E-03
C:/temp/dataset/2/21_9.odb,Step-1,Increment     11: Step Time =    1.000,"PART-1-1",           481,      -12.4965,       26.2309,            0.,NA,NA,"",       21.2533,       20.5720,       5.33808,   6.43791E-03
C:/temp/dataset/2/21_9.odb,Step-1,Increment     11: Step Time =    1.000,"PART-1-1",           482,      -10.0014,       23.7134,            0.,NA,NA,"",       18.7544,       18.2561,       4.29457,   11.0742E-03
C:/temp/dataset/2/21_9.odb,Step-1,Increment     11: Step Time =    1.000,"PART-1-1",           483,      -8.75535,       22.4567,            0.,NA,NA,"",       17.5119,       17.1013,       3.76987,   11.3755E-03
C:/temp/dataset/2/21_9.odb,Step-1,Increment     11: Step Time =    1.000,"PART-1-1",           484,      -7.50515,       23.6891,            0.,NA,NA,"",       17.7852,       17.5924,       2.61204,   11.3099E-03
C:/temp/dataset/2/21_9.odb,Step-1,Increment     11: Step Time =    1.000,"PART-1-1",           485,      -8.75118,       24.9458,            0.,NA,NA,"",       19.0054,       18.7445,       3.13845,   11.7526E-03
C:/temp/dataset/2/21_9.odb,Step-1,Increment     11: Step Time =    1.000,"PART-1-1",           486,      -3.77419,       22.4219,            0.,NA,NA,"",       15.8323,       15.8268,   418.536E-03,   14.8262E-03
C:/temp/dataset/2/21_9.odb,Step-1,Increment     11: Step Time =    1.000,"PART-1-1",           487,      -5.00723,       21.2173,            0.,NA,NA,"",       15.4182,       15.3402,       1.54946,   16.0581E-03
C:/temp/dataset/2/21_9.odb,Step-1,Increment     11: Step Time =    1.000,"PART-1-1",           488,         -3.75,           20.,            0.,NA,NA,"",       14.2791,       14.2431,       1.01253,   23.5429E-03
C:/temp/dataset/2/21_9.odb,Step-1,Increment     11: Step Time =    1.000,"PART-1-1",           489,      -2.51696,       21.2046,            0.,NA,NA,"",       14.7393,       14.7388,  -121.713E-03,   20.8144E-03
C:/temp/dataset/2/21_9.odb,Step-1,Increment     11: Step Time =    1.000,"PART-1-1",           490,         -8.75,           20.,            0.,NA,NA,"",       16.0768,       15.4615,       4.40503,   11.7923E-03
C:/temp/dataset/2/21_9.odb,Step-1,Increment     11: Step Time =    1.000,"PART-1-1",           491,      -7.50331,       21.2223,            0.,NA,NA,"",       16.2867,       15.9618,       3.23710,   11.2505E-03
C:/temp/dataset/2/21_9.odb,Step-1,Increment     11: Step Time =    1.000,"PART-1-1",           492,         -6.25,           20.,            0.,NA,NA,"",       15.0848,       14.8404,       2.70433,   17.6486E-03
C:/temp/dataset/2/21_9.odb,Step-1,Increment     11: Step Time =    1.000,"PART-1-1",           493,      -6.26054,       22.4396,            0.,NA,NA,"",       16.5845,       16.4528,       2.08572,   11.9717E-03
C:/temp/dataset/2/21_9.odb,Step-1,Increment     11: Step Time =    1.000,"PART-1-1",           494,         -1.25,           20.,            0.,NA,NA,"",       13.6896,       13.6732,  -668.496E-03,   28.8893E-03
C:/temp/dataset/2/21_9.odb,Step-1,Increment     11: Step Time =    1.000,"PART-1-1",           495,      -1.30453,       22.3853,            0.,NA,NA,"",       15.2653,       15.2165,      -1.21963,   18.4338E-03
C:/temp/dataset/2/21_9.odb,Step-1,Increment     11: Step Time =    1.000,"PART-1-1",           496,         -1.25,           30.,            0.,NA,NA,"",       20.3399,       20.1147,      -3.01842,   31.2765E-03
C:/temp/dataset/2/21_9.odb,Step-1,Increment     11: Step Time =    1.000,"PART-1-1",           497,      -2.50829,       28.7162,            0.,NA,NA,"",       19.6916,       19.5982,      -1.91551,   20.9060E-03
C:/temp/dataset/2/21_9.odb,Step-1,Increment     11: Step Time =    1.000,"PART-1-1",           498,         -3.75,           30.,            0.,NA,NA,"",       20.8242,       20.7759,      -1.41779,   23.7844E-03
C:/temp/dataset/2/21_9.odb,Step-1,Increment     11: Step Time =    1.000,"PART-1-1",           499,          3.75,           20.,            0.,NA,NA,"",       13.2392,       12.6179,      -4.00809,   64.9287E-03
C:/temp/dataset/2/21_9.odb,Step-1,Increment     11: Step Time =    1.000,"PART-1-1",           500,       4.75388,       21.0765,            0.,NA,NA,"",       13.9572,       13.0588,      -4.92667,   54.0537E-03
C:/temp/dataset/2/21_9.odb,Step-1,Increment     11: Step Time =    1.000,"PART-1-1",           501,          6.25,           30.,            0.,NA,NA,"",       19.7535,       18.2496,      -7.55987,   35.7227E-03
C:/temp/dataset/2/21_9.odb,Step-1,Increment     11: Step Time =    1.000,"PART-1-1",           502,       6.61296,       27.1492,            0.,NA,NA,"",       17.9402,       16.4237,      -7.21882,   21.6000E-03
C:/temp/dataset/2/21_9.odb,Step-1,Increment     11: Step Time =    1.000,"PART-1-1",           503,            5.,         16.25,            0.,NA,NA,"",       11.2429,       10.2598,      -4.59786,   69.9527E-03
C:/temp/dataset/2/21_9.odb,Step-1,Increment     11: Step Time =    1.000,"PART-1-1",           504,       6.03202,       15.2452,            0.,NA,NA,"",       10.7815,       9.54242,      -5.01824,   57.3509E-03
C:/temp/dataset/2/21_9.odb,Step-1,Increment     11: Step Time =    1.000,"PART-1-1",           505,       6.91243,       16.6330,            0.,NA,NA,"",       11.5924,       10.1466,      -5.60636,   45.8296E-03
C:/temp/dataset/2/21_9.odb,Step-1,Increment     11: Step Time =    1.000,"PART-1-1",           506,            5.,         13.75,            0.,NA,NA,"",       9.93008,       8.91121,      -4.38143,   69.6274E-03
C:/temp/dataset/2/21_9.odb,Step-1,Increment     11: Step Time =    1.000,"PART-1-1",           507,       6.17466,       12.7979,            0.,NA,NA,"",       9.56651,       8.23584,      -4.86714,   56.2432E-03
C:/temp/dataset/2/21_9.odb,Step-1,Increment     11: Step Time =    1.000,"PART-1-1",           508,       12.0086,       16.5092,            0.,NA,NA,"",       12.4380,       9.31116,      -8.24659,   21.0889E-03
C:/temp/dataset/2/21_9.odb,Step-1,Increment     11: Step Time =    1.000,"PART-1-1",           509,           15.,        16.875,            0.,NA,NA,"",       13.4571,       9.09443,      -9.91896,   57.6433E-03
C:/temp/dataset/2/21_9.odb,Step-1,Increment     11: Step Time =    1.000,"PART-1-1",           510,       13.3591,       18.2744,            0.,NA,NA,"",       13.6847,       10.0481,      -9.29017,   36.1466E-03
C:/temp/dataset/2/21_9.odb,Step-1,Increment     11: Step Time =    1.000,"PART-1-1",           511,            5.,         11.25,            0.,NA,NA,"",       8.70647,       7.62230,      -4.20751,   71.0643E-03
C:/temp/dataset/2/21_9.odb,Step-1,Increment     11: Step Time =    1.000,"PART-1-1",           512,       6.23142,       10.2778,            0.,NA,NA,"",       8.40713,       6.96915,      -4.70221,   56.8950E-03
C:/temp/dataset/2/21_9.odb,Step-1,Increment     11: Step Time =    1.000,"PART-1-1",           513,            5.,          8.75,            0.,NA,NA,"",       7.58019,       6.39822,      -4.06474,   74.5800E-03
C:/temp/dataset/2/21_9.odb,Step-1,Increment     11: Step Time =    1.000,"PART-1-1",           514,       7.47251,       9.25684,            0.,NA,NA,"",       8.17081,       6.31862,      -5.18046,   40.9978E-03
C:/temp/dataset/2/21_9.odb,Step-1,Increment     11: Step Time =    1.000,"PART-1-1",           515,         11.25,           -5.,            0.,NA,NA,"",       5.75680,   618.816E-03,      -5.72344,   12.3593E-03
C:/temp/dataset/2/21_9.odb,Step-1,Increment     11: Step Time =    1.000,"PART-1-1",           516,       11.2689,      -2.22707,            0.,NA,NA,"",       6.11606,       1.60519,      -5.90166,   24.1891E-03
C:/temp/dataset/2/21_9.odb,Step-1,Increment     11: Step Time =    1.000,"PART-1-1",           517,          10.5,          -30.,            0.,NA,NA,"",            0.,   9.50921E-42,  -5.00684E-42,   3.43590E-03
C:/temp/dataset/2/21_9.odb,Step-1,Increment     11: Step Time =    1.000,"PART-1-1",           518,           15.,        -23.75,            0.,NA,NA,"",   28.9763E-03,   27.1900E-03,  -10.0166E-03,   58.0895E-06
C:/temp/dataset/2/21_9.odb,Step-1,Increment     11: Step Time =    1.000,"PART-1-1",           519,          3.75,           -5.,            0.,NA,NA,"",       3.44381,       1.33459,      -3.17470,   53.5670E-03
C:/temp/dataset/2/21_9.odb,Step-1,Increment     11: Step Time =    1.000,"PART-1-1",           520,       4.97006,      -3.74763,            0.,NA,NA,"",       3.94440,       1.63004,      -3.59183,   38.9945E-03
C:/temp/dataset/2/21_9.odb,Step-1,Increment     11: Step Time =    1.000,"PART-1-1",           521,       4.85412,       3.76356,            0.,NA,NA,"",       5.62270,       4.10327,      -3.84420,   60.1984E-03
C:/temp/dataset/2/21_9.odb,Step-1,Increment     11: Step Time =    1.000,"PART-1-1",           522,       3.33333,            5.,            0.,NA,NA,"",       5.67688,       4.47353,      -3.49493,   81.1539E-03
C:/temp/dataset/2/21_9.odb,Step-1,Increment     11: Step Time =    1.000,"PART-1-1",           523,       1.45296,       3.58740,            0.,NA,NA,"",       4.96167,       4.05904,      -2.85349,   43.7196E-03
C:/temp/dataset/2/21_9.odb,Step-1,Increment     11: Step Time =    1.000,"PART-1-1",           524,       2.97375,       2.35096,            0.,NA,NA,"",       4.89226,       3.68418,      -3.21886,   24.5566E-03
C:/temp/dataset/2/21_9.odb,Step-1,Increment     11: Step Time =    1.000,"PART-1-1",           525,          6.25,           -5.,            0.,NA,NA,"",       4.10570,       1.08457,      -3.95986,   45.9039E-03
C:/temp/dataset/2/21_9.odb,Step-1,Increment     11: Step Time =    1.000,"PART-1-1",           526,       12.4696,       10.4445,            0.,NA,NA,"",       9.85150,       6.30916,      -7.56614,   26.8903E-03
C:/temp/dataset/2/21_9.odb,Step-1,Increment     11: Step Time =    1.000,"PART-1-1",           527,           15.,       11.0417,            0.,NA,NA,"",       10.8857,       6.33304,      -8.85383,   63.3150E-03
C:/temp/dataset/2/21_9.odb,Step-1,Increment     11: Step Time =    1.000,"PART-1-1",           528,      -5.01382,       23.6808,            0.,NA,NA,"",       16.9786,       16.9527,   938.760E-03,   11.6233E-03
C:/temp/dataset/2/21_9.odb,Step-1,Increment     11: Step Time =    1.000,"PART-1-1",           529,      -2.53358,       23.6558,            0.,NA,NA,"",       16.3396,       16.3242,  -709.320E-03,   12.7796E-03
C:/temp/dataset/2/21_9.odb,Step-1,Increment     11: Step Time =    1.000,"PART-1-1",           530,  -74.6816E-03,       23.6075,            0.,NA,NA,"",       15.8789,       15.7086,      -2.31940,   14.8921E-03
C:/temp/dataset/2/21_9.odb,Step-1,Increment     11: Step Time =    1.000,"PART-1-1",           531,      -6.62798,      -1.45964,            0.,NA,NA,"",       2.95547,       2.87715,  -675.860E-03,   23.3243E-03
C:/temp/dataset/2/21_9.odb,Step-1,Increment     11: Step Time =    1.000,"PART-1-1",           532,      -4.43070,      -2.38075,            0.,NA,NA,"",       2.83300,       2.60714,      -1.10847,   14.9615E-03
C:/temp/dataset/2/21_9.odb,Step-1,Increment     11: Step Time =    1.000,"PART-1-1",           533,      -3.64554,  -813.143E-03,            0.,NA,NA,"",       3.25755,       2.96779,      -1.34308,   12.6109E-03
C:/temp/dataset/2/21_9.odb,Step-1,Increment     11: Step Time =    1.000,"PART-1-1",           534,         -3.75,           -5.,            0.,NA,NA,"",       2.29671,       1.95267,      -1.20910,   46.4029E-03
C:/temp/dataset/2/21_9.odb,Step-1,Increment     11: Step Time =    1.000,"PART-1-1",           535,      -13.8599,      -9.43096,            0.,NA,NA,"",       1.61117,       1.47242,   654.093E-03,   37.3085E-03
C:/temp/dataset/2/21_9.odb,Step-1,Increment     11: Step Time =    1.000,"PART-1-1",           536,          -15.,      -11.0417,            0.,NA,NA,"",       1.47376,       1.24963,   781.281E-03,   49.3937E-03
C:/temp/dataset/2/21_9.odb,Step-1,Increment     11: Step Time =    1.000,"PART-1-1",           537,      -11.9984,      -19.8095,            0.,NA,NA,"",   295.426E-03,   206.276E-03,   211.487E-03,   28.1515E-03
C:/temp/dataset/2/21_9.odb,Step-1,Increment     11: Step Time =    1.000,"PART-1-1",           538,      -13.3881,      -18.2324,            0.,NA,NA,"",   496.372E-03,   346.903E-03,   355.025E-03,   41.9443E-03
C:/temp/dataset/2/21_9.odb,Step-1,Increment     11: Step Time =    1.000,"PART-1-1",           539,          -15.,      -19.7917,            0.,NA,NA,"",   485.313E-03,   271.944E-03,   401.964E-03,   56.4342E-03
C:/temp/dataset/2/21_9.odb,Step-1,Increment     11: Step Time =    1.000,"PART-1-1",           540,           -5.,        -18.75,            0.,NA,NA,"",   353.236E-03,   247.460E-03,  -252.070E-03,   68.5311E-03
C:/temp/dataset/2/21_9.odb,Step-1,Increment     11: Step Time =    1.000,"PART-1-1",           541,      -5.96138,      -20.0094,            0.,NA,NA,"",   184.234E-03,   119.983E-03,  -139.807E-03,   44.4728E-03
C:/temp/dataset/2/21_9.odb,Step-1,Increment     11: Step Time =    1.000,"PART-1-1",           542,           -5.,        -13.75,            0.,NA,NA,"",   919.472E-03,   769.227E-03,  -503.705E-03,   42.6186E-03
C:/temp/dataset/2/21_9.odb,Step-1,Increment     11: Step Time =    1.000,"PART-1-1",           543,      -7.28958,      -14.3036,            0.,NA,NA,"",   715.806E-03,   685.968E-03,  -204.516E-03,   23.1742E-03
C:/temp/dataset/2/21_9.odb,Step-1,Increment     11: Step Time =    1.000,"PART-1-1",           544,      -8.88285,      -11.0213,            0.,NA,NA,"",       1.13269,       1.13041,  -71.8939E-03,   8.23394E-03
C:/temp/dataset/2/21_9.odb,Step-1,Increment     11: Step Time =    1.000,"PART-1-1",           545,      -9.01222,      -8.51542,            0.,NA,NA,"",       1.52870,       1.52582,  -93.6657E-03,   6.41292E-03
C:/temp/dataset/2/21_9.odb,Step-1,Increment     11: Step Time =    1.000,"PART-1-1",           546,      -9.13424,  -715.290E-03,            0.,NA,NA,"",       3.10294,       3.09591,  -208.748E-03,   24.9352E-03
C:/temp/dataset/2/21_9.odb,Step-1,Increment     11: Step Time =    1.000,"PART-1-1",           547,      -9.92186,      -2.42350,            0.,NA,NA,"",       2.72761,       2.72751,  -24.1927E-03,   23.3840E-03
C:/temp/dataset/2/21_9.odb,Step-1,Increment     11: Step Time =    1.000,"PART-1-1",           548,      -12.7176,      -7.95930,            0.,NA,NA,"",       1.76443,       1.69399,   493.550E-03,   26.6356E-03
C:/temp/dataset/2/21_9.odb,Step-1,Increment     11: Step Time =    1.000,"PART-1-1",           549,          -15.,        -8.125,            0.,NA,NA,"",       1.93713,       1.73251,   866.532E-03,   44.5794E-03
C:/temp/dataset/2/21_9.odb,Step-1,Increment     11: Step Time =    1.000,"PART-1-1",           550,       11.2818,   528.104E-03,            0.,NA,NA,"",       6.58983,       2.54270,      -6.07951,   31.6041E-03
C:/temp/dataset/2/21_9.odb,Step-1,Increment     11: Step Time =    1.000,"PART-1-1",           551,       10.0167,  -924.457E-03,            0.,NA,NA,"",       5.90954,       2.14861,      -5.50510,   31.2350E-03
C:/temp/dataset/2/21_9.odb,Step-1,Increment     11: Step Time =    1.000,"PART-1-1",           552,       10.4320,       23.7699,            0.,NA,NA,"",       16.1964,       13.6400,      -8.73357,   27.6537E-03
C:/temp/dataset/2/21_9.odb,Step-1,Increment     11: Step Time =    1.000,"PART-1-1",           553,           15.,        25.625,            0.,NA,NA,"",       18.2223,       13.9230,      -11.7560,   13.6552E-03
C:/temp/dataset/2/21_9.odb,Step-1,Increment     11: Step Time =    1.000,"PART-1-1",           554,      -9.99539,       26.2124,            0.,NA,NA,"",       20.2411,       19.9076,       3.65913,   9.70324E-03
C:/temp/dataset/2/21_9.odb,Step-1,Increment     11: Step Time =    1.000,"PART-1-1",           555,          -15.,       -25.625,            0.,NA,NA,"",   152.210E-03,   54.8463E-03,   141.985E-03,   42.3443E-03
C:/temp/dataset/2/21_9.odb,Step-1,Increment     11: Step Time =    1.000,"PART-1-1",           556,      -12.2044,      -25.8339,            0.,NA,NA,"",   80.4413E-03,   10.3458E-03,   79.7732E-03,   25.7017E-03
C:/temp/dataset/2/21_9.odb,Step-1,Increment     11: Step Time =    1.000,"PART-1-1",           557,          -15.,       -16.875,            0.,NA,NA,"",   745.677E-03,   509.591E-03,   544.382E-03,   57.0506E-03
C:/temp/dataset/2/21_9.odb,Step-1,Increment     11: Step Time =    1.000,"PART-1-1",           558,      -8.25880,      -15.9015,            0.,NA,NA,"",   506.145E-03,   501.830E-03,  -65.9509E-03,   14.7719E-03
C:/temp/dataset/2/21_9.odb,Step-1,Increment     11: Step Time =    1.000,"PART-1-1",           559,       7.56555,       17.9230,            0.,NA,NA,"",       12.3559,       10.7433,      -6.10341,   34.5408E-03
C:/temp/dataset/2/21_9.odb,Step-1,Increment     11: Step Time =    1.000,"PART-1-1",           560,      -9.72707,       2.21069,            0.,NA,NA,"",       3.77131,       3.76738,  -172.136E-03,   20.0975E-03
C:/temp/dataset/2/21_9.odb,Step-1,Increment     11: Step Time =    1.000,"PART-1-1",           561,      -8.18006,       3.69884,            0.,NA,NA,"",       4.11524,       4.08121,  -528.161E-03,   20.7656E-03
C:/temp/dataset/2/21_9.odb,Step-1,Increment     11: Step Time =    1.000,"PART-1-1",           562,          -10.,            5.,            0.,NA,NA,"",       4.36867,       4.36434,  -194.382E-03,   13.6152E-03
C:/temp/dataset/2/21_9.odb,Step-1,Increment     11: Step Time =    1.000,"PART-1-1",           563,      -10.3433,      -7.69771,            0.,NA,NA,"",       1.69091,       1.68733,   109.998E-03,   12.5466E-03
C:/temp/dataset/2/21_9.odb,Step-1,Increment     11: Step Time =    1.000,"PART-1-1",           564,      -11.5611,      -6.59494,            0.,NA,NA,"",       1.93842,       1.91412,   305.961E-03,   19.6823E-03
C:/temp/dataset/2/21_9.odb,Step-1,Increment     11: Step Time =    1.000,"PART-1-1",           565,      -9.40089,      -20.7816,            0.,NA,NA,"",   124.385E-03,   117.519E-03,   40.7538E-03,   11.3872E-03
C:/temp/dataset/2/21_9.odb,Step-1,Increment     11: Step Time =    1.000,"PART-1-1",           566,      -8.21757,      -22.2064,            0.,NA,NA,"",   59.1622E-03,   55.8008E-03,  -19.6579E-03,   11.3830E-03
C:/temp/dataset/2/21_9.odb,Step-1,Increment     11: Step Time =    1.000,"PART-1-1",           567,      -6.89894,      -21.2078,            0.,NA,NA,"",   116.729E-03,   82.2828E-03,  -82.7965E-03,   19.0505E-03
C:/temp/dataset/2/21_9.odb,Step-1,Increment     11: Step Time =    1.000,"PART-1-1",           568,      -9.14285,      -28.6800,            0.,NA,NA,"",   13.6589E-03,  -12.8310E-03,   4.68297E-03,   8.39608E-03
C:/temp/dataset/2/21_9.odb,Step-1,Increment     11: Step Time =    1.000,"PART-1-1",           569,      -10.7232,      -27.3047,            0.,NA,NA,"",   30.2796E-03,  -11.1525E-03,   28.1509E-03,   14.6835E-03
C:/temp/dataset/2/21_9.odb,Step-1,Increment     11: Step Time =    1.000,"PART-1-1",           570,         -10.5,          -30.,            0.,NA,NA,"",            0.,  -37.1218E-42,   39.0388E-42,   13.1905E-03
C:/temp/dataset/2/21_9.odb,Step-1,Increment     11: Step Time =    1.000,"PART-1-1",           571,      -4.89633,      -27.4366,            0.,NA,NA,"",   20.3541E-03,   5.07772E-03,  -19.7105E-03,   11.3407E-03
C:/temp/dataset/2/21_9.odb,Step-1,Increment     11: Step Time =    1.000,"PART-1-1",           572,      -6.18287,      -28.7136,            0.,NA,NA,"",   7.71368E-03,  -4.75219E-03,  -6.07598E-03,   7.85432E-03
C:/temp/dataset/2/21_9.odb,Step-1,Increment     11: Step Time =    1.000,"PART-1-1",           573,          -4.5,          -30.,            0.,NA,NA,"",            0.,   4.20810E-42,  -62.9435E-42,   6.30691E-03
C:/temp/dataset/2/21_9.odb,Step-1,Increment     11: Step Time =    1.000,"PART-1-1",           574,       12.5384,       2.02620,            0.,NA,NA,"",       7.30956,       2.96733,      -6.68017,   31.0279E-03
C:/temp/dataset/2/21_9.odb,Step-1,Increment     11: Step Time =    1.000,"PART-1-1",           575,           15.,       2.29167,            0.,NA,NA,"",       8.18058,       2.90873,      -7.64599,   38.9423E-03
C:/temp/dataset/2/21_9.odb,Step-1,Increment     11: Step Time =    1.000,"PART-1-1",           576,       9.96595,       9.83263,            0.,NA,NA,"",       8.94005,       6.29780,      -6.34524,   7.24358E-03
C:/temp/dataset/2/21_9.odb,Step-1,Increment     11: Step Time =    1.000,"PART-1-1",           577,           15.,       19.7917,            0.,NA,NA,"",       14.9439,       10.6158,      -10.5179,   48.7949E-03
C:/temp/dataset/2/21_9.odb,Step-1,Increment     11: Step Time =    1.000,"PART-1-1",           578,       7.90800,       20.1372,            0.,NA,NA,"",       13.6406,       11.9245,      -6.62367,   19.2716E-03
C:/temp/dataset/2/21_9.odb,Step-1,Increment     11: Step Time =    1.000,"PART-1-1",           579,       8.41916,       21.3934,            0.,NA,NA,"",       14.4541,       12.5706,      -7.13441,   22.2073E-03
C:/temp/dataset/2/21_9.odb,Step-1,Increment     11: Step Time =    1.000,"PART-1-1",           580,       6.50486,       21.1025,            0.,NA,NA,"",       14.0672,       12.7293,      -5.98752,   28.3180E-03
C:/temp/dataset/2/21_9.odb,Step-1,Increment     11: Step Time =    1.000,"PART-1-1",           581,           4.5,          -30.,            0.,NA,NA,"",            0.,   19.3113E-42,  -13.8336E-42,   6.26559E-03
C:/temp/dataset/2/21_9.odb,Step-1,Increment     11: Step Time =    1.000,"PART-1-1",           582,       3.62857,      -22.4261,            0.,NA,NA,"",   41.1794E-03,   41.0693E-03,  -3.00927E-03,   3.65747E-03
C:/temp/dataset/2/21_9.odb,Step-1,Increment     11: Step Time =    1.000,"PART-1-1",           583,       2.16864,      -23.6665,            0.,NA,NA,"",   44.0006E-03,   43.0931E-03,  -8.89010E-03,   5.87243E-03
C:/temp/dataset/2/21_9.odb,Step-1,Increment     11: Step Time =    1.000,"PART-1-1",           584,      -2.73954,      -22.4743,            0.,NA,NA,"",   94.5877E-03,   70.6186E-03,  -62.9273E-03,   18.5520E-03
C:/temp/dataset/2/21_9.odb,Step-1,Increment     11: Step Time =    1.000,"PART-1-1",           585,  -999.676E-03,      -23.6839,            0.,NA,NA,"",   61.5725E-03,   52.9529E-03,  -31.4192E-03,   12.9909E-03
C:/temp/dataset/2/21_9.odb,Step-1,Increment     11: Step Time =    1.000,"PART-1-1",           586,      -7.82572,      -27.3936,            0.,NA,NA,"",   12.3931E-03,  -11.3423E-03,  -4.99413E-03,   5.82699E-03
C:/temp/dataset/2/21_9.odb,Step-1,Increment     11: Step Time =    1.000,"PART-1-1",           587,      -6.52069,      -26.1528,            0.,NA,NA,"",   25.4488E-03,   2.31694E-03,  -25.3431E-03,   12.4081E-03
C:/temp/dataset/2/21_9.odb,Step-1,Increment     11: Step Time =    1.000,"PART-1-1",           588,      -8.08310,      -24.7829,            0.,NA,NA,"",   13.6786E-03,   7.14651E-03,  -11.6632E-03,   7.97343E-03
C:/temp/dataset/2/21_9.odb,Step-1,Increment     11: Step Time =    1.000,"PART-1-1",           589,      -9.38814,      -26.0237,            0.,NA,NA,"",   18.0021E-03,  -7.45140E-03,   16.3875E-03,   9.02156E-03
C:/temp/dataset/2/21_9.odb,Step-1,Increment     11: Step Time =    1.000,"PART-1-1",           590,          -7.5,          -30.,            0.,NA,NA,"",            0.,  -24.3279E-42,  -32.9207E-42,   6.49608E-03
C:/temp/dataset/2/21_9.odb,Step-1,Increment     11: Step Time =    1.000,"PART-1-1",           591,       7.73182,       24.8866,            0.,NA,NA,"",       16.5619,       14.8076,      -7.41829,   24.4804E-03
C:/temp/dataset/2/21_9.odb,Step-1,Increment     11: Step Time =    1.000,"PART-1-1",           592,       8.21760,       26.2797,            0.,NA,NA,"",       17.4915,       15.5677,      -7.97498,   24.9000E-03
C:/temp/dataset/2/21_9.odb,Step-1,Increment     11: Step Time =    1.000,"PART-1-1",           593,       6.12718,       25.7561,            0.,NA,NA,"",       17.0198,       15.6643,      -6.65621,   20.1227E-03
C:/temp/dataset/2/21_9.odb,Step-1,Increment     11: Step Time =    1.000,"PART-1-1",           594,       5.38844,       22.1508,            0.,NA,NA,"",       14.6635,       13.5874,      -5.51348,   25.2569E-03
C:/temp/dataset/2/21_9.odb,Step-1,Increment     11: Step Time =    1.000,"PART-1-1",           595,      -3.37677,   775.412E-03,            0.,NA,NA,"",       3.66660,       3.36024,      -1.46724,   19.0815E-03
C:/temp/dataset/2/21_9.odb,Step-1,Increment     11: Step Time =    1.000,"PART-1-1",           596,      -3.41233,       2.84116,            0.,NA,NA,"",       4.16964,       3.87240,      -1.54611,   29.0652E-03
C:/temp/dataset/2/21_9.odb,Step-1,Increment     11: Step Time =    1.000,"PART-1-1",           597,      -11.2482,       24.9673,            0.,NA,NA,"",       19.9993,       19.4101,       4.81877,   9.42298E-03
C:/temp/dataset/2/21_9.odb,Step-1,Increment     11: Step Time =    1.000,"PART-1-1",           598,       5.16292,       24.1270,            0.,NA,NA,"",       15.9336,       14.8570,      -5.75746,   15.9441E-03
C:/temp/dataset/2/21_9.odb,Step-1,Increment     11: Step Time =    1.000,"PART-1-1",           599,            0.,            5.,            0.,NA,NA,"",       5.09556,       4.42063,      -2.53430,   53.5112E-03
C:/temp/dataset/2/21_9.odb,Step-1,Increment     11: Step Time =    1.000,"PART-1-1",           600,      -1.80204,       3.95011,            0.,NA,NA,"",       4.60101,       4.14459,      -1.99790,   40.6722E-03
C:/temp/dataset/2/21_9.odb,Step-1,Increment     11: Step Time =    1.000,"PART-1-1",           601,       9.59799,       22.9228,            0.,NA,NA,"",       15.5500,       13.2779,      -8.09318,   27.3895E-03
C:/temp/dataset/2/21_9.odb,Step-1,Increment     11: Step Time =    1.000,"PART-1-1",           602,       8.30932,       22.9391,            0.,NA,NA,"",       15.3900,       13.5126,      -7.36620,   26.8466E-03
C:/temp/dataset/2/21_9.odb,Step-1,Increment     11: Step Time =    1.000,"PART-1-1",           603,      -1.93269,      -1.01257,            0.,NA,NA,"",       3.35475,       2.86299,      -1.74860,   10.5629E-03
C:/temp/dataset/2/21_9.odb,Step-1,Increment     11: Step Time =    1.000,"PART-1-1",           604,      -8.69440,      -13.5596,            0.,NA,NA,"",   781.395E-03,   779.354E-03,  -56.4419E-03,   10.1350E-03
C:/temp/dataset/2/21_9.odb,Step-1,Increment     11: Step Time =    1.000,"PART-1-1",           605,       6.07991,       2.65614,            0.,NA,NA,"",       5.57841,       3.65072,      -4.21792,   26.0057E-03
C:/temp/dataset/2/21_9.odb,Step-1,Increment     11: Step Time =    1.000,"PART-1-1",           606,       4.75906,       1.28045,            0.,NA,NA,"",       4.95173,       3.26647,      -3.72153,   16.7745E-03
C:/temp/dataset/2/21_9.odb,Step-1,Increment     11: Step Time =    1.000,"PART-1-1",           607,       10.0234,       4.43547,            0.,NA,NA,"",       7.10947,       4.01991,      -5.86386,   21.7268E-03
C:/temp/dataset/2/21_9.odb,Step-1,Increment     11: Step Time =    1.000,"PART-1-1",           608,       7.46673,       4.06304,            0.,NA,NA,"",       6.29556,       4.06442,      -4.80775,   25.8521E-03
C:/temp/dataset/2/21_9.odb,Step-1,Increment     11: Step Time =    1.000,"PART-1-1",           609,  -317.165E-03,  -486.862E-03,            0.,NA,NA,"",       3.66615,       2.94782,      -2.17968,   10.1696E-03
C:/temp/dataset/2/21_9.odb,Step-1,Increment     11: Step Time =    1.000,"PART-1-1",           610,       1.72730,   921.331E-03,            0.,NA,NA,"",       4.31128,       3.28336,      -2.79405,   18.0160E-03
C:/temp/dataset/2/21_9.odb,Step-1,Increment     11: Step Time =    1.000,"PART-1-1",           611,      -4.63664,      -21.2535,            0.,NA,NA,"",   152.131E-03,   93.4317E-03,  -120.060E-03,   41.3156E-03
C:/temp/dataset/2/21_9.odb,Step-1,Increment     11: Step Time =    1.000,"PART-1-1",           612,       11.2827,       3.26092,            0.,NA,NA,"",       7.18637,       3.49311,      -6.28030,   29.4826E-03
C:/temp/dataset/2/21_9.odb,Step-1,Increment     11: Step Time =    1.000,"PART-1-1",           613,      -11.4502,      -4.36864,            0.,NA,NA,"",       2.36584,       2.34961,   276.631E-03,   21.4638E-03
C:/temp/dataset/2/21_9.odb,Step-1,Increment     11: Step Time =    1.000,"PART-1-1",           614,      -10.8693,      -24.5529,            0.,NA,NA,"",   68.7685E-03,   16.1361E-03,   66.8486E-03,   18.0991E-03
C:/temp/dataset/2/21_9.odb,Step-1,Increment     11: Step Time =    1.000,"PART-1-1",           615,      -9.52531,      -23.3517,            0.,NA,NA,"",   44.7092E-03,   31.7642E-03,   31.4635E-03,   12.2239E-03
C:/temp/dataset/2/21_9.odb,Step-1,Increment     11: Step Time =    1.000,"PART-1-1",           616,      -10.8903,      -21.7518,            0.,NA,NA,"",   142.545E-03,   91.7362E-03,   109.103E-03,   21.0524E-03
C:/temp/dataset/2/21_9.odb,Step-1,Increment     11: Step Time =    1.000,"PART-1-1",           617,       3.33333,          -20.,            0.,NA,NA,"",   39.1797E-03,   39.1530E-03,  -1.44801E-03,   1.46616E-03
C:/temp/dataset/2/21_9.odb,Step-1,Increment     11: Step Time =    1.000,"PART-1-1",           618,       1.83446,      -21.2108,            0.,NA,NA,"",   45.2627E-03,   44.5842E-03,  -7.80774E-03,   3.47356E-03
C:/temp/dataset/2/21_9.odb,Step-1,Increment     11: Step Time =    1.000,"PART-1-1",           619,       5.12744,      -21.2153,            0.,NA,NA,"",   38.1687E-03,   38.1592E-03,   848.425E-06,   1.64522E-03
C:/temp/dataset/2/21_9.odb,Step-1,Increment     11: Step Time =    1.000,"PART-1-1",           620,            0.,          -20.,            0.,NA,NA,"",   46.4712E-03,   43.3910E-03,  -16.6370E-03,   4.96718E-03
C:/temp/dataset/2/21_9.odb,Step-1,Increment     11: Step Time =    1.000,"PART-1-1",           621,      -1.43624,      -21.2208,            0.,NA,NA,"",   73.6902E-03,   62.4817E-03,  -39.0678E-03,   10.1780E-03
C:/temp/dataset/2/21_9.odb,Step-1,Increment     11: Step Time =    1.000,"PART-1-1",           622,   398.228E-03,      -22.4316,            0.,NA,NA,"",   55.4222E-03,   51.8429E-03,  -19.5943E-03,   8.48595E-03
C:/temp/dataset/2/21_9.odb,Step-1,Increment     11: Step Time =    1.000,"PART-1-1",           623,   770.736E-03,      -24.9188,            0.,NA,NA,"",   44.3192E-03,   41.4694E-03,  -15.6361E-03,   8.99110E-03
C:/temp/dataset/2/21_9.odb,Step-1,Increment     11: Step Time =    1.000,"PART-1-1",           624,      -3.33333,          -20.,            0.,NA,NA,"",   94.7788E-03,   69.8815E-03,  -64.0281E-03,   26.9064E-03
C:/temp/dataset/2/21_9.odb,Step-1,Increment     11: Step Time =    1.000,"PART-1-1",           625,       8.69606,       24.2205,            0.,NA,NA,"",       16.2372,       14.2199,      -7.83848,   26.8234E-03
C:/temp/dataset/2/21_9.odb,Step-1,Increment     11: Step Time =    1.000,"PART-1-1",           626,      -3.33333,            5.,            0.,NA,NA,"",       4.69257,       4.38766,      -1.66393,   44.5637E-03
C:/temp/dataset/2/21_9.odb,Step-1,Increment     11: Step Time =    1.000,"PART-1-1",           627,      -4.94363,       3.89105,            0.,NA,NA,"",       4.30200,       4.12150,      -1.23308,   32.3339E-03
C:/temp/dataset/2/21_9.odb,Step-1,Increment     11: Step Time =    1.000,"PART-1-1",           628,      -6.66667,            5.,            0.,NA,NA,"",       4.44794,       4.35746,  -892.583E-03,   31.0894E-03
C:/temp/dataset/2/21_9.odb,Step-1,Increment     11: Step Time =    1.000,"PART-1-1",           629,           10.,          -20.,            0.,NA,NA,"",   35.9629E-03,   35.9620E-03,   261.040E-06,   19.4579E-06
C:/temp/dataset/2/21_9.odb,Step-1,Increment     11: Step Time =    1.000,"PART-1-1",           630,       8.42239,      -21.2201,            0.,NA,NA,"",   34.8736E-03,   34.8345E-03,   1.65203E-03,   749.144E-06
C:/temp/dataset/2/21_9.odb,Step-1,Increment     11: Step Time =    1.000,"PART-1-1",           631,       6.66667,          -20.,            0.,NA,NA,"",   36.5212E-03,   36.4367E-03,   2.48319E-03,   586.187E-06
C:/temp/dataset/2/21_9.odb,Step-1,Increment     11: Step Time =    1.000,"PART-1-1",           632,       9.53008,       25.0675,            0.,NA,NA,"",       16.8700,       14.5822,      -8.48280,   27.0108E-03
