ODB Name,Step,Frame,Part Instance Name,    êﬂì_ÉâÉxÉã,X,Y,Z,Section Name,Material Name,Section Point,   U-Magnitude,          U-U1,          U-U2,       S-Mises
C:/temp/dataset/2/22_1.odb,Step-1,Increment      1: Step Time =    1.000,"PART-1-1",             1,          -15.,           20.,            0.,NA,NA,"",   825.407E-03,   237.116E-03,   790.615E-03,   26.0363E-06
C:/temp/dataset/2/22_1.odb,Step-1,Increment      1: Step Time =    1.000,"PART-1-1",             2,          -15.,           25.,            0.,NA,NA,"",   885.092E-03,   402.838E-03,   788.105E-03,   85.5754E-06
C:/temp/dataset/2/22_1.odb,Step-1,Increment      1: Step Time =    1.000,"PART-1-1",             3,          -10.,           20.,            0.,NA,NA,"",   668.826E-03,   234.911E-03,   626.215E-03,   536.548E-06
C:/temp/dataset/2/22_1.odb,Step-1,Increment      1: Step Time =    1.000,"PART-1-1",             4,           -5.,           20.,            0.,NA,NA,"",   513.336E-03,   232.800E-03,   457.513E-03,   995.407E-06
C:/temp/dataset/2/22_1.odb,Step-1,Increment      1: Step Time =    1.000,"PART-1-1",             5,            0.,           20.,            0.,NA,NA,"",   372.526E-03,   236.913E-03,   287.485E-03,   2.02790E-03
C:/temp/dataset/2/22_1.odb,Step-1,Increment      1: Step Time =    1.000,"PART-1-1",             6,            5.,           20.,            0.,NA,NA,"",   275.859E-03,   249.527E-03,   117.620E-03,   8.67704E-03
C:/temp/dataset/2/22_1.odb,Step-1,Increment      1: Step Time =    1.000,"PART-1-1",             7,            5.,          12.5,            0.,NA,NA,"",   133.741E-03,   109.425E-03,   76.8958E-03,   5.70478E-03
C:/temp/dataset/2/22_1.odb,Step-1,Increment      1: Step Time =    1.000,"PART-1-1",             8,            5.,            5.,            0.,NA,NA,"",   35.3143E-03,   3.97202E-03,   35.0902E-03,   8.05335E-03
C:/temp/dataset/2/22_1.odb,Step-1,Increment      1: Step Time =    1.000,"PART-1-1",             9,           -5.,            5.,            0.,NA,NA,"",   27.8179E-03,  -18.5621E-03,   20.7192E-03,   890.486E-06
C:/temp/dataset/2/22_1.odb,Step-1,Increment      1: Step Time =    1.000,"PART-1-1",            10,          -15.,            5.,            0.,NA,NA,"",   20.7735E-03,  -20.3439E-03,   4.20305E-03,   12.8677E-06
C:/temp/dataset/2/22_1.odb,Step-1,Increment      1: Step Time =    1.000,"PART-1-1",            11,          -15.,         -3.75,            0.,NA,NA,"",   9.19311E-03,  -8.31104E-03,   3.92937E-03,   90.8989E-06
C:/temp/dataset/2/22_1.odb,Step-1,Increment      1: Step Time =    1.000,"PART-1-1",            12,          -15.,         -12.5,            0.,NA,NA,"",   3.66333E-03,   355.019E-06,   3.64609E-03,   15.0676E-06
C:/temp/dataset/2/22_1.odb,Step-1,Increment      1: Step Time =    1.000,"PART-1-1",            13,          -15.,        -21.25,            0.,NA,NA,"",   3.88390E-03,   2.47085E-03,   2.99659E-03,   205.591E-06
C:/temp/dataset/2/22_1.odb,Step-1,Increment      1: Step Time =    1.000,"PART-1-1",            14,          -15.,          -30.,            0.,NA,NA,"",            0.,   294.666E-42,   487.983E-42,   780.427E-06
C:/temp/dataset/2/22_1.odb,Step-1,Increment      1: Step Time =    1.000,"PART-1-1",            15,           15.,          -30.,            0.,NA,NA,"",            0.,   2.10335E-42,  -4.13523E-42,   6.88528E-06
C:/temp/dataset/2/22_1.odb,Step-1,Increment      1: Step Time =    1.000,"PART-1-1",            16,           15.,          -25.,            0.,NA,NA,"",   31.3703E-06,   12.6653E-06,  -28.6999E-06,   4.61583E-06
C:/temp/dataset/2/22_1.odb,Step-1,Increment      1: Step Time =    1.000,"PART-1-1",            17,           15.,          -20.,            0.,NA,NA,"",   45.7031E-06,   29.1610E-06,  -35.1911E-06,   700.385E-09
C:/temp/dataset/2/22_1.odb,Step-1,Increment      1: Step Time =    1.000,"PART-1-1",            18,            5.,          -20.,            0.,NA,NA,"",   138.745E-06,   135.724E-06,  -28.7947E-06,   41.4670E-06
C:/temp/dataset/2/22_1.odb,Step-1,Increment      1: Step Time =    1.000,"PART-1-1",            19,           -5.,          -20.,            0.,NA,NA,"",   3.40605E-03,   959.896E-06,   3.26799E-03,   925.117E-06
C:/temp/dataset/2/22_1.odb,Step-1,Increment      1: Step Time =    1.000,"PART-1-1",            20,           -5.,         -12.5,            0.,NA,NA,"",   10.3425E-03,  -1.82725E-03,   10.1798E-03,   988.244E-06
C:/temp/dataset/2/22_1.odb,Step-1,Increment      1: Step Time =    1.000,"PART-1-1",            21,           -5.,           -5.,            0.,NA,NA,"",   20.5939E-03,  -9.46333E-03,   18.2908E-03,   1.35813E-03
C:/temp/dataset/2/22_1.odb,Step-1,Increment      1: Step Time =    1.000,"PART-1-1",            22,            0.,           -5.,            0.,NA,NA,"",   32.0917E-03,  -17.6332E-03,   26.8132E-03,   2.58691E-03
C:/temp/dataset/2/22_1.odb,Step-1,Increment      1: Step Time =    1.000,"PART-1-1",            23,            5.,           -5.,            0.,NA,NA,"",   37.4944E-03,  -31.7608E-03,   19.9269E-03,   3.31145E-03
C:/temp/dataset/2/22_1.odb,Step-1,Increment      1: Step Time =    1.000,"PART-1-1",            24,           10.,           -5.,            0.,NA,NA,"",   44.0297E-03,  -43.6163E-03,  -6.01923E-03,   1.45837E-03
C:/temp/dataset/2/22_1.odb,Step-1,Increment      1: Step Time =    1.000,"PART-1-1",            25,           15.,           -5.,            0.,NA,NA,"",   58.9771E-03,  -45.5764E-03,  -37.4312E-03,   116.683E-06
C:/temp/dataset/2/22_1.odb,Step-1,Increment      1: Step Time =    1.000,"PART-1-1",            26,           15.,          3.75,            0.,NA,NA,"",   48.4479E-03,   4.08426E-03,  -48.2754E-03,   3.63447E-03
C:/temp/dataset/2/22_1.odb,Step-1,Increment      1: Step Time =    1.000,"PART-1-1",            27,           15.,          12.5,            0.,NA,NA,"",   136.101E-03,   105.890E-03,  -85.5029E-03,   4.91392E-03
C:/temp/dataset/2/22_1.odb,Step-1,Increment      1: Step Time =    1.000,"PART-1-1",            28,           15.,         21.25,            0.,NA,NA,"",   312.680E-03,   287.162E-03,  -123.722E-03,   3.55846E-03
C:/temp/dataset/2/22_1.odb,Step-1,Increment      1: Step Time =    1.000,"PART-1-1",            29,           15.,           30.,            0.,NA,NA,"",   538.503E-03,   520.694E-03,  -137.345E-03,   109.960E-06
C:/temp/dataset/2/22_1.odb,Step-1,Increment      1: Step Time =    1.000,"PART-1-1",            30,           7.5,           30.,            0.,NA,NA,"",   533.055E-03,   529.761E-03,   59.1719E-03,   2.62204E-03
C:/temp/dataset/2/22_1.odb,Step-1,Increment      1: Step Time =    1.000,"PART-1-1",            31,            0.,           30.,            0.,NA,NA,"",   621.631E-03,   553.431E-03,   283.089E-03,   2.35077E-03
C:/temp/dataset/2/22_1.odb,Step-1,Increment      1: Step Time =    1.000,"PART-1-1",            32,          -7.5,           30.,            0.,NA,NA,"",   777.875E-03,   565.425E-03,   534.215E-03,   220.209E-06
C:/temp/dataset/2/22_1.odb,Step-1,Increment      1: Step Time =    1.000,"PART-1-1",            33,          -15.,           30.,            0.,NA,NA,"",   970.291E-03,   569.630E-03,   785.484E-03,   2.51289E-06
C:/temp/dataset/2/22_1.odb,Step-1,Increment      1: Step Time =    1.000,"PART-1-1",            34,          -15.,          22.5,            0.,NA,NA,"",   851.647E-03,   319.849E-03,   789.303E-03,   63.0143E-06
C:/temp/dataset/2/22_1.odb,Step-1,Increment      1: Step Time =    1.000,"PART-1-1",            35,         -12.5,           20.,            0.,NA,NA,"",   746.121E-03,   235.778E-03,   707.888E-03,   163.703E-06
C:/temp/dataset/2/22_1.odb,Step-1,Increment      1: Step Time =    1.000,"PART-1-1",            36,          -7.5,           20.,            0.,NA,NA,"",   591.720E-03,   233.502E-03,   543.699E-03,   1.08680E-03
C:/temp/dataset/2/22_1.odb,Step-1,Increment      1: Step Time =    1.000,"PART-1-1",            37,          -2.5,           20.,            0.,NA,NA,"",   438.969E-03,   234.250E-03,   371.242E-03,   1.56168E-03
C:/temp/dataset/2/22_1.odb,Step-1,Increment      1: Step Time =    1.000,"PART-1-1",            38,           2.5,           20.,            0.,NA,NA,"",   316.059E-03,   240.613E-03,   204.936E-03,   3.43310E-03
C:/temp/dataset/2/22_1.odb,Step-1,Increment      1: Step Time =    1.000,"PART-1-1",            39,            5.,           15.,            0.,NA,NA,"",   177.098E-03,   152.956E-03,   89.2635E-03,   5.61254E-03
C:/temp/dataset/2/22_1.odb,Step-1,Increment      1: Step Time =    1.000,"PART-1-1",            40,            5.,          17.5,            0.,NA,NA,"",   224.894E-03,   200.932E-03,   101.014E-03,   6.34924E-03
C:/temp/dataset/2/22_1.odb,Step-1,Increment      1: Step Time =    1.000,"PART-1-1",            41,            5.,           7.5,            0.,NA,NA,"",   64.4145E-03,   37.5532E-03,   52.3353E-03,   6.25811E-03
C:/temp/dataset/2/22_1.odb,Step-1,Increment      1: Step Time =    1.000,"PART-1-1",            42,            5.,           10.,            0.,NA,NA,"",   96.0171E-03,   71.1640E-03,   64.4590E-03,   5.56174E-03
C:/temp/dataset/2/22_1.odb,Step-1,Increment      1: Step Time =    1.000,"PART-1-1",            43,      -1.66667,            5.,            0.,NA,NA,"",   29.7229E-03,  -14.7390E-03,   25.8111E-03,   1.61215E-03
C:/temp/dataset/2/22_1.odb,Step-1,Increment      1: Step Time =    1.000,"PART-1-1",            44,       1.66667,            5.,            0.,NA,NA,"",   30.2555E-03,  -8.52109E-03,   29.0308E-03,   3.15809E-03
C:/temp/dataset/2/22_1.odb,Step-1,Increment      1: Step Time =    1.000,"PART-1-1",            45,      -11.6667,            5.,            0.,NA,NA,"",   22.3671E-03,  -20.3746E-03,   9.22840E-03,   19.4361E-06
C:/temp/dataset/2/22_1.odb,Step-1,Increment      1: Step Time =    1.000,"PART-1-1",            46,      -8.33333,            5.,            0.,NA,NA,"",   24.9630E-03,  -20.1073E-03,   14.7936E-03,   248.359E-06
C:/temp/dataset/2/22_1.odb,Step-1,Increment      1: Step Time =    1.000,"PART-1-1",            47,          -15.,  -833.333E-03,            0.,NA,NA,"",   12.7833E-03,  -12.0845E-03,   4.16869E-03,   45.3639E-06
C:/temp/dataset/2/22_1.odb,Step-1,Increment      1: Step Time =    1.000,"PART-1-1",            48,          -15.,       2.08333,            0.,NA,NA,"",   16.6324E-03,  -16.0834E-03,   4.23790E-03,   22.5450E-06
C:/temp/dataset/2/22_1.odb,Step-1,Increment      1: Step Time =    1.000,"PART-1-1",            49,          -15.,      -9.58333,            0.,NA,NA,"",   4.11121E-03,  -1.84428E-03,   3.67433E-03,   12.8341E-06
C:/temp/dataset/2/22_1.odb,Step-1,Increment      1: Step Time =    1.000,"PART-1-1",            50,          -15.,      -6.66667,            0.,NA,NA,"",   6.08456E-03,  -4.79633E-03,   3.74394E-03,   50.6922E-06
C:/temp/dataset/2/22_1.odb,Step-1,Increment      1: Step Time =    1.000,"PART-1-1",            51,          -15.,      -18.3333,            0.,NA,NA,"",   4.17370E-03,   2.44310E-03,   3.38394E-03,   108.096E-06
C:/temp/dataset/2/22_1.odb,Step-1,Increment      1: Step Time =    1.000,"PART-1-1",            52,          -15.,      -15.4167,            0.,NA,NA,"",   3.98899E-03,   1.77299E-03,   3.57331E-03,   42.2659E-06
C:/temp/dataset/2/22_1.odb,Step-1,Increment      1: Step Time =    1.000,"PART-1-1",            53,          -15.,      -27.0833,            0.,NA,NA,"",   1.95187E-03,   1.32974E-03,   1.42884E-03,   443.132E-06
C:/temp/dataset/2/22_1.odb,Step-1,Increment      1: Step Time =    1.000,"PART-1-1",            54,          -15.,      -24.1667,            0.,NA,NA,"",   3.09788E-03,   2.04771E-03,   2.32459E-03,   300.382E-06
C:/temp/dataset/2/22_1.odb,Step-1,Increment      1: Step Time =    1.000,"PART-1-1",            55,           12.,          -30.,            0.,NA,NA,"",            0.,  -2.85024E-42,  -5.35296E-42,   4.87522E-06
C:/temp/dataset/2/22_1.odb,Step-1,Increment      1: Step Time =    1.000,"PART-1-1",            56,            9.,          -30.,            0.,NA,NA,"",            0.,  -14.1391E-42,  -12.7126E-42,   10.1614E-06
C:/temp/dataset/2/22_1.odb,Step-1,Increment      1: Step Time =    1.000,"PART-1-1",            57,            6.,          -30.,            0.,NA,NA,"",            0.,  -40.1584E-42,   26.3752E-42,   27.2058E-06
C:/temp/dataset/2/22_1.odb,Step-1,Increment      1: Step Time =    1.000,"PART-1-1",            58,            3.,          -30.,            0.,NA,NA,"",            0.,  -60.7239E-42,   31.5993E-42,   62.6050E-06
C:/temp/dataset/2/22_1.odb,Step-1,Increment      1: Step Time =    1.000,"PART-1-1",            59,            0.,          -30.,            0.,NA,NA,"",            0.,  -154.520E-42,   214.585E-42,   120.354E-06
C:/temp/dataset/2/22_1.odb,Step-1,Increment      1: Step Time =    1.000,"PART-1-1",            60,           -3.,          -30.,            0.,NA,NA,"",            0.,  -198.151E-42,   407.481E-42,   189.691E-06
C:/temp/dataset/2/22_1.odb,Step-1,Increment      1: Step Time =    1.000,"PART-1-1",            61,           -6.,          -30.,            0.,NA,NA,"",            0.,  -168.199E-42,   582.942E-42,   256.627E-06
C:/temp/dataset/2/22_1.odb,Step-1,Increment      1: Step Time =    1.000,"PART-1-1",            62,           -9.,          -30.,            0.,NA,NA,"",            0.,   234.034E-42,   790.970E-42,   320.799E-06
C:/temp/dataset/2/22_1.odb,Step-1,Increment      1: Step Time =    1.000,"PART-1-1",            63,          -12.,          -30.,            0.,NA,NA,"",            0.,   431.006E-42,   841.914E-42,   333.258E-06
C:/temp/dataset/2/22_1.odb,Step-1,Increment      1: Step Time =    1.000,"PART-1-1",            64,           15.,         -27.5,            0.,NA,NA,"",   15.5953E-06,   5.69182E-06,  -14.5195E-06,   6.82246E-06
C:/temp/dataset/2/22_1.odb,Step-1,Increment      1: Step Time =    1.000,"PART-1-1",            65,           15.,         -22.5,            0.,NA,NA,"",   42.2692E-06,   23.2990E-06,  -35.2681E-06,   1.21915E-06
C:/temp/dataset/2/22_1.odb,Step-1,Increment      1: Step Time =    1.000,"PART-1-1",            66,       8.33333,          -20.,            0.,NA,NA,"",   69.5849E-06,   54.1997E-06,  -43.6400E-06,   15.3061E-06
C:/temp/dataset/2/22_1.odb,Step-1,Increment      1: Step Time =    1.000,"PART-1-1",            67,       11.6667,          -20.,            0.,NA,NA,"",   46.1006E-06,   30.1844E-06,  -34.8449E-06,   2.11441E-06
C:/temp/dataset/2/22_1.odb,Step-1,Increment      1: Step Time =    1.000,"PART-1-1",            68,      -1.66667,          -20.,            0.,NA,NA,"",   1.02813E-03,   698.075E-06,   754.810E-06,   242.926E-06
C:/temp/dataset/2/22_1.odb,Step-1,Increment      1: Step Time =    1.000,"PART-1-1",            69,       1.66667,          -20.,            0.,NA,NA,"",   363.639E-06,   338.569E-06,   132.681E-06,   102.128E-06
C:/temp/dataset/2/22_1.odb,Step-1,Increment      1: Step Time =    1.000,"PART-1-1",            70,           -5.,          -15.,            0.,NA,NA,"",   8.01093E-03,  -547.193E-06,   7.99222E-03,   951.214E-06
C:/temp/dataset/2/22_1.odb,Step-1,Increment      1: Step Time =    1.000,"PART-1-1",            71,           -5.,         -17.5,            0.,NA,NA,"",   5.92010E-03,   341.407E-06,   5.91024E-03,   1.00352E-03
C:/temp/dataset/2/22_1.odb,Step-1,Increment      1: Step Time =    1.000,"PART-1-1",            72,           -5.,          -7.5,            0.,NA,NA,"",   15.9591E-03,  -5.91625E-03,   14.8220E-03,   1.16925E-03
C:/temp/dataset/2/22_1.odb,Step-1,Increment      1: Step Time =    1.000,"PART-1-1",            73,           -5.,          -10.,            0.,NA,NA,"",   12.9824E-03,  -3.62026E-03,   12.4674E-03,   1.03486E-03
C:/temp/dataset/2/22_1.odb,Step-1,Increment      1: Step Time =    1.000,"PART-1-1",            74,          -2.5,           -5.,            0.,NA,NA,"",   27.3979E-03,  -12.7388E-03,   24.2563E-03,   1.72027E-03
C:/temp/dataset/2/22_1.odb,Step-1,Increment      1: Step Time =    1.000,"PART-1-1",            75,           2.5,           -5.,            0.,NA,NA,"",   35.3558E-03,  -24.2114E-03,   25.7651E-03,   3.20348E-03
C:/temp/dataset/2/22_1.odb,Step-1,Increment      1: Step Time =    1.000,"PART-1-1",            76,           7.5,           -5.,            0.,NA,NA,"",   39.8156E-03,  -38.8018E-03,   8.92736E-03,   2.68100E-03
C:/temp/dataset/2/22_1.odb,Step-1,Increment      1: Step Time =    1.000,"PART-1-1",            77,          12.5,           -5.,            0.,NA,NA,"",   50.6372E-03,  -45.4796E-03,  -22.2650E-03,   313.167E-06
C:/temp/dataset/2/22_1.odb,Step-1,Increment      1: Step Time =    1.000,"PART-1-1",            78,           15.,   833.333E-03,            0.,NA,NA,"",   43.0183E-03,  -13.9510E-03,  -40.6933E-03,   1.99347E-03
C:/temp/dataset/2/22_1.odb,Step-1,Increment      1: Step Time =    1.000,"PART-1-1",            79,           15.,      -2.08333,            0.,NA,NA,"",   47.6153E-03,  -29.1721E-03,  -37.6325E-03,   429.916E-06
C:/temp/dataset/2/22_1.odb,Step-1,Increment      1: Step Time =    1.000,"PART-1-1",            80,           15.,       9.58333,            0.,NA,NA,"",   95.9056E-03,   63.0013E-03,  -72.3098E-03,   4.90382E-03
C:/temp/dataset/2/22_1.odb,Step-1,Increment      1: Step Time =    1.000,"PART-1-1",            81,           15.,       6.66667,            0.,NA,NA,"",   66.2005E-03,   29.0754E-03,  -59.4738E-03,   4.60434E-03
C:/temp/dataset/2/22_1.odb,Step-1,Increment      1: Step Time =    1.000,"PART-1-1",            82,           15.,       18.3333,            0.,NA,NA,"",   244.929E-03,   217.882E-03,  -111.883E-03,   4.51518E-03
C:/temp/dataset/2/22_1.odb,Step-1,Increment      1: Step Time =    1.000,"PART-1-1",            83,           15.,       15.4167,            0.,NA,NA,"",   185.882E-03,   157.453E-03,  -98.7975E-03,   4.89996E-03
C:/temp/dataset/2/22_1.odb,Step-1,Increment      1: Step Time =    1.000,"PART-1-1",            84,           15.,       27.0833,            0.,NA,NA,"",   463.078E-03,   442.609E-03,  -136.154E-03,   406.487E-06
C:/temp/dataset/2/22_1.odb,Step-1,Increment      1: Step Time =    1.000,"PART-1-1",            85,           15.,       24.1667,            0.,NA,NA,"",   386.713E-03,   363.450E-03,  -132.101E-03,   1.95367E-03
C:/temp/dataset/2/22_1.odb,Step-1,Increment      1: Step Time =    1.000,"PART-1-1",            86,           10.,           30.,            0.,NA,NA,"",   524.272E-03,   524.229E-03,  -6.74631E-03,   1.42136E-03
C:/temp/dataset/2/22_1.odb,Step-1,Increment      1: Step Time =    1.000,"PART-1-1",            87,          12.5,           30.,            0.,NA,NA,"",   526.488E-03,   521.611E-03,  -71.4903E-03,   300.540E-06
C:/temp/dataset/2/22_1.odb,Step-1,Increment      1: Step Time =    1.000,"PART-1-1",            88,           2.5,           30.,            0.,NA,NA,"",   582.799E-03,   546.034E-03,   203.720E-03,   3.04126E-03
C:/temp/dataset/2/22_1.odb,Step-1,Increment      1: Step Time =    1.000,"PART-1-1",            89,            5.,           30.,            0.,NA,NA,"",   552.851E-03,   537.605E-03,   128.939E-03,   3.14271E-03
C:/temp/dataset/2/22_1.odb,Step-1,Increment      1: Step Time =    1.000,"PART-1-1",            90,           -5.,           30.,            0.,NA,NA,"",   720.563E-03,   563.014E-03,   449.696E-03,   746.982E-06
C:/temp/dataset/2/22_1.odb,Step-1,Increment      1: Step Time =    1.000,"PART-1-1",            91,          -2.5,           30.,            0.,NA,NA,"",   668.030E-03,   559.124E-03,   365.573E-03,   1.50988E-03
C:/temp/dataset/2/22_1.odb,Step-1,Increment      1: Step Time =    1.000,"PART-1-1",            92,         -12.5,           30.,            0.,NA,NA,"",   903.203E-03,   568.266E-03,   702.033E-03,   35.8428E-06
C:/temp/dataset/2/22_1.odb,Step-1,Increment      1: Step Time =    1.000,"PART-1-1",            93,          -10.,           30.,            0.,NA,NA,"",   838.951E-03,   566.970E-03,   618.372E-03,   20.5561E-06
C:/temp/dataset/2/22_1.odb,Step-1,Increment      1: Step Time =    1.000,"PART-1-1",            94,          -15.,          27.5,            0.,NA,NA,"",   924.924E-03,   486.167E-03,   786.846E-03,   38.6692E-06
C:/temp/dataset/2/22_1.odb,Step-1,Increment      1: Step Time =    1.000,"PART-1-1",            95,      -12.4978,       24.9766,            0.,NA,NA,"",   810.799E-03,   400.662E-03,   704.887E-03,   73.3525E-06
C:/temp/dataset/2/22_1.odb,Step-1,Increment      1: Step Time =    1.000,"PART-1-1",            96,      -7.49872,       27.4475,            0.,NA,NA,"",   719.204E-03,   480.142E-03,   535.461E-03,   547.818E-06
C:/temp/dataset/2/22_1.odb,Step-1,Increment      1: Step Time =    1.000,"PART-1-1",            97,      -7.50661,       22.4446,            0.,NA,NA,"",   625.726E-03,   315.136E-03,   540.576E-03,   1.19088E-03
C:/temp/dataset/2/22_1.odb,Step-1,Increment      1: Step Time =    1.000,"PART-1-1",            98,      -2.53392,       22.4091,            0.,NA,NA,"",   485.145E-03,   314.076E-03,   369.760E-03,   1.20295E-03
C:/temp/dataset/2/22_1.odb,Step-1,Increment      1: Step Time =    1.000,"PART-1-1",            99,  -19.7467E-03,       27.3919,            0.,NA,NA,"",   549.025E-03,   470.433E-03,   283.058E-03,   1.53433E-03
C:/temp/dataset/2/22_1.odb,Step-1,Increment      1: Step Time =    1.000,"PART-1-1",           100,       2.31326,       22.2671,            0.,NA,NA,"",   375.137E-03,   311.731E-03,   208.691E-03,   2.59489E-03
C:/temp/dataset/2/22_1.odb,Step-1,Increment      1: Step Time =    1.000,"PART-1-1",           101,       7.89882,       27.4278,            0.,NA,NA,"",   459.726E-03,   457.300E-03,   47.1652E-03,   1.93493E-03
C:/temp/dataset/2/22_1.odb,Step-1,Increment      1: Step Time =    1.000,"PART-1-1",           102,       6.74061,       20.0564,            0.,NA,NA,"",   262.694E-03,   252.679E-03,   71.8432E-03,   2.45127E-03
C:/temp/dataset/2/22_1.odb,Step-1,Increment      1: Step Time =    1.000,"PART-1-1",           103,       6.76082,       17.7755,            0.,NA,NA,"",   213.737E-03,   203.377E-03,   65.7350E-03,   4.38989E-03
C:/temp/dataset/2/22_1.odb,Step-1,Increment      1: Step Time =    1.000,"PART-1-1",           104,       7.34933,       13.0959,            0.,NA,NA,"",   121.236E-03,   114.265E-03,   40.5164E-03,   3.32278E-03
C:/temp/dataset/2/22_1.odb,Step-1,Increment      1: Step Time =    1.000,"PART-1-1",           105,       12.5251,      -2.17932,            0.,NA,NA,"",   37.3435E-03,  -29.8999E-03,  -22.3726E-03,   1.40226E-03
C:/temp/dataset/2/22_1.odb,Step-1,Increment      1: Step Time =    1.000,"PART-1-1",           106,       11.8446,      -24.9441,            0.,NA,NA,"",   28.5271E-06,   5.03152E-06,  -28.0798E-06,   8.50628E-06
C:/temp/dataset/2/22_1.odb,Step-1,Increment      1: Step Time =    1.000,"PART-1-1",           107,       2.44158,      -2.66949,            0.,NA,NA,"",   34.8440E-03,  -20.2229E-03,   28.3750E-03,   1.72733E-03
C:/temp/dataset/2/22_1.odb,Step-1,Increment      1: Step Time =    1.000,"PART-1-1",           108,       7.46163,      -2.37632,            0.,NA,NA,"",   29.4328E-03,  -27.0297E-03,   11.6484E-03,   1.92198E-03
C:/temp/dataset/2/22_1.odb,Step-1,Increment      1: Step Time =    1.000,"PART-1-1",           109,       7.48217,       7.95809,            0.,NA,NA,"",   46.2731E-03,   39.2091E-03,   24.5732E-03,   3.40258E-03
C:/temp/dataset/2/22_1.odb,Step-1,Increment      1: Step Time =    1.000,"PART-1-1",           110,      -5.01446,       22.4347,            0.,NA,NA,"",   553.333E-03,   314.863E-03,   455.015E-03,   1.43096E-03
C:/temp/dataset/2/22_1.odb,Step-1,Increment      1: Step Time =    1.000,"PART-1-1",           111,  -75.1424E-03,       22.3615,            0.,NA,NA,"",   425.009E-03,   313.399E-03,   287.078E-03,   1.62962E-03
C:/temp/dataset/2/22_1.odb,Step-1,Increment      1: Step Time =    1.000,"PART-1-1",           112,       4.50776,       22.1530,            0.,NA,NA,"",   338.786E-03,   309.421E-03,   137.967E-03,   2.47866E-03
C:/temp/dataset/2/22_1.odb,Step-1,Increment      1: Step Time =    1.000,"PART-1-1",           113,       7.06405,       15.4904,            0.,NA,NA,"",   166.183E-03,   157.571E-03,   52.8018E-03,   3.70406E-03
C:/temp/dataset/2/22_1.odb,Step-1,Increment      1: Step Time =    1.000,"PART-1-1",           114,       7.46285,       10.5556,            0.,NA,NA,"",   80.5402E-03,   74.1302E-03,   31.4872E-03,   3.34095E-03
C:/temp/dataset/2/22_1.odb,Step-1,Increment      1: Step Time =    1.000,"PART-1-1",           115,      -2.89738,      -2.05905,            0.,NA,NA,"",   29.1455E-03,  -14.5216E-03,   25.2702E-03,   1.42989E-03
C:/temp/dataset/2/22_1.odb,Step-1,Increment      1: Step Time =    1.000,"PART-1-1",           116,      -7.61206,      -10.6629,            0.,NA,NA,"",   9.92466E-03,  -2.06739E-03,   9.70694E-03,   738.750E-06
C:/temp/dataset/2/22_1.odb,Step-1,Increment      1: Step Time =    1.000,"PART-1-1",           117,      -6.85891,      -17.7385,            0.,NA,NA,"",   5.43452E-03,   1.03630E-03,   5.33480E-03,   770.017E-06
C:/temp/dataset/2/22_1.odb,Step-1,Increment      1: Step Time =    1.000,"PART-1-1",           118,       11.9280,      -27.4687,            0.,NA,NA,"",   13.6540E-06,  -4.26530E-06,  -12.9707E-06,   7.22280E-06
C:/temp/dataset/2/22_1.odb,Step-1,Increment      1: Step Time =    1.000,"PART-1-1",           119,      -7.44747,      -13.1413,            0.,NA,NA,"",   8.19419E-03,  -511.683E-06,   8.17820E-03,   743.297E-06
C:/temp/dataset/2/22_1.odb,Step-1,Increment      1: Step Time =    1.000,"PART-1-1",           120,      -7.13169,      -15.4658,            0.,NA,NA,"",   6.76942E-03,   456.010E-06,   6.75404E-03,   769.738E-06
C:/temp/dataset/2/22_1.odb,Step-1,Increment      1: Step Time =    1.000,"PART-1-1",           121,      -8.02089,      -5.87394,            0.,NA,NA,"",   13.9420E-03,  -6.80298E-03,   12.1696E-03,   572.566E-06
C:/temp/dataset/2/22_1.odb,Step-1,Increment      1: Step Time =    1.000,"PART-1-1",           122,      -7.74476,      -8.18529,            0.,NA,NA,"",   11.8697E-03,  -4.18281E-03,   11.1082E-03,   691.081E-06
C:/temp/dataset/2/22_1.odb,Step-1,Increment      1: Step Time =    1.000,"PART-1-1",           123,  -21.3834E-03,      -2.74811,            0.,NA,NA,"",   33.4400E-03,  -17.0583E-03,   28.7619E-03,   1.56998E-03
C:/temp/dataset/2/22_1.odb,Step-1,Increment      1: Step Time =    1.000,"PART-1-1",           124,       4.94012,      -2.49525,            0.,NA,NA,"",   33.0649E-03,  -23.6645E-03,   23.0928E-03,   1.77954E-03
C:/temp/dataset/2/22_1.odb,Step-1,Increment      1: Step Time =    1.000,"PART-1-1",           125,       10.0127,      -2.27482,            0.,NA,NA,"",   29.6758E-03,  -29.2903E-03,  -4.76747E-03,   1.98149E-03
C:/temp/dataset/2/22_1.odb,Step-1,Increment      1: Step Time =    1.000,"PART-1-1",           126,       10.2967,       27.4669,            0.,NA,NA,"",   455.526E-03,   455.290E-03,  -14.6573E-03,   1.83906E-03
C:/temp/dataset/2/22_1.odb,Step-1,Increment      1: Step Time =    1.000,"PART-1-1",           127,       12.6750,       27.3103,            0.,NA,NA,"",   455.572E-03,   449.333E-03,  -75.1396E-03,   1.27580E-03
C:/temp/dataset/2/22_1.odb,Step-1,Increment      1: Step Time =    1.000,"PART-1-1",           128,       2.52543,       27.2659,            0.,NA,NA,"",   504.358E-03,   462.384E-03,   201.440E-03,   1.58386E-03
C:/temp/dataset/2/22_1.odb,Step-1,Increment      1: Step Time =    1.000,"PART-1-1",           129,       5.32711,       26.8707,            0.,NA,NA,"",   460.839E-03,   445.647E-03,   117.351E-03,   1.58367E-03
C:/temp/dataset/2/22_1.odb,Step-1,Increment      1: Step Time =    1.000,"PART-1-1",           130,      -5.00948,       27.4462,            0.,NA,NA,"",   657.197E-03,   478.187E-03,   450.828E-03,   967.714E-06
C:/temp/dataset/2/22_1.odb,Step-1,Increment      1: Step Time =    1.000,"PART-1-1",           131,      -2.51658,       27.4324,            0.,NA,NA,"",   599.890E-03,   475.114E-03,   366.245E-03,   1.31725E-03
C:/temp/dataset/2/22_1.odb,Step-1,Increment      1: Step Time =    1.000,"PART-1-1",           132,      -9.99211,       27.4668,            0.,NA,NA,"",   785.141E-03,   482.271E-03,   619.565E-03,   181.012E-06
C:/temp/dataset/2/22_1.odb,Step-1,Increment      1: Step Time =    1.000,"PART-1-1",           133,       12.5029,       21.6680,            0.,NA,NA,"",   302.476E-03,   295.635E-03,  -63.9660E-03,   2.32950E-03
C:/temp/dataset/2/22_1.odb,Step-1,Increment      1: Step Time =    1.000,"PART-1-1",           134,      -12.7198,      -9.27859,            0.,NA,NA,"",   6.16398E-03,  -2.23885E-03,   5.74301E-03,   221.401E-06
C:/temp/dataset/2/22_1.odb,Step-1,Increment      1: Step Time =    1.000,"PART-1-1",           135,      -12.2206,      -21.4876,            0.,NA,NA,"",   3.61372E-03,   2.09411E-03,   2.94511E-03,   378.949E-06
C:/temp/dataset/2/22_1.odb,Step-1,Increment      1: Step Time =    1.000,"PART-1-1",           136,       12.4390,       11.8581,            0.,NA,NA,"",   101.386E-03,   92.0303E-03,  -42.5384E-03,   2.05052E-03
C:/temp/dataset/2/22_1.odb,Step-1,Increment      1: Step Time =    1.000,"PART-1-1",           137,      -12.6285,      -12.0158,            0.,NA,NA,"",   5.25521E-03,  -91.1278E-06,   5.25442E-03,   242.098E-06
C:/temp/dataset/2/22_1.odb,Step-1,Increment      1: Step Time =    1.000,"PART-1-1",           138,      -12.4213,      -14.8709,            0.,NA,NA,"",   4.91247E-03,   1.38642E-03,   4.71276E-03,   279.385E-06
C:/temp/dataset/2/22_1.odb,Step-1,Increment      1: Step Time =    1.000,"PART-1-1",           139,       12.2989,       14.8029,            0.,NA,NA,"",   149.418E-03,   142.214E-03,  -45.8384E-03,   1.89249E-03
C:/temp/dataset/2/22_1.odb,Step-1,Increment      1: Step Time =    1.000,"PART-1-1",           140,       11.7182,       18.2155,            0.,NA,NA,"",   215.235E-03,   211.465E-03,  -40.1094E-03,   1.62388E-03
C:/temp/dataset/2/22_1.odb,Step-1,Increment      1: Step Time =    1.000,"PART-1-1",           141,      -12.3380,      -4.01281,            0.,NA,NA,"",   10.9289E-03,  -8.17617E-03,   7.25192E-03,   248.653E-06
C:/temp/dataset/2/22_1.odb,Step-1,Increment      1: Step Time =    1.000,"PART-1-1",           142,       12.5089,       6.21106,            0.,NA,NA,"",   38.4271E-03,   20.9376E-03,  -32.2220E-03,   2.25379E-03
C:/temp/dataset/2/22_1.odb,Step-1,Increment      1: Step Time =    1.000,"PART-1-1",           143,      -10.9765,      -1.21375,            0.,NA,NA,"",   15.4602E-03,  -11.9147E-03,   9.85178E-03,   343.144E-06
C:/temp/dataset/2/22_1.odb,Step-1,Increment      1: Step Time =    1.000,"PART-1-1",           144,      -11.4273,       2.02370,            0.,NA,NA,"",   18.6655E-03,  -16.0089E-03,   9.59779E-03,   180.630E-06
C:/temp/dataset/2/22_1.odb,Step-1,Increment      1: Step Time =    1.000,"PART-1-1",           145,      -12.7154,      -6.64001,            0.,NA,NA,"",   7.98660E-03,  -4.96078E-03,   6.25911E-03,   218.718E-06
C:/temp/dataset/2/22_1.odb,Step-1,Increment      1: Step Time =    1.000,"PART-1-1",           146,      -11.7762,      -18.1315,            0.,NA,NA,"",   4.55433E-03,   2.10999E-03,   4.03608E-03,   348.443E-06
C:/temp/dataset/2/22_1.odb,Step-1,Increment      1: Step Time =    1.000,"PART-1-1",           147,      -12.2481,      -24.4184,            0.,NA,NA,"",   2.48399E-03,   1.55688E-03,   1.93554E-03,   432.268E-06
C:/temp/dataset/2/22_1.odb,Step-1,Increment      1: Step Time =    1.000,"PART-1-1",           148,       12.5340,       3.42208,            0.,NA,NA,"",   27.4624E-03,  -1.07525E-03,  -27.4414E-03,   2.30584E-03
C:/temp/dataset/2/22_1.odb,Step-1,Increment      1: Step Time =    1.000,"PART-1-1",           149,       12.5428,   630.306E-03,            0.,NA,NA,"",   29.1834E-03,  -16.5654E-03,  -24.0263E-03,   2.14704E-03
C:/temp/dataset/2/22_1.odb,Step-1,Increment      1: Step Time =    1.000,"PART-1-1",           150,       12.5001,       9.03097,            0.,NA,NA,"",   64.3732E-03,   52.1315E-03,  -37.7653E-03,   2.14366E-03
C:/temp/dataset/2/22_1.odb,Step-1,Increment      1: Step Time =    1.000,"PART-1-1",           151,       12.7192,       24.5718,            0.,NA,NA,"",   380.987E-03,   373.772E-03,  -73.7926E-03,   2.01911E-03
C:/temp/dataset/2/22_1.odb,Step-1,Increment      1: Step Time =    1.000,"PART-1-1",           152,       2.66783,      -27.4286,            0.,NA,NA,"",   149.809E-06,  -148.124E-06,   22.4046E-06,   48.4440E-06
C:/temp/dataset/2/22_1.odb,Step-1,Increment      1: Step Time =    1.000,"PART-1-1",           153,       8.86089,      -27.4494,            0.,NA,NA,"",   30.2072E-06,  -25.4599E-06,  -16.2563E-06,   13.5255E-06
C:/temp/dataset/2/22_1.odb,Step-1,Increment      1: Step Time =    1.000,"PART-1-1",           154,       5.76511,      -27.4328,            0.,NA,NA,"",   72.4458E-06,  -71.0646E-06,  -14.0792E-06,   26.7804E-06
C:/temp/dataset/2/22_1.odb,Step-1,Increment      1: Step Time =    1.000,"PART-1-1",           155,  -414.647E-03,      -27.4330,            0.,NA,NA,"",   270.656E-06,  -225.725E-06,   149.342E-06,   98.8325E-06
C:/temp/dataset/2/22_1.odb,Step-1,Increment      1: Step Time =    1.000,"PART-1-1",           156,      -3.42691,      -27.4460,            0.,NA,NA,"",   438.581E-06,  -198.641E-06,   391.018E-06,   205.699E-06
C:/temp/dataset/2/22_1.odb,Step-1,Increment      1: Step Time =    1.000,"PART-1-1",           157,      -6.36574,      -27.4272,            0.,NA,NA,"",   637.486E-06,   28.5388E-06,   636.846E-06,   328.378E-06
C:/temp/dataset/2/22_1.odb,Step-1,Increment      1: Step Time =    1.000,"PART-1-1",           158,       10.5238,       25.0033,            0.,NA,NA,"",   386.591E-03,   386.088E-03,  -19.7167E-03,   2.26027E-03
C:/temp/dataset/2/22_1.odb,Step-1,Increment      1: Step Time =    1.000,"PART-1-1",           159,       6.26912,       22.1485,            0.,NA,NA,"",   320.217E-03,   308.244E-03,   86.7431E-03,   2.57749E-03
C:/temp/dataset/2/22_1.odb,Step-1,Increment      1: Step Time =    1.000,"PART-1-1",           160,      -5.96402,      -2.70245,            0.,NA,NA,"",   21.8189E-03,  -12.1954E-03,   18.0925E-03,   1.34469E-03
C:/temp/dataset/2/22_1.odb,Step-1,Increment      1: Step Time =    1.000,"PART-1-1",           161,      -12.5033,       22.4816,            0.,NA,NA,"",   774.731E-03,   317.806E-03,   706.546E-03,   98.0328E-06
C:/temp/dataset/2/22_1.odb,Step-1,Increment      1: Step Time =    1.000,"PART-1-1",           162,      -2.53325,       24.9024,            0.,NA,NA,"",   539.200E-03,   394.239E-03,   367.849E-03,   1.38037E-03
C:/temp/dataset/2/22_1.odb,Step-1,Increment      1: Step Time =    1.000,"PART-1-1",           163,       4.43197,       24.4161,            0.,NA,NA,"",   401.099E-03,   375.167E-03,   141.882E-03,   1.30448E-03
C:/temp/dataset/2/22_1.odb,Step-1,Increment      1: Step Time =    1.000,"PART-1-1",           164,      -10.2797,      -8.84555,            0.,NA,NA,"",   8.68410E-03,  -2.96102E-03,   8.16370E-03,   414.543E-06
C:/temp/dataset/2/22_1.odb,Step-1,Increment      1: Step Time =    1.000,"PART-1-1",           165,       2.21534,  -332.134E-03,            0.,NA,NA,"",   33.8656E-03,  -15.1667E-03,   30.2795E-03,   1.44762E-03
C:/temp/dataset/2/22_1.odb,Step-1,Increment      1: Step Time =    1.000,"PART-1-1",           166,  -74.2209E-03,       24.8536,            0.,NA,NA,"",   484.414E-03,   391.504E-03,   285.275E-03,   1.33847E-03
C:/temp/dataset/2/22_1.odb,Step-1,Increment      1: Step Time =    1.000,"PART-1-1",           167,       2.30693,       24.7164,            0.,NA,NA,"",   438.237E-03,   385.875E-03,   207.729E-03,   1.44275E-03
C:/temp/dataset/2/22_1.odb,Step-1,Increment      1: Step Time =    1.000,"PART-1-1",           168,       9.79368,       13.9045,            0.,NA,NA,"",   125.591E-03,   125.591E-03,  -93.6747E-06,   792.346E-06
C:/temp/dataset/2/22_1.odb,Step-1,Increment      1: Step Time =    1.000,"PART-1-1",           169,       9.30777,       16.4521,            0.,NA,NA,"",   173.997E-03,   173.668E-03,   10.6916E-03,   1.04253E-03
C:/temp/dataset/2/22_1.odb,Step-1,Increment      1: Step Time =    1.000,"PART-1-1",           170,      -2.35985,       1.11806,            0.,NA,NA,"",   30.0410E-03,  -14.0468E-03,   26.5547E-03,   1.33630E-03
C:/temp/dataset/2/22_1.odb,Step-1,Increment      1: Step Time =    1.000,"PART-1-1",           171,      -9.94133,      -13.9778,            0.,NA,NA,"",   6.29924E-03,   590.780E-06,   6.27147E-03,   498.568E-06
C:/temp/dataset/2/22_1.odb,Step-1,Increment      1: Step Time =    1.000,"PART-1-1",           172,       4.80988,   33.7751E-03,            0.,NA,NA,"",   30.4630E-03,  -15.7498E-03,   26.0756E-03,   1.26218E-03
C:/temp/dataset/2/22_1.odb,Step-1,Increment      1: Step Time =    1.000,"PART-1-1",           173,       9.94126,       11.1894,            0.,NA,NA,"",   81.2702E-03,   81.1794E-03,  -3.83987E-03,   611.591E-06
C:/temp/dataset/2/22_1.odb,Step-1,Increment      1: Step Time =    1.000,"PART-1-1",           174,       7.43598,   226.782E-03,            0.,NA,NA,"",   22.4441E-03,  -17.4363E-03,   14.1320E-03,   2.12858E-03
C:/temp/dataset/2/22_1.odb,Step-1,Increment      1: Step Time =    1.000,"PART-1-1",           175,      -7.50368,       24.9336,            0.,NA,NA,"",   668.379E-03,   397.230E-03,   537.530E-03,   827.164E-06
C:/temp/dataset/2/22_1.odb,Step-1,Increment      1: Step Time =    1.000,"PART-1-1",           176,      -10.1536,      -11.3797,            0.,NA,NA,"",   7.31461E-03,  -895.487E-06,   7.25959E-03,   466.063E-06
C:/temp/dataset/2/22_1.odb,Step-1,Increment      1: Step Time =    1.000,"PART-1-1",           177,       6.92724,       24.6415,            0.,NA,NA,"",   385.384E-03,   378.677E-03,   71.5875E-03,   1.86404E-03
C:/temp/dataset/2/22_1.odb,Step-1,Increment      1: Step Time =    1.000,"PART-1-1",           178,      -9.99868,       24.9580,            0.,NA,NA,"",   738.548E-03,   398.882E-03,   621.568E-03,   346.358E-06
C:/temp/dataset/2/22_1.odb,Step-1,Increment      1: Step Time =    1.000,"PART-1-1",           179,       8.37028,       18.0705,            0.,NA,NA,"",   209.987E-03,   207.566E-03,   31.7965E-03,   1.61699E-03
C:/temp/dataset/2/22_1.odb,Step-1,Increment      1: Step Time =    1.000,"PART-1-1",           180,      -10.4068,      -6.54987,            0.,NA,NA,"",   10.3862E-03,  -5.38789E-03,   8.87946E-03,   403.908E-06
C:/temp/dataset/2/22_1.odb,Step-1,Increment      1: Step Time =    1.000,"PART-1-1",           181,      -8.52723,      -17.8680,            0.,NA,NA,"",   5.14051E-03,   1.51942E-03,   4.91083E-03,   547.952E-06
C:/temp/dataset/2/22_1.odb,Step-1,Increment      1: Step Time =    1.000,"PART-1-1",           182,       9.99063,       8.47585,            0.,NA,NA,"",   44.2584E-03,   43.9255E-03,  -5.41808E-03,   411.607E-06
C:/temp/dataset/2/22_1.odb,Step-1,Increment      1: Step Time =    1.000,"PART-1-1",           183,      -6.87511,      -22.3968,            0.,NA,NA,"",   2.77916E-03,   775.689E-06,   2.66872E-03,   612.894E-06
C:/temp/dataset/2/22_1.odb,Step-1,Increment      1: Step Time =    1.000,"PART-1-1",           184,       7.48189,       5.34092,            0.,NA,NA,"",   21.4732E-03,   10.1112E-03,   18.9436E-03,   1.93419E-03
C:/temp/dataset/2/22_1.odb,Step-1,Increment      1: Step Time =    1.000,"PART-1-1",           185,       10.0207,   425.902E-03,            0.,NA,NA,"",   18.3234E-03,  -17.8157E-03,  -4.28383E-03,   2.39063E-03
C:/temp/dataset/2/22_1.odb,Step-1,Increment      1: Step Time =    1.000,"PART-1-1",           186,      -8.86720,      -3.63325,            0.,NA,NA,"",   15.4338E-03,  -9.49799E-03,   12.1651E-03,   628.193E-06
C:/temp/dataset/2/22_1.odb,Step-1,Increment      1: Step Time =    1.000,"PART-1-1",           187,       10.0155,       5.77118,            0.,NA,NA,"",   15.9101E-03,   14.9119E-03,  -5.54672E-03,   1.14326E-03
C:/temp/dataset/2/22_1.odb,Step-1,Increment      1: Step Time =    1.000,"PART-1-1",           188,       9.07540,       20.2179,            0.,NA,NA,"",   257.764E-03,   257.215E-03,   16.8109E-03,   1.57796E-03
C:/temp/dataset/2/22_1.odb,Step-1,Increment      1: Step Time =    1.000,"PART-1-1",           189,       5.51479,      -24.9218,            0.,NA,NA,"",   66.3931E-06,  -49.6385E-06,  -44.0915E-06,   27.6372E-06
C:/temp/dataset/2/22_1.odb,Step-1,Increment      1: Step Time =    1.000,"PART-1-1",           190,       2.33502,      -24.9114,            0.,NA,NA,"",   127.152E-06,  -123.345E-06,   30.8792E-06,   36.0445E-06
C:/temp/dataset/2/22_1.odb,Step-1,Increment      1: Step Time =    1.000,"PART-1-1",           191,      -3.83494,      -24.9465,            0.,NA,NA,"",   943.348E-06,  -119.457E-06,   935.754E-06,   265.124E-06
C:/temp/dataset/2/22_1.odb,Step-1,Increment      1: Step Time =    1.000,"PART-1-1",           192,       8.68706,      -24.9229,            0.,NA,NA,"",   42.2337E-06,  -12.2776E-06,  -40.4097E-06,   16.8018E-06
C:/temp/dataset/2/22_1.odb,Step-1,Increment      1: Step Time =    1.000,"PART-1-1",           193,  -793.545E-03,      -24.9263,            0.,NA,NA,"",   379.104E-06,  -200.458E-06,   321.771E-06,   93.1525E-06
C:/temp/dataset/2/22_1.odb,Step-1,Increment      1: Step Time =    1.000,"PART-1-1",           194,      -10.0041,       22.4687,            0.,NA,NA,"",   699.563E-03,   316.256E-03,   623.996E-03,   532.898E-06
C:/temp/dataset/2/22_1.odb,Step-1,Increment      1: Step Time =    1.000,"PART-1-1",           195,       7.76291,       22.5689,            0.,NA,NA,"",   322.667E-03,   318.998E-03,   48.5195E-03,   2.27094E-03
C:/temp/dataset/2/22_1.odb,Step-1,Increment      1: Step Time =    1.000,"PART-1-1",           196,       10.0314,       3.09975,            0.,NA,NA,"",   6.68464E-03,  -4.76594E-03,  -4.68725E-03,   2.20296E-03
C:/temp/dataset/2/22_1.odb,Step-1,Increment      1: Step Time =    1.000,"PART-1-1",           197,       7.45157,       2.78517,            0.,NA,NA,"",   17.9591E-03,  -6.88844E-03,   16.5855E-03,   2.57146E-03
C:/temp/dataset/2/22_1.odb,Step-1,Increment      1: Step Time =    1.000,"PART-1-1",           198,       1.23926,       2.17480,            0.,NA,NA,"",   31.9497E-03,  -11.0141E-03,   29.9913E-03,   2.18970E-03
C:/temp/dataset/2/22_1.odb,Step-1,Increment      1: Step Time =    1.000,"PART-1-1",           199,       5.89388,       23.8379,            0.,NA,NA,"",   370.166E-03,   356.676E-03,   99.0197E-03,   1.76448E-03
C:/temp/dataset/2/22_1.odb,Step-1,Increment      1: Step Time =    1.000,"PART-1-1",           200,       4.70825,       2.52712,            0.,NA,NA,"",   30.2918E-03,  -7.39600E-03,   29.3751E-03,   2.33808E-03
C:/temp/dataset/2/22_1.odb,Step-1,Increment      1: Step Time =    1.000,"PART-1-1",           201,      -6.67563,      -24.8783,            0.,NA,NA,"",   1.56963E-03,   329.803E-06,   1.53459E-03,   442.684E-06
C:/temp/dataset/2/22_1.odb,Step-1,Increment      1: Step Time =    1.000,"PART-1-1",           202,      -1.93740,       2.90022,            0.,NA,NA,"",   29.9011E-03,  -13.6556E-03,   26.6008E-03,   1.48125E-03
C:/temp/dataset/2/22_1.odb,Step-1,Increment      1: Step Time =    1.000,"PART-1-1",           203,      -4.27328,      -22.5070,            0.,NA,NA,"",   1.64248E-03,   181.950E-06,   1.63237E-03,   413.499E-06
C:/temp/dataset/2/22_1.odb,Step-1,Increment      1: Step Time =    1.000,"PART-1-1",           204,      -7.29195,  -216.826E-03,            0.,NA,NA,"",   21.5898E-03,  -13.7497E-03,   16.6453E-03,   835.247E-06
C:/temp/dataset/2/22_1.odb,Step-1,Increment      1: Step Time =    1.000,"PART-1-1",           205,      -4.39370,   432.763E-03,            0.,NA,NA,"",   26.9563E-03,  -14.4456E-03,   22.7589E-03,   1.21485E-03
C:/temp/dataset/2/22_1.odb,Step-1,Increment      1: Step Time =    1.000,"PART-1-1",           206,      -1.20581,      -22.4416,            0.,NA,NA,"",   446.678E-06,   106.719E-06,   433.743E-06,   102.204E-06
C:/temp/dataset/2/22_1.odb,Step-1,Increment      1: Step Time =    1.000,"PART-1-1",           207,      -4.88725,       2.78210,            0.,NA,NA,"",   26.7415E-03,  -15.7783E-03,   21.5906E-03,   930.475E-06
C:/temp/dataset/2/22_1.odb,Step-1,Increment      1: Step Time =    1.000,"PART-1-1",           208,      -8.02678,       2.39768,            0.,NA,NA,"",   22.5329E-03,  -16.2955E-03,   15.5625E-03,   530.251E-06
C:/temp/dataset/2/22_1.odb,Step-1,Increment      1: Step Time =    1.000,"PART-1-1",           209,       8.51144,      -22.4401,            0.,NA,NA,"",   60.5695E-06,   28.6264E-06,  -53.3779E-06,   16.0491E-06
C:/temp/dataset/2/22_1.odb,Step-1,Increment      1: Step Time =    1.000,"PART-1-1",           210,       5.25488,      -22.4306,            0.,NA,NA,"",   76.5471E-06,   46.7168E-06,  -60.6383E-06,   28.8685E-06
C:/temp/dataset/2/22_1.odb,Step-1,Increment      1: Step Time =    1.000,"PART-1-1",           211,       2.00226,      -22.4217,            0.,NA,NA,"",   76.4244E-06,   68.9355E-06,   32.9938E-06,   32.2587E-06
C:/temp/dataset/2/22_1.odb,Step-1,Increment      1: Step Time =    1.000,"PART-1-1",           212,      -9.28570,      -27.3600,            0.,NA,NA,"",   865.457E-06,   385.875E-06,   774.672E-06,   405.960E-06
C:/temp/dataset/2/22_1.odb,Step-1,Increment      1: Step Time =    1.000,"PART-1-1",           213,       11.7596,      -22.4488,            0.,NA,NA,"",   42.8778E-06,   23.0528E-06,  -36.1535E-06,   6.99084E-06
C:/temp/dataset/2/22_1.odb,Step-1,Increment      1: Step Time =    1.000,"PART-1-1",           214,      -12.4952,       27.4851,            0.,NA,NA,"",   853.902E-03,   484.263E-03,   703.305E-03,   31.8447E-06
C:/temp/dataset/2/22_1.odb,Step-1,Increment      1: Step Time =    1.000,"PART-1-1",           215,      -12.1608,      -27.2494,            0.,NA,NA,"",   1.24532E-03,   834.865E-06,   924.022E-06,   461.101E-06
C:/temp/dataset/2/22_1.odb,Step-1,Increment      1: Step Time =    1.000,"PART-1-1",           216,      -6.92277,      -20.0189,            0.,NA,NA,"",   4.11916E-03,   1.25942E-03,   3.92190E-03,   578.514E-06
C:/temp/dataset/2/22_1.odb,Step-1,Increment      1: Step Time =    1.000,"PART-1-1",           217,       10.3403,       22.5364,            0.,NA,NA,"",   318.159E-03,   317.857E-03,  -13.8473E-03,   2.27673E-03
C:/temp/dataset/2/22_1.odb,Step-1,Increment      1: Step Time =    1.000,"PART-1-1",           218,      -9.38591,      -16.3373,            0.,NA,NA,"",   5.59713E-03,   1.36512E-03,   5.42810E-03,   526.769E-06
C:/temp/dataset/2/22_1.odb,Step-1,Increment      1: Step Time =    1.000,"PART-1-1",           219,      -9.56004,      -22.0160,            0.,NA,NA,"",   3.29824E-03,   1.52472E-03,   2.92465E-03,   505.756E-06
C:/temp/dataset/2/22_1.odb,Step-1,Increment      1: Step Time =    1.000,"PART-1-1",           220,      -9.49058,      -24.6874,            0.,NA,NA,"",   2.03311E-03,   955.814E-06,   1.79443E-03,   488.076E-06
C:/temp/dataset/2/22_1.odb,Step-1,Increment      1: Step Time =    1.000,"PART-1-1",           221,  -968.003E-03,   33.9082E-03,            0.,NA,NA,"",   32.0558E-03,  -14.2221E-03,   28.7281E-03,   1.26604E-03
C:/temp/dataset/2/22_1.odb,Step-1,Increment      1: Step Time =    1.000,"PART-1-1",           222,   333.674E-03,      -1.00763,            0.,NA,NA,"",   33.6224E-03,  -15.4750E-03,   29.8495E-03,   1.35944E-03
C:/temp/dataset/2/22_1.odb,Step-1,Increment      1: Step Time =    1.000,"PART-1-1",           223,      -10.5623,      -4.72446,            0.,NA,NA,"",   12.0324E-03,  -7.58449E-03,   9.34104E-03,   387.561E-06
C:/temp/dataset/2/22_1.odb,Step-1,Increment      1: Step Time =    1.000,"PART-1-1",           224,      -5.01319,       24.9269,            0.,NA,NA,"",   601.430E-03,   396.171E-03,   452.512E-03,   1.24082E-03
C:/temp/dataset/2/22_1.odb,Step-1,Increment      1: Step Time =    1.000,"PART-1-1",           225,      -9.24174,      -19.5473,            0.,NA,NA,"",   4.37920E-03,   1.75311E-03,   4.01298E-03,   506.673E-06
C:/temp/dataset/2/22_1.odb,Step-1,Increment      1: Step Time =    1.000,"PART-1-1",           226,       8.53639,       25.1316,            0.,NA,NA,"",   392.203E-03,   391.057E-03,   29.9575E-03,   2.18911E-03
C:/temp/dataset/2/22_1.odb,Step-1,Increment      1: Step Time =    1.000,"PART-1-1",           227,       8.85572,       23.3093,            0.,NA,NA,"",   340.006E-03,   339.311E-03,   21.7280E-03,   2.26789E-03
C:/temp/dataset/2/22_1.odb,Step-1,Increment      1: Step Time =    1.000,"PART-1-1",           228,      -13.7516,       22.4908,            0.,NA,NA,"",   813.050E-03,   318.823E-03,   747.932E-03,   41.3895E-06
C:/temp/dataset/2/22_1.odb,Step-1,Increment      1: Step Time =    1.000,"PART-1-1",           229,          -15.,         21.25,            0.,NA,NA,"",   837.587E-03,   278.462E-03,   789.944E-03,   33.8671E-06
C:/temp/dataset/2/22_1.odb,Step-1,Increment      1: Step Time =    1.000,"PART-1-1",           230,        -13.75,           20.,            0.,NA,NA,"",   785.660E-03,   236.428E-03,   749.242E-03,   27.9403E-06
C:/temp/dataset/2/22_1.odb,Step-1,Increment      1: Step Time =    1.000,"PART-1-1",           231,      -12.5016,       21.2408,            0.,NA,NA,"",   759.462E-03,   276.817E-03,   707.216E-03,   94.9786E-06
C:/temp/dataset/2/22_1.odb,Step-1,Increment      1: Step Time =    1.000,"PART-1-1",           232,      -9.99605,       28.7334,            0.,NA,NA,"",   811.334E-03,   524.553E-03,   618.957E-03,   85.0192E-06
C:/temp/dataset/2/22_1.odb,Step-1,Increment      1: Step Time =    1.000,"PART-1-1",           233,        -11.25,           30.,            0.,NA,NA,"",   870.710E-03,   567.628E-03,   660.253E-03,   28.1469E-06
C:/temp/dataset/2/22_1.odb,Step-1,Increment      1: Step Time =    1.000,"PART-1-1",           234,      -12.4976,       28.7426,            0.,NA,NA,"",   877.893E-03,   526.264E-03,   702.668E-03,   27.1438E-06
C:/temp/dataset/2/22_1.odb,Step-1,Increment      1: Step Time =    1.000,"PART-1-1",           235,      -11.2437,       27.4760,            0.,NA,NA,"",   819.229E-03,   483.274E-03,   661.500E-03,   83.6120E-06
C:/temp/dataset/2/22_1.odb,Step-1,Increment      1: Step Time =    1.000,"PART-1-1",           236,      -8.74541,       27.4572,            0.,NA,NA,"",   751.815E-03,   481.241E-03,   577.610E-03,   358.934E-06
C:/temp/dataset/2/22_1.odb,Step-1,Increment      1: Step Time =    1.000,"PART-1-1",           237,      -7.49936,       28.7238,            0.,NA,NA,"",   747.730E-03,   522.576E-03,   534.803E-03,   329.533E-06
C:/temp/dataset/2/22_1.odb,Step-1,Increment      1: Step Time =    1.000,"PART-1-1",           238,         -8.75,           30.,            0.,NA,NA,"",   807.993E-03,   566.267E-03,   576.363E-03,   99.9893E-06
C:/temp/dataset/2/22_1.odb,Step-1,Increment      1: Step Time =    1.000,"PART-1-1",           239,      -10.0020,       21.2344,            0.,NA,NA,"",   683.040E-03,   275.228E-03,   625.134E-03,   544.533E-06
C:/temp/dataset/2/22_1.odb,Step-1,Increment      1: Step Time =    1.000,"PART-1-1",           240,      -11.2537,       22.4752,            0.,NA,NA,"",   736.933E-03,   316.945E-03,   665.294E-03,   225.110E-06
C:/temp/dataset/2/22_1.odb,Step-1,Increment      1: Step Time =    1.000,"PART-1-1",           241,        -11.25,           20.,            0.,NA,NA,"",   706.923E-03,   235.323E-03,   666.606E-03,   114.791E-06
C:/temp/dataset/2/22_1.odb,Step-1,Increment      1: Step Time =    1.000,"PART-1-1",           242,      -6.25410,       27.4469,            0.,NA,NA,"",   687.677E-03,   479.235E-03,   493.187E-03,   755.293E-06
C:/temp/dataset/2/22_1.odb,Step-1,Increment      1: Step Time =    1.000,"PART-1-1",           243,      -7.50120,       26.1906,            0.,NA,NA,"",   692.885E-03,   438.621E-03,   536.378E-03,   651.668E-06
C:/temp/dataset/2/22_1.odb,Step-1,Increment      1: Step Time =    1.000,"PART-1-1",           244,      -6.25844,       24.9303,            0.,NA,NA,"",   634.457E-03,   396.728E-03,   495.119E-03,   1.02741E-03
C:/temp/dataset/2/22_1.odb,Step-1,Increment      1: Step Time =    1.000,"PART-1-1",           245,      -5.01133,       26.1865,            0.,NA,NA,"",   628.445E-03,   437.082E-03,   451.555E-03,   1.05386E-03
C:/temp/dataset/2/22_1.odb,Step-1,Increment      1: Step Time =    1.000,"PART-1-1",           246,       1.11906,       22.3143,            0.,NA,NA,"",   398.682E-03,   312.522E-03,   247.543E-03,   1.84230E-03
C:/temp/dataset/2/22_1.odb,Step-1,Increment      1: Step Time =    1.000,"PART-1-1",           247,  -37.5712E-03,       21.1808,            0.,NA,NA,"",   397.946E-03,   275.418E-03,   287.239E-03,   1.72980E-03
C:/temp/dataset/2/22_1.odb,Step-1,Increment      1: Step Time =    1.000,"PART-1-1",           248,          1.25,           20.,            0.,NA,NA,"",   342.980E-03,   238.491E-03,   246.490E-03,   2.52934E-03
C:/temp/dataset/2/22_1.odb,Step-1,Increment      1: Step Time =    1.000,"PART-1-1",           249,       2.40663,       21.1336,            0.,NA,NA,"",   345.533E-03,   277.225E-03,   206.250E-03,   2.43601E-03
C:/temp/dataset/2/22_1.odb,Step-1,Increment      1: Step Time =    1.000,"PART-1-1",           250,  -46.9838E-03,       26.1228,            0.,NA,NA,"",   516.076E-03,   430.895E-03,   284.014E-03,   1.33323E-03
C:/temp/dataset/2/22_1.odb,Step-1,Increment      1: Step Time =    1.000,"PART-1-1",           251,       1.11635,       24.7850,            0.,NA,NA,"",   460.141E-03,   388.725E-03,   246.218E-03,   1.38229E-03
C:/temp/dataset/2/22_1.odb,Step-1,Increment      1: Step Time =    1.000,"PART-1-1",           252,       2.41618,       25.9912,            0.,NA,NA,"",   470.844E-03,   424.131E-03,   204.468E-03,   1.33212E-03
C:/temp/dataset/2/22_1.odb,Step-1,Increment      1: Step Time =    1.000,"PART-1-1",           253,       1.25284,       27.3289,            0.,NA,NA,"",   525.366E-03,   466.470E-03,   241.693E-03,   1.53742E-03
C:/temp/dataset/2/22_1.odb,Step-1,Increment      1: Step Time =    1.000,"PART-1-1",           254,       11.4216,       22.1022,            0.,NA,NA,"",   308.986E-03,   306.512E-03,  -39.0198E-03,   2.18260E-03
C:/temp/dataset/2/22_1.odb,Step-1,Increment      1: Step Time =    1.000,"PART-1-1",           255,       9.70783,       21.3771,            0.,NA,NA,"",   286.986E-03,   286.981E-03,   1.76085E-03,   1.84380E-03
C:/temp/dataset/2/22_1.odb,Step-1,Increment      1: Step Time =    1.000,"PART-1-1",           256,       10.3968,       19.2167,            0.,NA,NA,"",   233.977E-03,   233.643E-03,  -12.5035E-03,   1.27111E-03
C:/temp/dataset/2/22_1.odb,Step-1,Increment      1: Step Time =    1.000,"PART-1-1",           257,       12.1105,       19.9418,            0.,NA,NA,"",   257.204E-03,   251.961E-03,  -51.6686E-03,   1.97757E-03
C:/temp/dataset/2/22_1.odb,Step-1,Increment      1: Step Time =    1.000,"PART-1-1",           258,       11.6215,       24.7876,            0.,NA,NA,"",   382.618E-03,   379.757E-03,  -46.6979E-03,   2.06639E-03
C:/temp/dataset/2/22_1.odb,Step-1,Increment      1: Step Time =    1.000,"PART-1-1",           259,       12.6971,       25.9410,            0.,NA,NA,"",   418.308E-03,   411.586E-03,  -74.6885E-03,   1.61481E-03
C:/temp/dataset/2/22_1.odb,Step-1,Increment      1: Step Time =    1.000,"PART-1-1",           260,       11.4859,       27.3886,            0.,NA,NA,"",   454.354E-03,   452.139E-03,  -44.8155E-03,   1.52140E-03
C:/temp/dataset/2/22_1.odb,Step-1,Increment      1: Step Time =    1.000,"PART-1-1",           261,       10.4103,       26.2351,            0.,NA,NA,"",   421.120E-03,   420.763E-03,  -17.3272E-03,   1.99447E-03
C:/temp/dataset/2/22_1.odb,Step-1,Increment      1: Step Time =    1.000,"PART-1-1",           262,       5.88041,       17.6377,            0.,NA,NA,"",   218.616E-03,   201.688E-03,   84.3489E-03,   5.05177E-03
C:/temp/dataset/2/22_1.odb,Step-1,Increment      1: Step Time =    1.000,"PART-1-1",           263,       6.75071,       18.9160,            0.,NA,NA,"",   236.845E-03,   226.361E-03,   69.6859E-03,   3.03753E-03
C:/temp/dataset/2/22_1.odb,Step-1,Increment      1: Step Time =    1.000,"PART-1-1",           264,       5.87030,       20.0282,            0.,NA,NA,"",   267.727E-03,   250.739E-03,   93.8507E-03,   5.08291E-03
C:/temp/dataset/2/22_1.odb,Step-1,Increment      1: Step Time =    1.000,"PART-1-1",           265,            5.,         18.75,            0.,NA,NA,"",   251.526E-03,   226.779E-03,   108.796E-03,   7.63581E-03
C:/temp/dataset/2/22_1.odb,Step-1,Increment      1: Step Time =    1.000,"PART-1-1",           266,       12.3690,       13.3305,            0.,NA,NA,"",   124.164E-03,   116.002E-03,  -44.2763E-03,   1.98044E-03
C:/temp/dataset/2/22_1.odb,Step-1,Increment      1: Step Time =    1.000,"PART-1-1",           267,       13.7195,       12.1790,            0.,NA,NA,"",   117.254E-03,   98.5067E-03,  -63.5997E-03,   3.48091E-03
C:/temp/dataset/2/22_1.odb,Step-1,Increment      1: Step Time =    1.000,"PART-1-1",           268,           15.,       13.9583,            0.,NA,NA,"",   159.824E-03,   130.591E-03,  -92.1399E-03,   4.88850E-03
C:/temp/dataset/2/22_1.odb,Step-1,Increment      1: Step Time =    1.000,"PART-1-1",           269,       13.6495,       15.1098,            0.,NA,NA,"",   165.721E-03,   149.336E-03,  -71.8506E-03,   3.38684E-03
C:/temp/dataset/2/22_1.odb,Step-1,Increment      1: Step Time =    1.000,"PART-1-1",           270,       12.5214,       4.81657,            0.,NA,NA,"",   31.0068E-03,   8.90799E-03,  -29.6997E-03,   2.23180E-03
C:/temp/dataset/2/22_1.odb,Step-1,Increment      1: Step Time =    1.000,"PART-1-1",           271,       13.7670,       3.58604,            0.,NA,NA,"",   38.3097E-03,   1.23464E-03,  -38.2898E-03,   2.77969E-03
C:/temp/dataset/2/22_1.odb,Step-1,Increment      1: Step Time =    1.000,"PART-1-1",           272,           15.,       5.20833,            0.,NA,NA,"",   55.7546E-03,   15.5215E-03,  -53.5505E-03,   4.13846E-03
C:/temp/dataset/2/22_1.odb,Step-1,Increment      1: Step Time =    1.000,"PART-1-1",           273,       13.7545,       6.43886,            0.,NA,NA,"",   52.0621E-03,   24.6636E-03,  -45.8494E-03,   3.36971E-03
C:/temp/dataset/2/22_1.odb,Step-1,Increment      1: Step Time =    1.000,"PART-1-1",           274,       13.7625,      -2.13133,            0.,NA,NA,"",   42.5070E-03,  -29.6300E-03,  -30.4780E-03,   802.881E-06
C:/temp/dataset/2/22_1.odb,Step-1,Increment      1: Step Time =    1.000,"PART-1-1",           275,       12.5125,      -3.58966,            0.,NA,NA,"",   43.2976E-03,  -37.1714E-03,  -22.2028E-03,   756.122E-06
C:/temp/dataset/2/22_1.odb,Step-1,Increment      1: Step Time =    1.000,"PART-1-1",           276,         13.75,           -5.,            0.,NA,NA,"",   54.5811E-03,  -45.6092E-03,  -29.9816E-03,   131.676E-06
C:/temp/dataset/2/22_1.odb,Step-1,Increment      1: Step Time =    1.000,"PART-1-1",           277,           15.,      -3.54167,            0.,NA,NA,"",   52.7102E-03,  -37.1572E-03,  -37.3860E-03,   153.283E-06
C:/temp/dataset/2/22_1.odb,Step-1,Increment      1: Step Time =    1.000,"PART-1-1",           278,      -9.21387,      -6.21191,            0.,NA,NA,"",   12.0628E-03,  -6.04661E-03,   10.4379E-03,   510.414E-06
C:/temp/dataset/2/22_1.odb,Step-1,Increment      1: Step Time =    1.000,"PART-1-1",           279,      -8.44405,      -4.75360,            0.,NA,NA,"",   14.6586E-03,  -8.09967E-03,   12.2176E-03,   629.215E-06
C:/temp/dataset/2/22_1.odb,Step-1,Increment      1: Step Time =    1.000,"PART-1-1",           280,      -9.71477,      -4.17886,            0.,NA,NA,"",   13.6371E-03,  -8.49471E-03,   10.6683E-03,   485.714E-06
C:/temp/dataset/2/22_1.odb,Step-1,Increment      1: Step Time =    1.000,"PART-1-1",           281,      -10.4846,      -5.63717,            0.,NA,NA,"",   11.1734E-03,  -6.46544E-03,   9.11281E-03,   391.411E-06
C:/temp/dataset/2/22_1.odb,Step-1,Increment      1: Step Time =    1.000,"PART-1-1",           282,      -5.84282,   107.969E-03,            0.,NA,NA,"",   24.2920E-03,  -14.2294E-03,   19.6881E-03,   1.01205E-03
C:/temp/dataset/2/22_1.odb,Step-1,Increment      1: Step Time =    1.000,"PART-1-1",           283,      -4.64047,       1.60743,            0.,NA,NA,"",   26.7843E-03,  -14.9046E-03,   22.2543E-03,   1.01450E-03
C:/temp/dataset/2/22_1.odb,Step-1,Increment      1: Step Time =    1.000,"PART-1-1",           284,      -6.45702,       2.58989,            0.,NA,NA,"",   24.6468E-03,  -16.1809E-03,   18.5914E-03,   722.422E-06
C:/temp/dataset/2/22_1.odb,Step-1,Increment      1: Step Time =    1.000,"PART-1-1",           285,      -7.65937,       1.09043,            0.,NA,NA,"",   22.0137E-03,  -14.8981E-03,   16.2065E-03,   648.358E-06
C:/temp/dataset/2/22_1.odb,Step-1,Increment      1: Step Time =    1.000,"PART-1-1",           286,      -6.51044,      -5.43697,            0.,NA,NA,"",   16.5831E-03,  -7.84805E-03,   14.6084E-03,   902.143E-06
C:/temp/dataset/2/22_1.odb,Step-1,Increment      1: Step Time =    1.000,"PART-1-1",           287,      -5.48201,      -3.85122,            0.,NA,NA,"",   21.3654E-03,  -11.3229E-03,   18.1182E-03,   1.32157E-03
C:/temp/dataset/2/22_1.odb,Step-1,Increment      1: Step Time =    1.000,"PART-1-1",           288,      -7.41561,      -3.16785,            0.,NA,NA,"",   18.3480E-03,  -10.7392E-03,   14.8767E-03,   967.894E-06
C:/temp/dataset/2/22_1.odb,Step-1,Increment      1: Step Time =    1.000,"PART-1-1",           289,      -12.6742,      -10.6472,            0.,NA,NA,"",   5.61243E-03,  -1.07451E-03,   5.50861E-03,   230.184E-06
C:/temp/dataset/2/22_1.odb,Step-1,Increment      1: Step Time =    1.000,"PART-1-1",           290,      -11.3911,      -11.6978,            0.,NA,NA,"",   6.23255E-03,  -459.690E-06,   6.21557E-03,   353.892E-06
C:/temp/dataset/2/22_1.odb,Step-1,Increment      1: Step Time =    1.000,"PART-1-1",           291,      -10.2167,      -10.1126,            0.,NA,NA,"",   7.94464E-03,  -1.85663E-03,   7.72465E-03,   447.770E-06
C:/temp/dataset/2/22_1.odb,Step-1,Increment      1: Step Time =    1.000,"PART-1-1",           292,      -11.4997,      -9.06207,            0.,NA,NA,"",   7.38564E-03,  -2.57560E-03,   6.92200E-03,   317.516E-06
C:/temp/dataset/2/22_1.odb,Step-1,Increment      1: Step Time =    1.000,"PART-1-1",           293,      -13.7107,      -15.1438,            0.,NA,NA,"",   4.40286E-03,   1.61530E-03,   4.09585E-03,   162.089E-06
C:/temp/dataset/2/22_1.odb,Step-1,Increment      1: Step Time =    1.000,"PART-1-1",           294,      -12.5249,      -13.4434,            0.,NA,NA,"",   5.05581E-03,   743.392E-06,   5.00086E-03,   259.990E-06
C:/temp/dataset/2/22_1.odb,Step-1,Increment      1: Step Time =    1.000,"PART-1-1",           295,      -13.8143,      -12.2579,            0.,NA,NA,"",   4.42051E-03,   163.123E-06,   4.41750E-03,   129.301E-06
C:/temp/dataset/2/22_1.odb,Step-1,Increment      1: Step Time =    1.000,"PART-1-1",           296,          -15.,      -13.9583,            0.,NA,NA,"",   3.80027E-03,   1.16010E-03,   3.61887E-03,   29.7035E-06
C:/temp/dataset/2/22_1.odb,Step-1,Increment      1: Step Time =    1.000,"PART-1-1",           297,      -12.0988,      -16.5012,            0.,NA,NA,"",   4.79316E-03,   1.86954E-03,   4.41352E-03,   314.159E-06
C:/temp/dataset/2/22_1.odb,Step-1,Increment      1: Step Time =    1.000,"PART-1-1",           298,      -10.5811,      -17.2344,            0.,NA,NA,"",   4.99700E-03,   1.79890E-03,   4.66197E-03,   432.577E-06
C:/temp/dataset/2/22_1.odb,Step-1,Increment      1: Step Time =    1.000,"PART-1-1",           299,      -9.66362,      -15.1575,            0.,NA,NA,"",   5.96022E-03,   1.03395E-03,   5.86986E-03,   512.543E-06
C:/temp/dataset/2/22_1.odb,Step-1,Increment      1: Step Time =    1.000,"PART-1-1",           300,      -11.1813,      -14.4243,            0.,NA,NA,"",   5.53717E-03,   1.02682E-03,   5.44113E-03,   387.648E-06
C:/temp/dataset/2/22_1.odb,Step-1,Increment      1: Step Time =    1.000,"PART-1-1",           301,      -10.5090,      -18.8394,            0.,NA,NA,"",   4.52888E-03,   1.97043E-03,   4.07777E-03,   427.156E-06
C:/temp/dataset/2/22_1.odb,Step-1,Increment      1: Step Time =    1.000,"PART-1-1",           302,      -8.88448,      -18.7076,            0.,NA,NA,"",   4.75768E-03,   1.67035E-03,   4.45482E-03,   517.315E-06
C:/temp/dataset/2/22_1.odb,Step-1,Increment      1: Step Time =    1.000,"PART-1-1",           303,      -8.95657,      -17.1026,            0.,NA,NA,"",   5.39671E-03,   1.45887E-03,   5.19578E-03,   545.410E-06
C:/temp/dataset/2/22_1.odb,Step-1,Increment      1: Step Time =    1.000,"PART-1-1",           304,      -8.08225,      -19.7831,            0.,NA,NA,"",   4.31563E-03,   1.51221E-03,   4.04201E-03,   533.510E-06
C:/temp/dataset/2/22_1.odb,Step-1,Increment      1: Step Time =    1.000,"PART-1-1",           305,      -6.89084,      -18.8787,            0.,NA,NA,"",   4.73367E-03,   1.29148E-03,   4.55409E-03,   638.503E-06
C:/temp/dataset/2/22_1.odb,Step-1,Increment      1: Step Time =    1.000,"PART-1-1",           306,      -7.69307,      -17.8032,            0.,NA,NA,"",   5.27609E-03,   1.30003E-03,   5.11341E-03,   661.329E-06
C:/temp/dataset/2/22_1.odb,Step-1,Increment      1: Step Time =    1.000,"PART-1-1",           307,       7.10093,      -24.9223,            0.,NA,NA,"",   54.1679E-06,  -26.9713E-06,  -46.9757E-06,   21.3253E-06
C:/temp/dataset/2/22_1.odb,Step-1,Increment      1: Step Time =    1.000,"PART-1-1",           308,       8.59925,      -23.6815,            0.,NA,NA,"",   50.0714E-06,   7.59938E-06,  -49.4914E-06,   15.0894E-06
C:/temp/dataset/2/22_1.odb,Step-1,Increment      1: Step Time =    1.000,"PART-1-1",           309,       6.88316,      -22.4353,            0.,NA,NA,"",   70.6176E-06,   36.0163E-06,  -60.7427E-06,   22.8333E-06
C:/temp/dataset/2/22_1.odb,Step-1,Increment      1: Step Time =    1.000,"PART-1-1",           310,       5.38484,      -23.6762,            0.,NA,NA,"",   56.6087E-06,  -8.10340E-06,  -56.0257E-06,   24.0431E-06
C:/temp/dataset/2/22_1.odb,Step-1,Increment      1: Step Time =    1.000,"PART-1-1",           311,       13.3798,      -22.4744,            0.,NA,NA,"",   39.7435E-06,   22.6079E-06,  -32.6868E-06,   3.69624E-06
C:/temp/dataset/2/22_1.odb,Step-1,Increment      1: Step Time =    1.000,"PART-1-1",           312,           15.,        -21.25,            0.,NA,NA,"",   44.4459E-06,   26.7023E-06,  -35.5307E-06,   615.870E-09
C:/temp/dataset/2/22_1.odb,Step-1,Increment      1: Step Time =    1.000,"PART-1-1",           313,       13.3333,          -20.,            0.,NA,NA,"",   44.1763E-06,   28.6619E-06,  -33.6161E-06,   815.066E-09
C:/temp/dataset/2/22_1.odb,Step-1,Increment      1: Step Time =    1.000,"PART-1-1",           314,       11.7131,      -21.2244,            0.,NA,NA,"",   46.2493E-06,   29.1057E-06,  -35.9423E-06,   3.97041E-06
C:/temp/dataset/2/22_1.odb,Step-1,Increment      1: Step Time =    1.000,"PART-1-1",           315,      -2.14863,       2.00914,            0.,NA,NA,"",   30.0205E-03,  -13.7935E-03,   26.6641E-03,   1.35755E-03
C:/temp/dataset/2/22_1.odb,Step-1,Increment      1: Step Time =    1.000,"PART-1-1",           316,      -1.66393,   575.985E-03,            0.,NA,NA,"",   31.0621E-03,  -14.0217E-03,   27.7172E-03,   1.31086E-03
C:/temp/dataset/2/22_1.odb,Step-1,Increment      1: Step Time =    1.000,"PART-1-1",           317,   135.628E-03,       1.10435,            0.,NA,NA,"",   32.3980E-03,  -13.0407E-03,   29.6576E-03,   1.35528E-03
C:/temp/dataset/2/22_1.odb,Step-1,Increment      1: Step Time =    1.000,"PART-1-1",           318,  -349.073E-03,       2.53751,            0.,NA,NA,"",   31.2937E-03,  -12.0332E-03,   28.8876E-03,   1.62118E-03
C:/temp/dataset/2/22_1.odb,Step-1,Increment      1: Step Time =    1.000,"PART-1-1",           319,   156.145E-03,      -1.87787,            0.,NA,NA,"",   33.6516E-03,  -16.4454E-03,   29.3595E-03,   1.39782E-03
C:/temp/dataset/2/22_1.odb,Step-1,Increment      1: Step Time =    1.000,"PART-1-1",           320,       1.21010,      -2.70880,            0.,NA,NA,"",   34.5297E-03,  -18.5574E-03,   29.1191E-03,   1.63839E-03
C:/temp/dataset/2/22_1.odb,Step-1,Increment      1: Step Time =    1.000,"PART-1-1",           321,       2.32846,      -1.50081,            0.,NA,NA,"",   34.3477E-03,  -17.7212E-03,   29.4232E-03,   1.41732E-03
C:/temp/dataset/2/22_1.odb,Step-1,Increment      1: Step Time =    1.000,"PART-1-1",           322,       1.27451,  -669.883E-03,            0.,NA,NA,"",   33.9232E-03,  -15.3968E-03,   30.2279E-03,   1.37141E-03
C:/temp/dataset/2/22_1.odb,Step-1,Increment      1: Step Time =    1.000,"PART-1-1",           323,       4.87500,      -1.23074,            0.,NA,NA,"",   31.5329E-03,  -19.7671E-03,   24.5680E-03,   1.41666E-03
C:/temp/dataset/2/22_1.odb,Step-1,Increment      1: Step Time =    1.000,"PART-1-1",           324,       6.20088,      -2.43579,            0.,NA,NA,"",   31.2155E-03,  -25.4442E-03,   18.0833E-03,   1.76880E-03
C:/temp/dataset/2/22_1.odb,Step-1,Increment      1: Step Time =    1.000,"PART-1-1",           325,       7.44880,      -1.07477,            0.,NA,NA,"",   25.5804E-03,  -22.1401E-03,   12.8129E-03,   1.95753E-03
C:/temp/dataset/2/22_1.odb,Step-1,Increment      1: Step Time =    1.000,"PART-1-1",           326,       6.12293,   130.279E-03,            0.,NA,NA,"",   26.7990E-03,  -16.5818E-03,   21.0530E-03,   1.57350E-03
C:/temp/dataset/2/22_1.odb,Step-1,Increment      1: Step Time =    1.000,"PART-1-1",           327,          8.75,           -5.,            0.,NA,NA,"",   41.5747E-03,  -41.5356E-03,   1.80256E-03,   2.08038E-03
C:/temp/dataset/2/22_1.odb,Step-1,Increment      1: Step Time =    1.000,"PART-1-1",           328,       10.0063,      -3.63741,            0.,NA,NA,"",   36.1357E-03,  -35.7449E-03,  -5.29967E-03,   1.50587E-03
C:/temp/dataset/2/22_1.odb,Step-1,Increment      1: Step Time =    1.000,"PART-1-1",           329,       8.73716,      -2.32557,            0.,NA,NA,"",   28.5994E-03,  -28.3367E-03,   3.86726E-03,   1.92103E-03
C:/temp/dataset/2/22_1.odb,Step-1,Increment      1: Step Time =    1.000,"PART-1-1",           330,       7.48081,      -3.68816,            0.,NA,NA,"",   34.0331E-03,  -32.4004E-03,   10.4148E-03,   2.15584E-03
C:/temp/dataset/2/22_1.odb,Step-1,Increment      1: Step Time =    1.000,"PART-1-1",           331,       6.24109,       7.72904,            0.,NA,NA,"",   53.2754E-03,   37.6099E-03,   37.7328E-03,   4.59825E-03
C:/temp/dataset/2/22_1.odb,Step-1,Increment      1: Step Time =    1.000,"PART-1-1",           332,            5.,          6.25,            0.,NA,NA,"",   49.5098E-03,   22.2537E-03,   44.2265E-03,   7.50427E-03
C:/temp/dataset/2/22_1.odb,Step-1,Increment      1: Step Time =    1.000,"PART-1-1",           333,       6.24095,       5.17046,            0.,NA,NA,"",   29.7033E-03,   6.86282E-03,   28.8997E-03,   4.47844E-03
C:/temp/dataset/2/22_1.odb,Step-1,Increment      1: Step Time =    1.000,"PART-1-1",           334,       7.48203,       6.64950,            0.,NA,NA,"",   31.0592E-03,   22.9593E-03,   20.9176E-03,   2.20793E-03
C:/temp/dataset/2/22_1.odb,Step-1,Increment      1: Step Time =    1.000,"PART-1-1",           335,       7.34508,       23.6052,            0.,NA,NA,"",   353.679E-03,   348.577E-03,   59.8566E-03,   2.05758E-03
C:/temp/dataset/2/22_1.odb,Step-1,Increment      1: Step Time =    1.000,"PART-1-1",           336,       6.41056,       24.2397,            0.,NA,NA,"",   377.440E-03,   367.699E-03,   85.1957E-03,   1.75433E-03
C:/temp/dataset/2/22_1.odb,Step-1,Increment      1: Step Time =    1.000,"PART-1-1",           337,       6.08150,       22.9932,            0.,NA,NA,"",   344.991E-03,   332.231E-03,   92.9605E-03,   2.04280E-03
C:/temp/dataset/2/22_1.odb,Step-1,Increment      1: Step Time =    1.000,"PART-1-1",           338,       7.01602,       22.3587,            0.,NA,NA,"",   320.725E-03,   313.582E-03,   67.3147E-03,   2.25903E-03
C:/temp/dataset/2/22_1.odb,Step-1,Increment      1: Step Time =    1.000,"PART-1-1",           339,      -12.5005,       23.7291,            0.,NA,NA,"",   791.886E-03,   359.190E-03,   705.738E-03,   59.2002E-06
C:/temp/dataset/2/22_1.odb,Step-1,Increment      1: Step Time =    1.000,"PART-1-1",           340,      -13.7489,       24.9883,            0.,NA,NA,"",   847.724E-03,   401.728E-03,   746.493E-03,   13.3050E-06
C:/temp/dataset/2/22_1.odb,Step-1,Increment      1: Step Time =    1.000,"PART-1-1",           341,          -15.,         23.75,            0.,NA,NA,"",   867.510E-03,   361.289E-03,   788.698E-03,   77.0123E-06
C:/temp/dataset/2/22_1.odb,Step-1,Increment      1: Step Time =    1.000,"PART-1-1",           342,      -2.52491,       26.1674,            0.,NA,NA,"",   568.784E-03,   434.606E-03,   366.924E-03,   1.26745E-03
C:/temp/dataset/2/22_1.odb,Step-1,Increment      1: Step Time =    1.000,"PART-1-1",           343,      -1.30373,       24.8780,            0.,NA,NA,"",   510.727E-03,   392.879E-03,   326.326E-03,   1.36996E-03
C:/temp/dataset/2/22_1.odb,Step-1,Increment      1: Step Time =    1.000,"PART-1-1",           344,      -1.26817,       27.4122,            0.,NA,NA,"",   573.414E-03,   472.862E-03,   324.353E-03,   1.41252E-03
C:/temp/dataset/2/22_1.odb,Step-1,Increment      1: Step Time =    1.000,"PART-1-1",           345,       2.31009,       23.4917,            0.,NA,NA,"",   406.291E-03,   349.082E-03,   207.880E-03,   1.70710E-03
C:/temp/dataset/2/22_1.odb,Step-1,Increment      1: Step Time =    1.000,"PART-1-1",           346,       3.41051,       22.2101,            0.,NA,NA,"",   355.653E-03,   311.125E-03,   172.309E-03,   2.07638E-03
C:/temp/dataset/2/22_1.odb,Step-1,Increment      1: Step Time =    1.000,"PART-1-1",           347,       4.46987,       23.2845,            0.,NA,NA,"",   369.636E-03,   342.076E-03,   140.053E-03,   1.76097E-03
C:/temp/dataset/2/22_1.odb,Step-1,Increment      1: Step Time =    1.000,"PART-1-1",           348,       3.36945,       24.5662,            0.,NA,NA,"",   418.562E-03,   380.516E-03,   174.361E-03,   1.27221E-03
C:/temp/dataset/2/22_1.odb,Step-1,Increment      1: Step Time =    1.000,"PART-1-1",           349,       3.92627,       27.0683,            0.,NA,NA,"",   480.844E-03,   453.980E-03,   158.470E-03,   1.48298E-03
C:/temp/dataset/2/22_1.odb,Step-1,Increment      1: Step Time =    1.000,"PART-1-1",           350,       5.16355,       28.4353,            0.,NA,NA,"",   506.776E-03,   491.633E-03,   122.958E-03,   2.29710E-03
C:/temp/dataset/2/22_1.odb,Step-1,Increment      1: Step Time =    1.000,"PART-1-1",           351,          3.75,           30.,            0.,NA,NA,"",   566.576E-03,   541.805E-03,   165.698E-03,   3.11157E-03
C:/temp/dataset/2/22_1.odb,Step-1,Increment      1: Step Time =    1.000,"PART-1-1",           352,       2.51272,       28.6330,            0.,NA,NA,"",   543.012E-03,   503.888E-03,   202.383E-03,   2.22666E-03
C:/temp/dataset/2/22_1.odb,Step-1,Increment      1: Step Time =    1.000,"PART-1-1",           353,       11.0463,       14.3537,            0.,NA,NA,"",   135.297E-03,   133.431E-03,  -22.3956E-03,   564.087E-06
C:/temp/dataset/2/22_1.odb,Step-1,Increment      1: Step Time =    1.000,"PART-1-1",           354,       9.86747,       12.5470,            0.,NA,NA,"",   102.549E-03,   102.529E-03,  -2.04247E-03,   695.973E-06
C:/temp/dataset/2/22_1.odb,Step-1,Increment      1: Step Time =    1.000,"PART-1-1",           355,       11.1901,       11.5237,            0.,NA,NA,"",   89.1463E-03,   86.1864E-03,  -22.7807E-03,   722.408E-06
C:/temp/dataset/2/22_1.odb,Step-1,Increment      1: Step Time =    1.000,"PART-1-1",           356,       9.55073,       15.1783,            0.,NA,NA,"",   149.005E-03,   148.917E-03,   5.11715E-03,   912.985E-06
C:/temp/dataset/2/22_1.odb,Step-1,Increment      1: Step Time =    1.000,"PART-1-1",           357,       8.18591,       15.9712,            0.,NA,NA,"",   168.286E-03,   165.164E-03,   32.2639E-03,   2.35327E-03
C:/temp/dataset/2/22_1.odb,Step-1,Increment      1: Step Time =    1.000,"PART-1-1",           358,       7.20669,       14.2932,            0.,NA,NA,"",   143.051E-03,   135.288E-03,   46.4835E-03,   3.50102E-03
C:/temp/dataset/2/22_1.odb,Step-1,Increment      1: Step Time =    1.000,"PART-1-1",           359,       8.57151,       13.5002,            0.,NA,NA,"",   121.261E-03,   119.483E-03,   20.6911E-03,   2.06381E-03
C:/temp/dataset/2/22_1.odb,Step-1,Increment      1: Step Time =    1.000,"PART-1-1",           360,       7.44377,       1.50598,            0.,NA,NA,"",   19.7848E-03,  -12.5559E-03,   15.2901E-03,   2.21192E-03
C:/temp/dataset/2/22_1.odb,Step-1,Increment      1: Step Time =    1.000,"PART-1-1",           361,       8.72836,   326.342E-03,            0.,NA,NA,"",   18.6407E-03,  -17.8318E-03,   5.43164E-03,   2.19511E-03
C:/temp/dataset/2/22_1.odb,Step-1,Increment      1: Step Time =    1.000,"PART-1-1",           362,       10.0261,       1.76283,            0.,NA,NA,"",   12.5513E-03,  -11.7732E-03,  -4.35047E-03,   2.30990E-03
C:/temp/dataset/2/22_1.odb,Step-1,Increment      1: Step Time =    1.000,"PART-1-1",           363,       8.74149,       2.94246,            0.,NA,NA,"",   8.89796E-03,  -6.03456E-03,   6.53894E-03,   2.18677E-03
C:/temp/dataset/2/22_1.odb,Step-1,Increment      1: Step Time =    1.000,"PART-1-1",           364,       12.5045,       7.62102,            0.,NA,NA,"",   49.7650E-03,   35.3886E-03,  -34.9886E-03,   2.16827E-03
C:/temp/dataset/2/22_1.odb,Step-1,Increment      1: Step Time =    1.000,"PART-1-1",           365,           15.,         8.125,            0.,NA,NA,"",   79.6299E-03,   44.8985E-03,  -65.7651E-03,   4.76120E-03
C:/temp/dataset/2/22_1.odb,Step-1,Increment      1: Step Time =    1.000,"PART-1-1",           366,       13.7500,       9.30715,            0.,NA,NA,"",   79.1387E-03,   57.1538E-03,  -54.7391E-03,   3.51415E-03
C:/temp/dataset/2/22_1.odb,Step-1,Increment      1: Step Time =    1.000,"PART-1-1",           367,      -1.45938,      -2.40358,            0.,NA,NA,"",   31.5611E-03,  -15.5002E-03,   27.4927E-03,   1.40601E-03
C:/temp/dataset/2/22_1.odb,Step-1,Increment      1: Step Time =    1.000,"PART-1-1",           368,      -2.69869,      -3.52952,            0.,NA,NA,"",   28.6416E-03,  -14.0884E-03,   24.9371E-03,   1.30373E-03
C:/temp/dataset/2/22_1.odb,Step-1,Increment      1: Step Time =    1.000,"PART-1-1",           369,         -1.25,           -5.,            0.,NA,NA,"",   29.9521E-03,  -14.9580E-03,   25.9498E-03,   2.17004E-03
C:/temp/dataset/2/22_1.odb,Step-1,Increment      1: Step Time =    1.000,"PART-1-1",           370,  -10.6917E-03,      -3.87406,            0.,NA,NA,"",   33.0687E-03,  -17.6596E-03,   27.9585E-03,   1.97453E-03
C:/temp/dataset/2/22_1.odb,Step-1,Increment      1: Step Time =    1.000,"PART-1-1",           371,      -13.3333,            5.,            0.,NA,NA,"",   21.4369E-03,  -20.3689E-03,   6.68214E-03,   9.73818E-06
C:/temp/dataset/2/22_1.odb,Step-1,Increment      1: Step Time =    1.000,"PART-1-1",           372,          -15.,       3.54167,            0.,NA,NA,"",   18.6808E-03,  -18.1979E-03,   4.21975E-03,   17.0120E-06
C:/temp/dataset/2/22_1.odb,Step-1,Increment      1: Step Time =    1.000,"PART-1-1",           373,      -13.2137,       2.05352,            0.,NA,NA,"",   17.4478E-03,  -16.0559E-03,   6.82892E-03,   79.5999E-06
C:/temp/dataset/2/22_1.odb,Step-1,Increment      1: Step Time =    1.000,"PART-1-1",           374,      -11.5470,       3.51185,            0.,NA,NA,"",   20.4289E-03,  -18.1205E-03,   9.43320E-03,   83.1530E-06
C:/temp/dataset/2/22_1.odb,Step-1,Increment      1: Step Time =    1.000,"PART-1-1",           375,          -15.,      625.E-03,            0.,NA,NA,"",   14.6667E-03,  -14.0496E-03,   4.20978E-03,   28.4379E-06
C:/temp/dataset/2/22_1.odb,Step-1,Increment      1: Step Time =    1.000,"PART-1-1",           376,      -12.9883,      -1.02354,            0.,NA,NA,"",   13.7850E-03,  -11.9276E-03,   6.91065E-03,   184.438E-06
C:/temp/dataset/2/22_1.odb,Step-1,Increment      1: Step Time =    1.000,"PART-1-1",           377,      -11.2019,   404.974E-03,            0.,NA,NA,"",   17.0269E-03,  -13.9152E-03,   9.81233E-03,   251.543E-06
C:/temp/dataset/2/22_1.odb,Step-1,Increment      1: Step Time =    1.000,"PART-1-1",           378,      -13.6690,      -3.88141,            0.,NA,NA,"",   9.94356E-03,  -8.21549E-03,   5.60179E-03,   165.747E-06
C:/temp/dataset/2/22_1.odb,Step-1,Increment      1: Step Time =    1.000,"PART-1-1",           379,      -11.6573,      -2.61328,            0.,NA,NA,"",   13.1691E-03,  -10.0599E-03,   8.49844E-03,   281.842E-06
C:/temp/dataset/2/22_1.odb,Step-1,Increment      1: Step Time =    1.000,"PART-1-1",           380,          -15.,      -2.29167,            0.,NA,NA,"",   10.9562E-03,  -10.1717E-03,   4.07119E-03,   73.3149E-06
C:/temp/dataset/2/22_1.odb,Step-1,Increment      1: Step Time =    1.000,"PART-1-1",           381,           -5.,         -8.75,            0.,NA,NA,"",   14.4110E-03,  -4.73473E-03,   13.6109E-03,   1.08576E-03
C:/temp/dataset/2/22_1.odb,Step-1,Increment      1: Step Time =    1.000,"PART-1-1",           382,      -6.37238,      -7.84264,            0.,NA,NA,"",   13.9725E-03,  -4.96944E-03,   13.0590E-03,   909.916E-06
C:/temp/dataset/2/22_1.odb,Step-1,Increment      1: Step Time =    1.000,"PART-1-1",           383,      -7.67841,      -9.42411,            0.,NA,NA,"",   10.8649E-03,  -3.03956E-03,   10.4310E-03,   718.117E-06
C:/temp/dataset/2/22_1.odb,Step-1,Increment      1: Step Time =    1.000,"PART-1-1",           384,      -6.30603,      -10.3315,            0.,NA,NA,"",   11.3997E-03,  -2.79168E-03,   11.0526E-03,   890.086E-06
C:/temp/dataset/2/22_1.odb,Step-1,Increment      1: Step Time =    1.000,"PART-1-1",           385,      -13.6103,      -21.3688,            0.,NA,NA,"",   3.72081E-03,   2.30382E-03,   2.92179E-03,   288.727E-06
C:/temp/dataset/2/22_1.odb,Step-1,Increment      1: Step Time =    1.000,"PART-1-1",           386,          -15.,      -22.7083,            0.,NA,NA,"",   3.53883E-03,   2.29842E-03,   2.69083E-03,   254.297E-06
C:/temp/dataset/2/22_1.odb,Step-1,Increment      1: Step Time =    1.000,"PART-1-1",           387,      -13.6241,      -24.2925,            0.,NA,NA,"",   2.77917E-03,   1.82947E-03,   2.09209E-03,   362.420E-06
C:/temp/dataset/2/22_1.odb,Step-1,Increment      1: Step Time =    1.000,"PART-1-1",           388,      -12.2343,      -22.9530,            0.,NA,NA,"",   3.08322E-03,   1.86317E-03,   2.45660E-03,   403.639E-06
C:/temp/dataset/2/22_1.odb,Step-1,Increment      1: Step Time =    1.000,"PART-1-1",           389,           -5.,        -16.25,            0.,NA,NA,"",   6.95710E-03,  -99.3481E-06,   6.95640E-03,   968.259E-06
C:/temp/dataset/2/22_1.odb,Step-1,Increment      1: Step Time =    1.000,"PART-1-1",           390,      -6.06585,      -15.2329,            0.,NA,NA,"",   7.37803E-03,  -27.7929E-06,   7.37798E-03,   866.302E-06
C:/temp/dataset/2/22_1.odb,Step-1,Increment      1: Step Time =    1.000,"PART-1-1",           391,      -6.99530,      -16.6022,            0.,NA,NA,"",   6.09899E-03,   805.671E-06,   6.04555E-03,   756.895E-06
C:/temp/dataset/2/22_1.odb,Step-1,Increment      1: Step Time =    1.000,"PART-1-1",           392,      -5.92946,      -17.6192,            0.,NA,NA,"",   5.56275E-03,   742.702E-06,   5.51295E-03,   868.102E-06
C:/temp/dataset/2/22_1.odb,Step-1,Increment      1: Step Time =    1.000,"PART-1-1",           393,         -13.5,          -30.,            0.,NA,NA,"",            0.,   101.207E-42,   888.549E-42,   539.738E-06
C:/temp/dataset/2/22_1.odb,Step-1,Increment      1: Step Time =    1.000,"PART-1-1",           394,      -12.0804,      -28.6247,            0.,NA,NA,"",   553.711E-06,   371.321E-06,   410.752E-06,   402.909E-06
C:/temp/dataset/2/22_1.odb,Step-1,Increment      1: Step Time =    1.000,"PART-1-1",           395,      -13.5804,      -27.1664,            0.,NA,NA,"",   1.47843E-03,   1.04332E-03,   1.04748E-03,   433.661E-06
C:/temp/dataset/2/22_1.odb,Step-1,Increment      1: Step Time =    1.000,"PART-1-1",           396,          -15.,      -28.5417,            0.,NA,NA,"",   1.13165E-03,   838.635E-06,   759.820E-06,   548.539E-06
C:/temp/dataset/2/22_1.odb,Step-1,Increment      1: Step Time =    1.000,"PART-1-1",           397,          13.5,          -30.,            0.,NA,NA,"",            0.,  -969.699E-45,  -10.7634E-42,   5.15858E-06
C:/temp/dataset/2/22_1.odb,Step-1,Increment      1: Step Time =    1.000,"PART-1-1",           398,           15.,        -28.75,            0.,NA,NA,"",   8.20094E-06,   4.27373E-06,  -6.99934E-06,   6.35235E-06
C:/temp/dataset/2/22_1.odb,Step-1,Increment      1: Step Time =    1.000,"PART-1-1",           399,       13.4640,      -27.4843,            0.,NA,NA,"",   12.9489E-06,   1.04158E-06,  -12.9070E-06,   6.87984E-06
C:/temp/dataset/2/22_1.odb,Step-1,Increment      1: Step Time =    1.000,"PART-1-1",           400,       11.9640,      -28.7343,            0.,NA,NA,"",   6.61757E-06,  -3.59503E-06,  -5.55589E-06,   5.59042E-06
C:/temp/dataset/2/22_1.odb,Step-1,Increment      1: Step Time =    1.000,"PART-1-1",           401,       10.2658,      -24.9335,            0.,NA,NA,"",   33.7938E-06,  -1.59052E-06,  -33.7564E-06,   12.3375E-06
C:/temp/dataset/2/22_1.odb,Step-1,Increment      1: Step Time =    1.000,"PART-1-1",           402,       8.77397,      -26.1861,            0.,NA,NA,"",   37.0484E-06,  -23.3253E-06,  -28.7839E-06,   13.7884E-06
C:/temp/dataset/2/22_1.odb,Step-1,Increment      1: Step Time =    1.000,"PART-1-1",           403,       10.3945,      -27.4590,            0.,NA,NA,"",   18.9299E-06,  -12.4505E-06,  -14.2593E-06,   10.1125E-06
C:/temp/dataset/2/22_1.odb,Step-1,Increment      1: Step Time =    1.000,"PART-1-1",           404,       11.8863,      -26.2064,            0.,NA,NA,"",   20.8824E-06,  -1.39660E-06,  -20.8356E-06,   7.39750E-06
C:/temp/dataset/2/22_1.odb,Step-1,Increment      1: Step Time =    1.000,"PART-1-1",           405,       8.93044,      -28.7247,            0.,NA,NA,"",   17.2081E-06,  -16.2041E-06,  -5.79203E-06,   9.64189E-06
C:/temp/dataset/2/22_1.odb,Step-1,Increment      1: Step Time =    1.000,"PART-1-1",           406,       7.31300,      -27.4411,            0.,NA,NA,"",   47.0489E-06,  -43.9856E-06,  -16.6993E-06,   19.2211E-06
C:/temp/dataset/2/22_1.odb,Step-1,Increment      1: Step Time =    1.000,"PART-1-1",           407,       5.88256,      -28.7164,            0.,NA,NA,"",   45.1504E-06,  -45.0962E-06,  -2.21088E-06,   22.6852E-06
C:/temp/dataset/2/22_1.odb,Step-1,Increment      1: Step Time =    1.000,"PART-1-1",           408,           7.5,          -30.,            0.,NA,NA,"",            0.,  -18.7466E-42,   427.396E-45,   18.2958E-06
C:/temp/dataset/2/22_1.odb,Step-1,Increment      1: Step Time =    1.000,"PART-1-1",           409,       5.63995,      -26.1773,            0.,NA,NA,"",   77.9756E-06,  -72.3774E-06,  -29.0121E-06,   24.0340E-06
C:/temp/dataset/2/22_1.odb,Step-1,Increment      1: Step Time =    1.000,"PART-1-1",           410,       3.92490,      -24.9166,            0.,NA,NA,"",   85.6482E-06,  -81.3295E-06,  -26.8537E-06,   30.1373E-06
C:/temp/dataset/2/22_1.odb,Step-1,Increment      1: Step Time =    1.000,"PART-1-1",           411,       2.50142,      -26.1700,            0.,NA,NA,"",   159.186E-06,  -156.793E-06,   27.5009E-06,   37.6191E-06
C:/temp/dataset/2/22_1.odb,Step-1,Increment      1: Step Time =    1.000,"PART-1-1",           412,       4.21647,      -27.4307,            0.,NA,NA,"",   106.569E-06,  -106.565E-06,  -904.259E-09,   34.9982E-06
C:/temp/dataset/2/22_1.odb,Step-1,Increment      1: Step Time =    1.000,"PART-1-1",           413,       1.12659,      -27.4308,            0.,NA,NA,"",   207.413E-06,  -193.687E-06,   74.1998E-06,   68.0289E-06
C:/temp/dataset/2/22_1.odb,Step-1,Increment      1: Step Time =    1.000,"PART-1-1",           414,  -207.324E-03,      -28.7165,            0.,NA,NA,"",   167.586E-06,  -149.737E-06,   75.2599E-06,   107.028E-06
C:/temp/dataset/2/22_1.odb,Step-1,Increment      1: Step Time =    1.000,"PART-1-1",           415,           1.5,          -30.,            0.,NA,NA,"",            0.,  -86.3102E-42,   113.707E-42,   90.2250E-06
C:/temp/dataset/2/22_1.odb,Step-1,Increment      1: Step Time =    1.000,"PART-1-1",           416,       2.83391,      -28.7143,            0.,NA,NA,"",   96.7371E-06,  -95.0907E-06,   17.7712E-06,   51.1302E-06
C:/temp/dataset/2/22_1.odb,Step-1,Increment      1: Step Time =    1.000,"PART-1-1",           417,      -1.92078,      -27.4395,            0.,NA,NA,"",   352.608E-06,  -236.007E-06,   261.979E-06,   145.944E-06
C:/temp/dataset/2/22_1.odb,Step-1,Increment      1: Step Time =    1.000,"PART-1-1",           418,      -3.21345,      -28.7230,            0.,NA,NA,"",   230.197E-06,  -146.933E-06,   177.204E-06,   195.194E-06
C:/temp/dataset/2/22_1.odb,Step-1,Increment      1: Step Time =    1.000,"PART-1-1",           419,          -1.5,          -30.,            0.,NA,NA,"",            0.,  -119.066E-42,   273.196E-42,   152.277E-06
C:/temp/dataset/2/22_1.odb,Step-1,Increment      1: Step Time =    1.000,"PART-1-1",           420,      -5.57419,      -22.4519,            0.,NA,NA,"",   2.32263E-03,   424.170E-06,   2.28357E-03,   511.815E-06
C:/temp/dataset/2/22_1.odb,Step-1,Increment      1: Step Time =    1.000,"PART-1-1",           421,      -6.77537,      -23.6376,            0.,NA,NA,"",   2.12385E-03,   530.464E-06,   2.05654E-03,   521.371E-06
C:/temp/dataset/2/22_1.odb,Step-1,Increment      1: Step Time =    1.000,"PART-1-1",           422,      -5.25528,      -24.9124,            0.,NA,NA,"",   1.25862E-03,   60.8487E-06,   1.25715E-03,   352.801E-06
C:/temp/dataset/2/22_1.odb,Step-1,Increment      1: Step Time =    1.000,"PART-1-1",           423,      -4.05411,      -23.7268,            0.,NA,NA,"",   1.25365E-03,   4.99068E-06,   1.25364E-03,   319.607E-06
C:/temp/dataset/2/22_1.odb,Step-1,Increment      1: Step Time =    1.000,"PART-1-1",           424,       13.4223,      -24.9720,            0.,NA,NA,"",   27.3947E-06,   9.48308E-06,  -25.7010E-06,   6.05241E-06
C:/temp/dataset/2/22_1.odb,Step-1,Increment      1: Step Time =    1.000,"PART-1-1",           425,           15.,        -26.25,            0.,NA,NA,"",   23.7674E-06,   8.47655E-06,  -22.2044E-06,   5.79498E-06
C:/temp/dataset/2/22_1.odb,Step-1,Increment      1: Step Time =    1.000,"PART-1-1",           426,       11.8021,      -23.6964,            0.,NA,NA,"",   36.0494E-06,   14.0044E-06,  -33.2180E-06,   7.43521E-06
C:/temp/dataset/2/22_1.odb,Step-1,Increment      1: Step Time =    1.000,"PART-1-1",           427,       10.1355,      -22.4445,            0.,NA,NA,"",   49.9821E-06,   24.8856E-06,  -43.3465E-06,   11.5373E-06
C:/temp/dataset/2/22_1.odb,Step-1,Increment      1: Step Time =    1.000,"PART-1-1",           428,      -2.31424,      -24.9364,            0.,NA,NA,"",   621.025E-06,  -190.803E-06,   590.987E-06,   167.681E-06
C:/temp/dataset/2/22_1.odb,Step-1,Increment      1: Step Time =    1.000,"PART-1-1",           429,      -3.63092,      -26.1962,            0.,NA,NA,"",   667.910E-06,  -183.239E-06,   642.283E-06,   234.810E-06
C:/temp/dataset/2/22_1.odb,Step-1,Increment      1: Step Time =    1.000,"PART-1-1",           430,  -604.096E-03,      -26.1796,            0.,NA,NA,"",   338.734E-06,  -243.848E-06,   235.115E-06,   94.0778E-06
C:/temp/dataset/2/22_1.odb,Step-1,Increment      1: Step Time =    1.000,"PART-1-1",           431,      -7.52977,      -11.9021,            0.,NA,NA,"",   9.03527E-03,  -1.22597E-03,   8.95171E-03,   737.918E-06
C:/temp/dataset/2/22_1.odb,Step-1,Increment      1: Step Time =    1.000,"PART-1-1",           432,      -6.22373,      -12.8207,            0.,NA,NA,"",   9.23036E-03,  -1.12754E-03,   9.16123E-03,   865.441E-06
C:/temp/dataset/2/22_1.odb,Step-1,Increment      1: Step Time =    1.000,"PART-1-1",           433,           -5.,        -11.25,            0.,NA,NA,"",   11.6160E-03,  -2.65527E-03,   11.3084E-03,   1.01451E-03
C:/temp/dataset/2/22_1.odb,Step-1,Increment      1: Step Time =    1.000,"PART-1-1",           434,      -10.0475,      -12.6788,            0.,NA,NA,"",   6.78023E-03,  -77.9610E-06,   6.77978E-03,   482.420E-06
C:/temp/dataset/2/22_1.odb,Step-1,Increment      1: Step Time =    1.000,"PART-1-1",           435,           -5.,         -6.25,            0.,NA,NA,"",   18.0634E-03,  -7.40041E-03,   16.4779E-03,   1.37074E-03
C:/temp/dataset/2/22_1.odb,Step-1,Increment      1: Step Time =    1.000,"PART-1-1",           436,      -7.88282,      -7.02961,            0.,NA,NA,"",   12.8840E-03,  -5.40386E-03,   11.6959E-03,   568.033E-06
C:/temp/dataset/2/22_1.odb,Step-1,Increment      1: Step Time =    1.000,"PART-1-1",           437,      -13.8577,      -6.65334,            0.,NA,NA,"",   6.97911E-03,  -4.85762E-03,   5.01113E-03,   135.425E-06
C:/temp/dataset/2/22_1.odb,Step-1,Increment      1: Step Time =    1.000,"PART-1-1",           438,      -12.5267,      -5.32641,            0.,NA,NA,"",   9.38752E-03,  -6.53279E-03,   6.74152E-03,   231.775E-06
C:/temp/dataset/2/22_1.odb,Step-1,Increment      1: Step Time =    1.000,"PART-1-1",           439,          -15.,      -5.20833,            0.,NA,NA,"",   7.54002E-03,  -6.49691E-03,   3.82650E-03,   68.8201E-06
C:/temp/dataset/2/22_1.odb,Step-1,Increment      1: Step Time =    1.000,"PART-1-1",           440,          1.25,           -5.,            0.,NA,NA,"",   33.9059E-03,  -20.7645E-03,   26.8038E-03,   2.88893E-03
C:/temp/dataset/2/22_1.odb,Step-1,Increment      1: Step Time =    1.000,"PART-1-1",           441,       2.47079,      -3.83474,            0.,NA,NA,"",   35.2766E-03,  -22.4019E-03,   27.2506E-03,   2.41484E-03
C:/temp/dataset/2/22_1.odb,Step-1,Increment      1: Step Time =    1.000,"PART-1-1",           442,       3.51261,  -149.180E-03,            0.,NA,NA,"",   32.8238E-03,  -15.4980E-03,   28.9347E-03,   1.18365E-03
C:/temp/dataset/2/22_1.odb,Step-1,Increment      1: Step Time =    1.000,"PART-1-1",           443,       3.69085,      -2.58237,            0.,NA,NA,"",   34.3687E-03,  -21.9217E-03,   26.4697E-03,   1.70083E-03
C:/temp/dataset/2/22_1.odb,Step-1,Increment      1: Step Time =    1.000,"PART-1-1",           444,       8.74868,       5.55605,            0.,NA,NA,"",   14.5030E-03,   12.5239E-03,   7.31368E-03,   1.18788E-03
C:/temp/dataset/2/22_1.odb,Step-1,Increment      1: Step Time =    1.000,"PART-1-1",           445,       10.0030,       7.12352,            0.,NA,NA,"",   28.9166E-03,   28.3811E-03,  -5.53929E-03,   628.380E-06
C:/temp/dataset/2/22_1.odb,Step-1,Increment      1: Step Time =    1.000,"PART-1-1",           446,       8.73640,       8.21697,            0.,NA,NA,"",   42.3219E-03,   41.1725E-03,   9.79633E-03,   1.79210E-03
C:/temp/dataset/2/22_1.odb,Step-1,Increment      1: Step Time =    1.000,"PART-1-1",           447,           15.,     -625.E-03,            0.,NA,NA,"",   44.3086E-03,  -21.6093E-03,  -38.6819E-03,   1.21243E-03
C:/temp/dataset/2/22_1.odb,Step-1,Increment      1: Step Time =    1.000,"PART-1-1",           448,       13.7714,   731.820E-03,            0.,NA,NA,"",   36.4406E-03,  -15.4173E-03,  -33.0186E-03,   1.81354E-03
C:/temp/dataset/2/22_1.odb,Step-1,Increment      1: Step Time =    1.000,"PART-1-1",           449,       12.5339,  -774.506E-03,            0.,NA,NA,"",   32.6622E-03,  -23.2201E-03,  -22.9706E-03,   1.74703E-03
C:/temp/dataset/2/22_1.odb,Step-1,Increment      1: Step Time =    1.000,"PART-1-1",           450,       7.40609,       11.8257,            0.,NA,NA,"",   100.142E-03,   93.4637E-03,   35.9564E-03,   3.30319E-03
C:/temp/dataset/2/22_1.odb,Step-1,Increment      1: Step Time =    1.000,"PART-1-1",           451,       8.70206,       10.8725,            0.,NA,NA,"",   78.5846E-03,   77.2808E-03,   14.2557E-03,   1.94408E-03
C:/temp/dataset/2/22_1.odb,Step-1,Increment      1: Step Time =    1.000,"PART-1-1",           452,       11.2454,       8.75341,            0.,NA,NA,"",   52.2539E-03,   47.7221E-03,  -21.2855E-03,   970.082E-06
C:/temp/dataset/2/22_1.odb,Step-1,Increment      1: Step Time =    1.000,"PART-1-1",           453,       11.2622,       5.99112,            0.,NA,NA,"",   25.7765E-03,   17.7491E-03,  -18.6921E-03,   1.47920E-03
C:/temp/dataset/2/22_1.odb,Step-1,Increment      1: Step Time =    1.000,"PART-1-1",           454,       13.8596,       24.3693,            0.,NA,NA,"",   382.427E-03,   368.460E-03,  -102.408E-03,   1.74821E-03
C:/temp/dataset/2/22_1.odb,Step-1,Increment      1: Step Time =    1.000,"PART-1-1",           455,       12.6110,       23.1199,            0.,NA,NA,"",   341.190E-03,   334.132E-03,  -69.0390E-03,   2.13695E-03
C:/temp/dataset/2/22_1.odb,Step-1,Increment      1: Step Time =    1.000,"PART-1-1",           456,       13.7514,       21.4590,            0.,NA,NA,"",   305.774E-03,   291.153E-03,  -93.4233E-03,   2.74829E-03
C:/temp/dataset/2/22_1.odb,Step-1,Increment      1: Step Time =    1.000,"PART-1-1",           457,           15.,       22.7083,            0.,NA,NA,"",   349.130E-03,   324.664E-03,  -128.394E-03,   2.76320E-03
C:/temp/dataset/2/22_1.odb,Step-1,Increment      1: Step Time =    1.000,"PART-1-1",           458,       8.83903,       17.2613,            0.,NA,NA,"",   191.588E-03,   190.441E-03,   20.9325E-03,   1.37011E-03
C:/temp/dataset/2/22_1.odb,Step-1,Increment      1: Step Time =    1.000,"PART-1-1",           459,       10.5130,       17.3338,            0.,NA,NA,"",   192.266E-03,   191.772E-03,  -13.7750E-03,   492.292E-06
C:/temp/dataset/2/22_1.odb,Step-1,Increment      1: Step Time =    1.000,"PART-1-1",           460,       8.72284,       19.1442,            0.,NA,NA,"",   232.816E-03,   231.512E-03,   24.6075E-03,   1.18201E-03
C:/temp/dataset/2/22_1.odb,Step-1,Increment      1: Step Time =    1.000,"PART-1-1",           461,           15.,       28.5417,            0.,NA,NA,"",   500.932E-03,   481.866E-03,  -136.889E-03,   143.863E-06
C:/temp/dataset/2/22_1.odb,Step-1,Increment      1: Step Time =    1.000,"PART-1-1",           462,         13.75,           30.,            0.,NA,NA,"",   531.413E-03,   521.082E-03,  -104.280E-03,   124.745E-06
C:/temp/dataset/2/22_1.odb,Step-1,Increment      1: Step Time =    1.000,"PART-1-1",           463,       12.5875,       28.6551,            0.,NA,NA,"",   491.450E-03,   485.931E-03,  -73.4455E-03,   693.610E-06
C:/temp/dataset/2/22_1.odb,Step-1,Increment      1: Step Time =    1.000,"PART-1-1",           464,       13.8375,       27.1968,            0.,NA,NA,"",   458.147E-03,   445.899E-03,  -105.225E-03,   739.296E-06
C:/temp/dataset/2/22_1.odb,Step-1,Increment      1: Step Time =    1.000,"PART-1-1",           465,         11.25,           30.,            0.,NA,NA,"",   524.089E-03,   522.630E-03,  -39.0793E-03,   860.856E-06
C:/temp/dataset/2/22_1.odb,Step-1,Increment      1: Step Time =    1.000,"PART-1-1",           466,       10.1484,       28.7335,            0.,NA,NA,"",   490.467E-03,   490.348E-03,  -10.8372E-03,   1.42416E-03
C:/temp/dataset/2/22_1.odb,Step-1,Increment      1: Step Time =    1.000,"PART-1-1",           467,       7.69941,       28.7139,            0.,NA,NA,"",   496.767E-03,   493.934E-03,   52.9804E-03,   2.09392E-03
C:/temp/dataset/2/22_1.odb,Step-1,Increment      1: Step Time =    1.000,"PART-1-1",           468,       9.09777,       27.4473,            0.,NA,NA,"",   456.422E-03,   456.143E-03,   15.9642E-03,   1.85386E-03
C:/temp/dataset/2/22_1.odb,Step-1,Increment      1: Step Time =    1.000,"PART-1-1",           469,          8.75,           30.,            0.,NA,NA,"",   527.304E-03,   526.669E-03,   25.8790E-03,   2.02490E-03
C:/temp/dataset/2/22_1.odb,Step-1,Increment      1: Step Time =    1.000,"PART-1-1",           470,  -9.87333E-03,       28.6960,            0.,NA,NA,"",   584.535E-03,   511.511E-03,   282.909E-03,   1.80544E-03
C:/temp/dataset/2/22_1.odb,Step-1,Increment      1: Step Time =    1.000,"PART-1-1",           471,          1.25,           30.,            0.,NA,NA,"",   601.165E-03,   549.891E-03,   242.939E-03,   2.68656E-03
C:/temp/dataset/2/22_1.odb,Step-1,Increment      1: Step Time =    1.000,"PART-1-1",           472,       4.87954,       25.6434,            0.,NA,NA,"",   430.418E-03,   410.472E-03,   129.509E-03,   1.30626E-03
C:/temp/dataset/2/22_1.odb,Step-1,Increment      1: Step Time =    1.000,"PART-1-1",           473,      -5.00474,       28.7231,            0.,NA,NA,"",   687.998E-03,   520.251E-03,   450.201E-03,   739.830E-06
C:/temp/dataset/2/22_1.odb,Step-1,Increment      1: Step Time =    1.000,"PART-1-1",           474,         -6.25,           30.,            0.,NA,NA,"",   748.695E-03,   564.367E-03,   491.970E-03,   480.987E-06
C:/temp/dataset/2/22_1.odb,Step-1,Increment      1: Step Time =    1.000,"PART-1-1",           475,      -3.76303,       27.4393,            0.,NA,NA,"",   627.776E-03,   476.740E-03,   408.438E-03,   1.13652E-03
C:/temp/dataset/2/22_1.odb,Step-1,Increment      1: Step Time =    1.000,"PART-1-1",           476,      -3.77322,       24.9147,            0.,NA,NA,"",   569.547E-03,   395.234E-03,   410.091E-03,   1.30731E-03
C:/temp/dataset/2/22_1.odb,Step-1,Increment      1: Step Time =    1.000,"PART-1-1",           477,      -13.7476,       27.4926,            0.,NA,NA,"",   889.138E-03,   485.210E-03,   745.076E-03,   19.9949E-06
C:/temp/dataset/2/22_1.odb,Step-1,Increment      1: Step Time =    1.000,"PART-1-1",           478,        -13.75,           30.,            0.,NA,NA,"",   936.414E-03,   568.941E-03,   743.759E-03,   14.1263E-06
C:/temp/dataset/2/22_1.odb,Step-1,Increment      1: Step Time =    1.000,"PART-1-1",           479,          -15.,         28.75,            0.,NA,NA,"",   946.968E-03,   527.899E-03,   786.174E-03,   16.8045E-06
C:/temp/dataset/2/22_1.odb,Step-1,Increment      1: Step Time =    1.000,"PART-1-1",           480,          -15.,         26.25,            0.,NA,NA,"",   904.263E-03,   444.471E-03,   787.488E-03,   59.8701E-06
C:/temp/dataset/2/22_1.odb,Step-1,Increment      1: Step Time =    1.000,"PART-1-1",           481,      -12.4965,       26.2309,            0.,NA,NA,"",   831.554E-03,   442.431E-03,   704.086E-03,   47.5304E-06
C:/temp/dataset/2/22_1.odb,Step-1,Increment      1: Step Time =    1.000,"PART-1-1",           482,      -10.0014,       23.7134,            0.,NA,NA,"",   718.090E-03,   357.562E-03,   622.738E-03,   400.107E-06
C:/temp/dataset/2/22_1.odb,Step-1,Increment      1: Step Time =    1.000,"PART-1-1",           483,      -8.75535,       22.4567,            0.,NA,NA,"",   662.498E-03,   315.586E-03,   582.502E-03,   830.791E-06
C:/temp/dataset/2/22_1.odb,Step-1,Increment      1: Step Time =    1.000,"PART-1-1",           484,      -7.50515,       23.6891,            0.,NA,NA,"",   646.013E-03,   356.249E-03,   538.905E-03,   955.576E-06
C:/temp/dataset/2/22_1.odb,Step-1,Increment      1: Step Time =    1.000,"PART-1-1",           485,      -8.75118,       24.9458,            0.,NA,NA,"",   703.189E-03,   398.026E-03,   579.699E-03,   572.737E-06
C:/temp/dataset/2/22_1.odb,Step-1,Increment      1: Step Time =    1.000,"PART-1-1",           486,      -3.77419,       22.4219,            0.,NA,NA,"",   518.488E-03,   314.444E-03,   412.255E-03,   1.28675E-03
C:/temp/dataset/2/22_1.odb,Step-1,Increment      1: Step Time =    1.000,"PART-1-1",           487,      -5.00723,       21.2173,            0.,NA,NA,"",   532.459E-03,   274.550E-03,   456.218E-03,   1.18429E-03
C:/temp/dataset/2/22_1.odb,Step-1,Increment      1: Step Time =    1.000,"PART-1-1",           488,         -3.75,           20.,            0.,NA,NA,"",   475.024E-03,   233.303E-03,   413.785E-03,   1.20453E-03
C:/temp/dataset/2/22_1.odb,Step-1,Increment      1: Step Time =    1.000,"PART-1-1",           489,      -2.51696,       21.2046,            0.,NA,NA,"",   461.008E-03,   274.503E-03,   370.373E-03,   1.20457E-03
C:/temp/dataset/2/22_1.odb,Step-1,Increment      1: Step Time =    1.000,"PART-1-1",           490,         -8.75,           20.,            0.,NA,NA,"",   630.724E-03,   234.186E-03,   585.637E-03,   840.297E-06
C:/temp/dataset/2/22_1.odb,Step-1,Increment      1: Step Time =    1.000,"PART-1-1",           491,      -7.50331,       21.2223,            0.,NA,NA,"",   607.685E-03,   274.510E-03,   542.149E-03,   1.07786E-03
C:/temp/dataset/2/22_1.odb,Step-1,Increment      1: Step Time =    1.000,"PART-1-1",           492,         -6.25,           20.,            0.,NA,NA,"",   552.751E-03,   233.011E-03,   501.238E-03,   968.999E-06
C:/temp/dataset/2/22_1.odb,Step-1,Increment      1: Step Time =    1.000,"PART-1-1",           493,      -6.26054,       22.4396,            0.,NA,NA,"",   589.233E-03,   315.011E-03,   497.959E-03,   1.31598E-03
C:/temp/dataset/2/22_1.odb,Step-1,Increment      1: Step Time =    1.000,"PART-1-1",           494,         -1.25,           20.,            0.,NA,NA,"",   404.675E-03,   235.438E-03,   329.136E-03,   1.79395E-03
C:/temp/dataset/2/22_1.odb,Step-1,Increment      1: Step Time =    1.000,"PART-1-1",           495,      -1.30453,       22.3853,            0.,NA,NA,"",   453.924E-03,   313.594E-03,   328.186E-03,   1.35484E-03
C:/temp/dataset/2/22_1.odb,Step-1,Increment      1: Step Time =    1.000,"PART-1-1",           496,         -1.25,           30.,            0.,NA,NA,"",   643.965E-03,   556.493E-03,   324.047E-03,   1.92395E-03
C:/temp/dataset/2/22_1.odb,Step-1,Increment      1: Step Time =    1.000,"PART-1-1",           497,      -2.50829,       28.7162,            0.,NA,NA,"",   633.075E-03,   516.694E-03,   365.802E-03,   1.26031E-03
C:/temp/dataset/2/22_1.odb,Step-1,Increment      1: Step Time =    1.000,"PART-1-1",           498,         -3.75,           30.,            0.,NA,NA,"",   693.615E-03,   561.274E-03,   407.520E-03,   1.12390E-03
C:/temp/dataset/2/22_1.odb,Step-1,Increment      1: Step Time =    1.000,"PART-1-1",           499,          3.75,           20.,            0.,NA,NA,"",   294.266E-03,   244.386E-03,   163.914E-03,   5.00652E-03
C:/temp/dataset/2/22_1.odb,Step-1,Increment      1: Step Time =    1.000,"PART-1-1",           500,       4.75388,       21.0765,            0.,NA,NA,"",   306.906E-03,   278.953E-03,   127.971E-03,   4.65220E-03
C:/temp/dataset/2/22_1.odb,Step-1,Increment      1: Step Time =    1.000,"PART-1-1",           501,          6.25,           30.,            0.,NA,NA,"",   541.662E-03,   533.541E-03,   93.4445E-03,   2.90096E-03
C:/temp/dataset/2/22_1.odb,Step-1,Increment      1: Step Time =    1.000,"PART-1-1",           502,       6.61296,       27.1492,            0.,NA,NA,"",   458.787E-03,   451.478E-03,   81.5633E-03,   1.69535E-03
C:/temp/dataset/2/22_1.odb,Step-1,Increment      1: Step Time =    1.000,"PART-1-1",           503,            5.,         16.25,            0.,NA,NA,"",   200.865E-03,   176.918E-03,   95.1151E-03,   5.76459E-03
C:/temp/dataset/2/22_1.odb,Step-1,Increment      1: Step Time =    1.000,"PART-1-1",           504,       6.03202,       15.2452,            0.,NA,NA,"",   170.626E-03,   155.084E-03,   71.1497E-03,   4.68856E-03
C:/temp/dataset/2/22_1.odb,Step-1,Increment      1: Step Time =    1.000,"PART-1-1",           505,       6.91243,       16.6330,            0.,NA,NA,"",   189.269E-03,   179.788E-03,   59.1515E-03,   3.78499E-03
C:/temp/dataset/2/22_1.odb,Step-1,Increment      1: Step Time =    1.000,"PART-1-1",           506,            5.,         13.75,            0.,NA,NA,"",   154.739E-03,   130.508E-03,   83.1373E-03,   5.63450E-03
C:/temp/dataset/2/22_1.odb,Step-1,Increment      1: Step Time =    1.000,"PART-1-1",           507,       6.17466,       12.7979,            0.,NA,NA,"",   126.128E-03,   111.460E-03,   59.0344E-03,   4.50843E-03
C:/temp/dataset/2/22_1.odb,Step-1,Increment      1: Step Time =    1.000,"PART-1-1",           508,       12.0086,       16.5092,            0.,NA,NA,"",   180.502E-03,   175.228E-03,  -43.3139E-03,   1.71109E-03
C:/temp/dataset/2/22_1.odb,Step-1,Increment      1: Step Time =    1.000,"PART-1-1",           509,           15.,        16.875,            0.,NA,NA,"",   214.290E-03,   186.541E-03,  -105.463E-03,   4.70595E-03
C:/temp/dataset/2/22_1.odb,Step-1,Increment      1: Step Time =    1.000,"PART-1-1",           510,       13.3591,       18.2744,            0.,NA,NA,"",   227.148E-03,   214.212E-03,  -75.5615E-03,   2.99493E-03
C:/temp/dataset/2/22_1.odb,Step-1,Increment      1: Step Time =    1.000,"PART-1-1",           511,            5.,         11.25,            0.,NA,NA,"",   114.173E-03,   89.6755E-03,   70.6673E-03,   5.65263E-03
C:/temp/dataset/2/22_1.odb,Step-1,Increment      1: Step Time =    1.000,"PART-1-1",           512,       6.23142,       10.2778,            0.,NA,NA,"",   87.0505E-03,   72.3911E-03,   48.3457E-03,   4.47558E-03
C:/temp/dataset/2/22_1.odb,Step-1,Increment      1: Step Time =    1.000,"PART-1-1",           513,            5.,          8.75,            0.,NA,NA,"",   79.8332E-03,   54.2414E-03,   58.5766E-03,   5.81286E-03
C:/temp/dataset/2/22_1.odb,Step-1,Increment      1: Step Time =    1.000,"PART-1-1",           514,       7.47251,       9.25684,            0.,NA,NA,"",   62.3808E-03,   55.8068E-03,   27.8740E-03,   3.16329E-03
C:/temp/dataset/2/22_1.odb,Step-1,Increment      1: Step Time =    1.000,"PART-1-1",           515,         11.25,           -5.,            0.,NA,NA,"",   47.0341E-03,  -44.8464E-03,  -14.1780E-03,   884.307E-06
C:/temp/dataset/2/22_1.odb,Step-1,Increment      1: Step Time =    1.000,"PART-1-1",           516,       11.2689,      -2.22707,            0.,NA,NA,"",   32.7542E-03,  -29.7857E-03,  -13.6254E-03,   1.65621E-03
C:/temp/dataset/2/22_1.odb,Step-1,Increment      1: Step Time =    1.000,"PART-1-1",           517,          10.5,          -30.,            0.,NA,NA,"",            0.,  -5.75653E-42,  -8.20741E-42,   7.08399E-06
C:/temp/dataset/2/22_1.odb,Step-1,Increment      1: Step Time =    1.000,"PART-1-1",           518,           15.,        -23.75,            0.,NA,NA,"",   37.5744E-06,   18.2097E-06,  -32.8671E-06,   2.88135E-06
C:/temp/dataset/2/22_1.odb,Step-1,Increment      1: Step Time =    1.000,"PART-1-1",           519,          3.75,           -5.,            0.,NA,NA,"",   36.5307E-03,  -27.9691E-03,   23.4994E-03,   3.26947E-03
C:/temp/dataset/2/22_1.odb,Step-1,Increment      1: Step Time =    1.000,"PART-1-1",           520,       4.97006,      -3.74763,            0.,NA,NA,"",   35.0940E-03,  -27.6055E-03,   21.6685E-03,   2.51414E-03
C:/temp/dataset/2/22_1.odb,Step-1,Increment      1: Step Time =    1.000,"PART-1-1",           521,       4.85412,       3.76356,            0.,NA,NA,"",   32.3638E-03,  -2.14607E-03,   32.2926E-03,   4.25693E-03
C:/temp/dataset/2/22_1.odb,Step-1,Increment      1: Step Time =    1.000,"PART-1-1",           522,       3.33333,            5.,            0.,NA,NA,"",   29.1122E-03,  -3.33011E-03,   28.9211E-03,   4.47218E-03
C:/temp/dataset/2/22_1.odb,Step-1,Increment      1: Step Time =    1.000,"PART-1-1",           523,       1.45296,       3.58740,            0.,NA,NA,"",   31.3126E-03,  -8.83285E-03,   30.0410E-03,   2.18837E-03
C:/temp/dataset/2/22_1.odb,Step-1,Increment      1: Step Time =    1.000,"PART-1-1",           524,       2.97375,       2.35096,            0.,NA,NA,"",   32.3967E-03,  -8.42159E-03,   31.2829E-03,   1.80266E-03
C:/temp/dataset/2/22_1.odb,Step-1,Increment      1: Step Time =    1.000,"PART-1-1",           525,          6.25,           -5.,            0.,NA,NA,"",   38.5176E-03,  -35.4560E-03,   15.0493E-03,   3.01000E-03
C:/temp/dataset/2/22_1.odb,Step-1,Increment      1: Step Time =    1.000,"PART-1-1",           526,       12.4696,       10.4445,            0.,NA,NA,"",   81.5927E-03,   71.0037E-03,  -40.1977E-03,   2.09937E-03
C:/temp/dataset/2/22_1.odb,Step-1,Increment      1: Step Time =    1.000,"PART-1-1",           527,           15.,       11.0417,            0.,NA,NA,"",   114.770E-03,   83.3728E-03,  -78.8734E-03,   4.89899E-03
C:/temp/dataset/2/22_1.odb,Step-1,Increment      1: Step Time =    1.000,"PART-1-1",           528,      -5.01382,       23.6808,            0.,NA,NA,"",   576.456E-03,   355.652E-03,   453.667E-03,   1.27182E-03
C:/temp/dataset/2/22_1.odb,Step-1,Increment      1: Step Time =    1.000,"PART-1-1",           529,      -2.53358,       23.6558,            0.,NA,NA,"",   511.401E-03,   354.379E-03,   368.709E-03,   1.26363E-03
C:/temp/dataset/2/22_1.odb,Step-1,Increment      1: Step Time =    1.000,"PART-1-1",           530,  -74.6816E-03,       23.6075,            0.,NA,NA,"",   454.018E-03,   352.592E-03,   286.027E-03,   1.36706E-03
C:/temp/dataset/2/22_1.odb,Step-1,Increment      1: Step Time =    1.000,"PART-1-1",           531,      -6.62798,      -1.45964,            0.,NA,NA,"",   21.7361E-03,  -12.9343E-03,   17.4689E-03,   1.01512E-03
C:/temp/dataset/2/22_1.odb,Step-1,Increment      1: Step Time =    1.000,"PART-1-1",           532,      -4.43070,      -2.38075,            0.,NA,NA,"",   25.5986E-03,  -13.5106E-03,   21.7428E-03,   1.38516E-03
C:/temp/dataset/2/22_1.odb,Step-1,Increment      1: Step Time =    1.000,"PART-1-1",           533,      -3.64554,  -813.143E-03,            0.,NA,NA,"",   28.0150E-03,  -14.3055E-03,   24.0872E-03,   1.30622E-03
C:/temp/dataset/2/22_1.odb,Step-1,Increment      1: Step Time =    1.000,"PART-1-1",           534,         -3.75,           -5.,            0.,NA,NA,"",   24.5752E-03,  -10.9334E-03,   22.0091E-03,   1.38447E-03
C:/temp/dataset/2/22_1.odb,Step-1,Increment      1: Step Time =    1.000,"PART-1-1",           535,      -13.8599,      -9.43096,            0.,NA,NA,"",   5.11097E-03,  -2.01545E-03,   4.69681E-03,   117.863E-06
C:/temp/dataset/2/22_1.odb,Step-1,Increment      1: Step Time =    1.000,"PART-1-1",           536,          -15.,      -11.0417,            0.,NA,NA,"",   3.71737E-03,  -647.441E-06,   3.66055E-03,   13.9596E-06
C:/temp/dataset/2/22_1.odb,Step-1,Increment      1: Step Time =    1.000,"PART-1-1",           537,      -11.9984,      -19.8095,            0.,NA,NA,"",   4.12326E-03,   2.20086E-03,   3.48677E-03,   363.497E-06
C:/temp/dataset/2/22_1.odb,Step-1,Increment      1: Step Time =    1.000,"PART-1-1",           538,      -13.3881,      -18.2324,            0.,NA,NA,"",   4.32554E-03,   2.31284E-03,   3.65528E-03,   229.709E-06
C:/temp/dataset/2/22_1.odb,Step-1,Increment      1: Step Time =    1.000,"PART-1-1",           539,          -15.,      -19.7917,            0.,NA,NA,"",   4.09436E-03,   2.52631E-03,   3.22204E-03,   155.378E-06
C:/temp/dataset/2/22_1.odb,Step-1,Increment      1: Step Time =    1.000,"PART-1-1",           540,           -5.,        -18.75,            0.,NA,NA,"",   4.67518E-03,   626.972E-06,   4.63295E-03,   1.12408E-03
C:/temp/dataset/2/22_1.odb,Step-1,Increment      1: Step Time =    1.000,"PART-1-1",           541,      -5.96138,      -20.0094,            0.,NA,NA,"",   3.97335E-03,   1.14832E-03,   3.80379E-03,   776.941E-06
C:/temp/dataset/2/22_1.odb,Step-1,Increment      1: Step Time =    1.000,"PART-1-1",           542,           -5.,        -13.75,            0.,NA,NA,"",   9.14477E-03,  -1.12536E-03,   9.07526E-03,   969.293E-06
C:/temp/dataset/2/22_1.odb,Step-1,Increment      1: Step Time =    1.000,"PART-1-1",           543,      -7.28958,      -14.3036,            0.,NA,NA,"",   7.48174E-03,   22.3478E-06,   7.48170E-03,   754.836E-06
C:/temp/dataset/2/22_1.odb,Step-1,Increment      1: Step Time =    1.000,"PART-1-1",           544,      -8.88285,      -11.0213,            0.,NA,NA,"",   8.55178E-03,  -1.44175E-03,   8.42937E-03,   597.997E-06
C:/temp/dataset/2/22_1.odb,Step-1,Increment      1: Step Time =    1.000,"PART-1-1",           545,      -9.01222,      -8.51542,            0.,NA,NA,"",   10.2177E-03,  -3.53328E-03,   9.58735E-03,   559.732E-06
C:/temp/dataset/2/22_1.odb,Step-1,Increment      1: Step Time =    1.000,"PART-1-1",           546,      -9.13424,  -715.290E-03,            0.,NA,NA,"",   18.3110E-03,  -12.8641E-03,   13.0311E-03,   567.286E-06
C:/temp/dataset/2/22_1.odb,Step-1,Increment      1: Step Time =    1.000,"PART-1-1",           547,      -9.92186,      -2.42350,            0.,NA,NA,"",   15.3925E-03,  -10.6602E-03,   11.1035E-03,   487.191E-06
C:/temp/dataset/2/22_1.odb,Step-1,Increment      1: Step Time =    1.000,"PART-1-1",           548,      -12.7176,      -7.95930,            0.,NA,NA,"",   6.96435E-03,  -3.52701E-03,   6.00520E-03,   218.019E-06
C:/temp/dataset/2/22_1.odb,Step-1,Increment      1: Step Time =    1.000,"PART-1-1",           549,          -15.,        -8.125,            0.,NA,NA,"",   4.91196E-03,  -3.23360E-03,   3.69746E-03,   30.0093E-06
C:/temp/dataset/2/22_1.odb,Step-1,Increment      1: Step Time =    1.000,"PART-1-1",           550,       11.2818,   528.104E-03,            0.,NA,NA,"",   22.4587E-03,  -17.3929E-03,  -14.2084E-03,   2.18257E-03
C:/temp/dataset/2/22_1.odb,Step-1,Increment      1: Step Time =    1.000,"PART-1-1",           551,       10.0167,  -924.457E-03,            0.,NA,NA,"",   23.9092E-03,  -23.4983E-03,  -4.41322E-03,   2.13277E-03
C:/temp/dataset/2/22_1.odb,Step-1,Increment      1: Step Time =    1.000,"PART-1-1",           552,       10.4320,       23.7699,            0.,NA,NA,"",   352.093E-03,   351.690E-03,  -16.8392E-03,   2.25005E-03
C:/temp/dataset/2/22_1.odb,Step-1,Increment      1: Step Time =    1.000,"PART-1-1",           553,           15.,        25.625,            0.,NA,NA,"",   424.847E-03,   402.962E-03,  -134.600E-03,   1.18248E-03
C:/temp/dataset/2/22_1.odb,Step-1,Increment      1: Step Time =    1.000,"PART-1-1",           554,      -9.99539,       26.2124,            0.,NA,NA,"",   760.988E-03,   440.541E-03,   620.505E-03,   247.956E-06
C:/temp/dataset/2/22_1.odb,Step-1,Increment      1: Step Time =    1.000,"PART-1-1",           555,          -15.,       -25.625,            0.,NA,NA,"",   2.59896E-03,   1.75313E-03,   1.91862E-03,   363.958E-06
C:/temp/dataset/2/22_1.odb,Step-1,Increment      1: Step Time =    1.000,"PART-1-1",           556,      -12.2044,      -25.8339,            0.,NA,NA,"",   1.86695E-03,   1.20353E-03,   1.42725E-03,   436.281E-06
C:/temp/dataset/2/22_1.odb,Step-1,Increment      1: Step Time =    1.000,"PART-1-1",           557,          -15.,       -16.875,            0.,NA,NA,"",   4.13291E-03,   2.19663E-03,   3.50083E-03,   74.6441E-06
C:/temp/dataset/2/22_1.odb,Step-1,Increment      1: Step Time =    1.000,"PART-1-1",           558,      -8.25880,      -15.9015,            0.,NA,NA,"",   6.13679E-03,   950.977E-06,   6.06266E-03,   642.704E-06
C:/temp/dataset/2/22_1.odb,Step-1,Increment      1: Step Time =    1.000,"PART-1-1",           559,       7.56555,       17.9230,            0.,NA,NA,"",   210.867E-03,   205.077E-03,   49.0740E-03,   2.87979E-03
C:/temp/dataset/2/22_1.odb,Step-1,Increment      1: Step Time =    1.000,"PART-1-1",           560,      -9.72707,       2.21069,            0.,NA,NA,"",   20.4644E-03,  -16.2240E-03,   12.4728E-03,   344.905E-06
C:/temp/dataset/2/22_1.odb,Step-1,Increment      1: Step Time =    1.000,"PART-1-1",           561,      -8.18006,       3.69884,            0.,NA,NA,"",   23.5592E-03,  -18.0006E-03,   15.1992E-03,   331.676E-06
C:/temp/dataset/2/22_1.odb,Step-1,Increment      1: Step Time =    1.000,"PART-1-1",           562,          -10.,            5.,            0.,NA,NA,"",   23.5671E-03,  -20.3260E-03,   11.9273E-03,   128.408E-06
C:/temp/dataset/2/22_1.odb,Step-1,Increment      1: Step Time =    1.000,"PART-1-1",           563,      -10.3433,      -7.69771,            0.,NA,NA,"",   9.46016E-03,  -4.11327E-03,   8.51914E-03,   405.897E-06
C:/temp/dataset/2/22_1.odb,Step-1,Increment      1: Step Time =    1.000,"PART-1-1",           564,      -11.5611,      -6.59494,            0.,NA,NA,"",   9.13658E-03,  -5.14790E-03,   7.54826E-03,   311.155E-06
C:/temp/dataset/2/22_1.odb,Step-1,Increment      1: Step Time =    1.000,"PART-1-1",           565,      -9.40089,      -20.7816,            0.,NA,NA,"",   3.84798E-03,   1.68095E-03,   3.46141E-03,   502.394E-06
C:/temp/dataset/2/22_1.odb,Step-1,Increment      1: Step Time =    1.000,"PART-1-1",           566,      -8.21757,      -22.2064,            0.,NA,NA,"",   3.10582E-03,   1.17865E-03,   2.87348E-03,   548.102E-06
C:/temp/dataset/2/22_1.odb,Step-1,Increment      1: Step Time =    1.000,"PART-1-1",           567,      -6.89894,      -21.2078,            0.,NA,NA,"",   3.46681E-03,   1.06807E-03,   3.29818E-03,   620.336E-06
C:/temp/dataset/2/22_1.odb,Step-1,Increment      1: Step Time =    1.000,"PART-1-1",           568,      -9.14285,      -28.6800,            0.,NA,NA,"",   391.474E-06,   163.498E-06,   355.697E-06,   351.487E-06
C:/temp/dataset/2/22_1.odb,Step-1,Increment      1: Step Time =    1.000,"PART-1-1",           569,      -10.7232,      -27.3047,            0.,NA,NA,"",   1.01626E-03,   598.556E-06,   821.285E-06,   427.715E-06
C:/temp/dataset/2/22_1.odb,Step-1,Increment      1: Step Time =    1.000,"PART-1-1",           570,         -10.5,          -30.,            0.,NA,NA,"",            0.,   134.939E-42,   763.084E-42,   338.389E-06
C:/temp/dataset/2/22_1.odb,Step-1,Increment      1: Step Time =    1.000,"PART-1-1",           571,      -4.89633,      -27.4366,            0.,NA,NA,"",   534.017E-06,  -109.973E-06,   522.571E-06,   264.986E-06
C:/temp/dataset/2/22_1.odb,Step-1,Increment      1: Step Time =    1.000,"PART-1-1",           572,      -6.18287,      -28.7136,            0.,NA,NA,"",   286.164E-06,  -33.0843E-06,   284.245E-06,   288.107E-06
C:/temp/dataset/2/22_1.odb,Step-1,Increment      1: Step Time =    1.000,"PART-1-1",           573,          -4.5,          -30.,            0.,NA,NA,"",            0.,  -94.1084E-42,   481.930E-42,   220.303E-06
C:/temp/dataset/2/22_1.odb,Step-1,Increment      1: Step Time =    1.000,"PART-1-1",           574,       12.5384,       2.02620,            0.,NA,NA,"",   27.1978E-03,  -9.41314E-03,  -25.5169E-03,   2.20115E-03
C:/temp/dataset/2/22_1.odb,Step-1,Increment      1: Step Time =    1.000,"PART-1-1",           575,           15.,       2.29167,            0.,NA,NA,"",   44.3187E-03,  -5.57907E-03,  -43.9661E-03,   2.82654E-03
C:/temp/dataset/2/22_1.odb,Step-1,Increment      1: Step Time =    1.000,"PART-1-1",           576,       9.96595,       9.83263,            0.,NA,NA,"",   61.9046E-03,   61.7267E-03,  -4.69056E-03,   525.801E-06
C:/temp/dataset/2/22_1.odb,Step-1,Increment      1: Step Time =    1.000,"PART-1-1",           577,           15.,       19.7917,            0.,NA,NA,"",   277.827E-03,   251.480E-03,  -118.091E-03,   4.06567E-03
C:/temp/dataset/2/22_1.odb,Step-1,Increment      1: Step Time =    1.000,"PART-1-1",           578,       7.90800,       20.1372,            0.,NA,NA,"",   258.733E-03,   254.990E-03,   43.8551E-03,   1.70733E-03
C:/temp/dataset/2/22_1.odb,Step-1,Increment      1: Step Time =    1.000,"PART-1-1",           579,       8.41916,       21.3934,            0.,NA,NA,"",   288.976E-03,   287.181E-03,   32.1614E-03,   1.87531E-03
C:/temp/dataset/2/22_1.odb,Step-1,Increment      1: Step Time =    1.000,"PART-1-1",           580,       6.50486,       21.1025,            0.,NA,NA,"",   290.109E-03,   279.149E-03,   78.9896E-03,   2.51112E-03
C:/temp/dataset/2/22_1.odb,Step-1,Increment      1: Step Time =    1.000,"PART-1-1",           581,           4.5,          -30.,            0.,NA,NA,"",            0.,  -45.5016E-42,   31.3779E-42,   44.4861E-06
C:/temp/dataset/2/22_1.odb,Step-1,Increment      1: Step Time =    1.000,"PART-1-1",           582,       3.62857,      -22.4261,            0.,NA,NA,"",   66.4429E-06,   58.3190E-06,  -31.8363E-06,   31.8648E-06
C:/temp/dataset/2/22_1.odb,Step-1,Increment      1: Step Time =    1.000,"PART-1-1",           583,       2.16864,      -23.6665,            0.,NA,NA,"",   46.2009E-06,  -39.1336E-06,   24.5578E-06,   23.9154E-06
C:/temp/dataset/2/22_1.odb,Step-1,Increment      1: Step Time =    1.000,"PART-1-1",           584,      -2.73954,      -22.4743,            0.,NA,NA,"",   1.01390E-03,   55.0733E-06,   1.01241E-03,   182.286E-06
C:/temp/dataset/2/22_1.odb,Step-1,Increment      1: Step Time =    1.000,"PART-1-1",           585,  -999.676E-03,      -23.6839,            0.,NA,NA,"",   398.595E-06,  -93.8961E-06,   387.378E-06,   76.7629E-06
C:/temp/dataset/2/22_1.odb,Step-1,Increment      1: Step Time =    1.000,"PART-1-1",           586,      -7.82572,      -27.3936,            0.,NA,NA,"",   748.408E-06,   198.072E-06,   721.721E-06,   364.376E-06
C:/temp/dataset/2/22_1.odb,Step-1,Increment      1: Step Time =    1.000,"PART-1-1",           587,      -6.52069,      -26.1528,            0.,NA,NA,"",   1.05762E-03,   146.734E-06,   1.04739E-03,   384.358E-06
C:/temp/dataset/2/22_1.odb,Step-1,Increment      1: Step Time =    1.000,"PART-1-1",           588,      -8.08310,      -24.7829,            0.,NA,NA,"",   1.81819E-03,   634.449E-06,   1.70390E-03,   461.649E-06
C:/temp/dataset/2/22_1.odb,Step-1,Increment      1: Step Time =    1.000,"PART-1-1",           589,      -9.38814,      -26.0237,            0.,NA,NA,"",   1.42722E-03,   664.460E-06,   1.26311E-03,   448.254E-06
C:/temp/dataset/2/22_1.odb,Step-1,Increment      1: Step Time =    1.000,"PART-1-1",           590,          -7.5,          -30.,            0.,NA,NA,"",            0.,   5.51551E-42,   653.784E-42,   285.826E-06
C:/temp/dataset/2/22_1.odb,Step-1,Increment      1: Step Time =    1.000,"PART-1-1",           591,       7.73182,       24.8866,            0.,NA,NA,"",   388.120E-03,   384.812E-03,   50.5634E-03,   1.98135E-03
C:/temp/dataset/2/22_1.odb,Step-1,Increment      1: Step Time =    1.000,"PART-1-1",           592,       8.21760,       26.2797,            0.,NA,NA,"",   425.902E-03,   424.163E-03,   38.4545E-03,   1.99685E-03
C:/temp/dataset/2/22_1.odb,Step-1,Increment      1: Step Time =    1.000,"PART-1-1",           593,       6.12718,       25.7561,            0.,NA,NA,"",   422.556E-03,   411.934E-03,   94.1494E-03,   1.62552E-03
C:/temp/dataset/2/22_1.odb,Step-1,Increment      1: Step Time =    1.000,"PART-1-1",           594,       5.38844,       22.1508,            0.,NA,NA,"",   328.328E-03,   308.916E-03,   111.221E-03,   2.34598E-03
C:/temp/dataset/2/22_1.odb,Step-1,Increment      1: Step Time =    1.000,"PART-1-1",           595,      -3.37677,   775.412E-03,            0.,NA,NA,"",   28.6393E-03,  -14.3602E-03,   24.7789E-03,   1.25084E-03
C:/temp/dataset/2/22_1.odb,Step-1,Increment      1: Step Time =    1.000,"PART-1-1",           596,      -3.41233,       2.84116,            0.,NA,NA,"",   28.5120E-03,  -14.9111E-03,   24.3020E-03,   1.12005E-03
C:/temp/dataset/2/22_1.odb,Step-1,Increment      1: Step Time =    1.000,"PART-1-1",           597,      -11.2482,       24.9673,            0.,NA,NA,"",   774.428E-03,   399.730E-03,   663.290E-03,   192.755E-06
C:/temp/dataset/2/22_1.odb,Step-1,Increment      1: Step Time =    1.000,"PART-1-1",           598,       5.16292,       24.1270,            0.,NA,NA,"",   385.159E-03,   365.924E-03,   120.196E-03,   1.48463E-03
C:/temp/dataset/2/22_1.odb,Step-1,Increment      1: Step Time =    1.000,"PART-1-1",           599,            0.,            5.,            0.,NA,NA,"",   29.8171E-03,  -12.1203E-03,   27.2426E-03,   2.19126E-03
C:/temp/dataset/2/22_1.odb,Step-1,Increment      1: Step Time =    1.000,"PART-1-1",           600,      -1.80204,       3.95011,            0.,NA,NA,"",   29.7219E-03,  -14.0451E-03,   26.1941E-03,   1.46469E-03
C:/temp/dataset/2/22_1.odb,Step-1,Increment      1: Step Time =    1.000,"PART-1-1",           601,       9.59799,       22.9228,            0.,NA,NA,"",   328.474E-03,   328.453E-03,   3.71390E-03,   2.23811E-03
C:/temp/dataset/2/22_1.odb,Step-1,Increment      1: Step Time =    1.000,"PART-1-1",           602,       8.30932,       22.9391,            0.,NA,NA,"",   331.059E-03,   329.191E-03,   35.1171E-03,   2.25131E-03
C:/temp/dataset/2/22_1.odb,Step-1,Increment      1: Step Time =    1.000,"PART-1-1",           603,      -1.93269,      -1.01257,            0.,NA,NA,"",   30.9715E-03,  -14.7320E-03,   27.2434E-03,   1.29541E-03
C:/temp/dataset/2/22_1.odb,Step-1,Increment      1: Step Time =    1.000,"PART-1-1",           604,      -8.69440,      -13.5596,            0.,NA,NA,"",   7.18178E-03,   84.5739E-06,   7.18129E-03,   620.635E-06
C:/temp/dataset/2/22_1.odb,Step-1,Increment      1: Step Time =    1.000,"PART-1-1",           605,       6.07991,       2.65614,            0.,NA,NA,"",   26.0755E-03,  -7.31813E-03,   25.0275E-03,   2.08567E-03
C:/temp/dataset/2/22_1.odb,Step-1,Increment      1: Step Time =    1.000,"PART-1-1",           606,       4.75906,       1.28045,            0.,NA,NA,"",   29.9716E-03,  -11.7661E-03,   27.5655E-03,   1.60817E-03
C:/temp/dataset/2/22_1.odb,Step-1,Increment      1: Step Time =    1.000,"PART-1-1",           607,       10.0234,       4.43547,            0.,NA,NA,"",   6.59547E-03,   4.10432E-03,  -5.16283E-03,   1.66429E-03
C:/temp/dataset/2/22_1.odb,Step-1,Increment      1: Step Time =    1.000,"PART-1-1",           608,       7.46673,       4.06304,            0.,NA,NA,"",   17.7803E-03,  -95.7231E-06,   17.7800E-03,   2.08258E-03
C:/temp/dataset/2/22_1.odb,Step-1,Increment      1: Step Time =    1.000,"PART-1-1",           609,  -317.165E-03,  -486.862E-03,            0.,NA,NA,"",   32.8077E-03,  -14.7525E-03,   29.3037E-03,   1.30482E-03
C:/temp/dataset/2/22_1.odb,Step-1,Increment      1: Step Time =    1.000,"PART-1-1",           610,       1.72730,   921.331E-03,            0.,NA,NA,"",   33.2083E-03,  -12.4733E-03,   30.7767E-03,   1.58642E-03
C:/temp/dataset/2/22_1.odb,Step-1,Increment      1: Step Time =    1.000,"PART-1-1",           611,      -4.63664,      -21.2535,            0.,NA,NA,"",   2.38621E-03,   395.649E-06,   2.35318E-03,   550.208E-06
C:/temp/dataset/2/22_1.odb,Step-1,Increment      1: Step Time =    1.000,"PART-1-1",           612,       11.2827,       3.26092,            0.,NA,NA,"",   16.3679E-03,  -3.05088E-03,  -16.0811E-03,   2.12335E-03
C:/temp/dataset/2/22_1.odb,Step-1,Increment      1: Step Time =    1.000,"PART-1-1",           613,      -11.4502,      -4.36864,            0.,NA,NA,"",   11.4373E-03,  -7.86662E-03,   8.30234E-03,   322.790E-06
C:/temp/dataset/2/22_1.odb,Step-1,Increment      1: Step Time =    1.000,"PART-1-1",           614,      -10.8693,      -24.5529,            0.,NA,NA,"",   2.25654E-03,   1.26905E-03,   1.86588E-03,   458.755E-06
C:/temp/dataset/2/22_1.odb,Step-1,Increment      1: Step Time =    1.000,"PART-1-1",           615,      -9.52531,      -23.3517,            0.,NA,NA,"",   2.66748E-03,   1.24715E-03,   2.35798E-03,   501.395E-06
C:/temp/dataset/2/22_1.odb,Step-1,Increment      1: Step Time =    1.000,"PART-1-1",           616,      -10.8903,      -21.7518,            0.,NA,NA,"",   3.46536E-03,   1.82993E-03,   2.94280E-03,   440.534E-06
C:/temp/dataset/2/22_1.odb,Step-1,Increment      1: Step Time =    1.000,"PART-1-1",           617,       3.33333,          -20.,            0.,NA,NA,"",   217.172E-06,   216.774E-06,   13.1430E-06,   67.7811E-06
C:/temp/dataset/2/22_1.odb,Step-1,Increment      1: Step Time =    1.000,"PART-1-1",           618,       1.83446,      -21.2108,            0.,NA,NA,"",   219.149E-06,   209.753E-06,   63.4818E-06,   56.8633E-06
C:/temp/dataset/2/22_1.odb,Step-1,Increment      1: Step Time =    1.000,"PART-1-1",           619,       5.12744,      -21.2153,            0.,NA,NA,"",   110.478E-06,   99.3319E-06,  -48.3588E-06,   29.7828E-06
C:/temp/dataset/2/22_1.odb,Step-1,Increment      1: Step Time =    1.000,"PART-1-1",           620,            0.,          -20.,            0.,NA,NA,"",   597.518E-06,   512.850E-06,   306.615E-06,   108.737E-06
C:/temp/dataset/2/22_1.odb,Step-1,Increment      1: Step Time =    1.000,"PART-1-1",           621,      -1.43624,      -21.2208,            0.,NA,NA,"",   695.647E-06,   349.359E-06,   601.559E-06,   109.797E-06
C:/temp/dataset/2/22_1.odb,Step-1,Increment      1: Step Time =    1.000,"PART-1-1",           622,   398.228E-03,      -22.4316,            0.,NA,NA,"",   210.625E-06,   82.1830E-06,   193.931E-06,   24.0451E-06
C:/temp/dataset/2/22_1.odb,Step-1,Increment      1: Step Time =    1.000,"PART-1-1",           623,   770.736E-03,      -24.9188,            0.,NA,NA,"",   204.314E-06,  -161.577E-06,   125.048E-06,   53.4936E-06
C:/temp/dataset/2/22_1.odb,Step-1,Increment      1: Step Time =    1.000,"PART-1-1",           624,      -3.33333,          -20.,            0.,NA,NA,"",   1.63026E-03,   930.587E-06,   1.33856E-03,   189.068E-06
C:/temp/dataset/2/22_1.odb,Step-1,Increment      1: Step Time =    1.000,"PART-1-1",           625,       8.69606,       24.2205,            0.,NA,NA,"",   365.909E-03,   365.001E-03,   25.7673E-03,   2.18461E-03
C:/temp/dataset/2/22_1.odb,Step-1,Increment      1: Step Time =    1.000,"PART-1-1",           626,      -3.33333,            5.,            0.,NA,NA,"",   28.8922E-03,  -16.9120E-03,   23.4252E-03,   1.26641E-03
C:/temp/dataset/2/22_1.odb,Step-1,Increment      1: Step Time =    1.000,"PART-1-1",           627,      -4.94363,       3.89105,            0.,NA,NA,"",   27.1215E-03,  -16.8797E-03,   21.2285E-03,   810.350E-06
C:/temp/dataset/2/22_1.odb,Step-1,Increment      1: Step Time =    1.000,"PART-1-1",           628,      -6.66667,            5.,            0.,NA,NA,"",   26.4121E-03,  -19.5600E-03,   17.7483E-03,   557.946E-06
C:/temp/dataset/2/22_1.odb,Step-1,Increment      1: Step Time =    1.000,"PART-1-1",           629,           10.,          -20.,            0.,NA,NA,"",   54.3075E-06,   37.0853E-06,  -39.6735E-06,   8.79597E-06
C:/temp/dataset/2/22_1.odb,Step-1,Increment      1: Step Time =    1.000,"PART-1-1",           630,       8.42239,      -21.2201,            0.,NA,NA,"",   69.3059E-06,   46.8802E-06,  -51.0446E-06,   13.1843E-06
C:/temp/dataset/2/22_1.odb,Step-1,Increment      1: Step Time =    1.000,"PART-1-1",           631,       6.66667,          -20.,            0.,NA,NA,"",   95.9829E-06,   85.1126E-06,  -44.3684E-06,   28.0086E-06
C:/temp/dataset/2/22_1.odb,Step-1,Increment      1: Step Time =    1.000,"PART-1-1",           632,       9.53008,       25.0675,            0.,NA,NA,"",   388.462E-03,   388.431E-03,   4.93314E-03,   2.18494E-03
