ODB Name,Step,Frame,Part Instance Name,    êﬂì_ÉâÉxÉã,X,Y,Z,Section Name,Material Name,Section Point,   U-Magnitude,          U-U1,          U-U2,       S-Mises
C:/temp/dataset/2/23_5.odb,Step-1,Increment      1: Step Time =    1.000,"PART-1-1",             1,          -15.,           20.,            0.,NA,NA,"",       2.54271,   77.4952E-03,       2.54152,   13.2048E-06
C:/temp/dataset/2/23_5.odb,Step-1,Increment      1: Step Time =    1.000,"PART-1-1",             2,          -15.,           25.,            0.,NA,NA,"",       2.57108,   483.137E-03,       2.52528,   100.542E-06
C:/temp/dataset/2/23_5.odb,Step-1,Increment      1: Step Time =    1.000,"PART-1-1",             3,          -10.,           20.,            0.,NA,NA,"",       2.13669,   61.4100E-03,       2.13581,   287.406E-06
C:/temp/dataset/2/23_5.odb,Step-1,Increment      1: Step Time =    1.000,"PART-1-1",             4,           -5.,           20.,            0.,NA,NA,"",       1.73860,   48.9734E-03,       1.73791,   2.64855E-03
C:/temp/dataset/2/23_5.odb,Step-1,Increment      1: Step Time =    1.000,"PART-1-1",             5,            0.,           20.,            0.,NA,NA,"",       1.31877,   33.7715E-03,       1.31834,   4.04476E-03
C:/temp/dataset/2/23_5.odb,Step-1,Increment      1: Step Time =    1.000,"PART-1-1",             6,            5.,           20.,            0.,NA,NA,"",   852.768E-03,   55.8170E-03,   850.939E-03,   30.9380E-03
C:/temp/dataset/2/23_5.odb,Step-1,Increment      1: Step Time =    1.000,"PART-1-1",             7,            5.,          12.5,            0.,NA,NA,"",   737.351E-03,  -239.492E-03,   697.374E-03,   21.6769E-03
C:/temp/dataset/2/23_5.odb,Step-1,Increment      1: Step Time =    1.000,"PART-1-1",             8,            5.,            5.,            0.,NA,NA,"",   668.092E-03,  -401.242E-03,   534.183E-03,   30.7192E-03
C:/temp/dataset/2/23_5.odb,Step-1,Increment      1: Step Time =    1.000,"PART-1-1",             9,           -5.,            5.,            0.,NA,NA,"",   493.393E-03,  -454.564E-03,   191.855E-03,   765.280E-06
C:/temp/dataset/2/23_5.odb,Step-1,Increment      1: Step Time =    1.000,"PART-1-1",            10,          -15.,            5.,            0.,NA,NA,"",   449.441E-03,  -441.268E-03,  -85.3195E-03,   134.960E-06
C:/temp/dataset/2/23_5.odb,Step-1,Increment      1: Step Time =    1.000,"PART-1-1",            11,          -15.,         -3.75,            0.,NA,NA,"",   219.842E-03,  -208.122E-03,  -70.8210E-03,   3.84166E-03
C:/temp/dataset/2/23_5.odb,Step-1,Increment      1: Step Time =    1.000,"PART-1-1",            12,          -15.,         -12.5,            0.,NA,NA,"",   58.0720E-03,  -48.7673E-03,  -31.5296E-03,   4.71437E-03
C:/temp/dataset/2/23_5.odb,Step-1,Increment      1: Step Time =    1.000,"PART-1-1",            13,          -15.,        -21.25,            0.,NA,NA,"",   8.15552E-03,   7.98354E-03,  -1.66600E-03,   2.29352E-03
C:/temp/dataset/2/23_5.odb,Step-1,Increment      1: Step Time =    1.000,"PART-1-1",            14,          -15.,          -30.,            0.,NA,NA,"",            0.,   1.12877E-39,   1.71918E-39,   2.84397E-03
C:/temp/dataset/2/23_5.odb,Step-1,Increment      1: Step Time =    1.000,"PART-1-1",            15,           15.,          -30.,            0.,NA,NA,"",            0.,  -40.1696E-42,   61.9206E-42,   105.508E-06
C:/temp/dataset/2/23_5.odb,Step-1,Increment      1: Step Time =    1.000,"PART-1-1",            16,           15.,          -25.,            0.,NA,NA,"",   492.790E-06,  -490.811E-06,   44.1258E-06,   29.3478E-06
C:/temp/dataset/2/23_5.odb,Step-1,Increment      1: Step Time =    1.000,"PART-1-1",            17,           15.,          -20.,            0.,NA,NA,"",   670.739E-06,  -670.570E-06,  -15.0579E-06,   4.69917E-06
C:/temp/dataset/2/23_5.odb,Step-1,Increment      1: Step Time =    1.000,"PART-1-1",            18,            5.,          -20.,            0.,NA,NA,"",   103.640E-06,   40.4887E-06,  -95.4037E-06,   255.894E-06
C:/temp/dataset/2/23_5.odb,Step-1,Increment      1: Step Time =    1.000,"PART-1-1",            19,           -5.,          -20.,            0.,NA,NA,"",   27.5650E-03,   2.07086E-03,   27.4871E-03,   9.20386E-03
C:/temp/dataset/2/23_5.odb,Step-1,Increment      1: Step Time =    1.000,"PART-1-1",            20,           -5.,         -12.5,            0.,NA,NA,"",   111.301E-03,  -60.5111E-03,   93.4147E-03,   9.53935E-03
C:/temp/dataset/2/23_5.odb,Step-1,Increment      1: Step Time =    1.000,"PART-1-1",            21,           -5.,           -5.,            0.,NA,NA,"",   246.474E-03,  -178.428E-03,   170.038E-03,   13.2066E-03
C:/temp/dataset/2/23_5.odb,Step-1,Increment      1: Step Time =    1.000,"PART-1-1",            22,            0.,           -5.,            0.,NA,NA,"",   401.088E-03,  -190.958E-03,   352.713E-03,   6.91106E-03
C:/temp/dataset/2/23_5.odb,Step-1,Increment      1: Step Time =    1.000,"PART-1-1",            23,            5.,           -5.,            0.,NA,NA,"",   532.973E-03,  -235.507E-03,   478.118E-03,   10.9660E-03
C:/temp/dataset/2/23_5.odb,Step-1,Increment      1: Step Time =    1.000,"PART-1-1",            24,           10.,           -5.,            0.,NA,NA,"",   603.390E-03,  -276.483E-03,   536.318E-03,   5.17327E-03
C:/temp/dataset/2/23_5.odb,Step-1,Increment      1: Step Time =    1.000,"PART-1-1",            25,           15.,           -5.,            0.,NA,NA,"",   639.921E-03,  -283.338E-03,   573.775E-03,   415.160E-06
C:/temp/dataset/2/23_5.odb,Step-1,Increment      1: Step Time =    1.000,"PART-1-1",            26,           15.,          3.75,            0.,NA,NA,"",   648.159E-03,  -365.830E-03,   535.050E-03,   12.9813E-03
C:/temp/dataset/2/23_5.odb,Step-1,Increment      1: Step Time =    1.000,"PART-1-1",            27,           15.,          12.5,            0.,NA,NA,"",   478.083E-03,  -255.591E-03,   404.026E-03,   17.2245E-03
C:/temp/dataset/2/23_5.odb,Step-1,Increment      1: Step Time =    1.000,"PART-1-1",            28,           15.,         21.25,            0.,NA,NA,"",   304.429E-03,   140.923E-03,   269.847E-03,   11.9270E-03
C:/temp/dataset/2/23_5.odb,Step-1,Increment      1: Step Time =    1.000,"PART-1-1",            29,           15.,           30.,            0.,NA,NA,"",   753.217E-03,   721.726E-03,   215.518E-03,   359.263E-06
C:/temp/dataset/2/23_5.odb,Step-1,Increment      1: Step Time =    1.000,"PART-1-1",            30,           7.5,           30.,            0.,NA,NA,"",       1.03471,   758.574E-03,   703.705E-03,   8.14865E-03
C:/temp/dataset/2/23_5.odb,Step-1,Increment      1: Step Time =    1.000,"PART-1-1",            31,            0.,           30.,            0.,NA,NA,"",       1.52516,   833.855E-03,       1.27703,   4.12715E-03
C:/temp/dataset/2/23_5.odb,Step-1,Increment      1: Step Time =    1.000,"PART-1-1",            32,          -7.5,           30.,            0.,NA,NA,"",       2.08691,   865.561E-03,       1.89895,   353.943E-06
C:/temp/dataset/2/23_5.odb,Step-1,Increment      1: Step Time =    1.000,"PART-1-1",            33,          -15.,           30.,            0.,NA,NA,"",       2.66194,   889.420E-03,       2.50896,   10.0197E-06
C:/temp/dataset/2/23_5.odb,Step-1,Increment      1: Step Time =    1.000,"PART-1-1",            34,          -15.,          22.5,            0.,NA,NA,"",       2.54878,   280.276E-03,       2.53332,   48.3351E-06
C:/temp/dataset/2/23_5.odb,Step-1,Increment      1: Step Time =    1.000,"PART-1-1",            35,         -12.5,           20.,            0.,NA,NA,"",       2.33967,   69.2651E-03,       2.33865,   58.4651E-06
C:/temp/dataset/2/23_5.odb,Step-1,Increment      1: Step Time =    1.000,"PART-1-1",            36,          -7.5,           20.,            0.,NA,NA,"",       1.93460,   54.1173E-03,       1.93384,   973.921E-06
C:/temp/dataset/2/23_5.odb,Step-1,Increment      1: Step Time =    1.000,"PART-1-1",            37,          -2.5,           20.,            0.,NA,NA,"",       1.53852,   40.4689E-03,       1.53799,   5.52767E-03
C:/temp/dataset/2/23_5.odb,Step-1,Increment      1: Step Time =    1.000,"PART-1-1",            38,           2.5,           20.,            0.,NA,NA,"",       1.09329,   35.5654E-03,       1.09271,   9.83515E-03
C:/temp/dataset/2/23_5.odb,Step-1,Increment      1: Step Time =    1.000,"PART-1-1",            39,            5.,           15.,            0.,NA,NA,"",   760.049E-03,  -153.957E-03,   744.293E-03,   21.2539E-03
C:/temp/dataset/2/23_5.odb,Step-1,Increment      1: Step Time =    1.000,"PART-1-1",            40,            5.,          17.5,            0.,NA,NA,"",   790.289E-03,  -51.7085E-03,   788.595E-03,   23.6729E-03
C:/temp/dataset/2/23_5.odb,Step-1,Increment      1: Step Time =    1.000,"PART-1-1",            41,            5.,           7.5,            0.,NA,NA,"",   698.790E-03,  -354.012E-03,   602.481E-03,   24.1003E-03
C:/temp/dataset/2/23_5.odb,Step-1,Increment      1: Step Time =    1.000,"PART-1-1",            42,            5.,           10.,            0.,NA,NA,"",   717.830E-03,  -305.440E-03,   649.605E-03,   21.3377E-03
C:/temp/dataset/2/23_5.odb,Step-1,Increment      1: Step Time =    1.000,"PART-1-1",            43,      -1.66667,            5.,            0.,NA,NA,"",   542.885E-03,  -453.708E-03,   298.116E-03,   2.52440E-03
C:/temp/dataset/2/23_5.odb,Step-1,Increment      1: Step Time =    1.000,"PART-1-1",            44,       1.66667,            5.,            0.,NA,NA,"",   600.394E-03,  -441.151E-03,   407.259E-03,   9.84428E-03
C:/temp/dataset/2/23_5.odb,Step-1,Increment      1: Step Time =    1.000,"PART-1-1",            45,      -11.6667,            5.,            0.,NA,NA,"",   442.975E-03,  -442.960E-03,   3.60493E-03,   693.506E-06
C:/temp/dataset/2/23_5.odb,Step-1,Increment      1: Step Time =    1.000,"PART-1-1",            46,      -8.33333,            5.,            0.,NA,NA,"",   458.016E-03,  -448.316E-03,   93.7609E-03,   1.83942E-03
C:/temp/dataset/2/23_5.odb,Step-1,Increment      1: Step Time =    1.000,"PART-1-1",            47,          -15.,  -833.333E-03,            0.,NA,NA,"",   293.823E-03,  -282.885E-03,  -79.4221E-03,   2.25447E-03
C:/temp/dataset/2/23_5.odb,Step-1,Increment      1: Step Time =    1.000,"PART-1-1",            48,          -15.,       2.08333,            0.,NA,NA,"",   371.727E-03,  -362.136E-03,  -83.8953E-03,   582.401E-06
C:/temp/dataset/2/23_5.odb,Step-1,Increment      1: Step Time =    1.000,"PART-1-1",            49,          -15.,      -9.58333,            0.,NA,NA,"",   100.020E-03,  -89.5100E-03,  -44.6311E-03,   5.05250E-03
C:/temp/dataset/2/23_5.odb,Step-1,Increment      1: Step Time =    1.000,"PART-1-1",            50,          -15.,      -6.66667,            0.,NA,NA,"",   154.109E-03,  -142.642E-03,  -58.3355E-03,   4.89582E-03
C:/temp/dataset/2/23_5.odb,Step-1,Increment      1: Step Time =    1.000,"PART-1-1",            51,          -15.,      -18.3333,            0.,NA,NA,"",   9.51560E-03,  -964.011E-06,  -9.46664E-03,   3.45466E-03
C:/temp/dataset/2/23_5.odb,Step-1,Increment      1: Step Time =    1.000,"PART-1-1",            52,          -15.,      -15.4167,            0.,NA,NA,"",   27.6958E-03,  -19.5025E-03,  -19.6650E-03,   4.25226E-03
C:/temp/dataset/2/23_5.odb,Step-1,Increment      1: Step Time =    1.000,"PART-1-1",            53,          -15.,      -27.0833,            0.,NA,NA,"",   7.61594E-03,   6.65967E-03,   3.69476E-03,   454.015E-06
C:/temp/dataset/2/23_5.odb,Step-1,Increment      1: Step Time =    1.000,"PART-1-1",            54,          -15.,      -24.1667,            0.,NA,NA,"",   9.99305E-03,   9.64625E-03,   2.60977E-03,   1.01843E-03
C:/temp/dataset/2/23_5.odb,Step-1,Increment      1: Step Time =    1.000,"PART-1-1",            55,           12.,          -30.,            0.,NA,NA,"",            0.,  -285.093E-42,   193.490E-42,   89.1386E-06
C:/temp/dataset/2/23_5.odb,Step-1,Increment      1: Step Time =    1.000,"PART-1-1",            56,            9.,          -30.,            0.,NA,NA,"",            0.,  -384.471E-42,  -228.410E-42,   166.941E-06
C:/temp/dataset/2/23_5.odb,Step-1,Increment      1: Step Time =    1.000,"PART-1-1",            57,            6.,          -30.,            0.,NA,NA,"",            0.,  -940.470E-42,   870.201E-42,   320.289E-06
C:/temp/dataset/2/23_5.odb,Step-1,Increment      1: Step Time =    1.000,"PART-1-1",            58,            3.,          -30.,            0.,NA,NA,"",            0.,  -948.006E-42,   528.738E-42,   593.668E-06
C:/temp/dataset/2/23_5.odb,Step-1,Increment      1: Step Time =    1.000,"PART-1-1",            59,            0.,          -30.,            0.,NA,NA,"",            0.,  -2.54563E-39,   3.67523E-39,   978.963E-06
C:/temp/dataset/2/23_5.odb,Step-1,Increment      1: Step Time =    1.000,"PART-1-1",            60,           -3.,          -30.,            0.,NA,NA,"",            0.,  -2.73485E-39,   5.66692E-39,   1.35341E-03
C:/temp/dataset/2/23_5.odb,Step-1,Increment      1: Step Time =    1.000,"PART-1-1",            61,           -6.,          -30.,            0.,NA,NA,"",            0.,  -1.49834E-39,   6.11985E-39,   1.64041E-03
C:/temp/dataset/2/23_5.odb,Step-1,Increment      1: Step Time =    1.000,"PART-1-1",            62,           -9.,          -30.,            0.,NA,NA,"",            0.,   4.41271E-39,   7.94926E-39,   1.84908E-03
C:/temp/dataset/2/23_5.odb,Step-1,Increment      1: Step Time =    1.000,"PART-1-1",            63,          -12.,          -30.,            0.,NA,NA,"",            0.,   4.44569E-39,   4.92808E-39,   1.56477E-03
C:/temp/dataset/2/23_5.odb,Step-1,Increment      1: Step Time =    1.000,"PART-1-1",            64,           15.,         -27.5,            0.,NA,NA,"",   314.281E-06,  -294.164E-06,   110.635E-06,   11.9284E-06
C:/temp/dataset/2/23_5.odb,Step-1,Increment      1: Step Time =    1.000,"PART-1-1",            65,           15.,         -22.5,            0.,NA,NA,"",   586.717E-06,  -586.622E-06,  -10.5266E-06,   11.6778E-06
C:/temp/dataset/2/23_5.odb,Step-1,Increment      1: Step Time =    1.000,"PART-1-1",            66,       8.33333,          -20.,            0.,NA,NA,"",   559.861E-06,  -477.253E-06,  -292.701E-06,   104.933E-06
C:/temp/dataset/2/23_5.odb,Step-1,Increment      1: Step Time =    1.000,"PART-1-1",            67,       11.6667,          -20.,            0.,NA,NA,"",   674.598E-06,  -653.445E-06,  -167.607E-06,   20.1539E-06
C:/temp/dataset/2/23_5.odb,Step-1,Increment      1: Step Time =    1.000,"PART-1-1",            68,      -1.66667,          -20.,            0.,NA,NA,"",   7.43051E-03,   3.18048E-03,   6.71543E-03,   1.84678E-03
C:/temp/dataset/2/23_5.odb,Step-1,Increment      1: Step Time =    1.000,"PART-1-1",            69,       1.66667,          -20.,            0.,NA,NA,"",   1.88880E-03,   1.24566E-03,   1.41983E-03,   653.647E-06
C:/temp/dataset/2/23_5.odb,Step-1,Increment      1: Step Time =    1.000,"PART-1-1",            70,           -5.,          -15.,            0.,NA,NA,"",   80.0985E-03,  -34.0590E-03,   72.4965E-03,   9.11709E-03
C:/temp/dataset/2/23_5.odb,Step-1,Increment      1: Step Time =    1.000,"PART-1-1",            71,           -5.,         -17.5,            0.,NA,NA,"",   54.5476E-03,  -13.9044E-03,   52.7457E-03,   9.59713E-03
C:/temp/dataset/2/23_5.odb,Step-1,Increment      1: Step Time =    1.000,"PART-1-1",            72,           -5.,          -7.5,            0.,NA,NA,"",   191.943E-03,  -134.591E-03,   136.848E-03,   11.2294E-03
C:/temp/dataset/2/23_5.odb,Step-1,Increment      1: Step Time =    1.000,"PART-1-1",            73,           -5.,          -10.,            0.,NA,NA,"",   148.703E-03,  -94.1978E-03,   115.062E-03,   9.75963E-03
C:/temp/dataset/2/23_5.odb,Step-1,Increment      1: Step Time =    1.000,"PART-1-1",            74,          -2.5,           -5.,            0.,NA,NA,"",   323.473E-03,  -178.711E-03,   269.624E-03,   2.90957E-03
C:/temp/dataset/2/23_5.odb,Step-1,Increment      1: Step Time =    1.000,"PART-1-1",            75,           2.5,           -5.,            0.,NA,NA,"",   473.136E-03,  -210.752E-03,   423.605E-03,   9.69978E-03
C:/temp/dataset/2/23_5.odb,Step-1,Increment      1: Step Time =    1.000,"PART-1-1",            76,           7.5,           -5.,            0.,NA,NA,"",   576.233E-03,  -259.637E-03,   514.425E-03,   9.26003E-03
C:/temp/dataset/2/23_5.odb,Step-1,Increment      1: Step Time =    1.000,"PART-1-1",            77,          12.5,           -5.,            0.,NA,NA,"",   621.410E-03,  -283.045E-03,   553.205E-03,   1.14055E-03
C:/temp/dataset/2/23_5.odb,Step-1,Increment      1: Step Time =    1.000,"PART-1-1",            78,           15.,   833.333E-03,            0.,NA,NA,"",   659.054E-03,  -344.225E-03,   562.016E-03,   7.13448E-03
C:/temp/dataset/2/23_5.odb,Step-1,Increment      1: Step Time =    1.000,"PART-1-1",            79,           15.,      -2.08333,            0.,NA,NA,"",   652.420E-03,  -311.893E-03,   573.040E-03,   1.56259E-03
C:/temp/dataset/2/23_5.odb,Step-1,Increment      1: Step Time =    1.000,"PART-1-1",            80,           15.,       9.58333,            0.,NA,NA,"",   555.330E-03,  -325.064E-03,   450.249E-03,   17.3720E-03
C:/temp/dataset/2/23_5.odb,Step-1,Increment      1: Step Time =    1.000,"PART-1-1",            81,           15.,       6.66667,            0.,NA,NA,"",   613.495E-03,  -361.824E-03,   495.439E-03,   16.4143E-03
C:/temp/dataset/2/23_5.odb,Step-1,Increment      1: Step Time =    1.000,"PART-1-1",            82,           15.,       18.3333,            0.,NA,NA,"",   312.537E-03,  -22.4213E-03,   311.732E-03,   15.3900E-03
C:/temp/dataset/2/23_5.odb,Step-1,Increment      1: Step Time =    1.000,"PART-1-1",            83,           15.,       15.4167,            0.,NA,NA,"",   389.614E-03,  -154.783E-03,   357.549E-03,   16.9532E-03
C:/temp/dataset/2/23_5.odb,Step-1,Increment      1: Step Time =    1.000,"PART-1-1",            84,           15.,       27.0833,            0.,NA,NA,"",   571.730E-03,   526.630E-03,   222.568E-03,   1.35923E-03
C:/temp/dataset/2/23_5.odb,Step-1,Increment      1: Step Time =    1.000,"PART-1-1",            85,           15.,       24.1667,            0.,NA,NA,"",   406.446E-03,   328.614E-03,   239.188E-03,   6.47222E-03
C:/temp/dataset/2/23_5.odb,Step-1,Increment      1: Step Time =    1.000,"PART-1-1",            86,           10.,           30.,            0.,NA,NA,"",   914.367E-03,   738.292E-03,   539.436E-03,   4.60810E-03
C:/temp/dataset/2/23_5.odb,Step-1,Increment      1: Step Time =    1.000,"PART-1-1",            87,          12.5,           30.,            0.,NA,NA,"",   820.236E-03,   727.286E-03,   379.266E-03,   1.00956E-03
C:/temp/dataset/2/23_5.odb,Step-1,Increment      1: Step Time =    1.000,"PART-1-1",            88,           2.5,           30.,            0.,NA,NA,"",       1.34592,   812.551E-03,       1.07296,   7.37416E-03
C:/temp/dataset/2/23_5.odb,Step-1,Increment      1: Step Time =    1.000,"PART-1-1",            89,            5.,           30.,            0.,NA,NA,"",       1.18007,   785.485E-03,   880.663E-03,   8.92221E-03
C:/temp/dataset/2/23_5.odb,Step-1,Increment      1: Step Time =    1.000,"PART-1-1",            90,           -5.,           30.,            0.,NA,NA,"",       1.89834,   857.826E-03,       1.69347,   102.942E-06
C:/temp/dataset/2/23_5.odb,Step-1,Increment      1: Step Time =    1.000,"PART-1-1",            91,          -2.5,           30.,            0.,NA,NA,"",       1.71072,   848.251E-03,       1.48561,   1.34950E-03
C:/temp/dataset/2/23_5.odb,Step-1,Increment      1: Step Time =    1.000,"PART-1-1",            92,         -12.5,           30.,            0.,NA,NA,"",       2.46852,   881.185E-03,       2.30588,   55.4482E-06
C:/temp/dataset/2/23_5.odb,Step-1,Increment      1: Step Time =    1.000,"PART-1-1",            93,          -10.,           30.,            0.,NA,NA,"",       2.27685,   873.200E-03,       2.10275,   216.076E-06
C:/temp/dataset/2/23_5.odb,Step-1,Increment      1: Step Time =    1.000,"PART-1-1",            94,          -15.,          27.5,            0.,NA,NA,"",       2.60907,   686.257E-03,       2.51720,   45.8234E-06
C:/temp/dataset/2/23_5.odb,Step-1,Increment      1: Step Time =    1.000,"PART-1-1",            95,      -12.4978,       24.9766,            0.,NA,NA,"",       2.36986,   472.856E-03,       2.32221,   86.1806E-06
C:/temp/dataset/2/23_5.odb,Step-1,Increment      1: Step Time =    1.000,"PART-1-1",            96,      -7.49872,       27.4475,            0.,NA,NA,"",       2.01763,   657.085E-03,       1.90763,   146.365E-06
C:/temp/dataset/2/23_5.odb,Step-1,Increment      1: Step Time =    1.000,"PART-1-1",            97,      -7.50661,       22.4446,            0.,NA,NA,"",       1.94214,   250.734E-03,       1.92589,   509.570E-06
C:/temp/dataset/2/23_5.odb,Step-1,Increment      1: Step Time =    1.000,"PART-1-1",            98,      -2.53392,       22.4091,            0.,NA,NA,"",       1.54157,   237.976E-03,       1.52309,   5.85031E-03
C:/temp/dataset/2/23_5.odb,Step-1,Increment      1: Step Time =    1.000,"PART-1-1",            99,  -19.7467E-03,       27.3919,            0.,NA,NA,"",       1.42755,   624.112E-03,       1.28389,   4.76496E-03
C:/temp/dataset/2/23_5.odb,Step-1,Increment      1: Step Time =    1.000,"PART-1-1",           100,       2.31326,       22.2671,            0.,NA,NA,"",       1.12127,   222.206E-03,       1.09903,   9.30193E-03
C:/temp/dataset/2/23_5.odb,Step-1,Increment      1: Step Time =    1.000,"PART-1-1",           101,       7.89882,       27.4278,            0.,NA,NA,"",   886.920E-03,   574.293E-03,   675.881E-03,   5.74145E-03
C:/temp/dataset/2/23_5.odb,Step-1,Increment      1: Step Time =    1.000,"PART-1-1",           102,       6.74061,       20.0564,            0.,NA,NA,"",   737.413E-03,   61.4632E-03,   734.847E-03,   8.97793E-03
C:/temp/dataset/2/23_5.odb,Step-1,Increment      1: Step Time =    1.000,"PART-1-1",           103,       6.76082,       17.7755,            0.,NA,NA,"",   714.182E-03,  -52.0715E-03,   712.282E-03,   16.4463E-03
C:/temp/dataset/2/23_5.odb,Step-1,Increment      1: Step Time =    1.000,"PART-1-1",           104,       7.34933,       13.0959,            0.,NA,NA,"",   679.167E-03,  -240.078E-03,   635.320E-03,   12.9522E-03
C:/temp/dataset/2/23_5.odb,Step-1,Increment      1: Step Time =    1.000,"PART-1-1",           105,       12.5251,      -2.17932,            0.,NA,NA,"",   635.347E-03,  -311.731E-03,   553.615E-03,   4.96248E-03
C:/temp/dataset/2/23_5.odb,Step-1,Increment      1: Step Time =    1.000,"PART-1-1",           106,       11.8446,      -24.9441,            0.,NA,NA,"",   562.136E-06,  -548.359E-06,  -123.689E-06,   34.7087E-06
C:/temp/dataset/2/23_5.odb,Step-1,Increment      1: Step Time =    1.000,"PART-1-1",           107,       2.44158,      -2.66949,            0.,NA,NA,"",   504.486E-03,  -265.320E-03,   429.082E-03,   5.76607E-03
C:/temp/dataset/2/23_5.odb,Step-1,Increment      1: Step Time =    1.000,"PART-1-1",           108,       7.46163,      -2.37632,            0.,NA,NA,"",   600.703E-03,  -296.274E-03,   522.556E-03,   6.29149E-03
C:/temp/dataset/2/23_5.odb,Step-1,Increment      1: Step Time =    1.000,"PART-1-1",           109,       7.48217,       7.95809,            0.,NA,NA,"",   680.883E-03,  -362.269E-03,   576.510E-03,   13.4277E-03
C:/temp/dataset/2/23_5.odb,Step-1,Increment      1: Step Time =    1.000,"PART-1-1",           110,      -5.01446,       22.4347,            0.,NA,NA,"",       1.74336,   243.081E-03,       1.72633,   2.74492E-03
C:/temp/dataset/2/23_5.odb,Step-1,Increment      1: Step Time =    1.000,"PART-1-1",           111,  -75.1424E-03,       22.3615,            0.,NA,NA,"",       1.32991,   232.898E-03,       1.30936,   7.55243E-03
C:/temp/dataset/2/23_5.odb,Step-1,Increment      1: Step Time =    1.000,"PART-1-1",           112,       4.50776,       22.1530,            0.,NA,NA,"",   933.089E-03,   210.042E-03,   909.141E-03,   9.99437E-03
C:/temp/dataset/2/23_5.odb,Step-1,Increment      1: Step Time =    1.000,"PART-1-1",           113,       7.06405,       15.4904,            0.,NA,NA,"",   690.165E-03,  -152.348E-03,   673.140E-03,   14.2310E-03
C:/temp/dataset/2/23_5.odb,Step-1,Increment      1: Step Time =    1.000,"PART-1-1",           114,       7.46285,       10.5556,            0.,NA,NA,"",   679.363E-03,  -311.700E-03,   603.636E-03,   13.1025E-03
C:/temp/dataset/2/23_5.odb,Step-1,Increment      1: Step Time =    1.000,"PART-1-1",           115,      -2.89738,      -2.05905,            0.,NA,NA,"",   370.819E-03,  -265.372E-03,   259.007E-03,   7.67907E-03
C:/temp/dataset/2/23_5.odb,Step-1,Increment      1: Step Time =    1.000,"PART-1-1",           116,      -7.61206,      -10.6629,            0.,NA,NA,"",   103.570E-03,  -75.1153E-03,   71.3048E-03,   6.22396E-03
C:/temp/dataset/2/23_5.odb,Step-1,Increment      1: Step Time =    1.000,"PART-1-1",           117,      -6.85891,      -17.7385,            0.,NA,NA,"",   40.3298E-03,  -6.76708E-03,   39.7580E-03,   6.58467E-03
C:/temp/dataset/2/23_5.odb,Step-1,Increment      1: Step Time =    1.000,"PART-1-1",           118,       11.9280,      -27.4687,            0.,NA,NA,"",   350.088E-06,  -348.309E-06,  -35.2463E-06,   86.3059E-06
C:/temp/dataset/2/23_5.odb,Step-1,Increment      1: Step Time =    1.000,"PART-1-1",           119,      -7.44747,      -13.1413,            0.,NA,NA,"",   74.6276E-03,  -44.3900E-03,   59.9901E-03,   6.11237E-03
C:/temp/dataset/2/23_5.odb,Step-1,Increment      1: Step Time =    1.000,"PART-1-1",           120,      -7.13169,      -15.4658,            0.,NA,NA,"",   55.0183E-03,  -22.5076E-03,   50.2038E-03,   6.45240E-03
C:/temp/dataset/2/23_5.odb,Step-1,Increment      1: Step Time =    1.000,"PART-1-1",           121,      -8.02089,      -5.87394,            0.,NA,NA,"",   179.169E-03,  -157.542E-03,   85.3362E-03,   3.51335E-03
C:/temp/dataset/2/23_5.odb,Step-1,Increment      1: Step Time =    1.000,"PART-1-1",           122,      -7.74476,      -8.18529,            0.,NA,NA,"",   139.479E-03,  -113.633E-03,   80.8815E-03,   6.11142E-03
C:/temp/dataset/2/23_5.odb,Step-1,Increment      1: Step Time =    1.000,"PART-1-1",           123,  -21.3834E-03,      -2.74811,            0.,NA,NA,"",   437.532E-03,  -254.111E-03,   356.177E-03,   5.36712E-03
C:/temp/dataset/2/23_5.odb,Step-1,Increment      1: Step Time =    1.000,"PART-1-1",           124,       4.94012,      -2.49525,            0.,NA,NA,"",   562.010E-03,  -281.473E-03,   486.445E-03,   5.68385E-03
C:/temp/dataset/2/23_5.odb,Step-1,Increment      1: Step Time =    1.000,"PART-1-1",           125,       10.0127,      -2.27482,            0.,NA,NA,"",   622.130E-03,  -306.954E-03,   541.133E-03,   6.82802E-03
C:/temp/dataset/2/23_5.odb,Step-1,Increment      1: Step Time =    1.000,"PART-1-1",           126,       10.2967,       27.4669,            0.,NA,NA,"",   769.281E-03,   564.665E-03,   522.443E-03,   5.79598E-03
C:/temp/dataset/2/23_5.odb,Step-1,Increment      1: Step Time =    1.000,"PART-1-1",           127,       12.6750,       27.3103,            0.,NA,NA,"",   661.907E-03,   546.251E-03,   373.807E-03,   4.15539E-03
C:/temp/dataset/2/23_5.odb,Step-1,Increment      1: Step Time =    1.000,"PART-1-1",           128,       2.52543,       27.2659,            0.,NA,NA,"",       1.22862,   599.519E-03,       1.07243,   5.44271E-03
C:/temp/dataset/2/23_5.odb,Step-1,Increment      1: Step Time =    1.000,"PART-1-1",           129,       5.32711,       26.8707,            0.,NA,NA,"",       1.01673,   550.822E-03,   854.591E-03,   4.85078E-03
C:/temp/dataset/2/23_5.odb,Step-1,Increment      1: Step Time =    1.000,"PART-1-1",           130,      -5.00948,       27.4462,            0.,NA,NA,"",       1.82240,   648.668E-03,       1.70304,   1.07332E-03
C:/temp/dataset/2/23_5.odb,Step-1,Increment      1: Step Time =    1.000,"PART-1-1",           131,      -2.51658,       27.4324,            0.,NA,NA,"",       1.62548,   638.540E-03,       1.49481,   2.92498E-03
C:/temp/dataset/2/23_5.odb,Step-1,Increment      1: Step Time =    1.000,"PART-1-1",           132,      -9.99211,       27.4668,            0.,NA,NA,"",       2.21348,   666.935E-03,       2.11062,   156.285E-06
C:/temp/dataset/2/23_5.odb,Step-1,Increment      1: Step Time =    1.000,"PART-1-1",           133,       12.5029,       21.6680,            0.,NA,NA,"",   442.849E-03,   161.587E-03,   412.317E-03,   7.68228E-03
C:/temp/dataset/2/23_5.odb,Step-1,Increment      1: Step Time =    1.000,"PART-1-1",           134,      -12.7198,      -9.27859,            0.,NA,NA,"",   91.7451E-03,  -91.3894E-03,  -8.07189E-03,   1.59790E-03
C:/temp/dataset/2/23_5.odb,Step-1,Increment      1: Step Time =    1.000,"PART-1-1",           135,      -12.2206,      -21.4876,            0.,NA,NA,"",   11.2574E-03,   9.58219E-03,   5.90849E-03,   1.64324E-03
C:/temp/dataset/2/23_5.odb,Step-1,Increment      1: Step Time =    1.000,"PART-1-1",           136,       12.4390,       11.8581,            0.,NA,NA,"",   562.464E-03,  -286.384E-03,   484.096E-03,   6.75373E-03
C:/temp/dataset/2/23_5.odb,Step-1,Increment      1: Step Time =    1.000,"PART-1-1",           137,      -12.6285,      -12.0158,            0.,NA,NA,"",   51.8122E-03,  -51.7335E-03,  -2.85409E-03,   1.32987E-03
C:/temp/dataset/2/23_5.odb,Step-1,Increment      1: Step Time =    1.000,"PART-1-1",           138,      -12.4213,      -14.8709,            0.,NA,NA,"",   21.4222E-03,  -21.3001E-03,   2.28465E-03,   966.218E-06
C:/temp/dataset/2/23_5.odb,Step-1,Increment      1: Step Time =    1.000,"PART-1-1",           139,       12.2989,       14.8029,            0.,NA,NA,"",   507.111E-03,  -190.689E-03,   469.893E-03,   6.10904E-03
C:/temp/dataset/2/23_5.odb,Step-1,Increment      1: Step Time =    1.000,"PART-1-1",           140,       11.7182,       18.2155,            0.,NA,NA,"",   476.783E-03,  -39.5920E-03,   475.137E-03,   5.19028E-03
C:/temp/dataset/2/23_5.odb,Step-1,Increment      1: Step Time =    1.000,"PART-1-1",           141,      -12.3380,      -4.01281,            0.,NA,NA,"",   199.573E-03,  -199.397E-03,  -8.38493E-03,   1.80305E-03
C:/temp/dataset/2/23_5.odb,Step-1,Increment      1: Step Time =    1.000,"PART-1-1",           142,       12.5089,       6.21106,            0.,NA,NA,"",   642.625E-03,  -377.827E-03,   519.821E-03,   7.66960E-03
C:/temp/dataset/2/23_5.odb,Step-1,Increment      1: Step Time =    1.000,"PART-1-1",           143,      -10.9765,      -1.21375,            0.,NA,NA,"",   273.162E-03,  -272.275E-03,   21.9972E-03,   2.16418E-03
C:/temp/dataset/2/23_5.odb,Step-1,Increment      1: Step Time =    1.000,"PART-1-1",           144,      -11.4273,       2.02370,            0.,NA,NA,"",   361.729E-03,  -361.584E-03,   10.2467E-03,   1.51174E-03
C:/temp/dataset/2/23_5.odb,Step-1,Increment      1: Step Time =    1.000,"PART-1-1",           145,      -12.7154,      -6.64001,            0.,NA,NA,"",   140.773E-03,  -140.224E-03,  -12.4190E-03,   1.79455E-03
C:/temp/dataset/2/23_5.odb,Step-1,Increment      1: Step Time =    1.000,"PART-1-1",           146,      -11.7762,      -18.1315,            0.,NA,NA,"",   8.34889E-03,   564.542E-06,   8.32978E-03,   1.14149E-03
C:/temp/dataset/2/23_5.odb,Step-1,Increment      1: Step Time =    1.000,"PART-1-1",           147,      -12.2481,      -24.4184,            0.,NA,NA,"",   10.6185E-03,   9.60751E-03,   4.52187E-03,   1.77068E-03
C:/temp/dataset/2/23_5.odb,Step-1,Increment      1: Step Time =    1.000,"PART-1-1",           148,       12.5340,       3.42208,            0.,NA,NA,"",   654.453E-03,  -374.765E-03,   536.526E-03,   8.00985E-03
C:/temp/dataset/2/23_5.odb,Step-1,Increment      1: Step Time =    1.000,"PART-1-1",           149,       12.5428,   630.306E-03,            0.,NA,NA,"",   649.286E-03,  -347.630E-03,   548.384E-03,   7.54071E-03
C:/temp/dataset/2/23_5.odb,Step-1,Increment      1: Step Time =    1.000,"PART-1-1",           150,       12.5001,       9.03097,            0.,NA,NA,"",   610.227E-03,  -348.016E-03,   501.260E-03,   7.16825E-03
C:/temp/dataset/2/23_5.odb,Step-1,Increment      1: Step Time =    1.000,"PART-1-1",           151,       12.7192,       24.5718,            0.,NA,NA,"",   522.286E-03,   356.066E-03,   382.099E-03,   6.59393E-03
C:/temp/dataset/2/23_5.odb,Step-1,Increment      1: Step Time =    1.000,"PART-1-1",           152,       2.66783,      -27.4286,            0.,NA,NA,"",   1.52235E-03,  -1.47798E-03,   364.837E-06,   457.882E-06
C:/temp/dataset/2/23_5.odb,Step-1,Increment      1: Step Time =    1.000,"PART-1-1",           153,       8.86089,      -27.4494,            0.,NA,NA,"",   544.939E-06,  -539.455E-06,  -77.1132E-06,   145.539E-06
C:/temp/dataset/2/23_5.odb,Step-1,Increment      1: Step Time =    1.000,"PART-1-1",           154,       5.76511,      -27.4328,            0.,NA,NA,"",   927.239E-06,  -927.133E-06,  -13.9939E-06,   264.911E-06
C:/temp/dataset/2/23_5.odb,Step-1,Increment      1: Step Time =    1.000,"PART-1-1",           155,  -414.647E-03,      -27.4330,            0.,NA,NA,"",   2.33418E-03,  -1.82690E-03,   1.45287E-03,   909.965E-06
C:/temp/dataset/2/23_5.odb,Step-1,Increment      1: Step Time =    1.000,"PART-1-1",           156,      -3.42691,      -27.4460,            0.,NA,NA,"",   3.36968E-03,  -1.06194E-03,   3.19797E-03,   1.72584E-03
C:/temp/dataset/2/23_5.odb,Step-1,Increment      1: Step Time =    1.000,"PART-1-1",           157,      -6.36574,      -27.4272,            0.,NA,NA,"",   4.47965E-03,   1.28829E-03,   4.29040E-03,   2.35961E-03
C:/temp/dataset/2/23_5.odb,Step-1,Increment      1: Step Time =    1.000,"PART-1-1",           158,       10.5238,       25.0033,            0.,NA,NA,"",   644.105E-03,   389.469E-03,   513.016E-03,   7.21598E-03
C:/temp/dataset/2/23_5.odb,Step-1,Increment      1: Step Time =    1.000,"PART-1-1",           159,       6.26912,       22.1485,            0.,NA,NA,"",   801.126E-03,   201.453E-03,   775.383E-03,   9.61968E-03
C:/temp/dataset/2/23_5.odb,Step-1,Increment      1: Step Time =    1.000,"PART-1-1",           160,      -5.96402,      -2.70245,            0.,NA,NA,"",   284.272E-03,  -240.725E-03,   151.202E-03,   6.60288E-03
C:/temp/dataset/2/23_5.odb,Step-1,Increment      1: Step Time =    1.000,"PART-1-1",           161,      -12.5033,       22.4816,            0.,NA,NA,"",       2.34638,   270.489E-03,       2.33074,   124.725E-06
C:/temp/dataset/2/23_5.odb,Step-1,Increment      1: Step Time =    1.000,"PART-1-1",           162,      -2.53325,       24.9024,            0.,NA,NA,"",       1.56909,   437.127E-03,       1.50698,   4.18259E-03
C:/temp/dataset/2/23_5.odb,Step-1,Increment      1: Step Time =    1.000,"PART-1-1",           163,       4.43197,       24.4161,            0.,NA,NA,"",   993.476E-03,   376.059E-03,   919.551E-03,   5.88353E-03
C:/temp/dataset/2/23_5.odb,Step-1,Increment      1: Step Time =    1.000,"PART-1-1",           164,      -10.2797,      -8.84555,            0.,NA,NA,"",   104.069E-03,  -98.4625E-03,   33.6982E-03,   1.75717E-03
C:/temp/dataset/2/23_5.odb,Step-1,Increment      1: Step Time =    1.000,"PART-1-1",           165,       2.21534,  -332.134E-03,            0.,NA,NA,"",   530.416E-03,  -313.564E-03,   427.807E-03,   6.72385E-03
C:/temp/dataset/2/23_5.odb,Step-1,Increment      1: Step Time =    1.000,"PART-1-1",           166,  -74.2209E-03,       24.8536,            0.,NA,NA,"",       1.36513,   427.619E-03,       1.29643,   6.06178E-03
C:/temp/dataset/2/23_5.odb,Step-1,Increment      1: Step Time =    1.000,"PART-1-1",           167,       2.30693,       24.7164,            0.,NA,NA,"",       1.16677,   408.741E-03,       1.09284,   6.94420E-03
C:/temp/dataset/2/23_5.odb,Step-1,Increment      1: Step Time =    1.000,"PART-1-1",           168,       9.79368,       13.9045,            0.,NA,NA,"",   603.958E-03,  -223.547E-03,   561.064E-03,   3.66758E-03
C:/temp/dataset/2/23_5.odb,Step-1,Increment      1: Step Time =    1.000,"PART-1-1",           169,       9.30777,       16.4521,            0.,NA,NA,"",   600.042E-03,  -123.137E-03,   587.271E-03,   4.51656E-03
C:/temp/dataset/2/23_5.odb,Step-1,Increment      1: Step Time =    1.000,"PART-1-1",           170,      -2.35985,       1.11806,            0.,NA,NA,"",   444.420E-03,  -345.966E-03,   278.957E-03,   6.07344E-03
C:/temp/dataset/2/23_5.odb,Step-1,Increment      1: Step Time =    1.000,"PART-1-1",           171,      -9.94133,      -13.9778,            0.,NA,NA,"",   41.8863E-03,  -30.6447E-03,   28.5545E-03,   2.67240E-03
C:/temp/dataset/2/23_5.odb,Step-1,Increment      1: Step Time =    1.000,"PART-1-1",           172,       4.80988,   33.7751E-03,            0.,NA,NA,"",   591.062E-03,  -326.464E-03,   492.723E-03,   5.00457E-03
C:/temp/dataset/2/23_5.odb,Step-1,Increment      1: Step Time =    1.000,"PART-1-1",           173,       9.94126,       11.1894,            0.,NA,NA,"",   628.961E-03,  -305.425E-03,   549.826E-03,   3.02002E-03
C:/temp/dataset/2/23_5.odb,Step-1,Increment      1: Step Time =    1.000,"PART-1-1",           174,       7.43598,   226.782E-03,            0.,NA,NA,"",   629.639E-03,  -338.612E-03,   530.837E-03,   7.17372E-03
C:/temp/dataset/2/23_5.odb,Step-1,Increment      1: Step Time =    1.000,"PART-1-1",           175,      -7.50368,       24.9336,            0.,NA,NA,"",       1.96963,   452.543E-03,       1.91694,   355.311E-06
C:/temp/dataset/2/23_5.odb,Step-1,Increment      1: Step Time =    1.000,"PART-1-1",           176,      -10.1536,      -11.3797,            0.,NA,NA,"",   68.2166E-03,  -60.5463E-03,   31.4267E-03,   2.29545E-03
C:/temp/dataset/2/23_5.odb,Step-1,Increment      1: Step Time =    1.000,"PART-1-1",           177,       6.92724,       24.6415,            0.,NA,NA,"",   829.645E-03,   377.691E-03,   738.688E-03,   6.13558E-03
C:/temp/dataset/2/23_5.odb,Step-1,Increment      1: Step Time =    1.000,"PART-1-1",           178,      -9.99868,       24.9580,            0.,NA,NA,"",       2.16938,   462.884E-03,       2.11942,   168.375E-06
C:/temp/dataset/2/23_5.odb,Step-1,Increment      1: Step Time =    1.000,"PART-1-1",           179,       8.37028,       18.0705,            0.,NA,NA,"",   638.503E-03,  -46.5819E-03,   636.802E-03,   6.34581E-03
C:/temp/dataset/2/23_5.odb,Step-1,Increment      1: Step Time =    1.000,"PART-1-1",           180,      -10.4068,      -6.54987,            0.,NA,NA,"",   145.408E-03,  -141.436E-03,   33.7567E-03,   1.33438E-03
C:/temp/dataset/2/23_5.odb,Step-1,Increment      1: Step Time =    1.000,"PART-1-1",           181,      -8.52723,      -17.8680,            0.,NA,NA,"",   29.2410E-03,  -2.55257E-03,   29.1293E-03,   3.59740E-03
C:/temp/dataset/2/23_5.odb,Step-1,Increment      1: Step Time =    1.000,"PART-1-1",           182,       9.99063,       8.47585,            0.,NA,NA,"",   652.332E-03,  -361.006E-03,   543.333E-03,   1.96192E-03
C:/temp/dataset/2/23_5.odb,Step-1,Increment      1: Step Time =    1.000,"PART-1-1",           183,      -6.87511,      -22.3968,            0.,NA,NA,"",   19.2271E-03,   4.24936E-03,   18.7517E-03,   4.81241E-03
C:/temp/dataset/2/23_5.odb,Step-1,Increment      1: Step Time =    1.000,"PART-1-1",           184,       7.48189,       5.34092,            0.,NA,NA,"",   677.123E-03,  -390.396E-03,   553.250E-03,   7.45514E-03
C:/temp/dataset/2/23_5.odb,Step-1,Increment      1: Step Time =    1.000,"PART-1-1",           185,       10.0207,   425.902E-03,            0.,NA,NA,"",   644.226E-03,  -346.057E-03,   543.389E-03,   8.22255E-03
C:/temp/dataset/2/23_5.odb,Step-1,Increment      1: Step Time =    1.000,"PART-1-1",           186,      -8.86720,      -3.63325,            0.,NA,NA,"",   221.475E-03,  -209.856E-03,   70.7923E-03,   2.84601E-03
C:/temp/dataset/2/23_5.odb,Step-1,Increment      1: Step Time =    1.000,"PART-1-1",           187,       10.0155,       5.77118,            0.,NA,NA,"",   665.166E-03,  -386.348E-03,   541.462E-03,   3.83105E-03
C:/temp/dataset/2/23_5.odb,Step-1,Increment      1: Step Time =    1.000,"PART-1-1",           188,       9.07540,       20.2179,            0.,NA,NA,"",   607.967E-03,   69.6431E-03,   603.965E-03,   5.55883E-03
C:/temp/dataset/2/23_5.odb,Step-1,Increment      1: Step Time =    1.000,"PART-1-1",           189,       5.51479,      -24.9218,            0.,NA,NA,"",   1.10587E-03,  -1.09296E-03,  -168.451E-06,   190.123E-06
C:/temp/dataset/2/23_5.odb,Step-1,Increment      1: Step Time =    1.000,"PART-1-1",           190,       2.33502,      -24.9114,            0.,NA,NA,"",   1.84907E-03,  -1.72733E-03,   659.834E-06,   300.943E-06
C:/temp/dataset/2/23_5.odb,Step-1,Increment      1: Step Time =    1.000,"PART-1-1",           191,      -3.83494,      -24.9465,            0.,NA,NA,"",   7.88024E-03,  -1.07757E-03,   7.80622E-03,   2.36835E-03
C:/temp/dataset/2/23_5.odb,Step-1,Increment      1: Step Time =    1.000,"PART-1-1",           192,       8.68706,      -24.9229,            0.,NA,NA,"",   766.601E-06,  -728.410E-06,  -238.947E-06,   105.843E-06
C:/temp/dataset/2/23_5.odb,Step-1,Increment      1: Step Time =    1.000,"PART-1-1",           193,  -793.545E-03,      -24.9263,            0.,NA,NA,"",   3.92707E-03,  -2.21686E-03,   3.24151E-03,   1.04448E-03
C:/temp/dataset/2/23_5.odb,Step-1,Increment      1: Step Time =    1.000,"PART-1-1",           194,      -10.0041,       22.4687,            0.,NA,NA,"",       2.14389,   261.129E-03,       2.12793,   181.099E-06
C:/temp/dataset/2/23_5.odb,Step-1,Increment      1: Step Time =    1.000,"PART-1-1",           195,       7.76291,       22.5689,            0.,NA,NA,"",   716.727E-03,   224.757E-03,   680.575E-03,   7.74307E-03
C:/temp/dataset/2/23_5.odb,Step-1,Increment      1: Step Time =    1.000,"PART-1-1",           196,       10.0314,       3.09975,            0.,NA,NA,"",   662.054E-03,  -378.317E-03,   543.316E-03,   7.55310E-03
C:/temp/dataset/2/23_5.odb,Step-1,Increment      1: Step Time =    1.000,"PART-1-1",           197,       7.45157,       2.78517,            0.,NA,NA,"",   659.217E-03,  -375.932E-03,   541.518E-03,   9.17850E-03
C:/temp/dataset/2/23_5.odb,Step-1,Increment      1: Step Time =    1.000,"PART-1-1",           198,       1.23926,       2.17480,            0.,NA,NA,"",   541.110E-03,  -367.922E-03,   396.778E-03,   8.84221E-03
C:/temp/dataset/2/23_5.odb,Step-1,Increment      1: Step Time =    1.000,"PART-1-1",           199,       5.89388,       23.8379,            0.,NA,NA,"",   871.119E-03,   324.964E-03,   808.237E-03,   6.62021E-03
C:/temp/dataset/2/23_5.odb,Step-1,Increment      1: Step Time =    1.000,"PART-1-1",           200,       4.70825,       2.52712,            0.,NA,NA,"",   622.859E-03,  -368.389E-03,   502.238E-03,   9.80632E-03
C:/temp/dataset/2/23_5.odb,Step-1,Increment      1: Step Time =    1.000,"PART-1-1",           201,      -6.67563,      -24.8783,            0.,NA,NA,"",   10.9997E-03,   2.97291E-03,   10.5903E-03,   3.34047E-03
C:/temp/dataset/2/23_5.odb,Step-1,Increment      1: Step Time =    1.000,"PART-1-1",           202,      -1.93740,       2.90022,            0.,NA,NA,"",   488.688E-03,  -391.986E-03,   291.826E-03,   4.75230E-03
C:/temp/dataset/2/23_5.odb,Step-1,Increment      1: Step Time =    1.000,"PART-1-1",           203,      -4.27328,      -22.5070,            0.,NA,NA,"",   13.6138E-03,  -423.467E-06,   13.6072E-03,   3.84467E-03
C:/temp/dataset/2/23_5.odb,Step-1,Increment      1: Step Time =    1.000,"PART-1-1",           204,      -7.29195,  -216.826E-03,            0.,NA,NA,"",   327.166E-03,  -304.450E-03,   119.783E-03,   2.71957E-03
C:/temp/dataset/2/23_5.odb,Step-1,Increment      1: Step Time =    1.000,"PART-1-1",           205,      -4.39370,   432.763E-03,            0.,NA,NA,"",   388.756E-03,  -326.959E-03,   210.306E-03,   5.17086E-03
C:/temp/dataset/2/23_5.odb,Step-1,Increment      1: Step Time =    1.000,"PART-1-1",           206,      -1.20581,      -22.4416,            0.,NA,NA,"",   4.28193E-03,  -747.423E-06,   4.21619E-03,   1.22237E-03
C:/temp/dataset/2/23_5.odb,Step-1,Increment      1: Step Time =    1.000,"PART-1-1",           207,      -4.88725,       2.78210,            0.,NA,NA,"",   436.081E-03,  -389.703E-03,   195.700E-03,   2.61061E-03
C:/temp/dataset/2/23_5.odb,Step-1,Increment      1: Step Time =    1.000,"PART-1-1",           208,      -8.02678,       2.39768,            0.,NA,NA,"",   388.979E-03,  -375.500E-03,   101.511E-03,   1.02848E-03
C:/temp/dataset/2/23_5.odb,Step-1,Increment      1: Step Time =    1.000,"PART-1-1",           209,       8.51144,      -22.4401,            0.,NA,NA,"",   700.507E-06,  -608.997E-06,  -346.169E-06,   80.5868E-06
C:/temp/dataset/2/23_5.odb,Step-1,Increment      1: Step Time =    1.000,"PART-1-1",           210,       5.25488,      -22.4306,            0.,NA,NA,"",   666.425E-06,  -598.007E-06,  -294.125E-06,   133.101E-06
C:/temp/dataset/2/23_5.odb,Step-1,Increment      1: Step Time =    1.000,"PART-1-1",           211,       2.00226,      -22.4217,            0.,NA,NA,"",   1.00902E-03,  -706.381E-06,   720.517E-06,   244.862E-06
C:/temp/dataset/2/23_5.odb,Step-1,Increment      1: Step Time =    1.000,"PART-1-1",           212,      -9.28570,      -27.3600,            0.,NA,NA,"",   5.42328E-03,   3.97940E-03,   3.68460E-03,   2.31012E-03
C:/temp/dataset/2/23_5.odb,Step-1,Increment      1: Step Time =    1.000,"PART-1-1",           213,       11.7596,      -22.4488,            0.,NA,NA,"",   622.289E-06,  -597.483E-06,  -173.949E-06,   39.0858E-06
C:/temp/dataset/2/23_5.odb,Step-1,Increment      1: Step Time =    1.000,"PART-1-1",           214,      -12.4952,       27.4851,            0.,NA,NA,"",       2.41076,   676.731E-03,       2.31383,   115.734E-06
C:/temp/dataset/2/23_5.odb,Step-1,Increment      1: Step Time =    1.000,"PART-1-1",           215,      -12.1608,      -27.2494,            0.,NA,NA,"",   6.30836E-03,   5.81601E-03,   2.44323E-03,   1.92474E-03
C:/temp/dataset/2/23_5.odb,Step-1,Increment      1: Step Time =    1.000,"PART-1-1",           216,      -6.92277,      -20.0189,            0.,NA,NA,"",   28.3144E-03,   3.54175E-03,   28.0921E-03,   4.41092E-03
C:/temp/dataset/2/23_5.odb,Step-1,Increment      1: Step Time =    1.000,"PART-1-1",           217,       10.3403,       22.5364,            0.,NA,NA,"",   573.154E-03,   218.067E-03,   530.050E-03,   7.43104E-03
C:/temp/dataset/2/23_5.odb,Step-1,Increment      1: Step Time =    1.000,"PART-1-1",           218,      -9.38591,      -16.3373,            0.,NA,NA,"",   29.9604E-03,  -11.0941E-03,   27.8306E-03,   3.10508E-03
C:/temp/dataset/2/23_5.odb,Step-1,Increment      1: Step Time =    1.000,"PART-1-1",           219,      -9.56004,      -22.0160,            0.,NA,NA,"",   16.5294E-03,   8.56172E-03,   14.1392E-03,   3.09337E-03
C:/temp/dataset/2/23_5.odb,Step-1,Increment      1: Step Time =    1.000,"PART-1-1",           220,      -9.49058,      -24.6874,            0.,NA,NA,"",   11.2613E-03,   7.25526E-03,   8.61265E-03,   2.93445E-03
C:/temp/dataset/2/23_5.odb,Step-1,Increment      1: Step Time =    1.000,"PART-1-1",           221,  -968.003E-03,   33.9082E-03,            0.,NA,NA,"",   456.669E-03,  -319.359E-03,   326.431E-03,   6.19676E-03
C:/temp/dataset/2/23_5.odb,Step-1,Increment      1: Step Time =    1.000,"PART-1-1",           222,   333.674E-03,      -1.00763,            0.,NA,NA,"",   473.368E-03,  -296.066E-03,   369.353E-03,   6.60600E-03
C:/temp/dataset/2/23_5.odb,Step-1,Increment      1: Step Time =    1.000,"PART-1-1",           223,      -10.5623,      -4.72446,            0.,NA,NA,"",   184.618E-03,  -181.964E-03,   31.1927E-03,   1.51294E-03
C:/temp/dataset/2/23_5.odb,Step-1,Increment      1: Step Time =    1.000,"PART-1-1",           224,      -5.01319,       24.9269,            0.,NA,NA,"",       1.77041,   444.747E-03,       1.71364,   1.74385E-03
C:/temp/dataset/2/23_5.odb,Step-1,Increment      1: Step Time =    1.000,"PART-1-1",           225,      -9.24174,      -19.5473,            0.,NA,NA,"",   21.3072E-03,   4.87826E-03,   20.7413E-03,   3.03998E-03
C:/temp/dataset/2/23_5.odb,Step-1,Increment      1: Step Time =    1.000,"PART-1-1",           226,       8.53639,       25.1316,            0.,NA,NA,"",   753.072E-03,   405.373E-03,   634.657E-03,   6.83677E-03
C:/temp/dataset/2/23_5.odb,Step-1,Increment      1: Step Time =    1.000,"PART-1-1",           227,       8.85572,       23.3093,            0.,NA,NA,"",   673.461E-03,   273.981E-03,   615.210E-03,   7.37216E-03
C:/temp/dataset/2/23_5.odb,Step-1,Increment      1: Step Time =    1.000,"PART-1-1",           228,      -13.7516,       22.4908,            0.,NA,NA,"",       2.44760,   275.386E-03,       2.43206,   76.5984E-06
C:/temp/dataset/2/23_5.odb,Step-1,Increment      1: Step Time =    1.000,"PART-1-1",           229,          -15.,         21.25,            0.,NA,NA,"",       2.54371,   178.886E-03,       2.53741,   17.7186E-06
C:/temp/dataset/2/23_5.odb,Step-1,Increment      1: Step Time =    1.000,"PART-1-1",           230,        -13.75,           20.,            0.,NA,NA,"",       2.44121,   73.3641E-03,       2.44011,   22.6746E-06
C:/temp/dataset/2/23_5.odb,Step-1,Increment      1: Step Time =    1.000,"PART-1-1",           231,      -12.5016,       21.2408,            0.,NA,NA,"",       2.34085,   169.926E-03,       2.33467,   79.0765E-06
C:/temp/dataset/2/23_5.odb,Step-1,Increment      1: Step Time =    1.000,"PART-1-1",           232,      -9.99605,       28.7334,            0.,NA,NA,"",       2.24306,   770.117E-03,       2.10671,   137.750E-06
C:/temp/dataset/2/23_5.odb,Step-1,Increment      1: Step Time =    1.000,"PART-1-1",           233,        -11.25,           30.,            0.,NA,NA,"",       2.37246,   877.155E-03,       2.20435,   131.013E-06
C:/temp/dataset/2/23_5.odb,Step-1,Increment      1: Step Time =    1.000,"PART-1-1",           234,      -12.4976,       28.7426,            0.,NA,NA,"",       2.43769,   778.994E-03,       2.30987,   71.1299E-06
C:/temp/dataset/2/23_5.odb,Step-1,Increment      1: Step Time =    1.000,"PART-1-1",           235,      -11.2437,       27.4760,            0.,NA,NA,"",       2.31202,   671.835E-03,       2.21225,   127.092E-06
C:/temp/dataset/2/23_5.odb,Step-1,Increment      1: Step Time =    1.000,"PART-1-1",           236,      -8.74541,       27.4572,            0.,NA,NA,"",       2.11552,   662.017E-03,       2.00927,   83.2577E-06
C:/temp/dataset/2/23_5.odb,Step-1,Increment      1: Step Time =    1.000,"PART-1-1",           237,      -7.49936,       28.7238,            0.,NA,NA,"",       2.04992,   761.282E-03,       1.90332,   173.363E-06
C:/temp/dataset/2/23_5.odb,Step-1,Increment      1: Step Time =    1.000,"PART-1-1",           238,         -8.75,           30.,            0.,NA,NA,"",       2.18168,   869.365E-03,       2.00099,   277.464E-06
C:/temp/dataset/2/23_5.odb,Step-1,Increment      1: Step Time =    1.000,"PART-1-1",           239,      -10.0020,       21.2344,            0.,NA,NA,"",       2.13790,   161.275E-03,       2.13181,   168.457E-06
C:/temp/dataset/2/23_5.odb,Step-1,Increment      1: Step Time =    1.000,"PART-1-1",           240,      -11.2537,       22.4752,            0.,NA,NA,"",       2.24510,   265.819E-03,       2.22931,   146.024E-06
C:/temp/dataset/2/23_5.odb,Step-1,Increment      1: Step Time =    1.000,"PART-1-1",           241,        -11.25,           20.,            0.,NA,NA,"",       2.23813,   65.2756E-03,       2.23718,   167.541E-06
C:/temp/dataset/2/23_5.odb,Step-1,Increment      1: Step Time =    1.000,"PART-1-1",           242,      -6.25410,       27.4469,            0.,NA,NA,"",       1.92011,   652.925E-03,       1.80569,   564.352E-06
C:/temp/dataset/2/23_5.odb,Step-1,Increment      1: Step Time =    1.000,"PART-1-1",           243,      -7.50120,       26.1906,            0.,NA,NA,"",       1.99108,   554.726E-03,       1.91225,   239.963E-06
C:/temp/dataset/2/23_5.odb,Step-1,Increment      1: Step Time =    1.000,"PART-1-1",           244,      -6.25844,       24.9303,            0.,NA,NA,"",       1.87017,   448.423E-03,       1.81562,   957.474E-06
C:/temp/dataset/2/23_5.odb,Step-1,Increment      1: Step Time =    1.000,"PART-1-1",           245,      -5.01133,       26.1865,            0.,NA,NA,"",       1.79336,   546.565E-03,       1.70804,   1.30901E-03
C:/temp/dataset/2/23_5.odb,Step-1,Increment      1: Step Time =    1.000,"PART-1-1",           246,       1.11906,       22.3143,            0.,NA,NA,"",       1.22495,   227.745E-03,       1.20359,   7.27940E-03
C:/temp/dataset/2/23_5.odb,Step-1,Increment      1: Step Time =    1.000,"PART-1-1",           247,  -37.5712E-03,       21.1808,            0.,NA,NA,"",       1.32097,   136.590E-03,       1.31389,   5.73772E-03
C:/temp/dataset/2/23_5.odb,Step-1,Increment      1: Step Time =    1.000,"PART-1-1",           248,          1.25,           20.,            0.,NA,NA,"",       1.20535,   33.2753E-03,       1.20489,   5.79649E-03
C:/temp/dataset/2/23_5.odb,Step-1,Increment      1: Step Time =    1.000,"PART-1-1",           249,       2.40663,       21.1336,            0.,NA,NA,"",       1.10182,   132.892E-03,       1.09378,   6.62113E-03
C:/temp/dataset/2/23_5.odb,Step-1,Increment      1: Step Time =    1.000,"PART-1-1",           250,  -46.9838E-03,       26.1228,            0.,NA,NA,"",       1.39256,   525.479E-03,       1.28961,   5.18706E-03
C:/temp/dataset/2/23_5.odb,Step-1,Increment      1: Step Time =    1.000,"PART-1-1",           251,       1.11635,       24.7850,            0.,NA,NA,"",       1.26563,   418.589E-03,       1.19441,   6.39778E-03
C:/temp/dataset/2/23_5.odb,Step-1,Increment      1: Step Time =    1.000,"PART-1-1",           252,       2.41618,       25.9912,            0.,NA,NA,"",       1.19396,   503.975E-03,       1.08238,   5.74334E-03
C:/temp/dataset/2/23_5.odb,Step-1,Increment      1: Step Time =    1.000,"PART-1-1",           253,       1.25284,       27.3289,            0.,NA,NA,"",       1.32672,   612.179E-03,       1.17704,   5.03514E-03
C:/temp/dataset/2/23_5.odb,Step-1,Increment      1: Step Time =    1.000,"PART-1-1",           254,       11.4216,       22.1022,            0.,NA,NA,"",   507.247E-03,   188.969E-03,   470.734E-03,   7.10562E-03
C:/temp/dataset/2/23_5.odb,Step-1,Increment      1: Step Time =    1.000,"PART-1-1",           255,       9.70783,       21.3771,            0.,NA,NA,"",   585.641E-03,   142.050E-03,   568.153E-03,   6.15357E-03
C:/temp/dataset/2/23_5.odb,Step-1,Increment      1: Step Time =    1.000,"PART-1-1",           256,       10.3968,       19.2167,            0.,NA,NA,"",   536.586E-03,   12.3867E-03,   536.443E-03,   4.09655E-03
C:/temp/dataset/2/23_5.odb,Step-1,Increment      1: Step Time =    1.000,"PART-1-1",           257,       12.1105,       19.9418,            0.,NA,NA,"",   448.712E-03,   55.5764E-03,   445.257E-03,   6.48364E-03
C:/temp/dataset/2/23_5.odb,Step-1,Increment      1: Step Time =    1.000,"PART-1-1",           258,       11.6215,       24.7876,            0.,NA,NA,"",   582.181E-03,   372.166E-03,   447.691E-03,   6.64024E-03
C:/temp/dataset/2/23_5.odb,Step-1,Increment      1: Step Time =    1.000,"PART-1-1",           259,       12.6971,       25.9410,            0.,NA,NA,"",   588.143E-03,   451.213E-03,   377.252E-03,   5.26769E-03
C:/temp/dataset/2/23_5.odb,Step-1,Increment      1: Step Time =    1.000,"PART-1-1",           260,       11.4859,       27.3886,            0.,NA,NA,"",   713.398E-03,   554.907E-03,   448.347E-03,   4.85339E-03
C:/temp/dataset/2/23_5.odb,Step-1,Increment      1: Step Time =    1.000,"PART-1-1",           261,       10.4103,       26.2351,            0.,NA,NA,"",   703.868E-03,   477.270E-03,   517.343E-03,   6.34171E-03
C:/temp/dataset/2/23_5.odb,Step-1,Increment      1: Step Time =    1.000,"PART-1-1",           262,       5.88041,       17.6377,            0.,NA,NA,"",   755.869E-03,  -53.4440E-03,   753.977E-03,   19.0350E-03
C:/temp/dataset/2/23_5.odb,Step-1,Increment      1: Step Time =    1.000,"PART-1-1",           263,       6.75071,       18.9160,            0.,NA,NA,"",   726.844E-03,  -1.05309E-03,   726.843E-03,   11.5790E-03
C:/temp/dataset/2/23_5.odb,Step-1,Increment      1: Step Time =    1.000,"PART-1-1",           264,       5.87030,       20.0282,            0.,NA,NA,"",   791.427E-03,   57.2275E-03,   789.355E-03,   18.5657E-03
C:/temp/dataset/2/23_5.odb,Step-1,Increment      1: Step Time =    1.000,"PART-1-1",           265,            5.,         18.75,            0.,NA,NA,"",   817.600E-03,   6.54137E-03,   817.574E-03,   28.6256E-03
C:/temp/dataset/2/23_5.odb,Step-1,Increment      1: Step Time =    1.000,"PART-1-1",           266,       12.3690,       13.3305,            0.,NA,NA,"",   534.894E-03,  -242.602E-03,   476.713E-03,   6.46681E-03
C:/temp/dataset/2/23_5.odb,Step-1,Increment      1: Step Time =    1.000,"PART-1-1",           267,       13.7195,       12.1790,            0.,NA,NA,"",   522.497E-03,  -272.653E-03,   445.717E-03,   11.9802E-03
C:/temp/dataset/2/23_5.odb,Step-1,Increment      1: Step Time =    1.000,"PART-1-1",           268,           15.,       13.9583,            0.,NA,NA,"",   434.435E-03,  -209.065E-03,   380.822E-03,   17.0247E-03
C:/temp/dataset/2/23_5.odb,Step-1,Increment      1: Step Time =    1.000,"PART-1-1",           269,       13.6495,       15.1098,            0.,NA,NA,"",   450.714E-03,  -174.523E-03,   415.554E-03,   11.4916E-03
C:/temp/dataset/2/23_5.odb,Step-1,Increment      1: Step Time =    1.000,"PART-1-1",           270,       12.5214,       4.81657,            0.,NA,NA,"",   651.033E-03,  -380.060E-03,   528.581E-03,   7.67060E-03
C:/temp/dataset/2/23_5.odb,Step-1,Increment      1: Step Time =    1.000,"PART-1-1",           271,       13.7670,       3.58604,            0.,NA,NA,"",   650.612E-03,  -371.301E-03,   534.258E-03,   9.78852E-03
C:/temp/dataset/2/23_5.odb,Step-1,Increment      1: Step Time =    1.000,"PART-1-1",           272,           15.,       5.20833,            0.,NA,NA,"",   633.914E-03,  -367.717E-03,   516.363E-03,   14.7671E-03
C:/temp/dataset/2/23_5.odb,Step-1,Increment      1: Step Time =    1.000,"PART-1-1",           273,       13.7545,       6.43886,            0.,NA,NA,"",   628.871E-03,  -371.124E-03,   507.687E-03,   11.8270E-03
C:/temp/dataset/2/23_5.odb,Step-1,Increment      1: Step Time =    1.000,"PART-1-1",           274,       13.7625,      -2.13133,            0.,NA,NA,"",   642.546E-03,  -312.123E-03,   561.644E-03,   2.85204E-03
C:/temp/dataset/2/23_5.odb,Step-1,Increment      1: Step Time =    1.000,"PART-1-1",           275,       12.5125,      -3.58966,            0.,NA,NA,"",   627.776E-03,  -295.569E-03,   553.842E-03,   2.69113E-03
C:/temp/dataset/2/23_5.odb,Step-1,Increment      1: Step Time =    1.000,"PART-1-1",           276,         13.75,           -5.,            0.,NA,NA,"",   630.354E-03,  -283.479E-03,   563.014E-03,   476.322E-06
C:/temp/dataset/2/23_5.odb,Step-1,Increment      1: Step Time =    1.000,"PART-1-1",           277,           15.,      -3.54167,            0.,NA,NA,"",   646.176E-03,  -296.861E-03,   573.949E-03,   559.181E-06
C:/temp/dataset/2/23_5.odb,Step-1,Increment      1: Step Time =    1.000,"PART-1-1",           278,      -9.21387,      -6.21191,            0.,NA,NA,"",   160.251E-03,  -149.187E-03,   58.5128E-03,   2.45210E-03
C:/temp/dataset/2/23_5.odb,Step-1,Increment      1: Step Time =    1.000,"PART-1-1",           279,      -8.44405,      -4.75360,            0.,NA,NA,"",   198.315E-03,  -181.939E-03,   78.9114E-03,   3.26361E-03
C:/temp/dataset/2/23_5.odb,Step-1,Increment      1: Step Time =    1.000,"PART-1-1",           280,      -9.71477,      -4.17886,            0.,NA,NA,"",   201.846E-03,  -195.472E-03,   50.3269E-03,   1.99126E-03
C:/temp/dataset/2/23_5.odb,Step-1,Increment      1: Step Time =    1.000,"PART-1-1",           281,      -10.4846,      -5.63717,            0.,NA,NA,"",   164.388E-03,  -161.121E-03,   32.6100E-03,   1.26797E-03
C:/temp/dataset/2/23_5.odb,Step-1,Increment      1: Step Time =    1.000,"PART-1-1",           282,      -5.84282,   107.969E-03,            0.,NA,NA,"",   355.725E-03,  -315.868E-03,   163.607E-03,   3.63426E-03
C:/temp/dataset/2/23_5.odb,Step-1,Increment      1: Step Time =    1.000,"PART-1-1",           283,      -4.64047,       1.60743,            0.,NA,NA,"",   411.408E-03,  -357.667E-03,   203.300E-03,   3.70469E-03
C:/temp/dataset/2/23_5.odb,Step-1,Increment      1: Step Time =    1.000,"PART-1-1",           284,      -6.45702,       2.58989,            0.,NA,NA,"",   410.221E-03,  -382.849E-03,   147.335E-03,   1.52124E-03
C:/temp/dataset/2/23_5.odb,Step-1,Increment      1: Step Time =    1.000,"PART-1-1",           285,      -7.65937,       1.09043,            0.,NA,NA,"",   357.425E-03,  -339.724E-03,   111.087E-03,   1.85168E-03
C:/temp/dataset/2/23_5.odb,Step-1,Increment      1: Step Time =    1.000,"PART-1-1",           286,      -6.51044,      -5.43697,            0.,NA,NA,"",   206.809E-03,  -166.859E-03,   122.181E-03,   7.39837E-03
C:/temp/dataset/2/23_5.odb,Step-1,Increment      1: Step Time =    1.000,"PART-1-1",           287,      -5.48201,      -3.85122,            0.,NA,NA,"",   264.415E-03,  -210.873E-03,   159.524E-03,   8.29699E-03
C:/temp/dataset/2/23_5.odb,Step-1,Increment      1: Step Time =    1.000,"PART-1-1",           288,      -7.41561,      -3.16785,            0.,NA,NA,"",   248.775E-03,  -223.937E-03,   108.356E-03,   4.48431E-03
C:/temp/dataset/2/23_5.odb,Step-1,Increment      1: Step Time =    1.000,"PART-1-1",           289,      -12.6742,      -10.6472,            0.,NA,NA,"",   70.3686E-03,  -70.1706E-03,  -5.27492E-03,   1.46669E-03
C:/temp/dataset/2/23_5.odb,Step-1,Increment      1: Step Time =    1.000,"PART-1-1",           290,      -11.3911,      -11.6978,            0.,NA,NA,"",   57.2631E-03,  -55.5971E-03,   13.7123E-03,   726.074E-06
C:/temp/dataset/2/23_5.odb,Step-1,Increment      1: Step Time =    1.000,"PART-1-1",           291,      -10.2167,      -10.1126,            0.,NA,NA,"",   85.0268E-03,  -78.4811E-03,   32.7150E-03,   2.14689E-03
C:/temp/dataset/2/23_5.odb,Step-1,Increment      1: Step Time =    1.000,"PART-1-1",           292,      -11.4997,      -9.06207,            0.,NA,NA,"",   95.3326E-03,  -94.5179E-03,   12.4367E-03,   383.307E-06
C:/temp/dataset/2/23_5.odb,Step-1,Increment      1: Step Time =    1.000,"PART-1-1",           293,      -13.7107,      -15.1438,            0.,NA,NA,"",   21.9519E-03,  -19.8520E-03,  -9.36931E-03,   2.51410E-03
C:/temp/dataset/2/23_5.odb,Step-1,Increment      1: Step Time =    1.000,"PART-1-1",           294,      -12.5249,      -13.4434,            0.,NA,NA,"",   35.1435E-03,  -35.1435E-03,  -15.3642E-06,   1.14405E-03
C:/temp/dataset/2/23_5.odb,Step-1,Increment      1: Step Time =    1.000,"PART-1-1",           295,      -13.8143,      -12.2579,            0.,NA,NA,"",   52.8213E-03,  -49.7561E-03,  -17.7317E-03,   2.98674E-03
C:/temp/dataset/2/23_5.odb,Step-1,Increment      1: Step Time =    1.000,"PART-1-1",           296,          -15.,      -13.9583,            0.,NA,NA,"",   41.4725E-03,  -32.7584E-03,  -25.4333E-03,   4.46548E-03
C:/temp/dataset/2/23_5.odb,Step-1,Increment      1: Step Time =    1.000,"PART-1-1",           297,      -12.0988,      -16.5012,            0.,NA,NA,"",   10.4784E-03,  -8.65040E-03,   5.91332E-03,   909.567E-06
C:/temp/dataset/2/23_5.odb,Step-1,Increment      1: Step Time =    1.000,"PART-1-1",           298,      -10.5811,      -17.2344,            0.,NA,NA,"",   17.5249E-03,  -4.34707E-03,   16.9772E-03,   1.78075E-03
C:/temp/dataset/2/23_5.odb,Step-1,Increment      1: Step Time =    1.000,"PART-1-1",           299,      -9.66362,      -15.1575,            0.,NA,NA,"",   34.8544E-03,  -20.0546E-03,   28.5068E-03,   2.88319E-03
C:/temp/dataset/2/23_5.odb,Step-1,Increment      1: Step Time =    1.000,"PART-1-1",           300,      -11.1813,      -14.4243,            0.,NA,NA,"",   29.3198E-03,  -25.3777E-03,   14.6842E-03,   1.09646E-03
C:/temp/dataset/2/23_5.odb,Step-1,Increment      1: Step Time =    1.000,"PART-1-1",           301,      -10.5090,      -18.8394,            0.,NA,NA,"",   15.7270E-03,   3.30312E-03,   15.3762E-03,   1.89701E-03
C:/temp/dataset/2/23_5.odb,Step-1,Increment      1: Step Time =    1.000,"PART-1-1",           302,      -8.88448,      -18.7076,            0.,NA,NA,"",   24.8094E-03,   1.66657E-03,   24.7533E-03,   3.17224E-03
C:/temp/dataset/2/23_5.odb,Step-1,Increment      1: Step Time =    1.000,"PART-1-1",           303,      -8.95657,      -17.1026,            0.,NA,NA,"",   29.6080E-03,  -6.56454E-03,   28.8711E-03,   3.43279E-03
C:/temp/dataset/2/23_5.odb,Step-1,Increment      1: Step Time =    1.000,"PART-1-1",           304,      -8.08225,      -19.7831,            0.,NA,NA,"",   25.6463E-03,   4.33776E-03,   25.2768E-03,   3.57650E-03
C:/temp/dataset/2/23_5.odb,Step-1,Increment      1: Step Time =    1.000,"PART-1-1",           305,      -6.89084,      -18.8787,            0.,NA,NA,"",   33.0865E-03,   144.508E-06,   33.0862E-03,   5.12310E-03
C:/temp/dataset/2/23_5.odb,Step-1,Increment      1: Step Time =    1.000,"PART-1-1",           306,      -7.69307,      -17.8032,            0.,NA,NA,"",   34.6002E-03,  -4.36035E-03,   34.3243E-03,   5.08970E-03
C:/temp/dataset/2/23_5.odb,Step-1,Increment      1: Step Time =    1.000,"PART-1-1",           307,       7.10093,      -24.9223,            0.,NA,NA,"",   915.716E-06,  -878.655E-06,  -257.880E-06,   143.623E-06
C:/temp/dataset/2/23_5.odb,Step-1,Increment      1: Step Time =    1.000,"PART-1-1",           308,       8.59925,      -23.6815,            0.,NA,NA,"",   752.186E-06,  -685.337E-06,  -309.995E-06,   77.9382E-06
C:/temp/dataset/2/23_5.odb,Step-1,Increment      1: Step Time =    1.000,"PART-1-1",           309,       6.88316,      -22.4353,            0.,NA,NA,"",   707.873E-06,  -604.716E-06,  -367.970E-06,   110.382E-06
C:/temp/dataset/2/23_5.odb,Step-1,Increment      1: Step Time =    1.000,"PART-1-1",           310,       5.38484,      -23.6762,            0.,NA,NA,"",   951.805E-06,  -918.798E-06,  -248.483E-06,   125.352E-06
C:/temp/dataset/2/23_5.odb,Step-1,Increment      1: Step Time =    1.000,"PART-1-1",           311,       13.3798,      -22.4744,            0.,NA,NA,"",   598.953E-06,  -593.797E-06,  -78.4242E-06,   23.3196E-06
C:/temp/dataset/2/23_5.odb,Step-1,Increment      1: Step Time =    1.000,"PART-1-1",           312,           15.,        -21.25,            0.,NA,NA,"",   625.960E-06,  -625.765E-06,  -15.6276E-06,   4.83848E-06
C:/temp/dataset/2/23_5.odb,Step-1,Increment      1: Step Time =    1.000,"PART-1-1",           313,       13.3333,          -20.,            0.,NA,NA,"",   676.205E-06,  -670.767E-06,  -85.5833E-06,   8.25807E-06
C:/temp/dataset/2/23_5.odb,Step-1,Increment      1: Step Time =    1.000,"PART-1-1",           314,       11.7131,      -21.2244,            0.,NA,NA,"",   636.962E-06,  -612.747E-06,  -173.957E-06,   24.3153E-06
C:/temp/dataset/2/23_5.odb,Step-1,Increment      1: Step Time =    1.000,"PART-1-1",           315,      -2.14863,       2.00914,            0.,NA,NA,"",   466.296E-03,  -368.536E-03,   285.679E-03,   5.37675E-03
C:/temp/dataset/2/23_5.odb,Step-1,Increment      1: Step Time =    1.000,"PART-1-1",           316,      -1.66393,   575.985E-03,            0.,NA,NA,"",   449.704E-03,  -332.444E-03,   302.844E-03,   6.20442E-03
C:/temp/dataset/2/23_5.odb,Step-1,Increment      1: Step Time =    1.000,"PART-1-1",           317,   135.628E-03,       1.10435,            0.,NA,NA,"",   500.045E-03,  -344.643E-03,   362.306E-03,   6.28754E-03
C:/temp/dataset/2/23_5.odb,Step-1,Increment      1: Step Time =    1.000,"PART-1-1",           318,  -349.073E-03,       2.53751,            0.,NA,NA,"",   513.140E-03,  -379.380E-03,   345.519E-03,   6.13172E-03
C:/temp/dataset/2/23_5.odb,Step-1,Increment      1: Step Time =    1.000,"PART-1-1",           319,   156.145E-03,      -1.87787,            0.,NA,NA,"",   455.706E-03,  -275.771E-03,   362.793E-03,   5.98066E-03
C:/temp/dataset/2/23_5.odb,Step-1,Increment      1: Step Time =    1.000,"PART-1-1",           320,       1.21010,      -2.70880,            0.,NA,NA,"",   471.976E-03,  -259.234E-03,   394.410E-03,   5.39961E-03
C:/temp/dataset/2/23_5.odb,Step-1,Increment      1: Step Time =    1.000,"PART-1-1",           321,       2.32846,      -1.50081,            0.,NA,NA,"",   517.452E-03,  -289.844E-03,   428.657E-03,   5.63374E-03
C:/temp/dataset/2/23_5.odb,Step-1,Increment      1: Step Time =    1.000,"PART-1-1",           322,       1.27451,  -669.883E-03,            0.,NA,NA,"",   502.227E-03,  -304.998E-03,   399.009E-03,   6.57065E-03
C:/temp/dataset/2/23_5.odb,Step-1,Increment      1: Step Time =    1.000,"PART-1-1",           323,       4.87500,      -1.23074,            0.,NA,NA,"",   576.308E-03,  -304.356E-03,   489.385E-03,   4.93658E-03
C:/temp/dataset/2/23_5.odb,Step-1,Increment      1: Step Time =    1.000,"PART-1-1",           324,       6.20088,      -2.43579,            0.,NA,NA,"",   583.748E-03,  -289.161E-03,   507.097E-03,   5.62570E-03
C:/temp/dataset/2/23_5.odb,Step-1,Increment      1: Step Time =    1.000,"PART-1-1",           325,       7.44880,      -1.07477,            0.,NA,NA,"",   614.494E-03,  -317.217E-03,   526.286E-03,   6.50785E-03
C:/temp/dataset/2/23_5.odb,Step-1,Increment      1: Step Time =    1.000,"PART-1-1",           326,       6.12293,   130.279E-03,            0.,NA,NA,"",   613.240E-03,  -332.492E-03,   515.279E-03,   5.39252E-03
C:/temp/dataset/2/23_5.odb,Step-1,Increment      1: Step Time =    1.000,"PART-1-1",           327,          8.75,           -5.,            0.,NA,NA,"",   591.466E-03,  -269.166E-03,   526.670E-03,   7.25799E-03
C:/temp/dataset/2/23_5.odb,Step-1,Increment      1: Step Time =    1.000,"PART-1-1",           328,       10.0063,      -3.63741,            0.,NA,NA,"",   611.800E-03,  -289.299E-03,   539.078E-03,   5.25471E-03
C:/temp/dataset/2/23_5.odb,Step-1,Increment      1: Step Time =    1.000,"PART-1-1",           329,       8.73716,      -2.32557,            0.,NA,NA,"",   613.124E-03,  -302.215E-03,   533.467E-03,   6.43499E-03
C:/temp/dataset/2/23_5.odb,Step-1,Increment      1: Step Time =    1.000,"PART-1-1",           330,       7.48081,      -3.68816,            0.,NA,NA,"",   587.944E-03,  -276.369E-03,   518.939E-03,   7.32682E-03
C:/temp/dataset/2/23_5.odb,Step-1,Increment      1: Step Time =    1.000,"PART-1-1",           331,       6.24109,       7.72904,            0.,NA,NA,"",   688.791E-03,  -360.985E-03,   586.620E-03,   17.8925E-03
C:/temp/dataset/2/23_5.odb,Step-1,Increment      1: Step Time =    1.000,"PART-1-1",           332,            5.,          6.25,            0.,NA,NA,"",   681.417E-03,  -372.521E-03,   570.577E-03,   29.3373E-03
C:/temp/dataset/2/23_5.odb,Step-1,Increment      1: Step Time =    1.000,"PART-1-1",           333,       6.24095,       5.17046,            0.,NA,NA,"",   679.102E-03,  -396.653E-03,   551.222E-03,   17.3662E-03
C:/temp/dataset/2/23_5.odb,Step-1,Increment      1: Step Time =    1.000,"PART-1-1",           334,       7.48203,       6.64950,            0.,NA,NA,"",   679.670E-03,  -382.630E-03,   561.735E-03,   8.86946E-03
C:/temp/dataset/2/23_5.odb,Step-1,Increment      1: Step Time =    1.000,"PART-1-1",           335,       7.34508,       23.6052,            0.,NA,NA,"",   770.118E-03,   300.523E-03,   709.061E-03,   6.89961E-03
C:/temp/dataset/2/23_5.odb,Step-1,Increment      1: Step Time =    1.000,"PART-1-1",           336,       6.41056,       24.2397,            0.,NA,NA,"",   849.175E-03,   351.349E-03,   773.079E-03,   6.12906E-03
C:/temp/dataset/2/23_5.odb,Step-1,Increment      1: Step Time =    1.000,"PART-1-1",           337,       6.08150,       22.9932,            0.,NA,NA,"",   834.618E-03,   262.628E-03,   792.221E-03,   7.73111E-03
C:/temp/dataset/2/23_5.odb,Step-1,Increment      1: Step Time =    1.000,"PART-1-1",           338,       7.01602,       22.3587,            0.,NA,NA,"",   757.377E-03,   212.849E-03,   726.853E-03,   8.11198E-03
C:/temp/dataset/2/23_5.odb,Step-1,Increment      1: Step Time =    1.000,"PART-1-1",           339,      -12.5005,       23.7291,            0.,NA,NA,"",       2.35596,   371.633E-03,       2.32647,   85.5979E-06
C:/temp/dataset/2/23_5.odb,Step-1,Increment      1: Step Time =    1.000,"PART-1-1",           340,      -13.7489,       24.9883,            0.,NA,NA,"",       2.47042,   478.002E-03,       2.42374,   84.8343E-06
C:/temp/dataset/2/23_5.odb,Step-1,Increment      1: Step Time =    1.000,"PART-1-1",           341,          -15.,         23.75,            0.,NA,NA,"",       2.55792,   381.674E-03,       2.52929,   78.9137E-06
C:/temp/dataset/2/23_5.odb,Step-1,Increment      1: Step Time =    1.000,"PART-1-1",           342,      -2.52491,       26.1674,            0.,NA,NA,"",       1.59370,   537.611E-03,       1.50029,   3.34462E-03
C:/temp/dataset/2/23_5.odb,Step-1,Increment      1: Step Time =    1.000,"PART-1-1",           343,      -1.30373,       24.8780,            0.,NA,NA,"",       1.46745,   432.587E-03,       1.40224,   5.11448E-03
C:/temp/dataset/2/23_5.odb,Step-1,Increment      1: Step Time =    1.000,"PART-1-1",           344,      -1.26817,       27.4122,            0.,NA,NA,"",       1.52619,   631.675E-03,       1.38933,   3.79078E-03
C:/temp/dataset/2/23_5.odb,Step-1,Increment      1: Step Time =    1.000,"PART-1-1",           345,       2.31009,       23.4917,            0.,NA,NA,"",       1.13994,   316.817E-03,       1.09502,   7.51080E-03
C:/temp/dataset/2/23_5.odb,Step-1,Increment      1: Step Time =    1.000,"PART-1-1",           346,       3.41051,       22.2101,            0.,NA,NA,"",       1.02405,   217.779E-03,       1.00062,   8.05770E-03
C:/temp/dataset/2/23_5.odb,Step-1,Increment      1: Step Time =    1.000,"PART-1-1",           347,       4.46987,       23.2845,            0.,NA,NA,"",   960.584E-03,   292.646E-03,   914.920E-03,   7.60001E-03
C:/temp/dataset/2/23_5.odb,Step-1,Increment      1: Step Time =    1.000,"PART-1-1",           348,       3.36945,       24.5662,            0.,NA,NA,"",       1.07885,   392.509E-03,       1.00491,   6.07393E-03
C:/temp/dataset/2/23_5.odb,Step-1,Increment      1: Step Time =    1.000,"PART-1-1",           349,       3.92627,       27.0683,            0.,NA,NA,"",       1.11981,   575.231E-03,   960.777E-03,   4.80345E-03
C:/temp/dataset/2/23_5.odb,Step-1,Increment      1: Step Time =    1.000,"PART-1-1",           350,       5.16355,       28.4353,            0.,NA,NA,"",       1.09447,   667.532E-03,   867.326E-03,   6.68142E-03
C:/temp/dataset/2/23_5.odb,Step-1,Increment      1: Step Time =    1.000,"PART-1-1",           351,          3.75,           30.,            0.,NA,NA,"",       1.26070,   799.221E-03,   974.998E-03,   8.22544E-03
C:/temp/dataset/2/23_5.odb,Step-1,Increment      1: Step Time =    1.000,"PART-1-1",           352,       2.51272,       28.6330,            0.,NA,NA,"",       1.28297,   704.296E-03,       1.07238,   5.81485E-03
C:/temp/dataset/2/23_5.odb,Step-1,Increment      1: Step Time =    1.000,"PART-1-1",           353,       11.0463,       14.3537,            0.,NA,NA,"",   558.115E-03,  -208.799E-03,   517.586E-03,   1.32290E-03
C:/temp/dataset/2/23_5.odb,Step-1,Increment      1: Step Time =    1.000,"PART-1-1",           354,       9.86747,       12.5470,            0.,NA,NA,"",   616.348E-03,  -267.628E-03,   555.212E-03,   3.33036E-03
C:/temp/dataset/2/23_5.odb,Step-1,Increment      1: Step Time =    1.000,"PART-1-1",           355,       11.1901,       11.5237,            0.,NA,NA,"",   597.752E-03,  -297.426E-03,   518.502E-03,   1.90531E-03
C:/temp/dataset/2/23_5.odb,Step-1,Increment      1: Step Time =    1.000,"PART-1-1",           356,       9.55073,       15.1783,            0.,NA,NA,"",   599.940E-03,  -175.958E-03,   573.557E-03,   4.07418E-03
C:/temp/dataset/2/23_5.odb,Step-1,Increment      1: Step Time =    1.000,"PART-1-1",           357,       8.18591,       15.9712,            0.,NA,NA,"",   647.245E-03,  -139.343E-03,   632.068E-03,   9.29625E-03
C:/temp/dataset/2/23_5.odb,Step-1,Increment      1: Step Time =    1.000,"PART-1-1",           358,       7.20669,       14.2932,            0.,NA,NA,"",   683.142E-03,  -198.531E-03,   653.657E-03,   13.5503E-03
C:/temp/dataset/2/23_5.odb,Step-1,Increment      1: Step Time =    1.000,"PART-1-1",           359,       8.57151,       13.5002,            0.,NA,NA,"",   643.731E-03,  -233.405E-03,   599.927E-03,   8.32755E-03
C:/temp/dataset/2/23_5.odb,Step-1,Increment      1: Step Time =    1.000,"PART-1-1",           360,       7.44377,       1.50598,            0.,NA,NA,"",   644.710E-03,  -358.641E-03,   535.749E-03,   7.72617E-03
C:/temp/dataset/2/23_5.odb,Step-1,Increment      1: Step Time =    1.000,"PART-1-1",           361,       8.72836,   326.342E-03,            0.,NA,NA,"",   639.000E-03,  -343.100E-03,   539.076E-03,   7.38979E-03
C:/temp/dataset/2/23_5.odb,Step-1,Increment      1: Step Time =    1.000,"PART-1-1",           362,       10.0261,       1.76283,            0.,NA,NA,"",   654.314E-03,  -363.954E-03,   543.749E-03,   7.95919E-03
C:/temp/dataset/2/23_5.odb,Step-1,Increment      1: Step Time =    1.000,"PART-1-1",           363,       8.74149,       2.94246,            0.,NA,NA,"",   662.994E-03,  -377.973E-03,   544.700E-03,   7.58098E-03
C:/temp/dataset/2/23_5.odb,Step-1,Increment      1: Step Time =    1.000,"PART-1-1",           364,       12.5045,       7.62102,            0.,NA,NA,"",   628.831E-03,  -367.147E-03,   510.521E-03,   7.30763E-03
C:/temp/dataset/2/23_5.odb,Step-1,Increment      1: Step Time =    1.000,"PART-1-1",           365,           15.,         8.125,            0.,NA,NA,"",   587.215E-03,  -347.621E-03,   473.267E-03,   16.9202E-03
C:/temp/dataset/2/23_5.odb,Step-1,Increment      1: Step Time =    1.000,"PART-1-1",           366,       13.7500,       9.30715,            0.,NA,NA,"",   584.618E-03,  -338.085E-03,   476.946E-03,   12.2370E-03
C:/temp/dataset/2/23_5.odb,Step-1,Increment      1: Step Time =    1.000,"PART-1-1",           367,      -1.45938,      -2.40358,            0.,NA,NA,"",   402.982E-03,  -259.388E-03,   308.402E-03,   6.10452E-03
C:/temp/dataset/2/23_5.odb,Step-1,Increment      1: Step Time =    1.000,"PART-1-1",           368,      -2.69869,      -3.52952,            0.,NA,NA,"",   347.098E-03,  -225.918E-03,   263.511E-03,   4.10487E-03
C:/temp/dataset/2/23_5.odb,Step-1,Increment      1: Step Time =    1.000,"PART-1-1",           369,         -1.25,           -5.,            0.,NA,NA,"",   363.049E-03,  -183.480E-03,   313.272E-03,   4.47674E-03
C:/temp/dataset/2/23_5.odb,Step-1,Increment      1: Step Time =    1.000,"PART-1-1",           370,  -10.6917E-03,      -3.87406,            0.,NA,NA,"",   419.864E-03,  -223.964E-03,   355.143E-03,   5.15106E-03
C:/temp/dataset/2/23_5.odb,Step-1,Increment      1: Step Time =    1.000,"PART-1-1",           371,      -13.3333,            5.,            0.,NA,NA,"",   443.741E-03,  -441.873E-03,  -40.6718E-03,   257.671E-06
C:/temp/dataset/2/23_5.odb,Step-1,Increment      1: Step Time =    1.000,"PART-1-1",           372,          -15.,       3.54167,            0.,NA,NA,"",   410.707E-03,  -401.857E-03,  -84.8044E-03,   245.962E-06
C:/temp/dataset/2/23_5.odb,Step-1,Increment      1: Step Time =    1.000,"PART-1-1",           373,      -13.2137,       2.05352,            0.,NA,NA,"",   363.475E-03,  -361.666E-03,  -36.2162E-03,   917.079E-06
C:/temp/dataset/2/23_5.odb,Step-1,Increment      1: Step Time =    1.000,"PART-1-1",           374,      -11.5470,       3.51185,            0.,NA,NA,"",   402.896E-03,  -402.837E-03,   6.88194E-03,   978.692E-06
C:/temp/dataset/2/23_5.odb,Step-1,Increment      1: Step Time =    1.000,"PART-1-1",           375,          -15.,      625.E-03,            0.,NA,NA,"",   332.575E-03,  -322.254E-03,  -82.2119E-03,   1.41037E-03
C:/temp/dataset/2/23_5.odb,Step-1,Increment      1: Step Time =    1.000,"PART-1-1",           376,      -12.9883,      -1.02354,            0.,NA,NA,"",   278.377E-03,  -277.015E-03,  -27.5073E-03,   1.54161E-03
C:/temp/dataset/2/23_5.odb,Step-1,Increment      1: Step Time =    1.000,"PART-1-1",           377,      -11.2019,   404.974E-03,            0.,NA,NA,"",   317.145E-03,  -316.722E-03,   16.3757E-03,   1.82193E-03
C:/temp/dataset/2/23_5.odb,Step-1,Increment      1: Step Time =    1.000,"PART-1-1",           378,      -13.6690,      -3.88141,            0.,NA,NA,"",   207.045E-03,  -203.381E-03,  -38.7816E-03,   2.53526E-03
C:/temp/dataset/2/23_5.odb,Step-1,Increment      1: Step Time =    1.000,"PART-1-1",           379,      -11.6573,      -2.61328,            0.,NA,NA,"",   234.866E-03,  -234.787E-03,   6.07374E-03,   1.79994E-03
C:/temp/dataset/2/23_5.odb,Step-1,Increment      1: Step Time =    1.000,"PART-1-1",           380,          -15.,      -2.29167,            0.,NA,NA,"",   256.064E-03,  -244.645E-03,  -75.6141E-03,   3.03929E-03
C:/temp/dataset/2/23_5.odb,Step-1,Increment      1: Step Time =    1.000,"PART-1-1",           381,           -5.,         -8.75,            0.,NA,NA,"",   169.635E-03,  -114.103E-03,   125.524E-03,   10.4086E-03
C:/temp/dataset/2/23_5.odb,Step-1,Increment      1: Step Time =    1.000,"PART-1-1",           382,      -6.37238,      -7.84264,            0.,NA,NA,"",   165.053E-03,  -122.766E-03,   110.322E-03,   8.31512E-03
C:/temp/dataset/2/23_5.odb,Step-1,Increment      1: Step Time =    1.000,"PART-1-1",           383,      -7.67841,      -9.42411,            0.,NA,NA,"",   120.575E-03,  -93.2411E-03,   76.4483E-03,   5.93271E-03
C:/temp/dataset/2/23_5.odb,Step-1,Increment      1: Step Time =    1.000,"PART-1-1",           384,      -6.30603,      -10.3315,            0.,NA,NA,"",   125.191E-03,  -84.1494E-03,   92.6916E-03,   8.02370E-03
C:/temp/dataset/2/23_5.odb,Step-1,Increment      1: Step Time =    1.000,"PART-1-1",           385,      -13.6103,      -21.3688,            0.,NA,NA,"",   9.29526E-03,   9.16028E-03,   1.57832E-03,   1.36800E-03
C:/temp/dataset/2/23_5.odb,Step-1,Increment      1: Step Time =    1.000,"PART-1-1",           386,          -15.,      -22.7083,            0.,NA,NA,"",   9.55613E-03,   9.51517E-03,   883.756E-06,   1.64417E-03
C:/temp/dataset/2/23_5.odb,Step-1,Increment      1: Step Time =    1.000,"PART-1-1",           387,      -13.6241,      -24.2925,            0.,NA,NA,"",   10.4343E-03,   9.97278E-03,   3.06898E-03,   822.813E-06
C:/temp/dataset/2/23_5.odb,Step-1,Increment      1: Step Time =    1.000,"PART-1-1",           388,      -12.2343,      -22.9530,            0.,NA,NA,"",   11.6109E-03,   10.2852E-03,   5.38781E-03,   1.66686E-03
C:/temp/dataset/2/23_5.odb,Step-1,Increment      1: Step Time =    1.000,"PART-1-1",           389,           -5.,        -16.25,            0.,NA,NA,"",   66.9824E-03,  -23.6987E-03,   62.6499E-03,   9.24516E-03
C:/temp/dataset/2/23_5.odb,Step-1,Increment      1: Step Time =    1.000,"PART-1-1",           390,      -6.06585,      -15.2329,            0.,NA,NA,"",   67.4289E-03,  -28.0074E-03,   61.3372E-03,   7.83834E-03
C:/temp/dataset/2/23_5.odb,Step-1,Increment      1: Step Time =    1.000,"PART-1-1",           391,      -6.99530,      -16.6022,            0.,NA,NA,"",   47.1101E-03,  -13.7955E-03,   45.0449E-03,   6.35457E-03
C:/temp/dataset/2/23_5.odb,Step-1,Increment      1: Step Time =    1.000,"PART-1-1",           392,      -5.92946,      -17.6192,            0.,NA,NA,"",   46.1596E-03,  -9.70260E-03,   45.1284E-03,   7.88040E-03
C:/temp/dataset/2/23_5.odb,Step-1,Increment      1: Step Time =    1.000,"PART-1-1",           393,         -13.5,          -30.,            0.,NA,NA,"",            0.,   962.419E-42,   2.40823E-39,   2.09249E-03
C:/temp/dataset/2/23_5.odb,Step-1,Increment      1: Step Time =    1.000,"PART-1-1",           394,      -12.0804,      -28.6247,            0.,NA,NA,"",   3.16446E-03,   2.96496E-03,   1.10579E-03,   1.77110E-03
C:/temp/dataset/2/23_5.odb,Step-1,Increment      1: Step Time =    1.000,"PART-1-1",           395,      -13.5804,      -27.1664,            0.,NA,NA,"",   6.55112E-03,   6.19856E-03,   2.12015E-03,   1.09821E-03
C:/temp/dataset/2/23_5.odb,Step-1,Increment      1: Step Time =    1.000,"PART-1-1",           396,          -15.,      -28.5417,            0.,NA,NA,"",   4.48870E-03,   3.83698E-03,   2.32938E-03,   1.47881E-03
C:/temp/dataset/2/23_5.odb,Step-1,Increment      1: Step Time =    1.000,"PART-1-1",           397,          13.5,          -30.,            0.,NA,NA,"",            0.,  -52.1255E-42,   43.0269E-42,   83.4767E-06
C:/temp/dataset/2/23_5.odb,Step-1,Increment      1: Step Time =    1.000,"PART-1-1",           398,           15.,        -28.75,            0.,NA,NA,"",   164.393E-06,  -147.221E-06,   73.1491E-06,   53.9860E-06
C:/temp/dataset/2/23_5.odb,Step-1,Increment      1: Step Time =    1.000,"PART-1-1",           399,       13.4640,      -27.4843,            0.,NA,NA,"",   301.473E-06,  -301.409E-06,  -6.23858E-06,   48.0759E-06
C:/temp/dataset/2/23_5.odb,Step-1,Increment      1: Step Time =    1.000,"PART-1-1",           400,       11.9640,      -28.7343,            0.,NA,NA,"",   177.132E-06,  -176.750E-06,  -11.6212E-06,   86.9484E-06
C:/temp/dataset/2/23_5.odb,Step-1,Increment      1: Step Time =    1.000,"PART-1-1",           401,       10.2658,      -24.9335,            0.,NA,NA,"",   645.440E-06,  -616.448E-06,  -191.272E-06,   71.4618E-06
C:/temp/dataset/2/23_5.odb,Step-1,Increment      1: Step Time =    1.000,"PART-1-1",           402,       8.77397,      -26.1861,            0.,NA,NA,"",   695.936E-06,  -677.780E-06,  -157.929E-06,   112.098E-06
C:/temp/dataset/2/23_5.odb,Step-1,Increment      1: Step Time =    1.000,"PART-1-1",           403,       10.3945,      -27.4590,            0.,NA,NA,"",   426.077E-06,  -420.950E-06,  -65.8982E-06,   109.261E-06
C:/temp/dataset/2/23_5.odb,Step-1,Increment      1: Step Time =    1.000,"PART-1-1",           404,       11.8863,      -26.2064,            0.,NA,NA,"",   476.733E-06,  -469.929E-06,  -80.2556E-06,   52.3917E-06
C:/temp/dataset/2/23_5.odb,Step-1,Increment      1: Step Time =    1.000,"PART-1-1",           405,       8.93044,      -28.7247,            0.,NA,NA,"",   302.671E-06,  -302.251E-06,  -15.9360E-06,   144.976E-06
C:/temp/dataset/2/23_5.odb,Step-1,Increment      1: Step Time =    1.000,"PART-1-1",           406,       7.31300,      -27.4411,            0.,NA,NA,"",   707.725E-06,  -704.909E-06,  -63.0755E-06,   198.281E-06
C:/temp/dataset/2/23_5.odb,Step-1,Increment      1: Step Time =    1.000,"PART-1-1",           407,       5.88256,      -28.7164,            0.,NA,NA,"",   546.445E-06,  -545.556E-06,   31.1588E-06,   270.670E-06
C:/temp/dataset/2/23_5.odb,Step-1,Increment      1: Step Time =    1.000,"PART-1-1",           408,           7.5,          -30.,            0.,NA,NA,"",            0.,  -259.043E-42,   94.1392E-42,   242.084E-06
C:/temp/dataset/2/23_5.odb,Step-1,Increment      1: Step Time =    1.000,"PART-1-1",           409,       5.63995,      -26.1773,            0.,NA,NA,"",   1.11388E-03,  -1.11062E-03,  -85.1109E-06,   205.685E-06
C:/temp/dataset/2/23_5.odb,Step-1,Increment      1: Step Time =    1.000,"PART-1-1",           410,       3.92490,      -24.9166,            0.,NA,NA,"",   1.38046E-03,  -1.37899E-03,   63.6264E-06,   241.867E-06
C:/temp/dataset/2/23_5.odb,Step-1,Increment      1: Step Time =    1.000,"PART-1-1",           411,       2.50142,      -26.1700,            0.,NA,NA,"",   1.82899E-03,  -1.75092E-03,   528.674E-06,   370.909E-06
C:/temp/dataset/2/23_5.odb,Step-1,Increment      1: Step Time =    1.000,"PART-1-1",           412,       4.21647,      -27.4307,            0.,NA,NA,"",   1.20723E-03,  -1.19965E-03,   135.079E-06,   340.590E-06
C:/temp/dataset/2/23_5.odb,Step-1,Increment      1: Step Time =    1.000,"PART-1-1",           413,       1.12659,      -27.4308,            0.,NA,NA,"",   1.93713E-03,  -1.74860E-03,   833.596E-06,   636.908E-06
C:/temp/dataset/2/23_5.odb,Step-1,Increment      1: Step Time =    1.000,"PART-1-1",           414,  -207.324E-03,      -28.7165,            0.,NA,NA,"",   1.35571E-03,  -1.16294E-03,   696.792E-06,   926.797E-06
C:/temp/dataset/2/23_5.odb,Step-1,Increment      1: Step Time =    1.000,"PART-1-1",           415,           1.5,          -30.,            0.,NA,NA,"",            0.,  -727.265E-42,   1.05683E-39,   773.924E-06
C:/temp/dataset/2/23_5.odb,Step-1,Increment      1: Step Time =    1.000,"PART-1-1",           416,       2.83391,      -28.7143,            0.,NA,NA,"",   929.076E-06,  -901.922E-06,   222.978E-06,   506.904E-06
C:/temp/dataset/2/23_5.odb,Step-1,Increment      1: Step Time =    1.000,"PART-1-1",           417,      -1.92078,      -27.4395,            0.,NA,NA,"",   2.85987E-03,  -1.67205E-03,   2.32015E-03,   1.26703E-03
C:/temp/dataset/2/23_5.odb,Step-1,Increment      1: Step Time =    1.000,"PART-1-1",           418,      -3.21345,      -28.7230,            0.,NA,NA,"",   1.60745E-03,  -780.824E-06,   1.40507E-03,   1.51328E-03
C:/temp/dataset/2/23_5.odb,Step-1,Increment      1: Step Time =    1.000,"PART-1-1",           419,          -1.5,          -30.,            0.,NA,NA,"",            0.,  -804.148E-42,   2.20047E-39,   1.13796E-03
C:/temp/dataset/2/23_5.odb,Step-1,Increment      1: Step Time =    1.000,"PART-1-1",           420,      -5.57419,      -22.4519,            0.,NA,NA,"",   17.8954E-03,   1.54856E-03,   17.8283E-03,   4.22601E-03
C:/temp/dataset/2/23_5.odb,Step-1,Increment      1: Step Time =    1.000,"PART-1-1",           421,      -6.77537,      -23.6376,            0.,NA,NA,"",   14.7802E-03,   3.66220E-03,   14.3194E-03,   4.00862E-03
C:/temp/dataset/2/23_5.odb,Step-1,Increment      1: Step Time =    1.000,"PART-1-1",           422,      -5.25528,      -24.9124,            0.,NA,NA,"",   9.63952E-03,   649.947E-06,   9.61758E-03,   2.83312E-03
C:/temp/dataset/2/23_5.odb,Step-1,Increment      1: Step Time =    1.000,"PART-1-1",           423,      -4.05411,      -23.7268,            0.,NA,NA,"",   10.4690E-03,  -800.475E-06,   10.4383E-03,   2.92921E-03
C:/temp/dataset/2/23_5.odb,Step-1,Increment      1: Step Time =    1.000,"PART-1-1",           424,       13.4223,      -24.9720,            0.,NA,NA,"",   516.356E-06,  -514.824E-06,  -39.7521E-06,   27.9647E-06
C:/temp/dataset/2/23_5.odb,Step-1,Increment      1: Step Time =    1.000,"PART-1-1",           425,           15.,        -26.25,            0.,NA,NA,"",   420.978E-06,  -412.225E-06,   85.3956E-06,   17.9832E-06
C:/temp/dataset/2/23_5.odb,Step-1,Increment      1: Step Time =    1.000,"PART-1-1",           426,       11.8021,      -23.6964,            0.,NA,NA,"",   604.332E-06,  -584.467E-06,  -153.672E-06,   30.5260E-06
C:/temp/dataset/2/23_5.odb,Step-1,Increment      1: Step Time =    1.000,"PART-1-1",           427,       10.1355,      -22.4445,            0.,NA,NA,"",   657.981E-06,  -601.516E-06,  -266.678E-06,   59.6713E-06
C:/temp/dataset/2/23_5.odb,Step-1,Increment      1: Step Time =    1.000,"PART-1-1",           428,      -2.31424,      -24.9364,            0.,NA,NA,"",   5.68564E-03,  -1.91280E-03,   5.35422E-03,   1.61449E-03
C:/temp/dataset/2/23_5.odb,Step-1,Increment      1: Step Time =    1.000,"PART-1-1",           429,      -3.63092,      -26.1962,            0.,NA,NA,"",   5.43414E-03,  -1.10789E-03,   5.32000E-03,   2.03850E-03
C:/temp/dataset/2/23_5.odb,Step-1,Increment      1: Step Time =    1.000,"PART-1-1",           430,  -604.096E-03,      -26.1796,            0.,NA,NA,"",   3.21038E-03,  -2.19385E-03,   2.34384E-03,   950.797E-06
C:/temp/dataset/2/23_5.odb,Step-1,Increment      1: Step Time =    1.000,"PART-1-1",           431,      -7.52977,      -11.9021,            0.,NA,NA,"",   88.2084E-03,  -58.8175E-03,   65.7361E-03,   6.12150E-03
C:/temp/dataset/2/23_5.odb,Step-1,Increment      1: Step Time =    1.000,"PART-1-1",           432,      -6.22373,      -12.8207,            0.,NA,NA,"",   92.3443E-03,  -51.8573E-03,   76.4087E-03,   7.82044E-03
C:/temp/dataset/2/23_5.odb,Step-1,Increment      1: Step Time =    1.000,"PART-1-1",           433,           -5.,        -11.25,            0.,NA,NA,"",   129.214E-03,  -76.4674E-03,   104.159E-03,   9.69121E-03
C:/temp/dataset/2/23_5.odb,Step-1,Increment      1: Step Time =    1.000,"PART-1-1",           434,      -10.0475,      -12.6788,            0.,NA,NA,"",   53.7978E-03,  -44.5310E-03,   30.1860E-03,   2.49094E-03
C:/temp/dataset/2/23_5.odb,Step-1,Increment      1: Step Time =    1.000,"PART-1-1",           435,           -5.,         -6.25,            0.,NA,NA,"",   218.951E-03,  -157.142E-03,   152.465E-03,   13.7403E-03
C:/temp/dataset/2/23_5.odb,Step-1,Increment      1: Step Time =    1.000,"PART-1-1",           436,      -7.88282,      -7.02961,            0.,NA,NA,"",   157.996E-03,  -133.602E-03,   84.3396E-03,   4.12942E-03
C:/temp/dataset/2/23_5.odb,Step-1,Increment      1: Step Time =    1.000,"PART-1-1",           437,      -13.8577,      -6.65334,            0.,NA,NA,"",   145.395E-03,  -141.062E-03,  -35.2282E-03,   3.28456E-03
C:/temp/dataset/2/23_5.odb,Step-1,Increment      1: Step Time =    1.000,"PART-1-1",           438,      -12.5267,      -5.32641,            0.,NA,NA,"",   168.873E-03,  -168.536E-03,  -10.6666E-03,   1.67430E-03
C:/temp/dataset/2/23_5.odb,Step-1,Increment      1: Step Time =    1.000,"PART-1-1",           439,          -15.,      -5.20833,            0.,NA,NA,"",   185.638E-03,  -173.923E-03,  -64.9033E-03,   4.39765E-03
C:/temp/dataset/2/23_5.odb,Step-1,Increment      1: Step Time =    1.000,"PART-1-1",           440,          1.25,           -5.,            0.,NA,NA,"",   438.271E-03,  -200.186E-03,   389.881E-03,   8.27882E-03
C:/temp/dataset/2/23_5.odb,Step-1,Increment      1: Step Time =    1.000,"PART-1-1",           441,       2.47079,      -3.83474,            0.,NA,NA,"",   489.285E-03,  -239.205E-03,   426.827E-03,   7.34934E-03
C:/temp/dataset/2/23_5.odb,Step-1,Increment      1: Step Time =    1.000,"PART-1-1",           442,       3.51261,  -149.180E-03,            0.,NA,NA,"",   562.778E-03,  -320.082E-03,   462.889E-03,   5.33340E-03
C:/temp/dataset/2/23_5.odb,Step-1,Increment      1: Step Time =    1.000,"PART-1-1",           443,       3.69085,      -2.58237,            0.,NA,NA,"",   535.301E-03,  -273.230E-03,   460.318E-03,   5.49276E-03
C:/temp/dataset/2/23_5.odb,Step-1,Increment      1: Step Time =    1.000,"PART-1-1",           444,       8.74868,       5.55605,            0.,NA,NA,"",   673.076E-03,  -388.377E-03,   549.722E-03,   4.47417E-03
C:/temp/dataset/2/23_5.odb,Step-1,Increment      1: Step Time =    1.000,"PART-1-1",           445,       10.0030,       7.12352,            0.,NA,NA,"",   660.661E-03,  -377.515E-03,   542.176E-03,   2.11343E-03
C:/temp/dataset/2/23_5.odb,Step-1,Increment      1: Step Time =    1.000,"PART-1-1",           446,       8.73640,       8.21697,            0.,NA,NA,"",   668.036E-03,  -363.095E-03,   560.744E-03,   7.41395E-03
C:/temp/dataset/2/23_5.odb,Step-1,Increment      1: Step Time =    1.000,"PART-1-1",           447,           15.,     -625.E-03,            0.,NA,NA,"",   657.126E-03,  -328.303E-03,   569.238E-03,   4.35269E-03
C:/temp/dataset/2/23_5.odb,Step-1,Increment      1: Step Time =    1.000,"PART-1-1",           448,       13.7714,   731.820E-03,            0.,NA,NA,"",   652.467E-03,  -346.487E-03,   552.865E-03,   6.39840E-03
C:/temp/dataset/2/23_5.odb,Step-1,Increment      1: Step Time =    1.000,"PART-1-1",           449,       12.5339,  -774.506E-03,            0.,NA,NA,"",   642.776E-03,  -329.700E-03,   551.778E-03,   6.15427E-03
C:/temp/dataset/2/23_5.odb,Step-1,Increment      1: Step Time =    1.000,"PART-1-1",           450,       7.40609,       11.8257,            0.,NA,NA,"",   679.135E-03,  -278.589E-03,   619.364E-03,   12.9157E-03
C:/temp/dataset/2/23_5.odb,Step-1,Increment      1: Step Time =    1.000,"PART-1-1",           451,       8.70206,       10.8725,            0.,NA,NA,"",   656.124E-03,  -309.914E-03,   578.318E-03,   7.94154E-03
C:/temp/dataset/2/23_5.odb,Step-1,Increment      1: Step Time =    1.000,"PART-1-1",           452,       11.2454,       8.75341,            0.,NA,NA,"",   632.854E-03,  -355.638E-03,   523.475E-03,   2.84093E-03
C:/temp/dataset/2/23_5.odb,Step-1,Increment      1: Step Time =    1.000,"PART-1-1",           453,       11.2622,       5.99112,            0.,NA,NA,"",   654.912E-03,  -382.756E-03,   531.420E-03,   4.79403E-03
C:/temp/dataset/2/23_5.odb,Step-1,Increment      1: Step Time =    1.000,"PART-1-1",           454,       13.8596,       24.3693,            0.,NA,NA,"",   463.139E-03,   341.880E-03,   312.436E-03,   5.71628E-03
C:/temp/dataset/2/23_5.odb,Step-1,Increment      1: Step Time =    1.000,"PART-1-1",           455,       12.6110,       23.1199,            0.,NA,NA,"",   472.698E-03,   256.893E-03,   396.798E-03,   7.02181E-03
C:/temp/dataset/2/23_5.odb,Step-1,Increment      1: Step Time =    1.000,"PART-1-1",           456,       13.7514,       21.4590,            0.,NA,NA,"",   374.134E-03,   150.416E-03,   342.566E-03,   9.08801E-03
C:/temp/dataset/2/23_5.odb,Step-1,Increment      1: Step Time =    1.000,"PART-1-1",           457,           15.,       22.7083,            0.,NA,NA,"",   343.605E-03,   232.543E-03,   252.959E-03,   9.21740E-03
C:/temp/dataset/2/23_5.odb,Step-1,Increment      1: Step Time =    1.000,"PART-1-1",           458,       8.83903,       17.2613,            0.,NA,NA,"",   616.877E-03,  -85.5671E-03,   610.914E-03,   5.59783E-03
C:/temp/dataset/2/23_5.odb,Step-1,Increment      1: Step Time =    1.000,"PART-1-1",           459,       10.5130,       17.3338,            0.,NA,NA,"",   541.196E-03,  -84.1092E-03,   534.620E-03,   1.55231E-03
C:/temp/dataset/2/23_5.odb,Step-1,Increment      1: Step Time =    1.000,"PART-1-1",           460,       8.72284,       19.1442,            0.,NA,NA,"",   621.609E-03,   8.55622E-03,   621.550E-03,   4.67477E-03
C:/temp/dataset/2/23_5.odb,Step-1,Increment      1: Step Time =    1.000,"PART-1-1",           461,           15.,       28.5417,            0.,NA,NA,"",   661.969E-03,   624.852E-03,   218.550E-03,   484.615E-06
C:/temp/dataset/2/23_5.odb,Step-1,Increment      1: Step Time =    1.000,"PART-1-1",           462,         13.75,           30.,            0.,NA,NA,"",   783.136E-03,   724.286E-03,   297.846E-03,   415.988E-06
C:/temp/dataset/2/23_5.odb,Step-1,Increment      1: Step Time =    1.000,"PART-1-1",           463,       12.5875,       28.6551,            0.,NA,NA,"",   740.785E-03,   638.235E-03,   376.057E-03,   2.27311E-03
C:/temp/dataset/2/23_5.odb,Step-1,Increment      1: Step Time =    1.000,"PART-1-1",           464,       13.8375,       27.1968,            0.,NA,NA,"",   614.256E-03,   536.256E-03,   299.565E-03,   2.41498E-03
C:/temp/dataset/2/23_5.odb,Step-1,Increment      1: Step Time =    1.000,"PART-1-1",           465,         11.25,           30.,            0.,NA,NA,"",   864.133E-03,   731.865E-03,   459.455E-03,   2.80665E-03
C:/temp/dataset/2/23_5.odb,Step-1,Increment      1: Step Time =    1.000,"PART-1-1",           466,       10.1484,       28.7335,            0.,NA,NA,"",   841.525E-03,   653.283E-03,   530.458E-03,   4.55092E-03
C:/temp/dataset/2/23_5.odb,Step-1,Increment      1: Step Time =    1.000,"PART-1-1",           467,       7.69941,       28.7139,            0.,NA,NA,"",   959.429E-03,   667.443E-03,   689.220E-03,   6.43285E-03
C:/temp/dataset/2/23_5.odb,Step-1,Increment      1: Step Time =    1.000,"PART-1-1",           468,       9.09777,       27.4473,            0.,NA,NA,"",   825.505E-03,   568.965E-03,   598.112E-03,   5.63886E-03
C:/temp/dataset/2/23_5.odb,Step-1,Increment      1: Step Time =    1.000,"PART-1-1",           469,          8.75,           30.,            0.,NA,NA,"",   971.388E-03,   747.434E-03,   620.433E-03,   6.38981E-03
C:/temp/dataset/2/23_5.odb,Step-1,Increment      1: Step Time =    1.000,"PART-1-1",           470,  -9.87333E-03,       28.6960,            0.,NA,NA,"",       1.47236,   727.271E-03,       1.28020,   3.80780E-03
C:/temp/dataset/2/23_5.odb,Step-1,Increment      1: Step Time =    1.000,"PART-1-1",           471,          1.25,           30.,            0.,NA,NA,"",       1.43436,   823.961E-03,       1.17408,   5.70955E-03
C:/temp/dataset/2/23_5.odb,Step-1,Increment      1: Step Time =    1.000,"PART-1-1",           472,       4.87954,       25.6434,            0.,NA,NA,"",       1.00064,   463.430E-03,   886.859E-03,   5.00948E-03
C:/temp/dataset/2/23_5.odb,Step-1,Increment      1: Step Time =    1.000,"PART-1-1",           473,      -5.00474,       28.7231,            0.,NA,NA,"",       1.85760,   752.830E-03,       1.69821,   533.501E-06
C:/temp/dataset/2/23_5.odb,Step-1,Increment      1: Step Time =    1.000,"PART-1-1",           474,         -6.25,           30.,            0.,NA,NA,"",       1.99251,   861.812E-03,       1.79649,   216.053E-06
C:/temp/dataset/2/23_5.odb,Step-1,Increment      1: Step Time =    1.000,"PART-1-1",           475,      -3.76303,       27.4393,            0.,NA,NA,"",       1.72407,   643.783E-03,       1.59936,   1.95515E-03
C:/temp/dataset/2/23_5.odb,Step-1,Increment      1: Step Time =    1.000,"PART-1-1",           476,      -3.77322,       24.9147,            0.,NA,NA,"",       1.67028,   440.792E-03,       1.61107,   2.88873E-03
C:/temp/dataset/2/23_5.odb,Step-1,Increment      1: Step Time =    1.000,"PART-1-1",           477,      -13.7476,       27.4926,            0.,NA,NA,"",       2.50978,   681.490E-03,       2.41548,   70.1249E-06
C:/temp/dataset/2/23_5.odb,Step-1,Increment      1: Step Time =    1.000,"PART-1-1",           478,        -13.75,           30.,            0.,NA,NA,"",       2.56502,   885.286E-03,       2.40741,   21.4091E-06
C:/temp/dataset/2/23_5.odb,Step-1,Increment      1: Step Time =    1.000,"PART-1-1",           479,          -15.,         28.75,            0.,NA,NA,"",       2.63369,   787.847E-03,       2.51309,   17.1577E-06
C:/temp/dataset/2/23_5.odb,Step-1,Increment      1: Step Time =    1.000,"PART-1-1",           480,          -15.,         26.25,            0.,NA,NA,"",       2.58816,   584.670E-03,       2.52125,   77.7198E-06
C:/temp/dataset/2/23_5.odb,Step-1,Increment      1: Step Time =    1.000,"PART-1-1",           481,      -12.4965,       26.2309,            0.,NA,NA,"",       2.38822,   574.755E-03,       2.31803,   85.1383E-06
C:/temp/dataset/2/23_5.odb,Step-1,Increment      1: Step Time =    1.000,"PART-1-1",           482,      -10.0014,       23.7134,            0.,NA,NA,"",       2.15428,   361.901E-03,       2.12367,   143.250E-06
C:/temp/dataset/2/23_5.odb,Step-1,Increment      1: Step Time =    1.000,"PART-1-1",           483,      -8.75535,       22.4567,            0.,NA,NA,"",       2.04287,   255.932E-03,       2.02677,   183.243E-06
C:/temp/dataset/2/23_5.odb,Step-1,Increment      1: Step Time =    1.000,"PART-1-1",           484,      -7.50515,       23.6891,            0.,NA,NA,"",       1.95341,   351.502E-03,       1.92152,   337.444E-06
C:/temp/dataset/2/23_5.odb,Step-1,Increment      1: Step Time =    1.000,"PART-1-1",           485,      -8.75118,       24.9458,            0.,NA,NA,"",       2.06944,   457.649E-03,       2.01820,   175.783E-06
C:/temp/dataset/2/23_5.odb,Step-1,Increment      1: Step Time =    1.000,"PART-1-1",           486,      -3.77419,       22.4219,            0.,NA,NA,"",       1.64346,   240.033E-03,       1.62584,   4.12147E-03
C:/temp/dataset/2/23_5.odb,Step-1,Increment      1: Step Time =    1.000,"PART-1-1",           487,      -5.00723,       21.2173,            0.,NA,NA,"",       1.73836,   144.213E-03,       1.73237,   2.78097E-03
C:/temp/dataset/2/23_5.odb,Step-1,Increment      1: Step Time =    1.000,"PART-1-1",           488,         -3.75,           20.,            0.,NA,NA,"",       1.64201,   44.8273E-03,       1.64140,   4.22562E-03
C:/temp/dataset/2/23_5.odb,Step-1,Increment      1: Step Time =    1.000,"PART-1-1",           489,      -2.51696,       21.2046,            0.,NA,NA,"",       1.53692,   140.166E-03,       1.53051,   5.30816E-03
C:/temp/dataset/2/23_5.odb,Step-1,Increment      1: Step Time =    1.000,"PART-1-1",           490,         -8.75,           20.,            0.,NA,NA,"",       2.03539,   57.6583E-03,       2.03457,   409.944E-06
C:/temp/dataset/2/23_5.odb,Step-1,Increment      1: Step Time =    1.000,"PART-1-1",           491,      -7.50331,       21.2223,            0.,NA,NA,"",       1.93583,   152.498E-03,       1.92981,   428.442E-06
C:/temp/dataset/2/23_5.odb,Step-1,Increment      1: Step Time =    1.000,"PART-1-1",           492,         -6.25,           20.,            0.,NA,NA,"",       1.83433,   51.4056E-03,       1.83361,   654.485E-06
C:/temp/dataset/2/23_5.odb,Step-1,Increment      1: Step Time =    1.000,"PART-1-1",           493,      -6.26054,       22.4396,            0.,NA,NA,"",       1.84275,   246.467E-03,       1.82619,   1.22076E-03
C:/temp/dataset/2/23_5.odb,Step-1,Increment      1: Step Time =    1.000,"PART-1-1",           494,         -1.25,           20.,            0.,NA,NA,"",       1.43211,   36.7894E-03,       1.43164,   4.38347E-03
C:/temp/dataset/2/23_5.odb,Step-1,Increment      1: Step Time =    1.000,"PART-1-1",           495,      -1.30453,       22.3853,            0.,NA,NA,"",       1.43666,   235.473E-03,       1.41724,   6.55230E-03
C:/temp/dataset/2/23_5.odb,Step-1,Increment      1: Step Time =    1.000,"PART-1-1",           496,         -1.25,           30.,            0.,NA,NA,"",       1.61751,   841.790E-03,       1.38121,   2.69817E-03
C:/temp/dataset/2/23_5.odb,Step-1,Increment      1: Step Time =    1.000,"PART-1-1",           497,      -2.50829,       28.7162,            0.,NA,NA,"",       1.66471,   742.290E-03,       1.49005,   1.79753E-03
C:/temp/dataset/2/23_5.odb,Step-1,Increment      1: Step Time =    1.000,"PART-1-1",           498,         -3.75,           30.,            0.,NA,NA,"",       1.80442,   853.458E-03,       1.58983,   622.620E-06
C:/temp/dataset/2/23_5.odb,Step-1,Increment      1: Step Time =    1.000,"PART-1-1",           499,          3.75,           20.,            0.,NA,NA,"",   982.592E-03,   43.5344E-03,   981.627E-03,   15.9172E-03
C:/temp/dataset/2/23_5.odb,Step-1,Increment      1: Step Time =    1.000,"PART-1-1",           500,       4.75388,       21.0765,            0.,NA,NA,"",   890.644E-03,   131.857E-03,   880.830E-03,   16.8526E-03
C:/temp/dataset/2/23_5.odb,Step-1,Increment      1: Step Time =    1.000,"PART-1-1",           501,          6.25,           30.,            0.,NA,NA,"",       1.10455,   771.750E-03,   790.205E-03,   8.60794E-03
C:/temp/dataset/2/23_5.odb,Step-1,Increment      1: Step Time =    1.000,"PART-1-1",           502,       6.61296,       27.1492,            0.,NA,NA,"",   947.787E-03,   562.437E-03,   762.865E-03,   4.90340E-03
C:/temp/dataset/2/23_5.odb,Step-1,Increment      1: Step Time =    1.000,"PART-1-1",           503,            5.,         16.25,            0.,NA,NA,"",   773.250E-03,  -103.141E-03,   766.340E-03,   21.8268E-03
C:/temp/dataset/2/23_5.odb,Step-1,Increment      1: Step Time =    1.000,"PART-1-1",           504,       6.03202,       15.2452,            0.,NA,NA,"",   725.609E-03,  -153.799E-03,   709.123E-03,   17.8612E-03
C:/temp/dataset/2/23_5.odb,Step-1,Increment      1: Step Time =    1.000,"PART-1-1",           505,       6.91243,       16.6330,            0.,NA,NA,"",   700.229E-03,  -104.702E-03,   692.356E-03,   14.4817E-03
C:/temp/dataset/2/23_5.odb,Step-1,Increment      1: Step Time =    1.000,"PART-1-1",           506,            5.,         13.75,            0.,NA,NA,"",   748.123E-03,  -199.255E-03,   721.100E-03,   21.3923E-03
C:/temp/dataset/2/23_5.odb,Step-1,Increment      1: Step Time =    1.000,"PART-1-1",           507,       6.17466,       12.7979,            0.,NA,NA,"",   709.718E-03,  -241.147E-03,   667.494E-03,   17.2974E-03
C:/temp/dataset/2/23_5.odb,Step-1,Increment      1: Step Time =    1.000,"PART-1-1",           508,       12.0086,       16.5092,            0.,NA,NA,"",   486.653E-03,  -120.898E-03,   471.397E-03,   5.46869E-03
C:/temp/dataset/2/23_5.odb,Step-1,Increment      1: Step Time =    1.000,"PART-1-1",           509,           15.,        16.875,            0.,NA,NA,"",   346.830E-03,  -92.5747E-03,   334.247E-03,   16.1679E-03
C:/temp/dataset/2/23_5.odb,Step-1,Increment      1: Step Time =    1.000,"PART-1-1",           510,       13.3591,       18.2744,            0.,NA,NA,"",   396.459E-03,  -32.6679E-03,   395.110E-03,   9.96753E-03
C:/temp/dataset/2/23_5.odb,Step-1,Increment      1: Step Time =    1.000,"PART-1-1",           511,            5.,         11.25,            0.,NA,NA,"",   727.427E-03,  -274.781E-03,   673.532E-03,   21.5894E-03
C:/temp/dataset/2/23_5.odb,Step-1,Increment      1: Step Time =    1.000,"PART-1-1",           512,       6.23142,       10.2778,            0.,NA,NA,"",   700.069E-03,  -309.490E-03,   627.943E-03,   17.3122E-03
C:/temp/dataset/2/23_5.odb,Step-1,Increment      1: Step Time =    1.000,"PART-1-1",           513,            5.,          8.75,            0.,NA,NA,"",   708.440E-03,  -330.184E-03,   626.789E-03,   22.3946E-03
C:/temp/dataset/2/23_5.odb,Step-1,Increment      1: Step Time =    1.000,"PART-1-1",           514,       7.47251,       9.25684,            0.,NA,NA,"",   680.649E-03,  -340.192E-03,   589.535E-03,   12.5050E-03
C:/temp/dataset/2/23_5.odb,Step-1,Increment      1: Step Time =    1.000,"PART-1-1",           515,         11.25,           -5.,            0.,NA,NA,"",   612.798E-03,  -280.809E-03,   544.671E-03,   3.15226E-03
C:/temp/dataset/2/23_5.odb,Step-1,Increment      1: Step Time =    1.000,"PART-1-1",           516,       11.2689,      -2.22707,            0.,NA,NA,"",   628.946E-03,  -310.001E-03,   547.241E-03,   5.76701E-03
C:/temp/dataset/2/23_5.odb,Step-1,Increment      1: Step Time =    1.000,"PART-1-1",           517,          10.5,          -30.,            0.,NA,NA,"",            0.,  -140.184E-42,   12.9116E-42,   128.463E-06
C:/temp/dataset/2/23_5.odb,Step-1,Increment      1: Step Time =    1.000,"PART-1-1",           518,           15.,        -23.75,            0.,NA,NA,"",   545.924E-06,  -545.778E-06,   12.6309E-06,   20.4366E-06
C:/temp/dataset/2/23_5.odb,Step-1,Increment      1: Step Time =    1.000,"PART-1-1",           519,          3.75,           -5.,            0.,NA,NA,"",   504.986E-03,  -222.888E-03,   453.135E-03,   10.3860E-03
C:/temp/dataset/2/23_5.odb,Step-1,Increment      1: Step Time =    1.000,"PART-1-1",           520,       4.97006,      -3.74763,            0.,NA,NA,"",   547.668E-03,  -258.506E-03,   482.820E-03,   8.22458E-03
C:/temp/dataset/2/23_5.odb,Step-1,Increment      1: Step Time =    1.000,"PART-1-1",           521,       4.85412,       3.76356,            0.,NA,NA,"",   646.229E-03,  -385.938E-03,   518.328E-03,   16.5393E-03
C:/temp/dataset/2/23_5.odb,Step-1,Increment      1: Step Time =    1.000,"PART-1-1",           522,       3.33333,            5.,            0.,NA,NA,"",   625.223E-03,  -425.467E-03,   458.128E-03,   15.5508E-03
C:/temp/dataset/2/23_5.odb,Step-1,Increment      1: Step Time =    1.000,"PART-1-1",           523,       1.45296,       3.58740,            0.,NA,NA,"",   568.710E-03,  -400.357E-03,   403.913E-03,   6.93274E-03
C:/temp/dataset/2/23_5.odb,Step-1,Increment      1: Step Time =    1.000,"PART-1-1",           524,       2.97375,       2.35096,            0.,NA,NA,"",   583.531E-03,  -365.407E-03,   454.957E-03,   7.78086E-03
C:/temp/dataset/2/23_5.odb,Step-1,Increment      1: Step Time =    1.000,"PART-1-1",           525,          6.25,           -5.,            0.,NA,NA,"",   556.840E-03,  -248.089E-03,   498.521E-03,   10.1660E-03
C:/temp/dataset/2/23_5.odb,Step-1,Increment      1: Step Time =    1.000,"PART-1-1",           526,       12.4696,       10.4445,            0.,NA,NA,"",   587.969E-03,  -321.154E-03,   492.511E-03,   6.97209E-03
C:/temp/dataset/2/23_5.odb,Step-1,Increment      1: Step Time =    1.000,"PART-1-1",           527,           15.,       11.0417,            0.,NA,NA,"",   518.747E-03,  -294.226E-03,   427.235E-03,   17.2617E-03
C:/temp/dataset/2/23_5.odb,Step-1,Increment      1: Step Time =    1.000,"PART-1-1",           528,      -5.01382,       23.6808,            0.,NA,NA,"",       1.75383,   343.913E-03,       1.71978,   1.99825E-03
C:/temp/dataset/2/23_5.odb,Step-1,Increment      1: Step Time =    1.000,"PART-1-1",           529,      -2.53358,       23.6558,            0.,NA,NA,"",       1.55151,   338.024E-03,       1.51424,   4.75107E-03
C:/temp/dataset/2/23_5.odb,Step-1,Increment      1: Step Time =    1.000,"PART-1-1",           530,  -74.6816E-03,       23.6075,            0.,NA,NA,"",       1.34376,   330.864E-03,       1.30239,   6.51440E-03
C:/temp/dataset/2/23_5.odb,Step-1,Increment      1: Step Time =    1.000,"PART-1-1",           531,      -6.62798,      -1.45964,            0.,NA,NA,"",   304.318E-03,  -272.217E-03,   136.042E-03,   4.42164E-03
C:/temp/dataset/2/23_5.odb,Step-1,Increment      1: Step Time =    1.000,"PART-1-1",           532,      -4.43070,      -2.38075,            0.,NA,NA,"",   325.007E-03,  -254.153E-03,   202.572E-03,   6.74309E-03
C:/temp/dataset/2/23_5.odb,Step-1,Increment      1: Step Time =    1.000,"PART-1-1",           533,      -3.64554,  -813.143E-03,            0.,NA,NA,"",   377.360E-03,  -296.246E-03,   233.750E-03,   6.40079E-03
C:/temp/dataset/2/23_5.odb,Step-1,Increment      1: Step Time =    1.000,"PART-1-1",           534,         -3.75,           -5.,            0.,NA,NA,"",   286.555E-03,  -178.129E-03,   224.464E-03,   5.54137E-03
C:/temp/dataset/2/23_5.odb,Step-1,Increment      1: Step Time =    1.000,"PART-1-1",           535,      -13.8599,      -9.43096,            0.,NA,NA,"",   93.8657E-03,  -90.0046E-03,  -26.6447E-03,   3.30979E-03
C:/temp/dataset/2/23_5.odb,Step-1,Increment      1: Step Time =    1.000,"PART-1-1",           536,          -15.,      -11.0417,            0.,NA,NA,"",   77.6003E-03,  -67.6753E-03,  -37.9717E-03,   4.86797E-03
C:/temp/dataset/2/23_5.odb,Step-1,Increment      1: Step Time =    1.000,"PART-1-1",           537,      -11.9984,      -19.8095,            0.,NA,NA,"",   9.60025E-03,   6.59101E-03,   6.98022E-03,   1.41645E-03
C:/temp/dataset/2/23_5.odb,Step-1,Increment      1: Step Time =    1.000,"PART-1-1",           538,      -13.3881,      -18.2324,            0.,NA,NA,"",   1.32590E-03,   394.521E-06,  -1.26585E-03,   1.77041E-03
C:/temp/dataset/2/23_5.odb,Step-1,Increment      1: Step Time =    1.000,"PART-1-1",           539,          -15.,      -19.7917,            0.,NA,NA,"",   6.91840E-03,   4.58450E-03,  -5.18137E-03,   2.88992E-03
C:/temp/dataset/2/23_5.odb,Step-1,Increment      1: Step Time =    1.000,"PART-1-1",           540,           -5.,        -18.75,            0.,NA,NA,"",   41.0186E-03,  -6.23834E-03,   40.5415E-03,   10.8261E-03
C:/temp/dataset/2/23_5.odb,Step-1,Increment      1: Step Time =    1.000,"PART-1-1",           541,      -5.96138,      -20.0094,            0.,NA,NA,"",   29.9789E-03,   3.24330E-03,   29.8030E-03,   6.88277E-03
C:/temp/dataset/2/23_5.odb,Step-1,Increment      1: Step Time =    1.000,"PART-1-1",           542,           -5.,        -13.75,            0.,NA,NA,"",   94.9273E-03,  -46.3509E-03,   82.8419E-03,   9.32340E-03
C:/temp/dataset/2/23_5.odb,Step-1,Increment      1: Step Time =    1.000,"PART-1-1",           543,      -7.28958,      -14.3036,            0.,NA,NA,"",   64.2501E-03,  -32.6867E-03,   55.3141E-03,   6.26136E-03
C:/temp/dataset/2/23_5.odb,Step-1,Increment      1: Step Time =    1.000,"PART-1-1",           544,      -8.88285,      -11.0213,            0.,NA,NA,"",   84.1946E-03,  -67.2422E-03,   50.6676E-03,   4.20915E-03
C:/temp/dataset/2/23_5.odb,Step-1,Increment      1: Step Time =    1.000,"PART-1-1",           545,      -9.01222,      -8.51542,            0.,NA,NA,"",   119.902E-03,  -105.514E-03,   56.9497E-03,   3.87198E-03
C:/temp/dataset/2/23_5.odb,Step-1,Increment      1: Step Time =    1.000,"PART-1-1",           546,      -9.13424,  -715.290E-03,            0.,NA,NA,"",   295.918E-03,  -287.829E-03,   68.7153E-03,   1.76142E-03
C:/temp/dataset/2/23_5.odb,Step-1,Increment      1: Step Time =    1.000,"PART-1-1",           547,      -9.92186,      -2.42350,            0.,NA,NA,"",   245.065E-03,  -240.497E-03,   47.0986E-03,   2.25204E-03
C:/temp/dataset/2/23_5.odb,Step-1,Increment      1: Step Time =    1.000,"PART-1-1",           548,      -12.7176,      -7.95930,            0.,NA,NA,"",   114.857E-03,  -114.407E-03,  -10.1529E-03,   1.65929E-03
C:/temp/dataset/2/23_5.odb,Step-1,Increment      1: Step Time =    1.000,"PART-1-1",           549,          -15.,        -8.125,            0.,NA,NA,"",   125.563E-03,  -114.501E-03,  -51.5310E-03,   4.98448E-03
C:/temp/dataset/2/23_5.odb,Step-1,Increment      1: Step Time =    1.000,"PART-1-1",           550,       11.2818,   528.104E-03,            0.,NA,NA,"",   647.067E-03,  -347.587E-03,   545.783E-03,   7.55081E-03
C:/temp/dataset/2/23_5.odb,Step-1,Increment      1: Step Time =    1.000,"PART-1-1",           551,       10.0167,  -924.457E-03,            0.,NA,NA,"",   633.185E-03,  -326.391E-03,   542.580E-03,   7.34302E-03
C:/temp/dataset/2/23_5.odb,Step-1,Increment      1: Step Time =    1.000,"PART-1-1",           552,       10.4320,       23.7699,            0.,NA,NA,"",   603.033E-03,   302.850E-03,   521.469E-03,   7.28061E-03
C:/temp/dataset/2/23_5.odb,Step-1,Increment      1: Step Time =    1.000,"PART-1-1",           553,           15.,        25.625,            0.,NA,NA,"",   484.953E-03,   427.303E-03,   229.327E-03,   3.92510E-03
C:/temp/dataset/2/23_5.odb,Step-1,Increment      1: Step Time =    1.000,"PART-1-1",           554,      -9.99539,       26.2124,            0.,NA,NA,"",       2.18917,   564.844E-03,       2.11504,   128.836E-06
C:/temp/dataset/2/23_5.odb,Step-1,Increment      1: Step Time =    1.000,"PART-1-1",           555,          -15.,       -25.625,            0.,NA,NA,"",   9.45605E-03,   8.74159E-03,   3.60576E-03,   332.443E-06
C:/temp/dataset/2/23_5.odb,Step-1,Increment      1: Step Time =    1.000,"PART-1-1",           556,      -12.2044,      -25.8339,            0.,NA,NA,"",   8.76972E-03,   8.01844E-03,   3.55142E-03,   1.80877E-03
C:/temp/dataset/2/23_5.odb,Step-1,Increment      1: Step Time =    1.000,"PART-1-1",           557,          -15.,       -16.875,            0.,NA,NA,"",   16.8589E-03,  -8.94919E-03,  -14.2875E-03,   3.85623E-03
C:/temp/dataset/2/23_5.odb,Step-1,Increment      1: Step Time =    1.000,"PART-1-1",           558,      -8.25880,      -15.9015,            0.,NA,NA,"",   41.8470E-03,  -16.2399E-03,   38.5673E-03,   4.71320E-03
C:/temp/dataset/2/23_5.odb,Step-1,Increment      1: Step Time =    1.000,"PART-1-1",           559,       7.56555,       17.9230,            0.,NA,NA,"",   677.499E-03,  -50.6542E-03,   675.603E-03,   11.0741E-03
C:/temp/dataset/2/23_5.odb,Step-1,Increment      1: Step Time =    1.000,"PART-1-1",           560,      -9.72707,       2.21069,            0.,NA,NA,"",   372.439E-03,  -368.356E-03,   54.9959E-03,   1.03637E-03
C:/temp/dataset/2/23_5.odb,Step-1,Increment      1: Step Time =    1.000,"PART-1-1",           561,      -8.18006,       3.69884,            0.,NA,NA,"",   423.349E-03,  -411.945E-03,   97.6003E-03,   1.35496E-03
C:/temp/dataset/2/23_5.odb,Step-1,Increment      1: Step Time =    1.000,"PART-1-1",           562,          -10.,            5.,            0.,NA,NA,"",   447.816E-03,  -445.233E-03,   48.0300E-03,   1.28586E-03
C:/temp/dataset/2/23_5.odb,Step-1,Increment      1: Step Time =    1.000,"PART-1-1",           563,      -10.3433,      -7.69771,            0.,NA,NA,"",   123.668E-03,  -118.958E-03,   33.8048E-03,   1.38024E-03
C:/temp/dataset/2/23_5.odb,Step-1,Increment      1: Step Time =    1.000,"PART-1-1",           564,      -11.5611,      -6.59494,            0.,NA,NA,"",   140.963E-03,  -140.569E-03,   10.5326E-03,   689.920E-06
C:/temp/dataset/2/23_5.odb,Step-1,Increment      1: Step Time =    1.000,"PART-1-1",           565,      -9.40089,      -20.7816,            0.,NA,NA,"",   18.8278E-03,   7.44915E-03,   17.2915E-03,   3.01246E-03
C:/temp/dataset/2/23_5.odb,Step-1,Increment      1: Step Time =    1.000,"PART-1-1",           566,      -8.21757,      -22.2064,            0.,NA,NA,"",   18.6682E-03,   6.85347E-03,   17.3647E-03,   3.77078E-03
C:/temp/dataset/2/23_5.odb,Step-1,Increment      1: Step Time =    1.000,"PART-1-1",           567,      -6.89894,      -21.2078,            0.,NA,NA,"",   23.9731E-03,   4.79400E-03,   23.4889E-03,   4.79540E-03
C:/temp/dataset/2/23_5.odb,Step-1,Increment      1: Step Time =    1.000,"PART-1-1",           568,      -9.14285,      -28.6800,            0.,NA,NA,"",   2.70352E-03,   2.11763E-03,   1.68068E-03,   2.00616E-03
C:/temp/dataset/2/23_5.odb,Step-1,Increment      1: Step Time =    1.000,"PART-1-1",           569,      -10.7232,      -27.3047,            0.,NA,NA,"",   5.85984E-03,   5.05605E-03,   2.96211E-03,   2.01450E-03
C:/temp/dataset/2/23_5.odb,Step-1,Increment      1: Step Time =    1.000,"PART-1-1",           570,         -10.5,          -30.,            0.,NA,NA,"",            0.,   1.63385E-39,   2.85033E-39,   1.73342E-03
C:/temp/dataset/2/23_5.odb,Step-1,Increment      1: Step Time =    1.000,"PART-1-1",           571,      -4.89633,      -27.4366,            0.,NA,NA,"",   3.91390E-03,  -45.9547E-06,   3.91363E-03,   2.02370E-03
C:/temp/dataset/2/23_5.odb,Step-1,Increment      1: Step Time =    1.000,"PART-1-1",           572,      -6.18287,      -28.7136,            0.,NA,NA,"",   1.93978E-03,   523.836E-06,   1.86771E-03,   1.96186E-03
C:/temp/dataset/2/23_5.odb,Step-1,Increment      1: Step Time =    1.000,"PART-1-1",           573,          -4.5,          -30.,            0.,NA,NA,"",            0.,  -296.932E-42,   3.33966E-39,   1.45771E-03
C:/temp/dataset/2/23_5.odb,Step-1,Increment      1: Step Time =    1.000,"PART-1-1",           574,       12.5384,       2.02620,            0.,NA,NA,"",   653.507E-03,  -363.386E-03,   543.160E-03,   7.69459E-03
C:/temp/dataset/2/23_5.odb,Step-1,Increment      1: Step Time =    1.000,"PART-1-1",           575,           15.,       2.29167,            0.,NA,NA,"",   656.224E-03,  -357.420E-03,   550.346E-03,   10.1008E-03
C:/temp/dataset/2/23_5.odb,Step-1,Increment      1: Step Time =    1.000,"PART-1-1",           576,       9.96595,       9.83263,            0.,NA,NA,"",   641.547E-03,  -336.262E-03,   546.360E-03,   2.66182E-03
C:/temp/dataset/2/23_5.odb,Step-1,Increment      1: Step Time =    1.000,"PART-1-1",           577,           15.,       19.7917,            0.,NA,NA,"",   295.146E-03,   55.6284E-03,   289.856E-03,   13.7540E-03
C:/temp/dataset/2/23_5.odb,Step-1,Increment      1: Step Time =    1.000,"PART-1-1",           578,       7.90800,       20.1372,            0.,NA,NA,"",   670.836E-03,   65.5559E-03,   667.625E-03,   6.28460E-03
C:/temp/dataset/2/23_5.odb,Step-1,Increment      1: Step Time =    1.000,"PART-1-1",           579,       8.41916,       21.3934,            0.,NA,NA,"",   656.493E-03,   144.046E-03,   640.495E-03,   6.47921E-03
C:/temp/dataset/2/23_5.odb,Step-1,Increment      1: Step Time =    1.000,"PART-1-1",           580,       6.50486,       21.1025,            0.,NA,NA,"",   764.908E-03,   127.159E-03,   754.265E-03,   9.39617E-03
C:/temp/dataset/2/23_5.odb,Step-1,Increment      1: Step Time =    1.000,"PART-1-1",           581,           4.5,          -30.,            0.,NA,NA,"",            0.,  -467.099E-42,   380.807E-42,   453.789E-06
C:/temp/dataset/2/23_5.odb,Step-1,Increment      1: Step Time =    1.000,"PART-1-1",           582,       3.62857,      -22.4261,            0.,NA,NA,"",   630.378E-06,  -627.473E-06,   60.4545E-06,   131.530E-06
C:/temp/dataset/2/23_5.odb,Step-1,Increment      1: Step Time =    1.000,"PART-1-1",           583,       2.16864,      -23.6665,            0.,NA,NA,"",   1.46242E-03,  -1.30922E-03,   651.631E-06,   222.261E-06
C:/temp/dataset/2/23_5.odb,Step-1,Increment      1: Step Time =    1.000,"PART-1-1",           584,      -2.73954,      -22.4743,            0.,NA,NA,"",   9.24745E-03,  -1.50644E-03,   9.12393E-03,   1.88317E-03
C:/temp/dataset/2/23_5.odb,Step-1,Increment      1: Step Time =    1.000,"PART-1-1",           585,  -999.676E-03,      -23.6839,            0.,NA,NA,"",   4.28821E-03,  -1.85126E-03,   3.86802E-03,   966.197E-06
C:/temp/dataset/2/23_5.odb,Step-1,Increment      1: Step Time =    1.000,"PART-1-1",           586,      -7.82572,      -27.3936,            0.,NA,NA,"",   5.01266E-03,   2.70803E-03,   4.21821E-03,   2.28967E-03
C:/temp/dataset/2/23_5.odb,Step-1,Increment      1: Step Time =    1.000,"PART-1-1",           587,      -6.52069,      -26.1528,            0.,NA,NA,"",   7.44525E-03,   2.07188E-03,   7.15116E-03,   2.83861E-03
C:/temp/dataset/2/23_5.odb,Step-1,Increment      1: Step Time =    1.000,"PART-1-1",           588,      -8.08310,      -24.7829,            0.,NA,NA,"",   11.3934E-03,   5.24454E-03,   10.1146E-03,   3.05514E-03
C:/temp/dataset/2/23_5.odb,Step-1,Increment      1: Step Time =    1.000,"PART-1-1",           589,      -9.38814,      -26.0237,            0.,NA,NA,"",   8.36762E-03,   5.77630E-03,   6.05405E-03,   2.62298E-03
C:/temp/dataset/2/23_5.odb,Step-1,Increment      1: Step Time =    1.000,"PART-1-1",           590,          -7.5,          -30.,            0.,NA,NA,"",            0.,   751.254E-42,   3.59241E-39,   1.69785E-03
C:/temp/dataset/2/23_5.odb,Step-1,Increment      1: Step Time =    1.000,"PART-1-1",           591,       7.73182,       24.8866,            0.,NA,NA,"",   789.661E-03,   391.242E-03,   685.926E-03,   6.24395E-03
C:/temp/dataset/2/23_5.odb,Step-1,Increment      1: Step Time =    1.000,"PART-1-1",           592,       8.21760,       26.2797,            0.,NA,NA,"",   817.899E-03,   489.777E-03,   655.040E-03,   6.11158E-03
C:/temp/dataset/2/23_5.odb,Step-1,Increment      1: Step Time =    1.000,"PART-1-1",           593,       6.12718,       25.7561,            0.,NA,NA,"",   921.069E-03,   463.776E-03,   795.789E-03,   5.16618E-03
C:/temp/dataset/2/23_5.odb,Step-1,Increment      1: Step Time =    1.000,"PART-1-1",           594,       5.38844,       22.1508,            0.,NA,NA,"",   863.286E-03,   205.853E-03,   838.384E-03,   9.36859E-03
C:/temp/dataset/2/23_5.odb,Step-1,Increment      1: Step Time =    1.000,"PART-1-1",           595,      -3.37677,   775.412E-03,            0.,NA,NA,"",   416.302E-03,  -336.876E-03,   244.585E-03,   5.51510E-03
C:/temp/dataset/2/23_5.odb,Step-1,Increment      1: Step Time =    1.000,"PART-1-1",           596,      -3.41233,       2.84116,            0.,NA,NA,"",   461.008E-03,  -391.589E-03,   243.283E-03,   3.31978E-03
C:/temp/dataset/2/23_5.odb,Step-1,Increment      1: Step Time =    1.000,"PART-1-1",           597,      -11.2482,       24.9673,            0.,NA,NA,"",       2.26956,   467.887E-03,       2.22081,   117.204E-06
C:/temp/dataset/2/23_5.odb,Step-1,Increment      1: Step Time =    1.000,"PART-1-1",           598,       5.16292,       24.1270,            0.,NA,NA,"",   931.548E-03,   350.587E-03,   863.059E-03,   6.00521E-03
C:/temp/dataset/2/23_5.odb,Step-1,Increment      1: Step Time =    1.000,"PART-1-1",           599,            0.,            5.,            0.,NA,NA,"",   570.449E-03,  -449.674E-03,   351.007E-03,   5.22902E-03
C:/temp/dataset/2/23_5.odb,Step-1,Increment      1: Step Time =    1.000,"PART-1-1",           600,      -1.80204,       3.95011,            0.,NA,NA,"",   514.667E-03,  -421.884E-03,   294.781E-03,   3.14600E-03
C:/temp/dataset/2/23_5.odb,Step-1,Increment      1: Step Time =    1.000,"PART-1-1",           601,       9.59799,       22.9228,            0.,NA,NA,"",   622.297E-03,   245.542E-03,   571.807E-03,   7.25759E-03
C:/temp/dataset/2/23_5.odb,Step-1,Increment      1: Step Time =    1.000,"PART-1-1",           602,       8.30932,       22.9391,            0.,NA,NA,"",   694.239E-03,   249.450E-03,   647.875E-03,   7.46810E-03
C:/temp/dataset/2/23_5.odb,Step-1,Increment      1: Step Time =    1.000,"PART-1-1",           603,      -1.93269,      -1.01257,            0.,NA,NA,"",   414.823E-03,  -293.203E-03,   293.445E-03,   6.36791E-03
C:/temp/dataset/2/23_5.odb,Step-1,Increment      1: Step Time =    1.000,"PART-1-1",           604,      -8.69440,      -13.5596,            0.,NA,NA,"",   57.1806E-03,  -36.8748E-03,   43.7021E-03,   4.37775E-03
C:/temp/dataset/2/23_5.odb,Step-1,Increment      1: Step Time =    1.000,"PART-1-1",           605,       6.07991,       2.65614,            0.,NA,NA,"",   647.609E-03,  -372.936E-03,   529.448E-03,   8.18248E-03
C:/temp/dataset/2/23_5.odb,Step-1,Increment      1: Step Time =    1.000,"PART-1-1",           606,       4.75906,       1.28045,            0.,NA,NA,"",   606.536E-03,  -348.022E-03,   496.756E-03,   6.85851E-03
C:/temp/dataset/2/23_5.odb,Step-1,Increment      1: Step Time =    1.000,"PART-1-1",           607,       10.0234,       4.43547,            0.,NA,NA,"",   665.472E-03,  -385.880E-03,   542.172E-03,   5.62873E-03
C:/temp/dataset/2/23_5.odb,Step-1,Increment      1: Step Time =    1.000,"PART-1-1",           608,       7.46673,       4.06304,            0.,NA,NA,"",   671.682E-03,  -389.355E-03,   547.320E-03,   7.83116E-03
C:/temp/dataset/2/23_5.odb,Step-1,Increment      1: Step Time =    1.000,"PART-1-1",           609,  -317.165E-03,  -486.862E-03,            0.,NA,NA,"",   464.243E-03,  -307.516E-03,   347.786E-03,   6.45797E-03
C:/temp/dataset/2/23_5.odb,Step-1,Increment      1: Step Time =    1.000,"PART-1-1",           610,       1.72730,   921.331E-03,            0.,NA,NA,"",   535.291E-03,  -338.712E-03,   414.500E-03,   7.34207E-03
C:/temp/dataset/2/23_5.odb,Step-1,Increment      1: Step Time =    1.000,"PART-1-1",           611,      -4.63664,      -21.2535,            0.,NA,NA,"",   19.8154E-03,  -269.546E-06,   19.8136E-03,   5.25895E-03
C:/temp/dataset/2/23_5.odb,Step-1,Increment      1: Step Time =    1.000,"PART-1-1",           612,       11.2827,       3.26092,            0.,NA,NA,"",   658.569E-03,  -377.051E-03,   539.951E-03,   7.26203E-03
C:/temp/dataset/2/23_5.odb,Step-1,Increment      1: Step Time =    1.000,"PART-1-1",           613,      -11.4502,      -4.36864,            0.,NA,NA,"",   190.913E-03,  -190.553E-03,   11.7086E-03,   1.45542E-03
C:/temp/dataset/2/23_5.odb,Step-1,Increment      1: Step Time =    1.000,"PART-1-1",           614,      -10.8693,      -24.5529,            0.,NA,NA,"",   10.9603E-03,   8.73307E-03,   6.62284E-03,   2.28191E-03
C:/temp/dataset/2/23_5.odb,Step-1,Increment      1: Step Time =    1.000,"PART-1-1",           615,      -9.52531,      -23.3517,            0.,NA,NA,"",   14.0916E-03,   8.26272E-03,   11.4149E-03,   3.06159E-03
C:/temp/dataset/2/23_5.odb,Step-1,Increment      1: Step Time =    1.000,"PART-1-1",           616,      -10.8903,      -21.7518,            0.,NA,NA,"",   13.9020E-03,   9.42458E-03,   10.2198E-03,   2.19155E-03
C:/temp/dataset/2/23_5.odb,Step-1,Increment      1: Step Time =    1.000,"PART-1-1",           617,       3.33333,          -20.,            0.,NA,NA,"",   616.223E-06,   524.373E-06,   323.671E-06,   404.507E-06
C:/temp/dataset/2/23_5.odb,Step-1,Increment      1: Step Time =    1.000,"PART-1-1",           618,       1.83446,      -21.2108,            0.,NA,NA,"",   955.964E-06,   277.752E-06,   914.725E-06,   283.192E-06
C:/temp/dataset/2/23_5.odb,Step-1,Increment      1: Step Time =    1.000,"PART-1-1",           619,       5.12744,      -21.2153,            0.,NA,NA,"",   332.506E-06,  -254.301E-06,  -214.223E-06,   151.678E-06
C:/temp/dataset/2/23_5.odb,Step-1,Increment      1: Step Time =    1.000,"PART-1-1",           620,            0.,          -20.,            0.,NA,NA,"",   3.66887E-03,   2.30327E-03,   2.85579E-03,   525.418E-06
C:/temp/dataset/2/23_5.odb,Step-1,Increment      1: Step Time =    1.000,"PART-1-1",           621,      -1.43624,      -21.2208,            0.,NA,NA,"",   5.66926E-03,   534.508E-06,   5.64400E-03,   859.225E-06
C:/temp/dataset/2/23_5.odb,Step-1,Increment      1: Step Time =    1.000,"PART-1-1",           622,   398.228E-03,      -22.4316,            0.,NA,NA,"",   2.35242E-03,  -778.619E-06,   2.21982E-03,   342.408E-06
C:/temp/dataset/2/23_5.odb,Step-1,Increment      1: Step Time =    1.000,"PART-1-1",           623,   770.736E-03,      -24.9188,            0.,NA,NA,"",   2.51190E-03,  -1.99440E-03,   1.52708E-03,   614.624E-06
C:/temp/dataset/2/23_5.odb,Step-1,Increment      1: Step Time =    1.000,"PART-1-1",           624,      -3.33333,          -20.,            0.,NA,NA,"",   11.8704E-03,   3.79576E-03,   11.2471E-03,   2.02746E-03
C:/temp/dataset/2/23_5.odb,Step-1,Increment      1: Step Time =    1.000,"PART-1-1",           625,       8.69606,       24.2205,            0.,NA,NA,"",   710.867E-03,   339.108E-03,   624.770E-03,   6.98303E-03
C:/temp/dataset/2/23_5.odb,Step-1,Increment      1: Step Time =    1.000,"PART-1-1",           626,      -3.33333,            5.,            0.,NA,NA,"",   516.563E-03,  -455.211E-03,   244.174E-03,   972.264E-06
C:/temp/dataset/2/23_5.odb,Step-1,Increment      1: Step Time =    1.000,"PART-1-1",           627,      -4.94363,       3.89105,            0.,NA,NA,"",   463.663E-03,  -421.174E-03,   193.896E-03,   1.39460E-03
C:/temp/dataset/2/23_5.odb,Step-1,Increment      1: Step Time =    1.000,"PART-1-1",           628,      -6.66667,            5.,            0.,NA,NA,"",   473.418E-03,  -451.777E-03,   141.501E-03,   1.36327E-03
C:/temp/dataset/2/23_5.odb,Step-1,Increment      1: Step Time =    1.000,"PART-1-1",           629,           10.,          -20.,            0.,NA,NA,"",   648.334E-06,  -598.096E-06,  -250.237E-06,   62.8351E-06
C:/temp/dataset/2/23_5.odb,Step-1,Increment      1: Step Time =    1.000,"PART-1-1",           630,       8.42239,      -21.2201,            0.,NA,NA,"",   619.294E-06,  -516.599E-06,  -341.541E-06,   71.4498E-06
C:/temp/dataset/2/23_5.odb,Step-1,Increment      1: Step Time =    1.000,"PART-1-1",           631,       6.66667,          -20.,            0.,NA,NA,"",   390.384E-06,  -272.664E-06,  -279.381E-06,   174.336E-06
C:/temp/dataset/2/23_5.odb,Step-1,Increment      1: Step Time =    1.000,"PART-1-1",           632,       9.53008,       25.0675,            0.,NA,NA,"",   697.147E-03,   396.894E-03,   573.140E-03,   6.85741E-03
