ODB Name,Step,Frame,Part Instance Name,    êﬂì_ÉâÉxÉã,X,Y,Z,Section Name,Material Name,Section Point,   U-Magnitude,          U-U1,          U-U2,       S-Mises
C:/temp/dataset/2/23_7.odb,Step-1,Increment      1: Step Time =    1.000,"PART-1-1",             1,          -15.,           20.,            0.,NA,NA,"",       3.76332,   720.860E-03,       3.69363,   18.4833E-06
C:/temp/dataset/2/23_7.odb,Step-1,Increment      1: Step Time =    1.000,"PART-1-1",             2,          -15.,           25.,            0.,NA,NA,"",       3.90047,       1.37128,       3.65147,   140.632E-06
C:/temp/dataset/2/23_7.odb,Step-1,Increment      1: Step Time =    1.000,"PART-1-1",             3,          -10.,           20.,            0.,NA,NA,"",       3.11791,   678.925E-03,       3.04309,   402.253E-06
C:/temp/dataset/2/23_7.odb,Step-1,Increment      1: Step Time =    1.000,"PART-1-1",             4,           -5.,           20.,            0.,NA,NA,"",       2.48767,   642.627E-03,       2.40323,   3.71033E-03
C:/temp/dataset/2/23_7.odb,Step-1,Increment      1: Step Time =    1.000,"PART-1-1",             5,            0.,           20.,            0.,NA,NA,"",       1.83448,   601.033E-03,       1.73323,   5.68246E-03
C:/temp/dataset/2/23_7.odb,Step-1,Increment      1: Step Time =    1.000,"PART-1-1",             6,            5.,           20.,            0.,NA,NA,"",       1.16565,   608.590E-03,   994.166E-03,   43.4577E-03
C:/temp/dataset/2/23_7.odb,Step-1,Increment      1: Step Time =    1.000,"PART-1-1",             7,            5.,          12.5,            0.,NA,NA,"",   790.666E-03,   60.7764E-03,   788.327E-03,   30.7700E-03
C:/temp/dataset/2/23_7.odb,Step-1,Increment      1: Step Time =    1.000,"PART-1-1",             8,            5.,            5.,            0.,NA,NA,"",   634.103E-03,  -296.450E-03,   560.538E-03,   44.7946E-03
C:/temp/dataset/2/23_7.odb,Step-1,Increment      1: Step Time =    1.000,"PART-1-1",             9,           -5.,            5.,            0.,NA,NA,"",   444.674E-03,  -388.217E-03,   216.846E-03,   574.668E-06
C:/temp/dataset/2/23_7.odb,Step-1,Increment      1: Step Time =    1.000,"PART-1-1",            10,          -15.,            5.,            0.,NA,NA,"",   380.461E-03,  -376.396E-03,  -55.4726E-03,   134.278E-06
C:/temp/dataset/2/23_7.odb,Step-1,Increment      1: Step Time =    1.000,"PART-1-1",            11,          -15.,         -3.75,            0.,NA,NA,"",   158.273E-03,  -152.975E-03,  -40.6077E-03,   3.92884E-03
C:/temp/dataset/2/23_7.odb,Step-1,Increment      1: Step Time =    1.000,"PART-1-1",            12,          -15.,         -12.5,            0.,NA,NA,"",   14.6233E-03,  -14.1806E-03,  -3.57072E-03,   3.90921E-03
C:/temp/dataset/2/23_7.odb,Step-1,Increment      1: Step Time =    1.000,"PART-1-1",            13,          -15.,        -21.25,            0.,NA,NA,"",   24.7823E-03,   20.0331E-03,   14.5889E-03,   343.572E-06
C:/temp/dataset/2/23_7.odb,Step-1,Increment      1: Step Time =    1.000,"PART-1-1",            14,          -15.,          -30.,            0.,NA,NA,"",            0.,   2.12863E-39,   3.44937E-39,   5.57351E-03
C:/temp/dataset/2/23_7.odb,Step-1,Increment      1: Step Time =    1.000,"PART-1-1",            15,           15.,          -30.,            0.,NA,NA,"",            0.,   70.1378E-42,  -123.484E-42,   205.555E-06
C:/temp/dataset/2/23_7.odb,Step-1,Increment      1: Step Time =    1.000,"PART-1-1",            16,           15.,          -25.,            0.,NA,NA,"",   859.405E-06,   681.137E-06,  -524.052E-06,   52.6314E-06
C:/temp/dataset/2/23_7.odb,Step-1,Increment      1: Step Time =    1.000,"PART-1-1",            17,           15.,          -20.,            0.,NA,NA,"",   1.34533E-03,   1.21165E-03,  -584.656E-06,   7.19478E-06
C:/temp/dataset/2/23_7.odb,Step-1,Increment      1: Step Time =    1.000,"PART-1-1",            18,            5.,          -20.,            0.,NA,NA,"",   2.24761E-03,   2.24709E-03,  -48.2871E-06,   396.911E-06
C:/temp/dataset/2/23_7.odb,Step-1,Increment      1: Step Time =    1.000,"PART-1-1",            19,           -5.,          -20.,            0.,NA,NA,"",   30.0480E-03,   9.73262E-03,   28.4282E-03,   8.49827E-03
C:/temp/dataset/2/23_7.odb,Step-1,Increment      1: Step Time =    1.000,"PART-1-1",            20,           -5.,         -12.5,            0.,NA,NA,"",   102.572E-03,  -29.9793E-03,   98.0933E-03,   10.6912E-03
C:/temp/dataset/2/23_7.odb,Step-1,Increment      1: Step Time =    1.000,"PART-1-1",            21,           -5.,           -5.,            0.,NA,NA,"",   228.211E-03,  -127.242E-03,   189.445E-03,   16.1939E-03
C:/temp/dataset/2/23_7.odb,Step-1,Increment      1: Step Time =    1.000,"PART-1-1",            22,            0.,           -5.,            0.,NA,NA,"",   404.206E-03,  -148.842E-03,   375.803E-03,   10.6313E-03
C:/temp/dataset/2/23_7.odb,Step-1,Increment      1: Step Time =    1.000,"PART-1-1",            23,            5.,           -5.,            0.,NA,NA,"",   525.243E-03,  -214.423E-03,   479.482E-03,   16.1731E-03
C:/temp/dataset/2/23_7.odb,Step-1,Increment      1: Step Time =    1.000,"PART-1-1",            24,           10.,           -5.,            0.,NA,NA,"",   556.779E-03,  -273.856E-03,   484.774E-03,   7.51298E-03
C:/temp/dataset/2/23_7.odb,Step-1,Increment      1: Step Time =    1.000,"PART-1-1",            25,           15.,           -5.,            0.,NA,NA,"",   540.267E-03,  -283.623E-03,   459.833E-03,   602.828E-06
C:/temp/dataset/2/23_7.odb,Step-1,Increment      1: Step Time =    1.000,"PART-1-1",            26,           15.,          3.75,            0.,NA,NA,"",   483.743E-03,  -265.400E-03,   404.438E-03,   18.7256E-03
C:/temp/dataset/2/23_7.odb,Step-1,Increment      1: Step Time =    1.000,"PART-1-1",            27,           15.,          12.5,            0.,NA,NA,"",   214.434E-03,   27.0035E-03,   212.727E-03,   24.4311E-03
C:/temp/dataset/2/23_7.odb,Step-1,Increment      1: Step Time =    1.000,"PART-1-1",            28,           15.,         21.25,            0.,NA,NA,"",   723.336E-03,   723.290E-03,   8.12111E-03,   16.6859E-03
C:/temp/dataset/2/23_7.odb,Step-1,Increment      1: Step Time =    1.000,"PART-1-1",            29,           15.,           30.,            0.,NA,NA,"",       1.68338,       1.68078,  -93.4989E-03,   502.224E-06
C:/temp/dataset/2/23_7.odb,Step-1,Increment      1: Step Time =    1.000,"PART-1-1",            30,           7.5,           30.,            0.,NA,NA,"",       1.89343,       1.75367,   713.951E-03,   11.3710E-03
C:/temp/dataset/2/23_7.odb,Step-1,Increment      1: Step Time =    1.000,"PART-1-1",            31,            0.,           30.,            0.,NA,NA,"",       2.49731,       1.88560,       1.63740,   5.75919E-03
C:/temp/dataset/2/23_7.odb,Step-1,Increment      1: Step Time =    1.000,"PART-1-1",            32,          -7.5,           30.,            0.,NA,NA,"",       3.28108,       1.95997,       2.63135,   495.858E-06
C:/temp/dataset/2/23_7.odb,Step-1,Increment      1: Step Time =    1.000,"PART-1-1",            33,          -15.,           30.,            0.,NA,NA,"",       4.13728,       2.02260,       3.60918,   14.0226E-06
C:/temp/dataset/2/23_7.odb,Step-1,Increment      1: Step Time =    1.000,"PART-1-1",            34,          -15.,          22.5,            0.,NA,NA,"",       3.81850,       1.04601,       3.67244,   67.5975E-06
C:/temp/dataset/2/23_7.odb,Step-1,Increment      1: Step Time =    1.000,"PART-1-1",            35,         -12.5,           20.,            0.,NA,NA,"",       3.44024,   699.629E-03,       3.36835,   81.7590E-06
C:/temp/dataset/2/23_7.odb,Step-1,Increment      1: Step Time =    1.000,"PART-1-1",            36,          -7.5,           20.,            0.,NA,NA,"",       2.79775,   659.069E-03,       2.71902,   1.36458E-03
C:/temp/dataset/2/23_7.odb,Step-1,Increment      1: Step Time =    1.000,"PART-1-1",            37,          -2.5,           20.,            0.,NA,NA,"",       2.17278,   621.240E-03,       2.08207,   7.73170E-03
C:/temp/dataset/2/23_7.odb,Step-1,Increment      1: Step Time =    1.000,"PART-1-1",            38,           2.5,           20.,            0.,NA,NA,"",       1.49760,   592.282E-03,       1.37550,   13.7750E-03
C:/temp/dataset/2/23_7.odb,Step-1,Increment      1: Step Time =    1.000,"PART-1-1",            39,            5.,           15.,            0.,NA,NA,"",   880.746E-03,   224.542E-03,   851.643E-03,   30.0883E-03
C:/temp/dataset/2/23_7.odb,Step-1,Increment      1: Step Time =    1.000,"PART-1-1",            40,            5.,          17.5,            0.,NA,NA,"",   999.292E-03,   412.112E-03,   910.357E-03,   33.3131E-03
C:/temp/dataset/2/23_7.odb,Step-1,Increment      1: Step Time =    1.000,"PART-1-1",            41,            5.,           7.5,            0.,NA,NA,"",   683.122E-03,  -186.087E-03,   657.288E-03,   34.4649E-03
C:/temp/dataset/2/23_7.odb,Step-1,Increment      1: Step Time =    1.000,"PART-1-1",            42,            5.,           10.,            0.,NA,NA,"",   726.661E-03,  -75.0735E-03,   722.772E-03,   30.3891E-03
C:/temp/dataset/2/23_7.odb,Step-1,Increment      1: Step Time =    1.000,"PART-1-1",            43,      -1.66667,            5.,            0.,NA,NA,"",   500.229E-03,  -381.868E-03,   323.119E-03,   4.96281E-03
C:/temp/dataset/2/23_7.odb,Step-1,Increment      1: Step Time =    1.000,"PART-1-1",            44,       1.66667,            5.,            0.,NA,NA,"",   560.561E-03,  -359.104E-03,   430.433E-03,   15.1155E-03
C:/temp/dataset/2/23_7.odb,Step-1,Increment      1: Step Time =    1.000,"PART-1-1",            45,      -11.6667,            5.,            0.,NA,NA,"",   379.364E-03,  -378.129E-03,   30.5959E-03,   765.052E-06
C:/temp/dataset/2/23_7.odb,Step-1,Increment      1: Step Time =    1.000,"PART-1-1",            46,      -8.33333,            5.,            0.,NA,NA,"",   401.556E-03,  -383.539E-03,   118.931E-03,   1.70881E-03
C:/temp/dataset/2/23_7.odb,Step-1,Increment      1: Step Time =    1.000,"PART-1-1",            47,          -15.,  -833.333E-03,            0.,NA,NA,"",   229.036E-03,  -223.654E-03,  -49.3602E-03,   2.38798E-03
C:/temp/dataset/2/23_7.odb,Step-1,Increment      1: Step Time =    1.000,"PART-1-1",            48,          -15.,       2.08333,            0.,NA,NA,"",   304.664E-03,  -299.836E-03,  -54.0254E-03,   656.673E-06
C:/temp/dataset/2/23_7.odb,Step-1,Increment      1: Step Time =    1.000,"PART-1-1",            49,          -15.,      -9.58333,            0.,NA,NA,"",   49.1884E-03,  -46.8343E-03,  -15.0350E-03,   4.68944E-03
C:/temp/dataset/2/23_7.odb,Step-1,Increment      1: Step Time =    1.000,"PART-1-1",            50,          -15.,      -6.66667,            0.,NA,NA,"",   97.1206E-03,  -92.9594E-03,  -28.1240E-03,   4.85000E-03
C:/temp/dataset/2/23_7.odb,Step-1,Increment      1: Step Time =    1.000,"PART-1-1",            51,          -15.,      -18.3333,            0.,NA,NA,"",   21.0124E-03,   17.4764E-03,   11.6661E-03,   1.77182E-03
C:/temp/dataset/2/23_7.odb,Step-1,Increment      1: Step Time =    1.000,"PART-1-1",            52,          -15.,      -15.4167,            0.,NA,NA,"",   8.65687E-03,   6.71206E-03,   5.46714E-03,   2.97443E-03
C:/temp/dataset/2/23_7.odb,Step-1,Increment      1: Step Time =    1.000,"PART-1-1",            53,          -15.,      -27.0833,            0.,NA,NA,"",   14.3254E-03,   10.7208E-03,   9.50169E-03,   2.57019E-03
C:/temp/dataset/2/23_7.odb,Step-1,Increment      1: Step Time =    1.000,"PART-1-1",            54,          -15.,      -24.1667,            0.,NA,NA,"",   21.7958E-03,   17.0271E-03,   13.6064E-03,   1.00189E-03
C:/temp/dataset/2/23_7.odb,Step-1,Increment      1: Step Time =    1.000,"PART-1-1",            55,           12.,          -30.,            0.,NA,NA,"",            0.,   19.9531E-42,  -141.565E-42,   62.4749E-06
C:/temp/dataset/2/23_7.odb,Step-1,Increment      1: Step Time =    1.000,"PART-1-1",            56,            9.,          -30.,            0.,NA,NA,"",            0.,  -227.819E-42,  -296.717E-42,   41.7130E-06
C:/temp/dataset/2/23_7.odb,Step-1,Increment      1: Step Time =    1.000,"PART-1-1",            57,            6.,          -30.,            0.,NA,NA,"",            0.,  -803.214E-42,   713.351E-42,   127.245E-06
C:/temp/dataset/2/23_7.odb,Step-1,Increment      1: Step Time =    1.000,"PART-1-1",            58,            3.,          -30.,            0.,NA,NA,"",            0.,  -866.524E-42,   545.308E-42,   392.951E-06
C:/temp/dataset/2/23_7.odb,Step-1,Increment      1: Step Time =    1.000,"PART-1-1",            59,            0.,          -30.,            0.,NA,NA,"",            0.,  -3.20256E-39,   4.58020E-39,   835.846E-06
C:/temp/dataset/2/23_7.odb,Step-1,Increment      1: Step Time =    1.000,"PART-1-1",            60,           -3.,          -30.,            0.,NA,NA,"",            0.,  -3.96523E-39,   7.76017E-39,   1.37150E-03
C:/temp/dataset/2/23_7.odb,Step-1,Increment      1: Step Time =    1.000,"PART-1-1",            61,           -6.,          -30.,            0.,NA,NA,"",            0.,  -2.98174E-39,   9.43566E-39,   1.90269E-03
C:/temp/dataset/2/23_7.odb,Step-1,Increment      1: Step Time =    1.000,"PART-1-1",            62,           -9.,          -30.,            0.,NA,NA,"",            0.,   7.04531E-39,   14.2325E-39,   2.39471E-03
C:/temp/dataset/2/23_7.odb,Step-1,Increment      1: Step Time =    1.000,"PART-1-1",            63,          -12.,          -30.,            0.,NA,NA,"",            0.,   8.44247E-39,   12.5295E-39,   2.33941E-03
C:/temp/dataset/2/23_7.odb,Step-1,Increment      1: Step Time =    1.000,"PART-1-1",            64,           15.,         -27.5,            0.,NA,NA,"",   499.277E-06,   362.184E-06,  -343.658E-06,   117.995E-06
C:/temp/dataset/2/23_7.odb,Step-1,Increment      1: Step Time =    1.000,"PART-1-1",            65,           15.,         -22.5,            0.,NA,NA,"",   1.14868E-03,   986.599E-06,  -588.295E-06,   11.8047E-06
C:/temp/dataset/2/23_7.odb,Step-1,Increment      1: Step Time =    1.000,"PART-1-1",            66,       8.33333,          -20.,            0.,NA,NA,"",   1.48119E-03,   1.45240E-03,  -290.613E-06,   152.670E-06
C:/temp/dataset/2/23_7.odb,Step-1,Increment      1: Step Time =    1.000,"PART-1-1",            67,       11.6667,          -20.,            0.,NA,NA,"",   1.27093E-03,   1.21627E-03,  -368.714E-06,   19.1163E-06
C:/temp/dataset/2/23_7.odb,Step-1,Increment      1: Step Time =    1.000,"PART-1-1",            68,      -1.66667,          -20.,            0.,NA,NA,"",   9.99829E-03,   7.34168E-03,   6.78716E-03,   2.16171E-03
C:/temp/dataset/2/23_7.odb,Step-1,Increment      1: Step Time =    1.000,"PART-1-1",            69,       1.66667,          -20.,            0.,NA,NA,"",   4.38100E-03,   4.13810E-03,   1.43852E-03,   932.411E-06
C:/temp/dataset/2/23_7.odb,Step-1,Increment      1: Step Time =    1.000,"PART-1-1",            70,           -5.,          -15.,            0.,NA,NA,"",   75.7264E-03,  -10.9561E-03,   74.9296E-03,   9.90435E-03
C:/temp/dataset/2/23_7.odb,Step-1,Increment      1: Step Time =    1.000,"PART-1-1",            71,           -5.,         -17.5,            0.,NA,NA,"",   53.7251E-03,   1.76395E-03,   53.6961E-03,   9.91521E-03
C:/temp/dataset/2/23_7.odb,Step-1,Increment      1: Step Time =    1.000,"PART-1-1",            72,           -5.,          -7.5,            0.,NA,NA,"",   173.684E-03,  -89.7925E-03,   148.673E-03,   13.4122E-03
C:/temp/dataset/2/23_7.odb,Step-1,Increment      1: Step Time =    1.000,"PART-1-1",            73,           -5.,          -10.,            0.,NA,NA,"",   135.243E-03,  -56.3845E-03,   122.929E-03,   11.2956E-03
C:/temp/dataset/2/23_7.odb,Step-1,Increment      1: Step Time =    1.000,"PART-1-1",            74,          -2.5,           -5.,            0.,NA,NA,"",   321.344E-03,  -130.079E-03,   293.839E-03,   4.51535E-03
C:/temp/dataset/2/23_7.odb,Step-1,Increment      1: Step Time =    1.000,"PART-1-1",            75,           2.5,           -5.,            0.,NA,NA,"",   474.467E-03,  -178.218E-03,   439.724E-03,   14.5728E-03
C:/temp/dataset/2/23_7.odb,Step-1,Increment      1: Step Time =    1.000,"PART-1-1",            76,           7.5,           -5.,            0.,NA,NA,"",   552.173E-03,  -249.466E-03,   492.606E-03,   13.5323E-03
C:/temp/dataset/2/23_7.odb,Step-1,Increment      1: Step Time =    1.000,"PART-1-1",            77,          12.5,           -5.,            0.,NA,NA,"",   548.486E-03,  -283.311E-03,   469.651E-03,   1.64721E-03
C:/temp/dataset/2/23_7.odb,Step-1,Increment      1: Step Time =    1.000,"PART-1-1",            78,           15.,   833.333E-03,            0.,NA,NA,"",   524.157E-03,  -279.670E-03,   443.311E-03,   10.3176E-03
C:/temp/dataset/2/23_7.odb,Step-1,Increment      1: Step Time =    1.000,"PART-1-1",            79,           15.,      -2.08333,            0.,NA,NA,"",   537.015E-03,  -278.789E-03,   458.980E-03,   2.25533E-03
C:/temp/dataset/2/23_7.odb,Step-1,Increment      1: Step Time =    1.000,"PART-1-1",            80,           15.,       9.58333,            0.,NA,NA,"",   304.309E-03,  -116.979E-03,   280.927E-03,   24.7938E-03
C:/temp/dataset/2/23_7.odb,Step-1,Increment      1: Step Time =    1.000,"PART-1-1",            81,           15.,       6.66667,            0.,NA,NA,"",   407.938E-03,  -214.548E-03,   346.962E-03,   23.5670E-03
C:/temp/dataset/2/23_7.odb,Step-1,Increment      1: Step Time =    1.000,"PART-1-1",            82,           15.,       18.3333,            0.,NA,NA,"",   453.510E-03,   447.490E-03,   73.6496E-03,   21.6131E-03
C:/temp/dataset/2/23_7.odb,Step-1,Increment      1: Step Time =    1.000,"PART-1-1",            83,           15.,       15.4167,            0.,NA,NA,"",   258.484E-03,   215.131E-03,   143.293E-03,   23.9116E-03
C:/temp/dataset/2/23_7.odb,Step-1,Increment      1: Step Time =    1.000,"PART-1-1",            84,           15.,       27.0833,            0.,NA,NA,"",       1.36103,       1.35896,  -74.9773E-03,   1.88809E-03
C:/temp/dataset/2/23_7.odb,Step-1,Increment      1: Step Time =    1.000,"PART-1-1",            85,           15.,       24.1667,            0.,NA,NA,"",       1.03447,       1.03358,  -42.9427E-03,   9.02966E-03
C:/temp/dataset/2/23_7.odb,Step-1,Increment      1: Step Time =    1.000,"PART-1-1",            86,           10.,           30.,            0.,NA,NA,"",       1.77437,       1.71813,   443.191E-03,   6.42329E-03
C:/temp/dataset/2/23_7.odb,Step-1,Increment      1: Step Time =    1.000,"PART-1-1",            87,          12.5,           30.,            0.,NA,NA,"",       1.70504,       1.69577,   177.521E-03,   1.40283E-03
C:/temp/dataset/2/23_7.odb,Step-1,Increment      1: Step Time =    1.000,"PART-1-1",            88,           2.5,           30.,            0.,NA,NA,"",       2.26437,       1.84605,       1.31129,   10.2946E-03
C:/temp/dataset/2/23_7.odb,Step-1,Increment      1: Step Time =    1.000,"PART-1-1",            89,            5.,           30.,            0.,NA,NA,"",       2.05942,       1.79925,       1.00195,   12.4560E-03
C:/temp/dataset/2/23_7.odb,Step-1,Increment      1: Step Time =    1.000,"PART-1-1",            90,           -5.,           30.,            0.,NA,NA,"",       3.01027,       1.93926,       2.30239,   145.620E-06
C:/temp/dataset/2/23_7.odb,Step-1,Increment      1: Step Time =    1.000,"PART-1-1",            91,          -2.5,           30.,            0.,NA,NA,"",       2.74812,       1.91581,       1.97024,   1.88013E-03
C:/temp/dataset/2/23_7.odb,Step-1,Increment      1: Step Time =    1.000,"PART-1-1",            92,         -12.5,           30.,            0.,NA,NA,"",       3.84546,       2.00135,       3.28362,   77.5512E-06
C:/temp/dataset/2/23_7.odb,Step-1,Increment      1: Step Time =    1.000,"PART-1-1",            93,          -10.,           30.,            0.,NA,NA,"",       3.55973,       1.98044,       2.95796,   302.340E-06
C:/temp/dataset/2/23_7.odb,Step-1,Increment      1: Step Time =    1.000,"PART-1-1",            94,          -15.,          27.5,            0.,NA,NA,"",       4.00745,       1.69692,       3.63044,   64.0823E-06
C:/temp/dataset/2/23_7.odb,Step-1,Increment      1: Step Time =    1.000,"PART-1-1",            95,      -12.4978,       24.9766,            0.,NA,NA,"",       3.58832,       1.34678,       3.32599,   120.630E-06
C:/temp/dataset/2/23_7.odb,Step-1,Increment      1: Step Time =    1.000,"PART-1-1",            96,      -7.49872,       27.4475,            0.,NA,NA,"",       3.11206,       1.62601,       2.65348,   203.977E-06
C:/temp/dataset/2/23_7.odb,Step-1,Increment      1: Step Time =    1.000,"PART-1-1",            97,      -7.50661,       22.4446,            0.,NA,NA,"",       2.86924,   974.671E-03,       2.69862,   713.130E-06
C:/temp/dataset/2/23_7.odb,Step-1,Increment      1: Step Time =    1.000,"PART-1-1",            98,      -2.53392,       22.4091,            0.,NA,NA,"",       2.25607,   936.939E-03,       2.05232,   8.18451E-03
C:/temp/dataset/2/23_7.odb,Step-1,Increment      1: Step Time =    1.000,"PART-1-1",            99,  -19.7467E-03,       27.3919,            0.,NA,NA,"",       2.26834,       1.54872,       1.65735,   6.66202E-03
C:/temp/dataset/2/23_7.odb,Step-1,Increment      1: Step Time =    1.000,"PART-1-1",           100,       2.31326,       22.2671,            0.,NA,NA,"",       1.64162,   891.494E-03,       1.37846,   12.9929E-03
C:/temp/dataset/2/23_7.odb,Step-1,Increment      1: Step Time =    1.000,"PART-1-1",           101,       7.89882,       27.4278,            0.,NA,NA,"",       1.60125,       1.45123,   676.718E-03,   8.02359E-03
C:/temp/dataset/2/23_7.odb,Step-1,Increment      1: Step Time =    1.000,"PART-1-1",           102,       6.74061,       20.0564,            0.,NA,NA,"",       1.00852,   611.922E-03,   801.667E-03,   12.6087E-03
C:/temp/dataset/2/23_7.odb,Step-1,Increment      1: Step Time =    1.000,"PART-1-1",           103,       6.76082,       17.7755,            0.,NA,NA,"",   877.304E-03,   413.128E-03,   773.943E-03,   23.1839E-03
C:/temp/dataset/2/23_7.odb,Step-1,Increment      1: Step Time =    1.000,"PART-1-1",           104,       7.34933,       13.0959,            0.,NA,NA,"",   666.041E-03,   67.4368E-03,   662.618E-03,   18.4275E-03
C:/temp/dataset/2/23_7.odb,Step-1,Increment      1: Step Time =    1.000,"PART-1-1",           105,       12.5251,      -2.17932,            0.,NA,NA,"",   547.210E-03,  -280.165E-03,   470.050E-03,   7.20146E-03
C:/temp/dataset/2/23_7.odb,Step-1,Increment      1: Step Time =    1.000,"PART-1-1",           106,       11.8446,      -24.9441,            0.,NA,NA,"",   687.039E-06,   611.696E-06,  -312.810E-06,   113.880E-06
C:/temp/dataset/2/23_7.odb,Step-1,Increment      1: Step Time =    1.000,"PART-1-1",           107,       2.44158,      -2.66949,            0.,NA,NA,"",   500.959E-03,  -221.175E-03,   449.491E-03,   8.37385E-03
C:/temp/dataset/2/23_7.odb,Step-1,Increment      1: Step Time =    1.000,"PART-1-1",           108,       7.46163,      -2.37632,            0.,NA,NA,"",   568.814E-03,  -260.980E-03,   505.410E-03,   9.23985E-03
C:/temp/dataset/2/23_7.odb,Step-1,Increment      1: Step Time =    1.000,"PART-1-1",           109,       7.48217,       7.95809,            0.,NA,NA,"",   611.712E-03,  -191.411E-03,   580.993E-03,   19.3250E-03
C:/temp/dataset/2/23_7.odb,Step-1,Increment      1: Step Time =    1.000,"PART-1-1",           110,      -5.01446,       22.4347,            0.,NA,NA,"",       2.56239,   954.293E-03,       2.37806,   3.83870E-03
C:/temp/dataset/2/23_7.odb,Step-1,Increment      1: Step Time =    1.000,"PART-1-1",           111,  -75.1424E-03,       22.3615,            0.,NA,NA,"",       1.94304,   918.485E-03,       1.71225,   10.5654E-03
C:/temp/dataset/2/23_7.odb,Step-1,Increment      1: Step Time =    1.000,"PART-1-1",           112,       4.50776,       22.1530,            0.,NA,NA,"",       1.38000,   863.283E-03,       1.07663,   13.9132E-03
C:/temp/dataset/2/23_7.odb,Step-1,Increment      1: Step Time =    1.000,"PART-1-1",           113,       7.06405,       15.4904,            0.,NA,NA,"",   754.199E-03,   232.244E-03,   717.551E-03,   20.1554E-03
C:/temp/dataset/2/23_7.odb,Step-1,Increment      1: Step Time =    1.000,"PART-1-1",           114,       7.46285,       10.5556,            0.,NA,NA,"",   622.988E-03,  -76.6046E-03,   618.260E-03,   18.7158E-03
C:/temp/dataset/2/23_7.odb,Step-1,Increment      1: Step Time =    1.000,"PART-1-1",           115,      -2.89738,      -2.05905,            0.,NA,NA,"",   355.702E-03,  -212.345E-03,   285.365E-03,   10.4275E-03
C:/temp/dataset/2/23_7.odb,Step-1,Increment      1: Step Time =    1.000,"PART-1-1",           116,      -7.61206,      -10.6629,            0.,NA,NA,"",   92.6779E-03,  -37.7646E-03,   84.6347E-03,   7.51839E-03
C:/temp/dataset/2/23_7.odb,Step-1,Increment      1: Step Time =    1.000,"PART-1-1",           117,      -6.85891,      -17.7385,            0.,NA,NA,"",   46.1181E-03,   8.76742E-03,   45.2771E-03,   7.03061E-03
C:/temp/dataset/2/23_7.odb,Step-1,Increment      1: Step Time =    1.000,"PART-1-1",           118,       11.9280,      -27.4687,            0.,NA,NA,"",   299.917E-06,   250.806E-06,  -164.458E-06,   111.946E-06
C:/temp/dataset/2/23_7.odb,Step-1,Increment      1: Step Time =    1.000,"PART-1-1",           119,      -7.44747,      -13.1413,            0.,NA,NA,"",   71.8677E-03,  -14.6894E-03,   70.3504E-03,   7.17740E-03
C:/temp/dataset/2/23_7.odb,Step-1,Increment      1: Step Time =    1.000,"PART-1-1",           120,      -7.13169,      -15.4658,            0.,NA,NA,"",   57.8746E-03,  -79.0639E-06,   57.8746E-03,   7.27766E-03
C:/temp/dataset/2/23_7.odb,Step-1,Increment      1: Step Time =    1.000,"PART-1-1",           121,      -8.02089,      -5.87394,            0.,NA,NA,"",   149.830E-03,  -107.214E-03,   104.661E-03,   4.40228E-03
C:/temp/dataset/2/23_7.odb,Step-1,Increment      1: Step Time =    1.000,"PART-1-1",           122,      -7.74476,      -8.18529,            0.,NA,NA,"",   119.189E-03,  -69.0757E-03,   97.1319E-03,   7.63406E-03
C:/temp/dataset/2/23_7.odb,Step-1,Increment      1: Step Time =    1.000,"PART-1-1",           123,  -21.3834E-03,      -2.74811,            0.,NA,NA,"",   434.200E-03,  -206.044E-03,   382.198E-03,   7.74585E-03
C:/temp/dataset/2/23_7.odb,Step-1,Increment      1: Step Time =    1.000,"PART-1-1",           124,       4.94012,      -2.49525,            0.,NA,NA,"",   549.188E-03,  -241.644E-03,   493.168E-03,   8.31370E-03
C:/temp/dataset/2/23_7.odb,Step-1,Increment      1: Step Time =    1.000,"PART-1-1",           125,       10.0127,      -2.27482,            0.,NA,NA,"",   563.342E-03,  -274.752E-03,   491.799E-03,   9.96597E-03
C:/temp/dataset/2/23_7.odb,Step-1,Increment      1: Step Time =    1.000,"PART-1-1",           126,       10.2967,       27.4669,            0.,NA,NA,"",       1.49270,       1.43175,   422.201E-03,   8.10538E-03
C:/temp/dataset/2/23_7.odb,Step-1,Increment      1: Step Time =    1.000,"PART-1-1",           127,       12.6750,       27.3103,            0.,NA,NA,"",       1.40783,       1.39691,   174.992E-03,   5.80072E-03
C:/temp/dataset/2/23_7.odb,Step-1,Increment      1: Step Time =    1.000,"PART-1-1",           128,       2.52543,       27.2659,            0.,NA,NA,"",       1.99971,       1.50200,       1.32017,   7.60547E-03
C:/temp/dataset/2/23_7.odb,Step-1,Increment      1: Step Time =    1.000,"PART-1-1",           129,       5.32711,       26.8707,            0.,NA,NA,"",       1.71771,       1.41701,   970.887E-03,   6.76384E-03
C:/temp/dataset/2/23_7.odb,Step-1,Increment      1: Step Time =    1.000,"PART-1-1",           130,      -5.00948,       27.4462,            0.,NA,NA,"",       2.82565,       1.60436,       2.32601,   1.49822E-03
C:/temp/dataset/2/23_7.odb,Step-1,Increment      1: Step Time =    1.000,"PART-1-1",           131,      -2.51658,       27.4324,            0.,NA,NA,"",       2.54360,       1.57986,       1.99347,   4.08700E-03
C:/temp/dataset/2/23_7.odb,Step-1,Increment      1: Step Time =    1.000,"PART-1-1",           132,      -9.99211,       27.4668,            0.,NA,NA,"",       3.40512,       1.64985,       2.97873,   218.924E-06
C:/temp/dataset/2/23_7.odb,Step-1,Increment      1: Step Time =    1.000,"PART-1-1",           133,       12.5029,       21.6680,            0.,NA,NA,"",   804.783E-03,   765.319E-03,   248.921E-03,   10.7803E-03
C:/temp/dataset/2/23_7.odb,Step-1,Increment      1: Step Time =    1.000,"PART-1-1",           134,      -12.7198,      -9.27859,            0.,NA,NA,"",   51.0049E-03,  -48.3193E-03,   16.3326E-03,   1.16177E-03
C:/temp/dataset/2/23_7.odb,Step-1,Increment      1: Step Time =    1.000,"PART-1-1",           135,      -12.2206,      -21.4876,            0.,NA,NA,"",   25.5136E-03,   19.0256E-03,   16.9992E-03,   2.47511E-03
C:/temp/dataset/2/23_7.odb,Step-1,Increment      1: Step Time =    1.000,"PART-1-1",           136,       12.4390,       11.8581,            0.,NA,NA,"",   369.381E-03,  -24.1530E-03,   368.590E-03,   9.55302E-03
C:/temp/dataset/2/23_7.odb,Step-1,Increment      1: Step Time =    1.000,"PART-1-1",           137,      -12.6285,      -12.0158,            0.,NA,NA,"",   25.5416E-03,  -16.5392E-03,   19.4634E-03,   1.05981E-03
C:/temp/dataset/2/23_7.odb,Step-1,Increment      1: Step Time =    1.000,"PART-1-1",           138,      -12.4213,      -14.8709,            0.,NA,NA,"",   22.2047E-03,   5.19253E-03,   21.5891E-03,   1.20010E-03
C:/temp/dataset/2/23_7.odb,Step-1,Increment      1: Step Time =    1.000,"PART-1-1",           139,       12.2989,       14.8029,            0.,NA,NA,"",   381.888E-03,   158.720E-03,   347.342E-03,   8.58611E-03
C:/temp/dataset/2/23_7.odb,Step-1,Increment      1: Step Time =    1.000,"PART-1-1",           140,       11.7182,       18.2155,            0.,NA,NA,"",   558.353E-03,   428.075E-03,   358.484E-03,   7.28178E-03
C:/temp/dataset/2/23_7.odb,Step-1,Increment      1: Step Time =    1.000,"PART-1-1",           141,      -12.3380,      -4.01281,            0.,NA,NA,"",   145.787E-03,  -144.711E-03,   17.6770E-03,   1.51377E-03
C:/temp/dataset/2/23_7.odb,Step-1,Increment      1: Step Time =    1.000,"PART-1-1",           142,       12.5089,       6.21106,            0.,NA,NA,"",   487.090E-03,  -243.823E-03,   421.671E-03,   10.9512E-03
C:/temp/dataset/2/23_7.odb,Step-1,Increment      1: Step Time =    1.000,"PART-1-1",           143,      -10.9765,      -1.21375,            0.,NA,NA,"",   218.844E-03,  -213.629E-03,   47.4934E-03,   2.09740E-03
C:/temp/dataset/2/23_7.odb,Step-1,Increment      1: Step Time =    1.000,"PART-1-1",           144,      -11.4273,       2.02370,            0.,NA,NA,"",   301.488E-03,  -299.222E-03,   36.8880E-03,   1.42056E-03
C:/temp/dataset/2/23_7.odb,Step-1,Increment      1: Step Time =    1.000,"PART-1-1",           145,      -12.7154,      -6.64001,            0.,NA,NA,"",   91.5873E-03,  -90.6191E-03,   13.2819E-03,   1.34249E-03
C:/temp/dataset/2/23_7.odb,Step-1,Increment      1: Step Time =    1.000,"PART-1-1",           146,      -11.7762,      -18.1315,            0.,NA,NA,"",   28.6686E-03,   17.3852E-03,   22.7957E-03,   2.15047E-03
C:/temp/dataset/2/23_7.odb,Step-1,Increment      1: Step Time =    1.000,"PART-1-1",           147,      -12.2481,      -24.4184,            0.,NA,NA,"",   18.5873E-03,   14.4869E-03,   11.6454E-03,   2.87337E-03
C:/temp/dataset/2/23_7.odb,Step-1,Increment      1: Step Time =    1.000,"PART-1-1",           148,       12.5340,       3.42208,            0.,NA,NA,"",   527.983E-03,  -283.168E-03,   445.625E-03,   11.5322E-03
C:/temp/dataset/2/23_7.odb,Step-1,Increment      1: Step Time =    1.000,"PART-1-1",           149,       12.5428,   630.306E-03,            0.,NA,NA,"",   544.732E-03,  -287.819E-03,   462.486E-03,   10.9307E-03
C:/temp/dataset/2/23_7.odb,Step-1,Increment      1: Step Time =    1.000,"PART-1-1",           150,       12.5001,       9.03097,            0.,NA,NA,"",   424.178E-03,  -156.771E-03,   394.144E-03,   10.1894E-03
C:/temp/dataset/2/23_7.odb,Step-1,Increment      1: Step Time =    1.000,"PART-1-1",           151,       12.7192,       24.5718,            0.,NA,NA,"",       1.10235,       1.08508,   194.392E-03,   9.23363E-03
C:/temp/dataset/2/23_7.odb,Step-1,Increment      1: Step Time =    1.000,"PART-1-1",           152,       2.66783,      -27.4286,            0.,NA,NA,"",   747.324E-06,  -717.845E-06,   207.825E-06,   305.235E-06
C:/temp/dataset/2/23_7.odb,Step-1,Increment      1: Step Time =    1.000,"PART-1-1",           153,       8.86089,      -27.4494,            0.,NA,NA,"",   178.672E-06,   102.921E-06,  -146.051E-06,   122.949E-06
C:/temp/dataset/2/23_7.odb,Step-1,Increment      1: Step Time =    1.000,"PART-1-1",           154,       5.76511,      -27.4328,            0.,NA,NA,"",   229.701E-06,  -201.222E-06,  -110.780E-06,   179.461E-06
C:/temp/dataset/2/23_7.odb,Step-1,Increment      1: Step Time =    1.000,"PART-1-1",           155,  -414.647E-03,      -27.4330,            0.,NA,NA,"",   1.71584E-03,  -1.15182E-03,   1.27178E-03,   722.368E-06
C:/temp/dataset/2/23_7.odb,Step-1,Increment      1: Step Time =    1.000,"PART-1-1",           156,      -3.42691,      -27.4460,            0.,NA,NA,"",   3.26651E-03,  -604.166E-06,   3.21015E-03,   1.65818E-03
C:/temp/dataset/2/23_7.odb,Step-1,Increment      1: Step Time =    1.000,"PART-1-1",           157,      -6.36574,      -27.4272,            0.,NA,NA,"",   5.19003E-03,   1.62723E-03,   4.92833E-03,   2.62752E-03
C:/temp/dataset/2/23_7.odb,Step-1,Increment      1: Step Time =    1.000,"PART-1-1",           158,       10.5238,       25.0033,            0.,NA,NA,"",       1.21697,       1.14470,   413.117E-03,   10.1014E-03
C:/temp/dataset/2/23_7.odb,Step-1,Increment      1: Step Time =    1.000,"PART-1-1",           159,       6.26912,       22.1485,            0.,NA,NA,"",       1.20584,   844.923E-03,   860.322E-03,   13.4064E-03
C:/temp/dataset/2/23_7.odb,Step-1,Increment      1: Step Time =    1.000,"PART-1-1",           160,      -5.96402,      -2.70245,            0.,NA,NA,"",   254.816E-03,  -186.593E-03,   173.535E-03,   8.74312E-03
C:/temp/dataset/2/23_7.odb,Step-1,Increment      1: Step Time =    1.000,"PART-1-1",           161,      -12.5033,       22.4816,            0.,NA,NA,"",       3.50032,       1.02231,       3.34770,   174.517E-06
C:/temp/dataset/2/23_7.odb,Step-1,Increment      1: Step Time =    1.000,"PART-1-1",           162,      -2.53325,       24.9024,            0.,NA,NA,"",       2.37910,       1.25635,       2.02032,   5.84911E-03
C:/temp/dataset/2/23_7.odb,Step-1,Increment      1: Step Time =    1.000,"PART-1-1",           163,       4.43197,       24.4161,            0.,NA,NA,"",       1.56943,       1.13414,       1.08482,   8.21964E-03
C:/temp/dataset/2/23_7.odb,Step-1,Increment      1: Step Time =    1.000,"PART-1-1",           164,      -10.2797,      -8.84555,            0.,NA,NA,"",   76.7733E-03,  -54.7852E-03,   53.7840E-03,   2.77029E-03
C:/temp/dataset/2/23_7.odb,Step-1,Increment      1: Step Time =    1.000,"PART-1-1",           165,       2.21534,  -332.134E-03,            0.,NA,NA,"",   518.990E-03,  -255.493E-03,   451.746E-03,   9.32815E-03
C:/temp/dataset/2/23_7.odb,Step-1,Increment      1: Step Time =    1.000,"PART-1-1",           166,  -74.2209E-03,       24.8536,            0.,NA,NA,"",       2.08731,       1.23190,       1.68502,   8.47723E-03
C:/temp/dataset/2/23_7.odb,Step-1,Increment      1: Step Time =    1.000,"PART-1-1",           167,       2.30693,       24.7164,            0.,NA,NA,"",       1.81018,       1.19321,       1.36125,   9.70398E-03
C:/temp/dataset/2/23_7.odb,Step-1,Increment      1: Step Time =    1.000,"PART-1-1",           168,       9.79368,       13.9045,            0.,NA,NA,"",   527.543E-03,   101.170E-03,   517.751E-03,   5.28770E-03
C:/temp/dataset/2/23_7.odb,Step-1,Increment      1: Step Time =    1.000,"PART-1-1",           169,       9.30777,       16.4521,            0.,NA,NA,"",   627.852E-03,   285.906E-03,   558.977E-03,   6.45749E-03
C:/temp/dataset/2/23_7.odb,Step-1,Increment      1: Step Time =    1.000,"PART-1-1",           170,      -2.35985,       1.11806,            0.,NA,NA,"",   417.228E-03,  -283.185E-03,   306.407E-03,   8.56905E-03
C:/temp/dataset/2/23_7.odb,Step-1,Increment      1: Step Time =    1.000,"PART-1-1",           171,      -9.94133,      -13.9778,            0.,NA,NA,"",   43.5619E-03,  -2.50931E-03,   43.4896E-03,   3.80959E-03
C:/temp/dataset/2/23_7.odb,Step-1,Increment      1: Step Time =    1.000,"PART-1-1",           172,       4.80988,   33.7751E-03,            0.,NA,NA,"",   571.216E-03,  -267.623E-03,   504.644E-03,   6.96869E-03
C:/temp/dataset/2/23_7.odb,Step-1,Increment      1: Step Time =    1.000,"PART-1-1",           173,       9.94126,       11.1894,            0.,NA,NA,"",   505.776E-03,  -59.4954E-03,   502.265E-03,   4.38501E-03
C:/temp/dataset/2/23_7.odb,Step-1,Increment      1: Step Time =    1.000,"PART-1-1",           174,       7.43598,   226.782E-03,            0.,NA,NA,"",   589.487E-03,  -281.395E-03,   517.988E-03,   10.3762E-03
C:/temp/dataset/2/23_7.odb,Step-1,Increment      1: Step Time =    1.000,"PART-1-1",           175,      -7.50368,       24.9336,            0.,NA,NA,"",       2.97464,       1.29823,       2.67639,   496.300E-06
C:/temp/dataset/2/23_7.odb,Step-1,Increment      1: Step Time =    1.000,"PART-1-1",           176,      -10.1536,      -11.3797,            0.,NA,NA,"",   54.8225E-03,  -24.3050E-03,   49.1403E-03,   3.39646E-03
C:/temp/dataset/2/23_7.odb,Step-1,Increment      1: Step Time =    1.000,"PART-1-1",           177,       6.92724,       24.6415,            0.,NA,NA,"",       1.38032,       1.13195,   789.911E-03,   8.57754E-03
C:/temp/dataset/2/23_7.odb,Step-1,Increment      1: Step Time =    1.000,"PART-1-1",           178,      -9.99868,       24.9580,            0.,NA,NA,"",       3.27955,       1.32281,       3.00093,   235.904E-06
C:/temp/dataset/2/23_7.odb,Step-1,Increment      1: Step Time =    1.000,"PART-1-1",           179,       8.37028,       18.0705,            0.,NA,NA,"",   767.924E-03,   422.646E-03,   641.153E-03,   8.96071E-03
C:/temp/dataset/2/23_7.odb,Step-1,Increment      1: Step Time =    1.000,"PART-1-1",           180,      -10.4068,      -6.54987,            0.,NA,NA,"",   107.547E-03,  -91.9756E-03,   55.7382E-03,   1.95377E-03
C:/temp/dataset/2/23_7.odb,Step-1,Increment      1: Step Time =    1.000,"PART-1-1",           181,      -8.52723,      -17.8680,            0.,NA,NA,"",   40.1359E-03,   13.1941E-03,   37.9052E-03,   4.57641E-03
C:/temp/dataset/2/23_7.odb,Step-1,Increment      1: Step Time =    1.000,"PART-1-1",           182,       9.99063,       8.47585,            0.,NA,NA,"",   526.757E-03,  -182.608E-03,   494.093E-03,   2.85152E-03
C:/temp/dataset/2/23_7.odb,Step-1,Increment      1: Step Time =    1.000,"PART-1-1",           183,      -6.87511,      -22.3968,            0.,NA,NA,"",   23.3317E-03,   8.94591E-03,   21.5485E-03,   5.38878E-03
C:/temp/dataset/2/23_7.odb,Step-1,Increment      1: Step Time =    1.000,"PART-1-1",           184,       7.48189,       5.34092,            0.,NA,NA,"",   613.642E-03,  -274.551E-03,   548.797E-03,   10.6729E-03
C:/temp/dataset/2/23_7.odb,Step-1,Increment      1: Step Time =    1.000,"PART-1-1",           185,       10.0207,   425.902E-03,            0.,NA,NA,"",   573.200E-03,  -288.734E-03,   495.167E-03,   11.9384E-03
C:/temp/dataset/2/23_7.odb,Step-1,Increment      1: Step Time =    1.000,"PART-1-1",           186,      -8.86720,      -3.63325,            0.,NA,NA,"",   180.956E-03,  -155.276E-03,   92.9212E-03,   3.43271E-03
C:/temp/dataset/2/23_7.odb,Step-1,Increment      1: Step Time =    1.000,"PART-1-1",           187,       10.0155,       5.77118,            0.,NA,NA,"",   557.572E-03,  -262.226E-03,   492.061E-03,   5.33782E-03
C:/temp/dataset/2/23_7.odb,Step-1,Increment      1: Step Time =    1.000,"PART-1-1",           188,       9.07540,       20.2179,            0.,NA,NA,"",   848.404E-03,   620.317E-03,   578.789E-03,   7.81022E-03
C:/temp/dataset/2/23_7.odb,Step-1,Increment      1: Step Time =    1.000,"PART-1-1",           189,       5.51479,      -24.9218,            0.,NA,NA,"",   438.717E-06,   311.772E-06,  -308.659E-06,   247.492E-06
C:/temp/dataset/2/23_7.odb,Step-1,Increment      1: Step Time =    1.000,"PART-1-1",           190,       2.33502,      -24.9114,            0.,NA,NA,"",   397.145E-06,  -120.879E-06,   378.302E-06,   257.668E-06
C:/temp/dataset/2/23_7.odb,Step-1,Increment      1: Step Time =    1.000,"PART-1-1",           191,      -3.83494,      -24.9465,            0.,NA,NA,"",   7.89750E-03,   660.309E-06,   7.86985E-03,   2.24607E-03
C:/temp/dataset/2/23_7.odb,Step-1,Increment      1: Step Time =    1.000,"PART-1-1",           192,       8.68706,      -24.9229,            0.,NA,NA,"",   610.154E-06,   513.463E-06,  -329.612E-06,   179.064E-06
C:/temp/dataset/2/23_7.odb,Step-1,Increment      1: Step Time =    1.000,"PART-1-1",           193,  -793.545E-03,      -24.9263,            0.,NA,NA,"",   2.89845E-03,  -473.048E-06,   2.85958E-03,   730.790E-06
C:/temp/dataset/2/23_7.odb,Step-1,Increment      1: Step Time =    1.000,"PART-1-1",           194,      -10.0041,       22.4687,            0.,NA,NA,"",       3.18349,   999.283E-03,       3.02258,   253.673E-06
C:/temp/dataset/2/23_7.odb,Step-1,Increment      1: Step Time =    1.000,"PART-1-1",           195,       7.76291,       22.5689,            0.,NA,NA,"",       1.12573,   880.445E-03,   701.491E-03,   10.8174E-03
C:/temp/dataset/2/23_7.odb,Step-1,Increment      1: Step Time =    1.000,"PART-1-1",           196,       10.0314,       3.09975,            0.,NA,NA,"",   575.168E-03,  -293.081E-03,   494.895E-03,   10.8267E-03
C:/temp/dataset/2/23_7.odb,Step-1,Increment      1: Step Time =    1.000,"PART-1-1",           197,       7.45157,       2.78517,            0.,NA,NA,"",   609.160E-03,  -294.941E-03,   532.996E-03,   13.0184E-03
C:/temp/dataset/2/23_7.odb,Step-1,Increment      1: Step Time =    1.000,"PART-1-1",           198,       1.23926,       2.17480,            0.,NA,NA,"",   516.220E-03,  -296.869E-03,   422.317E-03,   12.7772E-03
C:/temp/dataset/2/23_7.odb,Step-1,Increment      1: Step Time =    1.000,"PART-1-1",           199,       5.89388,       23.8379,            0.,NA,NA,"",       1.38579,       1.04775,   906.980E-03,   9.23539E-03
C:/temp/dataset/2/23_7.odb,Step-1,Increment      1: Step Time =    1.000,"PART-1-1",           200,       4.70825,       2.52712,            0.,NA,NA,"",   595.090E-03,  -289.519E-03,   519.915E-03,   13.7287E-03
C:/temp/dataset/2/23_7.odb,Step-1,Increment      1: Step Time =    1.000,"PART-1-1",           201,      -6.67563,      -24.8783,            0.,NA,NA,"",   13.0859E-03,   4.93132E-03,   12.1212E-03,   3.69603E-03
C:/temp/dataset/2/23_7.odb,Step-1,Increment      1: Step Time =    1.000,"PART-1-1",           202,      -1.93740,       2.90022,            0.,NA,NA,"",   454.154E-03,  -323.680E-03,   318.570E-03,   7.22355E-03
C:/temp/dataset/2/23_7.odb,Step-1,Increment      1: Step Time =    1.000,"PART-1-1",           203,      -4.27328,      -22.5070,            0.,NA,NA,"",   14.3217E-03,   3.35678E-03,   13.9227E-03,   3.63956E-03
C:/temp/dataset/2/23_7.odb,Step-1,Increment      1: Step Time =    1.000,"PART-1-1",           204,      -7.29195,  -216.826E-03,            0.,NA,NA,"",   284.507E-03,  -245.265E-03,   144.184E-03,   3.79997E-03
C:/temp/dataset/2/23_7.odb,Step-1,Increment      1: Step Time =    1.000,"PART-1-1",           205,      -4.39370,   432.763E-03,            0.,NA,NA,"",   356.518E-03,  -266.867E-03,   236.404E-03,   7.29629E-03
C:/temp/dataset/2/23_7.odb,Step-1,Increment      1: Step Time =    1.000,"PART-1-1",           206,      -1.20581,      -22.4416,            0.,NA,NA,"",   4.55794E-03,   2.32671E-03,   3.91935E-03,   912.289E-06
C:/temp/dataset/2/23_7.odb,Step-1,Increment      1: Step Time =    1.000,"PART-1-1",           207,      -4.88725,       2.78210,            0.,NA,NA,"",   393.357E-03,  -325.041E-03,   221.537E-03,   3.97350E-03
C:/temp/dataset/2/23_7.odb,Step-1,Increment      1: Step Time =    1.000,"PART-1-1",           208,      -8.02678,       2.39768,            0.,NA,NA,"",   337.235E-03,  -312.533E-03,   126.691E-03,   1.20332E-03
C:/temp/dataset/2/23_7.odb,Step-1,Increment      1: Step Time =    1.000,"PART-1-1",           209,       8.51144,      -22.4401,            0.,NA,NA,"",   1.16472E-03,   1.09084E-03,  -408.197E-06,   172.417E-06
C:/temp/dataset/2/23_7.odb,Step-1,Increment      1: Step Time =    1.000,"PART-1-1",           210,       5.25488,      -22.4306,            0.,NA,NA,"",   1.41402E-03,   1.36148E-03,  -381.901E-06,   288.032E-06
C:/temp/dataset/2/23_7.odb,Step-1,Increment      1: Step Time =    1.000,"PART-1-1",           211,       2.00226,      -22.4217,            0.,NA,NA,"",   1.80136E-03,   1.73190E-03,   495.405E-06,   300.132E-06
C:/temp/dataset/2/23_7.odb,Step-1,Increment      1: Step Time =    1.000,"PART-1-1",           212,      -9.28570,      -27.3600,            0.,NA,NA,"",   7.11216E-03,   4.64597E-03,   5.38496E-03,   3.07719E-03
C:/temp/dataset/2/23_7.odb,Step-1,Increment      1: Step Time =    1.000,"PART-1-1",           213,       11.7596,      -22.4488,            0.,NA,NA,"",   1.06633E-03,   993.039E-06,  -388.509E-06,   78.5312E-06
C:/temp/dataset/2/23_7.odb,Step-1,Increment      1: Step Time =    1.000,"PART-1-1",           214,      -12.4952,       27.4851,            0.,NA,NA,"",       3.70409,       1.67360,       3.30445,   161.950E-06
C:/temp/dataset/2/23_7.odb,Step-1,Increment      1: Step Time =    1.000,"PART-1-1",           215,      -12.1608,      -27.2494,            0.,NA,NA,"",   9.64466E-03,   7.74355E-03,   5.74950E-03,   3.18551E-03
C:/temp/dataset/2/23_7.odb,Step-1,Increment      1: Step Time =    1.000,"PART-1-1",           216,      -6.92277,      -20.0189,            0.,NA,NA,"",   34.7782E-03,   12.6245E-03,   32.4059E-03,   5.26396E-03
C:/temp/dataset/2/23_7.odb,Step-1,Increment      1: Step Time =    1.000,"PART-1-1",           217,       10.3403,       22.5364,            0.,NA,NA,"",   973.109E-03,   864.011E-03,   447.690E-03,   10.4197E-03
C:/temp/dataset/2/23_7.odb,Step-1,Increment      1: Step Time =    1.000,"PART-1-1",           218,      -9.38591,      -16.3373,            0.,NA,NA,"",   40.6767E-03,   9.56128E-03,   39.5370E-03,   4.19919E-03
C:/temp/dataset/2/23_7.odb,Step-1,Increment      1: Step Time =    1.000,"PART-1-1",           219,      -9.56004,      -22.0160,            0.,NA,NA,"",   25.7468E-03,   15.2866E-03,   20.7176E-03,   4.13515E-03
C:/temp/dataset/2/23_7.odb,Step-1,Increment      1: Step Time =    1.000,"PART-1-1",           220,      -9.49058,      -24.6874,            0.,NA,NA,"",   16.2272E-03,   10.2395E-03,   12.5886E-03,   3.82944E-03
C:/temp/dataset/2/23_7.odb,Step-1,Increment      1: Step Time =    1.000,"PART-1-1",           221,  -968.003E-03,   33.9082E-03,            0.,NA,NA,"",   439.248E-03,  -259.635E-03,   354.300E-03,   8.65317E-03
C:/temp/dataset/2/23_7.odb,Step-1,Increment      1: Step Time =    1.000,"PART-1-1",           222,   333.674E-03,      -1.00763,            0.,NA,NA,"",   463.773E-03,  -240.833E-03,   396.339E-03,   9.15871E-03
C:/temp/dataset/2/23_7.odb,Step-1,Increment      1: Step Time =    1.000,"PART-1-1",           223,      -10.5623,      -4.72446,            0.,NA,NA,"",   139.818E-03,  -128.761E-03,   54.4950E-03,   1.64882E-03
C:/temp/dataset/2/23_7.odb,Step-1,Increment      1: Step Time =    1.000,"PART-1-1",           224,      -5.01319,       24.9269,            0.,NA,NA,"",       2.67533,       1.27744,       2.35064,   2.43665E-03
C:/temp/dataset/2/23_7.odb,Step-1,Increment      1: Step Time =    1.000,"PART-1-1",           225,      -9.24174,      -19.5473,            0.,NA,NA,"",   33.6066E-03,   16.5448E-03,   29.2519E-03,   4.19110E-03
C:/temp/dataset/2/23_7.odb,Step-1,Increment      1: Step Time =    1.000,"PART-1-1",           226,       8.53639,       25.1316,            0.,NA,NA,"",       1.32615,       1.17437,   616.053E-03,   9.56253E-03
C:/temp/dataset/2/23_7.odb,Step-1,Increment      1: Step Time =    1.000,"PART-1-1",           227,       8.85572,       23.3093,            0.,NA,NA,"",       1.12560,   958.950E-03,   589.407E-03,   10.3213E-03
C:/temp/dataset/2/23_7.odb,Step-1,Increment      1: Step Time =    1.000,"PART-1-1",           228,      -13.7516,       22.4908,            0.,NA,NA,"",       3.65929,       1.03417,       3.51012,   107.172E-06
C:/temp/dataset/2/23_7.odb,Step-1,Increment      1: Step Time =    1.000,"PART-1-1",           229,          -15.,         21.25,            0.,NA,NA,"",       3.78749,   883.435E-03,       3.68302,   24.7803E-06
C:/temp/dataset/2/23_7.odb,Step-1,Increment      1: Step Time =    1.000,"PART-1-1",           230,        -13.75,           20.,            0.,NA,NA,"",       3.60174,   710.224E-03,       3.53102,   31.7133E-06
C:/temp/dataset/2/23_7.odb,Step-1,Increment      1: Step Time =    1.000,"PART-1-1",           231,      -12.5016,       21.2408,            0.,NA,NA,"",       3.46663,   861.035E-03,       3.35799,   110.623E-06
C:/temp/dataset/2/23_7.odb,Step-1,Increment      1: Step Time =    1.000,"PART-1-1",           232,      -9.99605,       28.7334,            0.,NA,NA,"",       3.47941,       1.81522,       2.96838,   192.856E-06
C:/temp/dataset/2/23_7.odb,Step-1,Increment      1: Step Time =    1.000,"PART-1-1",           233,        -11.25,           30.,            0.,NA,NA,"",       3.70176,       1.99084,       3.12083,   183.312E-06
C:/temp/dataset/2/23_7.odb,Step-1,Increment      1: Step Time =    1.000,"PART-1-1",           234,      -12.4976,       28.7426,            0.,NA,NA,"",       3.77190,       1.83752,       3.29405,   99.5126E-06
C:/temp/dataset/2/23_7.odb,Step-1,Increment      1: Step Time =    1.000,"PART-1-1",           235,      -11.2437,       27.4760,            0.,NA,NA,"",       3.55404,       1.66173,       3.14163,   177.962E-06
C:/temp/dataset/2/23_7.odb,Step-1,Increment      1: Step Time =    1.000,"PART-1-1",           236,      -8.74541,       27.4572,            0.,NA,NA,"",       3.25799,       1.63795,       2.81631,   116.706E-06
C:/temp/dataset/2/23_7.odb,Step-1,Increment      1: Step Time =    1.000,"PART-1-1",           237,      -7.49936,       28.7238,            0.,NA,NA,"",       3.19330,       1.79294,       2.64245,   242.826E-06
C:/temp/dataset/2/23_7.odb,Step-1,Increment      1: Step Time =    1.000,"PART-1-1",           238,         -8.75,           30.,            0.,NA,NA,"",       3.41948,       1.97019,       2.79485,   388.547E-06
C:/temp/dataset/2/23_7.odb,Step-1,Increment      1: Step Time =    1.000,"PART-1-1",           239,      -10.0020,       21.2344,            0.,NA,NA,"",       3.14670,   839.109E-03,       3.03276,   235.896E-06
C:/temp/dataset/2/23_7.odb,Step-1,Increment      1: Step Time =    1.000,"PART-1-1",           240,      -11.2537,       22.4752,            0.,NA,NA,"",       3.34165,       1.01081,       3.18511,   204.500E-06
C:/temp/dataset/2/23_7.odb,Step-1,Increment      1: Step Time =    1.000,"PART-1-1",           241,        -11.25,           20.,            0.,NA,NA,"",       3.27891,   689.187E-03,       3.20566,   234.445E-06
C:/temp/dataset/2/23_7.odb,Step-1,Increment      1: Step Time =    1.000,"PART-1-1",           242,      -6.25410,       27.4469,            0.,NA,NA,"",       2.96823,       1.61528,       2.49023,   787.282E-06
C:/temp/dataset/2/23_7.odb,Step-1,Increment      1: Step Time =    1.000,"PART-1-1",           243,      -7.50120,       26.1906,            0.,NA,NA,"",       3.03959,       1.46199,       2.66489,   334.941E-06
C:/temp/dataset/2/23_7.odb,Step-1,Increment      1: Step Time =    1.000,"PART-1-1",           244,      -6.25844,       24.9303,            0.,NA,NA,"",       2.82452,       1.28755,       2.51399,   1.33739E-03
C:/temp/dataset/2/23_7.odb,Step-1,Increment      1: Step Time =    1.000,"PART-1-1",           245,      -5.01133,       26.1865,            0.,NA,NA,"",       2.74616,       1.44068,       2.33792,   1.82848E-03
C:/temp/dataset/2/23_7.odb,Step-1,Increment      1: Step Time =    1.000,"PART-1-1",           246,       1.11906,       22.3143,            0.,NA,NA,"",       1.79023,   905.217E-03,       1.54450,   10.1886E-03
C:/temp/dataset/2/23_7.odb,Step-1,Increment      1: Step Time =    1.000,"PART-1-1",           247,  -37.5712E-03,       21.1808,            0.,NA,NA,"",       1.88450,   764.301E-03,       1.72255,   8.03979E-03
C:/temp/dataset/2/23_7.odb,Step-1,Increment      1: Step Time =    1.000,"PART-1-1",           248,          1.25,           20.,            0.,NA,NA,"",       1.66348,   594.652E-03,       1.55357,   8.14397E-03
C:/temp/dataset/2/23_7.odb,Step-1,Increment      1: Step Time =    1.000,"PART-1-1",           249,       2.40663,       21.1336,            0.,NA,NA,"",       1.56389,   747.337E-03,       1.37377,   9.27416E-03
C:/temp/dataset/2/23_7.odb,Step-1,Increment      1: Step Time =    1.000,"PART-1-1",           250,  -46.9838E-03,       26.1228,            0.,NA,NA,"",       2.17295,       1.38973,       1.67044,   7.25391E-03
C:/temp/dataset/2/23_7.odb,Step-1,Increment      1: Step Time =    1.000,"PART-1-1",           251,       1.11635,       24.7850,            0.,NA,NA,"",       1.94692,       1.21311,       1.52279,   8.94607E-03
C:/temp/dataset/2/23_7.odb,Step-1,Increment      1: Step Time =    1.000,"PART-1-1",           252,       2.41618,       25.9912,            0.,NA,NA,"",       1.90052,       1.34737,       1.34037,   8.02625E-03
C:/temp/dataset/2/23_7.odb,Step-1,Increment      1: Step Time =    1.000,"PART-1-1",           253,       1.25284,       27.3289,            0.,NA,NA,"",       2.13067,       1.52579,       1.48718,   7.04041E-03
C:/temp/dataset/2/23_7.odb,Step-1,Increment      1: Step Time =    1.000,"PART-1-1",           254,       11.4216,       22.1022,            0.,NA,NA,"",   884.648E-03,   813.441E-03,   347.731E-03,   9.96957E-03
C:/temp/dataset/2/23_7.odb,Step-1,Increment      1: Step Time =    1.000,"PART-1-1",           255,       9.70783,       21.3771,            0.,NA,NA,"",   901.304E-03,   739.699E-03,   514.971E-03,   8.63369E-03
C:/temp/dataset/2/23_7.odb,Step-1,Increment      1: Step Time =    1.000,"PART-1-1",           256,       10.3968,       19.2167,            0.,NA,NA,"",   697.430E-03,   520.338E-03,   464.388E-03,   5.75588E-03
C:/temp/dataset/2/23_7.odb,Step-1,Increment      1: Step Time =    1.000,"PART-1-1",           257,       12.1105,       19.9418,            0.,NA,NA,"",   664.012E-03,   589.217E-03,   306.162E-03,   9.11240E-03
C:/temp/dataset/2/23_7.odb,Step-1,Increment      1: Step Time =    1.000,"PART-1-1",           258,       11.6215,       24.7876,            0.,NA,NA,"",       1.15479,       1.11406,   303.981E-03,   9.29652E-03
C:/temp/dataset/2/23_7.odb,Step-1,Increment      1: Step Time =    1.000,"PART-1-1",           259,       12.6971,       25.9410,            0.,NA,NA,"",       1.25456,       1.24104,   183.711E-03,   7.36981E-03
C:/temp/dataset/2/23_7.odb,Step-1,Increment      1: Step Time =    1.000,"PART-1-1",           260,       11.4859,       27.3886,            0.,NA,NA,"",       1.44484,       1.41358,   298.946E-03,   6.78315E-03
C:/temp/dataset/2/23_7.odb,Step-1,Increment      1: Step Time =    1.000,"PART-1-1",           261,       10.4103,       26.2351,            0.,NA,NA,"",       1.35433,       1.28849,   417.111E-03,   8.87447E-03
C:/temp/dataset/2/23_7.odb,Step-1,Increment      1: Step Time =    1.000,"PART-1-1",           262,       5.88041,       17.6377,            0.,NA,NA,"",   941.419E-03,   410.646E-03,   847.137E-03,   26.8523E-03
C:/temp/dataset/2/23_7.odb,Step-1,Increment      1: Step Time =    1.000,"PART-1-1",           263,       6.75071,       18.9160,            0.,NA,NA,"",   939.738E-03,   504.711E-03,   792.700E-03,   16.3465E-03
C:/temp/dataset/2/23_7.odb,Step-1,Increment      1: Step Time =    1.000,"PART-1-1",           264,       5.87030,       20.0282,            0.,NA,NA,"",       1.08036,   608.119E-03,   892.960E-03,   26.0882E-03
C:/temp/dataset/2/23_7.odb,Step-1,Increment      1: Step Time =    1.000,"PART-1-1",           265,            5.,         18.75,            0.,NA,NA,"",       1.08025,   516.339E-03,   948.864E-03,   40.4158E-03
C:/temp/dataset/2/23_7.odb,Step-1,Increment      1: Step Time =    1.000,"PART-1-1",           266,       12.3690,       13.3305,            0.,NA,NA,"",   362.974E-03,   61.5341E-03,   357.720E-03,   9.12296E-03
C:/temp/dataset/2/23_7.odb,Step-1,Increment      1: Step Time =    1.000,"PART-1-1",           267,       13.7195,       12.1790,            0.,NA,NA,"",   293.150E-03,  -897.317E-06,   293.148E-03,   16.9756E-03
C:/temp/dataset/2/23_7.odb,Step-1,Increment      1: Step Time =    1.000,"PART-1-1",           268,           15.,       13.9583,            0.,NA,NA,"",   212.410E-03,   115.622E-03,   178.184E-03,   24.0803E-03
C:/temp/dataset/2/23_7.odb,Step-1,Increment      1: Step Time =    1.000,"PART-1-1",           269,       13.6495,       15.1098,            0.,NA,NA,"",   309.125E-03,   184.460E-03,   248.059E-03,   16.1878E-03
C:/temp/dataset/2/23_7.odb,Step-1,Increment      1: Step Time =    1.000,"PART-1-1",           270,       12.5214,       4.81657,            0.,NA,NA,"",   510.812E-03,  -268.916E-03,   434.296E-03,   10.9968E-03
C:/temp/dataset/2/23_7.odb,Step-1,Increment      1: Step Time =    1.000,"PART-1-1",           271,       13.7670,       3.58604,            0.,NA,NA,"",   504.827E-03,  -275.767E-03,   422.851E-03,   14.1168E-03
C:/temp/dataset/2/23_7.odb,Step-1,Increment      1: Step Time =    1.000,"PART-1-1",           272,           15.,       5.20833,            0.,NA,NA,"",   450.218E-03,  -245.538E-03,   377.369E-03,   21.2463E-03
C:/temp/dataset/2/23_7.odb,Step-1,Increment      1: Step Time =    1.000,"PART-1-1",           273,       13.7545,       6.43886,            0.,NA,NA,"",   448.573E-03,  -231.068E-03,   384.480E-03,   16.9629E-03
C:/temp/dataset/2/23_7.odb,Step-1,Increment      1: Step Time =    1.000,"PART-1-1",           274,       13.7625,      -2.13133,            0.,NA,NA,"",   540.266E-03,  -279.952E-03,   462.076E-03,   4.13466E-03
C:/temp/dataset/2/23_7.odb,Step-1,Increment      1: Step Time =    1.000,"PART-1-1",           275,       12.5125,      -3.58966,            0.,NA,NA,"",   547.000E-03,  -279.087E-03,   470.447E-03,   3.89984E-03
C:/temp/dataset/2/23_7.odb,Step-1,Increment      1: Step Time =    1.000,"PART-1-1",           276,         13.75,           -5.,            0.,NA,NA,"",   544.006E-03,  -283.892E-03,   464.056E-03,   688.673E-06
C:/temp/dataset/2/23_7.odb,Step-1,Increment      1: Step Time =    1.000,"PART-1-1",           277,           15.,      -3.54167,            0.,NA,NA,"",   538.719E-03,  -280.101E-03,   460.175E-03,   806.393E-06
C:/temp/dataset/2/23_7.odb,Step-1,Increment      1: Step Time =    1.000,"PART-1-1",           278,      -9.21387,      -6.21191,            0.,NA,NA,"",   126.852E-03,  -99.2560E-03,   78.9924E-03,   3.35913E-03
C:/temp/dataset/2/23_7.odb,Step-1,Increment      1: Step Time =    1.000,"PART-1-1",           279,      -8.44405,      -4.75360,            0.,NA,NA,"",   163.231E-03,  -129.191E-03,   99.7695E-03,   4.13921E-03
C:/temp/dataset/2/23_7.odb,Step-1,Increment      1: Step Time =    1.000,"PART-1-1",           280,      -9.71477,      -4.17886,            0.,NA,NA,"",   159.174E-03,  -141.499E-03,   72.9001E-03,   2.35114E-03
C:/temp/dataset/2/23_7.odb,Step-1,Increment      1: Step Time =    1.000,"PART-1-1",           281,      -10.4846,      -5.63717,            0.,NA,NA,"",   122.846E-03,  -109.709E-03,   55.2744E-03,   1.60200E-03
C:/temp/dataset/2/23_7.odb,Step-1,Increment      1: Step Time =    1.000,"PART-1-1",           282,      -5.84282,   107.969E-03,            0.,NA,NA,"",   318.331E-03,  -256.402E-03,   188.660E-03,   5.25454E-03
C:/temp/dataset/2/23_7.odb,Step-1,Increment      1: Step Time =    1.000,"PART-1-1",           283,      -4.64047,       1.60743,            0.,NA,NA,"",   373.656E-03,  -294.941E-03,   229.410E-03,   5.36524E-03
C:/temp/dataset/2/23_7.odb,Step-1,Increment      1: Step Time =    1.000,"PART-1-1",           284,      -6.45702,       2.58989,            0.,NA,NA,"",   362.965E-03,  -319.255E-03,   172.685E-03,   2.42783E-03
C:/temp/dataset/2/23_7.odb,Step-1,Increment      1: Step Time =    1.000,"PART-1-1",           285,      -7.65937,       1.09043,            0.,NA,NA,"",   309.903E-03,  -278.447E-03,   136.040E-03,   2.54143E-03
C:/temp/dataset/2/23_7.odb,Step-1,Increment      1: Step Time =    1.000,"PART-1-1",           286,      -6.51044,      -5.43697,            0.,NA,NA,"",   181.958E-03,  -115.721E-03,   140.419E-03,   9.23712E-03
C:/temp/dataset/2/23_7.odb,Step-1,Increment      1: Step Time =    1.000,"PART-1-1",           287,      -5.48201,      -3.85122,            0.,NA,NA,"",   240.176E-03,  -158.842E-03,   180.150E-03,   10.6274E-03
C:/temp/dataset/2/23_7.odb,Step-1,Increment      1: Step Time =    1.000,"PART-1-1",           288,      -7.41561,      -3.16785,            0.,NA,NA,"",   213.470E-03,  -169.289E-03,   130.041E-03,   5.87001E-03
C:/temp/dataset/2/23_7.odb,Step-1,Increment      1: Step Time =    1.000,"PART-1-1",           289,      -12.6742,      -10.6472,            0.,NA,NA,"",   35.8696E-03,  -30.9323E-03,   18.1610E-03,   1.06628E-03
C:/temp/dataset/2/23_7.odb,Step-1,Increment      1: Step Time =    1.000,"PART-1-1",           290,      -11.3911,      -11.6978,            0.,NA,NA,"",   39.0649E-03,  -19.8721E-03,   33.6329E-03,   1.79147E-03
C:/temp/dataset/2/23_7.odb,Step-1,Increment      1: Step Time =    1.000,"PART-1-1",           291,      -10.2167,      -10.1126,            0.,NA,NA,"",   64.3781E-03,  -38.4516E-03,   51.6334E-03,   3.22707E-03
C:/temp/dataset/2/23_7.odb,Step-1,Increment      1: Step Time =    1.000,"PART-1-1",           292,      -11.4997,      -9.06207,            0.,NA,NA,"",   61.7252E-03,  -51.1323E-03,   34.5758E-03,   1.15015E-03
C:/temp/dataset/2/23_7.odb,Step-1,Increment      1: Step Time =    1.000,"PART-1-1",           293,      -13.7107,      -15.1438,            0.,NA,NA,"",   14.2042E-03,   6.45967E-03,   12.6504E-03,   1.45493E-03
C:/temp/dataset/2/23_7.odb,Step-1,Increment      1: Step Time =    1.000,"PART-1-1",           294,      -12.5249,      -13.4434,            0.,NA,NA,"",   21.2994E-03,  -4.28893E-03,   20.8631E-03,   1.06086E-03
C:/temp/dataset/2/23_7.odb,Step-1,Increment      1: Step Time =    1.000,"PART-1-1",           295,      -13.8143,      -12.2579,            0.,NA,NA,"",   16.5233E-03,  -14.8688E-03,   7.20680E-03,   2.21186E-03
C:/temp/dataset/2/23_7.odb,Step-1,Increment      1: Step Time =    1.000,"PART-1-1",           296,          -15.,      -13.9583,            0.,NA,NA,"",   2.69162E-03,  -2.37919E-03,   1.25868E-03,   3.42361E-03
C:/temp/dataset/2/23_7.odb,Step-1,Increment      1: Step Time =    1.000,"PART-1-1",           297,      -12.0988,      -16.5012,            0.,NA,NA,"",   26.2118E-03,   12.8740E-03,   22.8324E-03,   1.63919E-03
C:/temp/dataset/2/23_7.odb,Step-1,Increment      1: Step Time =    1.000,"PART-1-1",           298,      -10.5811,      -17.2344,            0.,NA,NA,"",   33.3543E-03,   14.2740E-03,   30.1456E-03,   3.03375E-03
C:/temp/dataset/2/23_7.odb,Step-1,Increment      1: Step Time =    1.000,"PART-1-1",           299,      -9.66362,      -15.1575,            0.,NA,NA,"",   42.0397E-03,   4.32271E-03,   41.8169E-03,   3.99774E-03
C:/temp/dataset/2/23_7.odb,Step-1,Increment      1: Step Time =    1.000,"PART-1-1",           300,      -11.1813,      -14.4243,            0.,NA,NA,"",   31.8178E-03,   1.91259E-03,   31.7603E-03,   2.29315E-03
C:/temp/dataset/2/23_7.odb,Step-1,Increment      1: Step Time =    1.000,"PART-1-1",           301,      -10.5090,      -18.8394,            0.,NA,NA,"",   31.9841E-03,   17.5145E-03,   26.7624E-03,   3.10608E-03
C:/temp/dataset/2/23_7.odb,Step-1,Increment      1: Step Time =    1.000,"PART-1-1",           302,      -8.88448,      -18.7076,            0.,NA,NA,"",   36.7608E-03,   15.2783E-03,   33.4354E-03,   4.27675E-03
C:/temp/dataset/2/23_7.odb,Step-1,Increment      1: Step Time =    1.000,"PART-1-1",           303,      -8.95657,      -17.1026,            0.,NA,NA,"",   40.7857E-03,   11.6279E-03,   39.0931E-03,   4.46347E-03
C:/temp/dataset/2/23_7.odb,Step-1,Increment      1: Step Time =    1.000,"PART-1-1",           304,      -8.08225,      -19.7831,            0.,NA,NA,"",   34.9427E-03,   14.7330E-03,   31.6849E-03,   4.58464E-03
C:/temp/dataset/2/23_7.odb,Step-1,Increment      1: Step Time =    1.000,"PART-1-1",           305,      -6.89084,      -18.8787,            0.,NA,NA,"",   40.0069E-03,   12.1873E-03,   38.1054E-03,   5.77728E-03
C:/temp/dataset/2/23_7.odb,Step-1,Increment      1: Step Time =    1.000,"PART-1-1",           306,      -7.69307,      -17.8032,            0.,NA,NA,"",   43.0580E-03,   11.2281E-03,   41.5683E-03,   5.82265E-03
C:/temp/dataset/2/23_7.odb,Step-1,Increment      1: Step Time =    1.000,"PART-1-1",           307,       7.10093,      -24.9223,            0.,NA,NA,"",   565.578E-06,   437.661E-06,  -358.233E-06,   204.628E-06
C:/temp/dataset/2/23_7.odb,Step-1,Increment      1: Step Time =    1.000,"PART-1-1",           308,       8.59925,      -23.6815,            0.,NA,NA,"",   897.005E-06,   807.014E-06,  -391.595E-06,   167.333E-06
C:/temp/dataset/2/23_7.odb,Step-1,Increment      1: Step Time =    1.000,"PART-1-1",           309,       6.88316,      -22.4353,            0.,NA,NA,"",   1.27566E-03,   1.20317E-03,  -423.888E-06,   233.920E-06
C:/temp/dataset/2/23_7.odb,Step-1,Increment      1: Step Time =    1.000,"PART-1-1",           310,       5.38484,      -23.6762,            0.,NA,NA,"",   876.507E-06,   791.691E-06,  -376.151E-06,   239.111E-06
C:/temp/dataset/2/23_7.odb,Step-1,Increment      1: Step Time =    1.000,"PART-1-1",           311,       13.3798,      -22.4744,            0.,NA,NA,"",   1.08121E-03,   981.873E-06,  -452.709E-06,   39.7885E-06
C:/temp/dataset/2/23_7.odb,Step-1,Increment      1: Step Time =    1.000,"PART-1-1",           312,           15.,        -21.25,            0.,NA,NA,"",   1.25193E-03,   1.10450E-03,  -589.415E-06,   6.60266E-06
C:/temp/dataset/2/23_7.odb,Step-1,Increment      1: Step Time =    1.000,"PART-1-1",           313,       13.3333,          -20.,            0.,NA,NA,"",   1.28968E-03,   1.20486E-03,  -459.977E-06,   7.03218E-06
C:/temp/dataset/2/23_7.odb,Step-1,Increment      1: Step Time =    1.000,"PART-1-1",           314,       11.7131,      -21.2244,            0.,NA,NA,"",   1.19579E-03,   1.13293E-03,  -382.597E-06,   43.4625E-06
C:/temp/dataset/2/23_7.odb,Step-1,Increment      1: Step Time =    1.000,"PART-1-1",           315,      -2.14863,       2.00914,            0.,NA,NA,"",   435.484E-03,  -302.865E-03,   312.920E-03,   7.78834E-03
C:/temp/dataset/2/23_7.odb,Step-1,Increment      1: Step Time =    1.000,"PART-1-1",           316,      -1.66393,   575.985E-03,            0.,NA,NA,"",   427.506E-03,  -271.030E-03,   330.611E-03,   8.70785E-03
C:/temp/dataset/2/23_7.odb,Step-1,Increment      1: Step Time =    1.000,"PART-1-1",           317,   135.628E-03,       1.10435,            0.,NA,NA,"",   479.602E-03,  -279.899E-03,   389.454E-03,   8.88210E-03
C:/temp/dataset/2/23_7.odb,Step-1,Increment      1: Step Time =    1.000,"PART-1-1",           318,  -349.073E-03,       2.53751,            0.,NA,NA,"",   484.183E-03,  -309.293E-03,   372.519E-03,   9.01899E-03
C:/temp/dataset/2/23_7.odb,Step-1,Increment      1: Step Time =    1.000,"PART-1-1",           319,   156.145E-03,      -1.87787,            0.,NA,NA,"",   449.408E-03,  -224.428E-03,   389.358E-03,   8.37298E-03
C:/temp/dataset/2/23_7.odb,Step-1,Increment      1: Step Time =    1.000,"PART-1-1",           320,       1.21010,      -2.70880,            0.,NA,NA,"",   469.584E-03,  -212.970E-03,   418.513E-03,   7.86868E-03
C:/temp/dataset/2/23_7.odb,Step-1,Increment      1: Step Time =    1.000,"PART-1-1",           321,       2.32846,      -1.50081,            0.,NA,NA,"",   510.315E-03,  -238.845E-03,   450.971E-03,   7.93228E-03
C:/temp/dataset/2/23_7.odb,Step-1,Increment      1: Step Time =    1.000,"PART-1-1",           322,       1.27451,  -669.883E-03,            0.,NA,NA,"",   492.070E-03,  -248.470E-03,   424.730E-03,   9.11308E-03
C:/temp/dataset/2/23_7.odb,Step-1,Increment      1: Step Time =    1.000,"PART-1-1",           323,       4.87500,      -1.23074,            0.,NA,NA,"",   560.167E-03,  -255.173E-03,   498.672E-03,   7.03798E-03
C:/temp/dataset/2/23_7.odb,Step-1,Increment      1: Step Time =    1.000,"PART-1-1",           324,       6.20088,      -2.43579,            0.,NA,NA,"",   562.526E-03,  -251.718E-03,   503.065E-03,   8.27536E-03
C:/temp/dataset/2/23_7.odb,Step-1,Increment      1: Step Time =    1.000,"PART-1-1",           325,       7.44880,      -1.07477,            0.,NA,NA,"",   578.484E-03,  -270.867E-03,   511.150E-03,   9.47404E-03
C:/temp/dataset/2/23_7.odb,Step-1,Increment      1: Step Time =    1.000,"PART-1-1",           326,       6.12293,   130.279E-03,            0.,NA,NA,"",   584.763E-03,  -274.414E-03,   516.377E-03,   7.71851E-03
C:/temp/dataset/2/23_7.odb,Step-1,Increment      1: Step Time =    1.000,"PART-1-1",           327,          8.75,           -5.,            0.,NA,NA,"",   556.753E-03,  -263.269E-03,   490.574E-03,   10.5811E-03
C:/temp/dataset/2/23_7.odb,Step-1,Increment      1: Step Time =    1.000,"PART-1-1",           328,       10.0063,      -3.63741,            0.,NA,NA,"",   558.745E-03,  -270.749E-03,   488.765E-03,   7.64509E-03
C:/temp/dataset/2/23_7.odb,Step-1,Increment      1: Step Time =    1.000,"PART-1-1",           329,       8.73716,      -2.32557,            0.,NA,NA,"",   568.461E-03,  -268.713E-03,   500.940E-03,   9.43477E-03
C:/temp/dataset/2/23_7.odb,Step-1,Increment      1: Step Time =    1.000,"PART-1-1",           330,       7.48081,      -3.68816,            0.,NA,NA,"",   559.991E-03,  -252.829E-03,   499.668E-03,   10.7038E-03
C:/temp/dataset/2/23_7.odb,Step-1,Increment      1: Step Time =    1.000,"PART-1-1",           331,       6.24109,       7.72904,            0.,NA,NA,"",   644.548E-03,  -192.894E-03,   615.008E-03,   25.6143E-03
C:/temp/dataset/2/23_7.odb,Step-1,Increment      1: Step Time =    1.000,"PART-1-1",           332,            5.,          6.25,            0.,NA,NA,"",   655.239E-03,  -233.626E-03,   612.174E-03,   42.3386E-03
C:/temp/dataset/2/23_7.odb,Step-1,Increment      1: Step Time =    1.000,"PART-1-1",           333,       6.24095,       5.17046,            0.,NA,NA,"",   633.829E-03,  -286.387E-03,   565.439E-03,   25.1519E-03
C:/temp/dataset/2/23_7.odb,Step-1,Increment      1: Step Time =    1.000,"PART-1-1",           334,       7.48203,       6.64950,            0.,NA,NA,"",   610.563E-03,  -242.098E-03,   560.514E-03,   12.7299E-03
C:/temp/dataset/2/23_7.odb,Step-1,Increment      1: Step Time =    1.000,"PART-1-1",           335,       7.34508,       23.6052,            0.,NA,NA,"",       1.25114,       1.00518,   744.960E-03,   9.64477E-03
C:/temp/dataset/2/23_7.odb,Step-1,Increment      1: Step Time =    1.000,"PART-1-1",           336,       6.41056,       24.2397,            0.,NA,NA,"",       1.38084,       1.08985,   847.908E-03,   8.55941E-03
C:/temp/dataset/2/23_7.odb,Step-1,Increment      1: Step Time =    1.000,"PART-1-1",           337,       6.08150,       22.9932,            0.,NA,NA,"",       1.29462,   945.567E-03,   884.275E-03,   10.8090E-03
C:/temp/dataset/2/23_7.odb,Step-1,Increment      1: Step Time =    1.000,"PART-1-1",           338,       7.01602,       22.3587,            0.,NA,NA,"",       1.16228,   862.265E-03,   779.351E-03,   11.3318E-03
C:/temp/dataset/2/23_7.odb,Step-1,Increment      1: Step Time =    1.000,"PART-1-1",           339,      -12.5005,       23.7291,            0.,NA,NA,"",       3.54084,       1.18449,       3.33684,   119.805E-06
C:/temp/dataset/2/23_7.odb,Step-1,Increment      1: Step Time =    1.000,"PART-1-1",           340,      -13.7489,       24.9883,            0.,NA,NA,"",       3.74409,       1.35904,       3.48873,   118.712E-06
C:/temp/dataset/2/23_7.odb,Step-1,Increment      1: Step Time =    1.000,"PART-1-1",           341,          -15.,         23.75,            0.,NA,NA,"",       3.85624,       1.20860,       3.66195,   110.370E-06
C:/temp/dataset/2/23_7.odb,Step-1,Increment      1: Step Time =    1.000,"PART-1-1",           342,      -2.52491,       26.1674,            0.,NA,NA,"",       2.45648,       1.41775,       2.00607,   4.67583E-03
C:/temp/dataset/2/23_7.odb,Step-1,Increment      1: Step Time =    1.000,"PART-1-1",           343,      -1.30373,       24.8780,            0.,NA,NA,"",       2.23243,       1.24446,       1.85340,   7.15263E-03
C:/temp/dataset/2/23_7.odb,Step-1,Increment      1: Step Time =    1.000,"PART-1-1",           344,      -1.26817,       27.4122,            0.,NA,NA,"",       2.40426,       1.56478,       1.82536,   5.29949E-03
C:/temp/dataset/2/23_7.odb,Step-1,Increment      1: Step Time =    1.000,"PART-1-1",           345,       2.31009,       23.4917,            0.,NA,NA,"",       1.72136,       1.04416,       1.36850,   10.4955E-03
C:/temp/dataset/2/23_7.odb,Step-1,Increment      1: Step Time =    1.000,"PART-1-1",           346,       3.41051,       22.2101,            0.,NA,NA,"",       1.50607,   879.449E-03,       1.22263,   11.2534E-03
C:/temp/dataset/2/23_7.odb,Step-1,Increment      1: Step Time =    1.000,"PART-1-1",           347,       4.46987,       23.2845,            0.,NA,NA,"",       1.47176,   998.161E-03,       1.08155,   10.6138E-03
C:/temp/dataset/2/23_7.odb,Step-1,Increment      1: Step Time =    1.000,"PART-1-1",           348,       3.36945,       24.5662,            0.,NA,NA,"",       1.68693,       1.16375,       1.22124,   8.48984E-03
C:/temp/dataset/2/23_7.odb,Step-1,Increment      1: Step Time =    1.000,"PART-1-1",           349,       3.92627,       27.0683,            0.,NA,NA,"",       1.85294,       1.45940,       1.14172,   6.70862E-03
C:/temp/dataset/2/23_7.odb,Step-1,Increment      1: Step Time =    1.000,"PART-1-1",           350,       5.16355,       28.4353,            0.,NA,NA,"",       1.88560,       1.60724,   986.028E-03,   9.32345E-03
C:/temp/dataset/2/23_7.odb,Step-1,Increment      1: Step Time =    1.000,"PART-1-1",           351,          3.75,           30.,            0.,NA,NA,"",       2.15744,       1.82281,       1.15407,   11.4831E-03
C:/temp/dataset/2/23_7.odb,Step-1,Increment      1: Step Time =    1.000,"PART-1-1",           352,       2.51272,       28.6330,            0.,NA,NA,"",       2.12707,       1.67157,       1.31540,   8.11773E-03
C:/temp/dataset/2/23_7.odb,Step-1,Increment      1: Step Time =    1.000,"PART-1-1",           353,       11.0463,       14.3537,            0.,NA,NA,"",   453.934E-03,   127.655E-03,   435.615E-03,   1.85907E-03
C:/temp/dataset/2/23_7.odb,Step-1,Increment      1: Step Time =    1.000,"PART-1-1",           354,       9.86747,       12.5470,            0.,NA,NA,"",   510.071E-03,   16.3735E-03,   509.808E-03,   4.82136E-03
C:/temp/dataset/2/23_7.odb,Step-1,Increment      1: Step Time =    1.000,"PART-1-1",           355,       11.1901,       11.5237,            0.,NA,NA,"",   439.893E-03,  -43.9338E-03,   437.693E-03,   2.68779E-03
C:/temp/dataset/2/23_7.odb,Step-1,Increment      1: Step Time =    1.000,"PART-1-1",           356,       9.55073,       15.1783,            0.,NA,NA,"",   570.144E-03,   189.815E-03,   537.619E-03,   5.84437E-03
C:/temp/dataset/2/23_7.odb,Step-1,Increment      1: Step Time =    1.000,"PART-1-1",           357,       8.18591,       15.9712,            0.,NA,NA,"",   690.519E-03,   256.920E-03,   640.944E-03,   13.1922E-03
C:/temp/dataset/2/23_7.odb,Step-1,Increment      1: Step Time =    1.000,"PART-1-1",           358,       7.20669,       14.2932,            0.,NA,NA,"",   704.797E-03,   146.527E-03,   689.398E-03,   19.2357E-03
C:/temp/dataset/2/23_7.odb,Step-1,Increment      1: Step Time =    1.000,"PART-1-1",           359,       8.57151,       13.5002,            0.,NA,NA,"",   598.342E-03,   82.1319E-03,   592.679E-03,   11.8764E-03
C:/temp/dataset/2/23_7.odb,Step-1,Increment      1: Step Time =    1.000,"PART-1-1",           360,       7.44377,       1.50598,            0.,NA,NA,"",   599.826E-03,  -290.223E-03,   524.940E-03,   11.0596E-03
C:/temp/dataset/2/23_7.odb,Step-1,Increment      1: Step Time =    1.000,"PART-1-1",           361,       8.72836,   326.342E-03,            0.,NA,NA,"",   584.265E-03,  -286.125E-03,   509.410E-03,   10.7457E-03
C:/temp/dataset/2/23_7.odb,Step-1,Increment      1: Step Time =    1.000,"PART-1-1",           362,       10.0261,       1.76283,            0.,NA,NA,"",   576.025E-03,  -293.508E-03,   495.638E-03,   11.4806E-03
C:/temp/dataset/2/23_7.odb,Step-1,Increment      1: Step Time =    1.000,"PART-1-1",           363,       8.74149,       2.94246,            0.,NA,NA,"",   595.482E-03,  -295.111E-03,   517.212E-03,   10.8376E-03
C:/temp/dataset/2/23_7.odb,Step-1,Increment      1: Step Time =    1.000,"PART-1-1",           364,       12.5045,       7.62102,            0.,NA,NA,"",   457.196E-03,  -206.354E-03,   407.979E-03,   10.4123E-03
C:/temp/dataset/2/23_7.odb,Step-1,Increment      1: Step Time =    1.000,"PART-1-1",           365,           15.,         8.125,            0.,NA,NA,"",   358.436E-03,  -171.708E-03,   314.630E-03,   24.2184E-03
C:/temp/dataset/2/23_7.odb,Step-1,Increment      1: Step Time =    1.000,"PART-1-1",           366,       13.7500,       9.30715,            0.,NA,NA,"",   366.749E-03,  -139.066E-03,   339.360E-03,   17.4465E-03
C:/temp/dataset/2/23_7.odb,Step-1,Increment      1: Step Time =    1.000,"PART-1-1",           367,      -1.45938,      -2.40358,            0.,NA,NA,"",   394.787E-03,  -208.492E-03,   335.243E-03,   8.51189E-03
C:/temp/dataset/2/23_7.odb,Step-1,Increment      1: Step Time =    1.000,"PART-1-1",           368,      -2.69869,      -3.52952,            0.,NA,NA,"",   338.371E-03,  -176.273E-03,   288.830E-03,   5.83140E-03
C:/temp/dataset/2/23_7.odb,Step-1,Increment      1: Step Time =    1.000,"PART-1-1",           369,         -1.25,           -5.,            0.,NA,NA,"",   364.672E-03,  -137.633E-03,   337.702E-03,   7.31917E-03
C:/temp/dataset/2/23_7.odb,Step-1,Increment      1: Step Time =    1.000,"PART-1-1",           370,  -10.6917E-03,      -3.87406,            0.,NA,NA,"",   420.247E-03,  -179.476E-03,   379.995E-03,   7.91701E-03
C:/temp/dataset/2/23_7.odb,Step-1,Increment      1: Step Time =    1.000,"PART-1-1",           371,      -13.3333,            5.,            0.,NA,NA,"",   377.203E-03,  -377.003E-03,  -12.2872E-03,   287.605E-06
C:/temp/dataset/2/23_7.odb,Step-1,Increment      1: Step Time =    1.000,"PART-1-1",           372,          -15.,       3.54167,            0.,NA,NA,"",   342.701E-03,  -338.264E-03,  -54.9672E-03,   281.759E-06
C:/temp/dataset/2/23_7.odb,Step-1,Increment      1: Step Time =    1.000,"PART-1-1",           373,      -13.2137,       2.05352,            0.,NA,NA,"",   299.438E-03,  -299.330E-03,  -8.03432E-03,   899.673E-06
C:/temp/dataset/2/23_7.odb,Step-1,Increment      1: Step Time =    1.000,"PART-1-1",           374,      -11.5470,       3.51185,            0.,NA,NA,"",   340.861E-03,  -339.189E-03,   33.7194E-03,   973.176E-06
C:/temp/dataset/2/23_7.odb,Step-1,Increment      1: Step Time =    1.000,"PART-1-1",           375,          -15.,      625.E-03,            0.,NA,NA,"",   266.556E-03,  -261.381E-03,  -52.2695E-03,   1.51082E-03
C:/temp/dataset/2/23_7.odb,Step-1,Increment      1: Step Time =    1.000,"PART-1-1",           376,      -12.9883,      -1.02354,            0.,NA,NA,"",   217.952E-03,  -217.952E-03,   146.702E-06,   1.38955E-03
C:/temp/dataset/2/23_7.odb,Step-1,Increment      1: Step Time =    1.000,"PART-1-1",           377,      -11.2019,   404.974E-03,            0.,NA,NA,"",   259.598E-03,  -256.082E-03,   42.5813E-03,   1.72886E-03
C:/temp/dataset/2/23_7.odb,Step-1,Increment      1: Step Time =    1.000,"PART-1-1",           378,      -13.6690,      -3.88141,            0.,NA,NA,"",   148.786E-03,  -148.402E-03,  -10.6828E-03,   2.39113E-03
C:/temp/dataset/2/23_7.odb,Step-1,Increment      1: Step Time =    1.000,"PART-1-1",           379,      -11.6573,      -2.61328,            0.,NA,NA,"",   180.813E-03,  -178.003E-03,   31.7533E-03,   1.60091E-03
C:/temp/dataset/2/23_7.odb,Step-1,Increment      1: Step Time =    1.000,"PART-1-1",           380,          -15.,      -2.29167,            0.,NA,NA,"",   192.738E-03,  -187.301E-03,  -45.4557E-03,   3.14316E-03
C:/temp/dataset/2/23_7.odb,Step-1,Increment      1: Step Time =    1.000,"PART-1-1",           381,           -5.,         -8.75,            0.,NA,NA,"",   153.567E-03,  -72.8618E-03,   135.181E-03,   12.2467E-03
C:/temp/dataset/2/23_7.odb,Step-1,Increment      1: Step Time =    1.000,"PART-1-1",           382,      -6.37238,      -7.84264,            0.,NA,NA,"",   147.220E-03,  -77.8643E-03,   124.944E-03,   10.0465E-03
C:/temp/dataset/2/23_7.odb,Step-1,Increment      1: Step Time =    1.000,"PART-1-1",           383,      -7.67841,      -9.42411,            0.,NA,NA,"",   105.116E-03,  -52.1729E-03,   91.2548E-03,   7.29267E-03
C:/temp/dataset/2/23_7.odb,Step-1,Increment      1: Step Time =    1.000,"PART-1-1",           384,      -6.30603,      -10.3315,            0.,NA,NA,"",   113.410E-03,  -46.5217E-03,   103.429E-03,   9.42698E-03
C:/temp/dataset/2/23_7.odb,Step-1,Increment      1: Step Time =    1.000,"PART-1-1",           385,      -13.6103,      -21.3688,            0.,NA,NA,"",   24.9462E-03,   19.8353E-03,   15.1285E-03,   1.18760E-03
C:/temp/dataset/2/23_7.odb,Step-1,Increment      1: Step Time =    1.000,"PART-1-1",           386,          -15.,      -22.7083,            0.,NA,NA,"",   23.9311E-03,   19.0205E-03,   14.5230E-03,   376.287E-06
C:/temp/dataset/2/23_7.odb,Step-1,Increment      1: Step Time =    1.000,"PART-1-1",           387,      -13.6241,      -24.2925,            0.,NA,NA,"",   20.1038E-03,   16.0586E-03,   12.0948E-03,   1.86961E-03
C:/temp/dataset/2/23_7.odb,Step-1,Increment      1: Step Time =    1.000,"PART-1-1",           388,      -12.2343,      -22.9530,            0.,NA,NA,"",   22.5187E-03,   17.2114E-03,   14.5210E-03,   2.63867E-03
C:/temp/dataset/2/23_7.odb,Step-1,Increment      1: Step Time =    1.000,"PART-1-1",           389,           -5.,        -16.25,            0.,NA,NA,"",   64.3773E-03,  -4.24910E-03,   64.2369E-03,   9.83194E-03
C:/temp/dataset/2/23_7.odb,Step-1,Increment      1: Step Time =    1.000,"PART-1-1",           390,      -6.06585,      -15.2329,            0.,NA,NA,"",   66.7366E-03,  -5.23255E-03,   66.5311E-03,   8.63549E-03
C:/temp/dataset/2/23_7.odb,Step-1,Increment      1: Step Time =    1.000,"PART-1-1",           391,      -6.99530,      -16.6022,            0.,NA,NA,"",   51.8341E-03,   5.11626E-03,   51.5809E-03,   7.05346E-03
C:/temp/dataset/2/23_7.odb,Step-1,Increment      1: Step Time =    1.000,"PART-1-1",           392,      -5.92946,      -17.6192,            0.,NA,NA,"",   48.9646E-03,   5.83235E-03,   48.6160E-03,   8.32772E-03
C:/temp/dataset/2/23_7.odb,Step-1,Increment      1: Step Time =    1.000,"PART-1-1",           393,         -13.5,          -30.,            0.,NA,NA,"",            0.,   990.707E-42,   5.77598E-39,   3.82773E-03
C:/temp/dataset/2/23_7.odb,Step-1,Increment      1: Step Time =    1.000,"PART-1-1",           394,      -12.0804,      -28.6247,            0.,NA,NA,"",   4.39939E-03,   3.57507E-03,   2.56388E-03,   2.81847E-03
C:/temp/dataset/2/23_7.odb,Step-1,Increment      1: Step Time =    1.000,"PART-1-1",           395,      -13.5804,      -27.1664,            0.,NA,NA,"",   11.0340E-03,   8.97336E-03,   6.42098E-03,   2.67287E-03
C:/temp/dataset/2/23_7.odb,Step-1,Increment      1: Step Time =    1.000,"PART-1-1",           396,          -15.,      -28.5417,            0.,NA,NA,"",   8.29692E-03,   6.43255E-03,   5.24034E-03,   3.64209E-03
C:/temp/dataset/2/23_7.odb,Step-1,Increment      1: Step Time =    1.000,"PART-1-1",           397,          13.5,          -30.,            0.,NA,NA,"",            0.,   27.2665E-42,  -210.708E-42,   128.980E-06
C:/temp/dataset/2/23_7.odb,Step-1,Increment      1: Step Time =    1.000,"PART-1-1",           398,           15.,        -28.75,            0.,NA,NA,"",   272.131E-06,   201.500E-06,  -182.901E-06,   148.257E-06
C:/temp/dataset/2/23_7.odb,Step-1,Increment      1: Step Time =    1.000,"PART-1-1",           399,       13.4640,      -27.4843,            0.,NA,NA,"",   354.699E-06,   291.758E-06,  -201.714E-06,   104.555E-06
C:/temp/dataset/2/23_7.odb,Step-1,Increment      1: Step Time =    1.000,"PART-1-1",           400,       11.9640,      -28.7343,            0.,NA,NA,"",   123.562E-06,   99.5159E-06,  -73.2399E-06,   88.2683E-06
C:/temp/dataset/2/23_7.odb,Step-1,Increment      1: Step Time =    1.000,"PART-1-1",           401,       10.2658,      -24.9335,            0.,NA,NA,"",   650.750E-06,   571.670E-06,  -310.916E-06,   142.873E-06
C:/temp/dataset/2/23_7.odb,Step-1,Increment      1: Step Time =    1.000,"PART-1-1",           402,       8.77397,      -26.1861,            0.,NA,NA,"",   369.569E-06,   277.093E-06,  -244.542E-06,   147.183E-06
C:/temp/dataset/2/23_7.odb,Step-1,Increment      1: Step Time =    1.000,"PART-1-1",           403,       10.3945,      -27.4590,            0.,NA,NA,"",   237.899E-06,   190.450E-06,  -142.564E-06,   112.669E-06
C:/temp/dataset/2/23_7.odb,Step-1,Increment      1: Step Time =    1.000,"PART-1-1",           404,       11.8863,      -26.2064,            0.,NA,NA,"",   484.339E-06,   419.234E-06,  -242.543E-06,   110.625E-06
C:/temp/dataset/2/23_7.odb,Step-1,Increment      1: Step Time =    1.000,"PART-1-1",           405,       8.93044,      -28.7247,            0.,NA,NA,"",   62.4038E-06,   21.2281E-06,  -58.6822E-06,   71.6637E-06
C:/temp/dataset/2/23_7.odb,Step-1,Increment      1: Step Time =    1.000,"PART-1-1",           406,       7.31300,      -27.4411,            0.,NA,NA,"",   141.002E-06,  -18.7081E-06,  -139.756E-06,   139.778E-06
C:/temp/dataset/2/23_7.odb,Step-1,Increment      1: Step Time =    1.000,"PART-1-1",           407,       5.88256,      -28.7164,            0.,NA,NA,"",   179.462E-06,  -178.067E-06,  -22.3325E-06,   112.122E-06
C:/temp/dataset/2/23_7.odb,Step-1,Increment      1: Step Time =    1.000,"PART-1-1",           408,           7.5,          -30.,            0.,NA,NA,"",            0.,  -56.1192E-42,  -26.9694E-42,   66.0894E-06
C:/temp/dataset/2/23_7.odb,Step-1,Increment      1: Step Time =    1.000,"PART-1-1",           409,       5.63995,      -26.1773,            0.,NA,NA,"",   215.567E-06,  -36.9687E-06,  -212.373E-06,   195.485E-06
C:/temp/dataset/2/23_7.odb,Step-1,Increment      1: Step Time =    1.000,"PART-1-1",           410,       3.92490,      -24.9166,            0.,NA,NA,"",   188.063E-06,   127.319E-06,  -138.411E-06,   231.680E-06
C:/temp/dataset/2/23_7.odb,Step-1,Increment      1: Step Time =    1.000,"PART-1-1",           411,       2.50142,      -26.1700,            0.,NA,NA,"",   648.122E-06,  -577.108E-06,   294.971E-06,   237.718E-06
C:/temp/dataset/2/23_7.odb,Step-1,Increment      1: Step Time =    1.000,"PART-1-1",           412,       4.21647,      -27.4307,            0.,NA,NA,"",   443.823E-06,  -443.754E-06,   7.77486E-06,   213.146E-06
C:/temp/dataset/2/23_7.odb,Step-1,Increment      1: Step Time =    1.000,"PART-1-1",           413,       1.12659,      -27.4308,            0.,NA,NA,"",   1.19773E-03,  -1.00756E-03,   647.596E-06,   459.196E-06
C:/temp/dataset/2/23_7.odb,Step-1,Increment      1: Step Time =    1.000,"PART-1-1",           414,  -207.324E-03,      -28.7165,            0.,NA,NA,"",   1.06263E-03,  -863.220E-06,   619.698E-06,   758.930E-06
C:/temp/dataset/2/23_7.odb,Step-1,Increment      1: Step Time =    1.000,"PART-1-1",           415,           1.5,          -30.,            0.,NA,NA,"",            0.,  -532.279E-42,   900.913E-42,   603.692E-06
C:/temp/dataset/2/23_7.odb,Step-1,Increment      1: Step Time =    1.000,"PART-1-1",           416,       2.83391,      -28.7143,            0.,NA,NA,"",   546.357E-06,  -526.384E-06,   146.375E-06,   311.867E-06
C:/temp/dataset/2/23_7.odb,Step-1,Increment      1: Step Time =    1.000,"PART-1-1",           417,      -1.92078,      -27.4395,            0.,NA,NA,"",   2.44927E-03,  -1.09131E-03,   2.19271E-03,   1.14171E-03
C:/temp/dataset/2/23_7.odb,Step-1,Increment      1: Step Time =    1.000,"PART-1-1",           418,      -3.21345,      -28.7230,            0.,NA,NA,"",   1.56612E-03,  -650.844E-06,   1.42448E-03,   1.48886E-03
C:/temp/dataset/2/23_7.odb,Step-1,Increment      1: Step Time =    1.000,"PART-1-1",           419,          -1.5,          -30.,            0.,NA,NA,"",            0.,  -708.188E-42,   2.16453E-39,   1.07912E-03
C:/temp/dataset/2/23_7.odb,Step-1,Increment      1: Step Time =    1.000,"PART-1-1",           420,      -5.57419,      -22.4519,            0.,NA,NA,"",   19.9172E-03,   5.69251E-03,   19.0863E-03,   4.45842E-03
C:/temp/dataset/2/23_7.odb,Step-1,Increment      1: Step Time =    1.000,"PART-1-1",           421,      -6.77537,      -23.6376,            0.,NA,NA,"",   17.7669E-03,   6.80949E-03,   16.4102E-03,   4.47189E-03
C:/temp/dataset/2/23_7.odb,Step-1,Increment      1: Step Time =    1.000,"PART-1-1",           422,      -5.25528,      -24.9124,            0.,NA,NA,"",   10.5690E-03,   2.44230E-03,   10.2830E-03,   2.96308E-03
C:/temp/dataset/2/23_7.odb,Step-1,Increment      1: Step Time =    1.000,"PART-1-1",           423,      -4.05411,      -23.7268,            0.,NA,NA,"",   10.7748E-03,   1.84803E-03,   10.6151E-03,   2.76744E-03
C:/temp/dataset/2/23_7.odb,Step-1,Increment      1: Step Time =    1.000,"PART-1-1",           424,       13.4223,      -24.9720,            0.,NA,NA,"",   751.383E-06,   650.582E-06,  -375.924E-06,   75.7471E-06
C:/temp/dataset/2/23_7.odb,Step-1,Increment      1: Step Time =    1.000,"PART-1-1",           425,           15.,        -26.25,            0.,NA,NA,"",   692.373E-06,   525.277E-06,  -451.072E-06,   84.1362E-06
C:/temp/dataset/2/23_7.odb,Step-1,Increment      1: Step Time =    1.000,"PART-1-1",           426,       11.8021,      -23.6964,            0.,NA,NA,"",   887.468E-06,   809.824E-06,  -363.021E-06,   93.4645E-06
C:/temp/dataset/2/23_7.odb,Step-1,Increment      1: Step Time =    1.000,"PART-1-1",           427,       10.1355,      -22.4445,            0.,NA,NA,"",   1.09353E-03,   1.02631E-03,  -377.479E-06,   125.941E-06
C:/temp/dataset/2/23_7.odb,Step-1,Increment      1: Step Time =    1.000,"PART-1-1",           428,      -2.31424,      -24.9364,            0.,NA,NA,"",   5.09526E-03,  -182.377E-06,   5.09199E-03,   1.40252E-03
C:/temp/dataset/2/23_7.odb,Step-1,Increment      1: Step Time =    1.000,"PART-1-1",           429,      -3.63092,      -26.1962,            0.,NA,NA,"",   5.34509E-03,  -116.111E-06,   5.34383E-03,   1.94174E-03
C:/temp/dataset/2/23_7.odb,Step-1,Increment      1: Step Time =    1.000,"PART-1-1",           430,  -604.096E-03,      -26.1796,            0.,NA,NA,"",   2.29997E-03,  -1.03542E-03,   2.05372E-03,   707.995E-06
C:/temp/dataset/2/23_7.odb,Step-1,Increment      1: Step Time =    1.000,"PART-1-1",           431,      -7.52977,      -11.9021,            0.,NA,NA,"",   81.5449E-03,  -25.2674E-03,   77.5314E-03,   7.28505E-03
C:/temp/dataset/2/23_7.odb,Step-1,Increment      1: Step Time =    1.000,"PART-1-1",           432,      -6.22373,      -12.8207,            0.,NA,NA,"",   86.8860E-03,  -21.7132E-03,   84.1292E-03,   8.91827E-03
C:/temp/dataset/2/23_7.odb,Step-1,Increment      1: Step Time =    1.000,"PART-1-1",           433,           -5.,        -11.25,            0.,NA,NA,"",   118.133E-03,  -42.2558E-03,   110.317E-03,   11.0471E-03
C:/temp/dataset/2/23_7.odb,Step-1,Increment      1: Step Time =    1.000,"PART-1-1",           434,      -10.0475,      -12.6788,            0.,NA,NA,"",   48.1229E-03,  -12.3186E-03,   46.5195E-03,   3.61645E-03
C:/temp/dataset/2/23_7.odb,Step-1,Increment      1: Step Time =    1.000,"PART-1-1",           435,           -5.,         -6.25,            0.,NA,NA,"",   200.126E-03,  -109.148E-03,   167.742E-03,   16.7393E-03
C:/temp/dataset/2/23_7.odb,Step-1,Increment      1: Step Time =    1.000,"PART-1-1",           436,      -7.88282,      -7.02961,            0.,NA,NA,"",   133.577E-03,  -85.8469E-03,   102.338E-03,   5.24686E-03
C:/temp/dataset/2/23_7.odb,Step-1,Increment      1: Step Time =    1.000,"PART-1-1",           437,      -13.8577,      -6.65334,            0.,NA,NA,"",   91.6759E-03,  -91.3782E-03,  -7.38196E-03,   3.04543E-03
C:/temp/dataset/2/23_7.odb,Step-1,Increment      1: Step Time =    1.000,"PART-1-1",           438,      -12.5267,      -5.32641,            0.,NA,NA,"",   117.215E-03,  -116.223E-03,   15.2235E-03,   1.25408E-03
C:/temp/dataset/2/23_7.odb,Step-1,Increment      1: Step Time =    1.000,"PART-1-1",           439,          -15.,      -5.20833,            0.,NA,NA,"",   126.154E-03,  -121.304E-03,  -34.6468E-03,   4.42442E-03
C:/temp/dataset/2/23_7.odb,Step-1,Increment      1: Step Time =    1.000,"PART-1-1",           440,          1.25,           -5.,            0.,NA,NA,"",   441.356E-03,  -162.582E-03,   410.320E-03,   12.5679E-03
C:/temp/dataset/2/23_7.odb,Step-1,Increment      1: Step Time =    1.000,"PART-1-1",           441,       2.47079,      -3.83474,            0.,NA,NA,"",   488.751E-03,  -201.280E-03,   445.380E-03,   10.9668E-03
C:/temp/dataset/2/23_7.odb,Step-1,Increment      1: Step Time =    1.000,"PART-1-1",           442,       3.51261,  -149.180E-03,            0.,NA,NA,"",   548.505E-03,  -261.678E-03,   482.061E-03,   7.36196E-03
C:/temp/dataset/2/23_7.odb,Step-1,Increment      1: Step Time =    1.000,"PART-1-1",           443,       3.69085,      -2.58237,            0.,NA,NA,"",   528.356E-03,  -231.190E-03,   475.091E-03,   8.01691E-03
C:/temp/dataset/2/23_7.odb,Step-1,Increment      1: Step Time =    1.000,"PART-1-1",           444,       8.74868,       5.55605,            0.,NA,NA,"",   588.542E-03,  -268.296E-03,   523.831E-03,   6.35306E-03
C:/temp/dataset/2/23_7.odb,Step-1,Increment      1: Step Time =    1.000,"PART-1-1",           445,       10.0030,       7.12352,            0.,NA,NA,"",   543.000E-03,  -227.927E-03,   492.847E-03,   2.88085E-03
C:/temp/dataset/2/23_7.odb,Step-1,Increment      1: Step Time =    1.000,"PART-1-1",           446,       8.73640,       8.21697,            0.,NA,NA,"",   570.941E-03,  -189.061E-03,   538.730E-03,   10.6838E-03
C:/temp/dataset/2/23_7.odb,Step-1,Increment      1: Step Time =    1.000,"PART-1-1",           447,           15.,     -625.E-03,            0.,NA,NA,"",   532.838E-03,  -279.540E-03,   453.623E-03,   6.29203E-03
C:/temp/dataset/2/23_7.odb,Step-1,Increment      1: Step Time =    1.000,"PART-1-1",           448,       13.7714,   731.820E-03,            0.,NA,NA,"",   532.029E-03,  -284.587E-03,   449.517E-03,   9.26683E-03
C:/temp/dataset/2/23_7.odb,Step-1,Increment      1: Step Time =    1.000,"PART-1-1",           449,       12.5339,  -774.506E-03,            0.,NA,NA,"",   546.914E-03,  -284.000E-03,   467.396E-03,   8.92892E-03
C:/temp/dataset/2/23_7.odb,Step-1,Increment      1: Step Time =    1.000,"PART-1-1",           450,       7.40609,       11.8257,            0.,NA,NA,"",   640.458E-03,  -8.42880E-03,   640.403E-03,   18.4080E-03
C:/temp/dataset/2/23_7.odb,Step-1,Increment      1: Step Time =    1.000,"PART-1-1",           451,       8.70206,       10.8725,            0.,NA,NA,"",   566.875E-03,  -69.9000E-03,   562.549E-03,   11.3758E-03
C:/temp/dataset/2/23_7.odb,Step-1,Increment      1: Step Time =    1.000,"PART-1-1",           452,       11.2454,       8.75341,            0.,NA,NA,"",   477.615E-03,  -171.261E-03,   445.854E-03,   4.00449E-03
C:/temp/dataset/2/23_7.odb,Step-1,Increment      1: Step Time =    1.000,"PART-1-1",           453,       11.2622,       5.99112,            0.,NA,NA,"",   523.705E-03,  -253.941E-03,   458.019E-03,   6.80165E-03
C:/temp/dataset/2/23_7.odb,Step-1,Increment      1: Step Time =    1.000,"PART-1-1",           454,       13.8596,       24.3693,            0.,NA,NA,"",       1.06168,       1.05880,   78.2704E-03,   7.98579E-03
C:/temp/dataset/2/23_7.odb,Step-1,Increment      1: Step Time =    1.000,"PART-1-1",           455,       12.6110,       23.1199,            0.,NA,NA,"",   948.647E-03,   922.496E-03,   221.204E-03,   9.84934E-03
C:/temp/dataset/2/23_7.odb,Step-1,Increment      1: Step Time =    1.000,"PART-1-1",           456,       13.7514,       21.4590,            0.,NA,NA,"",   754.611E-03,   743.209E-03,   130.683E-03,   12.7172E-03
C:/temp/dataset/2/23_7.odb,Step-1,Increment      1: Step Time =    1.000,"PART-1-1",           457,           15.,       22.7083,            0.,NA,NA,"",   875.478E-03,   875.261E-03,  -19.4683E-03,   12.8820E-03
C:/temp/dataset/2/23_7.odb,Step-1,Increment      1: Step Time =    1.000,"PART-1-1",           458,       8.83903,       17.2613,            0.,NA,NA,"",   694.971E-03,   353.221E-03,   598.515E-03,   7.94084E-03
C:/temp/dataset/2/23_7.odb,Step-1,Increment      1: Step Time =    1.000,"PART-1-1",           459,       10.5130,       17.3338,            0.,NA,NA,"",   582.945E-03,   353.297E-03,   463.688E-03,   2.23156E-03
C:/temp/dataset/2/23_7.odb,Step-1,Increment      1: Step Time =    1.000,"PART-1-1",           460,       8.72284,       19.1442,            0.,NA,NA,"",   801.228E-03,   517.387E-03,   611.782E-03,   6.61640E-03
C:/temp/dataset/2/23_7.odb,Step-1,Increment      1: Step Time =    1.000,"PART-1-1",           461,           15.,       28.5417,            0.,NA,NA,"",       1.52315,       1.52078,  -84.9649E-03,   672.946E-06
C:/temp/dataset/2/23_7.odb,Step-1,Increment      1: Step Time =    1.000,"PART-1-1",           462,         13.75,           30.,            0.,NA,NA,"",       1.68854,       1.68800,   42.6570E-03,   578.348E-06
C:/temp/dataset/2/23_7.odb,Step-1,Increment      1: Step Time =    1.000,"PART-1-1",           463,       12.5875,       28.6551,            0.,NA,NA,"",       1.55828,       1.54836,   175.500E-03,   3.16999E-03
C:/temp/dataset/2/23_7.odb,Step-1,Increment      1: Step Time =    1.000,"PART-1-1",           464,       13.8375,       27.1968,            0.,NA,NA,"",       1.37874,       1.37777,   51.9419E-03,   3.36697E-03
C:/temp/dataset/2/23_7.odb,Step-1,Increment      1: Step Time =    1.000,"PART-1-1",           465,         11.25,           30.,            0.,NA,NA,"",       1.73371,       1.70567,   310.566E-03,   3.90927E-03
C:/temp/dataset/2/23_7.odb,Step-1,Increment      1: Step Time =    1.000,"PART-1-1",           466,       10.1484,       28.7335,            0.,NA,NA,"",       1.63550,       1.57744,   431.916E-03,   6.35476E-03
C:/temp/dataset/2/23_7.odb,Step-1,Increment      1: Step Time =    1.000,"PART-1-1",           467,       7.69941,       28.7139,            0.,NA,NA,"",       1.74773,       1.60383,   694.468E-03,   8.98038E-03
C:/temp/dataset/2/23_7.odb,Step-1,Increment      1: Step Time =    1.000,"PART-1-1",           468,       9.09777,       27.4473,            0.,NA,NA,"",       1.54142,       1.44071,   548.032E-03,   7.88643E-03
C:/temp/dataset/2/23_7.odb,Step-1,Increment      1: Step Time =    1.000,"PART-1-1",           469,          8.75,           30.,            0.,NA,NA,"",       1.82791,       1.73443,   577.053E-03,   8.91344E-03
C:/temp/dataset/2/23_7.odb,Step-1,Increment      1: Step Time =    1.000,"PART-1-1",           470,  -9.87333E-03,       28.6960,            0.,NA,NA,"",       2.37769,       1.71475,       1.64713,   5.31768E-03
C:/temp/dataset/2/23_7.odb,Step-1,Increment      1: Step Time =    1.000,"PART-1-1",           471,          1.25,           30.,            0.,NA,NA,"",       2.37798,       1.86682,       1.47302,   7.96971E-03
C:/temp/dataset/2/23_7.odb,Step-1,Increment      1: Step Time =    1.000,"PART-1-1",           472,       4.87954,       25.6434,            0.,NA,NA,"",       1.63795,       1.27554,       1.02756,   6.99701E-03
C:/temp/dataset/2/23_7.odb,Step-1,Increment      1: Step Time =    1.000,"PART-1-1",           473,      -5.00474,       28.7231,            0.,NA,NA,"",       2.91421,       1.77122,       2.31417,   744.332E-06
C:/temp/dataset/2/23_7.odb,Step-1,Increment      1: Step Time =    1.000,"PART-1-1",           474,         -6.25,           30.,            0.,NA,NA,"",       3.14469,       1.94980,       2.46726,   303.911E-06
C:/temp/dataset/2/23_7.odb,Step-1,Increment      1: Step Time =    1.000,"PART-1-1",           475,      -3.76303,       27.4393,            0.,NA,NA,"",       2.68379,       1.59239,       2.16033,   2.73116E-03
C:/temp/dataset/2/23_7.odb,Step-1,Increment      1: Step Time =    1.000,"PART-1-1",           476,      -3.77322,       24.9147,            0.,NA,NA,"",       2.52698,       1.26674,       2.18655,   4.03855E-03
C:/temp/dataset/2/23_7.odb,Step-1,Increment      1: Step Time =    1.000,"PART-1-1",           477,      -13.7476,       27.4926,            0.,NA,NA,"",       3.85525,       1.68525,       3.46741,   98.1159E-06
C:/temp/dataset/2/23_7.odb,Step-1,Increment      1: Step Time =    1.000,"PART-1-1",           478,        -13.75,           30.,            0.,NA,NA,"",       3.99067,       2.01195,       3.44638,   29.9427E-06
C:/temp/dataset/2/23_7.odb,Step-1,Increment      1: Step Time =    1.000,"PART-1-1",           479,          -15.,         28.75,            0.,NA,NA,"",       4.06963,       1.85977,       3.61982,   23.9922E-06
C:/temp/dataset/2/23_7.odb,Step-1,Increment      1: Step Time =    1.000,"PART-1-1",           480,          -15.,         26.25,            0.,NA,NA,"",       3.95096,       1.53406,       3.64098,   108.700E-06
C:/temp/dataset/2/23_7.odb,Step-1,Increment      1: Step Time =    1.000,"PART-1-1",           481,      -12.4965,       26.2309,            0.,NA,NA,"",       3.64299,       1.51014,       3.31524,   119.161E-06
C:/temp/dataset/2/23_7.odb,Step-1,Increment      1: Step Time =    1.000,"PART-1-1",           482,      -10.0014,       23.7134,            0.,NA,NA,"",       3.22775,       1.16090,       3.01176,   200.675E-06
C:/temp/dataset/2/23_7.odb,Step-1,Increment      1: Step Time =    1.000,"PART-1-1",           483,      -8.75535,       22.4567,            0.,NA,NA,"",       3.02590,   986.968E-03,       2.86041,   256.783E-06
C:/temp/dataset/2/23_7.odb,Step-1,Increment      1: Step Time =    1.000,"PART-1-1",           484,      -7.50515,       23.6891,            0.,NA,NA,"",       2.91799,       1.13627,       2.68767,   471.606E-06
C:/temp/dataset/2/23_7.odb,Step-1,Increment      1: Step Time =    1.000,"PART-1-1",           485,      -8.75118,       24.9458,            0.,NA,NA,"",       3.12657,       1.31043,       2.83870,   245.779E-06
C:/temp/dataset/2/23_7.odb,Step-1,Increment      1: Step Time =    1.000,"PART-1-1",           486,      -3.77419,       22.4219,            0.,NA,NA,"",       2.40982,   945.003E-03,       2.21680,   5.76343E-03
C:/temp/dataset/2/23_7.odb,Step-1,Increment      1: Step Time =    1.000,"PART-1-1",           487,      -5.00723,       21.2173,            0.,NA,NA,"",       2.52010,   795.944E-03,       2.39111,   3.89155E-03
C:/temp/dataset/2/23_7.odb,Step-1,Increment      1: Step Time =    1.000,"PART-1-1",           488,         -3.75,           20.,            0.,NA,NA,"",       2.33471,   632.312E-03,       2.24746,   5.91080E-03
C:/temp/dataset/2/23_7.odb,Step-1,Increment      1: Step Time =    1.000,"PART-1-1",           489,      -2.51696,       21.2046,            0.,NA,NA,"",       2.20950,   780.411E-03,       2.06709,   7.42844E-03
C:/temp/dataset/2/23_7.odb,Step-1,Increment      1: Step Time =    1.000,"PART-1-1",           490,         -8.75,           20.,            0.,NA,NA,"",       2.95733,   668.832E-03,       2.88070,   574.066E-06
C:/temp/dataset/2/23_7.odb,Step-1,Increment      1: Step Time =    1.000,"PART-1-1",           491,      -7.50331,       21.2223,            0.,NA,NA,"",       2.82926,   816.967E-03,       2.70874,   600.296E-06
C:/temp/dataset/2/23_7.odb,Step-1,Increment      1: Step Time =    1.000,"PART-1-1",           492,         -6.25,           20.,            0.,NA,NA,"",       2.63939,   650.498E-03,       2.55797,   917.567E-06
C:/temp/dataset/2/23_7.odb,Step-1,Increment      1: Step Time =    1.000,"PART-1-1",           493,      -6.26054,       22.4396,            0.,NA,NA,"",       2.71531,   963.871E-03,       2.53848,   1.70549E-03
C:/temp/dataset/2/23_7.odb,Step-1,Increment      1: Step Time =    1.000,"PART-1-1",           494,         -1.25,           20.,            0.,NA,NA,"",       2.00773,   610.923E-03,       1.91253,   6.13842E-03
C:/temp/dataset/2/23_7.odb,Step-1,Increment      1: Step Time =    1.000,"PART-1-1",           495,      -1.30453,       22.3853,            0.,NA,NA,"",       2.09980,   927.834E-03,       1.88369,   9.16769E-03
C:/temp/dataset/2/23_7.odb,Step-1,Increment      1: Step Time =    1.000,"PART-1-1",           496,         -1.25,           30.,            0.,NA,NA,"",       2.62099,       1.90173,       1.80361,   3.76360E-03
C:/temp/dataset/2/23_7.odb,Step-1,Increment      1: Step Time =    1.000,"PART-1-1",           497,      -2.50829,       28.7162,            0.,NA,NA,"",       2.64134,       1.74628,       1.98172,   2.50966E-03
C:/temp/dataset/2/23_7.odb,Step-1,Increment      1: Step Time =    1.000,"PART-1-1",           498,         -3.75,           30.,            0.,NA,NA,"",       2.87805,       1.92814,       2.13669,   865.842E-06
C:/temp/dataset/2/23_7.odb,Step-1,Increment      1: Step Time =    1.000,"PART-1-1",           499,          3.75,           20.,            0.,NA,NA,"",       1.33946,   598.027E-03,       1.19855,   22.4154E-03
C:/temp/dataset/2/23_7.odb,Step-1,Increment      1: Step Time =    1.000,"PART-1-1",           500,       4.75388,       21.0765,            0.,NA,NA,"",       1.27035,   734.335E-03,       1.03660,   23.6057E-03
C:/temp/dataset/2/23_7.odb,Step-1,Increment      1: Step Time =    1.000,"PART-1-1",           501,          6.25,           30.,            0.,NA,NA,"",       1.97113,       1.77594,   855.208E-03,   12.0147E-03
C:/temp/dataset/2/23_7.odb,Step-1,Increment      1: Step Time =    1.000,"PART-1-1",           502,       6.61296,       27.1492,            0.,NA,NA,"",       1.65197,       1.43380,   820.506E-03,   6.84713E-03
C:/temp/dataset/2/23_7.odb,Step-1,Increment      1: Step Time =    1.000,"PART-1-1",           503,            5.,         16.25,            0.,NA,NA,"",   936.461E-03,   317.793E-03,   880.890E-03,   30.8542E-03
C:/temp/dataset/2/23_7.odb,Step-1,Increment      1: Step Time =    1.000,"PART-1-1",           504,       6.03202,       15.2452,            0.,NA,NA,"",   817.467E-03,   227.507E-03,   785.170E-03,   25.2902E-03
C:/temp/dataset/2/23_7.odb,Step-1,Increment      1: Step Time =    1.000,"PART-1-1",           505,       6.91243,       16.6330,            0.,NA,NA,"",   810.832E-03,   319.162E-03,   745.375E-03,   20.4832E-03
C:/temp/dataset/2/23_7.odb,Step-1,Increment      1: Step Time =    1.000,"PART-1-1",           506,            5.,         13.75,            0.,NA,NA,"",   832.195E-03,   139.065E-03,   820.493E-03,   30.3304E-03
C:/temp/dataset/2/23_7.odb,Step-1,Increment      1: Step Time =    1.000,"PART-1-1",           507,       6.17466,       12.7979,            0.,NA,NA,"",   729.757E-03,   62.2508E-03,   727.097E-03,   24.5744E-03
C:/temp/dataset/2/23_7.odb,Step-1,Increment      1: Step Time =    1.000,"PART-1-1",           508,       12.0086,       16.5092,            0.,NA,NA,"",   452.768E-03,   285.270E-03,   351.597E-03,   7.68276E-03
C:/temp/dataset/2/23_7.odb,Step-1,Increment      1: Step Time =    1.000,"PART-1-1",           509,           15.,        16.875,            0.,NA,NA,"",   343.201E-03,   325.738E-03,   108.082E-03,   22.7559E-03
C:/temp/dataset/2/23_7.odb,Step-1,Increment      1: Step Time =    1.000,"PART-1-1",           510,       13.3591,       18.2744,            0.,NA,NA,"",   487.272E-03,   435.497E-03,   218.578E-03,   13.9734E-03
C:/temp/dataset/2/23_7.odb,Step-1,Increment      1: Step Time =    1.000,"PART-1-1",           511,            5.,         11.25,            0.,NA,NA,"",   755.802E-03,  -10.4541E-03,   755.730E-03,   30.7022E-03
C:/temp/dataset/2/23_7.odb,Step-1,Increment      1: Step Time =    1.000,"PART-1-1",           512,       6.23142,       10.2778,            0.,NA,NA,"",   676.785E-03,  -77.0682E-03,   672.382E-03,   24.6813E-03
C:/temp/dataset/2/23_7.odb,Step-1,Increment      1: Step Time =    1.000,"PART-1-1",           513,            5.,          8.75,            0.,NA,NA,"",   703.499E-03,  -131.198E-03,   691.157E-03,   31.9706E-03
C:/temp/dataset/2/23_7.odb,Step-1,Increment      1: Step Time =    1.000,"PART-1-1",           514,       7.47251,       9.25684,            0.,NA,NA,"",   614.813E-03,  -138.602E-03,   598.986E-03,   17.9053E-03
C:/temp/dataset/2/23_7.odb,Step-1,Increment      1: Step Time =    1.000,"PART-1-1",           515,         11.25,           -5.,            0.,NA,NA,"",   553.234E-03,  -280.107E-03,   477.082E-03,   4.57292E-03
C:/temp/dataset/2/23_7.odb,Step-1,Increment      1: Step Time =    1.000,"PART-1-1",           516,       11.2689,      -2.22707,            0.,NA,NA,"",   555.525E-03,  -278.413E-03,   480.722E-03,   8.40089E-03
C:/temp/dataset/2/23_7.odb,Step-1,Increment      1: Step Time =    1.000,"PART-1-1",           517,          10.5,          -30.,            0.,NA,NA,"",            0.,   31.1340E-42,  -119.626E-42,   53.1738E-06
C:/temp/dataset/2/23_7.odb,Step-1,Increment      1: Step Time =    1.000,"PART-1-1",           518,           15.,        -23.75,            0.,NA,NA,"",   1.01563E-03,   842.382E-06,  -567.364E-06,   31.4384E-06
C:/temp/dataset/2/23_7.odb,Step-1,Increment      1: Step Time =    1.000,"PART-1-1",           519,          3.75,           -5.,            0.,NA,NA,"",   502.732E-03,  -196.014E-03,   462.945E-03,   15.4476E-03
C:/temp/dataset/2/23_7.odb,Step-1,Increment      1: Step Time =    1.000,"PART-1-1",           520,       4.97006,      -3.74763,            0.,NA,NA,"",   537.841E-03,  -227.946E-03,   487.148E-03,   12.0986E-03
C:/temp/dataset/2/23_7.odb,Step-1,Increment      1: Step Time =    1.000,"PART-1-1",           521,       4.85412,       3.76356,            0.,NA,NA,"",   615.793E-03,  -295.149E-03,   540.452E-03,   23.9363E-03
C:/temp/dataset/2/23_7.odb,Step-1,Increment      1: Step Time =    1.000,"PART-1-1",           522,       3.33333,            5.,            0.,NA,NA,"",   583.120E-03,  -334.102E-03,   477.917E-03,   23.5396E-03
C:/temp/dataset/2/23_7.odb,Step-1,Increment      1: Step Time =    1.000,"PART-1-1",           523,       1.45296,       3.58740,            0.,NA,NA,"",   536.591E-03,  -322.067E-03,   429.189E-03,   10.6761E-03
C:/temp/dataset/2/23_7.odb,Step-1,Increment      1: Step Time =    1.000,"PART-1-1",           524,       2.97375,       2.35096,            0.,NA,NA,"",   559.690E-03,  -289.206E-03,   479.179E-03,   11.0662E-03
C:/temp/dataset/2/23_7.odb,Step-1,Increment      1: Step Time =    1.000,"PART-1-1",           525,          6.25,           -5.,            0.,NA,NA,"",   541.839E-03,  -232.710E-03,   489.322E-03,   14.9287E-03
C:/temp/dataset/2/23_7.odb,Step-1,Increment      1: Step Time =    1.000,"PART-1-1",           526,       12.4696,       10.4445,            0.,NA,NA,"",   393.173E-03,  -96.0896E-03,   381.250E-03,   9.88953E-03
C:/temp/dataset/2/23_7.odb,Step-1,Increment      1: Step Time =    1.000,"PART-1-1",           527,           15.,       11.0417,            0.,NA,NA,"",   252.169E-03,  -50.4945E-03,   247.061E-03,   24.5585E-03
C:/temp/dataset/2/23_7.odb,Step-1,Increment      1: Step Time =    1.000,"PART-1-1",           528,      -5.01382,       23.6808,            0.,NA,NA,"",       2.61418,       1.11585,       2.36407,   2.79391E-03
C:/temp/dataset/2/23_7.odb,Step-1,Increment      1: Step Time =    1.000,"PART-1-1",           529,      -2.53358,       23.6558,            0.,NA,NA,"",       2.31212,       1.09725,       2.03518,   6.64573E-03
C:/temp/dataset/2/23_7.odb,Step-1,Increment      1: Step Time =    1.000,"PART-1-1",           530,  -74.6816E-03,       23.6075,            0.,NA,NA,"",       2.01012,       1.07600,       1.69789,   9.11548E-03
C:/temp/dataset/2/23_7.odb,Step-1,Increment      1: Step Time =    1.000,"PART-1-1",           531,      -6.62798,      -1.45964,            0.,NA,NA,"",   268.134E-03,  -215.464E-03,   159.595E-03,   5.95065E-03
C:/temp/dataset/2/23_7.odb,Step-1,Increment      1: Step Time =    1.000,"PART-1-1",           532,      -4.43070,      -2.38075,            0.,NA,NA,"",   302.831E-03,  -200.876E-03,   226.617E-03,   9.22894E-03
C:/temp/dataset/2/23_7.odb,Step-1,Increment      1: Step Time =    1.000,"PART-1-1",           533,      -3.64554,  -813.143E-03,            0.,NA,NA,"",   353.461E-03,  -239.498E-03,   259.953E-03,   8.85013E-03
C:/temp/dataset/2/23_7.odb,Step-1,Increment      1: Step Time =    1.000,"PART-1-1",           534,         -3.75,           -5.,            0.,NA,NA,"",   278.688E-03,  -127.904E-03,   247.603E-03,   6.85594E-03
C:/temp/dataset/2/23_7.odb,Step-1,Increment      1: Step Time =    1.000,"PART-1-1",           535,      -13.8599,      -9.43096,            0.,NA,NA,"",   47.1063E-03,  -47.1060E-03,   178.571E-06,   2.83767E-03
C:/temp/dataset/2/23_7.odb,Step-1,Increment      1: Step Time =    1.000,"PART-1-1",           536,          -15.,      -11.0417,            0.,NA,NA,"",   30.3437E-03,  -28.9600E-03,  -9.05852E-03,   4.28188E-03
C:/temp/dataset/2/23_7.odb,Step-1,Increment      1: Step Time =    1.000,"PART-1-1",           537,      -11.9984,      -19.8095,            0.,NA,NA,"",   27.7518E-03,   19.3967E-03,   19.8476E-03,   2.32778E-03
C:/temp/dataset/2/23_7.odb,Step-1,Increment      1: Step Time =    1.000,"PART-1-1",           538,      -13.3881,      -18.2324,            0.,NA,NA,"",   24.2645E-03,   17.9590E-03,   16.3169E-03,   945.930E-06
C:/temp/dataset/2/23_7.odb,Step-1,Increment      1: Step Time =    1.000,"PART-1-1",           539,          -15.,      -19.7917,            0.,NA,NA,"",   23.8771E-03,   19.6222E-03,   13.6046E-03,   1.06392E-03
C:/temp/dataset/2/23_7.odb,Step-1,Increment      1: Step Time =    1.000,"PART-1-1",           540,           -5.,        -18.75,            0.,NA,NA,"",   41.7283E-03,   5.82970E-03,   41.3191E-03,   10.7472E-03
C:/temp/dataset/2/23_7.odb,Step-1,Increment      1: Step Time =    1.000,"PART-1-1",           541,      -5.96138,      -20.0094,            0.,NA,NA,"",   34.5108E-03,   11.5511E-03,   32.5202E-03,   7.04165E-03
C:/temp/dataset/2/23_7.odb,Step-1,Increment      1: Step Time =    1.000,"PART-1-1",           542,           -5.,        -13.75,            0.,NA,NA,"",   88.4782E-03,  -19.5347E-03,   86.2947E-03,   10.2969E-03
C:/temp/dataset/2/23_7.odb,Step-1,Increment      1: Step Time =    1.000,"PART-1-1",           543,      -7.28958,      -14.3036,            0.,NA,NA,"",   64.6144E-03,  -6.63724E-03,   64.2726E-03,   7.20967E-03
C:/temp/dataset/2/23_7.odb,Step-1,Increment      1: Step Time =    1.000,"PART-1-1",           544,      -8.88285,      -11.0213,            0.,NA,NA,"",   72.8308E-03,  -30.4139E-03,   66.1764E-03,   5.38763E-03
C:/temp/dataset/2/23_7.odb,Step-1,Increment      1: Step Time =    1.000,"PART-1-1",           545,      -9.01222,      -8.51542,            0.,NA,NA,"",   96.9962E-03,  -61.3451E-03,   75.1335E-03,   5.07996E-03
C:/temp/dataset/2/23_7.odb,Step-1,Increment      1: Step Time =    1.000,"PART-1-1",           546,      -9.13424,  -715.290E-03,            0.,NA,NA,"",   247.145E-03,  -228.921E-03,   93.1446E-03,   2.12388E-03
C:/temp/dataset/2/23_7.odb,Step-1,Increment      1: Step Time =    1.000,"PART-1-1",           547,      -9.92186,      -2.42350,            0.,NA,NA,"",   197.013E-03,  -183.761E-03,   71.0346E-03,   2.52516E-03
C:/temp/dataset/2/23_7.odb,Step-1,Increment      1: Step Time =    1.000,"PART-1-1",           548,      -12.7176,      -7.95930,            0.,NA,NA,"",   69.5318E-03,  -67.9019E-03,   14.9664E-03,   1.16903E-03
C:/temp/dataset/2/23_7.odb,Step-1,Increment      1: Step Time =    1.000,"PART-1-1",           549,          -15.,        -8.125,            0.,NA,NA,"",   71.4681E-03,  -68.1481E-03,  -21.5294E-03,   4.78304E-03
C:/temp/dataset/2/23_7.odb,Step-1,Increment      1: Step Time =    1.000,"PART-1-1",           550,       11.2818,   528.104E-03,            0.,NA,NA,"",   559.324E-03,  -289.332E-03,   478.675E-03,   10.9635E-03
C:/temp/dataset/2/23_7.odb,Step-1,Increment      1: Step Time =    1.000,"PART-1-1",           551,       10.0167,  -924.457E-03,            0.,NA,NA,"",   568.583E-03,  -281.577E-03,   493.965E-03,   10.6826E-03
C:/temp/dataset/2/23_7.odb,Step-1,Increment      1: Step Time =    1.000,"PART-1-1",           552,       10.4320,       23.7699,            0.,NA,NA,"",       1.09151,       1.00308,   430.382E-03,   10.2039E-03
C:/temp/dataset/2/23_7.odb,Step-1,Increment      1: Step Time =    1.000,"PART-1-1",           553,           15.,        25.625,            0.,NA,NA,"",       1.19731,       1.19575,  -61.1065E-03,   5.47167E-03
C:/temp/dataset/2/23_7.odb,Step-1,Increment      1: Step Time =    1.000,"PART-1-1",           554,      -9.99539,       26.2124,            0.,NA,NA,"",       3.33890,       1.48624,       2.98987,   180.499E-06
C:/temp/dataset/2/23_7.odb,Step-1,Increment      1: Step Time =    1.000,"PART-1-1",           555,          -15.,       -25.625,            0.,NA,NA,"",   18.7936E-03,   14.4335E-03,   12.0364E-03,   1.72904E-03
C:/temp/dataset/2/23_7.odb,Step-1,Increment      1: Step Time =    1.000,"PART-1-1",           556,      -12.2044,      -25.8339,            0.,NA,NA,"",   14.2281E-03,   11.2347E-03,   8.73041E-03,   2.95130E-03
C:/temp/dataset/2/23_7.odb,Step-1,Increment      1: Step Time =    1.000,"PART-1-1",           557,          -15.,       -16.875,            0.,NA,NA,"",   15.9969E-03,   13.2438E-03,   8.97237E-03,   2.37401E-03
C:/temp/dataset/2/23_7.odb,Step-1,Increment      1: Step Time =    1.000,"PART-1-1",           558,      -8.25880,      -15.9015,            0.,NA,NA,"",   48.6550E-03,   5.27138E-03,   48.3686E-03,   5.65146E-03
C:/temp/dataset/2/23_7.odb,Step-1,Increment      1: Step Time =    1.000,"PART-1-1",           559,       7.56555,       17.9230,            0.,NA,NA,"",   822.149E-03,   416.095E-03,   709.080E-03,   15.6540E-03
C:/temp/dataset/2/23_7.odb,Step-1,Increment      1: Step Time =    1.000,"PART-1-1",           560,      -9.72707,       2.21069,            0.,NA,NA,"",   316.230E-03,  -305.776E-03,   80.6372E-03,   777.190E-06
C:/temp/dataset/2/23_7.odb,Step-1,Increment      1: Step Time =    1.000,"PART-1-1",           561,      -8.18006,       3.69884,            0.,NA,NA,"",   368.842E-03,  -347.802E-03,   122.794E-03,   1.22592E-03
C:/temp/dataset/2/23_7.odb,Step-1,Increment      1: Step Time =    1.000,"PART-1-1",           562,          -10.,            5.,            0.,NA,NA,"",   387.607E-03,  -380.498E-03,   73.8945E-03,   1.26238E-03
C:/temp/dataset/2/23_7.odb,Step-1,Increment      1: Step Time =    1.000,"PART-1-1",           563,      -10.3433,      -7.69771,            0.,NA,NA,"",   90.7174E-03,  -72.2647E-03,   54.8403E-03,   2.22499E-03
C:/temp/dataset/2/23_7.odb,Step-1,Increment      1: Step Time =    1.000,"PART-1-1",           564,      -11.5611,      -6.59494,            0.,NA,NA,"",   97.2528E-03,  -91.0119E-03,   34.2774E-03,   574.813E-06
C:/temp/dataset/2/23_7.odb,Step-1,Increment      1: Step Time =    1.000,"PART-1-1",           565,      -9.40089,      -20.7816,            0.,NA,NA,"",   29.8031E-03,   16.4272E-03,   24.8670E-03,   4.13329E-03
C:/temp/dataset/2/23_7.odb,Step-1,Increment      1: Step Time =    1.000,"PART-1-1",           566,      -8.21757,      -22.2064,            0.,NA,NA,"",   25.2621E-03,   12.4838E-03,   21.9620E-03,   4.62185E-03
C:/temp/dataset/2/23_7.odb,Step-1,Increment      1: Step Time =    1.000,"PART-1-1",           567,      -6.89894,      -21.2078,            0.,NA,NA,"",   29.2546E-03,   11.3491E-03,   26.9635E-03,   5.54484E-03
C:/temp/dataset/2/23_7.odb,Step-1,Increment      1: Step Time =    1.000,"PART-1-1",           568,      -9.14285,      -28.6800,            0.,NA,NA,"",   3.30216E-03,   2.19812E-03,   2.46426E-03,   2.64273E-03
C:/temp/dataset/2/23_7.odb,Step-1,Increment      1: Step Time =    1.000,"PART-1-1",           569,      -10.7232,      -27.3047,            0.,NA,NA,"",   8.18662E-03,   6.20496E-03,   5.34034E-03,   3.06502E-03
C:/temp/dataset/2/23_7.odb,Step-1,Increment      1: Step Time =    1.000,"PART-1-1",           570,         -10.5,          -30.,            0.,NA,NA,"",            0.,   1.61079E-39,   5.03765E-39,   2.46016E-03
C:/temp/dataset/2/23_7.odb,Step-1,Increment      1: Step Time =    1.000,"PART-1-1",           571,      -4.89633,      -27.4366,            0.,NA,NA,"",   4.19423E-03,   319.657E-06,   4.18203E-03,   2.12901E-03
C:/temp/dataset/2/23_7.odb,Step-1,Increment      1: Step Time =    1.000,"PART-1-1",           572,      -6.18287,      -28.7136,            0.,NA,NA,"",   2.22546E-03,   510.006E-06,   2.16623E-03,   2.22905E-03
C:/temp/dataset/2/23_7.odb,Step-1,Increment      1: Step Time =    1.000,"PART-1-1",           573,          -4.5,          -30.,            0.,NA,NA,"",            0.,  -351.015E-42,   3.70099E-39,   1.61109E-03
C:/temp/dataset/2/23_7.odb,Step-1,Increment      1: Step Time =    1.000,"PART-1-1",           574,       12.5384,       2.02620,            0.,NA,NA,"",   538.920E-03,  -288.648E-03,   455.101E-03,   11.1188E-03
C:/temp/dataset/2/23_7.odb,Step-1,Increment      1: Step Time =    1.000,"PART-1-1",           575,           15.,       2.29167,            0.,NA,NA,"",   508.007E-03,  -275.950E-03,   426.524E-03,   14.5849E-03
C:/temp/dataset/2/23_7.odb,Step-1,Increment      1: Step Time =    1.000,"PART-1-1",           576,       9.96595,       9.83263,            0.,NA,NA,"",   513.514E-03,  -125.393E-03,   497.969E-03,   3.86741E-03
C:/temp/dataset/2/23_7.odb,Step-1,Increment      1: Step Time =    1.000,"PART-1-1",           577,           15.,       19.7917,            0.,NA,NA,"",   581.653E-03,   580.293E-03,   39.7519E-03,   19.2822E-03
C:/temp/dataset/2/23_7.odb,Step-1,Increment      1: Step Time =    1.000,"PART-1-1",           578,       7.90800,       20.1372,            0.,NA,NA,"",   923.257E-03,   616.004E-03,   687.708E-03,   8.82274E-03
C:/temp/dataset/2/23_7.odb,Step-1,Increment      1: Step Time =    1.000,"PART-1-1",           579,       8.41916,       21.3934,            0.,NA,NA,"",   981.429E-03,   745.899E-03,   637.838E-03,   9.08778E-03
C:/temp/dataset/2/23_7.odb,Step-1,Increment      1: Step Time =    1.000,"PART-1-1",           580,       6.50486,       21.1025,            0.,NA,NA,"",       1.10047,   722.435E-03,   830.138E-03,   13.1777E-03
C:/temp/dataset/2/23_7.odb,Step-1,Increment      1: Step Time =    1.000,"PART-1-1",           581,           4.5,          -30.,            0.,NA,NA,"",            0.,  -246.495E-42,   231.399E-42,   256.131E-06
C:/temp/dataset/2/23_7.odb,Step-1,Increment      1: Step Time =    1.000,"PART-1-1",           582,       3.62857,      -22.4261,            0.,NA,NA,"",   1.54538E-03,   1.54264E-03,  -91.9823E-06,   310.202E-06
C:/temp/dataset/2/23_7.odb,Step-1,Increment      1: Step Time =    1.000,"PART-1-1",           583,       2.16864,      -23.6665,            0.,NA,NA,"",   816.765E-06,   725.738E-06,   374.712E-06,   193.470E-06
C:/temp/dataset/2/23_7.odb,Step-1,Increment      1: Step Time =    1.000,"PART-1-1",           584,      -2.73954,      -22.4743,            0.,NA,NA,"",   9.09302E-03,   2.02785E-03,   8.86402E-03,   1.56944E-03
C:/temp/dataset/2/23_7.odb,Step-1,Increment      1: Step Time =    1.000,"PART-1-1",           585,  -999.676E-03,      -23.6839,            0.,NA,NA,"",   3.52164E-03,   551.865E-06,   3.47813E-03,   607.123E-06
C:/temp/dataset/2/23_7.odb,Step-1,Increment      1: Step Time =    1.000,"PART-1-1",           586,      -7.82572,      -27.3936,            0.,NA,NA,"",   6.18239E-03,   3.13032E-03,   5.33133E-03,   2.82316E-03
C:/temp/dataset/2/23_7.odb,Step-1,Increment      1: Step Time =    1.000,"PART-1-1",           587,      -6.52069,      -26.1528,            0.,NA,NA,"",   8.74517E-03,   3.06981E-03,   8.18867E-03,   3.15080E-03
C:/temp/dataset/2/23_7.odb,Step-1,Increment      1: Step Time =    1.000,"PART-1-1",           588,      -8.08310,      -24.7829,            0.,NA,NA,"",   14.8755E-03,   7.60706E-03,   12.7833E-03,   3.71980E-03
C:/temp/dataset/2/23_7.odb,Step-1,Increment      1: Step Time =    1.000,"PART-1-1",           589,      -9.38814,      -26.0237,            0.,NA,NA,"",   11.5452E-03,   7.44280E-03,   8.82583E-03,   3.46053E-03
C:/temp/dataset/2/23_7.odb,Step-1,Increment      1: Step Time =    1.000,"PART-1-1",           590,          -7.5,          -30.,            0.,NA,NA,"",            0.,   605.487E-42,   4.70466E-39,   2.12388E-03
C:/temp/dataset/2/23_7.odb,Step-1,Increment      1: Step Time =    1.000,"PART-1-1",           591,       7.73182,       24.8866,            0.,NA,NA,"",       1.34962,       1.15271,   701.958E-03,   8.73248E-03
C:/temp/dataset/2/23_7.odb,Step-1,Increment      1: Step Time =    1.000,"PART-1-1",           592,       8.21760,       26.2797,            0.,NA,NA,"",       1.46309,       1.31271,   646.077E-03,   8.54776E-03
C:/temp/dataset/2/23_7.odb,Step-1,Increment      1: Step Time =    1.000,"PART-1-1",           593,       6.12718,       25.7561,            0.,NA,NA,"",       1.54775,       1.27376,   879.252E-03,   7.21844E-03
C:/temp/dataset/2/23_7.odb,Step-1,Increment      1: Step Time =    1.000,"PART-1-1",           594,       5.38844,       22.1508,            0.,NA,NA,"",       1.28723,   854.024E-03,   963.117E-03,   13.1050E-03
C:/temp/dataset/2/23_7.odb,Step-1,Increment      1: Step Time =    1.000,"PART-1-1",           595,      -3.37677,   775.412E-03,            0.,NA,NA,"",   386.886E-03,  -275.632E-03,   271.491E-03,   7.80307E-03
C:/temp/dataset/2/23_7.odb,Step-1,Increment      1: Step Time =    1.000,"PART-1-1",           596,      -3.41233,       2.84116,            0.,NA,NA,"",   422.709E-03,  -325.456E-03,   269.743E-03,   5.10340E-03
C:/temp/dataset/2/23_7.odb,Step-1,Increment      1: Step Time =    1.000,"PART-1-1",           597,      -11.2482,       24.9673,            0.,NA,NA,"",       3.43353,       1.33482,       3.16345,   164.217E-06
C:/temp/dataset/2/23_7.odb,Step-1,Increment      1: Step Time =    1.000,"PART-1-1",           598,       5.16292,       24.1270,            0.,NA,NA,"",       1.47640,       1.09099,   994.729E-03,   8.38817E-03
C:/temp/dataset/2/23_7.odb,Step-1,Increment      1: Step Time =    1.000,"PART-1-1",           599,            0.,            5.,            0.,NA,NA,"",   529.161E-03,  -373.661E-03,   374.685E-03,   8.81654E-03
C:/temp/dataset/2/23_7.odb,Step-1,Increment      1: Step Time =    1.000,"PART-1-1",           600,      -1.80204,       3.95011,            0.,NA,NA,"",   475.764E-03,  -351.498E-03,   320.625E-03,   5.43063E-03
C:/temp/dataset/2/23_7.odb,Step-1,Increment      1: Step Time =    1.000,"PART-1-1",           601,       9.59799,       22.9228,            0.,NA,NA,"",       1.04748,   910.764E-03,   517.426E-03,   10.1670E-03
C:/temp/dataset/2/23_7.odb,Step-1,Increment      1: Step Time =    1.000,"PART-1-1",           602,       8.30932,       22.9391,            0.,NA,NA,"",       1.12366,   919.804E-03,   645.416E-03,   10.4421E-03
C:/temp/dataset/2/23_7.odb,Step-1,Increment      1: Step Time =    1.000,"PART-1-1",           603,      -1.93269,      -1.01257,            0.,NA,NA,"",   399.180E-03,  -237.371E-03,   320.935E-03,   8.83616E-03
C:/temp/dataset/2/23_7.odb,Step-1,Increment      1: Step Time =    1.000,"PART-1-1",           604,      -8.69440,      -13.5596,            0.,NA,NA,"",   56.9925E-03,  -7.95101E-03,   56.4351E-03,   5.45542E-03
C:/temp/dataset/2/23_7.odb,Step-1,Increment      1: Step Time =    1.000,"PART-1-1",           605,       6.07991,       2.65614,            0.,NA,NA,"",   612.080E-03,  -293.184E-03,   537.294E-03,   11.5645E-03
C:/temp/dataset/2/23_7.odb,Step-1,Increment      1: Step Time =    1.000,"PART-1-1",           606,       4.75906,       1.28045,            0.,NA,NA,"",   582.713E-03,  -279.533E-03,   511.288E-03,   9.54832E-03
C:/temp/dataset/2/23_7.odb,Step-1,Increment      1: Step Time =    1.000,"PART-1-1",           607,       10.0234,       4.43547,            0.,NA,NA,"",   568.557E-03,  -282.807E-03,   493.232E-03,   7.99019E-03
C:/temp/dataset/2/23_7.odb,Step-1,Increment      1: Step Time =    1.000,"PART-1-1",           608,       7.46673,       4.06304,            0.,NA,NA,"",   615.460E-03,  -293.713E-03,   540.855E-03,   11.0934E-03
C:/temp/dataset/2/23_7.odb,Step-1,Increment      1: Step Time =    1.000,"PART-1-1",           609,  -317.165E-03,  -486.862E-03,            0.,NA,NA,"",   450.824E-03,  -249.900E-03,   375.224E-03,   8.96913E-03
C:/temp/dataset/2/23_7.odb,Step-1,Increment      1: Step Time =    1.000,"PART-1-1",           610,       1.72730,   921.331E-03,            0.,NA,NA,"",   518.132E-03,  -273.164E-03,   440.275E-03,   10.3370E-03
C:/temp/dataset/2/23_7.odb,Step-1,Increment      1: Step Time =    1.000,"PART-1-1",           611,      -4.63664,      -21.2535,            0.,NA,NA,"",   20.9075E-03,   5.06127E-03,   20.2856E-03,   4.94498E-03
C:/temp/dataset/2/23_7.odb,Step-1,Increment      1: Step Time =    1.000,"PART-1-1",           612,       11.2827,       3.26092,            0.,NA,NA,"",   551.919E-03,  -288.826E-03,   470.312E-03,   10.4514E-03
C:/temp/dataset/2/23_7.odb,Step-1,Increment      1: Step Time =    1.000,"PART-1-1",           613,      -11.4502,      -4.36864,            0.,NA,NA,"",   141.354E-03,  -136.591E-03,   36.3838E-03,   1.26413E-03
C:/temp/dataset/2/23_7.odb,Step-1,Increment      1: Step Time =    1.000,"PART-1-1",           614,      -10.8693,      -24.5529,            0.,NA,NA,"",   17.4571E-03,   12.5787E-03,   12.1049E-03,   3.34038E-03
C:/temp/dataset/2/23_7.odb,Step-1,Increment      1: Step Time =    1.000,"PART-1-1",           615,      -9.52531,      -23.3517,            0.,NA,NA,"",   21.0668E-03,   12.9121E-03,   16.6459E-03,   4.02209E-03
C:/temp/dataset/2/23_7.odb,Step-1,Increment      1: Step Time =    1.000,"PART-1-1",           616,      -10.8903,      -21.7518,            0.,NA,NA,"",   25.7710E-03,   17.4692E-03,   18.9465E-03,   3.26054E-03
C:/temp/dataset/2/23_7.odb,Step-1,Increment      1: Step Time =    1.000,"PART-1-1",           617,       3.33333,          -20.,            0.,NA,NA,"",   3.03376E-03,   3.01238E-03,   359.505E-06,   630.369E-06
C:/temp/dataset/2/23_7.odb,Step-1,Increment      1: Step Time =    1.000,"PART-1-1",           618,       1.83446,      -21.2108,            0.,NA,NA,"",   3.09604E-03,   2.99126E-03,   798.640E-06,   545.618E-06
C:/temp/dataset/2/23_7.odb,Step-1,Increment      1: Step Time =    1.000,"PART-1-1",           619,       5.12744,      -21.2153,            0.,NA,NA,"",   1.90046E-03,   1.88476E-03,  -243.791E-06,   300.389E-06
C:/temp/dataset/2/23_7.odb,Step-1,Increment      1: Step Time =    1.000,"PART-1-1",           620,            0.,          -20.,            0.,NA,NA,"",   6.41606E-03,   5.70355E-03,   2.93859E-03,   972.446E-06
C:/temp/dataset/2/23_7.odb,Step-1,Increment      1: Step Time =    1.000,"PART-1-1",           621,      -1.43624,      -21.2208,            0.,NA,NA,"",   6.99440E-03,   4.38700E-03,   5.44756E-03,   1.01115E-03
C:/temp/dataset/2/23_7.odb,Step-1,Increment      1: Step Time =    1.000,"PART-1-1",           622,   398.228E-03,      -22.4316,            0.,NA,NA,"",   2.73148E-03,   1.96143E-03,   1.90098E-03,   261.810E-06
C:/temp/dataset/2/23_7.odb,Step-1,Increment      1: Step Time =    1.000,"PART-1-1",           623,   770.736E-03,      -24.9188,            0.,NA,NA,"",   1.22660E-03,  -307.807E-06,   1.18735E-03,   371.709E-06
C:/temp/dataset/2/23_7.odb,Step-1,Increment      1: Step Time =    1.000,"PART-1-1",           624,      -3.33333,          -20.,            0.,NA,NA,"",   14.9759E-03,   9.38995E-03,   11.6664E-03,   1.72460E-03
C:/temp/dataset/2/23_7.odb,Step-1,Increment      1: Step Time =    1.000,"PART-1-1",           625,       8.69606,       24.2205,            0.,NA,NA,"",       1.22438,       1.06586,   602.544E-03,   9.77393E-03
C:/temp/dataset/2/23_7.odb,Step-1,Increment      1: Step Time =    1.000,"PART-1-1",           626,      -3.33333,            5.,            0.,NA,NA,"",   471.132E-03,  -386.609E-03,   269.255E-03,   2.75482E-03
C:/temp/dataset/2/23_7.odb,Step-1,Increment      1: Step Time =    1.000,"PART-1-1",           627,      -4.94363,       3.89105,            0.,NA,NA,"",   417.484E-03,  -355.171E-03,   219.424E-03,   2.07850E-03
C:/temp/dataset/2/23_7.odb,Step-1,Increment      1: Step Time =    1.000,"PART-1-1",           628,      -6.66667,            5.,            0.,NA,NA,"",   420.843E-03,  -386.555E-03,   166.385E-03,   781.873E-06
C:/temp/dataset/2/23_7.odb,Step-1,Increment      1: Step Time =    1.000,"PART-1-1",           629,           10.,          -20.,            0.,NA,NA,"",   1.32434E-03,   1.28342E-03,  -326.656E-06,   86.4215E-06
C:/temp/dataset/2/23_7.odb,Step-1,Increment      1: Step Time =    1.000,"PART-1-1",           630,       8.42239,      -21.2201,            0.,NA,NA,"",   1.38029E-03,   1.32956E-03,  -370.789E-06,   141.209E-06
C:/temp/dataset/2/23_7.odb,Step-1,Increment      1: Step Time =    1.000,"PART-1-1",           631,       6.66667,          -20.,            0.,NA,NA,"",   1.77416E-03,   1.75823E-03,  -237.211E-06,   271.938E-06
C:/temp/dataset/2/23_7.odb,Step-1,Increment      1: Step Time =    1.000,"PART-1-1",           632,       9.53008,       25.0675,            0.,NA,NA,"",       1.26750,       1.15876,   513.646E-03,   9.59733E-03
