ODB Name,Step,Frame,Part Instance Name,    êﬂì_ÉâÉxÉã,X,Y,Z,Section Name,Material Name,Section Point,   U-Magnitude,          U-U1,          U-U2,       S-Mises
C:/temp/dataset/2/24_1.odb,Step-1,Increment      1: Step Time =    1.000,"PART-1-1",             1,          -15.,           20.,            0.,NA,NA,"",   512.421E-03,  -487.343E-03,   158.342E-03,   196.416E-09
C:/temp/dataset/2/24_1.odb,Step-1,Increment      1: Step Time =    1.000,"PART-1-1",             2,          -15.,           25.,            0.,NA,NA,"",   550.695E-03,  -527.487E-03,   158.183E-03,   1.05218E-06
C:/temp/dataset/2/24_1.odb,Step-1,Increment      1: Step Time =    1.000,"PART-1-1",             3,          -10.,           20.,            0.,NA,NA,"",   526.355E-03,  -487.499E-03,   198.479E-03,   4.14512E-06
C:/temp/dataset/2/24_1.odb,Step-1,Increment      1: Step Time =    1.000,"PART-1-1",             4,           -5.,           20.,            0.,NA,NA,"",   542.846E-03,  -487.573E-03,   238.651E-03,   45.0973E-06
C:/temp/dataset/2/24_1.odb,Step-1,Increment      1: Step Time =    1.000,"PART-1-1",             5,            0.,           20.,            0.,NA,NA,"",   562.125E-03,  -487.265E-03,   280.279E-03,   504.631E-06
C:/temp/dataset/2/24_1.odb,Step-1,Increment      1: Step Time =    1.000,"PART-1-1",             6,            5.,           20.,            0.,NA,NA,"",   577.719E-03,  -486.029E-03,   312.306E-03,   3.87319E-03
C:/temp/dataset/2/24_1.odb,Step-1,Increment      1: Step Time =    1.000,"PART-1-1",             7,            5.,          12.5,            0.,NA,NA,"",   493.254E-03,  -397.606E-03,   291.907E-03,   2.74041E-03
C:/temp/dataset/2/24_1.odb,Step-1,Increment      1: Step Time =    1.000,"PART-1-1",             8,            5.,            5.,            0.,NA,NA,"",   399.394E-03,  -292.462E-03,   271.995E-03,   3.35100E-03
C:/temp/dataset/2/24_1.odb,Step-1,Increment      1: Step Time =    1.000,"PART-1-1",             9,           -5.,            5.,            0.,NA,NA,"",   295.950E-03,  -284.072E-03,   83.0030E-03,   1.89187E-03
C:/temp/dataset/2/24_1.odb,Step-1,Increment      1: Step Time =    1.000,"PART-1-1",            10,          -15.,            5.,            0.,NA,NA,"",   283.139E-03,  -274.735E-03,  -68.4692E-03,   92.4680E-06
C:/temp/dataset/2/24_1.odb,Step-1,Increment      1: Step Time =    1.000,"PART-1-1",            11,          -15.,         -3.75,            0.,NA,NA,"",   154.958E-03,  -142.604E-03,  -60.6313E-03,   2.36400E-03
C:/temp/dataset/2/24_1.odb,Step-1,Increment      1: Step Time =    1.000,"PART-1-1",            12,          -15.,         -12.5,            0.,NA,NA,"",   58.4260E-03,  -45.9508E-03,  -36.0848E-03,   3.24923E-03
C:/temp/dataset/2/24_1.odb,Step-1,Increment      1: Step Time =    1.000,"PART-1-1",            13,          -15.,        -21.25,            0.,NA,NA,"",   12.3392E-03,  -3.39288E-03,  -11.8636E-03,   2.53455E-03
C:/temp/dataset/2/24_1.odb,Step-1,Increment      1: Step Time =    1.000,"PART-1-1",            14,          -15.,          -30.,            0.,NA,NA,"",            0.,  -101.419E-42,  -295.675E-42,   517.038E-06
C:/temp/dataset/2/24_1.odb,Step-1,Increment      1: Step Time =    1.000,"PART-1-1",            15,           15.,          -30.,            0.,NA,NA,"",            0.,  -75.4964E-42,   124.135E-42,   208.195E-06
C:/temp/dataset/2/24_1.odb,Step-1,Increment      1: Step Time =    1.000,"PART-1-1",            16,           15.,          -25.,            0.,NA,NA,"",   886.027E-06,  -830.000E-06,   310.070E-06,   3.90928E-06
C:/temp/dataset/2/24_1.odb,Step-1,Increment      1: Step Time =    1.000,"PART-1-1",            17,           15.,          -20.,            0.,NA,NA,"",   1.30217E-03,  -1.27126E-03,   282.031E-06,   1.19054E-06
C:/temp/dataset/2/24_1.odb,Step-1,Increment      1: Step Time =    1.000,"PART-1-1",            18,            5.,          -20.,            0.,NA,NA,"",   1.10395E-03,  -1.10301E-03,  -45.3732E-06,   54.3478E-06
C:/temp/dataset/2/24_1.odb,Step-1,Increment      1: Step Time =    1.000,"PART-1-1",            19,           -5.,          -20.,            0.,NA,NA,"",   13.0169E-03,  -3.22682E-03,   12.6106E-03,   4.92853E-03
C:/temp/dataset/2/24_1.odb,Step-1,Increment      1: Step Time =    1.000,"PART-1-1",            20,           -5.,         -12.5,            0.,NA,NA,"",   64.9026E-03,  -48.4331E-03,   43.2038E-03,   4.14255E-03
C:/temp/dataset/2/24_1.odb,Step-1,Increment      1: Step Time =    1.000,"PART-1-1",            21,           -5.,           -5.,            0.,NA,NA,"",   141.565E-03,  -120.706E-03,   73.9646E-03,   5.52966E-03
C:/temp/dataset/2/24_1.odb,Step-1,Increment      1: Step Time =    1.000,"PART-1-1",            22,            0.,           -5.,            0.,NA,NA,"",   207.547E-03,  -114.514E-03,   173.096E-03,   434.128E-06
C:/temp/dataset/2/24_1.odb,Step-1,Increment      1: Step Time =    1.000,"PART-1-1",            23,            5.,           -5.,            0.,NA,NA,"",   290.675E-03,  -116.120E-03,   266.474E-03,   627.798E-06
C:/temp/dataset/2/24_1.odb,Step-1,Increment      1: Step Time =    1.000,"PART-1-1",            24,           10.,           -5.,            0.,NA,NA,"",   374.109E-03,  -119.955E-03,   354.356E-03,   458.874E-06
C:/temp/dataset/2/24_1.odb,Step-1,Increment      1: Step Time =    1.000,"PART-1-1",            25,           15.,           -5.,            0.,NA,NA,"",   456.106E-03,  -121.331E-03,   439.672E-03,   37.4302E-06
C:/temp/dataset/2/24_1.odb,Step-1,Increment      1: Step Time =    1.000,"PART-1-1",            26,           15.,          3.75,            0.,NA,NA,"",   512.555E-03,  -271.543E-03,   434.714E-03,   1.25036E-03
C:/temp/dataset/2/24_1.odb,Step-1,Increment      1: Step Time =    1.000,"PART-1-1",            27,           15.,          12.5,            0.,NA,NA,"",   580.841E-03,  -400.577E-03,   420.612E-03,   1.80230E-03
C:/temp/dataset/2/24_1.odb,Step-1,Increment      1: Step Time =    1.000,"PART-1-1",            28,           15.,         21.25,            0.,NA,NA,"",   642.117E-03,  -496.486E-03,   407.206E-03,   1.16826E-03
C:/temp/dataset/2/24_1.odb,Step-1,Increment      1: Step Time =    1.000,"PART-1-1",            29,           15.,           30.,            0.,NA,NA,"",   700.593E-03,  -572.682E-03,   403.567E-03,   31.5082E-06
C:/temp/dataset/2/24_1.odb,Step-1,Increment      1: Step Time =    1.000,"PART-1-1",            30,           7.5,           30.,            0.,NA,NA,"",   663.150E-03,  -570.686E-03,   337.765E-03,   587.210E-06
C:/temp/dataset/2/24_1.odb,Step-1,Increment      1: Step Time =    1.000,"PART-1-1",            31,            0.,           30.,            0.,NA,NA,"",   632.279E-03,  -567.917E-03,   277.933E-03,   48.1549E-06
C:/temp/dataset/2/24_1.odb,Step-1,Increment      1: Step Time =    1.000,"PART-1-1",            32,          -7.5,           30.,            0.,NA,NA,"",   608.346E-03,  -567.849E-03,   218.248E-03,   14.3524E-06
C:/temp/dataset/2/24_1.odb,Step-1,Increment      1: Step Time =    1.000,"PART-1-1",            33,          -15.,           30.,            0.,NA,NA,"",   589.216E-03,  -567.630E-03,   158.024E-03,   195.877E-09
C:/temp/dataset/2/24_1.odb,Step-1,Increment      1: Step Time =    1.000,"PART-1-1",            34,          -15.,          22.5,            0.,NA,NA,"",   531.523E-03,  -507.415E-03,   158.262E-03,   422.434E-09
C:/temp/dataset/2/24_1.odb,Step-1,Increment      1: Step Time =    1.000,"PART-1-1",            35,         -12.5,           20.,            0.,NA,NA,"",   519.050E-03,  -487.424E-03,   178.412E-03,   496.681E-09
C:/temp/dataset/2/24_1.odb,Step-1,Increment      1: Step Time =    1.000,"PART-1-1",            36,          -7.5,           20.,            0.,NA,NA,"",   534.303E-03,  -487.563E-03,   218.547E-03,   15.5883E-06
C:/temp/dataset/2/24_1.odb,Step-1,Increment      1: Step Time =    1.000,"PART-1-1",            37,          -2.5,           20.,            0.,NA,NA,"",   552.027E-03,  -487.533E-03,   258.930E-03,   163.310E-06
C:/temp/dataset/2/24_1.odb,Step-1,Increment      1: Step Time =    1.000,"PART-1-1",            38,           2.5,           20.,            0.,NA,NA,"",   572.739E-03,  -487.822E-03,   300.100E-03,   1.65367E-03
C:/temp/dataset/2/24_1.odb,Step-1,Increment      1: Step Time =    1.000,"PART-1-1",            39,            5.,           15.,            0.,NA,NA,"",   522.034E-03,  -428.711E-03,   297.870E-03,   2.71271E-03
C:/temp/dataset/2/24_1.odb,Step-1,Increment      1: Step Time =    1.000,"PART-1-1",            40,            5.,          17.5,            0.,NA,NA,"",   549.424E-03,  -457.880E-03,   303.665E-03,   3.09834E-03
C:/temp/dataset/2/24_1.odb,Step-1,Increment      1: Step Time =    1.000,"PART-1-1",            41,            5.,           7.5,            0.,NA,NA,"",   432.032E-03,  -328.811E-03,   280.241E-03,   2.99006E-03
C:/temp/dataset/2/24_1.odb,Step-1,Increment      1: Step Time =    1.000,"PART-1-1",            42,            5.,           10.,            0.,NA,NA,"",   463.089E-03,  -364.225E-03,   285.993E-03,   2.69485E-03
C:/temp/dataset/2/24_1.odb,Step-1,Increment      1: Step Time =    1.000,"PART-1-1",            43,      -1.66667,            5.,            0.,NA,NA,"",   322.349E-03,  -289.696E-03,   141.369E-03,   1.44677E-03
C:/temp/dataset/2/24_1.odb,Step-1,Increment      1: Step Time =    1.000,"PART-1-1",            44,       1.66667,            5.,            0.,NA,NA,"",   357.184E-03,  -293.076E-03,   204.172E-03,   773.060E-06
C:/temp/dataset/2/24_1.odb,Step-1,Increment      1: Step Time =    1.000,"PART-1-1",            45,      -11.6667,            5.,            0.,NA,NA,"",   275.975E-03,  -275.322E-03,  -18.9699E-03,   395.174E-06
C:/temp/dataset/2/24_1.odb,Step-1,Increment      1: Step Time =    1.000,"PART-1-1",            46,      -8.33333,            5.,            0.,NA,NA,"",   280.036E-03,  -278.400E-03,   30.2246E-03,   1.42599E-03
C:/temp/dataset/2/24_1.odb,Step-1,Increment      1: Step Time =    1.000,"PART-1-1",            47,          -15.,  -833.333E-03,            0.,NA,NA,"",   196.837E-03,  -185.558E-03,  -65.6728E-03,   1.33356E-03
C:/temp/dataset/2/24_1.odb,Step-1,Increment      1: Step Time =    1.000,"PART-1-1",            48,          -15.,       2.08333,            0.,NA,NA,"",   240.274E-03,  -230.451E-03,  -68.0002E-03,   314.661E-06
C:/temp/dataset/2/24_1.odb,Step-1,Increment      1: Step Time =    1.000,"PART-1-1",            49,          -15.,      -9.58333,            0.,NA,NA,"",   84.7722E-03,  -72.0262E-03,  -44.7051E-03,   3.23617E-03
C:/temp/dataset/2/24_1.odb,Step-1,Increment      1: Step Time =    1.000,"PART-1-1",            50,          -15.,      -6.66667,            0.,NA,NA,"",   117.040E-03,  -104.267E-03,  -53.1659E-03,   3.02450E-03
C:/temp/dataset/2/24_1.odb,Step-1,Increment      1: Step Time =    1.000,"PART-1-1",            51,          -15.,      -18.3333,            0.,NA,NA,"",   22.5876E-03,  -11.7396E-03,  -19.2972E-03,   3.00207E-03
C:/temp/dataset/2/24_1.odb,Step-1,Increment      1: Step Time =    1.000,"PART-1-1",            52,          -15.,      -15.4167,            0.,NA,NA,"",   37.7772E-03,  -25.8553E-03,  -27.5430E-03,   3.22368E-03
C:/temp/dataset/2/24_1.odb,Step-1,Increment      1: Step Time =    1.000,"PART-1-1",            53,          -15.,      -27.0833,            0.,NA,NA,"",   2.14141E-03,   714.215E-06,  -2.01879E-03,   1.22950E-03
C:/temp/dataset/2/24_1.odb,Step-1,Increment      1: Step Time =    1.000,"PART-1-1",            54,          -15.,      -24.1667,            0.,NA,NA,"",   6.08127E-03,   222.559E-06,  -6.07720E-03,   1.87579E-03
C:/temp/dataset/2/24_1.odb,Step-1,Increment      1: Step Time =    1.000,"PART-1-1",            55,           12.,          -30.,            0.,NA,NA,"",            0.,  -200.562E-42,   154.000E-42,   106.707E-06
C:/temp/dataset/2/24_1.odb,Step-1,Increment      1: Step Time =    1.000,"PART-1-1",            56,            9.,          -30.,            0.,NA,NA,"",            0.,  -205.747E-42,  -45.7005E-42,   165.540E-06
C:/temp/dataset/2/24_1.odb,Step-1,Increment      1: Step Time =    1.000,"PART-1-1",            57,            6.,          -30.,            0.,NA,NA,"",            0.,  -413.659E-42,   372.839E-42,   250.254E-06
C:/temp/dataset/2/24_1.odb,Step-1,Increment      1: Step Time =    1.000,"PART-1-1",            58,            3.,          -30.,            0.,NA,NA,"",            0.,  -412.261E-42,   258.622E-42,   378.834E-06
C:/temp/dataset/2/24_1.odb,Step-1,Increment      1: Step Time =    1.000,"PART-1-1",            59,            0.,          -30.,            0.,NA,NA,"",            0.,  -812.457E-42,   1.21147E-39,   522.284E-06
C:/temp/dataset/2/24_1.odb,Step-1,Increment      1: Step Time =    1.000,"PART-1-1",            60,           -3.,          -30.,            0.,NA,NA,"",            0.,  -683.364E-42,   1.67012E-39,   600.865E-06
C:/temp/dataset/2/24_1.odb,Step-1,Increment      1: Step Time =    1.000,"PART-1-1",            61,           -6.,          -30.,            0.,NA,NA,"",            0.,  -57.2486E-42,   1.43439E-39,   618.608E-06
C:/temp/dataset/2/24_1.odb,Step-1,Increment      1: Step Time =    1.000,"PART-1-1",            62,           -9.,          -30.,            0.,NA,NA,"",            0.,   1.14783E-39,   1.20778E-39,   683.457E-06
C:/temp/dataset/2/24_1.odb,Step-1,Increment      1: Step Time =    1.000,"PART-1-1",            63,          -12.,          -30.,            0.,NA,NA,"",            0.,   661.379E-42,  -601.244E-42,   745.595E-06
C:/temp/dataset/2/24_1.odb,Step-1,Increment      1: Step Time =    1.000,"PART-1-1",            64,           15.,         -27.5,            0.,NA,NA,"",   553.546E-06,  -475.016E-06,   284.206E-06,   63.7183E-06
C:/temp/dataset/2/24_1.odb,Step-1,Increment      1: Step Time =    1.000,"PART-1-1",            65,           15.,         -22.5,            0.,NA,NA,"",   1.11527E-03,  -1.07731E-03,   288.489E-06,   7.39447E-06
C:/temp/dataset/2/24_1.odb,Step-1,Increment      1: Step Time =    1.000,"PART-1-1",            66,       8.33333,          -20.,            0.,NA,NA,"",   1.20995E-03,  -1.20304E-03,  -129.098E-06,   25.7248E-06
C:/temp/dataset/2/24_1.odb,Step-1,Increment      1: Step Time =    1.000,"PART-1-1",            67,       11.6667,          -20.,            0.,NA,NA,"",   1.25674E-03,  -1.25647E-03,   26.4196E-06,   10.6610E-06
C:/temp/dataset/2/24_1.odb,Step-1,Increment      1: Step Time =    1.000,"PART-1-1",            68,      -1.66667,          -20.,            0.,NA,NA,"",   3.27337E-03,  -698.100E-06,   3.19807E-03,   909.628E-06
C:/temp/dataset/2/24_1.odb,Step-1,Increment      1: Step Time =    1.000,"PART-1-1",            69,       1.66667,          -20.,            0.,NA,NA,"",   1.14712E-03,  -904.163E-06,   705.949E-06,   185.614E-06
C:/temp/dataset/2/24_1.odb,Step-1,Increment      1: Step Time =    1.000,"PART-1-1",            70,           -5.,          -15.,            0.,NA,NA,"",   45.6148E-03,  -30.4555E-03,   33.9583E-03,   4.10020E-03
C:/temp/dataset/2/24_1.odb,Step-1,Increment      1: Step Time =    1.000,"PART-1-1",            71,           -5.,         -17.5,            0.,NA,NA,"",   29.5704E-03,  -15.8454E-03,   24.9666E-03,   4.56420E-03
C:/temp/dataset/2/24_1.odb,Step-1,Increment      1: Step Time =    1.000,"PART-1-1",            72,           -5.,          -7.5,            0.,NA,NA,"",   113.187E-03,  -95.2165E-03,   61.1978E-03,   4.49241E-03
C:/temp/dataset/2/24_1.odb,Step-1,Increment      1: Step Time =    1.000,"PART-1-1",            73,           -5.,          -10.,            0.,NA,NA,"",   87.5342E-03,  -70.1452E-03,   52.3631E-03,   4.04089E-03
C:/temp/dataset/2/24_1.odb,Step-1,Increment      1: Step Time =    1.000,"PART-1-1",            74,          -2.5,           -5.,            0.,NA,NA,"",   170.536E-03,  -115.761E-03,   125.228E-03,   2.06737E-03
C:/temp/dataset/2/24_1.odb,Step-1,Increment      1: Step Time =    1.000,"PART-1-1",            75,           2.5,           -5.,            0.,NA,NA,"",   248.368E-03,  -114.693E-03,   220.300E-03,   158.834E-06
C:/temp/dataset/2/24_1.odb,Step-1,Increment      1: Step Time =    1.000,"PART-1-1",            76,           7.5,           -5.,            0.,NA,NA,"",   332.835E-03,  -118.170E-03,   311.151E-03,   708.973E-06
C:/temp/dataset/2/24_1.odb,Step-1,Increment      1: Step Time =    1.000,"PART-1-1",            77,          12.5,           -5.,            0.,NA,NA,"",   414.911E-03,  -120.935E-03,   396.896E-03,   113.906E-06
C:/temp/dataset/2/24_1.odb,Step-1,Increment      1: Step Time =    1.000,"PART-1-1",            78,           15.,   833.333E-03,            0.,NA,NA,"",   490.851E-03,  -222.179E-03,   437.688E-03,   674.824E-06
C:/temp/dataset/2/24_1.odb,Step-1,Increment      1: Step Time =    1.000,"PART-1-1",            79,           15.,      -2.08333,            0.,NA,NA,"",   471.514E-03,  -171.640E-03,   439.165E-03,   155.891E-06
C:/temp/dataset/2/24_1.odb,Step-1,Increment      1: Step Time =    1.000,"PART-1-1",            80,           15.,       9.58333,            0.,NA,NA,"",   558.250E-03,  -361.272E-03,   425.588E-03,   1.78470E-03
C:/temp/dataset/2/24_1.odb,Step-1,Increment      1: Step Time =    1.000,"PART-1-1",            81,           15.,       6.66667,            0.,NA,NA,"",   535.306E-03,  -318.207E-03,   430.462E-03,   1.63633E-03
C:/temp/dataset/2/24_1.odb,Step-1,Increment      1: Step Time =    1.000,"PART-1-1",            82,           15.,       18.3333,            0.,NA,NA,"",   622.961E-03,  -468.069E-03,   411.086E-03,   1.57656E-03
C:/temp/dataset/2/24_1.odb,Step-1,Increment      1: Step Time =    1.000,"PART-1-1",            83,           15.,       15.4167,            0.,NA,NA,"",   602.548E-03,  -436.181E-03,   415.705E-03,   1.77865E-03
C:/temp/dataset/2/24_1.odb,Step-1,Increment      1: Step Time =    1.000,"PART-1-1",            84,           15.,       27.0833,            0.,NA,NA,"",   680.189E-03,  -547.410E-03,   403.732E-03,   126.148E-06
C:/temp/dataset/2/24_1.odb,Step-1,Increment      1: Step Time =    1.000,"PART-1-1",            85,           15.,       24.1667,            0.,NA,NA,"",   660.863E-03,  -522.415E-03,   404.749E-03,   600.775E-06
C:/temp/dataset/2/24_1.odb,Step-1,Increment      1: Step Time =    1.000,"PART-1-1",            86,           10.,           30.,            0.,NA,NA,"",   675.508E-03,  -571.947E-03,   359.426E-03,   384.864E-06
C:/temp/dataset/2/24_1.odb,Step-1,Increment      1: Step Time =    1.000,"PART-1-1",            87,          12.5,           30.,            0.,NA,NA,"",   688.076E-03,  -572.562E-03,   381.604E-03,   93.1333E-06
C:/temp/dataset/2/24_1.odb,Step-1,Increment      1: Step Time =    1.000,"PART-1-1",            88,           2.5,           30.,            0.,NA,NA,"",   641.411E-03,  -568.279E-03,   297.433E-03,   267.638E-06
C:/temp/dataset/2/24_1.odb,Step-1,Increment      1: Step Time =    1.000,"PART-1-1",            89,            5.,           30.,            0.,NA,NA,"",   651.658E-03,  -569.263E-03,   317.172E-03,   494.623E-06
C:/temp/dataset/2/24_1.odb,Step-1,Increment      1: Step Time =    1.000,"PART-1-1",            90,           -5.,           30.,            0.,NA,NA,"",   615.849E-03,  -567.879E-03,   238.293E-03,   32.0688E-06
C:/temp/dataset/2/24_1.odb,Step-1,Increment      1: Step Time =    1.000,"PART-1-1",            91,          -2.5,           30.,            0.,NA,NA,"",   623.827E-03,  -567.872E-03,   258.226E-03,   33.8137E-06
C:/temp/dataset/2/24_1.odb,Step-1,Increment      1: Step Time =    1.000,"PART-1-1",            92,         -12.5,           30.,            0.,NA,NA,"",   594.991E-03,  -567.710E-03,   178.098E-03,   512.481E-09
C:/temp/dataset/2/24_1.odb,Step-1,Increment      1: Step Time =    1.000,"PART-1-1",            93,          -10.,           30.,            0.,NA,NA,"",   601.377E-03,  -567.787E-03,   198.174E-03,   4.12877E-06
C:/temp/dataset/2/24_1.odb,Step-1,Increment      1: Step Time =    1.000,"PART-1-1",            94,          -15.,          27.5,            0.,NA,NA,"",   569.927E-03,  -547.558E-03,   158.105E-03,   408.504E-09
C:/temp/dataset/2/24_1.odb,Step-1,Increment      1: Step Time =    1.000,"PART-1-1",            95,      -12.4978,       24.9766,            0.,NA,NA,"",   556.698E-03,  -527.382E-03,   178.273E-03,   2.12005E-06
C:/temp/dataset/2/24_1.odb,Step-1,Increment      1: Step Time =    1.000,"PART-1-1",            96,      -7.49872,       27.4475,            0.,NA,NA,"",   589.327E-03,  -547.386E-03,   218.345E-03,   13.5283E-06
C:/temp/dataset/2/24_1.odb,Step-1,Increment      1: Step Time =    1.000,"PART-1-1",            97,      -7.50661,       22.4446,            0.,NA,NA,"",   552.245E-03,  -507.220E-03,   218.410E-03,   15.4077E-06
C:/temp/dataset/2/24_1.odb,Step-1,Increment      1: Step Time =    1.000,"PART-1-1",            98,      -2.53392,       22.4091,            0.,NA,NA,"",   569.219E-03,  -507.148E-03,   258.478E-03,   106.757E-06
C:/temp/dataset/2/24_1.odb,Step-1,Increment      1: Step Time =    1.000,"PART-1-1",            99,  -19.7467E-03,       27.3919,            0.,NA,NA,"",   613.668E-03,  -547.150E-03,   277.875E-03,   200.851E-06
C:/temp/dataset/2/24_1.odb,Step-1,Increment      1: Step Time =    1.000,"PART-1-1",           100,       2.31326,       22.2671,            0.,NA,NA,"",   586.136E-03,  -505.083E-03,   297.399E-03,   1.31645E-03
C:/temp/dataset/2/24_1.odb,Step-1,Increment      1: Step Time =    1.000,"PART-1-1",           101,       7.89882,       27.4278,            0.,NA,NA,"",   646.274E-03,  -549.194E-03,   340.671E-03,   401.854E-06
C:/temp/dataset/2/24_1.odb,Step-1,Increment      1: Step Time =    1.000,"PART-1-1",           102,       6.74061,       20.0564,            0.,NA,NA,"",   585.586E-03,  -486.298E-03,   326.229E-03,   1.15915E-03
C:/temp/dataset/2/24_1.odb,Step-1,Increment      1: Step Time =    1.000,"PART-1-1",           103,       6.76082,       17.7755,            0.,NA,NA,"",   564.331E-03,  -462.532E-03,   323.316E-03,   2.12197E-03
C:/temp/dataset/2/24_1.odb,Step-1,Increment      1: Step Time =    1.000,"PART-1-1",           104,       7.34933,       13.0959,            0.,NA,NA,"",   520.165E-03,  -407.739E-03,   322.987E-03,   1.69888E-03
C:/temp/dataset/2/24_1.odb,Step-1,Increment      1: Step Time =    1.000,"PART-1-1",           105,       12.5251,      -2.17932,            0.,NA,NA,"",   431.704E-03,  -169.705E-03,   396.949E-03,   441.214E-06
C:/temp/dataset/2/24_1.odb,Step-1,Increment      1: Step Time =    1.000,"PART-1-1",           106,       11.8446,      -24.9441,            0.,NA,NA,"",   852.016E-06,  -851.070E-06,   40.1531E-06,   49.0026E-06
C:/temp/dataset/2/24_1.odb,Step-1,Increment      1: Step Time =    1.000,"PART-1-1",           107,       2.44158,      -2.66949,            0.,NA,NA,"",   269.444E-03,  -157.082E-03,   218.919E-03,   792.379E-06
C:/temp/dataset/2/24_1.odb,Step-1,Increment      1: Step Time =    1.000,"PART-1-1",           108,       7.46163,      -2.37632,            0.,NA,NA,"",   351.582E-03,  -164.397E-03,   310.779E-03,   408.388E-06
C:/temp/dataset/2/24_1.odb,Step-1,Increment      1: Step Time =    1.000,"PART-1-1",           109,       7.48217,       7.95809,            0.,NA,NA,"",   463.779E-03,  -337.800E-03,   317.777E-03,   1.68334E-03
C:/temp/dataset/2/24_1.odb,Step-1,Increment      1: Step Time =    1.000,"PART-1-1",           110,      -5.01446,       22.4347,            0.,NA,NA,"",   560.474E-03,  -507.228E-03,   238.435E-03,   19.7359E-06
C:/temp/dataset/2/24_1.odb,Step-1,Increment      1: Step Time =    1.000,"PART-1-1",           111,  -75.1424E-03,       22.3615,            0.,NA,NA,"",   578.183E-03,  -506.581E-03,   278.695E-03,   573.321E-06
C:/temp/dataset/2/24_1.odb,Step-1,Increment      1: Step Time =    1.000,"PART-1-1",           112,       4.50776,       22.1530,            0.,NA,NA,"",   592.220E-03,  -503.445E-03,   311.876E-03,   1.50999E-03
C:/temp/dataset/2/24_1.odb,Step-1,Increment      1: Step Time =    1.000,"PART-1-1",           113,       7.06405,       15.4904,            0.,NA,NA,"",   543.342E-03,  -436.766E-03,   323.196E-03,   1.87012E-03
C:/temp/dataset/2/24_1.odb,Step-1,Increment      1: Step Time =    1.000,"PART-1-1",           114,       7.46285,       10.5556,            0.,NA,NA,"",   493.104E-03,  -374.458E-03,   320.831E-03,   1.69969E-03
C:/temp/dataset/2/24_1.odb,Step-1,Increment      1: Step Time =    1.000,"PART-1-1",           115,      -2.89738,      -2.05905,            0.,NA,NA,"",   204.847E-03,  -168.046E-03,   117.145E-03,   1.96045E-03
C:/temp/dataset/2/24_1.odb,Step-1,Increment      1: Step Time =    1.000,"PART-1-1",           116,      -7.61206,      -10.6629,            0.,NA,NA,"",   65.7181E-03,  -60.2231E-03,   26.3068E-03,   2.35168E-03
C:/temp/dataset/2/24_1.odb,Step-1,Increment      1: Step Time =    1.000,"PART-1-1",           117,      -6.85891,      -17.7385,            0.,NA,NA,"",   19.8373E-03,  -12.2448E-03,   15.6072E-03,   2.95562E-03
C:/temp/dataset/2/24_1.odb,Step-1,Increment      1: Step Time =    1.000,"PART-1-1",           118,       11.9280,      -27.4687,            0.,NA,NA,"",   474.057E-06,  -471.378E-06,   50.3291E-06,   118.272E-06
C:/temp/dataset/2/24_1.odb,Step-1,Increment      1: Step Time =    1.000,"PART-1-1",           119,      -7.44747,      -13.1413,            0.,NA,NA,"",   45.7292E-03,  -39.8200E-03,   22.4840E-03,   2.38803E-03
C:/temp/dataset/2/24_1.odb,Step-1,Increment      1: Step Time =    1.000,"PART-1-1",           120,      -7.13169,      -15.4658,            0.,NA,NA,"",   31.0688E-03,  -24.2962E-03,   19.3641E-03,   2.67988E-03
C:/temp/dataset/2/24_1.odb,Step-1,Increment      1: Step Time =    1.000,"PART-1-1",           121,      -8.02089,      -5.87394,            0.,NA,NA,"",   114.751E-03,  -110.895E-03,   29.4984E-03,   1.23926E-03
C:/temp/dataset/2/24_1.odb,Step-1,Increment      1: Step Time =    1.000,"PART-1-1",           122,      -7.74476,      -8.18529,            0.,NA,NA,"",   89.4554E-03,  -84.5286E-03,   29.2779E-03,   2.22548E-03
C:/temp/dataset/2/24_1.odb,Step-1,Increment      1: Step Time =    1.000,"PART-1-1",           123,  -21.3834E-03,      -2.74811,            0.,NA,NA,"",   232.055E-03,  -155.807E-03,   171.970E-03,   1.17169E-03
C:/temp/dataset/2/24_1.odb,Step-1,Increment      1: Step Time =    1.000,"PART-1-1",           124,       4.94012,      -2.49525,            0.,NA,NA,"",   310.572E-03,  -161.030E-03,   265.564E-03,   537.371E-06
C:/temp/dataset/2/24_1.odb,Step-1,Increment      1: Step Time =    1.000,"PART-1-1",           125,       10.0127,      -2.27482,            0.,NA,NA,"",   392.115E-03,  -167.343E-03,   354.613E-03,   530.064E-06
C:/temp/dataset/2/24_1.odb,Step-1,Increment      1: Step Time =    1.000,"PART-1-1",           126,       10.2967,       27.4669,            0.,NA,NA,"",   658.567E-03,  -550.282E-03,   361.801E-03,   453.914E-06
C:/temp/dataset/2/24_1.odb,Step-1,Increment      1: Step Time =    1.000,"PART-1-1",           127,       12.6750,       27.3103,            0.,NA,NA,"",   669.794E-03,  -549.329E-03,   383.225E-03,   360.415E-06
C:/temp/dataset/2/24_1.odb,Step-1,Increment      1: Step Time =    1.000,"PART-1-1",           128,       2.52543,       27.2659,            0.,NA,NA,"",   622.052E-03,  -546.281E-03,   297.533E-03,   406.779E-06
C:/temp/dataset/2/24_1.odb,Step-1,Increment      1: Step Time =    1.000,"PART-1-1",           129,       5.32711,       26.8707,            0.,NA,NA,"",   630.420E-03,  -543.603E-03,   319.257E-03,   438.355E-06
C:/temp/dataset/2/24_1.odb,Step-1,Increment      1: Step Time =    1.000,"PART-1-1",           130,      -5.00948,       27.4462,            0.,NA,NA,"",   597.080E-03,  -547.458E-03,   238.315E-03,   15.1308E-06
C:/temp/dataset/2/24_1.odb,Step-1,Increment      1: Step Time =    1.000,"PART-1-1",           131,      -2.51658,       27.4324,            0.,NA,NA,"",   605.263E-03,  -547.421E-03,   258.214E-03,   45.9141E-06
C:/temp/dataset/2/24_1.odb,Step-1,Increment      1: Step Time =    1.000,"PART-1-1",           132,      -9.99211,       27.4668,            0.,NA,NA,"",   582.270E-03,  -547.455E-03,   198.320E-03,   6.15104E-06
C:/temp/dataset/2/24_1.odb,Step-1,Increment      1: Step Time =    1.000,"PART-1-1",           133,       12.5029,       21.6680,            0.,NA,NA,"",   630.664E-03,  -501.062E-03,   382.980E-03,   737.335E-06
C:/temp/dataset/2/24_1.odb,Step-1,Increment      1: Step Time =    1.000,"PART-1-1",           134,      -12.7198,      -9.27859,            0.,NA,NA,"",   76.1931E-03,  -72.8109E-03,  -22.4490E-03,   1.49251E-03
C:/temp/dataset/2/24_1.odb,Step-1,Increment      1: Step Time =    1.000,"PART-1-1",           135,      -12.2206,      -21.4876,            0.,NA,NA,"",   4.89539E-03,  -790.319E-06,  -4.83117E-03,   1.21710E-03
C:/temp/dataset/2/24_1.odb,Step-1,Increment      1: Step Time =    1.000,"PART-1-1",           136,       12.4390,       11.8581,            0.,NA,NA,"",   552.575E-03,  -393.397E-03,   388.043E-03,   597.499E-06
C:/temp/dataset/2/24_1.odb,Step-1,Increment      1: Step Time =    1.000,"PART-1-1",           137,      -12.6285,      -12.0158,            0.,NA,NA,"",   50.7241E-03,  -47.4698E-03,  -17.8762E-03,   1.42043E-03
C:/temp/dataset/2/24_1.odb,Step-1,Increment      1: Step Time =    1.000,"PART-1-1",           138,      -12.4213,      -14.8709,            0.,NA,NA,"",   29.5235E-03,  -26.6009E-03,  -12.8073E-03,   1.27119E-03
C:/temp/dataset/2/24_1.odb,Step-1,Increment      1: Step Time =    1.000,"PART-1-1",           139,       12.2989,       14.8029,            0.,NA,NA,"",   577.026E-03,  -430.218E-03,   384.541E-03,   537.463E-06
C:/temp/dataset/2/24_1.odb,Step-1,Increment      1: Step Time =    1.000,"PART-1-1",           140,       11.7182,       18.2155,            0.,NA,NA,"",   600.692E-03,  -468.150E-03,   376.386E-03,   482.603E-06
C:/temp/dataset/2/24_1.odb,Step-1,Increment      1: Step Time =    1.000,"PART-1-1",           141,      -12.3380,      -4.01281,            0.,NA,NA,"",   139.243E-03,  -137.040E-03,  -24.6761E-03,   1.41158E-03
C:/temp/dataset/2/24_1.odb,Step-1,Increment      1: Step Time =    1.000,"PART-1-1",           142,       12.5089,       6.21106,            0.,NA,NA,"",   501.701E-03,  -312.116E-03,   392.795E-03,   696.104E-06
C:/temp/dataset/2/24_1.odb,Step-1,Increment      1: Step Time =    1.000,"PART-1-1",           143,      -10.9765,      -1.21375,            0.,NA,NA,"",   178.879E-03,  -178.672E-03,  -8.59698E-03,   1.58381E-03
C:/temp/dataset/2/24_1.odb,Step-1,Increment      1: Step Time =    1.000,"PART-1-1",           144,      -11.4273,       2.02370,            0.,NA,NA,"",   230.358E-03,  -229.832E-03,  -15.5516E-03,   1.13343E-03
C:/temp/dataset/2/24_1.odb,Step-1,Increment      1: Step Time =    1.000,"PART-1-1",           145,      -12.7154,      -6.64001,            0.,NA,NA,"",   105.710E-03,  -102.440E-03,  -26.0892E-03,   1.51264E-03
C:/temp/dataset/2/24_1.odb,Step-1,Increment      1: Step Time =    1.000,"PART-1-1",           146,      -11.7762,      -18.1315,            0.,NA,NA,"",   11.4542E-03,  -9.66041E-03,  -6.15420E-03,   956.219E-06
C:/temp/dataset/2/24_1.odb,Step-1,Increment      1: Step Time =    1.000,"PART-1-1",           147,      -12.2481,      -24.4184,            0.,NA,NA,"",   3.30646E-03,   1.90235E-03,  -2.70439E-03,   1.04694E-03
C:/temp/dataset/2/24_1.odb,Step-1,Increment      1: Step Time =    1.000,"PART-1-1",           148,       12.5340,       3.42208,            0.,NA,NA,"",   476.581E-03,  -266.707E-03,   394.964E-03,   726.820E-06
C:/temp/dataset/2/24_1.odb,Step-1,Increment      1: Step Time =    1.000,"PART-1-1",           149,       12.5428,   630.306E-03,            0.,NA,NA,"",   452.816E-03,  -218.815E-03,   396.437E-03,   665.852E-06
C:/temp/dataset/2/24_1.odb,Step-1,Increment      1: Step Time =    1.000,"PART-1-1",           150,       12.5001,       9.03097,            0.,NA,NA,"",   527.581E-03,  -354.504E-03,   390.728E-03,   637.658E-06
C:/temp/dataset/2/24_1.odb,Step-1,Increment      1: Step Time =    1.000,"PART-1-1",           151,       12.7192,       24.5718,            0.,NA,NA,"",   651.448E-03,  -526.199E-03,   384.056E-03,   593.497E-06
C:/temp/dataset/2/24_1.odb,Step-1,Increment      1: Step Time =    1.000,"PART-1-1",           152,       2.66783,      -27.4286,            0.,NA,NA,"",   1.09810E-03,  -1.06537E-03,   266.115E-06,   317.469E-06
C:/temp/dataset/2/24_1.odb,Step-1,Increment      1: Step Time =    1.000,"PART-1-1",           153,       8.86089,      -27.4494,            0.,NA,NA,"",   582.626E-06,  -582.623E-06,   2.06772E-06,   144.693E-06
C:/temp/dataset/2/24_1.odb,Step-1,Increment      1: Step Time =    1.000,"PART-1-1",           154,       5.76511,      -27.4328,            0.,NA,NA,"",   804.897E-06,  -803.319E-06,   50.3737E-06,   210.375E-06
C:/temp/dataset/2/24_1.odb,Step-1,Increment      1: Step Time =    1.000,"PART-1-1",           155,  -414.647E-03,      -27.4330,            0.,NA,NA,"",   1.39790E-03,  -1.15007E-03,   794.645E-06,   538.134E-06
C:/temp/dataset/2/24_1.odb,Step-1,Increment      1: Step Time =    1.000,"PART-1-1",           156,      -3.42691,      -27.4460,            0.,NA,NA,"",   1.61704E-03,  -614.680E-06,   1.49565E-03,   858.813E-06
C:/temp/dataset/2/24_1.odb,Step-1,Increment      1: Step Time =    1.000,"PART-1-1",           157,      -6.36574,      -27.4272,            0.,NA,NA,"",   1.71265E-03,   616.822E-06,   1.59772E-03,   959.016E-06
C:/temp/dataset/2/24_1.odb,Step-1,Increment      1: Step Time =    1.000,"PART-1-1",           158,       10.5238,       25.0033,            0.,NA,NA,"",   642.512E-03,  -529.692E-03,   363.660E-03,   619.979E-06
C:/temp/dataset/2/24_1.odb,Step-1,Increment      1: Step Time =    1.000,"PART-1-1",           159,       6.26912,       22.1485,            0.,NA,NA,"",   599.438E-03,  -504.109E-03,   324.346E-03,   1.33180E-03
C:/temp/dataset/2/24_1.odb,Step-1,Increment      1: Step Time =    1.000,"PART-1-1",           160,      -5.96402,      -2.70245,            0.,NA,NA,"",   168.465E-03,  -156.744E-03,   61.7402E-03,   1.95557E-03
C:/temp/dataset/2/24_1.odb,Step-1,Increment      1: Step Time =    1.000,"PART-1-1",           161,      -12.5033,       22.4816,            0.,NA,NA,"",   537.769E-03,  -507.348E-03,   178.306E-03,   2.02161E-06
C:/temp/dataset/2/24_1.odb,Step-1,Increment      1: Step Time =    1.000,"PART-1-1",           162,      -2.53325,       24.9024,            0.,NA,NA,"",   587.034E-03,  -527.161E-03,   258.284E-03,   75.3606E-06
C:/temp/dataset/2/24_1.odb,Step-1,Increment      1: Step Time =    1.000,"PART-1-1",           163,       4.43197,       24.4161,            0.,NA,NA,"",   608.575E-03,  -522.632E-03,   311.800E-03,   746.495E-06
C:/temp/dataset/2/24_1.odb,Step-1,Increment      1: Step Time =    1.000,"PART-1-1",           164,      -10.2797,      -8.84555,            0.,NA,NA,"",   76.4780E-03,  -76.4474E-03,   2.16281E-03,   245.131E-06
C:/temp/dataset/2/24_1.odb,Step-1,Increment      1: Step Time =    1.000,"PART-1-1",           165,       2.21534,  -332.134E-03,            0.,NA,NA,"",   291.898E-03,  -197.956E-03,   214.518E-03,   1.33397E-03
C:/temp/dataset/2/24_1.odb,Step-1,Increment      1: Step Time =    1.000,"PART-1-1",           166,  -74.2209E-03,       24.8536,            0.,NA,NA,"",   595.398E-03,  -526.604E-03,   277.827E-03,   315.854E-06
C:/temp/dataset/2/24_1.odb,Step-1,Increment      1: Step Time =    1.000,"PART-1-1",           167,       2.30693,       24.7164,            0.,NA,NA,"",   602.854E-03,  -525.146E-03,   296.065E-03,   646.456E-06
C:/temp/dataset/2/24_1.odb,Step-1,Increment      1: Step Time =    1.000,"PART-1-1",           168,       9.79368,       13.9045,            0.,NA,NA,"",   548.839E-03,  -419.244E-03,   354.203E-03,   594.306E-06
C:/temp/dataset/2/24_1.odb,Step-1,Increment      1: Step Time =    1.000,"PART-1-1",           169,       9.30777,       16.4521,            0.,NA,NA,"",   569.278E-03,  -449.151E-03,   349.771E-03,   677.418E-06
C:/temp/dataset/2/24_1.odb,Step-1,Increment      1: Step Time =    1.000,"PART-1-1",           170,      -2.35985,       1.11806,            0.,NA,NA,"",   255.573E-03,  -221.493E-03,   127.510E-03,   1.18770E-03
C:/temp/dataset/2/24_1.odb,Step-1,Increment      1: Step Time =    1.000,"PART-1-1",           171,      -9.94133,      -13.9778,            0.,NA,NA,"",   32.2558E-03,  -32.0750E-03,   3.41035E-03,   562.815E-06
C:/temp/dataset/2/24_1.odb,Step-1,Increment      1: Step Time =    1.000,"PART-1-1",           172,       4.80988,   33.7751E-03,            0.,NA,NA,"",   334.195E-03,  -205.318E-03,   263.687E-03,   968.707E-06
C:/temp/dataset/2/24_1.odb,Step-1,Increment      1: Step Time =    1.000,"PART-1-1",           173,       9.94126,       11.1894,            0.,NA,NA,"",   523.227E-03,  -384.410E-03,   354.959E-03,   522.925E-06
C:/temp/dataset/2/24_1.odb,Step-1,Increment      1: Step Time =    1.000,"PART-1-1",           174,       7.43598,   226.782E-03,            0.,NA,NA,"",   375.410E-03,  -210.253E-03,   311.008E-03,   698.922E-06
C:/temp/dataset/2/24_1.odb,Step-1,Increment      1: Step Time =    1.000,"PART-1-1",           175,      -7.50368,       24.9336,            0.,NA,NA,"",   570.659E-03,  -527.225E-03,   218.372E-03,   14.8081E-06
C:/temp/dataset/2/24_1.odb,Step-1,Increment      1: Step Time =    1.000,"PART-1-1",           176,      -10.1536,      -11.3797,            0.,NA,NA,"",   52.3813E-03,  -52.3061E-03,   2.80597E-03,   393.413E-06
C:/temp/dataset/2/24_1.odb,Step-1,Increment      1: Step Time =    1.000,"PART-1-1",           177,       6.92724,       24.6415,            0.,NA,NA,"",   621.302E-03,  -525.465E-03,   331.515E-03,   641.708E-06
C:/temp/dataset/2/24_1.odb,Step-1,Increment      1: Step Time =    1.000,"PART-1-1",           178,      -9.99868,       24.9580,            0.,NA,NA,"",   563.387E-03,  -527.321E-03,   198.338E-03,   6.71910E-06
C:/temp/dataset/2/24_1.odb,Step-1,Increment      1: Step Time =    1.000,"PART-1-1",           179,       8.37028,       18.0705,            0.,NA,NA,"",   577.761E-03,  -466.661E-03,   340.640E-03,   862.301E-06
C:/temp/dataset/2/24_1.odb,Step-1,Increment      1: Step Time =    1.000,"PART-1-1",           180,      -10.4068,      -6.54987,            0.,NA,NA,"",   102.484E-03,  -102.481E-03,   661.143E-06,   592.080E-06
C:/temp/dataset/2/24_1.odb,Step-1,Increment      1: Step Time =    1.000,"PART-1-1",           181,      -8.52723,      -17.8680,            0.,NA,NA,"",   13.1548E-03,  -10.3494E-03,   8.12028E-03,   1.18715E-03
C:/temp/dataset/2/24_1.odb,Step-1,Increment      1: Step Time =    1.000,"PART-1-1",           182,       9.99063,       8.47585,            0.,NA,NA,"",   495.937E-03,  -346.536E-03,   354.776E-03,   380.557E-06
C:/temp/dataset/2/24_1.odb,Step-1,Increment      1: Step Time =    1.000,"PART-1-1",           183,      -6.87511,      -22.3968,            0.,NA,NA,"",   7.12056E-03,  -370.450E-06,   7.11092E-03,   1.99142E-03
C:/temp/dataset/2/24_1.odb,Step-1,Increment      1: Step Time =    1.000,"PART-1-1",           184,       7.48189,       5.34092,            0.,NA,NA,"",   433.603E-03,  -298.088E-03,   314.889E-03,   982.518E-06
C:/temp/dataset/2/24_1.odb,Step-1,Increment      1: Step Time =    1.000,"PART-1-1",           185,       10.0207,   425.902E-03,            0.,NA,NA,"",   414.759E-03,  -214.844E-03,   354.778E-03,   689.021E-06
C:/temp/dataset/2/24_1.odb,Step-1,Increment      1: Step Time =    1.000,"PART-1-1",           186,      -8.86720,      -3.63325,            0.,NA,NA,"",   142.940E-03,  -141.586E-03,   19.6281E-03,   1.39586E-03
C:/temp/dataset/2/24_1.odb,Step-1,Increment      1: Step Time =    1.000,"PART-1-1",           187,       10.0155,       5.77118,            0.,NA,NA,"",   468.106E-03,  -305.380E-03,   354.776E-03,   473.378E-06
C:/temp/dataset/2/24_1.odb,Step-1,Increment      1: Step Time =    1.000,"PART-1-1",           188,       9.07540,       20.2179,            0.,NA,NA,"",   599.916E-03,  -488.051E-03,   348.863E-03,   714.756E-06
C:/temp/dataset/2/24_1.odb,Step-1,Increment      1: Step Time =    1.000,"PART-1-1",           189,       5.51479,      -24.9218,            0.,NA,NA,"",   1.22804E-03,  -1.22800E-03,   10.0129E-06,   148.502E-06
C:/temp/dataset/2/24_1.odb,Step-1,Increment      1: Step Time =    1.000,"PART-1-1",           190,       2.33502,      -24.9114,            0.,NA,NA,"",   1.69194E-03,  -1.61895E-03,   491.605E-06,   250.442E-06
C:/temp/dataset/2/24_1.odb,Step-1,Increment      1: Step Time =    1.000,"PART-1-1",           191,      -3.83494,      -24.9465,            0.,NA,NA,"",   3.87663E-03,  -1.28169E-03,   3.65862E-03,   1.20445E-03
C:/temp/dataset/2/24_1.odb,Step-1,Increment      1: Step Time =    1.000,"PART-1-1",           192,       8.68706,      -24.9229,            0.,NA,NA,"",   978.795E-06,  -977.001E-06,  -59.2256E-06,   89.0208E-06
C:/temp/dataset/2/24_1.odb,Step-1,Increment      1: Step Time =    1.000,"PART-1-1",           193,  -793.545E-03,      -24.9263,            0.,NA,NA,"",   2.59348E-03,  -1.88916E-03,   1.77686E-03,   681.492E-06
C:/temp/dataset/2/24_1.odb,Step-1,Increment      1: Step Time =    1.000,"PART-1-1",           194,      -10.0041,       22.4687,            0.,NA,NA,"",   544.729E-03,  -507.327E-03,   198.366E-03,   6.10576E-06
C:/temp/dataset/2/24_1.odb,Step-1,Increment      1: Step Time =    1.000,"PART-1-1",           195,       7.76291,       22.5689,            0.,NA,NA,"",   610.289E-03,  -508.487E-03,   337.482E-03,   894.577E-06
C:/temp/dataset/2/24_1.odb,Step-1,Increment      1: Step Time =    1.000,"PART-1-1",           196,       10.0314,       3.09975,            0.,NA,NA,"",   440.805E-03,  -261.273E-03,   355.029E-03,   718.235E-06
C:/temp/dataset/2/24_1.odb,Step-1,Increment      1: Step Time =    1.000,"PART-1-1",           197,       7.45157,       2.78517,            0.,NA,NA,"",   403.452E-03,  -254.988E-03,   312.657E-03,   1.13574E-03
C:/temp/dataset/2/24_1.odb,Step-1,Increment      1: Step Time =    1.000,"PART-1-1",           198,       1.23926,       2.17480,            0.,NA,NA,"",   310.555E-03,  -241.279E-03,   195.522E-03,   1.35915E-03
C:/temp/dataset/2/24_1.odb,Step-1,Increment      1: Step Time =    1.000,"PART-1-1",           199,       5.89388,       23.8379,            0.,NA,NA,"",   610.476E-03,  -518.238E-03,   322.660E-03,   824.859E-06
C:/temp/dataset/2/24_1.odb,Step-1,Increment      1: Step Time =    1.000,"PART-1-1",           200,       4.70825,       2.52712,            0.,NA,NA,"",   362.058E-03,  -248.696E-03,   263.127E-03,   1.66592E-03
C:/temp/dataset/2/24_1.odb,Step-1,Increment      1: Step Time =    1.000,"PART-1-1",           201,      -6.67563,      -24.8783,            0.,NA,NA,"",   4.04996E-03,   582.823E-06,   4.00780E-03,   1.37783E-03
C:/temp/dataset/2/24_1.odb,Step-1,Increment      1: Step Time =    1.000,"PART-1-1",           202,      -1.93740,       2.90022,            0.,NA,NA,"",   286.308E-03,  -252.119E-03,   135.675E-03,   1.00055E-03
C:/temp/dataset/2/24_1.odb,Step-1,Increment      1: Step Time =    1.000,"PART-1-1",           203,      -4.27328,      -22.5070,            0.,NA,NA,"",   6.63827E-03,  -2.13679E-03,   6.28496E-03,   1.97316E-03
C:/temp/dataset/2/24_1.odb,Step-1,Increment      1: Step Time =    1.000,"PART-1-1",           204,      -7.29195,  -216.826E-03,            0.,NA,NA,"",   200.721E-03,  -195.916E-03,   43.6572E-03,   1.21630E-03
C:/temp/dataset/2/24_1.odb,Step-1,Increment      1: Step Time =    1.000,"PART-1-1",           205,      -4.39370,   432.763E-03,            0.,NA,NA,"",   227.637E-03,  -208.712E-03,   90.8744E-03,   1.17124E-03
C:/temp/dataset/2/24_1.odb,Step-1,Increment      1: Step Time =    1.000,"PART-1-1",           206,      -1.20581,      -22.4416,            0.,NA,NA,"",   2.93107E-03,  -1.93407E-03,   2.20240E-03,   855.839E-06
C:/temp/dataset/2/24_1.odb,Step-1,Increment      1: Step Time =    1.000,"PART-1-1",           207,      -4.88725,       2.78210,            0.,NA,NA,"",   261.021E-03,  -247.236E-03,   83.7047E-03,   1.04310E-03
C:/temp/dataset/2/24_1.odb,Step-1,Increment      1: Step Time =    1.000,"PART-1-1",           208,      -8.02678,       2.39768,            0.,NA,NA,"",   240.171E-03,  -237.788E-03,   33.7488E-03,   1.17081E-03
C:/temp/dataset/2/24_1.odb,Step-1,Increment      1: Step Time =    1.000,"PART-1-1",           209,       8.51144,      -22.4401,            0.,NA,NA,"",   1.15931E-03,  -1.15284E-03,  -122.302E-06,   35.7660E-06
C:/temp/dataset/2/24_1.odb,Step-1,Increment      1: Step Time =    1.000,"PART-1-1",           210,       5.25488,      -22.4306,            0.,NA,NA,"",   1.28327E-03,  -1.28132E-03,  -70.6950E-06,   68.3958E-06
C:/temp/dataset/2/24_1.odb,Step-1,Increment      1: Step Time =    1.000,"PART-1-1",           211,       2.00226,      -22.4217,            0.,NA,NA,"",   1.66128E-03,  -1.58395E-03,   500.960E-06,   230.374E-06
C:/temp/dataset/2/24_1.odb,Step-1,Increment      1: Step Time =    1.000,"PART-1-1",           212,      -9.28570,      -27.3600,            0.,NA,NA,"",   1.80255E-03,   1.70435E-03,   586.827E-06,   692.478E-06
C:/temp/dataset/2/24_1.odb,Step-1,Increment      1: Step Time =    1.000,"PART-1-1",           213,       11.7596,      -22.4488,            0.,NA,NA,"",   1.09168E-03,  -1.09126E-03,   29.9774E-06,   8.74027E-06
C:/temp/dataset/2/24_1.odb,Step-1,Increment      1: Step Time =    1.000,"PART-1-1",           214,      -12.4952,       27.4851,            0.,NA,NA,"",   575.795E-03,  -547.520E-03,   178.217E-03,   2.04200E-06
C:/temp/dataset/2/24_1.odb,Step-1,Increment      1: Step Time =    1.000,"PART-1-1",           215,      -12.1608,      -27.2494,            0.,NA,NA,"",   2.04230E-03,   1.73822E-03,  -1.07217E-03,   857.651E-06
C:/temp/dataset/2/24_1.odb,Step-1,Increment      1: Step Time =    1.000,"PART-1-1",           216,      -6.92277,      -20.0189,            0.,NA,NA,"",   11.1760E-03,  -3.31306E-03,   10.6737E-03,   1.71517E-03
C:/temp/dataset/2/24_1.odb,Step-1,Increment      1: Step Time =    1.000,"PART-1-1",           217,       10.3403,       22.5364,            0.,NA,NA,"",   624.285E-03,  -508.806E-03,   361.730E-03,   721.795E-06
C:/temp/dataset/2/24_1.odb,Step-1,Increment      1: Step Time =    1.000,"PART-1-1",           218,      -9.38591,      -16.3373,            0.,NA,NA,"",   18.4303E-03,  -17.6230E-03,   5.39517E-03,   816.709E-06
C:/temp/dataset/2/24_1.odb,Step-1,Increment      1: Step Time =    1.000,"PART-1-1",           219,      -9.56004,      -22.0160,            0.,NA,NA,"",   2.32434E-03,   485.027E-06,   2.27317E-03,   1.02079E-03
C:/temp/dataset/2/24_1.odb,Step-1,Increment      1: Step Time =    1.000,"PART-1-1",           220,      -9.49058,      -24.6874,            0.,NA,NA,"",   2.44953E-03,   2.01818E-03,   1.38822E-03,   956.342E-06
C:/temp/dataset/2/24_1.odb,Step-1,Increment      1: Step Time =    1.000,"PART-1-1",           221,  -968.003E-03,   33.9082E-03,            0.,NA,NA,"",   254.976E-03,  -203.644E-03,   153.434E-03,   1.21895E-03
C:/temp/dataset/2/24_1.odb,Step-1,Increment      1: Step Time =    1.000,"PART-1-1",           222,   333.674E-03,      -1.00763,            0.,NA,NA,"",   257.722E-03,  -186.007E-03,   178.386E-03,   1.36772E-03
C:/temp/dataset/2/24_1.odb,Step-1,Increment      1: Step Time =    1.000,"PART-1-1",           223,      -10.5623,      -4.72446,            0.,NA,NA,"",   126.341E-03,  -126.328E-03,  -1.85356E-03,   1.05456E-03
C:/temp/dataset/2/24_1.odb,Step-1,Increment      1: Step Time =    1.000,"PART-1-1",           224,      -5.01319,       24.9269,            0.,NA,NA,"",   578.659E-03,  -527.280E-03,   238.372E-03,   22.5564E-06
C:/temp/dataset/2/24_1.odb,Step-1,Increment      1: Step Time =    1.000,"PART-1-1",           225,      -9.24174,      -19.5473,            0.,NA,NA,"",   5.94892E-03,  -4.25015E-03,   4.16244E-03,   829.734E-06
C:/temp/dataset/2/24_1.odb,Step-1,Increment      1: Step Time =    1.000,"PART-1-1",           226,       8.53639,       25.1316,            0.,NA,NA,"",   632.923E-03,  -530.222E-03,   345.626E-03,   581.059E-06
C:/temp/dataset/2/24_1.odb,Step-1,Increment      1: Step Time =    1.000,"PART-1-1",           227,       8.85572,       23.3093,            0.,NA,NA,"",   621.536E-03,  -515.079E-03,   347.851E-03,   732.541E-06
C:/temp/dataset/2/24_1.odb,Step-1,Increment      1: Step Time =    1.000,"PART-1-1",           228,      -13.7516,       22.4908,            0.,NA,NA,"",   534.561E-03,  -507.381E-03,   168.284E-03,   1.13574E-06
C:/temp/dataset/2/24_1.odb,Step-1,Increment      1: Step Time =    1.000,"PART-1-1",           229,          -15.,         21.25,            0.,NA,NA,"",   521.963E-03,  -497.379E-03,   158.302E-03,   174.563E-09
C:/temp/dataset/2/24_1.odb,Step-1,Increment      1: Step Time =    1.000,"PART-1-1",           230,        -13.75,           20.,            0.,NA,NA,"",   515.649E-03,  -487.384E-03,   168.377E-03,   222.717E-09
C:/temp/dataset/2/24_1.odb,Step-1,Increment      1: Step Time =    1.000,"PART-1-1",           231,      -12.5016,       21.2408,            0.,NA,NA,"",   528.397E-03,  -497.385E-03,   178.359E-03,   1.09778E-06
C:/temp/dataset/2/24_1.odb,Step-1,Increment      1: Step Time =    1.000,"PART-1-1",           232,      -9.99605,       28.7334,            0.,NA,NA,"",   591.812E-03,  -557.619E-03,   198.248E-03,   3.84420E-06
C:/temp/dataset/2/24_1.odb,Step-1,Increment      1: Step Time =    1.000,"PART-1-1",           233,        -11.25,           30.,            0.,NA,NA,"",   598.109E-03,  -567.750E-03,   188.135E-03,   2.33440E-06
C:/temp/dataset/2/24_1.odb,Step-1,Increment      1: Step Time =    1.000,"PART-1-1",           234,      -12.4976,       28.7426,            0.,NA,NA,"",   585.384E-03,  -557.615E-03,   178.157E-03,   1.07568E-06
C:/temp/dataset/2/24_1.odb,Step-1,Increment      1: Step Time =    1.000,"PART-1-1",           235,      -11.2437,       27.4760,            0.,NA,NA,"",   578.954E-03,  -547.488E-03,   188.268E-03,   3.91808E-06
C:/temp/dataset/2/24_1.odb,Step-1,Increment      1: Step Time =    1.000,"PART-1-1",           236,      -8.74541,       27.4572,            0.,NA,NA,"",   585.723E-03,  -547.420E-03,   208.333E-03,   9.32012E-06
C:/temp/dataset/2/24_1.odb,Step-1,Increment      1: Step Time =    1.000,"PART-1-1",           237,      -7.49936,       28.7238,            0.,NA,NA,"",   598.821E-03,  -557.613E-03,   218.300E-03,   9.89262E-06
C:/temp/dataset/2/24_1.odb,Step-1,Increment      1: Step Time =    1.000,"PART-1-1",           238,         -8.75,           30.,            0.,NA,NA,"",   604.791E-03,  -567.821E-03,   208.212E-03,   8.89851E-06
C:/temp/dataset/2/24_1.odb,Step-1,Increment      1: Step Time =    1.000,"PART-1-1",           239,      -10.0020,       21.2344,            0.,NA,NA,"",   535.527E-03,  -497.412E-03,   198.421E-03,   3.83578E-06
C:/temp/dataset/2/24_1.odb,Step-1,Increment      1: Step Time =    1.000,"PART-1-1",           240,      -11.2537,       22.4752,            0.,NA,NA,"",   541.167E-03,  -507.337E-03,   188.336E-03,   3.93135E-06
C:/temp/dataset/2/24_1.odb,Step-1,Increment      1: Step Time =    1.000,"PART-1-1",           241,        -11.25,           20.,            0.,NA,NA,"",   522.620E-03,  -487.463E-03,   188.446E-03,   2.44637E-06
C:/temp/dataset/2/24_1.odb,Step-1,Increment      1: Step Time =    1.000,"PART-1-1",           242,      -6.25410,       27.4469,            0.,NA,NA,"",   593.135E-03,  -547.423E-03,   228.337E-03,   13.1720E-06
C:/temp/dataset/2/24_1.odb,Step-1,Increment      1: Step Time =    1.000,"PART-1-1",           243,      -7.50120,       26.1906,            0.,NA,NA,"",   579.985E-03,  -537.309E-03,   218.360E-03,   11.7978E-06
C:/temp/dataset/2/24_1.odb,Step-1,Increment      1: Step Time =    1.000,"PART-1-1",           244,      -6.25844,       24.9303,            0.,NA,NA,"",   574.585E-03,  -527.252E-03,   228.371E-03,   16.4206E-06
C:/temp/dataset/2/24_1.odb,Step-1,Increment      1: Step Time =    1.000,"PART-1-1",           245,      -5.01133,       26.1865,            0.,NA,NA,"",   587.865E-03,  -537.379E-03,   238.347E-03,   14.7114E-06
C:/temp/dataset/2/24_1.odb,Step-1,Increment      1: Step Time =    1.000,"PART-1-1",           246,       1.11906,       22.3143,            0.,NA,NA,"",   582.253E-03,  -505.903E-03,   288.237E-03,   743.707E-06
C:/temp/dataset/2/24_1.odb,Step-1,Increment      1: Step Time =    1.000,"PART-1-1",           247,  -37.5712E-03,       21.1808,            0.,NA,NA,"",   570.486E-03,  -497.302E-03,   279.543E-03,   578.056E-06
C:/temp/dataset/2/24_1.odb,Step-1,Increment      1: Step Time =    1.000,"PART-1-1",           248,          1.25,           20.,            0.,NA,NA,"",   567.935E-03,  -487.623E-03,   291.161E-03,   942.690E-06
C:/temp/dataset/2/24_1.odb,Step-1,Increment      1: Step Time =    1.000,"PART-1-1",           249,       2.40663,       21.1336,            0.,NA,NA,"",   578.883E-03,  -495.916E-03,   298.618E-03,   1.15337E-03
C:/temp/dataset/2/24_1.odb,Step-1,Increment      1: Step Time =    1.000,"PART-1-1",           250,  -46.9838E-03,       26.1228,            0.,NA,NA,"",   604.496E-03,  -536.886E-03,   277.793E-03,   234.401E-06
C:/temp/dataset/2/24_1.odb,Step-1,Increment      1: Step Time =    1.000,"PART-1-1",           251,       1.11635,       24.7850,            0.,NA,NA,"",   599.149E-03,  -525.882E-03,   287.103E-03,   465.101E-06
C:/temp/dataset/2/24_1.odb,Step-1,Increment      1: Step Time =    1.000,"PART-1-1",           252,       2.41618,       25.9912,            0.,NA,NA,"",   612.412E-03,  -535.727E-03,   296.724E-03,   485.364E-06
C:/temp/dataset/2/24_1.odb,Step-1,Increment      1: Step Time =    1.000,"PART-1-1",           253,       1.25284,       27.3289,            0.,NA,NA,"",   617.775E-03,  -546.685E-03,   287.719E-03,   294.537E-06
C:/temp/dataset/2/24_1.odb,Step-1,Increment      1: Step Time =    1.000,"PART-1-1",           254,       11.4216,       22.1022,            0.,NA,NA,"",   627.411E-03,  -505.032E-03,   372.274E-03,   670.000E-06
C:/temp/dataset/2/24_1.odb,Step-1,Increment      1: Step Time =    1.000,"PART-1-1",           255,       9.70783,       21.3771,            0.,NA,NA,"",   612.297E-03,  -498.583E-03,   355.418E-03,   674.551E-06
C:/temp/dataset/2/24_1.odb,Step-1,Increment      1: Step Time =    1.000,"PART-1-1",           256,       10.3968,       19.2167,            0.,NA,NA,"",   600.068E-03,  -478.412E-03,   362.221E-03,   445.200E-06
C:/temp/dataset/2/24_1.odb,Step-1,Increment      1: Step Time =    1.000,"PART-1-1",           257,       12.1105,       19.9418,            0.,NA,NA,"",   616.176E-03,  -485.197E-03,   379.812E-03,   620.714E-06
C:/temp/dataset/2/24_1.odb,Step-1,Increment      1: Step Time =    1.000,"PART-1-1",           258,       11.6215,       24.7876,            0.,NA,NA,"",   646.960E-03,  -528.013E-03,   373.845E-03,   573.976E-06
C:/temp/dataset/2/24_1.odb,Step-1,Increment      1: Step Time =    1.000,"PART-1-1",           259,       12.6971,       25.9410,            0.,NA,NA,"",   660.546E-03,  -537.758E-03,   383.585E-03,   466.134E-06
C:/temp/dataset/2/24_1.odb,Step-1,Increment      1: Step Time =    1.000,"PART-1-1",           260,       11.4859,       27.3886,            0.,NA,NA,"",   664.158E-03,  -549.855E-03,   372.512E-03,   394.883E-06
C:/temp/dataset/2/24_1.odb,Step-1,Increment      1: Step Time =    1.000,"PART-1-1",           261,       10.4103,       26.2351,            0.,NA,NA,"",   650.482E-03,  -539.964E-03,   362.719E-03,   525.908E-06
C:/temp/dataset/2/24_1.odb,Step-1,Increment      1: Step Time =    1.000,"PART-1-1",           262,       5.88041,       17.6377,            0.,NA,NA,"",   557.327E-03,  -460.449E-03,   314.007E-03,   2.46599E-03
C:/temp/dataset/2/24_1.odb,Step-1,Increment      1: Step Time =    1.000,"PART-1-1",           263,       6.75071,       18.9160,            0.,NA,NA,"",   575.755E-03,  -475.174E-03,   325.121E-03,   1.47006E-03
C:/temp/dataset/2/24_1.odb,Step-1,Increment      1: Step Time =    1.000,"PART-1-1",           264,       5.87030,       20.0282,            0.,NA,NA,"",   581.398E-03,  -486.342E-03,   318.583E-03,   2.36137E-03
C:/temp/dataset/2/24_1.odb,Step-1,Increment      1: Step Time =    1.000,"PART-1-1",           265,            5.,         18.75,            0.,NA,NA,"",   563.145E-03,  -471.650E-03,   307.699E-03,   3.82805E-03
C:/temp/dataset/2/24_1.odb,Step-1,Increment      1: Step Time =    1.000,"PART-1-1",           266,       12.3690,       13.3305,            0.,NA,NA,"",   564.946E-03,  -412.286E-03,   386.243E-03,   569.970E-06
C:/temp/dataset/2/24_1.odb,Step-1,Increment      1: Step Time =    1.000,"PART-1-1",           267,       13.7195,       12.1790,            0.,NA,NA,"",   566.897E-03,  -397.182E-03,   404.499E-03,   1.19841E-03
C:/temp/dataset/2/24_1.odb,Step-1,Increment      1: Step Time =    1.000,"PART-1-1",           268,           15.,       13.9583,            0.,NA,NA,"",   591.836E-03,  -418.839E-03,   418.143E-03,   1.78352E-03
C:/temp/dataset/2/24_1.odb,Step-1,Increment      1: Step Time =    1.000,"PART-1-1",           269,       13.6495,       15.1098,            0.,NA,NA,"",   589.999E-03,  -433.407E-03,   400.321E-03,   1.15243E-03
C:/temp/dataset/2/24_1.odb,Step-1,Increment      1: Step Time =    1.000,"PART-1-1",           270,       12.5214,       4.81657,            0.,NA,NA,"",   489.036E-03,  -289.803E-03,   393.917E-03,   696.931E-06
C:/temp/dataset/2/24_1.odb,Step-1,Increment      1: Step Time =    1.000,"PART-1-1",           271,       13.7670,       3.58604,            0.,NA,NA,"",   494.424E-03,  -269.234E-03,   414.690E-03,   905.437E-06
C:/temp/dataset/2/24_1.odb,Step-1,Increment      1: Step Time =    1.000,"PART-1-1",           272,           15.,       5.20833,            0.,NA,NA,"",   523.862E-03,  -295.290E-03,   432.706E-03,   1.45002E-03
C:/temp/dataset/2/24_1.odb,Step-1,Increment      1: Step Time =    1.000,"PART-1-1",           273,       13.7545,       6.43886,            0.,NA,NA,"",   518.507E-03,  -315.303E-03,   411.623E-03,   1.13450E-03
C:/temp/dataset/2/24_1.odb,Step-1,Increment      1: Step Time =    1.000,"PART-1-1",           274,       13.7625,      -2.13133,            0.,NA,NA,"",   451.428E-03,  -170.702E-03,   417.909E-03,   258.122E-06
C:/temp/dataset/2/24_1.odb,Step-1,Increment      1: Step Time =    1.000,"PART-1-1",           275,       12.5125,      -3.58966,            0.,NA,NA,"",   422.670E-03,  -145.162E-03,   396.960E-03,   245.982E-06
C:/temp/dataset/2/24_1.odb,Step-1,Increment      1: Step Time =    1.000,"PART-1-1",           276,         13.75,           -5.,            0.,NA,NA,"",   435.437E-03,  -121.161E-03,   418.241E-03,   46.5065E-06
C:/temp/dataset/2/24_1.odb,Step-1,Increment      1: Step Time =    1.000,"PART-1-1",           277,           15.,      -3.54167,            0.,NA,NA,"",   463.222E-03,  -146.421E-03,   439.472E-03,   56.8825E-06
C:/temp/dataset/2/24_1.odb,Step-1,Increment      1: Step Time =    1.000,"PART-1-1",           278,      -9.21387,      -6.21191,            0.,NA,NA,"",   107.581E-03,  -106.581E-03,   14.6303E-03,   694.650E-06
C:/temp/dataset/2/24_1.odb,Step-1,Increment      1: Step Time =    1.000,"PART-1-1",           279,      -8.44405,      -4.75360,            0.,NA,NA,"",   127.829E-03,  -125.372E-03,   24.9423E-03,   1.15264E-03
C:/temp/dataset/2/24_1.odb,Step-1,Increment      1: Step Time =    1.000,"PART-1-1",           280,      -9.71477,      -4.17886,            0.,NA,NA,"",   134.063E-03,  -133.785E-03,   8.64088E-03,   1.15010E-03
C:/temp/dataset/2/24_1.odb,Step-1,Increment      1: Step Time =    1.000,"PART-1-1",           281,      -10.4846,      -5.63717,            0.,NA,NA,"",   114.118E-03,  -114.117E-03,  -532.452E-06,   821.517E-06
C:/temp/dataset/2/24_1.odb,Step-1,Increment      1: Step Time =    1.000,"PART-1-1",           282,      -5.84282,   107.969E-03,            0.,NA,NA,"",   212.862E-03,  -202.203E-03,   66.5155E-03,   980.451E-06
C:/temp/dataset/2/24_1.odb,Step-1,Increment      1: Step Time =    1.000,"PART-1-1",           283,      -4.64047,       1.60743,            0.,NA,NA,"",   244.105E-03,  -227.957E-03,   87.3092E-03,   1.00059E-03
C:/temp/dataset/2/24_1.odb,Step-1,Increment      1: Step Time =    1.000,"PART-1-1",           284,      -6.45702,       2.58989,            0.,NA,NA,"",   249.262E-03,  -242.413E-03,   58.0296E-03,   999.845E-06
C:/temp/dataset/2/24_1.odb,Step-1,Increment      1: Step Time =    1.000,"PART-1-1",           285,      -7.65937,       1.09043,            0.,NA,NA,"",   220.365E-03,  -216.926E-03,   38.7791E-03,   1.13410E-03
C:/temp/dataset/2/24_1.odb,Step-1,Increment      1: Step Time =    1.000,"PART-1-1",           286,      -6.51044,      -5.43697,            0.,NA,NA,"",   125.829E-03,  -115.639E-03,   49.6058E-03,   2.81383E-03
C:/temp/dataset/2/24_1.odb,Step-1,Increment      1: Step Time =    1.000,"PART-1-1",           287,      -5.48201,      -3.85122,            0.,NA,NA,"",   154.219E-03,  -138.709E-03,   67.4035E-03,   2.84676E-03
C:/temp/dataset/2/24_1.odb,Step-1,Increment      1: Step Time =    1.000,"PART-1-1",           288,      -7.41561,      -3.16785,            0.,NA,NA,"",   153.811E-03,  -148.624E-03,   39.6103E-03,   1.53867E-03
C:/temp/dataset/2/24_1.odb,Step-1,Increment      1: Step Time =    1.000,"PART-1-1",           289,      -12.6742,      -10.6472,            0.,NA,NA,"",   62.7539E-03,  -59.4467E-03,  -20.1031E-03,   1.46180E-03
C:/temp/dataset/2/24_1.odb,Step-1,Increment      1: Step Time =    1.000,"PART-1-1",           290,      -11.3911,      -11.6978,            0.,NA,NA,"",   50.2119E-03,  -49.6034E-03,  -7.79360E-03,   517.630E-06
C:/temp/dataset/2/24_1.odb,Step-1,Increment      1: Step Time =    1.000,"PART-1-1",           291,      -10.2167,      -10.1126,            0.,NA,NA,"",   63.9185E-03,  -63.8677E-03,   2.54764E-03,   338.394E-06
C:/temp/dataset/2/24_1.odb,Step-1,Increment      1: Step Time =    1.000,"PART-1-1",           292,      -11.4997,      -9.06207,            0.,NA,NA,"",   75.1252E-03,  -74.4175E-03,  -10.2872E-03,   686.756E-06
C:/temp/dataset/2/24_1.odb,Step-1,Increment      1: Step Time =    1.000,"PART-1-1",           293,      -13.7107,      -15.1438,            0.,NA,NA,"",   33.0102E-03,  -25.9190E-03,  -20.4420E-03,   2.24208E-03
C:/temp/dataset/2/24_1.odb,Step-1,Increment      1: Step Time =    1.000,"PART-1-1",           294,      -12.5249,      -13.4434,            0.,NA,NA,"",   39.3783E-03,  -36.3116E-03,  -15.2354E-03,   1.35166E-03
C:/temp/dataset/2/24_1.odb,Step-1,Increment      1: Step Time =    1.000,"PART-1-1",           295,      -13.8143,      -12.2579,            0.,NA,NA,"",   53.8145E-03,  -46.4479E-03,  -27.1771E-03,   2.33382E-03
C:/temp/dataset/2/24_1.odb,Step-1,Increment      1: Step Time =    1.000,"PART-1-1",           296,          -15.,      -13.9583,            0.,NA,NA,"",   47.4085E-03,  -35.1620E-03,  -31.7994E-03,   3.22705E-03
C:/temp/dataset/2/24_1.odb,Step-1,Increment      1: Step Time =    1.000,"PART-1-1",           297,      -12.0988,      -16.5012,            0.,NA,NA,"",   19.4580E-03,  -17.1581E-03,  -9.17690E-03,   1.09077E-03
C:/temp/dataset/2/24_1.odb,Step-1,Increment      1: Step Time =    1.000,"PART-1-1",           298,      -10.5811,      -17.2344,            0.,NA,NA,"",   13.1416E-03,  -13.1027E-03,  -1.00949E-03,   221.998E-06
C:/temp/dataset/2/24_1.odb,Step-1,Increment      1: Step Time =    1.000,"PART-1-1",           299,      -9.66362,      -15.1575,            0.,NA,NA,"",   24.8311E-03,  -24.4063E-03,   4.57306E-03,   688.781E-06
C:/temp/dataset/2/24_1.odb,Step-1,Increment      1: Step Time =    1.000,"PART-1-1",           300,      -11.1813,      -14.4243,            0.,NA,NA,"",   29.4516E-03,  -29.0122E-03,  -5.06857E-03,   361.116E-06
C:/temp/dataset/2/24_1.odb,Step-1,Increment      1: Step Time =    1.000,"PART-1-1",           301,      -10.5090,      -18.8394,            0.,NA,NA,"",   6.64629E-03,  -6.62747E-03,  -499.741E-06,   506.540E-06
C:/temp/dataset/2/24_1.odb,Step-1,Increment      1: Step Time =    1.000,"PART-1-1",           302,      -8.88448,      -18.7076,            0.,NA,NA,"",   9.22416E-03,  -6.98840E-03,   6.02059E-03,   884.792E-06
C:/temp/dataset/2/24_1.odb,Step-1,Increment      1: Step Time =    1.000,"PART-1-1",           303,      -8.95657,      -17.1026,            0.,NA,NA,"",   15.4992E-03,  -13.8415E-03,   6.97406E-03,   1.04338E-03
C:/temp/dataset/2/24_1.odb,Step-1,Increment      1: Step Time =    1.000,"PART-1-1",           304,      -8.08225,      -19.7831,            0.,NA,NA,"",   8.69330E-03,  -3.71757E-03,   7.85831E-03,   1.17204E-03
C:/temp/dataset/2/24_1.odb,Step-1,Increment      1: Step Time =    1.000,"PART-1-1",           305,      -6.89084,      -18.8787,            0.,NA,NA,"",   14.3531E-03,  -6.74984E-03,   12.6669E-03,   2.13441E-03
C:/temp/dataset/2/24_1.odb,Step-1,Increment      1: Step Time =    1.000,"PART-1-1",           306,      -7.69307,      -17.8032,            0.,NA,NA,"",   16.1794E-03,  -11.1159E-03,   11.7562E-03,   2.04380E-03
C:/temp/dataset/2/24_1.odb,Step-1,Increment      1: Step Time =    1.000,"PART-1-1",           307,       7.10093,      -24.9223,            0.,NA,NA,"",   1.08609E-03,  -1.08449E-03,  -58.9048E-06,   120.622E-06
C:/temp/dataset/2/24_1.odb,Step-1,Increment      1: Step Time =    1.000,"PART-1-1",           308,       8.59925,      -23.6815,            0.,NA,NA,"",   1.08812E-03,  -1.08387E-03,  -96.1030E-06,   60.8373E-06
C:/temp/dataset/2/24_1.odb,Step-1,Increment      1: Step Time =    1.000,"PART-1-1",           309,       6.88316,      -22.4353,            0.,NA,NA,"",   1.21326E-03,  -1.20631E-03,  -129.698E-06,   49.6637E-06
C:/temp/dataset/2/24_1.odb,Step-1,Increment      1: Step Time =    1.000,"PART-1-1",           310,       5.38484,      -23.6762,            0.,NA,NA,"",   1.30459E-03,  -1.30423E-03,  -30.5529E-06,   103.982E-06
C:/temp/dataset/2/24_1.odb,Step-1,Increment      1: Step Time =    1.000,"PART-1-1",           311,       13.3798,      -22.4744,            0.,NA,NA,"",   1.09295E-03,  -1.08197E-03,   154.547E-06,   4.89631E-06
C:/temp/dataset/2/24_1.odb,Step-1,Increment      1: Step Time =    1.000,"PART-1-1",           312,           15.,        -21.25,            0.,NA,NA,"",   1.20806E-03,  -1.17422E-03,   283.922E-06,   3.24299E-06
C:/temp/dataset/2/24_1.odb,Step-1,Increment      1: Step Time =    1.000,"PART-1-1",           313,       13.3333,          -20.,            0.,NA,NA,"",   1.27689E-03,  -1.26790E-03,   151.286E-06,   5.13912E-06
C:/temp/dataset/2/24_1.odb,Step-1,Increment      1: Step Time =    1.000,"PART-1-1",           314,       11.7131,      -21.2244,            0.,NA,NA,"",   1.17614E-03,  -1.17583E-03,   27.1208E-06,   2.23289E-06
C:/temp/dataset/2/24_1.odb,Step-1,Increment      1: Step Time =    1.000,"PART-1-1",           315,      -2.14863,       2.00914,            0.,NA,NA,"",   270.791E-03,  -236.661E-03,   131.602E-03,   1.08141E-03
C:/temp/dataset/2/24_1.odb,Step-1,Increment      1: Step Time =    1.000,"PART-1-1",           316,      -1.66393,   575.985E-03,            0.,NA,NA,"",   254.818E-03,  -212.631E-03,   140.428E-03,   1.20032E-03
C:/temp/dataset/2/24_1.odb,Step-1,Increment      1: Step Time =    1.000,"PART-1-1",           317,   135.628E-03,       1.10435,            0.,NA,NA,"",   282.542E-03,  -222.304E-03,   174.388E-03,   1.20674E-03
C:/temp/dataset/2/24_1.odb,Step-1,Increment      1: Step Time =    1.000,"PART-1-1",           318,  -349.073E-03,       2.53751,            0.,NA,NA,"",   297.079E-03,  -246.850E-03,   165.290E-03,   1.07643E-03
C:/temp/dataset/2/24_1.odb,Step-1,Increment      1: Step Time =    1.000,"PART-1-1",           319,   156.145E-03,      -1.87787,            0.,NA,NA,"",   244.746E-03,  -170.982E-03,   175.117E-03,   1.27108E-03
C:/temp/dataset/2/24_1.odb,Step-1,Increment      1: Step Time =    1.000,"PART-1-1",           320,       1.21010,      -2.70880,            0.,NA,NA,"",   250.304E-03,  -156.299E-03,   195.507E-03,   875.249E-06
C:/temp/dataset/2/24_1.odb,Step-1,Increment      1: Step Time =    1.000,"PART-1-1",           321,       2.32846,      -1.50081,            0.,NA,NA,"",   280.215E-03,  -177.677E-03,   216.682E-03,   1.02573E-03
C:/temp/dataset/2/24_1.odb,Step-1,Increment      1: Step Time =    1.000,"PART-1-1",           322,       1.27451,  -669.883E-03,            0.,NA,NA,"",   274.633E-03,  -191.948E-03,   196.416E-03,   1.33704E-03
C:/temp/dataset/2/24_1.odb,Step-1,Increment      1: Step Time =    1.000,"PART-1-1",           323,       4.87500,      -1.23074,            0.,NA,NA,"",   321.827E-03,  -183.272E-03,   264.545E-03,   743.437E-06
C:/temp/dataset/2/24_1.odb,Step-1,Increment      1: Step Time =    1.000,"PART-1-1",           324,       6.20088,      -2.43579,            0.,NA,NA,"",   331.146E-03,  -162.697E-03,   288.423E-03,   397.802E-06
C:/temp/dataset/2/24_1.odb,Step-1,Increment      1: Step Time =    1.000,"PART-1-1",           325,       7.44880,      -1.07477,            0.,NA,NA,"",   362.883E-03,  -187.333E-03,   310.790E-03,   542.630E-06
C:/temp/dataset/2/24_1.odb,Step-1,Increment      1: Step Time =    1.000,"PART-1-1",           326,       6.12293,   130.279E-03,            0.,NA,NA,"",   354.875E-03,  -207.753E-03,   287.707E-03,   744.806E-06
C:/temp/dataset/2/24_1.odb,Step-1,Increment      1: Step Time =    1.000,"PART-1-1",           327,          8.75,           -5.,            0.,NA,NA,"",   353.574E-03,  -119.130E-03,   332.900E-03,   589.299E-06
C:/temp/dataset/2/24_1.odb,Step-1,Increment      1: Step Time =    1.000,"PART-1-1",           328,       10.0063,      -3.63741,            0.,NA,NA,"",   382.440E-03,  -143.475E-03,   354.507E-03,   437.350E-06
C:/temp/dataset/2/24_1.odb,Step-1,Increment      1: Step Time =    1.000,"PART-1-1",           329,       8.73716,      -2.32557,            0.,NA,NA,"",   371.941E-03,  -165.909E-03,   332.888E-03,   434.513E-06
C:/temp/dataset/2/24_1.odb,Step-1,Increment      1: Step Time =    1.000,"PART-1-1",           330,       7.48081,      -3.68816,            0.,NA,NA,"",   341.554E-03,  -141.248E-03,   310.979E-03,   539.978E-06
C:/temp/dataset/2/24_1.odb,Step-1,Increment      1: Step Time =    1.000,"PART-1-1",           331,       6.24109,       7.72904,            0.,NA,NA,"",   447.786E-03,  -333.620E-03,   298.681E-03,   2.25202E-03
C:/temp/dataset/2/24_1.odb,Step-1,Increment      1: Step Time =    1.000,"PART-1-1",           332,            5.,          6.25,            0.,NA,NA,"",   415.565E-03,  -310.344E-03,   276.370E-03,   3.56147E-03
C:/temp/dataset/2/24_1.odb,Step-1,Increment      1: Step Time =    1.000,"PART-1-1",           333,       6.24095,       5.17046,            0.,NA,NA,"",   417.140E-03,  -295.486E-03,   294.439E-03,   2.07883E-03
C:/temp/dataset/2/24_1.odb,Step-1,Increment      1: Step Time =    1.000,"PART-1-1",           334,       7.48203,       6.64950,            0.,NA,NA,"",   448.750E-03,  -318.632E-03,   315.992E-03,   1.18174E-03
C:/temp/dataset/2/24_1.odb,Step-1,Increment      1: Step Time =    1.000,"PART-1-1",           335,       7.34508,       23.6052,            0.,NA,NA,"",   615.734E-03,  -516.965E-03,   334.479E-03,   754.107E-06
C:/temp/dataset/2/24_1.odb,Step-1,Increment      1: Step Time =    1.000,"PART-1-1",           336,       6.41056,       24.2397,            0.,NA,NA,"",   615.853E-03,  -521.846E-03,   327.035E-03,   701.561E-06
C:/temp/dataset/2/24_1.odb,Step-1,Increment      1: Step Time =    1.000,"PART-1-1",           337,       6.08150,       22.9932,            0.,NA,NA,"",   605.005E-03,  -511.180E-03,   323.615E-03,   1.01647E-03
C:/temp/dataset/2/24_1.odb,Step-1,Increment      1: Step Time =    1.000,"PART-1-1",           338,       7.01602,       22.3587,            0.,NA,NA,"",   604.796E-03,  -506.341E-03,   330.751E-03,   1.03615E-03
C:/temp/dataset/2/24_1.odb,Step-1,Increment      1: Step Time =    1.000,"PART-1-1",           339,      -12.5005,       23.7291,            0.,NA,NA,"",   547.224E-03,  -517.365E-03,   178.289E-03,   1.82836E-06
C:/temp/dataset/2/24_1.odb,Step-1,Increment      1: Step Time =    1.000,"PART-1-1",           340,      -13.7489,       24.9883,            0.,NA,NA,"",   553.613E-03,  -527.434E-03,   168.228E-03,   1.55181E-06
C:/temp/dataset/2/24_1.odb,Step-1,Increment      1: Step Time =    1.000,"PART-1-1",           341,          -15.,         23.75,            0.,NA,NA,"",   541.101E-03,  -517.451E-03,   158.222E-03,   755.562E-09
C:/temp/dataset/2/24_1.odb,Step-1,Increment      1: Step Time =    1.000,"PART-1-1",           342,      -2.52491,       26.1674,            0.,NA,NA,"",   596.129E-03,  -537.292E-03,   258.238E-03,   56.0453E-06
C:/temp/dataset/2/24_1.odb,Step-1,Increment      1: Step Time =    1.000,"PART-1-1",           343,      -1.30373,       24.8780,            0.,NA,NA,"",   591.215E-03,  -526.923E-03,   268.117E-03,   182.645E-06
C:/temp/dataset/2/24_1.odb,Step-1,Increment      1: Step Time =    1.000,"PART-1-1",           344,      -1.26817,       27.4122,            0.,NA,NA,"",   609.414E-03,  -547.280E-03,   268.085E-03,   112.842E-06
C:/temp/dataset/2/24_1.odb,Step-1,Increment      1: Step Time =    1.000,"PART-1-1",           345,       2.31009,       23.4917,            0.,NA,NA,"",   594.245E-03,  -514.968E-03,   296.538E-03,   894.977E-06
C:/temp/dataset/2/24_1.odb,Step-1,Increment      1: Step Time =    1.000,"PART-1-1",           346,       3.41051,       22.2101,            0.,NA,NA,"",   588.807E-03,  -503.950E-03,   304.512E-03,   1.19152E-03
C:/temp/dataset/2/24_1.odb,Step-1,Increment      1: Step Time =    1.000,"PART-1-1",           347,       4.46987,       23.2845,            0.,NA,NA,"",   600.416E-03,  -513.047E-03,   311.901E-03,   1.04265E-03
C:/temp/dataset/2/24_1.odb,Step-1,Increment      1: Step Time =    1.000,"PART-1-1",           348,       3.36945,       24.5662,            0.,NA,NA,"",   605.659E-03,  -523.845E-03,   303.989E-03,   661.941E-06
C:/temp/dataset/2/24_1.odb,Step-1,Increment      1: Step Time =    1.000,"PART-1-1",           349,       3.92627,       27.0683,            0.,NA,NA,"",   626.043E-03,  -544.875E-03,   308.286E-03,   412.831E-06
C:/temp/dataset/2/24_1.odb,Step-1,Increment      1: Step Time =    1.000,"PART-1-1",           350,       5.16355,       28.4353,            0.,NA,NA,"",   641.122E-03,  -556.574E-03,   318.218E-03,   431.300E-06
C:/temp/dataset/2/24_1.odb,Step-1,Increment      1: Step Time =    1.000,"PART-1-1",           351,          3.75,           30.,            0.,NA,NA,"",   646.398E-03,  -568.717E-03,   307.232E-03,   384.509E-06
C:/temp/dataset/2/24_1.odb,Step-1,Increment      1: Step Time =    1.000,"PART-1-1",           352,       2.51272,       28.6330,            0.,NA,NA,"",   631.830E-03,  -557.436E-03,   297.448E-03,   279.977E-06
C:/temp/dataset/2/24_1.odb,Step-1,Increment      1: Step Time =    1.000,"PART-1-1",           353,       11.0463,       14.3537,            0.,NA,NA,"",   563.184E-03,  -424.937E-03,   369.601E-03,   44.2324E-06
C:/temp/dataset/2/24_1.odb,Step-1,Increment      1: Step Time =    1.000,"PART-1-1",           354,       9.86747,       12.5470,            0.,NA,NA,"",   536.151E-03,  -402.194E-03,   354.539E-03,   556.718E-06
C:/temp/dataset/2/24_1.odb,Step-1,Increment      1: Step Time =    1.000,"PART-1-1",           355,       11.1901,       11.5237,            0.,NA,NA,"",   538.075E-03,  -389.084E-03,   371.670E-03,   41.9834E-06
C:/temp/dataset/2/24_1.odb,Step-1,Increment      1: Step Time =    1.000,"PART-1-1",           356,       9.55073,       15.1783,            0.,NA,NA,"",   559.136E-03,  -434.506E-03,   351.906E-03,   633.989E-06
C:/temp/dataset/2/24_1.odb,Step-1,Increment      1: Step Time =    1.000,"PART-1-1",           357,       8.18591,       15.9712,            0.,NA,NA,"",   556.559E-03,  -443.170E-03,   336.687E-03,   1.26028E-03
C:/temp/dataset/2/24_1.odb,Step-1,Increment      1: Step Time =    1.000,"PART-1-1",           358,       7.20669,       14.2932,            0.,NA,NA,"",   531.839E-03,  -422.516E-03,   323.006E-03,   1.77729E-03
C:/temp/dataset/2/24_1.odb,Step-1,Increment      1: Step Time =    1.000,"PART-1-1",           359,       8.57151,       13.5002,            0.,NA,NA,"",   534.720E-03,  -413.693E-03,   338.796E-03,   1.14909E-03
C:/temp/dataset/2/24_1.odb,Step-1,Increment      1: Step Time =    1.000,"PART-1-1",           360,       7.44377,       1.50598,            0.,NA,NA,"",   389.000E-03,  -232.704E-03,   311.721E-03,   883.052E-06
C:/temp/dataset/2/24_1.odb,Step-1,Increment      1: Step Time =    1.000,"PART-1-1",           361,       8.72836,   326.342E-03,            0.,NA,NA,"",   395.208E-03,  -212.630E-03,   333.134E-03,   606.948E-06
C:/temp/dataset/2/24_1.odb,Step-1,Increment      1: Step Time =    1.000,"PART-1-1",           362,       10.0261,       1.76283,            0.,NA,NA,"",   427.448E-03,  -238.208E-03,   354.921E-03,   719.447E-06
C:/temp/dataset/2/24_1.odb,Step-1,Increment      1: Step Time =    1.000,"PART-1-1",           363,       8.74149,       2.94246,            0.,NA,NA,"",   422.321E-03,  -258.279E-03,   334.136E-03,   814.396E-06
C:/temp/dataset/2/24_1.odb,Step-1,Increment      1: Step Time =    1.000,"PART-1-1",           364,       12.5045,       7.62102,            0.,NA,NA,"",   514.660E-03,  -333.775E-03,   391.752E-03,   654.013E-06
C:/temp/dataset/2/24_1.odb,Step-1,Increment      1: Step Time =    1.000,"PART-1-1",           365,           15.,         8.125,            0.,NA,NA,"",   546.798E-03,  -340.210E-03,   428.072E-03,   1.71372E-03
C:/temp/dataset/2/24_1.odb,Step-1,Increment      1: Step Time =    1.000,"PART-1-1",           366,       13.7500,       9.30715,            0.,NA,NA,"",   543.042E-03,  -358.062E-03,   408.272E-03,   1.20533E-03
C:/temp/dataset/2/24_1.odb,Step-1,Increment      1: Step Time =    1.000,"PART-1-1",           367,      -1.45938,      -2.40358,            0.,NA,NA,"",   217.029E-03,  -162.173E-03,   144.228E-03,   1.42913E-03
C:/temp/dataset/2/24_1.odb,Step-1,Increment      1: Step Time =    1.000,"PART-1-1",           368,      -2.69869,      -3.52952,            0.,NA,NA,"",   187.169E-03,  -143.180E-03,   120.547E-03,   1.45057E-03
C:/temp/dataset/2/24_1.odb,Step-1,Increment      1: Step Time =    1.000,"PART-1-1",           369,         -1.25,           -5.,            0.,NA,NA,"",   188.557E-03,  -114.772E-03,   149.603E-03,   975.290E-06
C:/temp/dataset/2/24_1.odb,Step-1,Increment      1: Step Time =    1.000,"PART-1-1",           370,  -10.6917E-03,      -3.87406,            0.,NA,NA,"",   219.403E-03,  -135.392E-03,   172.646E-03,   666.201E-06
C:/temp/dataset/2/24_1.odb,Step-1,Increment      1: Step Time =    1.000,"PART-1-1",           371,      -13.3333,            5.,            0.,NA,NA,"",   278.311E-03,  -274.881E-03,  -43.5582E-03,   144.572E-06
C:/temp/dataset/2/24_1.odb,Step-1,Increment      1: Step Time =    1.000,"PART-1-1",           372,          -15.,       3.54167,            0.,NA,NA,"",   261.785E-03,  -252.707E-03,  -68.3411E-03,   130.003E-06
C:/temp/dataset/2/24_1.odb,Step-1,Increment      1: Step Time =    1.000,"PART-1-1",           373,      -13.2137,       2.05352,            0.,NA,NA,"",   233.689E-03,  -230.013E-03,  -41.2832E-03,   642.006E-06
C:/temp/dataset/2/24_1.odb,Step-1,Increment      1: Step Time =    1.000,"PART-1-1",           374,      -11.5470,       3.51185,            0.,NA,NA,"",   253.608E-03,  -253.016E-03,  -17.3146E-03,   671.635E-06
C:/temp/dataset/2/24_1.odb,Step-1,Increment      1: Step Time =    1.000,"PART-1-1",           375,          -15.,      625.E-03,            0.,NA,NA,"",   218.521E-03,  -207.942E-03,  -67.1666E-03,   823.816E-06
C:/temp/dataset/2/24_1.odb,Step-1,Increment      1: Step Time =    1.000,"PART-1-1",           376,      -12.9883,      -1.02354,            0.,NA,NA,"",   185.479E-03,  -181.903E-03,  -36.2489E-03,   1.18132E-03
C:/temp/dataset/2/24_1.odb,Step-1,Increment      1: Step Time =    1.000,"PART-1-1",           377,      -11.2019,   404.974E-03,            0.,NA,NA,"",   204.599E-03,  -204.242E-03,  -12.0810E-03,   1.35349E-03
C:/temp/dataset/2/24_1.odb,Step-1,Increment      1: Step Time =    1.000,"PART-1-1",           378,      -13.6690,      -3.88141,            0.,NA,NA,"",   145.872E-03,  -139.649E-03,  -42.1542E-03,   1.75879E-03
C:/temp/dataset/2/24_1.odb,Step-1,Increment      1: Step Time =    1.000,"PART-1-1",           379,      -11.6573,      -2.61328,            0.,NA,NA,"",   158.188E-03,  -157.274E-03,  -16.9807E-03,   1.40411E-03
C:/temp/dataset/2/24_1.odb,Step-1,Increment      1: Step Time =    1.000,"PART-1-1",           380,          -15.,      -2.29167,            0.,NA,NA,"",   175.553E-03,  -163.671E-03,  -63.4878E-03,   1.85290E-03
C:/temp/dataset/2/24_1.odb,Step-1,Increment      1: Step Time =    1.000,"PART-1-1",           381,           -5.,         -8.75,            0.,NA,NA,"",   100.086E-03,  -82.5128E-03,   56.6463E-03,   4.23153E-03
C:/temp/dataset/2/24_1.odb,Step-1,Increment      1: Step Time =    1.000,"PART-1-1",           382,      -6.37238,      -7.84264,            0.,NA,NA,"",   100.274E-03,  -89.2432E-03,   45.7225E-03,   3.21374E-03
C:/temp/dataset/2/24_1.odb,Step-1,Increment      1: Step Time =    1.000,"PART-1-1",           383,      -7.67841,      -9.42411,            0.,NA,NA,"",   77.0884E-03,  -71.8360E-03,   27.9679E-03,   2.16633E-03
C:/temp/dataset/2/24_1.odb,Step-1,Increment      1: Step Time =    1.000,"PART-1-1",           384,      -6.30603,      -10.3315,            0.,NA,NA,"",   75.7661E-03,  -64.9550E-03,   39.0045E-03,   3.21307E-03
C:/temp/dataset/2/24_1.odb,Step-1,Increment      1: Step Time =    1.000,"PART-1-1",           385,      -13.6103,      -21.3688,            0.,NA,NA,"",   8.76459E-03,  -1.85381E-03,  -8.56630E-03,   1.78911E-03
C:/temp/dataset/2/24_1.odb,Step-1,Increment      1: Step Time =    1.000,"PART-1-1",           386,          -15.,      -22.7083,            0.,NA,NA,"",   8.82892E-03,  -1.10533E-03,  -8.75946E-03,   2.19926E-03
C:/temp/dataset/2/24_1.odb,Step-1,Increment      1: Step Time =    1.000,"PART-1-1",           387,      -13.6241,      -24.2925,            0.,NA,NA,"",   4.80434E-03,   1.26288E-03,  -4.63538E-03,   1.35176E-03
C:/temp/dataset/2/24_1.odb,Step-1,Increment      1: Step Time =    1.000,"PART-1-1",           388,      -12.2343,      -22.9530,            0.,NA,NA,"",   3.83660E-03,   1.04248E-03,  -3.69226E-03,   1.12522E-03
C:/temp/dataset/2/24_1.odb,Step-1,Increment      1: Step Time =    1.000,"PART-1-1",           389,           -5.,        -16.25,            0.,NA,NA,"",   37.4330E-03,  -23.0143E-03,   29.5224E-03,   4.25294E-03
C:/temp/dataset/2/24_1.odb,Step-1,Increment      1: Step Time =    1.000,"PART-1-1",           390,      -6.06585,      -15.2329,            0.,NA,NA,"",   38.0524E-03,  -27.2305E-03,   26.5798E-03,   3.41521E-03
C:/temp/dataset/2/24_1.odb,Step-1,Increment      1: Step Time =    1.000,"PART-1-1",           391,      -6.99530,      -16.6022,            0.,NA,NA,"",   24.9904E-03,  -17.7931E-03,   17.5478E-03,   2.69734E-03
C:/temp/dataset/2/24_1.odb,Step-1,Increment      1: Step Time =    1.000,"PART-1-1",           392,      -5.92946,      -17.6192,            0.,NA,NA,"",   23.9135E-03,  -13.6893E-03,   19.6076E-03,   3.60368E-03
C:/temp/dataset/2/24_1.odb,Step-1,Increment      1: Step Time =    1.000,"PART-1-1",           393,         -13.5,          -30.,            0.,NA,NA,"",            0.,   462.538E-42,  -1.08052E-39,   566.674E-06
C:/temp/dataset/2/24_1.odb,Step-1,Increment      1: Step Time =    1.000,"PART-1-1",           394,      -12.0804,      -28.6247,            0.,NA,NA,"",   1.20829E-03,   1.11772E-03,  -459.006E-06,   781.931E-06
C:/temp/dataset/2/24_1.odb,Step-1,Increment      1: Step Time =    1.000,"PART-1-1",           395,      -13.5804,      -27.1664,            0.,NA,NA,"",   2.29842E-03,   1.34717E-03,  -1.86222E-03,   980.039E-06
C:/temp/dataset/2/24_1.odb,Step-1,Increment      1: Step Time =    1.000,"PART-1-1",           396,          -15.,      -28.5417,            0.,NA,NA,"",   797.237E-06,   210.041E-06,  -769.071E-06,   865.052E-06
C:/temp/dataset/2/24_1.odb,Step-1,Increment      1: Step Time =    1.000,"PART-1-1",           397,          13.5,          -30.,            0.,NA,NA,"",            0.,  -65.6634E-42,   150.365E-42,   141.012E-06
C:/temp/dataset/2/24_1.odb,Step-1,Increment      1: Step Time =    1.000,"PART-1-1",           398,           15.,        -28.75,            0.,NA,NA,"",   298.346E-06,  -248.292E-06,   165.413E-06,   125.566E-06
C:/temp/dataset/2/24_1.odb,Step-1,Increment      1: Step Time =    1.000,"PART-1-1",           399,       13.4640,      -27.4843,            0.,NA,NA,"",   456.704E-06,  -446.258E-06,   97.1208E-06,   73.7377E-06
C:/temp/dataset/2/24_1.odb,Step-1,Increment      1: Step Time =    1.000,"PART-1-1",           400,       11.9640,      -28.7343,            0.,NA,NA,"",   226.887E-06,  -225.341E-06,   26.4429E-06,   114.877E-06
C:/temp/dataset/2/24_1.odb,Step-1,Increment      1: Step Time =    1.000,"PART-1-1",           401,       10.2658,      -24.9335,            0.,NA,NA,"",   897.688E-06,  -897.337E-06,  -25.0982E-06,   69.6553E-06
C:/temp/dataset/2/24_1.odb,Step-1,Increment      1: Step Time =    1.000,"PART-1-1",           402,       8.77397,      -26.1861,            0.,NA,NA,"",   807.428E-06,  -807.041E-06,  -24.9968E-06,   115.226E-06
C:/temp/dataset/2/24_1.odb,Step-1,Increment      1: Step Time =    1.000,"PART-1-1",           403,       10.3945,      -27.4590,            0.,NA,NA,"",   511.775E-06,  -511.677E-06,   9.99719E-06,   122.563E-06
C:/temp/dataset/2/24_1.odb,Step-1,Increment      1: Step Time =    1.000,"PART-1-1",           404,       11.8863,      -26.2064,            0.,NA,NA,"",   678.167E-06,  -676.572E-06,   46.4932E-06,   81.1605E-06
C:/temp/dataset/2/24_1.odb,Step-1,Increment      1: Step Time =    1.000,"PART-1-1",           405,       8.93044,      -28.7247,            0.,NA,NA,"",   308.572E-06,  -308.168E-06,   15.7867E-06,   151.490E-06
C:/temp/dataset/2/24_1.odb,Step-1,Increment      1: Step Time =    1.000,"PART-1-1",           406,       7.31300,      -27.4411,            0.,NA,NA,"",   681.656E-06,  -681.500E-06,   14.5845E-06,   173.534E-06
C:/temp/dataset/2/24_1.odb,Step-1,Increment      1: Step Time =    1.000,"PART-1-1",           407,       5.88256,      -28.7164,            0.,NA,NA,"",   444.968E-06,  -442.672E-06,   45.1462E-06,   223.794E-06
C:/temp/dataset/2/24_1.odb,Step-1,Increment      1: Step Time =    1.000,"PART-1-1",           408,           7.5,          -30.,            0.,NA,NA,"",            0.,  -225.783E-42,   110.303E-42,   207.275E-06
C:/temp/dataset/2/24_1.odb,Step-1,Increment      1: Step Time =    1.000,"PART-1-1",           409,       5.63995,      -26.1773,            0.,NA,NA,"",   1.06751E-03,  -1.06685E-03,   37.6917E-06,   172.750E-06
C:/temp/dataset/2/24_1.odb,Step-1,Increment      1: Step Time =    1.000,"PART-1-1",           410,       3.92490,      -24.9166,            0.,NA,NA,"",   1.41959E-03,  -1.41066E-03,   159.012E-06,   205.707E-06
C:/temp/dataset/2/24_1.odb,Step-1,Increment      1: Step Time =    1.000,"PART-1-1",           411,       2.50142,      -26.1700,            0.,NA,NA,"",   1.45840E-03,  -1.40410E-03,   394.236E-06,   286.201E-06
C:/temp/dataset/2/24_1.odb,Step-1,Increment      1: Step Time =    1.000,"PART-1-1",           412,       4.21647,      -27.4307,            0.,NA,NA,"",   952.122E-06,  -941.819E-06,   139.686E-06,   254.699E-06
C:/temp/dataset/2/24_1.odb,Step-1,Increment      1: Step Time =    1.000,"PART-1-1",           413,       1.12659,      -27.4308,            0.,NA,NA,"",   1.27380E-03,  -1.16922E-03,   505.447E-06,   405.238E-06
C:/temp/dataset/2/24_1.odb,Step-1,Increment      1: Step Time =    1.000,"PART-1-1",           414,  -207.324E-03,      -28.7165,            0.,NA,NA,"",   764.825E-06,  -667.972E-06,   372.518E-06,   520.766E-06
C:/temp/dataset/2/24_1.odb,Step-1,Increment      1: Step Time =    1.000,"PART-1-1",           415,           1.5,          -30.,            0.,NA,NA,"",            0.,  -429.693E-42,   582.394E-42,   443.906E-06
C:/temp/dataset/2/24_1.odb,Step-1,Increment      1: Step Time =    1.000,"PART-1-1",           416,       2.83391,      -28.7143,            0.,NA,NA,"",   624.014E-06,  -605.870E-06,   149.381E-06,   342.382E-06
C:/temp/dataset/2/24_1.odb,Step-1,Increment      1: Step Time =    1.000,"PART-1-1",           417,      -1.92078,      -27.4395,            0.,NA,NA,"",   1.54010E-03,  -1.00074E-03,   1.17064E-03,   673.174E-06
C:/temp/dataset/2/24_1.odb,Step-1,Increment      1: Step Time =    1.000,"PART-1-1",           418,      -3.21345,      -28.7230,            0.,NA,NA,"",   738.320E-06,  -360.566E-06,   644.290E-06,   714.719E-06
C:/temp/dataset/2/24_1.odb,Step-1,Increment      1: Step Time =    1.000,"PART-1-1",           419,          -1.5,          -30.,            0.,NA,NA,"",            0.,  -394.083E-42,   1.04279E-39,   545.445E-06
C:/temp/dataset/2/24_1.odb,Step-1,Increment      1: Step Time =    1.000,"PART-1-1",           420,      -5.57419,      -22.4519,            0.,NA,NA,"",   7.81268E-03,  -1.37102E-03,   7.69144E-03,   1.89350E-03
C:/temp/dataset/2/24_1.odb,Step-1,Increment      1: Step Time =    1.000,"PART-1-1",           421,      -6.77537,      -23.6376,            0.,NA,NA,"",   5.43557E-03,   244.137E-06,   5.43008E-03,   1.64492E-03
C:/temp/dataset/2/24_1.odb,Step-1,Increment      1: Step Time =    1.000,"PART-1-1",           422,      -5.25528,      -24.9124,            0.,NA,NA,"",   4.14955E-03,  -455.434E-06,   4.12448E-03,   1.27241E-03
C:/temp/dataset/2/24_1.odb,Step-1,Increment      1: Step Time =    1.000,"PART-1-1",           423,      -4.05411,      -23.7268,            0.,NA,NA,"",   5.12490E-03,  -1.66076E-03,   4.84835E-03,   1.50126E-03
C:/temp/dataset/2/24_1.odb,Step-1,Increment      1: Step Time =    1.000,"PART-1-1",           424,       13.4223,      -24.9720,            0.,NA,NA,"",   852.006E-06,  -838.096E-06,   153.330E-06,   23.1267E-06
C:/temp/dataset/2/24_1.odb,Step-1,Increment      1: Step Time =    1.000,"PART-1-1",           425,           15.,        -26.25,            0.,NA,NA,"",   743.502E-06,  -674.027E-06,   313.820E-06,   28.4988E-06
C:/temp/dataset/2/24_1.odb,Step-1,Increment      1: Step Time =    1.000,"PART-1-1",           426,       11.8021,      -23.6964,            0.,NA,NA,"",   987.219E-06,  -986.538E-06,   36.6811E-06,   25.4231E-06
C:/temp/dataset/2/24_1.odb,Step-1,Increment      1: Step Time =    1.000,"PART-1-1",           427,       10.1355,      -22.4445,            0.,NA,NA,"",   1.11410E-03,  -1.11226E-03,  -63.9391E-06,   21.8530E-06
C:/temp/dataset/2/24_1.odb,Step-1,Increment      1: Step Time =    1.000,"PART-1-1",           428,      -2.31424,      -24.9364,            0.,NA,NA,"",   3.19770E-03,  -1.70760E-03,   2.70359E-03,   899.685E-06
C:/temp/dataset/2/24_1.odb,Step-1,Increment      1: Step Time =    1.000,"PART-1-1",           429,      -3.63092,      -26.1962,            0.,NA,NA,"",   2.65233E-03,  -895.705E-06,   2.49652E-03,   1.02610E-03
C:/temp/dataset/2/24_1.odb,Step-1,Increment      1: Step Time =    1.000,"PART-1-1",           430,  -604.096E-03,      -26.1796,            0.,NA,NA,"",   2.02794E-03,  -1.56630E-03,   1.28811E-03,   592.517E-06
C:/temp/dataset/2/24_1.odb,Step-1,Increment      1: Step Time =    1.000,"PART-1-1",           431,      -7.52977,      -11.9021,            0.,NA,NA,"",   55.2457E-03,  -49.5364E-03,   24.4588E-03,   2.35293E-03
C:/temp/dataset/2/24_1.odb,Step-1,Increment      1: Step Time =    1.000,"PART-1-1",           432,      -6.22373,      -12.8207,            0.,NA,NA,"",   54.6121E-03,  -43.8248E-03,   32.5864E-03,   3.26342E-03
C:/temp/dataset/2/24_1.odb,Step-1,Increment      1: Step Time =    1.000,"PART-1-1",           433,           -5.,        -11.25,            0.,NA,NA,"",   75.8163E-03,  -58.8472E-03,   47.8029E-03,   4.10757E-03
C:/temp/dataset/2/24_1.odb,Step-1,Increment      1: Step Time =    1.000,"PART-1-1",           434,      -10.0475,      -12.6788,            0.,NA,NA,"",   41.7603E-03,  -41.6374E-03,   3.20183E-03,   477.076E-06
C:/temp/dataset/2/24_1.odb,Step-1,Increment      1: Step Time =    1.000,"PART-1-1",           435,           -5.,         -6.25,            0.,NA,NA,"",   127.772E-03,  -108.643E-03,   67.2493E-03,   5.38528E-03
C:/temp/dataset/2/24_1.odb,Step-1,Increment      1: Step Time =    1.000,"PART-1-1",           436,      -7.88282,      -7.02961,            0.,NA,NA,"",   101.284E-03,  -96.7536E-03,   29.9525E-03,   1.37934E-03
C:/temp/dataset/2/24_1.odb,Step-1,Increment      1: Step Time =    1.000,"PART-1-1",           437,      -13.8577,      -6.65334,            0.,NA,NA,"",   110.473E-03,  -103.172E-03,  -39.4959E-03,   2.23565E-03
C:/temp/dataset/2/24_1.odb,Step-1,Increment      1: Step Time =    1.000,"PART-1-1",           438,      -12.5267,      -5.32641,            0.,NA,NA,"",   121.801E-03,  -119.093E-03,  -25.5406E-03,   1.41041E-03
C:/temp/dataset/2/24_1.odb,Step-1,Increment      1: Step Time =    1.000,"PART-1-1",           439,          -15.,      -5.20833,            0.,NA,NA,"",   135.359E-03,  -122.718E-03,  -57.1156E-03,   2.70674E-03
C:/temp/dataset/2/24_1.odb,Step-1,Increment      1: Step Time =    1.000,"PART-1-1",           440,          1.25,           -5.,            0.,NA,NA,"",   227.663E-03,  -114.482E-03,   196.786E-03,   158.616E-06
C:/temp/dataset/2/24_1.odb,Step-1,Increment      1: Step Time =    1.000,"PART-1-1",           441,       2.47079,      -3.83474,            0.,NA,NA,"",   258.389E-03,  -136.189E-03,   219.585E-03,   422.988E-06
C:/temp/dataset/2/24_1.odb,Step-1,Increment      1: Step Time =    1.000,"PART-1-1",           442,       3.51261,  -149.180E-03,            0.,NA,NA,"",   312.881E-03,  -201.581E-03,   239.291E-03,   1.11697E-03
C:/temp/dataset/2/24_1.odb,Step-1,Increment      1: Step Time =    1.000,"PART-1-1",           443,       3.69085,      -2.58237,            0.,NA,NA,"",   289.902E-03,  -158.975E-03,   242.425E-03,   644.105E-06
C:/temp/dataset/2/24_1.odb,Step-1,Increment      1: Step Time =    1.000,"PART-1-1",           444,       8.74868,       5.55605,            0.,NA,NA,"",   450.966E-03,  -301.774E-03,   335.117E-03,   630.356E-06
C:/temp/dataset/2/24_1.odb,Step-1,Increment      1: Step Time =    1.000,"PART-1-1",           445,       10.0030,       7.12352,            0.,NA,NA,"",   482.052E-03,  -326.383E-03,   354.751E-03,   354.792E-06
C:/temp/dataset/2/24_1.odb,Step-1,Increment      1: Step Time =    1.000,"PART-1-1",           446,       8.73640,       8.21697,            0.,NA,NA,"",   479.951E-03,  -342.339E-03,   336.388E-03,   1.01530E-03
C:/temp/dataset/2/24_1.odb,Step-1,Increment      1: Step Time =    1.000,"PART-1-1",           447,           15.,     -625.E-03,            0.,NA,NA,"",   480.778E-03,  -196.952E-03,   438.586E-03,   416.239E-06
C:/temp/dataset/2/24_1.odb,Step-1,Increment      1: Step Time =    1.000,"PART-1-1",           448,       13.7714,   731.820E-03,            0.,NA,NA,"",   471.608E-03,  -220.559E-03,   416.855E-03,   573.621E-06
C:/temp/dataset/2/24_1.odb,Step-1,Increment      1: Step Time =    1.000,"PART-1-1",           449,       12.5339,  -774.506E-03,            0.,NA,NA,"",   441.766E-03,  -194.278E-03,   396.753E-03,   542.977E-06
C:/temp/dataset/2/24_1.odb,Step-1,Increment      1: Step Time =    1.000,"PART-1-1",           450,       7.40609,       11.8257,            0.,NA,NA,"",   506.761E-03,  -391.409E-03,   321.879E-03,   1.68763E-03
C:/temp/dataset/2/24_1.odb,Step-1,Increment      1: Step Time =    1.000,"PART-1-1",           451,       8.70206,       10.8725,            0.,NA,NA,"",   508.326E-03,  -379.602E-03,   338.080E-03,   1.09653E-03
C:/temp/dataset/2/24_1.odb,Step-1,Increment      1: Step Time =    1.000,"PART-1-1",           452,       11.2454,       8.75341,            0.,NA,NA,"",   511.860E-03,  -350.653E-03,   372.885E-03,   166.418E-06
C:/temp/dataset/2/24_1.odb,Step-1,Increment      1: Step Time =    1.000,"PART-1-1",           453,       11.2622,       5.99112,            0.,NA,NA,"",   484.941E-03,  -308.840E-03,   373.879E-03,   411.233E-06
C:/temp/dataset/2/24_1.odb,Step-1,Increment      1: Step Time =    1.000,"PART-1-1",           454,       13.8596,       24.3693,            0.,NA,NA,"",   656.234E-03,  -524.371E-03,   394.561E-03,   513.640E-06
C:/temp/dataset/2/24_1.odb,Step-1,Increment      1: Step Time =    1.000,"PART-1-1",           455,       12.6110,       23.1199,            0.,NA,NA,"",   641.136E-03,  -513.813E-03,   383.473E-03,   652.663E-06
C:/temp/dataset/2/24_1.odb,Step-1,Increment      1: Step Time =    1.000,"PART-1-1",           456,       13.7514,       21.4590,            0.,NA,NA,"",   636.472E-03,  -498.881E-03,   395.239E-03,   862.900E-06
C:/temp/dataset/2/24_1.odb,Step-1,Increment      1: Step Time =    1.000,"PART-1-1",           457,           15.,       22.7083,            0.,NA,NA,"",   651.481E-03,  -509.662E-03,   405.798E-03,   883.664E-06
C:/temp/dataset/2/24_1.odb,Step-1,Increment      1: Step Time =    1.000,"PART-1-1",           458,       8.83903,       17.2613,            0.,NA,NA,"",   573.437E-03,  -457.993E-03,   345.068E-03,   798.331E-06
C:/temp/dataset/2/24_1.odb,Step-1,Increment      1: Step Time =    1.000,"PART-1-1",           459,       10.5130,       17.3338,            0.,NA,NA,"",   585.453E-03,  -458.985E-03,   363.439E-03,   234.992E-06
C:/temp/dataset/2/24_1.odb,Step-1,Increment      1: Step Time =    1.000,"PART-1-1",           460,       8.72284,       19.1442,            0.,NA,NA,"",   589.143E-03,  -477.678E-03,   344.839E-03,   666.867E-06
C:/temp/dataset/2/24_1.odb,Step-1,Increment      1: Step Time =    1.000,"PART-1-1",           461,           15.,       28.5417,            0.,NA,NA,"",   690.277E-03,  -559.984E-03,   403.608E-03,   45.9125E-06
C:/temp/dataset/2/24_1.odb,Step-1,Increment      1: Step Time =    1.000,"PART-1-1",           462,         13.75,           30.,            0.,NA,NA,"",   694.315E-03,  -572.645E-03,   392.622E-03,   37.8891E-06
C:/temp/dataset/2/24_1.odb,Step-1,Increment      1: Step Time =    1.000,"PART-1-1",           463,       12.5875,       28.6551,            0.,NA,NA,"",   678.775E-03,  -560.819E-03,   382.384E-03,   200.276E-06
C:/temp/dataset/2/24_1.odb,Step-1,Increment      1: Step Time =    1.000,"PART-1-1",           464,       13.8375,       27.1968,            0.,NA,NA,"",   675.023E-03,  -548.397E-03,   393.595E-03,   211.242E-06
C:/temp/dataset/2/24_1.odb,Step-1,Increment      1: Step Time =    1.000,"PART-1-1",           465,         11.25,           30.,            0.,NA,NA,"",   681.787E-03,  -572.329E-03,   370.504E-03,   239.193E-06
C:/temp/dataset/2/24_1.odb,Step-1,Increment      1: Step Time =    1.000,"PART-1-1",           466,       10.1484,       28.7335,            0.,NA,NA,"",   666.879E-03,  -560.982E-03,   360.593E-03,   371.188E-06
C:/temp/dataset/2/24_1.odb,Step-1,Increment      1: Step Time =    1.000,"PART-1-1",           467,       7.69941,       28.7139,            0.,NA,NA,"",   654.645E-03,  -559.913E-03,   339.202E-03,   470.160E-06
C:/temp/dataset/2/24_1.odb,Step-1,Increment      1: Step Time =    1.000,"PART-1-1",           468,       9.09777,       27.4473,            0.,NA,NA,"",   652.328E-03,  -549.770E-03,   351.120E-03,   405.036E-06
C:/temp/dataset/2/24_1.odb,Step-1,Increment      1: Step Time =    1.000,"PART-1-1",           469,          8.75,           30.,            0.,NA,NA,"",   669.253E-03,  -571.366E-03,   348.483E-03,   489.199E-06
C:/temp/dataset/2/24_1.odb,Step-1,Increment      1: Step Time =    1.000,"PART-1-1",           470,  -9.87333E-03,       28.6960,            0.,NA,NA,"",   623.013E-03,  -557.607E-03,   277.884E-03,   108.421E-06
C:/temp/dataset/2/24_1.odb,Step-1,Increment      1: Step Time =    1.000,"PART-1-1",           471,          1.25,           30.,            0.,NA,NA,"",   636.746E-03,  -568.043E-03,   287.703E-03,   150.039E-06
C:/temp/dataset/2/24_1.odb,Step-1,Increment      1: Step Time =    1.000,"PART-1-1",           472,       4.87954,       25.6434,            0.,NA,NA,"",   619.490E-03,  -533.149E-03,   315.469E-03,   570.649E-06
C:/temp/dataset/2/24_1.odb,Step-1,Increment      1: Step Time =    1.000,"PART-1-1",           473,      -5.00474,       28.7231,            0.,NA,NA,"",   606.451E-03,  -557.666E-03,   238.308E-03,   17.0755E-06
C:/temp/dataset/2/24_1.odb,Step-1,Increment      1: Step Time =    1.000,"PART-1-1",           474,         -6.25,           30.,            0.,NA,NA,"",   612.033E-03,  -567.868E-03,   228.277E-03,   22.0568E-06
C:/temp/dataset/2/24_1.odb,Step-1,Increment      1: Step Time =    1.000,"PART-1-1",           475,      -3.76303,       27.4393,            0.,NA,NA,"",   601.115E-03,  -547.442E-03,   248.288E-03,   16.6937E-06
C:/temp/dataset/2/24_1.odb,Step-1,Increment      1: Step Time =    1.000,"PART-1-1",           476,      -3.77322,       24.9147,            0.,NA,NA,"",   582.792E-03,  -527.236E-03,   248.332E-03,   34.2603E-06
C:/temp/dataset/2/24_1.odb,Step-1,Increment      1: Step Time =    1.000,"PART-1-1",           477,      -13.7476,       27.4926,            0.,NA,NA,"",   572.780E-03,  -547.539E-03,   168.160E-03,   1.12761E-06
C:/temp/dataset/2/24_1.odb,Step-1,Increment      1: Step Time =    1.000,"PART-1-1",           478,        -13.75,           30.,            0.,NA,NA,"",   592.025E-03,  -567.670E-03,   168.061E-03,   227.558E-09
C:/temp/dataset/2/24_1.odb,Step-1,Increment      1: Step Time =    1.000,"PART-1-1",           479,          -15.,         28.75,            0.,NA,NA,"",   579.565E-03,  -557.594E-03,   158.064E-03,   172.321E-09
C:/temp/dataset/2/24_1.odb,Step-1,Increment      1: Step Time =    1.000,"PART-1-1",           480,          -15.,         26.25,            0.,NA,NA,"",   560.304E-03,  -537.523E-03,   158.144E-03,   771.948E-09
C:/temp/dataset/2/24_1.odb,Step-1,Increment      1: Step Time =    1.000,"PART-1-1",           481,      -12.4965,       26.2309,            0.,NA,NA,"",   566.238E-03,  -537.451E-03,   178.245E-03,   1.84055E-06
C:/temp/dataset/2/24_1.odb,Step-1,Increment      1: Step Time =    1.000,"PART-1-1",           482,      -10.0014,       23.7134,            0.,NA,NA,"",   554.048E-03,  -517.325E-03,   198.351E-03,   5.58152E-06
C:/temp/dataset/2/24_1.odb,Step-1,Increment      1: Step Time =    1.000,"PART-1-1",           483,      -8.75535,       22.4567,            0.,NA,NA,"",   548.407E-03,  -507.272E-03,   208.387E-03,   10.4469E-06
C:/temp/dataset/2/24_1.odb,Step-1,Increment      1: Step Time =    1.000,"PART-1-1",           484,      -7.50515,       23.6891,            0.,NA,NA,"",   561.441E-03,  -517.226E-03,   218.390E-03,   12.4556E-06
C:/temp/dataset/2/24_1.odb,Step-1,Increment      1: Step Time =    1.000,"PART-1-1",           485,      -8.75118,       24.9458,            0.,NA,NA,"",   566.944E-03,  -527.271E-03,   208.355E-03,   10.2391E-06
C:/temp/dataset/2/24_1.odb,Step-1,Increment      1: Step Time =    1.000,"PART-1-1",           486,      -3.77419,       22.4219,            0.,NA,NA,"",   564.763E-03,  -507.186E-03,   248.434E-03,   27.5407E-06
C:/temp/dataset/2/24_1.odb,Step-1,Increment      1: Step Time =    1.000,"PART-1-1",           487,      -5.00723,       21.2173,            0.,NA,NA,"",   551.645E-03,  -497.405E-03,   238.537E-03,   22.0142E-06
C:/temp/dataset/2/24_1.odb,Step-1,Increment      1: Step Time =    1.000,"PART-1-1",           488,         -3.75,           20.,            0.,NA,NA,"",   547.351E-03,  -487.564E-03,   248.744E-03,   61.0599E-06
C:/temp/dataset/2/24_1.odb,Step-1,Increment      1: Step Time =    1.000,"PART-1-1",           489,      -2.51696,       21.2046,            0.,NA,NA,"",   560.585E-03,  -497.327E-03,   258.692E-03,   73.9122E-06
C:/temp/dataset/2/24_1.odb,Step-1,Increment      1: Step Time =    1.000,"PART-1-1",           490,         -8.75,           20.,            0.,NA,NA,"",   530.252E-03,  -487.534E-03,   208.513E-03,   9.59750E-06
C:/temp/dataset/2/24_1.odb,Step-1,Increment      1: Step Time =    1.000,"PART-1-1",           491,      -7.50331,       21.2223,            0.,NA,NA,"",   543.251E-03,  -497.384E-03,   218.475E-03,   11.3051E-06
C:/temp/dataset/2/24_1.odb,Step-1,Increment      1: Step Time =    1.000,"PART-1-1",           492,         -6.25,           20.,            0.,NA,NA,"",   538.499E-03,  -487.575E-03,   228.588E-03,   28.6007E-06
C:/temp/dataset/2/24_1.odb,Step-1,Increment      1: Step Time =    1.000,"PART-1-1",           493,      -6.26054,       22.4396,            0.,NA,NA,"",   556.281E-03,  -507.222E-03,   228.416E-03,   16.6139E-06
C:/temp/dataset/2/24_1.odb,Step-1,Increment      1: Step Time =    1.000,"PART-1-1",           494,         -1.25,           20.,            0.,NA,NA,"",   556.764E-03,  -487.364E-03,   269.190E-03,   58.3387E-06
C:/temp/dataset/2/24_1.odb,Step-1,Increment      1: Step Time =    1.000,"PART-1-1",           495,      -1.30453,       22.3853,            0.,NA,NA,"",   573.717E-03,  -506.955E-03,   268.605E-03,   254.832E-06
C:/temp/dataset/2/24_1.odb,Step-1,Increment      1: Step Time =    1.000,"PART-1-1",           496,         -1.25,           30.,            0.,NA,NA,"",   627.988E-03,  -567.874E-03,   268.119E-03,   10.5972E-06
C:/temp/dataset/2/24_1.odb,Step-1,Increment      1: Step Time =    1.000,"PART-1-1",           497,      -2.50829,       28.7162,            0.,NA,NA,"",   614.544E-03,  -557.662E-03,   258.219E-03,   25.7631E-06
C:/temp/dataset/2/24_1.odb,Step-1,Increment      1: Step Time =    1.000,"PART-1-1",           498,         -3.75,           30.,            0.,NA,NA,"",   619.779E-03,  -567.875E-03,   248.282E-03,   33.1602E-06
C:/temp/dataset/2/24_1.odb,Step-1,Increment      1: Step Time =    1.000,"PART-1-1",           499,          3.75,           20.,            0.,NA,NA,"",   576.696E-03,  -487.345E-03,   308.339E-03,   1.37118E-03
C:/temp/dataset/2/24_1.odb,Step-1,Increment      1: Step Time =    1.000,"PART-1-1",           500,       4.75388,       21.0765,            0.,NA,NA,"",   584.719E-03,  -494.302E-03,   312.349E-03,   2.21064E-03
C:/temp/dataset/2/24_1.odb,Step-1,Increment      1: Step Time =    1.000,"PART-1-1",           501,          6.25,           30.,            0.,NA,NA,"",   657.253E-03,  -569.943E-03,   327.333E-03,   550.460E-06
C:/temp/dataset/2/24_1.odb,Step-1,Increment      1: Step Time =    1.000,"PART-1-1",           502,       6.61296,       27.1492,            0.,NA,NA,"",   638.182E-03,  -546.382E-03,   329.761E-03,   362.389E-06
C:/temp/dataset/2/24_1.odb,Step-1,Increment      1: Step Time =    1.000,"PART-1-1",           503,            5.,         16.25,            0.,NA,NA,"",   535.687E-03,  -443.312E-03,   300.724E-03,   2.83659E-03
C:/temp/dataset/2/24_1.odb,Step-1,Increment      1: Step Time =    1.000,"PART-1-1",           504,       6.03202,       15.2452,            0.,NA,NA,"",   532.718E-03,  -432.819E-03,   310.575E-03,   2.31061E-03
C:/temp/dataset/2/24_1.odb,Step-1,Increment      1: Step Time =    1.000,"PART-1-1",           505,       6.91243,       16.6330,            0.,NA,NA,"",   553.998E-03,  -449.950E-03,   323.202E-03,   1.89593E-03
C:/temp/dataset/2/24_1.odb,Step-1,Increment      1: Step Time =    1.000,"PART-1-1",           506,            5.,         13.75,            0.,NA,NA,"",   507.850E-03,  -413.458E-03,   294.898E-03,   2.72001E-03
C:/temp/dataset/2/24_1.odb,Step-1,Increment      1: Step Time =    1.000,"PART-1-1",           507,       6.17466,       12.7979,            0.,NA,NA,"",   506.850E-03,  -402.847E-03,   307.590E-03,   2.21755E-03
C:/temp/dataset/2/24_1.odb,Step-1,Increment      1: Step Time =    1.000,"PART-1-1",           508,       12.0086,       16.5092,            0.,NA,NA,"",   589.065E-03,  -449.853E-03,   380.302E-03,   478.134E-06
C:/temp/dataset/2/24_1.odb,Step-1,Increment      1: Step Time =    1.000,"PART-1-1",           509,           15.,        16.875,            0.,NA,NA,"",   612.912E-03,  -452.582E-03,   413.318E-03,   1.67918E-03
C:/temp/dataset/2/24_1.odb,Step-1,Increment      1: Step Time =    1.000,"PART-1-1",           510,       13.3591,       18.2744,            0.,NA,NA,"",   611.944E-03,  -468.301E-03,   393.916E-03,   974.961E-06
C:/temp/dataset/2/24_1.odb,Step-1,Increment      1: Step Time =    1.000,"PART-1-1",           511,            5.,         11.25,            0.,NA,NA,"",   478.320E-03,  -381.186E-03,   288.942E-03,   2.72692E-03
C:/temp/dataset/2/24_1.odb,Step-1,Increment      1: Step Time =    1.000,"PART-1-1",           512,       6.23142,       10.2778,            0.,NA,NA,"",   478.188E-03,  -369.469E-03,   303.572E-03,   2.20961E-03
C:/temp/dataset/2/24_1.odb,Step-1,Increment      1: Step Time =    1.000,"PART-1-1",           513,            5.,          8.75,            0.,NA,NA,"",   447.578E-03,  -346.592E-03,   283.196E-03,   2.81054E-03
C:/temp/dataset/2/24_1.odb,Step-1,Increment      1: Step Time =    1.000,"PART-1-1",           514,       7.47251,       9.25684,            0.,NA,NA,"",   478.537E-03,  -356.498E-03,   319.228E-03,   1.62507E-03
C:/temp/dataset/2/24_1.odb,Step-1,Increment      1: Step Time =    1.000,"PART-1-1",           515,         11.25,           -5.,            0.,NA,NA,"",   394.504E-03,  -120.533E-03,   375.640E-03,   286.213E-06
C:/temp/dataset/2/24_1.odb,Step-1,Increment      1: Step Time =    1.000,"PART-1-1",           516,       11.2689,      -2.22707,            0.,NA,NA,"",   411.879E-03,  -168.581E-03,   375.799E-03,   471.288E-06
C:/temp/dataset/2/24_1.odb,Step-1,Increment      1: Step Time =    1.000,"PART-1-1",           517,          10.5,          -30.,            0.,NA,NA,"",            0.,  -154.331E-42,   75.7051E-42,   138.648E-06
C:/temp/dataset/2/24_1.odb,Step-1,Increment      1: Step Time =    1.000,"PART-1-1",           518,           15.,        -23.75,            0.,NA,NA,"",   1.01089E-03,  -965.088E-06,   300.842E-06,   4.33839E-06
C:/temp/dataset/2/24_1.odb,Step-1,Increment      1: Step Time =    1.000,"PART-1-1",           519,          3.75,           -5.,            0.,NA,NA,"",   269.460E-03,  -115.284E-03,   243.554E-03,   395.934E-06
C:/temp/dataset/2/24_1.odb,Step-1,Increment      1: Step Time =    1.000,"PART-1-1",           520,       4.97006,      -3.74763,            0.,NA,NA,"",   300.041E-03,  -138.736E-03,   266.039E-03,   510.904E-06
C:/temp/dataset/2/24_1.odb,Step-1,Increment      1: Step Time =    1.000,"PART-1-1",           521,       4.85412,       3.76356,            0.,NA,NA,"",   380.298E-03,  -270.288E-03,   267.528E-03,   2.04717E-03
C:/temp/dataset/2/24_1.odb,Step-1,Increment      1: Step Time =    1.000,"PART-1-1",           522,       3.33333,            5.,            0.,NA,NA,"",   376.672E-03,  -293.386E-03,   236.234E-03,   1.00269E-03
C:/temp/dataset/2/24_1.odb,Step-1,Increment      1: Step Time =    1.000,"PART-1-1",           523,       1.45296,       3.58740,            0.,NA,NA,"",   333.136E-03,  -266.466E-03,   199.940E-03,   624.949E-06
C:/temp/dataset/2/24_1.odb,Step-1,Increment      1: Step Time =    1.000,"PART-1-1",           524,       2.97375,       2.35096,            0.,NA,NA,"",   335.561E-03,  -244.685E-03,   229.631E-03,   1.36398E-03
C:/temp/dataset/2/24_1.odb,Step-1,Increment      1: Step Time =    1.000,"PART-1-1",           525,          6.25,           -5.,            0.,NA,NA,"",   311.856E-03,  -117.128E-03,   289.024E-03,   674.654E-06
C:/temp/dataset/2/24_1.odb,Step-1,Increment      1: Step Time =    1.000,"PART-1-1",           526,       12.4696,       10.4445,            0.,NA,NA,"",   540.164E-03,  -374.406E-03,   389.355E-03,   617.980E-06
C:/temp/dataset/2/24_1.odb,Step-1,Increment      1: Step Time =    1.000,"PART-1-1",           527,           15.,       11.0417,            0.,NA,NA,"",   569.623E-03,  -381.382E-03,   423.105E-03,   1.78986E-03
C:/temp/dataset/2/24_1.odb,Step-1,Increment      1: Step Time =    1.000,"PART-1-1",           528,      -5.01382,       23.6808,            0.,NA,NA,"",   569.567E-03,  -517.272E-03,   238.403E-03,   17.3775E-06
C:/temp/dataset/2/24_1.odb,Step-1,Increment      1: Step Time =    1.000,"PART-1-1",           529,      -2.53358,       23.6558,            0.,NA,NA,"",   578.123E-03,  -517.162E-03,   258.398E-03,   73.9709E-06
C:/temp/dataset/2/24_1.odb,Step-1,Increment      1: Step Time =    1.000,"PART-1-1",           530,  -74.6816E-03,       23.6075,            0.,NA,NA,"",   586.758E-03,  -516.599E-03,   278.228E-03,   364.235E-06
C:/temp/dataset/2/24_1.odb,Step-1,Increment      1: Step Time =    1.000,"PART-1-1",           531,      -6.62798,      -1.45964,            0.,NA,NA,"",   183.940E-03,  -176.189E-03,   52.8312E-03,   1.42642E-03
C:/temp/dataset/2/24_1.odb,Step-1,Increment      1: Step Time =    1.000,"PART-1-1",           532,      -4.43070,      -2.38075,            0.,NA,NA,"",   185.046E-03,  -162.775E-03,   88.0127E-03,   1.54852E-03
C:/temp/dataset/2/24_1.odb,Step-1,Increment      1: Step Time =    1.000,"PART-1-1",           533,      -3.64554,  -813.143E-03,            0.,NA,NA,"",   215.181E-03,  -188.710E-03,   103.398E-03,   1.35833E-03
C:/temp/dataset/2/24_1.odb,Step-1,Increment      1: Step Time =    1.000,"PART-1-1",           534,         -3.75,           -5.,            0.,NA,NA,"",   155.507E-03,  -118.262E-03,   100.978E-03,   3.09501E-03
C:/temp/dataset/2/24_1.odb,Step-1,Increment      1: Step Time =    1.000,"PART-1-1",           535,      -13.8599,      -9.43096,            0.,NA,NA,"",   79.6534E-03,  -72.1933E-03,  -33.6571E-03,   2.35911E-03
C:/temp/dataset/2/24_1.odb,Step-1,Increment      1: Step Time =    1.000,"PART-1-1",           536,          -15.,      -11.0417,            0.,NA,NA,"",   70.8880E-03,  -58.2471E-03,  -40.4027E-03,   3.23458E-03
C:/temp/dataset/2/24_1.odb,Step-1,Increment      1: Step Time =    1.000,"PART-1-1",           537,      -11.9984,      -19.8095,            0.,NA,NA,"",   7.04889E-03,  -4.26254E-03,  -5.61405E-03,   1.08657E-03
C:/temp/dataset/2/24_1.odb,Step-1,Increment      1: Step Time =    1.000,"PART-1-1",           538,      -13.3881,      -18.2324,            0.,NA,NA,"",   16.6093E-03,  -10.3525E-03,  -12.9882E-03,   1.94460E-03
C:/temp/dataset/2/24_1.odb,Step-1,Increment      1: Step Time =    1.000,"PART-1-1",           539,          -15.,      -19.7917,            0.,NA,NA,"",   16.8956E-03,  -6.89262E-03,  -15.4257E-03,   2.77868E-03
C:/temp/dataset/2/24_1.odb,Step-1,Increment      1: Step Time =    1.000,"PART-1-1",           540,           -5.,        -18.75,            0.,NA,NA,"",   21.4757E-03,  -9.88312E-03,   19.0664E-03,   5.34265E-03
C:/temp/dataset/2/24_1.odb,Step-1,Increment      1: Step Time =    1.000,"PART-1-1",           541,      -5.96138,      -20.0094,            0.,NA,NA,"",   12.9459E-03,  -3.01195E-03,   12.5906E-03,   3.29527E-03
C:/temp/dataset/2/24_1.odb,Step-1,Increment      1: Step Time =    1.000,"PART-1-1",           542,           -5.,        -13.75,            0.,NA,NA,"",   54.8133E-03,  -38.9476E-03,   38.5692E-03,   4.11697E-03
C:/temp/dataset/2/24_1.odb,Step-1,Increment      1: Step Time =    1.000,"PART-1-1",           543,      -7.28958,      -14.3036,            0.,NA,NA,"",   38.0129E-03,  -31.6440E-03,   21.0628E-03,   2.52010E-03
C:/temp/dataset/2/24_1.odb,Step-1,Increment      1: Step Time =    1.000,"PART-1-1",           544,      -8.88285,      -11.0213,            0.,NA,NA,"",   57.7423E-03,  -55.9701E-03,   14.1959E-03,   1.35030E-03
C:/temp/dataset/2/24_1.odb,Step-1,Increment      1: Step Time =    1.000,"PART-1-1",           545,      -9.01222,      -8.51542,            0.,NA,NA,"",   81.7279E-03,  -80.2338E-03,   15.5559E-03,   1.17539E-03
C:/temp/dataset/2/24_1.odb,Step-1,Increment      1: Step Time =    1.000,"PART-1-1",           546,      -9.13424,  -715.290E-03,            0.,NA,NA,"",   187.698E-03,  -186.953E-03,   16.6979E-03,   1.30521E-03
C:/temp/dataset/2/24_1.odb,Step-1,Increment      1: Step Time =    1.000,"PART-1-1",           547,      -9.92186,      -2.42350,            0.,NA,NA,"",   159.996E-03,  -159.891E-03,   5.77632E-03,   1.39398E-03
C:/temp/dataset/2/24_1.odb,Step-1,Increment      1: Step Time =    1.000,"PART-1-1",           548,      -12.7176,      -7.95930,            0.,NA,NA,"",   90.2600E-03,  -86.9389E-03,  -24.2589E-03,   1.49220E-03
C:/temp/dataset/2/24_1.odb,Step-1,Increment      1: Step Time =    1.000,"PART-1-1",           549,          -15.,        -8.125,            0.,NA,NA,"",   100.180E-03,  -87.3731E-03,  -49.0095E-03,   3.13321E-03
C:/temp/dataset/2/24_1.odb,Step-1,Increment      1: Step Time =    1.000,"PART-1-1",           550,       11.2818,   528.104E-03,            0.,NA,NA,"",   433.765E-03,  -216.918E-03,   375.631E-03,   630.901E-06
C:/temp/dataset/2/24_1.odb,Step-1,Increment      1: Step Time =    1.000,"PART-1-1",           551,       10.0167,  -924.457E-03,            0.,NA,NA,"",   402.893E-03,  -191.100E-03,   354.688E-03,   595.421E-06
C:/temp/dataset/2/24_1.odb,Step-1,Increment      1: Step Time =    1.000,"PART-1-1",           552,       10.4320,       23.7699,            0.,NA,NA,"",   633.437E-03,  -519.316E-03,   362.702E-03,   668.357E-06
C:/temp/dataset/2/24_1.odb,Step-1,Increment      1: Step Time =    1.000,"PART-1-1",           553,           15.,        25.625,            0.,NA,NA,"",   670.410E-03,  -534.937E-03,   404.094E-03,   363.953E-06
C:/temp/dataset/2/24_1.odb,Step-1,Increment      1: Step Time =    1.000,"PART-1-1",           554,      -9.99539,       26.2124,            0.,NA,NA,"",   572.820E-03,  -537.390E-03,   198.330E-03,   5.51668E-06
C:/temp/dataset/2/24_1.odb,Step-1,Increment      1: Step Time =    1.000,"PART-1-1",           555,          -15.,       -25.625,            0.,NA,NA,"",   3.90747E-03,   767.961E-06,  -3.83126E-03,   1.54072E-03
C:/temp/dataset/2/24_1.odb,Step-1,Increment      1: Step Time =    1.000,"PART-1-1",           556,      -12.2044,      -25.8339,            0.,NA,NA,"",   2.77131E-03,   2.08446E-03,  -1.82626E-03,   951.561E-06
C:/temp/dataset/2/24_1.odb,Step-1,Increment      1: Step Time =    1.000,"PART-1-1",           557,          -15.,       -16.875,            0.,NA,NA,"",   29.5047E-03,  -18.0512E-03,  -23.3383E-03,   3.11464E-03
C:/temp/dataset/2/24_1.odb,Step-1,Increment      1: Step Time =    1.000,"PART-1-1",           558,      -8.25880,      -15.9015,            0.,NA,NA,"",   23.9263E-03,  -20.6501E-03,   12.0846E-03,   1.72736E-03
C:/temp/dataset/2/24_1.odb,Step-1,Increment      1: Step Time =    1.000,"PART-1-1",           559,       7.56555,       17.9230,            0.,NA,NA,"",   571.210E-03,  -464.758E-03,   332.086E-03,   1.45437E-03
C:/temp/dataset/2/24_1.odb,Step-1,Increment      1: Step Time =    1.000,"PART-1-1",           560,      -9.72707,       2.21069,            0.,NA,NA,"",   233.755E-03,  -233.589E-03,   8.81060E-03,   1.11798E-03
C:/temp/dataset/2/24_1.odb,Step-1,Increment      1: Step Time =    1.000,"PART-1-1",           561,      -8.18006,       3.69884,            0.,NA,NA,"",   260.422E-03,  -258.457E-03,   31.9338E-03,   1.20646E-03
C:/temp/dataset/2/24_1.odb,Step-1,Increment      1: Step Time =    1.000,"PART-1-1",           562,          -10.,            5.,            0.,NA,NA,"",   276.553E-03,  -276.500E-03,   5.42583E-03,   916.654E-06
C:/temp/dataset/2/24_1.odb,Step-1,Increment      1: Step Time =    1.000,"PART-1-1",           563,      -10.3433,      -7.69771,            0.,NA,NA,"",   89.0036E-03,  -88.9917E-03,   1.45364E-03,   338.991E-06
C:/temp/dataset/2/24_1.odb,Step-1,Increment      1: Step Time =    1.000,"PART-1-1",           564,      -11.5611,      -6.59494,            0.,NA,NA,"",   103.132E-03,  -102.344E-03,  -12.7283E-03,   922.971E-06
C:/temp/dataset/2/24_1.odb,Step-1,Increment      1: Step Time =    1.000,"PART-1-1",           565,      -9.40089,      -20.7816,            0.,NA,NA,"",   3.41598E-03,  -1.38706E-03,   3.12170E-03,   878.200E-06
C:/temp/dataset/2/24_1.odb,Step-1,Increment      1: Step Time =    1.000,"PART-1-1",           566,      -8.21757,      -22.2064,            0.,NA,NA,"",   5.21730E-03,   337.519E-06,   5.20637E-03,   1.33142E-03
C:/temp/dataset/2/24_1.odb,Step-1,Increment      1: Step Time =    1.000,"PART-1-1",           567,      -6.89894,      -21.2078,            0.,NA,NA,"",   9.05065E-03,  -1.20000E-03,   8.97075E-03,   1.90255E-03
C:/temp/dataset/2/24_1.odb,Step-1,Increment      1: Step Time =    1.000,"PART-1-1",           568,      -9.14285,      -28.6800,            0.,NA,NA,"",   1.11032E-03,   1.07911E-03,   261.399E-06,   662.139E-06
C:/temp/dataset/2/24_1.odb,Step-1,Increment      1: Step Time =    1.000,"PART-1-1",           569,      -10.7232,      -27.3047,            0.,NA,NA,"",   1.91148E-03,   1.89925E-03,  -215.893E-06,   597.656E-06
C:/temp/dataset/2/24_1.odb,Step-1,Increment      1: Step Time =    1.000,"PART-1-1",           570,         -10.5,          -30.,            0.,NA,NA,"",            0.,   858.967E-42,  -131.492E-42,   650.622E-06
C:/temp/dataset/2/24_1.odb,Step-1,Increment      1: Step Time =    1.000,"PART-1-1",           571,      -4.89633,      -27.4366,            0.,NA,NA,"",   1.66678E-03,  -52.9084E-06,   1.66594E-03,   895.210E-06
C:/temp/dataset/2/24_1.odb,Step-1,Increment      1: Step Time =    1.000,"PART-1-1",           572,      -6.18287,      -28.7136,            0.,NA,NA,"",   773.208E-06,   372.306E-06,   677.672E-06,   763.728E-06
C:/temp/dataset/2/24_1.odb,Step-1,Increment      1: Step Time =    1.000,"PART-1-1",           573,          -4.5,          -30.,            0.,NA,NA,"",            0.,  -44.6342E-42,   1.31882E-39,   575.497E-06
C:/temp/dataset/2/24_1.odb,Step-1,Increment      1: Step Time =    1.000,"PART-1-1",           574,       12.5384,       2.02620,            0.,NA,NA,"",   464.398E-03,  -242.982E-03,   395.760E-03,   689.674E-06
C:/temp/dataset/2/24_1.odb,Step-1,Increment      1: Step Time =    1.000,"PART-1-1",           575,           15.,       2.29167,            0.,NA,NA,"",   501.486E-03,  -247.109E-03,   436.378E-03,   965.219E-06
C:/temp/dataset/2/24_1.odb,Step-1,Increment      1: Step Time =    1.000,"PART-1-1",           576,       9.96595,       9.83263,            0.,NA,NA,"",   509.641E-03,  -365.828E-03,   354.830E-03,   479.700E-06
C:/temp/dataset/2/24_1.odb,Step-1,Increment      1: Step Time =    1.000,"PART-1-1",           577,           15.,       19.7917,            0.,NA,NA,"",   632.657E-03,  -482.667E-03,   409.009E-03,   1.38215E-03
C:/temp/dataset/2/24_1.odb,Step-1,Increment      1: Step Time =    1.000,"PART-1-1",           578,       7.90800,       20.1372,            0.,NA,NA,"",   592.528E-03,  -487.166E-03,   337.282E-03,   835.272E-06
C:/temp/dataset/2/24_1.odb,Step-1,Increment      1: Step Time =    1.000,"PART-1-1",           579,       8.41916,       21.3934,            0.,NA,NA,"",   605.108E-03,  -498.562E-03,   342.917E-03,   779.112E-06
C:/temp/dataset/2/24_1.odb,Step-1,Increment      1: Step Time =    1.000,"PART-1-1",           580,       6.50486,       21.1025,            0.,NA,NA,"",   592.719E-03,  -495.578E-03,   325.144E-03,   1.27336E-03
C:/temp/dataset/2/24_1.odb,Step-1,Increment      1: Step Time =    1.000,"PART-1-1",           581,           4.5,          -30.,            0.,NA,NA,"",            0.,  -329.591E-42,   262.018E-42,   312.936E-06
C:/temp/dataset/2/24_1.odb,Step-1,Increment      1: Step Time =    1.000,"PART-1-1",           582,       3.62857,      -22.4261,            0.,NA,NA,"",   1.41256E-03,  -1.40549E-03,   141.136E-06,   112.747E-06
C:/temp/dataset/2/24_1.odb,Step-1,Increment      1: Step Time =    1.000,"PART-1-1",           583,       2.16864,      -23.6665,            0.,NA,NA,"",   1.72121E-03,  -1.64954E-03,   491.530E-06,   237.266E-06
C:/temp/dataset/2/24_1.odb,Step-1,Increment      1: Step Time =    1.000,"PART-1-1",           584,      -2.73954,      -22.4743,            0.,NA,NA,"",   5.18451E-03,  -2.54488E-03,   4.51693E-03,   1.09591E-03
C:/temp/dataset/2/24_1.odb,Step-1,Increment      1: Step Time =    1.000,"PART-1-1",           585,  -999.676E-03,      -23.6839,            0.,NA,NA,"",   2.94622E-03,  -2.08031E-03,   2.08627E-03,   672.858E-06
C:/temp/dataset/2/24_1.odb,Step-1,Increment      1: Step Time =    1.000,"PART-1-1",           586,      -7.82572,      -27.3936,            0.,NA,NA,"",   1.76338E-03,   1.25323E-03,   1.24052E-03,   769.714E-06
C:/temp/dataset/2/24_1.odb,Step-1,Increment      1: Step Time =    1.000,"PART-1-1",           587,      -6.52069,      -26.1528,            0.,NA,NA,"",   2.77346E-03,   669.204E-06,   2.69151E-03,   1.16079E-03
C:/temp/dataset/2/24_1.odb,Step-1,Increment      1: Step Time =    1.000,"PART-1-1",           588,      -8.08310,      -24.7829,            0.,NA,NA,"",   3.33191E-03,   1.43982E-03,   3.00475E-03,   1.06353E-03
C:/temp/dataset/2/24_1.odb,Step-1,Increment      1: Step Time =    1.000,"PART-1-1",           589,      -9.38814,      -26.0237,            0.,NA,NA,"",   2.26333E-03,   2.03772E-03,   985.060E-06,   822.242E-06
C:/temp/dataset/2/24_1.odb,Step-1,Increment      1: Step Time =    1.000,"PART-1-1",           590,          -7.5,          -30.,            0.,NA,NA,"",            0.,   523.508E-42,   935.438E-42,   594.616E-06
C:/temp/dataset/2/24_1.odb,Step-1,Increment      1: Step Time =    1.000,"PART-1-1",           591,       7.73182,       24.8866,            0.,NA,NA,"",   627.070E-03,  -527.876E-03,   338.472E-03,   568.250E-06
C:/temp/dataset/2/24_1.odb,Step-1,Increment      1: Step Time =    1.000,"PART-1-1",           592,       8.21760,       26.2797,            0.,NA,NA,"",   639.558E-03,  -539.701E-03,   343.157E-03,   482.078E-06
C:/temp/dataset/2/24_1.odb,Step-1,Increment      1: Step Time =    1.000,"PART-1-1",           593,       6.12718,       25.7561,            0.,NA,NA,"",   625.765E-03,  -534.513E-03,   325.389E-03,   503.883E-06
C:/temp/dataset/2/24_1.odb,Step-1,Increment      1: Step Time =    1.000,"PART-1-1",           594,       5.38844,       22.1508,            0.,NA,NA,"",   595.497E-03,  -503.673E-03,   317.695E-03,   1.37352E-03
C:/temp/dataset/2/24_1.odb,Step-1,Increment      1: Step Time =    1.000,"PART-1-1",           595,      -3.37677,   775.412E-03,            0.,NA,NA,"",   241.166E-03,  -215.138E-03,   108.979E-03,   1.11331E-03
C:/temp/dataset/2/24_1.odb,Step-1,Increment      1: Step Time =    1.000,"PART-1-1",           596,      -3.41233,       2.84116,            0.,NA,NA,"",   272.549E-03,  -249.754E-03,   109.114E-03,   981.604E-06
C:/temp/dataset/2/24_1.odb,Step-1,Increment      1: Step Time =    1.000,"PART-1-1",           597,      -11.2482,       24.9673,            0.,NA,NA,"",   559.962E-03,  -527.350E-03,   188.306E-03,   4.32117E-06
C:/temp/dataset/2/24_1.odb,Step-1,Increment      1: Step Time =    1.000,"PART-1-1",           598,       5.16292,       24.1270,            0.,NA,NA,"",   609.442E-03,  -520.372E-03,   317.226E-03,   747.795E-06
C:/temp/dataset/2/24_1.odb,Step-1,Increment      1: Step Time =    1.000,"PART-1-1",           599,            0.,            5.,            0.,NA,NA,"",   338.795E-03,  -291.786E-03,   172.171E-03,   898.712E-06
C:/temp/dataset/2/24_1.odb,Step-1,Increment      1: Step Time =    1.000,"PART-1-1",           600,      -1.80204,       3.95011,            0.,NA,NA,"",   303.990E-03,  -270.644E-03,   138.425E-03,   1.10992E-03
C:/temp/dataset/2/24_1.odb,Step-1,Increment      1: Step Time =    1.000,"PART-1-1",           601,       9.59799,       22.9228,            0.,NA,NA,"",   622.842E-03,  -511.989E-03,   354.683E-03,   704.067E-06
C:/temp/dataset/2/24_1.odb,Step-1,Increment      1: Step Time =    1.000,"PART-1-1",           602,       8.30932,       22.9391,            0.,NA,NA,"",   615.906E-03,  -511.785E-03,   342.661E-03,   798.753E-06
C:/temp/dataset/2/24_1.odb,Step-1,Increment      1: Step Time =    1.000,"PART-1-1",           603,      -1.93269,      -1.01257,            0.,NA,NA,"",   229.765E-03,  -185.703E-03,   135.301E-03,   1.30804E-03
C:/temp/dataset/2/24_1.odb,Step-1,Increment      1: Step Time =    1.000,"PART-1-1",           604,      -8.69440,      -13.5596,            0.,NA,NA,"",   37.7777E-03,  -35.6122E-03,   12.6066E-03,   1.47636E-03
C:/temp/dataset/2/24_1.odb,Step-1,Increment      1: Step Time =    1.000,"PART-1-1",           605,       6.07991,       2.65614,            0.,NA,NA,"",   383.207E-03,  -251.948E-03,   288.739E-03,   1.28536E-03
C:/temp/dataset/2/24_1.odb,Step-1,Increment      1: Step Time =    1.000,"PART-1-1",           606,       4.75906,       1.28045,            0.,NA,NA,"",   347.622E-03,  -226.994E-03,   263.276E-03,   1.25491E-03
C:/temp/dataset/2/24_1.odb,Step-1,Increment      1: Step Time =    1.000,"PART-1-1",           607,       10.0234,       4.43547,            0.,NA,NA,"",   454.323E-03,  -283.675E-03,   354.876E-03,   578.086E-06
C:/temp/dataset/2/24_1.odb,Step-1,Increment      1: Step Time =    1.000,"PART-1-1",           608,       7.46673,       4.06304,            0.,NA,NA,"",   418.642E-03,  -277.134E-03,   313.780E-03,   1.07020E-03
C:/temp/dataset/2/24_1.odb,Step-1,Increment      1: Step Time =    1.000,"PART-1-1",           609,  -317.165E-03,  -486.862E-03,            0.,NA,NA,"",   255.878E-03,  -194.875E-03,   165.823E-03,   1.31047E-03
C:/temp/dataset/2/24_1.odb,Step-1,Increment      1: Step Time =    1.000,"PART-1-1",           610,       1.72730,   921.331E-03,            0.,NA,NA,"",   300.440E-03,  -219.491E-03,   205.153E-03,   1.35843E-03
C:/temp/dataset/2/24_1.odb,Step-1,Increment      1: Step Time =    1.000,"PART-1-1",           611,      -4.63664,      -21.2535,            0.,NA,NA,"",   9.65114E-03,  -2.98213E-03,   9.17886E-03,   2.75787E-03
C:/temp/dataset/2/24_1.odb,Step-1,Increment      1: Step Time =    1.000,"PART-1-1",           612,       11.2827,       3.26092,            0.,NA,NA,"",   458.669E-03,  -264.070E-03,   375.026E-03,   641.391E-06
C:/temp/dataset/2/24_1.odb,Step-1,Increment      1: Step Time =    1.000,"PART-1-1",           613,      -11.4502,      -4.36864,            0.,NA,NA,"",   132.277E-03,  -131.628E-03,  -13.0849E-03,   1.20636E-03
C:/temp/dataset/2/24_1.odb,Step-1,Increment      1: Step Time =    1.000,"PART-1-1",           614,      -10.8693,      -24.5529,            0.,NA,NA,"",   2.24982E-03,   2.16977E-03,  -594.795E-06,   812.127E-06
C:/temp/dataset/2/24_1.odb,Step-1,Increment      1: Step Time =    1.000,"PART-1-1",           615,      -9.52531,      -23.3517,            0.,NA,NA,"",   2.43715E-03,   1.55276E-03,   1.87846E-03,   1.00724E-03
C:/temp/dataset/2/24_1.odb,Step-1,Increment      1: Step Time =    1.000,"PART-1-1",           616,      -10.8903,      -21.7518,            0.,NA,NA,"",   1.12146E-03,   57.6217E-06,  -1.11998E-03,   883.955E-06
C:/temp/dataset/2/24_1.odb,Step-1,Increment      1: Step Time =    1.000,"PART-1-1",           617,       3.33333,          -20.,            0.,NA,NA,"",   1.03882E-03,  -1.02530E-03,   167.032E-06,   74.5182E-06
C:/temp/dataset/2/24_1.odb,Step-1,Increment      1: Step Time =    1.000,"PART-1-1",           618,       1.83446,      -21.2108,            0.,NA,NA,"",   1.37609E-03,  -1.26710E-03,   536.718E-06,   80.8023E-06
C:/temp/dataset/2/24_1.odb,Step-1,Increment      1: Step Time =    1.000,"PART-1-1",           619,       5.12744,      -21.2153,            0.,NA,NA,"",   1.21290E-03,  -1.21133E-03,  -61.6612E-06,   18.1191E-06
C:/temp/dataset/2/24_1.odb,Step-1,Increment      1: Step Time =    1.000,"PART-1-1",           620,            0.,          -20.,            0.,NA,NA,"",   1.51590E-03,  -683.725E-06,   1.35295E-03,   104.364E-06
C:/temp/dataset/2/24_1.odb,Step-1,Increment      1: Step Time =    1.000,"PART-1-1",           621,      -1.43624,      -21.2208,            0.,NA,NA,"",   3.34604E-03,  -1.77486E-03,   2.83652E-03,   500.508E-06
C:/temp/dataset/2/24_1.odb,Step-1,Increment      1: Step Time =    1.000,"PART-1-1",           622,   398.228E-03,      -22.4316,            0.,NA,NA,"",   2.18498E-03,  -1.77665E-03,   1.27187E-03,   361.654E-06
C:/temp/dataset/2/24_1.odb,Step-1,Increment      1: Step Time =    1.000,"PART-1-1",           623,   770.736E-03,      -24.9188,            0.,NA,NA,"",   2.00577E-03,  -1.77301E-03,   937.851E-06,   445.369E-06
C:/temp/dataset/2/24_1.odb,Step-1,Increment      1: Step Time =    1.000,"PART-1-1",           624,      -3.33333,          -20.,            0.,NA,NA,"",   5.27700E-03,  -1.21830E-03,   5.13444E-03,   1.40836E-03
C:/temp/dataset/2/24_1.odb,Step-1,Increment      1: Step Time =    1.000,"PART-1-1",           625,       8.69606,       24.2205,            0.,NA,NA,"",   627.233E-03,  -522.679E-03,   346.738E-03,   649.590E-06
C:/temp/dataset/2/24_1.odb,Step-1,Increment      1: Step Time =    1.000,"PART-1-1",           626,      -3.33333,            5.,            0.,NA,NA,"",   307.922E-03,  -287.024E-03,   111.505E-03,   1.66799E-03
C:/temp/dataset/2/24_1.odb,Step-1,Increment      1: Step Time =    1.000,"PART-1-1",           627,      -4.94363,       3.89105,            0.,NA,NA,"",   278.372E-03,  -265.621E-03,   83.2836E-03,   1.44979E-03
C:/temp/dataset/2/24_1.odb,Step-1,Increment      1: Step Time =    1.000,"PART-1-1",           628,      -6.66667,            5.,            0.,NA,NA,"",   286.561E-03,  -281.048E-03,   55.9388E-03,   1.68493E-03
C:/temp/dataset/2/24_1.odb,Step-1,Increment      1: Step Time =    1.000,"PART-1-1",           629,           10.,          -20.,            0.,NA,NA,"",   1.23801E-03,  -1.23584E-03,  -73.2744E-06,   17.8276E-06
C:/temp/dataset/2/24_1.odb,Step-1,Increment      1: Step Time =    1.000,"PART-1-1",           630,       8.42239,      -21.2201,            0.,NA,NA,"",   1.18974E-03,  -1.18188E-03,  -136.577E-06,   5.41716E-06
C:/temp/dataset/2/24_1.odb,Step-1,Increment      1: Step Time =    1.000,"PART-1-1",           631,       6.66667,          -20.,            0.,NA,NA,"",   1.16657E-03,  -1.15841E-03,  -137.732E-06,   31.9693E-06
C:/temp/dataset/2/24_1.odb,Step-1,Increment      1: Step Time =    1.000,"PART-1-1",           632,       9.53008,       25.0675,            0.,NA,NA,"",   637.660E-03,  -530.005E-03,   354.548E-03,   569.912E-06
