ODB Name,Step,Frame,Part Instance Name,    êﬂì_ÉâÉxÉã,X,Y,Z,Section Name,Material Name,Section Point,   U-Magnitude,          U-U1,          U-U2,       S-Mises
C:/temp/dataset/2/24_2.odb,Step-1,Increment      1: Step Time =    1.000,"PART-1-1",             1,          -15.,           20.,            0.,NA,NA,"",       1.00487,  -952.038E-03,   321.551E-03,   390.751E-09
C:/temp/dataset/2/24_2.odb,Step-1,Increment      1: Step Time =    1.000,"PART-1-1",             2,          -15.,           25.,            0.,NA,NA,"",       1.07635,      -1.02737,   320.988E-03,   2.10049E-06
C:/temp/dataset/2/24_2.odb,Step-1,Increment      1: Step Time =    1.000,"PART-1-1",             3,          -10.,           20.,            0.,NA,NA,"",       1.03196,  -952.596E-03,   396.867E-03,   8.28137E-06
C:/temp/dataset/2/24_2.odb,Step-1,Increment      1: Step Time =    1.000,"PART-1-1",             4,           -5.,           20.,            0.,NA,NA,"",       1.06359,  -952.990E-03,   472.255E-03,   90.2037E-06
C:/temp/dataset/2/24_2.odb,Step-1,Increment      1: Step Time =    1.000,"PART-1-1",             5,            0.,           20.,            0.,NA,NA,"",       1.10029,  -952.639E-03,   550.559E-03,   1.00900E-03
C:/temp/dataset/2/24_2.odb,Step-1,Increment      1: Step Time =    1.000,"PART-1-1",             6,            5.,           20.,            0.,NA,NA,"",       1.12906,  -950.289E-03,   609.688E-03,   7.75451E-03
C:/temp/dataset/2/24_2.odb,Step-1,Increment      1: Step Time =    1.000,"PART-1-1",             7,            5.,          12.5,            0.,NA,NA,"",   966.275E-03,  -780.539E-03,   569.602E-03,   5.51227E-03
C:/temp/dataset/2/24_2.odb,Step-1,Increment      1: Step Time =    1.000,"PART-1-1",             8,            5.,            5.,            0.,NA,NA,"",   784.030E-03,  -577.139E-03,   530.674E-03,   6.82847E-03
C:/temp/dataset/2/24_2.odb,Step-1,Increment      1: Step Time =    1.000,"PART-1-1",             9,           -5.,            5.,            0.,NA,NA,"",   580.625E-03,  -558.126E-03,   160.066E-03,   3.68114E-03
C:/temp/dataset/2/24_2.odb,Step-1,Increment      1: Step Time =    1.000,"PART-1-1",            10,          -15.,            5.,            0.,NA,NA,"",   554.862E-03,  -537.710E-03,  -136.896E-03,   181.222E-06
C:/temp/dataset/2/24_2.odb,Step-1,Increment      1: Step Time =    1.000,"PART-1-1",            11,          -15.,         -3.75,            0.,NA,NA,"",   303.332E-03,  -278.729E-03,  -119.668E-03,   4.62753E-03
C:/temp/dataset/2/24_2.odb,Step-1,Increment      1: Step Time =    1.000,"PART-1-1",            12,          -15.,         -12.5,            0.,NA,NA,"",   114.172E-03,  -89.7118E-03,  -70.6194E-03,   6.34987E-03
C:/temp/dataset/2/24_2.odb,Step-1,Increment      1: Step Time =    1.000,"PART-1-1",            13,          -15.,        -21.25,            0.,NA,NA,"",   24.0083E-03,  -6.56232E-03,  -23.0940E-03,   4.94563E-03
C:/temp/dataset/2/24_2.odb,Step-1,Increment      1: Step Time =    1.000,"PART-1-1",            14,          -15.,          -30.,            0.,NA,NA,"",            0.,  -188.945E-42,  -563.304E-42,   991.689E-06
C:/temp/dataset/2/24_2.odb,Step-1,Increment      1: Step Time =    1.000,"PART-1-1",            15,           15.,          -30.,            0.,NA,NA,"",            0.,  -149.732E-42,   246.295E-42,   413.010E-06
C:/temp/dataset/2/24_2.odb,Step-1,Increment      1: Step Time =    1.000,"PART-1-1",            16,           15.,          -25.,            0.,NA,NA,"",   1.75752E-03,  -1.64597E-03,   616.165E-06,   7.58320E-06
C:/temp/dataset/2/24_2.odb,Step-1,Increment      1: Step Time =    1.000,"PART-1-1",            17,           15.,          -20.,            0.,NA,NA,"",   2.58385E-03,  -2.52222E-03,   560.973E-06,   2.32921E-06
C:/temp/dataset/2/24_2.odb,Step-1,Increment      1: Step Time =    1.000,"PART-1-1",            18,            5.,          -20.,            0.,NA,NA,"",   2.19591E-03,  -2.19402E-03,  -91.2280E-06,   106.034E-06
C:/temp/dataset/2/24_2.odb,Step-1,Increment      1: Step Time =    1.000,"PART-1-1",            19,           -5.,          -20.,            0.,NA,NA,"",   25.6084E-03,  -6.41910E-03,   24.7909E-03,   9.70583E-03
C:/temp/dataset/2/24_2.odb,Step-1,Increment      1: Step Time =    1.000,"PART-1-1",            20,           -5.,         -12.5,            0.,NA,NA,"",   127.583E-03,  -95.3342E-03,   84.7872E-03,   8.15702E-03
C:/temp/dataset/2/24_2.odb,Step-1,Increment      1: Step Time =    1.000,"PART-1-1",            21,           -5.,           -5.,            0.,NA,NA,"",   278.291E-03,  -237.634E-03,   144.830E-03,   10.9190E-03
C:/temp/dataset/2/24_2.odb,Step-1,Increment      1: Step Time =    1.000,"PART-1-1",            22,            0.,           -5.,            0.,NA,NA,"",   408.664E-03,  -227.385E-03,   339.562E-03,   806.455E-06
C:/temp/dataset/2/24_2.odb,Step-1,Increment      1: Step Time =    1.000,"PART-1-1",            23,            5.,           -5.,            0.,NA,NA,"",   571.735E-03,  -232.530E-03,   522.313E-03,   1.32291E-03
C:/temp/dataset/2/24_2.odb,Step-1,Increment      1: Step Time =    1.000,"PART-1-1",            24,           10.,           -5.,            0.,NA,NA,"",   734.571E-03,  -241.811E-03,   693.629E-03,   942.232E-06
C:/temp/dataset/2/24_2.odb,Step-1,Increment      1: Step Time =    1.000,"PART-1-1",            25,           15.,           -5.,            0.,NA,NA,"",   894.292E-03,  -245.901E-03,   859.820E-03,   76.7261E-06
C:/temp/dataset/2/24_2.odb,Step-1,Increment      1: Step Time =    1.000,"PART-1-1",            26,           15.,          3.75,            0.,NA,NA,"",       1.00408,  -538.550E-03,   847.429E-03,   2.54964E-03
C:/temp/dataset/2/24_2.odb,Step-1,Increment      1: Step Time =    1.000,"PART-1-1",            27,           15.,          12.5,            0.,NA,NA,"",       1.13519,  -787.925E-03,   817.208E-03,   3.63133E-03
C:/temp/dataset/2/24_2.odb,Step-1,Increment      1: Step Time =    1.000,"PART-1-1",            28,           15.,         21.25,            0.,NA,NA,"",       1.25121,  -970.726E-03,   789.438E-03,   2.33661E-03
C:/temp/dataset/2/24_2.odb,Step-1,Increment      1: Step Time =    1.000,"PART-1-1",            29,           15.,           30.,            0.,NA,NA,"",       1.36114,      -1.11432,   781.651E-03,   62.9712E-06
C:/temp/dataset/2/24_2.odb,Step-1,Increment      1: Step Time =    1.000,"PART-1-1",            30,           7.5,           30.,            0.,NA,NA,"",       1.29005,      -1.10989,   657.552E-03,   1.17246E-03
C:/temp/dataset/2/24_2.odb,Step-1,Increment      1: Step Time =    1.000,"PART-1-1",            31,            0.,           30.,            0.,NA,NA,"",       1.23136,      -1.10400,   545.373E-03,   95.6456E-06
C:/temp/dataset/2/24_2.odb,Step-1,Increment      1: Step Time =    1.000,"PART-1-1",            32,          -7.5,           30.,            0.,NA,NA,"",       1.18557,      -1.10350,   433.437E-03,   28.6898E-06
C:/temp/dataset/2/24_2.odb,Step-1,Increment      1: Step Time =    1.000,"PART-1-1",            33,          -15.,           30.,            0.,NA,NA,"",       1.14831,      -1.10270,   320.425E-03,   389.956E-09
C:/temp/dataset/2/24_2.odb,Step-1,Increment      1: Step Time =    1.000,"PART-1-1",            34,          -15.,          22.5,            0.,NA,NA,"",       1.04054,  -989.703E-03,   321.267E-03,   842.403E-09
C:/temp/dataset/2/24_2.odb,Step-1,Increment      1: Step Time =    1.000,"PART-1-1",            35,         -12.5,           20.,            0.,NA,NA,"",       1.01782,  -952.322E-03,   359.212E-03,   992.386E-09
C:/temp/dataset/2/24_2.odb,Step-1,Increment      1: Step Time =    1.000,"PART-1-1",            36,          -7.5,           20.,            0.,NA,NA,"",       1.04725,  -952.845E-03,   434.523E-03,   31.1671E-06
C:/temp/dataset/2/24_2.odb,Step-1,Increment      1: Step Time =    1.000,"PART-1-1",            37,          -2.5,           20.,            0.,NA,NA,"",       1.08107,  -953.035E-03,   510.334E-03,   326.888E-06
C:/temp/dataset/2/24_2.odb,Step-1,Increment      1: Step Time =    1.000,"PART-1-1",            38,           2.5,           20.,            0.,NA,NA,"",       1.12039,  -953.865E-03,   587.712E-03,   3.30528E-03
C:/temp/dataset/2/24_2.odb,Step-1,Increment      1: Step Time =    1.000,"PART-1-1",            39,            5.,           15.,            0.,NA,NA,"",       1.02183,  -840.404E-03,   581.263E-03,   5.44943E-03
C:/temp/dataset/2/24_2.odb,Step-1,Increment      1: Step Time =    1.000,"PART-1-1",            40,            5.,          17.5,            0.,NA,NA,"",       1.07455,  -896.358E-03,   592.618E-03,   6.20779E-03
C:/temp/dataset/2/24_2.odb,Step-1,Increment      1: Step Time =    1.000,"PART-1-1",            41,            5.,           7.5,            0.,NA,NA,"",   847.603E-03,  -647.549E-03,   546.910E-03,   6.03737E-03
C:/temp/dataset/2/24_2.odb,Step-1,Increment      1: Step Time =    1.000,"PART-1-1",            42,            5.,           10.,            0.,NA,NA,"",   907.872E-03,  -716.089E-03,   558.075E-03,   5.42828E-03
C:/temp/dataset/2/24_2.odb,Step-1,Increment      1: Step Time =    1.000,"PART-1-1",            43,      -1.66667,            5.,            0.,NA,NA,"",   632.616E-03,  -569.994E-03,   274.427E-03,   2.78408E-03
C:/temp/dataset/2/24_2.odb,Step-1,Increment      1: Step Time =    1.000,"PART-1-1",            44,       1.66667,            5.,            0.,NA,NA,"",   701.107E-03,  -577.520E-03,   397.519E-03,   1.48933E-03
C:/temp/dataset/2/24_2.odb,Step-1,Increment      1: Step Time =    1.000,"PART-1-1",            45,      -11.6667,            5.,            0.,NA,NA,"",   541.021E-03,  -539.555E-03,  -39.7963E-03,   774.130E-06
C:/temp/dataset/2/24_2.odb,Step-1,Increment      1: Step Time =    1.000,"PART-1-1",            46,      -8.33333,            5.,            0.,NA,NA,"",   549.194E-03,  -546.265E-03,   56.6519E-03,   2.78790E-03
C:/temp/dataset/2/24_2.odb,Step-1,Increment      1: Step Time =    1.000,"PART-1-1",            47,          -15.,  -833.333E-03,            0.,NA,NA,"",   385.476E-03,  -362.846E-03,  -130.131E-03,   2.61148E-03
C:/temp/dataset/2/24_2.odb,Step-1,Increment      1: Step Time =    1.000,"PART-1-1",            48,          -15.,       2.08333,            0.,NA,NA,"",   470.721E-03,  -450.844E-03,  -135.341E-03,   616.409E-06
C:/temp/dataset/2/24_2.odb,Step-1,Increment      1: Step Time =    1.000,"PART-1-1",            49,          -15.,      -9.58333,            0.,NA,NA,"",   165.772E-03,  -140.679E-03,  -87.6916E-03,   6.32878E-03
C:/temp/dataset/2/24_2.odb,Step-1,Increment      1: Step Time =    1.000,"PART-1-1",            50,          -15.,      -6.66667,            0.,NA,NA,"",   228.996E-03,  -203.721E-03,  -104.580E-03,   5.91852E-03
C:/temp/dataset/2/24_2.odb,Step-1,Increment      1: Step Time =    1.000,"PART-1-1",            51,          -15.,      -18.3333,            0.,NA,NA,"",   44.0309E-03,  -22.8627E-03,  -37.6300E-03,   5.86203E-03
C:/temp/dataset/2/24_2.odb,Step-1,Increment      1: Step Time =    1.000,"PART-1-1",            52,          -15.,      -15.4167,            0.,NA,NA,"",   73.7477E-03,  -50.4414E-03,  -53.7996E-03,   6.29716E-03
C:/temp/dataset/2/24_2.odb,Step-1,Increment      1: Step Time =    1.000,"PART-1-1",            53,          -15.,      -27.0833,            0.,NA,NA,"",   4.15694E-03,   1.43382E-03,  -3.90183E-03,   2.38938E-03
C:/temp/dataset/2/24_2.odb,Step-1,Increment      1: Step Time =    1.000,"PART-1-1",            54,          -15.,      -24.1667,            0.,NA,NA,"",   11.8149E-03,   490.148E-06,  -11.8047E-03,   3.65604E-03
C:/temp/dataset/2/24_2.odb,Step-1,Increment      1: Step Time =    1.000,"PART-1-1",            55,           12.,          -30.,            0.,NA,NA,"",            0.,  -407.209E-42,   316.227E-42,   211.348E-06
C:/temp/dataset/2/24_2.odb,Step-1,Increment      1: Step Time =    1.000,"PART-1-1",            56,            9.,          -30.,            0.,NA,NA,"",            0.,  -415.526E-42,  -95.5924E-42,   327.615E-06
C:/temp/dataset/2/24_2.odb,Step-1,Increment      1: Step Time =    1.000,"PART-1-1",            57,            6.,          -30.,            0.,NA,NA,"",            0.,  -836.977E-42,   758.393E-42,   494.743E-06
C:/temp/dataset/2/24_2.odb,Step-1,Increment      1: Step Time =    1.000,"PART-1-1",            58,            3.,          -30.,            0.,NA,NA,"",            0.,  -828.993E-42,   514.103E-42,   748.290E-06
C:/temp/dataset/2/24_2.odb,Step-1,Increment      1: Step Time =    1.000,"PART-1-1",            59,            0.,          -30.,            0.,NA,NA,"",            0.,  -1.64009E-39,   2.44058E-39,   1.03115E-03
C:/temp/dataset/2/24_2.odb,Step-1,Increment      1: Step Time =    1.000,"PART-1-1",            60,           -3.,          -30.,            0.,NA,NA,"",            0.,  -1.38227E-39,   3.35225E-39,   1.18610E-03
C:/temp/dataset/2/24_2.odb,Step-1,Increment      1: Step Time =    1.000,"PART-1-1",            61,           -6.,          -30.,            0.,NA,NA,"",            0.,  -125.790E-42,   2.86771E-39,   1.21881E-03
C:/temp/dataset/2/24_2.odb,Step-1,Increment      1: Step Time =    1.000,"PART-1-1",            62,           -9.,          -30.,            0.,NA,NA,"",            0.,   2.29185E-39,   2.42216E-39,   1.34070E-03
C:/temp/dataset/2/24_2.odb,Step-1,Increment      1: Step Time =    1.000,"PART-1-1",            63,          -12.,          -30.,            0.,NA,NA,"",            0.,   1.30464E-39,  -1.21199E-39,   1.45536E-03
C:/temp/dataset/2/24_2.odb,Step-1,Increment      1: Step Time =    1.000,"PART-1-1",            64,           15.,         -27.5,            0.,NA,NA,"",   1.09782E-03,  -941.815E-06,   564.084E-06,   126.679E-06
C:/temp/dataset/2/24_2.odb,Step-1,Increment      1: Step Time =    1.000,"PART-1-1",            65,           15.,         -22.5,            0.,NA,NA,"",   2.21277E-03,  -2.13708E-03,   573.782E-06,   14.5956E-06
C:/temp/dataset/2/24_2.odb,Step-1,Increment      1: Step Time =    1.000,"PART-1-1",            66,       8.33333,          -20.,            0.,NA,NA,"",   2.40194E-03,  -2.38838E-03,  -254.870E-06,   50.2041E-06
C:/temp/dataset/2/24_2.odb,Step-1,Increment      1: Step Time =    1.000,"PART-1-1",            67,       11.6667,          -20.,            0.,NA,NA,"",   2.49355E-03,  -2.49297E-03,   53.7623E-06,   20.9925E-06
C:/temp/dataset/2/24_2.odb,Step-1,Increment      1: Step Time =    1.000,"PART-1-1",            68,      -1.66667,          -20.,            0.,NA,NA,"",   6.44825E-03,  -1.41090E-03,   6.29200E-03,   1.78823E-03
C:/temp/dataset/2/24_2.odb,Step-1,Increment      1: Step Time =    1.000,"PART-1-1",            69,       1.66667,          -20.,            0.,NA,NA,"",   2.27879E-03,  -1.80783E-03,   1.38732E-03,   363.692E-06
C:/temp/dataset/2/24_2.odb,Step-1,Increment      1: Step Time =    1.000,"PART-1-1",            70,           -5.,          -15.,            0.,NA,NA,"",   89.7046E-03,  -59.9776E-03,   66.7054E-03,   8.07258E-03
C:/temp/dataset/2/24_2.odb,Step-1,Increment      1: Step Time =    1.000,"PART-1-1",            71,           -5.,         -17.5,            0.,NA,NA,"",   58.1867E-03,  -31.2525E-03,   49.0813E-03,   8.97771E-03
C:/temp/dataset/2/24_2.odb,Step-1,Increment      1: Step Time =    1.000,"PART-1-1",            72,           -5.,          -7.5,            0.,NA,NA,"",   222.404E-03,  -187.357E-03,   119.836E-03,   8.85473E-03
C:/temp/dataset/2/24_2.odb,Step-1,Increment      1: Step Time =    1.000,"PART-1-1",            73,           -5.,          -10.,            0.,NA,NA,"",   172.027E-03,  -138.041E-03,   102.654E-03,   7.96390E-03
C:/temp/dataset/2/24_2.odb,Step-1,Increment      1: Step Time =    1.000,"PART-1-1",            74,          -2.5,           -5.,            0.,NA,NA,"",   335.731E-03,  -228.872E-03,   245.628E-03,   4.03387E-03
C:/temp/dataset/2/24_2.odb,Step-1,Increment      1: Step Time =    1.000,"PART-1-1",            75,           2.5,           -5.,            0.,NA,NA,"",   488.855E-03,  -228.732E-03,   432.043E-03,   388.325E-06
C:/temp/dataset/2/24_2.odb,Step-1,Increment      1: Step Time =    1.000,"PART-1-1",            76,           7.5,           -5.,            0.,NA,NA,"",   654.105E-03,  -237.488E-03,   609.470E-03,   1.46671E-03
C:/temp/dataset/2/24_2.odb,Step-1,Increment      1: Step Time =    1.000,"PART-1-1",            77,          12.5,           -5.,            0.,NA,NA,"",   814.039E-03,  -244.450E-03,   776.469E-03,   232.844E-06
C:/temp/dataset/2/24_2.odb,Step-1,Increment      1: Step Time =    1.000,"PART-1-1",            78,           15.,   833.333E-03,            0.,NA,NA,"",   962.032E-03,  -442.482E-03,   854.233E-03,   1.37974E-03
C:/temp/dataset/2/24_2.odb,Step-1,Increment      1: Step Time =    1.000,"PART-1-1",            79,           15.,      -2.08333,            0.,NA,NA,"",   924.400E-03,  -343.969E-03,   858.022E-03,   318.563E-06
C:/temp/dataset/2/24_2.odb,Step-1,Increment      1: Step Time =    1.000,"PART-1-1",            80,           15.,       9.58333,            0.,NA,NA,"",       1.09200,  -712.295E-03,   827.701E-03,   3.60983E-03
C:/temp/dataset/2/24_2.odb,Step-1,Increment      1: Step Time =    1.000,"PART-1-1",            81,           15.,       6.66667,            0.,NA,NA,"",       1.04795,  -629.079E-03,   838.124E-03,   3.32365E-03
C:/temp/dataset/2/24_2.odb,Step-1,Increment      1: Step Time =    1.000,"PART-1-1",            82,           15.,       18.3333,            0.,NA,NA,"",       1.21514,  -916.887E-03,   797.426E-03,   3.15922E-03
C:/temp/dataset/2/24_2.odb,Step-1,Increment      1: Step Time =    1.000,"PART-1-1",            83,           15.,       15.4167,            0.,NA,NA,"",       1.17650,  -856.123E-03,   806.974E-03,   3.57222E-03
C:/temp/dataset/2/24_2.odb,Step-1,Increment      1: Step Time =    1.000,"PART-1-1",            84,           15.,       27.0833,            0.,NA,NA,"",       1.32272,      -1.06669,   782.148E-03,   251.627E-06
C:/temp/dataset/2/24_2.odb,Step-1,Increment      1: Step Time =    1.000,"PART-1-1",            85,           15.,       24.1667,            0.,NA,NA,"",       1.28640,      -1.01963,   784.346E-03,   1.20015E-03
C:/temp/dataset/2/24_2.odb,Step-1,Increment      1: Step Time =    1.000,"PART-1-1",            86,           10.,           30.,            0.,NA,NA,"",       1.31358,      -1.11255,   698.366E-03,   768.397E-06
C:/temp/dataset/2/24_2.odb,Step-1,Increment      1: Step Time =    1.000,"PART-1-1",            87,          12.5,           30.,            0.,NA,NA,"",       1.33745,      -1.11393,   740.218E-03,   185.797E-06
C:/temp/dataset/2/24_2.odb,Step-1,Increment      1: Step Time =    1.000,"PART-1-1",            88,           2.5,           30.,            0.,NA,NA,"",       1.24870,      -1.10483,   581.889E-03,   533.804E-06
C:/temp/dataset/2/24_2.odb,Step-1,Increment      1: Step Time =    1.000,"PART-1-1",            89,            5.,           30.,            0.,NA,NA,"",       1.26817,      -1.10692,   618.872E-03,   987.344E-06
C:/temp/dataset/2/24_2.odb,Step-1,Increment      1: Step Time =    1.000,"PART-1-1",            90,           -5.,           30.,            0.,NA,NA,"",       1.20000,      -1.10369,   471.047E-03,   64.1508E-06
C:/temp/dataset/2/24_2.odb,Step-1,Increment      1: Step Time =    1.000,"PART-1-1",            91,          -2.5,           30.,            0.,NA,NA,"",       1.21526,      -1.10379,   508.438E-03,   67.8392E-06
C:/temp/dataset/2/24_2.odb,Step-1,Increment      1: Step Time =    1.000,"PART-1-1",            92,         -12.5,           30.,            0.,NA,NA,"",       1.15965,      -1.10298,   358.092E-03,   1.02174E-06
C:/temp/dataset/2/24_2.odb,Step-1,Increment      1: Step Time =    1.000,"PART-1-1",            93,          -10.,           30.,            0.,NA,NA,"",       1.17209,      -1.10326,   395.766E-03,   8.24527E-06
C:/temp/dataset/2/24_2.odb,Step-1,Increment      1: Step Time =    1.000,"PART-1-1",            94,          -15.,          27.5,            0.,NA,NA,"",       1.11227,      -1.06503,   320.708E-03,   816.720E-09
C:/temp/dataset/2/24_2.odb,Step-1,Increment      1: Step Time =    1.000,"PART-1-1",            95,      -12.4978,       24.9766,            0.,NA,NA,"",       1.08812,      -1.02730,   358.688E-03,   4.23715E-06
C:/temp/dataset/2/24_2.odb,Step-1,Increment      1: Step Time =    1.000,"PART-1-1",            96,      -7.49872,       27.4475,            0.,NA,NA,"",       1.15004,      -1.06511,   433.754E-03,   27.0715E-06
C:/temp/dataset/2/24_2.odb,Step-1,Increment      1: Step Time =    1.000,"PART-1-1",            97,      -7.50661,       22.4446,            0.,NA,NA,"",       1.08076,  -989.735E-03,   434.137E-03,   30.8271E-06
C:/temp/dataset/2/24_2.odb,Step-1,Increment      1: Step Time =    1.000,"PART-1-1",            98,      -2.53392,       22.4091,            0.,NA,NA,"",       1.11323,  -989.873E-03,   509.341E-03,   213.427E-06
C:/temp/dataset/2/24_2.odb,Step-1,Increment      1: Step Time =    1.000,"PART-1-1",            99,  -19.7467E-03,       27.3919,            0.,NA,NA,"",       1.19658,      -1.06505,   545.402E-03,   400.945E-06
C:/temp/dataset/2/24_2.odb,Step-1,Increment      1: Step Time =    1.000,"PART-1-1",           100,       2.31326,       22.2671,            0.,NA,NA,"",       1.14526,  -986.123E-03,   582.397E-03,   2.62976E-03
C:/temp/dataset/2/24_2.odb,Step-1,Increment      1: Step Time =    1.000,"PART-1-1",           101,       7.89882,       27.4278,            0.,NA,NA,"",       1.25837,      -1.06948,   663.107E-03,   803.002E-06
C:/temp/dataset/2/24_2.odb,Step-1,Increment      1: Step Time =    1.000,"PART-1-1",           102,       6.74061,       20.0564,            0.,NA,NA,"",       1.14384,  -950.875E-03,   635.774E-03,   2.32432E-03
C:/temp/dataset/2/24_2.odb,Step-1,Increment      1: Step Time =    1.000,"PART-1-1",           103,       6.76082,       17.7755,            0.,NA,NA,"",       1.10322,  -905.577E-03,   630.102E-03,   4.25407E-03
C:/temp/dataset/2/24_2.odb,Step-1,Increment      1: Step Time =    1.000,"PART-1-1",           104,       7.34933,       13.0959,            0.,NA,NA,"",       1.01833,  -800.589E-03,   629.326E-03,   3.41826E-03
C:/temp/dataset/2/24_2.odb,Step-1,Increment      1: Step Time =    1.000,"PART-1-1",           105,       12.5251,      -2.17932,            0.,NA,NA,"",   846.845E-03,  -339.540E-03,   775.796E-03,   904.889E-06
C:/temp/dataset/2/24_2.odb,Step-1,Increment      1: Step Time =    1.000,"PART-1-1",           106,       11.8446,      -24.9441,            0.,NA,NA,"",   1.68925E-03,  -1.68732E-03,   80.7786E-06,   97.4239E-06
C:/temp/dataset/2/24_2.odb,Step-1,Increment      1: Step Time =    1.000,"PART-1-1",           107,       2.44158,      -2.66949,            0.,NA,NA,"",   529.999E-03,  -311.659E-03,   428.681E-03,   1.58086E-03
C:/temp/dataset/2/24_2.odb,Step-1,Increment      1: Step Time =    1.000,"PART-1-1",           108,       7.46163,      -2.37632,            0.,NA,NA,"",   690.758E-03,  -327.724E-03,   608.065E-03,   844.260E-06
C:/temp/dataset/2/24_2.odb,Step-1,Increment      1: Step Time =    1.000,"PART-1-1",           109,       7.48217,       7.95809,            0.,NA,NA,"",   909.280E-03,  -665.603E-03,   619.486E-03,   3.40803E-03
C:/temp/dataset/2/24_2.odb,Step-1,Increment      1: Step Time =    1.000,"PART-1-1",           110,      -5.01446,       22.4347,            0.,NA,NA,"",       1.09653,  -989.883E-03,   471.716E-03,   39.5515E-06
C:/temp/dataset/2/24_2.odb,Step-1,Increment      1: Step Time =    1.000,"PART-1-1",           111,  -75.1424E-03,       22.3615,            0.,NA,NA,"",       1.13028,  -988.914E-03,   547.343E-03,   1.14596E-03
C:/temp/dataset/2/24_2.odb,Step-1,Increment      1: Step Time =    1.000,"PART-1-1",           112,       4.50776,       22.1530,            0.,NA,NA,"",       1.15649,  -983.026E-03,   609.197E-03,   3.01616E-03
C:/temp/dataset/2/24_2.odb,Step-1,Increment      1: Step Time =    1.000,"PART-1-1",           113,       7.06405,       15.4904,            0.,NA,NA,"",       1.06295,  -856.301E-03,   629.768E-03,   3.75576E-03
C:/temp/dataset/2/24_2.odb,Step-1,Increment      1: Step Time =    1.000,"PART-1-1",           114,       7.46285,       10.5556,            0.,NA,NA,"",   966.068E-03,  -736.467E-03,   625.222E-03,   3.42691E-03
C:/temp/dataset/2/24_2.odb,Step-1,Increment      1: Step Time =    1.000,"PART-1-1",           115,      -2.89738,      -2.05905,            0.,NA,NA,"",   402.617E-03,  -331.206E-03,   228.916E-03,   3.89156E-03
C:/temp/dataset/2/24_2.odb,Step-1,Increment      1: Step Time =    1.000,"PART-1-1",           116,      -7.61206,      -10.6629,            0.,NA,NA,"",   129.095E-03,  -118.308E-03,   51.6597E-03,   4.64843E-03
C:/temp/dataset/2/24_2.odb,Step-1,Increment      1: Step Time =    1.000,"PART-1-1",           117,      -6.85891,      -17.7385,            0.,NA,NA,"",   39.0977E-03,  -24.1278E-03,   30.7649E-03,   5.83240E-03
C:/temp/dataset/2/24_2.odb,Step-1,Increment      1: Step Time =    1.000,"PART-1-1",           118,       11.9280,      -27.4687,            0.,NA,NA,"",   939.427E-06,  -934.056E-06,   100.309E-06,   234.446E-06
C:/temp/dataset/2/24_2.odb,Step-1,Increment      1: Step Time =    1.000,"PART-1-1",           119,      -7.44747,      -13.1413,            0.,NA,NA,"",   89.8951E-03,  -78.2555E-03,   44.2404E-03,   4.71888E-03
C:/temp/dataset/2/24_2.odb,Step-1,Increment      1: Step Time =    1.000,"PART-1-1",           120,      -7.13169,      -15.4658,            0.,NA,NA,"",   61.1439E-03,  -47.7861E-03,   38.1454E-03,   5.28931E-03
C:/temp/dataset/2/24_2.odb,Step-1,Increment      1: Step Time =    1.000,"PART-1-1",           121,      -8.02089,      -5.87394,            0.,NA,NA,"",   225.205E-03,  -217.724E-03,   57.5647E-03,   2.44448E-03
C:/temp/dataset/2/24_2.odb,Step-1,Increment      1: Step Time =    1.000,"PART-1-1",           122,      -7.74476,      -8.18529,            0.,NA,NA,"",   175.635E-03,  -166.011E-03,   57.3423E-03,   4.40324E-03
C:/temp/dataset/2/24_2.odb,Step-1,Increment      1: Step Time =    1.000,"PART-1-1",           123,  -21.3834E-03,      -2.74811,            0.,NA,NA,"",   456.486E-03,  -308.256E-03,   336.686E-03,   2.31779E-03
C:/temp/dataset/2/24_2.odb,Step-1,Increment      1: Step Time =    1.000,"PART-1-1",           124,       4.94012,      -2.49525,            0.,NA,NA,"",   610.614E-03,  -320.291E-03,   519.868E-03,   1.07936E-03
C:/temp/dataset/2/24_2.odb,Step-1,Increment      1: Step Time =    1.000,"PART-1-1",           125,       10.0127,      -2.27482,            0.,NA,NA,"",   769.765E-03,  -334.247E-03,   693.409E-03,   1.09351E-03
C:/temp/dataset/2/24_2.odb,Step-1,Increment      1: Step Time =    1.000,"PART-1-1",           126,       10.2967,       27.4669,            0.,NA,NA,"",       1.28173,      -1.07176,   702.963E-03,   907.173E-06
C:/temp/dataset/2/24_2.odb,Step-1,Increment      1: Step Time =    1.000,"PART-1-1",           127,       12.6750,       27.3103,            0.,NA,NA,"",       1.30305,      -1.07016,   743.442E-03,   720.001E-06
C:/temp/dataset/2/24_2.odb,Step-1,Increment      1: Step Time =    1.000,"PART-1-1",           128,       2.52543,       27.2659,            0.,NA,NA,"",       1.21248,      -1.06355,   582.199E-03,   812.682E-06
C:/temp/dataset/2/24_2.odb,Step-1,Increment      1: Step Time =    1.000,"PART-1-1",           129,       5.32711,       26.8707,            0.,NA,NA,"",       1.22835,      -1.05871,   622.880E-03,   876.216E-06
C:/temp/dataset/2/24_2.odb,Step-1,Increment      1: Step Time =    1.000,"PART-1-1",           130,      -5.00948,       27.4462,            0.,NA,NA,"",       1.16494,      -1.06538,   471.226E-03,   30.3374E-06
C:/temp/dataset/2/24_2.odb,Step-1,Increment      1: Step Time =    1.000,"PART-1-1",           131,      -2.51658,       27.4324,            0.,NA,NA,"",       1.18058,      -1.06543,   508.553E-03,   91.4738E-06
C:/temp/dataset/2/24_2.odb,Step-1,Increment      1: Step Time =    1.000,"PART-1-1",           132,      -9.99211,       27.4668,            0.,NA,NA,"",       1.13640,      -1.06510,   396.174E-03,   12.2967E-06
C:/temp/dataset/2/24_2.odb,Step-1,Increment      1: Step Time =    1.000,"PART-1-1",           133,       12.5029,       21.6680,            0.,NA,NA,"",       1.22950,  -979.272E-03,   743.439E-03,   1.47721E-03
C:/temp/dataset/2/24_2.odb,Step-1,Increment      1: Step Time =    1.000,"PART-1-1",           134,      -12.7198,      -9.27859,            0.,NA,NA,"",   149.092E-03,  -142.441E-03,  -44.0323E-03,   2.90138E-03
C:/temp/dataset/2/24_2.odb,Step-1,Increment      1: Step Time =    1.000,"PART-1-1",           135,      -12.2206,      -21.4876,            0.,NA,NA,"",   9.44136E-03,  -1.50776E-03,  -9.32019E-03,   2.36628E-03
C:/temp/dataset/2/24_2.odb,Step-1,Increment      1: Step Time =    1.000,"PART-1-1",           136,       12.4390,       11.8581,            0.,NA,NA,"",       1.08091,  -773.869E-03,   754.642E-03,   1.20543E-03
C:/temp/dataset/2/24_2.odb,Step-1,Increment      1: Step Time =    1.000,"PART-1-1",           137,      -12.6285,      -12.0158,            0.,NA,NA,"",   99.1890E-03,  -92.8432E-03,  -34.9082E-03,   2.75764E-03
C:/temp/dataset/2/24_2.odb,Step-1,Increment      1: Step Time =    1.000,"PART-1-1",           138,      -12.4213,      -14.8709,            0.,NA,NA,"",   57.6616E-03,  -52.0088E-03,  -24.8987E-03,   2.46293E-03
C:/temp/dataset/2/24_2.odb,Step-1,Increment      1: Step Time =    1.000,"PART-1-1",           139,       12.2989,       14.8029,            0.,NA,NA,"",       1.12773,  -844.522E-03,   747.367E-03,   1.08039E-03
C:/temp/dataset/2/24_2.odb,Step-1,Increment      1: Step Time =    1.000,"PART-1-1",           140,       11.7182,       18.2155,            0.,NA,NA,"",       1.17278,  -916.869E-03,   731.278E-03,   970.002E-06
C:/temp/dataset/2/24_2.odb,Step-1,Increment      1: Step Time =    1.000,"PART-1-1",           141,      -12.3380,      -4.01281,            0.,NA,NA,"",   272.733E-03,  -268.287E-03,  -49.0451E-03,   2.75348E-03
C:/temp/dataset/2/24_2.odb,Step-1,Increment      1: Step Time =    1.000,"PART-1-1",           142,       12.5089,       6.21106,            0.,NA,NA,"",   982.870E-03,  -616.865E-03,   765.186E-03,   1.41195E-03
C:/temp/dataset/2/24_2.odb,Step-1,Increment      1: Step Time =    1.000,"PART-1-1",           143,      -10.9765,      -1.21375,            0.,NA,NA,"",   350.582E-03,  -350.118E-03,  -18.0436E-03,   3.09418E-03
C:/temp/dataset/2/24_2.odb,Step-1,Increment      1: Step Time =    1.000,"PART-1-1",           144,      -11.4273,       2.02370,            0.,NA,NA,"",   451.523E-03,  -450.356E-03,  -32.4326E-03,   2.21637E-03
C:/temp/dataset/2/24_2.odb,Step-1,Increment      1: Step Time =    1.000,"PART-1-1",           145,      -12.7154,      -6.64001,            0.,NA,NA,"",   206.948E-03,  -200.456E-03,  -51.4314E-03,   2.94484E-03
C:/temp/dataset/2/24_2.odb,Step-1,Increment      1: Step Time =    1.000,"PART-1-1",           146,      -11.7762,      -18.1315,            0.,NA,NA,"",   22.2919E-03,  -18.8760E-03,  -11.8586E-03,   1.84680E-03
C:/temp/dataset/2/24_2.odb,Step-1,Increment      1: Step Time =    1.000,"PART-1-1",           147,      -12.2481,      -24.4184,            0.,NA,NA,"",   6.42092E-03,   3.75233E-03,  -5.21039E-03,   2.03752E-03
C:/temp/dataset/2/24_2.odb,Step-1,Increment      1: Step Time =    1.000,"PART-1-1",           148,       12.5340,       3.42208,            0.,NA,NA,"",   934.189E-03,  -528.644E-03,   770.224E-03,   1.48023E-03
C:/temp/dataset/2/24_2.odb,Step-1,Increment      1: Step Time =    1.000,"PART-1-1",           149,       12.5428,   630.306E-03,            0.,NA,NA,"",   887.987E-03,  -435.336E-03,   773.954E-03,   1.36288E-03
C:/temp/dataset/2/24_2.odb,Step-1,Increment      1: Step Time =    1.000,"PART-1-1",           150,       12.5001,       9.03097,            0.,NA,NA,"",       1.03284,  -698.905E-03,   760.449E-03,   1.29044E-03
C:/temp/dataset/2/24_2.odb,Step-1,Increment      1: Step Time =    1.000,"PART-1-1",           151,       12.7192,       24.5718,            0.,NA,NA,"",       1.26859,      -1.02664,   745.209E-03,   1.18715E-03
C:/temp/dataset/2/24_2.odb,Step-1,Increment      1: Step Time =    1.000,"PART-1-1",           152,       2.66783,      -27.4286,            0.,NA,NA,"",   2.17121E-03,  -2.10684E-03,   524.743E-06,   627.323E-06
C:/temp/dataset/2/24_2.odb,Step-1,Increment      1: Step Time =    1.000,"PART-1-1",           153,       8.86089,      -27.4494,            0.,NA,NA,"",   1.15361E-03,  -1.15360E-03,   4.55590E-06,   286.518E-06
C:/temp/dataset/2/24_2.odb,Step-1,Increment      1: Step Time =    1.000,"PART-1-1",           154,       5.76511,      -27.4328,            0.,NA,NA,"",   1.59247E-03,  -1.58934E-03,   99.7242E-06,   416.086E-06
C:/temp/dataset/2/24_2.odb,Step-1,Increment      1: Step Time =    1.000,"PART-1-1",           155,  -414.647E-03,      -27.4330,            0.,NA,NA,"",   2.76242E-03,  -2.27615E-03,   1.56529E-03,   1.06150E-03
C:/temp/dataset/2/24_2.odb,Step-1,Increment      1: Step Time =    1.000,"PART-1-1",           156,      -3.42691,      -27.4460,            0.,NA,NA,"",   3.19114E-03,  -1.22737E-03,   2.94567E-03,   1.69139E-03
C:/temp/dataset/2/24_2.odb,Step-1,Increment      1: Step Time =    1.000,"PART-1-1",           157,      -6.36574,      -27.4272,            0.,NA,NA,"",   3.37034E-03,   1.18996E-03,   3.15328E-03,   1.88907E-03
C:/temp/dataset/2/24_2.odb,Step-1,Increment      1: Step Time =    1.000,"PART-1-1",           158,       10.5238,       25.0033,            0.,NA,NA,"",       1.25158,      -1.03304,   706.587E-03,   1.24012E-03
C:/temp/dataset/2/24_2.odb,Step-1,Increment      1: Step Time =    1.000,"PART-1-1",           159,       6.26912,       22.1485,            0.,NA,NA,"",       1.17004,  -984.425E-03,   632.373E-03,   2.66360E-03
C:/temp/dataset/2/24_2.odb,Step-1,Increment      1: Step Time =    1.000,"PART-1-1",           160,      -5.96402,      -2.70245,            0.,NA,NA,"",   330.758E-03,  -308.099E-03,   120.316E-03,   3.84761E-03
C:/temp/dataset/2/24_2.odb,Step-1,Increment      1: Step Time =    1.000,"PART-1-1",           161,      -12.5033,       22.4816,            0.,NA,NA,"",       1.05277,  -989.711E-03,   358.881E-03,   4.03936E-06
C:/temp/dataset/2/24_2.odb,Step-1,Increment      1: Step Time =    1.000,"PART-1-1",           162,      -2.53325,       24.9024,            0.,NA,NA,"",       1.14652,      -1.02742,   508.831E-03,   150.428E-06
C:/temp/dataset/2/24_2.odb,Step-1,Increment      1: Step Time =    1.000,"PART-1-1",           163,       4.43197,       24.4161,            0.,NA,NA,"",       1.18725,      -1.01916,   608.993E-03,   1.49211E-03
C:/temp/dataset/2/24_2.odb,Step-1,Increment      1: Step Time =    1.000,"PART-1-1",           164,      -10.2797,      -8.84555,            0.,NA,NA,"",   149.905E-03,  -149.846E-03,   4.22316E-03,   488.810E-06
C:/temp/dataset/2/24_2.odb,Step-1,Increment      1: Step Time =    1.000,"PART-1-1",           165,       2.21534,  -332.134E-03,            0.,NA,NA,"",   573.773E-03,  -391.517E-03,   419.440E-03,   2.66576E-03
C:/temp/dataset/2/24_2.odb,Step-1,Increment      1: Step Time =    1.000,"PART-1-1",           166,  -74.2209E-03,       24.8536,            0.,NA,NA,"",       1.16242,      -1.02648,   545.485E-03,   630.645E-06
C:/temp/dataset/2/24_2.odb,Step-1,Increment      1: Step Time =    1.000,"PART-1-1",           167,       2.30693,       24.7164,            0.,NA,NA,"",       1.17649,      -1.02381,   579.614E-03,   1.29190E-03
C:/temp/dataset/2/24_2.odb,Step-1,Increment      1: Step Time =    1.000,"PART-1-1",           168,       9.79368,       13.9045,            0.,NA,NA,"",       1.07361,  -823.153E-03,   689.247E-03,   1.19626E-03
C:/temp/dataset/2/24_2.odb,Step-1,Increment      1: Step Time =    1.000,"PART-1-1",           169,       9.30777,       16.4521,            0.,NA,NA,"",       1.11278,  -880.387E-03,   680.586E-03,   1.36265E-03
C:/temp/dataset/2/24_2.odb,Step-1,Increment      1: Step Time =    1.000,"PART-1-1",           170,      -2.35985,       1.11806,            0.,NA,NA,"",   501.872E-03,  -436.076E-03,   248.422E-03,   2.36741E-03
C:/temp/dataset/2/24_2.odb,Step-1,Increment      1: Step Time =    1.000,"PART-1-1",           171,      -9.94133,      -13.9778,            0.,NA,NA,"",   63.2621E-03,  -62.8863E-03,   6.88535E-03,   1.13665E-03
C:/temp/dataset/2/24_2.odb,Step-1,Increment      1: Step Time =    1.000,"PART-1-1",           172,       4.80988,   33.7751E-03,            0.,NA,NA,"",   656.726E-03,  -406.809E-03,   515.553E-03,   1.92789E-03
C:/temp/dataset/2/24_2.odb,Step-1,Increment      1: Step Time =    1.000,"PART-1-1",           173,       9.94126,       11.1894,            0.,NA,NA,"",       1.02433,  -756.174E-03,   690.977E-03,   1.05287E-03
C:/temp/dataset/2/24_2.odb,Step-1,Increment      1: Step Time =    1.000,"PART-1-1",           174,       7.43598,   226.782E-03,            0.,NA,NA,"",   737.294E-03,  -417.300E-03,   607.835E-03,   1.41165E-03
C:/temp/dataset/2/24_2.odb,Step-1,Increment      1: Step Time =    1.000,"PART-1-1",           175,      -7.50368,       24.9336,            0.,NA,NA,"",       1.11517,      -1.02728,   433.935E-03,   29.6284E-06
C:/temp/dataset/2/24_2.odb,Step-1,Increment      1: Step Time =    1.000,"PART-1-1",           176,      -10.1536,      -11.3797,            0.,NA,NA,"",   102.687E-03,  -102.533E-03,   5.62940E-03,   803.312E-06
C:/temp/dataset/2/24_2.odb,Step-1,Increment      1: Step Time =    1.000,"PART-1-1",           177,       6.92724,       24.6415,            0.,NA,NA,"",       1.21131,      -1.02472,   645.919E-03,   1.28405E-03
C:/temp/dataset/2/24_2.odb,Step-1,Increment      1: Step Time =    1.000,"PART-1-1",           178,      -9.99868,       24.9580,            0.,NA,NA,"",       1.10113,      -1.02732,   396.341E-03,   13.4363E-06
C:/temp/dataset/2/24_2.odb,Step-1,Increment      1: Step Time =    1.000,"PART-1-1",           179,       8.37028,       18.0705,            0.,NA,NA,"",       1.12897,  -913.704E-03,   663.109E-03,   1.72999E-03
C:/temp/dataset/2/24_2.odb,Step-1,Increment      1: Step Time =    1.000,"PART-1-1",           180,      -10.4068,      -6.54987,            0.,NA,NA,"",   200.865E-03,  -200.862E-03,   1.05750E-03,   1.14343E-03
C:/temp/dataset/2/24_2.odb,Step-1,Increment      1: Step Time =    1.000,"PART-1-1",           181,      -8.52723,      -17.8680,            0.,NA,NA,"",   25.9527E-03,  -20.3473E-03,   16.1100E-03,   2.35616E-03
C:/temp/dataset/2/24_2.odb,Step-1,Increment      1: Step Time =    1.000,"PART-1-1",           182,       9.99063,       8.47585,            0.,NA,NA,"",   971.634E-03,  -683.068E-03,   691.007E-03,   763.557E-06
C:/temp/dataset/2/24_2.odb,Step-1,Increment      1: Step Time =    1.000,"PART-1-1",           183,      -6.87511,      -22.3968,            0.,NA,NA,"",   14.0484E-03,  -773.475E-06,   14.0271E-03,   3.91474E-03
C:/temp/dataset/2/24_2.odb,Step-1,Increment      1: Step Time =    1.000,"PART-1-1",           184,       7.48189,       5.34092,            0.,NA,NA,"",   850.709E-03,  -588.624E-03,   614.188E-03,   1.97596E-03
C:/temp/dataset/2/24_2.odb,Step-1,Increment      1: Step Time =    1.000,"PART-1-1",           185,       10.0207,   425.902E-03,            0.,NA,NA,"",   813.952E-03,  -426.971E-03,   692.974E-03,   1.41026E-03
C:/temp/dataset/2/24_2.odb,Step-1,Increment      1: Step Time =    1.000,"PART-1-1",           186,      -8.86720,      -3.63325,            0.,NA,NA,"",   280.335E-03,  -277.769E-03,   37.8462E-03,   2.72017E-03
C:/temp/dataset/2/24_2.odb,Step-1,Increment      1: Step Time =    1.000,"PART-1-1",           187,       10.0155,       5.77118,            0.,NA,NA,"",   917.730E-03,  -603.323E-03,   691.541E-03,   941.523E-06
C:/temp/dataset/2/24_2.odb,Step-1,Increment      1: Step Time =    1.000,"PART-1-1",           188,       9.07540,       20.2179,            0.,NA,NA,"",       1.17113,  -954.416E-03,   678.700E-03,   1.43499E-03
C:/temp/dataset/2/24_2.odb,Step-1,Increment      1: Step Time =    1.000,"PART-1-1",           189,       5.51479,      -24.9218,            0.,NA,NA,"",   2.43242E-03,  -2.43234E-03,   20.0206E-06,   294.094E-06
C:/temp/dataset/2/24_2.odb,Step-1,Increment      1: Step Time =    1.000,"PART-1-1",           190,       2.33502,      -24.9114,            0.,NA,NA,"",   3.34783E-03,  -3.20468E-03,   968.496E-06,   495.401E-06
C:/temp/dataset/2/24_2.odb,Step-1,Increment      1: Step Time =    1.000,"PART-1-1",           191,      -3.83494,      -24.9465,            0.,NA,NA,"",   7.64099E-03,  -2.55025E-03,   7.20285E-03,   2.37080E-03
C:/temp/dataset/2/24_2.odb,Step-1,Increment      1: Step Time =    1.000,"PART-1-1",           192,       8.68706,      -24.9229,            0.,NA,NA,"",   1.93964E-03,  -1.93616E-03,  -116.178E-06,   176.490E-06
C:/temp/dataset/2/24_2.odb,Step-1,Increment      1: Step Time =    1.000,"PART-1-1",           193,  -793.545E-03,      -24.9263,            0.,NA,NA,"",   5.12108E-03,  -3.73972E-03,   3.49857E-03,   1.34310E-03
C:/temp/dataset/2/24_2.odb,Step-1,Increment      1: Step Time =    1.000,"PART-1-1",           194,      -10.0041,       22.4687,            0.,NA,NA,"",       1.06627,  -989.803E-03,   396.523E-03,   12.2071E-06
C:/temp/dataset/2/24_2.odb,Step-1,Increment      1: Step Time =    1.000,"PART-1-1",           195,       7.76291,       22.5689,            0.,NA,NA,"",       1.19062,  -992.856E-03,   657.122E-03,   1.79116E-03
C:/temp/dataset/2/24_2.odb,Step-1,Increment      1: Step Time =    1.000,"PART-1-1",           196,       10.0314,       3.09975,            0.,NA,NA,"",   864.693E-03,  -517.533E-03,   692.715E-03,   1.45433E-03
C:/temp/dataset/2/24_2.odb,Step-1,Increment      1: Step Time =    1.000,"PART-1-1",           197,       7.45157,       2.78517,            0.,NA,NA,"",   792.017E-03,  -504.668E-03,   610.411E-03,   2.27854E-03
C:/temp/dataset/2/24_2.odb,Step-1,Increment      1: Step Time =    1.000,"PART-1-1",           198,       1.23926,       2.17480,            0.,NA,NA,"",   609.959E-03,  -475.932E-03,   381.495E-03,   2.72770E-03
C:/temp/dataset/2/24_2.odb,Step-1,Increment      1: Step Time =    1.000,"PART-1-1",           199,       5.89388,       23.8379,            0.,NA,NA,"",       1.19086,      -1.01101,   629.288E-03,   1.65041E-03
C:/temp/dataset/2/24_2.odb,Step-1,Increment      1: Step Time =    1.000,"PART-1-1",           200,       4.70825,       2.52712,            0.,NA,NA,"",   711.105E-03,  -491.555E-03,   513.851E-03,   3.33164E-03
C:/temp/dataset/2/24_2.odb,Step-1,Increment      1: Step Time =    1.000,"PART-1-1",           201,      -6.67563,      -24.8783,            0.,NA,NA,"",   7.98388E-03,   1.11020E-03,   7.90631E-03,   2.71284E-03
C:/temp/dataset/2/24_2.odb,Step-1,Increment      1: Step Time =    1.000,"PART-1-1",           202,      -1.93740,       2.90022,            0.,NA,NA,"",   562.037E-03,  -496.213E-03,   263.929E-03,   1.95576E-03
C:/temp/dataset/2/24_2.odb,Step-1,Increment      1: Step Time =    1.000,"PART-1-1",           203,      -4.27328,      -22.5070,            0.,NA,NA,"",   13.0781E-03,  -4.24180E-03,   12.3710E-03,   3.87784E-03
C:/temp/dataset/2/24_2.odb,Step-1,Increment      1: Step Time =    1.000,"PART-1-1",           204,      -7.29195,  -216.826E-03,            0.,NA,NA,"",   393.761E-03,  -384.641E-03,   84.2573E-03,   2.36955E-03
C:/temp/dataset/2/24_2.odb,Step-1,Increment      1: Step Time =    1.000,"PART-1-1",           205,      -4.39370,   432.763E-03,            0.,NA,NA,"",   446.872E-03,  -410.440E-03,   176.732E-03,   2.31265E-03
C:/temp/dataset/2/24_2.odb,Step-1,Increment      1: Step Time =    1.000,"PART-1-1",           206,      -1.20581,      -22.4416,            0.,NA,NA,"",   5.79194E-03,  -3.83653E-03,   4.33908E-03,   1.68608E-03
C:/temp/dataset/2/24_2.odb,Step-1,Increment      1: Step Time =    1.000,"PART-1-1",           207,      -4.88725,       2.78210,            0.,NA,NA,"",   512.169E-03,  -485.858E-03,   162.046E-03,   2.02616E-03
C:/temp/dataset/2/24_2.odb,Step-1,Increment      1: Step Time =    1.000,"PART-1-1",           208,      -8.02678,       2.39768,            0.,NA,NA,"",   471.013E-03,  -466.620E-03,   64.1774E-03,   2.27871E-03
C:/temp/dataset/2/24_2.odb,Step-1,Increment      1: Step Time =    1.000,"PART-1-1",           209,       8.51144,      -22.4401,            0.,NA,NA,"",   2.29967E-03,  -2.28703E-03,  -240.778E-06,   71.1491E-06
C:/temp/dataset/2/24_2.odb,Step-1,Increment      1: Step Time =    1.000,"PART-1-1",           210,       5.25488,      -22.4306,            0.,NA,NA,"",   2.54636E-03,  -2.54254E-03,  -139.567E-06,   135.886E-06
C:/temp/dataset/2/24_2.odb,Step-1,Increment      1: Step Time =    1.000,"PART-1-1",           211,       2.00226,      -22.4217,            0.,NA,NA,"",   3.29410E-03,  -3.14285E-03,   986.715E-06,   455.518E-06
C:/temp/dataset/2/24_2.odb,Step-1,Increment      1: Step Time =    1.000,"PART-1-1",           212,      -9.28570,      -27.3600,            0.,NA,NA,"",   3.53544E-03,   3.33257E-03,   1.18037E-03,   1.36388E-03
C:/temp/dataset/2/24_2.odb,Step-1,Increment      1: Step Time =    1.000,"PART-1-1",           213,       11.7596,      -22.4488,            0.,NA,NA,"",   2.16556E-03,  -2.16470E-03,   60.9409E-06,   17.4043E-06
C:/temp/dataset/2/24_2.odb,Step-1,Increment      1: Step Time =    1.000,"PART-1-1",           214,      -12.4952,       27.4851,            0.,NA,NA,"",       1.12379,      -1.06509,   358.450E-03,   4.07854E-06
C:/temp/dataset/2/24_2.odb,Step-1,Increment      1: Step Time =    1.000,"PART-1-1",           215,      -12.1608,      -27.2494,            0.,NA,NA,"",   3.99251E-03,   3.41883E-03,  -2.06198E-03,   1.67012E-03
C:/temp/dataset/2/24_2.odb,Step-1,Increment      1: Step Time =    1.000,"PART-1-1",           216,      -6.92277,      -20.0189,            0.,NA,NA,"",   22.0589E-03,  -6.57344E-03,   21.0567E-03,   3.38286E-03
C:/temp/dataset/2/24_2.odb,Step-1,Increment      1: Step Time =    1.000,"PART-1-1",           217,       10.3403,       22.5364,            0.,NA,NA,"",       1.21727,  -993.719E-03,   703.040E-03,   1.44599E-03
C:/temp/dataset/2/24_2.odb,Step-1,Increment      1: Step Time =    1.000,"PART-1-1",           218,      -9.38591,      -16.3373,            0.,NA,NA,"",   36.2235E-03,  -34.5800E-03,   10.7872E-03,   1.63364E-03
C:/temp/dataset/2/24_2.odb,Step-1,Increment      1: Step Time =    1.000,"PART-1-1",           219,      -9.56004,      -22.0160,            0.,NA,NA,"",   4.67586E-03,   936.950E-06,   4.58103E-03,   2.00421E-03
C:/temp/dataset/2/24_2.odb,Step-1,Increment      1: Step Time =    1.000,"PART-1-1",           220,      -9.49058,      -24.6874,            0.,NA,NA,"",   4.83420E-03,   3.94530E-03,   2.79358E-03,   1.88159E-03
C:/temp/dataset/2/24_2.odb,Step-1,Increment      1: Step Time =    1.000,"PART-1-1",           221,  -968.003E-03,   33.9082E-03,            0.,NA,NA,"",   500.994E-03,  -401.559E-03,   299.576E-03,   2.43879E-03
C:/temp/dataset/2/24_2.odb,Step-1,Increment      1: Step Time =    1.000,"PART-1-1",           222,   333.674E-03,      -1.00763,            0.,NA,NA,"",   506.661E-03,  -367.482E-03,   348.801E-03,   2.73148E-03
C:/temp/dataset/2/24_2.odb,Step-1,Increment      1: Step Time =    1.000,"PART-1-1",           223,      -10.5623,      -4.72446,            0.,NA,NA,"",   247.612E-03,  -247.578E-03,  -4.13045E-03,   2.04975E-03
C:/temp/dataset/2/24_2.odb,Step-1,Increment      1: Step Time =    1.000,"PART-1-1",           224,      -5.01319,       24.9269,            0.,NA,NA,"",       1.13052,      -1.02752,   471.466E-03,   45.1903E-06
C:/temp/dataset/2/24_2.odb,Step-1,Increment      1: Step Time =    1.000,"PART-1-1",           225,      -9.24174,      -19.5473,            0.,NA,NA,"",   11.8004E-03,  -8.35742E-03,   8.33081E-03,   1.63891E-03
C:/temp/dataset/2/24_2.odb,Step-1,Increment      1: Step Time =    1.000,"PART-1-1",           226,       8.53639,       25.1316,            0.,NA,NA,"",       1.23333,      -1.03385,   672.500E-03,   1.16232E-03
C:/temp/dataset/2/24_2.odb,Step-1,Increment      1: Step Time =    1.000,"PART-1-1",           227,       8.85572,       23.3093,            0.,NA,NA,"",       1.21192,      -1.00539,   676.726E-03,   1.46692E-03
C:/temp/dataset/2/24_2.odb,Step-1,Increment      1: Step Time =    1.000,"PART-1-1",           228,      -13.7516,       22.4908,            0.,NA,NA,"",       1.04650,  -989.707E-03,   340.076E-03,   2.26932E-06
C:/temp/dataset/2/24_2.odb,Step-1,Increment      1: Step Time =    1.000,"PART-1-1",           229,          -15.,         21.25,            0.,NA,NA,"",       1.02269,  -970.870E-03,   321.409E-03,   347.807E-09
C:/temp/dataset/2/24_2.odb,Step-1,Increment      1: Step Time =    1.000,"PART-1-1",           230,        -13.75,           20.,            0.,NA,NA,"",       1.01119,  -952.181E-03,   340.382E-03,   445.613E-09
C:/temp/dataset/2/24_2.odb,Step-1,Increment      1: Step Time =    1.000,"PART-1-1",           231,      -12.5016,       21.2408,            0.,NA,NA,"",       1.03527,  -971.015E-03,   359.046E-03,   2.19286E-06
C:/temp/dataset/2/24_2.odb,Step-1,Increment      1: Step Time =    1.000,"PART-1-1",           232,      -9.99605,       28.7334,            0.,NA,NA,"",       1.15422,      -1.08418,   395.972E-03,   7.68307E-06
C:/temp/dataset/2/24_2.odb,Step-1,Increment      1: Step Time =    1.000,"PART-1-1",           233,        -11.25,           30.,            0.,NA,NA,"",       1.16574,      -1.10312,   376.929E-03,   4.66146E-06
C:/temp/dataset/2/24_2.odb,Step-1,Increment      1: Step Time =    1.000,"PART-1-1",           234,      -12.4976,       28.7426,            0.,NA,NA,"",       1.14171,      -1.08404,   358.272E-03,   2.14835E-06
C:/temp/dataset/2/24_2.odb,Step-1,Increment      1: Step Time =    1.000,"PART-1-1",           235,      -11.2437,       27.4760,            0.,NA,NA,"",       1.12996,      -1.06510,   377.311E-03,   7.83118E-06
C:/temp/dataset/2/24_2.odb,Step-1,Increment      1: Step Time =    1.000,"PART-1-1",           236,      -8.74541,       27.4572,            0.,NA,NA,"",       1.14309,      -1.06511,   414.966E-03,   18.6453E-06
C:/temp/dataset/2/24_2.odb,Step-1,Increment      1: Step Time =    1.000,"PART-1-1",           237,      -7.49936,       28.7238,            0.,NA,NA,"",       1.16778,      -1.08430,   433.601E-03,   19.7855E-06
C:/temp/dataset/2/24_2.odb,Step-1,Increment      1: Step Time =    1.000,"PART-1-1",           238,         -8.75,           30.,            0.,NA,NA,"",       1.17871,      -1.10338,   414.603E-03,   17.7842E-06
C:/temp/dataset/2/24_2.odb,Step-1,Increment      1: Step Time =    1.000,"PART-1-1",           239,      -10.0020,       21.2344,            0.,NA,NA,"",       1.04909,  -971.196E-03,   396.693E-03,   7.66790E-06
C:/temp/dataset/2/24_2.odb,Step-1,Increment      1: Step Time =    1.000,"PART-1-1",           240,      -11.2537,       22.4752,            0.,NA,NA,"",       1.05938,  -989.756E-03,   377.703E-03,   7.85924E-06
C:/temp/dataset/2/24_2.odb,Step-1,Increment      1: Step Time =    1.000,"PART-1-1",           241,        -11.25,           20.,            0.,NA,NA,"",       1.02474,  -952.461E-03,   378.040E-03,   4.88824E-06
C:/temp/dataset/2/24_2.odb,Step-1,Increment      1: Step Time =    1.000,"PART-1-1",           242,      -6.25410,       27.4469,            0.,NA,NA,"",       1.15737,      -1.06524,   452.504E-03,   26.3935E-06
C:/temp/dataset/2/24_2.odb,Step-1,Increment      1: Step Time =    1.000,"PART-1-1",           243,      -7.50120,       26.1906,            0.,NA,NA,"",       1.13259,      -1.04620,   433.848E-03,   23.6093E-06
C:/temp/dataset/2/24_2.odb,Step-1,Increment      1: Step Time =    1.000,"PART-1-1",           244,      -6.25844,       24.9303,            0.,NA,NA,"",       1.12271,      -1.02740,   452.699E-03,   32.8983E-06
C:/temp/dataset/2/24_2.odb,Step-1,Increment      1: Step Time =    1.000,"PART-1-1",           245,      -5.01133,       26.1865,            0.,NA,NA,"",       1.14772,      -1.04647,   471.352E-03,   29.4807E-06
C:/temp/dataset/2/24_2.odb,Step-1,Increment      1: Step Time =    1.000,"PART-1-1",           246,       1.11906,       22.3143,            0.,NA,NA,"",       1.13797,  -987.663E-03,   565.251E-03,   1.48578E-03
C:/temp/dataset/2/24_2.odb,Step-1,Increment      1: Step Time =    1.000,"PART-1-1",           247,  -37.5712E-03,       21.1808,            0.,NA,NA,"",       1.11595,  -971.535E-03,   549.058E-03,   1.15543E-03
C:/temp/dataset/2/24_2.odb,Step-1,Increment      1: Step Time =    1.000,"PART-1-1",           248,          1.25,           20.,            0.,NA,NA,"",       1.11137,  -953.425E-03,   571.076E-03,   1.88466E-03
C:/temp/dataset/2/24_2.odb,Step-1,Increment      1: Step Time =    1.000,"PART-1-1",           249,       2.40663,       21.1336,            0.,NA,NA,"",       1.13172,  -968.920E-03,   584.798E-03,   2.30626E-03
C:/temp/dataset/2/24_2.odb,Step-1,Increment      1: Step Time =    1.000,"PART-1-1",           250,  -46.9838E-03,       26.1228,            0.,NA,NA,"",       1.17942,      -1.04578,   545.327E-03,   468.053E-06
C:/temp/dataset/2/24_2.odb,Step-1,Increment      1: Step Time =    1.000,"PART-1-1",           251,       1.11635,       24.7850,            0.,NA,NA,"",       1.16951,      -1.02516,   562.864E-03,   929.205E-06
C:/temp/dataset/2/24_2.odb,Step-1,Increment      1: Step Time =    1.000,"PART-1-1",           252,       2.41618,       25.9912,            0.,NA,NA,"",       1.19440,      -1.04370,   580.758E-03,   969.902E-06
C:/temp/dataset/2/24_2.odb,Step-1,Increment      1: Step Time =    1.000,"PART-1-1",           253,       1.25284,       27.3289,            0.,NA,NA,"",       1.20437,      -1.06424,   563.832E-03,   588.294E-06
C:/temp/dataset/2/24_2.odb,Step-1,Increment      1: Step Time =    1.000,"PART-1-1",           254,       11.4216,       22.1022,            0.,NA,NA,"",       1.22327,  -986.689E-03,   723.076E-03,   1.34248E-03
C:/temp/dataset/2/24_2.odb,Step-1,Increment      1: Step Time =    1.000,"PART-1-1",           255,       9.70783,       21.3771,            0.,NA,NA,"",       1.19459,  -974.378E-03,   691.113E-03,   1.35305E-03
C:/temp/dataset/2/24_2.odb,Step-1,Increment      1: Step Time =    1.000,"PART-1-1",           256,       10.3968,       19.2167,            0.,NA,NA,"",       1.17151,  -936.258E-03,   704.174E-03,   895.809E-06
C:/temp/dataset/2/24_2.odb,Step-1,Increment      1: Step Time =    1.000,"PART-1-1",           257,       12.1105,       19.9418,            0.,NA,NA,"",       1.20214,  -949.253E-03,   737.607E-03,   1.24598E-03
C:/temp/dataset/2/24_2.odb,Step-1,Increment      1: Step Time =    1.000,"PART-1-1",           258,       11.6215,       24.7876,            0.,NA,NA,"",       1.26006,      -1.02998,   725.870E-03,   1.14806E-03
C:/temp/dataset/2/24_2.odb,Step-1,Increment      1: Step Time =    1.000,"PART-1-1",           259,       12.6971,       25.9410,            0.,NA,NA,"",       1.28568,      -1.04839,   744.214E-03,   932.027E-06
C:/temp/dataset/2/24_2.odb,Step-1,Increment      1: Step Time =    1.000,"PART-1-1",           260,       11.4859,       27.3886,            0.,NA,NA,"",       1.29236,      -1.07106,   723.200E-03,   789.076E-06
C:/temp/dataset/2/24_2.odb,Step-1,Increment      1: Step Time =    1.000,"PART-1-1",           261,       10.4103,       26.2351,            0.,NA,NA,"",       1.26654,      -1.05236,   704.753E-03,   1.05162E-03
C:/temp/dataset/2/24_2.odb,Step-1,Increment      1: Step Time =    1.000,"PART-1-1",           262,       5.88041,       17.6377,            0.,NA,NA,"",       1.08979,  -901.461E-03,   612.384E-03,   4.94570E-03
C:/temp/dataset/2/24_2.odb,Step-1,Increment      1: Step Time =    1.000,"PART-1-1",           263,       6.75071,       18.9160,            0.,NA,NA,"",       1.12512,  -929.747E-03,   633.621E-03,   2.94959E-03
C:/temp/dataset/2/24_2.odb,Step-1,Increment      1: Step Time =    1.000,"PART-1-1",           264,       5.87030,       20.0282,            0.,NA,NA,"",       1.13593,  -950.926E-03,   621.355E-03,   4.72984E-03
C:/temp/dataset/2/24_2.odb,Step-1,Increment      1: Step Time =    1.000,"PART-1-1",           265,            5.,         18.75,            0.,NA,NA,"",       1.10096,  -922.718E-03,   600.578E-03,   7.67734E-03
C:/temp/dataset/2/24_2.odb,Step-1,Increment      1: Step Time =    1.000,"PART-1-1",           266,       12.3690,       13.3305,            0.,NA,NA,"",       1.10462,  -810.156E-03,   750.893E-03,   1.14821E-03
C:/temp/dataset/2/24_2.odb,Step-1,Increment      1: Step Time =    1.000,"PART-1-1",           267,       13.7195,       12.1790,            0.,NA,NA,"",       1.10844,  -781.294E-03,   786.272E-03,   2.41539E-03
C:/temp/dataset/2/24_2.odb,Step-1,Increment      1: Step Time =    1.000,"PART-1-1",           268,           15.,       13.9583,            0.,NA,NA,"",       1.15614,  -822.947E-03,   812.046E-03,   3.58780E-03
C:/temp/dataset/2/24_2.odb,Step-1,Increment      1: Step Time =    1.000,"PART-1-1",           269,       13.6495,       15.1098,            0.,NA,NA,"",       1.15256,  -850.746E-03,   777.570E-03,   2.31466E-03
C:/temp/dataset/2/24_2.odb,Step-1,Increment      1: Step Time =    1.000,"PART-1-1",           270,       12.5214,       4.81657,            0.,NA,NA,"",   958.347E-03,  -573.553E-03,   767.767E-03,   1.41602E-03
C:/temp/dataset/2/24_2.odb,Step-1,Increment      1: Step Time =    1.000,"PART-1-1",           271,       13.7670,       3.58604,            0.,NA,NA,"",   968.847E-03,  -533.814E-03,   808.522E-03,   1.84765E-03
C:/temp/dataset/2/24_2.odb,Step-1,Increment      1: Step Time =    1.000,"PART-1-1",           272,           15.,       5.20833,            0.,NA,NA,"",       1.02590,  -584.662E-03,   843.000E-03,   2.95033E-03
C:/temp/dataset/2/24_2.odb,Step-1,Increment      1: Step Time =    1.000,"PART-1-1",           273,       13.7545,       6.43886,            0.,NA,NA,"",       1.01543,  -623.260E-03,   801.645E-03,   2.30558E-03
C:/temp/dataset/2/24_2.odb,Step-1,Increment      1: Step Time =    1.000,"PART-1-1",           274,       13.7625,      -2.13133,            0.,NA,NA,"",   885.256E-03,  -341.810E-03,   816.605E-03,   529.150E-06
C:/temp/dataset/2/24_2.odb,Step-1,Increment      1: Step Time =    1.000,"PART-1-1",           275,       12.5125,      -3.58966,            0.,NA,NA,"",   829.206E-03,  -291.673E-03,   776.215E-03,   503.989E-06
C:/temp/dataset/2/24_2.odb,Step-1,Increment      1: Step Time =    1.000,"PART-1-1",           276,         13.75,           -5.,            0.,NA,NA,"",   854.023E-03,  -245.230E-03,   818.057E-03,   95.1223E-06
C:/temp/dataset/2/24_2.odb,Step-1,Increment      1: Step Time =    1.000,"PART-1-1",           277,           15.,      -3.54167,            0.,NA,NA,"",   908.212E-03,  -294.805E-03,   859.033E-03,   116.136E-06
C:/temp/dataset/2/24_2.odb,Step-1,Increment      1: Step Time =    1.000,"PART-1-1",           278,      -9.21387,      -6.21191,            0.,NA,NA,"",   210.997E-03,  -209.073E-03,   28.4285E-03,   1.37089E-03
C:/temp/dataset/2/24_2.odb,Step-1,Increment      1: Step Time =    1.000,"PART-1-1",           279,      -8.44405,      -4.75360,            0.,NA,NA,"",   250.783E-03,  -246.054E-03,   48.4761E-03,   2.26372E-03
C:/temp/dataset/2/24_2.odb,Step-1,Increment      1: Step Time =    1.000,"PART-1-1",           280,      -9.71477,      -4.17886,            0.,NA,NA,"",   262.842E-03,  -262.331E-03,   16.3773E-03,   2.23810E-03
C:/temp/dataset/2/24_2.odb,Step-1,Increment      1: Step Time =    1.000,"PART-1-1",           281,      -10.4846,      -5.63717,            0.,NA,NA,"",   223.660E-03,  -223.656E-03,  -1.40417E-03,   1.59133E-03
C:/temp/dataset/2/24_2.odb,Step-1,Increment      1: Step Time =    1.000,"PART-1-1",           282,      -5.84282,   107.969E-03,            0.,NA,NA,"",   417.730E-03,  -397.305E-03,   129.025E-03,   1.91842E-03
C:/temp/dataset/2/24_2.odb,Step-1,Increment      1: Step Time =    1.000,"PART-1-1",           283,      -4.64047,       1.60743,            0.,NA,NA,"",   479.071E-03,  -448.110E-03,   169.431E-03,   1.95847E-03
C:/temp/dataset/2/24_2.odb,Step-1,Increment      1: Step Time =    1.000,"PART-1-1",           284,      -6.45702,       2.58989,            0.,NA,NA,"",   488.970E-03,  -476.030E-03,   111.747E-03,   1.93957E-03
C:/temp/dataset/2/24_2.odb,Step-1,Increment      1: Step Time =    1.000,"PART-1-1",           285,      -7.65937,       1.09043,            0.,NA,NA,"",   432.217E-03,  -425.771E-03,   74.3671E-03,   2.20720E-03
C:/temp/dataset/2/24_2.odb,Step-1,Increment      1: Step Time =    1.000,"PART-1-1",           286,      -6.51044,      -5.43697,            0.,NA,NA,"",   247.138E-03,  -227.306E-03,   97.0019E-03,   5.56178E-03
C:/temp/dataset/2/24_2.odb,Step-1,Increment      1: Step Time =    1.000,"PART-1-1",           287,      -5.48201,      -3.85122,            0.,NA,NA,"",   302.937E-03,  -272.815E-03,   131.692E-03,   5.62207E-03
C:/temp/dataset/2/24_2.odb,Step-1,Increment      1: Step Time =    1.000,"PART-1-1",           288,      -7.41561,      -3.16785,            0.,NA,NA,"",   301.830E-03,  -291.847E-03,   76.9874E-03,   3.02010E-03
C:/temp/dataset/2/24_2.odb,Step-1,Increment      1: Step Time =    1.000,"PART-1-1",           289,      -12.6742,      -10.6472,            0.,NA,NA,"",   122.758E-03,  -116.284E-03,  -39.3406E-03,   2.84023E-03
C:/temp/dataset/2/24_2.odb,Step-1,Increment      1: Step Time =    1.000,"PART-1-1",           290,      -11.3911,      -11.6978,            0.,NA,NA,"",   98.2978E-03,  -97.1243E-03,  -15.1432E-03,   984.451E-06
C:/temp/dataset/2/24_2.odb,Step-1,Increment      1: Step Time =    1.000,"PART-1-1",           291,      -10.2167,      -10.1126,            0.,NA,NA,"",   125.294E-03,  -125.192E-03,   5.06049E-03,   691.256E-06
C:/temp/dataset/2/24_2.odb,Step-1,Increment      1: Step Time =    1.000,"PART-1-1",           292,      -11.4997,      -9.06207,            0.,NA,NA,"",   147.115E-03,  -145.724E-03,  -20.1848E-03,   1.31783E-03
C:/temp/dataset/2/24_2.odb,Step-1,Increment      1: Step Time =    1.000,"PART-1-1",           293,      -13.7107,      -15.1438,            0.,NA,NA,"",   64.4299E-03,  -50.6119E-03,  -39.8704E-03,   4.36954E-03
C:/temp/dataset/2/24_2.odb,Step-1,Increment      1: Step Time =    1.000,"PART-1-1",           294,      -12.5249,      -13.4434,            0.,NA,NA,"",   76.9647E-03,  -71.0099E-03,  -29.6842E-03,   2.62199E-03
C:/temp/dataset/2/24_2.odb,Step-1,Increment      1: Step Time =    1.000,"PART-1-1",           295,      -13.8143,      -12.2579,            0.,NA,NA,"",   105.173E-03,  -90.7562E-03,  -53.1475E-03,   4.55176E-03
C:/temp/dataset/2/24_2.odb,Step-1,Increment      1: Step Time =    1.000,"PART-1-1",           296,          -15.,      -13.9583,            0.,NA,NA,"",   92.6007E-03,  -68.6274E-03,  -62.1705E-03,   6.30508E-03
C:/temp/dataset/2/24_2.odb,Step-1,Increment      1: Step Time =    1.000,"PART-1-1",           297,      -12.0988,      -16.5012,            0.,NA,NA,"",   37.9587E-03,  -33.5406E-03,  -17.7733E-03,   2.10993E-03
C:/temp/dataset/2/24_2.odb,Step-1,Increment      1: Step Time =    1.000,"PART-1-1",           298,      -10.5811,      -17.2344,            0.,NA,NA,"",   25.7248E-03,  -25.6640E-03,  -1.76753E-03,   421.877E-06
C:/temp/dataset/2/24_2.odb,Step-1,Increment      1: Step Time =    1.000,"PART-1-1",           299,      -9.66362,      -15.1575,            0.,NA,NA,"",   48.7390E-03,  -47.8675E-03,   9.17577E-03,   1.38312E-03
C:/temp/dataset/2/24_2.odb,Step-1,Increment      1: Step Time =    1.000,"PART-1-1",           300,      -11.1813,      -14.4243,            0.,NA,NA,"",   57.6300E-03,  -56.8028E-03,  -9.72917E-03,   676.266E-06
C:/temp/dataset/2/24_2.odb,Step-1,Increment      1: Step Time =    1.000,"PART-1-1",           301,      -10.5090,      -18.8394,            0.,NA,NA,"",   13.0026E-03,  -12.9787E-03,  -787.337E-06,   978.539E-06
C:/temp/dataset/2/24_2.odb,Step-1,Increment      1: Step Time =    1.000,"PART-1-1",           302,      -8.88448,      -18.7076,            0.,NA,NA,"",   18.2337E-03,  -13.7411E-03,   11.9853E-03,   1.75795E-03
C:/temp/dataset/2/24_2.odb,Step-1,Increment      1: Step Time =    1.000,"PART-1-1",           303,      -8.95657,      -17.1026,            0.,NA,NA,"",   30.5188E-03,  -27.1828E-03,   13.8741E-03,   2.07619E-03
C:/temp/dataset/2/24_2.odb,Step-1,Increment      1: Step Time =    1.000,"PART-1-1",           304,      -8.08225,      -19.7831,            0.,NA,NA,"",   17.2057E-03,  -7.34367E-03,   15.5598E-03,   2.31797E-03
C:/temp/dataset/2/24_2.odb,Step-1,Increment      1: Step Time =    1.000,"PART-1-1",           305,      -6.89084,      -18.8787,            0.,NA,NA,"",   28.3187E-03,  -13.3300E-03,   24.9852E-03,   4.21598E-03
C:/temp/dataset/2/24_2.odb,Step-1,Increment      1: Step Time =    1.000,"PART-1-1",           306,      -7.69307,      -17.8032,            0.,NA,NA,"",   31.9122E-03,  -21.8820E-03,   23.2286E-03,   4.04253E-03
C:/temp/dataset/2/24_2.odb,Step-1,Increment      1: Step Time =    1.000,"PART-1-1",           307,       7.10093,      -24.9223,            0.,NA,NA,"",   2.15177E-03,  -2.14866E-03,  -115.665E-06,   238.957E-06
C:/temp/dataset/2/24_2.odb,Step-1,Increment      1: Step Time =    1.000,"PART-1-1",           308,       8.59925,      -23.6815,            0.,NA,NA,"",   2.15741E-03,  -2.14912E-03,  -188.943E-06,   120.800E-06
C:/temp/dataset/2/24_2.odb,Step-1,Increment      1: Step Time =    1.000,"PART-1-1",           309,       6.88316,      -22.4353,            0.,NA,NA,"",   2.40701E-03,  -2.39339E-03,  -255.752E-06,   98.7573E-06
C:/temp/dataset/2/24_2.odb,Step-1,Increment      1: Step Time =    1.000,"PART-1-1",           310,       5.38484,      -23.6762,            0.,NA,NA,"",   2.58601E-03,  -2.58531E-03,  -60.1416E-06,   206.234E-06
C:/temp/dataset/2/24_2.odb,Step-1,Increment      1: Step Time =    1.000,"PART-1-1",           311,       13.3798,      -22.4744,            0.,NA,NA,"",   2.16823E-03,  -2.14625E-03,   307.915E-06,   9.59633E-06
C:/temp/dataset/2/24_2.odb,Step-1,Increment      1: Step Time =    1.000,"PART-1-1",           312,           15.,        -21.25,            0.,NA,NA,"",   2.39703E-03,  -2.32955E-03,   564.747E-06,   6.40960E-06
C:/temp/dataset/2/24_2.odb,Step-1,Increment      1: Step Time =    1.000,"PART-1-1",           313,       13.3333,          -20.,            0.,NA,NA,"",   2.53352E-03,  -2.51552E-03,   301.480E-06,   10.1379E-06
C:/temp/dataset/2/24_2.odb,Step-1,Increment      1: Step Time =    1.000,"PART-1-1",           314,       11.7131,      -21.2244,            0.,NA,NA,"",   2.33350E-03,  -2.33285E-03,   55.2388E-06,   4.24059E-06
C:/temp/dataset/2/24_2.odb,Step-1,Increment      1: Step Time =    1.000,"PART-1-1",           315,      -2.14863,       2.00914,            0.,NA,NA,"",   531.661E-03,  -465.858E-03,   256.201E-03,   2.14014E-03
C:/temp/dataset/2/24_2.odb,Step-1,Increment      1: Step Time =    1.000,"PART-1-1",           316,      -1.66393,   575.985E-03,            0.,NA,NA,"",   500.535E-03,  -418.935E-03,   273.913E-03,   2.39884E-03
C:/temp/dataset/2/24_2.odb,Step-1,Increment      1: Step Time =    1.000,"PART-1-1",           317,   135.628E-03,       1.10435,            0.,NA,NA,"",   555.056E-03,  -438.445E-03,   340.372E-03,   2.41197E-03
C:/temp/dataset/2/24_2.odb,Step-1,Increment      1: Step Time =    1.000,"PART-1-1",           318,  -349.073E-03,       2.53751,            0.,NA,NA,"",   583.349E-03,  -486.350E-03,   322.119E-03,   2.13617E-03
C:/temp/dataset/2/24_2.odb,Step-1,Increment      1: Step Time =    1.000,"PART-1-1",           319,   156.145E-03,      -1.87787,            0.,NA,NA,"",   481.296E-03,  -338.018E-03,   342.622E-03,   2.53136E-03
C:/temp/dataset/2/24_2.odb,Step-1,Increment      1: Step Time =    1.000,"PART-1-1",           320,       1.21010,      -2.70880,            0.,NA,NA,"",   492.394E-03,  -309.670E-03,   382.827E-03,   1.73824E-03
C:/temp/dataset/2/24_2.odb,Step-1,Increment      1: Step Time =    1.000,"PART-1-1",           321,       2.32846,      -1.50081,            0.,NA,NA,"",   550.997E-03,  -351.899E-03,   423.987E-03,   2.04778E-03
C:/temp/dataset/2/24_2.odb,Step-1,Increment      1: Step Time =    1.000,"PART-1-1",           322,       1.27451,  -669.883E-03,            0.,NA,NA,"",   539.878E-03,  -379.434E-03,   384.056E-03,   2.67140E-03
C:/temp/dataset/2/24_2.odb,Step-1,Increment      1: Step Time =    1.000,"PART-1-1",           323,       4.87500,      -1.23074,            0.,NA,NA,"",   632.586E-03,  -363.743E-03,   517.548E-03,   1.48253E-03
C:/temp/dataset/2/24_2.odb,Step-1,Increment      1: Step Time =    1.000,"PART-1-1",           324,       6.20088,      -2.43579,            0.,NA,NA,"",   650.851E-03,  -323.986E-03,   564.482E-03,   809.661E-06
C:/temp/dataset/2/24_2.odb,Step-1,Increment      1: Step Time =    1.000,"PART-1-1",           325,       7.44880,      -1.07477,            0.,NA,NA,"",   712.831E-03,  -372.524E-03,   607.745E-03,   1.10394E-03
C:/temp/dataset/2/24_2.odb,Step-1,Increment      1: Step Time =    1.000,"PART-1-1",           326,       6.12293,   130.279E-03,            0.,NA,NA,"",   697.188E-03,  -412.003E-03,   562.428E-03,   1.48556E-03
C:/temp/dataset/2/24_2.odb,Step-1,Increment      1: Step Time =    1.000,"PART-1-1",           327,          8.75,           -5.,            0.,NA,NA,"",   694.554E-03,  -239.796E-03,   651.846E-03,   1.21532E-03
C:/temp/dataset/2/24_2.odb,Step-1,Increment      1: Step Time =    1.000,"PART-1-1",           328,       10.0063,      -3.63741,            0.,NA,NA,"",   750.865E-03,  -287.670E-03,   693.574E-03,   899.579E-06
C:/temp/dataset/2/24_2.odb,Step-1,Increment      1: Step Time =    1.000,"PART-1-1",           329,       8.73716,      -2.32557,            0.,NA,NA,"",   730.462E-03,  -331.074E-03,   651.126E-03,   901.584E-06
C:/temp/dataset/2/24_2.odb,Step-1,Increment      1: Step Time =    1.000,"PART-1-1",           330,       7.48081,      -3.68816,            0.,NA,NA,"",   671.163E-03,  -282.525E-03,   608.802E-03,   1.11664E-03
C:/temp/dataset/2/24_2.odb,Step-1,Increment      1: Step Time =    1.000,"PART-1-1",           331,       6.24109,       7.72904,            0.,NA,NA,"",   878.203E-03,  -657.202E-03,   582.516E-03,   4.54822E-03
C:/temp/dataset/2/24_2.odb,Step-1,Increment      1: Step Time =    1.000,"PART-1-1",           332,            5.,          6.25,            0.,NA,NA,"",   815.520E-03,  -611.721E-03,   539.324E-03,   7.21564E-03
C:/temp/dataset/2/24_2.odb,Step-1,Increment      1: Step Time =    1.000,"PART-1-1",           333,       6.24095,       5.17046,            0.,NA,NA,"",   818.682E-03,  -583.327E-03,   574.431E-03,   4.21450E-03
C:/temp/dataset/2/24_2.odb,Step-1,Increment      1: Step Time =    1.000,"PART-1-1",           334,       7.48203,       6.64950,            0.,NA,NA,"",   880.121E-03,  -628.499E-03,   616.119E-03,   2.38513E-03
C:/temp/dataset/2/24_2.odb,Step-1,Increment      1: Step Time =    1.000,"PART-1-1",           335,       7.34508,       23.6052,            0.,NA,NA,"",       1.20085,      -1.00877,   651.482E-03,   1.50945E-03
C:/temp/dataset/2/24_2.odb,Step-1,Increment      1: Step Time =    1.000,"PART-1-1",           336,       6.41056,       24.2397,            0.,NA,NA,"",       1.20101,      -1.01785,   637.497E-03,   1.40387E-03
C:/temp/dataset/2/24_2.odb,Step-1,Increment      1: Step Time =    1.000,"PART-1-1",           337,       6.08150,       22.9932,            0.,NA,NA,"",       1.18055,  -997.729E-03,   631.054E-03,   2.03479E-03
C:/temp/dataset/2/24_2.odb,Step-1,Increment      1: Step Time =    1.000,"PART-1-1",           338,       7.01602,       22.3587,            0.,NA,NA,"",       1.18019,  -988.724E-03,   644.422E-03,   2.07394E-03
C:/temp/dataset/2/24_2.odb,Step-1,Increment      1: Step Time =    1.000,"PART-1-1",           339,      -12.5005,       23.7291,            0.,NA,NA,"",       1.07043,      -1.00851,   358.784E-03,   3.65447E-06
C:/temp/dataset/2/24_2.odb,Step-1,Increment      1: Step Time =    1.000,"PART-1-1",           340,      -13.7489,       24.9883,            0.,NA,NA,"",       1.08209,      -1.02734,   339.838E-03,   3.10044E-06
C:/temp/dataset/2/24_2.odb,Step-1,Increment      1: Step Time =    1.000,"PART-1-1",           341,          -15.,         23.75,            0.,NA,NA,"",       1.05843,      -1.00854,   321.127E-03,   1.50768E-06
C:/temp/dataset/2/24_2.odb,Step-1,Increment      1: Step Time =    1.000,"PART-1-1",           342,      -2.52491,       26.1674,            0.,NA,NA,"",       1.16351,      -1.04643,   508.670E-03,   111.804E-06
C:/temp/dataset/2/24_2.odb,Step-1,Increment      1: Step Time =    1.000,"PART-1-1",           343,      -1.30373,       24.8780,            0.,NA,NA,"",       1.15448,      -1.02703,   527.282E-03,   364.597E-06
C:/temp/dataset/2/24_2.odb,Step-1,Increment      1: Step Time =    1.000,"PART-1-1",           344,      -1.26817,       27.4122,            0.,NA,NA,"",       1.18849,      -1.06523,   527.059E-03,   225.156E-06
C:/temp/dataset/2/24_2.odb,Step-1,Increment      1: Step Time =    1.000,"PART-1-1",           345,       2.31009,       23.4917,            0.,NA,NA,"",       1.16038,      -1.00467,   580.622E-03,   1.78835E-03
C:/temp/dataset/2/24_2.odb,Step-1,Increment      1: Step Time =    1.000,"PART-1-1",           346,       3.41051,       22.2101,            0.,NA,NA,"",       1.15014,  -983.947E-03,   595.552E-03,   2.38150E-03
C:/temp/dataset/2/24_2.odb,Step-1,Increment      1: Step Time =    1.000,"PART-1-1",           347,       4.46987,       23.2845,            0.,NA,NA,"",       1.17191,      -1.00111,   609.222E-03,   2.08464E-03
C:/temp/dataset/2/24_2.odb,Step-1,Increment      1: Step Time =    1.000,"PART-1-1",           348,       3.36945,       24.5662,            0.,NA,NA,"",       1.18177,      -1.02140,   594.419E-03,   1.32309E-03
C:/temp/dataset/2/24_2.odb,Step-1,Increment      1: Step Time =    1.000,"PART-1-1",           349,       3.92627,       27.0683,            0.,NA,NA,"",       1.22004,      -1.06100,   602.324E-03,   825.107E-06
C:/temp/dataset/2/24_2.odb,Step-1,Increment      1: Step Time =    1.000,"PART-1-1",           350,       5.16355,       28.4353,            0.,NA,NA,"",       1.24844,      -1.08310,   620.882E-03,   861.431E-06
C:/temp/dataset/2/24_2.odb,Step-1,Increment      1: Step Time =    1.000,"PART-1-1",           351,          3.75,           30.,            0.,NA,NA,"",       1.25818,      -1.10577,   600.241E-03,   767.314E-06
C:/temp/dataset/2/24_2.odb,Step-1,Increment      1: Step Time =    1.000,"PART-1-1",           352,       2.51272,       28.6330,            0.,NA,NA,"",       1.23079,      -1.08450,   581.972E-03,   559.039E-06
C:/temp/dataset/2/24_2.odb,Step-1,Increment      1: Step Time =    1.000,"PART-1-1",           353,       11.0463,       14.3537,            0.,NA,NA,"",       1.10118,  -834.257E-03,   718.764E-03,   96.9797E-06
C:/temp/dataset/2/24_2.odb,Step-1,Increment      1: Step Time =    1.000,"PART-1-1",           354,       9.86747,       12.5470,            0.,NA,NA,"",       1.04922,  -790.402E-03,   690.019E-03,   1.12105E-03
C:/temp/dataset/2/24_2.odb,Step-1,Increment      1: Step Time =    1.000,"PART-1-1",           355,       11.1901,       11.5237,            0.,NA,NA,"",       1.05298,  -765.389E-03,   723.147E-03,   86.6749E-06
C:/temp/dataset/2/24_2.odb,Step-1,Increment      1: Step Time =    1.000,"PART-1-1",           356,       9.55073,       15.1783,            0.,NA,NA,"",       1.09336,  -852.388E-03,   684.746E-03,   1.27553E-03
C:/temp/dataset/2/24_2.odb,Step-1,Increment      1: Step Time =    1.000,"PART-1-1",           357,       8.18591,       15.9712,            0.,NA,NA,"",       1.08837,  -868.770E-03,   655.580E-03,   2.53179E-03
C:/temp/dataset/2/24_2.odb,Step-1,Increment      1: Step Time =    1.000,"PART-1-1",           358,       7.20669,       14.2932,            0.,NA,NA,"",       1.04082,  -828.972E-03,   629.371E-03,   3.57279E-03
C:/temp/dataset/2/24_2.odb,Step-1,Increment      1: Step Time =    1.000,"PART-1-1",           359,       8.57151,       13.5002,            0.,NA,NA,"",       1.04642,  -812.281E-03,   659.685E-03,   2.31222E-03
C:/temp/dataset/2/24_2.odb,Step-1,Increment      1: Step Time =    1.000,"PART-1-1",           360,       7.44377,       1.50598,            0.,NA,NA,"",   763.822E-03,  -461.157E-03,   608.900E-03,   1.77568E-03
C:/temp/dataset/2/24_2.odb,Step-1,Increment      1: Step Time =    1.000,"PART-1-1",           361,       8.72836,   326.342E-03,            0.,NA,NA,"",   775.888E-03,  -422.309E-03,   650.890E-03,   1.23891E-03
C:/temp/dataset/2/24_2.odb,Step-1,Increment      1: Step Time =    1.000,"PART-1-1",           362,       10.0261,       1.76283,            0.,NA,NA,"",   838.686E-03,  -472.563E-03,   692.877E-03,   1.46390E-03
C:/temp/dataset/2/24_2.odb,Step-1,Increment      1: Step Time =    1.000,"PART-1-1",           363,       8.74149,       2.94246,            0.,NA,NA,"",   828.755E-03,  -511.405E-03,   652.150E-03,   1.63999E-03
C:/temp/dataset/2/24_2.odb,Step-1,Increment      1: Step Time =    1.000,"PART-1-1",           364,       12.5045,       7.62102,            0.,NA,NA,"",       1.00791,  -658.828E-03,   762.782E-03,   1.32504E-03
C:/temp/dataset/2/24_2.odb,Step-1,Increment      1: Step Time =    1.000,"PART-1-1",           365,           15.,         8.125,            0.,NA,NA,"",       1.07003,  -671.639E-03,   832.990E-03,   3.47323E-03
C:/temp/dataset/2/24_2.odb,Step-1,Increment      1: Step Time =    1.000,"PART-1-1",           366,       13.7500,       9.30715,            0.,NA,NA,"",       1.06268,  -705.956E-03,   794.306E-03,   2.43910E-03
C:/temp/dataset/2/24_2.odb,Step-1,Increment      1: Step Time =    1.000,"PART-1-1",           367,      -1.45938,      -2.40358,            0.,NA,NA,"",   426.778E-03,  -320.195E-03,   282.160E-03,   2.84045E-03
C:/temp/dataset/2/24_2.odb,Step-1,Increment      1: Step Time =    1.000,"PART-1-1",           368,      -2.69869,      -3.52952,            0.,NA,NA,"",   368.124E-03,  -282.544E-03,   235.975E-03,   2.85428E-03
C:/temp/dataset/2/24_2.odb,Step-1,Increment      1: Step Time =    1.000,"PART-1-1",           369,         -1.25,           -5.,            0.,NA,NA,"",   371.284E-03,  -227.416E-03,   293.485E-03,   1.87372E-03
C:/temp/dataset/2/24_2.odb,Step-1,Increment      1: Step Time =    1.000,"PART-1-1",           370,  -10.6917E-03,      -3.87406,            0.,NA,NA,"",   431.805E-03,  -268.290E-03,   338.343E-03,   1.29065E-03
C:/temp/dataset/2/24_2.odb,Step-1,Increment      1: Step Time =    1.000,"PART-1-1",           371,      -13.3333,            5.,            0.,NA,NA,"",   545.497E-03,  -538.348E-03,  -88.0266E-03,   283.100E-06
C:/temp/dataset/2/24_2.odb,Step-1,Increment      1: Step Time =    1.000,"PART-1-1",           372,          -15.,       3.54167,            0.,NA,NA,"",   512.945E-03,  -494.497E-03,  -136.330E-03,   254.595E-06
C:/temp/dataset/2/24_2.odb,Step-1,Increment      1: Step Time =    1.000,"PART-1-1",           373,      -13.2137,       2.05352,            0.,NA,NA,"",   457.934E-03,  -450.364E-03,  -82.9203E-03,   1.25577E-03
C:/temp/dataset/2/24_2.odb,Step-1,Increment      1: Step Time =    1.000,"PART-1-1",           374,      -11.5470,       3.51185,            0.,NA,NA,"",   497.135E-03,  -495.812E-03,  -36.2317E-03,   1.31378E-03
C:/temp/dataset/2/24_2.odb,Step-1,Increment      1: Step Time =    1.000,"PART-1-1",           375,          -15.,      625.E-03,            0.,NA,NA,"",   428.026E-03,  -406.713E-03,  -133.381E-03,   1.61350E-03
C:/temp/dataset/2/24_2.odb,Step-1,Increment      1: Step Time =    1.000,"PART-1-1",           376,      -12.9883,      -1.02354,            0.,NA,NA,"",   363.363E-03,  -356.088E-03,  -72.3487E-03,   2.30788E-03
C:/temp/dataset/2/24_2.odb,Step-1,Increment      1: Step Time =    1.000,"PART-1-1",           377,      -11.2019,   404.974E-03,            0.,NA,NA,"",   401.009E-03,  -400.213E-03,  -25.2472E-03,   2.64544E-03
C:/temp/dataset/2/24_2.odb,Step-1,Increment      1: Step Time =    1.000,"PART-1-1",           378,      -13.6690,      -3.88141,            0.,NA,NA,"",   285.617E-03,  -273.178E-03,  -83.3720E-03,   3.43636E-03
C:/temp/dataset/2/24_2.odb,Step-1,Increment      1: Step Time =    1.000,"PART-1-1",           379,      -11.6573,      -2.61328,            0.,NA,NA,"",   309.947E-03,  -308.054E-03,  -34.2031E-03,   2.74192E-03
C:/temp/dataset/2/24_2.odb,Step-1,Increment      1: Step Time =    1.000,"PART-1-1",           380,          -15.,      -2.29167,            0.,NA,NA,"",   343.723E-03,  -319.975E-03,  -125.545E-03,   3.62755E-03
C:/temp/dataset/2/24_2.odb,Step-1,Increment      1: Step Time =    1.000,"PART-1-1",           381,           -5.,         -8.75,            0.,NA,NA,"",   196.670E-03,  -162.363E-03,   110.982E-03,   8.34163E-03
C:/temp/dataset/2/24_2.odb,Step-1,Increment      1: Step Time =    1.000,"PART-1-1",           382,      -6.37238,      -7.84264,            0.,NA,NA,"",   196.999E-03,  -175.464E-03,   89.5601E-03,   6.34392E-03
C:/temp/dataset/2/24_2.odb,Step-1,Increment      1: Step Time =    1.000,"PART-1-1",           383,      -7.67841,      -9.42411,            0.,NA,NA,"",   151.390E-03,  -141.102E-03,   54.8549E-03,   4.28640E-03
C:/temp/dataset/2/24_2.odb,Step-1,Increment      1: Step Time =    1.000,"PART-1-1",           384,      -6.30603,      -10.3315,            0.,NA,NA,"",   148.887E-03,  -127.722E-03,   76.5144E-03,   6.33923E-03
C:/temp/dataset/2/24_2.odb,Step-1,Increment      1: Step Time =    1.000,"PART-1-1",           385,      -13.6103,      -21.3688,            0.,NA,NA,"",   17.0145E-03,  -3.56600E-03,  -16.6366E-03,   3.48400E-03
C:/temp/dataset/2/24_2.odb,Step-1,Increment      1: Step Time =    1.000,"PART-1-1",           386,          -15.,      -22.7083,            0.,NA,NA,"",   17.1641E-03,  -2.09838E-03,  -17.0354E-03,   4.28924E-03
C:/temp/dataset/2/24_2.odb,Step-1,Increment      1: Step Time =    1.000,"PART-1-1",           387,      -13.6241,      -24.2925,            0.,NA,NA,"",   9.33259E-03,   2.51581E-03,  -8.98710E-03,   2.62919E-03
C:/temp/dataset/2/24_2.odb,Step-1,Increment      1: Step Time =    1.000,"PART-1-1",           388,      -12.2343,      -22.9530,            0.,NA,NA,"",   7.41348E-03,   2.07453E-03,  -7.11731E-03,   2.18877E-03
C:/temp/dataset/2/24_2.odb,Step-1,Increment      1: Step Time =    1.000,"PART-1-1",           389,           -5.,        -16.25,            0.,NA,NA,"",   73.6314E-03,  -45.3443E-03,   58.0127E-03,   8.37211E-03
C:/temp/dataset/2/24_2.odb,Step-1,Increment      1: Step Time =    1.000,"PART-1-1",           390,      -6.06585,      -15.2329,            0.,NA,NA,"",   74.8651E-03,  -53.5984E-03,   52.2684E-03,   6.73046E-03
C:/temp/dataset/2/24_2.odb,Step-1,Increment      1: Step Time =    1.000,"PART-1-1",           391,      -6.99530,      -16.6022,            0.,NA,NA,"",   49.2179E-03,  -35.0207E-03,   34.5824E-03,   5.32406E-03
C:/temp/dataset/2/24_2.odb,Step-1,Increment      1: Step Time =    1.000,"PART-1-1",           392,      -5.92946,      -17.6192,            0.,NA,NA,"",   47.0949E-03,  -26.9904E-03,   38.5933E-03,   7.09992E-03
C:/temp/dataset/2/24_2.odb,Step-1,Increment      1: Step Time =    1.000,"PART-1-1",           393,         -13.5,          -30.,            0.,NA,NA,"",            0.,   906.904E-42,  -2.08050E-39,   1.10060E-03
C:/temp/dataset/2/24_2.odb,Step-1,Increment      1: Step Time =    1.000,"PART-1-1",           394,      -12.0804,      -28.6247,            0.,NA,NA,"",   2.36563E-03,   2.19484E-03,  -882.531E-06,   1.52457E-03
C:/temp/dataset/2/24_2.odb,Step-1,Increment      1: Step Time =    1.000,"PART-1-1",           395,      -13.5804,      -27.1664,            0.,NA,NA,"",   4.48174E-03,   2.66224E-03,  -3.60534E-03,   1.90299E-03
C:/temp/dataset/2/24_2.odb,Step-1,Increment      1: Step Time =    1.000,"PART-1-1",           396,          -15.,      -28.5417,            0.,NA,NA,"",   1.54260E-03,   435.152E-06,  -1.47995E-03,   1.67569E-03
C:/temp/dataset/2/24_2.odb,Step-1,Increment      1: Step Time =    1.000,"PART-1-1",           397,          13.5,          -30.,            0.,NA,NA,"",            0.,  -130.073E-42,   298.512E-42,   279.634E-06
C:/temp/dataset/2/24_2.odb,Step-1,Increment      1: Step Time =    1.000,"PART-1-1",           398,           15.,        -28.75,            0.,NA,NA,"",   591.721E-06,  -492.339E-06,   328.230E-06,   249.214E-06
C:/temp/dataset/2/24_2.odb,Step-1,Increment      1: Step Time =    1.000,"PART-1-1",           399,       13.4640,      -27.4843,            0.,NA,NA,"",   905.373E-06,  -884.530E-06,   193.149E-06,   146.311E-06
C:/temp/dataset/2/24_2.odb,Step-1,Increment      1: Step Time =    1.000,"PART-1-1",           400,       11.9640,      -28.7343,            0.,NA,NA,"",   449.496E-06,  -446.403E-06,   52.6474E-06,   227.642E-06
C:/temp/dataset/2/24_2.odb,Step-1,Increment      1: Step Time =    1.000,"PART-1-1",           401,       10.2658,      -24.9335,            0.,NA,NA,"",   1.77938E-03,  -1.77872E-03,  -48.5062E-06,   138.205E-06
C:/temp/dataset/2/24_2.odb,Step-1,Increment      1: Step Time =    1.000,"PART-1-1",           402,       8.77397,      -26.1861,            0.,NA,NA,"",   1.59937E-03,  -1.59863E-03,  -48.6946E-06,   228.326E-06
C:/temp/dataset/2/24_2.odb,Step-1,Increment      1: Step Time =    1.000,"PART-1-1",           403,       10.3945,      -27.4590,            0.,NA,NA,"",   1.01375E-03,  -1.01354E-03,   20.3178E-06,   242.823E-06
C:/temp/dataset/2/24_2.odb,Step-1,Increment      1: Step Time =    1.000,"PART-1-1",           404,       11.8863,      -26.2064,            0.,NA,NA,"",   1.34421E-03,  -1.34099E-03,   93.0404E-06,   161.026E-06
C:/temp/dataset/2/24_2.odb,Step-1,Increment      1: Step Time =    1.000,"PART-1-1",           405,       8.93044,      -28.7247,            0.,NA,NA,"",   610.804E-06,  -609.995E-06,   31.4183E-06,   299.918E-06
C:/temp/dataset/2/24_2.odb,Step-1,Increment      1: Step Time =    1.000,"PART-1-1",           406,       7.31300,      -27.4411,            0.,NA,NA,"",   1.34916E-03,  -1.34884E-03,   29.1581E-06,   343.432E-06
C:/temp/dataset/2/24_2.odb,Step-1,Increment      1: Step Time =    1.000,"PART-1-1",           407,       5.88256,      -28.7164,            0.,NA,NA,"",   880.003E-06,  -875.466E-06,   89.2452E-06,   442.592E-06
C:/temp/dataset/2/24_2.odb,Step-1,Increment      1: Step Time =    1.000,"PART-1-1",           408,           7.5,          -30.,            0.,NA,NA,"",            0.,  -446.630E-42,   218.192E-42,   409.959E-06
C:/temp/dataset/2/24_2.odb,Step-1,Increment      1: Step Time =    1.000,"PART-1-1",           409,       5.63995,      -26.1773,            0.,NA,NA,"",   2.11305E-03,  -2.11173E-03,   74.7194E-06,   341.946E-06
C:/temp/dataset/2/24_2.odb,Step-1,Increment      1: Step Time =    1.000,"PART-1-1",           410,       3.92490,      -24.9166,            0.,NA,NA,"",   2.81085E-03,  -2.79330E-03,   313.680E-06,   406.982E-06
C:/temp/dataset/2/24_2.odb,Step-1,Increment      1: Step Time =    1.000,"PART-1-1",           411,       2.50142,      -26.1700,            0.,NA,NA,"",   2.88449E-03,  -2.77789E-03,   776.951E-06,   565.771E-06
C:/temp/dataset/2/24_2.odb,Step-1,Increment      1: Step Time =    1.000,"PART-1-1",           412,       4.21647,      -27.4307,            0.,NA,NA,"",   1.88299E-03,  -1.86271E-03,   275.621E-06,   503.606E-06
C:/temp/dataset/2/24_2.odb,Step-1,Increment      1: Step Time =    1.000,"PART-1-1",           413,       1.12659,      -27.4308,            0.,NA,NA,"",   2.51761E-03,  -2.31226E-03,   995.876E-06,   800.135E-06
C:/temp/dataset/2/24_2.odb,Step-1,Increment      1: Step Time =    1.000,"PART-1-1",           414,  -207.324E-03,      -28.7165,            0.,NA,NA,"",   1.51140E-03,  -1.32120E-03,   734.001E-06,   1.02781E-03
C:/temp/dataset/2/24_2.odb,Step-1,Increment      1: Step Time =    1.000,"PART-1-1",           415,           1.5,          -30.,            0.,NA,NA,"",            0.,  -849.341E-42,   1.14865E-39,   876.661E-06
C:/temp/dataset/2/24_2.odb,Step-1,Increment      1: Step Time =    1.000,"PART-1-1",           416,       2.83391,      -28.7143,            0.,NA,NA,"",   1.23328E-03,  -1.19757E-03,   294.600E-06,   676.449E-06
C:/temp/dataset/2/24_2.odb,Step-1,Increment      1: Step Time =    1.000,"PART-1-1",           417,      -1.92078,      -27.4395,            0.,NA,NA,"",   3.04165E-03,  -1.98419E-03,   2.30534E-03,   1.32681E-03
C:/temp/dataset/2/24_2.odb,Step-1,Increment      1: Step Time =    1.000,"PART-1-1",           418,      -3.21345,      -28.7230,            0.,NA,NA,"",   1.45912E-03,  -719.249E-06,   1.26953E-03,   1.40915E-03
C:/temp/dataset/2/24_2.odb,Step-1,Increment      1: Step Time =    1.000,"PART-1-1",           419,          -1.5,          -30.,            0.,NA,NA,"",            0.,  -780.717E-42,   2.05650E-39,   1.07708E-03
C:/temp/dataset/2/24_2.odb,Step-1,Increment      1: Step Time =    1.000,"PART-1-1",           420,      -5.57419,      -22.4519,            0.,NA,NA,"",   15.3887E-03,  -2.74078E-03,   15.1426E-03,   3.72842E-03
C:/temp/dataset/2/24_2.odb,Step-1,Increment      1: Step Time =    1.000,"PART-1-1",           421,      -6.77537,      -23.6376,            0.,NA,NA,"",   10.7208E-03,   439.029E-06,   10.7118E-03,   3.23791E-03
C:/temp/dataset/2/24_2.odb,Step-1,Increment      1: Step Time =    1.000,"PART-1-1",           422,      -5.25528,      -24.9124,            0.,NA,NA,"",   8.17771E-03,  -929.114E-06,   8.12475E-03,   2.50523E-03
C:/temp/dataset/2/24_2.odb,Step-1,Increment      1: Step Time =    1.000,"PART-1-1",           423,      -4.05411,      -23.7268,            0.,NA,NA,"",   10.0991E-03,  -3.29965E-03,   9.54484E-03,   2.95383E-03
C:/temp/dataset/2/24_2.odb,Step-1,Increment      1: Step Time =    1.000,"PART-1-1",           424,       13.4223,      -24.9720,            0.,NA,NA,"",   1.68961E-03,  -1.66182E-03,   305.164E-06,   46.0323E-06
C:/temp/dataset/2/24_2.odb,Step-1,Increment      1: Step Time =    1.000,"PART-1-1",           425,           15.,        -26.25,            0.,NA,NA,"",   1.47464E-03,  -1.33648E-03,   623.217E-06,   56.8106E-06
C:/temp/dataset/2/24_2.odb,Step-1,Increment      1: Step Time =    1.000,"PART-1-1",           426,       11.8021,      -23.6964,            0.,NA,NA,"",   1.95786E-03,  -1.95645E-03,   74.1075E-06,   50.6924E-06
C:/temp/dataset/2/24_2.odb,Step-1,Increment      1: Step Time =    1.000,"PART-1-1",           427,       10.1355,      -22.4445,            0.,NA,NA,"",   2.20996E-03,  -2.20641E-03,  -125.173E-06,   43.5114E-06
C:/temp/dataset/2/24_2.odb,Step-1,Increment      1: Step Time =    1.000,"PART-1-1",           428,      -2.31424,      -24.9364,            0.,NA,NA,"",   6.30781E-03,  -3.38524E-03,   5.32246E-03,   1.77211E-03
C:/temp/dataset/2/24_2.odb,Step-1,Increment      1: Step Time =    1.000,"PART-1-1",           429,      -3.63092,      -26.1962,            0.,NA,NA,"",   5.23032E-03,  -1.78641E-03,   4.91579E-03,   2.02047E-03
C:/temp/dataset/2/24_2.odb,Step-1,Increment      1: Step Time =    1.000,"PART-1-1",           430,  -604.096E-03,      -26.1796,            0.,NA,NA,"",   4.00563E-03,  -3.10016E-03,   2.53655E-03,   1.16837E-03
C:/temp/dataset/2/24_2.odb,Step-1,Increment      1: Step Time =    1.000,"PART-1-1",           431,      -7.52977,      -11.9021,            0.,NA,NA,"",   108.559E-03,  -97.3300E-03,   48.0819E-03,   4.65039E-03
C:/temp/dataset/2/24_2.odb,Step-1,Increment      1: Step Time =    1.000,"PART-1-1",           432,      -6.22373,      -12.8207,            0.,NA,NA,"",   107.373E-03,  -86.2035E-03,   64.0154E-03,   6.43434E-03
C:/temp/dataset/2/24_2.odb,Step-1,Increment      1: Step Time =    1.000,"PART-1-1",           433,           -5.,        -11.25,            0.,NA,NA,"",   149.015E-03,  -115.817E-03,   93.7641E-03,   8.09204E-03
C:/temp/dataset/2/24_2.odb,Step-1,Increment      1: Step Time =    1.000,"PART-1-1",           434,      -10.0475,      -12.6788,            0.,NA,NA,"",   81.8803E-03,  -81.6259E-03,   6.44948E-03,   968.191E-06
C:/temp/dataset/2/24_2.odb,Step-1,Increment      1: Step Time =    1.000,"PART-1-1",           435,           -5.,         -6.25,            0.,NA,NA,"",   251.095E-03,  -213.816E-03,   131.649E-03,   10.6411E-03
C:/temp/dataset/2/24_2.odb,Step-1,Increment      1: Step Time =    1.000,"PART-1-1",           436,      -7.88282,      -7.02961,            0.,NA,NA,"",   198.829E-03,  -190.002E-03,   58.5853E-03,   2.73346E-03
C:/temp/dataset/2/24_2.odb,Step-1,Increment      1: Step Time =    1.000,"PART-1-1",           437,      -13.8577,      -6.65334,            0.,NA,NA,"",   216.194E-03,  -201.732E-03,  -77.7446E-03,   4.36706E-03
C:/temp/dataset/2/24_2.odb,Step-1,Increment      1: Step Time =    1.000,"PART-1-1",           438,      -12.5267,      -5.32641,            0.,NA,NA,"",   238.514E-03,  -233.100E-03,  -50.5307E-03,   2.74834E-03
C:/temp/dataset/2/24_2.odb,Step-1,Increment      1: Step Time =    1.000,"PART-1-1",           439,          -15.,      -5.20833,            0.,NA,NA,"",   264.903E-03,  -239.813E-03,  -112.530E-03,   5.29756E-03
C:/temp/dataset/2/24_2.odb,Step-1,Increment      1: Step Time =    1.000,"PART-1-1",           440,          1.25,           -5.,            0.,NA,NA,"",   448.209E-03,  -227.816E-03,   385.993E-03,   272.243E-06
C:/temp/dataset/2/24_2.odb,Step-1,Increment      1: Step Time =    1.000,"PART-1-1",           441,       2.47079,      -3.83474,            0.,NA,NA,"",   508.423E-03,  -270.794E-03,   430.307E-03,   855.546E-06
C:/temp/dataset/2/24_2.odb,Step-1,Increment      1: Step Time =    1.000,"PART-1-1",           442,       3.51261,  -149.180E-03,            0.,NA,NA,"",   614.956E-03,  -399.061E-03,   467.890E-03,   2.22639E-03
C:/temp/dataset/2/24_2.odb,Step-1,Increment      1: Step Time =    1.000,"PART-1-1",           443,       3.69085,      -2.58237,            0.,NA,NA,"",   570.128E-03,  -315.822E-03,   474.660E-03,   1.28663E-03
C:/temp/dataset/2/24_2.odb,Step-1,Increment      1: Step Time =    1.000,"PART-1-1",           444,       8.74868,       5.55605,            0.,NA,NA,"",   884.457E-03,  -596.057E-03,   653.437E-03,   1.26255E-03
C:/temp/dataset/2/24_2.odb,Step-1,Increment      1: Step Time =    1.000,"PART-1-1",           445,       10.0030,       7.12352,            0.,NA,NA,"",   944.763E-03,  -644.055E-03,   691.210E-03,   702.006E-06
C:/temp/dataset/2/24_2.odb,Step-1,Increment      1: Step Time =    1.000,"PART-1-1",           446,       8.73640,       8.21697,            0.,NA,NA,"",   940.654E-03,  -674.684E-03,   655.463E-03,   2.05150E-03
C:/temp/dataset/2/24_2.odb,Step-1,Increment      1: Step Time =    1.000,"PART-1-1",           447,           15.,     -625.E-03,            0.,NA,NA,"",   942.448E-03,  -393.317E-03,   856.452E-03,   850.949E-06
C:/temp/dataset/2/24_2.odb,Step-1,Increment      1: Step Time =    1.000,"PART-1-1",           448,       13.7714,   731.820E-03,            0.,NA,NA,"",   924.554E-03,  -439.028E-03,   813.667E-03,   1.17455E-03
C:/temp/dataset/2/24_2.odb,Step-1,Increment      1: Step Time =    1.000,"PART-1-1",           449,       12.5339,  -774.506E-03,            0.,NA,NA,"",   866.465E-03,  -387.477E-03,   774.998E-03,   1.11248E-03
C:/temp/dataset/2/24_2.odb,Step-1,Increment      1: Step Time =    1.000,"PART-1-1",           450,       7.40609,       11.8257,            0.,NA,NA,"",   992.464E-03,  -769.153E-03,   627.207E-03,   3.39861E-03
C:/temp/dataset/2/24_2.odb,Step-1,Increment      1: Step Time =    1.000,"PART-1-1",           451,       8.70206,       10.8725,            0.,NA,NA,"",   995.533E-03,  -746.664E-03,   658.466E-03,   2.21036E-03
C:/temp/dataset/2/24_2.odb,Step-1,Increment      1: Step Time =    1.000,"PART-1-1",           452,       11.2454,       8.75341,            0.,NA,NA,"",       1.00245,  -691.258E-03,   725.995E-03,   332.773E-06
C:/temp/dataset/2/24_2.odb,Step-1,Increment      1: Step Time =    1.000,"PART-1-1",           453,       11.2622,       5.99112,            0.,NA,NA,"",   950.385E-03,  -610.282E-03,   728.551E-03,   827.673E-06
C:/temp/dataset/2/24_2.odb,Step-1,Increment      1: Step Time =    1.000,"PART-1-1",           454,       13.8596,       24.3693,            0.,NA,NA,"",       1.27767,      -1.02326,   765.094E-03,   1.02658E-03
C:/temp/dataset/2/24_2.odb,Step-1,Increment      1: Step Time =    1.000,"PART-1-1",           455,       12.6110,       23.1199,            0.,NA,NA,"",       1.24921,      -1.00332,   744.232E-03,   1.30683E-03
C:/temp/dataset/2/24_2.odb,Step-1,Increment      1: Step Time =    1.000,"PART-1-1",           456,       13.7514,       21.4590,            0.,NA,NA,"",       1.24053,  -975.216E-03,   766.730E-03,   1.72637E-03
C:/temp/dataset/2/24_2.odb,Step-1,Increment      1: Step Time =    1.000,"PART-1-1",           457,           15.,       22.7083,            0.,NA,NA,"",       1.26879,  -995.595E-03,   786.529E-03,   1.76668E-03
C:/temp/dataset/2/24_2.odb,Step-1,Increment      1: Step Time =    1.000,"PART-1-1",           458,       8.83903,       17.2613,            0.,NA,NA,"",       1.12072,  -897.218E-03,   671.569E-03,   1.60325E-03
C:/temp/dataset/2/24_2.odb,Step-1,Increment      1: Step Time =    1.000,"PART-1-1",           459,       10.5130,       17.3338,            0.,NA,NA,"",       1.14372,  -899.306E-03,   706.648E-03,   477.633E-06
C:/temp/dataset/2/24_2.odb,Step-1,Increment      1: Step Time =    1.000,"PART-1-1",           460,       8.72284,       19.1442,            0.,NA,NA,"",       1.15066,  -934.705E-03,   671.075E-03,   1.34065E-03
C:/temp/dataset/2/24_2.odb,Step-1,Increment      1: Step Time =    1.000,"PART-1-1",           461,           15.,       28.5417,            0.,NA,NA,"",       1.34171,      -1.09038,   781.818E-03,   91.5789E-06
C:/temp/dataset/2/24_2.odb,Step-1,Increment      1: Step Time =    1.000,"PART-1-1",           462,         13.75,           30.,            0.,NA,NA,"",       1.34926,      -1.11417,   761.007E-03,   75.5931E-06
C:/temp/dataset/2/24_2.odb,Step-1,Increment      1: Step Time =    1.000,"PART-1-1",           463,       12.5875,       28.6551,            0.,NA,NA,"",       1.31994,      -1.09179,   741.772E-03,   399.989E-06
C:/temp/dataset/2/24_2.odb,Step-1,Increment      1: Step Time =    1.000,"PART-1-1",           464,       13.8375,       27.1968,            0.,NA,NA,"",       1.31296,      -1.06848,   763.029E-03,   421.837E-06
C:/temp/dataset/2/24_2.odb,Step-1,Increment      1: Step Time =    1.000,"PART-1-1",           465,         11.25,           30.,            0.,NA,NA,"",       1.32551,      -1.11339,   719.269E-03,   477.458E-06
C:/temp/dataset/2/24_2.odb,Step-1,Increment      1: Step Time =    1.000,"PART-1-1",           466,       10.1484,       28.7335,            0.,NA,NA,"",       1.29734,      -1.09189,   700.625E-03,   741.547E-06
C:/temp/dataset/2/24_2.odb,Step-1,Increment      1: Step Time =    1.000,"PART-1-1",           467,       7.69941,       28.7139,            0.,NA,NA,"",       1.27408,      -1.08963,   660.297E-03,   939.102E-06
C:/temp/dataset/2/24_2.odb,Step-1,Increment      1: Step Time =    1.000,"PART-1-1",           468,       9.09777,       27.4473,            0.,NA,NA,"",       1.26987,      -1.07068,   682.804E-03,   809.480E-06
C:/temp/dataset/2/24_2.odb,Step-1,Increment      1: Step Time =    1.000,"PART-1-1",           469,          8.75,           30.,            0.,NA,NA,"",       1.30167,      -1.11132,   677.733E-03,   976.769E-06
C:/temp/dataset/2/24_2.odb,Step-1,Increment      1: Step Time =    1.000,"PART-1-1",           470,  -9.87333E-03,       28.6960,            0.,NA,NA,"",       1.21405,      -1.08467,   545.347E-03,   216.333E-06
C:/temp/dataset/2/24_2.odb,Step-1,Increment      1: Step Time =    1.000,"PART-1-1",           471,          1.25,           30.,            0.,NA,NA,"",       1.23985,      -1.10431,   563.673E-03,   299.025E-06
C:/temp/dataset/2/24_2.odb,Step-1,Increment      1: Step Time =    1.000,"PART-1-1",           472,       4.87954,       25.6434,            0.,NA,NA,"",       1.20779,      -1.03900,   615.818E-03,   1.14105E-03
C:/temp/dataset/2/24_2.odb,Step-1,Increment      1: Step Time =    1.000,"PART-1-1",           473,      -5.00474,       28.7231,            0.,NA,NA,"",       1.18244,      -1.08453,   471.146E-03,   34.1870E-06
C:/temp/dataset/2/24_2.odb,Step-1,Increment      1: Step Time =    1.000,"PART-1-1",           474,         -6.25,           30.,            0.,NA,NA,"",       1.19267,      -1.10360,   452.255E-03,   44.1156E-06
C:/temp/dataset/2/24_2.odb,Step-1,Increment      1: Step Time =    1.000,"PART-1-1",           475,      -3.76303,       27.4393,            0.,NA,NA,"",       1.17266,      -1.06541,   489.936E-03,   33.2092E-06
C:/temp/dataset/2/24_2.odb,Step-1,Increment      1: Step Time =    1.000,"PART-1-1",           476,      -3.77322,       24.9147,            0.,NA,NA,"",       1.13843,      -1.02750,   490.157E-03,   68.3691E-06
C:/temp/dataset/2/24_2.odb,Step-1,Increment      1: Step Time =    1.000,"PART-1-1",           477,      -13.7476,       27.4926,            0.,NA,NA,"",       1.11789,      -1.06506,   339.578E-03,   2.25190E-06
C:/temp/dataset/2/24_2.odb,Step-1,Increment      1: Step Time =    1.000,"PART-1-1",           478,        -13.75,           30.,            0.,NA,NA,"",       1.15384,      -1.10284,   339.258E-03,   453.704E-09
C:/temp/dataset/2/24_2.odb,Step-1,Increment      1: Step Time =    1.000,"PART-1-1",           479,          -15.,         28.75,            0.,NA,NA,"",       1.13028,      -1.08386,   320.567E-03,   345.124E-09
C:/temp/dataset/2/24_2.odb,Step-1,Increment      1: Step Time =    1.000,"PART-1-1",           480,          -15.,         26.25,            0.,NA,NA,"",       1.09429,      -1.04620,   320.848E-03,   1.54131E-06
C:/temp/dataset/2/24_2.odb,Step-1,Increment      1: Step Time =    1.000,"PART-1-1",           481,      -12.4965,       26.2309,            0.,NA,NA,"",       1.10594,      -1.04620,   358.570E-03,   3.67751E-06
C:/temp/dataset/2/24_2.odb,Step-1,Increment      1: Step Time =    1.000,"PART-1-1",           482,      -10.0014,       23.7134,            0.,NA,NA,"",       1.08368,      -1.00857,   396.430E-03,   11.1607E-06
C:/temp/dataset/2/24_2.odb,Step-1,Increment      1: Step Time =    1.000,"PART-1-1",           483,      -8.75535,       22.4567,            0.,NA,NA,"",       1.07338,  -989.767E-03,   415.329E-03,   20.8984E-06
C:/temp/dataset/2/24_2.odb,Step-1,Increment      1: Step Time =    1.000,"PART-1-1",           484,      -7.50515,       23.6891,            0.,NA,NA,"",       1.09795,      -1.00851,   434.033E-03,   24.9257E-06
C:/temp/dataset/2/24_2.odb,Step-1,Increment      1: Step Time =    1.000,"PART-1-1",           485,      -8.75118,       24.9458,            0.,NA,NA,"",       1.10801,      -1.02730,   415.137E-03,   20.4850E-06
C:/temp/dataset/2/24_2.odb,Step-1,Increment      1: Step Time =    1.000,"PART-1-1",           486,      -3.77419,       22.4219,            0.,NA,NA,"",       1.10473,  -989.874E-03,   490.484E-03,   55.0937E-06
C:/temp/dataset/2/24_2.odb,Step-1,Increment      1: Step Time =    1.000,"PART-1-1",           487,      -5.00723,       21.2173,            0.,NA,NA,"",       1.08003,  -971.446E-03,   471.972E-03,   44.0805E-06
C:/temp/dataset/2/24_2.odb,Step-1,Increment      1: Step Time =    1.000,"PART-1-1",           488,         -3.75,           20.,            0.,NA,NA,"",       1.07217,  -953.033E-03,   491.202E-03,   122.298E-06
C:/temp/dataset/2/24_2.odb,Step-1,Increment      1: Step Time =    1.000,"PART-1-1",           489,      -2.51696,       21.2046,            0.,NA,NA,"",       1.09708,  -971.426E-03,   509.815E-03,   147.883E-06
C:/temp/dataset/2/24_2.odb,Step-1,Increment      1: Step Time =    1.000,"PART-1-1",           490,         -8.75,           20.,            0.,NA,NA,"",       1.03947,  -952.727E-03,   415.695E-03,   19.1885E-06
C:/temp/dataset/2/24_2.odb,Step-1,Increment      1: Step Time =    1.000,"PART-1-1",           491,      -7.50331,       21.2223,            0.,NA,NA,"",       1.06396,  -971.275E-03,   434.324E-03,   22.6127E-06
C:/temp/dataset/2/24_2.odb,Step-1,Increment      1: Step Time =    1.000,"PART-1-1",           492,         -6.25,           20.,            0.,NA,NA,"",       1.05528,  -952.931E-03,   453.367E-03,   57.2033E-06
C:/temp/dataset/2/24_2.odb,Step-1,Increment      1: Step Time =    1.000,"PART-1-1",           493,      -6.26054,       22.4396,            0.,NA,NA,"",       1.08851,  -989.806E-03,   452.914E-03,   33.2844E-06
C:/temp/dataset/2/24_2.odb,Step-1,Increment      1: Step Time =    1.000,"PART-1-1",           494,         -1.25,           20.,            0.,NA,NA,"",       1.09007,  -952.759E-03,   529.618E-03,   116.981E-06
C:/temp/dataset/2/24_2.odb,Step-1,Increment      1: Step Time =    1.000,"PART-1-1",           495,      -1.30453,       22.3853,            0.,NA,NA,"",       1.12180,  -989.573E-03,   528.379E-03,   508.959E-06
C:/temp/dataset/2/24_2.odb,Step-1,Increment      1: Step Time =    1.000,"PART-1-1",           496,         -1.25,           30.,            0.,NA,NA,"",       1.22319,      -1.10385,   526.985E-03,   21.0583E-06
C:/temp/dataset/2/24_2.odb,Step-1,Increment      1: Step Time =    1.000,"PART-1-1",           497,      -2.50829,       28.7162,            0.,NA,NA,"",       1.19792,      -1.08464,   508.492E-03,   51.4576E-06
C:/temp/dataset/2/24_2.odb,Step-1,Increment      1: Step Time =    1.000,"PART-1-1",           498,         -3.75,           30.,            0.,NA,NA,"",       1.20753,      -1.10374,   489.787E-03,   66.4269E-06
C:/temp/dataset/2/24_2.odb,Step-1,Increment      1: Step Time =    1.000,"PART-1-1",           499,          3.75,           20.,            0.,NA,NA,"",       1.12768,  -952.939E-03,   602.961E-03,   2.74819E-03
C:/temp/dataset/2/24_2.odb,Step-1,Increment      1: Step Time =    1.000,"PART-1-1",           500,       4.75388,       21.0765,            0.,NA,NA,"",       1.14229,  -965.799E-03,   609.963E-03,   4.42387E-03
C:/temp/dataset/2/24_2.odb,Step-1,Increment      1: Step Time =    1.000,"PART-1-1",           501,          6.25,           30.,            0.,NA,NA,"",       1.27882,      -1.10834,   637.941E-03,   1.09896E-03
C:/temp/dataset/2/24_2.odb,Step-1,Increment      1: Step Time =    1.000,"PART-1-1",           502,       6.61296,       27.1492,            0.,NA,NA,"",       1.24304,      -1.06406,   642.588E-03,   724.367E-06
C:/temp/dataset/2/24_2.odb,Step-1,Increment      1: Step Time =    1.000,"PART-1-1",           503,            5.,         16.25,            0.,NA,NA,"",       1.04812,  -868.420E-03,   586.854E-03,   5.69355E-03
C:/temp/dataset/2/24_2.odb,Step-1,Increment      1: Step Time =    1.000,"PART-1-1",           504,       6.03202,       15.2452,            0.,NA,NA,"",       1.04246,  -848.513E-03,   605.596E-03,   4.64121E-03
C:/temp/dataset/2/24_2.odb,Step-1,Increment      1: Step Time =    1.000,"PART-1-1",           505,       6.91243,       16.6330,            0.,NA,NA,"",       1.08341,  -881.540E-03,   629.821E-03,   3.80563E-03
C:/temp/dataset/2/24_2.odb,Step-1,Increment      1: Step Time =    1.000,"PART-1-1",           506,            5.,         13.75,            0.,NA,NA,"",   994.476E-03,  -811.075E-03,   575.446E-03,   5.46800E-03
C:/temp/dataset/2/24_2.odb,Step-1,Increment      1: Step Time =    1.000,"PART-1-1",           507,       6.17466,       12.7979,            0.,NA,NA,"",   992.594E-03,  -790.917E-03,   599.744E-03,   4.46115E-03
C:/temp/dataset/2/24_2.odb,Step-1,Increment      1: Step Time =    1.000,"PART-1-1",           508,       12.0086,       16.5092,            0.,NA,NA,"",       1.15068,  -882.033E-03,   738.981E-03,   961.725E-06
C:/temp/dataset/2/24_2.odb,Step-1,Increment      1: Step Time =    1.000,"PART-1-1",           509,           15.,        16.875,            0.,NA,NA,"",       1.19615,  -887.417E-03,   802.033E-03,   3.36880E-03
C:/temp/dataset/2/24_2.odb,Step-1,Increment      1: Step Time =    1.000,"PART-1-1",           510,       13.3591,       18.2744,            0.,NA,NA,"",       1.19422,  -917.268E-03,   764.713E-03,   1.95325E-03
C:/temp/dataset/2/24_2.odb,Step-1,Increment      1: Step Time =    1.000,"PART-1-1",           511,            5.,         11.25,            0.,NA,NA,"",   937.380E-03,  -748.859E-03,   563.818E-03,   5.48939E-03
C:/temp/dataset/2/24_2.odb,Step-1,Increment      1: Step Time =    1.000,"PART-1-1",           512,       6.23142,       10.2778,            0.,NA,NA,"",   937.165E-03,  -726.537E-03,   591.965E-03,   4.45242E-03
C:/temp/dataset/2/24_2.odb,Step-1,Increment      1: Step Time =    1.000,"PART-1-1",           513,            5.,          8.75,            0.,NA,NA,"",   877.785E-03,  -681.967E-03,   552.656E-03,   5.66819E-03
C:/temp/dataset/2/24_2.odb,Step-1,Increment      1: Step Time =    1.000,"PART-1-1",           514,       7.47251,       9.25684,            0.,NA,NA,"",   937.879E-03,  -701.779E-03,   622.192E-03,   3.27961E-03
C:/temp/dataset/2/24_2.odb,Step-1,Increment      1: Step Time =    1.000,"PART-1-1",           515,         11.25,           -5.,            0.,NA,NA,"",   774.295E-03,  -243.312E-03,   735.073E-03,   587.175E-06
C:/temp/dataset/2/24_2.odb,Step-1,Increment      1: Step Time =    1.000,"PART-1-1",           516,       11.2689,      -2.22707,            0.,NA,NA,"",   808.248E-03,  -337.010E-03,   734.635E-03,   970.176E-06
C:/temp/dataset/2/24_2.odb,Step-1,Increment      1: Step Time =    1.000,"PART-1-1",           517,          10.5,          -30.,            0.,NA,NA,"",            0.,  -305.556E-42,   150.258E-42,   274.497E-06
C:/temp/dataset/2/24_2.odb,Step-1,Increment      1: Step Time =    1.000,"PART-1-1",           518,           15.,        -23.75,            0.,NA,NA,"",   2.00545E-03,  -1.91418E-03,   598.124E-06,   8.41819E-06
C:/temp/dataset/2/24_2.odb,Step-1,Increment      1: Step Time =    1.000,"PART-1-1",           519,          3.75,           -5.,            0.,NA,NA,"",   530.204E-03,  -230.396E-03,   477.529E-03,   864.225E-06
C:/temp/dataset/2/24_2.odb,Step-1,Increment      1: Step Time =    1.000,"PART-1-1",           520,       4.97006,      -3.74763,            0.,NA,NA,"",   590.045E-03,  -276.728E-03,   521.129E-03,   1.06229E-03
C:/temp/dataset/2/24_2.odb,Step-1,Increment      1: Step Time =    1.000,"PART-1-1",           521,       4.85412,       3.76356,            0.,NA,NA,"",   746.758E-03,  -533.801E-03,   522.211E-03,   4.14223E-03
C:/temp/dataset/2/24_2.odb,Step-1,Increment      1: Step Time =    1.000,"PART-1-1",           522,       3.33333,            5.,            0.,NA,NA,"",   739.330E-03,  -578.511E-03,   460.362E-03,   2.09568E-03
C:/temp/dataset/2/24_2.odb,Step-1,Increment      1: Step Time =    1.000,"PART-1-1",           523,       1.45296,       3.58740,            0.,NA,NA,"",   654.087E-03,  -525.297E-03,   389.734E-03,   1.22691E-03
C:/temp/dataset/2/24_2.odb,Step-1,Increment      1: Step Time =    1.000,"PART-1-1",           524,       2.97375,       2.35096,            0.,NA,NA,"",   659.113E-03,  -483.140E-03,   448.336E-03,   2.72830E-03
C:/temp/dataset/2/24_2.odb,Step-1,Increment      1: Step Time =    1.000,"PART-1-1",           525,          6.25,           -5.,            0.,NA,NA,"",   613.144E-03,  -234.988E-03,   566.327E-03,   1.40753E-03
C:/temp/dataset/2/24_2.odb,Step-1,Increment      1: Step Time =    1.000,"PART-1-1",           526,       12.4696,       10.4445,            0.,NA,NA,"",       1.05706,  -737.305E-03,   757.470E-03,   1.24893E-03
C:/temp/dataset/2/24_2.odb,Step-1,Increment      1: Step Time =    1.000,"PART-1-1",           527,           15.,       11.0417,            0.,NA,NA,"",       1.11376,  -751.031E-03,   822.447E-03,   3.61315E-03
C:/temp/dataset/2/24_2.odb,Step-1,Increment      1: Step Time =    1.000,"PART-1-1",           528,      -5.01382,       23.6808,            0.,NA,NA,"",       1.11353,      -1.00874,   471.590E-03,   34.8169E-06
C:/temp/dataset/2/24_2.odb,Step-1,Increment      1: Step Time =    1.000,"PART-1-1",           529,      -2.53358,       23.6558,            0.,NA,NA,"",       1.12987,      -1.00866,   509.120E-03,   147.690E-06
C:/temp/dataset/2/24_2.odb,Step-1,Increment      1: Step Time =    1.000,"PART-1-1",           530,  -74.6816E-03,       23.6075,            0.,NA,NA,"",       1.14629,      -1.00771,   546.348E-03,   727.810E-06
C:/temp/dataset/2/24_2.odb,Step-1,Increment      1: Step Time =    1.000,"PART-1-1",           531,      -6.62798,      -1.45964,            0.,NA,NA,"",   360.968E-03,  -346.094E-03,   102.553E-03,   2.79594E-03
C:/temp/dataset/2/24_2.odb,Step-1,Increment      1: Step Time =    1.000,"PART-1-1",           532,      -4.43070,      -2.38075,            0.,NA,NA,"",   363.517E-03,  -320.355E-03,   171.805E-03,   3.07712E-03
C:/temp/dataset/2/24_2.odb,Step-1,Increment      1: Step Time =    1.000,"PART-1-1",           533,      -3.64554,  -813.143E-03,            0.,NA,NA,"",   422.638E-03,  -371.448E-03,   201.619E-03,   2.70587E-03
C:/temp/dataset/2/24_2.odb,Step-1,Increment      1: Step Time =    1.000,"PART-1-1",           534,         -3.75,           -5.,            0.,NA,NA,"",   305.982E-03,  -233.331E-03,   197.943E-03,   6.10090E-03
C:/temp/dataset/2/24_2.odb,Step-1,Increment      1: Step Time =    1.000,"PART-1-1",           535,      -13.8599,      -9.43096,            0.,NA,NA,"",   155.792E-03,  -141.113E-03,  -66.0167E-03,   4.60493E-03
C:/temp/dataset/2/24_2.odb,Step-1,Increment      1: Step Time =    1.000,"PART-1-1",           536,          -15.,      -11.0417,            0.,NA,NA,"",   138.577E-03,  -113.744E-03,  -79.1567E-03,   6.32337E-03
C:/temp/dataset/2/24_2.odb,Step-1,Increment      1: Step Time =    1.000,"PART-1-1",           537,      -11.9984,      -19.8095,            0.,NA,NA,"",   13.6429E-03,  -8.30456E-03,  -10.8242E-03,   2.10697E-03
C:/temp/dataset/2/24_2.odb,Step-1,Increment      1: Step Time =    1.000,"PART-1-1",           538,      -13.3881,      -18.2324,            0.,NA,NA,"",   32.3298E-03,  -20.1810E-03,  -25.2575E-03,   3.78584E-03
C:/temp/dataset/2/24_2.odb,Step-1,Increment      1: Step Time =    1.000,"PART-1-1",           539,          -15.,      -19.7917,            0.,NA,NA,"",   32.9053E-03,  -13.3957E-03,  -30.0552E-03,   5.42420E-03
C:/temp/dataset/2/24_2.odb,Step-1,Increment      1: Step Time =    1.000,"PART-1-1",           540,           -5.,        -18.75,            0.,NA,NA,"",   42.2698E-03,  -19.5201E-03,   37.4926E-03,   10.5306E-03
C:/temp/dataset/2/24_2.odb,Step-1,Increment      1: Step Time =    1.000,"PART-1-1",           541,      -5.96138,      -20.0094,            0.,NA,NA,"",   25.5065E-03,  -5.99963E-03,   24.7908E-03,   6.49381E-03
C:/temp/dataset/2/24_2.odb,Step-1,Increment      1: Step Time =    1.000,"PART-1-1",           542,           -5.,        -13.75,            0.,NA,NA,"",   107.771E-03,  -76.6790E-03,   75.7293E-03,   8.10633E-03
C:/temp/dataset/2/24_2.odb,Step-1,Increment      1: Step Time =    1.000,"PART-1-1",           543,      -7.28958,      -14.3036,            0.,NA,NA,"",   74.7646E-03,  -62.2092E-03,   41.4699E-03,   4.97714E-03
C:/temp/dataset/2/24_2.odb,Step-1,Increment      1: Step Time =    1.000,"PART-1-1",           544,      -8.88285,      -11.0213,            0.,NA,NA,"",   113.336E-03,  -109.838E-03,   27.9424E-03,   2.68258E-03
C:/temp/dataset/2/24_2.odb,Step-1,Increment      1: Step Time =    1.000,"PART-1-1",           545,      -9.01222,      -8.51542,            0.,NA,NA,"",   160.347E-03,  -157.426E-03,   30.4641E-03,   2.33931E-03
C:/temp/dataset/2/24_2.odb,Step-1,Increment      1: Step Time =    1.000,"PART-1-1",           546,      -9.13424,  -715.290E-03,            0.,NA,NA,"",   368.039E-03,  -366.691E-03,   31.4777E-03,   2.54304E-03
C:/temp/dataset/2/24_2.odb,Step-1,Increment      1: Step Time =    1.000,"PART-1-1",           547,      -9.92186,      -2.42350,            0.,NA,NA,"",   313.652E-03,  -313.479E-03,   10.4211E-03,   2.71890E-03
C:/temp/dataset/2/24_2.odb,Step-1,Increment      1: Step Time =    1.000,"PART-1-1",           548,      -12.7176,      -7.95930,            0.,NA,NA,"",   176.662E-03,  -170.102E-03,  -47.6960E-03,   2.90320E-03
C:/temp/dataset/2/24_2.odb,Step-1,Increment      1: Step Time =    1.000,"PART-1-1",           549,          -15.,        -8.125,            0.,NA,NA,"",   195.957E-03,  -170.683E-03,  -96.2632E-03,   6.12932E-03
C:/temp/dataset/2/24_2.odb,Step-1,Increment      1: Step Time =    1.000,"PART-1-1",           550,       11.2818,   528.104E-03,            0.,NA,NA,"",   850.929E-03,  -431.334E-03,   733.507E-03,   1.29348E-03
C:/temp/dataset/2/24_2.odb,Step-1,Increment      1: Step Time =    1.000,"PART-1-1",           551,       10.0167,  -924.457E-03,            0.,NA,NA,"",   790.805E-03,  -380.621E-03,   693.181E-03,   1.22283E-03
C:/temp/dataset/2/24_2.odb,Step-1,Increment      1: Step Time =    1.000,"PART-1-1",           552,       10.4320,       23.7699,            0.,NA,NA,"",       1.23450,      -1.01352,   704.827E-03,   1.33810E-03
C:/temp/dataset/2/24_2.odb,Step-1,Increment      1: Step Time =    1.000,"PART-1-1",           553,           15.,        25.625,            0.,NA,NA,"",       1.30434,      -1.04320,   782.954E-03,   726.876E-06
C:/temp/dataset/2/24_2.odb,Step-1,Increment      1: Step Time =    1.000,"PART-1-1",           554,      -9.99539,       26.2124,            0.,NA,NA,"",       1.11875,      -1.04622,   396.260E-03,   11.0310E-06
C:/temp/dataset/2/24_2.odb,Step-1,Increment      1: Step Time =    1.000,"PART-1-1",           555,          -15.,       -25.625,            0.,NA,NA,"",   7.58839E-03,   1.54929E-03,  -7.42855E-03,   2.99955E-03
C:/temp/dataset/2/24_2.odb,Step-1,Increment      1: Step Time =    1.000,"PART-1-1",           556,      -12.2044,      -25.8339,            0.,NA,NA,"",   5.40291E-03,   4.10251E-03,  -3.51580E-03,   1.85267E-03
C:/temp/dataset/2/24_2.odb,Step-1,Increment      1: Step Time =    1.000,"PART-1-1",           557,          -15.,       -16.875,            0.,NA,NA,"",   57.5599E-03,  -35.1932E-03,  -45.5475E-03,   6.08300E-03
C:/temp/dataset/2/24_2.odb,Step-1,Increment      1: Step Time =    1.000,"PART-1-1",           558,      -8.25880,      -15.9015,            0.,NA,NA,"",   47.0858E-03,  -40.5747E-03,   23.8908E-03,   3.42069E-03
C:/temp/dataset/2/24_2.odb,Step-1,Increment      1: Step Time =    1.000,"PART-1-1",           559,       7.56555,       17.9230,            0.,NA,NA,"",       1.11643,  -909.965E-03,   646.816E-03,   2.91861E-03
C:/temp/dataset/2/24_2.odb,Step-1,Increment      1: Step Time =    1.000,"PART-1-1",           560,      -9.72707,       2.21069,            0.,NA,NA,"",   458.306E-03,  -458.050E-03,   15.3104E-03,   2.18097E-03
C:/temp/dataset/2/24_2.odb,Step-1,Increment      1: Step Time =    1.000,"PART-1-1",           561,      -8.18006,       3.69884,            0.,NA,NA,"",   510.719E-03,  -507.147E-03,   60.3002E-03,   2.35441E-03
C:/temp/dataset/2/24_2.odb,Step-1,Increment      1: Step Time =    1.000,"PART-1-1",           562,          -10.,            5.,            0.,NA,NA,"",   542.258E-03,  -542.198E-03,   8.04066E-03,   1.79298E-03
C:/temp/dataset/2/24_2.odb,Step-1,Increment      1: Step Time =    1.000,"PART-1-1",           563,      -10.3433,      -7.69771,            0.,NA,NA,"",   174.448E-03,  -174.426E-03,   2.73291E-03,   650.755E-06
C:/temp/dataset/2/24_2.odb,Step-1,Increment      1: Step Time =    1.000,"PART-1-1",           564,      -11.5611,      -6.59494,            0.,NA,NA,"",   202.008E-03,  -200.428E-03,  -25.2144E-03,   1.78527E-03
C:/temp/dataset/2/24_2.odb,Step-1,Increment      1: Step Time =    1.000,"PART-1-1",           565,      -9.40089,      -20.7816,            0.,NA,NA,"",   6.84071E-03,  -2.73771E-03,   6.26899E-03,   1.72834E-03
C:/temp/dataset/2/24_2.odb,Step-1,Increment      1: Step Time =    1.000,"PART-1-1",           566,      -8.21757,      -22.2064,            0.,NA,NA,"",   10.3328E-03,   626.482E-06,   10.3137E-03,   2.62192E-03
C:/temp/dataset/2/24_2.odb,Step-1,Increment      1: Step Time =    1.000,"PART-1-1",           567,      -6.89894,      -21.2078,            0.,NA,NA,"",   17.8557E-03,  -2.41474E-03,   17.6917E-03,   3.74799E-03
C:/temp/dataset/2/24_2.odb,Step-1,Increment      1: Step Time =    1.000,"PART-1-1",           568,      -9.14285,      -28.6800,            0.,NA,NA,"",   2.17423E-03,   2.10970E-03,   525.785E-06,   1.30101E-03
C:/temp/dataset/2/24_2.odb,Step-1,Increment      1: Step Time =    1.000,"PART-1-1",           569,      -10.7232,      -27.3047,            0.,NA,NA,"",   3.74380E-03,   3.72352E-03,  -389.110E-06,   1.16860E-03
C:/temp/dataset/2/24_2.odb,Step-1,Increment      1: Step Time =    1.000,"PART-1-1",           570,         -10.5,          -30.,            0.,NA,NA,"",            0.,   1.68181E-39,  -226.895E-42,   1.27290E-03
C:/temp/dataset/2/24_2.odb,Step-1,Increment      1: Step Time =    1.000,"PART-1-1",           571,      -4.89633,      -27.4366,            0.,NA,NA,"",   3.28561E-03,  -125.265E-06,   3.28322E-03,   1.76340E-03
C:/temp/dataset/2/24_2.odb,Step-1,Increment      1: Step Time =    1.000,"PART-1-1",           572,      -6.18287,      -28.7136,            0.,NA,NA,"",   1.51907E-03,   718.848E-06,   1.33822E-03,   1.50489E-03
C:/temp/dataset/2/24_2.odb,Step-1,Increment      1: Step Time =    1.000,"PART-1-1",           573,          -4.5,          -30.,            0.,NA,NA,"",            0.,  -95.4368E-42,   2.60401E-39,   1.13560E-03
C:/temp/dataset/2/24_2.odb,Step-1,Increment      1: Step Time =    1.000,"PART-1-1",           574,       12.5384,       2.02620,            0.,NA,NA,"",   910.520E-03,  -482.443E-03,   772.202E-03,   1.40791E-03
C:/temp/dataset/2/24_2.odb,Step-1,Increment      1: Step Time =    1.000,"PART-1-1",           575,           15.,       2.29167,            0.,NA,NA,"",   982.659E-03,  -491.029E-03,   851.182E-03,   1.97026E-03
C:/temp/dataset/2/24_2.odb,Step-1,Increment      1: Step Time =    1.000,"PART-1-1",           576,       9.96595,       9.83263,            0.,NA,NA,"",   998.115E-03,  -720.334E-03,   690.906E-03,   965.209E-06
C:/temp/dataset/2/24_2.odb,Step-1,Increment      1: Step Time =    1.000,"PART-1-1",           577,           15.,       19.7917,            0.,NA,NA,"",       1.23342,  -944.581E-03,   793.148E-03,   2.76733E-03
C:/temp/dataset/2/24_2.odb,Step-1,Increment      1: Step Time =    1.000,"PART-1-1",           578,       7.90800,       20.1372,            0.,NA,NA,"",       1.15705,  -952.625E-03,   656.707E-03,   1.67614E-03
C:/temp/dataset/2/24_2.odb,Step-1,Increment      1: Step Time =    1.000,"PART-1-1",           579,       8.41916,       21.3934,            0.,NA,NA,"",       1.18089,  -974.215E-03,   667.395E-03,   1.56279E-03
C:/temp/dataset/2/24_2.odb,Step-1,Increment      1: Step Time =    1.000,"PART-1-1",           580,       6.50486,       21.1025,            0.,NA,NA,"",       1.15736,  -968.394E-03,   633.786E-03,   2.55206E-03
C:/temp/dataset/2/24_2.odb,Step-1,Increment      1: Step Time =    1.000,"PART-1-1",           581,           4.5,          -30.,            0.,NA,NA,"",            0.,  -651.530E-42,   517.216E-42,   618.358E-06
C:/temp/dataset/2/24_2.odb,Step-1,Increment      1: Step Time =    1.000,"PART-1-1",           582,       3.62857,      -22.4261,            0.,NA,NA,"",   2.80272E-03,  -2.78895E-03,   277.522E-06,   223.813E-06
C:/temp/dataset/2/24_2.odb,Step-1,Increment      1: Step Time =    1.000,"PART-1-1",           583,       2.16864,      -23.6665,            0.,NA,NA,"",   3.40920E-03,  -3.26872E-03,   968.558E-06,   469.366E-06
C:/temp/dataset/2/24_2.odb,Step-1,Increment      1: Step Time =    1.000,"PART-1-1",           584,      -2.73954,      -22.4743,            0.,NA,NA,"",   10.2199E-03,  -5.03865E-03,   8.89150E-03,   2.15787E-03
C:/temp/dataset/2/24_2.odb,Step-1,Increment      1: Step Time =    1.000,"PART-1-1",           585,  -999.676E-03,      -23.6839,            0.,NA,NA,"",   5.81859E-03,  -4.12007E-03,   4.10865E-03,   1.32658E-03
C:/temp/dataset/2/24_2.odb,Step-1,Increment      1: Step Time =    1.000,"PART-1-1",           586,      -7.82572,      -27.3936,            0.,NA,NA,"",   3.46411E-03,   2.44165E-03,   2.45731E-03,   1.51795E-03
C:/temp/dataset/2/24_2.odb,Step-1,Increment      1: Step Time =    1.000,"PART-1-1",           587,      -6.52069,      -26.1528,            0.,NA,NA,"",   5.46408E-03,   1.28586E-03,   5.31062E-03,   2.28611E-03
C:/temp/dataset/2/24_2.odb,Step-1,Increment      1: Step Time =    1.000,"PART-1-1",           588,      -8.08310,      -24.7829,            0.,NA,NA,"",   6.57726E-03,   2.79890E-03,   5.95202E-03,   2.09640E-03
C:/temp/dataset/2/24_2.odb,Step-1,Increment      1: Step Time =    1.000,"PART-1-1",           589,      -9.38814,      -26.0237,            0.,NA,NA,"",   4.44992E-03,   3.98480E-03,   1.98069E-03,   1.61835E-03
C:/temp/dataset/2/24_2.odb,Step-1,Increment      1: Step Time =    1.000,"PART-1-1",           590,          -7.5,          -30.,            0.,NA,NA,"",            0.,   1.02051E-39,   1.85840E-39,   1.16932E-03
C:/temp/dataset/2/24_2.odb,Step-1,Increment      1: Step Time =    1.000,"PART-1-1",           591,       7.73182,       24.8866,            0.,NA,NA,"",       1.22223,      -1.02935,   659.011E-03,   1.13708E-03
C:/temp/dataset/2/24_2.odb,Step-1,Increment      1: Step Time =    1.000,"PART-1-1",           592,       8.21760,       26.2797,            0.,NA,NA,"",       1.24577,      -1.05165,   667.822E-03,   964.061E-06
C:/temp/dataset/2/24_2.odb,Step-1,Increment      1: Step Time =    1.000,"PART-1-1",           593,       6.12718,       25.7561,            0.,NA,NA,"",       1.21965,      -1.04167,   634.406E-03,   1.00785E-03
C:/temp/dataset/2/24_2.odb,Step-1,Increment      1: Step Time =    1.000,"PART-1-1",           594,       5.38844,       22.1508,            0.,NA,NA,"",       1.16260,  -983.511E-03,   619.958E-03,   2.74835E-03
C:/temp/dataset/2/24_2.odb,Step-1,Increment      1: Step Time =    1.000,"PART-1-1",           595,      -3.37677,   775.412E-03,            0.,NA,NA,"",   473.514E-03,  -423.324E-03,   212.161E-03,   2.21208E-03
C:/temp/dataset/2/24_2.odb,Step-1,Increment      1: Step Time =    1.000,"PART-1-1",           596,      -3.41233,       2.84116,            0.,NA,NA,"",   534.917E-03,  -491.173E-03,   211.860E-03,   1.90870E-03
C:/temp/dataset/2/24_2.odb,Step-1,Increment      1: Step Time =    1.000,"PART-1-1",           597,      -11.2482,       24.9673,            0.,NA,NA,"",       1.09448,      -1.02731,   377.515E-03,   8.64030E-06
C:/temp/dataset/2/24_2.odb,Step-1,Increment      1: Step Time =    1.000,"PART-1-1",           598,       5.16292,       24.1270,            0.,NA,NA,"",       1.18889,      -1.01496,   619.134E-03,   1.49564E-03
C:/temp/dataset/2/24_2.odb,Step-1,Increment      1: Step Time =    1.000,"PART-1-1",           599,            0.,            5.,            0.,NA,NA,"",   664.958E-03,  -574.538E-03,   334.777E-03,   1.68655E-03
C:/temp/dataset/2/24_2.odb,Step-1,Increment      1: Step Time =    1.000,"PART-1-1",           600,      -1.80204,       3.95011,            0.,NA,NA,"",   596.653E-03,  -532.575E-03,   268.996E-03,   2.13390E-03
C:/temp/dataset/2/24_2.odb,Step-1,Increment      1: Step Time =    1.000,"PART-1-1",           601,       9.59799,       22.9228,            0.,NA,NA,"",       1.21447,  -999.643E-03,   689.668E-03,   1.41003E-03
C:/temp/dataset/2/24_2.odb,Step-1,Increment      1: Step Time =    1.000,"PART-1-1",           602,       8.30932,       22.9391,            0.,NA,NA,"",       1.20126,  -999.125E-03,   666.914E-03,   1.59927E-03
C:/temp/dataset/2/24_2.odb,Step-1,Increment      1: Step Time =    1.000,"PART-1-1",           603,      -1.93269,      -1.01257,            0.,NA,NA,"",   451.535E-03,  -366.115E-03,   264.279E-03,   2.61313E-03
C:/temp/dataset/2/24_2.odb,Step-1,Increment      1: Step Time =    1.000,"PART-1-1",           604,      -8.69440,      -13.5596,            0.,NA,NA,"",   74.2117E-03,  -69.9098E-03,   24.8998E-03,   2.92985E-03
C:/temp/dataset/2/24_2.odb,Step-1,Increment      1: Step Time =    1.000,"PART-1-1",           605,       6.07991,       2.65614,            0.,NA,NA,"",   752.515E-03,  -498.354E-03,   563.846E-03,   2.56990E-03
C:/temp/dataset/2/24_2.odb,Step-1,Increment      1: Step Time =    1.000,"PART-1-1",           606,       4.75906,       1.28045,            0.,NA,NA,"",   682.930E-03,  -449.159E-03,   514.441E-03,   2.50595E-03
C:/temp/dataset/2/24_2.odb,Step-1,Increment      1: Step Time =    1.000,"PART-1-1",           607,       10.0234,       4.43547,            0.,NA,NA,"",   890.972E-03,  -561.141E-03,   692.063E-03,   1.16116E-03
C:/temp/dataset/2/24_2.odb,Step-1,Increment      1: Step Time =    1.000,"PART-1-1",           608,       7.46673,       4.06304,            0.,NA,NA,"",   821.620E-03,  -547.867E-03,   612.292E-03,   2.14451E-03
C:/temp/dataset/2/24_2.odb,Step-1,Increment      1: Step Time =    1.000,"PART-1-1",           609,  -317.165E-03,  -486.862E-03,            0.,NA,NA,"",   502.904E-03,  -384.610E-03,   324.017E-03,   2.61995E-03
C:/temp/dataset/2/24_2.odb,Step-1,Increment      1: Step Time =    1.000,"PART-1-1",           610,       1.72730,   921.331E-03,            0.,NA,NA,"",   590.333E-03,  -433.463E-03,   400.753E-03,   2.71973E-03
C:/temp/dataset/2/24_2.odb,Step-1,Increment      1: Step Time =    1.000,"PART-1-1",           611,      -4.63664,      -21.2535,            0.,NA,NA,"",   18.9972E-03,  -5.90718E-03,   18.0555E-03,   5.42690E-03
C:/temp/dataset/2/24_2.odb,Step-1,Increment      1: Step Time =    1.000,"PART-1-1",           612,       11.2827,       3.26092,            0.,NA,NA,"",   899.399E-03,  -523.248E-03,   731.525E-03,   1.30493E-03
C:/temp/dataset/2/24_2.odb,Step-1,Increment      1: Step Time =    1.000,"PART-1-1",           613,      -11.4502,      -4.36864,            0.,NA,NA,"",   259.159E-03,  -257.827E-03,  -26.2341E-03,   2.34744E-03
C:/temp/dataset/2/24_2.odb,Step-1,Increment      1: Step Time =    1.000,"PART-1-1",           614,      -10.8693,      -24.5529,            0.,NA,NA,"",   4.39446E-03,   4.25880E-03,  -1.08346E-03,   1.58730E-03
C:/temp/dataset/2/24_2.odb,Step-1,Increment      1: Step Time =    1.000,"PART-1-1",           615,      -9.52531,      -23.3517,            0.,NA,NA,"",   4.84555E-03,   3.03202E-03,   3.77971E-03,   1.98019E-03
C:/temp/dataset/2/24_2.odb,Step-1,Increment      1: Step Time =    1.000,"PART-1-1",           616,      -10.8903,      -21.7518,            0.,NA,NA,"",   2.06030E-03,   125.937E-06,  -2.05645E-03,   1.72181E-03
C:/temp/dataset/2/24_2.odb,Step-1,Increment      1: Step Time =    1.000,"PART-1-1",           617,       3.33333,          -20.,            0.,NA,NA,"",   2.06929E-03,  -2.04331E-03,   326.836E-06,   145.150E-06
C:/temp/dataset/2/24_2.odb,Step-1,Increment      1: Step Time =    1.000,"PART-1-1",           618,       1.83446,      -21.2108,            0.,NA,NA,"",   2.73320E-03,  -2.52112E-03,   1.05562E-03,   160.064E-06
C:/temp/dataset/2/24_2.odb,Step-1,Increment      1: Step Time =    1.000,"PART-1-1",           619,       5.12744,      -21.2153,            0.,NA,NA,"",   2.40954E-03,  -2.40643E-03,  -122.460E-06,   36.5245E-06
C:/temp/dataset/2/24_2.odb,Step-1,Increment      1: Step Time =    1.000,"PART-1-1",           620,            0.,          -20.,            0.,NA,NA,"",   2.99693E-03,  -1.37758E-03,   2.66155E-03,   206.839E-06
C:/temp/dataset/2/24_2.odb,Step-1,Increment      1: Step Time =    1.000,"PART-1-1",           621,      -1.43624,      -21.2208,            0.,NA,NA,"",   6.60676E-03,  -3.52862E-03,   5.58553E-03,   985.310E-06
C:/temp/dataset/2/24_2.odb,Step-1,Increment      1: Step Time =    1.000,"PART-1-1",           622,   398.228E-03,      -22.4316,            0.,NA,NA,"",   4.32380E-03,  -3.52446E-03,   2.50468E-03,   715.146E-06
C:/temp/dataset/2/24_2.odb,Step-1,Increment      1: Step Time =    1.000,"PART-1-1",           623,   770.736E-03,      -24.9188,            0.,NA,NA,"",   3.96623E-03,  -3.50961E-03,   1.84759E-03,   878.868E-06
C:/temp/dataset/2/24_2.odb,Step-1,Increment      1: Step Time =    1.000,"PART-1-1",           624,      -3.33333,          -20.,            0.,NA,NA,"",   10.4005E-03,  -2.45321E-03,   10.1070E-03,   2.78392E-03
C:/temp/dataset/2/24_2.odb,Step-1,Increment      1: Step Time =    1.000,"PART-1-1",           625,       8.69606,       24.2205,            0.,NA,NA,"",       1.22264,      -1.01967,   674.613E-03,   1.30026E-03
C:/temp/dataset/2/24_2.odb,Step-1,Increment      1: Step Time =    1.000,"PART-1-1",           626,      -3.33333,            5.,            0.,NA,NA,"",   604.215E-03,  -564.322E-03,   215.908E-03,   3.22921E-03
C:/temp/dataset/2/24_2.odb,Step-1,Increment      1: Step Time =    1.000,"PART-1-1",           627,      -4.94363,       3.89105,            0.,NA,NA,"",   546.161E-03,  -521.916E-03,   160.921E-03,   2.81769E-03
C:/temp/dataset/2/24_2.odb,Step-1,Increment      1: Step Time =    1.000,"PART-1-1",           628,      -6.66667,            5.,            0.,NA,NA,"",   562.100E-03,  -551.814E-03,   107.039E-03,   3.28589E-03
C:/temp/dataset/2/24_2.odb,Step-1,Increment      1: Step Time =    1.000,"PART-1-1",           629,           10.,          -20.,            0.,NA,NA,"",   2.45671E-03,  -2.45249E-03,  -143.929E-06,   34.8655E-06
C:/temp/dataset/2/24_2.odb,Step-1,Increment      1: Step Time =    1.000,"PART-1-1",           630,       8.42239,      -21.2201,            0.,NA,NA,"",   2.36116E-03,  -2.34575E-03,  -269.257E-06,   11.0686E-06
C:/temp/dataset/2/24_2.odb,Step-1,Increment      1: Step Time =    1.000,"PART-1-1",           631,       6.66667,          -20.,            0.,NA,NA,"",   2.31755E-03,  -2.30147E-03,  -272.511E-06,   62.1059E-06
C:/temp/dataset/2/24_2.odb,Step-1,Increment      1: Step Time =    1.000,"PART-1-1",           632,       9.53008,       25.0675,            0.,NA,NA,"",       1.24234,      -1.03354,   689.353E-03,   1.14004E-03
