ODB Name,Step,Frame,Part Instance Name,    êﬂì_ÉâÉxÉã,X,Y,Z,Section Name,Material Name,Section Point,   U-Magnitude,          U-U1,          U-U2,       S-Mises
C:/temp/dataset/2/24_9.odb,Step-1,Increment      4: Step Time =    1.000,"PART-1-1",             1,          -15.,           20.,            0.,NA,NA,"",       3.81100,      -3.41048,       1.70071,   1.74276E-06
C:/temp/dataset/2/24_9.odb,Step-1,Increment      4: Step Time =    1.000,"PART-1-1",             2,          -15.,           25.,            0.,NA,NA,"",       3.95909,      -3.57649,       1.69797,   9.30052E-06
C:/temp/dataset/2/24_9.odb,Step-1,Increment      4: Step Time =    1.000,"PART-1-1",             3,          -10.,           20.,            0.,NA,NA,"",       3.89028,      -3.41319,       1.86666,   36.8452E-06
C:/temp/dataset/2/24_9.odb,Step-1,Increment      4: Step Time =    1.000,"PART-1-1",             4,           -5.,           20.,            0.,NA,NA,"",       3.97445,      -3.41517,       2.03294,   404.324E-06
C:/temp/dataset/2/24_9.odb,Step-1,Increment      4: Step Time =    1.000,"PART-1-1",             5,            0.,           20.,            0.,NA,NA,"",       4.06820,      -3.41407,       2.21233,   4.52990E-03
C:/temp/dataset/2/24_9.odb,Step-1,Increment      4: Step Time =    1.000,"PART-1-1",             6,            5.,           20.,            0.,NA,NA,"",       4.11007,      -3.40199,       2.30633,   35.1579E-03
C:/temp/dataset/2/24_9.odb,Step-1,Increment      4: Step Time =    1.000,"PART-1-1",             7,            5.,          12.5,            0.,NA,NA,"",       3.59184,      -2.89262,       2.12933,   25.7828E-03
C:/temp/dataset/2/24_9.odb,Step-1,Increment      4: Step Time =    1.000,"PART-1-1",             8,            5.,            5.,            0.,NA,NA,"",       2.96400,      -2.22450,       1.95880,   34.8744E-03
C:/temp/dataset/2/24_9.odb,Step-1,Increment      4: Step Time =    1.000,"PART-1-1",             9,           -5.,            5.,            0.,NA,NA,"",       2.17811,      -2.10618,   555.113E-03,   13.1847E-03
C:/temp/dataset/2/24_9.odb,Step-1,Increment      4: Step Time =    1.000,"PART-1-1",            10,          -15.,            5.,            0.,NA,NA,"",       2.06170,      -1.98359,  -562.115E-03,   688.950E-06
C:/temp/dataset/2/24_9.odb,Step-1,Increment      4: Step Time =    1.000,"PART-1-1",            11,          -15.,         -3.75,            0.,NA,NA,"",       1.11082,      -1.01246,  -456.985E-03,   17.4650E-03
C:/temp/dataset/2/24_9.odb,Step-1,Increment      4: Step Time =    1.000,"PART-1-1",            12,          -15.,         -12.5,            0.,NA,NA,"",   406.728E-03,  -318.227E-03,  -253.297E-03,   23.2388E-03
C:/temp/dataset/2/24_9.odb,Step-1,Increment      4: Step Time =    1.000,"PART-1-1",            13,          -15.,        -21.25,            0.,NA,NA,"",   80.1984E-03,  -18.9869E-03,  -77.9184E-03,   17.4398E-03
C:/temp/dataset/2/24_9.odb,Step-1,Increment      4: Step Time =    1.000,"PART-1-1",            14,          -15.,          -30.,            0.,NA,NA,"",            0.,   84.6622E-42,   164.550E-42,   2.63004E-03
C:/temp/dataset/2/24_9.odb,Step-1,Increment      4: Step Time =    1.000,"PART-1-1",            15,           15.,          -30.,            0.,NA,NA,"",            0.,   17.5625E-42,  -29.0265E-42,   1.55675E-03
C:/temp/dataset/2/24_9.odb,Step-1,Increment      4: Step Time =    1.000,"PART-1-1",            16,           15.,          -25.,            0.,NA,NA,"",   6.62845E-03,  -6.21247E-03,   2.31118E-03,   29.9459E-06
C:/temp/dataset/2/24_9.odb,Step-1,Increment      4: Step Time =    1.000,"PART-1-1",            17,           15.,          -20.,            0.,NA,NA,"",   9.74637E-03,  -9.51773E-03,   2.09869E-03,   9.09351E-06
C:/temp/dataset/2/24_9.odb,Step-1,Increment      4: Step Time =    1.000,"PART-1-1",            18,            5.,          -20.,            0.,NA,NA,"",   8.22480E-03,  -8.21609E-03,  -378.483E-06,   420.175E-06
C:/temp/dataset/2/24_9.odb,Step-1,Increment      4: Step Time =    1.000,"PART-1-1",            19,           -5.,          -20.,            0.,NA,NA,"",   97.8174E-03,  -23.6152E-03,   94.9240E-03,   37.1381E-03
C:/temp/dataset/2/24_9.odb,Step-1,Increment      4: Step Time =    1.000,"PART-1-1",            20,           -5.,         -12.5,            0.,NA,NA,"",   480.595E-03,  -356.383E-03,   322.432E-03,   31.8675E-03
C:/temp/dataset/2/24_9.odb,Step-1,Increment      4: Step Time =    1.000,"PART-1-1",            21,           -5.,           -5.,            0.,NA,NA,"",       1.05194,  -897.579E-03,   548.579E-03,   44.2320E-03
C:/temp/dataset/2/24_9.odb,Step-1,Increment      4: Step Time =    1.000,"PART-1-1",            22,            0.,           -5.,            0.,NA,NA,"",       1.57537,  -900.580E-03,       1.29258,   2.06929E-03
C:/temp/dataset/2/24_9.odb,Step-1,Increment      4: Step Time =    1.000,"PART-1-1",            23,            5.,           -5.,            0.,NA,NA,"",       2.19354,  -965.794E-03,       1.96948,   8.09867E-03
C:/temp/dataset/2/24_9.odb,Step-1,Increment      4: Step Time =    1.000,"PART-1-1",            24,           10.,           -5.,            0.,NA,NA,"",       2.78352,      -1.03914,       2.58228,   5.00396E-03
C:/temp/dataset/2/24_9.odb,Step-1,Increment      4: Step Time =    1.000,"PART-1-1",            25,           15.,           -5.,            0.,NA,NA,"",       3.35156,      -1.08104,       3.17243,   403.791E-06
C:/temp/dataset/2/24_9.odb,Step-1,Increment      4: Step Time =    1.000,"PART-1-1",            26,           15.,          3.75,            0.,NA,NA,"",       3.73330,      -2.12228,       3.07140,   12.9924E-03
C:/temp/dataset/2/24_9.odb,Step-1,Increment      4: Step Time =    1.000,"PART-1-1",            27,           15.,          12.5,            0.,NA,NA,"",       4.13261,      -2.94305,       2.90118,   17.1555E-03
C:/temp/dataset/2/24_9.odb,Step-1,Increment      4: Step Time =    1.000,"PART-1-1",            28,           15.,         21.25,            0.,NA,NA,"",       4.42672,      -3.45556,       2.76676,   10.5056E-03
C:/temp/dataset/2/24_9.odb,Step-1,Increment      4: Step Time =    1.000,"PART-1-1",            29,           15.,           30.,            0.,NA,NA,"",       4.67631,      -3.79628,       2.73059,   281.637E-06
C:/temp/dataset/2/24_9.odb,Step-1,Increment      4: Step Time =    1.000,"PART-1-1",            30,           7.5,           30.,            0.,NA,NA,"",       4.49146,      -3.77524,       2.43327,   5.20995E-03
C:/temp/dataset/2/24_9.odb,Step-1,Increment      4: Step Time =    1.000,"PART-1-1",            31,            0.,           30.,            0.,NA,NA,"",       4.34099,      -3.74886,       2.18867,   411.546E-06
C:/temp/dataset/2/24_9.odb,Step-1,Increment      4: Step Time =    1.000,"PART-1-1",            32,          -7.5,           30.,            0.,NA,NA,"",       4.22093,      -3.74644,       1.94434,   128.356E-06
C:/temp/dataset/2/24_9.odb,Step-1,Increment      4: Step Time =    1.000,"PART-1-1",            33,          -15.,           30.,            0.,NA,NA,"",       4.10854,      -3.74250,       1.69523,   1.73789E-06
C:/temp/dataset/2/24_9.odb,Step-1,Increment      4: Step Time =    1.000,"PART-1-1",            34,          -15.,          22.5,            0.,NA,NA,"",       3.88486,      -3.49348,       1.69933,   3.72759E-06
C:/temp/dataset/2/24_9.odb,Step-1,Increment      4: Step Time =    1.000,"PART-1-1",            35,         -12.5,           20.,            0.,NA,NA,"",       3.84998,      -3.41185,       1.78370,   4.38394E-06
C:/temp/dataset/2/24_9.odb,Step-1,Increment      4: Step Time =    1.000,"PART-1-1",            36,          -7.5,           20.,            0.,NA,NA,"",       3.93183,      -3.41441,       1.94963,   139.384E-06
C:/temp/dataset/2/24_9.odb,Step-1,Increment      4: Step Time =    1.000,"PART-1-1",            37,          -2.5,           20.,            0.,NA,NA,"",       4.01881,      -3.41550,       2.11782,   1.46870E-03
C:/temp/dataset/2/24_9.odb,Step-1,Increment      4: Step Time =    1.000,"PART-1-1",            38,           2.5,           20.,            0.,NA,NA,"",       4.11700,      -3.41934,       2.29299,   14.8156E-03
C:/temp/dataset/2/24_9.odb,Step-1,Increment      4: Step Time =    1.000,"PART-1-1",            39,            5.,           15.,            0.,NA,NA,"",       3.77197,      -3.07804,       2.18022,   25.2653E-03
C:/temp/dataset/2/24_9.odb,Step-1,Increment      4: Step Time =    1.000,"PART-1-1",            40,            5.,          17.5,            0.,NA,NA,"",       3.93720,      -3.24468,       2.23015,   28.2701E-03
C:/temp/dataset/2/24_9.odb,Step-1,Increment      4: Step Time =    1.000,"PART-1-1",            41,            5.,           7.5,            0.,NA,NA,"",       3.19011,      -2.45905,       2.03222,   28.9581E-03
C:/temp/dataset/2/24_9.odb,Step-1,Increment      4: Step Time =    1.000,"PART-1-1",            42,            5.,           10.,            0.,NA,NA,"",       3.39656,      -2.68547,       2.07963,   25.6378E-03
C:/temp/dataset/2/24_9.odb,Step-1,Increment      4: Step Time =    1.000,"PART-1-1",            43,      -1.66667,            5.,            0.,NA,NA,"",       2.38162,      -2.16817,   985.461E-03,   8.92301E-03
C:/temp/dataset/2/24_9.odb,Step-1,Increment      4: Step Time =    1.000,"PART-1-1",            44,       1.66667,            5.,            0.,NA,NA,"",       2.64610,      -2.21363,       1.44973,   6.20237E-03
C:/temp/dataset/2/24_9.odb,Step-1,Increment      4: Step Time =    1.000,"PART-1-1",            45,      -11.6667,            5.,            0.,NA,NA,"",       2.01500,      -2.00544,  -196.097E-03,   2.96381E-03
C:/temp/dataset/2/24_9.odb,Step-1,Increment      4: Step Time =    1.000,"PART-1-1",            46,      -8.33333,            5.,            0.,NA,NA,"",       2.05222,      -2.04545,   166.611E-03,   10.4470E-03
C:/temp/dataset/2/24_9.odb,Step-1,Increment      4: Step Time =    1.000,"PART-1-1",            47,          -15.,  -833.333E-03,            0.,NA,NA,"",       1.42030,      -1.32595,  -509.014E-03,   9.91862E-03
C:/temp/dataset/2/24_9.odb,Step-1,Increment      4: Step Time =    1.000,"PART-1-1",            48,          -15.,       2.08333,            0.,NA,NA,"",       1.74281,      -1.65618,  -542.644E-03,   2.36278E-03
C:/temp/dataset/2/24_9.odb,Step-1,Increment      4: Step Time =    1.000,"PART-1-1",            49,          -15.,      -9.58333,            0.,NA,NA,"",   597.258E-03,  -503.936E-03,  -320.572E-03,   23.4607E-03
C:/temp/dataset/2/24_9.odb,Step-1,Increment      4: Step Time =    1.000,"PART-1-1",            50,          -15.,      -6.66667,            0.,NA,NA,"",   832.404E-03,  -735.186E-03,  -390.383E-03,   22.1822E-03
C:/temp/dataset/2/24_9.odb,Step-1,Increment      4: Step Time =    1.000,"PART-1-1",            51,          -15.,      -18.3333,            0.,NA,NA,"",   151.102E-03,  -76.8774E-03,  -130.084E-03,   20.9833E-03
C:/temp/dataset/2/24_9.odb,Step-1,Increment      4: Step Time =    1.000,"PART-1-1",            52,          -15.,      -15.4167,            0.,NA,NA,"",   258.660E-03,  -176.023E-03,  -189.528E-03,   22.7891E-03
C:/temp/dataset/2/24_9.odb,Step-1,Increment      4: Step Time =    1.000,"PART-1-1",            53,          -15.,      -27.0833,            0.,NA,NA,"",   13.7369E-03,   7.38723E-03,  -11.5815E-03,   7.82878E-03
C:/temp/dataset/2/24_9.odb,Step-1,Increment      4: Step Time =    1.000,"PART-1-1",            54,          -15.,      -24.1667,            0.,NA,NA,"",   38.7844E-03,   5.29807E-03,  -38.4209E-03,   12.6209E-03
C:/temp/dataset/2/24_9.odb,Step-1,Increment      4: Step Time =    1.000,"PART-1-1",            55,           12.,          -30.,            0.,NA,NA,"",            0.,  -1.45968E-39,   1.53282E-39,   799.153E-06
C:/temp/dataset/2/24_9.odb,Step-1,Increment      4: Step Time =    1.000,"PART-1-1",            56,            9.,          -30.,            0.,NA,NA,"",            0.,  -1.38445E-39,  -983.733E-42,   1.24253E-03
C:/temp/dataset/2/24_9.odb,Step-1,Increment      4: Step Time =    1.000,"PART-1-1",            57,            6.,          -30.,            0.,NA,NA,"",            0.,  -3.31202E-39,   3.61618E-39,   1.88501E-03
C:/temp/dataset/2/24_9.odb,Step-1,Increment      4: Step Time =    1.000,"PART-1-1",            58,            3.,          -30.,            0.,NA,NA,"",            0.,  -2.53496E-39,   798.472E-42,   2.86752E-03
C:/temp/dataset/2/24_9.odb,Step-1,Increment      4: Step Time =    1.000,"PART-1-1",            59,            0.,          -30.,            0.,NA,NA,"",            0.,  -7.17993E-39,   10.0690E-39,   3.98410E-03
C:/temp/dataset/2/24_9.odb,Step-1,Increment      4: Step Time =    1.000,"PART-1-1",            60,           -3.,          -30.,            0.,NA,NA,"",            0.,  -7.09403E-39,   12.8402E-39,   4.63977E-03
C:/temp/dataset/2/24_9.odb,Step-1,Increment      4: Step Time =    1.000,"PART-1-1",            61,           -6.,          -30.,            0.,NA,NA,"",            0.,  -3.05340E-39,   10.1191E-39,   4.78766E-03
C:/temp/dataset/2/24_9.odb,Step-1,Increment      4: Step Time =    1.000,"PART-1-1",            62,           -9.,          -30.,            0.,NA,NA,"",            0.,   9.77316E-39,   12.9206E-39,   5.12245E-03
C:/temp/dataset/2/24_9.odb,Step-1,Increment      4: Step Time =    1.000,"PART-1-1",            63,          -12.,          -30.,            0.,NA,NA,"",            0.,   5.07238E-39,   271.314E-42,   5.20020E-03
C:/temp/dataset/2/24_9.odb,Step-1,Increment      4: Step Time =    1.000,"PART-1-1",            64,           15.,         -27.5,            0.,NA,NA,"",   4.14049E-03,  -3.55518E-03,   2.12235E-03,   475.109E-06
C:/temp/dataset/2/24_9.odb,Step-1,Increment      4: Step Time =    1.000,"PART-1-1",            65,           15.,         -22.5,            0.,NA,NA,"",   8.34485E-03,  -8.06382E-03,   2.14740E-03,   55.5112E-06
C:/temp/dataset/2/24_9.odb,Step-1,Increment      4: Step Time =    1.000,"PART-1-1",            66,       8.33333,          -20.,            0.,NA,NA,"",   9.05284E-03,  -8.99789E-03,  -995.891E-06,   198.402E-06
C:/temp/dataset/2/24_9.odb,Step-1,Increment      4: Step Time =    1.000,"PART-1-1",            67,       11.6667,          -20.,            0.,NA,NA,"",   9.40832E-03,  -9.40660E-03,   179.717E-06,   80.1894E-06
C:/temp/dataset/2/24_9.odb,Step-1,Increment      4: Step Time =    1.000,"PART-1-1",            68,      -1.66667,          -20.,            0.,NA,NA,"",   24.6225E-03,  -4.86767E-03,   24.1365E-03,   6.73731E-03
C:/temp/dataset/2/24_9.odb,Step-1,Increment      4: Step Time =    1.000,"PART-1-1",            69,       1.66667,          -20.,            0.,NA,NA,"",   8.47284E-03,  -6.62175E-03,   5.28596E-03,   1.41628E-03
C:/temp/dataset/2/24_9.odb,Step-1,Increment      4: Step Time =    1.000,"PART-1-1",            70,           -5.,          -15.,            0.,NA,NA,"",   338.732E-03,  -223.558E-03,   254.481E-03,   31.3681E-03
C:/temp/dataset/2/24_9.odb,Step-1,Increment      4: Step Time =    1.000,"PART-1-1",            71,           -5.,         -17.5,            0.,NA,NA,"",   220.831E-03,  -116.315E-03,   187.716E-03,   34.4813E-03
C:/temp/dataset/2/24_9.odb,Step-1,Increment      4: Step Time =    1.000,"PART-1-1",            72,           -5.,          -7.5,            0.,NA,NA,"",   836.926E-03,  -704.231E-03,   452.221E-03,   35.1804E-03
C:/temp/dataset/2/24_9.odb,Step-1,Increment      4: Step Time =    1.000,"PART-1-1",            73,           -5.,          -10.,            0.,NA,NA,"",   647.437E-03,  -517.554E-03,   388.988E-03,   31.4319E-03
C:/temp/dataset/2/24_9.odb,Step-1,Increment      4: Step Time =    1.000,"PART-1-1",            74,          -2.5,           -5.,            0.,NA,NA,"",       1.28835,  -884.566E-03,   936.685E-03,   14.8487E-03
C:/temp/dataset/2/24_9.odb,Step-1,Increment      4: Step Time =    1.000,"PART-1-1",            75,           2.5,           -5.,            0.,NA,NA,"",       1.88302,  -928.551E-03,       1.63816,   4.18904E-03
C:/temp/dataset/2/24_9.odb,Step-1,Increment      4: Step Time =    1.000,"PART-1-1",            76,           7.5,           -5.,            0.,NA,NA,"",       2.49493,      -1.00544,       2.28337,   8.13785E-03
C:/temp/dataset/2/24_9.odb,Step-1,Increment      4: Step Time =    1.000,"PART-1-1",            77,          12.5,           -5.,            0.,NA,NA,"",       3.06582,      -1.06306,       2.87562,   1.20234E-03
C:/temp/dataset/2/24_9.odb,Step-1,Increment      4: Step Time =    1.000,"PART-1-1",            78,           15.,   833.333E-03,            0.,NA,NA,"",       3.59231,      -1.78382,       3.11813,   7.14285E-03
C:/temp/dataset/2/24_9.odb,Step-1,Increment      4: Step Time =    1.000,"PART-1-1",            79,           15.,      -2.08333,            0.,NA,NA,"",       3.46055,      -1.43161,       3.15054,   1.64158E-03
C:/temp/dataset/2/24_9.odb,Step-1,Increment      4: Step Time =    1.000,"PART-1-1",            80,           15.,       9.58333,            0.,NA,NA,"",       4.00754,      -2.70546,       2.95650,   17.4892E-03
C:/temp/dataset/2/24_9.odb,Step-1,Increment      4: Step Time =    1.000,"PART-1-1",            81,           15.,       6.66667,            0.,NA,NA,"",       3.87348,      -2.43192,       3.01489,   16.5356E-03
C:/temp/dataset/2/24_9.odb,Step-1,Increment      4: Step Time =    1.000,"PART-1-1",            82,           15.,       18.3333,            0.,NA,NA,"",       4.34290,      -3.31637,       2.80402,   14.3897E-03
C:/temp/dataset/2/24_9.odb,Step-1,Increment      4: Step Time =    1.000,"PART-1-1",            83,           15.,       15.4167,            0.,NA,NA,"",       4.24525,      -3.14645,       2.84991,   16.5211E-03
C:/temp/dataset/2/24_9.odb,Step-1,Increment      4: Step Time =    1.000,"PART-1-1",            84,           15.,       27.0833,            0.,NA,NA,"",       4.58671,      -3.68338,       2.73325,   1.11039E-03
C:/temp/dataset/2/24_9.odb,Step-1,Increment      4: Step Time =    1.000,"PART-1-1",            85,           15.,       24.1667,            0.,NA,NA,"",       4.50497,      -3.57330,       2.74340,   5.35111E-03
C:/temp/dataset/2/24_9.odb,Step-1,Increment      4: Step Time =    1.000,"PART-1-1",            86,           10.,           30.,            0.,NA,NA,"",       4.55468,      -3.78748,       2.52985,   3.41282E-03
C:/temp/dataset/2/24_9.odb,Step-1,Increment      4: Step Time =    1.000,"PART-1-1",            87,          12.5,           30.,            0.,NA,NA,"",       4.61715,      -3.79410,       2.63112,   820.725E-06
C:/temp/dataset/2/24_9.odb,Step-1,Increment      4: Step Time =    1.000,"PART-1-1",            88,           2.5,           30.,            0.,NA,NA,"",       4.38390,      -3.75257,       2.26646,   2.35597E-03
C:/temp/dataset/2/24_9.odb,Step-1,Increment      4: Step Time =    1.000,"PART-1-1",            89,            5.,           30.,            0.,NA,NA,"",       4.43350,      -3.76184,       2.34616,   4.38037E-03
C:/temp/dataset/2/24_9.odb,Step-1,Increment      4: Step Time =    1.000,"PART-1-1",            90,           -5.,           30.,            0.,NA,NA,"",       4.26050,      -3.74736,       2.02711,   288.090E-06
C:/temp/dataset/2/24_9.odb,Step-1,Increment      4: Step Time =    1.000,"PART-1-1",            91,          -2.5,           30.,            0.,NA,NA,"",       4.30051,      -3.74791,       2.10891,   309.807E-06
C:/temp/dataset/2/24_9.odb,Step-1,Increment      4: Step Time =    1.000,"PART-1-1",            92,         -12.5,           30.,            0.,NA,NA,"",       4.14473,      -3.74388,       1.77825,   4.52565E-06
C:/temp/dataset/2/24_9.odb,Step-1,Increment      4: Step Time =    1.000,"PART-1-1",            93,          -10.,           30.,            0.,NA,NA,"",       4.18224,      -3.74522,       1.86130,   36.7167E-06
C:/temp/dataset/2/24_9.odb,Step-1,Increment      4: Step Time =    1.000,"PART-1-1",            94,          -15.,          27.5,            0.,NA,NA,"",       4.03365,      -3.65949,       1.69661,   3.60282E-06
C:/temp/dataset/2/24_9.odb,Step-1,Increment      4: Step Time =    1.000,"PART-1-1",            95,      -12.4978,       24.9766,            0.,NA,NA,"",       3.99599,      -3.57711,       1.78106,   18.9157E-06
C:/temp/dataset/2/24_9.odb,Step-1,Increment      4: Step Time =    1.000,"PART-1-1",            96,      -7.49872,       27.4475,            0.,NA,NA,"",       4.14682,      -3.66195,       1.94582,   121.756E-06
C:/temp/dataset/2/24_9.odb,Step-1,Increment      4: Step Time =    1.000,"PART-1-1",            97,      -7.50661,       22.4446,            0.,NA,NA,"",       4.00196,      -3.49584,       1.94802,   138.450E-06
C:/temp/dataset/2/24_9.odb,Step-1,Increment      4: Step Time =    1.000,"PART-1-1",            98,      -2.53392,       22.4091,            0.,NA,NA,"",       4.08730,      -3.49792,       2.11439,   951.764E-06
C:/temp/dataset/2/24_9.odb,Step-1,Increment      4: Step Time =    1.000,"PART-1-1",            99,  -19.7467E-03,       27.3919,            0.,NA,NA,"",       4.26826,      -3.66385,       2.18956,   1.77897E-03
C:/temp/dataset/2/24_9.odb,Step-1,Increment      4: Step Time =    1.000,"PART-1-1",           100,       2.31326,       22.2671,            0.,NA,NA,"",       4.16318,      -3.48622,       2.27558,   11.7217E-03
C:/temp/dataset/2/24_9.odb,Step-1,Increment      4: Step Time =    1.000,"PART-1-1",           101,       7.89882,       27.4278,            0.,NA,NA,"",       4.42020,      -3.68260,       2.44470,   3.58725E-03
C:/temp/dataset/2/24_9.odb,Step-1,Increment      4: Step Time =    1.000,"PART-1-1",           102,       6.74061,       20.0564,            0.,NA,NA,"",       4.14290,      -3.40334,       2.36240,   10.6540E-03
C:/temp/dataset/2/24_9.odb,Step-1,Increment      4: Step Time =    1.000,"PART-1-1",           103,       6.76082,       17.7755,            0.,NA,NA,"",       4.02589,      -3.27836,       2.33669,   19.4660E-03
C:/temp/dataset/2/24_9.odb,Step-1,Increment      4: Step Time =    1.000,"PART-1-1",           104,       7.34933,       13.0959,            0.,NA,NA,"",       3.76374,      -2.96705,       2.31567,   16.0307E-03
C:/temp/dataset/2/24_9.odb,Step-1,Increment      4: Step Time =    1.000,"PART-1-1",           105,       12.5251,      -2.17932,            0.,NA,NA,"",       3.18445,      -1.40358,       2.85845,   4.77396E-03
C:/temp/dataset/2/24_9.odb,Step-1,Increment      4: Step Time =    1.000,"PART-1-1",           106,       11.8446,      -24.9441,            0.,NA,NA,"",   6.37904E-03,  -6.37258E-03,   287.085E-06,   364.977E-06
C:/temp/dataset/2/24_9.odb,Step-1,Increment      4: Step Time =    1.000,"PART-1-1",           107,       2.44158,      -2.66949,            0.,NA,NA,"",       2.03172,      -1.23541,       1.61296,   7.06982E-03
C:/temp/dataset/2/24_9.odb,Step-1,Increment      4: Step Time =    1.000,"PART-1-1",           108,       7.46163,      -2.37632,            0.,NA,NA,"",       2.62879,      -1.33232,       2.26615,   4.73598E-03
C:/temp/dataset/2/24_9.odb,Step-1,Increment      4: Step Time =    1.000,"PART-1-1",           109,       7.48217,       7.95809,            0.,NA,NA,"",       3.40347,      -2.53264,       2.27362,   16.6488E-03
C:/temp/dataset/2/24_9.odb,Step-1,Increment      4: Step Time =    1.000,"PART-1-1",           110,      -5.01446,       22.4347,            0.,NA,NA,"",       4.04392,      -3.49696,       2.03091,   179.368E-06
C:/temp/dataset/2/24_9.odb,Step-1,Increment      4: Step Time =    1.000,"PART-1-1",           111,  -75.1424E-03,       22.3615,            0.,NA,NA,"",       4.13033,      -3.49544,       2.20034,   5.12120E-03
C:/temp/dataset/2/24_9.odb,Step-1,Increment      4: Step Time =    1.000,"PART-1-1",           112,       4.50776,       22.1530,            0.,NA,NA,"",       4.17930,      -3.47585,       2.32057,   13.4368E-03
C:/temp/dataset/2/24_9.odb,Step-1,Increment      4: Step Time =    1.000,"PART-1-1",           113,       7.06405,       15.4904,            0.,NA,NA,"",       3.90394,      -3.13558,       2.32571,   17.3893E-03
C:/temp/dataset/2/24_9.odb,Step-1,Increment      4: Step Time =    1.000,"PART-1-1",           114,       7.46285,       10.5556,            0.,NA,NA,"",       3.59371,      -2.76462,       2.29600,   16.2921E-03
C:/temp/dataset/2/24_9.odb,Step-1,Increment      4: Step Time =    1.000,"PART-1-1",           115,      -2.89738,      -2.05905,            0.,NA,NA,"",       1.52791,      -1.26591,   855.571E-03,   16.5456E-03
C:/temp/dataset/2/24_9.odb,Step-1,Increment      4: Step Time =    1.000,"PART-1-1",           116,      -7.61206,      -10.6629,            0.,NA,NA,"",   481.567E-03,  -437.647E-03,   200.928E-03,   18.7632E-03
C:/temp/dataset/2/24_9.odb,Step-1,Increment      4: Step Time =    1.000,"PART-1-1",           117,      -6.85891,      -17.7385,            0.,NA,NA,"",   149.813E-03,  -88.2533E-03,   121.059E-03,   22.8563E-03
C:/temp/dataset/2/24_9.odb,Step-1,Increment      4: Step Time =    1.000,"PART-1-1",           118,       11.9280,      -27.4687,            0.,NA,NA,"",   3.55032E-03,  -3.53091E-03,   370.674E-06,   885.029E-06
C:/temp/dataset/2/24_9.odb,Step-1,Increment      4: Step Time =    1.000,"PART-1-1",           119,      -7.44747,      -13.1413,            0.,NA,NA,"",   336.585E-03,  -288.464E-03,   173.430E-03,   18.9055E-03
C:/temp/dataset/2/24_9.odb,Step-1,Increment      4: Step Time =    1.000,"PART-1-1",           120,      -7.13169,      -15.4658,            0.,NA,NA,"",   230.892E-03,  -175.580E-03,   149.942E-03,   20.9155E-03
C:/temp/dataset/2/24_9.odb,Step-1,Increment      4: Step Time =    1.000,"PART-1-1",           121,      -8.02089,      -5.87394,            0.,NA,NA,"",   837.663E-03,  -808.779E-03,   218.070E-03,   9.79735E-03
C:/temp/dataset/2/24_9.odb,Step-1,Increment      4: Step Time =    1.000,"PART-1-1",           122,      -7.74476,      -8.18529,            0.,NA,NA,"",   654.032E-03,  -615.750E-03,   220.476E-03,   18.0303E-03
C:/temp/dataset/2/24_9.odb,Step-1,Increment      4: Step Time =    1.000,"PART-1-1",           123,  -21.3834E-03,      -2.74811,            0.,NA,NA,"",       1.74782,      -1.20276,       1.26817,   9.66460E-03
C:/temp/dataset/2/24_9.odb,Step-1,Increment      4: Step Time =    1.000,"PART-1-1",           124,       4.94012,      -2.49525,            0.,NA,NA,"",       2.33507,      -1.28707,       1.94834,   5.12525E-03
C:/temp/dataset/2/24_9.odb,Step-1,Increment      4: Step Time =    1.000,"PART-1-1",           125,       10.0127,      -2.27482,            0.,NA,NA,"",       2.91155,      -1.37147,       2.56831,   5.97880E-03
C:/temp/dataset/2/24_9.odb,Step-1,Increment      4: Step Time =    1.000,"PART-1-1",           126,       10.2967,       27.4669,            0.,NA,NA,"",       4.48160,      -3.69192,       2.54057,   4.05733E-03
C:/temp/dataset/2/24_9.odb,Step-1,Increment      4: Step Time =    1.000,"PART-1-1",           127,       12.6750,       27.3103,            0.,NA,NA,"",       4.53766,      -3.69068,       2.63993,   3.21065E-03
C:/temp/dataset/2/24_9.odb,Step-1,Increment      4: Step Time =    1.000,"PART-1-1",           128,       2.52543,       27.2659,            0.,NA,NA,"",       4.30650,      -3.66143,       2.26712,   3.62455E-03
C:/temp/dataset/2/24_9.odb,Step-1,Increment      4: Step Time =    1.000,"PART-1-1",           129,       5.32711,       26.8707,            0.,NA,NA,"",       4.34555,      -3.65330,       2.35313,   3.92177E-03
C:/temp/dataset/2/24_9.odb,Step-1,Increment      4: Step Time =    1.000,"PART-1-1",           130,      -5.00948,       27.4462,            0.,NA,NA,"",       4.18736,      -3.66331,       2.02834,   137.860E-06
C:/temp/dataset/2/24_9.odb,Step-1,Increment      4: Step Time =    1.000,"PART-1-1",           131,      -2.51658,       27.4324,            0.,NA,NA,"",       4.22828,      -3.66413,       2.11008,   401.149E-06
C:/temp/dataset/2/24_9.odb,Step-1,Increment      4: Step Time =    1.000,"PART-1-1",           132,      -9.99211,       27.4668,            0.,NA,NA,"",       4.10790,      -3.66117,       1.86296,   55.0128E-06
C:/temp/dataset/2/24_9.odb,Step-1,Increment      4: Step Time =    1.000,"PART-1-1",           133,       12.5029,       21.6680,            0.,NA,NA,"",       4.37073,      -3.47842,       2.64648,   6.72038E-03
C:/temp/dataset/2/24_9.odb,Step-1,Increment      4: Step Time =    1.000,"PART-1-1",           134,      -12.7198,      -9.27859,            0.,NA,NA,"",   538.594E-03,  -515.030E-03,  -157.569E-03,   10.2338E-03
C:/temp/dataset/2/24_9.odb,Step-1,Increment      4: Step Time =    1.000,"PART-1-1",           135,      -12.2206,      -21.4876,            0.,NA,NA,"",   28.2187E-03,  -1.83797E-03,  -28.1588E-03,   8.16971E-03
C:/temp/dataset/2/24_9.odb,Step-1,Increment      4: Step Time =    1.000,"PART-1-1",           136,       12.4390,       11.8581,            0.,NA,NA,"",       3.96673,      -2.89867,       2.70788,   5.75555E-03
C:/temp/dataset/2/24_9.odb,Step-1,Increment      4: Step Time =    1.000,"PART-1-1",           137,      -12.6285,      -12.0158,            0.,NA,NA,"",   354.127E-03,  -332.934E-03,  -120.667E-03,   9.55561E-03
C:/temp/dataset/2/24_9.odb,Step-1,Increment      4: Step Time =    1.000,"PART-1-1",           138,      -12.4213,      -14.8709,            0.,NA,NA,"",   201.678E-03,  -183.980E-03,  -82.6176E-03,   8.31908E-03
C:/temp/dataset/2/24_9.odb,Step-1,Increment      4: Step Time =    1.000,"PART-1-1",           139,       12.2989,       14.8029,            0.,NA,NA,"",       4.10482,      -3.11326,       2.67528,   5.03847E-03
C:/temp/dataset/2/24_9.odb,Step-1,Increment      4: Step Time =    1.000,"PART-1-1",           140,       11.7182,       18.2155,            0.,NA,NA,"",       4.22793,      -3.31829,       2.61999,   4.51831E-03
C:/temp/dataset/2/24_9.odb,Step-1,Increment      4: Step Time =    1.000,"PART-1-1",           141,      -12.3380,      -4.01281,            0.,NA,NA,"",       1.00124,  -983.122E-03,  -189.626E-03,   10.0228E-03
C:/temp/dataset/2/24_9.odb,Step-1,Increment      4: Step Time =    1.000,"PART-1-1",           142,       12.5089,       6.21106,            0.,NA,NA,"",       3.65541,      -2.38587,       2.76942,   6.96338E-03
C:/temp/dataset/2/24_9.odb,Step-1,Increment      4: Step Time =    1.000,"PART-1-1",           143,      -10.9765,      -1.21375,            0.,NA,NA,"",       1.29725,      -1.29451,  -84.3133E-03,   11.4493E-03
C:/temp/dataset/2/24_9.odb,Step-1,Increment      4: Step Time =    1.000,"PART-1-1",           144,      -11.4273,       2.02370,            0.,NA,NA,"",       1.67695,      -1.66984,  -154.309E-03,   8.30031E-03
C:/temp/dataset/2/24_9.odb,Step-1,Increment      4: Step Time =    1.000,"PART-1-1",           145,      -12.7154,      -6.64001,            0.,NA,NA,"",   753.982E-03,  -729.516E-03,  -190.516E-03,   10.5514E-03
C:/temp/dataset/2/24_9.odb,Step-1,Increment      4: Step Time =    1.000,"PART-1-1",           146,      -11.7762,      -18.1315,            0.,NA,NA,"",   73.3615E-03,  -64.2703E-03,  -35.3727E-03,   6.06505E-03
C:/temp/dataset/2/24_9.odb,Step-1,Increment      4: Step Time =    1.000,"PART-1-1",           147,      -12.2481,      -24.4184,            0.,NA,NA,"",   22.1924E-03,   16.0814E-03,  -15.2935E-03,   7.05758E-03
C:/temp/dataset/2/24_9.odb,Step-1,Increment      4: Step Time =    1.000,"PART-1-1",           148,       12.5340,       3.42208,            0.,NA,NA,"",       3.49127,      -2.08018,       2.80389,   7.49235E-03
C:/temp/dataset/2/24_9.odb,Step-1,Increment      4: Step Time =    1.000,"PART-1-1",           149,       12.5428,   630.306E-03,            0.,NA,NA,"",       3.33059,      -1.74816,       2.83492,   7.11290E-03
C:/temp/dataset/2/24_9.odb,Step-1,Increment      4: Step Time =    1.000,"PART-1-1",           150,       12.5001,       9.03097,            0.,NA,NA,"",       3.81749,      -2.65941,       2.73875,   6.28098E-03
C:/temp/dataset/2/24_9.odb,Step-1,Increment      4: Step Time =    1.000,"PART-1-1",           151,       12.7192,       24.5718,            0.,NA,NA,"",       4.46026,      -3.59019,       2.64660,   5.34092E-03
C:/temp/dataset/2/24_9.odb,Step-1,Increment      4: Step Time =    1.000,"PART-1-1",           152,       2.66783,      -27.4286,            0.,NA,NA,"",   8.30620E-03,  -8.06542E-03,   1.98544E-03,   2.39510E-03
C:/temp/dataset/2/24_9.odb,Step-1,Increment      4: Step Time =    1.000,"PART-1-1",           153,       8.86089,      -27.4494,            0.,NA,NA,"",   4.37322E-03,  -4.37322E-03,   5.58724E-06,   1.08588E-03
C:/temp/dataset/2/24_9.odb,Step-1,Increment      4: Step Time =    1.000,"PART-1-1",           154,       5.76511,      -27.4328,            0.,NA,NA,"",   6.06092E-03,  -6.04999E-03,   363.910E-06,   1.58335E-03
C:/temp/dataset/2/24_9.odb,Step-1,Increment      4: Step Time =    1.000,"PART-1-1",           155,  -414.647E-03,      -27.4330,            0.,NA,NA,"",   10.6414E-03,  -8.80122E-03,   5.98145E-03,   4.05875E-03
C:/temp/dataset/2/24_9.odb,Step-1,Increment      4: Step Time =    1.000,"PART-1-1",           156,      -3.42691,      -27.4460,            0.,NA,NA,"",   12.3947E-03,  -4.95380E-03,   11.3618E-03,   6.49170E-03
C:/temp/dataset/2/24_9.odb,Step-1,Increment      4: Step Time =    1.000,"PART-1-1",           157,      -6.36574,      -27.4272,            0.,NA,NA,"",   13.1757E-03,   4.14549E-03,   12.5065E-03,   7.36900E-03
C:/temp/dataset/2/24_9.odb,Step-1,Increment      4: Step Time =    1.000,"PART-1-1",           158,       10.5238,       25.0033,            0.,NA,NA,"",       4.41386,      -3.60332,       2.54917,   5.57915E-03
C:/temp/dataset/2/24_9.odb,Step-1,Increment      4: Step Time =    1.000,"PART-1-1",           159,       6.26912,       22.1485,            0.,NA,NA,"",       4.20862,      -3.48221,       2.36361,   11.9732E-03
C:/temp/dataset/2/24_9.odb,Step-1,Increment      4: Step Time =    1.000,"PART-1-1",           160,      -5.96402,      -2.70245,            0.,NA,NA,"",       1.24084,      -1.15811,   445.470E-03,   15.2965E-03
C:/temp/dataset/2/24_9.odb,Step-1,Increment      4: Step Time =    1.000,"PART-1-1",           161,      -12.5033,       22.4816,            0.,NA,NA,"",       3.92251,      -3.49425,       1.78222,   17.9854E-06
C:/temp/dataset/2/24_9.odb,Step-1,Increment      4: Step Time =    1.000,"PART-1-1",           162,      -2.53325,       24.9024,            0.,NA,NA,"",       4.15710,      -3.58064,       2.11199,   667.255E-06
C:/temp/dataset/2/24_9.odb,Step-1,Increment      4: Step Time =    1.000,"PART-1-1",           163,       4.43197,       24.4161,            0.,NA,NA,"",       4.25057,      -3.56030,       2.32198,   6.67863E-03
C:/temp/dataset/2/24_9.odb,Step-1,Increment      4: Step Time =    1.000,"PART-1-1",           164,      -10.2797,      -8.84555,            0.,NA,NA,"",   548.901E-03,  -548.432E-03,   22.6842E-03,   2.41234E-03
C:/temp/dataset/2/24_9.odb,Step-1,Increment      4: Step Time =    1.000,"PART-1-1",           165,       2.21534,  -332.134E-03,            0.,NA,NA,"",       2.18820,      -1.52783,       1.56650,   11.8710E-03
C:/temp/dataset/2/24_9.odb,Step-1,Increment      4: Step Time =    1.000,"PART-1-1",           166,  -74.2209E-03,       24.8536,            0.,NA,NA,"",       4.19617,      -3.57817,       2.19191,   2.80179E-03
C:/temp/dataset/2/24_9.odb,Step-1,Increment      4: Step Time =    1.000,"PART-1-1",           167,       2.30693,       24.7164,            0.,NA,NA,"",       4.22772,      -3.57090,       2.26325,   5.77195E-03
C:/temp/dataset/2/24_9.odb,Step-1,Increment      4: Step Time =    1.000,"PART-1-1",           168,       9.79368,       13.9045,            0.,NA,NA,"",       3.94004,      -3.04495,       2.50044,   5.66057E-03
C:/temp/dataset/2/24_9.odb,Step-1,Increment      4: Step Time =    1.000,"PART-1-1",           169,       9.30777,       16.4521,            0.,NA,NA,"",       4.05669,      -3.21343,       2.47601,   6.39773E-03
C:/temp/dataset/2/24_9.odb,Step-1,Increment      4: Step Time =    1.000,"PART-1-1",           170,      -2.35985,       1.11806,            0.,NA,NA,"",       1.89508,      -1.66092,   912.498E-03,   10.4353E-03
C:/temp/dataset/2/24_9.odb,Step-1,Increment      4: Step Time =    1.000,"PART-1-1",           171,      -9.94133,      -13.9778,            0.,NA,NA,"",   230.060E-03,  -227.343E-03,   35.2532E-03,   5.32991E-03
C:/temp/dataset/2/24_9.odb,Step-1,Increment      4: Step Time =    1.000,"PART-1-1",           172,       4.80988,   33.7751E-03,            0.,NA,NA,"",       2.50167,      -1.60291,       1.92069,   8.34626E-03
C:/temp/dataset/2/24_9.odb,Step-1,Increment      4: Step Time =    1.000,"PART-1-1",           173,       9.94126,       11.1894,            0.,NA,NA,"",       3.78617,      -2.83741,       2.50683,   5.01391E-03
C:/temp/dataset/2/24_9.odb,Step-1,Increment      4: Step Time =    1.000,"PART-1-1",           174,       7.43598,   226.782E-03,            0.,NA,NA,"",       2.79769,      -1.65862,       2.25302,   6.84972E-03
C:/temp/dataset/2/24_9.odb,Step-1,Increment      4: Step Time =    1.000,"PART-1-1",           175,      -7.50368,       24.9336,            0.,NA,NA,"",       4.07399,      -3.57868,       1.94690,   133.119E-06
C:/temp/dataset/2/24_9.odb,Step-1,Increment      4: Step Time =    1.000,"PART-1-1",           176,      -10.1536,      -11.3797,            0.,NA,NA,"",   374.566E-03,  -373.355E-03,   30.1038E-03,   4.04067E-03
C:/temp/dataset/2/24_9.odb,Step-1,Increment      4: Step Time =    1.000,"PART-1-1",           177,       6.92724,       24.6415,            0.,NA,NA,"",       4.30882,      -3.57756,       2.40145,   5.78999E-03
C:/temp/dataset/2/24_9.odb,Step-1,Increment      4: Step Time =    1.000,"PART-1-1",           178,      -9.99868,       24.9580,            0.,NA,NA,"",       4.03439,      -3.57794,       1.86404,   60.2003E-06
C:/temp/dataset/2/24_9.odb,Step-1,Increment      4: Step Time =    1.000,"PART-1-1",           179,       8.37028,       18.0705,            0.,NA,NA,"",       4.10250,      -3.30613,       2.42899,   7.97023E-03
C:/temp/dataset/2/24_9.odb,Step-1,Increment      4: Step Time =    1.000,"PART-1-1",           180,      -10.4068,      -6.54987,            0.,NA,NA,"",   737.939E-03,  -737.908E-03,   6.79352E-03,   3.82061E-03
C:/temp/dataset/2/24_9.odb,Step-1,Increment      4: Step Time =    1.000,"PART-1-1",           181,      -8.52723,      -17.8680,            0.,NA,NA,"",   99.1815E-03,  -72.6417E-03,   67.5289E-03,   9.72226E-03
C:/temp/dataset/2/24_9.odb,Step-1,Increment      4: Step Time =    1.000,"PART-1-1",           182,       9.99063,       8.47585,            0.,NA,NA,"",       3.61511,      -2.60103,       2.51071,   3.60848E-03
C:/temp/dataset/2/24_9.odb,Step-1,Increment      4: Step Time =    1.000,"PART-1-1",           183,      -6.87511,      -22.3968,            0.,NA,NA,"",   55.5117E-03,  -2.42905E-03,   55.4586E-03,   15.1239E-03
C:/temp/dataset/2/24_9.odb,Step-1,Increment      4: Step Time =    1.000,"PART-1-1",           184,       7.48189,       5.34092,            0.,NA,NA,"",       3.20243,      -2.27304,       2.25585,   9.31517E-03
C:/temp/dataset/2/24_9.odb,Step-1,Increment      4: Step Time =    1.000,"PART-1-1",           185,       10.0207,   425.902E-03,            0.,NA,NA,"",       3.07058,      -1.70713,       2.55228,   7.38208E-03
C:/temp/dataset/2/24_9.odb,Step-1,Increment      4: Step Time =    1.000,"PART-1-1",           186,      -8.86720,      -3.63325,            0.,NA,NA,"",       1.03982,      -1.03077,   136.919E-03,   9.92479E-03
C:/temp/dataset/2/24_9.odb,Step-1,Increment      4: Step Time =    1.000,"PART-1-1",           187,       10.0155,       5.77118,            0.,NA,NA,"",       3.43426,      -2.33261,       2.52053,   4.08791E-03
C:/temp/dataset/2/24_9.odb,Step-1,Increment      4: Step Time =    1.000,"PART-1-1",           188,       9.07540,       20.2179,            0.,NA,NA,"",       4.21728,      -3.41517,       2.47429,   6.62684E-03
C:/temp/dataset/2/24_9.odb,Step-1,Increment      4: Step Time =    1.000,"PART-1-1",           189,       5.51479,      -24.9218,            0.,NA,NA,"",   9.22395E-03,  -9.22388E-03,   37.3688E-06,   1.11603E-03
C:/temp/dataset/2/24_9.odb,Step-1,Increment      4: Step Time =    1.000,"PART-1-1",           190,       2.33502,      -24.9114,            0.,NA,NA,"",   12.7230E-03,  -12.1889E-03,   3.64739E-03,   1.87927E-03
C:/temp/dataset/2/24_9.odb,Step-1,Increment      4: Step Time =    1.000,"PART-1-1",           191,      -3.83494,      -24.9465,            0.,NA,NA,"",   29.4260E-03,  -9.84204E-03,   27.7313E-03,   9.06419E-03
C:/temp/dataset/2/24_9.odb,Step-1,Increment      4: Step Time =    1.000,"PART-1-1",           192,       8.68706,      -24.9229,            0.,NA,NA,"",   7.33826E-03,  -7.32336E-03,  -467.531E-06,   666.730E-06
C:/temp/dataset/2/24_9.odb,Step-1,Increment      4: Step Time =    1.000,"PART-1-1",           193,  -793.545E-03,      -24.9263,            0.,NA,NA,"",   19.5380E-03,  -14.2721E-03,   13.3431E-03,   5.08863E-03
C:/temp/dataset/2/24_9.odb,Step-1,Increment      4: Step Time =    1.000,"PART-1-1",           194,      -10.0041,       22.4687,            0.,NA,NA,"",       3.96173,      -3.49521,       1.86515,   54.6041E-06
C:/temp/dataset/2/24_9.odb,Step-1,Increment      4: Step Time =    1.000,"PART-1-1",           195,       7.76291,       22.5689,            0.,NA,NA,"",       4.26167,      -3.50592,       2.42288,   8.11446E-03
C:/temp/dataset/2/24_9.odb,Step-1,Increment      4: Step Time =    1.000,"PART-1-1",           196,       10.0314,       3.09975,            0.,NA,NA,"",       3.25078,      -2.03249,       2.53705,   7.11733E-03
C:/temp/dataset/2/24_9.odb,Step-1,Increment      4: Step Time =    1.000,"PART-1-1",           197,       7.45157,       2.78517,            0.,NA,NA,"",       2.99527,      -1.97582,       2.25117,   10.4823E-03
C:/temp/dataset/2/24_9.odb,Step-1,Increment      4: Step Time =    1.000,"PART-1-1",           198,       1.23926,       2.17480,            0.,NA,NA,"",       2.31152,      -1.83223,       1.40927,   12.6389E-03
C:/temp/dataset/2/24_9.odb,Step-1,Increment      4: Step Time =    1.000,"PART-1-1",           199,       5.89388,       23.8379,            0.,NA,NA,"",       4.25896,      -3.54353,       2.36266,   7.43778E-03
C:/temp/dataset/2/24_9.odb,Step-1,Increment      4: Step Time =    1.000,"PART-1-1",           200,       4.70825,       2.52712,            0.,NA,NA,"",       2.69823,      -1.91204,       1.90383,   14.9239E-03
C:/temp/dataset/2/24_9.odb,Step-1,Increment      4: Step Time =    1.000,"PART-1-1",           201,      -6.67563,      -24.8783,            0.,NA,NA,"",   31.5206E-03,   4.07849E-03,   31.2556E-03,   10.5563E-03
C:/temp/dataset/2/24_9.odb,Step-1,Increment      4: Step Time =    1.000,"PART-1-1",           202,      -1.93740,       2.90022,            0.,NA,NA,"",       2.11857,      -1.88838,   960.411E-03,   7.56278E-03
C:/temp/dataset/2/24_9.odb,Step-1,Increment      4: Step Time =    1.000,"PART-1-1",           203,      -4.27328,      -22.5070,            0.,NA,NA,"",   50.2149E-03,  -15.8558E-03,   47.6459E-03,   14.7025E-03
C:/temp/dataset/2/24_9.odb,Step-1,Increment      4: Step Time =    1.000,"PART-1-1",           204,      -7.29195,  -216.826E-03,            0.,NA,NA,"",       1.47019,      -1.43979,   297.423E-03,   8.61919E-03
C:/temp/dataset/2/24_9.odb,Step-1,Increment      4: Step Time =    1.000,"PART-1-1",           205,      -4.39370,   432.763E-03,            0.,NA,NA,"",       1.68076,      -1.55232,   644.401E-03,   9.55549E-03
C:/temp/dataset/2/24_9.odb,Step-1,Increment      4: Step Time =    1.000,"PART-1-1",           206,      -1.20581,      -22.4416,            0.,NA,NA,"",   22.0170E-03,  -14.3936E-03,   16.6605E-03,   6.35044E-03
C:/temp/dataset/2/24_9.odb,Step-1,Increment      4: Step Time =    1.000,"PART-1-1",           207,      -4.88725,       2.78210,            0.,NA,NA,"",       1.92140,      -1.83312,   575.695E-03,   7.23582E-03
C:/temp/dataset/2/24_9.odb,Step-1,Increment      4: Step Time =    1.000,"PART-1-1",           208,      -8.02678,       2.39768,            0.,NA,NA,"",       1.75774,      -1.74538,   208.109E-03,   8.16773E-03
C:/temp/dataset/2/24_9.odb,Step-1,Increment      4: Step Time =    1.000,"PART-1-1",           209,       8.51144,      -22.4401,            0.,NA,NA,"",   8.67897E-03,  -8.62716E-03,  -946.879E-06,   265.755E-06
C:/temp/dataset/2/24_9.odb,Step-1,Increment      4: Step Time =    1.000,"PART-1-1",           210,       5.25488,      -22.4306,            0.,NA,NA,"",   9.59909E-03,  -9.58184E-03,  -575.233E-06,   505.422E-06
C:/temp/dataset/2/24_9.odb,Step-1,Increment      4: Step Time =    1.000,"PART-1-1",           211,       2.00226,      -22.4217,            0.,NA,NA,"",   12.4078E-03,  -11.8338E-03,   3.73018E-03,   1.70871E-03
C:/temp/dataset/2/24_9.odb,Step-1,Increment      4: Step Time =    1.000,"PART-1-1",           212,      -9.28570,      -27.3600,            0.,NA,NA,"",   13.7226E-03,   12.5141E-03,   5.63081E-03,   5.45131E-03
C:/temp/dataset/2/24_9.odb,Step-1,Increment      4: Step Time =    1.000,"PART-1-1",           213,       11.7596,      -22.4488,            0.,NA,NA,"",   8.17054E-03,  -8.16792E-03,   206.776E-06,   64.8835E-06
C:/temp/dataset/2/24_9.odb,Step-1,Increment      4: Step Time =    1.000,"PART-1-1",           214,      -12.4952,       27.4851,            0.,NA,NA,"",       4.07015,      -3.66039,       1.77980,   18.1703E-06
C:/temp/dataset/2/24_9.odb,Step-1,Increment      4: Step Time =    1.000,"PART-1-1",           215,      -12.1608,      -27.2494,            0.,NA,NA,"",   14.8485E-03,   13.6636E-03,  -5.81233E-03,   5.83107E-03
C:/temp/dataset/2/24_9.odb,Step-1,Increment      4: Step Time =    1.000,"PART-1-1",           216,      -6.92277,      -20.0189,            0.,NA,NA,"",   86.5807E-03,  -23.4572E-03,   83.3425E-03,   13.3703E-03
C:/temp/dataset/2/24_9.odb,Step-1,Increment      4: Step Time =    1.000,"PART-1-1",           217,       10.3403,       22.5364,            0.,NA,NA,"",       4.33414,      -3.51207,       2.53971,   6.57482E-03
C:/temp/dataset/2/24_9.odb,Step-1,Increment      4: Step Time =    1.000,"PART-1-1",           218,      -9.38591,      -16.3373,            0.,NA,NA,"",   133.291E-03,  -123.970E-03,   48.9666E-03,   7.16357E-03
C:/temp/dataset/2/24_9.odb,Step-1,Increment      4: Step Time =    1.000,"PART-1-1",           219,      -9.56004,      -22.0160,            0.,NA,NA,"",   22.6533E-03,   5.32524E-03,   22.0185E-03,   7.84429E-03
C:/temp/dataset/2/24_9.odb,Step-1,Increment      4: Step Time =    1.000,"PART-1-1",           220,      -9.49058,      -24.6874,            0.,NA,NA,"",   20.4357E-03,   15.4883E-03,   13.3316E-03,   7.43250E-03
C:/temp/dataset/2/24_9.odb,Step-1,Increment      4: Step Time =    1.000,"PART-1-1",           221,  -968.003E-03,   33.9082E-03,            0.,NA,NA,"",       1.90129,      -1.54176,       1.11259,   10.9718E-03
C:/temp/dataset/2/24_9.odb,Step-1,Increment      4: Step Time =    1.000,"PART-1-1",           222,   333.674E-03,      -1.00763,            0.,NA,NA,"",       1.93192,      -1.42497,       1.30453,   12.1185E-03
C:/temp/dataset/2/24_9.odb,Step-1,Increment      4: Step Time =    1.000,"PART-1-1",           223,      -10.5623,      -4.72446,            0.,NA,NA,"",   911.923E-03,  -911.749E-03,  -17.7824E-03,   7.22277E-03
C:/temp/dataset/2/24_9.odb,Step-1,Increment      4: Step Time =    1.000,"PART-1-1",           224,      -5.01319,       24.9269,            0.,NA,NA,"",       4.11540,      -3.58010,       2.02963,   204.497E-06
C:/temp/dataset/2/24_9.odb,Step-1,Increment      4: Step Time =    1.000,"PART-1-1",           225,      -9.24174,      -19.5473,            0.,NA,NA,"",   47.1347E-03,  -28.2367E-03,   37.7409E-03,   6.79099E-03
C:/temp/dataset/2/24_9.odb,Step-1,Increment      4: Step Time =    1.000,"PART-1-1",           226,       8.53639,       25.1316,            0.,NA,NA,"",       4.36465,      -3.60194,       2.46499,   5.23004E-03
C:/temp/dataset/2/24_9.odb,Step-1,Increment      4: Step Time =    1.000,"PART-1-1",           227,       8.85572,       23.3093,            0.,NA,NA,"",       4.31586,      -3.53710,       2.47297,   6.65042E-03
C:/temp/dataset/2/24_9.odb,Step-1,Increment      4: Step Time =    1.000,"PART-1-1",           228,      -13.7516,       22.4908,            0.,NA,NA,"",       3.90351,      -3.49387,       1.74078,   10.0928E-06
C:/temp/dataset/2/24_9.odb,Step-1,Increment      4: Step Time =    1.000,"PART-1-1",           229,          -15.,         21.25,            0.,NA,NA,"",       3.84788,      -3.45198,       1.70002,   1.54821E-06
C:/temp/dataset/2/24_9.odb,Step-1,Increment      4: Step Time =    1.000,"PART-1-1",           230,        -13.75,           20.,            0.,NA,NA,"",       3.83032,      -3.41117,       1.74220,   1.96925E-06
C:/temp/dataset/2/24_9.odb,Step-1,Increment      4: Step Time =    1.000,"PART-1-1",           231,      -12.5016,       21.2408,            0.,NA,NA,"",       3.88619,      -3.45304,       1.78296,   9.74547E-06
C:/temp/dataset/2/24_9.odb,Step-1,Increment      4: Step Time =    1.000,"PART-1-1",           232,      -9.99605,       28.7334,            0.,NA,NA,"",       4.14501,      -3.70318,       1.86214,   34.3327E-06
C:/temp/dataset/2/24_9.odb,Step-1,Increment      4: Step Time =    1.000,"PART-1-1",           233,        -11.25,           30.,            0.,NA,NA,"",       4.16333,      -3.74456,       1.81977,   20.7570E-06
C:/temp/dataset/2/24_9.odb,Step-1,Increment      4: Step Time =    1.000,"PART-1-1",           234,      -12.4976,       28.7426,            0.,NA,NA,"",       4.10739,      -3.70212,       1.77903,   9.55292E-06
C:/temp/dataset/2/24_9.odb,Step-1,Increment      4: Step Time =    1.000,"PART-1-1",           235,      -11.2437,       27.4760,            0.,NA,NA,"",       4.08885,      -3.66078,       1.82138,   35.0064E-06
C:/temp/dataset/2/24_9.odb,Step-1,Increment      4: Step Time =    1.000,"PART-1-1",           236,      -8.74541,       27.4572,            0.,NA,NA,"",       4.12720,      -3.66156,       1.90440,   83.7420E-06
C:/temp/dataset/2/24_9.odb,Step-1,Increment      4: Step Time =    1.000,"PART-1-1",           237,      -7.49936,       28.7238,            0.,NA,NA,"",       4.18380,      -3.70415,       1.94510,   88.7512E-06
C:/temp/dataset/2/24_9.odb,Step-1,Increment      4: Step Time =    1.000,"PART-1-1",           238,         -8.75,           30.,            0.,NA,NA,"",       4.20145,      -3.74585,       1.90282,   79.4962E-06
C:/temp/dataset/2/24_9.odb,Step-1,Increment      4: Step Time =    1.000,"PART-1-1",           239,      -10.0020,       21.2344,            0.,NA,NA,"",       3.92594,      -3.45419,       1.86590,   34.2588E-06
C:/temp/dataset/2/24_9.odb,Step-1,Increment      4: Step Time =    1.000,"PART-1-1",           240,      -11.2537,       22.4752,            0.,NA,NA,"",       3.94195,      -3.49473,       1.82369,   35.1326E-06
C:/temp/dataset/2/24_9.odb,Step-1,Increment      4: Step Time =    1.000,"PART-1-1",           241,        -11.25,           20.,            0.,NA,NA,"",       3.86997,      -3.41253,       1.82518,   21.7424E-06
C:/temp/dataset/2/24_9.odb,Step-1,Increment      4: Step Time =    1.000,"PART-1-1",           242,      -6.25410,       27.4469,            0.,NA,NA,"",       4.16697,      -3.66264,       1.98714,   119.574E-06
C:/temp/dataset/2/24_9.odb,Step-1,Increment      4: Step Time =    1.000,"PART-1-1",           243,      -7.50120,       26.1906,            0.,NA,NA,"",       4.11039,      -3.62035,       1.94637,   106.191E-06
C:/temp/dataset/2/24_9.odb,Step-1,Increment      4: Step Time =    1.000,"PART-1-1",           244,      -6.25844,       24.9303,            0.,NA,NA,"",       4.09453,      -3.57938,       1.98826,   148.889E-06
C:/temp/dataset/2/24_9.odb,Step-1,Increment      4: Step Time =    1.000,"PART-1-1",           245,      -5.01133,       26.1865,            0.,NA,NA,"",       4.15141,      -3.62179,       2.02901,   133.639E-06
C:/temp/dataset/2/24_9.odb,Step-1,Increment      4: Step Time =    1.000,"PART-1-1",           246,       1.11906,       22.3143,            0.,NA,NA,"",       4.14809,      -3.49150,       2.23967,   6.62626E-03
C:/temp/dataset/2/24_9.odb,Step-1,Increment      4: Step Time =    1.000,"PART-1-1",           247,  -37.5712E-03,       21.1808,            0.,NA,NA,"",       4.10224,      -3.45813,       2.20675,   5.16990E-03
C:/temp/dataset/2/24_9.odb,Step-1,Increment      4: Step Time =    1.000,"PART-1-1",           248,          1.25,           20.,            0.,NA,NA,"",       4.09806,      -3.41767,       2.26133,   8.44552E-03
C:/temp/dataset/2/24_9.odb,Step-1,Increment      4: Step Time =    1.000,"PART-1-1",           249,       2.40663,       21.1336,            0.,NA,NA,"",       4.13538,      -3.44798,       2.28316,   10.3644E-03
C:/temp/dataset/2/24_9.odb,Step-1,Increment      4: Step Time =    1.000,"PART-1-1",           250,  -46.9838E-03,       26.1228,            0.,NA,NA,"",       4.23194,      -3.62108,       2.19022,   2.08023E-03
C:/temp/dataset/2/24_9.odb,Step-1,Increment      4: Step Time =    1.000,"PART-1-1",           251,       1.11635,       24.7850,            0.,NA,NA,"",       4.21265,      -3.57464,       2.22898,   4.14420E-03
C:/temp/dataset/2/24_9.odb,Step-1,Increment      4: Step Time =    1.000,"PART-1-1",           252,       2.41618,       25.9912,            0.,NA,NA,"",       4.26679,      -3.61628,       2.26451,   4.33189E-03
C:/temp/dataset/2/24_9.odb,Step-1,Increment      4: Step Time =    1.000,"PART-1-1",           253,       1.25284,       27.3289,            0.,NA,NA,"",       4.28709,      -3.66237,       2.22849,   2.61958E-03
C:/temp/dataset/2/24_9.odb,Step-1,Increment      4: Step Time =    1.000,"PART-1-1",           254,       11.4216,       22.1022,            0.,NA,NA,"",       4.35235,      -3.49610,       2.59234,   6.11203E-03
C:/temp/dataset/2/24_9.odb,Step-1,Increment      4: Step Time =    1.000,"PART-1-1",           255,       9.70783,       21.3771,            0.,NA,NA,"",       4.27752,      -3.46505,       2.50811,   6.20652E-03
C:/temp/dataset/2/24_9.odb,Step-1,Increment      4: Step Time =    1.000,"PART-1-1",           256,       10.3968,       19.2167,            0.,NA,NA,"",       4.22150,      -3.36938,       2.54329,   4.20348E-03
C:/temp/dataset/2/24_9.odb,Step-1,Increment      4: Step Time =    1.000,"PART-1-1",           257,       12.1105,       19.9418,            0.,NA,NA,"",       4.30397,      -3.40367,       2.63423,   5.74418E-03
C:/temp/dataset/2/24_9.odb,Step-1,Increment      4: Step Time =    1.000,"PART-1-1",           258,       11.6215,       24.7876,            0.,NA,NA,"",       4.43726,      -3.59736,       2.59775,   5.16362E-03
C:/temp/dataset/2/24_9.odb,Step-1,Increment      4: Step Time =    1.000,"PART-1-1",           259,       12.6971,       25.9410,            0.,NA,NA,"",       4.49849,      -3.64035,       2.64277,   4.18181E-03
C:/temp/dataset/2/24_9.odb,Step-1,Increment      4: Step Time =    1.000,"PART-1-1",           260,       11.4859,       27.3886,            0.,NA,NA,"",       4.50980,      -3.69174,       2.59024,   3.52543E-03
C:/temp/dataset/2/24_9.odb,Step-1,Increment      4: Step Time =    1.000,"PART-1-1",           261,       10.4103,       26.2351,            0.,NA,NA,"",       4.44742,      -3.64741,       2.54479,   4.72073E-03
C:/temp/dataset/2/24_9.odb,Step-1,Increment      4: Step Time =    1.000,"PART-1-1",           262,       5.88041,       17.6377,            0.,NA,NA,"",       3.98582,      -3.26383,       2.28783,   22.6773E-03
C:/temp/dataset/2/24_9.odb,Step-1,Increment      4: Step Time =    1.000,"PART-1-1",           263,       6.75071,       18.9160,            0.,NA,NA,"",       4.09156,      -3.34767,       2.35243,   13.5724E-03
C:/temp/dataset/2/24_9.odb,Step-1,Increment      4: Step Time =    1.000,"PART-1-1",           264,       5.87030,       20.0282,            0.,NA,NA,"",       4.12390,      -3.40396,       2.32801,   21.5134E-03
C:/temp/dataset/2/24_9.odb,Step-1,Increment      4: Step Time =    1.000,"PART-1-1",           265,            5.,         18.75,            0.,NA,NA,"",       4.01999,      -3.32080,       2.26552,   35.2151E-03
C:/temp/dataset/2/24_9.odb,Step-1,Increment      4: Step Time =    1.000,"PART-1-1",           266,       12.3690,       13.3305,            0.,NA,NA,"",       4.03766,      -3.01038,       2.69079,   5.42985E-03
C:/temp/dataset/2/24_9.odb,Step-1,Increment      4: Step Time =    1.000,"PART-1-1",           267,       13.7195,       12.1790,            0.,NA,NA,"",       4.05193,      -2.92286,       2.80625,   11.4322E-03
C:/temp/dataset/2/24_9.odb,Step-1,Increment      4: Step Time =    1.000,"PART-1-1",           268,           15.,       13.9583,            0.,NA,NA,"",       4.19069,      -3.04895,       2.87503,   16.7731E-03
C:/temp/dataset/2/24_9.odb,Step-1,Increment      4: Step Time =    1.000,"PART-1-1",           269,       13.6495,       15.1098,            0.,NA,NA,"",       4.17752,      -3.13195,       2.76452,   10.7073E-03
C:/temp/dataset/2/24_9.odb,Step-1,Increment      4: Step Time =    1.000,"PART-1-1",           270,       12.5214,       4.81657,            0.,NA,NA,"",       3.57346,      -2.23708,       2.78659,   7.06100E-03
C:/temp/dataset/2/24_9.odb,Step-1,Increment      4: Step Time =    1.000,"PART-1-1",           271,       13.7670,       3.58604,            0.,NA,NA,"",       3.61105,      -2.10218,       2.93607,   9.45558E-03
C:/temp/dataset/2/24_9.odb,Step-1,Increment      4: Step Time =    1.000,"PART-1-1",           272,           15.,       5.20833,            0.,NA,NA,"",       3.80391,      -2.28140,       3.04383,   14.8357E-03
C:/temp/dataset/2/24_9.odb,Step-1,Increment      4: Step Time =    1.000,"PART-1-1",           273,       13.7545,       6.43886,            0.,NA,NA,"",       3.76487,      -2.41033,       2.89216,   11.5021E-03
C:/temp/dataset/2/24_9.odb,Step-1,Increment      4: Step Time =    1.000,"PART-1-1",           274,       13.7625,      -2.13133,            0.,NA,NA,"",       3.32072,      -1.41773,       3.00287,   2.78289E-03
C:/temp/dataset/2/24_9.odb,Step-1,Increment      4: Step Time =    1.000,"PART-1-1",           275,       12.5125,      -3.58966,            0.,NA,NA,"",       3.12093,      -1.23165,       2.86762,   2.64220E-03
C:/temp/dataset/2/24_9.odb,Step-1,Increment      4: Step Time =    1.000,"PART-1-1",           276,         13.75,           -5.,            0.,NA,NA,"",       3.20805,      -1.07229,       3.02354,   493.077E-06
C:/temp/dataset/2/24_9.odb,Step-1,Increment      4: Step Time =    1.000,"PART-1-1",           277,           15.,      -3.54167,            0.,NA,NA,"",       3.40232,      -1.25568,       3.16212,   595.199E-06
C:/temp/dataset/2/24_9.odb,Step-1,Increment      4: Step Time =    1.000,"PART-1-1",           278,      -9.21387,      -6.21191,            0.,NA,NA,"",   779.932E-03,  -772.276E-03,   109.014E-03,   5.58460E-03
C:/temp/dataset/2/24_9.odb,Step-1,Increment      4: Step Time =    1.000,"PART-1-1",           279,      -8.44405,      -4.75360,            0.,NA,NA,"",   931.244E-03,  -913.475E-03,   181.052E-03,   8.79507E-03
C:/temp/dataset/2/24_9.odb,Step-1,Increment      4: Step Time =    1.000,"PART-1-1",           280,      -9.71477,      -4.17886,            0.,NA,NA,"",   971.557E-03,  -969.838E-03,   57.7662E-03,   8.01245E-03
C:/temp/dataset/2/24_9.odb,Step-1,Increment      4: Step Time =    1.000,"PART-1-1",           281,      -10.4846,      -5.63717,            0.,NA,NA,"",   822.668E-03,  -822.654E-03,  -4.82231E-03,   5.42588E-03
C:/temp/dataset/2/24_9.odb,Step-1,Increment      4: Step Time =    1.000,"PART-1-1",           282,      -5.84282,   107.969E-03,            0.,NA,NA,"",       1.56553,      -1.49478,   465.291E-03,   7.34408E-03
C:/temp/dataset/2/24_9.odb,Step-1,Increment      4: Step Time =    1.000,"PART-1-1",           283,      -4.64047,       1.60743,            0.,NA,NA,"",       1.79904,      -1.69235,   610.330E-03,   7.54506E-03
C:/temp/dataset/2/24_9.odb,Step-1,Increment      4: Step Time =    1.000,"PART-1-1",           284,      -6.45702,       2.58989,            0.,NA,NA,"",       1.82948,      -1.78815,   386.689E-03,   6.76838E-03
C:/temp/dataset/2/24_9.odb,Step-1,Increment      4: Step Time =    1.000,"PART-1-1",           285,      -7.65937,       1.09043,            0.,NA,NA,"",       1.61303,      -1.59300,   253.394E-03,   7.92939E-03
C:/temp/dataset/2/24_9.odb,Step-1,Increment      4: Step Time =    1.000,"PART-1-1",           286,      -6.51044,      -5.43697,            0.,NA,NA,"",   926.093E-03,  -850.450E-03,   366.583E-03,   22.7303E-03
C:/temp/dataset/2/24_9.odb,Step-1,Increment      4: Step Time =    1.000,"PART-1-1",           287,      -5.48201,      -3.85122,            0.,NA,NA,"",       1.13971,      -1.02726,   493.628E-03,   22.8930E-03
C:/temp/dataset/2/24_9.odb,Step-1,Increment      4: Step Time =    1.000,"PART-1-1",           288,      -7.41561,      -3.16785,            0.,NA,NA,"",       1.12592,      -1.08968,   283.381E-03,   11.7115E-03
C:/temp/dataset/2/24_9.odb,Step-1,Increment      4: Step Time =    1.000,"PART-1-1",           289,      -12.6742,      -10.6472,            0.,NA,NA,"",   441.108E-03,  -418.860E-03,  -138.321E-03,   9.94126E-03
C:/temp/dataset/2/24_9.odb,Step-1,Increment      4: Step Time =    1.000,"PART-1-1",           290,      -11.3911,      -11.6978,            0.,NA,NA,"",   354.045E-03,  -350.891E-03,  -47.1548E-03,   2.81079E-03
C:/temp/dataset/2/24_9.odb,Step-1,Increment      4: Step Time =    1.000,"PART-1-1",           291,      -10.2167,      -10.1126,            0.,NA,NA,"",   457.929E-03,  -457.125E-03,   27.1214E-03,   3.54844E-03
C:/temp/dataset/2/24_9.odb,Step-1,Increment      4: Step Time =    1.000,"PART-1-1",           292,      -11.4997,      -9.06207,            0.,NA,NA,"",   534.457E-03,  -530.050E-03,  -68.4940E-03,   4.13019E-03
C:/temp/dataset/2/24_9.odb,Step-1,Increment      4: Step Time =    1.000,"PART-1-1",           293,      -13.7107,      -15.1438,            0.,NA,NA,"",   224.923E-03,  -177.555E-03,  -138.074E-03,   15.5078E-03
C:/temp/dataset/2/24_9.odb,Step-1,Increment      4: Step Time =    1.000,"PART-1-1",           294,      -12.5249,      -13.4434,            0.,NA,NA,"",   272.430E-03,  -253.187E-03,  -100.569E-03,   8.98700E-03
C:/temp/dataset/2/24_9.odb,Step-1,Increment      4: Step Time =    1.000,"PART-1-1",           295,      -13.8143,      -12.2579,            0.,NA,NA,"",   374.375E-03,  -323.471E-03,  -188.476E-03,   16.3859E-03
C:/temp/dataset/2/24_9.odb,Step-1,Increment      4: Step Time =    1.000,"PART-1-1",           296,          -15.,      -13.9583,            0.,NA,NA,"",   327.548E-03,  -241.764E-03,  -220.992E-03,   22.9430E-03
C:/temp/dataset/2/24_9.odb,Step-1,Increment      4: Step Time =    1.000,"PART-1-1",           297,      -12.0988,      -16.5012,            0.,NA,NA,"",   130.045E-03,  -117.127E-03,  -56.5084E-03,   7.00864E-03
C:/temp/dataset/2/24_9.odb,Step-1,Increment      4: Step Time =    1.000,"PART-1-1",           298,      -10.5811,      -17.2344,            0.,NA,NA,"",   90.0332E-03,  -90.0050E-03,   2.25389E-03,   1.75999E-03
C:/temp/dataset/2/24_9.odb,Step-1,Increment      4: Step Time =    1.000,"PART-1-1",           299,      -9.66362,      -15.1575,            0.,NA,NA,"",   177.857E-03,  -172.455E-03,   43.4981E-03,   6.23366E-03
C:/temp/dataset/2/24_9.odb,Step-1,Increment      4: Step Time =    1.000,"PART-1-1",           300,      -11.1813,      -14.4243,            0.,NA,NA,"",   204.817E-03,  -203.114E-03,  -26.3564E-03,   1.61376E-03
C:/temp/dataset/2/24_9.odb,Step-1,Increment      4: Step Time =    1.000,"PART-1-1",           301,      -10.5090,      -18.8394,            0.,NA,NA,"",   44.2378E-03,  -43.9653E-03,   4.90183E-03,   3.52971E-03
C:/temp/dataset/2/24_9.odb,Step-1,Increment      4: Step Time =    1.000,"PART-1-1",           302,      -8.88448,      -18.7076,            0.,NA,NA,"",   70.7248E-03,  -48.1569E-03,   51.7968E-03,   7.44328E-03
C:/temp/dataset/2/24_9.odb,Step-1,Increment      4: Step Time =    1.000,"PART-1-1",           303,      -8.95657,      -17.1026,            0.,NA,NA,"",   114.254E-03,  -97.3122E-03,   59.8693E-03,   8.74878E-03
C:/temp/dataset/2/24_9.odb,Step-1,Increment      4: Step Time =    1.000,"PART-1-1",           304,      -8.08225,      -19.7831,            0.,NA,NA,"",   68.7437E-03,  -25.4626E-03,   63.8541E-03,   9.43671E-03
C:/temp/dataset/2/24_9.odb,Step-1,Increment      4: Step Time =    1.000,"PART-1-1",           305,      -6.89084,      -18.8787,            0.,NA,NA,"",   109.967E-03,  -48.2865E-03,   98.7986E-03,   16.6942E-03
C:/temp/dataset/2/24_9.odb,Step-1,Increment      4: Step Time =    1.000,"PART-1-1",           306,      -7.69307,      -17.8032,            0.,NA,NA,"",   122.546E-03,  -79.1226E-03,   93.5795E-03,   16.1632E-03
C:/temp/dataset/2/24_9.odb,Step-1,Increment      4: Step Time =    1.000,"PART-1-1",           307,       7.10093,      -24.9223,            0.,NA,NA,"",   8.14988E-03,  -8.13623E-03,  -471.533E-06,   904.329E-06
C:/temp/dataset/2/24_9.odb,Step-1,Increment      4: Step Time =    1.000,"PART-1-1",           308,       8.59925,      -23.6815,            0.,NA,NA,"",   8.15181E-03,  -8.11740E-03,  -748.166E-06,   453.909E-06
C:/temp/dataset/2/24_9.odb,Step-1,Increment      4: Step Time =    1.000,"PART-1-1",           309,       6.88316,      -22.4353,            0.,NA,NA,"",   9.08159E-03,  -9.02504E-03,  -1.01187E-03,   368.186E-06
C:/temp/dataset/2/24_9.odb,Step-1,Increment      4: Step Time =    1.000,"PART-1-1",           310,       5.38484,      -23.6762,            0.,NA,NA,"",   9.78030E-03,  -9.77647E-03,  -273.738E-06,   776.089E-06
C:/temp/dataset/2/24_9.odb,Step-1,Increment      4: Step Time =    1.000,"PART-1-1",           311,       13.3798,      -22.4744,            0.,NA,NA,"",   8.17891E-03,  -8.09865E-03,   1.14302E-03,   37.2676E-06
C:/temp/dataset/2/24_9.odb,Step-1,Increment      4: Step Time =    1.000,"PART-1-1",           312,           15.,        -21.25,            0.,NA,NA,"",   9.04061E-03,  -8.79022E-03,   2.11295E-03,   24.2242E-06
C:/temp/dataset/2/24_9.odb,Step-1,Increment      4: Step Time =    1.000,"PART-1-1",           313,       13.3333,          -20.,            0.,NA,NA,"",   9.55821E-03,  -9.49261E-03,   1.11792E-03,   38.6145E-06
C:/temp/dataset/2/24_9.odb,Step-1,Increment      4: Step Time =    1.000,"PART-1-1",           314,       11.7131,      -21.2244,            0.,NA,NA,"",   8.80291E-03,  -8.80096E-03,   185.047E-06,   17.7469E-06
C:/temp/dataset/2/24_9.odb,Step-1,Increment      4: Step Time =    1.000,"PART-1-1",           315,      -2.14863,       2.00914,            0.,NA,NA,"",       2.00569,      -1.77349,   936.760E-03,   9.03371E-03
C:/temp/dataset/2/24_9.odb,Step-1,Increment      4: Step Time =    1.000,"PART-1-1",           316,      -1.66393,   575.985E-03,            0.,NA,NA,"",       1.89472,      -1.60166,       1.01225,   10.7349E-03
C:/temp/dataset/2/24_9.odb,Step-1,Increment      4: Step Time =    1.000,"PART-1-1",           317,   135.628E-03,       1.10435,            0.,NA,NA,"",       2.10535,      -1.68621,       1.26064,   10.8090E-03
C:/temp/dataset/2/24_9.odb,Step-1,Increment      4: Step Time =    1.000,"PART-1-1",           318,  -349.073E-03,       2.53751,            0.,NA,NA,"",       2.20514,      -1.86092,       1.18306,   9.24802E-03
C:/temp/dataset/2/24_9.odb,Step-1,Increment      4: Step Time =    1.000,"PART-1-1",           319,   156.145E-03,      -1.87787,            0.,NA,NA,"",       1.83888,      -1.31457,       1.28584,   11.0303E-03
C:/temp/dataset/2/24_9.odb,Step-1,Increment      4: Step Time =    1.000,"PART-1-1",           320,       1.21010,      -2.70880,            0.,NA,NA,"",       1.88739,      -1.21801,       1.44177,   7.51227E-03
C:/temp/dataset/2/24_9.odb,Step-1,Increment      4: Step Time =    1.000,"PART-1-1",           321,       2.32846,      -1.50081,            0.,NA,NA,"",       2.10677,      -1.38287,       1.58939,   9.08321E-03
C:/temp/dataset/2/24_9.odb,Step-1,Increment      4: Step Time =    1.000,"PART-1-1",           322,       1.27451,  -669.883E-03,            0.,NA,NA,"",       2.05906,      -1.47622,       1.43544,   11.8855E-03
C:/temp/dataset/2/24_9.odb,Step-1,Increment      4: Step Time =    1.000,"PART-1-1",           323,       4.87500,      -1.23074,            0.,NA,NA,"",       2.41450,      -1.44578,       1.93379,   6.54761E-03
C:/temp/dataset/2/24_9.odb,Step-1,Increment      4: Step Time =    1.000,"PART-1-1",           324,       6.20088,      -2.43579,            0.,NA,NA,"",       2.48351,      -1.30996,       2.10993,   4.22531E-03
C:/temp/dataset/2/24_9.odb,Step-1,Increment      4: Step Time =    1.000,"PART-1-1",           325,       7.44880,      -1.07477,            0.,NA,NA,"",       2.70890,      -1.49542,       2.25873,   5.62405E-03
C:/temp/dataset/2/24_9.odb,Step-1,Increment      4: Step Time =    1.000,"PART-1-1",           326,       6.12293,   130.279E-03,            0.,NA,NA,"",       2.65152,      -1.63092,       2.09061,   6.58799E-03
C:/temp/dataset/2/24_9.odb,Step-1,Increment      4: Step Time =    1.000,"PART-1-1",           327,          8.75,           -5.,            0.,NA,NA,"",       2.64057,      -1.02330,       2.43423,   6.62250E-03
C:/temp/dataset/2/24_9.odb,Step-1,Increment      4: Step Time =    1.000,"PART-1-1",           328,       10.0063,      -3.63741,            0.,NA,NA,"",       2.84301,      -1.20332,       2.57580,   4.82971E-03
C:/temp/dataset/2/24_9.odb,Step-1,Increment      4: Step Time =    1.000,"PART-1-1",           329,       8.73716,      -2.32557,            0.,NA,NA,"",       2.77155,      -1.35256,       2.41911,   5.10845E-03
C:/temp/dataset/2/24_9.odb,Step-1,Increment      4: Step Time =    1.000,"PART-1-1",           330,       7.48081,      -3.68816,            0.,NA,NA,"",       2.55749,      -1.16816,       2.27512,   6.19178E-03
C:/temp/dataset/2/24_9.odb,Step-1,Increment      4: Step Time =    1.000,"PART-1-1",           331,       6.24109,       7.72904,            0.,NA,NA,"",       3.29571,      -2.49861,       2.14910,   21.8546E-03
C:/temp/dataset/2/24_9.odb,Step-1,Increment      4: Step Time =    1.000,"PART-1-1",           332,            5.,          6.25,            0.,NA,NA,"",       3.07584,      -2.33784,       1.99881,   35.4554E-03
C:/temp/dataset/2/24_9.odb,Step-1,Increment      4: Step Time =    1.000,"PART-1-1",           333,       6.24095,       5.17046,            0.,NA,NA,"",       3.09003,      -2.25130,       2.11659,   20.8518E-03
C:/temp/dataset/2/24_9.odb,Step-1,Increment      4: Step Time =    1.000,"PART-1-1",           334,       7.48203,       6.64950,            0.,NA,NA,"",       3.30385,      -2.40941,       2.26057,   11.4561E-03
C:/temp/dataset/2/24_9.odb,Step-1,Increment      4: Step Time =    1.000,"PART-1-1",           335,       7.34508,       23.6052,            0.,NA,NA,"",       4.28498,      -3.54164,       2.41202,   6.82267E-03
C:/temp/dataset/2/24_9.odb,Step-1,Increment      4: Step Time =    1.000,"PART-1-1",           336,       6.41056,       24.2397,            0.,NA,NA,"",       4.28358,      -3.56050,       2.38158,   6.33177E-03
C:/temp/dataset/2/24_9.odb,Step-1,Increment      4: Step Time =    1.000,"PART-1-1",           337,       6.08150,       22.9932,            0.,NA,NA,"",       4.23437,      -3.51291,       2.36417,   9.20365E-03
C:/temp/dataset/2/24_9.odb,Step-1,Increment      4: Step Time =    1.000,"PART-1-1",           338,       7.01602,       22.3587,            0.,NA,NA,"",       4.23455,      -3.49440,       2.39178,   9.37305E-03
C:/temp/dataset/2/24_9.odb,Step-1,Increment      4: Step Time =    1.000,"PART-1-1",           339,      -12.5005,       23.7291,            0.,NA,NA,"",       3.95920,      -3.53568,       1.78164,   16.3030E-06
C:/temp/dataset/2/24_9.odb,Step-1,Increment      4: Step Time =    1.000,"PART-1-1",           340,      -13.7489,       24.9883,            0.,NA,NA,"",       3.97736,      -3.57680,       1.73951,   13.8117E-06
C:/temp/dataset/2/24_9.odb,Step-1,Increment      4: Step Time =    1.000,"PART-1-1",           341,          -15.,         23.75,            0.,NA,NA,"",       3.92193,      -3.53499,       1.69865,   6.66755E-06
C:/temp/dataset/2/24_9.odb,Step-1,Increment      4: Step Time =    1.000,"PART-1-1",           342,      -2.52491,       26.1674,            0.,NA,NA,"",       4.19259,      -3.62240,       2.11094,   494.129E-06
C:/temp/dataset/2/24_9.odb,Step-1,Increment      4: Step Time =    1.000,"PART-1-1",           343,      -1.30373,       24.8780,            0.,NA,NA,"",       4.17709,      -3.57978,       2.15250,   1.61786E-03
C:/temp/dataset/2/24_9.odb,Step-1,Increment      4: Step Time =    1.000,"PART-1-1",           344,      -1.26817,       27.4122,            0.,NA,NA,"",       4.24828,      -3.66395,       2.15019,   996.313E-06
C:/temp/dataset/2/24_9.odb,Step-1,Increment      4: Step Time =    1.000,"PART-1-1",           345,       2.31009,       23.4917,            0.,NA,NA,"",       4.19333,      -3.52723,       2.26773,   7.98763E-03
C:/temp/dataset/2/24_9.odb,Step-1,Increment      4: Step Time =    1.000,"PART-1-1",           346,       3.41051,       22.2101,            0.,NA,NA,"",       4.16828,      -3.47825,       2.29704,   10.6573E-03
C:/temp/dataset/2/24_9.odb,Step-1,Increment      4: Step Time =    1.000,"PART-1-1",           347,       4.46987,       23.2845,            0.,NA,NA,"",       4.21530,      -3.51822,       2.32183,   9.34849E-03
C:/temp/dataset/2/24_9.odb,Step-1,Increment      4: Step Time =    1.000,"PART-1-1",           348,       3.36945,       24.5662,            0.,NA,NA,"",       4.23901,      -3.56520,       2.29314,   5.91991E-03
C:/temp/dataset/2/24_9.odb,Step-1,Increment      4: Step Time =    1.000,"PART-1-1",           349,       3.92627,       27.0683,            0.,NA,NA,"",       4.32483,      -3.65675,       2.30919,   3.69037E-03
C:/temp/dataset/2/24_9.odb,Step-1,Increment      4: Step Time =    1.000,"PART-1-1",           350,       5.16355,       28.4353,            0.,NA,NA,"",       4.39048,      -3.70884,       2.34965,   3.83569E-03
C:/temp/dataset/2/24_9.odb,Step-1,Increment      4: Step Time =    1.000,"PART-1-1",           351,          3.75,           30.,            0.,NA,NA,"",       4.40785,      -3.75671,       2.30571,   3.39788E-03
C:/temp/dataset/2/24_9.odb,Step-1,Increment      4: Step Time =    1.000,"PART-1-1",           352,       2.51272,       28.6330,            0.,NA,NA,"",       4.34613,      -3.70838,       2.26644,   2.48454E-03
C:/temp/dataset/2/24_9.odb,Step-1,Increment      4: Step Time =    1.000,"PART-1-1",           353,       11.0463,       14.3537,            0.,NA,NA,"",       4.02509,      -3.08117,       2.58993,   821.372E-06
C:/temp/dataset/2/24_9.odb,Step-1,Increment      4: Step Time =    1.000,"PART-1-1",           354,       9.86747,       12.5470,            0.,NA,NA,"",       3.86469,      -2.94460,       2.50303,   5.33000E-03
C:/temp/dataset/2/24_9.odb,Step-1,Increment      4: Step Time =    1.000,"PART-1-1",           355,       11.1901,       11.5237,            0.,NA,NA,"",       3.87847,      -2.86988,       2.60890,   738.485E-06
C:/temp/dataset/2/24_9.odb,Step-1,Increment      4: Step Time =    1.000,"PART-1-1",           356,       9.55073,       15.1783,            0.,NA,NA,"",       3.99951,      -3.13200,       2.48730,   6.00624E-03
C:/temp/dataset/2/24_9.odb,Step-1,Increment      4: Step Time =    1.000,"PART-1-1",           357,       8.18591,       15.9712,            0.,NA,NA,"",       3.98279,      -3.17651,       2.40259,   11.7543E-03
C:/temp/dataset/2/24_9.odb,Step-1,Increment      4: Step Time =    1.000,"PART-1-1",           358,       7.20669,       14.2932,            0.,NA,NA,"",       3.83495,      -3.05374,       2.31981,   16.6518E-03
C:/temp/dataset/2/24_9.odb,Step-1,Increment      4: Step Time =    1.000,"PART-1-1",           359,       8.57151,       13.5002,            0.,NA,NA,"",       3.85419,      -3.00798,       2.40974,   10.8601E-03
C:/temp/dataset/2/24_9.odb,Step-1,Increment      4: Step Time =    1.000,"PART-1-1",           360,       7.44377,       1.50598,            0.,NA,NA,"",       2.89368,      -1.81826,       2.25107,   8.32406E-03
C:/temp/dataset/2/24_9.odb,Step-1,Increment      4: Step Time =    1.000,"PART-1-1",           361,       8.72836,   326.342E-03,            0.,NA,NA,"",       2.93588,      -1.68393,       2.40494,   6.41670E-03
C:/temp/dataset/2/24_9.odb,Step-1,Increment      4: Step Time =    1.000,"PART-1-1",           362,       10.0261,       1.76283,            0.,NA,NA,"",       3.15886,      -1.87157,       2.54472,   7.38712E-03
C:/temp/dataset/2/24_9.odb,Step-1,Increment      4: Step Time =    1.000,"PART-1-1",           363,       8.74149,       2.94246,            0.,NA,NA,"",       3.12528,      -2.00568,       2.39679,   7.75838E-03
C:/temp/dataset/2/24_9.odb,Step-1,Increment      4: Step Time =    1.000,"PART-1-1",           364,       12.5045,       7.62102,            0.,NA,NA,"",       3.73749,      -2.52724,       2.75352,   6.49196E-03
C:/temp/dataset/2/24_9.odb,Step-1,Increment      4: Step Time =    1.000,"PART-1-1",           365,           15.,         8.125,            0.,NA,NA,"",       3.94155,      -2.57330,       2.98563,   17.0437E-03
C:/temp/dataset/2/24_9.odb,Step-1,Increment      4: Step Time =    1.000,"PART-1-1",           366,       13.7500,       9.30715,            0.,NA,NA,"",       3.91421,      -2.68426,       2.84882,   11.8468E-03
C:/temp/dataset/2/24_9.odb,Step-1,Increment      4: Step Time =    1.000,"PART-1-1",           367,      -1.45938,      -2.40358,            0.,NA,NA,"",       1.62783,      -1.23568,       1.05968,   12.1902E-03
C:/temp/dataset/2/24_9.odb,Step-1,Increment      4: Step Time =    1.000,"PART-1-1",           368,      -2.69869,      -3.52952,            0.,NA,NA,"",       1.40348,      -1.08510,   890.123E-03,   11.3217E-03
C:/temp/dataset/2/24_9.odb,Step-1,Increment      4: Step Time =    1.000,"PART-1-1",           369,         -1.25,           -5.,            0.,NA,NA,"",       1.42952,  -889.911E-03,       1.11875,   5.90122E-03
C:/temp/dataset/2/24_9.odb,Step-1,Increment      4: Step Time =    1.000,"PART-1-1",           370,  -10.6917E-03,      -3.87406,            0.,NA,NA,"",       1.65894,      -1.05395,       1.28112,   4.65834E-03
C:/temp/dataset/2/24_9.odb,Step-1,Increment      4: Step Time =    1.000,"PART-1-1",           371,      -13.3333,            5.,            0.,NA,NA,"",       2.02902,      -1.99353,  -377.833E-03,   1.08189E-03
C:/temp/dataset/2/24_9.odb,Step-1,Increment      4: Step Time =    1.000,"PART-1-1",           372,          -15.,       3.54167,            0.,NA,NA,"",       1.90284,      -1.82064,  -553.253E-03,   973.764E-06
C:/temp/dataset/2/24_9.odb,Step-1,Increment      4: Step Time =    1.000,"PART-1-1",           373,      -13.2137,       2.05352,            0.,NA,NA,"",       1.69781,      -1.66243,  -344.812E-03,   4.72403E-03
C:/temp/dataset/2/24_9.odb,Step-1,Increment      4: Step Time =    1.000,"PART-1-1",           374,      -11.5470,       3.51185,            0.,NA,NA,"",       1.84918,      -1.84080,  -175.889E-03,   4.94440E-03
C:/temp/dataset/2/24_9.odb,Step-1,Increment      4: Step Time =    1.000,"PART-1-1",           375,          -15.,      625.E-03,            0.,NA,NA,"",       1.58116,      -1.49032,  -528.214E-03,   6.14265E-03
C:/temp/dataset/2/24_9.odb,Step-1,Increment      4: Step Time =    1.000,"PART-1-1",           376,      -12.9883,      -1.02354,            0.,NA,NA,"",       1.34093,      -1.30918,  -290.075E-03,   8.56352E-03
C:/temp/dataset/2/24_9.odb,Step-1,Increment      4: Step Time =    1.000,"PART-1-1",           377,      -11.2019,   404.974E-03,            0.,NA,NA,"",       1.48675,      -1.48197,  -119.215E-03,   9.84213E-03
C:/temp/dataset/2/24_9.odb,Step-1,Increment      4: Step Time =    1.000,"PART-1-1",           378,      -13.6690,      -3.88141,            0.,NA,NA,"",       1.04669,  -996.730E-03,  -319.500E-03,   12.7581E-03
C:/temp/dataset/2/24_9.odb,Step-1,Increment      4: Step Time =    1.000,"PART-1-1",           379,      -11.6573,      -2.61328,            0.,NA,NA,"",       1.14274,      -1.13424,  -139.137E-03,   10.0683E-03
C:/temp/dataset/2/24_9.odb,Step-1,Increment      4: Step Time =    1.000,"PART-1-1",           380,          -15.,      -2.29167,            0.,NA,NA,"",       1.26280,      -1.16588,  -485.152E-03,   13.7211E-03
C:/temp/dataset/2/24_9.odb,Step-1,Increment      4: Step Time =    1.000,"PART-1-1",           381,           -5.,         -8.75,            0.,NA,NA,"",   739.951E-03,  -609.517E-03,   419.544E-03,   33.0720E-03
C:/temp/dataset/2/24_9.odb,Step-1,Increment      4: Step Time =    1.000,"PART-1-1",           382,      -6.37238,      -7.84264,            0.,NA,NA,"",   738.863E-03,  -655.621E-03,   340.705E-03,   25.4643E-03
C:/temp/dataset/2/24_9.odb,Step-1,Increment      4: Step Time =    1.000,"PART-1-1",           383,      -7.67841,      -9.42411,            0.,NA,NA,"",   564.153E-03,  -522.705E-03,   212.244E-03,   17.4664E-03
C:/temp/dataset/2/24_9.odb,Step-1,Increment      4: Step Time =    1.000,"PART-1-1",           384,      -6.30603,      -10.3315,            0.,NA,NA,"",   558.648E-03,  -475.825E-03,   292.709E-03,   25.2250E-03
C:/temp/dataset/2/24_9.odb,Step-1,Increment      4: Step Time =    1.000,"PART-1-1",           385,      -13.6103,      -21.3688,            0.,NA,NA,"",   55.3765E-03,  -8.61871E-03,  -54.7017E-03,   12.0579E-03
C:/temp/dataset/2/24_9.odb,Step-1,Increment      4: Step Time =    1.000,"PART-1-1",           386,          -15.,      -22.7083,            0.,NA,NA,"",   56.7076E-03,  -3.45228E-03,  -56.6025E-03,   14.9867E-03
C:/temp/dataset/2/24_9.odb,Step-1,Increment      4: Step Time =    1.000,"PART-1-1",           387,      -13.6241,      -24.2925,            0.,NA,NA,"",   31.1523E-03,   12.1876E-03,  -28.6692E-03,   8.88501E-03
C:/temp/dataset/2/24_9.odb,Step-1,Increment      4: Step Time =    1.000,"PART-1-1",           388,      -12.2343,      -22.9530,            0.,NA,NA,"",   23.6670E-03,   10.5914E-03,  -21.1648E-03,   7.56252E-03
C:/temp/dataset/2/24_9.odb,Step-1,Increment      4: Step Time =    1.000,"PART-1-1",           389,           -5.,        -16.25,            0.,NA,NA,"",   278.534E-03,  -168.813E-03,   221.548E-03,   32.4174E-03
C:/temp/dataset/2/24_9.odb,Step-1,Increment      4: Step Time =    1.000,"PART-1-1",           390,      -6.06585,      -15.2329,            0.,NA,NA,"",   283.039E-03,  -198.534E-03,   201.730E-03,   26.3340E-03
C:/temp/dataset/2/24_9.odb,Step-1,Increment      4: Step Time =    1.000,"PART-1-1",           391,      -6.99530,      -16.6022,            0.,NA,NA,"",   187.095E-03,  -128.413E-03,   136.069E-03,   21.0056E-03
C:/temp/dataset/2/24_9.odb,Step-1,Increment      4: Step Time =    1.000,"PART-1-1",           392,      -5.92946,      -17.6192,            0.,NA,NA,"",   179.675E-03,  -99.6383E-03,   149.517E-03,   27.5857E-03
C:/temp/dataset/2/24_9.odb,Step-1,Increment      4: Step Time =    1.000,"PART-1-1",           393,         -13.5,          -30.,            0.,NA,NA,"",            0.,  -66.6584E-42,   398.741E-42,   3.69346E-03
C:/temp/dataset/2/24_9.odb,Step-1,Increment      4: Step Time =    1.000,"PART-1-1",           394,      -12.0804,      -28.6247,            0.,NA,NA,"",   8.84941E-03,   8.49819E-03,  -2.46835E-03,   5.39450E-03
C:/temp/dataset/2/24_9.odb,Step-1,Increment      4: Step Time =    1.000,"PART-1-1",           395,      -13.5804,      -27.1664,            0.,NA,NA,"",   15.8970E-03,   11.3116E-03,  -11.1697E-03,   6.23740E-03
C:/temp/dataset/2/24_9.odb,Step-1,Increment      4: Step Time =    1.000,"PART-1-1",           396,          -15.,      -28.5417,            0.,NA,NA,"",   4.99907E-03,   2.96413E-03,  -4.02550E-03,   5.19710E-03
C:/temp/dataset/2/24_9.odb,Step-1,Increment      4: Step Time =    1.000,"PART-1-1",           397,          13.5,          -30.,            0.,NA,NA,"",            0.,   14.2680E-42,  -37.1484E-42,   1.05464E-03
C:/temp/dataset/2/24_9.odb,Step-1,Increment      4: Step Time =    1.000,"PART-1-1",           398,           15.,        -28.75,            0.,NA,NA,"",   2.23133E-03,  -1.85776E-03,   1.23595E-03,   938.491E-06
C:/temp/dataset/2/24_9.odb,Step-1,Increment      4: Step Time =    1.000,"PART-1-1",           399,       13.4640,      -27.4843,            0.,NA,NA,"",   3.41789E-03,  -3.34074E-03,   722.101E-06,   551.028E-06
C:/temp/dataset/2/24_9.odb,Step-1,Increment      4: Step Time =    1.000,"PART-1-1",           400,       11.9640,      -28.7343,            0.,NA,NA,"",   1.69937E-03,  -1.68810E-03,   195.379E-06,   859.880E-06
C:/temp/dataset/2/24_9.odb,Step-1,Increment      4: Step Time =    1.000,"PART-1-1",           401,       10.2658,      -24.9335,            0.,NA,NA,"",   6.72506E-03,  -6.72191E-03,  -205.843E-06,   520.481E-06
C:/temp/dataset/2/24_9.odb,Step-1,Increment      4: Step Time =    1.000,"PART-1-1",           402,       8.77397,      -26.1861,            0.,NA,NA,"",   6.05743E-03,  -6.05398E-03,  -204.402E-06,   863.482E-06
C:/temp/dataset/2/24_9.odb,Step-1,Increment      4: Step Time =    1.000,"PART-1-1",           403,       10.3945,      -27.4590,            0.,NA,NA,"",   3.83654E-03,  -3.83595E-03,   67.0861E-06,   918.666E-06
C:/temp/dataset/2/24_9.odb,Step-1,Increment      4: Step Time =    1.000,"PART-1-1",           404,       11.8863,      -26.2064,            0.,NA,NA,"",   5.07829E-03,  -5.06702E-03,   338.159E-06,   606.515E-06
C:/temp/dataset/2/24_9.odb,Step-1,Increment      4: Step Time =    1.000,"PART-1-1",           405,       8.93044,      -28.7247,            0.,NA,NA,"",   2.31656E-03,  -2.31373E-03,   114.318E-06,   1.13655E-03
C:/temp/dataset/2/24_9.odb,Step-1,Increment      4: Step Time =    1.000,"PART-1-1",           406,       7.31300,      -27.4411,            0.,NA,NA,"",   5.12375E-03,  -5.12283E-03,   96.7570E-06,   1.30500E-03
C:/temp/dataset/2/24_9.odb,Step-1,Increment      4: Step Time =    1.000,"PART-1-1",           407,       5.88256,      -28.7164,            0.,NA,NA,"",   3.35216E-03,  -3.33550E-03,   333.778E-06,   1.68419E-03
C:/temp/dataset/2/24_9.odb,Step-1,Increment      4: Step Time =    1.000,"PART-1-1",           408,           7.5,          -30.,            0.,NA,NA,"",            0.,   44.5725E-42,  -23.2251E-42,   1.55920E-03
C:/temp/dataset/2/24_9.odb,Step-1,Increment      4: Step Time =    1.000,"PART-1-1",           409,       5.63995,      -26.1773,            0.,NA,NA,"",   8.02895E-03,  -8.02484E-03,   256.750E-06,   1.29911E-03
C:/temp/dataset/2/24_9.odb,Step-1,Increment      4: Step Time =    1.000,"PART-1-1",           410,       3.92490,      -24.9166,            0.,NA,NA,"",   10.6720E-03,  -10.6094E-03,   1.15361E-03,   1.54159E-03
C:/temp/dataset/2/24_9.odb,Step-1,Increment      4: Step Time =    1.000,"PART-1-1",           411,       2.50142,      -26.1700,            0.,NA,NA,"",   11.0014E-03,  -10.6041E-03,   2.92982E-03,   2.15263E-03
C:/temp/dataset/2/24_9.odb,Step-1,Increment      4: Step Time =    1.000,"PART-1-1",           412,       4.21647,      -27.4307,            0.,NA,NA,"",   7.18210E-03,  -7.10756E-03,   1.03201E-03,   1.92080E-03
C:/temp/dataset/2/24_9.odb,Step-1,Increment      4: Step Time =    1.000,"PART-1-1",           413,       1.12659,      -27.4308,            0.,NA,NA,"",   9.65720E-03,  -8.88343E-03,   3.78763E-03,   3.05988E-03
C:/temp/dataset/2/24_9.odb,Step-1,Increment      4: Step Time =    1.000,"PART-1-1",           414,  -207.324E-03,      -28.7165,            0.,NA,NA,"",   5.84217E-03,  -5.12085E-03,   2.81210E-03,   3.95275E-03
C:/temp/dataset/2/24_9.odb,Step-1,Increment      4: Step Time =    1.000,"PART-1-1",           415,           1.5,          -30.,            0.,NA,NA,"",            0.,   72.2271E-42,  -91.5735E-42,   3.37663E-03
C:/temp/dataset/2/24_9.odb,Step-1,Increment      4: Step Time =    1.000,"PART-1-1",           416,       2.83391,      -28.7143,            0.,NA,NA,"",   4.72475E-03,  -4.59023E-03,   1.11939E-03,   2.58702E-03
C:/temp/dataset/2/24_9.odb,Step-1,Increment      4: Step Time =    1.000,"PART-1-1",           417,      -1.92078,      -27.4395,            0.,NA,NA,"",   11.7605E-03,  -7.75390E-03,   8.84225E-03,   5.08827E-03
C:/temp/dataset/2/24_9.odb,Step-1,Increment      4: Step Time =    1.000,"PART-1-1",           418,      -3.21345,      -28.7230,            0.,NA,NA,"",   5.72295E-03,  -2.93209E-03,   4.91478E-03,   5.45659E-03
C:/temp/dataset/2/24_9.odb,Step-1,Increment      4: Step Time =    1.000,"PART-1-1",           419,          -1.5,          -30.,            0.,NA,NA,"",            0.,   59.7976E-42,  -147.620E-42,   4.19594E-03
C:/temp/dataset/2/24_9.odb,Step-1,Increment      4: Step Time =    1.000,"PART-1-1",           420,      -5.57419,      -22.4519,            0.,NA,NA,"",   59.5364E-03,  -10.1078E-03,   58.6721E-03,   14.4227E-03
C:/temp/dataset/2/24_9.odb,Step-1,Increment      4: Step Time =    1.000,"PART-1-1",           421,      -6.77537,      -23.6376,            0.,NA,NA,"",   42.3808E-03,   1.78708E-03,   42.3431E-03,   12.5985E-03
C:/temp/dataset/2/24_9.odb,Step-1,Increment      4: Step Time =    1.000,"PART-1-1",           422,      -5.25528,      -24.9124,            0.,NA,NA,"",   31.7926E-03,  -3.71164E-03,   31.5752E-03,   9.67849E-03
C:/temp/dataset/2/24_9.odb,Step-1,Increment      4: Step Time =    1.000,"PART-1-1",           423,      -4.05411,      -23.7268,            0.,NA,NA,"",   38.8375E-03,  -12.4970E-03,   36.7720E-03,   11.2665E-03
C:/temp/dataset/2/24_9.odb,Step-1,Increment      4: Step Time =    1.000,"PART-1-1",           424,       13.4223,      -24.9720,            0.,NA,NA,"",   6.37591E-03,  -6.27371E-03,   1.13703E-03,   171.999E-06
C:/temp/dataset/2/24_9.odb,Step-1,Increment      4: Step Time =    1.000,"PART-1-1",           425,           15.,        -26.25,            0.,NA,NA,"",   5.56176E-03,  -5.04493E-03,   2.34134E-03,   211.936E-06
C:/temp/dataset/2/24_9.odb,Step-1,Increment      4: Step Time =    1.000,"PART-1-1",           426,       11.8021,      -23.6964,            0.,NA,NA,"",   7.38971E-03,  -7.38519E-03,   258.438E-06,   188.350E-06
C:/temp/dataset/2/24_9.odb,Step-1,Increment      4: Step Time =    1.000,"PART-1-1",           427,       10.1355,      -22.4445,            0.,NA,NA,"",   8.33960E-03,  -8.32445E-03,  -502.331E-06,   162.303E-06
C:/temp/dataset/2/24_9.odb,Step-1,Increment      4: Step Time =    1.000,"PART-1-1",           428,      -2.31424,      -24.9364,            0.,NA,NA,"",   24.1671E-03,  -12.9780E-03,   20.3868E-03,   6.75667E-03
C:/temp/dataset/2/24_9.odb,Step-1,Increment      4: Step Time =    1.000,"PART-1-1",           429,      -3.63092,      -26.1962,            0.,NA,NA,"",   20.2107E-03,  -7.05909E-03,   18.9378E-03,   7.74324E-03
C:/temp/dataset/2/24_9.odb,Step-1,Increment      4: Step Time =    1.000,"PART-1-1",           430,  -604.096E-03,      -26.1796,            0.,NA,NA,"",   15.3497E-03,  -11.9153E-03,   9.67679E-03,   4.44809E-03
C:/temp/dataset/2/24_9.odb,Step-1,Increment      4: Step Time =    1.000,"PART-1-1",           431,      -7.52977,      -11.9021,            0.,NA,NA,"",   405.556E-03,  -359.448E-03,   187.811E-03,   18.6998E-03
C:/temp/dataset/2/24_9.odb,Step-1,Increment      4: Step Time =    1.000,"PART-1-1",           432,      -6.22373,      -12.8207,            0.,NA,NA,"",   403.956E-03,  -320.204E-03,   246.272E-03,   25.3744E-03
C:/temp/dataset/2/24_9.odb,Step-1,Increment      4: Step Time =    1.000,"PART-1-1",           433,           -5.,        -11.25,            0.,NA,NA,"",   560.978E-03,  -433.593E-03,   355.941E-03,   31.7841E-03
C:/temp/dataset/2/24_9.odb,Step-1,Increment      4: Step Time =    1.000,"PART-1-1",           434,      -10.0475,      -12.6788,            0.,NA,NA,"",   298.181E-03,  -296.284E-03,   33.5805E-03,   4.68831E-03
C:/temp/dataset/2/24_9.odb,Step-1,Increment      4: Step Time =    1.000,"PART-1-1",           435,           -5.,         -6.25,            0.,NA,NA,"",   946.577E-03,  -805.636E-03,   496.949E-03,   43.1063E-03
C:/temp/dataset/2/24_9.odb,Step-1,Increment      4: Step Time =    1.000,"PART-1-1",           436,      -7.88282,      -7.02961,            0.,NA,NA,"",   740.160E-03,  -705.394E-03,   224.180E-03,   11.3129E-03
C:/temp/dataset/2/24_9.odb,Step-1,Increment      4: Step Time =    1.000,"PART-1-1",           437,      -13.8577,      -6.65334,            0.,NA,NA,"",   786.195E-03,  -730.972E-03,  -289.452E-03,   16.1305E-03
C:/temp/dataset/2/24_9.odb,Step-1,Increment      4: Step Time =    1.000,"PART-1-1",           438,      -12.5267,      -5.32641,            0.,NA,NA,"",   872.481E-03,  -851.365E-03,  -190.791E-03,   9.90556E-03
C:/temp/dataset/2/24_9.odb,Step-1,Increment      4: Step Time =    1.000,"PART-1-1",           439,          -15.,      -5.20833,            0.,NA,NA,"",   966.635E-03,  -868.302E-03,  -424.777E-03,   19.9190E-03
C:/temp/dataset/2/24_9.odb,Step-1,Increment      4: Step Time =    1.000,"PART-1-1",           440,          1.25,           -5.,            0.,NA,NA,"",       1.72796,  -913.570E-03,       1.46670,   2.08600E-03
C:/temp/dataset/2/24_9.odb,Step-1,Increment      4: Step Time =    1.000,"PART-1-1",           441,       2.47079,      -3.83474,            0.,NA,NA,"",       1.95389,      -1.08456,       1.62524,   4.56887E-03
C:/temp/dataset/2/24_9.odb,Step-1,Increment      4: Step Time =    1.000,"PART-1-1",           442,       3.51261,  -149.180E-03,            0.,NA,NA,"",       2.34482,      -1.56526,       1.74590,   9.73564E-03
C:/temp/dataset/2/24_9.odb,Step-1,Increment      4: Step Time =    1.000,"PART-1-1",           443,       3.69085,      -2.58237,            0.,NA,NA,"",       2.18370,      -1.26086,       1.78292,   5.84222E-03
C:/temp/dataset/2/24_9.odb,Step-1,Increment      4: Step Time =    1.000,"PART-1-1",           444,       8.74868,       5.55605,            0.,NA,NA,"",       3.31990,      -2.30330,       2.39093,   5.80235E-03
C:/temp/dataset/2/24_9.odb,Step-1,Increment      4: Step Time =    1.000,"PART-1-1",           445,       10.0030,       7.12352,            0.,NA,NA,"",       3.52574,      -2.47100,       2.51496,   2.97042E-03
C:/temp/dataset/2/24_9.odb,Step-1,Increment      4: Step Time =    1.000,"PART-1-1",           446,       8.73640,       8.21697,            0.,NA,NA,"",       3.51054,      -2.56856,       2.39298,   9.92692E-03
C:/temp/dataset/2/24_9.odb,Step-1,Increment      4: Step Time =    1.000,"PART-1-1",           447,           15.,     -625.E-03,            0.,NA,NA,"",       3.52433,      -1.60830,       3.13597,   4.40120E-03
C:/temp/dataset/2/24_9.odb,Step-1,Increment      4: Step Time =    1.000,"PART-1-1",           448,       13.7714,   731.820E-03,            0.,NA,NA,"",       3.45924,      -1.76638,       2.97426,   6.13696E-03
C:/temp/dataset/2/24_9.odb,Step-1,Increment      4: Step Time =    1.000,"PART-1-1",           449,       12.5339,  -774.506E-03,            0.,NA,NA,"",       3.25445,      -1.57612,       2.84733,   5.83925E-03
C:/temp/dataset/2/24_9.odb,Step-1,Increment      4: Step Time =    1.000,"PART-1-1",           450,       7.40609,       11.8257,            0.,NA,NA,"",       3.68032,      -2.86877,       2.30542,   16.0333E-03
C:/temp/dataset/2/24_9.odb,Step-1,Increment      4: Step Time =    1.000,"PART-1-1",           451,       8.70206,       10.8725,            0.,NA,NA,"",       3.69183,      -2.80271,       2.40300,   10.5121E-03
C:/temp/dataset/2/24_9.odb,Step-1,Increment      4: Step Time =    1.000,"PART-1-1",           452,       11.2454,       8.75341,            0.,NA,NA,"",       3.71766,      -2.63160,       2.62597,   1.60263E-03
C:/temp/dataset/2/24_9.odb,Step-1,Increment      4: Step Time =    1.000,"PART-1-1",           453,       11.2622,       5.99112,            0.,NA,NA,"",       3.54555,      -2.36015,       2.64587,   3.90835E-03
C:/temp/dataset/2/24_9.odb,Step-1,Increment      4: Step Time =    1.000,"PART-1-1",           454,       13.8596,       24.3693,            0.,NA,NA,"",       4.48375,      -3.58236,       2.69642,   4.59253E-03
C:/temp/dataset/2/24_9.odb,Step-1,Increment      4: Step Time =    1.000,"PART-1-1",           455,       12.6110,       23.1199,            0.,NA,NA,"",       4.41636,      -3.53588,       2.64609,   5.92094E-03
C:/temp/dataset/2/24_9.odb,Step-1,Increment      4: Step Time =    1.000,"PART-1-1",           456,       13.7514,       21.4590,            0.,NA,NA,"",       4.40003,      -3.46802,       2.70796,   7.77783E-03
C:/temp/dataset/2/24_9.odb,Step-1,Increment      4: Step Time =    1.000,"PART-1-1",           457,           15.,       22.7083,            0.,NA,NA,"",       4.46598,      -3.51622,       2.75339,   7.92080E-03
C:/temp/dataset/2/24_9.odb,Step-1,Increment      4: Step Time =    1.000,"PART-1-1",           458,       8.83903,       17.2613,            0.,NA,NA,"",       4.07913,      -3.26052,       2.45118,   7.43844E-03
C:/temp/dataset/2/24_9.odb,Step-1,Increment      4: Step Time =    1.000,"PART-1-1",           459,       10.5130,       17.3338,            0.,NA,NA,"",       4.14675,      -3.26909,       2.55120,   2.41009E-03
C:/temp/dataset/2/24_9.odb,Step-1,Increment      4: Step Time =    1.000,"PART-1-1",           460,       8.72284,       19.1442,            0.,NA,NA,"",       4.16265,      -3.36357,       2.45236,   6.25590E-03
C:/temp/dataset/2/24_9.odb,Step-1,Increment      4: Step Time =    1.000,"PART-1-1",           461,           15.,       28.5417,            0.,NA,NA,"",       4.63073,      -3.73927,       2.73157,   404.038E-06
C:/temp/dataset/2/24_9.odb,Step-1,Increment      4: Step Time =    1.000,"PART-1-1",           462,         13.75,           30.,            0.,NA,NA,"",       4.64691,      -3.79540,       2.68118,   334.113E-06
C:/temp/dataset/2/24_9.odb,Step-1,Increment      4: Step Time =    1.000,"PART-1-1",           463,       12.5875,       28.6551,            0.,NA,NA,"",       4.57622,      -3.74125,       2.63529,   1.78051E-03
C:/temp/dataset/2/24_9.odb,Step-1,Increment      4: Step Time =    1.000,"PART-1-1",           464,       13.8375,       27.1968,            0.,NA,NA,"",       4.56285,      -3.68731,       2.68763,   1.87609E-03
C:/temp/dataset/2/24_9.odb,Step-1,Increment      4: Step Time =    1.000,"PART-1-1",           465,         11.25,           30.,            0.,NA,NA,"",       4.58622,      -3.79145,       2.58038,   2.11754E-03
C:/temp/dataset/2/24_9.odb,Step-1,Increment      4: Step Time =    1.000,"PART-1-1",           466,       10.1484,       28.7335,            0.,NA,NA,"",       4.51696,      -3.73850,       2.53506,   3.30760E-03
C:/temp/dataset/2/24_9.odb,Step-1,Increment      4: Step Time =    1.000,"PART-1-1",           467,       7.69941,       28.7139,            0.,NA,NA,"",       4.45545,      -3.72868,       2.43884,   4.18351E-03
C:/temp/dataset/2/24_9.odb,Step-1,Increment      4: Step Time =    1.000,"PART-1-1",           468,       9.09777,       27.4473,            0.,NA,NA,"",       4.45038,      -3.68752,       2.49160,   3.62006E-03
C:/temp/dataset/2/24_9.odb,Step-1,Increment      4: Step Time =    1.000,"PART-1-1",           469,          8.75,           30.,            0.,NA,NA,"",       4.52271,      -3.78177,       2.48055,   4.34037E-03
C:/temp/dataset/2/24_9.odb,Step-1,Increment      4: Step Time =    1.000,"PART-1-1",           470,  -9.87333E-03,       28.6960,            0.,NA,NA,"",       4.30502,      -3.70700,       2.18892,   957.139E-06
C:/temp/dataset/2/24_9.odb,Step-1,Increment      4: Step Time =    1.000,"PART-1-1",           471,          1.25,           30.,            0.,NA,NA,"",       4.36201,      -3.75023,       2.22776,   1.31376E-03
C:/temp/dataset/2/24_9.odb,Step-1,Increment      4: Step Time =    1.000,"PART-1-1",           472,       4.87954,       25.6434,            0.,NA,NA,"",       4.29799,      -3.60708,       2.33703,   5.11920E-03
C:/temp/dataset/2/24_9.odb,Step-1,Increment      4: Step Time =    1.000,"PART-1-1",           473,      -5.00474,       28.7231,            0.,NA,NA,"",       4.22388,      -3.70531,       2.02777,   154.248E-06
C:/temp/dataset/2/24_9.odb,Step-1,Increment      4: Step Time =    1.000,"PART-1-1",           474,         -6.25,           30.,            0.,NA,NA,"",       4.24062,      -3.74694,       1.98578,   197.982E-06
C:/temp/dataset/2/24_9.odb,Step-1,Increment      4: Step Time =    1.000,"PART-1-1",           475,      -3.76303,       27.4393,            0.,NA,NA,"",       4.20779,      -3.66374,       2.06942,   144.460E-06
C:/temp/dataset/2/24_9.odb,Step-1,Increment      4: Step Time =    1.000,"PART-1-1",           476,      -3.77322,       24.9147,            0.,NA,NA,"",       4.13623,      -3.58051,       2.07084,   302.930E-06
C:/temp/dataset/2/24_9.odb,Step-1,Increment      4: Step Time =    1.000,"PART-1-1",           477,      -13.7476,       27.4926,            0.,NA,NA,"",       4.05173,      -3.65994,       1.73820,   10.0221E-06
C:/temp/dataset/2/24_9.odb,Step-1,Increment      4: Step Time =    1.000,"PART-1-1",           478,        -13.75,           30.,            0.,NA,NA,"",       4.12647,      -3.74319,       1.73674,   2.01161E-06
C:/temp/dataset/2/24_9.odb,Step-1,Increment      4: Step Time =    1.000,"PART-1-1",           479,          -15.,         28.75,            0.,NA,NA,"",       4.07106,      -3.70099,       1.69592,   1.52649E-06
C:/temp/dataset/2/24_9.odb,Step-1,Increment      4: Step Time =    1.000,"PART-1-1",           480,          -15.,         26.25,            0.,NA,NA,"",       3.99633,      -3.61799,       1.69729,   6.81409E-06
C:/temp/dataset/2/24_9.odb,Step-1,Increment      4: Step Time =    1.000,"PART-1-1",           481,      -12.4965,       26.2309,            0.,NA,NA,"",       4.03303,      -3.61875,       1.78043,   16.4120E-06
C:/temp/dataset/2/24_9.odb,Step-1,Increment      4: Step Time =    1.000,"PART-1-1",           482,      -10.0014,       23.7134,            0.,NA,NA,"",       3.99802,      -3.53659,       1.86459,   49.9692E-06
C:/temp/dataset/2/24_9.odb,Step-1,Increment      4: Step Time =    1.000,"PART-1-1",           483,      -8.75535,       22.4567,            0.,NA,NA,"",       3.98167,      -3.49552,       1.90658,   93.7616E-06
C:/temp/dataset/2/24_9.odb,Step-1,Increment      4: Step Time =    1.000,"PART-1-1",           484,      -7.50515,       23.6891,            0.,NA,NA,"",       4.03794,      -3.53729,       1.94745,   112.113E-06
C:/temp/dataset/2/24_9.odb,Step-1,Increment      4: Step Time =    1.000,"PART-1-1",           485,      -8.75118,       24.9458,            0.,NA,NA,"",       4.05401,      -3.57829,       1.90547,   92.0072E-06
C:/temp/dataset/2/24_9.odb,Step-1,Increment      4: Step Time =    1.000,"PART-1-1",           486,      -3.77419,       22.4219,            0.,NA,NA,"",       4.06533,      -3.49741,       2.07245,   246.503E-06
C:/temp/dataset/2/24_9.odb,Step-1,Increment      4: Step Time =    1.000,"PART-1-1",           487,      -5.00723,       21.2173,            0.,NA,NA,"",       4.00913,      -3.45610,       2.03186,   198.815E-06
C:/temp/dataset/2/24_9.odb,Step-1,Increment      4: Step Time =    1.000,"PART-1-1",           488,         -3.75,           20.,            0.,NA,NA,"",       3.99632,      -3.41543,       2.07496,   551.913E-06
C:/temp/dataset/2/24_9.odb,Step-1,Increment      4: Step Time =    1.000,"PART-1-1",           489,      -2.51696,       21.2046,            0.,NA,NA,"",       4.05283,      -3.45659,       2.11600,   661.873E-06
C:/temp/dataset/2/24_9.odb,Step-1,Increment      4: Step Time =    1.000,"PART-1-1",           490,         -8.75,           20.,            0.,NA,NA,"",       3.91091,      -3.41383,       1.90814,   85.7809E-06
C:/temp/dataset/2/24_9.odb,Step-1,Increment      4: Step Time =    1.000,"PART-1-1",           491,      -7.50331,       21.2223,            0.,NA,NA,"",       3.96677,      -3.45506,       1.94880,   101.345E-06
C:/temp/dataset/2/24_9.odb,Step-1,Increment      4: Step Time =    1.000,"PART-1-1",           492,         -6.25,           20.,            0.,NA,NA,"",       3.95298,      -3.41485,       1.99119,   256.227E-06
C:/temp/dataset/2/24_9.odb,Step-1,Increment      4: Step Time =    1.000,"PART-1-1",           493,      -6.26054,       22.4396,            0.,NA,NA,"",       4.02274,      -3.49639,       1.98941,   150.616E-06
C:/temp/dataset/2/24_9.odb,Step-1,Increment      4: Step Time =    1.000,"PART-1-1",           494,         -1.25,           20.,            0.,NA,NA,"",       4.04097,      -3.41436,       2.16138,   530.281E-06
C:/temp/dataset/2/24_9.odb,Step-1,Increment      4: Step Time =    1.000,"PART-1-1",           495,      -1.30453,       22.3853,            0.,NA,NA,"",       4.10942,      -3.49749,       2.15751,   2.26390E-03
C:/temp/dataset/2/24_9.odb,Step-1,Increment      4: Step Time =    1.000,"PART-1-1",           496,         -1.25,           30.,            0.,NA,NA,"",       4.32064,      -3.74821,       2.14915,   91.5802E-06
C:/temp/dataset/2/24_9.odb,Step-1,Increment      4: Step Time =    1.000,"PART-1-1",           497,      -2.50829,       28.7162,            0.,NA,NA,"",       4.26445,      -3.70616,       2.10948,   229.083E-06
C:/temp/dataset/2/24_9.odb,Step-1,Increment      4: Step Time =    1.000,"PART-1-1",           498,         -3.75,           30.,            0.,NA,NA,"",       4.28045,      -3.74764,       2.06821,   300.718E-06
C:/temp/dataset/2/24_9.odb,Step-1,Increment      4: Step Time =    1.000,"PART-1-1",           499,          3.75,           20.,            0.,NA,NA,"",       4.12745,      -3.41469,       2.31856,   12.5606E-03
C:/temp/dataset/2/24_9.odb,Step-1,Increment      4: Step Time =    1.000,"PART-1-1",           500,       4.75388,       21.0765,            0.,NA,NA,"",       4.14303,      -3.43538,       2.31579,   19.9775E-03
C:/temp/dataset/2/24_9.odb,Step-1,Increment      4: Step Time =    1.000,"PART-1-1",           501,          6.25,           30.,            0.,NA,NA,"",       4.46145,      -3.76823,       2.38852,   4.87982E-03
C:/temp/dataset/2/24_9.odb,Step-1,Increment      4: Step Time =    1.000,"PART-1-1",           502,       6.61296,       27.1492,            0.,NA,NA,"",       4.38163,      -3.66776,       2.39712,   3.24232E-03
C:/temp/dataset/2/24_9.odb,Step-1,Increment      4: Step Time =    1.000,"PART-1-1",           503,            5.,         16.25,            0.,NA,NA,"",       3.85458,      -3.16173,       2.20483,   26.2502E-03
C:/temp/dataset/2/24_9.odb,Step-1,Increment      4: Step Time =    1.000,"PART-1-1",           504,       6.03202,       15.2452,            0.,NA,NA,"",       3.83848,      -3.10756,       2.25323,   21.5065E-03
C:/temp/dataset/2/24_9.odb,Step-1,Increment      4: Step Time =    1.000,"PART-1-1",           505,       6.91243,       16.6330,            0.,NA,NA,"",       3.96657,      -3.20969,       2.33058,   17.5588E-03
C:/temp/dataset/2/24_9.odb,Step-1,Increment      4: Step Time =    1.000,"PART-1-1",           506,            5.,         13.75,            0.,NA,NA,"",       3.68405,      -2.98819,       2.15476,   25.4736E-03
C:/temp/dataset/2/24_9.odb,Step-1,Increment      4: Step Time =    1.000,"PART-1-1",           507,       6.17466,       12.7979,            0.,NA,NA,"",       3.67939,      -2.93149,       2.22358,   20.8889E-03
C:/temp/dataset/2/24_9.odb,Step-1,Increment      4: Step Time =    1.000,"PART-1-1",           508,       12.0086,       16.5092,            0.,NA,NA,"",       4.16892,      -3.22177,       2.64578,   4.50322E-03
C:/temp/dataset/2/24_9.odb,Step-1,Increment      4: Step Time =    1.000,"PART-1-1",           509,           15.,        16.875,            0.,NA,NA,"",       4.29586,      -3.23547,       2.82597,   15.4667E-03
C:/temp/dataset/2/24_9.odb,Step-1,Increment      4: Step Time =    1.000,"PART-1-1",           510,       13.3591,       18.2744,            0.,NA,NA,"",       4.28738,      -3.31924,       2.71373,   8.88238E-03
C:/temp/dataset/2/24_9.odb,Step-1,Increment      4: Step Time =    1.000,"PART-1-1",           511,            5.,         11.25,            0.,NA,NA,"",       3.49590,      -2.79162,       2.10431,   25.8135E-03
C:/temp/dataset/2/24_9.odb,Step-1,Increment      4: Step Time =    1.000,"PART-1-1",           512,       6.23142,       10.2778,            0.,NA,NA,"",       3.49638,      -2.72626,       2.18910,   21.0782E-03
C:/temp/dataset/2/24_9.odb,Step-1,Increment      4: Step Time =    1.000,"PART-1-1",           513,            5.,          8.75,            0.,NA,NA,"",       3.29397,      -2.57291,       2.05679,   26.9870E-03
C:/temp/dataset/2/24_9.odb,Step-1,Increment      4: Step Time =    1.000,"PART-1-1",           514,       7.47251,       9.25684,            0.,NA,NA,"",       3.49997,      -2.65213,       2.28386,   15.6981E-03
C:/temp/dataset/2/24_9.odb,Step-1,Increment      4: Step Time =    1.000,"PART-1-1",           515,         11.25,           -5.,            0.,NA,NA,"",       2.92471,      -1.05208,       2.72893,   3.10114E-03
C:/temp/dataset/2/24_9.odb,Step-1,Increment      4: Step Time =    1.000,"PART-1-1",           516,       11.2689,      -2.22707,            0.,NA,NA,"",       3.04788,      -1.38814,       2.71342,   5.23592E-03
C:/temp/dataset/2/24_9.odb,Step-1,Increment      4: Step Time =    1.000,"PART-1-1",           517,          10.5,          -30.,            0.,NA,NA,"",            0.,   32.5283E-42,  -19.0240E-42,   1.03970E-03
C:/temp/dataset/2/24_9.odb,Step-1,Increment      4: Step Time =    1.000,"PART-1-1",           518,           15.,        -23.75,            0.,NA,NA,"",   7.56310E-03,  -7.22354E-03,   2.24073E-03,   33.2011E-06
C:/temp/dataset/2/24_9.odb,Step-1,Increment      4: Step Time =    1.000,"PART-1-1",           519,          3.75,           -5.,            0.,NA,NA,"",       2.03888,  -946.434E-03,       1.80591,   6.21513E-03
C:/temp/dataset/2/24_9.odb,Step-1,Increment      4: Step Time =    1.000,"PART-1-1",           520,       4.97006,      -3.74763,            0.,NA,NA,"",       2.26047,      -1.12766,       1.95911,   6.14194E-03
C:/temp/dataset/2/24_9.odb,Step-1,Increment      4: Step Time =    1.000,"PART-1-1",           521,       4.85412,       3.76356,            0.,NA,NA,"",       2.82898,      -2.06712,       1.93136,   20.2443E-03
C:/temp/dataset/2/24_9.odb,Step-1,Increment      4: Step Time =    1.000,"PART-1-1",           522,       3.33333,            5.,            0.,NA,NA,"",       2.79058,      -2.22316,       1.68667,   12.8680E-03
C:/temp/dataset/2/24_9.odb,Step-1,Increment      4: Step Time =    1.000,"PART-1-1",           523,       1.45296,       3.58740,            0.,NA,NA,"",       2.47303,      -2.01647,       1.43169,   5.53698E-03
C:/temp/dataset/2/24_9.odb,Step-1,Increment      4: Step Time =    1.000,"PART-1-1",           524,       2.97375,       2.35096,            0.,NA,NA,"",       2.50088,      -1.86956,       1.66107,   12.3018E-03
C:/temp/dataset/2/24_9.odb,Step-1,Increment      4: Step Time =    1.000,"PART-1-1",           525,          6.25,           -5.,            0.,NA,NA,"",       2.34594,  -985.914E-03,       2.12871,   8.18116E-03
C:/temp/dataset/2/24_9.odb,Step-1,Increment      4: Step Time =    1.000,"PART-1-1",           526,       12.4696,       10.4445,            0.,NA,NA,"",       3.89357,      -2.78337,       2.72264,   6.02840E-03
C:/temp/dataset/2/24_9.odb,Step-1,Increment      4: Step Time =    1.000,"PART-1-1",           527,           15.,       11.0417,            0.,NA,NA,"",       4.07141,      -2.82855,       2.92843,   17.2833E-03
C:/temp/dataset/2/24_9.odb,Step-1,Increment      4: Step Time =    1.000,"PART-1-1",           528,      -5.01382,       23.6808,            0.,NA,NA,"",       4.07974,      -3.53869,       2.03026,   157.553E-06
C:/temp/dataset/2/24_9.odb,Step-1,Increment      4: Step Time =    1.000,"PART-1-1",           529,      -2.53358,       23.6558,            0.,NA,NA,"",       4.12228,      -3.53935,       2.11334,   655.362E-06
C:/temp/dataset/2/24_9.odb,Step-1,Increment      4: Step Time =    1.000,"PART-1-1",           530,  -74.6816E-03,       23.6075,            0.,NA,NA,"",       4.16306,      -3.53686,       2.19583,   3.24793E-03
C:/temp/dataset/2/24_9.odb,Step-1,Increment      4: Step Time =    1.000,"PART-1-1",           531,      -6.62798,      -1.45964,            0.,NA,NA,"",       1.35032,      -1.29788,   372.644E-03,   10.7880E-03
C:/temp/dataset/2/24_9.odb,Step-1,Increment      4: Step Time =    1.000,"PART-1-1",           532,      -4.43070,      -2.38075,            0.,NA,NA,"",       1.37202,      -1.21384,   639.554E-03,   13.1813E-03
C:/temp/dataset/2/24_9.odb,Step-1,Increment      4: Step Time =    1.000,"PART-1-1",           533,      -3.64554,  -813.143E-03,            0.,NA,NA,"",       1.59565,      -1.41093,   745.249E-03,   11.8296E-03
C:/temp/dataset/2/24_9.odb,Step-1,Increment      4: Step Time =    1.000,"PART-1-1",           534,         -3.75,           -5.,            0.,NA,NA,"",       1.16741,  -891.768E-03,   753.386E-03,   24.3236E-03
C:/temp/dataset/2/24_9.odb,Step-1,Increment      4: Step Time =    1.000,"PART-1-1",           535,      -13.8599,      -9.43096,            0.,NA,NA,"",   561.408E-03,  -507.668E-03,  -239.692E-03,   16.8128E-03
C:/temp/dataset/2/24_9.odb,Step-1,Increment      4: Step Time =    1.000,"PART-1-1",           536,          -15.,      -11.0417,            0.,NA,NA,"",   496.672E-03,  -405.650E-03,  -286.586E-03,   23.2863E-03
C:/temp/dataset/2/24_9.odb,Step-1,Increment      4: Step Time =    1.000,"PART-1-1",           537,      -11.9984,      -19.8095,            0.,NA,NA,"",   41.7138E-03,  -26.0770E-03,  -32.5581E-03,   7.14249E-03
C:/temp/dataset/2/24_9.odb,Step-1,Increment      4: Step Time =    1.000,"PART-1-1",           538,      -13.3881,      -18.2324,            0.,NA,NA,"",   108.540E-03,  -67.8662E-03,  -84.7060E-03,   13.2039E-03
C:/temp/dataset/2/24_9.odb,Step-1,Increment      4: Step Time =    1.000,"PART-1-1",           539,          -15.,      -19.7917,            0.,NA,NA,"",   111.431E-03,  -43.1328E-03,  -102.745E-03,   19.2866E-03
C:/temp/dataset/2/24_9.odb,Step-1,Increment      4: Step Time =    1.000,"PART-1-1",           540,           -5.,        -18.75,            0.,NA,NA,"",   160.880E-03,  -72.5006E-03,   143.617E-03,   40.7625E-03
C:/temp/dataset/2/24_9.odb,Step-1,Increment      4: Step Time =    1.000,"PART-1-1",           541,      -5.96138,      -20.0094,            0.,NA,NA,"",   98.7831E-03,  -21.8827E-03,   96.3289E-03,   25.1292E-03
C:/temp/dataset/2/24_9.odb,Step-1,Increment      4: Step Time =    1.000,"PART-1-1",           542,           -5.,        -13.75,            0.,NA,NA,"",   406.385E-03,  -286.228E-03,   288.483E-03,   31.5901E-03
C:/temp/dataset/2/24_9.odb,Step-1,Increment      4: Step Time =    1.000,"PART-1-1",           543,      -7.28958,      -14.3036,            0.,NA,NA,"",   280.958E-03,  -228.979E-03,   162.808E-03,   19.8157E-03
C:/temp/dataset/2/24_9.odb,Step-1,Increment      4: Step Time =    1.000,"PART-1-1",           544,      -8.88285,      -11.0213,            0.,NA,NA,"",   418.713E-03,  -403.186E-03,   112.966E-03,   11.2420E-03
C:/temp/dataset/2/24_9.odb,Step-1,Increment      4: Step Time =    1.000,"PART-1-1",           545,      -9.01222,      -8.51542,            0.,NA,NA,"",   592.477E-03,  -580.098E-03,   120.480E-03,   9.98129E-03
C:/temp/dataset/2/24_9.odb,Step-1,Increment      4: Step Time =    1.000,"PART-1-1",           546,      -9.13424,  -715.290E-03,            0.,NA,NA,"",       1.36776,      -1.36408,   100.282E-03,   9.19820E-03
C:/temp/dataset/2/24_9.odb,Step-1,Increment      4: Step Time =    1.000,"PART-1-1",           547,      -9.92186,      -2.42350,            0.,NA,NA,"",       1.16125,      -1.16090,   28.4789E-03,   9.93139E-03
C:/temp/dataset/2/24_9.odb,Step-1,Increment      4: Step Time =    1.000,"PART-1-1",           548,      -12.7176,      -7.95930,            0.,NA,NA,"",   641.064E-03,  -617.129E-03,  -173.535E-03,   10.3228E-03
C:/temp/dataset/2/24_9.odb,Step-1,Increment      4: Step Time =    1.000,"PART-1-1",           549,          -15.,        -8.125,            0.,NA,NA,"",   709.308E-03,  -613.773E-03,  -355.528E-03,   22.8430E-03
C:/temp/dataset/2/24_9.odb,Step-1,Increment      4: Step Time =    1.000,"PART-1-1",           550,       11.2818,   528.104E-03,            0.,NA,NA,"",       3.20057,      -1.72851,       2.69368,   6.82442E-03
C:/temp/dataset/2/24_9.odb,Step-1,Increment      4: Step Time =    1.000,"PART-1-1",           551,       10.0167,  -924.457E-03,            0.,NA,NA,"",       2.98748,      -1.53937,       2.56035,   6.52113E-03
C:/temp/dataset/2/24_9.odb,Step-1,Increment      4: Step Time =    1.000,"PART-1-1",           552,       10.4320,       23.7699,            0.,NA,NA,"",       4.37446,      -3.55828,       2.54451,   6.05782E-03
C:/temp/dataset/2/24_9.odb,Step-1,Increment      4: Step Time =    1.000,"PART-1-1",           553,           15.,        25.625,            0.,NA,NA,"",       4.54502,      -3.62849,       2.73701,   3.23535E-03
C:/temp/dataset/2/24_9.odb,Step-1,Increment      4: Step Time =    1.000,"PART-1-1",           554,      -9.99539,       26.2124,            0.,NA,NA,"",       4.07111,      -3.61957,       1.86351,   49.4057E-06
C:/temp/dataset/2/24_9.odb,Step-1,Increment      4: Step Time =    1.000,"PART-1-1",           555,          -15.,       -25.625,            0.,NA,NA,"",   24.9121E-03,   8.54079E-03,  -23.4023E-03,   10.1522E-03
C:/temp/dataset/2/24_9.odb,Step-1,Increment      4: Step Time =    1.000,"PART-1-1",           556,      -12.2044,      -25.8339,            0.,NA,NA,"",   19.5645E-03,   16.7329E-03,  -10.1381E-03,   6.44558E-03
C:/temp/dataset/2/24_9.odb,Step-1,Increment      4: Step Time =    1.000,"PART-1-1",           557,          -15.,       -16.875,            0.,NA,NA,"",   199.857E-03,  -121.101E-03,  -158.989E-03,   21.8964E-03
C:/temp/dataset/2/24_9.odb,Step-1,Increment      4: Step Time =    1.000,"PART-1-1",           558,      -8.25880,      -15.9015,            0.,NA,NA,"",   176.719E-03,  -147.464E-03,   97.3862E-03,   13.8790E-03
C:/temp/dataset/2/24_9.odb,Step-1,Increment      4: Step Time =    1.000,"PART-1-1",           559,       7.56555,       17.9230,            0.,NA,NA,"",       4.06578,      -3.29372,       2.38369,   13.4485E-03
C:/temp/dataset/2/24_9.odb,Step-1,Increment      4: Step Time =    1.000,"PART-1-1",           560,      -9.72707,       2.21069,            0.,NA,NA,"",       1.70602,      -1.70584,   24.7350E-03,   7.97925E-03
C:/temp/dataset/2/24_9.odb,Step-1,Increment      4: Step Time =    1.000,"PART-1-1",           561,      -8.18006,       3.69884,            0.,NA,NA,"",       1.90703,      -1.89787,   186.708E-03,   8.67241E-03
C:/temp/dataset/2/24_9.odb,Step-1,Increment      4: Step Time =    1.000,"PART-1-1",           562,          -10.,            5.,            0.,NA,NA,"",       2.02275,      -2.02268,  -16.1133E-03,   6.75471E-03
C:/temp/dataset/2/24_9.odb,Step-1,Increment      4: Step Time =    1.000,"PART-1-1",           563,      -10.3433,      -7.69771,            0.,NA,NA,"",   639.796E-03,  -639.612E-03,   15.3272E-03,   2.18090E-03
C:/temp/dataset/2/24_9.odb,Step-1,Increment      4: Step Time =    1.000,"PART-1-1",           564,      -11.5611,      -6.59494,            0.,NA,NA,"",   738.546E-03,  -732.795E-03,  -91.9921E-03,   6.01498E-03
C:/temp/dataset/2/24_9.odb,Step-1,Increment      4: Step Time =    1.000,"PART-1-1",           565,      -9.40089,      -20.7816,            0.,NA,NA,"",   30.2497E-03,  -7.84906E-03,   29.2136E-03,   6.96428E-03
C:/temp/dataset/2/24_9.odb,Step-1,Increment      4: Step Time =    1.000,"PART-1-1",           566,      -8.21757,      -22.2064,            0.,NA,NA,"",   42.6645E-03,   3.37221E-03,   42.5310E-03,   10.3680E-03
C:/temp/dataset/2/24_9.odb,Step-1,Increment      4: Step Time =    1.000,"PART-1-1",           567,      -6.89894,      -21.2078,            0.,NA,NA,"",   70.3388E-03,  -8.30735E-03,   69.8465E-03,   14.7006E-03
C:/temp/dataset/2/24_9.odb,Step-1,Increment      4: Step Time =    1.000,"PART-1-1",           568,      -9.14285,      -28.6800,            0.,NA,NA,"",   8.20381E-03,   7.80787E-03,   2.51786E-03,   5.07693E-03
C:/temp/dataset/2/24_9.odb,Step-1,Increment      4: Step Time =    1.000,"PART-1-1",           569,      -10.7232,      -27.3047,            0.,NA,NA,"",   14.3234E-03,   14.3233E-03,   45.8361E-06,   4.39324E-03
C:/temp/dataset/2/24_9.odb,Step-1,Increment      4: Step Time =    1.000,"PART-1-1",           570,         -10.5,          -30.,            0.,NA,NA,"",            0.,  -129.406E-42,   179.100E-42,   4.72980E-03
C:/temp/dataset/2/24_9.odb,Step-1,Increment      4: Step Time =    1.000,"PART-1-1",           571,      -4.89633,      -27.4366,            0.,NA,NA,"",   12.8197E-03,  -830.232E-06,   12.7928E-03,   6.83244E-03
C:/temp/dataset/2/24_9.odb,Step-1,Increment      4: Step Time =    1.000,"PART-1-1",           572,      -6.18287,      -28.7136,            0.,NA,NA,"",   5.86879E-03,   2.44795E-03,   5.33388E-03,   5.90140E-03
C:/temp/dataset/2/24_9.odb,Step-1,Increment      4: Step Time =    1.000,"PART-1-1",           573,          -4.5,          -30.,            0.,NA,NA,"",            0.,  -910.844E-45,  -158.225E-42,   4.47767E-03
C:/temp/dataset/2/24_9.odb,Step-1,Increment      4: Step Time =    1.000,"PART-1-1",           574,       12.5384,       2.02620,            0.,NA,NA,"",       3.40945,      -1.91656,       2.81977,   7.23247E-03
C:/temp/dataset/2/24_9.odb,Step-1,Increment      4: Step Time =    1.000,"PART-1-1",           575,           15.,       2.29167,            0.,NA,NA,"",       3.66226,      -1.95581,       3.09628,   10.1028E-03
C:/temp/dataset/2/24_9.odb,Step-1,Increment      4: Step Time =    1.000,"PART-1-1",           576,       9.96595,       9.83263,            0.,NA,NA,"",       3.70177,      -2.72255,       2.50815,   4.59335E-03
C:/temp/dataset/2/24_9.odb,Step-1,Increment      4: Step Time =    1.000,"PART-1-1",           577,           15.,       19.7917,            0.,NA,NA,"",       4.38613,      -3.38937,       2.78394,   12.5329E-03
C:/temp/dataset/2/24_9.odb,Step-1,Increment      4: Step Time =    1.000,"PART-1-1",           578,       7.90800,       20.1372,            0.,NA,NA,"",       4.17837,      -3.40913,       2.41590,   7.72109E-03
C:/temp/dataset/2/24_9.odb,Step-1,Increment      4: Step Time =    1.000,"PART-1-1",           579,       8.41916,       21.3934,            0.,NA,NA,"",       4.23986,      -3.46303,       2.44619,   7.16946E-03
C:/temp/dataset/2/24_9.odb,Step-1,Increment      4: Step Time =    1.000,"PART-1-1",           580,       6.50486,       21.1025,            0.,NA,NA,"",       4.17766,      -3.44596,       2.36182,   11.6457E-03
C:/temp/dataset/2/24_9.odb,Step-1,Increment      4: Step Time =    1.000,"PART-1-1",           581,           4.5,          -30.,            0.,NA,NA,"",            0.,   60.1886E-42,  -46.3606E-42,   2.36431E-03
C:/temp/dataset/2/24_9.odb,Step-1,Increment      4: Step Time =    1.000,"PART-1-1",           582,       3.62857,      -22.4261,            0.,NA,NA,"",   10.5523E-03,  -10.5040E-03,   1.00887E-03,   836.171E-06
C:/temp/dataset/2/24_9.odb,Step-1,Increment      4: Step Time =    1.000,"PART-1-1",           583,       2.16864,      -23.6665,            0.,NA,NA,"",   12.9067E-03,  -12.3790E-03,   3.65289E-03,   1.76811E-03
C:/temp/dataset/2/24_9.odb,Step-1,Increment      4: Step Time =    1.000,"PART-1-1",           584,      -2.73954,      -22.4743,            0.,NA,NA,"",   38.9649E-03,  -18.8600E-03,   34.0963E-03,   8.19170E-03
C:/temp/dataset/2/24_9.odb,Step-1,Increment      4: Step Time =    1.000,"PART-1-1",           585,  -999.676E-03,      -23.6839,            0.,NA,NA,"",   22.1432E-03,  -15.6080E-03,   15.7070E-03,   5.01946E-03
C:/temp/dataset/2/24_9.odb,Step-1,Increment      4: Step Time =    1.000,"PART-1-1",           586,      -7.82572,      -27.3936,            0.,NA,NA,"",   13.5272E-03,   8.95505E-03,   10.1386E-03,   6.05433E-03
C:/temp/dataset/2/24_9.odb,Step-1,Increment      4: Step Time =    1.000,"PART-1-1",           587,      -6.52069,      -26.1528,            0.,NA,NA,"",   21.5101E-03,   4.56674E-03,   21.0197E-03,   8.91041E-03
C:/temp/dataset/2/24_9.odb,Step-1,Increment      4: Step Time =    1.000,"PART-1-1",           588,      -8.08310,      -24.7829,            0.,NA,NA,"",   26.7833E-03,   10.7251E-03,   24.5422E-03,   8.32846E-03
C:/temp/dataset/2/24_9.odb,Step-1,Increment      4: Step Time =    1.000,"PART-1-1",           589,      -9.38814,      -26.0237,            0.,NA,NA,"",   17.9140E-03,   15.2465E-03,   9.40500E-03,   6.42343E-03
C:/temp/dataset/2/24_9.odb,Step-1,Increment      4: Step Time =    1.000,"PART-1-1",           590,          -7.5,          -30.,            0.,NA,NA,"",            0.,  -89.0861E-42,  -50.3164E-42,   4.56919E-03
C:/temp/dataset/2/24_9.odb,Step-1,Increment      4: Step Time =    1.000,"PART-1-1",           591,       7.73182,       24.8866,            0.,NA,NA,"",       4.33641,      -3.59002,       2.43233,   5.12780E-03
C:/temp/dataset/2/24_9.odb,Step-1,Increment      4: Step Time =    1.000,"PART-1-1",           592,       8.21760,       26.2797,            0.,NA,NA,"",       4.39231,      -3.64221,       2.45494,   4.32989E-03
C:/temp/dataset/2/24_9.odb,Step-1,Increment      4: Step Time =    1.000,"PART-1-1",           593,       6.12718,       25.7561,            0.,NA,NA,"",       4.32686,      -3.61523,       2.37734,   4.53165E-03
C:/temp/dataset/2/24_9.odb,Step-1,Increment      4: Step Time =    1.000,"PART-1-1",           594,       5.38844,       22.1508,            0.,NA,NA,"",       4.19107,      -3.47799,       2.33851,   12.3928E-03
C:/temp/dataset/2/24_9.odb,Step-1,Increment      4: Step Time =    1.000,"PART-1-1",           595,      -3.37677,   775.412E-03,            0.,NA,NA,"",       1.78479,      -1.60683,   776.902E-03,   9.56123E-03
C:/temp/dataset/2/24_9.odb,Step-1,Increment      4: Step Time =    1.000,"PART-1-1",           596,      -3.41233,       2.84116,            0.,NA,NA,"",       2.01174,      -1.86110,   763.808E-03,   6.94645E-03
C:/temp/dataset/2/24_9.odb,Step-1,Increment      4: Step Time =    1.000,"PART-1-1",           597,      -11.2482,       24.9673,            0.,NA,NA,"",       4.01501,      -3.57752,       1.82255,   38.6917E-06
C:/temp/dataset/2/24_9.odb,Step-1,Increment      4: Step Time =    1.000,"PART-1-1",           598,       5.16292,       24.1270,            0.,NA,NA,"",       4.25423,      -3.55135,       2.34231,   6.72224E-03
C:/temp/dataset/2/24_9.odb,Step-1,Increment      4: Step Time =    1.000,"PART-1-1",           599,            0.,            5.,            0.,NA,NA,"",       2.50672,      -2.19400,       1.21243,   3.96683E-03
C:/temp/dataset/2/24_9.odb,Step-1,Increment      4: Step Time =    1.000,"PART-1-1",           600,      -1.80204,       3.95011,            0.,NA,NA,"",       2.24725,      -2.02595,   972.440E-03,   6.86422E-03
C:/temp/dataset/2/24_9.odb,Step-1,Increment      4: Step Time =    1.000,"PART-1-1",           601,       9.59799,       22.9228,            0.,NA,NA,"",       4.32460,      -3.52495,       2.50536,   6.39717E-03
C:/temp/dataset/2/24_9.odb,Step-1,Increment      4: Step Time =    1.000,"PART-1-1",           602,       8.30932,       22.9391,            0.,NA,NA,"",       4.28874,      -3.52154,       2.44787,   7.24367E-03
C:/temp/dataset/2/24_9.odb,Step-1,Increment      4: Step Time =    1.000,"PART-1-1",           603,      -1.93269,      -1.01257,            0.,NA,NA,"",       1.71409,      -1.40317,   984.479E-03,   11.6293E-03
C:/temp/dataset/2/24_9.odb,Step-1,Increment      4: Step Time =    1.000,"PART-1-1",           604,      -8.69440,      -13.5596,            0.,NA,NA,"",   274.951E-03,  -255.340E-03,   101.979E-03,   12.1224E-03
C:/temp/dataset/2/24_9.odb,Step-1,Increment      4: Step Time =    1.000,"PART-1-1",           605,       6.07991,       2.65614,            0.,NA,NA,"",       2.85254,      -1.94583,       2.08583,   11.5460E-03
C:/temp/dataset/2/24_9.odb,Step-1,Increment      4: Step Time =    1.000,"PART-1-1",           606,       4.75906,       1.28045,            0.,NA,NA,"",       2.59637,      -1.75752,       1.91108,   11.1100E-03
C:/temp/dataset/2/24_9.odb,Step-1,Increment      4: Step Time =    1.000,"PART-1-1",           607,       10.0234,       4.43547,            0.,NA,NA,"",       3.34230,      -2.18621,       2.52814,   5.39514E-03
C:/temp/dataset/2/24_9.odb,Step-1,Increment      4: Step Time =    1.000,"PART-1-1",           608,       7.46673,       4.06304,            0.,NA,NA,"",       3.10087,      -2.13080,       2.25280,   9.81122E-03
C:/temp/dataset/2/24_9.odb,Step-1,Increment      4: Step Time =    1.000,"PART-1-1",           609,  -317.165E-03,  -486.862E-03,            0.,NA,NA,"",       1.91311,      -1.48356,       1.20790,   11.7118E-03
C:/temp/dataset/2/24_9.odb,Step-1,Increment      4: Step Time =    1.000,"PART-1-1",           610,       1.72730,   921.331E-03,            0.,NA,NA,"",       2.24437,      -1.67861,       1.48978,   12.3024E-03
C:/temp/dataset/2/24_9.odb,Step-1,Increment      4: Step Time =    1.000,"PART-1-1",           611,      -4.63664,      -21.2535,            0.,NA,NA,"",   72.6365E-03,  -21.7770E-03,   69.2952E-03,   20.6883E-03
C:/temp/dataset/2/24_9.odb,Step-1,Increment      4: Step Time =    1.000,"PART-1-1",           612,       11.2827,       3.26092,            0.,NA,NA,"",       3.37103,      -2.05704,       2.67066,   6.57517E-03
C:/temp/dataset/2/24_9.odb,Step-1,Increment      4: Step Time =    1.000,"PART-1-1",           613,      -11.4502,      -4.36864,            0.,NA,NA,"",   952.607E-03,  -947.093E-03,  -102.352E-03,   8.36318E-03
C:/temp/dataset/2/24_9.odb,Step-1,Increment      4: Step Time =    1.000,"PART-1-1",           614,      -10.8693,      -24.5529,            0.,NA,NA,"",   17.2875E-03,   17.2798E-03,  -515.907E-06,   5.89828E-03
C:/temp/dataset/2/24_9.odb,Step-1,Increment      4: Step Time =    1.000,"PART-1-1",           615,      -9.52531,      -23.3517,            0.,NA,NA,"",   21.9375E-03,   12.5698E-03,   17.9793E-03,   7.79574E-03
C:/temp/dataset/2/24_9.odb,Step-1,Increment      4: Step Time =    1.000,"PART-1-1",           616,      -10.8903,      -21.7518,            0.,NA,NA,"",   3.77128E-03,   3.25703E-03,  -1.90114E-03,   6.22936E-03
C:/temp/dataset/2/24_9.odb,Step-1,Increment      4: Step Time =    1.000,"PART-1-1",           617,       3.33333,          -20.,            0.,NA,NA,"",   7.69213E-03,  -7.59425E-03,   1.22322E-03,   588.192E-06
C:/temp/dataset/2/24_9.odb,Step-1,Increment      4: Step Time =    1.000,"PART-1-1",           618,       1.83446,      -21.2108,            0.,NA,NA,"",   10.2126E-03,  -9.39733E-03,   3.99834E-03,   586.890E-06
C:/temp/dataset/2/24_9.odb,Step-1,Increment      4: Step Time =    1.000,"PART-1-1",           619,       5.12744,      -21.2153,            0.,NA,NA,"",   9.05077E-03,  -9.03664E-03,  -505.428E-06,   128.548E-06
C:/temp/dataset/2/24_9.odb,Step-1,Increment      4: Step Time =    1.000,"PART-1-1",           620,            0.,          -20.,            0.,NA,NA,"",   11.3242E-03,  -4.88183E-03,   10.2179E-03,   777.458E-06
C:/temp/dataset/2/24_9.odb,Step-1,Increment      4: Step Time =    1.000,"PART-1-1",           621,      -1.43624,      -21.2208,            0.,NA,NA,"",   25.1147E-03,  -13.0709E-03,   21.4452E-03,   3.70265E-03
C:/temp/dataset/2/24_9.odb,Step-1,Increment      4: Step Time =    1.000,"PART-1-1",           622,   398.228E-03,      -22.4316,            0.,NA,NA,"",   16.3326E-03,  -13.2533E-03,   9.54474E-03,   2.69774E-03
C:/temp/dataset/2/24_9.odb,Step-1,Increment      4: Step Time =    1.000,"PART-1-1",           623,   770.736E-03,      -24.9188,            0.,NA,NA,"",   15.1042E-03,  -13.3725E-03,   7.02232E-03,   3.33090E-03
C:/temp/dataset/2/24_9.odb,Step-1,Increment      4: Step Time =    1.000,"PART-1-1",           624,      -3.33333,          -20.,            0.,NA,NA,"",   39.9693E-03,  -8.79175E-03,   38.9904E-03,   10.6599E-03
C:/temp/dataset/2/24_9.odb,Step-1,Increment      4: Step Time =    1.000,"PART-1-1",           625,       8.69606,       24.2205,            0.,NA,NA,"",       4.34041,      -3.56977,       2.46899,   5.87747E-03
C:/temp/dataset/2/24_9.odb,Step-1,Increment      4: Step Time =    1.000,"PART-1-1",           626,      -3.33333,            5.,            0.,NA,NA,"",       2.27080,      -2.13801,   765.127E-03,   11.0089E-03
C:/temp/dataset/2/24_9.odb,Step-1,Increment      4: Step Time =    1.000,"PART-1-1",           627,      -4.94363,       3.89105,            0.,NA,NA,"",       2.04844,      -1.96898,   564.999E-03,   10.0057E-03
C:/temp/dataset/2/24_9.odb,Step-1,Increment      4: Step Time =    1.000,"PART-1-1",           628,      -6.66667,            5.,            0.,NA,NA,"",       2.10445,      -2.07415,   355.837E-03,   12.0252E-03
C:/temp/dataset/2/24_9.odb,Step-1,Increment      4: Step Time =    1.000,"PART-1-1",           629,           10.,          -20.,            0.,NA,NA,"",   9.26754E-03,  -9.24990E-03,  -571.588E-06,   136.684E-06
C:/temp/dataset/2/24_9.odb,Step-1,Increment      4: Step Time =    1.000,"PART-1-1",           630,       8.42239,      -21.2201,            0.,NA,NA,"",   8.90229E-03,  -8.83968E-03,  -1.05400E-03,   38.3911E-06
C:/temp/dataset/2/24_9.odb,Step-1,Increment      4: Step Time =    1.000,"PART-1-1",           631,       6.66667,          -20.,            0.,NA,NA,"",   8.71699E-03,  -8.65167E-03,  -1.06513E-03,   250.843E-06
C:/temp/dataset/2/24_9.odb,Step-1,Increment      4: Step Time =    1.000,"PART-1-1",           632,       9.53008,       25.0675,            0.,NA,NA,"",       4.38896,      -3.60304,       2.50622,   5.13061E-03
