ODB Name,Step,Frame,Part Instance Name,    êﬂì_ÉâÉxÉã,X,Y,Z,Section Name,Material Name,Section Point,   U-Magnitude,          U-U1,          U-U2,       S-Mises
C:/temp/dataset/2/25_1.odb,Step-1,Increment      1: Step Time =    1.000,"PART-1-1",             1,          -15.,           20.,            0.,NA,NA,"",       2.78695,       2.68042,   763.187E-03,   42.5298E-09
C:/temp/dataset/2/25_1.odb,Step-1,Increment      1: Step Time =    1.000,"PART-1-1",             2,          -15.,           25.,            0.,NA,NA,"",       3.20999,       3.12268,   743.589E-03,   39.4642E-09
C:/temp/dataset/2/25_1.odb,Step-1,Increment      1: Step Time =    1.000,"PART-1-1",             3,          -10.,           20.,            0.,NA,NA,"",       2.68010,       2.66082,   320.926E-03,   162.779E-09
C:/temp/dataset/2/25_1.odb,Step-1,Increment      1: Step Time =    1.000,"PART-1-1",             4,           -5.,           20.,            0.,NA,NA,"",       2.64401,       2.64122,  -121.338E-03,   1.22734E-06
C:/temp/dataset/2/25_1.odb,Step-1,Increment      1: Step Time =    1.000,"PART-1-1",             5,            0.,           20.,            0.,NA,NA,"",       2.68153,       2.62163,  -563.624E-03,   11.9028E-06
C:/temp/dataset/2/25_1.odb,Step-1,Increment      1: Step Time =    1.000,"PART-1-1",             6,            5.,           20.,            0.,NA,NA,"",       2.79019,       2.60250,      -1.00606,   482.632E-06
C:/temp/dataset/2/25_1.odb,Step-1,Increment      1: Step Time =    1.000,"PART-1-1",             7,            5.,          12.5,            0.,NA,NA,"",       2.16740,       1.93313,  -980.108E-03,   1.83233E-03
C:/temp/dataset/2/25_1.odb,Step-1,Increment      1: Step Time =    1.000,"PART-1-1",             8,            5.,            5.,            0.,NA,NA,"",       1.58987,       1.25553,  -975.363E-03,   11.1291E-03
C:/temp/dataset/2/25_1.odb,Step-1,Increment      1: Step Time =    1.000,"PART-1-1",             9,           -5.,            5.,            0.,NA,NA,"",       1.23620,       1.20014,  -296.405E-03,   7.56389E-03
C:/temp/dataset/2/25_1.odb,Step-1,Increment      1: Step Time =    1.000,"PART-1-1",            10,          -15.,            5.,            0.,NA,NA,"",       1.22056,       1.18898,   275.835E-03,   295.781E-06
C:/temp/dataset/2/25_1.odb,Step-1,Increment      1: Step Time =    1.000,"PART-1-1",            11,          -15.,         -3.75,            0.,NA,NA,"",   731.705E-03,   680.151E-03,   269.791E-03,   7.54957E-03
C:/temp/dataset/2/25_1.odb,Step-1,Increment      1: Step Time =    1.000,"PART-1-1",            12,          -15.,         -12.5,            0.,NA,NA,"",   327.469E-03,   264.212E-03,   193.463E-03,   13.3626E-03
C:/temp/dataset/2/25_1.odb,Step-1,Increment      1: Step Time =    1.000,"PART-1-1",            13,          -15.,        -21.25,            0.,NA,NA,"",   92.0255E-03,   42.5229E-03,   81.6119E-03,   14.0238E-03
C:/temp/dataset/2/25_1.odb,Step-1,Increment      1: Step Time =    1.000,"PART-1-1",            14,          -15.,          -30.,            0.,NA,NA,"",            0.,   2.62589E-39,   5.00813E-39,   7.88497E-03
C:/temp/dataset/2/25_1.odb,Step-1,Increment      1: Step Time =    1.000,"PART-1-1",            15,           15.,          -30.,            0.,NA,NA,"",            0.,   576.437E-42,  -957.593E-42,   1.60299E-03
C:/temp/dataset/2/25_1.odb,Step-1,Increment      1: Step Time =    1.000,"PART-1-1",            16,           15.,          -25.,            0.,NA,NA,"",   6.78665E-03,   6.24517E-03,  -2.65641E-03,   52.8526E-06
C:/temp/dataset/2/25_1.odb,Step-1,Increment      1: Step Time =    1.000,"PART-1-1",            17,           15.,          -20.,            0.,NA,NA,"",   10.1291E-03,   9.80290E-03,  -2.54982E-03,   5.79768E-06
C:/temp/dataset/2/25_1.odb,Step-1,Increment      1: Step Time =    1.000,"PART-1-1",            18,            5.,          -20.,            0.,NA,NA,"",   9.90971E-03,   9.90201E-03,   390.449E-06,   261.356E-06
C:/temp/dataset/2/25_1.odb,Step-1,Increment      1: Step Time =    1.000,"PART-1-1",            19,           -5.,          -20.,            0.,NA,NA,"",   57.7642E-03,   30.5291E-03,  -49.0375E-03,   21.6734E-03
C:/temp/dataset/2/25_1.odb,Step-1,Increment      1: Step Time =    1.000,"PART-1-1",            20,           -5.,         -12.5,            0.,NA,NA,"",   304.145E-03,   257.233E-03,  -162.281E-03,   12.9733E-03
C:/temp/dataset/2/25_1.odb,Step-1,Increment      1: Step Time =    1.000,"PART-1-1",            21,           -5.,           -5.,            0.,NA,NA,"",   630.936E-03,   578.814E-03,  -251.107E-03,   12.5316E-03
C:/temp/dataset/2/25_1.odb,Step-1,Increment      1: Step Time =    1.000,"PART-1-1",            22,            0.,           -5.,            0.,NA,NA,"",   800.398E-03,   535.132E-03,  -595.207E-03,   6.14613E-03
C:/temp/dataset/2/25_1.odb,Step-1,Increment      1: Step Time =    1.000,"PART-1-1",            23,            5.,           -5.,            0.,NA,NA,"",       1.07887,   493.786E-03,  -959.232E-03,   5.54775E-03
C:/temp/dataset/2/25_1.odb,Step-1,Increment      1: Step Time =    1.000,"PART-1-1",            24,           10.,           -5.,            0.,NA,NA,"",       1.43021,   460.297E-03,      -1.35411,   2.03996E-03
C:/temp/dataset/2/25_1.odb,Step-1,Increment      1: Step Time =    1.000,"PART-1-1",            25,           15.,           -5.,            0.,NA,NA,"",       1.81165,   441.488E-03,      -1.75703,   153.968E-06
C:/temp/dataset/2/25_1.odb,Step-1,Increment      1: Step Time =    1.000,"PART-1-1",            26,           15.,          3.75,            0.,NA,NA,"",       2.12884,       1.13950,      -1.79819,   4.10006E-03
C:/temp/dataset/2/25_1.odb,Step-1,Increment      1: Step Time =    1.000,"PART-1-1",            27,           15.,          12.5,            0.,NA,NA,"",       2.65208,       1.89214,      -1.85832,   1.75978E-03
C:/temp/dataset/2/25_1.odb,Step-1,Increment      1: Step Time =    1.000,"PART-1-1",            28,           15.,         21.25,            0.,NA,NA,"",       3.27690,       2.67225,      -1.89662,   139.342E-06
C:/temp/dataset/2/25_1.odb,Step-1,Increment      1: Step Time =    1.000,"PART-1-1",            29,           15.,           30.,            0.,NA,NA,"",       3.95145,       3.44772,      -1.93059,   4.17905E-06
C:/temp/dataset/2/25_1.odb,Step-1,Increment      1: Step Time =    1.000,"PART-1-1",            30,           7.5,           30.,            0.,NA,NA,"",       3.70037,       3.47697,      -1.26626,   62.6670E-06
C:/temp/dataset/2/25_1.odb,Step-1,Increment      1: Step Time =    1.000,"PART-1-1",            31,            0.,           30.,            0.,NA,NA,"",       3.55759,       3.50615,  -602.775E-03,   5.01330E-06
C:/temp/dataset/2/25_1.odb,Step-1,Increment      1: Step Time =    1.000,"PART-1-1",            32,          -7.5,           30.,            0.,NA,NA,"",       3.53606,       3.53554,   60.5987E-03,   403.284E-09
C:/temp/dataset/2/25_1.odb,Step-1,Increment      1: Step Time =    1.000,"PART-1-1",            33,          -15.,           30.,            0.,NA,NA,"",       3.63771,       3.56494,   723.991E-03,   37.7834E-09
C:/temp/dataset/2/25_1.odb,Step-1,Increment      1: Step Time =    1.000,"PART-1-1",            34,          -15.,          22.5,            0.,NA,NA,"",       2.99776,       2.90155,   753.388E-03,   29.4028E-09
C:/temp/dataset/2/25_1.odb,Step-1,Increment      1: Step Time =    1.000,"PART-1-1",            35,         -12.5,           20.,            0.,NA,NA,"",       2.72507,       2.67062,   542.056E-03,   26.3523E-09
C:/temp/dataset/2/25_1.odb,Step-1,Increment      1: Step Time =    1.000,"PART-1-1",            36,          -7.5,           20.,            0.,NA,NA,"",       2.65290,       2.65102,   99.7945E-03,   393.639E-09
C:/temp/dataset/2/25_1.odb,Step-1,Increment      1: Step Time =    1.000,"PART-1-1",            37,          -2.5,           20.,            0.,NA,NA,"",       2.65361,       2.63142,  -342.474E-03,   2.80132E-06
C:/temp/dataset/2/25_1.odb,Step-1,Increment      1: Step Time =    1.000,"PART-1-1",            38,           2.5,           20.,            0.,NA,NA,"",       2.72718,       2.61181,  -784.826E-03,   69.7385E-06
C:/temp/dataset/2/25_1.odb,Step-1,Increment      1: Step Time =    1.000,"PART-1-1",            39,            5.,           15.,            0.,NA,NA,"",       2.37387,       2.15858,  -987.833E-03,   1.22843E-03
C:/temp/dataset/2/25_1.odb,Step-1,Increment      1: Step Time =    1.000,"PART-1-1",            40,            5.,          17.5,            0.,NA,NA,"",       2.58200,       2.38190,  -996.639E-03,   1.03856E-03
C:/temp/dataset/2/25_1.odb,Step-1,Increment      1: Step Time =    1.000,"PART-1-1",            41,            5.,           7.5,            0.,NA,NA,"",       1.77499,       1.48535,  -971.762E-03,   4.63652E-03
C:/temp/dataset/2/25_1.odb,Step-1,Increment      1: Step Time =    1.000,"PART-1-1",            42,            5.,           10.,            0.,NA,NA,"",       1.96684,       1.70809,  -975.147E-03,   2.51553E-03
C:/temp/dataset/2/25_1.odb,Step-1,Increment      1: Step Time =    1.000,"PART-1-1",            43,      -1.66667,            5.,            0.,NA,NA,"",       1.31985,       1.21752,  -509.554E-03,   8.16685E-03
C:/temp/dataset/2/25_1.odb,Step-1,Increment      1: Step Time =    1.000,"PART-1-1",            44,       1.66667,            5.,            0.,NA,NA,"",       1.43792,       1.23378,  -738.498E-03,   8.48798E-03
C:/temp/dataset/2/25_1.odb,Step-1,Increment      1: Step Time =    1.000,"PART-1-1",            45,      -11.6667,            5.,            0.,NA,NA,"",       1.18728,       1.18410,   86.7299E-03,   1.11777E-03
C:/temp/dataset/2/25_1.odb,Step-1,Increment      1: Step Time =    1.000,"PART-1-1",            46,      -8.33333,            5.,            0.,NA,NA,"",       1.19140,       1.18717,  -100.250E-03,   4.63875E-03
C:/temp/dataset/2/25_1.odb,Step-1,Increment      1: Step Time =    1.000,"PART-1-1",            47,          -15.,  -833.333E-03,            0.,NA,NA,"",   893.374E-03,   848.456E-03,   279.712E-03,   4.04752E-03
C:/temp/dataset/2/25_1.odb,Step-1,Increment      1: Step Time =    1.000,"PART-1-1",            48,          -15.,       2.08333,            0.,NA,NA,"",       1.05819,       1.02035,   280.445E-03,   872.386E-06
C:/temp/dataset/2/25_1.odb,Step-1,Increment      1: Step Time =    1.000,"PART-1-1",            49,          -15.,      -9.58333,            0.,NA,NA,"",   444.847E-03,   384.171E-03,   224.281E-03,   11.9971E-03
C:/temp/dataset/2/25_1.odb,Step-1,Increment      1: Step Time =    1.000,"PART-1-1",            50,          -15.,      -6.66667,            0.,NA,NA,"",   580.315E-03,   523.558E-03,   250.305E-03,   10.2589E-03
C:/temp/dataset/2/25_1.odb,Step-1,Increment      1: Step Time =    1.000,"PART-1-1",            51,          -15.,      -18.3333,            0.,NA,NA,"",   150.788E-03,   91.2272E-03,   120.061E-03,   14.9997E-03
C:/temp/dataset/2/25_1.odb,Step-1,Increment      1: Step Time =    1.000,"PART-1-1",            52,          -15.,      -15.4167,            0.,NA,NA,"",   229.176E-03,   165.649E-03,   158.373E-03,   14.6547E-03
C:/temp/dataset/2/25_1.odb,Step-1,Increment      1: Step Time =    1.000,"PART-1-1",            53,          -15.,      -27.0833,            0.,NA,NA,"",   21.7583E-03,   6.49300E-03,   20.7669E-03,   9.51283E-03
C:/temp/dataset/2/25_1.odb,Step-1,Increment      1: Step Time =    1.000,"PART-1-1",            54,          -15.,      -24.1667,            0.,NA,NA,"",   50.7305E-03,   16.6376E-03,   47.9247E-03,   11.6451E-03
C:/temp/dataset/2/25_1.odb,Step-1,Increment      1: Step Time =    1.000,"PART-1-1",            55,           12.,          -30.,            0.,NA,NA,"",            0.,   1.43574E-39,  -1.21624E-39,   747.882E-06
C:/temp/dataset/2/25_1.odb,Step-1,Increment      1: Step Time =    1.000,"PART-1-1",            56,            9.,          -30.,            0.,NA,NA,"",            0.,   1.30641E-39,   188.675E-42,   1.08879E-03
C:/temp/dataset/2/25_1.odb,Step-1,Increment      1: Step Time =    1.000,"PART-1-1",            57,            6.,          -30.,            0.,NA,NA,"",            0.,   2.41520E-39,  -2.22299E-39,   1.49875E-03
C:/temp/dataset/2/25_1.odb,Step-1,Increment      1: Step Time =    1.000,"PART-1-1",            58,            3.,          -30.,            0.,NA,NA,"",            0.,   2.30480E-39,  -1.22026E-39,   2.05147E-03
C:/temp/dataset/2/25_1.odb,Step-1,Increment      1: Step Time =    1.000,"PART-1-1",            59,            0.,          -30.,            0.,NA,NA,"",            0.,   3.90171E-39,  -5.64882E-39,   2.53068E-03
C:/temp/dataset/2/25_1.odb,Step-1,Increment      1: Step Time =    1.000,"PART-1-1",            60,           -3.,          -30.,            0.,NA,NA,"",            0.,   2.89051E-39,  -6.84739E-39,   2.49127E-03
C:/temp/dataset/2/25_1.odb,Step-1,Increment      1: Step Time =    1.000,"PART-1-1",            61,           -6.,          -30.,            0.,NA,NA,"",            0.,  -330.349E-42,  -4.34782E-39,   2.05618E-03
C:/temp/dataset/2/25_1.odb,Step-1,Increment      1: Step Time =    1.000,"PART-1-1",            62,           -9.,          -30.,            0.,NA,NA,"",            0.,  -3.61224E-39,  -674.979E-42,   2.64346E-03
C:/temp/dataset/2/25_1.odb,Step-1,Increment      1: Step Time =    1.000,"PART-1-1",            63,          -12.,          -30.,            0.,NA,NA,"",            0.,   412.199E-42,   9.77675E-39,   4.39586E-03
C:/temp/dataset/2/25_1.odb,Step-1,Increment      1: Step Time =    1.000,"PART-1-1",            64,           15.,         -27.5,            0.,NA,NA,"",   4.20014E-03,   3.53460E-03,  -2.26886E-03,   556.577E-06
C:/temp/dataset/2/25_1.odb,Step-1,Increment      1: Step Time =    1.000,"PART-1-1",            65,           15.,         -22.5,            0.,NA,NA,"",   8.64290E-03,   8.24413E-03,  -2.59499E-03,   42.1031E-06
C:/temp/dataset/2/25_1.odb,Step-1,Increment      1: Step Time =    1.000,"PART-1-1",            66,       8.33333,          -20.,            0.,NA,NA,"",   9.66264E-03,   9.64587E-03,   568.916E-06,   34.5165E-06
C:/temp/dataset/2/25_1.odb,Step-1,Increment      1: Step Time =    1.000,"PART-1-1",            67,       11.6667,          -20.,            0.,NA,NA,"",   9.73167E-03,   9.71377E-03,  -589.988E-06,   47.9618E-06
C:/temp/dataset/2/25_1.odb,Step-1,Increment      1: Step Time =    1.000,"PART-1-1",            68,      -1.66667,          -20.,            0.,NA,NA,"",   17.9215E-03,   12.7188E-03,  -12.6259E-03,   4.46991E-03
C:/temp/dataset/2/25_1.odb,Step-1,Increment      1: Step Time =    1.000,"PART-1-1",            69,       1.66667,          -20.,            0.,NA,NA,"",   11.0177E-03,   10.6927E-03,  -2.65614E-03,   703.031E-06
C:/temp/dataset/2/25_1.odb,Step-1,Increment      1: Step Time =    1.000,"PART-1-1",            70,           -5.,          -15.,            0.,NA,NA,"",   215.731E-03,   171.769E-03,  -130.520E-03,   13.8227E-03
C:/temp/dataset/2/25_1.odb,Step-1,Increment      1: Step Time =    1.000,"PART-1-1",            71,           -5.,         -17.5,            0.,NA,NA,"",   138.909E-03,   98.3066E-03,  -98.1407E-03,   17.1433E-03
C:/temp/dataset/2/25_1.odb,Step-1,Increment      1: Step Time =    1.000,"PART-1-1",            72,           -5.,          -7.5,            0.,NA,NA,"",   515.213E-03,   466.436E-03,  -218.819E-03,   11.4851E-03
C:/temp/dataset/2/25_1.odb,Step-1,Increment      1: Step Time =    1.000,"PART-1-1",            73,           -5.,          -10.,            0.,NA,NA,"",   404.400E-03,   356.003E-03,  -191.836E-03,   11.5910E-03
C:/temp/dataset/2/25_1.odb,Step-1,Increment      1: Step Time =    1.000,"PART-1-1",            74,          -2.5,           -5.,            0.,NA,NA,"",   698.279E-03,   554.781E-03,  -424.043E-03,   8.02100E-03
C:/temp/dataset/2/25_1.odb,Step-1,Increment      1: Step Time =    1.000,"PART-1-1",            75,           2.5,           -5.,            0.,NA,NA,"",   928.462E-03,   514.410E-03,  -772.932E-03,   6.43597E-03
C:/temp/dataset/2/25_1.odb,Step-1,Increment      1: Step Time =    1.000,"PART-1-1",            76,           7.5,           -5.,            0.,NA,NA,"",       1.24785,   475.171E-03,      -1.15384,   4.02576E-03
C:/temp/dataset/2/25_1.odb,Step-1,Increment      1: Step Time =    1.000,"PART-1-1",            77,          12.5,           -5.,            0.,NA,NA,"",       1.61990,   449.639E-03,      -1.55624,   426.810E-06
C:/temp/dataset/2/25_1.odb,Step-1,Increment      1: Step Time =    1.000,"PART-1-1",            78,           15.,   833.333E-03,            0.,NA,NA,"",       1.99649,   904.889E-03,      -1.77964,   2.53227E-03
C:/temp/dataset/2/25_1.odb,Step-1,Increment      1: Step Time =    1.000,"PART-1-1",            79,           15.,      -2.08333,            0.,NA,NA,"",       1.89074,   674.014E-03,      -1.76652,   580.500E-06
C:/temp/dataset/2/25_1.odb,Step-1,Increment      1: Step Time =    1.000,"PART-1-1",            80,           15.,       9.58333,            0.,NA,NA,"",       2.46146,       1.63437,      -1.84056,   3.15587E-03
C:/temp/dataset/2/25_1.odb,Step-1,Increment      1: Step Time =    1.000,"PART-1-1",            81,           15.,       6.66667,            0.,NA,NA,"",       2.28537,       1.38252,      -1.81977,   4.21170E-03
C:/temp/dataset/2/25_1.odb,Step-1,Increment      1: Step Time =    1.000,"PART-1-1",            82,           15.,       18.3333,            0.,NA,NA,"",       3.06193,       2.41273,      -1.88525,   92.8000E-06
C:/temp/dataset/2/25_1.odb,Step-1,Increment      1: Step Time =    1.000,"PART-1-1",            83,           15.,       15.4167,            0.,NA,NA,"",       2.85319,       2.15240,      -1.87293,   659.009E-06
C:/temp/dataset/2/25_1.odb,Step-1,Increment      1: Step Time =    1.000,"PART-1-1",            84,           15.,       27.0833,            0.,NA,NA,"",       3.72226,       3.18937,      -1.91914,   25.2736E-06
C:/temp/dataset/2/25_1.odb,Step-1,Increment      1: Step Time =    1.000,"PART-1-1",            85,           15.,       24.1667,            0.,NA,NA,"",       3.49721,       2.93099,      -1.90782,   89.1737E-06
C:/temp/dataset/2/25_1.odb,Step-1,Increment      1: Step Time =    1.000,"PART-1-1",            86,           10.,           30.,            0.,NA,NA,"",       3.77295,       3.46729,      -1.48763,   52.2213E-06
C:/temp/dataset/2/25_1.odb,Step-1,Increment      1: Step Time =    1.000,"PART-1-1",            87,          12.5,           30.,            0.,NA,NA,"",       3.85690,       3.45754,      -1.70911,   16.9028E-06
C:/temp/dataset/2/25_1.odb,Step-1,Increment      1: Step Time =    1.000,"PART-1-1",            88,           2.5,           30.,            0.,NA,NA,"",       3.59213,       3.49638,  -823.889E-03,   20.3583E-06
C:/temp/dataset/2/25_1.odb,Step-1,Increment      1: Step Time =    1.000,"PART-1-1",            89,            5.,           30.,            0.,NA,NA,"",       3.63989,       3.48665,      -1.04503,   45.9146E-06
C:/temp/dataset/2/25_1.odb,Step-1,Increment      1: Step Time =    1.000,"PART-1-1",            90,           -5.,           30.,            0.,NA,NA,"",       3.52940,       3.52574,  -160.531E-03,   719.096E-09
C:/temp/dataset/2/25_1.odb,Step-1,Increment      1: Step Time =    1.000,"PART-1-1",            91,          -2.5,           30.,            0.,NA,NA,"",       3.53660,       3.51594,  -381.656E-03,   504.273E-09
C:/temp/dataset/2/25_1.odb,Step-1,Increment      1: Step Time =    1.000,"PART-1-1",            92,         -12.5,           30.,            0.,NA,NA,"",       3.59053,       3.55514,   502.860E-03,   40.5042E-09
C:/temp/dataset/2/25_1.odb,Step-1,Increment      1: Step Time =    1.000,"PART-1-1",            93,          -10.,           30.,            0.,NA,NA,"",       3.55652,       3.54534,   281.729E-03,   122.389E-09
C:/temp/dataset/2/25_1.odb,Step-1,Increment      1: Step Time =    1.000,"PART-1-1",            94,          -15.,          27.5,            0.,NA,NA,"",       3.42338,       3.34381,   733.790E-03,   29.3535E-09
C:/temp/dataset/2/25_1.odb,Step-1,Increment      1: Step Time =    1.000,"PART-1-1",            95,      -12.4978,       24.9766,            0.,NA,NA,"",       3.15435,       3.11080,   522.353E-03,   70.4024E-09
C:/temp/dataset/2/25_1.odb,Step-1,Increment      1: Step Time =    1.000,"PART-1-1",            96,      -7.49872,       27.4475,            0.,NA,NA,"",       3.31052,       3.30977,   70.4894E-03,   309.073E-09
C:/temp/dataset/2/25_1.odb,Step-1,Increment      1: Step Time =    1.000,"PART-1-1",            97,      -7.50661,       22.4446,            0.,NA,NA,"",       2.86871,       2.86727,   90.7980E-03,   345.958E-09
C:/temp/dataset/2/25_1.odb,Step-1,Increment      1: Step Time =    1.000,"PART-1-1",            98,      -2.53392,       22.4091,            0.,NA,NA,"",       2.86596,       2.84464,  -348.915E-03,   3.53003E-06
C:/temp/dataset/2/25_1.odb,Step-1,Increment      1: Step Time =    1.000,"PART-1-1",            99,  -19.7467E-03,       27.3919,            0.,NA,NA,"",       3.32839,       3.27554,  -590.804E-03,   10.7123E-06
C:/temp/dataset/2/25_1.odb,Step-1,Increment      1: Step Time =    1.000,"PART-1-1",           100,       2.31326,       22.2671,            0.,NA,NA,"",       2.91842,       2.81304,  -777.141E-03,   88.5133E-06
C:/temp/dataset/2/25_1.odb,Step-1,Increment      1: Step Time =    1.000,"PART-1-1",           101,       7.89882,       27.4278,            0.,NA,NA,"",       3.49506,       3.24772,      -1.29141,   28.2257E-06
C:/temp/dataset/2/25_1.odb,Step-1,Increment      1: Step Time =    1.000,"PART-1-1",           102,       6.74061,       20.0564,            0.,NA,NA,"",       2.84722,       2.60020,      -1.16001,   467.221E-06
C:/temp/dataset/2/25_1.odb,Step-1,Increment      1: Step Time =    1.000,"PART-1-1",           103,       6.76082,       17.7755,            0.,NA,NA,"",       2.66117,       2.39808,      -1.15371,   1.09294E-03
C:/temp/dataset/2/25_1.odb,Step-1,Increment      1: Step Time =    1.000,"PART-1-1",           104,       7.34933,       13.0959,            0.,NA,NA,"",       2.30637,       1.97531,      -1.19059,   1.99517E-03
C:/temp/dataset/2/25_1.odb,Step-1,Increment      1: Step Time =    1.000,"PART-1-1",           105,       12.5251,      -2.17932,            0.,NA,NA,"",       1.70592,   674.042E-03,      -1.56711,   1.87356E-03
C:/temp/dataset/2/25_1.odb,Step-1,Increment      1: Step Time =    1.000,"PART-1-1",           106,       11.8446,      -24.9441,            0.,NA,NA,"",   6.33316E-03,   6.30284E-03,  -618.956E-06,   435.532E-06
C:/temp/dataset/2/25_1.odb,Step-1,Increment      1: Step Time =    1.000,"PART-1-1",           107,       2.44158,      -2.66949,            0.,NA,NA,"",       1.03027,   684.644E-03,  -769.883E-03,   3.13216E-03
C:/temp/dataset/2/25_1.odb,Step-1,Increment      1: Step Time =    1.000,"PART-1-1",           108,       7.46163,      -2.37632,            0.,NA,NA,"",       1.34038,   679.818E-03,      -1.15519,   3.07600E-03
C:/temp/dataset/2/25_1.odb,Step-1,Increment      1: Step Time =    1.000,"PART-1-1",           109,       7.48217,       7.95809,            0.,NA,NA,"",       1.92506,       1.51509,      -1.18759,   3.39537E-03
C:/temp/dataset/2/25_1.odb,Step-1,Increment      1: Step Time =    1.000,"PART-1-1",           110,      -5.01446,       22.4347,            0.,NA,NA,"",       2.85957,       2.85663,  -129.602E-03,   1.02532E-06
C:/temp/dataset/2/25_1.odb,Step-1,Increment      1: Step Time =    1.000,"PART-1-1",           111,  -75.1424E-03,       22.3615,            0.,NA,NA,"",       2.88688,       2.83080,  -566.231E-03,   19.5395E-06
C:/temp/dataset/2/25_1.odb,Step-1,Increment      1: Step Time =    1.000,"PART-1-1",           112,       4.50776,       22.1530,            0.,NA,NA,"",       2.95811,       2.79429,  -970.769E-03,   152.521E-06
C:/temp/dataset/2/25_1.odb,Step-1,Increment      1: Step Time =    1.000,"PART-1-1",           113,       7.06405,       15.4904,            0.,NA,NA,"",       2.48633,       2.19229,      -1.17292,   1.46074E-03
C:/temp/dataset/2/25_1.odb,Step-1,Increment      1: Step Time =    1.000,"PART-1-1",           114,       7.46285,       10.5556,            0.,NA,NA,"",       2.11485,       1.74610,      -1.19319,   2.14902E-03
C:/temp/dataset/2/25_1.odb,Step-1,Increment      1: Step Time =    1.000,"PART-1-1",           115,      -2.89738,      -2.05905,            0.,NA,NA,"",   852.107E-03,   751.808E-03,  -401.086E-03,   2.61542E-03
C:/temp/dataset/2/25_1.odb,Step-1,Increment      1: Step Time =    1.000,"PART-1-1",           116,      -7.61206,      -10.6629,            0.,NA,NA,"",   329.802E-03,   320.263E-03,  -78.7455E-03,   6.26240E-03
C:/temp/dataset/2/25_1.odb,Step-1,Increment      1: Step Time =    1.000,"PART-1-1",           117,      -6.85891,      -17.7385,            0.,NA,NA,"",   98.6691E-03,   84.7694E-03,  -50.4949E-03,   11.0860E-03
C:/temp/dataset/2/25_1.odb,Step-1,Increment      1: Step Time =    1.000,"PART-1-1",           118,       11.9280,      -27.4687,            0.,NA,NA,"",   3.42010E-03,   3.38076E-03,  -517.279E-06,   875.385E-06
C:/temp/dataset/2/25_1.odb,Step-1,Increment      1: Step Time =    1.000,"PART-1-1",           119,      -7.44747,      -13.1413,            0.,NA,NA,"",   234.793E-03,   224.530E-03,  -68.6600E-03,   7.00063E-03
C:/temp/dataset/2/25_1.odb,Step-1,Increment      1: Step Time =    1.000,"PART-1-1",           120,      -7.13169,      -15.4658,            0.,NA,NA,"",   159.917E-03,   147.756E-03,  -61.1703E-03,   8.75746E-03
C:/temp/dataset/2/25_1.odb,Step-1,Increment      1: Step Time =    1.000,"PART-1-1",           121,      -8.02089,      -5.87394,            0.,NA,NA,"",   548.966E-03,   542.464E-03,  -84.2384E-03,   3.55801E-03
C:/temp/dataset/2/25_1.odb,Step-1,Increment      1: Step Time =    1.000,"PART-1-1",           122,      -7.74476,      -8.18529,            0.,NA,NA,"",   437.919E-03,   429.279E-03,  -86.5590E-03,   5.09900E-03
C:/temp/dataset/2/25_1.odb,Step-1,Increment      1: Step Time =    1.000,"PART-1-1",           123,  -21.3834E-03,      -2.74811,            0.,NA,NA,"",   913.003E-03,   692.872E-03,  -594.560E-03,   3.79749E-03
C:/temp/dataset/2/25_1.odb,Step-1,Increment      1: Step Time =    1.000,"PART-1-1",           124,       4.94012,      -2.49525,            0.,NA,NA,"",       1.17630,   683.908E-03,  -957.053E-03,   3.12802E-03
C:/temp/dataset/2/25_1.odb,Step-1,Increment      1: Step Time =    1.000,"PART-1-1",           125,       10.0127,      -2.27482,            0.,NA,NA,"",       1.52049,   676.047E-03,      -1.36193,   2.80864E-03
C:/temp/dataset/2/25_1.odb,Step-1,Increment      1: Step Time =    1.000,"PART-1-1",           126,       10.2967,       27.4669,            0.,NA,NA,"",       3.57368,       3.24182,      -1.50392,   40.3906E-06
C:/temp/dataset/2/25_1.odb,Step-1,Increment      1: Step Time =    1.000,"PART-1-1",           127,       12.6750,       27.3103,            0.,NA,NA,"",       3.64657,       3.21862,      -1.71404,   47.4570E-06
C:/temp/dataset/2/25_1.odb,Step-1,Increment      1: Step Time =    1.000,"PART-1-1",           128,       2.52543,       27.2659,            0.,NA,NA,"",       3.35501,       3.25441,  -815.407E-03,   26.6848E-06
C:/temp/dataset/2/25_1.odb,Step-1,Increment      1: Step Time =    1.000,"PART-1-1",           129,       5.32711,       26.8707,            0.,NA,NA,"",       3.37954,       3.20846,      -1.06165,   36.5199E-06
C:/temp/dataset/2/25_1.odb,Step-1,Increment      1: Step Time =    1.000,"PART-1-1",           130,      -5.00948,       27.4462,            0.,NA,NA,"",       3.30328,       3.29989,  -149.683E-03,   367.822E-09
C:/temp/dataset/2/25_1.odb,Step-1,Increment      1: Step Time =    1.000,"PART-1-1",           131,      -2.51658,       27.4324,            0.,NA,NA,"",       3.30966,       3.28890,  -370.126E-03,   2.32595E-06
C:/temp/dataset/2/25_1.odb,Step-1,Increment      1: Step Time =    1.000,"PART-1-1",           132,      -9.99211,       27.4668,            0.,NA,NA,"",       3.33397,       3.32125,   290.960E-03,   172.533E-09
C:/temp/dataset/2/25_1.odb,Step-1,Increment      1: Step Time =    1.000,"PART-1-1",           133,       12.5029,       21.6680,            0.,NA,NA,"",       3.19463,       2.71930,      -1.67663,   44.3503E-06
C:/temp/dataset/2/25_1.odb,Step-1,Increment      1: Step Time =    1.000,"PART-1-1",           134,      -12.7198,      -9.27859,            0.,NA,NA,"",   407.122E-03,   386.411E-03,   128.198E-03,   6.56090E-03
C:/temp/dataset/2/25_1.odb,Step-1,Increment      1: Step Time =    1.000,"PART-1-1",           135,      -12.2206,      -21.4876,            0.,NA,NA,"",   49.9081E-03,   26.4107E-03,   42.3473E-03,   7.21171E-03
C:/temp/dataset/2/25_1.odb,Step-1,Increment      1: Step Time =    1.000,"PART-1-1",           136,       12.4390,       11.8581,            0.,NA,NA,"",       2.46030,       1.84334,      -1.62947,   1.82982E-03
C:/temp/dataset/2/25_1.odb,Step-1,Increment      1: Step Time =    1.000,"PART-1-1",           137,      -12.6285,      -12.0158,            0.,NA,NA,"",   292.287E-03,   270.496E-03,   110.741E-03,   6.94508E-03
C:/temp/dataset/2/25_1.odb,Step-1,Increment      1: Step Time =    1.000,"PART-1-1",           138,      -12.4213,      -14.8709,            0.,NA,NA,"",   190.382E-03,   168.800E-03,   88.0434E-03,   7.04344E-03
C:/temp/dataset/2/25_1.odb,Step-1,Increment      1: Step Time =    1.000,"PART-1-1",           139,       12.2989,       14.8029,            0.,NA,NA,"",       2.66475,       2.10754,      -1.63069,   1.22152E-03
C:/temp/dataset/2/25_1.odb,Step-1,Increment      1: Step Time =    1.000,"PART-1-1",           140,       11.7182,       18.2155,            0.,NA,NA,"",       2.89355,       2.41526,      -1.59347,   530.659E-06
C:/temp/dataset/2/25_1.odb,Step-1,Increment      1: Step Time =    1.000,"PART-1-1",           141,      -12.3380,      -4.01281,            0.,NA,NA,"",   667.086E-03,   654.655E-03,   128.178E-03,   5.37352E-03
C:/temp/dataset/2/25_1.odb,Step-1,Increment      1: Step Time =    1.000,"PART-1-1",           142,       12.5089,       6.21106,            0.,NA,NA,"",       2.09712,       1.34908,      -1.60559,   2.30446E-03
C:/temp/dataset/2/25_1.odb,Step-1,Increment      1: Step Time =    1.000,"PART-1-1",           143,      -10.9765,      -1.21375,            0.,NA,NA,"",   817.274E-03,   815.110E-03,   59.4367E-03,   5.62135E-03
C:/temp/dataset/2/25_1.odb,Step-1,Increment      1: Step Time =    1.000,"PART-1-1",           144,      -11.4273,       2.02370,            0.,NA,NA,"",       1.01415,       1.01102,   79.5759E-03,   3.74409E-03
C:/temp/dataset/2/25_1.odb,Step-1,Increment      1: Step Time =    1.000,"PART-1-1",           145,      -12.7154,      -6.64001,            0.,NA,NA,"",   532.558E-03,   514.043E-03,   139.203E-03,   6.07644E-03
C:/temp/dataset/2/25_1.odb,Step-1,Increment      1: Step Time =    1.000,"PART-1-1",           146,      -11.7762,      -18.1315,            0.,NA,NA,"",   95.8271E-03,   79.2105E-03,   53.9306E-03,   6.10191E-03
C:/temp/dataset/2/25_1.odb,Step-1,Increment      1: Step Time =    1.000,"PART-1-1",           147,      -12.2481,      -24.4184,            0.,NA,NA,"",   26.1083E-03,   4.53081E-03,   25.7122E-03,   6.62247E-03
C:/temp/dataset/2/25_1.odb,Step-1,Increment      1: Step Time =    1.000,"PART-1-1",           148,       12.5340,       3.42208,            0.,NA,NA,"",       1.94537,       1.11763,      -1.59229,   2.43240E-03
C:/temp/dataset/2/25_1.odb,Step-1,Increment      1: Step Time =    1.000,"PART-1-1",           149,       12.5428,   630.306E-03,            0.,NA,NA,"",       1.81525,   894.720E-03,      -1.57943,   2.62400E-03
C:/temp/dataset/2/25_1.odb,Step-1,Increment      1: Step Time =    1.000,"PART-1-1",           150,       12.5001,       9.03097,            0.,NA,NA,"",       2.27204,       1.59267,      -1.62036,   2.20078E-03
C:/temp/dataset/2/25_1.odb,Step-1,Increment      1: Step Time =    1.000,"PART-1-1",           151,       12.7192,       24.5718,            0.,NA,NA,"",       3.43084,       2.97592,      -1.70721,   56.3502E-06
C:/temp/dataset/2/25_1.odb,Step-1,Increment      1: Step Time =    1.000,"PART-1-1",           152,       2.66783,      -27.4286,            0.,NA,NA,"",   6.42885E-03,   6.27050E-03,  -1.41809E-03,   1.82770E-03
C:/temp/dataset/2/25_1.odb,Step-1,Increment      1: Step Time =    1.000,"PART-1-1",           153,       8.86089,      -27.4494,            0.,NA,NA,"",   3.94751E-03,   3.94408E-03,  -164.543E-06,   993.453E-06
C:/temp/dataset/2/25_1.odb,Step-1,Increment      1: Step Time =    1.000,"PART-1-1",           154,       5.76511,      -27.4328,            0.,NA,NA,"",   5.08254E-03,   5.06573E-03,  -413.137E-06,   1.31685E-03
C:/temp/dataset/2/25_1.odb,Step-1,Increment      1: Step Time =    1.000,"PART-1-1",           155,  -414.647E-03,      -27.4330,            0.,NA,NA,"",   7.46303E-03,   6.52220E-03,  -3.62736E-03,   2.73296E-03
C:/temp/dataset/2/25_1.odb,Step-1,Increment      1: Step Time =    1.000,"PART-1-1",           156,      -3.42691,      -27.4460,            0.,NA,NA,"",   7.27663E-03,   3.98029E-03,  -6.09153E-03,   3.75050E-03
C:/temp/dataset/2/25_1.odb,Step-1,Increment      1: Step Time =    1.000,"PART-1-1",           157,      -6.36574,      -27.4272,            0.,NA,NA,"",   5.33493E-03,  -1.16631E-03,  -5.20588E-03,   3.39699E-03
C:/temp/dataset/2/25_1.odb,Step-1,Increment      1: Step Time =    1.000,"PART-1-1",           158,       10.5238,       25.0033,            0.,NA,NA,"",       3.38089,       3.02279,      -1.51432,   45.4863E-06
C:/temp/dataset/2/25_1.odb,Step-1,Increment      1: Step Time =    1.000,"PART-1-1",           159,       6.26912,       22.1485,            0.,NA,NA,"",       3.00590,       2.78687,      -1.12639,   91.0799E-06
C:/temp/dataset/2/25_1.odb,Step-1,Increment      1: Step Time =    1.000,"PART-1-1",           160,      -5.96402,      -2.70245,            0.,NA,NA,"",   747.528E-03,   718.659E-03,  -205.739E-03,   5.01989E-03
C:/temp/dataset/2/25_1.odb,Step-1,Increment      1: Step Time =    1.000,"PART-1-1",           161,      -12.5033,       22.4816,            0.,NA,NA,"",       2.93881,       2.89014,   532.618E-03,   75.6514E-09
C:/temp/dataset/2/25_1.odb,Step-1,Increment      1: Step Time =    1.000,"PART-1-1",           162,      -2.53325,       24.9024,            0.,NA,NA,"",       3.08610,       3.06518,  -358.742E-03,   3.98431E-06
C:/temp/dataset/2/25_1.odb,Step-1,Increment      1: Step Time =    1.000,"PART-1-1",           163,       4.43197,       24.4161,            0.,NA,NA,"",       3.14882,       2.99476,  -972.865E-03,   52.4620E-06
C:/temp/dataset/2/25_1.odb,Step-1,Increment      1: Step Time =    1.000,"PART-1-1",           164,      -10.2797,      -8.84555,            0.,NA,NA,"",   400.261E-03,   399.459E-03,   25.3287E-03,   2.30596E-03
C:/temp/dataset/2/25_1.odb,Step-1,Increment      1: Step Time =    1.000,"PART-1-1",           165,       2.21534,  -332.134E-03,            0.,NA,NA,"",       1.14131,   854.285E-03,  -756.833E-03,   961.463E-06
C:/temp/dataset/2/25_1.odb,Step-1,Increment      1: Step Time =    1.000,"PART-1-1",           166,  -74.2209E-03,       24.8536,            0.,NA,NA,"",       3.10512,       3.05121,  -576.057E-03,   13.5043E-06
C:/temp/dataset/2/25_1.odb,Step-1,Increment      1: Step Time =    1.000,"PART-1-1",           167,       2.30693,       24.7164,            0.,NA,NA,"",       3.13003,       3.02970,  -786.126E-03,   43.4794E-06
C:/temp/dataset/2/25_1.odb,Step-1,Increment      1: Step Time =    1.000,"PART-1-1",           168,       9.79368,       13.9045,            0.,NA,NA,"",       2.47593,       2.03700,      -1.40743,   1.72574E-03
C:/temp/dataset/2/25_1.odb,Step-1,Increment      1: Step Time =    1.000,"PART-1-1",           169,       9.30777,       16.4521,            0.,NA,NA,"",       2.65165,       2.26788,      -1.37403,   1.18245E-03
C:/temp/dataset/2/25_1.odb,Step-1,Increment      1: Step Time =    1.000,"PART-1-1",           170,      -2.35985,       1.11806,            0.,NA,NA,"",       1.05832,   959.970E-03,  -445.535E-03,   2.57272E-03
C:/temp/dataset/2/25_1.odb,Step-1,Increment      1: Step Time =    1.000,"PART-1-1",           171,      -9.94133,      -13.9778,            0.,NA,NA,"",   193.392E-03,   192.771E-03,   15.4820E-03,   2.07577E-03
C:/temp/dataset/2/25_1.odb,Step-1,Increment      1: Step Time =    1.000,"PART-1-1",           172,       4.80988,   33.7751E-03,            0.,NA,NA,"",       1.29123,   873.159E-03,  -951.249E-03,   1.89783E-03
C:/temp/dataset/2/25_1.odb,Step-1,Increment      1: Step Time =    1.000,"PART-1-1",           173,       9.94126,       11.1894,            0.,NA,NA,"",       2.28069,       1.79260,      -1.41002,   1.98518E-03
C:/temp/dataset/2/25_1.odb,Step-1,Increment      1: Step Time =    1.000,"PART-1-1",           174,       7.43598,   226.782E-03,            0.,NA,NA,"",       1.45430,   878.692E-03,      -1.15883,   3.17288E-03
C:/temp/dataset/2/25_1.odb,Step-1,Increment      1: Step Time =    1.000,"PART-1-1",           175,      -7.50368,       24.9336,            0.,NA,NA,"",       3.08848,       3.08743,   80.7825E-03,   359.592E-09
C:/temp/dataset/2/25_1.odb,Step-1,Increment      1: Step Time =    1.000,"PART-1-1",           176,      -10.1536,      -11.3797,            0.,NA,NA,"",   290.605E-03,   289.827E-03,   21.2472E-03,   2.13699E-03
C:/temp/dataset/2/25_1.odb,Step-1,Increment      1: Step Time =    1.000,"PART-1-1",           177,       6.92724,       24.6415,            0.,NA,NA,"",       3.23356,       3.00488,      -1.19443,   46.3968E-06
C:/temp/dataset/2/25_1.odb,Step-1,Increment      1: Step Time =    1.000,"PART-1-1",           178,      -9.99868,       24.9580,            0.,NA,NA,"",       3.11398,       3.09936,   301.375E-03,   183.782E-09
C:/temp/dataset/2/25_1.odb,Step-1,Increment      1: Step Time =    1.000,"PART-1-1",           179,       8.37028,       18.0705,            0.,NA,NA,"",       2.74280,       2.41674,      -1.29704,   824.401E-06
C:/temp/dataset/2/25_1.odb,Step-1,Increment      1: Step Time =    1.000,"PART-1-1",           180,      -10.4068,      -6.54987,            0.,NA,NA,"",   512.373E-03,   511.443E-03,   30.8614E-03,   3.47733E-03
C:/temp/dataset/2/25_1.odb,Step-1,Increment      1: Step Time =    1.000,"PART-1-1",           181,      -8.52723,      -17.8680,            0.,NA,NA,"",   79.6828E-03,   78.4590E-03,  -13.9113E-03,   4.16821E-03
C:/temp/dataset/2/25_1.odb,Step-1,Increment      1: Step Time =    1.000,"PART-1-1",           182,       9.99063,       8.47585,            0.,NA,NA,"",       2.09198,       1.55136,      -1.40344,   2.17419E-03
C:/temp/dataset/2/25_1.odb,Step-1,Increment      1: Step Time =    1.000,"PART-1-1",           183,      -6.87511,      -22.3968,            0.,NA,NA,"",   26.2224E-03,   13.1073E-03,  -22.7115E-03,   6.77914E-03
C:/temp/dataset/2/25_1.odb,Step-1,Increment      1: Step Time =    1.000,"PART-1-1",           184,       7.48189,       5.34092,            0.,NA,NA,"",       1.74520,       1.28569,      -1.18014,   3.29487E-03
C:/temp/dataset/2/25_1.odb,Step-1,Increment      1: Step Time =    1.000,"PART-1-1",           185,       10.0207,   425.902E-03,            0.,NA,NA,"",       1.63224,   885.871E-03,      -1.37093,   3.13691E-03
C:/temp/dataset/2/25_1.odb,Step-1,Increment      1: Step Time =    1.000,"PART-1-1",           186,      -8.86720,      -3.63325,            0.,NA,NA,"",   668.968E-03,   667.337E-03,  -46.6859E-03,   5.14374E-03
C:/temp/dataset/2/25_1.odb,Step-1,Increment      1: Step Time =    1.000,"PART-1-1",           187,       10.0155,       5.77118,            0.,NA,NA,"",       1.91773,       1.31735,      -1.39366,   1.75685E-03
C:/temp/dataset/2/25_1.odb,Step-1,Increment      1: Step Time =    1.000,"PART-1-1",           188,       9.07540,       20.2179,            0.,NA,NA,"",       2.94161,       2.60453,      -1.36730,   339.890E-06
C:/temp/dataset/2/25_1.odb,Step-1,Increment      1: Step Time =    1.000,"PART-1-1",           189,       5.51479,      -24.9218,            0.,NA,NA,"",   8.46081E-03,   8.45490E-03,  -316.073E-06,   1.03600E-03
C:/temp/dataset/2/25_1.odb,Step-1,Increment      1: Step Time =    1.000,"PART-1-1",           190,       2.33502,      -24.9114,            0.,NA,NA,"",   10.8913E-03,   10.5864E-03,  -2.55898E-03,   1.61309E-03
C:/temp/dataset/2/25_1.odb,Step-1,Increment      1: Step Time =    1.000,"PART-1-1",           191,      -3.83494,      -24.9465,            0.,NA,NA,"",   17.7173E-03,   9.83764E-03,  -14.7351E-03,   5.25491E-03
C:/temp/dataset/2/25_1.odb,Step-1,Increment      1: Step Time =    1.000,"PART-1-1",           192,       8.68706,      -24.9229,            0.,NA,NA,"",   7.01924E-03,   7.01908E-03,   47.1224E-06,   682.404E-06
C:/temp/dataset/2/25_1.odb,Step-1,Increment      1: Step Time =    1.000,"PART-1-1",           193,  -793.545E-03,      -24.9263,            0.,NA,NA,"",   14.5396E-03,   12.1384E-03,  -8.00369E-03,   3.56112E-03
C:/temp/dataset/2/25_1.odb,Step-1,Increment      1: Step Time =    1.000,"PART-1-1",           194,      -10.0041,       22.4687,            0.,NA,NA,"",       2.89602,       2.87920,   311.610E-03,   175.496E-09
C:/temp/dataset/2/25_1.odb,Step-1,Increment      1: Step Time =    1.000,"PART-1-1",           195,       7.76291,       22.5689,            0.,NA,NA,"",       3.08707,       2.81813,      -1.26020,   87.3267E-06
C:/temp/dataset/2/25_1.odb,Step-1,Increment      1: Step Time =    1.000,"PART-1-1",           196,       10.0314,       3.09975,            0.,NA,NA,"",       1.76467,       1.09676,      -1.38245,   2.59266E-03
C:/temp/dataset/2/25_1.odb,Step-1,Increment      1: Step Time =    1.000,"PART-1-1",           197,       7.45157,       2.78517,            0.,NA,NA,"",       1.58815,       1.07638,      -1.16775,   3.51333E-03
C:/temp/dataset/2/25_1.odb,Step-1,Increment      1: Step Time =    1.000,"PART-1-1",           198,       1.23926,       2.17480,            0.,NA,NA,"",       1.24557,       1.03353,  -695.162E-03,   4.16481E-03
C:/temp/dataset/2/25_1.odb,Step-1,Increment      1: Step Time =    1.000,"PART-1-1",           199,       5.89388,       23.8379,            0.,NA,NA,"",       3.13696,       2.93782,      -1.09987,   58.6707E-06
C:/temp/dataset/2/25_1.odb,Step-1,Increment      1: Step Time =    1.000,"PART-1-1",           200,       4.70825,       2.52712,            0.,NA,NA,"",       1.42301,       1.06046,  -948.878E-03,   2.65423E-03
C:/temp/dataset/2/25_1.odb,Step-1,Increment      1: Step Time =    1.000,"PART-1-1",           201,      -6.67563,      -24.8783,            0.,NA,NA,"",   13.4042E-03,   2.96473E-03,  -13.0722E-03,   4.78247E-03
C:/temp/dataset/2/25_1.odb,Step-1,Increment      1: Step Time =    1.000,"PART-1-1",           202,      -1.93740,       2.90022,            0.,NA,NA,"",       1.18049,       1.07809,  -480.908E-03,   5.30812E-03
C:/temp/dataset/2/25_1.odb,Step-1,Increment      1: Step Time =    1.000,"PART-1-1",           203,      -4.27328,      -22.5070,            0.,NA,NA,"",   30.5630E-03,   17.9208E-03,  -24.7577E-03,   8.56779E-03
C:/temp/dataset/2/25_1.odb,Step-1,Increment      1: Step Time =    1.000,"PART-1-1",           204,      -7.29195,  -216.826E-03,            0.,NA,NA,"",   884.359E-03,   873.095E-03,  -140.697E-03,   4.99016E-03
C:/temp/dataset/2/25_1.odb,Step-1,Increment      1: Step Time =    1.000,"PART-1-1",           205,      -4.39370,   432.763E-03,            0.,NA,NA,"",   966.897E-03,   914.728E-03,  -313.308E-03,   3.60618E-03
C:/temp/dataset/2/25_1.odb,Step-1,Increment      1: Step Time =    1.000,"PART-1-1",           206,      -1.20581,      -22.4416,            0.,NA,NA,"",   18.0342E-03,   15.3731E-03,  -9.42875E-03,   4.63277E-03
C:/temp/dataset/2/25_1.odb,Step-1,Increment      1: Step Time =    1.000,"PART-1-1",           207,      -4.88725,       2.78210,            0.,NA,NA,"",       1.10295,       1.06331,  -293.022E-03,   4.81072E-03
C:/temp/dataset/2/25_1.odb,Step-1,Increment      1: Step Time =    1.000,"PART-1-1",           208,      -8.02678,       2.39768,            0.,NA,NA,"",       1.03976,       1.03409,  -108.379E-03,   4.69789E-03
C:/temp/dataset/2/25_1.odb,Step-1,Increment      1: Step Time =    1.000,"PART-1-1",           209,       8.51144,      -22.4401,            0.,NA,NA,"",   8.86845E-03,   8.86019E-03,   382.650E-06,   367.527E-06
C:/temp/dataset/2/25_1.odb,Step-1,Increment      1: Step Time =    1.000,"PART-1-1",           210,       5.25488,      -22.4306,            0.,NA,NA,"",   10.0150E-03,   10.0136E-03,   165.111E-06,   662.604E-06
C:/temp/dataset/2/25_1.odb,Step-1,Increment      1: Step Time =    1.000,"PART-1-1",           211,       2.00226,      -22.4217,            0.,NA,NA,"",   12.6204E-03,   12.3891E-03,  -2.40507E-03,   1.58400E-03
C:/temp/dataset/2/25_1.odb,Step-1,Increment      1: Step Time =    1.000,"PART-1-1",           212,      -9.28570,      -27.3600,            0.,NA,NA,"",   4.88459E-03,  -4.75900E-03,   1.10049E-03,   1.94099E-03
C:/temp/dataset/2/25_1.odb,Step-1,Increment      1: Step Time =    1.000,"PART-1-1",           213,       11.7596,      -22.4488,            0.,NA,NA,"",   8.36822E-03,   8.34386E-03,  -638.037E-06,   121.424E-06
C:/temp/dataset/2/25_1.odb,Step-1,Increment      1: Step Time =    1.000,"PART-1-1",           214,      -12.4952,       27.4851,            0.,NA,NA,"",       3.37182,       3.33268,   512.294E-03,   70.0766E-09
C:/temp/dataset/2/25_1.odb,Step-1,Increment      1: Step Time =    1.000,"PART-1-1",           215,      -12.1608,      -27.2494,            0.,NA,NA,"",   11.4273E-03,  -2.15666E-03,   11.2219E-03,   5.70292E-03
C:/temp/dataset/2/25_1.odb,Step-1,Increment      1: Step Time =    1.000,"PART-1-1",           216,      -6.92277,      -20.0189,            0.,NA,NA,"",   48.1570E-03,   34.6708E-03,  -33.4221E-03,   5.86855E-03
C:/temp/dataset/2/25_1.odb,Step-1,Increment      1: Step Time =    1.000,"PART-1-1",           217,       10.3403,       22.5364,            0.,NA,NA,"",       3.17539,       2.80498,      -1.48835,   70.6979E-06
C:/temp/dataset/2/25_1.odb,Step-1,Increment      1: Step Time =    1.000,"PART-1-1",           218,      -9.38591,      -16.3373,            0.,NA,NA,"",   118.807E-03,   118.783E-03,   2.40629E-03,   2.38521E-03
C:/temp/dataset/2/25_1.odb,Step-1,Increment      1: Step Time =    1.000,"PART-1-1",           219,      -9.56004,      -22.0160,            0.,NA,NA,"",   15.4475E-03,   14.7309E-03,   4.65026E-03,   3.38103E-03
C:/temp/dataset/2/25_1.odb,Step-1,Increment      1: Step Time =    1.000,"PART-1-1",           220,      -9.49058,      -24.6874,            0.,NA,NA,"",   2.64455E-03,  -291.986E-06,   2.62839E-03,   2.85687E-03
C:/temp/dataset/2/25_1.odb,Step-1,Increment      1: Step Time =    1.000,"PART-1-1",           221,  -968.003E-03,   33.9082E-03,            0.,NA,NA,"",       1.03546,   886.723E-03,  -534.689E-03,   973.086E-06
C:/temp/dataset/2/25_1.odb,Step-1,Increment      1: Step Time =    1.000,"PART-1-1",           222,   333.674E-03,      -1.00763,            0.,NA,NA,"",       1.02288,   812.310E-03,  -621.637E-03,   677.290E-06
C:/temp/dataset/2/25_1.odb,Step-1,Increment      1: Step Time =    1.000,"PART-1-1",           223,      -10.5623,      -4.72446,            0.,NA,NA,"",   610.651E-03,   609.413E-03,   38.8756E-03,   4.58234E-03
C:/temp/dataset/2/25_1.odb,Step-1,Increment      1: Step Time =    1.000,"PART-1-1",           224,      -5.01319,       24.9269,            0.,NA,NA,"",       3.08023,       3.07707,  -139.482E-03,   683.924E-09
C:/temp/dataset/2/25_1.odb,Step-1,Increment      1: Step Time =    1.000,"PART-1-1",           225,      -9.24174,      -19.5473,            0.,NA,NA,"",   45.1141E-03,   45.0969E-03,   1.24662E-03,   2.12938E-03
C:/temp/dataset/2/25_1.odb,Step-1,Increment      1: Step Time =    1.000,"PART-1-1",           226,       8.53639,       25.1316,            0.,NA,NA,"",       3.32353,       3.04195,      -1.33879,   31.3618E-06
C:/temp/dataset/2/25_1.odb,Step-1,Increment      1: Step Time =    1.000,"PART-1-1",           227,       8.85572,       23.3093,            0.,NA,NA,"",       3.18430,       2.87934,      -1.35986,   59.0260E-06
C:/temp/dataset/2/25_1.odb,Step-1,Increment      1: Step Time =    1.000,"PART-1-1",           228,      -13.7516,       22.4908,            0.,NA,NA,"",       2.96637,       2.89584,   643.003E-03,   47.2671E-09
C:/temp/dataset/2/25_1.odb,Step-1,Increment      1: Step Time =    1.000,"PART-1-1",           229,          -15.,         21.25,            0.,NA,NA,"",       2.89216,       2.79098,   758.288E-03,   32.2565E-09
C:/temp/dataset/2/25_1.odb,Step-1,Increment      1: Step Time =    1.000,"PART-1-1",           230,        -13.75,           20.,            0.,NA,NA,"",       2.75396,       2.67552,   652.622E-03,   28.6718E-09
C:/temp/dataset/2/25_1.odb,Step-1,Increment      1: Step Time =    1.000,"PART-1-1",           231,      -12.5016,       21.2408,            0.,NA,NA,"",       2.83183,       2.78038,   537.337E-03,   41.8645E-09
C:/temp/dataset/2/25_1.odb,Step-1,Increment      1: Step Time =    1.000,"PART-1-1",           232,      -9.99605,       28.7334,            0.,NA,NA,"",       3.44521,       3.43329,   286.345E-03,   108.625E-09
C:/temp/dataset/2/25_1.odb,Step-1,Increment      1: Step Time =    1.000,"PART-1-1",           233,        -11.25,           30.,            0.,NA,NA,"",       3.57185,       3.55024,   392.295E-03,   69.9712E-09
C:/temp/dataset/2/25_1.odb,Step-1,Increment      1: Step Time =    1.000,"PART-1-1",           234,      -12.4976,       28.7426,            0.,NA,NA,"",       3.48111,       3.44391,   507.577E-03,   43.1488E-09
C:/temp/dataset/2/25_1.odb,Step-1,Increment      1: Step Time =    1.000,"PART-1-1",           235,      -11.2437,       27.4760,            0.,NA,NA,"",       3.35112,       3.32696,   401.627E-03,   113.742E-09
C:/temp/dataset/2/25_1.odb,Step-1,Increment      1: Step Time =    1.000,"PART-1-1",           236,      -8.74541,       27.4572,            0.,NA,NA,"",       3.32043,       3.31551,   180.725E-03,   217.545E-09
C:/temp/dataset/2/25_1.odb,Step-1,Increment      1: Step Time =    1.000,"PART-1-1",           237,      -7.49936,       28.7238,            0.,NA,NA,"",       3.42328,       3.42266,   65.5439E-03,   218.338E-09
C:/temp/dataset/2/25_1.odb,Step-1,Increment      1: Step Time =    1.000,"PART-1-1",           238,         -8.75,           30.,            0.,NA,NA,"",       3.54458,       3.54044,   171.164E-03,   243.647E-09
C:/temp/dataset/2/25_1.odb,Step-1,Increment      1: Step Time =    1.000,"PART-1-1",           239,      -10.0020,       21.2344,            0.,NA,NA,"",       2.78801,       2.77001,   316.268E-03,   120.815E-09
C:/temp/dataset/2/25_1.odb,Step-1,Increment      1: Step Time =    1.000,"PART-1-1",           240,      -11.2537,       22.4752,            0.,NA,NA,"",       2.91539,       2.88467,   422.114E-03,   118.717E-09
C:/temp/dataset/2/25_1.odb,Step-1,Increment      1: Step Time =    1.000,"PART-1-1",           241,        -11.25,           20.,            0.,NA,NA,"",       2.70041,       2.66572,   431.491E-03,   91.1032E-09
C:/temp/dataset/2/25_1.odb,Step-1,Increment      1: Step Time =    1.000,"PART-1-1",           242,      -6.25410,       27.4469,            0.,NA,NA,"",       3.30507,       3.30483,  -39.5971E-03,   180.102E-09
C:/temp/dataset/2/25_1.odb,Step-1,Increment      1: Step Time =    1.000,"PART-1-1",           243,      -7.50120,       26.1906,            0.,NA,NA,"",       3.19949,       3.19860,   75.6358E-03,   238.674E-09
C:/temp/dataset/2/25_1.odb,Step-1,Increment      1: Step Time =    1.000,"PART-1-1",           244,      -6.25844,       24.9303,            0.,NA,NA,"",       3.08239,       3.08225,  -29.3497E-03,   336.511E-09
C:/temp/dataset/2/25_1.odb,Step-1,Increment      1: Step Time =    1.000,"PART-1-1",           245,      -5.01133,       26.1865,            0.,NA,NA,"",       3.19176,       3.18848,  -144.582E-03,   436.431E-09
C:/temp/dataset/2/25_1.odb,Step-1,Increment      1: Step Time =    1.000,"PART-1-1",           246,       1.11906,       22.3143,            0.,NA,NA,"",       2.90077,       2.82193,  -671.694E-03,   41.5723E-06
C:/temp/dataset/2/25_1.odb,Step-1,Increment      1: Step Time =    1.000,"PART-1-1",           247,  -37.5712E-03,       21.1808,            0.,NA,NA,"",       2.78412,       2.72621,  -564.924E-03,   8.79746E-06
C:/temp/dataset/2/25_1.odb,Step-1,Increment      1: Step Time =    1.000,"PART-1-1",           248,          1.25,           20.,            0.,NA,NA,"",       2.70217,       2.61671,  -674.191E-03,   27.1533E-06
C:/temp/dataset/2/25_1.odb,Step-1,Increment      1: Step Time =    1.000,"PART-1-1",           249,       2.40663,       21.1336,            0.,NA,NA,"",       2.82270,       2.71250,  -781.013E-03,   32.3624E-06
C:/temp/dataset/2/25_1.odb,Step-1,Increment      1: Step Time =    1.000,"PART-1-1",           250,  -46.9838E-03,       26.1228,            0.,NA,NA,"",       3.21672,       3.16337,  -583.428E-03,   10.6513E-06
C:/temp/dataset/2/25_1.odb,Step-1,Increment      1: Step Time =    1.000,"PART-1-1",           251,       1.11635,       24.7850,            0.,NA,NA,"",       3.11581,       3.04046,  -681.090E-03,   23.7989E-06
C:/temp/dataset/2/25_1.odb,Step-1,Increment      1: Step Time =    1.000,"PART-1-1",           252,       2.41618,       25.9912,            0.,NA,NA,"",       3.24249,       3.14205,  -800.760E-03,   29.4985E-06
C:/temp/dataset/2/25_1.odb,Step-1,Increment      1: Step Time =    1.000,"PART-1-1",           253,       1.25284,       27.3289,            0.,NA,NA,"",       3.33982,       3.26497,  -703.109E-03,   18.1654E-06
C:/temp/dataset/2/25_1.odb,Step-1,Increment      1: Step Time =    1.000,"PART-1-1",           254,       11.4216,       22.1022,            0.,NA,NA,"",       3.18333,       2.76214,      -1.58246,   55.3794E-06
C:/temp/dataset/2/25_1.odb,Step-1,Increment      1: Step Time =    1.000,"PART-1-1",           255,       9.70783,       21.3771,            0.,NA,NA,"",       3.05844,       2.70473,      -1.42776,   181.946E-06
C:/temp/dataset/2/25_1.odb,Step-1,Increment      1: Step Time =    1.000,"PART-1-1",           256,       10.3968,       19.2167,            0.,NA,NA,"",       2.91405,       2.50997,      -1.48046,   395.602E-06
C:/temp/dataset/2/25_1.odb,Step-1,Increment      1: Step Time =    1.000,"PART-1-1",           257,       12.1105,       19.9418,            0.,NA,NA,"",       3.04390,       2.56749,      -1.63504,   266.736E-06
C:/temp/dataset/2/25_1.odb,Step-1,Increment      1: Step Time =    1.000,"PART-1-1",           258,       11.6215,       24.7876,            0.,NA,NA,"",       3.40451,       2.99936,      -1.61075,   45.8101E-06
C:/temp/dataset/2/25_1.odb,Step-1,Increment      1: Step Time =    1.000,"PART-1-1",           259,       12.6971,       25.9410,            0.,NA,NA,"",       3.53828,       3.09728,      -1.71062,   47.0323E-06
C:/temp/dataset/2/25_1.odb,Step-1,Increment      1: Step Time =    1.000,"PART-1-1",           260,       11.4859,       27.3886,            0.,NA,NA,"",       3.60876,       3.23023,      -1.60897,   42.0916E-06
C:/temp/dataset/2/25_1.odb,Step-1,Increment      1: Step Time =    1.000,"PART-1-1",           261,       10.4103,       26.2351,            0.,NA,NA,"",       3.47690,       3.13231,      -1.50912,   40.3832E-06
C:/temp/dataset/2/25_1.odb,Step-1,Increment      1: Step Time =    1.000,"PART-1-1",           262,       5.88041,       17.6377,            0.,NA,NA,"",       2.62075,       2.38999,      -1.07529,   1.03650E-03
C:/temp/dataset/2/25_1.odb,Step-1,Increment      1: Step Time =    1.000,"PART-1-1",           263,       6.75071,       18.9160,            0.,NA,NA,"",       2.75399,       2.49929,      -1.15674,   777.040E-06
C:/temp/dataset/2/25_1.odb,Step-1,Increment      1: Step Time =    1.000,"PART-1-1",           264,       5.87030,       20.0282,            0.,NA,NA,"",       2.81774,       2.60136,      -1.08286,   476.528E-06
C:/temp/dataset/2/25_1.odb,Step-1,Increment      1: Step Time =    1.000,"PART-1-1",           265,            5.,         18.75,            0.,NA,NA,"",       2.68652,       2.49291,      -1.00138,   820.300E-06
C:/temp/dataset/2/25_1.odb,Step-1,Increment      1: Step Time =    1.000,"PART-1-1",           266,       12.3690,       13.3305,            0.,NA,NA,"",       2.56116,       1.97527,      -1.63028,   1.51259E-03
C:/temp/dataset/2/25_1.odb,Step-1,Increment      1: Step Time =    1.000,"PART-1-1",           267,       13.7195,       12.1790,            0.,NA,NA,"",       2.55479,       1.86770,      -1.74318,   1.59753E-03
C:/temp/dataset/2/25_1.odb,Step-1,Increment      1: Step Time =    1.000,"PART-1-1",           268,           15.,       13.9583,            0.,NA,NA,"",       2.75153,       2.02215,      -1.86596,   1.19852E-03
C:/temp/dataset/2/25_1.odb,Step-1,Increment      1: Step Time =    1.000,"PART-1-1",           269,       13.6495,       15.1098,            0.,NA,NA,"",       2.75749,       2.12995,      -1.75130,   799.021E-06
C:/temp/dataset/2/25_1.odb,Step-1,Increment      1: Step Time =    1.000,"PART-1-1",           270,       12.5214,       4.81657,            0.,NA,NA,"",       2.01848,       1.23211,      -1.59881,   2.22436E-03
C:/temp/dataset/2/25_1.odb,Step-1,Increment      1: Step Time =    1.000,"PART-1-1",           271,       13.7670,       3.58604,            0.,NA,NA,"",       2.03659,       1.12832,      -1.69546,   3.15339E-03
C:/temp/dataset/2/25_1.odb,Step-1,Increment      1: Step Time =    1.000,"PART-1-1",           272,           15.,       5.20833,            0.,NA,NA,"",       2.20433,       1.25982,      -1.80884,   4.18527E-03
C:/temp/dataset/2/25_1.odb,Step-1,Increment      1: Step Time =    1.000,"PART-1-1",           273,       13.7545,       6.43886,            0.,NA,NA,"",       2.19011,       1.36562,      -1.71221,   3.21591E-03
C:/temp/dataset/2/25_1.odb,Step-1,Increment      1: Step Time =    1.000,"PART-1-1",           274,       13.7625,      -2.13133,            0.,NA,NA,"",       1.79845,   673.864E-03,      -1.66744,   1.08144E-03
C:/temp/dataset/2/25_1.odb,Step-1,Increment      1: Step Time =    1.000,"PART-1-1",           275,       12.5125,      -3.58966,            0.,NA,NA,"",       1.65980,   562.543E-03,      -1.56156,   1.00653E-03
C:/temp/dataset/2/25_1.odb,Step-1,Increment      1: Step Time =    1.000,"PART-1-1",           276,         13.75,           -5.,            0.,NA,NA,"",       1.71564,   445.438E-03,      -1.65681,   179.027E-06
C:/temp/dataset/2/25_1.odb,Step-1,Increment      1: Step Time =    1.000,"PART-1-1",           277,           15.,      -3.54167,            0.,NA,NA,"",       1.84788,   558.051E-03,      -1.76160,   204.382E-06
C:/temp/dataset/2/25_1.odb,Step-1,Increment      1: Step Time =    1.000,"PART-1-1",           278,      -9.21387,      -6.21191,            0.,NA,NA,"",   527.275E-03,   526.661E-03,  -25.4580E-03,   2.71705E-03
C:/temp/dataset/2/25_1.odb,Step-1,Increment      1: Step Time =    1.000,"PART-1-1",           279,      -8.44405,      -4.75360,            0.,NA,NA,"",   606.272E-03,   602.632E-03,  -66.3370E-03,   3.88116E-03
C:/temp/dataset/2/25_1.odb,Step-1,Increment      1: Step Time =    1.000,"PART-1-1",           280,      -9.71477,      -4.17886,            0.,NA,NA,"",   637.959E-03,   637.951E-03,  -3.25833E-03,   4.69051E-03
C:/temp/dataset/2/25_1.odb,Step-1,Increment      1: Step Time =    1.000,"PART-1-1",           281,      -10.4846,      -5.63717,            0.,NA,NA,"",   560.715E-03,   559.636E-03,   34.7670E-03,   4.05788E-03
C:/temp/dataset/2/25_1.odb,Step-1,Increment      1: Step Time =    1.000,"PART-1-1",           282,      -5.84282,   107.969E-03,            0.,NA,NA,"",   921.371E-03,   893.488E-03,  -224.952E-03,   4.10764E-03
C:/temp/dataset/2/25_1.odb,Step-1,Increment      1: Step Time =    1.000,"PART-1-1",           283,      -4.64047,       1.60743,            0.,NA,NA,"",       1.03489,   989.518E-03,  -303.070E-03,   4.08849E-03
C:/temp/dataset/2/25_1.odb,Step-1,Increment      1: Step Time =    1.000,"PART-1-1",           284,      -6.45702,       2.58989,            0.,NA,NA,"",       1.06688,       1.04820,  -198.770E-03,   4.56557E-03
C:/temp/dataset/2/25_1.odb,Step-1,Increment      1: Step Time =    1.000,"PART-1-1",           285,      -7.65937,       1.09043,            0.,NA,NA,"",   962.248E-03,   954.145E-03,  -124.617E-03,   4.66365E-03
C:/temp/dataset/2/25_1.odb,Step-1,Increment      1: Step Time =    1.000,"PART-1-1",           286,      -6.51044,      -5.43697,            0.,NA,NA,"",   583.937E-03,   560.895E-03,  -162.416E-03,   6.06739E-03
C:/temp/dataset/2/25_1.odb,Step-1,Increment      1: Step Time =    1.000,"PART-1-1",           287,      -5.48201,      -3.85122,            0.,NA,NA,"",   686.778E-03,   648.061E-03,  -227.332E-03,   5.98968E-03
C:/temp/dataset/2/25_1.odb,Step-1,Increment      1: Step Time =    1.000,"PART-1-1",           288,      -7.41561,      -3.16785,            0.,NA,NA,"",   702.846E-03,   691.910E-03,  -123.499E-03,   4.89600E-03
C:/temp/dataset/2/25_1.odb,Step-1,Increment      1: Step Time =    1.000,"PART-1-1",           289,      -12.6742,      -10.6472,            0.,NA,NA,"",   347.433E-03,   326.200E-03,   119.597E-03,   6.76497E-03
C:/temp/dataset/2/25_1.odb,Step-1,Increment      1: Step Time =    1.000,"PART-1-1",           290,      -11.3911,      -11.6978,            0.,NA,NA,"",   287.047E-03,   279.181E-03,   66.7377E-03,   3.99338E-03
C:/temp/dataset/2/25_1.odb,Step-1,Increment      1: Step Time =    1.000,"PART-1-1",           291,      -10.2167,      -10.1126,            0.,NA,NA,"",   343.742E-03,   342.958E-03,   23.2009E-03,   2.15016E-03
C:/temp/dataset/2/25_1.odb,Step-1,Increment      1: Step Time =    1.000,"PART-1-1",           292,      -11.4997,      -9.06207,            0.,NA,NA,"",   399.714E-03,   392.216E-03,   77.0585E-03,   4.12632E-03
C:/temp/dataset/2/25_1.odb,Step-1,Increment      1: Step Time =    1.000,"PART-1-1",           293,      -13.7107,      -15.1438,            0.,NA,NA,"",   207.030E-03,   166.032E-03,   123.673E-03,   10.7841E-03
C:/temp/dataset/2/25_1.odb,Step-1,Increment      1: Step Time =    1.000,"PART-1-1",           294,      -12.5249,      -13.4434,            0.,NA,NA,"",   238.634E-03,   216.981E-03,   99.3244E-03,   6.99974E-03
C:/temp/dataset/2/25_1.odb,Step-1,Increment      1: Step Time =    1.000,"PART-1-1",           295,      -13.8143,      -12.2579,            0.,NA,NA,"",   306.884E-03,   266.426E-03,   152.298E-03,   10.1027E-03
C:/temp/dataset/2/25_1.odb,Step-1,Increment      1: Step Time =    1.000,"PART-1-1",           296,          -15.,      -13.9583,            0.,NA,NA,"",   275.881E-03,   212.101E-03,   176.419E-03,   13.9738E-03
C:/temp/dataset/2/25_1.odb,Step-1,Increment      1: Step Time =    1.000,"PART-1-1",           297,      -12.0988,      -16.5012,            0.,NA,NA,"",   138.948E-03,   119.959E-03,   70.1164E-03,   6.51817E-03
C:/temp/dataset/2/25_1.odb,Step-1,Increment      1: Step Time =    1.000,"PART-1-1",           298,      -10.5811,      -17.2344,            0.,NA,NA,"",   101.526E-03,   96.7439E-03,   30.7932E-03,   2.89410E-03
C:/temp/dataset/2/25_1.odb,Step-1,Increment      1: Step Time =    1.000,"PART-1-1",           299,      -9.66362,      -15.1575,            0.,NA,NA,"",   154.299E-03,   154.073E-03,   8.36461E-03,   2.22846E-03
C:/temp/dataset/2/25_1.odb,Step-1,Increment      1: Step Time =    1.000,"PART-1-1",           300,      -11.1813,      -14.4243,            0.,NA,NA,"",   187.253E-03,   179.577E-03,   53.0648E-03,   3.79947E-03
C:/temp/dataset/2/25_1.odb,Step-1,Increment      1: Step Time =    1.000,"PART-1-1",           301,      -10.5090,      -18.8394,            0.,NA,NA,"",   65.9369E-03,   60.7975E-03,   25.5214E-03,   3.44452E-03
C:/temp/dataset/2/25_1.odb,Step-1,Increment      1: Step Time =    1.000,"PART-1-1",           302,      -8.88448,      -18.7076,            0.,NA,NA,"",   60.6222E-03,   60.3481E-03,  -5.75808E-03,   2.52604E-03
C:/temp/dataset/2/25_1.odb,Step-1,Increment      1: Step Time =    1.000,"PART-1-1",           303,      -8.95657,      -17.1026,            0.,NA,NA,"",   98.2621E-03,   98.0410E-03,  -6.58865E-03,   3.34257E-03
C:/temp/dataset/2/25_1.odb,Step-1,Increment      1: Step Time =    1.000,"PART-1-1",           304,      -8.08225,      -19.7831,            0.,NA,NA,"",   43.4705E-03,   39.6821E-03,  -17.7486E-03,   3.50653E-03
C:/temp/dataset/2/25_1.odb,Step-1,Increment      1: Step Time =    1.000,"PART-1-1",           305,      -6.89084,      -18.8787,            0.,NA,NA,"",   67.8916E-03,   55.0520E-03,  -39.7309E-03,   7.57989E-03
C:/temp/dataset/2/25_1.odb,Step-1,Increment      1: Step Time =    1.000,"PART-1-1",           306,      -7.69307,      -17.8032,            0.,NA,NA,"",   86.7062E-03,   80.7910E-03,  -31.4768E-03,   7.05183E-03
C:/temp/dataset/2/25_1.odb,Step-1,Increment      1: Step Time =    1.000,"PART-1-1",           307,       7.10093,      -24.9223,            0.,NA,NA,"",   7.64420E-03,   7.64410E-03,   39.1323E-06,   872.328E-06
C:/temp/dataset/2/25_1.odb,Step-1,Increment      1: Step Time =    1.000,"PART-1-1",           308,       8.59925,      -23.6815,            0.,NA,NA,"",   8.07195E-03,   8.06882E-03,   224.770E-06,   521.411E-06
C:/temp/dataset/2/25_1.odb,Step-1,Increment      1: Step Time =    1.000,"PART-1-1",           309,       6.88316,      -22.4353,            0.,NA,NA,"",   9.35129E-03,   9.34041E-03,   450.832E-06,   501.752E-06
C:/temp/dataset/2/25_1.odb,Step-1,Increment      1: Step Time =    1.000,"PART-1-1",           310,       5.38484,      -23.6762,            0.,NA,NA,"",   9.50411E-03,   9.50353E-03,  -105.054E-06,   830.165E-06
C:/temp/dataset/2/25_1.odb,Step-1,Increment      1: Step Time =    1.000,"PART-1-1",           311,       13.3798,      -22.4744,            0.,NA,NA,"",   8.41229E-03,   8.26934E-03,  -1.54423E-03,   42.6416E-06
C:/temp/dataset/2/25_1.odb,Step-1,Increment      1: Step Time =    1.000,"PART-1-1",           312,           15.,        -21.25,            0.,NA,NA,"",   9.38746E-03,   9.02955E-03,  -2.56742E-03,   21.6612E-06
C:/temp/dataset/2/25_1.odb,Step-1,Increment      1: Step Time =    1.000,"PART-1-1",           313,       13.3333,          -20.,            0.,NA,NA,"",   9.89298E-03,   9.77374E-03,  -1.53132E-03,   27.3208E-06
C:/temp/dataset/2/25_1.odb,Step-1,Increment      1: Step Time =    1.000,"PART-1-1",           314,       11.7131,      -21.2244,            0.,NA,NA,"",   9.09531E-03,   9.07473E-03,  -611.512E-06,   41.4209E-06
C:/temp/dataset/2/25_1.odb,Step-1,Increment      1: Step Time =    1.000,"PART-1-1",           315,      -2.14863,       2.00914,            0.,NA,NA,"",       1.11910,       1.01882,  -463.021E-03,   3.95439E-03
C:/temp/dataset/2/25_1.odb,Step-1,Increment      1: Step Time =    1.000,"PART-1-1",           316,      -1.66393,   575.985E-03,            0.,NA,NA,"",       1.04565,   923.799E-03,  -489.867E-03,   1.81408E-03
C:/temp/dataset/2/25_1.odb,Step-1,Increment      1: Step Time =    1.000,"PART-1-1",           317,   135.628E-03,       1.10435,            0.,NA,NA,"",       1.13849,   958.795E-03,  -613.896E-03,   2.29913E-03
C:/temp/dataset/2/25_1.odb,Step-1,Increment      1: Step Time =    1.000,"PART-1-1",           318,  -349.073E-03,       2.53751,            0.,NA,NA,"",       1.20861,       1.05707,  -585.949E-03,   4.50087E-03
C:/temp/dataset/2/25_1.odb,Step-1,Increment      1: Step Time =    1.000,"PART-1-1",           319,   156.145E-03,      -1.87787,            0.,NA,NA,"",   967.225E-03,   752.390E-03,  -607.810E-03,   2.21085E-03
C:/temp/dataset/2/25_1.odb,Step-1,Increment      1: Step Time =    1.000,"PART-1-1",           320,       1.21010,      -2.70880,            0.,NA,NA,"",   968.577E-03,   688.677E-03,  -681.077E-03,   3.34390E-03
C:/temp/dataset/2/25_1.odb,Step-1,Increment      1: Step Time =    1.000,"PART-1-1",           321,       2.32846,      -1.50081,            0.,NA,NA,"",       1.08391,   769.787E-03,  -763.081E-03,   1.92352E-03
C:/temp/dataset/2/25_1.odb,Step-1,Increment      1: Step Time =    1.000,"PART-1-1",           322,       1.27451,  -669.883E-03,            0.,NA,NA,"",       1.08091,   833.070E-03,  -688.737E-03,   680.365E-06
C:/temp/dataset/2/25_1.odb,Step-1,Increment      1: Step Time =    1.000,"PART-1-1",           323,       4.87500,      -1.23074,            0.,NA,NA,"",       1.23137,   778.613E-03,  -953.961E-03,   2.23527E-03
C:/temp/dataset/2/25_1.odb,Step-1,Increment      1: Step Time =    1.000,"PART-1-1",           324,       6.20088,      -2.43579,            0.,NA,NA,"",       1.25617,   681.685E-03,      -1.05511,   3.03284E-03
C:/temp/dataset/2/25_1.odb,Step-1,Increment      1: Step Time =    1.000,"PART-1-1",           325,       7.44880,      -1.07477,            0.,NA,NA,"",       1.39493,   779.406E-03,      -1.15688,   2.94479E-03
C:/temp/dataset/2/25_1.odb,Step-1,Increment      1: Step Time =    1.000,"PART-1-1",           326,       6.12293,   130.279E-03,            0.,NA,NA,"",       1.37032,   875.946E-03,      -1.05380,   2.53058E-03
C:/temp/dataset/2/25_1.odb,Step-1,Increment      1: Step Time =    1.000,"PART-1-1",           327,          8.75,           -5.,            0.,NA,NA,"",       1.33774,   467.232E-03,      -1.25350,   3.04160E-03
C:/temp/dataset/2/25_1.odb,Step-1,Increment      1: Step Time =    1.000,"PART-1-1",           328,       10.0063,      -3.63741,            0.,NA,NA,"",       1.47240,   569.223E-03,      -1.35792,   2.08680E-03
C:/temp/dataset/2/25_1.odb,Step-1,Increment      1: Step Time =    1.000,"PART-1-1",           329,       8.73716,      -2.32557,            0.,NA,NA,"",       1.42897,   677.703E-03,      -1.25804,   2.91797E-03
C:/temp/dataset/2/25_1.odb,Step-1,Increment      1: Step Time =    1.000,"PART-1-1",           330,       7.48081,      -3.68816,            0.,NA,NA,"",       1.29116,   578.495E-03,      -1.15431,   3.22288E-03
C:/temp/dataset/2/25_1.odb,Step-1,Increment      1: Step Time =    1.000,"PART-1-1",           331,       6.24109,       7.72904,            0.,NA,NA,"",       1.84844,       1.49926,      -1.08118,   3.17746E-03
C:/temp/dataset/2/25_1.odb,Step-1,Increment      1: Step Time =    1.000,"PART-1-1",           332,            5.,          6.25,            0.,NA,NA,"",       1.68366,       1.37407,  -972.950E-03,   6.73328E-03
C:/temp/dataset/2/25_1.odb,Step-1,Increment      1: Step Time =    1.000,"PART-1-1",           333,       6.24095,       5.17046,            0.,NA,NA,"",       1.66576,       1.27085,      -1.07689,   6.04240E-03
C:/temp/dataset/2/25_1.odb,Step-1,Increment      1: Step Time =    1.000,"PART-1-1",           334,       7.48203,       6.64950,            0.,NA,NA,"",       1.83286,       1.39844,      -1.18479,   2.58106E-03
C:/temp/dataset/2/25_1.odb,Step-1,Increment      1: Step Time =    1.000,"PART-1-1",           335,       7.34508,       23.6052,            0.,NA,NA,"",       3.15961,       2.91151,      -1.22731,   55.2920E-06
C:/temp/dataset/2/25_1.odb,Step-1,Increment      1: Step Time =    1.000,"PART-1-1",           336,       6.41056,       24.2397,            0.,NA,NA,"",       3.18509,       2.97134,      -1.14714,   50.9576E-06
C:/temp/dataset/2/25_1.odb,Step-1,Increment      1: Step Time =    1.000,"PART-1-1",           337,       6.08150,       22.9932,            0.,NA,NA,"",       3.07116,       2.86233,      -1.11314,   71.0994E-06
C:/temp/dataset/2/25_1.odb,Step-1,Increment      1: Step Time =    1.000,"PART-1-1",           338,       7.01602,       22.3587,            0.,NA,NA,"",       3.04598,       2.80251,      -1.19328,   71.1819E-06
C:/temp/dataset/2/25_1.odb,Step-1,Increment      1: Step Time =    1.000,"PART-1-1",           339,      -12.5005,       23.7291,            0.,NA,NA,"",       3.04648,       3.00047,   527.485E-03,   63.6837E-09
C:/temp/dataset/2/25_1.odb,Step-1,Increment      1: Step Time =    1.000,"PART-1-1",           340,      -13.7489,       24.9883,            0.,NA,NA,"",       3.18036,       3.11674,   632.971E-03,   53.1191E-09
C:/temp/dataset/2/25_1.odb,Step-1,Increment      1: Step Time =    1.000,"PART-1-1",           341,          -15.,         23.75,            0.,NA,NA,"",       3.10372,       3.01211,   748.489E-03,   32.9223E-09
C:/temp/dataset/2/25_1.odb,Step-1,Increment      1: Step Time =    1.000,"PART-1-1",           342,      -2.52491,       26.1674,            0.,NA,NA,"",       3.19788,       3.17704,  -364.434E-03,   2.48965E-06
C:/temp/dataset/2/25_1.odb,Step-1,Increment      1: Step Time =    1.000,"PART-1-1",           343,      -1.30373,       24.8780,            0.,NA,NA,"",       3.09371,       3.05820,  -467.400E-03,   7.77780E-06
C:/temp/dataset/2/25_1.odb,Step-1,Increment      1: Step Time =    1.000,"PART-1-1",           344,      -1.26817,       27.4122,            0.,NA,NA,"",       3.31720,       3.28222,  -480.468E-03,   6.61963E-06
C:/temp/dataset/2/25_1.odb,Step-1,Increment      1: Step Time =    1.000,"PART-1-1",           345,       2.31009,       23.4917,            0.,NA,NA,"",       3.02413,       2.92137,  -781.636E-03,   36.4571E-06
C:/temp/dataset/2/25_1.odb,Step-1,Increment      1: Step Time =    1.000,"PART-1-1",           346,       3.41051,       22.2101,            0.,NA,NA,"",       2.93676,       2.80370,  -873.996E-03,   95.9660E-06
C:/temp/dataset/2/25_1.odb,Step-1,Increment      1: Step Time =    1.000,"PART-1-1",           347,       4.46987,       23.2845,            0.,NA,NA,"",       3.05327,       2.89449,  -971.799E-03,   70.7184E-06
C:/temp/dataset/2/25_1.odb,Step-1,Increment      1: Step Time =    1.000,"PART-1-1",           348,       3.36945,       24.5662,            0.,NA,NA,"",       3.13800,       3.01222,  -879.498E-03,   47.4414E-06
C:/temp/dataset/2/25_1.odb,Step-1,Increment      1: Step Time =    1.000,"PART-1-1",           349,       3.92627,       27.0683,            0.,NA,NA,"",       3.36497,       3.23144,  -938.524E-03,   32.0696E-06
C:/temp/dataset/2/25_1.odb,Step-1,Increment      1: Step Time =    1.000,"PART-1-1",           350,       5.16355,       28.4353,            0.,NA,NA,"",       3.50938,       3.34757,      -1.05334,   32.3523E-06
C:/temp/dataset/2/25_1.odb,Step-1,Increment      1: Step Time =    1.000,"PART-1-1",           351,          3.75,           30.,            0.,NA,NA,"",       3.61439,       3.49150,  -934.451E-03,   32.4319E-06
C:/temp/dataset/2/25_1.odb,Step-1,Increment      1: Step Time =    1.000,"PART-1-1",           352,       2.51272,       28.6330,            0.,NA,NA,"",       3.47349,       3.37540,  -819.645E-03,   18.1581E-06
C:/temp/dataset/2/25_1.odb,Step-1,Increment      1: Step Time =    1.000,"PART-1-1",           353,       11.0463,       14.3537,            0.,NA,NA,"",       2.56917,       2.07216,      -1.51881,   1.41000E-03
C:/temp/dataset/2/25_1.odb,Step-1,Increment      1: Step Time =    1.000,"PART-1-1",           354,       9.86747,       12.5470,            0.,NA,NA,"",       2.37711,       1.91466,      -1.40880,   1.86740E-03
C:/temp/dataset/2/25_1.odb,Step-1,Increment      1: Step Time =    1.000,"PART-1-1",           355,       11.1901,       11.5237,            0.,NA,NA,"",       2.36922,       1.81784,      -1.51943,   1.83097E-03
C:/temp/dataset/2/25_1.odb,Step-1,Increment      1: Step Time =    1.000,"PART-1-1",           356,       9.55073,       15.1783,            0.,NA,NA,"",       2.56278,       2.15255,      -1.39081,   1.43017E-03
C:/temp/dataset/2/25_1.odb,Step-1,Increment      1: Step Time =    1.000,"PART-1-1",           357,       8.18591,       15.9712,            0.,NA,NA,"",       2.56802,       2.22999,      -1.27352,   1.31465E-03
C:/temp/dataset/2/25_1.odb,Step-1,Increment      1: Step Time =    1.000,"PART-1-1",           358,       7.20669,       14.2932,            0.,NA,NA,"",       2.39564,       2.08390,      -1.18172,   1.73720E-03
C:/temp/dataset/2/25_1.odb,Step-1,Increment      1: Step Time =    1.000,"PART-1-1",           359,       8.57151,       13.5002,            0.,NA,NA,"",       2.38995,       2.00602,      -1.29912,   1.77700E-03
C:/temp/dataset/2/25_1.odb,Step-1,Increment      1: Step Time =    1.000,"PART-1-1",           360,       7.44377,       1.50598,            0.,NA,NA,"",       1.51872,   976.733E-03,      -1.16297,   3.03843E-03
C:/temp/dataset/2/25_1.odb,Step-1,Increment      1: Step Time =    1.000,"PART-1-1",           361,       8.72836,   326.342E-03,            0.,NA,NA,"",       1.54167,   882.112E-03,      -1.26436,   3.14865E-03
C:/temp/dataset/2/25_1.odb,Step-1,Increment      1: Step Time =    1.000,"PART-1-1",           362,       10.0261,       1.76283,            0.,NA,NA,"",       1.69573,   990.502E-03,      -1.37637,   2.76793E-03
C:/temp/dataset/2/25_1.odb,Step-1,Increment      1: Step Time =    1.000,"PART-1-1",           363,       8.74149,       2.94246,            0.,NA,NA,"",       1.67498,       1.08665,      -1.27466,   2.88076E-03
C:/temp/dataset/2/25_1.odb,Step-1,Increment      1: Step Time =    1.000,"PART-1-1",           364,       12.5045,       7.62102,            0.,NA,NA,"",       2.18229,       1.46982,      -1.61308,   2.18037E-03
C:/temp/dataset/2/25_1.odb,Step-1,Increment      1: Step Time =    1.000,"PART-1-1",           365,           15.,         8.125,            0.,NA,NA,"",       2.37126,       1.50749,      -1.83039,   3.69423E-03
C:/temp/dataset/2/25_1.odb,Step-1,Increment      1: Step Time =    1.000,"PART-1-1",           366,       13.7500,       9.30715,            0.,NA,NA,"",       2.36534,       1.61340,      -1.72968,   2.52178E-03
C:/temp/dataset/2/25_1.odb,Step-1,Increment      1: Step Time =    1.000,"PART-1-1",           367,      -1.45938,      -2.40358,            0.,NA,NA,"",   877.407E-03,   723.761E-03,  -495.997E-03,   2.73332E-03
C:/temp/dataset/2/25_1.odb,Step-1,Increment      1: Step Time =    1.000,"PART-1-1",           368,      -2.69869,      -3.52952,            0.,NA,NA,"",   773.521E-03,   655.439E-03,  -410.774E-03,   4.58547E-03
C:/temp/dataset/2/25_1.odb,Step-1,Increment      1: Step Time =    1.000,"PART-1-1",           369,         -1.25,           -5.,            0.,NA,NA,"",   745.976E-03,   544.601E-03,  -509.794E-03,   6.58203E-03
C:/temp/dataset/2/25_1.odb,Step-1,Increment      1: Step Time =    1.000,"PART-1-1",           370,  -10.6917E-03,      -3.87406,            0.,NA,NA,"",   854.717E-03,   613.819E-03,  -594.783E-03,   4.95998E-03
C:/temp/dataset/2/25_1.odb,Step-1,Increment      1: Step Time =    1.000,"PART-1-1",           371,      -13.3333,            5.,            0.,NA,NA,"",       1.19977,       1.18607,   180.749E-03,   407.901E-06
C:/temp/dataset/2/25_1.odb,Step-1,Increment      1: Step Time =    1.000,"PART-1-1",           372,          -15.,       3.54167,            0.,NA,NA,"",       1.13959,       1.10506,   278.414E-03,   365.548E-06
C:/temp/dataset/2/25_1.odb,Step-1,Increment      1: Step Time =    1.000,"PART-1-1",           373,      -13.2137,       2.05352,            0.,NA,NA,"",       1.03071,       1.01516,   178.372E-03,   2.04824E-03
C:/temp/dataset/2/25_1.odb,Step-1,Increment      1: Step Time =    1.000,"PART-1-1",           374,      -11.5470,       3.51185,            0.,NA,NA,"",       1.10219,       1.09904,   83.2417E-03,   2.13700E-03
C:/temp/dataset/2/25_1.odb,Step-1,Increment      1: Step Time =    1.000,"PART-1-1",           375,          -15.,      625.E-03,            0.,NA,NA,"",   975.848E-03,   934.483E-03,   281.107E-03,   2.45703E-03
C:/temp/dataset/2/25_1.odb,Step-1,Increment      1: Step Time =    1.000,"PART-1-1",           376,      -12.9883,      -1.02354,            0.,NA,NA,"",   847.542E-03,   831.025E-03,   166.507E-03,   4.06182E-03
C:/temp/dataset/2/25_1.odb,Step-1,Increment      1: Step Time =    1.000,"PART-1-1",           377,      -11.2019,   404.974E-03,            0.,NA,NA,"",   915.986E-03,   913.331E-03,   69.7029E-03,   4.65820E-03
C:/temp/dataset/2/25_1.odb,Step-1,Increment      1: Step Time =    1.000,"PART-1-1",           378,      -13.6690,      -3.88141,            0.,NA,NA,"",   695.371E-03,   666.818E-03,   197.219E-03,   6.02538E-03
C:/temp/dataset/2/25_1.odb,Step-1,Increment      1: Step Time =    1.000,"PART-1-1",           379,      -11.6573,      -2.61328,            0.,NA,NA,"",   739.465E-03,   733.347E-03,   94.9267E-03,   5.24098E-03
C:/temp/dataset/2/25_1.odb,Step-1,Increment      1: Step Time =    1.000,"PART-1-1",           380,          -15.,      -2.29167,            0.,NA,NA,"",   811.724E-03,   763.374E-03,   275.966E-03,   5.81749E-03
C:/temp/dataset/2/25_1.odb,Step-1,Increment      1: Step Time =    1.000,"PART-1-1",           381,           -5.,         -8.75,            0.,NA,NA,"",   458.890E-03,   410.404E-03,  -205.301E-03,   11.4643E-03
C:/temp/dataset/2/25_1.odb,Step-1,Increment      1: Step Time =    1.000,"PART-1-1",           382,      -6.37238,      -7.84264,            0.,NA,NA,"",   471.583E-03,   446.175E-03,  -152.705E-03,   8.04773E-03
C:/temp/dataset/2/25_1.odb,Step-1,Increment      1: Step Time =    1.000,"PART-1-1",           383,      -7.67841,      -9.42411,            0.,NA,NA,"",   382.217E-03,   373.062E-03,  -83.1516E-03,   5.46407E-03
C:/temp/dataset/2/25_1.odb,Step-1,Increment      1: Step Time =    1.000,"PART-1-1",           384,      -6.30603,      -10.3315,            0.,NA,NA,"",   362.931E-03,   337.439E-03,  -133.616E-03,   8.91101E-03
C:/temp/dataset/2/25_1.odb,Step-1,Increment      1: Step Time =    1.000,"PART-1-1",           385,      -13.6103,      -21.3688,            0.,NA,NA,"",   70.8571E-03,   33.4466E-03,   62.4664E-03,   10.4710E-03
C:/temp/dataset/2/25_1.odb,Step-1,Increment      1: Step Time =    1.000,"PART-1-1",           386,          -15.,      -22.7083,            0.,NA,NA,"",   69.5674E-03,   27.1720E-03,   64.0414E-03,   12.8097E-03
C:/temp/dataset/2/25_1.odb,Step-1,Increment      1: Step Time =    1.000,"PART-1-1",           387,      -13.6241,      -24.2925,            0.,NA,NA,"",   38.8655E-03,   9.73376E-03,   37.6269E-03,   8.96624E-03
C:/temp/dataset/2/25_1.odb,Step-1,Increment      1: Step Time =    1.000,"PART-1-1",           388,      -12.2343,      -22.9530,            0.,NA,NA,"",   36.2289E-03,   12.9871E-03,   33.8211E-03,   6.89716E-03
C:/temp/dataset/2/25_1.odb,Step-1,Increment      1: Step Time =    1.000,"PART-1-1",           389,           -5.,        -16.25,            0.,NA,NA,"",   177.122E-03,   134.840E-03,  -114.849E-03,   14.9963E-03
C:/temp/dataset/2/25_1.odb,Step-1,Increment      1: Step Time =    1.000,"PART-1-1",           390,      -6.06585,      -15.2329,            0.,NA,NA,"",   185.509E-03,   159.268E-03,  -95.1164E-03,   11.3166E-03
C:/temp/dataset/2/25_1.odb,Step-1,Increment      1: Step Time =    1.000,"PART-1-1",           391,      -6.99530,      -16.6022,            0.,NA,NA,"",   127.330E-03,   114.286E-03,  -56.1404E-03,   9.20983E-03
C:/temp/dataset/2/25_1.odb,Step-1,Increment      1: Step Time =    1.000,"PART-1-1",           392,      -5.92946,      -17.6192,            0.,NA,NA,"",   114.592E-03,   90.0530E-03,  -70.8641E-03,   13.0550E-03
C:/temp/dataset/2/25_1.odb,Step-1,Increment      1: Step Time =    1.000,"PART-1-1",           393,         -13.5,          -30.,            0.,NA,NA,"",            0.,  -1.78493E-39,   11.5791E-39,   5.51405E-03
C:/temp/dataset/2/25_1.odb,Step-1,Increment      1: Step Time =    1.000,"PART-1-1",           394,      -12.0804,      -28.6247,            0.,NA,NA,"",   5.67237E-03,  -2.88252E-03,   4.88537E-03,   4.94536E-03
C:/temp/dataset/2/25_1.odb,Step-1,Increment      1: Step Time =    1.000,"PART-1-1",           395,      -13.5804,      -27.1664,            0.,NA,NA,"",   16.6467E-03,   1.20662E-03,   16.6029E-03,   7.55672E-03
C:/temp/dataset/2/25_1.odb,Step-1,Increment      1: Step Time =    1.000,"PART-1-1",           396,          -15.,      -28.5417,            0.,NA,NA,"",   10.6960E-03,   4.97140E-03,   9.47050E-03,   8.19948E-03
C:/temp/dataset/2/25_1.odb,Step-1,Increment      1: Step Time =    1.000,"PART-1-1",           397,          13.5,          -30.,            0.,NA,NA,"",            0.,   459.025E-42,  -1.23143E-39,   1.06412E-03
C:/temp/dataset/2/25_1.odb,Step-1,Increment      1: Step Time =    1.000,"PART-1-1",           398,           15.,        -28.75,            0.,NA,NA,"",   2.26915E-03,   1.86036E-03,  -1.29926E-03,   994.377E-06
C:/temp/dataset/2/25_1.odb,Step-1,Increment      1: Step Time =    1.000,"PART-1-1",           399,       13.4640,      -27.4843,            0.,NA,NA,"",   3.37817E-03,   3.26355E-03,  -872.483E-06,   581.708E-06
C:/temp/dataset/2/25_1.odb,Step-1,Increment      1: Step Time =    1.000,"PART-1-1",           400,       11.9640,      -28.7343,            0.,NA,NA,"",   1.61070E-03,   1.59013E-03,  -256.563E-06,   831.765E-06
C:/temp/dataset/2/25_1.odb,Step-1,Increment      1: Step Time =    1.000,"PART-1-1",           401,       10.2658,      -24.9335,            0.,NA,NA,"",   6.56303E-03,   6.56070E-03,  -174.908E-06,   559.870E-06
C:/temp/dataset/2/25_1.odb,Step-1,Increment      1: Step Time =    1.000,"PART-1-1",           402,       8.77397,      -26.1861,            0.,NA,NA,"",   5.62432E-03,   5.62360E-03,  -89.7744E-06,   836.501E-06
C:/temp/dataset/2/25_1.odb,Step-1,Increment      1: Step Time =    1.000,"PART-1-1",           403,       10.3945,      -27.4590,            0.,NA,NA,"",   3.58302E-03,   3.57621E-03,  -220.763E-06,   873.385E-06
C:/temp/dataset/2/25_1.odb,Step-1,Increment      1: Step Time =    1.000,"PART-1-1",           404,       11.8863,      -26.2064,            0.,NA,NA,"",   4.96089E-03,   4.92679E-03,  -580.668E-06,   636.551E-06
C:/temp/dataset/2/25_1.odb,Step-1,Increment      1: Step Time =    1.000,"PART-1-1",           405,       8.93044,      -28.7247,            0.,NA,NA,"",   2.05168E-03,   2.04517E-03,  -163.231E-06,   1.02370E-03
C:/temp/dataset/2/25_1.odb,Step-1,Increment      1: Step Time =    1.000,"PART-1-1",           406,       7.31300,      -27.4411,            0.,NA,NA,"",   4.46586E-03,   4.46007E-03,  -227.376E-06,   1.13442E-03
C:/temp/dataset/2/25_1.odb,Step-1,Increment      1: Step Time =    1.000,"PART-1-1",           407,       5.88256,      -28.7164,            0.,NA,NA,"",   2.72825E-03,   2.71137E-03,  -303.044E-06,   1.38383E-03
C:/temp/dataset/2/25_1.odb,Step-1,Increment      1: Step Time =    1.000,"PART-1-1",           408,           7.5,          -30.,            0.,NA,NA,"",            0.,   1.41633E-39,  -730.616E-42,   1.29098E-03
C:/temp/dataset/2/25_1.odb,Step-1,Increment      1: Step Time =    1.000,"PART-1-1",           409,       5.63995,      -26.1773,            0.,NA,NA,"",   7.00408E-03,   6.99171E-03,  -416.055E-06,   1.14857E-03
C:/temp/dataset/2/25_1.odb,Step-1,Increment      1: Step Time =    1.000,"PART-1-1",           410,       3.92490,      -24.9166,            0.,NA,NA,"",   9.52014E-03,   9.46280E-03,  -1.04330E-03,   1.36069E-03
C:/temp/dataset/2/25_1.odb,Step-1,Increment      1: Step Time =    1.000,"PART-1-1",           411,       2.50142,      -26.1700,            0.,NA,NA,"",   8.91653E-03,   8.66885E-03,  -2.08697E-03,   1.73220E-03
C:/temp/dataset/2/25_1.odb,Step-1,Increment      1: Step Time =    1.000,"PART-1-1",           412,       4.21647,      -27.4307,            0.,NA,NA,"",   5.78472E-03,   5.72330E-03,  -840.731E-06,   1.53426E-03
C:/temp/dataset/2/25_1.odb,Step-1,Increment      1: Step Time =    1.000,"PART-1-1",           413,       1.12659,      -27.4308,            0.,NA,NA,"",   7.13107E-03,   6.69438E-03,  -2.45712E-03,   2.18806E-03
C:/temp/dataset/2/25_1.odb,Step-1,Increment      1: Step Time =    1.000,"PART-1-1",           414,  -207.324E-03,      -28.7165,            0.,NA,NA,"",   3.94637E-03,   3.56495E-03,  -1.69263E-03,   2.58847E-03
C:/temp/dataset/2/25_1.odb,Step-1,Increment      1: Step Time =    1.000,"PART-1-1",           415,           1.5,          -30.,            0.,NA,NA,"",            0.,   2.27170E-39,  -2.74313E-39,   2.26383E-03
C:/temp/dataset/2/25_1.odb,Step-1,Increment      1: Step Time =    1.000,"PART-1-1",           416,       2.83391,      -28.7143,            0.,NA,NA,"",   3.51508E-03,   3.42791E-03,  -777.966E-06,   1.91591E-03
C:/temp/dataset/2/25_1.odb,Step-1,Increment      1: Step Time =    1.000,"PART-1-1",           417,      -1.92078,      -27.4395,            0.,NA,NA,"",   7.66486E-03,   5.76329E-03,  -5.05318E-03,   3.14136E-03
C:/temp/dataset/2/25_1.odb,Step-1,Increment      1: Step Time =    1.000,"PART-1-1",           418,      -3.21345,      -28.7230,            0.,NA,NA,"",   3.28591E-03,   2.00335E-03,  -2.60458E-03,   3.05598E-03
C:/temp/dataset/2/25_1.odb,Step-1,Increment      1: Step Time =    1.000,"PART-1-1",           419,          -1.5,          -30.,            0.,NA,NA,"",            0.,   1.94668E-39,  -4.38785E-39,   2.44623E-03
C:/temp/dataset/2/25_1.odb,Step-1,Increment      1: Step Time =    1.000,"PART-1-1",           420,      -5.57419,      -22.4519,            0.,NA,NA,"",   32.5218E-03,   15.7194E-03,  -28.4705E-03,   7.17883E-03
C:/temp/dataset/2/25_1.odb,Step-1,Increment      1: Step Time =    1.000,"PART-1-1",           421,      -6.77537,      -23.6376,            0.,NA,NA,"",   18.9415E-03,   7.09212E-03,  -17.5636E-03,   5.55608E-03
C:/temp/dataset/2/25_1.odb,Step-1,Increment      1: Step Time =    1.000,"PART-1-1",           422,      -5.25528,      -24.9124,            0.,NA,NA,"",   16.7643E-03,   6.70465E-03,  -15.3652E-03,   4.93564E-03
C:/temp/dataset/2/25_1.odb,Step-1,Increment      1: Step Time =    1.000,"PART-1-1",           423,      -4.05411,      -23.7268,            0.,NA,NA,"",   23.5245E-03,   13.4858E-03,  -19.2752E-03,   6.53749E-03
C:/temp/dataset/2/25_1.odb,Step-1,Increment      1: Step Time =    1.000,"PART-1-1",           424,       13.4223,      -24.9720,            0.,NA,NA,"",   6.42709E-03,   6.26238E-03,  -1.44569E-03,   223.500E-06
C:/temp/dataset/2/25_1.odb,Step-1,Increment      1: Step Time =    1.000,"PART-1-1",           425,           15.,        -26.25,            0.,NA,NA,"",   5.66195E-03,   5.03363E-03,  -2.59235E-03,   284.527E-06
C:/temp/dataset/2/25_1.odb,Step-1,Increment      1: Step Time =    1.000,"PART-1-1",           426,       11.8021,      -23.6964,            0.,NA,NA,"",   7.46019E-03,   7.43153E-03,  -653.224E-06,   265.150E-06
C:/temp/dataset/2/25_1.odb,Step-1,Increment      1: Step Time =    1.000,"PART-1-1",           427,       10.1355,      -22.4445,            0.,NA,NA,"",   8.52037E-03,   8.52037E-03,   9.33952E-06,   243.697E-06
C:/temp/dataset/2/25_1.odb,Step-1,Increment      1: Step Time =    1.000,"PART-1-1",           428,      -2.31424,      -24.9364,            0.,NA,NA,"",   16.2493E-03,   11.4533E-03,  -11.5266E-03,   4.24493E-03
C:/temp/dataset/2/25_1.odb,Step-1,Increment      1: Step Time =    1.000,"PART-1-1",           429,      -3.63092,      -26.1962,            0.,NA,NA,"",   12.0230E-03,   6.48230E-03,  -10.1258E-03,   4.47717E-03
C:/temp/dataset/2/25_1.odb,Step-1,Increment      1: Step Time =    1.000,"PART-1-1",           430,  -604.096E-03,      -26.1796,            0.,NA,NA,"",   11.0903E-03,   9.42177E-03,  -5.85016E-03,   3.06272E-03
C:/temp/dataset/2/25_1.odb,Step-1,Increment      1: Step Time =    1.000,"PART-1-1",           431,      -7.52977,      -11.9021,            0.,NA,NA,"",   280.607E-03,   270.675E-03,  -73.9950E-03,   6.61805E-03
C:/temp/dataset/2/25_1.odb,Step-1,Increment      1: Step Time =    1.000,"PART-1-1",           432,      -6.22373,      -12.8207,            0.,NA,NA,"",   265.540E-03,   239.881E-03,  -113.879E-03,   9.91333E-03
C:/temp/dataset/2/25_1.odb,Step-1,Increment      1: Step Time =    1.000,"PART-1-1",           433,           -5.,        -11.25,            0.,NA,NA,"",   352.889E-03,   305.086E-03,  -177.351E-03,   12.3068E-03
C:/temp/dataset/2/25_1.odb,Step-1,Increment      1: Step Time =    1.000,"PART-1-1",           434,      -10.0475,      -12.6788,            0.,NA,NA,"",   240.001E-03,   239.315E-03,   18.1436E-03,   2.06859E-03
C:/temp/dataset/2/25_1.odb,Step-1,Increment      1: Step Time =    1.000,"PART-1-1",           435,           -5.,         -6.25,            0.,NA,NA,"",   574.522E-03,   524.372E-03,  -234.756E-03,   12.5767E-03
C:/temp/dataset/2/25_1.odb,Step-1,Increment      1: Step Time =    1.000,"PART-1-1",           436,      -7.88282,      -7.02961,            0.,NA,NA,"",   490.960E-03,   483.249E-03,  -86.6703E-03,   3.51448E-03
C:/temp/dataset/2/25_1.odb,Step-1,Increment      1: Step Time =    1.000,"PART-1-1",           437,      -13.8577,      -6.65334,            0.,NA,NA,"",   553.352E-03,   518.223E-03,   194.017E-03,   8.00158E-03
C:/temp/dataset/2/25_1.odb,Step-1,Increment      1: Step Time =    1.000,"PART-1-1",           438,      -12.5267,      -5.32641,            0.,NA,NA,"",   597.902E-03,   582.599E-03,   134.407E-03,   5.59900E-03
C:/temp/dataset/2/25_1.odb,Step-1,Increment      1: Step Time =    1.000,"PART-1-1",           439,          -15.,      -5.20833,            0.,NA,NA,"",   654.281E-03,   599.941E-03,   261.064E-03,   8.93306E-03
C:/temp/dataset/2/25_1.odb,Step-1,Increment      1: Step Time =    1.000,"PART-1-1",           440,          1.25,           -5.,            0.,NA,NA,"",   861.503E-03,   524.930E-03,  -683.108E-03,   6.26619E-03
C:/temp/dataset/2/25_1.odb,Step-1,Increment      1: Step Time =    1.000,"PART-1-1",           441,       2.47079,      -3.83474,            0.,NA,NA,"",   976.827E-03,   599.841E-03,  -770.961E-03,   4.73309E-03
C:/temp/dataset/2/25_1.odb,Step-1,Increment      1: Step Time =    1.000,"PART-1-1",           442,       3.51261,  -149.180E-03,            0.,NA,NA,"",       1.21362,   863.543E-03,  -852.744E-03,   1.32012E-03
C:/temp/dataset/2/25_1.odb,Step-1,Increment      1: Step Time =    1.000,"PART-1-1",           443,       3.69085,      -2.58237,            0.,NA,NA,"",       1.10072,   684.222E-03,  -862.221E-03,   3.07771E-03
C:/temp/dataset/2/25_1.odb,Step-1,Increment      1: Step Time =    1.000,"PART-1-1",           444,       8.74868,       5.55605,            0.,NA,NA,"",       1.83030,       1.30186,      -1.28652,   2.37196E-03
C:/temp/dataset/2/25_1.odb,Step-1,Increment      1: Step Time =    1.000,"PART-1-1",           445,       10.0030,       7.12352,            0.,NA,NA,"",       2.00265,       1.43337,      -1.39860,   1.82149E-03
C:/temp/dataset/2/25_1.odb,Step-1,Increment      1: Step Time =    1.000,"PART-1-1",           446,       8.73640,       8.21697,            0.,NA,NA,"",       2.00716,       1.53292,      -1.29571,   2.32924E-03
C:/temp/dataset/2/25_1.odb,Step-1,Increment      1: Step Time =    1.000,"PART-1-1",           447,           15.,     -625.E-03,            0.,NA,NA,"",       1.94032,   789.382E-03,      -1.77249,   1.55743E-03
C:/temp/dataset/2/25_1.odb,Step-1,Increment      1: Step Time =    1.000,"PART-1-1",           448,       13.7714,   731.820E-03,            0.,NA,NA,"",       1.90594,   899.592E-03,      -1.68028,   2.29684E-03
C:/temp/dataset/2/25_1.odb,Step-1,Increment      1: Step Time =    1.000,"PART-1-1",           449,       12.5339,  -774.506E-03,            0.,NA,NA,"",       1.75766,   784.348E-03,      -1.57295,   2.20896E-03
C:/temp/dataset/2/25_1.odb,Step-1,Increment      1: Step Time =    1.000,"PART-1-1",           450,       7.40609,       11.8257,            0.,NA,NA,"",       2.20951,       1.86051,      -1.19183,   1.99127E-03
C:/temp/dataset/2/25_1.odb,Step-1,Increment      1: Step Time =    1.000,"PART-1-1",           451,       8.70206,       10.8725,            0.,NA,NA,"",       2.19645,       1.76924,      -1.30161,   2.01578E-03
C:/temp/dataset/2/25_1.odb,Step-1,Increment      1: Step Time =    1.000,"PART-1-1",           452,       11.2454,       8.75341,            0.,NA,NA,"",       2.18080,       1.57194,      -1.51158,   2.00026E-03
C:/temp/dataset/2/25_1.odb,Step-1,Increment      1: Step Time =    1.000,"PART-1-1",           453,       11.2622,       5.99112,            0.,NA,NA,"",       2.00642,       1.33327,      -1.49937,   1.91532E-03
C:/temp/dataset/2/25_1.odb,Step-1,Increment      1: Step Time =    1.000,"PART-1-1",           454,       13.8596,       24.3693,            0.,NA,NA,"",       3.46267,       2.95346,      -1.80752,   60.7157E-06
C:/temp/dataset/2/25_1.odb,Step-1,Increment      1: Step Time =    1.000,"PART-1-1",           455,       12.6110,       23.1199,            0.,NA,NA,"",       3.31239,       2.84768,      -1.69193,   24.0663E-06
C:/temp/dataset/2/25_1.odb,Step-1,Increment      1: Step Time =    1.000,"PART-1-1",           456,       13.7514,       21.4590,            0.,NA,NA,"",       3.23408,       2.69579,      -1.78661,   63.8874E-06
C:/temp/dataset/2/25_1.odb,Step-1,Increment      1: Step Time =    1.000,"PART-1-1",           457,           15.,       22.7083,            0.,NA,NA,"",       3.38642,       2.80168,      -1.90222,   106.419E-06
C:/temp/dataset/2/25_1.odb,Step-1,Increment      1: Step Time =    1.000,"PART-1-1",           458,       8.83903,       17.2613,            0.,NA,NA,"",       2.69643,       2.34242,      -1.33560,   979.351E-06
C:/temp/dataset/2/25_1.odb,Step-1,Increment      1: Step Time =    1.000,"PART-1-1",           459,       10.5130,       17.3338,            0.,NA,NA,"",       2.77194,       2.34152,      -1.48356,   833.947E-06
C:/temp/dataset/2/25_1.odb,Step-1,Increment      1: Step Time =    1.000,"PART-1-1",           460,       8.72284,       19.1442,            0.,NA,NA,"",       2.84220,       2.51069,      -1.33210,   594.516E-06
C:/temp/dataset/2/25_1.odb,Step-1,Increment      1: Step Time =    1.000,"PART-1-1",           461,           15.,       28.5417,            0.,NA,NA,"",       3.83637,       3.31854,      -1.92485,   9.42915E-06
C:/temp/dataset/2/25_1.odb,Step-1,Increment      1: Step Time =    1.000,"PART-1-1",           462,         13.75,           30.,            0.,NA,NA,"",       3.90289,       3.45263,      -1.81985,   6.99508E-06
C:/temp/dataset/2/25_1.odb,Step-1,Increment      1: Step Time =    1.000,"PART-1-1",           463,       12.5875,       28.6551,            0.,NA,NA,"",       3.75129,       3.33807,      -1.71157,   27.9200E-06
C:/temp/dataset/2/25_1.odb,Step-1,Increment      1: Step Time =    1.000,"PART-1-1",           464,       13.8375,       27.1968,            0.,NA,NA,"",       3.68316,       3.20400,      -1.81660,   30.2655E-06
C:/temp/dataset/2/25_1.odb,Step-1,Increment      1: Step Time =    1.000,"PART-1-1",           465,         11.25,           30.,            0.,NA,NA,"",       3.81355,       3.46242,      -1.59837,   35.4994E-06
C:/temp/dataset/2/25_1.odb,Step-1,Increment      1: Step Time =    1.000,"PART-1-1",           466,       10.1484,       28.7335,            0.,NA,NA,"",       3.67292,       3.35455,      -1.49577,   40.4501E-06
C:/temp/dataset/2/25_1.odb,Step-1,Increment      1: Step Time =    1.000,"PART-1-1",           467,       7.69941,       28.7139,            0.,NA,NA,"",       3.59734,       3.36235,      -1.27883,   43.2651E-06
C:/temp/dataset/2/25_1.odb,Step-1,Increment      1: Step Time =    1.000,"PART-1-1",           468,       9.09777,       27.4473,            0.,NA,NA,"",       3.53298,       3.24477,      -1.39765,   29.6575E-06
C:/temp/dataset/2/25_1.odb,Step-1,Increment      1: Step Time =    1.000,"PART-1-1",           469,          8.75,           30.,            0.,NA,NA,"",       3.73519,       3.47213,      -1.37693,   58.1902E-06
C:/temp/dataset/2/25_1.odb,Step-1,Increment      1: Step Time =    1.000,"PART-1-1",           470,  -9.87333E-03,       28.6960,            0.,NA,NA,"",       3.44296,       3.39085,  -596.788E-03,   6.01937E-06
C:/temp/dataset/2/25_1.odb,Step-1,Increment      1: Step Time =    1.000,"PART-1-1",           471,          1.25,           30.,            0.,NA,NA,"",       3.57318,       3.50126,  -713.331E-03,   12.4191E-06
C:/temp/dataset/2/25_1.odb,Step-1,Increment      1: Step Time =    1.000,"PART-1-1",           472,       4.87954,       25.6434,            0.,NA,NA,"",       3.26415,       3.10160,      -1.01725,   39.2903E-06
C:/temp/dataset/2/25_1.odb,Step-1,Increment      1: Step Time =    1.000,"PART-1-1",           473,      -5.00474,       28.7231,            0.,NA,NA,"",       3.41634,       3.41282,  -155.107E-03,   309.185E-09
C:/temp/dataset/2/25_1.odb,Step-1,Increment      1: Step Time =    1.000,"PART-1-1",           474,         -6.25,           30.,            0.,NA,NA,"",       3.53100,       3.53064,  -49.9663E-03,   531.118E-09
C:/temp/dataset/2/25_1.odb,Step-1,Increment      1: Step Time =    1.000,"PART-1-1",           475,      -3.76303,       27.4393,            0.,NA,NA,"",       3.30463,       3.29439,  -259.906E-03,   1.31745E-06
C:/temp/dataset/2/25_1.odb,Step-1,Increment      1: Step Time =    1.000,"PART-1-1",           476,      -3.77322,       24.9147,            0.,NA,NA,"",       3.08122,       3.07113,  -249.112E-03,   2.16564E-06
C:/temp/dataset/2/25_1.odb,Step-1,Increment      1: Step Time =    1.000,"PART-1-1",           477,      -13.7476,       27.4926,            0.,NA,NA,"",       3.39589,       3.33824,   623.042E-03,   43.0557E-09
C:/temp/dataset/2/25_1.odb,Step-1,Increment      1: Step Time =    1.000,"PART-1-1",           478,        -13.75,           30.,            0.,NA,NA,"",       3.61250,       3.56004,   613.426E-03,   33.1597E-09
C:/temp/dataset/2/25_1.odb,Step-1,Increment      1: Step Time =    1.000,"PART-1-1",           479,          -15.,         28.75,            0.,NA,NA,"",       3.53044,       3.45438,   728.891E-03,   31.6467E-09
C:/temp/dataset/2/25_1.odb,Step-1,Increment      1: Step Time =    1.000,"PART-1-1",           480,          -15.,         26.25,            0.,NA,NA,"",       3.31655,       3.23324,   738.690E-03,   33.8522E-09
C:/temp/dataset/2/25_1.odb,Step-1,Increment      1: Step Time =    1.000,"PART-1-1",           481,      -12.4965,       26.2309,            0.,NA,NA,"",       3.26301,       3.22174,   517.323E-03,   59.8331E-09
C:/temp/dataset/2/25_1.odb,Step-1,Increment      1: Step Time =    1.000,"PART-1-1",           482,      -10.0014,       23.7134,            0.,NA,NA,"",       3.00495,       2.98928,   306.493E-03,   149.820E-09
C:/temp/dataset/2/25_1.odb,Step-1,Increment      1: Step Time =    1.000,"PART-1-1",           483,      -8.75535,       22.4567,            0.,NA,NA,"",       2.88027,       2.87324,   201.204E-03,   211.637E-09
C:/temp/dataset/2/25_1.odb,Step-1,Increment      1: Step Time =    1.000,"PART-1-1",           484,      -7.50515,       23.6891,            0.,NA,NA,"",       2.97859,       2.97735,   85.7901E-03,   238.526E-09
C:/temp/dataset/2/25_1.odb,Step-1,Increment      1: Step Time =    1.000,"PART-1-1",           485,      -8.75118,       24.9458,            0.,NA,NA,"",       3.09929,       3.09340,   191.079E-03,   226.416E-09
C:/temp/dataset/2/25_1.odb,Step-1,Increment      1: Step Time =    1.000,"PART-1-1",           486,      -3.77419,       22.4219,            0.,NA,NA,"",       2.86066,       2.85064,  -239.258E-03,   1.75168E-06
C:/temp/dataset/2/25_1.odb,Step-1,Increment      1: Step Time =    1.000,"PART-1-1",           487,      -5.00723,       21.2173,            0.,NA,NA,"",       2.75179,       2.74892,  -125.469E-03,   425.041E-09
C:/temp/dataset/2/25_1.odb,Step-1,Increment      1: Step Time =    1.000,"PART-1-1",           488,         -3.75,           20.,            0.,NA,NA,"",       2.64650,       2.63632,  -231.905E-03,   1.41563E-06
C:/temp/dataset/2/25_1.odb,Step-1,Increment      1: Step Time =    1.000,"PART-1-1",           489,      -2.51696,       21.2046,            0.,NA,NA,"",       2.75977,       2.73803,  -345.697E-03,   1.86021E-06
C:/temp/dataset/2/25_1.odb,Step-1,Increment      1: Step Time =    1.000,"PART-1-1",           490,         -8.75,           20.,            0.,NA,NA,"",       2.66424,       2.65592,   210.360E-03,   258.972E-09
C:/temp/dataset/2/25_1.odb,Step-1,Increment      1: Step Time =    1.000,"PART-1-1",           491,      -7.50331,       21.2223,            0.,NA,NA,"",       2.76079,       2.75915,   95.2962E-03,   216.741E-09
C:/temp/dataset/2/25_1.odb,Step-1,Increment      1: Step Time =    1.000,"PART-1-1",           492,         -6.25,           20.,            0.,NA,NA,"",       2.64614,       2.64612,  -10.7716E-03,   725.922E-09
C:/temp/dataset/2/25_1.odb,Step-1,Increment      1: Step Time =    1.000,"PART-1-1",           493,      -6.26054,       22.4396,            0.,NA,NA,"",       2.86202,       2.86195,  -19.4017E-03,   426.326E-09
C:/temp/dataset/2/25_1.odb,Step-1,Increment      1: Step Time =    1.000,"PART-1-1",           494,         -1.25,           20.,            0.,NA,NA,"",       2.66531,       2.62652,  -453.049E-03,   7.12329E-06
C:/temp/dataset/2/25_1.odb,Step-1,Increment      1: Step Time =    1.000,"PART-1-1",           495,      -1.30453,       22.3853,            0.,NA,NA,"",       2.87438,       2.83772,  -457.571E-03,   5.77684E-06
C:/temp/dataset/2/25_1.odb,Step-1,Increment      1: Step Time =    1.000,"PART-1-1",           496,         -1.25,           30.,            0.,NA,NA,"",       3.54538,       3.51104,  -492.216E-03,   2.37437E-06
C:/temp/dataset/2/25_1.odb,Step-1,Increment      1: Step Time =    1.000,"PART-1-1",           497,      -2.50829,       28.7162,            0.,NA,NA,"",       3.42312,       3.40242,  -375.891E-03,   1.23568E-06
C:/temp/dataset/2/25_1.odb,Step-1,Increment      1: Step Time =    1.000,"PART-1-1",           498,         -3.75,           30.,            0.,NA,NA,"",       3.53126,       3.52084,  -271.094E-03,   350.690E-09
C:/temp/dataset/2/25_1.odb,Step-1,Increment      1: Step Time =    1.000,"PART-1-1",           499,          3.75,           20.,            0.,NA,NA,"",       2.75659,       2.60710,  -895.443E-03,   222.159E-06
C:/temp/dataset/2/25_1.odb,Step-1,Increment      1: Step Time =    1.000,"PART-1-1",           500,       4.75388,       21.0765,            0.,NA,NA,"",       2.87352,       2.69817,  -988.424E-03,   139.189E-06
C:/temp/dataset/2/25_1.odb,Step-1,Increment      1: Step Time =    1.000,"PART-1-1",           501,          6.25,           30.,            0.,NA,NA,"",       3.66857,       3.48180,      -1.15563,   54.4873E-06
C:/temp/dataset/2/25_1.odb,Step-1,Increment      1: Step Time =    1.000,"PART-1-1",           502,       6.61296,       27.1492,            0.,NA,NA,"",       3.43580,       3.22809,      -1.17651,   26.8788E-06
C:/temp/dataset/2/25_1.odb,Step-1,Increment      1: Step Time =    1.000,"PART-1-1",           503,            5.,         16.25,            0.,NA,NA,"",       2.47778,       2.27050,  -992.089E-03,   1.02819E-03
C:/temp/dataset/2/25_1.odb,Step-1,Increment      1: Step Time =    1.000,"PART-1-1",           504,       6.03202,       15.2452,            0.,NA,NA,"",       2.42901,       2.17540,      -1.08061,   1.29829E-03
C:/temp/dataset/2/25_1.odb,Step-1,Increment      1: Step Time =    1.000,"PART-1-1",           505,       6.91243,       16.6330,            0.,NA,NA,"",       2.57329,       2.29536,      -1.16326,   1.22161E-03
C:/temp/dataset/2/25_1.odb,Step-1,Increment      1: Step Time =    1.000,"PART-1-1",           506,            5.,         13.75,            0.,NA,NA,"",       2.27055,       2.04638,  -983.734E-03,   1.48407E-03
C:/temp/dataset/2/25_1.odb,Step-1,Increment      1: Step Time =    1.000,"PART-1-1",           507,       6.17466,       12.7979,            0.,NA,NA,"",       2.23568,       1.95412,      -1.08613,   1.82072E-03
C:/temp/dataset/2/25_1.odb,Step-1,Increment      1: Step Time =    1.000,"PART-1-1",           508,       12.0086,       16.5092,            0.,NA,NA,"",       2.77742,       2.26156,      -1.61227,   860.512E-06
C:/temp/dataset/2/25_1.odb,Step-1,Increment      1: Step Time =    1.000,"PART-1-1",           509,           15.,        16.875,            0.,NA,NA,"",       2.95672,       2.28266,      -1.87928,   357.089E-06
C:/temp/dataset/2/25_1.odb,Step-1,Increment      1: Step Time =    1.000,"PART-1-1",           510,       13.3591,       18.2744,            0.,NA,NA,"",       2.97517,       2.41395,      -1.73911,   282.186E-06
C:/temp/dataset/2/25_1.odb,Step-1,Increment      1: Step Time =    1.000,"PART-1-1",           511,            5.,         11.25,            0.,NA,NA,"",       2.06584,       1.82002,  -977.352E-03,   2.14136E-03
C:/temp/dataset/2/25_1.odb,Step-1,Increment      1: Step Time =    1.000,"PART-1-1",           512,       6.23142,       10.2778,            0.,NA,NA,"",       2.03926,       1.72700,      -1.08446,   2.08272E-03
C:/temp/dataset/2/25_1.odb,Step-1,Increment      1: Step Time =    1.000,"PART-1-1",           513,            5.,          8.75,            0.,NA,NA,"",       1.87019,       1.59714,  -973.015E-03,   3.29479E-03
C:/temp/dataset/2/25_1.odb,Step-1,Increment      1: Step Time =    1.000,"PART-1-1",           514,       7.47251,       9.25684,            0.,NA,NA,"",       2.01841,       1.63004,      -1.19037,   2.36618E-03
C:/temp/dataset/2/25_1.odb,Step-1,Increment      1: Step Time =    1.000,"PART-1-1",           515,         11.25,           -5.,            0.,NA,NA,"",       1.52455,   454.539E-03,      -1.45521,   1.23330E-03
C:/temp/dataset/2/25_1.odb,Step-1,Increment      1: Step Time =    1.000,"PART-1-1",           516,       11.2689,      -2.22707,            0.,NA,NA,"",       1.61259,   674.796E-03,      -1.46461,   2.29528E-03
C:/temp/dataset/2/25_1.odb,Step-1,Increment      1: Step Time =    1.000,"PART-1-1",           517,          10.5,          -30.,            0.,NA,NA,"",            0.,   1.04490E-39,  -625.301E-42,   939.220E-06
C:/temp/dataset/2/25_1.odb,Step-1,Increment      1: Step Time =    1.000,"PART-1-1",           518,           15.,        -23.75,            0.,NA,NA,"",   7.79290E-03,   7.32870E-03,  -2.64943E-03,   11.0702E-06
C:/temp/dataset/2/25_1.odb,Step-1,Increment      1: Step Time =    1.000,"PART-1-1",           519,          3.75,           -5.,            0.,NA,NA,"",       1.00106,   503.927E-03,  -864.970E-03,   5.99547E-03
C:/temp/dataset/2/25_1.odb,Step-1,Increment      1: Step Time =    1.000,"PART-1-1",           520,       4.97006,      -3.74763,            0.,NA,NA,"",       1.12471,   589.462E-03,  -957.867E-03,   4.18330E-03
C:/temp/dataset/2/25_1.odb,Step-1,Increment      1: Step Time =    1.000,"PART-1-1",           521,       4.85412,       3.76356,            0.,NA,NA,"",       1.50349,       1.15584,  -961.513E-03,   6.08022E-03
C:/temp/dataset/2/25_1.odb,Step-1,Increment      1: Step Time =    1.000,"PART-1-1",           522,       3.33333,            5.,            0.,NA,NA,"",       1.51124,       1.24347,  -858.853E-03,   9.83045E-03
C:/temp/dataset/2/25_1.odb,Step-1,Increment      1: Step Time =    1.000,"PART-1-1",           523,       1.45296,       3.58740,            0.,NA,NA,"",       1.34128,       1.13430,  -715.820E-03,   6.16808E-03
C:/temp/dataset/2/25_1.odb,Step-1,Increment      1: Step Time =    1.000,"PART-1-1",           524,       2.97375,       2.35096,            0.,NA,NA,"",       1.33028,       1.04824,  -819.049E-03,   3.06919E-03
C:/temp/dataset/2/25_1.odb,Step-1,Increment      1: Step Time =    1.000,"PART-1-1",           525,          6.25,           -5.,            0.,NA,NA,"",       1.16134,   484.127E-03,      -1.05561,   4.80022E-03
C:/temp/dataset/2/25_1.odb,Step-1,Increment      1: Step Time =    1.000,"PART-1-1",           526,       12.4696,       10.4445,            0.,NA,NA,"",       2.36441,       1.71741,      -1.62510,   1.99407E-03
C:/temp/dataset/2/25_1.odb,Step-1,Increment      1: Step Time =    1.000,"PART-1-1",           527,           15.,       11.0417,            0.,NA,NA,"",       2.55523,       1.76277,      -1.84983,   2.44678E-03
C:/temp/dataset/2/25_1.odb,Step-1,Increment      1: Step Time =    1.000,"PART-1-1",           528,      -5.01382,       23.6808,            0.,NA,NA,"",       2.96990,       2.96685,  -134.542E-03,   470.273E-09
C:/temp/dataset/2/25_1.odb,Step-1,Increment      1: Step Time =    1.000,"PART-1-1",           529,      -2.53358,       23.6558,            0.,NA,NA,"",       2.97602,       2.95492,  -353.830E-03,   2.57058E-06
C:/temp/dataset/2/25_1.odb,Step-1,Increment      1: Step Time =    1.000,"PART-1-1",           530,  -74.6816E-03,       23.6075,            0.,NA,NA,"",       2.99594,       2.94100,  -571.143E-03,   13.7607E-06
C:/temp/dataset/2/25_1.odb,Step-1,Increment      1: Step Time =    1.000,"PART-1-1",           531,      -6.62798,      -1.45964,            0.,NA,NA,"",   814.266E-03,   795.600E-03,  -173.350E-03,   4.66625E-03
C:/temp/dataset/2/25_1.odb,Step-1,Increment      1: Step Time =    1.000,"PART-1-1",           532,      -4.43070,      -2.38075,            0.,NA,NA,"",   794.908E-03,   736.283E-03,  -299.608E-03,   2.34787E-03
C:/temp/dataset/2/25_1.odb,Step-1,Increment      1: Step Time =    1.000,"PART-1-1",           533,      -3.64554,  -813.143E-03,            0.,NA,NA,"",   907.245E-03,   834.696E-03,  -355.494E-03,   1.61738E-03
C:/temp/dataset/2/25_1.odb,Step-1,Increment      1: Step Time =    1.000,"PART-1-1",           534,         -3.75,           -5.,            0.,NA,NA,"",   661.472E-03,   567.329E-03,  -340.123E-03,   8.61692E-03
C:/temp/dataset/2/25_1.odb,Step-1,Increment      1: Step Time =    1.000,"PART-1-1",           535,      -13.8599,      -9.43096,            0.,NA,NA,"",   422.947E-03,   384.558E-03,   176.067E-03,   9.20781E-03
C:/temp/dataset/2/25_1.odb,Step-1,Increment      1: Step Time =    1.000,"PART-1-1",           536,          -15.,      -11.0417,            0.,NA,NA,"",   383.865E-03,   321.695E-03,   209.440E-03,   12.6571E-03
C:/temp/dataset/2/25_1.odb,Step-1,Increment      1: Step Time =    1.000,"PART-1-1",           537,      -11.9984,      -19.8095,            0.,NA,NA,"",   68.7331E-03,   48.2961E-03,   48.9052E-03,   6.58397E-03
C:/temp/dataset/2/25_1.odb,Step-1,Increment      1: Step Time =    1.000,"PART-1-1",           538,      -13.3881,      -18.2324,            0.,NA,NA,"",   121.106E-03,   83.8422E-03,   87.3907E-03,   10.4757E-03
C:/temp/dataset/2/25_1.odb,Step-1,Increment      1: Step Time =    1.000,"PART-1-1",           539,          -15.,      -19.7917,            0.,NA,NA,"",   119.078E-03,   63.7421E-03,   100.581E-03,   14.5646E-03
C:/temp/dataset/2/25_1.odb,Step-1,Increment      1: Step Time =    1.000,"PART-1-1",           540,           -5.,        -18.75,            0.,NA,NA,"",   100.587E-03,   66.9551E-03,  -75.0656E-03,   21.0521E-03
C:/temp/dataset/2/25_1.odb,Step-1,Increment      1: Step Time =    1.000,"PART-1-1",           541,      -5.96138,      -20.0094,            0.,NA,NA,"",   54.4861E-03,   31.2771E-03,  -44.6147E-03,   13.3640E-03
C:/temp/dataset/2/25_1.odb,Step-1,Increment      1: Step Time =    1.000,"PART-1-1",           542,           -5.,        -13.75,            0.,NA,NA,"",   258.291E-03,   212.688E-03,  -146.555E-03,   13.3657E-03
C:/temp/dataset/2/25_1.odb,Step-1,Increment      1: Step Time =    1.000,"PART-1-1",           543,      -7.28958,      -14.3036,            0.,NA,NA,"",   195.855E-03,   184.568E-03,  -65.5274E-03,   7.79110E-03
C:/temp/dataset/2/25_1.odb,Step-1,Increment      1: Step Time =    1.000,"PART-1-1",           544,      -8.88285,      -11.0213,            0.,NA,NA,"",   305.335E-03,   304.105E-03,  -27.3800E-03,   3.30486E-03
C:/temp/dataset/2/25_1.odb,Step-1,Increment      1: Step Time =    1.000,"PART-1-1",           545,      -9.01222,      -8.51542,            0.,NA,NA,"",   414.676E-03,   413.601E-03,  -29.8458E-03,   2.67481E-03
C:/temp/dataset/2/25_1.odb,Step-1,Increment      1: Step Time =    1.000,"PART-1-1",           546,      -9.13424,  -715.290E-03,            0.,NA,NA,"",   843.998E-03,   843.109E-03,  -38.7256E-03,   5.15343E-03
C:/temp/dataset/2/25_1.odb,Step-1,Increment      1: Step Time =    1.000,"PART-1-1",           547,      -9.92186,      -2.42350,            0.,NA,NA,"",   740.655E-03,   740.633E-03,   5.67148E-03,   5.21507E-03
C:/temp/dataset/2/25_1.odb,Step-1,Increment      1: Step Time =    1.000,"PART-1-1",           548,      -12.7176,      -7.95930,            0.,NA,NA,"",   467.826E-03,   448.230E-03,   133.980E-03,   6.29527E-03
C:/temp/dataset/2/25_1.odb,Step-1,Increment      1: Step Time =    1.000,"PART-1-1",           549,          -15.,        -8.125,            0.,NA,NA,"",   510.452E-03,   451.572E-03,   238.001E-03,   11.1323E-03
C:/temp/dataset/2/25_1.odb,Step-1,Increment      1: Step Time =    1.000,"PART-1-1",           550,       11.2818,   528.104E-03,            0.,NA,NA,"",       1.72302,   890.151E-03,      -1.47528,   2.80441E-03
C:/temp/dataset/2/25_1.odb,Step-1,Increment      1: Step Time =    1.000,"PART-1-1",           551,       10.0167,  -924.457E-03,            0.,NA,NA,"",       1.57362,   780.994E-03,      -1.36614,   2.86445E-03
C:/temp/dataset/2/25_1.odb,Step-1,Increment      1: Step Time =    1.000,"PART-1-1",           552,       10.4320,       23.7699,            0.,NA,NA,"",       3.27792,       2.91390,      -1.50132,   41.2631E-06
C:/temp/dataset/2/25_1.odb,Step-1,Increment      1: Step Time =    1.000,"PART-1-1",           553,           15.,        25.625,            0.,NA,NA,"",       3.60918,       3.06020,      -1.91346,   56.0502E-06
C:/temp/dataset/2/25_1.odb,Step-1,Increment      1: Step Time =    1.000,"PART-1-1",           554,      -9.99539,       26.2124,            0.,NA,NA,"",       3.22394,       3.21031,   296.168E-03,   147.710E-09
C:/temp/dataset/2/25_1.odb,Step-1,Increment      1: Step Time =    1.000,"PART-1-1",           555,          -15.,       -25.625,            0.,NA,NA,"",   35.1298E-03,   10.2660E-03,   33.5963E-03,   10.4623E-03
C:/temp/dataset/2/25_1.odb,Step-1,Increment      1: Step Time =    1.000,"PART-1-1",           556,      -12.2044,      -25.8339,            0.,NA,NA,"",   18.1494E-03,  -312.778E-06,   18.1467E-03,   6.09716E-03
C:/temp/dataset/2/25_1.odb,Step-1,Increment      1: Step Time =    1.000,"PART-1-1",           557,          -15.,       -16.875,            0.,NA,NA,"",   187.384E-03,   125.242E-03,   139.381E-03,   14.8367E-03
C:/temp/dataset/2/25_1.odb,Step-1,Increment      1: Step Time =    1.000,"PART-1-1",           558,      -8.25880,      -15.9015,            0.,NA,NA,"",   134.974E-03,   132.056E-03,  -27.9169E-03,   5.24681E-03
C:/temp/dataset/2/25_1.odb,Step-1,Increment      1: Step Time =    1.000,"PART-1-1",           559,       7.56555,       17.9230,            0.,NA,NA,"",       2.70127,       2.40735,      -1.22538,   942.115E-06
C:/temp/dataset/2/25_1.odb,Step-1,Increment      1: Step Time =    1.000,"PART-1-1",           560,      -9.72707,       2.21069,            0.,NA,NA,"",       1.02185,       1.02175,  -13.8768E-03,   4.13835E-03
C:/temp/dataset/2/25_1.odb,Step-1,Increment      1: Step Time =    1.000,"PART-1-1",           561,      -8.18006,       3.69884,            0.,NA,NA,"",       1.11705,       1.11217,  -104.263E-03,   4.27172E-03
C:/temp/dataset/2/25_1.odb,Step-1,Increment      1: Step Time =    1.000,"PART-1-1",           562,          -10.,            5.,            0.,NA,NA,"",       1.18444,       1.18442,  -6.39646E-03,   2.88545E-03
C:/temp/dataset/2/25_1.odb,Step-1,Increment      1: Step Time =    1.000,"PART-1-1",           563,      -10.3433,      -7.69771,            0.,NA,NA,"",   454.942E-03,   454.076E-03,   28.0562E-03,   2.87854E-03
C:/temp/dataset/2/25_1.odb,Step-1,Increment      1: Step Time =    1.000,"PART-1-1",           564,      -11.5611,      -6.59494,            0.,NA,NA,"",   519.332E-03,   512.349E-03,   84.8750E-03,   4.48299E-03
C:/temp/dataset/2/25_1.odb,Step-1,Increment      1: Step Time =    1.000,"PART-1-1",           565,      -9.40089,      -20.7816,            0.,NA,NA,"",   27.6814E-03,   27.4685E-03,   3.42682E-03,   2.44475E-03
C:/temp/dataset/2/25_1.odb,Step-1,Increment      1: Step Time =    1.000,"PART-1-1",           566,      -8.21757,      -22.2064,            0.,NA,NA,"",   16.8721E-03,   12.5828E-03,  -11.2402E-03,   3.67844E-03
C:/temp/dataset/2/25_1.odb,Step-1,Increment      1: Step Time =    1.000,"PART-1-1",           567,      -6.89894,      -21.2078,            0.,NA,NA,"",   35.2326E-03,   20.5306E-03,  -28.6326E-03,   6.16145E-03
C:/temp/dataset/2/25_1.odb,Step-1,Increment      1: Step Time =    1.000,"PART-1-1",           568,      -9.14285,      -28.6800,            0.,NA,NA,"",   3.87561E-03,  -3.83908E-03,   530.928E-06,   2.22635E-03
C:/temp/dataset/2/25_1.odb,Step-1,Increment      1: Step Time =    1.000,"PART-1-1",           569,      -10.7232,      -27.3047,            0.,NA,NA,"",   7.29497E-03,  -4.47603E-03,   5.76037E-03,   3.28939E-03
C:/temp/dataset/2/25_1.odb,Step-1,Increment      1: Step Time =    1.000,"PART-1-1",           570,         -10.5,          -30.,            0.,NA,NA,"",            0.,  -3.34215E-39,   5.02438E-39,   3.23901E-03
C:/temp/dataset/2/25_1.odb,Step-1,Increment      1: Step Time =    1.000,"PART-1-1",           571,      -4.89633,      -27.4366,            0.,NA,NA,"",   6.44121E-03,   1.55400E-03,  -6.25094E-03,   3.51077E-03
C:/temp/dataset/2/25_1.odb,Step-1,Increment      1: Step Time =    1.000,"PART-1-1",           572,      -6.18287,      -28.7136,            0.,NA,NA,"",   2.48720E-03,  -1.22509E-03,  -2.16456E-03,   2.58970E-03
C:/temp/dataset/2/25_1.odb,Step-1,Increment      1: Step Time =    1.000,"PART-1-1",           573,          -4.5,          -30.,            0.,NA,NA,"",            0.,   240.363E-42,  -4.70418E-39,   2.07074E-03
C:/temp/dataset/2/25_1.odb,Step-1,Increment      1: Step Time =    1.000,"PART-1-1",           574,       12.5384,       2.02620,            0.,NA,NA,"",       1.87741,       1.00531,      -1.58556,   2.45798E-03
C:/temp/dataset/2/25_1.odb,Step-1,Increment      1: Step Time =    1.000,"PART-1-1",           575,           15.,       2.29167,            0.,NA,NA,"",       2.05947,       1.02135,      -1.78837,   3.34151E-03
C:/temp/dataset/2/25_1.odb,Step-1,Increment      1: Step Time =    1.000,"PART-1-1",           576,       9.96595,       9.83263,            0.,NA,NA,"",       2.18477,       1.67159,      -1.40678,   2.04099E-03
C:/temp/dataset/2/25_1.odb,Step-1,Increment      1: Step Time =    1.000,"PART-1-1",           577,           15.,       19.7917,            0.,NA,NA,"",       3.16874,       2.54261,      -1.89104,   41.9785E-06
C:/temp/dataset/2/25_1.odb,Step-1,Increment      1: Step Time =    1.000,"PART-1-1",           578,       7.90800,       20.1372,            0.,NA,NA,"",       2.89291,       2.60233,      -1.26365,   367.619E-06
C:/temp/dataset/2/25_1.odb,Step-1,Increment      1: Step Time =    1.000,"PART-1-1",           579,       8.41916,       21.3934,            0.,NA,NA,"",       3.01292,       2.71144,      -1.31370,   176.060E-06
C:/temp/dataset/2/25_1.odb,Step-1,Increment      1: Step Time =    1.000,"PART-1-1",           580,       6.50486,       21.1025,            0.,NA,NA,"",       2.92606,       2.69352,      -1.14314,   204.673E-06
C:/temp/dataset/2/25_1.odb,Step-1,Increment      1: Step Time =    1.000,"PART-1-1",           581,           4.5,          -30.,            0.,NA,NA,"",            0.,   1.89446E-39,  -1.41173E-39,   1.76826E-03
C:/temp/dataset/2/25_1.odb,Step-1,Increment      1: Step Time =    1.000,"PART-1-1",           582,       3.62857,      -22.4261,            0.,NA,NA,"",   11.0539E-03,   11.0240E-03,  -812.708E-06,   964.807E-06
C:/temp/dataset/2/25_1.odb,Step-1,Increment      1: Step Time =    1.000,"PART-1-1",           583,       2.16864,      -23.6665,            0.,NA,NA,"",   11.9884E-03,   11.7221E-03,  -2.51281E-03,   1.59783E-03
C:/temp/dataset/2/25_1.odb,Step-1,Increment      1: Step Time =    1.000,"PART-1-1",           584,      -2.73954,      -22.4743,            0.,NA,NA,"",   26.6910E-03,   18.9699E-03,  -18.7764E-03,   5.29760E-03
C:/temp/dataset/2/25_1.odb,Step-1,Increment      1: Step Time =    1.000,"PART-1-1",           585,  -999.676E-03,      -23.6839,            0.,NA,NA,"",   17.1384E-03,   14.4431E-03,  -9.22611E-03,   3.63643E-03
C:/temp/dataset/2/25_1.odb,Step-1,Increment      1: Step Time =    1.000,"PART-1-1",           586,      -7.82572,      -27.3936,            0.,NA,NA,"",   4.47069E-03,  -3.50692E-03,  -2.77282E-03,   2.11146E-03
C:/temp/dataset/2/25_1.odb,Step-1,Increment      1: Step Time =    1.000,"PART-1-1",           587,      -6.52069,      -26.1528,            0.,NA,NA,"",   8.80986E-03,   307.472E-06,  -8.80449E-03,   4.04599E-03
C:/temp/dataset/2/25_1.odb,Step-1,Increment      1: Step Time =    1.000,"PART-1-1",           588,      -8.08310,      -24.7829,            0.,NA,NA,"",   6.63605E-03,   535.567E-06,  -6.61440E-03,   2.88052E-03
C:/temp/dataset/2/25_1.odb,Step-1,Increment      1: Step Time =    1.000,"PART-1-1",           589,      -9.38814,      -26.0237,            0.,NA,NA,"",   3.97530E-03,  -3.58493E-03,   1.71793E-03,   2.38845E-03
C:/temp/dataset/2/25_1.odb,Step-1,Increment      1: Step Time =    1.000,"PART-1-1",           590,          -7.5,          -30.,            0.,NA,NA,"",            0.,  -2.23361E-39,  -1.59280E-39,   1.91353E-03
C:/temp/dataset/2/25_1.odb,Step-1,Increment      1: Step Time =    1.000,"PART-1-1",           591,       7.73182,       24.8866,            0.,NA,NA,"",       3.27800,       3.02342,      -1.26659,   33.6194E-06
C:/temp/dataset/2/25_1.odb,Step-1,Increment      1: Step Time =    1.000,"PART-1-1",           592,       8.21760,       26.2797,            0.,NA,NA,"",       3.40874,       3.14484,      -1.31510,   27.4786E-06
C:/temp/dataset/2/25_1.odb,Step-1,Increment      1: Step Time =    1.000,"PART-1-1",           593,       6.12718,       25.7561,            0.,NA,NA,"",       3.30513,       3.10668,      -1.12804,   36.8696E-06
C:/temp/dataset/2/25_1.odb,Step-1,Increment      1: Step Time =    1.000,"PART-1-1",           594,       5.38844,       22.1508,            0.,NA,NA,"",       2.98109,       2.79057,      -1.04861,   88.7230E-06
C:/temp/dataset/2/25_1.odb,Step-1,Increment      1: Step Time =    1.000,"PART-1-1",           595,      -3.37677,   775.412E-03,            0.,NA,NA,"",       1.01083,   937.253E-03,  -378.590E-03,   2.93500E-03
C:/temp/dataset/2/25_1.odb,Step-1,Increment      1: Step Time =    1.000,"PART-1-1",           596,      -3.41233,       2.84116,            0.,NA,NA,"",       1.13768,       1.07057,  -384.970E-03,   4.91522E-03
C:/temp/dataset/2/25_1.odb,Step-1,Increment      1: Step Time =    1.000,"PART-1-1",           597,      -11.2482,       24.9673,            0.,NA,NA,"",       3.13228,       3.10508,   411.864E-03,   122.231E-09
C:/temp/dataset/2/25_1.odb,Step-1,Increment      1: Step Time =    1.000,"PART-1-1",           598,       5.16292,       24.1270,            0.,NA,NA,"",       3.14212,       2.96629,      -1.03636,   55.1993E-06
C:/temp/dataset/2/25_1.odb,Step-1,Increment      1: Step Time =    1.000,"PART-1-1",           599,            0.,            5.,            0.,NA,NA,"",       1.37477,       1.22555,  -622.908E-03,   8.23629E-03
C:/temp/dataset/2/25_1.odb,Step-1,Increment      1: Step Time =    1.000,"PART-1-1",           600,      -1.80204,       3.95011,            0.,NA,NA,"",       1.24972,       1.14752,  -494.980E-03,   6.72048E-03
C:/temp/dataset/2/25_1.odb,Step-1,Increment      1: Step Time =    1.000,"PART-1-1",           601,       9.59799,       22.9228,            0.,NA,NA,"",       3.17899,       2.84217,      -1.42409,   61.6008E-06
C:/temp/dataset/2/25_1.odb,Step-1,Increment      1: Step Time =    1.000,"PART-1-1",           602,       8.30932,       22.9391,            0.,NA,NA,"",       3.13551,       2.84872,      -1.31003,   66.2345E-06
C:/temp/dataset/2/25_1.odb,Step-1,Increment      1: Step Time =    1.000,"PART-1-1",           603,      -1.93269,      -1.01257,            0.,NA,NA,"",   942.161E-03,   818.115E-03,  -467.285E-03,   539.485E-06
C:/temp/dataset/2/25_1.odb,Step-1,Increment      1: Step Time =    1.000,"PART-1-1",           604,      -8.69440,      -13.5596,            0.,NA,NA,"",   208.974E-03,   207.473E-03,  -25.0031E-03,   3.94048E-03
C:/temp/dataset/2/25_1.odb,Step-1,Increment      1: Step Time =    1.000,"PART-1-1",           605,       6.07991,       2.65614,            0.,NA,NA,"",       1.50209,       1.06836,      -1.05589,   2.93209E-03
C:/temp/dataset/2/25_1.odb,Step-1,Increment      1: Step Time =    1.000,"PART-1-1",           606,       4.75906,       1.28045,            0.,NA,NA,"",       1.35510,   966.297E-03,  -950.032E-03,   1.77344E-03
C:/temp/dataset/2/25_1.odb,Step-1,Increment      1: Step Time =    1.000,"PART-1-1",           607,       10.0234,       4.43547,            0.,NA,NA,"",       1.83863,       1.20575,      -1.38806,   1.91989E-03
C:/temp/dataset/2/25_1.odb,Step-1,Increment      1: Step Time =    1.000,"PART-1-1",           608,       7.46673,       4.06304,            0.,NA,NA,"",       1.66327,       1.17852,      -1.17370,   2.85460E-03
C:/temp/dataset/2/25_1.odb,Step-1,Increment      1: Step Time =    1.000,"PART-1-1",           609,  -317.165E-03,  -486.862E-03,            0.,NA,NA,"",       1.02777,   849.893E-03,  -577.927E-03,   217.729E-06
C:/temp/dataset/2/25_1.odb,Step-1,Increment      1: Step Time =    1.000,"PART-1-1",           610,       1.72730,   921.331E-03,            0.,NA,NA,"",       1.19110,   945.103E-03,  -724.918E-03,   1.97099E-03
C:/temp/dataset/2/25_1.odb,Step-1,Increment      1: Step Time =    1.000,"PART-1-1",           611,      -4.63664,      -21.2535,            0.,NA,NA,"",   43.8386E-03,   24.7595E-03,  -36.1773E-03,   12.0885E-03
C:/temp/dataset/2/25_1.odb,Step-1,Increment      1: Step Time =    1.000,"PART-1-1",           612,       11.2827,       3.26092,            0.,NA,NA,"",       1.85430,       1.10726,      -1.48741,   2.43096E-03
C:/temp/dataset/2/25_1.odb,Step-1,Increment      1: Step Time =    1.000,"PART-1-1",           613,      -11.4502,      -4.36864,            0.,NA,NA,"",   637.244E-03,   631.829E-03,   82.8985E-03,   4.92729E-03
C:/temp/dataset/2/25_1.odb,Step-1,Increment      1: Step Time =    1.000,"PART-1-1",           614,      -10.8693,      -24.5529,            0.,NA,NA,"",   13.8030E-03,   1.11315E-03,   13.7580E-03,   4.17395E-03
C:/temp/dataset/2/25_1.odb,Step-1,Increment      1: Step Time =    1.000,"PART-1-1",           615,      -9.52531,      -23.3517,            0.,NA,NA,"",   6.48758E-03,   5.56610E-03,   3.33275E-03,   3.08025E-03
C:/temp/dataset/2/25_1.odb,Step-1,Increment      1: Step Time =    1.000,"PART-1-1",           616,      -10.8903,      -21.7518,            0.,NA,NA,"",   29.9919E-03,   19.6825E-03,   22.6300E-03,   4.76687E-03
C:/temp/dataset/2/25_1.odb,Step-1,Increment      1: Step Time =    1.000,"PART-1-1",           617,       3.33333,          -20.,            0.,NA,NA,"",   10.2564E-03,   10.2459E-03,  -464.980E-06,   312.863E-06
C:/temp/dataset/2/25_1.odb,Step-1,Increment      1: Step Time =    1.000,"PART-1-1",           618,       1.83446,      -21.2108,            0.,NA,NA,"",   11.9646E-03,   11.7432E-03,  -2.29098E-03,   876.304E-06
C:/temp/dataset/2/25_1.odb,Step-1,Increment      1: Step Time =    1.000,"PART-1-1",           619,       5.12744,      -21.2153,            0.,NA,NA,"",   10.1684E-03,   10.1648E-03,   273.976E-06,   403.256E-06
C:/temp/dataset/2/25_1.odb,Step-1,Increment      1: Step Time =    1.000,"PART-1-1",           620,            0.,          -20.,            0.,NA,NA,"",   12.0915E-03,   10.9582E-03,  -5.11098E-03,   1.24097E-03
C:/temp/dataset/2/25_1.odb,Step-1,Increment      1: Step Time =    1.000,"PART-1-1",           621,      -1.43624,      -21.2208,            0.,NA,NA,"",   20.1828E-03,   16.4250E-03,  -11.7289E-03,   2.78853E-03
C:/temp/dataset/2/25_1.odb,Step-1,Increment      1: Step Time =    1.000,"PART-1-1",           622,   398.228E-03,      -22.4316,            0.,NA,NA,"",   15.0351E-03,   13.9039E-03,  -5.72166E-03,   2.32656E-03
C:/temp/dataset/2/25_1.odb,Step-1,Increment      1: Step Time =    1.000,"PART-1-1",           623,   770.736E-03,      -24.9188,            0.,NA,NA,"",   12.3065E-03,   11.4576E-03,  -4.49149E-03,   2.50897E-03
C:/temp/dataset/2/25_1.odb,Step-1,Increment      1: Step Time =    1.000,"PART-1-1",           624,      -3.33333,          -20.,            0.,NA,NA,"",   26.6049E-03,   17.8970E-03,  -19.6855E-03,   7.68690E-03
C:/temp/dataset/2/25_1.odb,Step-1,Increment      1: Step Time =    1.000,"PART-1-1",           625,       8.69606,       24.2205,            0.,NA,NA,"",       3.25364,       2.96065,      -1.34933,   40.4482E-06
C:/temp/dataset/2/25_1.odb,Step-1,Increment      1: Step Time =    1.000,"PART-1-1",           626,      -3.33333,            5.,            0.,NA,NA,"",       1.27342,       1.20870,  -400.806E-03,   7.91875E-03
C:/temp/dataset/2/25_1.odb,Step-1,Increment      1: Step Time =    1.000,"PART-1-1",           627,      -4.94363,       3.89105,            0.,NA,NA,"",       1.17005,       1.13240,  -294.411E-03,   6.06428E-03
C:/temp/dataset/2/25_1.odb,Step-1,Increment      1: Step Time =    1.000,"PART-1-1",           628,      -6.66667,            5.,            0.,NA,NA,"",       1.20877,       1.19269,  -196.490E-03,   6.15022E-03
C:/temp/dataset/2/25_1.odb,Step-1,Increment      1: Step Time =    1.000,"PART-1-1",           629,           10.,          -20.,            0.,NA,NA,"",   9.66156E-03,   9.66064E-03,   132.831E-06,   15.2447E-06
C:/temp/dataset/2/25_1.odb,Step-1,Increment      1: Step Time =    1.000,"PART-1-1",           630,       8.42239,      -21.2201,            0.,NA,NA,"",   9.35861E-03,   9.34408E-03,   521.417E-06,   182.395E-06
C:/temp/dataset/2/25_1.odb,Step-1,Increment      1: Step Time =    1.000,"PART-1-1",           631,       6.66667,          -20.,            0.,NA,NA,"",   9.73722E-03,   9.71021E-03,   724.708E-06,   118.826E-06
C:/temp/dataset/2/25_1.odb,Step-1,Increment      1: Step Time =    1.000,"PART-1-1",           632,       9.53008,       25.0675,            0.,NA,NA,"",       3.35117,       3.03237,      -1.42654,   33.7069E-06
