ODB Name,Step,Frame,Part Instance Name,    êﬂì_ÉâÉxÉã,X,Y,Z,Section Name,Material Name,Section Point,   U-Magnitude,          U-U1,          U-U2,       S-Mises
C:/temp/dataset/2/25_3.odb,Step-1,Increment      1: Step Time =    1.000,"PART-1-1",             1,          -15.,           20.,            0.,NA,NA,"",       8.65542,       8.49249,       1.67150,   28.9579E-09
C:/temp/dataset/2/25_3.odb,Step-1,Increment      1: Step Time =    1.000,"PART-1-1",             2,          -15.,           25.,            0.,NA,NA,"",       9.94905,       9.83725,       1.48727,   143.030E-09
C:/temp/dataset/2/25_3.odb,Step-1,Increment      1: Step Time =    1.000,"PART-1-1",             3,          -10.,           20.,            0.,NA,NA,"",       8.31468,       8.30826,   326.744E-03,   489.336E-09
C:/temp/dataset/2/25_3.odb,Step-1,Increment      1: Step Time =    1.000,"PART-1-1",             4,           -5.,           20.,            0.,NA,NA,"",       8.18756,       8.12402,      -1.01802,   3.65814E-06
C:/temp/dataset/2/25_3.odb,Step-1,Increment      1: Step Time =    1.000,"PART-1-1",             5,            0.,           20.,            0.,NA,NA,"",       8.28392,       7.93979,      -2.36285,   35.7107E-06
C:/temp/dataset/2/25_3.odb,Step-1,Increment      1: Step Time =    1.000,"PART-1-1",             6,            5.,           20.,            0.,NA,NA,"",       8.59772,       7.75685,      -3.70838,   1.44739E-03
C:/temp/dataset/2/25_3.odb,Step-1,Increment      1: Step Time =    1.000,"PART-1-1",             7,            5.,          12.5,            0.,NA,NA,"",       6.67438,       5.72020,      -3.43897,   5.51226E-03
C:/temp/dataset/2/25_3.odb,Step-1,Increment      1: Step Time =    1.000,"PART-1-1",             8,            5.,            5.,            0.,NA,NA,"",       4.87175,       3.64826,      -3.22865,   33.5966E-03
C:/temp/dataset/2/25_3.odb,Step-1,Increment      1: Step Time =    1.000,"PART-1-1",             9,           -5.,            5.,            0.,NA,NA,"",       3.79476,       3.63079,      -1.10343,   23.5417E-03
C:/temp/dataset/2/25_3.odb,Step-1,Increment      1: Step Time =    1.000,"PART-1-1",            10,          -15.,            5.,            0.,NA,NA,"",       3.76146,       3.70144,   669.243E-03,   918.316E-06
C:/temp/dataset/2/25_3.odb,Step-1,Increment      1: Step Time =    1.000,"PART-1-1",            11,          -15.,         -3.75,            0.,NA,NA,"",       2.25599,       2.12951,   744.755E-03,   23.6522E-03
C:/temp/dataset/2/25_3.odb,Step-1,Increment      1: Step Time =    1.000,"PART-1-1",            12,          -15.,         -12.5,            0.,NA,NA,"",       1.00775,   829.503E-03,   572.258E-03,   41.2958E-03
C:/temp/dataset/2/25_3.odb,Step-1,Increment      1: Step Time =    1.000,"PART-1-1",            13,          -15.,        -21.25,            0.,NA,NA,"",   280.913E-03,   132.296E-03,   247.810E-03,   43.0496E-03
C:/temp/dataset/2/25_3.odb,Step-1,Increment      1: Step Time =    1.000,"PART-1-1",            14,          -15.,          -30.,            0.,NA,NA,"",            0.,   7.92523E-39,   15.0496E-39,   23.6323E-03
C:/temp/dataset/2/25_3.odb,Step-1,Increment      1: Step Time =    1.000,"PART-1-1",            15,           15.,          -30.,            0.,NA,NA,"",            0.,   1.69320E-39,  -2.80455E-39,   4.70189E-03
C:/temp/dataset/2/25_3.odb,Step-1,Increment      1: Step Time =    1.000,"PART-1-1",            16,           15.,          -25.,            0.,NA,NA,"",   19.9361E-03,   18.3627E-03,  -7.76274E-03,   144.144E-06
C:/temp/dataset/2/25_3.odb,Step-1,Increment      1: Step Time =    1.000,"PART-1-1",            17,           15.,          -20.,            0.,NA,NA,"",   29.7590E-03,   28.8140E-03,  -7.43967E-03,   16.5158E-06
C:/temp/dataset/2/25_3.odb,Step-1,Increment      1: Step Time =    1.000,"PART-1-1",            18,            5.,          -20.,            0.,NA,NA,"",   28.8513E-03,   28.8239E-03,   1.25590E-03,   699.354E-06
C:/temp/dataset/2/25_3.odb,Step-1,Increment      1: Step Time =    1.000,"PART-1-1",            19,           -5.,          -20.,            0.,NA,NA,"",   176.963E-03,   86.0173E-03,  -154.650E-03,   65.9745E-03
C:/temp/dataset/2/25_3.odb,Step-1,Increment      1: Step Time =    1.000,"PART-1-1",            20,           -5.,         -12.5,            0.,NA,NA,"",   925.478E-03,   765.527E-03,  -520.074E-03,   39.8700E-03
C:/temp/dataset/2/25_3.odb,Step-1,Increment      1: Step Time =    1.000,"PART-1-1",            21,           -5.,           -5.,            0.,NA,NA,"",       1.91975,       1.72791,  -836.514E-03,   39.0983E-03
C:/temp/dataset/2/25_3.odb,Step-1,Increment      1: Step Time =    1.000,"PART-1-1",            22,            0.,           -5.,            0.,NA,NA,"",       2.41985,       1.51856,      -1.88405,   18.6206E-03
C:/temp/dataset/2/25_3.odb,Step-1,Increment      1: Step Time =    1.000,"PART-1-1",            23,            5.,           -5.,            0.,NA,NA,"",       3.26291,       1.30818,      -2.98919,   16.6629E-03
C:/temp/dataset/2/25_3.odb,Step-1,Increment      1: Step Time =    1.000,"PART-1-1",            24,           10.,           -5.,            0.,NA,NA,"",       4.33265,       1.10723,      -4.18879,   6.07384E-03
C:/temp/dataset/2/25_3.odb,Step-1,Increment      1: Step Time =    1.000,"PART-1-1",            25,           15.,           -5.,            0.,NA,NA,"",       5.50064,   945.844E-03,      -5.41871,   460.389E-06
C:/temp/dataset/2/25_3.odb,Step-1,Increment      1: Step Time =    1.000,"PART-1-1",            26,           15.,          3.75,            0.,NA,NA,"",       6.49468,       3.07276,      -5.72180,   12.2407E-03
C:/temp/dataset/2/25_3.odb,Step-1,Increment      1: Step Time =    1.000,"PART-1-1",            27,           15.,          12.5,            0.,NA,NA,"",       8.12032,       5.34987,      -6.10888,   5.26119E-03
C:/temp/dataset/2/25_3.odb,Step-1,Increment      1: Step Time =    1.000,"PART-1-1",            28,           15.,         21.25,            0.,NA,NA,"",       10.0569,       7.71919,      -6.44641,   418.194E-06
C:/temp/dataset/2/25_3.odb,Step-1,Increment      1: Step Time =    1.000,"PART-1-1",            29,           15.,           30.,            0.,NA,NA,"",       12.1393,       10.0771,      -6.76868,   12.5994E-06
C:/temp/dataset/2/25_3.odb,Step-1,Increment      1: Step Time =    1.000,"PART-1-1",            30,           7.5,           30.,            0.,NA,NA,"",       11.3906,       10.3536,      -4.74871,   187.711E-06
C:/temp/dataset/2/25_3.odb,Step-1,Increment      1: Step Time =    1.000,"PART-1-1",            31,            0.,           30.,            0.,NA,NA,"",       10.9746,       10.6293,      -2.73118,   14.9094E-06
C:/temp/dataset/2/25_3.odb,Step-1,Increment      1: Step Time =    1.000,"PART-1-1",            32,          -7.5,           30.,            0.,NA,NA,"",       10.9290,       10.9057,  -714.099E-03,   1.27937E-06
C:/temp/dataset/2/25_3.odb,Step-1,Increment      1: Step Time =    1.000,"PART-1-1",            33,          -15.,           30.,            0.,NA,NA,"",       11.2577,       11.1820,       1.30304,   22.8898E-09
C:/temp/dataset/2/25_3.odb,Step-1,Increment      1: Step Time =    1.000,"PART-1-1",            34,          -15.,          22.5,            0.,NA,NA,"",       9.29997,       9.16487,       1.57939,   64.7682E-09
C:/temp/dataset/2/25_3.odb,Step-1,Increment      1: Step Time =    1.000,"PART-1-1",            35,         -12.5,           20.,            0.,NA,NA,"",       8.45959,       8.40038,   999.123E-03,   73.5798E-09
C:/temp/dataset/2/25_3.odb,Step-1,Increment      1: Step Time =    1.000,"PART-1-1",            36,          -7.5,           20.,            0.,NA,NA,"",       8.22341,       8.21614,  -345.636E-03,   1.21968E-06
C:/temp/dataset/2/25_3.odb,Step-1,Increment      1: Step Time =    1.000,"PART-1-1",            37,          -2.5,           20.,            0.,NA,NA,"",       8.20785,       8.03189,      -1.69041,   8.46015E-06
C:/temp/dataset/2/25_3.odb,Step-1,Increment      1: Step Time =    1.000,"PART-1-1",            38,           2.5,           20.,            0.,NA,NA,"",       8.41417,       7.84758,      -3.03543,   209.170E-06
C:/temp/dataset/2/25_3.odb,Step-1,Increment      1: Step Time =    1.000,"PART-1-1",            39,            5.,           15.,            0.,NA,NA,"",       7.31330,       6.40644,      -3.52731,   3.69287E-03
C:/temp/dataset/2/25_3.odb,Step-1,Increment      1: Step Time =    1.000,"PART-1-1",            40,            5.,          17.5,            0.,NA,NA,"",       7.95591,       7.08582,      -3.61768,   3.11379E-03
C:/temp/dataset/2/25_3.odb,Step-1,Increment      1: Step Time =    1.000,"PART-1-1",            41,            5.,           7.5,            0.,NA,NA,"",       5.45362,       4.35314,      -3.28513,   13.9263E-03
C:/temp/dataset/2/25_3.odb,Step-1,Increment      1: Step Time =    1.000,"PART-1-1",            42,            5.,           10.,            0.,NA,NA,"",       6.05151,       5.03365,      -3.35904,   7.58018E-03
C:/temp/dataset/2/25_3.odb,Step-1,Increment      1: Step Time =    1.000,"PART-1-1",            43,      -1.66667,            5.,            0.,NA,NA,"",       4.04743,       3.63975,      -1.77029,   25.2186E-03
C:/temp/dataset/2/25_3.odb,Step-1,Increment      1: Step Time =    1.000,"PART-1-1",            44,       1.66667,            5.,            0.,NA,NA,"",       4.40585,       3.63776,      -2.48559,   25.8378E-03
C:/temp/dataset/2/25_3.odb,Step-1,Increment      1: Step Time =    1.000,"PART-1-1",            45,      -11.6667,            5.,            0.,NA,NA,"",       3.65294,       3.65190,   87.3045E-03,   3.56161E-03
C:/temp/dataset/2/25_3.odb,Step-1,Increment      1: Step Time =    1.000,"PART-1-1",            46,      -8.33333,            5.,            0.,NA,NA,"",       3.66110,       3.62796,  -491.523E-03,   14.5830E-03
C:/temp/dataset/2/25_3.odb,Step-1,Increment      1: Step Time =    1.000,"PART-1-1",            47,          -15.,  -833.333E-03,            0.,NA,NA,"",       2.75440,       2.65178,   744.831E-03,   12.7505E-03
C:/temp/dataset/2/25_3.odb,Step-1,Increment      1: Step Time =    1.000,"PART-1-1",            48,          -15.,       2.08333,            0.,NA,NA,"",       3.26184,       3.18254,   714.852E-03,   2.78898E-03
C:/temp/dataset/2/25_3.odb,Step-1,Increment      1: Step Time =    1.000,"PART-1-1",            49,          -15.,      -9.58333,            0.,NA,NA,"",       1.37028,       1.20543,   651.628E-03,   37.2115E-03
C:/temp/dataset/2/25_3.odb,Step-1,Increment      1: Step Time =    1.000,"PART-1-1",            50,          -15.,      -6.66667,            0.,NA,NA,"",       1.78867,       1.64130,   710.976E-03,   31.9738E-03
C:/temp/dataset/2/25_3.odb,Step-1,Increment      1: Step Time =    1.000,"PART-1-1",            51,          -15.,      -18.3333,            0.,NA,NA,"",   462.100E-03,   285.745E-03,   363.162E-03,   46.1615E-03
C:/temp/dataset/2/25_3.odb,Step-1,Increment      1: Step Time =    1.000,"PART-1-1",            52,          -15.,      -15.4167,            0.,NA,NA,"",   704.156E-03,   519.959E-03,   474.846E-03,   45.1914E-03
C:/temp/dataset/2/25_3.odb,Step-1,Increment      1: Step Time =    1.000,"PART-1-1",            53,          -15.,      -27.0833,            0.,NA,NA,"",   65.6572E-03,   19.2622E-03,   62.7682E-03,   28.8735E-03
C:/temp/dataset/2/25_3.odb,Step-1,Increment      1: Step Time =    1.000,"PART-1-1",            54,          -15.,      -24.1667,            0.,NA,NA,"",   154.082E-03,   50.9098E-03,   145.429E-03,   35.5905E-03
C:/temp/dataset/2/25_3.odb,Step-1,Increment      1: Step Time =    1.000,"PART-1-1",            55,           12.,          -30.,            0.,NA,NA,"",            0.,   6.84924E-39,  -6.44390E-39,   2.20660E-03
C:/temp/dataset/2/25_3.odb,Step-1,Increment      1: Step Time =    1.000,"PART-1-1",            56,            9.,          -30.,            0.,NA,NA,"",            0.,   6.06283E-39,   1.97844E-39,   3.22926E-03
C:/temp/dataset/2/25_3.odb,Step-1,Increment      1: Step Time =    1.000,"PART-1-1",            57,            6.,          -30.,            0.,NA,NA,"",            0.,   12.0804E-39,  -12.0365E-39,   4.48442E-03
C:/temp/dataset/2/25_3.odb,Step-1,Increment      1: Step Time =    1.000,"PART-1-1",            58,            3.,          -30.,            0.,NA,NA,"",            0.,   10.6532E-39,  -4.45991E-39,   6.20266E-03
C:/temp/dataset/2/25_3.odb,Step-1,Increment      1: Step Time =    1.000,"PART-1-1",            59,            0.,          -30.,            0.,NA,NA,"",            0.,   20.5187E-39,  -29.5065E-39,   7.74143E-03
C:/temp/dataset/2/25_3.odb,Step-1,Increment      1: Step Time =    1.000,"PART-1-1",            60,           -3.,          -30.,            0.,NA,NA,"",            0.,   16.1902E-39,  -34.9463E-39,   7.73621E-03
C:/temp/dataset/2/25_3.odb,Step-1,Increment      1: Step Time =    1.000,"PART-1-1",            61,           -6.,          -30.,            0.,NA,NA,"",            0.,   3.56490E-42,  -21.1994E-39,   6.51417E-03
C:/temp/dataset/2/25_3.odb,Step-1,Increment      1: Step Time =    1.000,"PART-1-1",            62,           -9.,          -30.,            0.,NA,NA,"",            0.,  -18.2571E-39,  -7.22842E-39,   8.12309E-03
C:/temp/dataset/2/25_3.odb,Step-1,Increment      1: Step Time =    1.000,"PART-1-1",            63,          -12.,          -30.,            0.,NA,NA,"",            0.,   3.37594E-39,   45.3605E-39,   13.2873E-03
C:/temp/dataset/2/25_3.odb,Step-1,Increment      1: Step Time =    1.000,"PART-1-1",            64,           15.,         -27.5,            0.,NA,NA,"",   12.3397E-03,   10.3928E-03,  -6.65252E-03,   1.62294E-03
C:/temp/dataset/2/25_3.odb,Step-1,Increment      1: Step Time =    1.000,"PART-1-1",            65,           15.,         -22.5,            0.,NA,NA,"",   25.3843E-03,   24.2296E-03,  -7.56910E-03,   125.116E-06
C:/temp/dataset/2/25_3.odb,Step-1,Increment      1: Step Time =    1.000,"PART-1-1",            66,       8.33333,          -20.,            0.,NA,NA,"",   28.3489E-03,   28.2920E-03,   1.79610E-03,   93.6803E-06
C:/temp/dataset/2/25_3.odb,Step-1,Increment      1: Step Time =    1.000,"PART-1-1",            67,       11.6667,          -20.,            0.,NA,NA,"",   28.6000E-03,   28.5520E-03,  -1.65645E-03,   146.198E-06
C:/temp/dataset/2/25_3.odb,Step-1,Increment      1: Step Time =    1.000,"PART-1-1",            68,      -1.66667,          -20.,            0.,NA,NA,"",   52.8258E-03,   35.4993E-03,  -39.1199E-03,   13.5639E-03
C:/temp/dataset/2/25_3.odb,Step-1,Increment      1: Step Time =    1.000,"PART-1-1",            69,       1.66667,          -20.,            0.,NA,NA,"",   31.6572E-03,   30.6058E-03,  -8.09103E-03,   2.09362E-03
C:/temp/dataset/2/25_3.odb,Step-1,Increment      1: Step Time =    1.000,"PART-1-1",            70,           -5.,          -15.,            0.,NA,NA,"",   656.275E-03,   509.492E-03,  -413.660E-03,   42.2706E-03
C:/temp/dataset/2/25_3.odb,Step-1,Increment      1: Step Time =    1.000,"PART-1-1",            71,           -5.,         -17.5,            0.,NA,NA,"",   422.367E-03,   288.788E-03,  -308.214E-03,   52.7089E-03
C:/temp/dataset/2/25_3.odb,Step-1,Increment      1: Step Time =    1.000,"PART-1-1",            72,           -5.,          -7.5,            0.,NA,NA,"",       1.56925,       1.39352,  -721.556E-03,   35.6581E-03
C:/temp/dataset/2/25_3.odb,Step-1,Increment      1: Step Time =    1.000,"PART-1-1",            73,           -5.,          -10.,            0.,NA,NA,"",       1.23108,       1.06174,  -623.109E-03,   35.6961E-03
C:/temp/dataset/2/25_3.odb,Step-1,Increment      1: Step Time =    1.000,"PART-1-1",            74,          -2.5,           -5.,            0.,NA,NA,"",       2.11417,       1.61626,      -1.36287,   24.7919E-03
C:/temp/dataset/2/25_3.odb,Step-1,Increment      1: Step Time =    1.000,"PART-1-1",            75,           2.5,           -5.,            0.,NA,NA,"",       2.80681,       1.41510,      -2.42397,   19.4399E-03
C:/temp/dataset/2/25_3.odb,Step-1,Increment      1: Step Time =    1.000,"PART-1-1",            76,           7.5,           -5.,            0.,NA,NA,"",       3.77669,       1.20350,      -3.57980,   12.0408E-03
C:/temp/dataset/2/25_3.odb,Step-1,Increment      1: Step Time =    1.000,"PART-1-1",            77,          12.5,           -5.,            0.,NA,NA,"",       4.91273,       1.02253,      -4.80514,   1.26144E-03
C:/temp/dataset/2/25_3.odb,Step-1,Increment      1: Step Time =    1.000,"PART-1-1",            78,           15.,   833.333E-03,            0.,NA,NA,"",       6.08239,       2.36063,      -5.60562,   7.54212E-03
C:/temp/dataset/2/25_3.odb,Step-1,Increment      1: Step Time =    1.000,"PART-1-1",            79,           15.,      -2.08333,            0.,NA,NA,"",       5.75103,       1.65661,      -5.50726,   1.71675E-03
C:/temp/dataset/2/25_3.odb,Step-1,Increment      1: Step Time =    1.000,"PART-1-1",            80,           15.,       9.58333,            0.,NA,NA,"",       7.52826,       4.56944,      -5.98289,   9.43697E-03
C:/temp/dataset/2/25_3.odb,Step-1,Increment      1: Step Time =    1.000,"PART-1-1",            81,           15.,       6.66667,            0.,NA,NA,"",       6.98119,       3.80797,      -5.85118,   12.5889E-03
C:/temp/dataset/2/25_3.odb,Step-1,Increment      1: Step Time =    1.000,"PART-1-1",            82,           15.,       18.3333,            0.,NA,NA,"",       9.39157,       6.93020,      -6.33828,   275.495E-06
C:/temp/dataset/2/25_3.odb,Step-1,Increment      1: Step Time =    1.000,"PART-1-1",            83,           15.,       15.4167,            0.,NA,NA,"",       8.74448,       6.13933,      -6.22693,   1.96778E-03
C:/temp/dataset/2/25_3.odb,Step-1,Increment      1: Step Time =    1.000,"PART-1-1",            84,           15.,       27.0833,            0.,NA,NA,"",       11.4326,       9.29165,      -6.66096,   75.6819E-06
C:/temp/dataset/2/25_3.odb,Step-1,Increment      1: Step Time =    1.000,"PART-1-1",            85,           15.,       24.1667,            0.,NA,NA,"",       10.7378,       8.50597,      -6.55361,   267.275E-06
C:/temp/dataset/2/25_3.odb,Step-1,Increment      1: Step Time =    1.000,"PART-1-1",            86,           10.,           30.,            0.,NA,NA,"",       11.6060,       10.2617,      -5.42187,   156.450E-06
C:/temp/dataset/2/25_3.odb,Step-1,Increment      1: Step Time =    1.000,"PART-1-1",            87,          12.5,           30.,            0.,NA,NA,"",       11.8563,       10.1695,      -6.09530,   50.6164E-06
C:/temp/dataset/2/25_3.odb,Step-1,Increment      1: Step Time =    1.000,"PART-1-1",            88,           2.5,           30.,            0.,NA,NA,"",       11.0733,       10.5373,      -3.40352,   60.8647E-06
C:/temp/dataset/2/25_3.odb,Step-1,Increment      1: Step Time =    1.000,"PART-1-1",            89,            5.,           30.,            0.,NA,NA,"",       11.2125,       10.4454,      -4.07597,   137.470E-06
C:/temp/dataset/2/25_3.odb,Step-1,Increment      1: Step Time =    1.000,"PART-1-1",            90,           -5.,           30.,            0.,NA,NA,"",       10.9021,       10.8135,      -1.38647,   2.25111E-06
C:/temp/dataset/2/25_3.odb,Step-1,Increment      1: Step Time =    1.000,"PART-1-1",            91,          -2.5,           30.,            0.,NA,NA,"",       10.9173,       10.7214,      -2.05884,   1.55280E-06
C:/temp/dataset/2/25_3.odb,Step-1,Increment      1: Step Time =    1.000,"PART-1-1",            92,         -12.5,           30.,            0.,NA,NA,"",       11.1078,       11.0899,   630.659E-03,   89.5791E-09
C:/temp/dataset/2/25_3.odb,Step-1,Increment      1: Step Time =    1.000,"PART-1-1",            93,          -10.,           30.,            0.,NA,NA,"",       10.9979,       10.9978,  -41.7208E-03,   430.706E-09
C:/temp/dataset/2/25_3.odb,Step-1,Increment      1: Step Time =    1.000,"PART-1-1",            94,          -15.,          27.5,            0.,NA,NA,"",       10.6018,       10.5096,       1.39515,   66.0212E-09
C:/temp/dataset/2/25_3.odb,Step-1,Increment      1: Step Time =    1.000,"PART-1-1",            95,      -12.4978,       24.9766,            0.,NA,NA,"",       9.77281,       9.73875,   815.154E-03,   198.871E-09
C:/temp/dataset/2/25_3.odb,Step-1,Increment      1: Step Time =    1.000,"PART-1-1",            96,      -7.49872,       27.4475,            0.,NA,NA,"",       10.2379,       10.2191,  -620.397E-03,   913.142E-09
C:/temp/dataset/2/25_3.odb,Step-1,Increment      1: Step Time =    1.000,"PART-1-1",            97,      -7.50661,       22.4446,            0.,NA,NA,"",       8.88446,       8.87386,  -433.930E-03,   1.00855E-06
C:/temp/dataset/2/25_3.odb,Step-1,Increment      1: Step Time =    1.000,"PART-1-1",            98,      -2.53392,       22.4091,            0.,NA,NA,"",       8.85971,       8.68109,      -1.77005,   10.5675E-06
C:/temp/dataset/2/25_3.odb,Step-1,Increment      1: Step Time =    1.000,"PART-1-1",            99,  -19.7467E-03,       27.3919,            0.,NA,NA,"",       10.2710,       9.92861,      -2.62977,   32.0632E-06
C:/temp/dataset/2/25_3.odb,Step-1,Increment      1: Step Time =    1.000,"PART-1-1",           100,       2.31326,       22.2671,            0.,NA,NA,"",       9.00321,       8.46415,      -3.06857,   265.299E-06
C:/temp/dataset/2/25_3.odb,Step-1,Increment      1: Step Time =    1.000,"PART-1-1",           101,       7.89882,       27.4278,            0.,NA,NA,"",       10.7575,       9.64662,      -4.76098,   84.6457E-06
C:/temp/dataset/2/25_3.odb,Step-1,Increment      1: Step Time =    1.000,"PART-1-1",           102,       6.74061,       20.0564,            0.,NA,NA,"",       8.76613,       7.70663,      -4.17766,   1.40005E-03
C:/temp/dataset/2/25_3.odb,Step-1,Increment      1: Step Time =    1.000,"PART-1-1",           103,       6.76082,       17.7755,            0.,NA,NA,"",       8.19179,       7.09112,      -4.10139,   3.27730E-03
C:/temp/dataset/2/25_3.odb,Step-1,Increment      1: Step Time =    1.000,"PART-1-1",           104,       7.34933,       13.0959,            0.,NA,NA,"",       7.09048,       5.78983,      -4.09301,   5.98799E-03
C:/temp/dataset/2/25_3.odb,Step-1,Increment      1: Step Time =    1.000,"PART-1-1",           105,       12.5251,      -2.17932,            0.,NA,NA,"",       5.18523,       1.70816,      -4.89580,   5.59171E-03
C:/temp/dataset/2/25_3.odb,Step-1,Increment      1: Step Time =    1.000,"PART-1-1",           106,       11.8446,      -24.9441,            0.,NA,NA,"",   18.6393E-03,   18.5566E-03,  -1.75387E-03,   1.26414E-03
C:/temp/dataset/2/25_3.odb,Step-1,Increment      1: Step Time =    1.000,"PART-1-1",           107,       2.44158,      -2.66949,            0.,NA,NA,"",       3.12974,       1.94095,      -2.45519,   9.41784E-03
C:/temp/dataset/2/25_3.odb,Step-1,Increment      1: Step Time =    1.000,"PART-1-1",           108,       7.46163,      -2.37632,            0.,NA,NA,"",       4.07138,       1.83243,      -3.63570,   9.26854E-03
C:/temp/dataset/2/25_3.odb,Step-1,Increment      1: Step Time =    1.000,"PART-1-1",           109,       7.48217,       7.95809,            0.,NA,NA,"",       5.90326,       4.38477,      -3.95250,   10.1429E-03
C:/temp/dataset/2/25_3.odb,Step-1,Increment      1: Step Time =    1.000,"PART-1-1",           110,      -5.01446,       22.4347,            0.,NA,NA,"",       8.84849,       8.77937,      -1.10384,   3.06101E-06
C:/temp/dataset/2/25_3.odb,Step-1,Increment      1: Step Time =    1.000,"PART-1-1",           111,  -75.1424E-03,       22.3615,            0.,NA,NA,"",       8.91516,       8.57769,      -2.42965,   58.5883E-06
C:/temp/dataset/2/25_3.odb,Step-1,Increment      1: Step Time =    1.000,"PART-1-1",           112,       4.50776,       22.1530,            0.,NA,NA,"",       9.11691,       8.35243,      -3.65444,   457.463E-06
C:/temp/dataset/2/25_3.odb,Step-1,Increment      1: Step Time =    1.000,"PART-1-1",           113,       7.06405,       15.4904,            0.,NA,NA,"",       7.64970,       6.45731,      -4.10136,   4.38123E-03
C:/temp/dataset/2/25_3.odb,Step-1,Increment      1: Step Time =    1.000,"PART-1-1",           114,       7.46285,       10.5556,            0.,NA,NA,"",       6.49470,       5.08907,      -4.03515,   6.44374E-03
C:/temp/dataset/2/25_3.odb,Step-1,Increment      1: Step Time =    1.000,"PART-1-1",           115,      -2.89738,      -2.05905,            0.,NA,NA,"",       2.59902,       2.22987,      -1.33513,   8.37014E-03
C:/temp/dataset/2/25_3.odb,Step-1,Increment      1: Step Time =    1.000,"PART-1-1",           116,      -7.61206,      -10.6629,            0.,NA,NA,"",       1.00441,   967.571E-03,  -269.515E-03,   19.1194E-03
C:/temp/dataset/2/25_3.odb,Step-1,Increment      1: Step Time =    1.000,"PART-1-1",           117,      -6.85891,      -17.7385,            0.,NA,NA,"",   297.745E-03,   251.427E-03,  -159.489E-03,   33.7219E-03
C:/temp/dataset/2/25_3.odb,Step-1,Increment      1: Step Time =    1.000,"PART-1-1",           118,       11.9280,      -27.4687,            0.,NA,NA,"",   10.0807E-03,   9.96985E-03,  -1.49110E-03,   2.57445E-03
C:/temp/dataset/2/25_3.odb,Step-1,Increment      1: Step Time =    1.000,"PART-1-1",           119,      -7.44747,      -13.1413,            0.,NA,NA,"",   713.651E-03,   676.490E-03,  -227.284E-03,   21.2585E-03
C:/temp/dataset/2/25_3.odb,Step-1,Increment      1: Step Time =    1.000,"PART-1-1",           120,      -7.13169,      -15.4658,            0.,NA,NA,"",   484.711E-03,   442.934E-03,  -196.860E-03,   26.6586E-03
C:/temp/dataset/2/25_3.odb,Step-1,Increment      1: Step Time =    1.000,"PART-1-1",           121,      -8.02089,      -5.87394,            0.,NA,NA,"",       1.67734,       1.64680,  -318.632E-03,   10.9940E-03
C:/temp/dataset/2/25_3.odb,Step-1,Increment      1: Step Time =    1.000,"PART-1-1",           122,      -7.74476,      -8.18529,            0.,NA,NA,"",       1.33586,       1.29978,  -308.373E-03,   15.6719E-03
C:/temp/dataset/2/25_3.odb,Step-1,Increment      1: Step Time =    1.000,"PART-1-1",           123,  -21.3834E-03,      -2.74811,            0.,NA,NA,"",       2.77558,       2.00603,      -1.91825,   11.5794E-03
C:/temp/dataset/2/25_3.odb,Step-1,Increment      1: Step Time =    1.000,"PART-1-1",           124,       4.94012,      -2.49525,            0.,NA,NA,"",       3.57298,       1.89428,      -3.02950,   9.41138E-03
C:/temp/dataset/2/25_3.odb,Step-1,Increment      1: Step Time =    1.000,"PART-1-1",           125,       10.0127,      -2.27482,            0.,NA,NA,"",       4.61944,       1.76770,      -4.26784,   8.42778E-03
C:/temp/dataset/2/25_3.odb,Step-1,Increment      1: Step Time =    1.000,"PART-1-1",           126,       10.2967,       27.4669,            0.,NA,NA,"",       10.9913,       9.56875,      -5.40812,   121.057E-06
C:/temp/dataset/2/25_3.odb,Step-1,Increment      1: Step Time =    1.000,"PART-1-1",           127,       12.6750,       27.3103,            0.,NA,NA,"",       11.2075,       9.43873,      -6.04305,   142.228E-06
C:/temp/dataset/2/25_3.odb,Step-1,Increment      1: Step Time =    1.000,"PART-1-1",           128,       2.52543,       27.2659,            0.,NA,NA,"",       10.3447,       9.80095,      -3.30956,   79.9562E-06
C:/temp/dataset/2/25_3.odb,Step-1,Increment      1: Step Time =    1.000,"PART-1-1",           129,       5.32711,       26.8707,            0.,NA,NA,"",       10.4108,       9.59140,      -4.04844,   109.526E-06
C:/temp/dataset/2/25_3.odb,Step-1,Increment      1: Step Time =    1.000,"PART-1-1",           130,      -5.00948,       27.4462,            0.,NA,NA,"",       10.2088,       10.1270,      -1.28983,   1.03420E-06
C:/temp/dataset/2/25_3.odb,Step-1,Increment      1: Step Time =    1.000,"PART-1-1",           131,      -2.51658,       27.4324,            0.,NA,NA,"",       10.2211,       10.0315,      -1.95977,   6.92004E-06
C:/temp/dataset/2/25_3.odb,Step-1,Increment      1: Step Time =    1.000,"PART-1-1",           132,      -9.99211,       27.4668,            0.,NA,NA,"",       10.3163,       10.3162,   49.4952E-03,   524.336E-09
C:/temp/dataset/2/25_3.odb,Step-1,Increment      1: Step Time =    1.000,"PART-1-1",           133,       12.5029,       21.6680,            0.,NA,NA,"",       9.81359,       7.92488,      -5.78816,   132.510E-06
C:/temp/dataset/2/25_3.odb,Step-1,Increment      1: Step Time =    1.000,"PART-1-1",           134,      -12.7198,      -9.27859,            0.,NA,NA,"",       1.25151,       1.19930,   357.716E-03,   20.4621E-03
C:/temp/dataset/2/25_3.odb,Step-1,Increment      1: Step Time =    1.000,"PART-1-1",           135,      -12.2206,      -21.4876,            0.,NA,NA,"",   151.994E-03,   81.2036E-03,   128.484E-03,   22.3793E-03
C:/temp/dataset/2/25_3.odb,Step-1,Increment      1: Step Time =    1.000,"PART-1-1",           136,       12.4390,       11.8581,            0.,NA,NA,"",       7.53922,       5.26544,      -5.39583,   5.48402E-03
C:/temp/dataset/2/25_3.odb,Step-1,Increment      1: Step Time =    1.000,"PART-1-1",           137,      -12.6285,      -12.0158,            0.,NA,NA,"",   898.096E-03,   839.531E-03,   319.005E-03,   21.6442E-03
C:/temp/dataset/2/25_3.odb,Step-1,Increment      1: Step Time =    1.000,"PART-1-1",           138,      -12.4213,      -14.8709,            0.,NA,NA,"",   584.448E-03,   523.423E-03,   260.016E-03,   21.9926E-03
C:/temp/dataset/2/25_3.odb,Step-1,Increment      1: Step Time =    1.000,"PART-1-1",           139,       12.2989,       14.8029,            0.,NA,NA,"",       8.17469,       6.07086,      -5.47450,   3.65968E-03
C:/temp/dataset/2/25_3.odb,Step-1,Increment      1: Step Time =    1.000,"PART-1-1",           140,       11.7182,       18.2155,            0.,NA,NA,"",       8.88639,       7.02025,      -5.44831,   1.58808E-03
C:/temp/dataset/2/25_3.odb,Step-1,Increment      1: Step Time =    1.000,"PART-1-1",           141,      -12.3380,      -4.01281,            0.,NA,NA,"",       2.05100,       2.02667,   314.944E-03,   16.6731E-03
C:/temp/dataset/2/25_3.odb,Step-1,Increment      1: Step Time =    1.000,"PART-1-1",           142,       12.5089,       6.21106,            0.,NA,NA,"",       6.40841,       3.76440,      -5.18624,   6.85558E-03
C:/temp/dataset/2/25_3.odb,Step-1,Increment      1: Step Time =    1.000,"PART-1-1",           143,      -10.9765,      -1.21375,            0.,NA,NA,"",       2.51110,       2.51001,   73.6880E-03,   17.4564E-03
C:/temp/dataset/2/25_3.odb,Step-1,Increment      1: Step Time =    1.000,"PART-1-1",           144,      -11.4273,       2.02370,            0.,NA,NA,"",       3.11888,       3.11734,   97.7753E-03,   11.7150E-03
C:/temp/dataset/2/25_3.odb,Step-1,Increment      1: Step Time =    1.000,"PART-1-1",           145,      -12.7154,      -6.64001,            0.,NA,NA,"",       1.63757,       1.59464,   372.492E-03,   18.9514E-03
C:/temp/dataset/2/25_3.odb,Step-1,Increment      1: Step Time =    1.000,"PART-1-1",           146,      -11.7762,      -18.1315,            0.,NA,NA,"",   293.136E-03,   244.232E-03,   162.109E-03,   19.2136E-03
C:/temp/dataset/2/25_3.odb,Step-1,Increment      1: Step Time =    1.000,"PART-1-1",           147,      -12.2481,      -24.4184,            0.,NA,NA,"",   79.0163E-03,   13.5427E-03,   77.8471E-03,   20.3021E-03
C:/temp/dataset/2/25_3.odb,Step-1,Increment      1: Step Time =    1.000,"PART-1-1",           148,       12.5340,       3.42208,            0.,NA,NA,"",       5.93503,       3.06081,      -5.08488,   7.26131E-03
C:/temp/dataset/2/25_3.odb,Step-1,Increment      1: Step Time =    1.000,"PART-1-1",           149,       12.5428,   630.306E-03,            0.,NA,NA,"",       5.52836,       2.38174,      -4.98899,   7.86208E-03
C:/temp/dataset/2/25_3.odb,Step-1,Increment      1: Step Time =    1.000,"PART-1-1",           150,       12.5001,       9.03097,            0.,NA,NA,"",       6.95332,       4.50355,      -5.29780,   6.58215E-03
C:/temp/dataset/2/25_3.odb,Step-1,Increment      1: Step Time =    1.000,"PART-1-1",           151,       12.7192,       24.5718,            0.,NA,NA,"",       10.5419,       8.69967,      -5.95386,   169.046E-06
C:/temp/dataset/2/25_3.odb,Step-1,Increment      1: Step Time =    1.000,"PART-1-1",           152,       2.66783,      -27.4286,            0.,NA,NA,"",   19.3214E-03,   18.8539E-03,  -4.22447E-03,   5.48297E-03
C:/temp/dataset/2/25_3.odb,Step-1,Increment      1: Step Time =    1.000,"PART-1-1",           153,       8.86089,      -27.4494,            0.,NA,NA,"",   11.6941E-03,   11.6859E-03,  -439.511E-06,   2.93628E-03
C:/temp/dataset/2/25_3.odb,Step-1,Increment      1: Step Time =    1.000,"PART-1-1",           154,       5.76511,      -27.4328,            0.,NA,NA,"",   15.1557E-03,   15.1104E-03,  -1.17115E-03,   3.92202E-03
C:/temp/dataset/2/25_3.odb,Step-1,Increment      1: Step Time =    1.000,"PART-1-1",           155,  -414.647E-03,      -27.4330,            0.,NA,NA,"",   22.6353E-03,   19.7379E-03,  -11.0802E-03,   8.29774E-03
C:/temp/dataset/2/25_3.odb,Step-1,Increment      1: Step Time =    1.000,"PART-1-1",           156,      -3.42691,      -27.4460,            0.,NA,NA,"",   22.3958E-03,   11.9663E-03,  -18.9309E-03,   11.5781E-03
C:/temp/dataset/2/25_3.odb,Step-1,Increment      1: Step Time =    1.000,"PART-1-1",           157,      -6.36574,      -27.4272,            0.,NA,NA,"",   16.9364E-03,  -3.98325E-03,  -16.4614E-03,   10.6406E-03
C:/temp/dataset/2/25_3.odb,Step-1,Increment      1: Step Time =    1.000,"PART-1-1",           158,       10.5238,       25.0033,            0.,NA,NA,"",       10.3963,       8.89713,      -5.37820,   136.491E-06
C:/temp/dataset/2/25_3.odb,Step-1,Increment      1: Step Time =    1.000,"PART-1-1",           159,       6.26912,       22.1485,            0.,NA,NA,"",       9.25718,       8.28608,      -4.12748,   273.212E-06
C:/temp/dataset/2/25_3.odb,Step-1,Increment      1: Step Time =    1.000,"PART-1-1",           160,      -5.96402,      -2.70245,            0.,NA,NA,"",       2.28541,       2.16737,  -725.010E-03,   15.9250E-03
C:/temp/dataset/2/25_3.odb,Step-1,Increment      1: Step Time =    1.000,"PART-1-1",           161,      -12.5033,       22.4816,            0.,NA,NA,"",       9.11334,       9.06794,   908.560E-03,   215.941E-09
C:/temp/dataset/2/25_3.odb,Step-1,Increment      1: Step Time =    1.000,"PART-1-1",           162,      -2.53325,       24.9024,            0.,NA,NA,"",       9.53524,       9.35165,      -1.86209,   11.8958E-06
C:/temp/dataset/2/25_3.odb,Step-1,Increment      1: Step Time =    1.000,"PART-1-1",           163,       4.43197,       24.4161,            0.,NA,NA,"",       9.70411,       8.96392,      -3.71724,   157.334E-06
C:/temp/dataset/2/25_3.odb,Step-1,Increment      1: Step Time =    1.000,"PART-1-1",           164,      -10.2797,      -8.84555,            0.,NA,NA,"",       1.22538,       1.22471,   40.2271E-03,   7.06788E-03
C:/temp/dataset/2/25_3.odb,Step-1,Increment      1: Step Time =    1.000,"PART-1-1",           165,       2.21534,  -332.134E-03,            0.,NA,NA,"",       3.48015,       2.46658,      -2.45509,   2.82658E-03
C:/temp/dataset/2/25_3.odb,Step-1,Increment      1: Step Time =    1.000,"PART-1-1",           166,  -74.2209E-03,       24.8536,            0.,NA,NA,"",       9.58550,       9.24787,      -2.52164,   40.4401E-06
C:/temp/dataset/2/25_3.odb,Step-1,Increment      1: Step Time =    1.000,"PART-1-1",           167,       2.30693,       24.7164,            0.,NA,NA,"",       9.65390,       9.12313,      -3.15694,   130.349E-06
C:/temp/dataset/2/25_3.odb,Step-1,Increment      1: Step Time =    1.000,"PART-1-1",           168,       9.79368,       13.9045,            0.,NA,NA,"",       7.60258,       5.91791,      -4.77259,   5.17565E-03
C:/temp/dataset/2/25_3.odb,Step-1,Increment      1: Step Time =    1.000,"PART-1-1",           169,       9.30777,       16.4521,            0.,NA,NA,"",       8.14969,       6.63192,      -4.73656,   3.54437E-03
C:/temp/dataset/2/25_3.odb,Step-1,Increment      1: Step Time =    1.000,"PART-1-1",           170,      -2.35985,       1.11806,            0.,NA,NA,"",       3.23871,       2.86139,      -1.51713,   8.01785E-03
C:/temp/dataset/2/25_3.odb,Step-1,Increment      1: Step Time =    1.000,"PART-1-1",           171,      -9.94133,      -13.9778,            0.,NA,NA,"",   590.116E-03,   589.067E-03,   35.1579E-03,   6.28042E-03
C:/temp/dataset/2/25_3.odb,Step-1,Increment      1: Step Time =    1.000,"PART-1-1",           172,       4.80988,   33.7751E-03,            0.,NA,NA,"",       3.93588,       2.47818,      -3.05775,   5.73564E-03
C:/temp/dataset/2/25_3.odb,Step-1,Increment      1: Step Time =    1.000,"PART-1-1",           173,       9.94126,       11.1894,            0.,NA,NA,"",       6.99527,       5.17133,      -4.71075,   5.95337E-03
C:/temp/dataset/2/25_3.odb,Step-1,Increment      1: Step Time =    1.000,"PART-1-1",           174,       7.43598,   226.782E-03,            0.,NA,NA,"",       4.43052,       2.44300,      -3.69612,   9.51161E-03
C:/temp/dataset/2/25_3.odb,Step-1,Increment      1: Step Time =    1.000,"PART-1-1",           175,      -7.50368,       24.9336,            0.,NA,NA,"",       9.55770,       9.54319,  -526.432E-03,   1.03408E-06
C:/temp/dataset/2/25_3.odb,Step-1,Increment      1: Step Time =    1.000,"PART-1-1",           176,      -10.1536,      -11.3797,            0.,NA,NA,"",   888.578E-03,   887.578E-03,   42.1366E-03,   6.47141E-03
C:/temp/dataset/2/25_3.odb,Step-1,Increment      1: Step Time =    1.000,"PART-1-1",           177,       6.92724,       24.6415,            0.,NA,NA,"",       9.95587,       8.93251,      -4.39653,   139.321E-06
C:/temp/dataset/2/25_3.odb,Step-1,Increment      1: Step Time =    1.000,"PART-1-1",           178,      -9.99868,       24.9580,            0.,NA,NA,"",       9.64276,       9.64169,   143.702E-03,   532.067E-09
C:/temp/dataset/2/25_3.odb,Step-1,Increment      1: Step Time =    1.000,"PART-1-1",           179,       8.37028,       18.0705,            0.,NA,NA,"",       8.43628,       7.10796,      -4.54399,   2.47104E-03
C:/temp/dataset/2/25_3.odb,Step-1,Increment      1: Step Time =    1.000,"PART-1-1",           180,      -10.4068,      -6.54987,            0.,NA,NA,"",       1.57027,       1.56976,   40.3283E-03,   10.7433E-03
C:/temp/dataset/2/25_3.odb,Step-1,Increment      1: Step Time =    1.000,"PART-1-1",           181,      -8.52723,      -17.8680,            0.,NA,NA,"",   239.954E-03,   235.494E-03,  -46.0499E-03,   12.7780E-03
C:/temp/dataset/2/25_3.odb,Step-1,Increment      1: Step Time =    1.000,"PART-1-1",           182,       9.99063,       8.47585,            0.,NA,NA,"",       6.40735,       4.43684,      -4.62262,   6.49317E-03
C:/temp/dataset/2/25_3.odb,Step-1,Increment      1: Step Time =    1.000,"PART-1-1",           183,      -6.87511,      -22.3968,            0.,NA,NA,"",   80.3339E-03,   36.9582E-03,  -71.3277E-03,   21.6079E-03
C:/temp/dataset/2/25_3.odb,Step-1,Increment      1: Step Time =    1.000,"PART-1-1",           184,       7.48189,       5.34092,            0.,NA,NA,"",       5.34104,       3.68557,      -3.86565,   9.76164E-03
C:/temp/dataset/2/25_3.odb,Step-1,Increment      1: Step Time =    1.000,"PART-1-1",           185,       10.0207,   425.902E-03,            0.,NA,NA,"",       4.97094,       2.40963,      -4.34786,   9.41211E-03
C:/temp/dataset/2/25_3.odb,Step-1,Increment      1: Step Time =    1.000,"PART-1-1",           186,      -8.86720,      -3.63325,            0.,NA,NA,"",       2.04949,       2.03710,  -225.010E-03,   16.1295E-03
C:/temp/dataset/2/25_3.odb,Step-1,Increment      1: Step Time =    1.000,"PART-1-1",           187,       10.0155,       5.77118,            0.,NA,NA,"",       5.86361,       3.72483,      -4.52852,   5.22740E-03
C:/temp/dataset/2/25_3.odb,Step-1,Increment      1: Step Time =    1.000,"PART-1-1",           188,       9.07540,       20.2179,            0.,NA,NA,"",       9.04715,       7.66161,      -4.81152,   1.01760E-03
C:/temp/dataset/2/25_3.odb,Step-1,Increment      1: Step Time =    1.000,"PART-1-1",           189,       5.51479,      -24.9218,            0.,NA,NA,"",   25.0499E-03,   25.0372E-03,  -797.857E-06,   3.04027E-03
C:/temp/dataset/2/25_3.odb,Step-1,Increment      1: Step Time =    1.000,"PART-1-1",           190,       2.33502,      -24.9114,            0.,NA,NA,"",   32.4297E-03,   31.5285E-03,  -7.59187E-03,   4.76784E-03
C:/temp/dataset/2/25_3.odb,Step-1,Increment      1: Step Time =    1.000,"PART-1-1",           191,      -3.83494,      -24.9465,            0.,NA,NA,"",   54.3026E-03,   29.1790E-03,  -45.7969E-03,   16.2182E-03
C:/temp/dataset/2/25_3.odb,Step-1,Increment      1: Step Time =    1.000,"PART-1-1",           192,       8.68706,      -24.9229,            0.,NA,NA,"",   20.7131E-03,   20.7116E-03,   249.669E-06,   1.99416E-03
C:/temp/dataset/2/25_3.odb,Step-1,Increment      1: Step Time =    1.000,"PART-1-1",           193,  -793.545E-03,      -24.9263,            0.,NA,NA,"",   43.7907E-03,   36.3364E-03,  -24.4396E-03,   10.7805E-03
C:/temp/dataset/2/25_3.odb,Step-1,Increment      1: Step Time =    1.000,"PART-1-1",           194,      -10.0041,       22.4687,            0.,NA,NA,"",       8.97551,       8.97239,   236.877E-03,   516.643E-09
C:/temp/dataset/2/25_3.odb,Step-1,Increment      1: Step Time =    1.000,"PART-1-1",           195,       7.76291,       22.5689,            0.,NA,NA,"",       9.50134,       8.34388,      -4.54479,   261.539E-06
C:/temp/dataset/2/25_3.odb,Step-1,Increment      1: Step Time =    1.000,"PART-1-1",           196,       10.0314,       3.09975,            0.,NA,NA,"",       5.38548,       3.05319,      -4.43637,   7.72545E-03
C:/temp/dataset/2/25_3.odb,Step-1,Increment      1: Step Time =    1.000,"PART-1-1",           197,       7.45157,       2.78517,            0.,NA,NA,"",       4.85008,       3.04784,      -3.77279,   10.4145E-03
C:/temp/dataset/2/25_3.odb,Step-1,Increment      1: Step Time =    1.000,"PART-1-1",           198,       1.23926,       2.17480,            0.,NA,NA,"",       3.80939,       3.03214,      -2.30598,   12.7606E-03
C:/temp/dataset/2/25_3.odb,Step-1,Increment      1: Step Time =    1.000,"PART-1-1",           199,       5.89388,       23.8379,            0.,NA,NA,"",       9.66224,       8.75438,      -4.08896,   176.123E-06
C:/temp/dataset/2/25_3.odb,Step-1,Increment      1: Step Time =    1.000,"PART-1-1",           200,       4.70825,       2.52712,            0.,NA,NA,"",       4.34967,       3.05487,      -3.09636,   8.01006E-03
C:/temp/dataset/2/25_3.odb,Step-1,Increment      1: Step Time =    1.000,"PART-1-1",           201,      -6.67563,      -24.8783,            0.,NA,NA,"",   41.9303E-03,   7.63905E-03,  -41.2286E-03,   14.9942E-03
C:/temp/dataset/2/25_3.odb,Step-1,Increment      1: Step Time =    1.000,"PART-1-1",           202,      -1.93740,       2.90022,            0.,NA,NA,"",       3.61639,       3.21706,      -1.65193,   16.4211E-03
C:/temp/dataset/2/25_3.odb,Step-1,Increment      1: Step Time =    1.000,"PART-1-1",           203,      -4.27328,      -22.5070,            0.,NA,NA,"",   93.2066E-03,   52.3482E-03,  -77.1176E-03,   26.7993E-03
C:/temp/dataset/2/25_3.odb,Step-1,Increment      1: Step Time =    1.000,"PART-1-1",           204,      -7.29195,  -216.826E-03,            0.,NA,NA,"",       2.71156,       2.65410,  -555.271E-03,   15.4735E-03
C:/temp/dataset/2/25_3.odb,Step-1,Increment      1: Step Time =    1.000,"PART-1-1",           205,      -4.39370,   432.763E-03,            0.,NA,NA,"",       2.96069,       2.74955,      -1.09801,   11.2674E-03
C:/temp/dataset/2/25_3.odb,Step-1,Increment      1: Step Time =    1.000,"PART-1-1",           206,      -1.20581,      -22.4416,            0.,NA,NA,"",   53.4100E-03,   45.1022E-03,  -28.6080E-03,   13.9789E-03
C:/temp/dataset/2/25_3.odb,Step-1,Increment      1: Step Time =    1.000,"PART-1-1",           207,      -4.88725,       2.78210,            0.,NA,NA,"",       3.38270,       3.21043,      -1.06574,   14.9558E-03
C:/temp/dataset/2/25_3.odb,Step-1,Increment      1: Step Time =    1.000,"PART-1-1",           208,      -8.02678,       2.39768,            0.,NA,NA,"",       3.19270,       3.15526,  -487.483E-03,   14.5615E-03
C:/temp/dataset/2/25_3.odb,Step-1,Increment      1: Step Time =    1.000,"PART-1-1",           209,       8.51144,      -22.4401,            0.,NA,NA,"",   26.0625E-03,   26.0313E-03,   1.27506E-03,   1.04889E-03
C:/temp/dataset/2/25_3.odb,Step-1,Increment      1: Step Time =    1.000,"PART-1-1",           210,       5.25488,      -22.4306,            0.,NA,NA,"",   29.3867E-03,   29.3787E-03,   685.457E-06,   1.89737E-03
C:/temp/dataset/2/25_3.odb,Step-1,Increment      1: Step Time =    1.000,"PART-1-1",           211,       2.00226,      -22.4217,            0.,NA,NA,"",   36.9773E-03,   36.2987E-03,  -7.05168E-03,   4.63109E-03
C:/temp/dataset/2/25_3.odb,Step-1,Increment      1: Step Time =    1.000,"PART-1-1",           212,      -9.28570,      -27.3600,            0.,NA,NA,"",   15.2637E-03,  -14.9914E-03,   2.87025E-03,   6.03513E-03
C:/temp/dataset/2/25_3.odb,Step-1,Increment      1: Step Time =    1.000,"PART-1-1",           213,       11.7596,      -22.4488,            0.,NA,NA,"",   24.5927E-03,   24.5273E-03,  -1.79211E-03,   341.706E-06
C:/temp/dataset/2/25_3.odb,Step-1,Increment      1: Step Time =    1.000,"PART-1-1",           214,      -12.4952,       27.4851,            0.,NA,NA,"",       10.4383,       10.4133,   722.033E-03,   213.198E-09
C:/temp/dataset/2/25_3.odb,Step-1,Increment      1: Step Time =    1.000,"PART-1-1",           215,      -12.1608,      -27.2494,            0.,NA,NA,"",   34.5179E-03,  -6.92975E-03,   33.8151E-03,   17.3012E-03
C:/temp/dataset/2/25_3.odb,Step-1,Increment      1: Step Time =    1.000,"PART-1-1",           216,      -6.92277,      -20.0189,            0.,NA,NA,"",   144.822E-03,   100.043E-03,  -104.712E-03,   18.2050E-03
C:/temp/dataset/2/25_3.odb,Step-1,Increment      1: Step Time =    1.000,"PART-1-1",           217,       10.3403,       22.5364,            0.,NA,NA,"",       9.76326,       8.23948,      -5.23758,   211.547E-06
C:/temp/dataset/2/25_3.odb,Step-1,Increment      1: Step Time =    1.000,"PART-1-1",           218,      -9.38591,      -16.3373,            0.,NA,NA,"",   360.687E-03,   360.684E-03,   1.48111E-03,   7.20083E-03
C:/temp/dataset/2/25_3.odb,Step-1,Increment      1: Step Time =    1.000,"PART-1-1",           219,      -9.56004,      -22.0160,            0.,NA,NA,"",   44.8974E-03,   42.9344E-03,   13.1304E-03,   11.0398E-03
C:/temp/dataset/2/25_3.odb,Step-1,Increment      1: Step Time =    1.000,"PART-1-1",           220,      -9.49058,      -24.6874,            0.,NA,NA,"",   7.42583E-03,  -2.08473E-03,   7.12719E-03,   9.02919E-03
C:/temp/dataset/2/25_3.odb,Step-1,Increment      1: Step Time =    1.000,"PART-1-1",           221,  -968.003E-03,   33.9082E-03,            0.,NA,NA,"",       3.16306,       2.61670,      -1.77702,   3.12473E-03
C:/temp/dataset/2/25_3.odb,Step-1,Increment      1: Step Time =    1.000,"PART-1-1",           222,   333.674E-03,      -1.00763,            0.,NA,NA,"",       3.11840,       2.36824,      -2.02876,   2.12044E-03
C:/temp/dataset/2/25_3.odb,Step-1,Increment      1: Step Time =    1.000,"PART-1-1",           223,      -10.5623,      -4.72446,            0.,NA,NA,"",       1.87327,       1.87264,   48.5607E-03,   14.1903E-03
C:/temp/dataset/2/25_3.odb,Step-1,Increment      1: Step Time =    1.000,"PART-1-1",           224,      -5.01319,       24.9269,            0.,NA,NA,"",       9.52501,       9.44962,      -1.19601,   1.99797E-06
C:/temp/dataset/2/25_3.odb,Step-1,Increment      1: Step Time =    1.000,"PART-1-1",           225,      -9.24174,      -19.5473,            0.,NA,NA,"",   134.966E-03,   134.952E-03,   1.97278E-03,   7.26636E-03
C:/temp/dataset/2/25_3.odb,Step-1,Increment      1: Step Time =    1.000,"PART-1-1",           226,       8.53639,       25.1316,            0.,NA,NA,"",       10.2270,       9.00508,      -4.84771,   94.1454E-06
C:/temp/dataset/2/25_3.odb,Step-1,Increment      1: Step Time =    1.000,"PART-1-1",           227,       8.85572,       23.3093,            0.,NA,NA,"",       9.79674,       8.50270,      -4.86624,   176.928E-06
C:/temp/dataset/2/25_3.odb,Step-1,Increment      1: Step Time =    1.000,"PART-1-1",           228,      -13.7516,       22.4908,            0.,NA,NA,"",       9.20089,       9.11641,       1.24397,   124.579E-09
C:/temp/dataset/2/25_3.odb,Step-1,Increment      1: Step Time =    1.000,"PART-1-1",           229,          -15.,         21.25,            0.,NA,NA,"",       8.97707,       8.82868,       1.62544,   22.2416E-09
C:/temp/dataset/2/25_3.odb,Step-1,Increment      1: Step Time =    1.000,"PART-1-1",           230,        -13.75,           20.,            0.,NA,NA,"",       8.55133,       8.44643,       1.33531,   30.8093E-09
C:/temp/dataset/2/25_3.odb,Step-1,Increment      1: Step Time =    1.000,"PART-1-1",           231,      -12.5016,       21.2408,            0.,NA,NA,"",       8.78609,       8.73416,   953.841E-03,   113.833E-09
C:/temp/dataset/2/25_3.odb,Step-1,Increment      1: Step Time =    1.000,"PART-1-1",           232,      -9.99605,       28.7334,            0.,NA,NA,"",       10.6570,       10.6570,   3.88701E-03,   353.532E-09
C:/temp/dataset/2/25_3.odb,Step-1,Increment      1: Step Time =    1.000,"PART-1-1",           233,        -11.25,           30.,            0.,NA,NA,"",       11.0478,       11.0438,   294.469E-03,   253.953E-09
C:/temp/dataset/2/25_3.odb,Step-1,Increment      1: Step Time =    1.000,"PART-1-1",           234,      -12.4976,       28.7426,            0.,NA,NA,"",       10.7729,       10.7516,   676.346E-03,   119.149E-09
C:/temp/dataset/2/25_3.odb,Step-1,Increment      1: Step Time =    1.000,"PART-1-1",           235,      -11.2437,       27.4760,            0.,NA,NA,"",       10.3719,       10.3648,   385.764E-03,   345.597E-09
C:/temp/dataset/2/25_3.odb,Step-1,Increment      1: Step Time =    1.000,"PART-1-1",           236,      -8.74541,       27.4572,            0.,NA,NA,"",       10.2716,       10.2677,  -285.451E-03,   642.341E-09
C:/temp/dataset/2/25_3.odb,Step-1,Increment      1: Step Time =    1.000,"PART-1-1",           237,      -7.49936,       28.7238,            0.,NA,NA,"",       10.5835,       10.5624,  -667.248E-03,   701.783E-09
C:/temp/dataset/2/25_3.odb,Step-1,Increment      1: Step Time =    1.000,"PART-1-1",           238,         -8.75,           30.,            0.,NA,NA,"",       10.9582,       10.9517,  -377.910E-03,   793.836E-09
C:/temp/dataset/2/25_3.odb,Step-1,Increment      1: Step Time =    1.000,"PART-1-1",           239,      -10.0020,       21.2344,            0.,NA,NA,"",       8.64492,       8.64032,   281.811E-03,   380.358E-09
C:/temp/dataset/2/25_3.odb,Step-1,Increment      1: Step Time =    1.000,"PART-1-1",           240,      -11.2537,       22.4752,            0.,NA,NA,"",       9.03833,       9.02016,   572.718E-03,   347.466E-09
C:/temp/dataset/2/25_3.odb,Step-1,Increment      1: Step Time =    1.000,"PART-1-1",           241,        -11.25,           20.,            0.,NA,NA,"",       8.38058,       8.35432,   662.933E-03,   272.524E-09
C:/temp/dataset/2/25_3.odb,Step-1,Increment      1: Step Time =    1.000,"PART-1-1",           242,      -6.25410,       27.4469,            0.,NA,NA,"",       10.2178,       10.1731,  -955.113E-03,   461.801E-09
C:/temp/dataset/2/25_3.odb,Step-1,Increment      1: Step Time =    1.000,"PART-1-1",           243,      -7.50120,       26.1906,            0.,NA,NA,"",       9.89778,       9.88116,  -573.415E-03,   680.419E-09
C:/temp/dataset/2/25_3.odb,Step-1,Increment      1: Step Time =    1.000,"PART-1-1",           244,      -6.25844,       24.9303,            0.,NA,NA,"",       9.53538,       9.49641,  -861.221E-03,   934.063E-09
C:/temp/dataset/2/25_3.odb,Step-1,Increment      1: Step Time =    1.000,"PART-1-1",           245,      -5.01133,       26.1865,            0.,NA,NA,"",       9.86693,       9.78833,      -1.24292,   1.22232E-06
C:/temp/dataset/2/25_3.odb,Step-1,Increment      1: Step Time =    1.000,"PART-1-1",           246,       1.11906,       22.3143,            0.,NA,NA,"",       8.95344,       8.52094,      -2.74913,   124.563E-06
C:/temp/dataset/2/25_3.odb,Step-1,Increment      1: Step Time =    1.000,"PART-1-1",           247,  -37.5712E-03,       21.1808,            0.,NA,NA,"",       8.59933,       8.25873,      -2.39623,   26.3803E-06
C:/temp/dataset/2/25_3.odb,Step-1,Increment      1: Step Time =    1.000,"PART-1-1",           248,          1.25,           20.,            0.,NA,NA,"",       8.34236,       7.89368,      -2.69904,   81.3898E-06
C:/temp/dataset/2/25_3.odb,Step-1,Increment      1: Step Time =    1.000,"PART-1-1",           249,       2.40663,       21.1336,            0.,NA,NA,"",       8.70843,       8.15606,      -3.05212,   96.8520E-06
C:/temp/dataset/2/25_3.odb,Step-1,Increment      1: Step Time =    1.000,"PART-1-1",           250,  -46.9838E-03,       26.1228,            0.,NA,NA,"",       9.92817,       9.58824,      -2.57570,   31.8939E-06
C:/temp/dataset/2/25_3.odb,Step-1,Increment      1: Step Time =    1.000,"PART-1-1",           251,       1.11635,       24.7850,            0.,NA,NA,"",       9.61432,       9.18551,      -2.83929,   71.3082E-06
C:/temp/dataset/2/25_3.odb,Step-1,Increment      1: Step Time =    1.000,"PART-1-1",           252,       2.41618,       25.9912,            0.,NA,NA,"",       9.99919,       9.46203,      -3.23323,   88.4205E-06
C:/temp/dataset/2/25_3.odb,Step-1,Increment      1: Step Time =    1.000,"PART-1-1",           253,       1.25284,       27.3289,            0.,NA,NA,"",       10.3021,       9.86478,      -2.96967,   54.4164E-06
C:/temp/dataset/2/25_3.odb,Step-1,Increment      1: Step Time =    1.000,"PART-1-1",           254,       11.4216,       22.1022,            0.,NA,NA,"",       9.78329,       8.08222,      -5.51277,   165.434E-06
C:/temp/dataset/2/25_3.odb,Step-1,Increment      1: Step Time =    1.000,"PART-1-1",           255,       9.70783,       21.3771,            0.,NA,NA,"",       9.40504,       7.95051,      -5.02435,   544.460E-06
C:/temp/dataset/2/25_3.odb,Step-1,Increment      1: Step Time =    1.000,"PART-1-1",           256,       10.3968,       19.2167,            0.,NA,NA,"",       8.95603,       7.34111,      -5.13016,   1.18419E-03
C:/temp/dataset/2/25_3.odb,Step-1,Increment      1: Step Time =    1.000,"PART-1-1",           257,       12.1105,       19.9418,            0.,NA,NA,"",       9.34954,       7.47318,      -5.61832,   797.784E-06
C:/temp/dataset/2/25_3.odb,Step-1,Increment      1: Step Time =    1.000,"PART-1-1",           258,       11.6215,       24.7876,            0.,NA,NA,"",       10.4650,       8.79843,      -5.66600,   137.444E-06
C:/temp/dataset/2/25_3.odb,Step-1,Increment      1: Step Time =    1.000,"PART-1-1",           259,       12.6971,       25.9410,            0.,NA,NA,"",       10.8735,       9.06925,      -5.99845,   141.031E-06
C:/temp/dataset/2/25_3.odb,Step-1,Increment      1: Step Time =    1.000,"PART-1-1",           260,       11.4859,       27.3886,            0.,NA,NA,"",       11.0952,       9.50376,      -5.72557,   126.143E-06
C:/temp/dataset/2/25_3.odb,Step-1,Increment      1: Step Time =    1.000,"PART-1-1",           261,       10.4103,       26.2351,            0.,NA,NA,"",       10.6927,       9.23295,      -5.39316,   121.126E-06
C:/temp/dataset/2/25_3.odb,Step-1,Increment      1: Step Time =    1.000,"PART-1-1",           262,       5.88041,       17.6377,            0.,NA,NA,"",       8.07121,       7.08842,      -3.85988,   3.10850E-03
C:/temp/dataset/2/25_3.odb,Step-1,Increment      1: Step Time =    1.000,"PART-1-1",           263,       6.75071,       18.9160,            0.,NA,NA,"",       8.47846,       7.39938,      -4.13926,   2.32907E-03
C:/temp/dataset/2/25_3.odb,Step-1,Increment      1: Step Time =    1.000,"PART-1-1",           264,       5.87030,       20.0282,            0.,NA,NA,"",       8.67901,       7.73187,      -3.94250,   1.42808E-03
C:/temp/dataset/2/25_3.odb,Step-1,Increment      1: Step Time =    1.000,"PART-1-1",           265,            5.,         18.75,            0.,NA,NA,"",       8.27820,       7.42343,      -3.66350,   2.45882E-03
C:/temp/dataset/2/25_3.odb,Step-1,Increment      1: Step Time =    1.000,"PART-1-1",           266,       12.3690,       13.3305,            0.,NA,NA,"",       7.85288,       5.66756,      -5.43566,   4.53409E-03
C:/temp/dataset/2/25_3.odb,Step-1,Increment      1: Step Time =    1.000,"PART-1-1",           267,       13.7195,       12.1790,            0.,NA,NA,"",       7.82554,       5.30793,      -5.75021,   4.77799E-03
C:/temp/dataset/2/25_3.odb,Step-1,Increment      1: Step Time =    1.000,"PART-1-1",           268,           15.,       13.9583,            0.,NA,NA,"",       8.42904,       5.74407,      -6.16882,   3.58198E-03
C:/temp/dataset/2/25_3.odb,Step-1,Increment      1: Step Time =    1.000,"PART-1-1",           269,       13.6495,       15.1098,            0.,NA,NA,"",       8.45508,       6.10533,      -5.84922,   2.39053E-03
C:/temp/dataset/2/25_3.odb,Step-1,Increment      1: Step Time =    1.000,"PART-1-1",           270,       12.5214,       4.81657,            0.,NA,NA,"",       6.16319,       3.40901,      -5.13454,   6.63060E-03
C:/temp/dataset/2/25_3.odb,Step-1,Increment      1: Step Time =    1.000,"PART-1-1",           271,       13.7670,       3.58604,            0.,NA,NA,"",       6.21305,       3.06594,      -5.40388,   9.40935E-03
C:/temp/dataset/2/25_3.odb,Step-1,Increment      1: Step Time =    1.000,"PART-1-1",           272,           15.,       5.20833,            0.,NA,NA,"",       6.72934,       3.43694,      -5.78546,   12.5028E-03
C:/temp/dataset/2/25_3.odb,Step-1,Increment      1: Step Time =    1.000,"PART-1-1",           273,       13.7545,       6.43886,            0.,NA,NA,"",       6.69124,       3.78588,      -5.51722,   9.59487E-03
C:/temp/dataset/2/25_3.odb,Step-1,Increment      1: Step Time =    1.000,"PART-1-1",           274,       13.7625,      -2.13133,            0.,NA,NA,"",       5.46827,       1.68160,      -5.20329,   3.22094E-03
C:/temp/dataset/2/25_3.odb,Step-1,Increment      1: Step Time =    1.000,"PART-1-1",           275,       12.5125,      -3.58966,            0.,NA,NA,"",       5.03956,       1.36747,      -4.85048,   2.99723E-03
C:/temp/dataset/2/25_3.odb,Step-1,Increment      1: Step Time =    1.000,"PART-1-1",           276,         13.75,           -5.,            0.,NA,NA,"",       5.20615,   983.731E-03,      -5.11237,   530.302E-06
C:/temp/dataset/2/25_3.odb,Step-1,Increment      1: Step Time =    1.000,"PART-1-1",           277,           15.,      -3.54167,            0.,NA,NA,"",       5.61571,       1.30220,      -5.46264,   603.965E-06
C:/temp/dataset/2/25_3.odb,Step-1,Increment      1: Step Time =    1.000,"PART-1-1",           278,      -9.21387,      -6.21191,            0.,NA,NA,"",       1.61344,       1.60776,  -135.260E-03,   8.38776E-03
C:/temp/dataset/2/25_3.odb,Step-1,Increment      1: Step Time =    1.000,"PART-1-1",           279,      -8.44405,      -4.75360,            0.,NA,NA,"",       1.85479,       1.83449,  -273.672E-03,   12.0888E-03
C:/temp/dataset/2/25_3.odb,Step-1,Increment      1: Step Time =    1.000,"PART-1-1",           280,      -9.71477,      -4.17886,            0.,NA,NA,"",       1.95561,       1.95371,  -86.0367E-03,   14.5786E-03
C:/temp/dataset/2/25_3.odb,Step-1,Increment      1: Step Time =    1.000,"PART-1-1",           281,      -10.4846,      -5.63717,            0.,NA,NA,"",       1.71930,       1.71873,   44.3952E-03,   12.5596E-03
C:/temp/dataset/2/25_3.odb,Step-1,Increment      1: Step Time =    1.000,"PART-1-1",           282,      -5.84282,   107.969E-03,            0.,NA,NA,"",       2.82304,       2.70131,  -820.052E-03,   12.7065E-03
C:/temp/dataset/2/25_3.odb,Step-1,Increment      1: Step Time =    1.000,"PART-1-1",           283,      -4.64047,       1.60743,            0.,NA,NA,"",       3.17171,       2.98152,      -1.08182,   12.7257E-03
C:/temp/dataset/2/25_3.odb,Step-1,Increment      1: Step Time =    1.000,"PART-1-1",           284,      -6.45702,       2.58989,            0.,NA,NA,"",       3.27398,       3.18206,  -770.337E-03,   14.1365E-03
C:/temp/dataset/2/25_3.odb,Step-1,Increment      1: Step Time =    1.000,"PART-1-1",           285,      -7.65937,       1.09043,            0.,NA,NA,"",       2.95282,       2.90634,  -521.857E-03,   14.4587E-03
C:/temp/dataset/2/25_3.odb,Step-1,Increment      1: Step Time =    1.000,"PART-1-1",           286,      -6.51044,      -5.43697,            0.,NA,NA,"",       1.78072,       1.68982,  -561.652E-03,   19.0483E-03
C:/temp/dataset/2/25_3.odb,Step-1,Increment      1: Step Time =    1.000,"PART-1-1",           287,      -5.48201,      -3.85122,            0.,NA,NA,"",       2.09580,       1.94640,  -777.113E-03,   18.9993E-03
C:/temp/dataset/2/25_3.odb,Step-1,Increment      1: Step Time =    1.000,"PART-1-1",           288,      -7.41561,      -3.16785,            0.,NA,NA,"",       2.15072,       2.09963,  -465.978E-03,   15.3080E-03
C:/temp/dataset/2/25_3.odb,Step-1,Increment      1: Step Time =    1.000,"PART-1-1",           289,      -12.6742,      -10.6472,            0.,NA,NA,"",       1.06779,       1.01243,   339.362E-03,   21.0825E-03
C:/temp/dataset/2/25_3.odb,Step-1,Increment      1: Step Time =    1.000,"PART-1-1",           290,      -11.3911,      -11.6978,            0.,NA,NA,"",   880.035E-03,   860.771E-03,   183.127E-03,   12.4874E-03
C:/temp/dataset/2/25_3.odb,Step-1,Increment      1: Step Time =    1.000,"PART-1-1",           291,      -10.2167,      -10.1126,            0.,NA,NA,"",       1.05176,       1.05095,   41.4092E-03,   6.53594E-03
C:/temp/dataset/2/25_3.odb,Step-1,Increment      1: Step Time =    1.000,"PART-1-1",           292,      -11.4997,      -9.06207,            0.,NA,NA,"",       1.22636,       1.20992,   200.121E-03,   12.8782E-03
C:/temp/dataset/2/25_3.odb,Step-1,Increment      1: Step Time =    1.000,"PART-1-1",           293,      -13.7107,      -15.1438,            0.,NA,NA,"",   636.353E-03,   518.341E-03,   369.145E-03,   33.3948E-03
C:/temp/dataset/2/25_3.odb,Step-1,Increment      1: Step Time =    1.000,"PART-1-1",           294,      -12.5249,      -13.4434,            0.,NA,NA,"",   732.954E-03,   673.180E-03,   289.916E-03,   21.8221E-03
C:/temp/dataset/2/25_3.odb,Step-1,Increment      1: Step Time =    1.000,"PART-1-1",           295,      -13.8143,      -12.2579,            0.,NA,NA,"",   944.149E-03,   831.883E-03,   446.528E-03,   31.3247E-03
C:/temp/dataset/2/25_3.odb,Step-1,Increment      1: Step Time =    1.000,"PART-1-1",           296,          -15.,      -13.9583,            0.,NA,NA,"",   848.417E-03,   665.932E-03,   525.686E-03,   43.1231E-03
C:/temp/dataset/2/25_3.odb,Step-1,Increment      1: Step Time =    1.000,"PART-1-1",           297,      -12.0988,      -16.5012,            0.,NA,NA,"",   425.997E-03,   371.144E-03,   209.106E-03,   20.3990E-03
C:/temp/dataset/2/25_3.odb,Step-1,Increment      1: Step Time =    1.000,"PART-1-1",           298,      -10.5811,      -17.2344,            0.,NA,NA,"",   309.385E-03,   295.949E-03,   90.1859E-03,   9.30222E-03
C:/temp/dataset/2/25_3.odb,Step-1,Increment      1: Step Time =    1.000,"PART-1-1",           299,      -9.66362,      -15.1575,            0.,NA,NA,"",   469.865E-03,   469.561E-03,   16.9115E-03,   6.74824E-03
C:/temp/dataset/2/25_3.odb,Step-1,Increment      1: Step Time =    1.000,"PART-1-1",           300,      -11.1813,      -14.4243,            0.,NA,NA,"",   573.315E-03,   552.835E-03,   151.866E-03,   11.9465E-03
C:/temp/dataset/2/25_3.odb,Step-1,Increment      1: Step Time =    1.000,"PART-1-1",           301,      -10.5090,      -18.8394,            0.,NA,NA,"",   200.144E-03,   185.165E-03,   75.9702E-03,   11.1546E-03
C:/temp/dataset/2/25_3.odb,Step-1,Increment      1: Step Time =    1.000,"PART-1-1",           302,      -8.88448,      -18.7076,            0.,NA,NA,"",   181.945E-03,   180.829E-03,  -20.1213E-03,   7.98130E-03
C:/temp/dataset/2/25_3.odb,Step-1,Increment      1: Step Time =    1.000,"PART-1-1",           303,      -8.95657,      -17.1026,            0.,NA,NA,"",   297.216E-03,   296.183E-03,  -24.7604E-03,   10.1779E-03
C:/temp/dataset/2/25_3.odb,Step-1,Increment      1: Step Time =    1.000,"PART-1-1",           304,      -8.08225,      -19.7831,            0.,NA,NA,"",   129.598E-03,   116.715E-03,  -56.3312E-03,   11.0258E-03
C:/temp/dataset/2/25_3.odb,Step-1,Increment      1: Step Time =    1.000,"PART-1-1",           305,      -6.89084,      -18.8787,            0.,NA,NA,"",   203.955E-03,   161.416E-03,  -124.669E-03,   22.9389E-03
C:/temp/dataset/2/25_3.odb,Step-1,Increment      1: Step Time =    1.000,"PART-1-1",           306,      -7.69307,      -17.8032,            0.,NA,NA,"",   261.039E-03,   240.981E-03,  -100.347E-03,   21.2519E-03
C:/temp/dataset/2/25_3.odb,Step-1,Increment      1: Step Time =    1.000,"PART-1-1",           307,       7.10093,      -24.9223,            0.,NA,NA,"",   22.5919E-03,   22.5905E-03,   251.820E-06,   2.55868E-03
C:/temp/dataset/2/25_3.odb,Step-1,Increment      1: Step Time =    1.000,"PART-1-1",           308,       8.59925,      -23.6815,            0.,NA,NA,"",   23.7664E-03,   23.7530E-03,   799.214E-06,   1.51037E-03
C:/temp/dataset/2/25_3.odb,Step-1,Increment      1: Step Time =    1.000,"PART-1-1",           309,       6.88316,      -22.4353,            0.,NA,NA,"",   27.4654E-03,   27.4242E-03,   1.50447E-03,   1.43124E-03
C:/temp/dataset/2/25_3.odb,Step-1,Increment      1: Step Time =    1.000,"PART-1-1",           310,       5.38484,      -23.6762,            0.,NA,NA,"",   28.0164E-03,   28.0160E-03,  -135.248E-06,   2.41306E-03
C:/temp/dataset/2/25_3.odb,Step-1,Increment      1: Step Time =    1.000,"PART-1-1",           311,       13.3798,      -22.4744,            0.,NA,NA,"",   24.7162E-03,   24.3075E-03,  -4.47612E-03,   118.714E-06
C:/temp/dataset/2/25_3.odb,Step-1,Increment      1: Step Time =    1.000,"PART-1-1",           312,           15.,        -21.25,            0.,NA,NA,"",   27.5746E-03,   26.5381E-03,  -7.48907E-03,   63.5661E-06
C:/temp/dataset/2/25_3.odb,Step-1,Increment      1: Step Time =    1.000,"PART-1-1",           313,       13.3333,          -20.,            0.,NA,NA,"",   29.0720E-03,   28.7312E-03,  -4.43781E-03,   82.0380E-06
C:/temp/dataset/2/25_3.odb,Step-1,Increment      1: Step Time =    1.000,"PART-1-1",           314,       11.7131,      -21.2244,            0.,NA,NA,"",   26.7235E-03,   26.6684E-03,  -1.71565E-03,   111.945E-06
C:/temp/dataset/2/25_3.odb,Step-1,Increment      1: Step Time =    1.000,"PART-1-1",           315,      -2.14863,       2.00914,            0.,NA,NA,"",       3.42664,       3.03864,      -1.58384,   12.2606E-03
C:/temp/dataset/2/25_3.odb,Step-1,Increment      1: Step Time =    1.000,"PART-1-1",           316,      -1.66393,   575.985E-03,            0.,NA,NA,"",       3.19712,       2.74053,      -1.64654,   5.68800E-03
C:/temp/dataset/2/25_3.odb,Step-1,Increment      1: Step Time =    1.000,"PART-1-1",           317,   135.628E-03,       1.10435,            0.,NA,NA,"",       3.47992,       2.82085,      -2.03781,   7.15267E-03
C:/temp/dataset/2/25_3.odb,Step-1,Increment      1: Step Time =    1.000,"PART-1-1",           318,  -349.073E-03,       2.53751,            0.,NA,NA,"",       3.69948,       3.12934,      -1.97317,   13.8913E-03
C:/temp/dataset/2/25_3.odb,Step-1,Increment      1: Step Time =    1.000,"PART-1-1",           319,   156.145E-03,      -1.87787,            0.,NA,NA,"",       2.94491,       2.18669,      -1.97253,   6.72275E-03
C:/temp/dataset/2/25_3.odb,Step-1,Increment      1: Step Time =    1.000,"PART-1-1",           320,       1.21010,      -2.70880,            0.,NA,NA,"",       2.94318,       1.97372,      -2.18328,   10.1156E-03
C:/temp/dataset/2/25_3.odb,Step-1,Increment      1: Step Time =    1.000,"PART-1-1",           321,       2.32846,      -1.50081,            0.,NA,NA,"",       3.29937,       2.20490,      -2.45444,   5.74598E-03
C:/temp/dataset/2/25_3.odb,Step-1,Increment      1: Step Time =    1.000,"PART-1-1",           322,       1.27451,  -669.883E-03,            0.,NA,NA,"",       3.29555,       2.41694,      -2.24033,   2.02365E-03
C:/temp/dataset/2/25_3.odb,Step-1,Increment      1: Step Time =    1.000,"PART-1-1",           323,       4.87500,      -1.23074,            0.,NA,NA,"",       3.74718,       2.18657,      -3.04307,   6.72387E-03
C:/temp/dataset/2/25_3.odb,Step-1,Increment      1: Step Time =    1.000,"PART-1-1",           324,       6.20088,      -2.43579,            0.,NA,NA,"",       3.81548,       1.86332,      -3.32955,   9.14603E-03
C:/temp/dataset/2/25_3.odb,Step-1,Increment      1: Step Time =    1.000,"PART-1-1",           325,       7.44880,      -1.07477,            0.,NA,NA,"",       4.24364,       2.13823,      -3.66558,   8.85043E-03
C:/temp/dataset/2/25_3.odb,Step-1,Increment      1: Step Time =    1.000,"PART-1-1",           326,       6.12293,   130.279E-03,            0.,NA,NA,"",       4.17576,       2.46124,      -3.37332,   7.62612E-03
C:/temp/dataset/2/25_3.odb,Step-1,Increment      1: Step Time =    1.000,"PART-1-1",           327,          8.75,           -5.,            0.,NA,NA,"",       4.05056,       1.15411,      -3.88266,   9.08276E-03
C:/temp/dataset/2/25_3.odb,Step-1,Increment      1: Step Time =    1.000,"PART-1-1",           328,       10.0063,      -3.63741,            0.,NA,NA,"",       4.46721,       1.44064,      -4.22853,   6.23741E-03
C:/temp/dataset/2/25_3.odb,Step-1,Increment      1: Step Time =    1.000,"PART-1-1",           329,       8.73716,      -2.32557,            0.,NA,NA,"",       4.34079,       1.79965,      -3.95016,   8.78236E-03
C:/temp/dataset/2/25_3.odb,Step-1,Increment      1: Step Time =    1.000,"PART-1-1",           330,       7.48081,      -3.68816,            0.,NA,NA,"",       3.91518,       1.52108,      -3.60763,   9.64864E-03
C:/temp/dataset/2/25_3.odb,Step-1,Increment      1: Step Time =    1.000,"PART-1-1",           331,       6.24109,       7.72904,            0.,NA,NA,"",       5.67275,       4.36531,      -3.62272,   9.54672E-03
C:/temp/dataset/2/25_3.odb,Step-1,Increment      1: Step Time =    1.000,"PART-1-1",           332,            5.,          6.25,            0.,NA,NA,"",       5.16720,       4.01157,      -3.25688,   20.4113E-03
C:/temp/dataset/2/25_3.odb,Step-1,Increment      1: Step Time =    1.000,"PART-1-1",           333,       6.24095,       5.17046,            0.,NA,NA,"",       5.10089,       3.66818,      -3.54450,   18.1479E-03
C:/temp/dataset/2/25_3.odb,Step-1,Increment      1: Step Time =    1.000,"PART-1-1",           334,       7.48203,       6.64950,            0.,NA,NA,"",       5.61487,       4.02900,      -3.91074,   7.70666E-03
C:/temp/dataset/2/25_3.odb,Step-1,Increment      1: Step Time =    1.000,"PART-1-1",           335,       7.34508,       23.6052,            0.,NA,NA,"",       9.72653,       8.63822,      -4.47063,   165.790E-06
C:/temp/dataset/2/25_3.odb,Step-1,Increment      1: Step Time =    1.000,"PART-1-1",           336,       6.41056,       24.2397,            0.,NA,NA,"",       9.80851,       8.84343,      -4.24272,   152.978E-06
C:/temp/dataset/2/25_3.odb,Step-1,Increment      1: Step Time =    1.000,"PART-1-1",           337,       6.08150,       22.9932,            0.,NA,NA,"",       9.45893,       8.52020,      -4.10823,   213.478E-06
C:/temp/dataset/2/25_3.odb,Step-1,Increment      1: Step Time =    1.000,"PART-1-1",           338,       7.01602,       22.3587,            0.,NA,NA,"",       9.37769,       8.31502,      -4.33608,   213.175E-06
C:/temp/dataset/2/25_3.odb,Step-1,Increment      1: Step Time =    1.000,"PART-1-1",           339,      -12.5005,       23.7291,            0.,NA,NA,"",       9.44276,       9.40335,   861.857E-03,   176.059E-09
C:/temp/dataset/2/25_3.odb,Step-1,Increment      1: Step Time =    1.000,"PART-1-1",           340,      -13.7489,       24.9883,            0.,NA,NA,"",       9.85547,       9.78800,       1.15121,   160.664E-09
C:/temp/dataset/2/25_3.odb,Step-1,Increment      1: Step Time =    1.000,"PART-1-1",           341,          -15.,         23.75,            0.,NA,NA,"",       9.62399,       9.50106,       1.53333,   109.865E-09
C:/temp/dataset/2/25_3.odb,Step-1,Increment      1: Step Time =    1.000,"PART-1-1",           342,      -2.52491,       26.1674,            0.,NA,NA,"",       9.87816,       9.69157,      -1.91093,   7.41511E-06
C:/temp/dataset/2/25_3.odb,Step-1,Increment      1: Step Time =    1.000,"PART-1-1",           343,      -1.30373,       24.8780,            0.,NA,NA,"",       9.55458,       9.29977,      -2.19187,   23.2788E-06
C:/temp/dataset/2/25_3.odb,Step-1,Increment      1: Step Time =    1.000,"PART-1-1",           344,      -1.26817,       27.4122,            0.,NA,NA,"",       10.2405,       9.98004,      -2.29478,   19.8022E-06
C:/temp/dataset/2/25_3.odb,Step-1,Increment      1: Step Time =    1.000,"PART-1-1",           345,       2.31009,       23.4917,            0.,NA,NA,"",       9.32829,       8.79362,      -3.11276,   109.255E-06
C:/temp/dataset/2/25_3.odb,Step-1,Increment      1: Step Time =    1.000,"PART-1-1",           346,       3.41051,       22.2101,            0.,NA,NA,"",       9.05545,       8.40836,      -3.36164,   287.755E-06
C:/temp/dataset/2/25_3.odb,Step-1,Increment      1: Step Time =    1.000,"PART-1-1",           347,       4.46987,       23.2845,            0.,NA,NA,"",       9.40998,       8.65810,      -3.68577,   212.177E-06
C:/temp/dataset/2/25_3.odb,Step-1,Increment      1: Step Time =    1.000,"PART-1-1",           348,       3.36945,       24.5662,            0.,NA,NA,"",       9.67464,       9.04351,      -3.43710,   142.241E-06
C:/temp/dataset/2/25_3.odb,Step-1,Increment      1: Step Time =    1.000,"PART-1-1",           349,       3.92627,       27.0683,            0.,NA,NA,"",       10.3707,       9.69618,      -3.67899,   96.1441E-06
C:/temp/dataset/2/25_3.odb,Step-1,Increment      1: Step Time =    1.000,"PART-1-1",           350,       5.16355,       28.4353,            0.,NA,NA,"",       10.8107,       10.0184,      -4.06220,   96.9167E-06
C:/temp/dataset/2/25_3.odb,Step-1,Increment      1: Step Time =    1.000,"PART-1-1",           351,          3.75,           30.,            0.,NA,NA,"",       11.1379,       10.4913,      -3.73972,   97.0499E-06
C:/temp/dataset/2/25_3.odb,Step-1,Increment      1: Step Time =    1.000,"PART-1-1",           352,       2.51272,       28.6330,            0.,NA,NA,"",       10.7088,       10.1692,      -3.35654,   54.3465E-06
C:/temp/dataset/2/25_3.odb,Step-1,Increment      1: Step Time =    1.000,"PART-1-1",           353,       11.0463,       14.3537,            0.,NA,NA,"",       7.88498,       5.99419,      -5.12274,   4.22698E-03
C:/temp/dataset/2/25_3.odb,Step-1,Increment      1: Step Time =    1.000,"PART-1-1",           354,       9.86747,       12.5470,            0.,NA,NA,"",       7.29538,       5.54417,      -4.74181,   5.60043E-03
C:/temp/dataset/2/25_3.odb,Step-1,Increment      1: Step Time =    1.000,"PART-1-1",           355,       11.1901,       11.5237,            0.,NA,NA,"",       7.26326,       5.21816,      -5.05230,   5.48854E-03
C:/temp/dataset/2/25_3.odb,Step-1,Increment      1: Step Time =    1.000,"PART-1-1",           356,       9.55073,       15.1783,            0.,NA,NA,"",       7.87317,       6.27518,      -4.75488,   4.28848E-03
C:/temp/dataset/2/25_3.odb,Step-1,Increment      1: Step Time =    1.000,"PART-1-1",           357,       8.18591,       15.9712,            0.,NA,NA,"",       7.89659,       6.54432,      -4.41906,   3.94248E-03
C:/temp/dataset/2/25_3.odb,Step-1,Increment      1: Step Time =    1.000,"PART-1-1",           358,       7.20669,       14.2932,            0.,NA,NA,"",       7.36808,       6.12388,      -4.09715,   5.21298E-03
C:/temp/dataset/2/25_3.odb,Step-1,Increment      1: Step Time =    1.000,"PART-1-1",           359,       8.57151,       13.5002,            0.,NA,NA,"",       7.34264,       5.85340,      -4.43305,   5.33233E-03
C:/temp/dataset/2/25_3.odb,Step-1,Increment      1: Step Time =    1.000,"PART-1-1",           360,       7.44377,       1.50598,            0.,NA,NA,"",       4.63265,       2.74319,      -3.73315,   9.07934E-03
C:/temp/dataset/2/25_3.odb,Step-1,Increment      1: Step Time =    1.000,"PART-1-1",           361,       8.72836,   326.342E-03,            0.,NA,NA,"",       4.69569,       2.42609,      -4.02040,   9.45150E-03
C:/temp/dataset/2/25_3.odb,Step-1,Increment      1: Step Time =    1.000,"PART-1-1",           362,       10.0261,       1.76283,            0.,NA,NA,"",       5.16983,       2.72917,      -4.39077,   8.28587E-03
C:/temp/dataset/2/25_3.odb,Step-1,Increment      1: Step Time =    1.000,"PART-1-1",           363,       8.74149,       2.94246,            0.,NA,NA,"",       5.11333,       3.05102,      -4.10334,   8.59402E-03
C:/temp/dataset/2/25_3.odb,Step-1,Increment      1: Step Time =    1.000,"PART-1-1",           364,       12.5045,       7.62102,            0.,NA,NA,"",       6.67380,       4.13081,      -5.24176,   6.50952E-03
C:/temp/dataset/2/25_3.odb,Step-1,Increment      1: Step Time =    1.000,"PART-1-1",           365,           15.,         8.125,            0.,NA,NA,"",       7.24805,       4.18579,      -5.91721,   11.0447E-03
C:/temp/dataset/2/25_3.odb,Step-1,Increment      1: Step Time =    1.000,"PART-1-1",           366,       13.7500,       9.30715,            0.,NA,NA,"",       7.23650,       4.53655,      -5.63796,   7.53399E-03
C:/temp/dataset/2/25_3.odb,Step-1,Increment      1: Step Time =    1.000,"PART-1-1",           367,      -1.45938,      -2.40358,            0.,NA,NA,"",       2.67163,       2.12309,      -1.62175,   8.40350E-03
C:/temp/dataset/2/25_3.odb,Step-1,Increment      1: Step Time =    1.000,"PART-1-1",           368,      -2.69869,      -3.52952,            0.,NA,NA,"",       2.35255,       1.93059,      -1.34436,   14.1065E-03
C:/temp/dataset/2/25_3.odb,Step-1,Increment      1: Step Time =    1.000,"PART-1-1",           369,         -1.25,           -5.,            0.,NA,NA,"",       2.25616,       1.56617,      -1.62401,   20.0586E-03
C:/temp/dataset/2/25_3.odb,Step-1,Increment      1: Step Time =    1.000,"PART-1-1",           370,  -10.6917E-03,      -3.87406,            0.,NA,NA,"",       2.59175,       1.76185,      -1.90080,   15.0543E-03
C:/temp/dataset/2/25_3.odb,Step-1,Increment      1: Step Time =    1.000,"PART-1-1",           371,      -13.3333,            5.,            0.,NA,NA,"",       3.69427,       3.67500,   376.807E-03,   1.30305E-03
C:/temp/dataset/2/25_3.odb,Step-1,Increment      1: Step Time =    1.000,"PART-1-1",           372,          -15.,       3.54167,            0.,NA,NA,"",       3.51231,       3.44331,   692.767E-03,   1.16724E-03
C:/temp/dataset/2/25_3.odb,Step-1,Increment      1: Step Time =    1.000,"PART-1-1",           373,      -13.2137,       2.05352,            0.,NA,NA,"",       3.17317,       3.14767,   401.443E-03,   6.44070E-03
C:/temp/dataset/2/25_3.odb,Step-1,Increment      1: Step Time =    1.000,"PART-1-1",           374,      -11.5470,       3.51185,            0.,NA,NA,"",       3.39050,       3.38924,   92.2781E-03,   6.72221E-03
C:/temp/dataset/2/25_3.odb,Step-1,Increment      1: Step Time =    1.000,"PART-1-1",           375,          -15.,      625.E-03,            0.,NA,NA,"",       3.00837,       2.91770,   733.033E-03,   7.75953E-03
C:/temp/dataset/2/25_3.odb,Step-1,Increment      1: Step Time =    1.000,"PART-1-1",           376,      -12.9883,      -1.02354,            0.,NA,NA,"",       2.60830,       2.57743,   400.152E-03,   12.6883E-03
C:/temp/dataset/2/25_3.odb,Step-1,Increment      1: Step Time =    1.000,"PART-1-1",           377,      -11.2019,   404.974E-03,            0.,NA,NA,"",       2.81584,       2.81452,   86.2669E-03,   14.5026E-03
C:/temp/dataset/2/25_3.odb,Step-1,Increment      1: Step Time =    1.000,"PART-1-1",           378,      -13.6690,      -3.88141,            0.,NA,NA,"",       2.14104,       2.07575,   524.735E-03,   18.8619E-03
C:/temp/dataset/2/25_3.odb,Step-1,Increment      1: Step Time =    1.000,"PART-1-1",           379,      -11.6573,      -2.61328,            0.,NA,NA,"",       2.27255,       2.26388,   198.411E-03,   16.2019E-03
C:/temp/dataset/2/25_3.odb,Step-1,Increment      1: Step Time =    1.000,"PART-1-1",           380,          -15.,      -2.29167,            0.,NA,NA,"",       2.50276,       2.38808,   748.923E-03,   18.2597E-03
C:/temp/dataset/2/25_3.odb,Step-1,Increment      1: Step Time =    1.000,"PART-1-1",           381,           -5.,         -8.75,            0.,NA,NA,"",       1.39749,       1.22532,  -671.974E-03,   35.4204E-03
C:/temp/dataset/2/25_3.odb,Step-1,Increment      1: Step Time =    1.000,"PART-1-1",           382,      -6.37238,      -7.84264,            0.,NA,NA,"",       1.43655,       1.34120,  -514.631E-03,   24.8692E-03
C:/temp/dataset/2/25_3.odb,Step-1,Increment      1: Step Time =    1.000,"PART-1-1",           383,      -7.67841,      -9.42411,            0.,NA,NA,"",       1.16498,       1.12831,  -290.001E-03,   16.6881E-03
C:/temp/dataset/2/25_3.odb,Step-1,Increment      1: Step Time =    1.000,"PART-1-1",           384,      -6.30603,      -10.3315,            0.,NA,NA,"",       1.10468,       1.01285,  -440.969E-03,   27.3602E-03
C:/temp/dataset/2/25_3.odb,Step-1,Increment      1: Step Time =    1.000,"PART-1-1",           385,      -13.6103,      -21.3688,            0.,NA,NA,"",   216.272E-03,   103.867E-03,   189.698E-03,   32.2475E-03
C:/temp/dataset/2/25_3.odb,Step-1,Increment      1: Step Time =    1.000,"PART-1-1",           386,          -15.,      -22.7083,            0.,NA,NA,"",   211.846E-03,   83.9973E-03,   194.481E-03,   39.2377E-03
C:/temp/dataset/2/25_3.odb,Step-1,Increment      1: Step Time =    1.000,"PART-1-1",           387,      -13.6241,      -24.2925,            0.,NA,NA,"",   117.941E-03,   29.7597E-03,   114.125E-03,   27.4161E-03
C:/temp/dataset/2/25_3.odb,Step-1,Increment      1: Step Time =    1.000,"PART-1-1",           388,      -12.2343,      -22.9530,            0.,NA,NA,"",   109.958E-03,   39.6368E-03,   102.566E-03,   21.2510E-03
C:/temp/dataset/2/25_3.odb,Step-1,Increment      1: Step Time =    1.000,"PART-1-1",           389,           -5.,        -16.25,            0.,NA,NA,"",   538.934E-03,   398.842E-03,  -362.456E-03,   45.8200E-03
C:/temp/dataset/2/25_3.odb,Step-1,Increment      1: Step Time =    1.000,"PART-1-1",           390,      -6.06585,      -15.2329,            0.,NA,NA,"",   563.156E-03,   474.751E-03,  -302.913E-03,   34.5379E-03
C:/temp/dataset/2/25_3.odb,Step-1,Increment      1: Step Time =    1.000,"PART-1-1",           391,      -6.99530,      -16.6022,            0.,NA,NA,"",   385.088E-03,   341.113E-03,  -178.703E-03,   27.9628E-03
C:/temp/dataset/2/25_3.odb,Step-1,Increment      1: Step Time =    1.000,"PART-1-1",           392,      -5.92946,      -17.6192,            0.,NA,NA,"",   346.901E-03,   265.878E-03,  -222.822E-03,   39.7853E-03
C:/temp/dataset/2/25_3.odb,Step-1,Increment      1: Step Time =    1.000,"PART-1-1",           393,         -13.5,          -30.,            0.,NA,NA,"",            0.,  -5.61293E-39,   35.0904E-39,   16.5350E-03
C:/temp/dataset/2/25_3.odb,Step-1,Increment      1: Step Time =    1.000,"PART-1-1",           394,      -12.0804,      -28.6247,            0.,NA,NA,"",   17.2007E-03,  -8.94998E-03,   14.6888E-03,   14.9538E-03
C:/temp/dataset/2/25_3.odb,Step-1,Increment      1: Step Time =    1.000,"PART-1-1",           395,      -13.5804,      -27.1664,            0.,NA,NA,"",   50.3174E-03,   3.32911E-03,   50.2071E-03,   22.9229E-03
C:/temp/dataset/2/25_3.odb,Step-1,Increment      1: Step Time =    1.000,"PART-1-1",           396,          -15.,      -28.5417,            0.,NA,NA,"",   32.1070E-03,   14.6828E-03,   28.5530E-03,   24.7945E-03
C:/temp/dataset/2/25_3.odb,Step-1,Increment      1: Step Time =    1.000,"PART-1-1",           397,          13.5,          -30.,            0.,NA,NA,"",            0.,   1.35096E-39,  -3.60640E-39,   3.12305E-03
C:/temp/dataset/2/25_3.odb,Step-1,Increment      1: Step Time =    1.000,"PART-1-1",           398,           15.,        -28.75,            0.,NA,NA,"",   6.66274E-03,   5.46531E-03,  -3.81085E-03,   2.91190E-03
C:/temp/dataset/2/25_3.odb,Step-1,Increment      1: Step Time =    1.000,"PART-1-1",           399,       13.4640,      -27.4843,            0.,NA,NA,"",   9.93992E-03,   9.61050E-03,  -2.53776E-03,   1.70249E-03
C:/temp/dataset/2/25_3.odb,Step-1,Increment      1: Step Time =    1.000,"PART-1-1",           400,       11.9640,      -28.7343,            0.,NA,NA,"",   4.75115E-03,   4.69297E-03,  -741.249E-06,   2.44941E-03
C:/temp/dataset/2/25_3.odb,Step-1,Increment      1: Step Time =    1.000,"PART-1-1",           401,       10.2658,      -24.9335,            0.,NA,NA,"",   19.3379E-03,   19.3332E-03,  -426.535E-06,   1.63238E-03
C:/temp/dataset/2/25_3.odb,Step-1,Increment      1: Step Time =    1.000,"PART-1-1",           402,       8.77397,      -26.1861,            0.,NA,NA,"",   16.6294E-03,   16.6284E-03,  -185.392E-06,   2.45908E-03
C:/temp/dataset/2/25_3.odb,Step-1,Increment      1: Step Time =    1.000,"PART-1-1",           403,       10.3945,      -27.4590,            0.,NA,NA,"",   10.5857E-03,   10.5680E-03,  -612.253E-06,   2.57363E-03
C:/temp/dataset/2/25_3.odb,Step-1,Increment      1: Step Time =    1.000,"PART-1-1",           404,       11.8863,      -26.2064,            0.,NA,NA,"",   14.6124E-03,   14.5180E-03,  -1.65825E-03,   1.86376E-03
C:/temp/dataset/2/25_3.odb,Step-1,Increment      1: Step Time =    1.000,"PART-1-1",           405,       8.93044,      -28.7247,            0.,NA,NA,"",   6.08501E-03,   6.06724E-03,  -464.585E-06,   3.02990E-03
C:/temp/dataset/2/25_3.odb,Step-1,Increment      1: Step Time =    1.000,"PART-1-1",           406,       7.31300,      -27.4411,            0.,NA,NA,"",   13.2695E-03,   13.2549E-03,  -621.925E-06,   3.36538E-03
C:/temp/dataset/2/25_3.odb,Step-1,Increment      1: Step Time =    1.000,"PART-1-1",           407,       5.88256,      -28.7164,            0.,NA,NA,"",   8.15469E-03,   8.10665E-03,  -883.898E-06,   4.12673E-03
C:/temp/dataset/2/25_3.odb,Step-1,Increment      1: Step Time =    1.000,"PART-1-1",           408,           7.5,          -30.,            0.,NA,NA,"",            0.,   4.21966E-39,  -2.14730E-39,   3.84816E-03
C:/temp/dataset/2/25_3.odb,Step-1,Increment      1: Step Time =    1.000,"PART-1-1",           409,       5.63995,      -26.1773,            0.,NA,NA,"",   20.8199E-03,   20.7888E-03,  -1.13596E-03,   3.39455E-03
C:/temp/dataset/2/25_3.odb,Step-1,Increment      1: Step Time =    1.000,"PART-1-1",           410,       3.92490,      -24.9166,            0.,NA,NA,"",   28.2458E-03,   28.0895E-03,  -2.96746E-03,   4.02028E-03
C:/temp/dataset/2/25_3.odb,Step-1,Increment      1: Step Time =    1.000,"PART-1-1",           411,       2.50142,      -26.1700,            0.,NA,NA,"",   26.6857E-03,   25.9537E-03,  -6.20738E-03,   5.15940E-03
C:/temp/dataset/2/25_3.odb,Step-1,Increment      1: Step Time =    1.000,"PART-1-1",           412,       4.21647,      -27.4307,            0.,NA,NA,"",   17.3190E-03,   17.1423E-03,  -2.46776E-03,   4.58318E-03
C:/temp/dataset/2/25_3.odb,Step-1,Increment      1: Step Time =    1.000,"PART-1-1",           413,       1.12659,      -27.4308,            0.,NA,NA,"",   21.5359E-03,   20.2114E-03,  -7.43585E-03,   6.60027E-03
C:/temp/dataset/2/25_3.odb,Step-1,Increment      1: Step Time =    1.000,"PART-1-1",           414,  -207.324E-03,      -28.7165,            0.,NA,NA,"",   12.0241E-03,   10.8504E-03,  -5.18148E-03,   7.88511E-03
C:/temp/dataset/2/25_3.odb,Step-1,Increment      1: Step Time =    1.000,"PART-1-1",           415,           1.5,          -30.,            0.,NA,NA,"",            0.,   6.89379E-39,  -8.34267E-39,   6.88718E-03
C:/temp/dataset/2/25_3.odb,Step-1,Increment      1: Step Time =    1.000,"PART-1-1",           416,       2.83391,      -28.7143,            0.,NA,NA,"",   10.6054E-03,   10.3452E-03,  -2.33471E-03,   5.76707E-03
C:/temp/dataset/2/25_3.odb,Step-1,Increment      1: Step Time =    1.000,"PART-1-1",           417,      -1.92078,      -27.4395,            0.,NA,NA,"",   23.3978E-03,   17.4535E-03,  -15.5831E-03,   9.61894E-03
C:/temp/dataset/2/25_3.odb,Step-1,Increment      1: Step Time =    1.000,"PART-1-1",           418,      -3.21345,      -28.7230,            0.,NA,NA,"",   10.1325E-03,   6.09055E-03,  -8.09766E-03,   9.45762E-03
C:/temp/dataset/2/25_3.odb,Step-1,Increment      1: Step Time =    1.000,"PART-1-1",           419,          -1.5,          -30.,            0.,NA,NA,"",            0.,   5.95764E-39,  -13.5339E-39,   7.53443E-03
C:/temp/dataset/2/25_3.odb,Step-1,Increment      1: Step Time =    1.000,"PART-1-1",           420,      -5.57419,      -22.4519,            0.,NA,NA,"",   100.094E-03,   45.0832E-03,  -89.3660E-03,   22.2039E-03
C:/temp/dataset/2/25_3.odb,Step-1,Increment      1: Step Time =    1.000,"PART-1-1",           421,      -6.77537,      -23.6376,            0.,NA,NA,"",   58.5994E-03,   19.4826E-03,  -55.2659E-03,   17.4427E-03
C:/temp/dataset/2/25_3.odb,Step-1,Increment      1: Step Time =    1.000,"PART-1-1",           422,      -5.25528,      -24.9124,            0.,NA,NA,"",   51.8320E-03,   19.3545E-03,  -48.0829E-03,   15.3379E-03
C:/temp/dataset/2/25_3.odb,Step-1,Increment      1: Step Time =    1.000,"PART-1-1",           423,      -4.05411,      -23.7268,            0.,NA,NA,"",   71.9295E-03,   39.7731E-03,  -59.9329E-03,   20.2169E-03
C:/temp/dataset/2/25_3.odb,Step-1,Increment      1: Step Time =    1.000,"PART-1-1",           424,       13.4223,      -24.9720,            0.,NA,NA,"",   18.8976E-03,   18.4249E-03,  -4.20034E-03,   644.930E-06
C:/temp/dataset/2/25_3.odb,Step-1,Increment      1: Step Time =    1.000,"PART-1-1",           425,           15.,        -26.25,            0.,NA,NA,"",   16.6349E-03,   14.8029E-03,  -7.58908E-03,   823.444E-06
C:/temp/dataset/2/25_3.odb,Step-1,Increment      1: Step Time =    1.000,"PART-1-1",           426,       11.8021,      -23.6964,            0.,NA,NA,"",   21.9378E-03,   21.8602E-03,  -1.84333E-03,   762.917E-06
C:/temp/dataset/2/25_3.odb,Step-1,Increment      1: Step Time =    1.000,"PART-1-1",           427,       10.1355,      -22.4445,            0.,NA,NA,"",   25.0428E-03,   25.0424E-03,   139.651E-06,   692.359E-06
C:/temp/dataset/2/25_3.odb,Step-1,Increment      1: Step Time =    1.000,"PART-1-1",           428,      -2.31424,      -24.9364,            0.,NA,NA,"",   49.3177E-03,   34.2036E-03,  -35.5296E-03,   12.9650E-03
C:/temp/dataset/2/25_3.odb,Step-1,Increment      1: Step Time =    1.000,"PART-1-1",           429,      -3.63092,      -26.1962,            0.,NA,NA,"",   36.9251E-03,   19.3305E-03,  -31.4610E-03,   13.8087E-03
C:/temp/dataset/2/25_3.odb,Step-1,Increment      1: Step Time =    1.000,"PART-1-1",           430,  -604.096E-03,      -26.1796,            0.,NA,NA,"",   33.5299E-03,   28.3704E-03,  -17.8711E-03,   9.27926E-03
C:/temp/dataset/2/25_3.odb,Step-1,Increment      1: Step Time =    1.000,"PART-1-1",           431,      -7.52977,      -11.9021,            0.,NA,NA,"",   853.809E-03,   816.743E-03,  -248.838E-03,   20.1458E-03
C:/temp/dataset/2/25_3.odb,Step-1,Increment      1: Step Time =    1.000,"PART-1-1",           432,      -6.22373,      -12.8207,            0.,NA,NA,"",   807.155E-03,   718.114E-03,  -368.527E-03,   30.3278E-03
C:/temp/dataset/2/25_3.odb,Step-1,Increment      1: Step Time =    1.000,"PART-1-1",           433,           -5.,        -11.25,            0.,NA,NA,"",       1.07404,   908.995E-03,  -572.088E-03,   37.8507E-03
C:/temp/dataset/2/25_3.odb,Step-1,Increment      1: Step Time =    1.000,"PART-1-1",           434,      -10.0475,      -12.6788,            0.,NA,NA,"",   733.202E-03,   732.193E-03,   38.4563E-03,   6.26134E-03
C:/temp/dataset/2/25_3.odb,Step-1,Increment      1: Step Time =    1.000,"PART-1-1",           435,           -5.,         -6.25,            0.,NA,NA,"",       1.74960,       1.56655,  -779.111E-03,   38.8837E-03
C:/temp/dataset/2/25_3.odb,Step-1,Increment      1: Step Time =    1.000,"PART-1-1",           436,      -7.88282,      -7.02961,            0.,NA,NA,"",       1.49847,       1.46464,  -316.606E-03,   10.7858E-03
C:/temp/dataset/2/25_3.odb,Step-1,Increment      1: Step Time =    1.000,"PART-1-1",           437,      -13.8577,      -6.65334,            0.,NA,NA,"",       1.70382,       1.61606,   539.754E-03,   24.9825E-03
C:/temp/dataset/2/25_3.odb,Step-1,Increment      1: Step Time =    1.000,"PART-1-1",           438,      -12.5267,      -5.32641,            0.,NA,NA,"",       1.83834,       1.80538,   346.562E-03,   17.3879E-03
C:/temp/dataset/2/25_3.odb,Step-1,Increment      1: Step Time =    1.000,"PART-1-1",           439,          -15.,      -5.20833,            0.,NA,NA,"",       2.01707,       1.87969,   731.656E-03,   27.9021E-03
C:/temp/dataset/2/25_3.odb,Step-1,Increment      1: Step Time =    1.000,"PART-1-1",           440,          1.25,           -5.,            0.,NA,NA,"",       2.60426,       1.46772,      -2.15127,   18.9402E-03
C:/temp/dataset/2/25_3.odb,Step-1,Increment      1: Step Time =    1.000,"PART-1-1",           441,       2.47079,      -3.83474,            0.,NA,NA,"",       2.96064,       1.67923,      -2.43836,   14.2649E-03
C:/temp/dataset/2/25_3.odb,Step-1,Increment      1: Step Time =    1.000,"PART-1-1",           442,       3.51261,  -149.180E-03,            0.,NA,NA,"",       3.69990,       2.47245,      -2.75250,   4.00359E-03
C:/temp/dataset/2/25_3.odb,Step-1,Increment      1: Step Time =    1.000,"PART-1-1",           443,       3.69085,      -2.58237,            0.,NA,NA,"",       3.34349,       1.91803,      -2.73863,   9.26491E-03
C:/temp/dataset/2/25_3.odb,Step-1,Increment      1: Step Time =    1.000,"PART-1-1",           444,       8.74868,       5.55605,            0.,NA,NA,"",       5.59864,       3.70640,      -4.19611,   7.05644E-03
C:/temp/dataset/2/25_3.odb,Step-1,Increment      1: Step Time =    1.000,"PART-1-1",           445,       10.0030,       7.12352,            0.,NA,NA,"",       6.12877,       4.07792,      -4.57519,   5.43552E-03
C:/temp/dataset/2/25_3.odb,Step-1,Increment      1: Step Time =    1.000,"PART-1-1",           446,       8.73640,       8.21697,            0.,NA,NA,"",       6.15084,       4.40979,      -4.28795,   6.96167E-03
C:/temp/dataset/2/25_3.odb,Step-1,Increment      1: Step Time =    1.000,"PART-1-1",           447,           15.,     -625.E-03,            0.,NA,NA,"",       5.90671,       2.00873,      -5.55465,   4.63145E-03
C:/temp/dataset/2/25_3.odb,Step-1,Increment      1: Step Time =    1.000,"PART-1-1",           448,       13.7714,   731.820E-03,            0.,NA,NA,"",       5.80531,       2.37018,      -5.29941,   6.85761E-03
C:/temp/dataset/2/25_3.odb,Step-1,Increment      1: Step Time =    1.000,"PART-1-1",           449,       12.5339,  -774.506E-03,            0.,NA,NA,"",       5.34791,       2.04503,      -4.94146,   6.61342E-03
C:/temp/dataset/2/25_3.odb,Step-1,Increment      1: Step Time =    1.000,"PART-1-1",           450,       7.40609,       11.8257,            0.,NA,NA,"",       6.78940,       5.43889,      -4.06379,   5.97722E-03
C:/temp/dataset/2/25_3.odb,Step-1,Increment      1: Step Time =    1.000,"PART-1-1",           451,       8.70206,       10.8725,            0.,NA,NA,"",       6.74075,       5.12986,      -4.37291,   6.04599E-03
C:/temp/dataset/2/25_3.odb,Step-1,Increment      1: Step Time =    1.000,"PART-1-1",           452,       11.2454,       8.75341,            0.,NA,NA,"",       6.67654,       4.47014,      -4.95924,   5.97506E-03
C:/temp/dataset/2/25_3.odb,Step-1,Increment      1: Step Time =    1.000,"PART-1-1",           453,       11.2622,       5.99112,            0.,NA,NA,"",       6.13283,       3.74491,      -4.85666,   5.70059E-03
C:/temp/dataset/2/25_3.odb,Step-1,Increment      1: Step Time =    1.000,"PART-1-1",           454,       13.8596,       24.3693,            0.,NA,NA,"",       10.6357,       8.60284,      -6.25376,   182.028E-06
C:/temp/dataset/2/25_3.odb,Step-1,Increment      1: Step Time =    1.000,"PART-1-1",           455,       12.6110,       23.1199,            0.,NA,NA,"",       10.1768,       8.31248,      -5.87109,   72.4168E-06
C:/temp/dataset/2/25_3.odb,Step-1,Increment      1: Step Time =    1.000,"PART-1-1",           456,       13.7514,       21.4590,            0.,NA,NA,"",       9.93005,       7.82210,      -6.11725,   191.776E-06
C:/temp/dataset/2/25_3.odb,Step-1,Increment      1: Step Time =    1.000,"PART-1-1",           457,           15.,       22.7083,            0.,NA,NA,"",       10.3955,       8.11276,      -6.50004,   319.210E-06
C:/temp/dataset/2/25_3.odb,Step-1,Increment      1: Step Time =    1.000,"PART-1-1",           458,       8.83903,       17.2613,            0.,NA,NA,"",       8.29062,       6.87023,      -4.64052,   2.93557E-03
C:/temp/dataset/2/25_3.odb,Step-1,Increment      1: Step Time =    1.000,"PART-1-1",           459,       10.5130,       17.3338,            0.,NA,NA,"",       8.51596,       6.82604,      -5.09183,   2.49838E-03
C:/temp/dataset/2/25_3.odb,Step-1,Increment      1: Step Time =    1.000,"PART-1-1",           460,       8.72284,       19.1442,            0.,NA,NA,"",       8.74172,       7.38498,      -4.67758,   1.78133E-03
C:/temp/dataset/2/25_3.odb,Step-1,Increment      1: Step Time =    1.000,"PART-1-1",           461,           15.,       28.5417,            0.,NA,NA,"",       11.7846,       9.68438,      -6.71479,   28.2214E-06
C:/temp/dataset/2/25_3.odb,Step-1,Increment      1: Step Time =    1.000,"PART-1-1",           462,         13.75,           30.,            0.,NA,NA,"",       11.9939,       10.1233,      -6.43200,   20.9454E-06
C:/temp/dataset/2/25_3.odb,Step-1,Increment      1: Step Time =    1.000,"PART-1-1",           463,       12.5875,       28.6551,            0.,NA,NA,"",       11.5306,       9.80408,      -6.06915,   83.6573E-06
C:/temp/dataset/2/25_3.odb,Step-1,Increment      1: Step Time =    1.000,"PART-1-1",           464,       13.8375,       27.1968,            0.,NA,NA,"",       11.3162,       9.36520,      -6.35205,   90.6797E-06
C:/temp/dataset/2/25_3.odb,Step-1,Increment      1: Step Time =    1.000,"PART-1-1",           465,         11.25,           30.,            0.,NA,NA,"",       11.7269,       10.2156,      -5.75857,   106.343E-06
C:/temp/dataset/2/25_3.odb,Step-1,Increment      1: Step Time =    1.000,"PART-1-1",           466,       10.1484,       28.7335,            0.,NA,NA,"",       11.2975,       9.91518,      -5.41498,   121.212E-06
C:/temp/dataset/2/25_3.odb,Step-1,Increment      1: Step Time =    1.000,"PART-1-1",           467,       7.69941,       28.7139,            0.,NA,NA,"",       11.0730,       10.0001,      -4.75484,   129.632E-06
C:/temp/dataset/2/25_3.odb,Step-1,Increment      1: Step Time =    1.000,"PART-1-1",           468,       9.09777,       27.4473,            0.,NA,NA,"",       10.8701,       9.60770,      -5.08449,   88.8918E-06
C:/temp/dataset/2/25_3.odb,Step-1,Increment      1: Step Time =    1.000,"PART-1-1",           469,          8.75,           30.,            0.,NA,NA,"",       11.4938,       10.3076,      -5.08524,   174.318E-06
C:/temp/dataset/2/25_3.odb,Step-1,Increment      1: Step Time =    1.000,"PART-1-1",           470,  -9.87333E-03,       28.6960,            0.,NA,NA,"",       10.6227,       10.2790,      -2.68047,   17.9763E-06
C:/temp/dataset/2/25_3.odb,Step-1,Increment      1: Step Time =    1.000,"PART-1-1",           471,          1.25,           30.,            0.,NA,NA,"",       11.0188,       10.5833,      -3.06735,   37.0839E-06
C:/temp/dataset/2/25_3.odb,Step-1,Increment      1: Step Time =    1.000,"PART-1-1",           472,       4.87954,       25.6434,            0.,NA,NA,"",       10.0574,       9.27764,      -3.88280,   117.852E-06
C:/temp/dataset/2/25_3.odb,Step-1,Increment      1: Step Time =    1.000,"PART-1-1",           473,      -5.00474,       28.7231,            0.,NA,NA,"",       10.5555,       10.4703,      -1.33815,   972.614E-09
C:/temp/dataset/2/25_3.odb,Step-1,Increment      1: Step Time =    1.000,"PART-1-1",           474,         -6.25,           30.,            0.,NA,NA,"",       10.9103,       10.8596,      -1.05029,   1.67753E-06
C:/temp/dataset/2/25_3.odb,Step-1,Increment      1: Step Time =    1.000,"PART-1-1",           475,      -3.76303,       27.4393,            0.,NA,NA,"",       10.2094,       10.0793,      -1.62480,   3.88782E-06
C:/temp/dataset/2/25_3.odb,Step-1,Increment      1: Step Time =    1.000,"PART-1-1",           476,      -3.77322,       24.9147,            0.,NA,NA,"",       9.52418,       9.40064,      -1.52905,   6.44767E-06
C:/temp/dataset/2/25_3.odb,Step-1,Increment      1: Step Time =    1.000,"PART-1-1",           477,      -13.7476,       27.4926,            0.,NA,NA,"",       10.5149,       10.4615,       1.05859,   124.362E-09
C:/temp/dataset/2/25_3.odb,Step-1,Increment      1: Step Time =    1.000,"PART-1-1",           478,        -13.75,           30.,            0.,NA,NA,"",       11.1778,       11.1360,   966.848E-03,   34.4906E-09
C:/temp/dataset/2/25_3.odb,Step-1,Increment      1: Step Time =    1.000,"PART-1-1",           479,          -15.,         28.75,            0.,NA,NA,"",       10.9294,       10.8458,       1.34910,   22.2517E-09
C:/temp/dataset/2/25_3.odb,Step-1,Increment      1: Step Time =    1.000,"PART-1-1",           480,          -15.,         26.25,            0.,NA,NA,"",       10.2750,       10.1734,       1.44121,   108.507E-09
C:/temp/dataset/2/25_3.odb,Step-1,Increment      1: Step Time =    1.000,"PART-1-1",           481,      -12.4965,       26.2309,            0.,NA,NA,"",       10.1053,       10.0760,   768.593E-03,   177.052E-09
C:/temp/dataset/2/25_3.odb,Step-1,Increment      1: Step Time =    1.000,"PART-1-1",           482,      -10.0014,       23.7134,            0.,NA,NA,"",       9.30898,       9.30704,   190.290E-03,   434.193E-09
C:/temp/dataset/2/25_3.odb,Step-1,Increment      1: Step Time =    1.000,"PART-1-1",           483,      -8.75535,       22.4567,            0.,NA,NA,"",       8.92367,       8.92312,  -98.5264E-03,   617.155E-09
C:/temp/dataset/2/25_3.odb,Step-1,Increment      1: Step Time =    1.000,"PART-1-1",           484,      -7.50515,       23.6891,            0.,NA,NA,"",       9.22104,       9.20852,  -480.181E-03,   684.273E-09
C:/temp/dataset/2/25_3.odb,Step-1,Increment      1: Step Time =    1.000,"PART-1-1",           485,      -8.75118,       24.9458,            0.,NA,NA,"",       9.59435,       9.59244,  -191.365E-03,   641.852E-09
C:/temp/dataset/2/25_3.odb,Step-1,Increment      1: Step Time =    1.000,"PART-1-1",           486,      -3.77419,       22.4219,            0.,NA,NA,"",       8.84770,       8.73023,      -1.43694,   5.21841E-06
C:/temp/dataset/2/25_3.odb,Step-1,Increment      1: Step Time =    1.000,"PART-1-1",           487,      -5.00723,       21.2173,            0.,NA,NA,"",       8.51802,       8.45169,      -1.06093,   1.29616E-06
C:/temp/dataset/2/25_3.odb,Step-1,Increment      1: Step Time =    1.000,"PART-1-1",           488,         -3.75,           20.,            0.,NA,NA,"",       8.19068,       8.07796,      -1.35421,   4.30961E-06
C:/temp/dataset/2/25_3.odb,Step-1,Increment      1: Step Time =    1.000,"PART-1-1",           489,      -2.51696,       21.2046,            0.,NA,NA,"",       8.53375,       8.35650,      -1.73024,   5.53283E-06
C:/temp/dataset/2/25_3.odb,Step-1,Increment      1: Step Time =    1.000,"PART-1-1",           490,         -8.75,           20.,            0.,NA,NA,"",       8.26221,       8.26220,  -9.44574E-03,   811.946E-09
C:/temp/dataset/2/25_3.odb,Step-1,Increment      1: Step Time =    1.000,"PART-1-1",           491,      -7.50331,       21.2223,            0.,NA,NA,"",       8.55389,       8.54500,  -389.783E-03,   655.483E-09
C:/temp/dataset/2/25_3.odb,Step-1,Increment      1: Step Time =    1.000,"PART-1-1",           492,         -6.25,           20.,            0.,NA,NA,"",       8.19848,       8.17008,  -681.827E-03,   2.15575E-06
C:/temp/dataset/2/25_3.odb,Step-1,Increment      1: Step Time =    1.000,"PART-1-1",           493,      -6.26054,       22.4396,            0.,NA,NA,"",       8.86004,       8.82661,  -768.884E-03,   1.24582E-06
C:/temp/dataset/2/25_3.odb,Step-1,Increment      1: Step Time =    1.000,"PART-1-1",           494,         -1.25,           20.,            0.,NA,NA,"",       8.23899,       7.98584,      -2.02663,   21.3008E-06
C:/temp/dataset/2/25_3.odb,Step-1,Increment      1: Step Time =    1.000,"PART-1-1",           495,      -1.30453,       22.3853,            0.,NA,NA,"",       8.88120,       8.62939,      -2.09984,   17.3040E-06
C:/temp/dataset/2/25_3.odb,Step-1,Increment      1: Step Time =    1.000,"PART-1-1",           496,         -1.25,           30.,            0.,NA,NA,"",       10.9407,       10.6754,      -2.39501,   7.01257E-06
C:/temp/dataset/2/25_3.odb,Step-1,Increment      1: Step Time =    1.000,"PART-1-1",           497,      -2.50829,       28.7162,            0.,NA,NA,"",       10.5692,       10.3765,      -2.00931,   3.66613E-06
C:/temp/dataset/2/25_3.odb,Step-1,Increment      1: Step Time =    1.000,"PART-1-1",           498,         -3.75,           30.,            0.,NA,NA,"",       10.9044,       10.7675,      -1.72266,   1.16435E-06
C:/temp/dataset/2/25_3.odb,Step-1,Increment      1: Step Time =    1.000,"PART-1-1",           499,          3.75,           20.,            0.,NA,NA,"",       8.49951,       7.80206,      -3.37188,   666.277E-06
C:/temp/dataset/2/25_3.odb,Step-1,Increment      1: Step Time =    1.000,"PART-1-1",           500,       4.75388,       21.0765,            0.,NA,NA,"",       8.85544,       8.05398,      -3.68132,   417.937E-06
C:/temp/dataset/2/25_3.odb,Step-1,Increment      1: Step Time =    1.000,"PART-1-1",           501,          6.25,           30.,            0.,NA,NA,"",       11.2968,       10.3995,      -4.41229,   163.177E-06
C:/temp/dataset/2/25_3.odb,Step-1,Increment      1: Step Time =    1.000,"PART-1-1",           502,       6.61296,       27.1492,            0.,NA,NA,"",       10.5795,       9.61901,      -4.40464,   80.6193E-06
C:/temp/dataset/2/25_3.odb,Step-1,Increment      1: Step Time =    1.000,"PART-1-1",           503,            5.,         16.25,            0.,NA,NA,"",       7.63428,       6.74697,      -3.57220,   3.08704E-03
C:/temp/dataset/2/25_3.odb,Step-1,Increment      1: Step Time =    1.000,"PART-1-1",           504,       6.03202,       15.2452,            0.,NA,NA,"",       7.47799,       6.43164,      -3.81500,   3.89855E-03
C:/temp/dataset/2/25_3.odb,Step-1,Increment      1: Step Time =    1.000,"PART-1-1",           505,       6.91243,       16.6330,            0.,NA,NA,"",       7.91947,       6.77475,      -4.10131,   3.66383E-03
C:/temp/dataset/2/25_3.odb,Step-1,Increment      1: Step Time =    1.000,"PART-1-1",           506,            5.,         13.75,            0.,NA,NA,"",       6.99381,       6.06498,      -3.48273,   4.46264E-03
C:/temp/dataset/2/25_3.odb,Step-1,Increment      1: Step Time =    1.000,"PART-1-1",           507,       6.17466,       12.7979,            0.,NA,NA,"",       6.87833,       5.75428,      -3.76824,   5.47470E-03
C:/temp/dataset/2/25_3.odb,Step-1,Increment      1: Step Time =    1.000,"PART-1-1",           508,       12.0086,       16.5092,            0.,NA,NA,"",       8.52545,       6.54593,      -5.46206,   2.57737E-03
C:/temp/dataset/2/25_3.odb,Step-1,Increment      1: Step Time =    1.000,"PART-1-1",           509,           15.,        16.875,            0.,NA,NA,"",       9.06555,       6.53493,      -6.28322,   1.06526E-03
C:/temp/dataset/2/25_3.odb,Step-1,Increment      1: Step Time =    1.000,"PART-1-1",           510,       13.3591,       18.2744,            0.,NA,NA,"",       9.13102,       6.97522,      -5.89252,   843.835E-06
C:/temp/dataset/2/25_3.odb,Step-1,Increment      1: Step Time =    1.000,"PART-1-1",           511,            5.,         11.25,            0.,NA,NA,"",       6.35921,       5.37532,      -3.39786,   6.45113E-03
C:/temp/dataset/2/25_3.odb,Step-1,Increment      1: Step Time =    1.000,"PART-1-1",           512,       6.23142,       10.2778,            0.,NA,NA,"",       6.26795,       5.06092,      -3.69788,   6.26787E-03
C:/temp/dataset/2/25_3.odb,Step-1,Increment      1: Step Time =    1.000,"PART-1-1",           513,            5.,          8.75,            0.,NA,NA,"",       5.75070,       4.69484,      -3.32100,   9.93468E-03
C:/temp/dataset/2/25_3.odb,Step-1,Increment      1: Step Time =    1.000,"PART-1-1",           514,       7.47251,       9.25684,            0.,NA,NA,"",       6.19440,       4.73528,      -3.99345,   7.10004E-03
C:/temp/dataset/2/25_3.odb,Step-1,Increment      1: Step Time =    1.000,"PART-1-1",           515,         11.25,           -5.,            0.,NA,NA,"",       4.62094,       1.06359,      -4.49687,   3.66676E-03
C:/temp/dataset/2/25_3.odb,Step-1,Increment      1: Step Time =    1.000,"PART-1-1",           516,       11.2689,      -2.22707,            0.,NA,NA,"",       4.90024,       1.73715,      -4.58199,   6.87608E-03
C:/temp/dataset/2/25_3.odb,Step-1,Increment      1: Step Time =    1.000,"PART-1-1",           517,          10.5,          -30.,            0.,NA,NA,"",            0.,   3.09160E-39,  -1.82020E-39,   2.77849E-03
C:/temp/dataset/2/25_3.odb,Step-1,Increment      1: Step Time =    1.000,"PART-1-1",           518,           15.,        -23.75,            0.,NA,NA,"",   22.8889E-03,   21.5428E-03,  -7.73370E-03,   25.7684E-06
C:/temp/dataset/2/25_3.odb,Step-1,Increment      1: Step Time =    1.000,"PART-1-1",           519,          3.75,           -5.,            0.,NA,NA,"",       3.02678,       1.36162,      -2.70322,   18.0604E-03
C:/temp/dataset/2/25_3.odb,Step-1,Increment      1: Step Time =    1.000,"PART-1-1",           520,       4.97006,      -3.74763,            0.,NA,NA,"",       3.40930,       1.60327,      -3.00880,   12.5471E-03
C:/temp/dataset/2/25_3.odb,Step-1,Increment      1: Step Time =    1.000,"PART-1-1",           521,       4.85412,       3.76356,            0.,NA,NA,"",       4.60154,       3.34523,      -3.15968,   18.3434E-03
C:/temp/dataset/2/25_3.odb,Step-1,Increment      1: Step Time =    1.000,"PART-1-1",           522,       3.33333,            5.,            0.,NA,NA,"",       4.62920,       3.63858,      -2.86186,   30.0171E-03
C:/temp/dataset/2/25_3.odb,Step-1,Increment      1: Step Time =    1.000,"PART-1-1",           523,       1.45296,       3.58740,            0.,NA,NA,"",       4.10656,       3.33719,      -2.39312,   18.8650E-03
C:/temp/dataset/2/25_3.odb,Step-1,Increment      1: Step Time =    1.000,"PART-1-1",           524,       2.97375,       2.35096,            0.,NA,NA,"",       4.06763,       3.04854,      -2.69295,   9.41497E-03
C:/temp/dataset/2/25_3.odb,Step-1,Increment      1: Step Time =    1.000,"PART-1-1",           525,          6.25,           -5.,            0.,NA,NA,"",       3.51350,       1.25522,      -3.28163,   14.3909E-03
C:/temp/dataset/2/25_3.odb,Step-1,Increment      1: Step Time =    1.000,"PART-1-1",           526,       12.4696,       10.4445,            0.,NA,NA,"",       7.24094,       4.88266,      -5.34704,   5.97336E-03
C:/temp/dataset/2/25_3.odb,Step-1,Increment      1: Step Time =    1.000,"PART-1-1",           527,           15.,       11.0417,            0.,NA,NA,"",       7.81955,       4.95804,      -6.04676,   7.31604E-03
C:/temp/dataset/2/25_3.odb,Step-1,Increment      1: Step Time =    1.000,"PART-1-1",           528,      -5.01382,       23.6808,            0.,NA,NA,"",       9.18675,       9.11450,      -1.14992,   1.33168E-06
C:/temp/dataset/2/25_3.odb,Step-1,Increment      1: Step Time =    1.000,"PART-1-1",           529,      -2.53358,       23.6558,            0.,NA,NA,"",       9.19745,       9.01637,      -1.81608,   7.66104E-06
C:/temp/dataset/2/25_3.odb,Step-1,Increment      1: Step Time =    1.000,"PART-1-1",           530,  -74.6816E-03,       23.6075,            0.,NA,NA,"",       9.25020,       8.91276,      -2.47564,   41.2022E-06
C:/temp/dataset/2/25_3.odb,Step-1,Increment      1: Step Time =    1.000,"PART-1-1",           531,      -6.62798,      -1.45964,            0.,NA,NA,"",       2.49353,       2.40986,  -640.512E-03,   14.6481E-03
C:/temp/dataset/2/25_3.odb,Step-1,Increment      1: Step Time =    1.000,"PART-1-1",           532,      -4.43070,      -2.38075,            0.,NA,NA,"",       2.42750,       2.20349,      -1.01851,   7.51845E-03
C:/temp/dataset/2/25_3.odb,Step-1,Increment      1: Step Time =    1.000,"PART-1-1",           533,      -3.64554,  -813.143E-03,            0.,NA,NA,"",       2.77362,       2.49485,      -1.21188,   5.22545E-03
C:/temp/dataset/2/25_3.odb,Step-1,Increment      1: Step Time =    1.000,"PART-1-1",           534,         -3.75,           -5.,            0.,NA,NA,"",       2.00666,       1.67281,      -1.10834,   26.4469E-03
C:/temp/dataset/2/25_3.odb,Step-1,Increment      1: Step Time =    1.000,"PART-1-1",           535,      -13.8599,      -9.43096,            0.,NA,NA,"",       1.30189,       1.20020,   504.440E-03,   28.6357E-03
C:/temp/dataset/2/25_3.odb,Step-1,Increment      1: Step Time =    1.000,"PART-1-1",           536,          -15.,      -11.0417,            0.,NA,NA,"",       1.18194,       1.00974,   614.323E-03,   39.1751E-03
C:/temp/dataset/2/25_3.odb,Step-1,Increment      1: Step Time =    1.000,"PART-1-1",           537,      -11.9984,      -19.8095,            0.,NA,NA,"",   209.879E-03,   148.799E-03,   148.014E-03,   20.5406E-03
C:/temp/dataset/2/25_3.odb,Step-1,Increment      1: Step Time =    1.000,"PART-1-1",           538,      -13.3881,      -18.2324,            0.,NA,NA,"",   371.404E-03,   261.163E-03,   264.073E-03,   32.4499E-03
C:/temp/dataset/2/25_3.odb,Step-1,Increment      1: Step Time =    1.000,"PART-1-1",           539,          -15.,      -19.7917,            0.,NA,NA,"",   364.275E-03,   199.172E-03,   305.003E-03,   44.7604E-03
C:/temp/dataset/2/25_3.odb,Step-1,Increment      1: Step Time =    1.000,"PART-1-1",           540,           -5.,        -18.75,            0.,NA,NA,"",   306.048E-03,   195.414E-03,  -235.540E-03,   63.3986E-03
C:/temp/dataset/2/25_3.odb,Step-1,Increment      1: Step Time =    1.000,"PART-1-1",           541,      -5.96138,      -20.0094,            0.,NA,NA,"",   165.217E-03,   88.2570E-03,  -139.669E-03,   40.8262E-03
C:/temp/dataset/2/25_3.odb,Step-1,Increment      1: Step Time =    1.000,"PART-1-1",           542,           -5.,        -13.75,            0.,NA,NA,"",   785.793E-03,   632.048E-03,  -466.890E-03,   40.9508E-03
C:/temp/dataset/2/25_3.odb,Step-1,Increment      1: Step Time =    1.000,"PART-1-1",           543,      -7.28958,      -14.3036,            0.,NA,NA,"",   594.546E-03,   554.844E-03,  -213.618E-03,   23.6742E-03
C:/temp/dataset/2/25_3.odb,Step-1,Increment      1: Step Time =    1.000,"PART-1-1",           544,      -8.88285,      -11.0213,            0.,NA,NA,"",   931.392E-03,   924.967E-03,  -109.213E-03,   9.89535E-03
C:/temp/dataset/2/25_3.odb,Step-1,Increment      1: Step Time =    1.000,"PART-1-1",           545,      -9.01222,      -8.51542,            0.,NA,NA,"",       1.26691,       1.26006,  -131.511E-03,   8.02090E-03
C:/temp/dataset/2/25_3.odb,Step-1,Increment      1: Step Time =    1.000,"PART-1-1",           546,      -9.13424,  -715.290E-03,            0.,NA,NA,"",       2.59028,       2.57965,  -234.372E-03,   15.9653E-03
C:/temp/dataset/2/25_3.odb,Step-1,Increment      1: Step Time =    1.000,"PART-1-1",           547,      -9.92186,      -2.42350,            0.,NA,NA,"",       2.27284,       2.27151,  -77.6165E-03,   16.2232E-03
C:/temp/dataset/2/25_3.odb,Step-1,Increment      1: Step Time =    1.000,"PART-1-1",           548,      -12.7176,      -7.95930,            0.,NA,NA,"",       1.43831,       1.39081,   366.585E-03,   19.6169E-03
C:/temp/dataset/2/25_3.odb,Step-1,Increment      1: Step Time =    1.000,"PART-1-1",           549,          -15.,        -8.125,            0.,NA,NA,"",       1.57293,       1.41634,   684.163E-03,   34.6008E-03
C:/temp/dataset/2/25_3.odb,Step-1,Increment      1: Step Time =    1.000,"PART-1-1",           550,       11.2818,   528.104E-03,            0.,NA,NA,"",       5.24722,       2.39522,      -4.66865,   8.40841E-03
C:/temp/dataset/2/25_3.odb,Step-1,Increment      1: Step Time =    1.000,"PART-1-1",           551,       10.0167,  -924.457E-03,            0.,NA,NA,"",       4.78685,       2.08892,      -4.30701,   8.59408E-03
C:/temp/dataset/2/25_3.odb,Step-1,Increment      1: Step Time =    1.000,"PART-1-1",           552,       10.4320,       23.7699,            0.,NA,NA,"",       10.0792,       8.56835,      -5.30785,   123.595E-06
C:/temp/dataset/2/25_3.odb,Step-1,Increment      1: Step Time =    1.000,"PART-1-1",           553,           15.,        25.625,            0.,NA,NA,"",       11.0836,       8.89888,      -6.60725,   167.973E-06
C:/temp/dataset/2/25_3.odb,Step-1,Increment      1: Step Time =    1.000,"PART-1-1",           554,      -9.99539,       26.2124,            0.,NA,NA,"",       9.97940,       9.97893,   96.5985E-03,   431.133E-09
C:/temp/dataset/2/25_3.odb,Step-1,Increment      1: Step Time =    1.000,"PART-1-1",           555,          -15.,       -25.625,            0.,NA,NA,"",   106.378E-03,   30.9372E-03,   101.780E-03,   31.8817E-03
C:/temp/dataset/2/25_3.odb,Step-1,Increment      1: Step Time =    1.000,"PART-1-1",           556,      -12.2044,      -25.8339,            0.,NA,NA,"",   54.8367E-03,  -1.34626E-03,   54.8202E-03,   18.5958E-03
C:/temp/dataset/2/25_3.odb,Step-1,Increment      1: Step Time =    1.000,"PART-1-1",           557,          -15.,       -16.875,            0.,NA,NA,"",   575.090E-03,   392.837E-03,   420.008E-03,   45.6959E-03
C:/temp/dataset/2/25_3.odb,Step-1,Increment      1: Step Time =    1.000,"PART-1-1",           558,      -8.25880,      -15.9015,            0.,NA,NA,"",   408.937E-03,   398.231E-03,  -92.9611E-03,   15.8035E-03
C:/temp/dataset/2/25_3.odb,Step-1,Increment      1: Step Time =    1.000,"PART-1-1",           559,       7.56555,       17.9230,            0.,NA,NA,"",       8.31181,       7.09935,      -4.32267,   2.82428E-03
C:/temp/dataset/2/25_3.odb,Step-1,Increment      1: Step Time =    1.000,"PART-1-1",           560,      -9.72707,       2.21069,            0.,NA,NA,"",       3.13994,       3.13401,  -192.806E-03,   12.8524E-03
C:/temp/dataset/2/25_3.odb,Step-1,Increment      1: Step Time =    1.000,"PART-1-1",           561,      -8.18006,       3.69884,            0.,NA,NA,"",       3.43146,       3.39630,  -489.911E-03,   13.3660E-03
C:/temp/dataset/2/25_3.odb,Step-1,Increment      1: Step Time =    1.000,"PART-1-1",           562,          -10.,            5.,            0.,NA,NA,"",       3.64182,       3.63631,  -200.399E-03,   9.10046E-03
C:/temp/dataset/2/25_3.odb,Step-1,Increment      1: Step Time =    1.000,"PART-1-1",           563,      -10.3433,      -7.69771,            0.,NA,NA,"",       1.39357,       1.39298,   40.6119E-03,   8.87498E-03
C:/temp/dataset/2/25_3.odb,Step-1,Increment      1: Step Time =    1.000,"PART-1-1",           564,      -11.5611,      -6.59494,            0.,NA,NA,"",       1.59435,       1.58097,   206.081E-03,   13.9475E-03
C:/temp/dataset/2/25_3.odb,Step-1,Increment      1: Step Time =    1.000,"PART-1-1",           565,      -9.40089,      -20.7816,            0.,NA,NA,"",   81.9706E-03,   81.4495E-03,   9.22819E-03,   8.20271E-03
C:/temp/dataset/2/25_3.odb,Step-1,Increment      1: Step Time =    1.000,"PART-1-1",           566,      -8.21757,      -22.2064,            0.,NA,NA,"",   50.4700E-03,   35.4939E-03,  -35.8804E-03,   11.8586E-03
C:/temp/dataset/2/25_3.odb,Step-1,Increment      1: Step Time =    1.000,"PART-1-1",           567,      -6.89894,      -21.2078,            0.,NA,NA,"",   107.067E-03,   58.0214E-03,  -89.9825E-03,   19.1915E-03
C:/temp/dataset/2/25_3.odb,Step-1,Increment      1: Step Time =    1.000,"PART-1-1",           568,      -9.14285,      -28.6800,            0.,NA,NA,"",   12.0076E-03,  -11.9315E-03,   1.34904E-03,   6.88784E-03
C:/temp/dataset/2/25_3.odb,Step-1,Increment      1: Step Time =    1.000,"PART-1-1",           569,      -10.7232,      -27.3047,            0.,NA,NA,"",   22.1649E-03,  -14.0567E-03,   17.1375E-03,   9.96165E-03
C:/temp/dataset/2/25_3.odb,Step-1,Increment      1: Step Time =    1.000,"PART-1-1",           570,         -10.5,          -30.,            0.,NA,NA,"",            0.,  -10.3855E-39,   14.8032E-39,   9.79329E-03
C:/temp/dataset/2/25_3.odb,Step-1,Increment      1: Step Time =    1.000,"PART-1-1",           571,      -4.89633,      -27.4366,            0.,NA,NA,"",   20.0584E-03,   4.44672E-03,  -19.5593E-03,   10.9211E-03
C:/temp/dataset/2/25_3.odb,Step-1,Increment      1: Step Time =    1.000,"PART-1-1",           572,      -6.18287,      -28.7136,            0.,NA,NA,"",   7.89345E-03,  -3.88928E-03,  -6.86878E-03,   8.17258E-03
C:/temp/dataset/2/25_3.odb,Step-1,Increment      1: Step Time =    1.000,"PART-1-1",           573,          -4.5,          -30.,            0.,NA,NA,"",            0.,   739.961E-42,  -14.7574E-39,   6.51922E-03
C:/temp/dataset/2/25_3.odb,Step-1,Increment      1: Step Time =    1.000,"PART-1-1",           574,       12.5384,       2.02620,            0.,NA,NA,"",       5.72277,       2.71891,      -5.03564,   7.36083E-03
C:/temp/dataset/2/25_3.odb,Step-1,Increment      1: Step Time =    1.000,"PART-1-1",           575,           15.,       2.29167,            0.,NA,NA,"",       6.27876,       2.71449,      -5.66166,   9.96703E-03
C:/temp/dataset/2/25_3.odb,Step-1,Increment      1: Step Time =    1.000,"PART-1-1",           576,       9.96595,       9.83263,            0.,NA,NA,"",       6.69663,       4.80288,      -4.66661,   6.11247E-03
C:/temp/dataset/2/25_3.odb,Step-1,Increment      1: Step Time =    1.000,"PART-1-1",           577,           15.,       19.7917,            0.,NA,NA,"",       9.72226,       7.32499,      -6.39272,   126.797E-06
C:/temp/dataset/2/25_3.odb,Step-1,Increment      1: Step Time =    1.000,"PART-1-1",           578,       7.90800,       20.1372,            0.,NA,NA,"",       8.90198,       7.68403,      -4.49454,   1.10115E-03
C:/temp/dataset/2/25_3.odb,Step-1,Increment      1: Step Time =    1.000,"PART-1-1",           579,       8.41916,       21.3934,            0.,NA,NA,"",       9.27005,       8.00309,      -4.67806,   526.951E-06
C:/temp/dataset/2/25_3.odb,Step-1,Increment      1: Step Time =    1.000,"PART-1-1",           580,       6.50486,       21.1025,            0.,NA,NA,"",       9.01021,       7.99635,      -4.15239,   612.785E-06
C:/temp/dataset/2/25_3.odb,Step-1,Increment      1: Step Time =    1.000,"PART-1-1",           581,           4.5,          -30.,            0.,NA,NA,"",            0.,   5.69326E-39,  -4.22544E-39,   5.32250E-03
C:/temp/dataset/2/25_3.odb,Step-1,Increment      1: Step Time =    1.000,"PART-1-1",           582,       3.62857,      -22.4261,            0.,NA,NA,"",   32.3987E-03,   32.3203E-03,  -2.25287E-03,   2.77048E-03
C:/temp/dataset/2/25_3.odb,Step-1,Increment      1: Step Time =    1.000,"PART-1-1",           583,       2.16864,      -23.6665,            0.,NA,NA,"",   35.4162E-03,   34.6387E-03,  -7.38027E-03,   4.69322E-03
C:/temp/dataset/2/25_3.odb,Step-1,Increment      1: Step Time =    1.000,"PART-1-1",           584,      -2.73954,      -22.4743,            0.,NA,NA,"",   80.5978E-03,   56.0484E-03,  -57.9188E-03,   16.1749E-03
C:/temp/dataset/2/25_3.odb,Step-1,Increment      1: Step Time =    1.000,"PART-1-1",           585,  -999.676E-03,      -23.6839,            0.,NA,NA,"",   51.2748E-03,   42.8896E-03,  -28.0997E-03,   10.9602E-03
C:/temp/dataset/2/25_3.odb,Step-1,Increment      1: Step Time =    1.000,"PART-1-1",           586,      -7.82572,      -27.3936,            0.,NA,NA,"",   14.3926E-03,  -11.2011E-03,  -9.03785E-03,   6.67354E-03
C:/temp/dataset/2/25_3.odb,Step-1,Increment      1: Step Time =    1.000,"PART-1-1",           587,      -6.52069,      -26.1528,            0.,NA,NA,"",   27.7943E-03,   121.024E-06,  -27.7941E-03,   12.6769E-03
C:/temp/dataset/2/25_3.odb,Step-1,Increment      1: Step Time =    1.000,"PART-1-1",           588,      -8.08310,      -24.7829,            0.,NA,NA,"",   21.3030E-03,   234.499E-06,  -21.3017E-03,   9.14166E-03
C:/temp/dataset/2/25_3.odb,Step-1,Increment      1: Step Time =    1.000,"PART-1-1",           589,      -9.38814,      -26.0237,            0.,NA,NA,"",   12.5835E-03,  -11.7428E-03,   4.52233E-03,   7.49860E-03
C:/temp/dataset/2/25_3.odb,Step-1,Increment      1: Step Time =    1.000,"PART-1-1",           590,          -7.5,          -30.,            0.,NA,NA,"",            0.,  -6.89696E-39,  -5.44213E-39,   6.00659E-03
C:/temp/dataset/2/25_3.odb,Step-1,Increment      1: Step Time =    1.000,"PART-1-1",           591,       7.73182,       24.8866,            0.,NA,NA,"",       10.0897,       8.96880,      -4.62208,   100.949E-06
C:/temp/dataset/2/25_3.odb,Step-1,Increment      1: Step Time =    1.000,"PART-1-1",           592,       8.21760,       26.2797,            0.,NA,NA,"",       10.4906,       9.32586,      -4.80435,   82.5004E-06
C:/temp/dataset/2/25_3.odb,Step-1,Increment      1: Step Time =    1.000,"PART-1-1",           593,       6.12718,       25.7561,            0.,NA,NA,"",       10.1791,       9.26198,      -4.22249,   110.683E-06
C:/temp/dataset/2/25_3.odb,Step-1,Increment      1: Step Time =    1.000,"PART-1-1",           594,       5.38844,       22.1508,            0.,NA,NA,"",       9.18421,       8.31923,      -3.89103,   266.297E-06
C:/temp/dataset/2/25_3.odb,Step-1,Increment      1: Step Time =    1.000,"PART-1-1",           595,      -3.37677,   775.412E-03,            0.,NA,NA,"",       3.09420,       2.80554,      -1.30498,   9.14835E-03
C:/temp/dataset/2/25_3.odb,Step-1,Increment      1: Step Time =    1.000,"PART-1-1",           596,      -3.41233,       2.84116,            0.,NA,NA,"",       3.48721,       3.21421,      -1.35260,   15.2434E-03
C:/temp/dataset/2/25_3.odb,Step-1,Increment      1: Step Time =    1.000,"PART-1-1",           597,      -11.2482,       24.9673,            0.,NA,NA,"",       9.70207,       9.69022,   479.428E-03,   348.135E-09
C:/temp/dataset/2/25_3.odb,Step-1,Increment      1: Step Time =    1.000,"PART-1-1",           598,       5.16292,       24.1270,            0.,NA,NA,"",       9.68085,       8.85916,      -3.90309,   165.632E-06
C:/temp/dataset/2/25_3.odb,Step-1,Increment      1: Step Time =    1.000,"PART-1-1",           599,            0.,            5.,            0.,NA,NA,"",       4.21376,       3.63908,      -2.12435,   25.2913E-03
C:/temp/dataset/2/25_3.odb,Step-1,Increment      1: Step Time =    1.000,"PART-1-1",           600,      -1.80204,       3.95011,            0.,NA,NA,"",       3.83054,       3.42756,      -1.71023,   20.7702E-03
C:/temp/dataset/2/25_3.odb,Step-1,Increment      1: Step Time =    1.000,"PART-1-1",           601,       9.59799,       22.9228,            0.,NA,NA,"",       9.77739,       8.37113,      -5.05188,   184.493E-06
C:/temp/dataset/2/25_3.odb,Step-1,Increment      1: Step Time =    1.000,"PART-1-1",           602,       8.30932,       22.9391,            0.,NA,NA,"",       9.64848,       8.42326,      -4.70551,   198.394E-06
C:/temp/dataset/2/25_3.odb,Step-1,Increment      1: Step Time =    1.000,"PART-1-1",           603,      -1.93269,      -1.01257,            0.,NA,NA,"",       2.87590,       2.42004,      -1.55376,   1.85241E-03
C:/temp/dataset/2/25_3.odb,Step-1,Increment      1: Step Time =    1.000,"PART-1-1",           604,      -8.69440,      -13.5596,            0.,NA,NA,"",   635.950E-03,   629.420E-03,  -90.9013E-03,   11.7815E-03
C:/temp/dataset/2/25_3.odb,Step-1,Increment      1: Step Time =    1.000,"PART-1-1",           605,       6.07991,       2.65614,            0.,NA,NA,"",       4.58969,       3.05243,      -3.42752,   8.80839E-03
C:/temp/dataset/2/25_3.odb,Step-1,Increment      1: Step Time =    1.000,"PART-1-1",           606,       4.75906,       1.28045,            0.,NA,NA,"",       4.13655,       2.76498,      -3.07668,   5.33034E-03
C:/temp/dataset/2/25_3.odb,Step-1,Increment      1: Step Time =    1.000,"PART-1-1",           607,       10.0234,       4.43547,            0.,NA,NA,"",       5.61658,       3.38519,      -4.48179,   5.72274E-03
C:/temp/dataset/2/25_3.odb,Step-1,Increment      1: Step Time =    1.000,"PART-1-1",           608,       7.46673,       4.06304,            0.,NA,NA,"",       5.08509,       3.35951,      -3.81730,   8.53595E-03
C:/temp/dataset/2/25_3.odb,Step-1,Increment      1: Step Time =    1.000,"PART-1-1",           609,  -317.165E-03,  -486.862E-03,            0.,NA,NA,"",       3.13648,       2.49372,      -1.90233,   946.742E-06
C:/temp/dataset/2/25_3.odb,Step-1,Increment      1: Step Time =    1.000,"PART-1-1",           610,       1.72730,   921.331E-03,            0.,NA,NA,"",       3.63806,       2.75341,      -2.37786,   6.08033E-03
C:/temp/dataset/2/25_3.odb,Step-1,Increment      1: Step Time =    1.000,"PART-1-1",           611,      -4.63664,      -21.2535,            0.,NA,NA,"",   134.420E-03,   72.1624E-03,  -113.408E-03,   37.0783E-03
C:/temp/dataset/2/25_3.odb,Step-1,Increment      1: Step Time =    1.000,"PART-1-1",           612,       11.2827,       3.26092,            0.,NA,NA,"",       5.65787,       3.05719,      -4.76078,   7.25859E-03
C:/temp/dataset/2/25_3.odb,Step-1,Increment      1: Step Time =    1.000,"PART-1-1",           613,      -11.4502,      -4.36864,            0.,NA,NA,"",       1.95714,       1.94885,   179.894E-03,   15.2970E-03
C:/temp/dataset/2/25_3.odb,Step-1,Increment      1: Step Time =    1.000,"PART-1-1",           614,      -10.8693,      -24.5529,            0.,NA,NA,"",   41.3770E-03,   2.62872E-03,   41.2934E-03,   12.8651E-03
C:/temp/dataset/2/25_3.odb,Step-1,Increment      1: Step Time =    1.000,"PART-1-1",           615,      -9.52531,      -23.3517,            0.,NA,NA,"",   17.9200E-03,   15.4042E-03,   9.15631E-03,   9.88084E-03
C:/temp/dataset/2/25_3.odb,Step-1,Increment      1: Step Time =    1.000,"PART-1-1",           616,      -10.8903,      -21.7518,            0.,NA,NA,"",   90.4194E-03,   59.3069E-03,   68.2521E-03,   15.0021E-03
C:/temp/dataset/2/25_3.odb,Step-1,Increment      1: Step Time =    1.000,"PART-1-1",           617,       3.33333,          -20.,            0.,NA,NA,"",   29.6468E-03,   29.6165E-03,  -1.34098E-03,   774.488E-06
C:/temp/dataset/2/25_3.odb,Step-1,Increment      1: Step Time =    1.000,"PART-1-1",           618,       1.83446,      -21.2108,            0.,NA,NA,"",   34.7041E-03,   34.0268E-03,  -6.82308E-03,   2.45795E-03
C:/temp/dataset/2/25_3.odb,Step-1,Increment      1: Step Time =    1.000,"PART-1-1",           619,       5.12744,      -21.2153,            0.,NA,NA,"",   29.7033E-03,   29.6873E-03,   973.882E-06,   1.10970E-03
C:/temp/dataset/2/25_3.odb,Step-1,Increment      1: Step Time =    1.000,"PART-1-1",           620,            0.,          -20.,            0.,NA,NA,"",   34.6476E-03,   30.8935E-03,  -15.6860E-03,   3.32498E-03
C:/temp/dataset/2/25_3.odb,Step-1,Increment      1: Step Time =    1.000,"PART-1-1",           621,      -1.43624,      -21.2208,            0.,NA,NA,"",   59.4297E-03,   47.4173E-03,  -35.8259E-03,   8.32191E-03
C:/temp/dataset/2/25_3.odb,Step-1,Increment      1: Step Time =    1.000,"PART-1-1",           622,   398.228E-03,      -22.4316,            0.,NA,NA,"",   44.2505E-03,   40.7586E-03,  -17.2291E-03,   6.80225E-03
C:/temp/dataset/2/25_3.odb,Step-1,Increment      1: Step Time =    1.000,"PART-1-1",           623,   770.736E-03,      -24.9188,            0.,NA,NA,"",   36.7764E-03,   34.2057E-03,  -13.5083E-03,   7.52526E-03
C:/temp/dataset/2/25_3.odb,Step-1,Increment      1: Step Time =    1.000,"PART-1-1",           624,      -3.33333,          -20.,            0.,NA,NA,"",   78.5773E-03,   49.3357E-03,  -61.1587E-03,   22.2870E-03
C:/temp/dataset/2/25_3.odb,Step-1,Increment      1: Step Time =    1.000,"PART-1-1",           625,       8.69606,       24.2205,            0.,NA,NA,"",       10.0111,       8.75391,      -4.85699,   121.369E-06
C:/temp/dataset/2/25_3.odb,Step-1,Increment      1: Step Time =    1.000,"PART-1-1",           626,      -3.33333,            5.,            0.,NA,NA,"",       3.90697,       3.63585,      -1.43004,   24.5464E-03
C:/temp/dataset/2/25_3.odb,Step-1,Increment      1: Step Time =    1.000,"PART-1-1",           627,      -4.94363,       3.89105,            0.,NA,NA,"",       3.59025,       3.42271,      -1.08396,   18.8934E-03
C:/temp/dataset/2/25_3.odb,Step-1,Increment      1: Step Time =    1.000,"PART-1-1",           628,      -6.66667,            5.,            0.,NA,NA,"",       3.71249,       3.62718,  -791.313E-03,   19.2189E-03
C:/temp/dataset/2/25_3.odb,Step-1,Increment      1: Step Time =    1.000,"PART-1-1",           629,           10.,          -20.,            0.,NA,NA,"",   28.3833E-03,   28.3790E-03,   492.829E-06,   66.5199E-06
C:/temp/dataset/2/25_3.odb,Step-1,Increment      1: Step Time =    1.000,"PART-1-1",           630,       8.42239,      -21.2201,            0.,NA,NA,"",   27.4657E-03,   27.4145E-03,   1.67546E-03,   503.035E-06
C:/temp/dataset/2/25_3.odb,Step-1,Increment      1: Step Time =    1.000,"PART-1-1",           631,       6.66667,          -20.,            0.,NA,NA,"",   28.4911E-03,   28.4004E-03,   2.27228E-03,   282.109E-06
C:/temp/dataset/2/25_3.odb,Step-1,Increment      1: Step Time =    1.000,"PART-1-1",           632,       9.53008,       25.0675,            0.,NA,NA,"",       10.3085,       8.95112,      -5.11290,   101.152E-06
