ODB Name,Step,Frame,Part Instance Name,    êﬂì_ÉâÉxÉã,X,Y,Z,Section Name,Material Name,Section Point,   U-Magnitude,          U-U1,          U-U2,       S-Mises
C:/temp/dataset/2/26_4.odb,Step-1,Increment      1: Step Time =    1.000,"PART-1-1",             1,          -15.,           20.,            0.,NA,NA,"",       7.81989,       7.74164,       1.10351,   251.638E-12
C:/temp/dataset/2/26_4.odb,Step-1,Increment      1: Step Time =    1.000,"PART-1-1",             2,          -15.,           25.,            0.,NA,NA,"",       8.94695,       8.89434,   968.825E-03,   5.19987E-09
C:/temp/dataset/2/26_4.odb,Step-1,Increment      1: Step Time =    1.000,"PART-1-1",             3,          -10.,           20.,            0.,NA,NA,"",       7.60711,       7.60695,  -49.1876E-03,   8.53985E-09
C:/temp/dataset/2/26_4.odb,Step-1,Increment      1: Step Time =    1.000,"PART-1-1",             4,           -5.,           20.,            0.,NA,NA,"",       7.56831,       7.47227,      -1.20189,   112.170E-09
C:/temp/dataset/2/26_4.odb,Step-1,Increment      1: Step Time =    1.000,"PART-1-1",             5,            0.,           20.,            0.,NA,NA,"",       7.70611,       7.33758,      -2.35458,   2.12294E-06
C:/temp/dataset/2/26_4.odb,Step-1,Increment      1: Step Time =    1.000,"PART-1-1",             6,            5.,           20.,            0.,NA,NA,"",       8.01140,       7.20286,      -3.50733,   50.8351E-06
C:/temp/dataset/2/26_4.odb,Step-1,Increment      1: Step Time =    1.000,"PART-1-1",             7,            5.,          12.5,            0.,NA,NA,"",       6.40192,       5.47990,      -3.30989,   2.14987E-03
C:/temp/dataset/2/26_4.odb,Step-1,Increment      1: Step Time =    1.000,"PART-1-1",             8,            5.,            5.,            0.,NA,NA,"",       4.82785,       3.69012,      -3.11306,   24.5784E-03
C:/temp/dataset/2/26_4.odb,Step-1,Increment      1: Step Time =    1.000,"PART-1-1",             9,           -5.,            5.,            0.,NA,NA,"",       3.86007,       3.70174,      -1.09420,   18.5344E-03
C:/temp/dataset/2/26_4.odb,Step-1,Increment      1: Step Time =    1.000,"PART-1-1",            10,          -15.,            5.,            0.,NA,NA,"",       3.84366,       3.78702,   657.423E-03,   751.336E-06
C:/temp/dataset/2/26_4.odb,Step-1,Increment      1: Step Time =    1.000,"PART-1-1",            11,          -15.,         -3.75,            0.,NA,NA,"",       2.35165,       2.23154,   741.957E-03,   20.0931E-03
C:/temp/dataset/2/26_4.odb,Step-1,Increment      1: Step Time =    1.000,"PART-1-1",            12,          -15.,         -12.5,            0.,NA,NA,"",       1.07905,   899.613E-03,   595.855E-03,   40.3982E-03
C:/temp/dataset/2/26_4.odb,Step-1,Increment      1: Step Time =    1.000,"PART-1-1",            13,          -15.,        -21.25,            0.,NA,NA,"",   307.068E-03,   151.654E-03,   267.005E-03,   45.4852E-03
C:/temp/dataset/2/26_4.odb,Step-1,Increment      1: Step Time =    1.000,"PART-1-1",            14,          -15.,          -30.,            0.,NA,NA,"",            0.,   8.97092E-39,   16.8975E-39,   26.4875E-03
C:/temp/dataset/2/26_4.odb,Step-1,Increment      1: Step Time =    1.000,"PART-1-1",            15,           15.,          -30.,            0.,NA,NA,"",            0.,   1.96645E-39,  -3.25893E-39,   5.46472E-03
C:/temp/dataset/2/26_4.odb,Step-1,Increment      1: Step Time =    1.000,"PART-1-1",            16,           15.,          -25.,            0.,NA,NA,"",   23.1785E-03,   21.3113E-03,  -9.11448E-03,   187.614E-06
C:/temp/dataset/2/26_4.odb,Step-1,Increment      1: Step Time =    1.000,"PART-1-1",            17,           15.,          -20.,            0.,NA,NA,"",   34.6810E-03,   33.5518E-03,  -8.77761E-03,   20.1406E-06
C:/temp/dataset/2/26_4.odb,Step-1,Increment      1: Step Time =    1.000,"PART-1-1",            18,            5.,          -20.,            0.,NA,NA,"",   34.0023E-03,   33.9638E-03,   1.61741E-03,   873.970E-06
C:/temp/dataset/2/26_4.odb,Step-1,Increment      1: Step Time =    1.000,"PART-1-1",            19,           -5.,          -20.,            0.,NA,NA,"",   192.693E-03,   99.9295E-03,  -164.757E-03,   70.8936E-03
C:/temp/dataset/2/26_4.odb,Step-1,Increment      1: Step Time =    1.000,"PART-1-1",            20,           -5.,         -12.5,            0.,NA,NA,"",   992.227E-03,   830.580E-03,  -542.817E-03,   39.1533E-03
C:/temp/dataset/2/26_4.odb,Step-1,Increment      1: Step Time =    1.000,"PART-1-1",            21,           -5.,           -5.,            0.,NA,NA,"",       2.03341,       1.84805,  -848.216E-03,   30.3809E-03
C:/temp/dataset/2/26_4.odb,Step-1,Increment      1: Step Time =    1.000,"PART-1-1",            22,            0.,           -5.,            0.,NA,NA,"",       2.50342,       1.68462,      -1.85180,   11.7331E-03
C:/temp/dataset/2/26_4.odb,Step-1,Increment      1: Step Time =    1.000,"PART-1-1",            23,            5.,           -5.,            0.,NA,NA,"",       3.26674,       1.52129,      -2.89089,   10.2006E-03
C:/temp/dataset/2/26_4.odb,Step-1,Increment      1: Step Time =    1.000,"PART-1-1",            24,           10.,           -5.,            0.,NA,NA,"",       4.21969,       1.36591,      -3.99250,   3.53498E-03
C:/temp/dataset/2/26_4.odb,Step-1,Increment      1: Step Time =    1.000,"PART-1-1",            25,           15.,           -5.,            0.,NA,NA,"",       5.26006,       1.23413,      -5.11323,   248.212E-06
C:/temp/dataset/2/26_4.odb,Step-1,Increment      1: Step Time =    1.000,"PART-1-1",            26,           15.,          3.75,            0.,NA,NA,"",       6.22979,       3.18513,      -5.35400,   5.35929E-03
C:/temp/dataset/2/26_4.odb,Step-1,Increment      1: Step Time =    1.000,"PART-1-1",            27,           15.,          12.5,            0.,NA,NA,"",       7.65149,       5.20173,      -5.61136,   60.0897E-06
C:/temp/dataset/2/26_4.odb,Step-1,Increment      1: Step Time =    1.000,"PART-1-1",            28,           15.,         21.25,            0.,NA,NA,"",       9.29163,       7.22182,      -5.84634,   34.4809E-06
C:/temp/dataset/2/26_4.odb,Step-1,Increment      1: Step Time =    1.000,"PART-1-1",            29,           15.,           30.,            0.,NA,NA,"",       11.0611,       9.23893,      -6.08196,   251.389E-09
C:/temp/dataset/2/26_4.odb,Step-1,Increment      1: Step Time =    1.000,"PART-1-1",            30,           7.5,           30.,            0.,NA,NA,"",       10.3961,       9.44094,      -4.35298,   597.438E-09
C:/temp/dataset/2/26_4.odb,Step-1,Increment      1: Step Time =    1.000,"PART-1-1",            31,            0.,           30.,            0.,NA,NA,"",       9.99360,       9.64298,      -2.62395,   945.019E-09
C:/temp/dataset/2/26_4.odb,Step-1,Increment      1: Step Time =    1.000,"PART-1-1",            32,          -7.5,           30.,            0.,NA,NA,"",       9.88560,       9.84501,  -894.907E-03,   7.79179E-09
C:/temp/dataset/2/26_4.odb,Step-1,Increment      1: Step Time =    1.000,"PART-1-1",            33,          -15.,           30.,            0.,NA,NA,"",       10.0816,       10.0470,   834.140E-03,   237.824E-12
C:/temp/dataset/2/26_4.odb,Step-1,Increment      1: Step Time =    1.000,"PART-1-1",            34,          -15.,          22.5,            0.,NA,NA,"",       8.38228,       8.31799,       1.03617,   2.73795E-09
C:/temp/dataset/2/26_4.odb,Step-1,Increment      1: Step Time =    1.000,"PART-1-1",            35,         -12.5,           20.,            0.,NA,NA,"",       7.69238,       7.67430,   527.161E-03,   3.46454E-09
C:/temp/dataset/2/26_4.odb,Step-1,Increment      1: Step Time =    1.000,"PART-1-1",            36,          -7.5,           20.,            0.,NA,NA,"",       7.56552,       7.53961,  -625.536E-03,   12.6648E-09
C:/temp/dataset/2/26_4.odb,Step-1,Increment      1: Step Time =    1.000,"PART-1-1",            37,          -2.5,           20.,            0.,NA,NA,"",       7.61545,       7.40493,      -1.77823,   365.877E-09
C:/temp/dataset/2/26_4.odb,Step-1,Increment      1: Step Time =    1.000,"PART-1-1",            38,           2.5,           20.,            0.,NA,NA,"",       7.83879,       7.27023,      -2.93093,   9.03386E-06
C:/temp/dataset/2/26_4.odb,Step-1,Increment      1: Step Time =    1.000,"PART-1-1",            39,            5.,           15.,            0.,NA,NA,"",       6.92788,       6.05086,      -3.37382,   763.285E-06
C:/temp/dataset/2/26_4.odb,Step-1,Increment      1: Step Time =    1.000,"PART-1-1",            40,            5.,          17.5,            0.,NA,NA,"",       7.46643,       6.62656,      -3.44039,   260.692E-06
C:/temp/dataset/2/26_4.odb,Step-1,Increment      1: Step Time =    1.000,"PART-1-1",            41,            5.,           7.5,            0.,NA,NA,"",       5.35747,       4.31610,      -3.17392,   8.69194E-03
C:/temp/dataset/2/26_4.odb,Step-1,Increment      1: Step Time =    1.000,"PART-1-1",            42,            5.,           10.,            0.,NA,NA,"",       5.88002,       4.90534,      -3.24226,   3.61924E-03
C:/temp/dataset/2/26_4.odb,Step-1,Increment      1: Step Time =    1.000,"PART-1-1",            43,      -1.66667,            5.,            0.,NA,NA,"",       4.08609,       3.69937,      -1.73518,   19.7199E-03
C:/temp/dataset/2/26_4.odb,Step-1,Increment      1: Step Time =    1.000,"PART-1-1",            44,       1.66667,            5.,            0.,NA,NA,"",       4.40726,       3.68882,      -2.41175,   20.1108E-03
C:/temp/dataset/2/26_4.odb,Step-1,Increment      1: Step Time =    1.000,"PART-1-1",            45,      -11.6667,            5.,            0.,NA,NA,"",       3.73862,       3.73777,   79.7359E-03,   2.78591E-03
C:/temp/dataset/2/26_4.odb,Step-1,Increment      1: Step Time =    1.000,"PART-1-1",            46,      -8.33333,            5.,            0.,NA,NA,"",       3.74191,       3.70907,  -494.687E-03,   11.5709E-03
C:/temp/dataset/2/26_4.odb,Step-1,Increment      1: Step Time =    1.000,"PART-1-1",            47,          -15.,  -833.333E-03,            0.,NA,NA,"",       2.84636,       2.74990,   734.724E-03,   10.5220E-03
C:/temp/dataset/2/26_4.odb,Step-1,Increment      1: Step Time =    1.000,"PART-1-1",            48,          -15.,       2.08333,            0.,NA,NA,"",       3.34810,       3.27362,   702.283E-03,   2.18963E-03
C:/temp/dataset/2/26_4.odb,Step-1,Increment      1: Step Time =    1.000,"PART-1-1",            49,          -15.,      -9.58333,            0.,NA,NA,"",       1.45516,       1.29235,   668.808E-03,   34.8341E-03
C:/temp/dataset/2/26_4.odb,Step-1,Increment      1: Step Time =    1.000,"PART-1-1",            50,          -15.,      -6.66667,            0.,NA,NA,"",       1.88229,       1.73975,   718.532E-03,   28.4616E-03
C:/temp/dataset/2/26_4.odb,Step-1,Increment      1: Step Time =    1.000,"PART-1-1",            51,          -15.,      -18.3333,            0.,NA,NA,"",   501.916E-03,   319.256E-03,   387.292E-03,   47.8908E-03
C:/temp/dataset/2/26_4.odb,Step-1,Increment      1: Step Time =    1.000,"PART-1-1",            52,          -15.,      -15.4167,            0.,NA,NA,"",   759.663E-03,   571.235E-03,   500.778E-03,   45.7582E-03
C:/temp/dataset/2/26_4.odb,Step-1,Increment      1: Step Time =    1.000,"PART-1-1",            53,          -15.,      -27.0833,            0.,NA,NA,"",   73.2151E-03,   23.6048E-03,   69.3056E-03,   31.4260E-03
C:/temp/dataset/2/26_4.odb,Step-1,Increment      1: Step Time =    1.000,"PART-1-1",            54,          -15.,      -24.1667,            0.,NA,NA,"",   169.598E-03,   60.8080E-03,   158.322E-03,   38.0966E-03
C:/temp/dataset/2/26_4.odb,Step-1,Increment      1: Step Time =    1.000,"PART-1-1",            55,           12.,          -30.,            0.,NA,NA,"",            0.,   7.94890E-39,  -7.53209E-39,   2.54077E-03
C:/temp/dataset/2/26_4.odb,Step-1,Increment      1: Step Time =    1.000,"PART-1-1",            56,            9.,          -30.,            0.,NA,NA,"",            0.,   6.96862E-39,   2.26961E-39,   3.69667E-03
C:/temp/dataset/2/26_4.odb,Step-1,Increment      1: Step Time =    1.000,"PART-1-1",            57,            6.,          -30.,            0.,NA,NA,"",            0.,   13.7658E-39,  -13.7213E-39,   5.09101E-03
C:/temp/dataset/2/26_4.odb,Step-1,Increment      1: Step Time =    1.000,"PART-1-1",            58,            3.,          -30.,            0.,NA,NA,"",            0.,   12.1941E-39,  -4.75320E-39,   6.98369E-03
C:/temp/dataset/2/26_4.odb,Step-1,Increment      1: Step Time =    1.000,"PART-1-1",            59,            0.,          -30.,            0.,NA,NA,"",            0.,   23.1408E-39,  -32.9930E-39,   8.65103E-03
C:/temp/dataset/2/26_4.odb,Step-1,Increment      1: Step Time =    1.000,"PART-1-1",            60,           -3.,          -30.,            0.,NA,NA,"",            0.,   18.4825E-39,  -38.8908E-39,   8.55592E-03
C:/temp/dataset/2/26_4.odb,Step-1,Increment      1: Step Time =    1.000,"PART-1-1",            61,           -6.,          -30.,            0.,NA,NA,"",            0.,   931.037E-42,  -23.7932E-39,   6.87603E-03
C:/temp/dataset/2/26_4.odb,Step-1,Increment      1: Step Time =    1.000,"PART-1-1",            62,           -9.,          -30.,            0.,NA,NA,"",            0.,  -18.7128E-39,  -7.19717E-39,   8.26868E-03
C:/temp/dataset/2/26_4.odb,Step-1,Increment      1: Step Time =    1.000,"PART-1-1",            63,          -12.,          -30.,            0.,NA,NA,"",            0.,   4.97015E-39,   50.2752E-39,   14.1274E-03
C:/temp/dataset/2/26_4.odb,Step-1,Increment      1: Step Time =    1.000,"PART-1-1",            64,           15.,         -27.5,            0.,NA,NA,"",   14.3270E-03,   12.0426E-03,  -7.76136E-03,   1.90879E-03
C:/temp/dataset/2/26_4.odb,Step-1,Increment      1: Step Time =    1.000,"PART-1-1",            65,           15.,         -22.5,            0.,NA,NA,"",   29.5591E-03,   28.1795E-03,  -8.92524E-03,   140.775E-06
C:/temp/dataset/2/26_4.odb,Step-1,Increment      1: Step Time =    1.000,"PART-1-1",            66,       8.33333,          -20.,            0.,NA,NA,"",   33.1234E-03,   33.0616E-03,   2.02352E-03,   125.433E-06
C:/temp/dataset/2/26_4.odb,Step-1,Increment      1: Step Time =    1.000,"PART-1-1",            67,       11.6667,          -20.,            0.,NA,NA,"",   33.3187E-03,   33.2570E-03,  -2.02590E-03,   158.574E-06
C:/temp/dataset/2/26_4.odb,Step-1,Increment      1: Step Time =    1.000,"PART-1-1",            68,      -1.66667,          -20.,            0.,NA,NA,"",   59.7745E-03,   42.9833E-03,  -41.5382E-03,   14.8078E-03
C:/temp/dataset/2/26_4.odb,Step-1,Increment      1: Step Time =    1.000,"PART-1-1",            69,       1.66667,          -20.,            0.,NA,NA,"",   37.5319E-03,   36.6013E-03,  -8.30563E-03,   2.34576E-03
C:/temp/dataset/2/26_4.odb,Step-1,Increment      1: Step Time =    1.000,"PART-1-1",            70,           -5.,          -15.,            0.,NA,NA,"",   708.047E-03,   558.533E-03,  -435.168E-03,   42.5283E-03
C:/temp/dataset/2/26_4.odb,Step-1,Increment      1: Step Time =    1.000,"PART-1-1",            71,           -5.,         -17.5,            0.,NA,NA,"",   458.157E-03,   321.170E-03,  -326.738E-03,   54.6836E-03
C:/temp/dataset/2/26_4.odb,Step-1,Increment      1: Step Time =    1.000,"PART-1-1",            72,           -5.,          -7.5,            0.,NA,NA,"",       1.66402,       1.48977,  -741.313E-03,   32.3250E-03
C:/temp/dataset/2/26_4.odb,Step-1,Increment      1: Step Time =    1.000,"PART-1-1",            73,           -5.,          -10.,            0.,NA,NA,"",       1.31211,       1.14257,  -645.115E-03,   34.1836E-03
C:/temp/dataset/2/26_4.odb,Step-1,Increment      1: Step Time =    1.000,"PART-1-1",            74,          -2.5,           -5.,            0.,NA,NA,"",       2.22168,       1.76151,      -1.35385,   16.5759E-03
C:/temp/dataset/2/26_4.odb,Step-1,Increment      1: Step Time =    1.000,"PART-1-1",            75,           2.5,           -5.,            0.,NA,NA,"",       2.85559,       1.60387,      -2.36262,   12.2570E-03
C:/temp/dataset/2/26_4.odb,Step-1,Increment      1: Step Time =    1.000,"PART-1-1",            76,           7.5,           -5.,            0.,NA,NA,"",       3.72583,       1.44082,      -3.43596,   7.15347E-03
C:/temp/dataset/2/26_4.odb,Step-1,Increment      1: Step Time =    1.000,"PART-1-1",            77,          12.5,           -5.,            0.,NA,NA,"",       4.73488,       1.29776,      -4.55356,   757.533E-06
C:/temp/dataset/2/26_4.odb,Step-1,Increment      1: Step Time =    1.000,"PART-1-1",            78,           15.,   833.333E-03,            0.,NA,NA,"",       5.84335,       2.53168,      -5.26643,   3.93370E-03
C:/temp/dataset/2/26_4.odb,Step-1,Increment      1: Step Time =    1.000,"PART-1-1",            79,           15.,      -2.08333,            0.,NA,NA,"",       5.51871,       1.88432,      -5.18705,   1.00873E-03
C:/temp/dataset/2/26_4.odb,Step-1,Increment      1: Step Time =    1.000,"PART-1-1",            80,           15.,       9.58333,            0.,NA,NA,"",       7.14592,       4.52531,      -5.53043,   1.46689E-03
C:/temp/dataset/2/26_4.odb,Step-1,Increment      1: Step Time =    1.000,"PART-1-1",            81,           15.,       6.66667,            0.,NA,NA,"",       6.66842,       3.85072,      -5.44424,   3.92805E-03
C:/temp/dataset/2/26_4.odb,Step-1,Increment      1: Step Time =    1.000,"PART-1-1",            82,           15.,       18.3333,            0.,NA,NA,"",       8.72719,       6.54936,      -5.76799,   141.083E-06
C:/temp/dataset/2/26_4.odb,Step-1,Increment      1: Step Time =    1.000,"PART-1-1",            83,           15.,       15.4167,            0.,NA,NA,"",       8.17957,       5.87633,      -5.68982,   253.628E-06
C:/temp/dataset/2/26_4.odb,Step-1,Increment      1: Step Time =    1.000,"PART-1-1",            84,           15.,       27.0833,            0.,NA,NA,"",       10.4607,       8.56655,      -6.00340,   533.312E-09
C:/temp/dataset/2/26_4.odb,Step-1,Increment      1: Step Time =    1.000,"PART-1-1",            85,           15.,       24.1667,            0.,NA,NA,"",       9.87026,       7.89418,      -5.92485,   5.57617E-06
C:/temp/dataset/2/26_4.odb,Step-1,Increment      1: Step Time =    1.000,"PART-1-1",            86,           10.,           30.,            0.,NA,NA,"",       10.5907,       9.37361,      -4.92931,   231.501E-09
C:/temp/dataset/2/26_4.odb,Step-1,Increment      1: Step Time =    1.000,"PART-1-1",            87,          12.5,           30.,            0.,NA,NA,"",       10.8129,       9.30627,      -5.50564,   426.685E-09
C:/temp/dataset/2/26_4.odb,Step-1,Increment      1: Step Time =    1.000,"PART-1-1",            88,           2.5,           30.,            0.,NA,NA,"",       10.0963,       9.57563,      -3.20030,   1.58813E-06
C:/temp/dataset/2/26_4.odb,Step-1,Increment      1: Step Time =    1.000,"PART-1-1",            89,            5.,           30.,            0.,NA,NA,"",       10.2309,       9.50829,      -3.77664,   1.50173E-06
C:/temp/dataset/2/26_4.odb,Step-1,Increment      1: Step Time =    1.000,"PART-1-1",            90,           -5.,           30.,            0.,NA,NA,"",       9.88773,       9.77766,      -1.47126,   70.6907E-09
C:/temp/dataset/2/26_4.odb,Step-1,Increment      1: Step Time =    1.000,"PART-1-1",            91,          -2.5,           30.,            0.,NA,NA,"",       9.92386,       9.71032,      -2.04761,   326.035E-09
C:/temp/dataset/2/26_4.odb,Step-1,Increment      1: Step Time =    1.000,"PART-1-1",            92,         -12.5,           30.,            0.,NA,NA,"",       9.98302,       9.97969,   257.791E-03,   3.20019E-09
C:/temp/dataset/2/26_4.odb,Step-1,Increment      1: Step Time =    1.000,"PART-1-1",            93,          -10.,           30.,            0.,NA,NA,"",       9.91747,       9.91235,  -318.558E-03,   8.48166E-09
C:/temp/dataset/2/26_4.odb,Step-1,Increment      1: Step Time =    1.000,"PART-1-1",            94,          -15.,          27.5,            0.,NA,NA,"",       9.51349,       9.47069,   901.482E-03,   2.65926E-09
C:/temp/dataset/2/26_4.odb,Step-1,Increment      1: Step Time =    1.000,"PART-1-1",            95,      -12.4978,       24.9766,            0.,NA,NA,"",       8.83026,       8.82153,   392.593E-03,   1.81597E-09
C:/temp/dataset/2/26_4.odb,Step-1,Increment      1: Step Time =    1.000,"PART-1-1",            96,      -7.49872,       27.4475,            0.,NA,NA,"",       9.29335,       9.25653,  -826.448E-03,   34.6620E-09
C:/temp/dataset/2/26_4.odb,Step-1,Increment      1: Step Time =    1.000,"PART-1-1",            97,      -7.50661,       22.4446,            0.,NA,NA,"",       8.13267,       8.10336,  -689.861E-03,   34.7110E-09
C:/temp/dataset/2/26_4.odb,Step-1,Increment      1: Step Time =    1.000,"PART-1-1",            98,      -2.53392,       22.4091,            0.,NA,NA,"",       8.17004,       7.96124,      -1.83531,   505.345E-09
C:/temp/dataset/2/26_4.odb,Step-1,Increment      1: Step Time =    1.000,"PART-1-1",            99,  -19.7467E-03,       27.3919,            0.,NA,NA,"",       9.39470,       9.04225,      -2.54915,   747.414E-09
C:/temp/dataset/2/26_4.odb,Step-1,Increment      1: Step Time =    1.000,"PART-1-1",           100,       2.31326,       22.2671,            0.,NA,NA,"",       8.33691,       7.79793,      -2.94895,   4.47255E-06
C:/temp/dataset/2/26_4.odb,Step-1,Increment      1: Step Time =    1.000,"PART-1-1",           101,       7.89882,       27.4278,            0.,NA,NA,"",       9.86116,       8.83722,      -4.37563,   3.11484E-06
C:/temp/dataset/2/26_4.odb,Step-1,Increment      1: Step Time =    1.000,"PART-1-1",           102,       6.74061,       20.0564,            0.,NA,NA,"",       8.16595,       7.16897,      -3.91006,   80.6703E-06
C:/temp/dataset/2/26_4.odb,Step-1,Increment      1: Step Time =    1.000,"PART-1-1",           103,       6.76082,       17.7755,            0.,NA,NA,"",       7.67933,       6.64259,      -3.85331,   116.997E-06
C:/temp/dataset/2/26_4.odb,Step-1,Increment      1: Step Time =    1.000,"PART-1-1",           104,       7.34933,       13.0959,            0.,NA,NA,"",       6.76255,       5.55022,      -3.86356,   1.62246E-03
C:/temp/dataset/2/26_4.odb,Step-1,Increment      1: Step Time =    1.000,"PART-1-1",           105,       12.5251,      -2.17932,            0.,NA,NA,"",       5.01419,       1.92524,      -4.62985,   3.05313E-03
C:/temp/dataset/2/26_4.odb,Step-1,Increment      1: Step Time =    1.000,"PART-1-1",           106,       11.8446,      -24.9441,            0.,NA,NA,"",   21.6111E-03,   21.5068E-03,  -2.12035E-03,   1.48746E-03
C:/temp/dataset/2/26_4.odb,Step-1,Increment      1: Step Time =    1.000,"PART-1-1",           107,       2.44158,      -2.66949,            0.,NA,NA,"",       3.17999,       2.09435,      -2.39291,   5.44264E-03
C:/temp/dataset/2/26_4.odb,Step-1,Increment      1: Step Time =    1.000,"PART-1-1",           108,       7.46163,      -2.37632,            0.,NA,NA,"",       4.02747,       2.01803,      -3.48541,   5.35140E-03
C:/temp/dataset/2/26_4.odb,Step-1,Increment      1: Step Time =    1.000,"PART-1-1",           109,       7.48217,       7.95809,            0.,NA,NA,"",       5.75191,       4.35060,      -3.76254,   7.78208E-03
C:/temp/dataset/2/26_4.odb,Step-1,Increment      1: Step Time =    1.000,"PART-1-1",           110,      -5.01446,       22.4347,            0.,NA,NA,"",       8.13279,       8.03394,      -1.26414,   147.425E-09
C:/temp/dataset/2/26_4.odb,Step-1,Increment      1: Step Time =    1.000,"PART-1-1",           111,  -75.1424E-03,       22.3615,            0.,NA,NA,"",       8.24149,       7.88403,      -2.40087,   1.24794E-06
C:/temp/dataset/2/26_4.odb,Step-1,Increment      1: Step Time =    1.000,"PART-1-1",           112,       4.50776,       22.1530,            0.,NA,NA,"",       8.44972,       7.71251,      -3.45180,   9.46571E-06
C:/temp/dataset/2/26_4.odb,Step-1,Increment      1: Step Time =    1.000,"PART-1-1",           113,       7.06405,       15.4904,            0.,NA,NA,"",       7.22634,       6.10802,      -3.86162,   351.211E-06
C:/temp/dataset/2/26_4.odb,Step-1,Increment      1: Step Time =    1.000,"PART-1-1",           114,       7.46285,       10.5556,            0.,NA,NA,"",       6.26405,       4.96064,      -3.82496,   4.62233E-03
C:/temp/dataset/2/26_4.odb,Step-1,Increment      1: Step Time =    1.000,"PART-1-1",           115,      -2.89738,      -2.05905,            0.,NA,NA,"",       2.69752,       2.34743,      -1.32898,   5.69997E-03
C:/temp/dataset/2/26_4.odb,Step-1,Increment      1: Step Time =    1.000,"PART-1-1",           116,      -7.61206,      -10.6629,            0.,NA,NA,"",       1.08357,       1.04722,  -278.307E-03,   18.6794E-03
C:/temp/dataset/2/26_4.odb,Step-1,Increment      1: Step Time =    1.000,"PART-1-1",           117,      -6.85891,      -17.7385,            0.,NA,NA,"",   328.430E-03,   282.808E-03,  -166.990E-03,   35.7570E-03
C:/temp/dataset/2/26_4.odb,Step-1,Increment      1: Step Time =    1.000,"PART-1-1",           118,       11.9280,      -27.4687,            0.,NA,NA,"",   11.6490E-03,   11.5143E-03,  -1.76681E-03,   2.98210E-03
C:/temp/dataset/2/26_4.odb,Step-1,Increment      1: Step Time =    1.000,"PART-1-1",           119,      -7.44747,      -13.1413,            0.,NA,NA,"",   776.209E-03,   739.418E-03,  -236.138E-03,   21.4169E-03
C:/temp/dataset/2/26_4.odb,Step-1,Increment      1: Step Time =    1.000,"PART-1-1",           120,      -7.13169,      -15.4658,            0.,NA,NA,"",   531.130E-03,   489.818E-03,  -205.371E-03,   27.4314E-03
C:/temp/dataset/2/26_4.odb,Step-1,Increment      1: Step Time =    1.000,"PART-1-1",           121,      -8.02089,      -5.87394,            0.,NA,NA,"",       1.78408,       1.75378,  -327.378E-03,   11.4868E-03
C:/temp/dataset/2/26_4.odb,Step-1,Increment      1: Step Time =    1.000,"PART-1-1",           122,      -7.74476,      -8.18529,            0.,NA,NA,"",       1.43043,       1.39477,  -317.400E-03,   14.6263E-03
C:/temp/dataset/2/26_4.odb,Step-1,Increment      1: Step Time =    1.000,"PART-1-1",           123,  -21.3834E-03,      -2.74811,            0.,NA,NA,"",       2.85570,       2.14432,      -1.88598,   7.04979E-03
C:/temp/dataset/2/26_4.odb,Step-1,Increment      1: Step Time =    1.000,"PART-1-1",           124,       4.94012,      -2.49525,            0.,NA,NA,"",       3.58170,       2.06268,      -2.92812,   5.53129E-03
C:/temp/dataset/2/26_4.odb,Step-1,Increment      1: Step Time =    1.000,"PART-1-1",           125,       10.0127,      -2.27482,            0.,NA,NA,"",       4.51332,       1.97043,      -4.06047,   4.67799E-03
C:/temp/dataset/2/26_4.odb,Step-1,Increment      1: Step Time =    1.000,"PART-1-1",           126,       10.2967,       27.4669,            0.,NA,NA,"",       10.0706,       8.78165,      -4.92948,   2.89808E-06
C:/temp/dataset/2/26_4.odb,Step-1,Increment      1: Step Time =    1.000,"PART-1-1",           127,       12.6750,       27.3103,            0.,NA,NA,"",       10.2629,       8.68149,      -5.47353,   1.98245E-06
C:/temp/dataset/2/26_4.odb,Step-1,Increment      1: Step Time =    1.000,"PART-1-1",           128,       2.52543,       27.2659,            0.,NA,NA,"",       9.47731,       8.94464,      -3.13252,   649.469E-09
C:/temp/dataset/2/26_4.odb,Step-1,Increment      1: Step Time =    1.000,"PART-1-1",           129,       5.32711,       26.8707,            0.,NA,NA,"",       9.55250,       8.77806,      -3.76776,   2.19138E-06
C:/temp/dataset/2/26_4.odb,Step-1,Increment      1: Step Time =    1.000,"PART-1-1",           130,      -5.00948,       27.4462,            0.,NA,NA,"",       9.29524,       9.18916,      -1.40028,   152.737E-09
C:/temp/dataset/2/26_4.odb,Step-1,Increment      1: Step Time =    1.000,"PART-1-1",           131,      -2.51658,       27.4324,            0.,NA,NA,"",       9.33017,       9.11882,      -1.97462,   441.656E-09
C:/temp/dataset/2/26_4.odb,Step-1,Increment      1: Step Time =    1.000,"PART-1-1",           132,      -9.99211,       27.4668,            0.,NA,NA,"",       9.33154,       9.32814,  -252.141E-03,   4.19127E-09
C:/temp/dataset/2/26_4.odb,Step-1,Increment      1: Step Time =    1.000,"PART-1-1",           133,       12.5029,       21.6680,            0.,NA,NA,"",       9.07984,       7.38547,      -5.28188,   42.0472E-06
C:/temp/dataset/2/26_4.odb,Step-1,Increment      1: Step Time =    1.000,"PART-1-1",           134,      -12.7198,      -9.27859,            0.,NA,NA,"",       1.33894,       1.28837,   364.516E-03,   19.5931E-03
C:/temp/dataset/2/26_4.odb,Step-1,Increment      1: Step Time =    1.000,"PART-1-1",           135,      -12.2206,      -21.4876,            0.,NA,NA,"",   168.681E-03,   96.8747E-03,   138.089E-03,   23.5031E-03
C:/temp/dataset/2/26_4.odb,Step-1,Increment      1: Step Time =    1.000,"PART-1-1",           136,       12.4390,       11.8581,            0.,NA,NA,"",       7.15963,       5.12236,      -5.00217,   1.17057E-03
C:/temp/dataset/2/26_4.odb,Step-1,Increment      1: Step Time =    1.000,"PART-1-1",           137,      -12.6285,      -12.0158,            0.,NA,NA,"",   969.983E-03,   912.134E-03,   329.969E-03,   21.4711E-03
C:/temp/dataset/2/26_4.odb,Step-1,Increment      1: Step Time =    1.000,"PART-1-1",           138,      -12.4213,      -14.8709,            0.,NA,NA,"",   637.951E-03,   576.700E-03,   272.762E-03,   22.4980E-03
C:/temp/dataset/2/26_4.odb,Step-1,Increment      1: Step Time =    1.000,"PART-1-1",           139,       12.2989,       14.8029,            0.,NA,NA,"",       7.69611,       5.80778,      -5.04973,   164.661E-06
C:/temp/dataset/2/26_4.odb,Step-1,Increment      1: Step Time =    1.000,"PART-1-1",           140,       11.7182,       18.2155,            0.,NA,NA,"",       8.29338,       6.61073,      -5.00785,   117.114E-06
C:/temp/dataset/2/26_4.odb,Step-1,Increment      1: Step Time =    1.000,"PART-1-1",           141,      -12.3380,      -4.01281,            0.,NA,NA,"",       2.15408,       2.13166,   310.000E-03,   14.9668E-03
C:/temp/dataset/2/26_4.odb,Step-1,Increment      1: Step Time =    1.000,"PART-1-1",           142,       12.5089,       6.21106,            0.,NA,NA,"",       6.17364,       3.80842,      -4.85898,   3.46857E-03
C:/temp/dataset/2/26_4.odb,Step-1,Increment      1: Step Time =    1.000,"PART-1-1",           143,      -10.9765,      -1.21375,            0.,NA,NA,"",       2.61312,       2.61233,   64.1086E-03,   14.9086E-03
C:/temp/dataset/2/26_4.odb,Step-1,Increment      1: Step Time =    1.000,"PART-1-1",           144,      -11.4273,       2.02370,            0.,NA,NA,"",       3.21062,       3.20940,   88.5558E-03,   9.53415E-03
C:/temp/dataset/2/26_4.odb,Step-1,Increment      1: Step Time =    1.000,"PART-1-1",           145,      -12.7154,      -6.64001,            0.,NA,NA,"",       1.73573,       1.69503,   373.656E-03,   17.4850E-03
C:/temp/dataset/2/26_4.odb,Step-1,Increment      1: Step Time =    1.000,"PART-1-1",           146,      -11.7762,      -18.1315,            0.,NA,NA,"",   325.541E-03,   276.025E-03,   172.589E-03,   20.1408E-03
C:/temp/dataset/2/26_4.odb,Step-1,Increment      1: Step Time =    1.000,"PART-1-1",           147,      -12.2481,      -24.4184,            0.,NA,NA,"",   86.5778E-03,   20.3395E-03,   84.1547E-03,   21.5549E-03
C:/temp/dataset/2/26_4.odb,Step-1,Increment      1: Step Time =    1.000,"PART-1-1",           148,       12.5340,       3.42208,            0.,NA,NA,"",       5.73876,       3.17053,      -4.78342,   3.15808E-03
C:/temp/dataset/2/26_4.odb,Step-1,Increment      1: Step Time =    1.000,"PART-1-1",           149,       12.5428,   630.306E-03,            0.,NA,NA,"",       5.35172,       2.54610,      -4.70726,   3.77587E-03
C:/temp/dataset/2/26_4.odb,Step-1,Increment      1: Step Time =    1.000,"PART-1-1",           150,       12.5001,       9.03097,            0.,NA,NA,"",       6.65615,       4.46331,      -4.93793,   2.76038E-03
C:/temp/dataset/2/26_4.odb,Step-1,Increment      1: Step Time =    1.000,"PART-1-1",           151,       12.7192,       24.5718,            0.,NA,NA,"",       9.69816,       8.04902,      -5.40995,   10.2999E-06
C:/temp/dataset/2/26_4.odb,Step-1,Increment      1: Step Time =    1.000,"PART-1-1",           152,       2.66783,      -27.4286,            0.,NA,NA,"",   21.9733E-03,   21.4771E-03,  -4.64287E-03,   6.19962E-03
C:/temp/dataset/2/26_4.odb,Step-1,Increment      1: Step Time =    1.000,"PART-1-1",           153,       8.86089,      -27.4494,            0.,NA,NA,"",   13.4404E-03,   13.4297E-03,  -535.452E-06,   3.37956E-03
C:/temp/dataset/2/26_4.odb,Step-1,Increment      1: Step Time =    1.000,"PART-1-1",           154,       5.76511,      -27.4328,            0.,NA,NA,"",   17.3219E-03,   17.2712E-03,  -1.32379E-03,   4.47479E-03
C:/temp/dataset/2/26_4.odb,Step-1,Increment      1: Step Time =    1.000,"PART-1-1",           155,  -414.647E-03,      -27.4330,            0.,NA,NA,"",   25.6171E-03,   22.6075E-03,  -12.0472E-03,   9.22618E-03
C:/temp/dataset/2/26_4.odb,Step-1,Increment      1: Step Time =    1.000,"PART-1-1",           156,      -3.42691,      -27.4460,            0.,NA,NA,"",   25.0270E-03,   14.4260E-03,  -20.4509E-03,   12.6216E-03
C:/temp/dataset/2/26_4.odb,Step-1,Increment      1: Step Time =    1.000,"PART-1-1",           157,      -6.36574,      -27.4272,            0.,NA,NA,"",   17.8415E-03,  -2.45085E-03,  -17.6723E-03,   11.3465E-03
C:/temp/dataset/2/26_4.odb,Step-1,Increment      1: Step Time =    1.000,"PART-1-1",           158,       10.5238,       25.0033,            0.,NA,NA,"",       9.56695,       8.20761,      -4.91546,   10.8452E-06
C:/temp/dataset/2/26_4.odb,Step-1,Increment      1: Step Time =    1.000,"PART-1-1",           159,       6.26912,       22.1485,            0.,NA,NA,"",       8.58017,       7.66402,      -3.85773,   25.8111E-06
C:/temp/dataset/2/26_4.odb,Step-1,Increment      1: Step Time =    1.000,"PART-1-1",           160,      -5.96402,      -2.70245,            0.,NA,NA,"",       2.39535,       2.27951,  -735.903E-03,   13.7268E-03
C:/temp/dataset/2/26_4.odb,Step-1,Increment      1: Step Time =    1.000,"PART-1-1",           161,      -12.5033,       22.4816,            0.,NA,NA,"",       8.25938,       8.24650,   461.065E-03,   4.27974E-09
C:/temp/dataset/2/26_4.odb,Step-1,Increment      1: Step Time =    1.000,"PART-1-1",           162,      -2.53325,       24.9024,            0.,NA,NA,"",       8.74550,       8.53603,      -1.90263,   507.326E-09
C:/temp/dataset/2/26_4.odb,Step-1,Increment      1: Step Time =    1.000,"PART-1-1",           163,       4.43197,       24.4161,            0.,NA,NA,"",       8.94726,       8.23629,      -3.49528,   4.18880E-06
C:/temp/dataset/2/26_4.odb,Step-1,Increment      1: Step Time =    1.000,"PART-1-1",           164,      -10.2797,      -8.84555,            0.,NA,NA,"",       1.31729,       1.31671,   39.0898E-03,   8.73601E-03
C:/temp/dataset/2/26_4.odb,Step-1,Increment      1: Step Time =    1.000,"PART-1-1",           165,       2.21534,  -332.134E-03,            0.,NA,NA,"",       3.52261,       2.58576,      -2.39220,   1.84134E-03
C:/temp/dataset/2/26_4.odb,Step-1,Increment      1: Step Time =    1.000,"PART-1-1",           166,  -74.2209E-03,       24.8536,            0.,NA,NA,"",       8.81128,       8.45852,      -2.46821,   921.551E-09
C:/temp/dataset/2/26_4.odb,Step-1,Increment      1: Step Time =    1.000,"PART-1-1",           167,       2.30693,       24.7164,            0.,NA,NA,"",       8.88913,       8.36275,      -3.01347,   1.49986E-06
C:/temp/dataset/2/26_4.odb,Step-1,Increment      1: Step Time =    1.000,"PART-1-1",           168,       9.79368,       13.9045,            0.,NA,NA,"",       7.20540,       5.66866,      -4.44794,   610.982E-06
C:/temp/dataset/2/26_4.odb,Step-1,Increment      1: Step Time =    1.000,"PART-1-1",           169,       9.30777,       16.4521,            0.,NA,NA,"",       7.66165,       6.26914,      -4.40440,   156.657E-06
C:/temp/dataset/2/26_4.odb,Step-1,Increment      1: Step Time =    1.000,"PART-1-1",           170,      -2.35985,       1.11806,            0.,NA,NA,"",       3.31333,       2.95385,      -1.50098,   6.96134E-03
C:/temp/dataset/2/26_4.odb,Step-1,Increment      1: Step Time =    1.000,"PART-1-1",           171,      -9.94133,      -13.9778,            0.,NA,NA,"",   648.488E-03,   647.409E-03,   37.4004E-03,   8.35050E-03
C:/temp/dataset/2/26_4.odb,Step-1,Increment      1: Step Time =    1.000,"PART-1-1",           172,       4.80988,   33.7751E-03,            0.,NA,NA,"",       3.93813,       2.60458,      -2.95381,   3.90959E-03
C:/temp/dataset/2/26_4.odb,Step-1,Increment      1: Step Time =    1.000,"PART-1-1",           173,       9.94126,       11.1894,            0.,NA,NA,"",       6.69396,       5.03584,      -4.41015,   2.23941E-03
C:/temp/dataset/2/26_4.odb,Step-1,Increment      1: Step Time =    1.000,"PART-1-1",           174,       7.43598,   226.782E-03,            0.,NA,NA,"",       4.38188,       2.58280,      -3.53978,   5.69409E-03
C:/temp/dataset/2/26_4.odb,Step-1,Increment      1: Step Time =    1.000,"PART-1-1",           175,      -7.50368,       24.9336,            0.,NA,NA,"",       8.71011,       8.67710,  -757.584E-03,   45.9598E-09
C:/temp/dataset/2/26_4.odb,Step-1,Increment      1: Step Time =    1.000,"PART-1-1",           176,      -10.1536,      -11.3797,            0.,NA,NA,"",   964.813E-03,   963.848E-03,   43.1526E-03,   8.43303E-03
C:/temp/dataset/2/26_4.odb,Step-1,Increment      1: Step Time =    1.000,"PART-1-1",           177,       6.92724,       24.6415,            0.,NA,NA,"",       9.17628,       8.22104,      -4.07659,   8.84743E-06
C:/temp/dataset/2/26_4.odb,Step-1,Increment      1: Step Time =    1.000,"PART-1-1",           178,      -9.99868,       24.9580,            0.,NA,NA,"",       8.75186,       8.74994,  -183.047E-03,   7.06203E-09
C:/temp/dataset/2/26_4.odb,Step-1,Increment      1: Step Time =    1.000,"PART-1-1",           179,       8.37028,       18.0705,            0.,NA,NA,"",       7.89707,       6.66735,      -4.23204,   121.151E-06
C:/temp/dataset/2/26_4.odb,Step-1,Increment      1: Step Time =    1.000,"PART-1-1",           180,      -10.4068,      -6.54987,            0.,NA,NA,"",       1.67274,       1.67234,   36.5056E-03,   11.2330E-03
C:/temp/dataset/2/26_4.odb,Step-1,Increment      1: Step Time =    1.000,"PART-1-1",           181,      -8.52723,      -17.8680,            0.,NA,NA,"",   270.497E-03,   266.431E-03,  -46.7219E-03,   14.6076E-03
C:/temp/dataset/2/26_4.odb,Step-1,Increment      1: Step Time =    1.000,"PART-1-1",           182,       9.99063,       8.47585,            0.,NA,NA,"",       6.18711,       4.40058,      -4.34917,   4.61046E-03
C:/temp/dataset/2/26_4.odb,Step-1,Increment      1: Step Time =    1.000,"PART-1-1",           183,      -6.87511,      -22.3968,            0.,NA,NA,"",   88.3982E-03,   46.1190E-03,  -75.4141E-03,   22.5159E-03
C:/temp/dataset/2/26_4.odb,Step-1,Increment      1: Step Time =    1.000,"PART-1-1",           184,       7.48189,       5.34092,            0.,NA,NA,"",       5.24544,       3.72703,      -3.69105,   8.85643E-03
C:/temp/dataset/2/26_4.odb,Step-1,Increment      1: Step Time =    1.000,"PART-1-1",           185,       10.0207,   425.902E-03,            0.,NA,NA,"",       4.86036,       2.56305,      -4.12963,   4.95143E-03
C:/temp/dataset/2/26_4.odb,Step-1,Increment      1: Step Time =    1.000,"PART-1-1",           186,      -8.86720,      -3.63325,            0.,NA,NA,"",       2.15916,       2.14632,  -235.098E-03,   14.6013E-03
C:/temp/dataset/2/26_4.odb,Step-1,Increment      1: Step Time =    1.000,"PART-1-1",           187,       10.0155,       5.77118,            0.,NA,NA,"",       5.70141,       3.76785,      -4.27894,   4.58770E-03
C:/temp/dataset/2/26_4.odb,Step-1,Increment      1: Step Time =    1.000,"PART-1-1",           188,       9.07540,       20.2179,            0.,NA,NA,"",       8.41744,       7.14340,      -4.45254,   78.9172E-06
C:/temp/dataset/2/26_4.odb,Step-1,Increment      1: Step Time =    1.000,"PART-1-1",           189,       5.51479,      -24.9218,            0.,NA,NA,"",   28.8651E-03,   28.8514E-03,  -889.416E-06,   3.50290E-03
C:/temp/dataset/2/26_4.odb,Step-1,Increment      1: Step Time =    1.000,"PART-1-1",           190,       2.33502,      -24.9114,            0.,NA,NA,"",   37.1342E-03,   36.2077E-03,  -8.24327E-03,   5.42926E-03
C:/temp/dataset/2/26_4.odb,Step-1,Increment      1: Step Time =    1.000,"PART-1-1",           191,      -3.83494,      -24.9465,            0.,NA,NA,"",   60.1691E-03,   34.5996E-03,  -49.2259E-03,   17.5908E-03
C:/temp/dataset/2/26_4.odb,Step-1,Increment      1: Step Time =    1.000,"PART-1-1",           192,       8.68706,      -24.9229,            0.,NA,NA,"",   23.9439E-03,   23.9429E-03,   213.146E-06,   2.32118E-03
C:/temp/dataset/2/26_4.odb,Step-1,Increment      1: Step Time =    1.000,"PART-1-1",           193,  -793.545E-03,      -24.9263,            0.,NA,NA,"",   49.4704E-03,   41.8234E-03,  -26.4221E-03,   11.9262E-03
C:/temp/dataset/2/26_4.odb,Step-1,Increment      1: Step Time =    1.000,"PART-1-1",           194,      -10.0041,       22.4687,            0.,NA,NA,"",       8.17701,       8.17621,  -114.747E-03,   4.84137E-09
C:/temp/dataset/2/26_4.odb,Step-1,Increment      1: Step Time =    1.000,"PART-1-1",           195,       7.76291,       22.5689,            0.,NA,NA,"",       8.79558,       7.72072,      -4.21339,   29.9361E-06
C:/temp/dataset/2/26_4.odb,Step-1,Increment      1: Step Time =    1.000,"PART-1-1",           196,       10.0314,       3.09975,            0.,NA,NA,"",       5.25778,       3.15652,      -4.20484,   4.43789E-03
C:/temp/dataset/2/26_4.odb,Step-1,Increment      1: Step Time =    1.000,"PART-1-1",           197,       7.45157,       2.78517,            0.,NA,NA,"",       4.78557,       3.14231,      -3.60937,   7.59060E-03
C:/temp/dataset/2/26_4.odb,Step-1,Increment      1: Step Time =    1.000,"PART-1-1",           198,       1.23926,       2.17480,            0.,NA,NA,"",       3.84330,       3.11699,      -2.24841,   10.2852E-03
C:/temp/dataset/2/26_4.odb,Step-1,Increment      1: Step Time =    1.000,"PART-1-1",           199,       5.89388,       23.8379,            0.,NA,NA,"",       8.92127,       8.06360,      -3.81673,   7.42287E-06
C:/temp/dataset/2/26_4.odb,Step-1,Increment      1: Step Time =    1.000,"PART-1-1",           200,       4.70825,       2.52712,            0.,NA,NA,"",       4.33524,       3.14029,      -2.98878,   6.48901E-03
C:/temp/dataset/2/26_4.odb,Step-1,Increment      1: Step Time =    1.000,"PART-1-1",           201,      -6.67563,      -24.8783,            0.,NA,NA,"",   45.6387E-03,   12.1713E-03,  -43.9858E-03,   15.8263E-03
C:/temp/dataset/2/26_4.odb,Step-1,Increment      1: Step Time =    1.000,"PART-1-1",           202,      -1.93740,       2.90022,            0.,NA,NA,"",       3.67436,       3.29458,      -1.62686,   13.1843E-03
C:/temp/dataset/2/26_4.odb,Step-1,Increment      1: Step Time =    1.000,"PART-1-1",           203,      -4.27328,      -22.5070,            0.,NA,NA,"",   102.759E-03,   61.2316E-03,  -82.5229E-03,   28.9219E-03
C:/temp/dataset/2/26_4.odb,Step-1,Increment      1: Step Time =    1.000,"PART-1-1",           204,      -7.29195,  -216.826E-03,            0.,NA,NA,"",       2.81133,       2.75401,  -564.786E-03,   13.0089E-03
C:/temp/dataset/2/26_4.odb,Step-1,Increment      1: Step Time =    1.000,"PART-1-1",           205,      -4.39370,   432.763E-03,            0.,NA,NA,"",       3.05052,       2.84626,      -1.09750,   9.49072E-03
C:/temp/dataset/2/26_4.odb,Step-1,Increment      1: Step Time =    1.000,"PART-1-1",           206,      -1.20581,      -22.4416,            0.,NA,NA,"",   60.8140E-03,   52.5118E-03,  -30.6733E-03,   15.4706E-03
C:/temp/dataset/2/26_4.odb,Step-1,Increment      1: Step Time =    1.000,"PART-1-1",           207,      -4.88725,       2.78210,            0.,NA,NA,"",       3.45960,       3.29259,      -1.06191,   12.1113E-03
C:/temp/dataset/2/26_4.odb,Step-1,Increment      1: Step Time =    1.000,"PART-1-1",           208,      -8.02678,       2.39768,            0.,NA,NA,"",       3.28102,       3.24358,  -494.280E-03,   11.8426E-03
C:/temp/dataset/2/26_4.odb,Step-1,Increment      1: Step Time =    1.000,"PART-1-1",           209,       8.51144,      -22.4401,            0.,NA,NA,"",   30.3148E-03,   30.2836E-03,   1.37386E-03,   1.24993E-03
C:/temp/dataset/2/26_4.odb,Step-1,Increment      1: Step Time =    1.000,"PART-1-1",           210,       5.25488,      -22.4306,            0.,NA,NA,"",   34.2272E-03,   34.2172E-03,   826.915E-06,   2.23794E-03
C:/temp/dataset/2/26_4.odb,Step-1,Increment      1: Step Time =    1.000,"PART-1-1",           211,       2.00226,      -22.4217,            0.,NA,NA,"",   42.8922E-03,   42.2332E-03,  -7.49012E-03,   5.26590E-03
C:/temp/dataset/2/26_4.odb,Step-1,Increment      1: Step Time =    1.000,"PART-1-1",           212,      -9.28570,      -27.3600,            0.,NA,NA,"",   14.2977E-03,  -13.9372E-03,   3.19056E-03,   5.91448E-03
C:/temp/dataset/2/26_4.odb,Step-1,Increment      1: Step Time =    1.000,"PART-1-1",           213,       11.7596,      -22.4488,            0.,NA,NA,"",   28.6083E-03,   28.5242E-03,  -2.19120E-03,   419.710E-06
C:/temp/dataset/2/26_4.odb,Step-1,Increment      1: Step Time =    1.000,"PART-1-1",           214,      -12.4952,       27.4851,            0.,NA,NA,"",       9.40538,       9.39979,   324.429E-03,   4.47078E-09
C:/temp/dataset/2/26_4.odb,Step-1,Increment      1: Step Time =    1.000,"PART-1-1",           215,      -12.1608,      -27.2494,            0.,NA,NA,"",   37.0561E-03,  -4.93559E-03,   36.7259E-03,   18.5095E-03
C:/temp/dataset/2/26_4.odb,Step-1,Increment      1: Step Time =    1.000,"PART-1-1",           216,      -6.92277,      -20.0189,            0.,NA,NA,"",   160.396E-03,   116.953E-03,  -109.767E-03,   19.3714E-03
C:/temp/dataset/2/26_4.odb,Step-1,Increment      1: Step Time =    1.000,"PART-1-1",           217,       10.3403,       22.5364,            0.,NA,NA,"",       9.02954,       7.64386,      -4.80667,   35.3432E-06
C:/temp/dataset/2/26_4.odb,Step-1,Increment      1: Step Time =    1.000,"PART-1-1",           218,      -9.38591,      -16.3373,            0.,NA,NA,"",   402.379E-03,   402.367E-03,   3.09734E-03,   9.03313E-03
C:/temp/dataset/2/26_4.odb,Step-1,Increment      1: Step Time =    1.000,"PART-1-1",           219,      -9.56004,      -22.0160,            0.,NA,NA,"",   56.4951E-03,   54.4567E-03,   15.0389E-03,   11.1488E-03
C:/temp/dataset/2/26_4.odb,Step-1,Increment      1: Step Time =    1.000,"PART-1-1",           220,      -9.49058,      -24.6874,            0.,NA,NA,"",   8.51859E-03,   2.73829E-03,   8.06648E-03,   8.92796E-03
C:/temp/dataset/2/26_4.odb,Step-1,Increment      1: Step Time =    1.000,"PART-1-1",           221,  -968.003E-03,   33.9082E-03,            0.,NA,NA,"",       3.23570,       2.72112,      -1.75079,   3.36863E-03
C:/temp/dataset/2/26_4.odb,Step-1,Increment      1: Step Time =    1.000,"PART-1-1",           222,   333.674E-03,      -1.00763,            0.,NA,NA,"",       3.18638,       2.48799,      -1.99071,   934.446E-06
C:/temp/dataset/2/26_4.odb,Step-1,Increment      1: Step Time =    1.000,"PART-1-1",           223,      -10.5623,      -4.72446,            0.,NA,NA,"",       1.97969,       1.97924,   42.0773E-03,   13.4319E-03
C:/temp/dataset/2/26_4.odb,Step-1,Increment      1: Step Time =    1.000,"PART-1-1",           224,      -5.01319,       24.9269,            0.,NA,NA,"",       8.71085,       8.60847,      -1.33156,   166.674E-09
C:/temp/dataset/2/26_4.odb,Step-1,Increment      1: Step Time =    1.000,"PART-1-1",           225,      -9.24174,      -19.5473,            0.,NA,NA,"",   156.679E-03,   156.635E-03,   3.71029E-03,   7.82298E-03
C:/temp/dataset/2/26_4.odb,Step-1,Increment      1: Step Time =    1.000,"PART-1-1",           226,       8.53639,       25.1316,            0.,NA,NA,"",       9.41457,       8.29071,      -4.46076,   10.2857E-06
C:/temp/dataset/2/26_4.odb,Step-1,Increment      1: Step Time =    1.000,"PART-1-1",           227,       8.85572,       23.3093,            0.,NA,NA,"",       9.05143,       7.86198,      -4.48527,   23.3914E-06
C:/temp/dataset/2/26_4.odb,Step-1,Increment      1: Step Time =    1.000,"PART-1-1",           228,      -13.7516,       22.4908,            0.,NA,NA,"",       8.31601,       8.28224,   748.616E-03,   2.80453E-09
C:/temp/dataset/2/26_4.odb,Step-1,Increment      1: Step Time =    1.000,"PART-1-1",           229,          -15.,         21.25,            0.,NA,NA,"",       8.10077,       8.02981,       1.06984,   1.19211E-09
C:/temp/dataset/2/26_4.odb,Step-1,Increment      1: Step Time =    1.000,"PART-1-1",           230,        -13.75,           20.,            0.,NA,NA,"",       7.75097,       7.70797,   815.336E-03,   1.40783E-09
C:/temp/dataset/2/26_4.odb,Step-1,Increment      1: Step Time =    1.000,"PART-1-1",           231,      -12.5016,       21.2408,            0.,NA,NA,"",       7.97572,       7.96040,   494.113E-03,   3.10615E-09
C:/temp/dataset/2/26_4.odb,Step-1,Increment      1: Step Time =    1.000,"PART-1-1",           232,      -9.99605,       28.7334,            0.,NA,NA,"",       9.62447,       9.62024,  -285.350E-03,   3.49642E-09
C:/temp/dataset/2/26_4.odb,Step-1,Increment      1: Step Time =    1.000,"PART-1-1",           233,        -11.25,           30.,            0.,NA,NA,"",       9.94607,       9.94602,  -30.3836E-03,   5.30269E-09
C:/temp/dataset/2/26_4.odb,Step-1,Increment      1: Step Time =    1.000,"PART-1-1",           234,      -12.4976,       28.7426,            0.,NA,NA,"",       9.69411,       9.68974,   291.110E-03,   3.13965E-09
C:/temp/dataset/2/26_4.odb,Step-1,Increment      1: Step Time =    1.000,"PART-1-1",           235,      -11.2437,       27.4760,            0.,NA,NA,"",       9.36403,       9.36396,   36.1439E-03,   2.21900E-09
C:/temp/dataset/2/26_4.odb,Step-1,Increment      1: Step Time =    1.000,"PART-1-1",           236,      -8.74541,       27.4572,            0.,NA,NA,"",       9.30797,       9.29233,  -539.294E-03,   18.3369E-09
C:/temp/dataset/2/26_4.odb,Step-1,Increment      1: Step Time =    1.000,"PART-1-1",           237,      -7.49936,       28.7238,            0.,NA,NA,"",       9.58947,       9.55077,  -860.677E-03,   16.5047E-09
C:/temp/dataset/2/26_4.odb,Step-1,Increment      1: Step Time =    1.000,"PART-1-1",           238,         -8.75,           30.,            0.,NA,NA,"",       9.89729,       9.87868,  -606.732E-03,   4.24835E-09
C:/temp/dataset/2/26_4.odb,Step-1,Increment      1: Step Time =    1.000,"PART-1-1",           239,      -10.0020,       21.2344,            0.,NA,NA,"",       7.89201,       7.89158,  -81.9675E-03,   3.03777E-09
C:/temp/dataset/2/26_4.odb,Step-1,Increment      1: Step Time =    1.000,"PART-1-1",           240,      -11.2537,       22.4752,            0.,NA,NA,"",       8.21318,       8.21135,   173.159E-03,   2.57949E-09
C:/temp/dataset/2/26_4.odb,Step-1,Increment      1: Step Time =    1.000,"PART-1-1",           241,        -11.25,           20.,            0.,NA,NA,"",       7.64436,       7.64063,   238.987E-03,   4.86456E-09
C:/temp/dataset/2/26_4.odb,Step-1,Increment      1: Step Time =    1.000,"PART-1-1",           242,      -6.25410,       27.4469,            0.,NA,NA,"",       9.28980,       9.22284,      -1.11336,   89.7717E-09
C:/temp/dataset/2/26_4.odb,Step-1,Increment      1: Step Time =    1.000,"PART-1-1",           243,      -7.50120,       26.1906,            0.,NA,NA,"",       9.00173,       8.96682,  -792.016E-03,   36.2871E-09
C:/temp/dataset/2/26_4.odb,Step-1,Increment      1: Step Time =    1.000,"PART-1-1",           244,      -6.25844,       24.9303,            0.,NA,NA,"",       8.70568,       8.64279,      -1.04457,   105.975E-09
C:/temp/dataset/2/26_4.odb,Step-1,Increment      1: Step Time =    1.000,"PART-1-1",           245,      -5.01133,       26.1865,            0.,NA,NA,"",       9.00304,       8.89882,      -1.36592,   139.623E-09
C:/temp/dataset/2/26_4.odb,Step-1,Increment      1: Step Time =    1.000,"PART-1-1",           246,       1.11906,       22.3143,            0.,NA,NA,"",       8.28469,       7.84098,      -2.67491,   1.80555E-06
C:/temp/dataset/2/26_4.odb,Step-1,Increment      1: Step Time =    1.000,"PART-1-1",           247,  -37.5712E-03,       21.1808,            0.,NA,NA,"",       7.97358,       7.61081,      -2.37773,   977.975E-09
C:/temp/dataset/2/26_4.odb,Step-1,Increment      1: Step Time =    1.000,"PART-1-1",           248,          1.25,           20.,            0.,NA,NA,"",       7.76732,       7.30391,      -2.64276,   2.07979E-06
C:/temp/dataset/2/26_4.odb,Step-1,Increment      1: Step Time =    1.000,"PART-1-1",           249,       2.40663,       21.1336,            0.,NA,NA,"",       8.08738,       7.53408,      -2.93994,   4.39271E-06
C:/temp/dataset/2/26_4.odb,Step-1,Increment      1: Step Time =    1.000,"PART-1-1",           250,  -46.9838E-03,       26.1228,            0.,NA,NA,"",       9.10290,       8.75039,      -2.50868,   670.706E-09
C:/temp/dataset/2/26_4.odb,Step-1,Increment      1: Step Time =    1.000,"PART-1-1",           251,       1.11635,       24.7850,            0.,NA,NA,"",       8.84596,       8.41064,      -2.74084,   1.06348E-06
C:/temp/dataset/2/26_4.odb,Step-1,Increment      1: Step Time =    1.000,"PART-1-1",           252,       2.41618,       25.9912,            0.,NA,NA,"",       9.18313,       8.65370,      -3.07299,   779.569E-09
C:/temp/dataset/2/26_4.odb,Step-1,Increment      1: Step Time =    1.000,"PART-1-1",           253,       1.25284,       27.3289,            0.,NA,NA,"",       9.43146,       8.99345,      -2.84083,   636.423E-09
C:/temp/dataset/2/26_4.odb,Step-1,Increment      1: Step Time =    1.000,"PART-1-1",           254,       11.4216,       22.1022,            0.,NA,NA,"",       9.05068,       7.51467,      -5.04427,   34.6040E-06
C:/temp/dataset/2/26_4.odb,Step-1,Increment      1: Step Time =    1.000,"PART-1-1",           255,       9.70783,       21.3771,            0.,NA,NA,"",       8.72348,       7.39364,      -4.62961,   54.9160E-06
C:/temp/dataset/2/26_4.odb,Step-1,Increment      1: Step Time =    1.000,"PART-1-1",           256,       10.3968,       19.2167,            0.,NA,NA,"",       8.34677,       6.87708,      -4.73014,   78.1317E-06
C:/temp/dataset/2/26_4.odb,Step-1,Increment      1: Step Time =    1.000,"PART-1-1",           257,       12.1105,       19.9418,            0.,NA,NA,"",       8.68582,       6.99811,      -5.14490,   70.4588E-06
C:/temp/dataset/2/26_4.odb,Step-1,Increment      1: Step Time =    1.000,"PART-1-1",           258,       11.6215,       24.7876,            0.,NA,NA,"",       9.62928,       8.12832,      -5.16270,   9.70633E-06
C:/temp/dataset/2/26_4.odb,Step-1,Increment      1: Step Time =    1.000,"PART-1-1",           259,       12.6971,       25.9410,            0.,NA,NA,"",       9.97948,       8.36525,      -5.44174,   6.12134E-06
C:/temp/dataset/2/26_4.odb,Step-1,Increment      1: Step Time =    1.000,"PART-1-1",           260,       11.4859,       27.3886,            0.,NA,NA,"",       10.1635,       8.73157,      -5.20151,   2.24281E-06
C:/temp/dataset/2/26_4.odb,Step-1,Increment      1: Step Time =    1.000,"PART-1-1",           261,       10.4103,       26.2351,            0.,NA,NA,"",       9.81782,       8.49463,      -4.92247,   6.98109E-06
C:/temp/dataset/2/26_4.odb,Step-1,Increment      1: Step Time =    1.000,"PART-1-1",           262,       5.88041,       17.6377,            0.,NA,NA,"",       7.57076,       6.63454,      -3.64682,   152.504E-06
C:/temp/dataset/2/26_4.odb,Step-1,Increment      1: Step Time =    1.000,"PART-1-1",           263,       6.75071,       18.9160,            0.,NA,NA,"",       7.92194,       6.90577,      -3.88168,   93.9567E-06
C:/temp/dataset/2/26_4.odb,Step-1,Increment      1: Step Time =    1.000,"PART-1-1",           264,       5.87030,       20.0282,            0.,NA,NA,"",       8.08652,       7.18590,      -3.70873,   53.8156E-06
C:/temp/dataset/2/26_4.odb,Step-1,Increment      1: Step Time =    1.000,"PART-1-1",           265,            5.,         18.75,            0.,NA,NA,"",       7.73820,       6.91466,      -3.47380,   156.678E-06
C:/temp/dataset/2/26_4.odb,Step-1,Increment      1: Step Time =    1.000,"PART-1-1",           266,       12.3690,       13.3305,            0.,NA,NA,"",       7.42513,       5.46542,      -5.02610,   610.806E-06
C:/temp/dataset/2/26_4.odb,Step-1,Increment      1: Step Time =    1.000,"PART-1-1",           267,       13.7195,       12.1790,            0.,NA,NA,"",       7.40303,       5.16209,      -5.30638,   568.163E-06
C:/temp/dataset/2/26_4.odb,Step-1,Increment      1: Step Time =    1.000,"PART-1-1",           268,           15.,       13.9583,            0.,NA,NA,"",       7.91295,       5.53931,      -5.65074,   135.960E-06
C:/temp/dataset/2/26_4.odb,Step-1,Increment      1: Step Time =    1.000,"PART-1-1",           269,       13.6495,       15.1098,            0.,NA,NA,"",       7.93499,       5.84206,      -5.36977,   135.182E-06
C:/temp/dataset/2/26_4.odb,Step-1,Increment      1: Step Time =    1.000,"PART-1-1",           270,       12.5214,       4.81657,            0.,NA,NA,"",       5.95036,       3.48778,      -4.82101,   3.02486E-03
C:/temp/dataset/2/26_4.odb,Step-1,Increment      1: Step Time =    1.000,"PART-1-1",           271,       13.7670,       3.58604,            0.,NA,NA,"",       5.98226,       3.17770,      -5.06850,   4.18461E-03
C:/temp/dataset/2/26_4.odb,Step-1,Increment      1: Step Time =    1.000,"PART-1-1",           272,           15.,       5.20833,            0.,NA,NA,"",       6.44334,       3.51642,      -5.39921,   4.69868E-03
C:/temp/dataset/2/26_4.odb,Step-1,Increment      1: Step Time =    1.000,"PART-1-1",           273,       13.7545,       6.43886,            0.,NA,NA,"",       6.41825,       3.82974,      -5.15044,   3.44420E-03
C:/temp/dataset/2/26_4.odb,Step-1,Increment      1: Step Time =    1.000,"PART-1-1",           274,       13.7625,      -2.13133,            0.,NA,NA,"",       5.26583,       1.90438,      -4.90940,   1.79287E-03
C:/temp/dataset/2/26_4.odb,Step-1,Increment      1: Step Time =    1.000,"PART-1-1",           275,       12.5125,      -3.58966,            0.,NA,NA,"",       4.86663,       1.61265,      -4.59166,   1.65481E-03
C:/temp/dataset/2/26_4.odb,Step-1,Increment      1: Step Time =    1.000,"PART-1-1",           276,         13.75,           -5.,            0.,NA,NA,"",       4.99661,       1.26569,      -4.83365,   313.513E-06
C:/temp/dataset/2/26_4.odb,Step-1,Increment      1: Step Time =    1.000,"PART-1-1",           277,           15.,      -3.54167,            0.,NA,NA,"",       5.38094,       1.55973,      -5.14993,   353.308E-06
C:/temp/dataset/2/26_4.odb,Step-1,Increment      1: Step Time =    1.000,"PART-1-1",           278,      -9.21387,      -6.21191,            0.,NA,NA,"",       1.71822,       1.71235,  -141.895E-03,   9.29988E-03
C:/temp/dataset/2/26_4.odb,Step-1,Increment      1: Step Time =    1.000,"PART-1-1",           279,      -8.44405,      -4.75360,            0.,NA,NA,"",       1.96474,       1.94425,  -282.959E-03,   12.1504E-03
C:/temp/dataset/2/26_4.odb,Step-1,Increment      1: Step Time =    1.000,"PART-1-1",           280,      -9.71477,      -4.17886,            0.,NA,NA,"",       2.06391,       2.06175,  -94.4613E-03,   13.5016E-03
C:/temp/dataset/2/26_4.odb,Step-1,Increment      1: Step Time =    1.000,"PART-1-1",           281,      -10.4846,      -5.63717,            0.,NA,NA,"",       1.82416,       1.82374,   39.3062E-03,   12.3696E-03
C:/temp/dataset/2/26_4.odb,Step-1,Increment      1: Step Time =    1.000,"PART-1-1",           282,      -5.84282,   107.969E-03,            0.,NA,NA,"",       2.91916,       2.79987,  -825.994E-03,   10.6899E-03
C:/temp/dataset/2/26_4.odb,Step-1,Increment      1: Step Time =    1.000,"PART-1-1",           283,      -4.64047,       1.60743,            0.,NA,NA,"",       3.25488,       3.07059,      -1.07969,   10.5244E-03
C:/temp/dataset/2/26_4.odb,Step-1,Increment      1: Step Time =    1.000,"PART-1-1",           284,      -6.45702,       2.58989,            0.,NA,NA,"",       3.35772,       3.26746,  -773.282E-03,   11.4848E-03
C:/temp/dataset/2/26_4.odb,Step-1,Increment      1: Step Time =    1.000,"PART-1-1",           285,      -7.65937,       1.09043,            0.,NA,NA,"",       3.04656,       3.00009,  -530.092E-03,   12.0217E-03
C:/temp/dataset/2/26_4.odb,Step-1,Increment      1: Step Time =    1.000,"PART-1-1",           286,      -6.51044,      -5.43697,            0.,NA,NA,"",       1.89137,       1.80254,  -572.850E-03,   15.7211E-03
C:/temp/dataset/2/26_4.odb,Step-1,Increment      1: Step Time =    1.000,"PART-1-1",           287,      -5.48201,      -3.85122,            0.,NA,NA,"",       2.20946,       2.06364,  -789.362E-03,   15.3502E-03
C:/temp/dataset/2/26_4.odb,Step-1,Increment      1: Step Time =    1.000,"PART-1-1",           288,      -7.41561,      -3.16785,            0.,NA,NA,"",       2.26199,       2.21095,  -477.793E-03,   13.6443E-03
C:/temp/dataset/2/26_4.odb,Step-1,Increment      1: Step Time =    1.000,"PART-1-1",           289,      -12.6742,      -10.6472,            0.,NA,NA,"",       1.14789,       1.09372,   348.482E-03,   20.5474E-03
C:/temp/dataset/2/26_4.odb,Step-1,Increment      1: Step Time =    1.000,"PART-1-1",           290,      -11.3911,      -11.6978,            0.,NA,NA,"",   954.118E-03,   935.240E-03,   188.859E-03,   13.0783E-03
C:/temp/dataset/2/26_4.odb,Step-1,Increment      1: Step Time =    1.000,"PART-1-1",           291,      -10.2167,      -10.1126,            0.,NA,NA,"",       1.13608,       1.13532,   41.3828E-03,   8.45983E-03
C:/temp/dataset/2/26_4.odb,Step-1,Increment      1: Step Time =    1.000,"PART-1-1",           292,      -11.4997,      -9.06207,            0.,NA,NA,"",       1.31618,       1.30048,   202.693E-03,   12.9819E-03
C:/temp/dataset/2/26_4.odb,Step-1,Increment      1: Step Time =    1.000,"PART-1-1",           293,      -13.7107,      -15.1438,            0.,NA,NA,"",   689.897E-03,   570.487E-03,   387.947E-03,   33.8115E-03
C:/temp/dataset/2/26_4.odb,Step-1,Increment      1: Step Time =    1.000,"PART-1-1",           294,      -12.5249,      -13.4434,            0.,NA,NA,"",   795.783E-03,   736.232E-03,   302.049E-03,   21.9614E-03
C:/temp/dataset/2/26_4.odb,Step-1,Increment      1: Step Time =    1.000,"PART-1-1",           295,      -13.8143,      -12.2579,            0.,NA,NA,"",       1.01504,   903.184E-03,   463.221E-03,   30.6672E-03
C:/temp/dataset/2/26_4.odb,Step-1,Increment      1: Step Time =    1.000,"PART-1-1",           296,          -15.,      -13.9583,            0.,NA,NA,"",   911.927E-03,   726.668E-03,   550.968E-03,   42.9598E-03
C:/temp/dataset/2/26_4.odb,Step-1,Increment      1: Step Time =    1.000,"PART-1-1",           297,      -12.0988,      -16.5012,            0.,NA,NA,"",   468.707E-03,   413.332E-03,   221.005E-03,   21.1107E-03
C:/temp/dataset/2/26_4.odb,Step-1,Increment      1: Step Time =    1.000,"PART-1-1",           298,      -10.5811,      -17.2344,            0.,NA,NA,"",   346.125E-03,   332.411E-03,   96.4646E-03,   10.4573E-03
C:/temp/dataset/2/26_4.odb,Step-1,Increment      1: Step Time =    1.000,"PART-1-1",           299,      -9.66362,      -15.1575,            0.,NA,NA,"",   519.911E-03,   519.567E-03,   18.8910E-03,   8.74652E-03
C:/temp/dataset/2/26_4.odb,Step-1,Increment      1: Step Time =    1.000,"PART-1-1",           300,      -11.1813,      -14.4243,            0.,NA,NA,"",   629.102E-03,   608.612E-03,   159.252E-03,   12.9110E-03
C:/temp/dataset/2/26_4.odb,Step-1,Increment      1: Step Time =    1.000,"PART-1-1",           301,      -10.5090,      -18.8394,            0.,NA,NA,"",   227.104E-03,   211.820E-03,   81.9049E-03,   11.9774E-03
C:/temp/dataset/2/26_4.odb,Step-1,Increment      1: Step Time =    1.000,"PART-1-1",           302,      -8.88448,      -18.7076,            0.,NA,NA,"",   207.779E-03,   206.863E-03,  -19.4917E-03,   9.32952E-03
C:/temp/dataset/2/26_4.odb,Step-1,Increment      1: Step Time =    1.000,"PART-1-1",           303,      -8.95657,      -17.1026,            0.,NA,NA,"",   333.380E-03,   332.493E-03,  -24.3069E-03,   11.9166E-03
C:/temp/dataset/2/26_4.odb,Step-1,Increment      1: Step Time =    1.000,"PART-1-1",           304,      -8.08225,      -19.7831,            0.,NA,NA,"",   147.975E-03,   136.105E-03,  -58.0690E-03,   11.9759E-03
C:/temp/dataset/2/26_4.odb,Step-1,Increment      1: Step Time =    1.000,"PART-1-1",           305,      -6.89084,      -18.8787,            0.,NA,NA,"",   225.968E-03,   184.602E-03,  -130.323E-03,   24.3864E-03
C:/temp/dataset/2/26_4.odb,Step-1,Increment      1: Step Time =    1.000,"PART-1-1",           306,      -7.69307,      -17.8032,            0.,NA,NA,"",   291.239E-03,   272.006E-03,  -104.082E-03,   22.7231E-03
C:/temp/dataset/2/26_4.odb,Step-1,Increment      1: Step Time =    1.000,"PART-1-1",           307,       7.10093,      -24.9223,            0.,NA,NA,"",   26.0777E-03,   26.0766E-03,   240.390E-06,   2.95818E-03
C:/temp/dataset/2/26_4.odb,Step-1,Increment      1: Step Time =    1.000,"PART-1-1",           308,       8.59925,      -23.6815,            0.,NA,NA,"",   27.5637E-03,   27.5513E-03,   828.404E-06,   1.77300E-03
C:/temp/dataset/2/26_4.odb,Step-1,Increment      1: Step Time =    1.000,"PART-1-1",           309,       6.88316,      -22.4353,            0.,NA,NA,"",   31.9655E-03,   31.9212E-03,   1.68120E-03,   1.69814E-03
C:/temp/dataset/2/26_4.odb,Step-1,Increment      1: Step Time =    1.000,"PART-1-1",           310,       5.38484,      -23.6762,            0.,NA,NA,"",   32.4381E-03,   32.4379E-03,  -126.783E-06,   2.80770E-03
C:/temp/dataset/2/26_4.odb,Step-1,Increment      1: Step Time =    1.000,"PART-1-1",           311,       13.3798,      -22.4744,            0.,NA,NA,"",   28.7617E-03,   28.2673E-03,  -5.30997E-03,   148.146E-06
C:/temp/dataset/2/26_4.odb,Step-1,Increment      1: Step Time =    1.000,"PART-1-1",           312,           15.,        -21.25,            0.,NA,NA,"",   32.1256E-03,   30.8867E-03,  -8.83552E-03,   72.9154E-06
C:/temp/dataset/2/26_4.odb,Step-1,Increment      1: Step Time =    1.000,"PART-1-1",           313,       13.3333,          -20.,            0.,NA,NA,"",   33.8679E-03,   33.4555E-03,  -5.26923E-03,   91.4163E-06
C:/temp/dataset/2/26_4.odb,Step-1,Increment      1: Step Time =    1.000,"PART-1-1",           314,       11.7131,      -21.2244,            0.,NA,NA,"",   31.1202E-03,   31.0493E-03,  -2.10018E-03,   145.809E-06
C:/temp/dataset/2/26_4.odb,Step-1,Increment      1: Step Time =    1.000,"PART-1-1",           315,      -2.14863,       2.00914,            0.,NA,NA,"",       3.49316,       3.12376,      -1.56342,   10.1042E-03
C:/temp/dataset/2/26_4.odb,Step-1,Increment      1: Step Time =    1.000,"PART-1-1",           316,      -1.66393,   575.985E-03,            0.,NA,NA,"",       3.27103,       2.83855,      -1.62551,   5.24574E-03
C:/temp/dataset/2/26_4.odb,Step-1,Increment      1: Step Time =    1.000,"PART-1-1",           317,   135.628E-03,       1.10435,            0.,NA,NA,"",       3.53462,       2.91643,      -1.99699,   6.26068E-03
C:/temp/dataset/2/26_4.odb,Step-1,Increment      1: Step Time =    1.000,"PART-1-1",           318,  -349.073E-03,       2.53751,            0.,NA,NA,"",       3.74664,       3.20924,      -1.93341,   11.3067E-03
C:/temp/dataset/2/26_4.odb,Step-1,Increment      1: Step Time =    1.000,"PART-1-1",           319,   156.145E-03,      -1.87787,            0.,NA,NA,"",       3.01957,       2.31587,      -1.93767,   3.64887E-03
C:/temp/dataset/2/26_4.odb,Step-1,Increment      1: Step Time =    1.000,"PART-1-1",           320,       1.21010,      -2.70880,            0.,NA,NA,"",       3.00979,       2.11945,      -2.13701,   5.94736E-03
C:/temp/dataset/2/26_4.odb,Step-1,Increment      1: Step Time =    1.000,"PART-1-1",           321,       2.32846,      -1.50081,            0.,NA,NA,"",       3.34686,       2.34081,      -2.39209,   3.05356E-03
C:/temp/dataset/2/26_4.odb,Step-1,Increment      1: Step Time =    1.000,"PART-1-1",           322,       1.27451,  -669.883E-03,            0.,NA,NA,"",       3.35135,       2.53654,      -2.19032,   1.12389E-03
C:/temp/dataset/2/26_4.odb,Step-1,Increment      1: Step Time =    1.000,"PART-1-1",           323,       4.87500,      -1.23074,            0.,NA,NA,"",       3.75408,       2.33381,      -2.94049,   3.87128E-03
C:/temp/dataset/2/26_4.odb,Step-1,Increment      1: Step Time =    1.000,"PART-1-1",           324,       6.20088,      -2.43579,            0.,NA,NA,"",       3.79918,       2.04027,      -3.20484,   5.32964E-03
C:/temp/dataset/2/26_4.odb,Step-1,Increment      1: Step Time =    1.000,"PART-1-1",           325,       7.44880,      -1.07477,            0.,NA,NA,"",       4.19858,       2.30061,      -3.51215,   5.03774E-03
C:/temp/dataset/2/26_4.odb,Step-1,Increment      1: Step Time =    1.000,"PART-1-1",           326,       6.12293,   130.279E-03,            0.,NA,NA,"",       4.15405,       2.59400,      -3.24459,   4.76240E-03
C:/temp/dataset/2/26_4.odb,Step-1,Increment      1: Step Time =    1.000,"PART-1-1",           327,          8.75,           -5.,            0.,NA,NA,"",       3.96930,       1.40259,      -3.71324,   5.35272E-03
C:/temp/dataset/2/26_4.odb,Step-1,Increment      1: Step Time =    1.000,"PART-1-1",           328,       10.0063,      -3.63741,            0.,NA,NA,"",       4.35906,       1.66997,      -4.02648,   3.46591E-03
C:/temp/dataset/2/26_4.odb,Step-1,Increment      1: Step Time =    1.000,"PART-1-1",           329,       8.73716,      -2.32557,            0.,NA,NA,"",       4.26660,       1.99399,      -3.77199,   4.98156E-03
C:/temp/dataset/2/26_4.odb,Step-1,Increment      1: Step Time =    1.000,"PART-1-1",           330,       7.48081,      -3.68816,            0.,NA,NA,"",       3.86943,       1.73136,      -3.46048,   5.54247E-03
C:/temp/dataset/2/26_4.odb,Step-1,Increment      1: Step Time =    1.000,"PART-1-1",           331,       6.24109,       7.72904,            0.,NA,NA,"",       5.55091,       4.33118,      -3.47182,   6.01925E-03
C:/temp/dataset/2/26_4.odb,Step-1,Increment      1: Step Time =    1.000,"PART-1-1",           332,            5.,          6.25,            0.,NA,NA,"",       5.09963,       4.01520,      -3.14395,   10.6414E-03
C:/temp/dataset/2/26_4.odb,Step-1,Increment      1: Step Time =    1.000,"PART-1-1",           333,       6.24095,       5.17046,            0.,NA,NA,"",       5.03424,       3.70932,      -3.40360,   14.0027E-03
C:/temp/dataset/2/26_4.odb,Step-1,Increment      1: Step Time =    1.000,"PART-1-1",           334,       7.48203,       6.64950,            0.,NA,NA,"",       5.49485,       4.03603,      -3.72878,   6.78363E-03
C:/temp/dataset/2/26_4.odb,Step-1,Increment      1: Step Time =    1.000,"PART-1-1",           335,       7.34508,       23.6052,            0.,NA,NA,"",       8.98420,       7.97088,      -4.14500,   18.6088E-06
C:/temp/dataset/2/26_4.odb,Step-1,Increment      1: Step Time =    1.000,"PART-1-1",           336,       6.41056,       24.2397,            0.,NA,NA,"",       9.04840,       8.14232,      -3.94666,   8.03671E-06
C:/temp/dataset/2/26_4.odb,Step-1,Increment      1: Step Time =    1.000,"PART-1-1",           337,       6.08150,       22.9932,            0.,NA,NA,"",       8.75008,       7.86382,      -3.83723,   15.4974E-06
C:/temp/dataset/2/26_4.odb,Step-1,Increment      1: Step Time =    1.000,"PART-1-1",           338,       7.01602,       22.3587,            0.,NA,NA,"",       8.68668,       7.69237,      -4.03556,   27.3659E-06
C:/temp/dataset/2/26_4.odb,Step-1,Increment      1: Step Time =    1.000,"PART-1-1",           339,      -12.5005,       23.7291,            0.,NA,NA,"",       8.54468,       8.53402,   426.829E-03,   2.54084E-09
C:/temp/dataset/2/26_4.odb,Step-1,Increment      1: Step Time =    1.000,"PART-1-1",           340,      -13.7489,       24.9883,            0.,NA,NA,"",       8.88405,       8.85793,   680.709E-03,   2.76212E-09
C:/temp/dataset/2/26_4.odb,Step-1,Increment      1: Step Time =    1.000,"PART-1-1",           341,          -15.,         23.75,            0.,NA,NA,"",       8.66435,       8.60616,       1.00250,   4.14227E-09
C:/temp/dataset/2/26_4.odb,Step-1,Increment      1: Step Time =    1.000,"PART-1-1",           342,      -2.52491,       26.1674,            0.,NA,NA,"",       9.03779,       8.82743,      -1.93862,   399.624E-09
C:/temp/dataset/2/26_4.odb,Step-1,Increment      1: Step Time =    1.000,"PART-1-1",           343,      -1.30373,       24.8780,            0.,NA,NA,"",       8.77381,       8.49728,      -2.18542,   716.237E-09
C:/temp/dataset/2/26_4.odb,Step-1,Increment      1: Step Time =    1.000,"PART-1-1",           344,      -1.26817,       27.4122,            0.,NA,NA,"",       9.35801,       9.08054,      -2.26188,   552.791E-09
C:/temp/dataset/2/26_4.odb,Step-1,Increment      1: Step Time =    1.000,"PART-1-1",           345,       2.31009,       23.4917,            0.,NA,NA,"",       8.61276,       8.08034,      -2.98121,   1.68477E-06
C:/temp/dataset/2/26_4.odb,Step-1,Increment      1: Step Time =    1.000,"PART-1-1",           346,       3.41051,       22.2101,            0.,NA,NA,"",       8.38963,       7.75522,      -3.20038,   4.02663E-06
C:/temp/dataset/2/26_4.odb,Step-1,Increment      1: Step Time =    1.000,"PART-1-1",           347,       4.46987,       23.2845,            0.,NA,NA,"",       8.69807,       7.97440,      -3.47354,   6.17498E-06
C:/temp/dataset/2/26_4.odb,Step-1,Increment      1: Step Time =    1.000,"PART-1-1",           348,       3.36945,       24.5662,            0.,NA,NA,"",       8.91476,       8.29952,      -3.25438,   2.06623E-06
C:/temp/dataset/2/26_4.odb,Step-1,Increment      1: Step Time =    1.000,"PART-1-1",           349,       3.92627,       27.0683,            0.,NA,NA,"",       9.50931,       8.86135,      -3.45014,   894.008E-09
C:/temp/dataset/2/26_4.odb,Step-1,Increment      1: Step Time =    1.000,"PART-1-1",           350,       5.16355,       28.4353,            0.,NA,NA,"",       9.89076,       9.14317,      -3.77220,   1.11695E-06
C:/temp/dataset/2/26_4.odb,Step-1,Increment      1: Step Time =    1.000,"PART-1-1",           351,          3.75,           30.,            0.,NA,NA,"",       10.1596,       9.54196,      -3.48847,   1.63128E-06
C:/temp/dataset/2/26_4.odb,Step-1,Increment      1: Step Time =    1.000,"PART-1-1",           352,       2.51272,       28.6330,            0.,NA,NA,"",       9.78654,       9.26014,      -3.16641,   905.152E-09
C:/temp/dataset/2/26_4.odb,Step-1,Increment      1: Step Time =    1.000,"PART-1-1",           353,       11.0463,       14.3537,            0.,NA,NA,"",       7.44821,       5.73807,      -4.74873,   382.717E-06
C:/temp/dataset/2/26_4.odb,Step-1,Increment      1: Step Time =    1.000,"PART-1-1",           354,       9.86747,       12.5470,            0.,NA,NA,"",       6.94756,       5.35285,      -4.42894,   1.40873E-03
C:/temp/dataset/2/26_4.odb,Step-1,Increment      1: Step Time =    1.000,"PART-1-1",           355,       11.1901,       11.5237,            0.,NA,NA,"",       6.92377,       5.07878,      -4.70580,   1.65262E-03
C:/temp/dataset/2/26_4.odb,Step-1,Increment      1: Step Time =    1.000,"PART-1-1",           356,       9.55073,       15.1783,            0.,NA,NA,"",       7.43098,       5.96904,      -4.42607,   276.083E-06
C:/temp/dataset/2/26_4.odb,Step-1,Increment      1: Step Time =    1.000,"PART-1-1",           357,       8.18591,       15.9712,            0.,NA,NA,"",       7.44174,       6.18859,      -4.13289,   154.249E-06
C:/temp/dataset/2/26_4.odb,Step-1,Increment      1: Step Time =    1.000,"PART-1-1",           358,       7.20669,       14.2932,            0.,NA,NA,"",       6.99262,       5.82914,      -3.86237,   624.665E-06
C:/temp/dataset/2/26_4.odb,Step-1,Increment      1: Step Time =    1.000,"PART-1-1",           359,       8.57151,       13.5002,            0.,NA,NA,"",       6.98085,       5.60916,      -4.15567,   963.884E-06
C:/temp/dataset/2/26_4.odb,Step-1,Increment      1: Step Time =    1.000,"PART-1-1",           360,       7.44377,       1.50598,            0.,NA,NA,"",       4.57740,       2.86076,      -3.57332,   5.83598E-03
C:/temp/dataset/2/26_4.odb,Step-1,Increment      1: Step Time =    1.000,"PART-1-1",           361,       8.72836,   326.342E-03,            0.,NA,NA,"",       4.61724,       2.57282,      -3.83399,   5.36163E-03
C:/temp/dataset/2/26_4.odb,Step-1,Increment      1: Step Time =    1.000,"PART-1-1",           362,       10.0261,       1.76283,            0.,NA,NA,"",       5.05255,       2.85818,      -4.16643,   4.20347E-03
C:/temp/dataset/2/26_4.odb,Step-1,Increment      1: Step Time =    1.000,"PART-1-1",           363,       8.74149,       2.94246,            0.,NA,NA,"",       5.01866,       3.15009,      -3.90691,   5.67967E-03
C:/temp/dataset/2/26_4.odb,Step-1,Increment      1: Step Time =    1.000,"PART-1-1",           364,       12.5045,       7.62102,            0.,NA,NA,"",       6.41072,       4.13511,      -4.89880,   3.06013E-03
C:/temp/dataset/2/26_4.odb,Step-1,Increment      1: Step Time =    1.000,"PART-1-1",           365,           15.,         8.125,            0.,NA,NA,"",       6.90305,       4.18742,      -5.48795,   2.68842E-03
C:/temp/dataset/2/26_4.odb,Step-1,Increment      1: Step Time =    1.000,"PART-1-1",           366,       13.7500,       9.30715,            0.,NA,NA,"",       6.89826,       4.49445,      -5.23315,   1.81550E-03
C:/temp/dataset/2/26_4.odb,Step-1,Increment      1: Step Time =    1.000,"PART-1-1",           367,      -1.45938,      -2.40358,            0.,NA,NA,"",       2.76274,       2.24949,      -1.60390,   4.89300E-03
C:/temp/dataset/2/26_4.odb,Step-1,Increment      1: Step Time =    1.000,"PART-1-1",           368,      -2.69869,      -3.52952,            0.,NA,NA,"",       2.45630,       2.05985,      -1.33805,   8.90602E-03
C:/temp/dataset/2/26_4.odb,Step-1,Increment      1: Step Time =    1.000,"PART-1-1",           369,         -1.25,           -5.,            0.,NA,NA,"",       2.35303,       1.72215,      -1.60342,   12.7403E-03
C:/temp/dataset/2/26_4.odb,Step-1,Increment      1: Step Time =    1.000,"PART-1-1",           370,  -10.6917E-03,      -3.87406,            0.,NA,NA,"",       2.67508,       1.91414,      -1.86872,   9.33961E-03
C:/temp/dataset/2/26_4.odb,Step-1,Increment      1: Step Time =    1.000,"PART-1-1",           371,      -13.3333,            5.,            0.,NA,NA,"",       3.77897,       3.76107,   367.362E-03,   1.01872E-03
C:/temp/dataset/2/26_4.odb,Step-1,Increment      1: Step Time =    1.000,"PART-1-1",           372,          -15.,       3.54167,            0.,NA,NA,"",       3.59634,       3.53139,   680.432E-03,   924.063E-06
C:/temp/dataset/2/26_4.odb,Step-1,Increment      1: Step Time =    1.000,"PART-1-1",           373,      -13.2137,       2.05352,            0.,NA,NA,"",       3.26321,       3.23965,   391.437E-03,   5.19849E-03
C:/temp/dataset/2/26_4.odb,Step-1,Increment      1: Step Time =    1.000,"PART-1-1",           374,      -11.5470,       3.51185,            0.,NA,NA,"",       3.47837,       3.47735,   83.8969E-03,   5.43690E-03
C:/temp/dataset/2/26_4.odb,Step-1,Increment      1: Step Time =    1.000,"PART-1-1",           375,          -15.,      625.E-03,            0.,NA,NA,"",       3.09751,       3.01239,   721.170E-03,   6.33271E-03
C:/temp/dataset/2/26_4.odb,Step-1,Increment      1: Step Time =    1.000,"PART-1-1",           376,      -12.9883,      -1.02354,            0.,NA,NA,"",       2.70644,       2.67797,   391.524E-03,   10.6287E-03
C:/temp/dataset/2/26_4.odb,Step-1,Increment      1: Step Time =    1.000,"PART-1-1",           377,      -11.2019,   404.974E-03,            0.,NA,NA,"",       2.91279,       2.91179,   76.6165E-03,   12.1519E-03
C:/temp/dataset/2/26_4.odb,Step-1,Increment      1: Step Time =    1.000,"PART-1-1",           378,      -13.6690,      -3.88141,            0.,NA,NA,"",       2.24088,       2.17944,   521.124E-03,   16.2432E-03
C:/temp/dataset/2/26_4.odb,Step-1,Increment      1: Step Time =    1.000,"PART-1-1",           379,      -11.6573,      -2.61328,            0.,NA,NA,"",       2.37626,       2.36860,   190.621E-03,   14.2733E-03
C:/temp/dataset/2/26_4.odb,Step-1,Increment      1: Step Time =    1.000,"PART-1-1",           380,          -15.,      -2.29167,            0.,NA,NA,"",       2.59706,       2.48884,   741.863E-03,   15.3388E-03
C:/temp/dataset/2/26_4.odb,Step-1,Increment      1: Step Time =    1.000,"PART-1-1",           381,           -5.,         -8.75,            0.,NA,NA,"",       1.48519,       1.31345,  -693.296E-03,   33.0739E-03
C:/temp/dataset/2/26_4.odb,Step-1,Increment      1: Step Time =    1.000,"PART-1-1",           382,      -6.37238,      -7.84264,            0.,NA,NA,"",       1.53163,       1.43798,  -527.340E-03,   22.8122E-03
C:/temp/dataset/2/26_4.odb,Step-1,Increment      1: Step Time =    1.000,"PART-1-1",           383,      -7.67841,      -9.42411,            0.,NA,NA,"",       1.25214,       1.21595,  -298.841E-03,   16.3034E-03
C:/temp/dataset/2/26_4.odb,Step-1,Increment      1: Step Time =    1.000,"PART-1-1",           384,      -6.30603,      -10.3315,            0.,NA,NA,"",       1.18447,       1.09320,  -455.948E-03,   26.2015E-03
C:/temp/dataset/2/26_4.odb,Step-1,Increment      1: Step Time =    1.000,"PART-1-1",           385,      -13.6103,      -21.3688,            0.,NA,NA,"",   237.190E-03,   121.269E-03,   203.846E-03,   34.0591E-03
C:/temp/dataset/2/26_4.odb,Step-1,Increment      1: Step Time =    1.000,"PART-1-1",           386,          -15.,      -22.7083,            0.,NA,NA,"",   232.318E-03,   98.0744E-03,   210.601E-03,   41.7023E-03
C:/temp/dataset/2/26_4.odb,Step-1,Increment      1: Step Time =    1.000,"PART-1-1",           387,      -13.6241,      -24.2925,            0.,NA,NA,"",   129.354E-03,   37.9931E-03,   123.649E-03,   29.3333E-03
C:/temp/dataset/2/26_4.odb,Step-1,Increment      1: Step Time =    1.000,"PART-1-1",           388,      -12.2343,      -22.9530,            0.,NA,NA,"",   121.481E-03,   50.2616E-03,   110.595E-03,   22.4279E-03
C:/temp/dataset/2/26_4.odb,Step-1,Increment      1: Step Time =    1.000,"PART-1-1",           389,           -5.,        -16.25,            0.,NA,NA,"",   583.183E-03,   439.941E-03,  -382.825E-03,   46.7239E-03
C:/temp/dataset/2/26_4.odb,Step-1,Increment      1: Step Time =    1.000,"PART-1-1",           390,      -6.06585,      -15.2329,            0.,NA,NA,"",   611.706E-03,   522.835E-03,  -317.535E-03,   34.9440E-03
C:/temp/dataset/2/26_4.odb,Step-1,Increment      1: Step Time =    1.000,"PART-1-1",           391,      -6.99530,      -16.6022,            0.,NA,NA,"",   423.462E-03,   380.047E-03,  -186.772E-03,   29.0899E-03
C:/temp/dataset/2/26_4.odb,Step-1,Increment      1: Step Time =    1.000,"PART-1-1",           392,      -5.92946,      -17.6192,            0.,NA,NA,"",   379.049E-03,   297.645E-03,  -234.704E-03,   41.2276E-03
C:/temp/dataset/2/26_4.odb,Step-1,Increment      1: Step Time =    1.000,"PART-1-1",           393,         -13.5,          -30.,            0.,NA,NA,"",            0.,  -5.86924E-39,   38.5699E-39,   18.2605E-03
C:/temp/dataset/2/26_4.odb,Step-1,Increment      1: Step Time =    1.000,"PART-1-1",           394,      -12.0804,      -28.6247,            0.,NA,NA,"",   18.0960E-03,  -8.53932E-03,   15.9544E-03,   15.9605E-03
C:/temp/dataset/2/26_4.odb,Step-1,Increment      1: Step Time =    1.000,"PART-1-1",           395,      -13.5804,      -27.1664,            0.,NA,NA,"",   55.0678E-03,   6.20709E-03,   54.7168E-03,   24.8218E-03
C:/temp/dataset/2/26_4.odb,Step-1,Increment      1: Step Time =    1.000,"PART-1-1",           396,          -15.,      -28.5417,            0.,NA,NA,"",   36.1249E-03,   17.2336E-03,   31.7492E-03,   27.3013E-03
C:/temp/dataset/2/26_4.odb,Step-1,Increment      1: Step Time =    1.000,"PART-1-1",           397,          13.5,          -30.,            0.,NA,NA,"",            0.,   1.55354E-39,  -4.21435E-39,   3.62172E-03
C:/temp/dataset/2/26_4.odb,Step-1,Increment      1: Step Time =    1.000,"PART-1-1",           398,           15.,        -28.75,            0.,NA,NA,"",   7.73558E-03,   6.33534E-03,  -4.43877E-03,   3.39377E-03
C:/temp/dataset/2/26_4.odb,Step-1,Increment      1: Step Time =    1.000,"PART-1-1",           399,       13.4640,      -27.4843,            0.,NA,NA,"",   11.5127E-03,   11.1185E-03,  -2.98675E-03,   1.98405E-03
C:/temp/dataset/2/26_4.odb,Step-1,Increment      1: Step Time =    1.000,"PART-1-1",           400,       11.9640,      -28.7343,            0.,NA,NA,"",   5.47984E-03,   5.40954E-03,  -874.915E-06,   2.83031E-03
C:/temp/dataset/2/26_4.odb,Step-1,Increment      1: Step Time =    1.000,"PART-1-1",           401,       10.2658,      -24.9335,            0.,NA,NA,"",   22.3897E-03,   22.3821E-03,  -580.846E-06,   1.90625E-03
C:/temp/dataset/2/26_4.odb,Step-1,Increment      1: Step Time =    1.000,"PART-1-1",           402,       8.77397,      -26.1861,            0.,NA,NA,"",   19.1678E-03,   19.1659E-03,  -267.068E-06,   2.84495E-03
C:/temp/dataset/2/26_4.odb,Step-1,Increment      1: Step Time =    1.000,"PART-1-1",           403,       10.3945,      -27.4590,            0.,NA,NA,"",   12.2002E-03,   12.1776E-03,  -742.843E-06,   2.97161E-03
C:/temp/dataset/2/26_4.odb,Step-1,Increment      1: Step Time =    1.000,"PART-1-1",           404,       11.8863,      -26.2064,            0.,NA,NA,"",   16.9124E-03,   16.7954E-03,  -1.98577E-03,   2.17031E-03
C:/temp/dataset/2/26_4.odb,Step-1,Increment      1: Step Time =    1.000,"PART-1-1",           405,       8.93044,      -28.7247,            0.,NA,NA,"",   6.97820E-03,   6.95698E-03,  -543.722E-06,   3.47879E-03
C:/temp/dataset/2/26_4.odb,Step-1,Increment      1: Step Time =    1.000,"PART-1-1",           406,       7.31300,      -27.4411,            0.,NA,NA,"",   15.2088E-03,   15.1915E-03,  -725.871E-06,   3.85645E-03
C:/temp/dataset/2/26_4.odb,Step-1,Increment      1: Step Time =    1.000,"PART-1-1",           407,       5.88256,      -28.7164,            0.,NA,NA,"",   9.28998E-03,   9.23644E-03,  -995.957E-06,   4.69934E-03
C:/temp/dataset/2/26_4.odb,Step-1,Increment      1: Step Time =    1.000,"PART-1-1",           408,           7.5,          -30.,            0.,NA,NA,"",            0.,   4.81249E-39,  -2.43747E-39,   4.38446E-03
C:/temp/dataset/2/26_4.odb,Step-1,Increment      1: Step Time =    1.000,"PART-1-1",           409,       5.63995,      -26.1773,            0.,NA,NA,"",   23.8823E-03,   23.8480E-03,  -1.28003E-03,   3.89421E-03
C:/temp/dataset/2/26_4.odb,Step-1,Increment      1: Step Time =    1.000,"PART-1-1",           410,       3.92490,      -24.9166,            0.,NA,NA,"",   32.4700E-03,   32.3079E-03,  -3.24015E-03,   4.59399E-03
C:/temp/dataset/2/26_4.odb,Step-1,Increment      1: Step Time =    1.000,"PART-1-1",           411,       2.50142,      -26.1700,            0.,NA,NA,"",   30.4440E-03,   29.6786E-03,  -6.78356E-03,   5.84793E-03
C:/temp/dataset/2/26_4.odb,Step-1,Increment      1: Step Time =    1.000,"PART-1-1",           412,       4.21647,      -27.4307,            0.,NA,NA,"",   19.7362E-03,   19.5459E-03,  -2.73411E-03,   5.20967E-03
C:/temp/dataset/2/26_4.odb,Step-1,Increment      1: Step Time =    1.000,"PART-1-1",           413,       1.12659,      -27.4308,            0.,NA,NA,"",   24.4187E-03,   23.0294E-03,  -8.11911E-03,   7.40566E-03
C:/temp/dataset/2/26_4.odb,Step-1,Increment      1: Step Time =    1.000,"PART-1-1",           414,  -207.324E-03,      -28.7165,            0.,NA,NA,"",   13.5881E-03,   12.3570E-03,  -5.65161E-03,   8.79561E-03
C:/temp/dataset/2/26_4.odb,Step-1,Increment      1: Step Time =    1.000,"PART-1-1",           415,           1.5,          -30.,            0.,NA,NA,"",            0.,   7.78959E-39,  -9.16080E-39,   7.72827E-03
C:/temp/dataset/2/26_4.odb,Step-1,Increment      1: Step Time =    1.000,"PART-1-1",           416,       2.83391,      -28.7143,            0.,NA,NA,"",   12.0142E-03,   11.7351E-03,  -2.57476E-03,   6.50723E-03
C:/temp/dataset/2/26_4.odb,Step-1,Increment      1: Step Time =    1.000,"PART-1-1",           417,      -1.92078,      -27.4395,            0.,NA,NA,"",   26.3544E-03,   20.2370E-03,  -16.8824E-03,   10.5907E-03
C:/temp/dataset/2/26_4.odb,Step-1,Increment      1: Step Time =    1.000,"PART-1-1",           418,      -3.21345,      -28.7230,            0.,NA,NA,"",   11.4186E-03,   7.30876E-03,  -8.77303E-03,   10.3834E-03
C:/temp/dataset/2/26_4.odb,Step-1,Increment      1: Step Time =    1.000,"PART-1-1",           419,          -1.5,          -30.,            0.,NA,NA,"",            0.,   6.81682E-39,  -14.7455E-39,   8.39626E-03
C:/temp/dataset/2/26_4.odb,Step-1,Increment      1: Step Time =    1.000,"PART-1-1",           420,      -5.57419,      -22.4519,            0.,NA,NA,"",   109.527E-03,   53.9968E-03,  -95.2915E-03,   23.6119E-03
C:/temp/dataset/2/26_4.odb,Step-1,Increment      1: Step Time =    1.000,"PART-1-1",           421,      -6.77537,      -23.6376,            0.,NA,NA,"",   64.2373E-03,   26.0329E-03,  -58.7258E-03,   18.2342E-03
C:/temp/dataset/2/26_4.odb,Step-1,Increment      1: Step Time =    1.000,"PART-1-1",           422,      -5.25528,      -24.9124,            0.,NA,NA,"",   56.9928E-03,   24.3719E-03,  -51.5188E-03,   16.4507E-03
C:/temp/dataset/2/26_4.odb,Step-1,Increment      1: Step Time =    1.000,"PART-1-1",           423,      -4.05411,      -23.7268,            0.,NA,NA,"",   79.5303E-03,   46.8517E-03,  -64.2649E-03,   21.8673E-03
C:/temp/dataset/2/26_4.odb,Step-1,Increment      1: Step Time =    1.000,"PART-1-1",           424,       13.4223,      -24.9720,            0.,NA,NA,"",   21.9388E-03,   21.3703E-03,  -4.96214E-03,   765.004E-06
C:/temp/dataset/2/26_4.odb,Step-1,Increment      1: Step Time =    1.000,"PART-1-1",           425,           15.,        -26.25,            0.,NA,NA,"",   19.3253E-03,   17.1633E-03,  -8.88195E-03,   979.048E-06
C:/temp/dataset/2/26_4.odb,Step-1,Increment      1: Step Time =    1.000,"PART-1-1",           426,       11.8021,      -23.6964,            0.,NA,NA,"",   25.4800E-03,   25.3813E-03,  -2.24082E-03,   908.391E-06
C:/temp/dataset/2/26_4.odb,Step-1,Increment      1: Step Time =    1.000,"PART-1-1",           427,       10.1355,      -22.4445,            0.,NA,NA,"",   29.1274E-03,   29.1274E-03,   50.7485E-06,   831.706E-06
C:/temp/dataset/2/26_4.odb,Step-1,Increment      1: Step Time =    1.000,"PART-1-1",           428,      -2.31424,      -24.9364,            0.,NA,NA,"",   55.1918E-03,   39.7385E-03,  -38.3013E-03,   14.1958E-03
C:/temp/dataset/2/26_4.odb,Step-1,Increment      1: Step Time =    1.000,"PART-1-1",           429,      -3.63092,      -26.1962,            0.,NA,NA,"",   41.0575E-03,   23.1637E-03,  -33.8992E-03,   15.0156E-03
C:/temp/dataset/2/26_4.odb,Step-1,Increment      1: Step Time =    1.000,"PART-1-1",           430,  -604.096E-03,      -26.1796,            0.,NA,NA,"",   37.8994E-03,   32.5750E-03,  -19.3710E-03,   10.2962E-03
C:/temp/dataset/2/26_4.odb,Step-1,Increment      1: Step Time =    1.000,"PART-1-1",           431,      -7.52977,      -11.9021,            0.,NA,NA,"",   924.788E-03,   888.129E-03,  -257.801E-03,   20.0470E-03
C:/temp/dataset/2/26_4.odb,Step-1,Increment      1: Step Time =    1.000,"PART-1-1",           432,      -6.22373,      -12.8207,            0.,NA,NA,"",   871.377E-03,   782.322E-03,  -383.758E-03,   29.9121E-03
C:/temp/dataset/2/26_4.odb,Step-1,Increment      1: Step Time =    1.000,"PART-1-1",           433,           -5.,        -11.25,            0.,NA,NA,"",       1.14799,   981.964E-03,  -594.674E-03,   36.7077E-03
C:/temp/dataset/2/26_4.odb,Step-1,Increment      1: Step Time =    1.000,"PART-1-1",           434,      -10.0475,      -12.6788,            0.,NA,NA,"",   800.622E-03,   799.615E-03,   40.1539E-03,   8.30800E-03
C:/temp/dataset/2/26_4.odb,Step-1,Increment      1: Step Time =    1.000,"PART-1-1",           435,           -5.,         -6.25,            0.,NA,NA,"",       1.85111,       1.67165,  -795.092E-03,   33.7240E-03
C:/temp/dataset/2/26_4.odb,Step-1,Increment      1: Step Time =    1.000,"PART-1-1",           436,      -7.88282,      -7.02961,            0.,NA,NA,"",       1.60054,       1.56723,  -324.838E-03,   11.3892E-03
C:/temp/dataset/2/26_4.odb,Step-1,Increment      1: Step Time =    1.000,"PART-1-1",           437,      -13.8577,      -6.65334,            0.,NA,NA,"",       1.79968,       1.71556,   543.804E-03,   22.3860E-03
C:/temp/dataset/2/26_4.odb,Step-1,Increment      1: Step Time =    1.000,"PART-1-1",           438,      -12.5267,      -5.32641,            0.,NA,NA,"",       1.93988,       1.90905,   344.463E-03,   15.8921E-03
C:/temp/dataset/2/26_4.odb,Step-1,Increment      1: Step Time =    1.000,"PART-1-1",           439,          -15.,      -5.20833,            0.,NA,NA,"",       2.11253,       1.98097,   733.852E-03,   24.3476E-03
C:/temp/dataset/2/26_4.odb,Step-1,Increment      1: Step Time =    1.000,"PART-1-1",           440,          1.25,           -5.,            0.,NA,NA,"",       2.67166,       1.64483,      -2.10530,   11.9283E-03
C:/temp/dataset/2/26_4.odb,Step-1,Increment      1: Step Time =    1.000,"PART-1-1",           441,       2.47079,      -3.83474,            0.,NA,NA,"",       3.01201,       1.84997,      -2.37693,   8.71444E-03
C:/temp/dataset/2/26_4.odb,Step-1,Increment      1: Step Time =    1.000,"PART-1-1",           442,       3.51261,  -149.180E-03,            0.,NA,NA,"",       3.72356,       2.59504,      -2.67033,   2.72021E-03
C:/temp/dataset/2/26_4.odb,Step-1,Increment      1: Step Time =    1.000,"PART-1-1",           443,       3.69085,      -2.58237,            0.,NA,NA,"",       3.37433,       2.07874,      -2.65800,   5.37466E-03
C:/temp/dataset/2/26_4.odb,Step-1,Increment      1: Step Time =    1.000,"PART-1-1",           444,       8.74868,       5.55605,            0.,NA,NA,"",       5.47090,       3.74844,      -3.98496,   6.37874E-03
C:/temp/dataset/2/26_4.odb,Step-1,Increment      1: Step Time =    1.000,"PART-1-1",           445,       10.0030,       7.12352,            0.,NA,NA,"",       5.94063,       4.08373,      -4.31443,   4.41447E-03
C:/temp/dataset/2/26_4.odb,Step-1,Increment      1: Step Time =    1.000,"PART-1-1",           446,       8.73640,       8.21697,            0.,NA,NA,"",       5.96610,       4.37488,      -4.05645,   5.72988E-03
C:/temp/dataset/2/26_4.odb,Step-1,Increment      1: Step Time =    1.000,"PART-1-1",           447,           15.,     -625.E-03,            0.,NA,NA,"",       5.67308,       2.20786,      -5.22582,   2.48111E-03
C:/temp/dataset/2/26_4.odb,Step-1,Increment      1: Step Time =    1.000,"PART-1-1",           448,       13.7714,   731.820E-03,            0.,NA,NA,"",       5.59659,       2.53851,      -4.98776,   3.48566E-03
C:/temp/dataset/2/26_4.odb,Step-1,Increment      1: Step Time =    1.000,"PART-1-1",           449,       12.5339,  -774.506E-03,            0.,NA,NA,"",       5.17568,       2.23549,      -4.66800,   3.33175E-03
C:/temp/dataset/2/26_4.odb,Step-1,Increment      1: Step Time =    1.000,"PART-1-1",           450,       7.40609,       11.8257,            0.,NA,NA,"",       6.51182,       5.25631,      -3.84383,   2.84550E-03
C:/temp/dataset/2/26_4.odb,Step-1,Increment      1: Step Time =    1.000,"PART-1-1",           451,       8.70206,       10.8725,            0.,NA,NA,"",       6.47534,       4.99777,      -4.11732,   3.09058E-03
C:/temp/dataset/2/26_4.odb,Step-1,Increment      1: Step Time =    1.000,"PART-1-1",           452,       11.2454,       8.75341,            0.,NA,NA,"",       6.41864,       4.43182,      -4.64305,   3.45810E-03
C:/temp/dataset/2/26_4.odb,Step-1,Increment      1: Step Time =    1.000,"PART-1-1",           453,       11.2622,       5.99112,            0.,NA,NA,"",       5.93499,       3.78851,      -4.56852,   3.90184E-03
C:/temp/dataset/2/26_4.odb,Step-1,Increment      1: Step Time =    1.000,"PART-1-1",           454,       13.8596,       24.3693,            0.,NA,NA,"",       9.78090,       7.97160,      -5.66741,   6.43056E-06
C:/temp/dataset/2/26_4.odb,Step-1,Increment      1: Step Time =    1.000,"PART-1-1",           455,       12.6110,       23.1199,            0.,NA,NA,"",       9.38801,       7.71724,      -5.34592,   24.3959E-06
C:/temp/dataset/2/26_4.odb,Step-1,Increment      1: Step Time =    1.000,"PART-1-1",           456,       13.7514,       21.4590,            0.,NA,NA,"",       9.18165,       7.30365,      -5.56412,   29.9216E-06
C:/temp/dataset/2/26_4.odb,Step-1,Increment      1: Step Time =    1.000,"PART-1-1",           457,           15.,       22.7083,            0.,NA,NA,"",       9.57933,       7.55800,      -5.88559,   19.9768E-06
C:/temp/dataset/2/26_4.odb,Step-1,Increment      1: Step Time =    1.000,"PART-1-1",           458,       8.83903,       17.2613,            0.,NA,NA,"",       7.77723,       6.46826,      -4.31821,   108.602E-06
C:/temp/dataset/2/26_4.odb,Step-1,Increment      1: Step Time =    1.000,"PART-1-1",           459,       10.5130,       17.3338,            0.,NA,NA,"",       7.97621,       6.43993,      -4.70609,   118.706E-06
C:/temp/dataset/2/26_4.odb,Step-1,Increment      1: Step Time =    1.000,"PART-1-1",           460,       8.72284,       19.1442,            0.,NA,NA,"",       8.15718,       6.90537,      -4.34229,   99.1012E-06
C:/temp/dataset/2/26_4.odb,Step-1,Increment      1: Step Time =    1.000,"PART-1-1",           461,           15.,       28.5417,            0.,NA,NA,"",       10.7598,       8.90274,      -6.04268,   134.446E-09
C:/temp/dataset/2/26_4.odb,Step-1,Increment      1: Step Time =    1.000,"PART-1-1",           462,         13.75,           30.,            0.,NA,NA,"",       10.9339,       9.27260,      -5.79380,   295.755E-09
C:/temp/dataset/2/26_4.odb,Step-1,Increment      1: Step Time =    1.000,"PART-1-1",           463,       12.5875,       28.6551,            0.,NA,NA,"",       10.5369,       8.99388,      -5.48959,   922.813E-09
C:/temp/dataset/2/26_4.odb,Step-1,Increment      1: Step Time =    1.000,"PART-1-1",           464,       13.8375,       27.1968,            0.,NA,NA,"",       10.3588,       8.62402,      -5.73847,   851.662E-09
C:/temp/dataset/2/26_4.odb,Step-1,Increment      1: Step Time =    1.000,"PART-1-1",           465,         11.25,           30.,            0.,NA,NA,"",       10.6984,       9.33994,      -5.21747,   111.346E-09
C:/temp/dataset/2/26_4.odb,Step-1,Increment      1: Step Time =    1.000,"PART-1-1",           466,       10.1484,       28.7335,            0.,NA,NA,"",       10.3297,       9.07763,      -4.92940,   1.58491E-06
C:/temp/dataset/2/26_4.odb,Step-1,Increment      1: Step Time =    1.000,"PART-1-1",           467,       7.69941,       28.7139,            0.,NA,NA,"",       10.1277,       9.13908,      -4.36430,   1.46176E-06
C:/temp/dataset/2/26_4.odb,Step-1,Increment      1: Step Time =    1.000,"PART-1-1",           468,       9.09777,       27.4473,            0.,NA,NA,"",       9.96255,       8.80944,      -4.65256,   2.73130E-06
C:/temp/dataset/2/26_4.odb,Step-1,Increment      1: Step Time =    1.000,"PART-1-1",           469,          8.75,           30.,            0.,NA,NA,"",       10.4899,       9.40728,      -4.64114,   197.948E-09
C:/temp/dataset/2/26_4.odb,Step-1,Increment      1: Step Time =    1.000,"PART-1-1",           470,  -9.87333E-03,       28.6960,            0.,NA,NA,"",       9.69405,       9.34261,      -2.58655,   613.769E-09
C:/temp/dataset/2/26_4.odb,Step-1,Increment      1: Step Time =    1.000,"PART-1-1",           471,          1.25,           30.,            0.,NA,NA,"",       10.0409,       9.60930,      -2.91213,   1.24681E-06
C:/temp/dataset/2/26_4.odb,Step-1,Increment      1: Step Time =    1.000,"PART-1-1",           472,       4.87954,       25.6434,            0.,NA,NA,"",       9.24986,       8.50717,      -3.63152,   2.72424E-06
C:/temp/dataset/2/26_4.odb,Step-1,Increment      1: Step Time =    1.000,"PART-1-1",           473,      -5.00474,       28.7231,            0.,NA,NA,"",       9.59148,       9.48341,      -1.43577,   85.0656E-09
C:/temp/dataset/2/26_4.odb,Step-1,Increment      1: Step Time =    1.000,"PART-1-1",           474,         -6.25,           30.,            0.,NA,NA,"",       9.88241,       9.81133,      -1.18308,   36.5947E-09
C:/temp/dataset/2/26_4.odb,Step-1,Increment      1: Step Time =    1.000,"PART-1-1",           475,      -3.76303,       27.4393,            0.,NA,NA,"",       9.30822,       9.15399,      -1.68745,   277.580E-09
C:/temp/dataset/2/26_4.odb,Step-1,Increment      1: Step Time =    1.000,"PART-1-1",           476,      -3.77322,       24.9147,            0.,NA,NA,"",       8.72344,       8.57225,      -1.61709,   321.258E-09
C:/temp/dataset/2/26_4.odb,Step-1,Increment      1: Step Time =    1.000,"PART-1-1",           477,      -13.7476,       27.4926,            0.,NA,NA,"",       9.45513,       9.43524,   612.955E-03,   2.87227E-09
C:/temp/dataset/2/26_4.odb,Step-1,Increment      1: Step Time =    1.000,"PART-1-1",           478,        -13.75,           30.,            0.,NA,NA,"",       10.0282,       10.0134,   545.965E-03,   1.21112E-09
C:/temp/dataset/2/26_4.odb,Step-1,Increment      1: Step Time =    1.000,"PART-1-1",           479,          -15.,         28.75,            0.,NA,NA,"",       9.79737,       9.75886,   867.811E-03,   1.07079E-09
C:/temp/dataset/2/26_4.odb,Step-1,Increment      1: Step Time =    1.000,"PART-1-1",           480,          -15.,         26.25,            0.,NA,NA,"",       9.23001,       9.18251,   935.154E-03,   4.10666E-09
C:/temp/dataset/2/26_4.odb,Step-1,Increment      1: Step Time =    1.000,"PART-1-1",           481,      -12.4965,       26.2309,            0.,NA,NA,"",       9.11771,       9.11066,   358.511E-03,   2.42279E-09
C:/temp/dataset/2/26_4.odb,Step-1,Increment      1: Step Time =    1.000,"PART-1-1",           482,      -10.0014,       23.7134,            0.,NA,NA,"",       8.46438,       8.46307,  -148.897E-03,   4.87078E-09
C:/temp/dataset/2/26_4.odb,Step-1,Increment      1: Step Time =    1.000,"PART-1-1",           483,      -8.75535,       22.4567,            0.,NA,NA,"",       8.14972,       8.13978,  -402.304E-03,   19.6727E-09
C:/temp/dataset/2/26_4.odb,Step-1,Increment      1: Step Time =    1.000,"PART-1-1",           484,      -7.50515,       23.6891,            0.,NA,NA,"",       8.42139,       8.39023,  -723.723E-03,   34.1571E-09
C:/temp/dataset/2/26_4.odb,Step-1,Increment      1: Step Time =    1.000,"PART-1-1",           485,      -8.75118,       24.9458,            0.,NA,NA,"",       8.72621,       8.71352,  -470.316E-03,   26.1345E-09
C:/temp/dataset/2/26_4.odb,Step-1,Increment      1: Step Time =    1.000,"PART-1-1",           486,      -3.77419,       22.4219,            0.,NA,NA,"",       8.14635,       7.99759,      -1.54972,   329.367E-09
C:/temp/dataset/2/26_4.odb,Step-1,Increment      1: Step Time =    1.000,"PART-1-1",           487,      -5.00723,       21.2173,            0.,NA,NA,"",       7.85054,       7.75311,      -1.23301,   87.9963E-09
C:/temp/dataset/2/26_4.odb,Step-1,Increment      1: Step Time =    1.000,"PART-1-1",           488,         -3.75,           20.,            0.,NA,NA,"",       7.58637,       7.43860,      -1.49006,   176.175E-09
C:/temp/dataset/2/26_4.odb,Step-1,Increment      1: Step Time =    1.000,"PART-1-1",           489,      -2.51696,       21.2046,            0.,NA,NA,"",       7.89266,       7.68308,      -1.80677,   322.394E-09
C:/temp/dataset/2/26_4.odb,Step-1,Increment      1: Step Time =    1.000,"PART-1-1",           490,         -8.75,           20.,            0.,NA,NA,"",       7.58079,       7.57328,  -337.362E-03,   6.52182E-09
C:/temp/dataset/2/26_4.odb,Step-1,Increment      1: Step Time =    1.000,"PART-1-1",           491,      -7.50331,       21.2223,            0.,NA,NA,"",       7.84909,       7.82148,  -657.699E-03,   18.6962E-09
C:/temp/dataset/2/26_4.odb,Step-1,Increment      1: Step Time =    1.000,"PART-1-1",           492,         -6.25,           20.,            0.,NA,NA,"",       7.56135,       7.50594,  -913.711E-03,   50.8578E-09
C:/temp/dataset/2/26_4.odb,Step-1,Increment      1: Step Time =    1.000,"PART-1-1",           493,      -6.26054,       22.4396,            0.,NA,NA,"",       8.12759,       8.06865,  -976.998E-03,   86.8198E-09
C:/temp/dataset/2/26_4.odb,Step-1,Increment      1: Step Time =    1.000,"PART-1-1",           494,         -1.25,           20.,            0.,NA,NA,"",       7.65542,       7.37125,      -2.06641,   1.10071E-06
C:/temp/dataset/2/26_4.odb,Step-1,Increment      1: Step Time =    1.000,"PART-1-1",           495,      -1.30453,       22.3853,            0.,NA,NA,"",       8.20088,       7.92263,      -2.11809,   769.312E-09
C:/temp/dataset/2/26_4.odb,Step-1,Increment      1: Step Time =    1.000,"PART-1-1",           496,         -1.25,           30.,            0.,NA,NA,"",       9.95457,       9.67665,      -2.33578,   612.905E-09
C:/temp/dataset/2/26_4.odb,Step-1,Increment      1: Step Time =    1.000,"PART-1-1",           497,      -2.50829,       28.7162,            0.,NA,NA,"",       9.62698,       9.41457,      -2.01111,   275.424E-09
C:/temp/dataset/2/26_4.odb,Step-1,Increment      1: Step Time =    1.000,"PART-1-1",           498,         -3.75,           30.,            0.,NA,NA,"",       9.90156,       9.74399,      -1.75943,   188.677E-09
C:/temp/dataset/2/26_4.odb,Step-1,Increment      1: Step Time =    1.000,"PART-1-1",           499,          3.75,           20.,            0.,NA,NA,"",       7.92025,       7.23655,      -3.21911,   10.5375E-06
C:/temp/dataset/2/26_4.odb,Step-1,Increment      1: Step Time =    1.000,"PART-1-1",           500,       4.75388,       21.0765,            0.,NA,NA,"",       8.22949,       7.45769,      -3.47956,   23.3890E-06
C:/temp/dataset/2/26_4.odb,Step-1,Increment      1: Step Time =    1.000,"PART-1-1",           501,          6.25,           30.,            0.,NA,NA,"",       10.3098,       9.47462,      -4.06481,   1.06115E-06
C:/temp/dataset/2/26_4.odb,Step-1,Increment      1: Step Time =    1.000,"PART-1-1",           502,       6.61296,       27.1492,            0.,NA,NA,"",       9.70325,       8.80764,      -4.07170,   2.54939E-06
C:/temp/dataset/2/26_4.odb,Step-1,Increment      1: Step Time =    1.000,"PART-1-1",           503,            5.,         16.25,            0.,NA,NA,"",       7.19619,       6.33855,      -3.40704,   296.675E-06
C:/temp/dataset/2/26_4.odb,Step-1,Increment      1: Step Time =    1.000,"PART-1-1",           504,       6.03202,       15.2452,            0.,NA,NA,"",       7.07446,       6.07944,      -3.61779,   389.491E-06
C:/temp/dataset/2/26_4.odb,Step-1,Increment      1: Step Time =    1.000,"PART-1-1",           505,       6.91243,       16.6330,            0.,NA,NA,"",       7.45142,       6.37524,      -3.85746,   145.011E-06
C:/temp/dataset/2/26_4.odb,Step-1,Increment      1: Step Time =    1.000,"PART-1-1",           506,            5.,         13.75,            0.,NA,NA,"",       6.66215,       5.76355,      -3.34153,   626.465E-06
C:/temp/dataset/2/26_4.odb,Step-1,Increment      1: Step Time =    1.000,"PART-1-1",           507,       6.17466,       12.7979,            0.,NA,NA,"",       6.57786,       5.51490,      -3.58527,   1.89389E-03
C:/temp/dataset/2/26_4.odb,Step-1,Increment      1: Step Time =    1.000,"PART-1-1",           508,       12.0086,       16.5092,            0.,NA,NA,"",       7.99038,       6.20945,      -5.02880,   58.5767E-06
C:/temp/dataset/2/26_4.odb,Step-1,Increment      1: Step Time =    1.000,"PART-1-1",           509,           15.,        16.875,            0.,NA,NA,"",       8.45111,       6.21297,      -5.72890,   191.195E-06
C:/temp/dataset/2/26_4.odb,Step-1,Increment      1: Step Time =    1.000,"PART-1-1",           510,       13.3591,       18.2744,            0.,NA,NA,"",       8.50455,       6.58007,      -5.38795,   83.8175E-06
C:/temp/dataset/2/26_4.odb,Step-1,Increment      1: Step Time =    1.000,"PART-1-1",           511,            5.,         11.25,            0.,NA,NA,"",       6.14243,       5.19549,      -3.27664,   3.11369E-03
C:/temp/dataset/2/26_4.odb,Step-1,Increment      1: Step Time =    1.000,"PART-1-1",           512,       6.23142,       10.2778,            0.,NA,NA,"",       6.06882,       4.93335,      -3.53449,   4.08983E-03
C:/temp/dataset/2/26_4.odb,Step-1,Increment      1: Step Time =    1.000,"PART-1-1",           513,            5.,          8.75,            0.,NA,NA,"",       5.61928,       4.61376,      -3.20772,   4.63755E-03
C:/temp/dataset/2/26_4.odb,Step-1,Increment      1: Step Time =    1.000,"PART-1-1",           514,       7.47251,       9.25684,            0.,NA,NA,"",       6.00648,       4.65644,      -3.79412,   4.90495E-03
C:/temp/dataset/2/26_4.odb,Step-1,Increment      1: Step Time =    1.000,"PART-1-1",           515,         11.25,           -5.,            0.,NA,NA,"",       4.47548,       1.33110,      -4.27295,   2.14819E-03
C:/temp/dataset/2/26_4.odb,Step-1,Increment      1: Step Time =    1.000,"PART-1-1",           516,       11.2689,      -2.22707,            0.,NA,NA,"",       4.76169,       1.94746,      -4.34524,   3.78508E-03
C:/temp/dataset/2/26_4.odb,Step-1,Increment      1: Step Time =    1.000,"PART-1-1",           517,          10.5,          -30.,            0.,NA,NA,"",            0.,   3.54863E-39,  -2.11788E-39,   3.18933E-03
C:/temp/dataset/2/26_4.odb,Step-1,Increment      1: Step Time =    1.000,"PART-1-1",           518,           15.,        -23.75,            0.,NA,NA,"",   26.6338E-03,   25.0301E-03,  -9.10251E-03,   43.3281E-06
C:/temp/dataset/2/26_4.odb,Step-1,Increment      1: Step Time =    1.000,"PART-1-1",           519,          3.75,           -5.,            0.,NA,NA,"",       3.05439,       1.56248,      -2.62448,   11.2314E-03
C:/temp/dataset/2/26_4.odb,Step-1,Increment      1: Step Time =    1.000,"PART-1-1",           520,       4.97006,      -3.74763,            0.,NA,NA,"",       3.41747,       1.79335,      -2.90912,   7.46932E-03
C:/temp/dataset/2/26_4.odb,Step-1,Increment      1: Step Time =    1.000,"PART-1-1",           521,       4.85412,       3.76356,            0.,NA,NA,"",       4.57300,       3.40903,      -3.04809,   14.0616E-03
C:/temp/dataset/2/26_4.odb,Step-1,Increment      1: Step Time =    1.000,"PART-1-1",           522,       3.33333,            5.,            0.,NA,NA,"",       4.60738,       3.68636,      -2.76382,   23.7868E-03
C:/temp/dataset/2/26_4.odb,Step-1,Increment      1: Step Time =    1.000,"PART-1-1",           523,       1.45296,       3.58740,            0.,NA,NA,"",       4.12473,       3.40486,      -2.32816,   14.8779E-03
C:/temp/dataset/2/26_4.odb,Step-1,Increment      1: Step Time =    1.000,"PART-1-1",           524,       2.97375,       2.35096,            0.,NA,NA,"",       4.07872,       3.13220,      -2.61252,   7.69501E-03
C:/temp/dataset/2/26_4.odb,Step-1,Increment      1: Step Time =    1.000,"PART-1-1",           525,          6.25,           -5.,            0.,NA,NA,"",       3.49111,       1.48061,      -3.16160,   8.69718E-03
C:/temp/dataset/2/26_4.odb,Step-1,Increment      1: Step Time =    1.000,"PART-1-1",           526,       12.4696,       10.4445,            0.,NA,NA,"",       6.90489,       4.79298,      -4.97039,   1.91805E-03
C:/temp/dataset/2/26_4.odb,Step-1,Increment      1: Step Time =    1.000,"PART-1-1",           527,           15.,       11.0417,            0.,NA,NA,"",       7.39567,       4.86371,      -5.57138,   703.430E-06
C:/temp/dataset/2/26_4.odb,Step-1,Increment      1: Step Time =    1.000,"PART-1-1",           528,      -5.01382,       23.6808,            0.,NA,NA,"",       8.42181,       8.32121,      -1.29785,   144.093E-09
C:/temp/dataset/2/26_4.odb,Step-1,Increment      1: Step Time =    1.000,"PART-1-1",           529,      -2.53358,       23.6558,            0.,NA,NA,"",       8.45772,       8.24863,      -1.86897,   390.266E-09
C:/temp/dataset/2/26_4.odb,Step-1,Increment      1: Step Time =    1.000,"PART-1-1",           530,  -74.6816E-03,       23.6075,            0.,NA,NA,"",       8.52624,       8.17128,      -2.43454,   902.406E-09
C:/temp/dataset/2/26_4.odb,Step-1,Increment      1: Step Time =    1.000,"PART-1-1",           531,      -6.62798,      -1.45964,            0.,NA,NA,"",       2.59884,       2.51606,  -650.710E-03,   12.5972E-03
C:/temp/dataset/2/26_4.odb,Step-1,Increment      1: Step Time =    1.000,"PART-1-1",           532,      -4.43070,      -2.38075,            0.,NA,NA,"",       2.53347,       2.31739,      -1.02379,   6.37456E-03
C:/temp/dataset/2/26_4.odb,Step-1,Increment      1: Step Time =    1.000,"PART-1-1",           533,      -3.64554,  -813.143E-03,            0.,NA,NA,"",       2.86821,       2.60068,      -1.20958,   4.68454E-03
C:/temp/dataset/2/26_4.odb,Step-1,Increment      1: Step Time =    1.000,"PART-1-1",           534,         -3.75,           -5.,            0.,NA,NA,"",       2.11874,       1.80537,      -1.10891,   17.8866E-03
C:/temp/dataset/2/26_4.odb,Step-1,Increment      1: Step Time =    1.000,"PART-1-1",           535,      -13.8599,      -9.43096,            0.,NA,NA,"",       1.38765,       1.28820,   515.864E-03,   26.8868E-03
C:/temp/dataset/2/26_4.odb,Step-1,Increment      1: Step Time =    1.000,"PART-1-1",           536,          -15.,      -11.0417,            0.,NA,NA,"",       1.26043,       1.08869,   635.163E-03,   37.5525E-03
C:/temp/dataset/2/26_4.odb,Step-1,Increment      1: Step Time =    1.000,"PART-1-1",           537,      -11.9984,      -19.8095,            0.,NA,NA,"",   233.559E-03,   171.655E-03,   158.381E-03,   21.4683E-03
C:/temp/dataset/2/26_4.odb,Step-1,Increment      1: Step Time =    1.000,"PART-1-1",           538,      -13.3881,      -18.2324,            0.,NA,NA,"",   406.356E-03,   293.697E-03,   280.833E-03,   33.7126E-03
C:/temp/dataset/2/26_4.odb,Step-1,Increment      1: Step Time =    1.000,"PART-1-1",           539,          -15.,      -19.7917,            0.,NA,NA,"",   396.953E-03,   225.059E-03,   326.986E-03,   46.8586E-03
C:/temp/dataset/2/26_4.odb,Step-1,Increment      1: Step Time =    1.000,"PART-1-1",           540,           -5.,        -18.75,            0.,NA,NA,"",   333.305E-03,   219.919E-03,  -250.455E-03,   66.5999E-03
C:/temp/dataset/2/26_4.odb,Step-1,Increment      1: Step Time =    1.000,"PART-1-1",           541,      -5.96138,      -20.0094,            0.,NA,NA,"",   179.944E-03,   103.256E-03,  -147.371E-03,   43.6232E-03
C:/temp/dataset/2/26_4.odb,Step-1,Increment      1: Step Time =    1.000,"PART-1-1",           542,           -5.,        -13.75,            0.,NA,NA,"",   845.136E-03,   689.125E-03,  -489.246E-03,   40.7037E-03
C:/temp/dataset/2/26_4.odb,Step-1,Increment      1: Step Time =    1.000,"PART-1-1",           543,      -7.28958,      -14.3036,            0.,NA,NA,"",   649.044E-03,   609.743E-03,  -222.423E-03,   24.0951E-03
C:/temp/dataset/2/26_4.odb,Step-1,Increment      1: Step Time =    1.000,"PART-1-1",           544,      -8.88285,      -11.0213,            0.,NA,NA,"",       1.00943,       1.00307,  -113.112E-03,   10.6900E-03
C:/temp/dataset/2/26_4.odb,Step-1,Increment      1: Step Time =    1.000,"PART-1-1",           545,      -9.01222,      -8.51542,            0.,NA,NA,"",       1.36060,       1.35375,  -136.341E-03,   9.02434E-03
C:/temp/dataset/2/26_4.odb,Step-1,Increment      1: Step Time =    1.000,"PART-1-1",           546,      -9.13424,  -715.290E-03,            0.,NA,NA,"",       2.69232,       2.68114,  -245.029E-03,   13.4807E-03
C:/temp/dataset/2/26_4.odb,Step-1,Increment      1: Step Time =    1.000,"PART-1-1",           547,      -9.92186,      -2.42350,            0.,NA,NA,"",       2.37919,       2.37758,  -87.5246E-03,   14.2977E-03
C:/temp/dataset/2/26_4.odb,Step-1,Increment      1: Step Time =    1.000,"PART-1-1",           548,      -12.7176,      -7.95930,            0.,NA,NA,"",       1.53184,       1.48632,   370.680E-03,   18.4651E-03
C:/temp/dataset/2/26_4.odb,Step-1,Increment      1: Step Time =    1.000,"PART-1-1",           549,          -15.,        -8.125,            0.,NA,NA,"",       1.66289,       1.50987,   696.774E-03,   31.6576E-03
C:/temp/dataset/2/26_4.odb,Step-1,Increment      1: Step Time =    1.000,"PART-1-1",           550,       11.2818,   528.104E-03,            0.,NA,NA,"",       5.10387,       2.55452,      -4.41859,   4.26638E-03
C:/temp/dataset/2/26_4.odb,Step-1,Increment      1: Step Time =    1.000,"PART-1-1",           551,       10.0167,  -924.457E-03,            0.,NA,NA,"",       4.67993,       2.26669,      -4.09437,   4.54076E-03
C:/temp/dataset/2/26_4.odb,Step-1,Increment      1: Step Time =    1.000,"PART-1-1",           552,       10.4320,       23.7699,            0.,NA,NA,"",       9.29770,       7.92574,      -4.86107,   21.4501E-06
C:/temp/dataset/2/26_4.odb,Step-1,Increment      1: Step Time =    1.000,"PART-1-1",           553,           15.,        25.625,            0.,NA,NA,"",       10.1641,       8.23037,      -5.96412,   3.00915E-06
C:/temp/dataset/2/26_4.odb,Step-1,Increment      1: Step Time =    1.000,"PART-1-1",           554,      -9.99539,       26.2124,            0.,NA,NA,"",       9.04166,       9.03904,  -217.594E-03,   5.24893E-09
C:/temp/dataset/2/26_4.odb,Step-1,Increment      1: Step Time =    1.000,"PART-1-1",           555,          -15.,       -25.625,            0.,NA,NA,"",   117.721E-03,   37.7415E-03,   111.507E-03,   34.3728E-03
C:/temp/dataset/2/26_4.odb,Step-1,Increment      1: Step Time =    1.000,"PART-1-1",           556,      -12.2044,      -25.8339,            0.,NA,NA,"",   59.4515E-03,   2.61307E-03,   59.3941E-03,   19.7885E-03
C:/temp/dataset/2/26_4.odb,Step-1,Increment      1: Step Time =    1.000,"PART-1-1",           557,          -15.,       -16.875,            0.,NA,NA,"",   622.577E-03,   434.897E-03,   445.496E-03,   46.8476E-03
C:/temp/dataset/2/26_4.odb,Step-1,Increment      1: Step Time =    1.000,"PART-1-1",           558,      -8.25880,      -15.9015,            0.,NA,NA,"",   452.775E-03,   442.467E-03,  -96.0621E-03,   16.8174E-03
C:/temp/dataset/2/26_4.odb,Step-1,Increment      1: Step Time =    1.000,"PART-1-1",           559,       7.56555,       17.9230,            0.,NA,NA,"",       7.78663,       6.65497,      -4.04265,   110.379E-06
C:/temp/dataset/2/26_4.odb,Step-1,Increment      1: Step Time =    1.000,"PART-1-1",           560,      -9.72707,       2.21069,            0.,NA,NA,"",       3.23088,       3.22460,  -201.323E-03,   10.4771E-03
C:/temp/dataset/2/26_4.odb,Step-1,Increment      1: Step Time =    1.000,"PART-1-1",           561,      -8.18006,       3.69884,            0.,NA,NA,"",       3.51504,       3.48003,  -494.874E-03,   10.7880E-03
C:/temp/dataset/2/26_4.odb,Step-1,Increment      1: Step Time =    1.000,"PART-1-1",           562,          -10.,            5.,            0.,NA,NA,"",       3.72622,       3.72051,  -206.252E-03,   7.19481E-03
C:/temp/dataset/2/26_4.odb,Step-1,Increment      1: Step Time =    1.000,"PART-1-1",           563,      -10.3433,      -7.69771,            0.,NA,NA,"",       1.49123,       1.49074,   38.1393E-03,   9.93595E-03
C:/temp/dataset/2/26_4.odb,Step-1,Increment      1: Step Time =    1.000,"PART-1-1",           564,      -11.5611,      -6.59494,            0.,NA,NA,"",       1.69482,       1.68242,   204.589E-03,   13.3977E-03
C:/temp/dataset/2/26_4.odb,Step-1,Increment      1: Step Time =    1.000,"PART-1-1",           565,      -9.40089,      -20.7816,            0.,NA,NA,"",   98.1252E-03,   97.4858E-03,   11.1832E-03,   8.27332E-03
C:/temp/dataset/2/26_4.odb,Step-1,Increment      1: Step Time =    1.000,"PART-1-1",           566,      -8.21757,      -22.2064,            0.,NA,NA,"",   58.8939E-03,   45.5564E-03,  -37.3243E-03,   11.9532E-03
C:/temp/dataset/2/26_4.odb,Step-1,Increment      1: Step Time =    1.000,"PART-1-1",           567,      -6.89894,      -21.2078,            0.,NA,NA,"",   117.912E-03,   70.0962E-03,  -94.8149E-03,   19.8981E-03
C:/temp/dataset/2/26_4.odb,Step-1,Increment      1: Step Time =    1.000,"PART-1-1",           568,      -9.14285,      -28.6800,            0.,NA,NA,"",   11.8937E-03,  -11.8006E-03,   1.48585E-03,   6.88614E-03
C:/temp/dataset/2/26_4.odb,Step-1,Increment      1: Step Time =    1.000,"PART-1-1",           569,      -10.7232,      -27.3047,            0.,NA,NA,"",   22.5326E-03,  -12.7564E-03,   18.5740E-03,   10.4647E-03
C:/temp/dataset/2/26_4.odb,Step-1,Increment      1: Step Time =    1.000,"PART-1-1",           570,         -10.5,          -30.,            0.,NA,NA,"",            0.,  -10.6312E-39,   16.1024E-39,   10.2264E-03
C:/temp/dataset/2/26_4.odb,Step-1,Increment      1: Step Time =    1.000,"PART-1-1",           571,      -4.89633,      -27.4366,            0.,NA,NA,"",   22.0365E-03,   6.46347E-03,  -21.0673E-03,   11.8017E-03
C:/temp/dataset/2/26_4.odb,Step-1,Increment      1: Step Time =    1.000,"PART-1-1",           572,      -6.18287,      -28.7136,            0.,NA,NA,"",   8.10721E-03,  -3.30605E-03,  -7.40249E-03,   8.69150E-03
C:/temp/dataset/2/26_4.odb,Step-1,Increment      1: Step Time =    1.000,"PART-1-1",           573,          -4.5,          -30.,            0.,NA,NA,"",            0.,   1.25080E-39,  -16.0018E-39,   7.09942E-03
C:/temp/dataset/2/26_4.odb,Step-1,Increment      1: Step Time =    1.000,"PART-1-1",           574,       12.5384,       2.02620,            0.,NA,NA,"",       5.53839,       2.85680,      -4.74474,   3.21173E-03
C:/temp/dataset/2/26_4.odb,Step-1,Increment      1: Step Time =    1.000,"PART-1-1",           575,           15.,       2.29167,            0.,NA,NA,"",       6.02935,       2.85704,      -5.30946,   4.71407E-03
C:/temp/dataset/2/26_4.odb,Step-1,Increment      1: Step Time =    1.000,"PART-1-1",           576,       9.96595,       9.83263,            0.,NA,NA,"",       6.43844,       4.71915,      -4.37986,   3.32841E-03
C:/temp/dataset/2/26_4.odb,Step-1,Increment      1: Step Time =    1.000,"PART-1-1",           577,           15.,       19.7917,            0.,NA,NA,"",       9.00748,       6.88562,      -5.80714,   82.0969E-06
C:/temp/dataset/2/26_4.odb,Step-1,Increment      1: Step Time =    1.000,"PART-1-1",           578,       7.90800,       20.1372,            0.,NA,NA,"",       8.28819,       7.15618,      -4.18128,   62.4670E-06
C:/temp/dataset/2/26_4.odb,Step-1,Increment      1: Step Time =    1.000,"PART-1-1",           579,       8.41916,       21.3934,            0.,NA,NA,"",       8.60291,       7.43205,      -4.33298,   47.2050E-06
C:/temp/dataset/2/26_4.odb,Step-1,Increment      1: Step Time =    1.000,"PART-1-1",           580,       6.50486,       21.1025,            0.,NA,NA,"",       8.37193,       7.41650,      -3.88390,   53.4641E-06
C:/temp/dataset/2/26_4.odb,Step-1,Increment      1: Step Time =    1.000,"PART-1-1",           581,           4.5,          -30.,            0.,NA,NA,"",            0.,   6.45173E-39,  -4.69759E-39,   6.01502E-03
C:/temp/dataset/2/26_4.odb,Step-1,Increment      1: Step Time =    1.000,"PART-1-1",           582,       3.62857,      -22.4261,            0.,NA,NA,"",   37.7085E-03,   37.6367E-03,  -2.32590E-03,   3.22158E-03
C:/temp/dataset/2/26_4.odb,Step-1,Increment      1: Step Time =    1.000,"PART-1-1",           583,       2.16864,      -23.6665,            0.,NA,NA,"",   40.8163E-03,   40.0353E-03,  -7.94637E-03,   5.34050E-03
C:/temp/dataset/2/26_4.odb,Step-1,Increment      1: Step Time =    1.000,"PART-1-1",           584,      -2.73954,      -22.4743,            0.,NA,NA,"",   89.7657E-03,   64.7883E-03,  -62.1318E-03,   17.7127E-03
C:/temp/dataset/2/26_4.odb,Step-1,Increment      1: Step Time =    1.000,"PART-1-1",           585,  -999.676E-03,      -23.6839,            0.,NA,NA,"",   58.0471E-03,   49.5241E-03,  -30.2792E-03,   12.1645E-03
C:/temp/dataset/2/26_4.odb,Step-1,Increment      1: Step Time =    1.000,"PART-1-1",           586,      -7.82572,      -27.3936,            0.,NA,NA,"",   13.9196E-03,  -10.0310E-03,  -9.65056E-03,   6.84662E-03
C:/temp/dataset/2/26_4.odb,Step-1,Increment      1: Step Time =    1.000,"PART-1-1",           587,      -6.52069,      -26.1528,            0.,NA,NA,"",   29.9016E-03,   2.98306E-03,  -29.7524E-03,   13.4369E-03
C:/temp/dataset/2/26_4.odb,Step-1,Increment      1: Step Time =    1.000,"PART-1-1",           588,      -8.08310,      -24.7829,            0.,NA,NA,"",   22.9608E-03,   4.72654E-03,  -22.4690E-03,   9.23217E-03
C:/temp/dataset/2/26_4.odb,Step-1,Increment      1: Step Time =    1.000,"PART-1-1",           589,      -9.38814,      -26.0237,            0.,NA,NA,"",   10.4314E-03,  -9.10795E-03,   5.08519E-03,   7.37084E-03
C:/temp/dataset/2/26_4.odb,Step-1,Increment      1: Step Time =    1.000,"PART-1-1",           590,          -7.5,          -30.,            0.,NA,NA,"",            0.,  -6.89621E-39,  -5.88356E-39,   6.06517E-03
C:/temp/dataset/2/26_4.odb,Step-1,Increment      1: Step Time =    1.000,"PART-1-1",           591,       7.73182,       24.8866,            0.,NA,NA,"",       9.29414,       8.25587,      -4.26867,   9.25390E-06
C:/temp/dataset/2/26_4.odb,Step-1,Increment      1: Step Time =    1.000,"PART-1-1",           592,       8.21760,       26.2797,            0.,NA,NA,"",       9.63649,       8.56396,      -4.41819,   6.43475E-06
C:/temp/dataset/2/26_4.odb,Step-1,Increment      1: Step Time =    1.000,"PART-1-1",           593,       6.12718,       25.7561,            0.,NA,NA,"",       9.36086,       8.49955,      -3.92218,   5.49029E-06
C:/temp/dataset/2/26_4.odb,Step-1,Increment      1: Step Time =    1.000,"PART-1-1",           594,       5.38844,       22.1508,            0.,NA,NA,"",       8.51274,       7.68826,      -3.65477,   16.8862E-06
C:/temp/dataset/2/26_4.odb,Step-1,Increment      1: Step Time =    1.000,"PART-1-1",           595,      -3.37677,   775.412E-03,            0.,NA,NA,"",       3.17711,       2.90015,      -1.29736,   7.85201E-03
C:/temp/dataset/2/26_4.odb,Step-1,Increment      1: Step Time =    1.000,"PART-1-1",           596,      -3.41233,       2.84116,            0.,NA,NA,"",       3.55594,       3.29391,      -1.33974,   12.3157E-03
C:/temp/dataset/2/26_4.odb,Step-1,Increment      1: Step Time =    1.000,"PART-1-1",           597,      -11.2482,       24.9673,            0.,NA,NA,"",       8.78636,       8.78574,   104.773E-03,   3.13544E-09
C:/temp/dataset/2/26_4.odb,Step-1,Increment      1: Step Time =    1.000,"PART-1-1",           598,       5.16292,       24.1270,            0.,NA,NA,"",       8.93241,       8.14994,      -3.65601,   6.23283E-06
C:/temp/dataset/2/26_4.odb,Step-1,Increment      1: Step Time =    1.000,"PART-1-1",           599,            0.,            5.,            0.,NA,NA,"",       4.23510,       3.69427,      -2.07086,   19.7676E-03
C:/temp/dataset/2/26_4.odb,Step-1,Increment      1: Step Time =    1.000,"PART-1-1",           600,      -1.80204,       3.95011,            0.,NA,NA,"",       3.87909,       3.49626,      -1.68034,   16.4214E-03
C:/temp/dataset/2/26_4.odb,Step-1,Increment      1: Step Time =    1.000,"PART-1-1",           601,       9.59799,       22.9228,            0.,NA,NA,"",       9.03840,       7.75292,      -4.64596,   26.8450E-06
C:/temp/dataset/2/26_4.odb,Step-1,Increment      1: Step Time =    1.000,"PART-1-1",           602,       8.30932,       22.9391,            0.,NA,NA,"",       8.92311,       7.79136,      -4.34933,   24.0630E-06
C:/temp/dataset/2/26_4.odb,Step-1,Increment      1: Step Time =    1.000,"PART-1-1",           603,      -1.93269,      -1.01257,            0.,NA,NA,"",       2.96263,       2.53195,      -1.53833,   1.57555E-03
C:/temp/dataset/2/26_4.odb,Step-1,Increment      1: Step Time =    1.000,"PART-1-1",           604,      -8.69440,      -13.5596,            0.,NA,NA,"",   696.503E-03,   690.144E-03,  -93.9053E-03,   12.5930E-03
C:/temp/dataset/2/26_4.odb,Step-1,Increment      1: Step Time =    1.000,"PART-1-1",           605,       6.07991,       2.65614,            0.,NA,NA,"",       4.55259,       3.14168,      -3.29483,   7.10628E-03
C:/temp/dataset/2/26_4.odb,Step-1,Increment      1: Step Time =    1.000,"PART-1-1",           606,       4.75906,       1.28045,            0.,NA,NA,"",       4.13162,       2.87117,      -2.97097,   4.23918E-03
C:/temp/dataset/2/26_4.odb,Step-1,Increment      1: Step Time =    1.000,"PART-1-1",           607,       10.0234,       4.43547,            0.,NA,NA,"",       5.47419,       3.46014,      -4.24196,   3.90599E-03
C:/temp/dataset/2/26_4.odb,Step-1,Increment      1: Step Time =    1.000,"PART-1-1",           608,       7.46673,       4.06304,            0.,NA,NA,"",       5.00794,       3.42964,      -3.64924,   7.23471E-03
C:/temp/dataset/2/26_4.odb,Step-1,Increment      1: Step Time =    1.000,"PART-1-1",           609,  -317.165E-03,  -486.862E-03,            0.,NA,NA,"",       3.20726,       2.60546,      -1.87032,   1.62611E-03
C:/temp/dataset/2/26_4.odb,Step-1,Increment      1: Step Time =    1.000,"PART-1-1",           610,       1.72730,   921.331E-03,            0.,NA,NA,"",       3.67712,       2.85416,      -2.31839,   5.49249E-03
C:/temp/dataset/2/26_4.odb,Step-1,Increment      1: Step Time =    1.000,"PART-1-1",           611,      -4.63664,      -21.2535,            0.,NA,NA,"",   147.229E-03,   83.5808E-03,  -121.206E-03,   39.9217E-03
C:/temp/dataset/2/26_4.odb,Step-1,Increment      1: Step Time =    1.000,"PART-1-1",           612,       11.2827,       3.26092,            0.,NA,NA,"",       5.49630,       3.16399,      -4.49427,   3.70911E-03
C:/temp/dataset/2/26_4.odb,Step-1,Increment      1: Step Time =    1.000,"PART-1-1",           613,      -11.4502,      -4.36864,            0.,NA,NA,"",       2.06204,       2.05466,   174.308E-03,   13.9843E-03
C:/temp/dataset/2/26_4.odb,Step-1,Increment      1: Step Time =    1.000,"PART-1-1",           614,      -10.8693,      -24.5529,            0.,NA,NA,"",   45.5214E-03,   8.26351E-03,   44.7651E-03,   13.4183E-03
C:/temp/dataset/2/26_4.odb,Step-1,Increment      1: Step Time =    1.000,"PART-1-1",           615,      -9.52531,      -23.3517,            0.,NA,NA,"",   25.4082E-03,   23.1416E-03,   10.4901E-03,   9.79671E-03
C:/temp/dataset/2/26_4.odb,Step-1,Increment      1: Step Time =    1.000,"PART-1-1",           616,      -10.8903,      -21.7518,            0.,NA,NA,"",   103.663E-03,   72.8275E-03,   73.7707E-03,   15.6668E-03
C:/temp/dataset/2/26_4.odb,Step-1,Increment      1: Step Time =    1.000,"PART-1-1",           617,       3.33333,          -20.,            0.,NA,NA,"",   35.1388E-03,   35.1210E-03,  -1.11769E-03,   1.02814E-03
C:/temp/dataset/2/26_4.odb,Step-1,Increment      1: Step Time =    1.000,"PART-1-1",           618,       1.83446,      -21.2108,            0.,NA,NA,"",   40.7025E-03,   40.0769E-03,  -7.10894E-03,   2.91435E-03
C:/temp/dataset/2/26_4.odb,Step-1,Increment      1: Step Time =    1.000,"PART-1-1",           619,       5.12744,      -21.2153,            0.,NA,NA,"",   34.7986E-03,   34.7771E-03,   1.22187E-03,   1.36318E-03
C:/temp/dataset/2/26_4.odb,Step-1,Increment      1: Step Time =    1.000,"PART-1-1",           620,            0.,          -20.,            0.,NA,NA,"",   40.8210E-03,   37.3916E-03,  -16.3775E-03,   3.94899E-03
C:/temp/dataset/2/26_4.odb,Step-1,Increment      1: Step Time =    1.000,"PART-1-1",           621,      -1.43624,      -21.2208,            0.,NA,NA,"",   67.4613E-03,   55.5873E-03,  -38.2241E-03,   9.25101E-03
C:/temp/dataset/2/26_4.odb,Step-1,Increment      1: Step Time =    1.000,"PART-1-1",           622,   398.228E-03,      -22.4316,            0.,NA,NA,"",   50.8642E-03,   47.3976E-03,  -18.4562E-03,   7.67411E-03
C:/temp/dataset/2/26_4.odb,Step-1,Increment      1: Step Time =    1.000,"PART-1-1",           623,   770.736E-03,      -24.9188,            0.,NA,NA,"",   41.9412E-03,   39.3048E-03,  -14.6354E-03,   8.41713E-03
C:/temp/dataset/2/26_4.odb,Step-1,Increment      1: Step Time =    1.000,"PART-1-1",           624,      -3.33333,          -20.,            0.,NA,NA,"",   87.7595E-03,   58.9676E-03,  -64.9966E-03,   24.5976E-03
C:/temp/dataset/2/26_4.odb,Step-1,Increment      1: Step Time =    1.000,"PART-1-1",           625,       8.69606,       24.2205,            0.,NA,NA,"",       9.23229,       8.07635,      -4.47301,   16.2564E-06
C:/temp/dataset/2/26_4.odb,Step-1,Increment      1: Step Time =    1.000,"PART-1-1",           626,      -3.33333,            5.,            0.,NA,NA,"",       3.96031,       3.70097,      -1.40957,   19.2524E-03
C:/temp/dataset/2/26_4.odb,Step-1,Increment      1: Step Time =    1.000,"PART-1-1",           627,      -4.94363,       3.89105,            0.,NA,NA,"",       3.66096,       3.49877,      -1.07759,   15.0600E-03
C:/temp/dataset/2/26_4.odb,Step-1,Increment      1: Step Time =    1.000,"PART-1-1",           628,      -6.66667,            5.,            0.,NA,NA,"",       3.78692,       3.70366,  -789.737E-03,   15.1880E-03
C:/temp/dataset/2/26_4.odb,Step-1,Increment      1: Step Time =    1.000,"PART-1-1",           629,           10.,          -20.,            0.,NA,NA,"",   33.0939E-03,   33.0905E-03,   478.984E-06,   41.9496E-06
C:/temp/dataset/2/26_4.odb,Step-1,Increment      1: Step Time =    1.000,"PART-1-1",           630,       8.42239,      -21.2201,            0.,NA,NA,"",   32.0352E-03,   31.9818E-03,   1.84960E-03,   628.682E-06
C:/temp/dataset/2/26_4.odb,Step-1,Increment      1: Step Time =    1.000,"PART-1-1",           631,       6.66667,          -20.,            0.,NA,NA,"",   33.4103E-03,   33.3060E-03,   2.63811E-03,   408.169E-06
C:/temp/dataset/2/26_4.odb,Step-1,Increment      1: Step Time =    1.000,"PART-1-1",           632,       9.53008,       25.0675,            0.,NA,NA,"",       9.48825,       8.24916,      -4.68811,   9.62189E-06
