ODB Name,Step,Frame,Part Instance Name,    êﬂì_ÉâÉxÉã,X,Y,Z,Section Name,Material Name,Section Point,   U-Magnitude,          U-U1,          U-U2,       S-Mises
C:/temp/dataset/2/27_5.odb,Step-1,Increment      1: Step Time =    1.000,"PART-1-1",             1,          -15.,           20.,            0.,NA,NA,"",       4.12838,       4.11068,   381.825E-03,   58.7593E-12
C:/temp/dataset/2/27_5.odb,Step-1,Increment      1: Step Time =    1.000,"PART-1-1",             2,          -15.,           25.,            0.,NA,NA,"",       4.77734,       4.76531,   338.786E-03,   56.0448E-12
C:/temp/dataset/2/27_5.odb,Step-1,Increment      1: Step Time =    1.000,"PART-1-1",             3,          -10.,           20.,            0.,NA,NA,"",       4.07678,       4.06764,  -272.803E-03,   103.456E-12
C:/temp/dataset/2/27_5.odb,Step-1,Increment      1: Step Time =    1.000,"PART-1-1",             4,           -5.,           20.,            0.,NA,NA,"",       4.13008,       4.02460,  -927.431E-03,   1.13569E-09
C:/temp/dataset/2/27_5.odb,Step-1,Increment      1: Step Time =    1.000,"PART-1-1",             5,            0.,           20.,            0.,NA,NA,"",       4.28436,       3.98156,      -1.58206,   23.0877E-09
C:/temp/dataset/2/27_5.odb,Step-1,Increment      1: Step Time =    1.000,"PART-1-1",             6,            5.,           20.,            0.,NA,NA,"",       4.52932,       3.93852,      -2.23669,   628.517E-09
C:/temp/dataset/2/27_5.odb,Step-1,Increment      1: Step Time =    1.000,"PART-1-1",             7,            5.,          12.5,            0.,NA,NA,"",       3.66868,       2.95655,      -2.17210,   19.3271E-06
C:/temp/dataset/2/27_5.odb,Step-1,Increment      1: Step Time =    1.000,"PART-1-1",             8,            5.,            5.,            0.,NA,NA,"",       2.88877,       1.97334,      -2.10972,   2.53626E-03
C:/temp/dataset/2/27_5.odb,Step-1,Increment      1: Step Time =    1.000,"PART-1-1",             9,           -5.,            5.,            0.,NA,NA,"",       2.15213,       2.00734,  -776.038E-03,   13.8348E-03
C:/temp/dataset/2/27_5.odb,Step-1,Increment      1: Step Time =    1.000,"PART-1-1",            10,          -15.,            5.,            0.,NA,NA,"",       2.04516,       2.00932,   381.185E-03,   706.727E-06
C:/temp/dataset/2/27_5.odb,Step-1,Increment      1: Step Time =    1.000,"PART-1-1",            11,          -15.,         -3.75,            0.,NA,NA,"",       1.08577,       1.01591,   383.175E-03,   18.4099E-03
C:/temp/dataset/2/27_5.odb,Step-1,Increment      1: Step Time =    1.000,"PART-1-1",            12,          -15.,         -12.5,            0.,NA,NA,"",   376.949E-03,   298.701E-03,   229.931E-03,   24.0766E-03
C:/temp/dataset/2/27_5.odb,Step-1,Increment      1: Step Time =    1.000,"PART-1-1",            13,          -15.,        -21.25,            0.,NA,NA,"",   66.3308E-03,   5.77990E-03,   66.0785E-03,   16.5652E-03
C:/temp/dataset/2/27_5.odb,Step-1,Increment      1: Step Time =    1.000,"PART-1-1",            14,          -15.,          -30.,            0.,NA,NA,"",            0.,  -799.997E-42,  -474.662E-42,   2.31375E-03
C:/temp/dataset/2/27_5.odb,Step-1,Increment      1: Step Time =    1.000,"PART-1-1",            15,           15.,          -30.,            0.,NA,NA,"",            0.,   310.664E-42,  -500.704E-42,   843.920E-06
C:/temp/dataset/2/27_5.odb,Step-1,Increment      1: Step Time =    1.000,"PART-1-1",            16,           15.,          -25.,            0.,NA,NA,"",   3.64341E-03,   3.49872E-03,  -1.01656E-03,   70.8241E-06
C:/temp/dataset/2/27_5.odb,Step-1,Increment      1: Step Time =    1.000,"PART-1-1",            17,           15.,          -20.,            0.,NA,NA,"",   5.21331E-03,   5.15065E-03,  -805.905E-06,   12.9157E-06
C:/temp/dataset/2/27_5.odb,Step-1,Increment      1: Step Time =    1.000,"PART-1-1",            18,            5.,          -20.,            0.,NA,NA,"",   3.20154E-03,   3.19710E-03,   168.658E-06,   660.951E-06
C:/temp/dataset/2/27_5.odb,Step-1,Increment      1: Step Time =    1.000,"PART-1-1",            19,           -5.,          -20.,            0.,NA,NA,"",   96.1943E-03,   7.40760E-03,  -95.9087E-03,   34.7691E-03
C:/temp/dataset/2/27_5.odb,Step-1,Increment      1: Step Time =    1.000,"PART-1-1",            20,           -5.,         -12.5,            0.,NA,NA,"",   451.233E-03,   301.855E-03,  -335.402E-03,   32.7291E-03
C:/temp/dataset/2/27_5.odb,Step-1,Increment      1: Step Time =    1.000,"PART-1-1",            21,           -5.,           -5.,            0.,NA,NA,"",       1.00008,   798.161E-03,  -602.569E-03,   43.7047E-03
C:/temp/dataset/2/27_5.odb,Step-1,Increment      1: Step Time =    1.000,"PART-1-1",            22,            0.,           -5.,            0.,NA,NA,"",       1.51128,   704.572E-03,      -1.33700,   2.35605E-03
C:/temp/dataset/2/27_5.odb,Step-1,Increment      1: Step Time =    1.000,"PART-1-1",            23,            5.,           -5.,            0.,NA,NA,"",       2.11830,   658.447E-03,      -2.01337,   777.742E-06
C:/temp/dataset/2/27_5.odb,Step-1,Increment      1: Step Time =    1.000,"PART-1-1",            24,           10.,           -5.,            0.,NA,NA,"",       2.74516,   617.464E-03,      -2.67482,   363.919E-06
C:/temp/dataset/2/27_5.odb,Step-1,Increment      1: Step Time =    1.000,"PART-1-1",            25,           15.,           -5.,            0.,NA,NA,"",       3.38151,   574.567E-03,      -3.33234,   20.0321E-06
C:/temp/dataset/2/27_5.odb,Step-1,Increment      1: Step Time =    1.000,"PART-1-1",            26,           15.,          3.75,            0.,NA,NA,"",       3.81858,       1.72490,      -3.40679,   281.014E-06
C:/temp/dataset/2/27_5.odb,Step-1,Increment      1: Step Time =    1.000,"PART-1-1",            27,           15.,          12.5,            0.,NA,NA,"",       4.51220,       2.87053,      -3.48137,   5.36477E-06
C:/temp/dataset/2/27_5.odb,Step-1,Increment      1: Step Time =    1.000,"PART-1-1",            28,           15.,         21.25,            0.,NA,NA,"",       5.36463,       4.01610,      -3.55670,   365.865E-09
C:/temp/dataset/2/27_5.odb,Step-1,Increment      1: Step Time =    1.000,"PART-1-1",            29,           15.,           30.,            0.,NA,NA,"",       6.31148,       5.16170,      -3.63202,   2.18303E-09
C:/temp/dataset/2/27_5.odb,Step-1,Increment      1: Step Time =    1.000,"PART-1-1",            30,           7.5,           30.,            0.,NA,NA,"",       5.85976,       5.22626,      -2.65008,   11.1710E-09
C:/temp/dataset/2/27_5.odb,Step-1,Increment      1: Step Time =    1.000,"PART-1-1",            31,            0.,           30.,            0.,NA,NA,"",       5.54756,       5.29082,      -1.66814,   9.37965E-09
C:/temp/dataset/2/27_5.odb,Step-1,Increment      1: Step Time =    1.000,"PART-1-1",            32,          -7.5,           30.,            0.,NA,NA,"",       5.39916,       5.35538,  -686.195E-03,   86.7807E-12
C:/temp/dataset/2/27_5.odb,Step-1,Increment      1: Step Time =    1.000,"PART-1-1",            33,          -15.,           30.,            0.,NA,NA,"",       5.42800,       5.41994,   295.747E-03,   58.3860E-12
C:/temp/dataset/2/27_5.odb,Step-1,Increment      1: Step Time =    1.000,"PART-1-1",            34,          -15.,          22.5,            0.,NA,NA,"",       4.45260,       4.43799,   360.306E-03,   63.9684E-12
C:/temp/dataset/2/27_5.odb,Step-1,Increment      1: Step Time =    1.000,"PART-1-1",            35,         -12.5,           20.,            0.,NA,NA,"",       4.08952,       4.08916,   54.5114E-03,   63.1967E-12
C:/temp/dataset/2/27_5.odb,Step-1,Increment      1: Step Time =    1.000,"PART-1-1",            36,          -7.5,           20.,            0.,NA,NA,"",       4.09038,       4.04612,  -600.117E-03,   235.051E-12
C:/temp/dataset/2/27_5.odb,Step-1,Increment      1: Step Time =    1.000,"PART-1-1",            37,          -2.5,           20.,            0.,NA,NA,"",       4.19512,       4.00308,      -1.25475,   3.88427E-09
C:/temp/dataset/2/27_5.odb,Step-1,Increment      1: Step Time =    1.000,"PART-1-1",            38,           2.5,           20.,            0.,NA,NA,"",       4.39632,       3.96004,      -1.90937,   102.482E-09
C:/temp/dataset/2/27_5.odb,Step-1,Increment      1: Step Time =    1.000,"PART-1-1",            39,            5.,           15.,            0.,NA,NA,"",       3.94917,       3.28389,      -2.19364,   7.00797E-06
C:/temp/dataset/2/27_5.odb,Step-1,Increment      1: Step Time =    1.000,"PART-1-1",            40,            5.,          17.5,            0.,NA,NA,"",       4.23648,       3.61121,      -2.21516,   2.23631E-06
C:/temp/dataset/2/27_5.odb,Step-1,Increment      1: Step Time =    1.000,"PART-1-1",            41,            5.,           7.5,            0.,NA,NA,"",       3.13515,       2.30147,      -2.12895,   363.298E-06
C:/temp/dataset/2/27_5.odb,Step-1,Increment      1: Step Time =    1.000,"PART-1-1",            42,            5.,           10.,            0.,NA,NA,"",       3.39668,       2.62913,      -2.15061,   70.6645E-06
C:/temp/dataset/2/27_5.odb,Step-1,Increment      1: Step Time =    1.000,"PART-1-1",            43,      -1.66667,            5.,            0.,NA,NA,"",       2.35300,       2.01034,      -1.22275,   9.77202E-03
C:/temp/dataset/2/27_5.odb,Step-1,Increment      1: Step Time =    1.000,"PART-1-1",            44,       1.66667,            5.,            0.,NA,NA,"",       2.60562,       1.99745,      -1.67316,   6.07967E-03
C:/temp/dataset/2/27_5.odb,Step-1,Increment      1: Step Time =    1.000,"PART-1-1",            45,      -11.6667,            5.,            0.,NA,NA,"",       1.99069,       1.99066,   9.96940E-03,   3.25337E-03
C:/temp/dataset/2/27_5.odb,Step-1,Increment      1: Step Time =    1.000,"PART-1-1",            46,      -8.33333,            5.,            0.,NA,NA,"",       2.02447,       1.99157,  -363.476E-03,   11.3378E-03
C:/temp/dataset/2/27_5.odb,Step-1,Increment      1: Step Time =    1.000,"PART-1-1",            47,          -15.,  -833.333E-03,            0.,NA,NA,"",       1.39863,       1.33947,   402.460E-03,   10.5687E-03
C:/temp/dataset/2/27_5.odb,Step-1,Increment      1: Step Time =    1.000,"PART-1-1",            48,          -15.,       2.08333,            0.,NA,NA,"",       1.72400,       1.67720,   398.954E-03,   2.60513E-03
C:/temp/dataset/2/27_5.odb,Step-1,Increment      1: Step Time =    1.000,"PART-1-1",            49,          -15.,      -9.58333,            0.,NA,NA,"",   566.924E-03,   488.542E-03,   287.627E-03,   24.5668E-03
C:/temp/dataset/2/27_5.odb,Step-1,Increment      1: Step Time =    1.000,"PART-1-1",            50,          -15.,      -6.66667,            0.,NA,NA,"",   803.979E-03,   727.932E-03,   341.316E-03,   23.3063E-03
C:/temp/dataset/2/27_5.odb,Step-1,Increment      1: Step Time =    1.000,"PART-1-1",            51,          -15.,      -18.3333,            0.,NA,NA,"",   129.971E-03,   59.6034E-03,   115.498E-03,   20.6888E-03
C:/temp/dataset/2/27_5.odb,Step-1,Increment      1: Step Time =    1.000,"PART-1-1",            52,          -15.,      -15.4167,            0.,NA,NA,"",   232.047E-03,   156.189E-03,   171.613E-03,   23.1268E-03
C:/temp/dataset/2/27_5.odb,Step-1,Increment      1: Step Time =    1.000,"PART-1-1",            53,          -15.,      -27.0833,            0.,NA,NA,"",   13.6843E-03,  -12.1019E-03,   6.38797E-03,   6.12342E-03
C:/temp/dataset/2/27_5.odb,Step-1,Increment      1: Step Time =    1.000,"PART-1-1",            54,          -15.,      -24.1667,            0.,NA,NA,"",   32.7874E-03,  -14.0991E-03,   29.6012E-03,   11.3737E-03
C:/temp/dataset/2/27_5.odb,Step-1,Increment      1: Step Time =    1.000,"PART-1-1",            55,           12.,          -30.,            0.,NA,NA,"",            0.,   1.26240E-39,  -936.500E-42,   503.190E-06
C:/temp/dataset/2/27_5.odb,Step-1,Increment      1: Step Time =    1.000,"PART-1-1",            56,            9.,          -30.,            0.,NA,NA,"",            0.,   1.47061E-39,   626.111E-42,   841.473E-06
C:/temp/dataset/2/27_5.odb,Step-1,Increment      1: Step Time =    1.000,"PART-1-1",            57,            6.,          -30.,            0.,NA,NA,"",            0.,   3.34897E-39,  -3.13355E-39,   1.40506E-03
C:/temp/dataset/2/27_5.odb,Step-1,Increment      1: Step Time =    1.000,"PART-1-1",            58,            3.,          -30.,            0.,NA,NA,"",            0.,   3.22844E-39,  -2.03637E-39,   2.32627E-03
C:/temp/dataset/2/27_5.odb,Step-1,Increment      1: Step Time =    1.000,"PART-1-1",            59,            0.,          -30.,            0.,NA,NA,"",            0.,   7.81998E-39,  -11.6306E-39,   3.47606E-03
C:/temp/dataset/2/27_5.odb,Step-1,Increment      1: Step Time =    1.000,"PART-1-1",            60,           -3.,          -30.,            0.,NA,NA,"",            0.,   7.33545E-39,  -16.7562E-39,   4.35704E-03
C:/temp/dataset/2/27_5.odb,Step-1,Increment      1: Step Time =    1.000,"PART-1-1",            61,           -6.,          -30.,            0.,NA,NA,"",            0.,   1.87255E-39,  -15.4735E-39,   4.94181E-03
C:/temp/dataset/2/27_5.odb,Step-1,Increment      1: Step Time =    1.000,"PART-1-1",            62,           -9.,          -30.,            0.,NA,NA,"",            0.,  -13.3797E-39,  -17.6450E-39,   5.57838E-03
C:/temp/dataset/2/27_5.odb,Step-1,Increment      1: Step Time =    1.000,"PART-1-1",            63,          -12.,          -30.,            0.,NA,NA,"",            0.,  -9.83019E-39,  -2.31267E-39,   5.26633E-03
C:/temp/dataset/2/27_5.odb,Step-1,Increment      1: Step Time =    1.000,"PART-1-1",            64,           15.,         -27.5,            0.,NA,NA,"",   2.30577E-03,   2.03664E-03,  -1.08106E-03,   200.717E-06
C:/temp/dataset/2/27_5.odb,Step-1,Increment      1: Step Time =    1.000,"PART-1-1",            65,           15.,         -22.5,            0.,NA,NA,"",   4.49730E-03,   4.41907E-03,  -835.195E-06,   46.1558E-06
C:/temp/dataset/2/27_5.odb,Step-1,Increment      1: Step Time =    1.000,"PART-1-1",            66,       8.33333,          -20.,            0.,NA,NA,"",   4.63360E-03,   4.54162E-03,   918.631E-06,   292.799E-06
C:/temp/dataset/2/27_5.odb,Step-1,Increment      1: Step Time =    1.000,"PART-1-1",            67,       11.6667,          -20.,            0.,NA,NA,"",   5.07474E-03,   5.06886E-03,   244.136E-06,   75.1160E-06
C:/temp/dataset/2/27_5.odb,Step-1,Increment      1: Step Time =    1.000,"PART-1-1",            68,      -1.66667,          -20.,            0.,NA,NA,"",   24.1844E-03,  -3.90638E-03,  -23.8668E-03,   6.53557E-03
C:/temp/dataset/2/27_5.odb,Step-1,Increment      1: Step Time =    1.000,"PART-1-1",            69,       1.66667,          -20.,            0.,NA,NA,"",   5.35257E-03,   270.331E-06,  -5.34574E-03,   1.81914E-03
C:/temp/dataset/2/27_5.odb,Step-1,Increment      1: Step Time =    1.000,"PART-1-1",            70,           -5.,          -15.,            0.,NA,NA,"",   316.696E-03,   181.505E-03,  -259.523E-03,   31.8147E-03
C:/temp/dataset/2/27_5.odb,Step-1,Increment      1: Step Time =    1.000,"PART-1-1",            71,           -5.,         -17.5,            0.,NA,NA,"",   206.873E-03,   86.0448E-03,  -188.129E-03,   34.5921E-03
C:/temp/dataset/2/27_5.odb,Step-1,Increment      1: Step Time =    1.000,"PART-1-1",            72,           -5.,          -7.5,            0.,NA,NA,"",   794.620E-03,   623.807E-03,  -492.226E-03,   36.6754E-03
C:/temp/dataset/2/27_5.odb,Step-1,Increment      1: Step Time =    1.000,"PART-1-1",            73,           -5.,          -10.,            0.,NA,NA,"",   611.290E-03,   450.101E-03,  -413.623E-03,   32.4072E-03
C:/temp/dataset/2/27_5.odb,Step-1,Increment      1: Step Time =    1.000,"PART-1-1",            74,          -2.5,           -5.,            0.,NA,NA,"",       1.23067,   736.079E-03,  -986.274E-03,   13.9471E-03
C:/temp/dataset/2/27_5.odb,Step-1,Increment      1: Step Time =    1.000,"PART-1-1",            75,           2.5,           -5.,            0.,NA,NA,"",       1.81051,   679.779E-03,      -1.67805,   643.677E-06
C:/temp/dataset/2/27_5.odb,Step-1,Increment      1: Step Time =    1.000,"PART-1-1",            76,           7.5,           -5.,            0.,NA,NA,"",       2.43046,   638.098E-03,      -2.34520,   645.071E-06
C:/temp/dataset/2/27_5.odb,Step-1,Increment      1: Step Time =    1.000,"PART-1-1",            77,          12.5,           -5.,            0.,NA,NA,"",       3.06220,   596.233E-03,      -3.00359,   94.5228E-06
C:/temp/dataset/2/27_5.odb,Step-1,Increment      1: Step Time =    1.000,"PART-1-1",            78,           15.,   833.333E-03,            0.,NA,NA,"",       3.63889,       1.34202,      -3.38238,   297.867E-06
C:/temp/dataset/2/27_5.odb,Step-1,Increment      1: Step Time =    1.000,"PART-1-1",            79,           15.,      -2.08333,            0.,NA,NA,"",       3.49171,   958.324E-03,      -3.35762,   110.965E-06
C:/temp/dataset/2/27_5.odb,Step-1,Increment      1: Step Time =    1.000,"PART-1-1",            80,           15.,       9.58333,            0.,NA,NA,"",       4.25909,       2.48875,      -3.45630,   28.8720E-06
C:/temp/dataset/2/27_5.odb,Step-1,Increment      1: Step Time =    1.000,"PART-1-1",            81,           15.,       6.66667,            0.,NA,NA,"",       4.02663,       2.10698,      -3.43138,   136.204E-06
C:/temp/dataset/2/27_5.odb,Step-1,Increment      1: Step Time =    1.000,"PART-1-1",            82,           15.,       18.3333,            0.,NA,NA,"",       5.06753,       3.63424,      -3.53160,   1.53019E-06
C:/temp/dataset/2/27_5.odb,Step-1,Increment      1: Step Time =    1.000,"PART-1-1",            83,           15.,       15.4167,            0.,NA,NA,"",       4.78261,       3.25237,      -3.50648,   4.68277E-06
C:/temp/dataset/2/27_5.odb,Step-1,Increment      1: Step Time =    1.000,"PART-1-1",            84,           15.,       27.0833,            0.,NA,NA,"",       5.98804,       4.77984,      -3.60692,   7.41782E-09
C:/temp/dataset/2/27_5.odb,Step-1,Increment      1: Step Time =    1.000,"PART-1-1",            85,           15.,       24.1667,            0.,NA,NA,"",       5.67199,       4.39797,      -3.58181,   45.0359E-09
C:/temp/dataset/2/27_5.odb,Step-1,Increment      1: Step Time =    1.000,"PART-1-1",            86,           10.,           30.,            0.,NA,NA,"",       5.99618,       5.20474,      -2.97739,   4.33787E-09
C:/temp/dataset/2/27_5.odb,Step-1,Increment      1: Step Time =    1.000,"PART-1-1",            87,          12.5,           30.,            0.,NA,NA,"",       6.14710,       5.18322,      -3.30471,   5.70313E-09
C:/temp/dataset/2/27_5.odb,Step-1,Increment      1: Step Time =    1.000,"PART-1-1",            88,           2.5,           30.,            0.,NA,NA,"",       5.63448,       5.26930,      -1.99545,   15.7072E-09
C:/temp/dataset/2/27_5.odb,Step-1,Increment      1: Step Time =    1.000,"PART-1-1",            89,            5.,           30.,            0.,NA,NA,"",       5.73885,       5.24778,      -2.32277,   17.3553E-09
C:/temp/dataset/2/27_5.odb,Step-1,Increment      1: Step Time =    1.000,"PART-1-1",            90,           -5.,           30.,            0.,NA,NA,"",       5.42930,       5.33386,      -1.01351,   790.046E-12
C:/temp/dataset/2/27_5.odb,Step-1,Increment      1: Step Time =    1.000,"PART-1-1",            91,          -2.5,           30.,            0.,NA,NA,"",       5.47894,       5.31234,      -1.34082,   3.13733E-09
C:/temp/dataset/2/27_5.odb,Step-1,Increment      1: Step Time =    1.000,"PART-1-1",            92,         -12.5,           30.,            0.,NA,NA,"",       5.39851,       5.39842,  -31.5667E-03,   63.8995E-12
C:/temp/dataset/2/27_5.odb,Step-1,Increment      1: Step Time =    1.000,"PART-1-1",            93,          -10.,           30.,            0.,NA,NA,"",       5.38886,       5.37690,  -358.881E-03,   58.4830E-12
C:/temp/dataset/2/27_5.odb,Step-1,Increment      1: Step Time =    1.000,"PART-1-1",            94,          -15.,          27.5,            0.,NA,NA,"",       5.10250,       5.09262,   317.267E-03,   49.6483E-12
C:/temp/dataset/2/27_5.odb,Step-1,Increment      1: Step Time =    1.000,"PART-1-1",            95,      -12.4978,       24.9766,            0.,NA,NA,"",       4.74072,       4.74070,   11.3820E-03,   76.8656E-12
C:/temp/dataset/2/27_5.odb,Step-1,Increment      1: Step Time =    1.000,"PART-1-1",            96,      -7.49872,       27.4475,            0.,NA,NA,"",       5.06495,       5.02119,  -664.392E-03,   360.465E-12
C:/temp/dataset/2/27_5.odb,Step-1,Increment      1: Step Time =    1.000,"PART-1-1",            97,      -7.50661,       22.4446,            0.,NA,NA,"",       4.41008,       4.36623,  -620.293E-03,   327.369E-12
C:/temp/dataset/2/27_5.odb,Step-1,Increment      1: Step Time =    1.000,"PART-1-1",            98,      -2.53392,       22.4091,            0.,NA,NA,"",       4.50194,       4.31879,      -1.27104,   4.79178E-09
C:/temp/dataset/2/27_5.odb,Step-1,Increment      1: Step Time =    1.000,"PART-1-1",            99,  -19.7467E-03,       27.3919,            0.,NA,NA,"",       5.21513,       4.94953,      -1.64310,   7.68580E-09
C:/temp/dataset/2/27_5.odb,Step-1,Increment      1: Step Time =    1.000,"PART-1-1",           100,       2.31326,       22.2671,            0.,NA,NA,"",       4.66492,       4.25847,      -1.90444,   49.8841E-09
C:/temp/dataset/2/27_5.odb,Step-1,Increment      1: Step Time =    1.000,"PART-1-1",           101,       7.89882,       27.4278,            0.,NA,NA,"",       5.57286,       4.88606,      -2.68015,   27.8496E-09
C:/temp/dataset/2/27_5.odb,Step-1,Increment      1: Step Time =    1.000,"PART-1-1",           102,       6.74061,       20.0564,            0.,NA,NA,"",       4.63991,       3.93093,      -2.46506,   820.655E-09
C:/temp/dataset/2/27_5.odb,Step-1,Increment      1: Step Time =    1.000,"PART-1-1",           103,       6.76082,       17.7755,            0.,NA,NA,"",       4.38011,       3.63212,      -2.44807,   1.87059E-06
C:/temp/dataset/2/27_5.odb,Step-1,Increment      1: Step Time =    1.000,"PART-1-1",           104,       7.34933,       13.0959,            0.,NA,NA,"",       3.90650,       3.01436,      -2.48483,   17.1609E-06
C:/temp/dataset/2/27_5.odb,Step-1,Increment      1: Step Time =    1.000,"PART-1-1",           105,       12.5251,      -2.17932,            0.,NA,NA,"",       3.18202,   967.258E-03,      -3.03144,   241.032E-06
C:/temp/dataset/2/27_5.odb,Step-1,Increment      1: Step Time =    1.000,"PART-1-1",           106,       11.8446,      -24.9441,            0.,NA,NA,"",   3.68213E-03,   3.68019E-03,   119.339E-06,   165.957E-06
C:/temp/dataset/2/27_5.odb,Step-1,Increment      1: Step Time =    1.000,"PART-1-1",           107,       2.44158,      -2.66949,            0.,NA,NA,"",       1.96031,   991.771E-03,      -1.69092,   2.27910E-03
C:/temp/dataset/2/27_5.odb,Step-1,Increment      1: Step Time =    1.000,"PART-1-1",           108,       7.46163,      -2.37632,            0.,NA,NA,"",       2.56069,   985.200E-03,      -2.36359,   180.923E-06
C:/temp/dataset/2/27_5.odb,Step-1,Increment      1: Step Time =    1.000,"PART-1-1",           109,       7.48217,       7.95809,            0.,NA,NA,"",       3.39383,       2.34042,      -2.45774,   428.955E-06
C:/temp/dataset/2/27_5.odb,Step-1,Increment      1: Step Time =    1.000,"PART-1-1",           110,      -5.01446,       22.4347,            0.,NA,NA,"",       4.44542,       4.34349,  -946.495E-03,   1.39467E-09
C:/temp/dataset/2/27_5.odb,Step-1,Increment      1: Step Time =    1.000,"PART-1-1",           111,  -75.1424E-03,       22.3615,            0.,NA,NA,"",       4.57737,       4.29139,      -1.59255,   13.2983E-09
C:/temp/dataset/2/27_5.odb,Step-1,Increment      1: Step Time =    1.000,"PART-1-1",           112,       4.50776,       22.1530,            0.,NA,NA,"",       4.75890,       4.22464,      -2.19077,   94.1672E-09
C:/temp/dataset/2/27_5.odb,Step-1,Increment      1: Step Time =    1.000,"PART-1-1",           113,       7.06405,       15.4904,            0.,NA,NA,"",       4.14520,       3.33034,      -2.46811,   5.24193E-06
C:/temp/dataset/2/27_5.odb,Step-1,Increment      1: Step Time =    1.000,"PART-1-1",           114,       7.46285,       10.5556,            0.,NA,NA,"",       3.65049,       2.68072,      -2.47786,   93.2145E-06
C:/temp/dataset/2/27_5.odb,Step-1,Increment      1: Step Time =    1.000,"PART-1-1",           115,      -2.89738,      -2.05905,            0.,NA,NA,"",       1.48117,       1.12847,  -959.388E-03,   15.6264E-03
C:/temp/dataset/2/27_5.odb,Step-1,Increment      1: Step Time =    1.000,"PART-1-1",           116,      -7.61206,      -10.6629,            0.,NA,NA,"",   443.056E-03,   383.756E-03,  -221.427E-03,   18.9794E-03
C:/temp/dataset/2/27_5.odb,Step-1,Increment      1: Step Time =    1.000,"PART-1-1",           117,      -6.85891,      -17.7385,            0.,NA,NA,"",   138.079E-03,   60.5653E-03,  -124.088E-03,   22.0201E-03
C:/temp/dataset/2/27_5.odb,Step-1,Increment      1: Step Time =    1.000,"PART-1-1",           118,       11.9280,      -27.4687,            0.,NA,NA,"",   2.13910E-03,   2.13738E-03,  -85.6495E-06,   521.351E-06
C:/temp/dataset/2/27_5.odb,Step-1,Increment      1: Step Time =    1.000,"PART-1-1",           119,      -7.44747,      -13.1413,            0.,NA,NA,"",   305.627E-03,   243.294E-03,  -184.975E-03,   18.9328E-03
C:/temp/dataset/2/27_5.odb,Step-1,Increment      1: Step Time =    1.000,"PART-1-1",           120,      -7.13169,      -15.4658,            0.,NA,NA,"",   208.904E-03,   138.999E-03,  -155.950E-03,   20.8114E-03
C:/temp/dataset/2/27_5.odb,Step-1,Increment      1: Step Time =    1.000,"PART-1-1",           121,      -8.02089,      -5.87394,            0.,NA,NA,"",   792.040E-03,   745.554E-03,  -267.351E-03,   10.3168E-03
C:/temp/dataset/2/27_5.odb,Step-1,Increment      1: Step Time =    1.000,"PART-1-1",           122,      -7.74476,      -8.18529,            0.,NA,NA,"",   610.132E-03,   554.975E-03,  -253.502E-03,   18.2530E-03
C:/temp/dataset/2/27_5.odb,Step-1,Increment      1: Step Time =    1.000,"PART-1-1",           123,  -21.3834E-03,      -2.74811,            0.,NA,NA,"",       1.68813,       1.00878,      -1.35357,   6.29041E-03
C:/temp/dataset/2/27_5.odb,Step-1,Increment      1: Step Time =    1.000,"PART-1-1",           124,       4.94012,      -2.49525,            0.,NA,NA,"",       2.25761,   991.777E-03,      -2.02809,   730.249E-06
C:/temp/dataset/2/27_5.odb,Step-1,Increment      1: Step Time =    1.000,"PART-1-1",           125,       10.0127,      -2.27482,            0.,NA,NA,"",       2.87160,   976.474E-03,      -2.70048,   301.736E-06
C:/temp/dataset/2/27_5.odb,Step-1,Increment      1: Step Time =    1.000,"PART-1-1",           126,       10.2967,       27.4669,            0.,NA,NA,"",       5.71741,       4.87054,      -2.99444,   25.6925E-09
C:/temp/dataset/2/27_5.odb,Step-1,Increment      1: Step Time =    1.000,"PART-1-1",           127,       12.6750,       27.3103,            0.,NA,NA,"",       5.85185,       4.82956,      -3.30447,   15.4286E-09
C:/temp/dataset/2/27_5.odb,Step-1,Increment      1: Step Time =    1.000,"PART-1-1",           128,       2.52543,       27.2659,            0.,NA,NA,"",       5.29346,       4.91112,      -1.97525,   7.06440E-09
C:/temp/dataset/2/27_5.odb,Step-1,Increment      1: Step Time =    1.000,"PART-1-1",           129,       5.32711,       26.8707,            0.,NA,NA,"",       5.37113,       4.83526,      -2.33866,   16.3143E-09
C:/temp/dataset/2/27_5.odb,Step-1,Increment      1: Step Time =    1.000,"PART-1-1",           130,      -5.00948,       27.4462,            0.,NA,NA,"",       5.09671,       4.99958,  -990.285E-03,   1.44703E-09
C:/temp/dataset/2/27_5.odb,Step-1,Increment      1: Step Time =    1.000,"PART-1-1",           131,      -2.51658,       27.4324,            0.,NA,NA,"",       5.14752,       4.97631,      -1.31655,   4.22938E-09
C:/temp/dataset/2/27_5.odb,Step-1,Increment      1: Step Time =    1.000,"PART-1-1",           132,      -9.99211,       27.4668,            0.,NA,NA,"",       5.05649,       5.04517,  -338.109E-03,   105.511E-12
C:/temp/dataset/2/27_5.odb,Step-1,Increment      1: Step Time =    1.000,"PART-1-1",           133,       12.5029,       21.6680,            0.,NA,NA,"",       5.21553,       4.09233,      -3.23336,   461.226E-09
C:/temp/dataset/2/27_5.odb,Step-1,Increment      1: Step Time =    1.000,"PART-1-1",           134,      -12.7198,      -9.27859,            0.,NA,NA,"",   503.461E-03,   486.988E-03,   127.734E-03,   11.0567E-03
C:/temp/dataset/2/27_5.odb,Step-1,Increment      1: Step Time =    1.000,"PART-1-1",           135,      -12.2206,      -21.4876,            0.,NA,NA,"",   23.8994E-03,  -10.7578E-03,   21.3413E-03,   8.20526E-03
C:/temp/dataset/2/27_5.odb,Step-1,Increment      1: Step Time =    1.000,"PART-1-1",           136,       12.4390,       11.8581,            0.,NA,NA,"",       4.21320,       2.80854,      -3.14056,   18.4171E-06
C:/temp/dataset/2/27_5.odb,Step-1,Increment      1: Step Time =    1.000,"PART-1-1",           137,      -12.6285,      -12.0158,            0.,NA,NA,"",   321.037E-03,   304.630E-03,   101.318E-03,   10.2458E-03
C:/temp/dataset/2/27_5.odb,Step-1,Increment      1: Step Time =    1.000,"PART-1-1",           138,      -12.4213,      -14.8709,            0.,NA,NA,"",   172.990E-03,   158.259E-03,   69.8548E-03,   8.82352E-03
C:/temp/dataset/2/27_5.odb,Step-1,Increment      1: Step Time =    1.000,"PART-1-1",           139,       12.2989,       14.8029,            0.,NA,NA,"",       4.48519,       3.19527,      -3.14757,   3.57713E-06
C:/temp/dataset/2/27_5.odb,Step-1,Increment      1: Step Time =    1.000,"PART-1-1",           140,       11.7182,       18.2155,            0.,NA,NA,"",       4.78713,       3.64706,      -3.10091,   1.33477E-06
C:/temp/dataset/2/27_5.odb,Step-1,Increment      1: Step Time =    1.000,"PART-1-1",           141,      -12.3380,      -4.01281,            0.,NA,NA,"",   966.693E-03,   959.141E-03,   120.605E-03,   10.4944E-03
C:/temp/dataset/2/27_5.odb,Step-1,Increment      1: Step Time =    1.000,"PART-1-1",           142,       12.5089,       6.21106,            0.,NA,NA,"",       3.72793,       2.06890,      -3.10115,   162.311E-06
C:/temp/dataset/2/27_5.odb,Step-1,Increment      1: Step Time =    1.000,"PART-1-1",           143,      -10.9765,      -1.21375,            0.,NA,NA,"",       1.26253,       1.26239,  -18.8834E-03,   11.7850E-03
C:/temp/dataset/2/27_5.odb,Step-1,Increment      1: Step Time =    1.000,"PART-1-1",           144,      -11.4273,       2.02370,            0.,NA,NA,"",       1.64794,       1.64792,   6.90233E-03,   8.67038E-03
C:/temp/dataset/2/27_5.odb,Step-1,Increment      1: Step Time =    1.000,"PART-1-1",           145,      -12.7154,      -6.64001,            0.,NA,NA,"",   718.867E-03,   704.133E-03,   144.797E-03,   11.3506E-03
C:/temp/dataset/2/27_5.odb,Step-1,Increment      1: Step Time =    1.000,"PART-1-1",           146,      -11.7762,      -18.1315,            0.,NA,NA,"",   51.7441E-03,   43.9986E-03,   27.2319E-03,   6.54782E-03
C:/temp/dataset/2/27_5.odb,Step-1,Increment      1: Step Time =    1.000,"PART-1-1",           147,      -12.2481,      -24.4184,            0.,NA,NA,"",   25.5182E-03,  -23.2833E-03,   10.4436E-03,   6.94507E-03
C:/temp/dataset/2/27_5.odb,Step-1,Increment      1: Step Time =    1.000,"PART-1-1",           148,       12.5340,       3.42208,            0.,NA,NA,"",       3.52020,       1.70345,      -3.08060,   163.833E-06
C:/temp/dataset/2/27_5.odb,Step-1,Increment      1: Step Time =    1.000,"PART-1-1",           149,       12.5428,   630.306E-03,            0.,NA,NA,"",       3.33740,       1.33688,      -3.05794,   177.325E-06
C:/temp/dataset/2/27_5.odb,Step-1,Increment      1: Step Time =    1.000,"PART-1-1",           150,       12.5001,       9.03097,            0.,NA,NA,"",       3.96290,       2.43799,      -3.12423,   75.6750E-06
C:/temp/dataset/2/27_5.odb,Step-1,Increment      1: Step Time =    1.000,"PART-1-1",           151,       12.7192,       24.5718,            0.,NA,NA,"",       5.54878,       4.47065,      -3.28668,   105.485E-09
C:/temp/dataset/2/27_5.odb,Step-1,Increment      1: Step Time =    1.000,"PART-1-1",           152,       2.66783,      -27.4286,            0.,NA,NA,"",   6.30528E-03,   6.08825E-03,  -1.64004E-03,   1.86734E-03
C:/temp/dataset/2/27_5.odb,Step-1,Increment      1: Step Time =    1.000,"PART-1-1",           153,       8.86089,      -27.4494,            0.,NA,NA,"",   2.85942E-03,   2.85646E-03,   129.948E-06,   714.351E-06
C:/temp/dataset/2/27_5.odb,Step-1,Increment      1: Step Time =    1.000,"PART-1-1",           154,       5.76511,      -27.4328,            0.,NA,NA,"",   4.28383E-03,   4.28035E-03,  -172.700E-06,   1.15134E-03
C:/temp/dataset/2/27_5.odb,Step-1,Increment      1: Step Time =    1.000,"PART-1-1",           155,  -414.647E-03,      -27.4330,            0.,NA,NA,"",   8.72349E-03,   6.78232E-03,  -5.48629E-03,   3.49333E-03
C:/temp/dataset/2/27_5.odb,Step-1,Increment      1: Step Time =    1.000,"PART-1-1",           156,      -3.42691,      -27.4460,            0.,NA,NA,"",   11.4244E-03,   3.06544E-03,  -11.0055E-03,   6.14529E-03
C:/temp/dataset/2/27_5.odb,Step-1,Increment      1: Step Time =    1.000,"PART-1-1",           157,      -6.36574,      -27.4272,            0.,NA,NA,"",   14.0848E-03,  -6.05397E-03,  -12.7174E-03,   7.50750E-03
C:/temp/dataset/2/27_5.odb,Step-1,Increment      1: Step Time =    1.000,"PART-1-1",           158,       10.5238,       25.0033,            0.,NA,NA,"",       5.44833,       4.54604,      -3.00296,   107.613E-09
C:/temp/dataset/2/27_5.odb,Step-1,Increment      1: Step Time =    1.000,"PART-1-1",           159,       6.26912,       22.1485,            0.,NA,NA,"",       4.85569,       4.20890,      -2.42134,   294.675E-09
C:/temp/dataset/2/27_5.odb,Step-1,Increment      1: Step Time =    1.000,"PART-1-1",           160,      -5.96402,      -2.70245,            0.,NA,NA,"",       1.19789,       1.07204,  -534.475E-03,   17.5537E-03
C:/temp/dataset/2/27_5.odb,Step-1,Increment      1: Step Time =    1.000,"PART-1-1",           161,      -12.5033,       22.4816,            0.,NA,NA,"",       4.41423,       4.41410,   33.5766E-03,   79.7230E-12
C:/temp/dataset/2/27_5.odb,Step-1,Increment      1: Step Time =    1.000,"PART-1-1",           162,      -2.53325,       24.9024,            0.,NA,NA,"",       4.82171,       4.64522,      -1.29259,   4.87805E-09
C:/temp/dataset/2/27_5.odb,Step-1,Increment      1: Step Time =    1.000,"PART-1-1",           163,       4.43197,       24.4161,            0.,NA,NA,"",       5.02854,       4.52159,      -2.20033,   40.3236E-09
C:/temp/dataset/2/27_5.odb,Step-1,Increment      1: Step Time =    1.000,"PART-1-1",           164,      -10.2797,      -8.84555,            0.,NA,NA,"",   507.747E-03,   505.059E-03,  -52.1842E-03,   2.50650E-03
C:/temp/dataset/2/27_5.odb,Step-1,Increment      1: Step Time =    1.000,"PART-1-1",           165,       2.21534,  -332.134E-03,            0.,NA,NA,"",       2.12581,       1.30011,      -1.68190,   4.22268E-03
C:/temp/dataset/2/27_5.odb,Step-1,Increment      1: Step Time =    1.000,"PART-1-1",           166,  -74.2209E-03,       24.8536,            0.,NA,NA,"",       4.89164,       4.61766,      -1.61412,   8.24350E-09
C:/temp/dataset/2/27_5.odb,Step-1,Increment      1: Step Time =    1.000,"PART-1-1",           167,       2.30693,       24.7164,            0.,NA,NA,"",       4.96724,       4.57920,      -1.92469,   13.5358E-09
C:/temp/dataset/2/27_5.odb,Step-1,Increment      1: Step Time =    1.000,"PART-1-1",           168,       9.79368,       13.9045,            0.,NA,NA,"",       4.18468,       3.09921,      -2.81183,   10.8729E-06
C:/temp/dataset/2/27_5.odb,Step-1,Increment      1: Step Time =    1.000,"PART-1-1",           169,       9.30777,       16.4521,            0.,NA,NA,"",       4.41432,       3.43692,      -2.77015,   3.26737E-06
C:/temp/dataset/2/27_5.odb,Step-1,Increment      1: Step Time =    1.000,"PART-1-1",           170,      -2.35985,       1.11806,            0.,NA,NA,"",       1.85739,       1.51751,      -1.07101,   10.4837E-03
C:/temp/dataset/2/27_5.odb,Step-1,Increment      1: Step Time =    1.000,"PART-1-1",           171,      -9.94133,      -13.9778,            0.,NA,NA,"",   198.174E-03,   192.666E-03,  -46.3969E-03,   5.11862E-03
C:/temp/dataset/2/27_5.odb,Step-1,Increment      1: Step Time =    1.000,"PART-1-1",           172,       4.80988,   33.7751E-03,            0.,NA,NA,"",       2.42827,       1.32604,      -2.03423,   1.57116E-03
C:/temp/dataset/2/27_5.odb,Step-1,Increment      1: Step Time =    1.000,"PART-1-1",           173,       9.94126,       11.1894,            0.,NA,NA,"",       3.92488,       2.74246,      -2.80777,   44.3197E-06
C:/temp/dataset/2/27_5.odb,Step-1,Increment      1: Step Time =    1.000,"PART-1-1",           174,       7.43598,   226.782E-03,            0.,NA,NA,"",       2.72868,       1.32869,      -2.38334,   356.207E-06
C:/temp/dataset/2/27_5.odb,Step-1,Increment      1: Step Time =    1.000,"PART-1-1",           175,      -7.50368,       24.9336,            0.,NA,NA,"",       4.73582,       4.69209,  -642.102E-03,   449.233E-12
C:/temp/dataset/2/27_5.odb,Step-1,Increment      1: Step Time =    1.000,"PART-1-1",           176,      -10.1536,      -11.3797,            0.,NA,NA,"",   336.770E-03,   333.249E-03,  -48.5714E-03,   3.69742E-03
C:/temp/dataset/2/27_5.odb,Step-1,Increment      1: Step Time =    1.000,"PART-1-1",           177,       6.92724,       24.6415,            0.,NA,NA,"",       5.18779,       4.52962,      -2.52897,   93.5951E-09
C:/temp/dataset/2/27_5.odb,Step-1,Increment      1: Step Time =    1.000,"PART-1-1",           178,      -9.99868,       24.9580,            0.,NA,NA,"",       4.72731,       4.71676,  -315.653E-03,   119.777E-12
C:/temp/dataset/2/27_5.odb,Step-1,Increment      1: Step Time =    1.000,"PART-1-1",           179,       8.37028,       18.0705,            0.,NA,NA,"",       4.52278,       3.65689,      -2.66134,   1.15224E-06
C:/temp/dataset/2/27_5.odb,Step-1,Increment      1: Step Time =    1.000,"PART-1-1",           180,      -10.4068,      -6.54987,            0.,NA,NA,"",   696.311E-03,   694.427E-03,  -51.1976E-03,   4.39931E-03
C:/temp/dataset/2/27_5.odb,Step-1,Increment      1: Step Time =    1.000,"PART-1-1",           181,      -8.52723,      -17.8680,            0.,NA,NA,"",   86.4177E-03,   47.6305E-03,  -72.1065E-03,   9.56194E-03
C:/temp/dataset/2/27_5.odb,Step-1,Increment      1: Step Time =    1.000,"PART-1-1",           182,       9.99063,       8.47585,            0.,NA,NA,"",       3.67220,       2.38680,      -2.79075,   151.913E-06
C:/temp/dataset/2/27_5.odb,Step-1,Increment      1: Step Time =    1.000,"PART-1-1",           183,      -6.87511,      -22.3968,            0.,NA,NA,"",   57.3477E-03,  -7.61775E-03,  -56.8395E-03,   15.9502E-03
C:/temp/dataset/2/27_5.odb,Step-1,Increment      1: Step Time =    1.000,"PART-1-1",           184,       7.48189,       5.34092,            0.,NA,NA,"",       3.14970,       1.99804,      -2.43484,   767.828E-06
C:/temp/dataset/2/27_5.odb,Step-1,Increment      1: Step Time =    1.000,"PART-1-1",           185,       10.0207,   425.902E-03,            0.,NA,NA,"",       3.03318,       1.33216,      -2.72498,   241.025E-06
C:/temp/dataset/2/27_5.odb,Step-1,Increment      1: Step Time =    1.000,"PART-1-1",           186,      -8.86720,      -3.63325,            0.,NA,NA,"",   998.100E-03,   975.823E-03,  -209.699E-03,   11.0194E-03
C:/temp/dataset/2/27_5.odb,Step-1,Increment      1: Step Time =    1.000,"PART-1-1",           187,       10.0155,       5.77118,            0.,NA,NA,"",       3.43623,       2.03277,      -2.77047,   260.506E-06
C:/temp/dataset/2/27_5.odb,Step-1,Increment      1: Step Time =    1.000,"PART-1-1",           188,       9.07540,       20.2179,            0.,NA,NA,"",       4.81094,       3.93197,      -2.77214,   946.537E-09
C:/temp/dataset/2/27_5.odb,Step-1,Increment      1: Step Time =    1.000,"PART-1-1",           189,       5.51479,      -24.9218,            0.,NA,NA,"",   5.89666E-03,   5.89348E-03,   193.660E-06,   765.440E-06
C:/temp/dataset/2/27_5.odb,Step-1,Increment      1: Step Time =    1.000,"PART-1-1",           190,       2.33502,      -24.9114,            0.,NA,NA,"",   8.85100E-03,   8.29765E-03,  -3.08045E-03,   1.33356E-03
C:/temp/dataset/2/27_5.odb,Step-1,Increment      1: Step Time =    1.000,"PART-1-1",           191,      -3.83494,      -24.9465,            0.,NA,NA,"",   27.5925E-03,   5.24296E-03,  -27.0898E-03,   8.63226E-03
C:/temp/dataset/2/27_5.odb,Step-1,Increment      1: Step Time =    1.000,"PART-1-1",           192,       8.68706,      -24.9229,            0.,NA,NA,"",   4.46516E-03,   4.42210E-03,   618.574E-06,   423.503E-06
C:/temp/dataset/2/27_5.odb,Step-1,Increment      1: Step Time =    1.000,"PART-1-1",           193,  -793.545E-03,      -24.9263,            0.,NA,NA,"",   15.8537E-03,   9.91943E-03,  -12.3671E-03,   4.33990E-03
C:/temp/dataset/2/27_5.odb,Step-1,Increment      1: Step Time =    1.000,"PART-1-1",           194,      -10.0041,       22.4687,            0.,NA,NA,"",       4.40070,       4.39090,  -293.519E-03,   91.8203E-12
C:/temp/dataset/2/27_5.odb,Step-1,Increment      1: Step Time =    1.000,"PART-1-1",           195,       7.76291,       22.5689,            0.,NA,NA,"",       4.99389,       4.25108,      -2.62054,   244.406E-09
C:/temp/dataset/2/27_5.odb,Step-1,Increment      1: Step Time =    1.000,"PART-1-1",           196,       10.0314,       3.09975,            0.,NA,NA,"",       3.22365,       1.68304,      -2.74942,   215.760E-06
C:/temp/dataset/2/27_5.odb,Step-1,Increment      1: Step Time =    1.000,"PART-1-1",           197,       7.45157,       2.78517,            0.,NA,NA,"",       2.92743,       1.66452,      -2.40816,   465.952E-06
C:/temp/dataset/2/27_5.odb,Step-1,Increment      1: Step Time =    1.000,"PART-1-1",           198,       1.23926,       2.17480,            0.,NA,NA,"",       2.26924,       1.63059,      -1.57818,   6.93871E-03
C:/temp/dataset/2/27_5.odb,Step-1,Increment      1: Step Time =    1.000,"PART-1-1",           199,       5.89388,       23.8379,            0.,NA,NA,"",       5.03496,       4.43331,      -2.38675,   61.1187E-09
C:/temp/dataset/2/27_5.odb,Step-1,Increment      1: Step Time =    1.000,"PART-1-1",           200,       4.70825,       2.52712,            0.,NA,NA,"",       2.63086,       1.65322,      -2.04653,   2.55545E-03
C:/temp/dataset/2/27_5.odb,Step-1,Increment      1: Step Time =    1.000,"PART-1-1",           201,      -6.67563,      -24.8783,            0.,NA,NA,"",   33.2380E-03,  -9.29680E-03,  -31.9113E-03,   10.8353E-03
C:/temp/dataset/2/27_5.odb,Step-1,Increment      1: Step Time =    1.000,"PART-1-1",           202,      -1.93740,       2.90022,            0.,NA,NA,"",       2.08699,       1.73863,      -1.15443,   10.1650E-03
C:/temp/dataset/2/27_5.odb,Step-1,Increment      1: Step Time =    1.000,"PART-1-1",           203,      -4.27328,      -22.5070,            0.,NA,NA,"",   47.6019E-03,   7.47060E-03,  -47.0121E-03,   14.3410E-03
C:/temp/dataset/2/27_5.odb,Step-1,Increment      1: Step Time =    1.000,"PART-1-1",           204,      -7.29195,  -216.826E-03,            0.,NA,NA,"",       1.43198,       1.36855,  -421.476E-03,   9.32131E-03
C:/temp/dataset/2/27_5.odb,Step-1,Increment      1: Step Time =    1.000,"PART-1-1",           205,      -4.39370,   432.763E-03,            0.,NA,NA,"",       1.64226,       1.44100,  -787.743E-03,   12.0987E-03
C:/temp/dataset/2/27_5.odb,Step-1,Increment      1: Step Time =    1.000,"PART-1-1",           206,      -1.20581,      -22.4416,            0.,NA,NA,"",   17.2908E-03,   7.46666E-03,  -15.5955E-03,   5.34826E-03
C:/temp/dataset/2/27_5.odb,Step-1,Increment      1: Step Time =    1.000,"PART-1-1",           207,      -4.88725,       2.78210,            0.,NA,NA,"",       1.88746,       1.72847,  -758.222E-03,   9.76668E-03
C:/temp/dataset/2/27_5.odb,Step-1,Increment      1: Step Time =    1.000,"PART-1-1",           208,      -8.02678,       2.39768,            0.,NA,NA,"",       1.72437,       1.68438,  -369.207E-03,   7.98658E-03
C:/temp/dataset/2/27_5.odb,Step-1,Increment      1: Step Time =    1.000,"PART-1-1",           209,       8.51144,      -22.4401,            0.,NA,NA,"",   4.80182E-03,   4.69357E-03,   1.01382E-03,   185.448E-06
C:/temp/dataset/2/27_5.odb,Step-1,Increment      1: Step Time =    1.000,"PART-1-1",           210,       5.25488,      -22.4306,            0.,NA,NA,"",   5.10694E-03,   5.06398E-03,   661.048E-06,   315.323E-06
C:/temp/dataset/2/27_5.odb,Step-1,Increment      1: Step Time =    1.000,"PART-1-1",           211,       2.00226,      -22.4217,            0.,NA,NA,"",   7.04670E-03,   6.23902E-03,  -3.27577E-03,   1.17441E-03
C:/temp/dataset/2/27_5.odb,Step-1,Increment      1: Step Time =    1.000,"PART-1-1",           212,      -9.28570,      -27.3600,            0.,NA,NA,"",   16.1385E-03,  -14.6938E-03,  -6.67406E-03,   6.15675E-03
C:/temp/dataset/2/27_5.odb,Step-1,Increment      1: Step Time =    1.000,"PART-1-1",           213,       11.7596,      -22.4488,            0.,NA,NA,"",   4.49038E-03,   4.48347E-03,   249.074E-06,   82.8475E-06
C:/temp/dataset/2/27_5.odb,Step-1,Increment      1: Step Time =    1.000,"PART-1-1",           214,      -12.4952,       27.4851,            0.,NA,NA,"",       5.06913,       5.06912,  -10.5469E-03,   66.3639E-12
C:/temp/dataset/2/27_5.odb,Step-1,Increment      1: Step Time =    1.000,"PART-1-1",           215,      -12.1608,      -27.2494,            0.,NA,NA,"",   17.0381E-03,  -16.7031E-03,   3.36190E-03,   5.90291E-03
C:/temp/dataset/2/27_5.odb,Step-1,Increment      1: Step Time =    1.000,"PART-1-1",           216,      -6.92277,      -20.0189,            0.,NA,NA,"",   85.6560E-03,   5.70612E-03,  -85.4658E-03,   13.7488E-03
C:/temp/dataset/2/27_5.odb,Step-1,Increment      1: Step Time =    1.000,"PART-1-1",           217,       10.3403,       22.5364,            0.,NA,NA,"",       5.15708,       4.22463,      -2.95770,   386.823E-09
C:/temp/dataset/2/27_5.odb,Step-1,Increment      1: Step Time =    1.000,"PART-1-1",           218,      -9.38591,      -16.3373,            0.,NA,NA,"",   110.152E-03,   94.9909E-03,  -55.7687E-03,   7.03914E-03
C:/temp/dataset/2/27_5.odb,Step-1,Increment      1: Step Time =    1.000,"PART-1-1",           219,      -9.56004,      -22.0160,            0.,NA,NA,"",   30.7623E-03,  -17.0562E-03,  -25.6009E-03,   8.90803E-03
C:/temp/dataset/2/27_5.odb,Step-1,Increment      1: Step Time =    1.000,"PART-1-1",           220,      -9.49058,      -24.6874,            0.,NA,NA,"",   26.7135E-03,  -21.6238E-03,  -15.6850E-03,   8.28383E-03
C:/temp/dataset/2/27_5.odb,Step-1,Increment      1: Step Time =    1.000,"PART-1-1",           221,  -968.003E-03,   33.9082E-03,            0.,NA,NA,"",       1.85649,       1.37346,      -1.24906,   8.27877E-03
C:/temp/dataset/2/27_5.odb,Step-1,Increment      1: Step Time =    1.000,"PART-1-1",           222,   333.674E-03,      -1.00763,            0.,NA,NA,"",       1.87677,       1.23006,      -1.41747,   6.88919E-03
C:/temp/dataset/2/27_5.odb,Step-1,Increment      1: Step Time =    1.000,"PART-1-1",           223,      -10.5623,      -4.72446,            0.,NA,NA,"",   871.866E-03,   870.806E-03,  -42.9977E-03,   7.78054E-03
C:/temp/dataset/2/27_5.odb,Step-1,Increment      1: Step Time =    1.000,"PART-1-1",           224,      -5.01319,       24.9269,            0.,NA,NA,"",       4.76907,       4.66978,  -968.114E-03,   1.52325E-09
C:/temp/dataset/2/27_5.odb,Step-1,Increment      1: Step Time =    1.000,"PART-1-1",           225,      -9.24174,      -19.5473,            0.,NA,NA,"",   43.1686E-03,   9.56164E-03,  -42.0963E-03,   7.76751E-03
C:/temp/dataset/2/27_5.odb,Step-1,Increment      1: Step Time =    1.000,"PART-1-1",           226,       8.53639,       25.1316,            0.,NA,NA,"",       5.33898,       4.57995,      -2.74386,   94.0844E-09
C:/temp/dataset/2/27_5.odb,Step-1,Increment      1: Step Time =    1.000,"PART-1-1",           227,       8.85572,       23.3093,            0.,NA,NA,"",       5.14745,       4.33860,      -2.76999,   241.884E-09
C:/temp/dataset/2/27_5.odb,Step-1,Increment      1: Step Time =    1.000,"PART-1-1",           228,      -13.7516,       22.4908,            0.,NA,NA,"",       4.43043,       4.42605,   196.941E-03,   70.3194E-12
C:/temp/dataset/2/27_5.odb,Step-1,Increment      1: Step Time =    1.000,"PART-1-1",           229,          -15.,         21.25,            0.,NA,NA,"",       4.29041,       4.27434,   371.066E-03,   63.5802E-12
C:/temp/dataset/2/27_5.odb,Step-1,Increment      1: Step Time =    1.000,"PART-1-1",           230,        -13.75,           20.,            0.,NA,NA,"",       4.10572,       4.09992,   218.168E-03,   50.8576E-12
C:/temp/dataset/2/27_5.odb,Step-1,Increment      1: Step Time =    1.000,"PART-1-1",           231,      -12.5016,       21.2408,            0.,NA,NA,"",       4.25186,       4.25163,   44.0439E-03,   52.8848E-12
C:/temp/dataset/2/27_5.odb,Step-1,Increment      1: Step Time =    1.000,"PART-1-1",           232,      -9.99605,       28.7334,            0.,NA,NA,"",       5.22267,       5.21103,  -348.495E-03,   70.8331E-12
C:/temp/dataset/2/27_5.odb,Step-1,Increment      1: Step Time =    1.000,"PART-1-1",           233,        -11.25,           30.,            0.,NA,NA,"",       5.39119,       5.38766,  -195.224E-03,   58.1483E-12
C:/temp/dataset/2/27_5.odb,Step-1,Increment      1: Step Time =    1.000,"PART-1-1",           234,      -12.4976,       28.7426,            0.,NA,NA,"",       5.23381,       5.23377,  -21.0569E-03,   67.7473E-12
C:/temp/dataset/2/27_5.odb,Step-1,Increment      1: Step Time =    1.000,"PART-1-1",           235,      -11.2437,       27.4760,            0.,NA,NA,"",       5.06015,       5.05714,  -174.328E-03,   82.9521E-12
C:/temp/dataset/2/27_5.odb,Step-1,Increment      1: Step Time =    1.000,"PART-1-1",           236,      -8.74541,       27.4572,            0.,NA,NA,"",       5.05808,       5.03318,  -501.250E-03,   218.012E-12
C:/temp/dataset/2/27_5.odb,Step-1,Increment      1: Step Time =    1.000,"PART-1-1",           237,      -7.49936,       28.7238,            0.,NA,NA,"",       5.23204,       5.18828,  -675.294E-03,   199.541E-12
C:/temp/dataset/2/27_5.odb,Step-1,Increment      1: Step Time =    1.000,"PART-1-1",           238,         -8.75,           30.,            0.,NA,NA,"",       5.39152,       5.36614,  -522.538E-03,   69.0515E-12
C:/temp/dataset/2/27_5.odb,Step-1,Increment      1: Step Time =    1.000,"PART-1-1",           239,      -10.0020,       21.2344,            0.,NA,NA,"",       4.23874,       4.22927,  -283.161E-03,   64.5083E-12
C:/temp/dataset/2/27_5.odb,Step-1,Increment      1: Step Time =    1.000,"PART-1-1",           240,      -11.2537,       22.4752,            0.,NA,NA,"",       4.40442,       4.40250,  -129.971E-03,   77.1996E-12
C:/temp/dataset/2/27_5.odb,Step-1,Increment      1: Step Time =    1.000,"PART-1-1",           241,        -11.25,           20.,            0.,NA,NA,"",       4.07986,       4.07840,  -109.146E-03,   75.7327E-12
C:/temp/dataset/2/27_5.odb,Step-1,Increment      1: Step Time =    1.000,"PART-1-1",           242,      -6.25410,       27.4469,            0.,NA,NA,"",       5.07823,       5.01038,  -827.338E-03,   862.470E-12
C:/temp/dataset/2/27_5.odb,Step-1,Increment      1: Step Time =    1.000,"PART-1-1",           243,      -7.50120,       26.1906,            0.,NA,NA,"",       4.90037,       4.85664,  -653.247E-03,   363.547E-12
C:/temp/dataset/2/27_5.odb,Step-1,Increment      1: Step Time =    1.000,"PART-1-1",           244,      -6.25844,       24.9303,            0.,NA,NA,"",       4.74967,       4.68093,  -805.108E-03,   980.519E-12
C:/temp/dataset/2/27_5.odb,Step-1,Increment      1: Step Time =    1.000,"PART-1-1",           245,      -5.01133,       26.1865,            0.,NA,NA,"",       4.93284,       4.83468,  -979.200E-03,   1.29530E-09
C:/temp/dataset/2/27_5.odb,Step-1,Increment      1: Step Time =    1.000,"PART-1-1",           246,       1.11906,       22.3143,            0.,NA,NA,"",       4.61869,       4.27493,      -1.74849,   19.3652E-09
C:/temp/dataset/2/27_5.odb,Step-1,Increment      1: Step Time =    1.000,"PART-1-1",           247,  -37.5712E-03,       21.1808,            0.,NA,NA,"",       4.43057,       4.13648,      -1.58730,   9.28783E-09
C:/temp/dataset/2/27_5.odb,Step-1,Increment      1: Step Time =    1.000,"PART-1-1",           248,          1.25,           20.,            0.,NA,NA,"",       4.33760,       3.97080,      -1.74572,   19.4093E-09
C:/temp/dataset/2/27_5.odb,Step-1,Increment      1: Step Time =    1.000,"PART-1-1",           249,       2.40663,       21.1336,            0.,NA,NA,"",       4.53015,       4.10926,      -1.90691,   47.8474E-09
C:/temp/dataset/2/27_5.odb,Step-1,Increment      1: Step Time =    1.000,"PART-1-1",           250,  -46.9838E-03,       26.1228,            0.,NA,NA,"",       5.05323,       4.78359,      -1.62861,   6.25154E-09
C:/temp/dataset/2/27_5.odb,Step-1,Increment      1: Step Time =    1.000,"PART-1-1",           251,       1.11635,       24.7850,            0.,NA,NA,"",       4.92710,       4.59843,      -1.76941,   10.8546E-09
C:/temp/dataset/2/27_5.odb,Step-1,Increment      1: Step Time =    1.000,"PART-1-1",           252,       2.41618,       25.9912,            0.,NA,NA,"",       5.13020,       4.74516,      -1.94997,   7.41892E-09
C:/temp/dataset/2/27_5.odb,Step-1,Increment      1: Step Time =    1.000,"PART-1-1",           253,       1.25284,       27.3289,            0.,NA,NA,"",       5.25178,       4.93033,      -1.80917,   6.52189E-09
C:/temp/dataset/2/27_5.odb,Step-1,Increment      1: Step Time =    1.000,"PART-1-1",           254,       11.4216,       22.1022,            0.,NA,NA,"",       5.18414,       4.15848,      -3.09553,   377.524E-09
C:/temp/dataset/2/27_5.odb,Step-1,Increment      1: Step Time =    1.000,"PART-1-1",           255,       9.70783,       21.3771,            0.,NA,NA,"",       4.98400,       4.07830,      -2.86492,   572.282E-09
C:/temp/dataset/2/27_5.odb,Step-1,Increment      1: Step Time =    1.000,"PART-1-1",           256,       10.3968,       19.2167,            0.,NA,NA,"",       4.79412,       3.78951,      -2.93652,   759.273E-09
C:/temp/dataset/2/27_5.odb,Step-1,Increment      1: Step Time =    1.000,"PART-1-1",           257,       12.1105,       19.9418,            0.,NA,NA,"",       5.00053,       3.86969,      -3.16714,   833.365E-09
C:/temp/dataset/2/27_5.odb,Step-1,Increment      1: Step Time =    1.000,"PART-1-1",           258,       11.6215,       24.7876,            0.,NA,NA,"",       5.49682,       4.50834,      -3.14482,   97.7672E-09
C:/temp/dataset/2/27_5.odb,Step-1,Increment      1: Step Time =    1.000,"PART-1-1",           259,       12.6971,       25.9410,            0.,NA,NA,"",       5.69950,       4.65010,      -3.29557,   58.8684E-09
C:/temp/dataset/2/27_5.odb,Step-1,Increment      1: Step Time =    1.000,"PART-1-1",           260,       11.4859,       27.3886,            0.,NA,NA,"",       5.78291,       4.85005,      -3.14945,   19.2092E-09
C:/temp/dataset/2/27_5.odb,Step-1,Increment      1: Step Time =    1.000,"PART-1-1",           261,       10.4103,       26.2351,            0.,NA,NA,"",       5.58213,       4.70829,      -2.99870,   67.4131E-09
C:/temp/dataset/2/27_5.odb,Step-1,Increment      1: Step Time =    1.000,"PART-1-1",           262,       5.88041,       17.6377,            0.,NA,NA,"",       4.30731,       3.62167,      -2.33162,   1.23722E-06
C:/temp/dataset/2/27_5.odb,Step-1,Increment      1: Step Time =    1.000,"PART-1-1",           263,       6.75071,       18.9160,            0.,NA,NA,"",       4.50940,       3.78153,      -2.45657,   1.06080E-06
C:/temp/dataset/2/27_5.odb,Step-1,Increment      1: Step Time =    1.000,"PART-1-1",           264,       5.87030,       20.0282,            0.,NA,NA,"",       4.58352,       3.93473,      -2.35087,   602.794E-09
C:/temp/dataset/2/27_5.odb,Step-1,Increment      1: Step Time =    1.000,"PART-1-1",           265,            5.,         18.75,            0.,NA,NA,"",       4.38228,       3.77487,      -2.22593,   1.37013E-06
C:/temp/dataset/2/27_5.odb,Step-1,Increment      1: Step Time =    1.000,"PART-1-1",           266,       12.3690,       13.3305,            0.,NA,NA,"",       4.34702,       3.00190,      -3.14407,   9.16277E-06
C:/temp/dataset/2/27_5.odb,Step-1,Increment      1: Step Time =    1.000,"PART-1-1",           267,       13.7195,       12.1790,            0.,NA,NA,"",       4.36183,       2.83954,      -3.31097,   7.20879E-06
C:/temp/dataset/2/27_5.odb,Step-1,Increment      1: Step Time =    1.000,"PART-1-1",           268,           15.,       13.9583,            0.,NA,NA,"",       4.64543,       3.06145,      -3.49392,   2.16261E-06
C:/temp/dataset/2/27_5.odb,Step-1,Increment      1: Step Time =    1.000,"PART-1-1",           269,       13.6495,       15.1098,            0.,NA,NA,"",       4.63272,       3.22382,      -3.32703,   1.90256E-06
C:/temp/dataset/2/27_5.odb,Step-1,Increment      1: Step Time =    1.000,"PART-1-1",           270,       12.5214,       4.81657,            0.,NA,NA,"",       3.62096,       1.88624,      -3.09086,   159.656E-06
C:/temp/dataset/2/27_5.odb,Step-1,Increment      1: Step Time =    1.000,"PART-1-1",           271,       13.7670,       3.58604,            0.,NA,NA,"",       3.66884,       1.71418,      -3.24375,   205.281E-06
C:/temp/dataset/2/27_5.odb,Step-1,Increment      1: Step Time =    1.000,"PART-1-1",           272,           15.,       5.20833,            0.,NA,NA,"",       3.91931,       1.91601,      -3.41905,   205.961E-06
C:/temp/dataset/2/27_5.odb,Step-1,Increment      1: Step Time =    1.000,"PART-1-1",           273,       13.7545,       6.43886,            0.,NA,NA,"",       3.87665,       2.08794,      -3.26633,   117.884E-06
C:/temp/dataset/2/27_5.odb,Step-1,Increment      1: Step Time =    1.000,"PART-1-1",           274,       13.7625,      -2.13133,            0.,NA,NA,"",       3.33640,   962.811E-03,      -3.19446,   154.018E-06
C:/temp/dataset/2/27_5.odb,Step-1,Increment      1: Step Time =    1.000,"PART-1-1",           275,       12.5125,      -3.58966,            0.,NA,NA,"",       3.11713,   781.662E-03,      -3.01754,   144.982E-06
C:/temp/dataset/2/27_5.odb,Step-1,Increment      1: Step Time =    1.000,"PART-1-1",           276,         13.75,           -5.,            0.,NA,NA,"",       3.22158,   585.428E-03,      -3.16794,   38.4159E-06
C:/temp/dataset/2/27_5.odb,Step-1,Increment      1: Step Time =    1.000,"PART-1-1",           277,           15.,      -3.54167,            0.,NA,NA,"",       3.43169,   766.413E-03,      -3.34501,   40.9628E-06
C:/temp/dataset/2/27_5.odb,Step-1,Increment      1: Step Time =    1.000,"PART-1-1",           278,      -9.21387,      -6.21191,            0.,NA,NA,"",   736.075E-03,   719.437E-03,  -155.618E-03,   5.90680E-03
C:/temp/dataset/2/27_5.odb,Step-1,Increment      1: Step Time =    1.000,"PART-1-1",           279,      -8.44405,      -4.75360,            0.,NA,NA,"",   886.635E-03,   853.363E-03,  -240.613E-03,   9.61143E-03
C:/temp/dataset/2/27_5.odb,Step-1,Increment      1: Step Time =    1.000,"PART-1-1",           280,      -9.71477,      -4.17886,            0.,NA,NA,"",   930.353E-03,   922.039E-03,  -124.097E-03,   8.71433E-03
C:/temp/dataset/2/27_5.odb,Step-1,Increment      1: Step Time =    1.000,"PART-1-1",           281,      -10.4846,      -5.63717,            0.,NA,NA,"",   781.753E-03,   780.317E-03,  -47.3672E-03,   6.00163E-03
C:/temp/dataset/2/27_5.odb,Step-1,Increment      1: Step Time =    1.000,"PART-1-1",           282,      -5.84282,   107.969E-03,            0.,NA,NA,"",       1.52682,       1.40443,  -598.963E-03,   9.24834E-03
C:/temp/dataset/2/27_5.odb,Step-1,Increment      1: Step Time =    1.000,"PART-1-1",           283,      -4.64047,       1.60743,            0.,NA,NA,"",       1.76292,       1.58426,  -773.296E-03,   10.2069E-03
C:/temp/dataset/2/27_5.odb,Step-1,Increment      1: Step Time =    1.000,"PART-1-1",           284,      -6.45702,       2.58989,            0.,NA,NA,"",       1.79512,       1.70627,  -557.746E-03,   7.08959E-03
C:/temp/dataset/2/27_5.odb,Step-1,Increment      1: Step Time =    1.000,"PART-1-1",           285,      -7.65937,       1.09043,            0.,NA,NA,"",       1.57702,       1.52639,  -396.387E-03,   8.10869E-03
C:/temp/dataset/2/27_5.odb,Step-1,Increment      1: Step Time =    1.000,"PART-1-1",           286,      -6.51044,      -5.43697,            0.,NA,NA,"",   877.595E-03,   771.740E-03,  -417.841E-03,   22.8553E-03
C:/temp/dataset/2/27_5.odb,Step-1,Increment      1: Step Time =    1.000,"PART-1-1",           287,      -5.48201,      -3.85122,            0.,NA,NA,"",       1.09434,   937.182E-03,  -565.045E-03,   23.9710E-03
C:/temp/dataset/2/27_5.odb,Step-1,Increment      1: Step Time =    1.000,"PART-1-1",           288,      -7.41561,      -3.16785,            0.,NA,NA,"",       1.08286,       1.02031,  -362.707E-03,   12.9397E-03
C:/temp/dataset/2/27_5.odb,Step-1,Increment      1: Step Time =    1.000,"PART-1-1",           289,      -12.6742,      -10.6472,            0.,NA,NA,"",   406.687E-03,   390.269E-03,   114.387E-03,   10.6761E-03
C:/temp/dataset/2/27_5.odb,Step-1,Increment      1: Step Time =    1.000,"PART-1-1",           290,      -11.3911,      -11.6978,            0.,NA,NA,"",   318.248E-03,   316.960E-03,   28.6001E-03,   3.46796E-03
C:/temp/dataset/2/27_5.odb,Step-1,Increment      1: Step Time =    1.000,"PART-1-1",           291,      -10.2167,      -10.1126,            0.,NA,NA,"",   418.176E-03,   415.109E-03,  -50.5501E-03,   3.33804E-03
C:/temp/dataset/2/27_5.odb,Step-1,Increment      1: Step Time =    1.000,"PART-1-1",           292,      -11.4997,      -9.06207,            0.,NA,NA,"",   496.085E-03,   494.540E-03,   39.1209E-03,   4.84253E-03
C:/temp/dataset/2/27_5.odb,Step-1,Increment      1: Step Time =    1.000,"PART-1-1",           293,      -13.7107,      -15.1438,            0.,NA,NA,"",   198.118E-03,   155.176E-03,   123.172E-03,   15.8996E-03
C:/temp/dataset/2/27_5.odb,Step-1,Increment      1: Step Time =    1.000,"PART-1-1",           294,      -12.5249,      -13.4434,            0.,NA,NA,"",   241.245E-03,   225.777E-03,   84.9938E-03,   9.56739E-03
C:/temp/dataset/2/27_5.odb,Step-1,Increment      1: Step Time =    1.000,"PART-1-1",           295,      -13.8143,      -12.2579,            0.,NA,NA,"",   343.511E-03,   299.903E-03,   167.506E-03,   17.1407E-03
C:/temp/dataset/2/27_5.odb,Step-1,Increment      1: Step Time =    1.000,"PART-1-1",           296,          -15.,      -13.9583,            0.,NA,NA,"",   299.048E-03,   221.665E-03,   200.735E-03,   23.5272E-03
C:/temp/dataset/2/27_5.odb,Step-1,Increment      1: Step Time =    1.000,"PART-1-1",           297,      -12.0988,      -16.5012,            0.,NA,NA,"",   104.612E-03,   93.7412E-03,   46.4351E-03,   7.42370E-03
C:/temp/dataset/2/27_5.odb,Step-1,Increment      1: Step Time =    1.000,"PART-1-1",           298,      -10.5811,      -17.2344,            0.,NA,NA,"",   66.5016E-03,   65.8172E-03,  -9.51660E-03,   2.78032E-03
C:/temp/dataset/2/27_5.odb,Step-1,Increment      1: Step Time =    1.000,"PART-1-1",           299,      -9.66362,      -15.1575,            0.,NA,NA,"",   149.774E-03,   140.384E-03,  -52.1987E-03,   6.05642E-03
C:/temp/dataset/2/27_5.odb,Step-1,Increment      1: Step Time =    1.000,"PART-1-1",           300,      -11.1813,      -14.4243,            0.,NA,NA,"",   173.842E-03,   173.218E-03,   14.7240E-03,   2.33865E-03
C:/temp/dataset/2/27_5.odb,Step-1,Increment      1: Step Time =    1.000,"PART-1-1",           301,      -10.5090,      -18.8394,            0.,NA,NA,"",   26.5301E-03,   24.1731E-03,  -10.9319E-03,   4.57758E-03
C:/temp/dataset/2/27_5.odb,Step-1,Increment      1: Step Time =    1.000,"PART-1-1",           302,      -8.88448,      -18.7076,            0.,NA,NA,"",   62.0983E-03,   26.4113E-03,  -56.2018E-03,   7.84563E-03
C:/temp/dataset/2/27_5.odb,Step-1,Increment      1: Step Time =    1.000,"PART-1-1",           303,      -8.95657,      -17.1026,            0.,NA,NA,"",   95.9661E-03,   70.1182E-03,  -65.5205E-03,   8.60890E-03
C:/temp/dataset/2/27_5.odb,Step-1,Increment      1: Step Time =    1.000,"PART-1-1",           304,      -8.08225,      -19.7831,            0.,NA,NA,"",   67.4317E-03,   6.97824E-03,  -67.0696E-03,   9.92740E-03
C:/temp/dataset/2/27_5.odb,Step-1,Increment      1: Step Time =    1.000,"PART-1-1",           305,      -6.89084,      -18.8787,            0.,NA,NA,"",   104.564E-03,   25.8565E-03,  -101.317E-03,   16.3213E-03
C:/temp/dataset/2/27_5.odb,Step-1,Increment      1: Step Time =    1.000,"PART-1-1",           306,      -7.69307,      -17.8032,            0.,NA,NA,"",   110.806E-03,   52.8169E-03,  -97.4083E-03,   15.6322E-03
C:/temp/dataset/2/27_5.odb,Step-1,Increment      1: Step Time =    1.000,"PART-1-1",           307,       7.10093,      -24.9223,            0.,NA,NA,"",   5.08178E-03,   5.04279E-03,   628.303E-06,   596.237E-06
C:/temp/dataset/2/27_5.odb,Step-1,Increment      1: Step Time =    1.000,"PART-1-1",           308,       8.59925,      -23.6815,            0.,NA,NA,"",   4.72969E-03,   4.64956E-03,   866.894E-06,   265.087E-06
C:/temp/dataset/2/27_5.odb,Step-1,Increment      1: Step Time =    1.000,"PART-1-1",           309,       6.88316,      -22.4353,            0.,NA,NA,"",   4.95727E-03,   4.84704E-03,   1.03956E-03,   250.376E-06
C:/temp/dataset/2/27_5.odb,Step-1,Increment      1: Step Time =    1.000,"PART-1-1",           310,       5.38484,      -23.6762,            0.,NA,NA,"",   5.79863E-03,   5.78067E-03,   456.046E-06,   469.189E-06
C:/temp/dataset/2/27_5.odb,Step-1,Increment      1: Step Time =    1.000,"PART-1-1",           311,       13.3798,      -22.4744,            0.,NA,NA,"",   4.45859E-03,   4.44800E-03,  -307.235E-06,   58.9841E-06
C:/temp/dataset/2/27_5.odb,Step-1,Increment      1: Step Time =    1.000,"PART-1-1",           312,           15.,        -21.25,            0.,NA,NA,"",   4.84679E-03,   4.77856E-03,  -810.385E-06,   18.7921E-06
C:/temp/dataset/2/27_5.odb,Step-1,Increment      1: Step Time =    1.000,"PART-1-1",           313,       13.3333,          -20.,            0.,NA,NA,"",   5.14817E-03,   5.14037E-03,  -283.252E-06,   32.7852E-06
C:/temp/dataset/2/27_5.odb,Step-1,Increment      1: Step Time =    1.000,"PART-1-1",           314,       11.7131,      -21.2244,            0.,NA,NA,"",   4.76309E-03,   4.75618E-03,   256.362E-06,   56.6445E-06
C:/temp/dataset/2/27_5.odb,Step-1,Increment      1: Step Time =    1.000,"PART-1-1",           315,      -2.14863,       2.00914,            0.,NA,NA,"",       1.97095,       1.62707,      -1.11234,   10.1469E-03
C:/temp/dataset/2/27_5.odb,Step-1,Increment      1: Step Time =    1.000,"PART-1-1",           316,      -1.66393,   575.985E-03,            0.,NA,NA,"",       1.85389,       1.44591,      -1.16028,   9.47097E-03
C:/temp/dataset/2/27_5.odb,Step-1,Increment      1: Step Time =    1.000,"PART-1-1",           317,   135.628E-03,       1.10435,            0.,NA,NA,"",       2.06175,       1.50085,      -1.41359,   7.46005E-03
C:/temp/dataset/2/27_5.odb,Step-1,Increment      1: Step Time =    1.000,"PART-1-1",           318,  -349.073E-03,       2.53751,            0.,NA,NA,"",       2.16981,       1.68613,      -1.36567,   8.13768E-03
C:/temp/dataset/2/27_5.odb,Step-1,Increment      1: Step Time =    1.000,"PART-1-1",           319,   156.145E-03,      -1.87787,            0.,NA,NA,"",       1.78111,       1.11991,      -1.38497,   6.43805E-03
C:/temp/dataset/2/27_5.odb,Step-1,Increment      1: Step Time =    1.000,"PART-1-1",           320,       1.21010,      -2.70880,            0.,NA,NA,"",       1.82154,   999.447E-03,      -1.52287,   3.58041E-03
C:/temp/dataset/2/27_5.odb,Step-1,Increment      1: Step Time =    1.000,"PART-1-1",           321,       2.32846,      -1.50081,            0.,NA,NA,"",       2.03918,       1.14692,      -1.68607,   3.08588E-03
C:/temp/dataset/2/27_5.odb,Step-1,Increment      1: Step Time =    1.000,"PART-1-1",           322,       1.27451,  -669.883E-03,            0.,NA,NA,"",       2.00083,       1.26486,      -1.55031,   5.50760E-03
C:/temp/dataset/2/27_5.odb,Step-1,Increment      1: Step Time =    1.000,"PART-1-1",           323,       4.87500,      -1.23074,            0.,NA,NA,"",       2.33843,       1.15915,      -2.03091,   1.12294E-03
C:/temp/dataset/2/27_5.odb,Step-1,Increment      1: Step Time =    1.000,"PART-1-1",           324,       6.20088,      -2.43579,            0.,NA,NA,"",       2.40841,   988.374E-03,      -2.19625,   301.288E-06
C:/temp/dataset/2/27_5.odb,Step-1,Increment      1: Step Time =    1.000,"PART-1-1",           325,       7.44880,      -1.07477,            0.,NA,NA,"",       2.64051,       1.15714,      -2.37346,   217.180E-06
C:/temp/dataset/2/27_5.odb,Step-1,Increment      1: Step Time =    1.000,"PART-1-1",           326,       6.12293,   130.279E-03,            0.,NA,NA,"",       2.57742,       1.32745,      -2.20930,   874.908E-06
C:/temp/dataset/2/27_5.odb,Step-1,Increment      1: Step Time =    1.000,"PART-1-1",           327,          8.75,           -5.,            0.,NA,NA,"",       2.58751,   627.831E-03,      -2.51018,   500.921E-06
C:/temp/dataset/2/27_5.odb,Step-1,Increment      1: Step Time =    1.000,"PART-1-1",           328,       10.0063,      -3.63741,            0.,NA,NA,"",       2.80333,   796.851E-03,      -2.68769,   265.952E-06
C:/temp/dataset/2/27_5.odb,Step-1,Increment      1: Step Time =    1.000,"PART-1-1",           329,       8.73716,      -2.32557,            0.,NA,NA,"",       2.71553,   980.816E-03,      -2.53221,   224.213E-06
C:/temp/dataset/2/27_5.odb,Step-1,Increment      1: Step Time =    1.000,"PART-1-1",           330,       7.48081,      -3.68816,            0.,NA,NA,"",       2.49041,   811.626E-03,      -2.35444,   347.893E-06
C:/temp/dataset/2/27_5.odb,Step-1,Increment      1: Step Time =    1.000,"PART-1-1",           331,       6.24109,       7.72904,            0.,NA,NA,"",       3.26299,       2.32077,      -2.29371,   156.737E-06
C:/temp/dataset/2/27_5.odb,Step-1,Increment      1: Step Time =    1.000,"PART-1-1",           332,            5.,          6.25,            0.,NA,NA,"",       3.00991,       2.13745,      -2.11916,   1.07113E-03
C:/temp/dataset/2/27_5.odb,Step-1,Increment      1: Step Time =    1.000,"PART-1-1",           333,       6.24095,       5.17046,            0.,NA,NA,"",       3.01679,       1.98579,      -2.27105,   652.159E-06
C:/temp/dataset/2/27_5.odb,Step-1,Increment      1: Step Time =    1.000,"PART-1-1",           334,       7.48203,       6.64950,            0.,NA,NA,"",       3.26948,       2.16895,      -2.44646,   455.454E-06
C:/temp/dataset/2/27_5.odb,Step-1,Increment      1: Step Time =    1.000,"PART-1-1",           335,       7.34508,       23.6052,            0.,NA,NA,"",       5.08965,       4.39035,      -2.57475,   152.528E-09
C:/temp/dataset/2/27_5.odb,Step-1,Increment      1: Step Time =    1.000,"PART-1-1",           336,       6.41056,       24.2397,            0.,NA,NA,"",       5.11122,       4.48146,      -2.45786,   72.5311E-09
C:/temp/dataset/2/27_5.odb,Step-1,Increment      1: Step Time =    1.000,"PART-1-1",           337,       6.08150,       22.9932,            0.,NA,NA,"",       4.94483,       4.32110,      -2.40405,   164.152E-09
C:/temp/dataset/2/27_5.odb,Step-1,Increment      1: Step Time =    1.000,"PART-1-1",           338,       7.01602,       22.3587,            0.,NA,NA,"",       4.92422,       4.22999,      -2.52094,   263.969E-09
C:/temp/dataset/2/27_5.odb,Step-1,Increment      1: Step Time =    1.000,"PART-1-1",           339,      -12.5005,       23.7291,            0.,NA,NA,"",       4.57746,       4.57740,   22.4793E-03,   78.4370E-12
C:/temp/dataset/2/27_5.odb,Step-1,Increment      1: Step Time =    1.000,"PART-1-1",           340,      -13.7489,       24.9883,            0.,NA,NA,"",       4.75623,       4.75301,   175.084E-03,   61.2521E-12
C:/temp/dataset/2/27_5.odb,Step-1,Increment      1: Step Time =    1.000,"PART-1-1",           341,          -15.,         23.75,            0.,NA,NA,"",       4.61491,       4.60165,   349.546E-03,   51.5692E-12
C:/temp/dataset/2/27_5.odb,Step-1,Increment      1: Step Time =    1.000,"PART-1-1",           342,      -2.52491,       26.1674,            0.,NA,NA,"",       4.98452,       4.81077,      -1.30457,   3.82879E-09
C:/temp/dataset/2/27_5.odb,Step-1,Increment      1: Step Time =    1.000,"PART-1-1",           343,      -1.30373,       24.8780,            0.,NA,NA,"",       4.85412,       4.63144,      -1.45336,   6.57910E-09
C:/temp/dataset/2/27_5.odb,Step-1,Increment      1: Step Time =    1.000,"PART-1-1",           344,      -1.26817,       27.4122,            0.,NA,NA,"",       5.17885,       4.96292,      -1.47983,   5.37888E-09
C:/temp/dataset/2/27_5.odb,Step-1,Increment      1: Step Time =    1.000,"PART-1-1",           345,       2.31009,       23.4917,            0.,NA,NA,"",       4.81577,       4.41884,      -1.91457,   18.2854E-09
C:/temp/dataset/2/27_5.odb,Step-1,Increment      1: Step Time =    1.000,"PART-1-1",           346,       3.41051,       22.2101,            0.,NA,NA,"",       4.70994,       4.24156,      -2.04761,   37.9132E-09
C:/temp/dataset/2/27_5.odb,Step-1,Increment      1: Step Time =    1.000,"PART-1-1",           347,       4.46987,       23.2845,            0.,NA,NA,"",       4.89332,       4.37312,      -2.19555,   57.4509E-09
C:/temp/dataset/2/27_5.odb,Step-1,Increment      1: Step Time =    1.000,"PART-1-1",           348,       3.36945,       24.5662,            0.,NA,NA,"",       4.99600,       4.55040,      -2.06251,   20.4905E-09
C:/temp/dataset/2/27_5.odb,Step-1,Increment      1: Step Time =    1.000,"PART-1-1",           349,       3.92627,       27.0683,            0.,NA,NA,"",       5.32921,       4.87319,      -2.15695,   5.66470E-09
C:/temp/dataset/2/27_5.odb,Step-1,Increment      1: Step Time =    1.000,"PART-1-1",           350,       5.16355,       28.4353,            0.,NA,NA,"",       5.55420,       5.04152,      -2.33071,   10.0115E-09
C:/temp/dataset/2/27_5.odb,Step-1,Increment      1: Step Time =    1.000,"PART-1-1",           351,          3.75,           30.,            0.,NA,NA,"",       5.68454,       5.25854,      -2.15911,   17.4545E-09
C:/temp/dataset/2/27_5.odb,Step-1,Increment      1: Step Time =    1.000,"PART-1-1",           352,       2.51272,       28.6330,            0.,NA,NA,"",       5.46369,       5.09021,      -1.98535,   9.27169E-09
C:/temp/dataset/2/27_5.odb,Step-1,Increment      1: Step Time =    1.000,"PART-1-1",           353,       11.0463,       14.3537,            0.,NA,NA,"",       4.33403,       3.14724,      -2.97971,   2.98053E-06
C:/temp/dataset/2/27_5.odb,Step-1,Increment      1: Step Time =    1.000,"PART-1-1",           354,       9.86747,       12.5470,            0.,NA,NA,"",       4.05294,       2.92083,      -2.80981,   18.6735E-06
C:/temp/dataset/2/27_5.odb,Step-1,Increment      1: Step Time =    1.000,"PART-1-1",           355,       11.1901,       11.5237,            0.,NA,NA,"",       4.06806,       2.77551,      -2.97417,   25.1364E-06
C:/temp/dataset/2/27_5.odb,Step-1,Increment      1: Step Time =    1.000,"PART-1-1",           356,       9.55073,       15.1783,            0.,NA,NA,"",       4.29766,       3.26807,      -2.79099,   4.59556E-06
C:/temp/dataset/2/27_5.odb,Step-1,Increment      1: Step Time =    1.000,"PART-1-1",           357,       8.18591,       15.9712,            0.,NA,NA,"",       4.27888,       3.38363,      -2.61913,   1.40554E-06
C:/temp/dataset/2/27_5.odb,Step-1,Increment      1: Step Time =    1.000,"PART-1-1",           358,       7.20669,       14.2932,            0.,NA,NA,"",       4.02452,       3.17235,      -2.47647,   7.19750E-06
C:/temp/dataset/2/27_5.odb,Step-1,Increment      1: Step Time =    1.000,"PART-1-1",           359,       8.57151,       13.5002,            0.,NA,NA,"",       4.04446,       3.05678,      -2.64834,   4.74159E-06
C:/temp/dataset/2/27_5.odb,Step-1,Increment      1: Step Time =    1.000,"PART-1-1",           360,       7.44377,       1.50598,            0.,NA,NA,"",       2.82498,       1.49681,      -2.39584,   356.432E-06
C:/temp/dataset/2/27_5.odb,Step-1,Increment      1: Step Time =    1.000,"PART-1-1",           361,       8.72836,   326.342E-03,            0.,NA,NA,"",       2.88002,       1.33045,      -2.55429,   230.266E-06
C:/temp/dataset/2/27_5.odb,Step-1,Increment      1: Step Time =    1.000,"PART-1-1",           362,       10.0261,       1.76283,            0.,NA,NA,"",       3.12500,       1.50779,      -2.73719,   167.853E-06
C:/temp/dataset/2/27_5.odb,Step-1,Increment      1: Step Time =    1.000,"PART-1-1",           363,       8.74149,       2.94246,            0.,NA,NA,"",       3.07433,       1.67377,      -2.57876,   304.207E-06
C:/temp/dataset/2/27_5.odb,Step-1,Increment      1: Step Time =    1.000,"PART-1-1",           364,       12.5045,       7.62102,            0.,NA,NA,"",       3.84276,       2.25344,      -3.11269,   115.356E-06
C:/temp/dataset/2/27_5.odb,Step-1,Increment      1: Step Time =    1.000,"PART-1-1",           365,           15.,         8.125,            0.,NA,NA,"",       4.14005,       2.29787,      -3.44380,   78.3277E-06
C:/temp/dataset/2/27_5.odb,Step-1,Increment      1: Step Time =    1.000,"PART-1-1",           366,       13.7500,       9.30715,            0.,NA,NA,"",       4.11026,       2.46337,      -3.29029,   41.4773E-06
C:/temp/dataset/2/27_5.odb,Step-1,Increment      1: Step Time =    1.000,"PART-1-1",           367,      -1.45938,      -2.40358,            0.,NA,NA,"",       1.57549,       1.07092,      -1.15555,   9.59985E-03
C:/temp/dataset/2/27_5.odb,Step-1,Increment      1: Step Time =    1.000,"PART-1-1",           368,      -2.69869,      -3.52952,            0.,NA,NA,"",       1.35215,   942.596E-03,  -969.445E-03,   9.84058E-03
C:/temp/dataset/2/27_5.odb,Step-1,Increment      1: Step Time =    1.000,"PART-1-1",           369,         -1.25,           -5.,            0.,NA,NA,"",       1.36872,   717.135E-03,      -1.16581,   5.20822E-03
C:/temp/dataset/2/27_5.odb,Step-1,Increment      1: Step Time =    1.000,"PART-1-1",           370,  -10.6917E-03,      -3.87406,            0.,NA,NA,"",       1.59608,   857.258E-03,      -1.34633,   3.23859E-03
C:/temp/dataset/2/27_5.odb,Step-1,Increment      1: Step Time =    1.000,"PART-1-1",           371,      -13.3333,            5.,            0.,NA,NA,"",       2.00811,       1.99866,   194.582E-03,   1.20734E-03
C:/temp/dataset/2/27_5.odb,Step-1,Increment      1: Step Time =    1.000,"PART-1-1",           372,          -15.,       3.54167,            0.,NA,NA,"",       1.88523,       1.84428,   390.819E-03,   1.08189E-03
C:/temp/dataset/2/27_5.odb,Step-1,Increment      1: Step Time =    1.000,"PART-1-1",           373,      -13.2137,       2.05352,            0.,NA,NA,"",       1.67301,       1.66109,   199.349E-03,   4.99819E-03
C:/temp/dataset/2/27_5.odb,Step-1,Increment      1: Step Time =    1.000,"PART-1-1",           374,      -11.5470,       3.51185,            0.,NA,NA,"",       1.82263,       1.82261,   8.43846E-03,   5.27181E-03
C:/temp/dataset/2/27_5.odb,Step-1,Increment      1: Step Time =    1.000,"PART-1-1",           375,          -15.,      625.E-03,            0.,NA,NA,"",       1.56096,       1.50795,   403.357E-03,   6.57843E-03
C:/temp/dataset/2/27_5.odb,Step-1,Increment      1: Step Time =    1.000,"PART-1-1",           376,      -12.9883,      -1.02354,            0.,NA,NA,"",       1.31154,       1.29835,   185.495E-03,   8.93370E-03
C:/temp/dataset/2/27_5.odb,Step-1,Increment      1: Step Time =    1.000,"PART-1-1",           377,      -11.2019,   404.974E-03,            0.,NA,NA,"",       1.45484,       1.45482,  -6.01463E-03,   10.1966E-03
C:/temp/dataset/2/27_5.odb,Step-1,Increment      1: Step Time =    1.000,"PART-1-1",           378,      -13.6690,      -3.88141,            0.,NA,NA,"",       1.01658,   985.773E-03,   248.365E-03,   13.4896E-03
C:/temp/dataset/2/27_5.odb,Step-1,Increment      1: Step Time =    1.000,"PART-1-1",           379,      -11.6573,      -2.61328,            0.,NA,NA,"",       1.10780,       1.10647,   54.2423E-03,   10.3199E-03
C:/temp/dataset/2/27_5.odb,Step-1,Increment      1: Step Time =    1.000,"PART-1-1",           380,          -15.,      -2.29167,            0.,NA,NA,"",       1.23945,       1.17457,   395.770E-03,   14.5093E-03
C:/temp/dataset/2/27_5.odb,Step-1,Increment      1: Step Time =    1.000,"PART-1-1",           381,           -5.,         -8.75,            0.,NA,NA,"",   700.869E-03,   535.961E-03,  -451.622E-03,   34.2013E-03
C:/temp/dataset/2/27_5.odb,Step-1,Increment      1: Step Time =    1.000,"PART-1-1",           382,      -6.37238,      -7.84264,            0.,NA,NA,"",   694.711E-03,   583.722E-03,  -376.687E-03,   26.2003E-03
C:/temp/dataset/2/27_5.odb,Step-1,Increment      1: Step Time =    1.000,"PART-1-1",           383,      -7.67841,      -9.42411,            0.,NA,NA,"",   522.584E-03,   464.986E-03,  -238.499E-03,   17.6198E-03
C:/temp/dataset/2/27_5.odb,Step-1,Increment      1: Step Time =    1.000,"PART-1-1",           384,      -6.30603,      -10.3315,            0.,NA,NA,"",   521.159E-03,   415.145E-03,  -315.057E-03,   25.8174E-03
C:/temp/dataset/2/27_5.odb,Step-1,Increment      1: Step Time =    1.000,"PART-1-1",           385,      -13.6103,      -21.3688,            0.,NA,NA,"",   45.7972E-03,  -4.10905E-03,   45.6125E-03,   11.4687E-03
C:/temp/dataset/2/27_5.odb,Step-1,Increment      1: Step Time =    1.000,"PART-1-1",           386,          -15.,      -22.7083,            0.,NA,NA,"",   46.8076E-03,  -7.53955E-03,   46.1964E-03,   13.9238E-03
C:/temp/dataset/2/27_5.odb,Step-1,Increment      1: Step Time =    1.000,"PART-1-1",           387,      -13.6241,      -24.2925,            0.,NA,NA,"",   29.7861E-03,  -20.1106E-03,   21.9722E-03,   7.96368E-03
C:/temp/dataset/2/27_5.odb,Step-1,Increment      1: Step Time =    1.000,"PART-1-1",           388,      -12.2343,      -22.9530,            0.,NA,NA,"",   25.4370E-03,  -20.3576E-03,   15.2515E-03,   7.47776E-03
C:/temp/dataset/2/27_5.odb,Step-1,Increment      1: Step Time =    1.000,"PART-1-1",           389,           -5.,        -16.25,            0.,NA,NA,"",   260.403E-03,   132.718E-03,  -224.044E-03,   32.6181E-03
C:/temp/dataset/2/27_5.odb,Step-1,Increment      1: Step Time =    1.000,"PART-1-1",           390,      -6.06585,      -15.2329,            0.,NA,NA,"",   261.275E-03,   159.045E-03,  -207.290E-03,   26.5113E-03
C:/temp/dataset/2/27_5.odb,Step-1,Increment      1: Step Time =    1.000,"PART-1-1",           391,      -6.99530,      -16.6022,            0.,NA,NA,"",   170.092E-03,   96.2621E-03,  -140.232E-03,   20.6793E-03
C:/temp/dataset/2/27_5.odb,Step-1,Increment      1: Step Time =    1.000,"PART-1-1",           392,      -5.92946,      -17.6192,            0.,NA,NA,"",   167.053E-03,   70.7320E-03,  -151.339E-03,   27.2974E-03
C:/temp/dataset/2/27_5.odb,Step-1,Increment      1: Step Time =    1.000,"PART-1-1",           393,         -13.5,          -30.,            0.,NA,NA,"",            0.,  -3.57388E-39,   3.14408E-39,   3.74614E-03
C:/temp/dataset/2/27_5.odb,Step-1,Increment      1: Step Time =    1.000,"PART-1-1",           394,      -12.0804,      -28.6247,            0.,NA,NA,"",   9.74909E-03,  -9.65220E-03,   1.37106E-03,   5.50187E-03
C:/temp/dataset/2/27_5.odb,Step-1,Increment      1: Step Time =    1.000,"PART-1-1",           395,      -13.5804,      -27.1664,            0.,NA,NA,"",   16.8467E-03,  -14.9675E-03,   7.73224E-03,   5.23371E-03
C:/temp/dataset/2/27_5.odb,Step-1,Increment      1: Step Time =    1.000,"PART-1-1",           396,          -15.,      -28.5417,            0.,NA,NA,"",   5.89830E-03,  -5.74721E-03,   1.32650E-03,   3.57017E-03
C:/temp/dataset/2/27_5.odb,Step-1,Increment      1: Step Time =    1.000,"PART-1-1",           397,          13.5,          -30.,            0.,NA,NA,"",            0.,   307.376E-42,  -544.070E-42,   593.761E-06
C:/temp/dataset/2/27_5.odb,Step-1,Increment      1: Step Time =    1.000,"PART-1-1",           398,           15.,        -28.75,            0.,NA,NA,"",   1.23585E-03,   1.05241E-03,  -647.887E-06,   485.272E-06
C:/temp/dataset/2/27_5.odb,Step-1,Increment      1: Step Time =    1.000,"PART-1-1",           399,       13.4640,      -27.4843,            0.,NA,NA,"",   1.98602E-03,   1.96608E-03,  -280.682E-06,   299.576E-06
C:/temp/dataset/2/27_5.odb,Step-1,Increment      1: Step Time =    1.000,"PART-1-1",           400,       11.9640,      -28.7343,            0.,NA,NA,"",   1.04679E-03,   1.04514E-03,  -58.7433E-06,   519.286E-06
C:/temp/dataset/2/27_5.odb,Step-1,Increment      1: Step Time =    1.000,"PART-1-1",           401,       10.2658,      -24.9335,            0.,NA,NA,"",   3.98176E-03,   3.95739E-03,   439.836E-06,   303.195E-06
C:/temp/dataset/2/27_5.odb,Step-1,Increment      1: Step Time =    1.000,"PART-1-1",           402,       8.77397,      -26.1861,            0.,NA,NA,"",   3.82828E-03,   3.81104E-03,   362.891E-06,   542.478E-06
C:/temp/dataset/2/27_5.odb,Step-1,Increment      1: Step Time =    1.000,"PART-1-1",           403,       10.3945,      -27.4590,            0.,NA,NA,"",   2.40756E-03,   2.40580E-03,   91.8206E-06,   575.651E-06
C:/temp/dataset/2/27_5.odb,Step-1,Increment      1: Step Time =    1.000,"PART-1-1",           404,       11.8863,      -26.2064,            0.,NA,NA,"",   3.00107E-03,   3.00104E-03,   14.5359E-06,   330.955E-06
C:/temp/dataset/2/27_5.odb,Step-1,Increment      1: Step Time =    1.000,"PART-1-1",           405,       8.93044,      -28.7247,            0.,NA,NA,"",   1.54805E-03,   1.54786E-03,  -24.7188E-06,   748.936E-06
C:/temp/dataset/2/27_5.odb,Step-1,Increment      1: Step Time =    1.000,"PART-1-1",           406,       7.31300,      -27.4411,            0.,NA,NA,"",   3.48218E-03,   3.48181E-03,   50.3055E-06,   906.019E-06
C:/temp/dataset/2/27_5.odb,Step-1,Increment      1: Step Time =    1.000,"PART-1-1",           407,       5.88256,      -28.7164,            0.,NA,NA,"",   2.44175E-03,   2.43178E-03,  -220.369E-06,   1.22116E-03
C:/temp/dataset/2/27_5.odb,Step-1,Increment      1: Step Time =    1.000,"PART-1-1",           408,           7.5,          -30.,            0.,NA,NA,"",            0.,   1.20822E-39,  -550.799E-42,   1.11837E-03
C:/temp/dataset/2/27_5.odb,Step-1,Increment      1: Step Time =    1.000,"PART-1-1",           409,       5.63995,      -26.1773,            0.,NA,NA,"",   5.44421E-03,   5.44416E-03,  -25.3040E-06,   900.358E-06
C:/temp/dataset/2/27_5.odb,Step-1,Increment      1: Step Time =    1.000,"PART-1-1",           410,       3.92490,      -24.9166,            0.,NA,NA,"",   7.04308E-03,   6.99978E-03,  -779.805E-06,   1.07464E-03
C:/temp/dataset/2/27_5.odb,Step-1,Increment      1: Step Time =    1.000,"PART-1-1",           411,       2.50142,      -26.1700,            0.,NA,NA,"",   8.04060E-03,   7.66032E-03,  -2.44350E-03,   1.60608E-03
C:/temp/dataset/2/27_5.odb,Step-1,Increment      1: Step Time =    1.000,"PART-1-1",           412,       4.21647,      -27.4307,            0.,NA,NA,"",   5.27525E-03,   5.21854E-03,  -771.415E-06,   1.43725E-03
C:/temp/dataset/2/27_5.odb,Step-1,Increment      1: Step Time =    1.000,"PART-1-1",           413,       1.12659,      -27.4308,            0.,NA,NA,"",   7.62901E-03,   6.85450E-03,  -3.34927E-03,   2.50937E-03
C:/temp/dataset/2/27_5.odb,Step-1,Increment      1: Step Time =    1.000,"PART-1-1",           414,  -207.324E-03,      -28.7165,            0.,NA,NA,"",   4.87849E-03,   4.14125E-03,  -2.57870E-03,   3.41611E-03
C:/temp/dataset/2/27_5.odb,Step-1,Increment      1: Step Time =    1.000,"PART-1-1",           415,           1.5,          -30.,            0.,NA,NA,"",            0.,   2.68119E-39,  -3.93179E-39,   2.85247E-03
C:/temp/dataset/2/27_5.odb,Step-1,Increment      1: Step Time =    1.000,"PART-1-1",           416,       2.83391,      -28.7143,            0.,NA,NA,"",   3.70997E-03,   3.58892E-03,  -939.967E-06,   2.04916E-03
C:/temp/dataset/2/27_5.odb,Step-1,Increment      1: Step Time =    1.000,"PART-1-1",           417,      -1.92078,      -27.4395,            0.,NA,NA,"",   10.1723E-03,   5.79029E-03,  -8.36347E-03,   4.63053E-03
C:/temp/dataset/2/27_5.odb,Step-1,Increment      1: Step Time =    1.000,"PART-1-1",           418,      -3.21345,      -28.7230,            0.,NA,NA,"",   5.18339E-03,   2.08423E-03,  -4.74589E-03,   5.13962E-03
C:/temp/dataset/2/27_5.odb,Step-1,Increment      1: Step Time =    1.000,"PART-1-1",           419,          -1.5,          -30.,            0.,NA,NA,"",            0.,   2.55395E-39,  -7.50404E-39,   3.79654E-03
C:/temp/dataset/2/27_5.odb,Step-1,Increment      1: Step Time =    1.000,"PART-1-1",           420,      -5.57419,      -22.4519,            0.,NA,NA,"",   59.0938E-03,   941.400E-06,  -59.0863E-03,   14.3697E-03
C:/temp/dataset/2/27_5.odb,Step-1,Increment      1: Step Time =    1.000,"PART-1-1",           421,      -6.77537,      -23.6376,            0.,NA,NA,"",   44.2557E-03,  -9.17169E-03,  -43.2949E-03,   13.0497E-03
C:/temp/dataset/2/27_5.odb,Step-1,Increment      1: Step Time =    1.000,"PART-1-1",           422,      -5.25528,      -24.9124,            0.,NA,NA,"",   31.5302E-03,  -1.14673E-03,  -31.5094E-03,   9.61121E-03
C:/temp/dataset/2/27_5.odb,Step-1,Increment      1: Step Time =    1.000,"PART-1-1",           423,      -4.05411,      -23.7268,            0.,NA,NA,"",   36.6219E-03,   6.22772E-03,  -36.0885E-03,   10.7903E-03
C:/temp/dataset/2/27_5.odb,Step-1,Increment      1: Step Time =    1.000,"PART-1-1",           424,       13.4223,      -24.9720,            0.,NA,NA,"",   3.59367E-03,   3.57325E-03,  -382.549E-06,   82.6642E-06
C:/temp/dataset/2/27_5.odb,Step-1,Increment      1: Step Time =    1.000,"PART-1-1",           425,           15.,        -26.25,            0.,NA,NA,"",   3.08353E-03,   2.87467E-03,  -1.11554E-03,   64.3308E-06
C:/temp/dataset/2/27_5.odb,Step-1,Increment      1: Step Time =    1.000,"PART-1-1",           426,       11.8021,      -23.6964,            0.,NA,NA,"",   4.15740E-03,   4.15311E-03,   188.722E-06,   70.4097E-06
C:/temp/dataset/2/27_5.odb,Step-1,Increment      1: Step Time =    1.000,"PART-1-1",           427,       10.1355,      -22.4445,            0.,NA,NA,"",   4.60891E-03,   4.55511E-03,   702.179E-06,   129.599E-06
C:/temp/dataset/2/27_5.odb,Step-1,Increment      1: Step Time =    1.000,"PART-1-1",           428,      -2.31424,      -24.9364,            0.,NA,NA,"",   21.2224E-03,   8.51173E-03,  -19.4407E-03,   6.15111E-03
C:/temp/dataset/2/27_5.odb,Step-1,Increment      1: Step Time =    1.000,"PART-1-1",           429,      -3.63092,      -26.1962,            0.,NA,NA,"",   18.8324E-03,   3.93177E-03,  -18.4174E-03,   7.34089E-03
C:/temp/dataset/2/27_5.odb,Step-1,Increment      1: Step Time =    1.000,"PART-1-1",           430,  -604.096E-03,      -26.1796,            0.,NA,NA,"",   12.5214E-03,   8.77934E-03,  -8.92803E-03,   3.79801E-03
C:/temp/dataset/2/27_5.odb,Step-1,Increment      1: Step Time =    1.000,"PART-1-1",           431,      -7.52977,      -11.9021,            0.,NA,NA,"",   370.575E-03,   309.787E-03,  -203.365E-03,   18.8004E-03
C:/temp/dataset/2/27_5.odb,Step-1,Increment      1: Step Time =    1.000,"PART-1-1",           432,      -6.22373,      -12.8207,            0.,NA,NA,"",   373.808E-03,   270.165E-03,  -258.348E-03,   25.8167E-03
C:/temp/dataset/2/27_5.odb,Step-1,Increment      1: Step Time =    1.000,"PART-1-1",           433,           -5.,        -11.25,            0.,NA,NA,"",   528.178E-03,   372.653E-03,  -374.302E-03,   32.6875E-03
C:/temp/dataset/2/27_5.odb,Step-1,Increment      1: Step Time =    1.000,"PART-1-1",           434,      -10.0475,      -12.6788,            0.,NA,NA,"",   263.043E-03,   258.636E-03,  -47.9473E-03,   4.42505E-03
C:/temp/dataset/2/27_5.odb,Step-1,Increment      1: Step Time =    1.000,"PART-1-1",           435,           -5.,         -6.25,            0.,NA,NA,"",   900.355E-03,   716.250E-03,  -545.550E-03,   43.3354E-03
C:/temp/dataset/2/27_5.odb,Step-1,Increment      1: Step Time =    1.000,"PART-1-1",           436,      -7.88282,      -7.02961,            0.,NA,NA,"",   694.255E-03,   642.067E-03,  -264.083E-03,   11.5159E-03
C:/temp/dataset/2/27_5.odb,Step-1,Increment      1: Step Time =    1.000,"PART-1-1",           437,      -13.8577,      -6.65334,            0.,NA,NA,"",   754.587E-03,   714.615E-03,   242.338E-03,   17.0946E-03
C:/temp/dataset/2/27_5.odb,Step-1,Increment      1: Step Time =    1.000,"PART-1-1",           438,      -12.5267,      -5.32641,            0.,NA,NA,"",   837.469E-03,   826.596E-03,   134.506E-03,   10.4667E-03
C:/temp/dataset/2/27_5.odb,Step-1,Increment      1: Step Time =    1.000,"PART-1-1",           439,          -15.,      -5.20833,            0.,NA,NA,"",   939.840E-03,   866.288E-03,   364.479E-03,   20.9585E-03
C:/temp/dataset/2/27_5.odb,Step-1,Increment      1: Step Time =    1.000,"PART-1-1",           440,          1.25,           -5.,            0.,NA,NA,"",       1.65960,   691.902E-03,      -1.50849,   966.368E-06
C:/temp/dataset/2/27_5.odb,Step-1,Increment      1: Step Time =    1.000,"PART-1-1",           441,       2.47079,      -3.83474,            0.,NA,NA,"",       1.88077,   836.783E-03,      -1.68437,   1.13043E-03
C:/temp/dataset/2/27_5.odb,Step-1,Increment      1: Step Time =    1.000,"PART-1-1",           442,       3.51261,  -149.180E-03,            0.,NA,NA,"",       2.27586,       1.31286,      -1.85901,   2.85243E-03
C:/temp/dataset/2/27_5.odb,Step-1,Increment      1: Step Time =    1.000,"PART-1-1",           443,       3.69085,      -2.58237,            0.,NA,NA,"",       2.10787,   991.543E-03,      -1.86010,   1.48682E-03
C:/temp/dataset/2/27_5.odb,Step-1,Increment      1: Step Time =    1.000,"PART-1-1",           444,       8.74868,       5.55605,            0.,NA,NA,"",       3.29170,       2.01549,      -2.60252,   342.572E-06
C:/temp/dataset/2/27_5.odb,Step-1,Increment      1: Step Time =    1.000,"PART-1-1",           445,       10.0030,       7.12352,            0.,NA,NA,"",       3.55172,       2.20978,      -2.78058,   194.307E-06
C:/temp/dataset/2/27_5.odb,Step-1,Increment      1: Step Time =    1.000,"PART-1-1",           446,       8.73640,       8.21697,            0.,NA,NA,"",       3.53177,       2.36361,      -2.62426,   149.798E-06
C:/temp/dataset/2/27_5.odb,Step-1,Increment      1: Step Time =    1.000,"PART-1-1",           447,           15.,     -625.E-03,            0.,NA,NA,"",       3.56096,       1.15024,      -3.37007,   211.586E-06
C:/temp/dataset/2/27_5.odb,Step-1,Increment      1: Step Time =    1.000,"PART-1-1",           448,       13.7714,   731.820E-03,            0.,NA,NA,"",       3.48762,       1.33946,      -3.22014,   221.083E-06
C:/temp/dataset/2/27_5.odb,Step-1,Increment      1: Step Time =    1.000,"PART-1-1",           449,       12.5339,  -774.506E-03,            0.,NA,NA,"",       3.25543,       1.15215,      -3.04473,   198.924E-06
C:/temp/dataset/2/27_5.odb,Step-1,Increment      1: Step Time =    1.000,"PART-1-1",           450,       7.40609,       11.8257,            0.,NA,NA,"",       3.77698,       2.84755,      -2.48135,   24.0580E-06
C:/temp/dataset/2/27_5.odb,Step-1,Increment      1: Step Time =    1.000,"PART-1-1",           451,       8.70206,       10.8725,            0.,NA,NA,"",       3.78643,       2.71160,      -2.64278,   47.9485E-06
C:/temp/dataset/2/27_5.odb,Step-1,Increment      1: Step Time =    1.000,"PART-1-1",           452,       11.2454,       8.75341,            0.,NA,NA,"",       3.81662,       2.41242,      -2.95749,   97.1890E-06
C:/temp/dataset/2/27_5.odb,Step-1,Increment      1: Step Time =    1.000,"PART-1-1",           453,       11.2622,       5.99112,            0.,NA,NA,"",       3.58120,       2.05085,      -2.93582,   187.364E-06
C:/temp/dataset/2/27_5.odb,Step-1,Increment      1: Step Time =    1.000,"PART-1-1",           454,       13.8596,       24.3693,            0.,NA,NA,"",       5.60866,       4.43431,      -3.43424,   61.7705E-09
C:/temp/dataset/2/27_5.odb,Step-1,Increment      1: Step Time =    1.000,"PART-1-1",           455,       12.6110,       23.1199,            0.,NA,NA,"",       5.38135,       4.28149,      -3.26002,   259.037E-09
C:/temp/dataset/2/27_5.odb,Step-1,Increment      1: Step Time =    1.000,"PART-1-1",           456,       13.7514,       21.4590,            0.,NA,NA,"",       5.28800,       4.05421,      -3.39503,   318.887E-09
C:/temp/dataset/2/27_5.odb,Step-1,Increment      1: Step Time =    1.000,"PART-1-1",           457,           15.,       22.7083,            0.,NA,NA,"",       5.51713,       4.20704,      -3.56926,   207.241E-09
C:/temp/dataset/2/27_5.odb,Step-1,Increment      1: Step Time =    1.000,"PART-1-1",           458,       8.83903,       17.2613,            0.,NA,NA,"",       4.46719,       3.54691,      -2.71574,   1.81052E-06
C:/temp/dataset/2/27_5.odb,Step-1,Increment      1: Step Time =    1.000,"PART-1-1",           459,       10.5130,       17.3338,            0.,NA,NA,"",       4.60033,       3.54199,      -2.93553,   1.65266E-06
C:/temp/dataset/2/27_5.odb,Step-1,Increment      1: Step Time =    1.000,"PART-1-1",           460,       8.72284,       19.1442,            0.,NA,NA,"",       4.66673,       3.79443,      -2.71674,   971.329E-09
C:/temp/dataset/2/27_5.odb,Step-1,Increment      1: Step Time =    1.000,"PART-1-1",           461,           15.,       28.5417,            0.,NA,NA,"",       6.14891,       4.97077,      -3.61947,   1.76462E-09
C:/temp/dataset/2/27_5.odb,Step-1,Increment      1: Step Time =    1.000,"PART-1-1",           462,         13.75,           30.,            0.,NA,NA,"",       6.22767,       5.17246,      -3.46837,   3.46148E-09
C:/temp/dataset/2/27_5.odb,Step-1,Increment      1: Step Time =    1.000,"PART-1-1",           463,       12.5875,       28.6551,            0.,NA,NA,"",       5.99869,       5.00639,      -3.30459,   6.00386E-09
C:/temp/dataset/2/27_5.odb,Step-1,Increment      1: Step Time =    1.000,"PART-1-1",           464,       13.8375,       27.1968,            0.,NA,NA,"",       5.91836,       4.80470,      -3.45569,   5.55211E-09
C:/temp/dataset/2/27_5.odb,Step-1,Increment      1: Step Time =    1.000,"PART-1-1",           465,         11.25,           30.,            0.,NA,NA,"",       6.06990,       5.19398,      -3.14105,   4.52906E-09
C:/temp/dataset/2/27_5.odb,Step-1,Increment      1: Step Time =    1.000,"PART-1-1",           466,       10.1484,       28.7335,            0.,NA,NA,"",       5.85607,       5.03764,      -2.98592,   11.7955E-09
C:/temp/dataset/2/27_5.odb,Step-1,Increment      1: Step Time =    1.000,"PART-1-1",           467,       7.69941,       28.7139,            0.,NA,NA,"",       5.71556,       5.05616,      -2.66512,   11.3169E-09
C:/temp/dataset/2/27_5.odb,Step-1,Increment      1: Step Time =    1.000,"PART-1-1",           468,       9.09777,       27.4473,            0.,NA,NA,"",       5.64341,       4.87830,      -2.83730,   24.9446E-09
C:/temp/dataset/2/27_5.odb,Step-1,Increment      1: Step Time =    1.000,"PART-1-1",           469,          8.75,           30.,            0.,NA,NA,"",       5.92609,       5.21550,      -2.81374,   6.88091E-09
C:/temp/dataset/2/27_5.odb,Step-1,Increment      1: Step Time =    1.000,"PART-1-1",           470,  -9.87333E-03,       28.6960,            0.,NA,NA,"",       5.38120,       5.12017,      -1.65562,   5.94857E-09
C:/temp/dataset/2/27_5.odb,Step-1,Increment      1: Step Time =    1.000,"PART-1-1",           471,          1.25,           30.,            0.,NA,NA,"",       5.58878,       5.28006,      -1.83179,   12.3804E-09
C:/temp/dataset/2/27_5.odb,Step-1,Increment      1: Step Time =    1.000,"PART-1-1",           472,       4.87954,       25.6434,            0.,NA,NA,"",       5.19983,       4.67843,      -2.26949,   25.7161E-09
C:/temp/dataset/2/27_5.odb,Step-1,Increment      1: Step Time =    1.000,"PART-1-1",           473,      -5.00474,       28.7231,            0.,NA,NA,"",       5.26296,       5.16672,      -1.00190,   841.196E-12
C:/temp/dataset/2/27_5.odb,Step-1,Increment      1: Step Time =    1.000,"PART-1-1",           474,         -6.25,           30.,            0.,NA,NA,"",       5.41176,       5.34462,  -849.852E-03,   452.857E-12
C:/temp/dataset/2/27_5.odb,Step-1,Increment      1: Step Time =    1.000,"PART-1-1",           475,      -3.76303,       27.4393,            0.,NA,NA,"",       5.11957,       4.98794,      -1.15342,   2.62184E-09
C:/temp/dataset/2/27_5.odb,Step-1,Increment      1: Step Time =    1.000,"PART-1-1",           476,      -3.77322,       24.9147,            0.,NA,NA,"",       4.79270,       4.65750,      -1.13035,   3.04305E-09
C:/temp/dataset/2/27_5.odb,Step-1,Increment      1: Step Time =    1.000,"PART-1-1",           477,      -13.7476,       27.4926,            0.,NA,NA,"",       5.08318,       5.08087,   153.360E-03,   50.7978E-12
C:/temp/dataset/2/27_5.odb,Step-1,Increment      1: Step Time =    1.000,"PART-1-1",           478,        -13.75,           30.,            0.,NA,NA,"",       5.41079,       5.40918,   132.090E-03,   64.7344E-12
C:/temp/dataset/2/27_5.odb,Step-1,Increment      1: Step Time =    1.000,"PART-1-1",           479,          -15.,         28.75,            0.,NA,NA,"",       5.26521,       5.25628,   306.507E-03,   48.9311E-12
C:/temp/dataset/2/27_5.odb,Step-1,Increment      1: Step Time =    1.000,"PART-1-1",           480,          -15.,         26.25,            0.,NA,NA,"",       4.93987,       4.92897,   328.027E-03,   53.0886E-12
C:/temp/dataset/2/27_5.odb,Step-1,Increment      1: Step Time =    1.000,"PART-1-1",           481,      -12.4965,       26.2309,            0.,NA,NA,"",       4.90491,       4.90491,   417.512E-06,   65.3279E-12
C:/temp/dataset/2/27_5.odb,Step-1,Increment      1: Step Time =    1.000,"PART-1-1",           482,      -10.0014,       23.7134,            0.,NA,NA,"",       4.56401,       4.55383,  -304.586E-03,   93.3848E-12
C:/temp/dataset/2/27_5.odb,Step-1,Increment      1: Step Time =    1.000,"PART-1-1",           483,      -8.75535,       22.4567,            0.,NA,NA,"",       4.40234,       4.37857,  -456.906E-03,   189.234E-12
C:/temp/dataset/2/27_5.odb,Step-1,Increment      1: Step Time =    1.000,"PART-1-1",           484,      -7.50515,       23.6891,            0.,NA,NA,"",       4.57293,       4.52916,  -631.198E-03,   334.969E-12
C:/temp/dataset/2/27_5.odb,Step-1,Increment      1: Step Time =    1.000,"PART-1-1",           485,      -8.75118,       24.9458,            0.,NA,NA,"",       4.72874,       4.70443,  -478.878E-03,   269.529E-12
C:/temp/dataset/2/27_5.odb,Step-1,Increment      1: Step Time =    1.000,"PART-1-1",           486,      -3.77419,       22.4219,            0.,NA,NA,"",       4.47081,       4.33114,      -1.10877,   3.13177E-09
C:/temp/dataset/2/27_5.odb,Step-1,Increment      1: Step Time =    1.000,"PART-1-1",           487,      -5.00723,       21.2173,            0.,NA,NA,"",       4.28767,       4.18404,  -936.963E-03,   797.952E-12
C:/temp/dataset/2/27_5.odb,Step-1,Increment      1: Step Time =    1.000,"PART-1-1",           488,         -3.75,           20.,            0.,NA,NA,"",       4.15950,       4.01384,      -1.09109,   1.45477E-09
C:/temp/dataset/2/27_5.odb,Step-1,Increment      1: Step Time =    1.000,"PART-1-1",           489,      -2.51696,       21.2046,            0.,NA,NA,"",       4.34837,       4.16094,      -1.26289,   3.12720E-09
C:/temp/dataset/2/27_5.odb,Step-1,Increment      1: Step Time =    1.000,"PART-1-1",           490,         -8.75,           20.,            0.,NA,NA,"",       4.08029,       4.05688,  -436.460E-03,   128.315E-12
C:/temp/dataset/2/27_5.odb,Step-1,Increment      1: Step Time =    1.000,"PART-1-1",           491,      -7.50331,       21.2223,            0.,NA,NA,"",       4.25021,       4.20618,  -610.205E-03,   216.756E-12
C:/temp/dataset/2/27_5.odb,Step-1,Increment      1: Step Time =    1.000,"PART-1-1",           492,         -6.25,           20.,            0.,NA,NA,"",       4.10701,       4.03536,  -763.774E-03,   450.840E-12
C:/temp/dataset/2/27_5.odb,Step-1,Increment      1: Step Time =    1.000,"PART-1-1",           493,      -6.26054,       22.4396,            0.,NA,NA,"",       4.42476,       4.35486,  -783.394E-03,   807.991E-12
C:/temp/dataset/2/27_5.odb,Step-1,Increment      1: Step Time =    1.000,"PART-1-1",           494,         -1.25,           20.,            0.,NA,NA,"",       4.23680,       3.99232,      -1.41840,   11.0974E-09
C:/temp/dataset/2/27_5.odb,Step-1,Increment      1: Step Time =    1.000,"PART-1-1",           495,      -1.30453,       22.3853,            0.,NA,NA,"",       4.53694,       4.30509,      -1.43179,   7.45625E-09
C:/temp/dataset/2/27_5.odb,Step-1,Increment      1: Step Time =    1.000,"PART-1-1",           496,         -1.25,           30.,            0.,NA,NA,"",       5.51092,       5.30158,      -1.50448,   5.95081E-09
C:/temp/dataset/2/27_5.odb,Step-1,Increment      1: Step Time =    1.000,"PART-1-1",           497,      -2.50829,       28.7162,            0.,NA,NA,"",       5.31314,       5.14433,      -1.32869,   2.67776E-09
C:/temp/dataset/2/27_5.odb,Step-1,Increment      1: Step Time =    1.000,"PART-1-1",           498,         -3.75,           30.,            0.,NA,NA,"",       5.45171,       5.32310,      -1.17717,   1.87566E-09
C:/temp/dataset/2/27_5.odb,Step-1,Increment      1: Step Time =    1.000,"PART-1-1",           499,          3.75,           20.,            0.,NA,NA,"",       4.46030,       3.94928,      -2.07303,   117.269E-09
C:/temp/dataset/2/27_5.odb,Step-1,Increment      1: Step Time =    1.000,"PART-1-1",           500,       4.75388,       21.0765,            0.,NA,NA,"",       4.64327,       4.08158,      -2.21373,   276.400E-09
C:/temp/dataset/2/27_5.odb,Step-1,Increment      1: Step Time =    1.000,"PART-1-1",           501,          6.25,           30.,            0.,NA,NA,"",       5.79730,       5.23702,      -2.48642,   14.2992E-09
C:/temp/dataset/2/27_5.odb,Step-1,Increment      1: Step Time =    1.000,"PART-1-1",           502,       6.61296,       27.1492,            0.,NA,NA,"",       5.47020,       4.86066,      -2.50940,   21.7948E-09
C:/temp/dataset/2/27_5.odb,Step-1,Increment      1: Step Time =    1.000,"PART-1-1",           503,            5.,         16.25,            0.,NA,NA,"",       4.09206,       3.44755,      -2.20440,   3.97350E-06
C:/temp/dataset/2/27_5.odb,Step-1,Increment      1: Step Time =    1.000,"PART-1-1",           504,       6.03202,       15.2452,            0.,NA,NA,"",       4.04598,       3.30711,      -2.33087,   2.71825E-06
C:/temp/dataset/2/27_5.odb,Step-1,Increment      1: Step Time =    1.000,"PART-1-1",           505,       6.91243,       16.6330,            0.,NA,NA,"",       4.26159,       3.48123,      -2.45809,   2.23986E-06
C:/temp/dataset/2/27_5.odb,Step-1,Increment      1: Step Time =    1.000,"PART-1-1",           506,            5.,         13.75,            0.,NA,NA,"",       3.80798,       3.12023,      -2.18287,   8.58191E-06
C:/temp/dataset/2/27_5.odb,Step-1,Increment      1: Step Time =    1.000,"PART-1-1",           507,       6.17466,       12.7979,            0.,NA,NA,"",       3.78612,       2.98545,      -2.32848,   4.13541E-06
C:/temp/dataset/2/27_5.odb,Step-1,Increment      1: Step Time =    1.000,"PART-1-1",           508,       12.0086,       16.5092,            0.,NA,NA,"",       4.63306,       3.42116,      -3.12424,   1.46981E-06
C:/temp/dataset/2/27_5.odb,Step-1,Increment      1: Step Time =    1.000,"PART-1-1",           509,           15.,        16.875,            0.,NA,NA,"",       4.92341,       3.44330,      -3.51904,   2.26901E-06
C:/temp/dataset/2/27_5.odb,Step-1,Increment      1: Step Time =    1.000,"PART-1-1",           510,       13.3591,       18.2744,            0.,NA,NA,"",       4.92461,       3.64065,      -3.31625,   971.965E-09
C:/temp/dataset/2/27_5.odb,Step-1,Increment      1: Step Time =    1.000,"PART-1-1",           511,            5.,         11.25,            0.,NA,NA,"",       3.53150,       2.79285,      -2.16136,   39.8404E-06
C:/temp/dataset/2/27_5.odb,Step-1,Increment      1: Step Time =    1.000,"PART-1-1",           512,       6.23142,       10.2778,            0.,NA,NA,"",       3.52197,       2.65495,      -2.31419,   38.5067E-06
C:/temp/dataset/2/27_5.odb,Step-1,Increment      1: Step Time =    1.000,"PART-1-1",           513,            5.,          8.75,            0.,NA,NA,"",       3.26451,       2.46548,      -2.13974,   136.067E-06
C:/temp/dataset/2/27_5.odb,Step-1,Increment      1: Step Time =    1.000,"PART-1-1",           514,       7.47251,       9.25684,            0.,NA,NA,"",       3.52037,       2.51053,      -2.46785,   187.110E-06
C:/temp/dataset/2/27_5.odb,Step-1,Increment      1: Step Time =    1.000,"PART-1-1",           515,         11.25,           -5.,            0.,NA,NA,"",       2.90339,   606.915E-03,      -2.83925,   228.502E-06
C:/temp/dataset/2/27_5.odb,Step-1,Increment      1: Step Time =    1.000,"PART-1-1",           516,       11.2689,      -2.22707,            0.,NA,NA,"",       3.02629,   971.871E-03,      -2.86599,   263.568E-06
C:/temp/dataset/2/27_5.odb,Step-1,Increment      1: Step Time =    1.000,"PART-1-1",           517,          10.5,          -30.,            0.,NA,NA,"",            0.,   755.525E-42,  -267.031E-42,   681.050E-06
C:/temp/dataset/2/27_5.odb,Step-1,Increment      1: Step Time =    1.000,"PART-1-1",           518,           15.,        -23.75,            0.,NA,NA,"",   4.11325E-03,   4.00867E-03,  -921.622E-06,   56.8197E-06
C:/temp/dataset/2/27_5.odb,Step-1,Increment      1: Step Time =    1.000,"PART-1-1",           519,          3.75,           -5.,            0.,NA,NA,"",       1.96368,   668.769E-03,      -1.84629,   390.664E-06
C:/temp/dataset/2/27_5.odb,Step-1,Increment      1: Step Time =    1.000,"PART-1-1",           520,       4.97006,      -3.74763,            0.,NA,NA,"",       2.18291,   825.315E-03,      -2.02088,   399.835E-06
C:/temp/dataset/2/27_5.odb,Step-1,Increment      1: Step Time =    1.000,"PART-1-1",           521,       4.85412,       3.76356,            0.,NA,NA,"",       2.75904,       1.81435,      -2.07857,   2.53980E-03
C:/temp/dataset/2/27_5.odb,Step-1,Increment      1: Step Time =    1.000,"PART-1-1",           522,       3.33333,            5.,            0.,NA,NA,"",       2.74564,       1.98559,      -1.89630,   4.59660E-03
C:/temp/dataset/2/27_5.odb,Step-1,Increment      1: Step Time =    1.000,"PART-1-1",           523,       1.45296,       3.58740,            0.,NA,NA,"",       2.43422,       1.81221,      -1.62522,   6.24053E-03
C:/temp/dataset/2/27_5.odb,Step-1,Increment      1: Step Time =    1.000,"PART-1-1",           524,       2.97375,       2.35096,            0.,NA,NA,"",       2.44715,       1.64250,      -1.81404,   4.71479E-03
C:/temp/dataset/2/27_5.odb,Step-1,Increment      1: Step Time =    1.000,"PART-1-1",           525,          6.25,           -5.,            0.,NA,NA,"",       2.27401,   648.255E-03,      -2.17966,   708.771E-06
C:/temp/dataset/2/27_5.odb,Step-1,Increment      1: Step Time =    1.000,"PART-1-1",           526,       12.4696,       10.4445,            0.,NA,NA,"",       4.08575,       2.62325,      -3.13240,   44.2218E-06
C:/temp/dataset/2/27_5.odb,Step-1,Increment      1: Step Time =    1.000,"PART-1-1",           527,           15.,       11.0417,            0.,NA,NA,"",       4.38328,       2.67964,      -3.46882,   13.3791E-06
C:/temp/dataset/2/27_5.odb,Step-1,Increment      1: Step Time =    1.000,"PART-1-1",           528,      -5.01382,       23.6808,            0.,NA,NA,"",       4.60719,       4.50663,  -957.305E-03,   1.34775E-09
C:/temp/dataset/2/27_5.odb,Step-1,Increment      1: Step Time =    1.000,"PART-1-1",           529,      -2.53358,       23.6558,            0.,NA,NA,"",       4.66170,       4.48201,      -1.28182,   3.59501E-09
C:/temp/dataset/2/27_5.odb,Step-1,Increment      1: Step Time =    1.000,"PART-1-1",           530,  -74.6816E-03,       23.6075,            0.,NA,NA,"",       4.73429,       4.45453,      -1.60333,   8.52638E-09
C:/temp/dataset/2/27_5.odb,Step-1,Increment      1: Step Time =    1.000,"PART-1-1",           531,      -6.62798,      -1.45964,            0.,NA,NA,"",       1.30971,       1.21888,  -479.239E-03,   12.3911E-03
C:/temp/dataset/2/27_5.odb,Step-1,Increment      1: Step Time =    1.000,"PART-1-1",           532,      -4.43070,      -2.38075,            0.,NA,NA,"",       1.32825,       1.10500,  -737.041E-03,   14.0664E-03
C:/temp/dataset/2/27_5.odb,Step-1,Increment      1: Step Time =    1.000,"PART-1-1",           533,      -3.64554,  -813.143E-03,            0.,NA,NA,"",       1.55398,       1.28811,  -869.268E-03,   12.4875E-03
C:/temp/dataset/2/27_5.odb,Step-1,Increment      1: Step Time =    1.000,"PART-1-1",           534,         -3.75,           -5.,            0.,NA,NA,"",       1.11340,   766.045E-03,  -807.986E-03,   21.9177E-03
C:/temp/dataset/2/27_5.odb,Step-1,Increment      1: Step Time =    1.000,"PART-1-1",           535,      -13.8599,      -9.43096,            0.,NA,NA,"",   529.072E-03,   486.198E-03,   208.634E-03,   17.7728E-03
C:/temp/dataset/2/27_5.odb,Step-1,Increment      1: Step Time =    1.000,"PART-1-1",           536,          -15.,      -11.0417,            0.,NA,NA,"",   466.295E-03,   387.695E-03,   259.082E-03,   24.2558E-03
C:/temp/dataset/2/27_5.odb,Step-1,Increment      1: Step Time =    1.000,"PART-1-1",           537,      -11.9984,      -19.8095,            0.,NA,NA,"",   26.9742E-03,   9.82680E-03,   25.1205E-03,   7.39951E-03
C:/temp/dataset/2/27_5.odb,Step-1,Increment      1: Step Time =    1.000,"PART-1-1",           538,      -13.3881,      -18.2324,            0.,NA,NA,"",   88.8572E-03,   49.4688E-03,   73.8136E-03,   13.1532E-03
C:/temp/dataset/2/27_5.odb,Step-1,Increment      1: Step Time =    1.000,"PART-1-1",           539,          -15.,      -19.7917,            0.,NA,NA,"",   93.7365E-03,   27.7823E-03,   89.5248E-03,   18.6938E-03
C:/temp/dataset/2/27_5.odb,Step-1,Increment      1: Step Time =    1.000,"PART-1-1",           540,           -5.,        -18.75,            0.,NA,NA,"",   151.397E-03,   48.4048E-03,  -143.450E-03,   38.9870E-03
C:/temp/dataset/2/27_5.odb,Step-1,Increment      1: Step Time =    1.000,"PART-1-1",           541,      -5.96138,      -20.0094,            0.,NA,NA,"",   98.0483E-03,   4.44482E-03,  -97.9475E-03,   24.1712E-03
C:/temp/dataset/2/27_5.odb,Step-1,Increment      1: Step Time =    1.000,"PART-1-1",           542,           -5.,        -13.75,            0.,NA,NA,"",   380.587E-03,   237.980E-03,  -297.004E-03,   32.2392E-03
C:/temp/dataset/2/27_5.odb,Step-1,Increment      1: Step Time =    1.000,"PART-1-1",           543,      -7.28958,      -14.3036,            0.,NA,NA,"",   254.313E-03,   187.987E-03,  -171.277E-03,   19.7723E-03
C:/temp/dataset/2/27_5.odb,Step-1,Increment      1: Step Time =    1.000,"PART-1-1",           544,      -8.88285,      -11.0213,            0.,NA,NA,"",   380.050E-03,   356.363E-03,  -132.076E-03,   11.1679E-03
C:/temp/dataset/2/27_5.odb,Step-1,Increment      1: Step Time =    1.000,"PART-1-1",           545,      -9.01222,      -8.51542,            0.,NA,NA,"",   549.404E-03,   528.112E-03,  -151.468E-03,   9.86205E-03
C:/temp/dataset/2/27_5.odb,Step-1,Increment      1: Step Time =    1.000,"PART-1-1",           546,      -9.13424,  -715.290E-03,            0.,NA,NA,"",       1.33076,       1.31364,  -212.783E-03,   9.41912E-03
C:/temp/dataset/2/27_5.odb,Step-1,Increment      1: Step Time =    1.000,"PART-1-1",           547,      -9.92186,      -2.42350,            0.,NA,NA,"",       1.12293,       1.11690,  -116.290E-03,   10.4887E-03
C:/temp/dataset/2/27_5.odb,Step-1,Increment      1: Step Time =    1.000,"PART-1-1",           548,      -12.7176,      -7.95930,            0.,NA,NA,"",   605.670E-03,   590.057E-03,   136.635E-03,   11.0905E-03
C:/temp/dataset/2/27_5.odb,Step-1,Increment      1: Step Time =    1.000,"PART-1-1",           549,          -15.,        -8.125,            0.,NA,NA,"",   679.697E-03,   602.040E-03,   315.493E-03,   23.9597E-03
C:/temp/dataset/2/27_5.odb,Step-1,Increment      1: Step Time =    1.000,"PART-1-1",           550,       11.2818,   528.104E-03,            0.,NA,NA,"",       3.18458,       1.33450,      -2.89148,   192.735E-06
C:/temp/dataset/2/27_5.odb,Step-1,Increment      1: Step Time =    1.000,"PART-1-1",           551,       10.0167,  -924.457E-03,            0.,NA,NA,"",       2.94818,       1.15441,      -2.71277,   231.204E-06
C:/temp/dataset/2/27_5.odb,Step-1,Increment      1: Step Time =    1.000,"PART-1-1",           552,       10.4320,       23.7699,            0.,NA,NA,"",       5.30222,       4.38534,      -2.98033,   223.431E-09
C:/temp/dataset/2/27_5.odb,Step-1,Increment      1: Step Time =    1.000,"PART-1-1",           553,           15.,        25.625,            0.,NA,NA,"",       5.82902,       4.58890,      -3.59436,   23.3920E-09
C:/temp/dataset/2/27_5.odb,Step-1,Increment      1: Step Time =    1.000,"PART-1-1",           554,      -9.99539,       26.2124,            0.,NA,NA,"",       4.89190,       4.88097,  -326.881E-03,   108.296E-12
C:/temp/dataset/2/27_5.odb,Step-1,Increment      1: Step Time =    1.000,"PART-1-1",           555,          -15.,       -25.625,            0.,NA,NA,"",   22.3526E-03,  -15.3385E-03,   16.2594E-03,   8.70498E-03
C:/temp/dataset/2/27_5.odb,Step-1,Increment      1: Step Time =    1.000,"PART-1-1",           556,      -12.2044,      -25.8339,            0.,NA,NA,"",   22.6351E-03,  -21.6954E-03,   6.45447E-03,   6.39760E-03
C:/temp/dataset/2/27_5.odb,Step-1,Increment      1: Step Time =    1.000,"PART-1-1",           557,          -15.,       -16.875,            0.,NA,NA,"",   175.730E-03,   102.274E-03,   142.902E-03,   21.9195E-03
C:/temp/dataset/2/27_5.odb,Step-1,Increment      1: Step Time =    1.000,"PART-1-1",           558,      -8.25880,      -15.9015,            0.,NA,NA,"",   154.669E-03,   114.727E-03,  -103.731E-03,   13.6914E-03
C:/temp/dataset/2/27_5.odb,Step-1,Increment      1: Step Time =    1.000,"PART-1-1",           559,       7.56555,       17.9230,            0.,NA,NA,"",       4.45072,       3.64451,      -2.55471,   1.19396E-06
C:/temp/dataset/2/27_5.odb,Step-1,Increment      1: Step Time =    1.000,"PART-1-1",           560,      -9.72707,       2.21069,            0.,NA,NA,"",       1.67446,       1.66494,  -178.259E-03,   8.13834E-03
C:/temp/dataset/2/27_5.odb,Step-1,Increment      1: Step Time =    1.000,"PART-1-1",           561,      -8.18006,       3.69884,            0.,NA,NA,"",       1.87668,       1.84059,  -366.277E-03,   9.01731E-03
C:/temp/dataset/2/27_5.odb,Step-1,Increment      1: Step Time =    1.000,"PART-1-1",           562,          -10.,            5.,            0.,NA,NA,"",       1.99620,       1.98857,  -174.276E-03,   7.29530E-03
C:/temp/dataset/2/27_5.odb,Step-1,Increment      1: Step Time =    1.000,"PART-1-1",           563,      -10.3433,      -7.69771,            0.,NA,NA,"",   598.184E-03,   595.952E-03,  -51.6310E-03,   2.60114E-03
C:/temp/dataset/2/27_5.odb,Step-1,Increment      1: Step Time =    1.000,"PART-1-1",           564,      -11.5611,      -6.59494,            0.,NA,NA,"",   699.980E-03,   698.394E-03,   47.0833E-03,   6.65817E-03
C:/temp/dataset/2/27_5.odb,Step-1,Increment      1: Step Time =    1.000,"PART-1-1",           565,      -9.40089,      -20.7816,            0.,NA,NA,"",   33.8955E-03,  -7.10327E-03,  -33.1429E-03,   8.07944E-03
C:/temp/dataset/2/27_5.odb,Step-1,Increment      1: Step Time =    1.000,"PART-1-1",           566,      -8.21757,      -22.2064,            0.,NA,NA,"",   47.2310E-03,  -14.4722E-03,  -44.9591E-03,   11.2753E-03
C:/temp/dataset/2/27_5.odb,Step-1,Increment      1: Step Time =    1.000,"PART-1-1",           567,      -6.89894,      -21.2078,            0.,NA,NA,"",   71.9273E-03,  -5.20352E-03,  -71.7388E-03,   15.3027E-03
C:/temp/dataset/2/27_5.odb,Step-1,Increment      1: Step Time =    1.000,"PART-1-1",           568,      -9.14285,      -28.6800,            0.,NA,NA,"",   9.17068E-03,  -8.66013E-03,  -3.01722E-03,   5.65933E-03
C:/temp/dataset/2/27_5.odb,Step-1,Increment      1: Step Time =    1.000,"PART-1-1",           569,      -10.7232,      -27.3047,            0.,NA,NA,"",   16.9047E-03,  -16.8240E-03,  -1.64997E-03,   5.02544E-03
C:/temp/dataset/2/27_5.odb,Step-1,Increment      1: Step Time =    1.000,"PART-1-1",           570,         -10.5,          -30.,            0.,NA,NA,"",            0.,  -6.62540E-39,  -2.06276E-39,   5.12082E-03
C:/temp/dataset/2/27_5.odb,Step-1,Increment      1: Step Time =    1.000,"PART-1-1",           571,      -4.89633,      -27.4366,            0.,NA,NA,"",   12.7114E-03,  -1.03935E-03,  -12.6688E-03,   6.73559E-03
C:/temp/dataset/2/27_5.odb,Step-1,Increment      1: Step Time =    1.000,"PART-1-1",           572,      -6.18287,      -28.7136,            0.,NA,NA,"",   6.30147E-03,  -3.21893E-03,  -5.41729E-03,   6.05439E-03
C:/temp/dataset/2/27_5.odb,Step-1,Increment      1: Step Time =    1.000,"PART-1-1",           573,          -4.5,          -30.,            0.,NA,NA,"",            0.,   162.558E-42,  -10.1470E-39,   4.43388E-03
C:/temp/dataset/2/27_5.odb,Step-1,Increment      1: Step Time =    1.000,"PART-1-1",           574,       12.5384,       2.02620,            0.,NA,NA,"",       3.42517,       1.52030,      -3.06928,   136.025E-06
C:/temp/dataset/2/27_5.odb,Step-1,Increment      1: Step Time =    1.000,"PART-1-1",           575,           15.,       2.29167,            0.,NA,NA,"",       3.72494,       1.53358,      -3.39460,   294.496E-06
C:/temp/dataset/2/27_5.odb,Step-1,Increment      1: Step Time =    1.000,"PART-1-1",           576,       9.96595,       9.83263,            0.,NA,NA,"",       3.79648,       2.56464,      -2.79927,   71.9180E-06
C:/temp/dataset/2/27_5.odb,Step-1,Increment      1: Step Time =    1.000,"PART-1-1",           577,           15.,       19.7917,            0.,NA,NA,"",       5.21468,       3.82517,      -3.54415,   914.111E-09
C:/temp/dataset/2/27_5.odb,Step-1,Increment      1: Step Time =    1.000,"PART-1-1",           578,       7.90800,       20.1372,            0.,NA,NA,"",       4.72370,       3.93145,      -2.61860,   682.184E-09
C:/temp/dataset/2/27_5.odb,Step-1,Increment      1: Step Time =    1.000,"PART-1-1",           579,       8.41916,       21.3934,            0.,NA,NA,"",       4.90008,       4.09152,      -2.69634,   500.021E-09
C:/temp/dataset/2/27_5.odb,Step-1,Increment      1: Step Time =    1.000,"PART-1-1",           580,       6.50486,       21.1025,            0.,NA,NA,"",       4.74694,       4.06991,      -2.44320,   519.930E-09
C:/temp/dataset/2/27_5.odb,Step-1,Increment      1: Step Time =    1.000,"PART-1-1",           581,           4.5,          -30.,            0.,NA,NA,"",            0.,   1.92110E-39,  -1.60515E-39,   1.85392E-03
C:/temp/dataset/2/27_5.odb,Step-1,Increment      1: Step Time =    1.000,"PART-1-1",           582,       3.62857,      -22.4261,            0.,NA,NA,"",   5.57095E-03,   5.51589E-03,  -781.254E-06,   457.149E-06
C:/temp/dataset/2/27_5.odb,Step-1,Increment      1: Step Time =    1.000,"PART-1-1",           583,       2.16864,      -23.6665,            0.,NA,NA,"",   8.19257E-03,   7.58807E-03,  -3.08861E-03,   1.18161E-03
C:/temp/dataset/2/27_5.odb,Step-1,Increment      1: Step Time =    1.000,"PART-1-1",           584,      -2.73954,      -22.4743,            0.,NA,NA,"",   34.6809E-03,   11.1306E-03,  -32.8462E-03,   7.39772E-03
C:/temp/dataset/2/27_5.odb,Step-1,Increment      1: Step Time =    1.000,"PART-1-1",           585,  -999.676E-03,      -23.6839,            0.,NA,NA,"",   17.6777E-03,   9.95170E-03,  -14.6104E-03,   4.16605E-03
C:/temp/dataset/2/27_5.odb,Step-1,Increment      1: Step Time =    1.000,"PART-1-1",           586,      -7.82572,      -27.3936,            0.,NA,NA,"",   15.3466E-03,  -10.9701E-03,  -10.7319E-03,   6.50844E-03
C:/temp/dataset/2/27_5.odb,Step-1,Increment      1: Step Time =    1.000,"PART-1-1",           587,      -6.52069,      -26.1528,            0.,NA,NA,"",   22.8318E-03,  -7.93679E-03,  -21.4079E-03,   9.11718E-03
C:/temp/dataset/2/27_5.odb,Step-1,Increment      1: Step Time =    1.000,"PART-1-1",           588,      -8.08310,      -24.7829,            0.,NA,NA,"",   30.7096E-03,  -16.3818E-03,  -25.9752E-03,   8.95391E-03
C:/temp/dataset/2/27_5.odb,Step-1,Increment      1: Step Time =    1.000,"PART-1-1",           589,      -9.38814,      -26.0237,            0.,NA,NA,"",   22.1829E-03,  -19.2161E-03,  -11.0826E-03,   7.21240E-03
C:/temp/dataset/2/27_5.odb,Step-1,Increment      1: Step Time =    1.000,"PART-1-1",           590,          -7.5,          -30.,            0.,NA,NA,"",            0.,  -3.95168E-39,  -8.41355E-39,   4.95150E-03
C:/temp/dataset/2/27_5.odb,Step-1,Increment      1: Step Time =    1.000,"PART-1-1",           591,       7.73182,       24.8866,            0.,NA,NA,"",       5.26277,       4.55478,      -2.63642,   85.9654E-09
C:/temp/dataset/2/27_5.odb,Step-1,Increment      1: Step Time =    1.000,"PART-1-1",           592,       8.21760,       26.2797,            0.,NA,NA,"",       5.45493,       4.73300,      -2.71201,   59.6790E-09
C:/temp/dataset/2/27_5.odb,Step-1,Increment      1: Step Time =    1.000,"PART-1-1",           593,       6.12718,       25.7561,            0.,NA,NA,"",       5.27718,       4.68244,      -2.43381,   55.1887E-09
C:/temp/dataset/2/27_5.odb,Step-1,Increment      1: Step Time =    1.000,"PART-1-1",           594,       5.38844,       22.1508,            0.,NA,NA,"",       4.80615,       4.21677,      -2.30606,   151.380E-09
C:/temp/dataset/2/27_5.odb,Step-1,Increment      1: Step Time =    1.000,"PART-1-1",           595,      -3.37677,   775.412E-03,            0.,NA,NA,"",       1.74680,       1.47963,  -928.434E-03,   11.2078E-03
C:/temp/dataset/2/27_5.odb,Step-1,Increment      1: Step Time =    1.000,"PART-1-1",           596,      -3.41233,       2.84116,            0.,NA,NA,"",       1.97913,       1.73422,  -953.630E-03,   10.3410E-03
C:/temp/dataset/2/27_5.odb,Step-1,Increment      1: Step Time =    1.000,"PART-1-1",           597,      -11.2482,       24.9673,            0.,NA,NA,"",       4.73118,       4.72873,  -152.136E-03,   90.1496E-12
C:/temp/dataset/2/27_5.odb,Step-1,Increment      1: Step Time =    1.000,"PART-1-1",           598,       5.16292,       24.1270,            0.,NA,NA,"",       5.03069,       4.47745,      -2.29354,   55.0837E-09
C:/temp/dataset/2/27_5.odb,Step-1,Increment      1: Step Time =    1.000,"PART-1-1",           599,            0.,            5.,            0.,NA,NA,"",       2.47396,       2.00550,      -1.44861,   7.44591E-03
C:/temp/dataset/2/27_5.odb,Step-1,Increment      1: Step Time =    1.000,"PART-1-1",           600,      -1.80204,       3.95011,            0.,NA,NA,"",       2.21800,       1.87284,      -1.18827,   9.59132E-03
C:/temp/dataset/2/27_5.odb,Step-1,Increment      1: Step Time =    1.000,"PART-1-1",           601,       9.59799,       22.9228,            0.,NA,NA,"",       5.15110,       4.28162,      -2.86384,   287.757E-09
C:/temp/dataset/2/27_5.odb,Step-1,Increment      1: Step Time =    1.000,"PART-1-1",           602,       8.30932,       22.9391,            0.,NA,NA,"",       5.07051,       4.29484,      -2.69526,   237.339E-09
C:/temp/dataset/2/27_5.odb,Step-1,Increment      1: Step Time =    1.000,"PART-1-1",           603,      -1.93269,      -1.01257,            0.,NA,NA,"",       1.66779,       1.24962,      -1.10453,   9.59763E-03
C:/temp/dataset/2/27_5.odb,Step-1,Increment      1: Step Time =    1.000,"PART-1-1",           604,      -8.69440,      -13.5596,            0.,NA,NA,"",   243.380E-03,   215.515E-03,  -113.079E-03,   11.9835E-03
C:/temp/dataset/2/27_5.odb,Step-1,Increment      1: Step Time =    1.000,"PART-1-1",           605,       6.07991,       2.65614,            0.,NA,NA,"",       2.77764,       1.65934,      -2.22752,   1.11164E-03
C:/temp/dataset/2/27_5.odb,Step-1,Increment      1: Step Time =    1.000,"PART-1-1",           606,       4.75906,       1.28045,            0.,NA,NA,"",       2.52603,       1.48969,      -2.04001,   1.93483E-03
C:/temp/dataset/2/27_5.odb,Step-1,Increment      1: Step Time =    1.000,"PART-1-1",           607,       10.0234,       4.43547,            0.,NA,NA,"",       3.32707,       1.85801,      -2.75993,   226.715E-06
C:/temp/dataset/2/27_5.odb,Step-1,Increment      1: Step Time =    1.000,"PART-1-1",           608,       7.46673,       4.06304,            0.,NA,NA,"",       3.03593,       1.83126,      -2.42144,   412.926E-06
C:/temp/dataset/2/27_5.odb,Step-1,Increment      1: Step Time =    1.000,"PART-1-1",           609,  -317.165E-03,  -486.862E-03,            0.,NA,NA,"",       1.86361,       1.30214,      -1.33322,   7.44981E-03
C:/temp/dataset/2/27_5.odb,Step-1,Increment      1: Step Time =    1.000,"PART-1-1",           610,       1.72730,   921.331E-03,            0.,NA,NA,"",       2.19176,       1.46616,      -1.62917,   5.37344E-03
C:/temp/dataset/2/27_5.odb,Step-1,Increment      1: Step Time =    1.000,"PART-1-1",           611,      -4.63664,      -21.2535,            0.,NA,NA,"",   69.8703E-03,   10.8110E-03,  -69.0288E-03,   19.6993E-03
C:/temp/dataset/2/27_5.odb,Step-1,Increment      1: Step Time =    1.000,"PART-1-1",           612,       11.2827,       3.26092,            0.,NA,NA,"",       3.37112,       1.69324,      -2.91503,   168.057E-06
C:/temp/dataset/2/27_5.odb,Step-1,Increment      1: Step Time =    1.000,"PART-1-1",           613,      -11.4502,      -4.36864,            0.,NA,NA,"",   915.183E-03,   914.416E-03,   37.4678E-03,   8.88170E-03
C:/temp/dataset/2/27_5.odb,Step-1,Increment      1: Step Time =    1.000,"PART-1-1",           614,      -10.8693,      -24.5529,            0.,NA,NA,"",   24.1081E-03,  -23.9264E-03,  -2.95410E-03,   6.50164E-03
C:/temp/dataset/2/27_5.odb,Step-1,Increment      1: Step Time =    1.000,"PART-1-1",           615,      -9.52531,      -23.3517,            0.,NA,NA,"",   29.8546E-03,  -21.2512E-03,  -20.9686E-03,   8.74992E-03
C:/temp/dataset/2/27_5.odb,Step-1,Increment      1: Step Time =    1.000,"PART-1-1",           616,      -10.8903,      -21.7518,            0.,NA,NA,"",   15.7866E-03,  -15.4777E-03,  -3.10785E-03,   6.90507E-03
C:/temp/dataset/2/27_5.odb,Step-1,Increment      1: Step Time =    1.000,"PART-1-1",           617,       3.33333,          -20.,            0.,NA,NA,"",   2.44946E-03,   2.02035E-03,  -1.38494E-03,   1.00007E-03
C:/temp/dataset/2/27_5.odb,Step-1,Increment      1: Step Time =    1.000,"PART-1-1",           618,       1.83446,      -21.2108,            0.,NA,NA,"",   5.04320E-03,   3.32007E-03,  -3.79618E-03,   611.408E-06
C:/temp/dataset/2/27_5.odb,Step-1,Increment      1: Step Time =    1.000,"PART-1-1",           619,       5.12744,      -21.2153,            0.,NA,NA,"",   4.17843E-03,   4.15291E-03,   461.056E-06,   277.013E-06
C:/temp/dataset/2/27_5.odb,Step-1,Increment      1: Step Time =    1.000,"PART-1-1",           620,            0.,          -20.,            0.,NA,NA,"",   10.5108E-03,  -2.42696E-03,  -10.2267E-03,   1.04860E-03
C:/temp/dataset/2/27_5.odb,Step-1,Increment      1: Step Time =    1.000,"PART-1-1",           621,      -1.43624,      -21.2208,            0.,NA,NA,"",   21.0529E-03,   4.66382E-03,  -20.5298E-03,   3.30815E-03
C:/temp/dataset/2/27_5.odb,Step-1,Increment      1: Step Time =    1.000,"PART-1-1",           622,   398.228E-03,      -22.4316,            0.,NA,NA,"",   11.2303E-03,   7.01142E-03,  -8.77262E-03,   1.87540E-03
C:/temp/dataset/2/27_5.odb,Step-1,Increment      1: Step Time =    1.000,"PART-1-1",           623,   770.736E-03,      -24.9188,            0.,NA,NA,"",   11.1363E-03,   9.22291E-03,  -6.24138E-03,   2.66630E-03
C:/temp/dataset/2/27_5.odb,Step-1,Increment      1: Step Time =    1.000,"PART-1-1",           624,      -3.33333,          -20.,            0.,NA,NA,"",   38.8745E-03,  -3.32454E-03,  -38.7321E-03,   8.48633E-03
C:/temp/dataset/2/27_5.odb,Step-1,Increment      1: Step Time =    1.000,"PART-1-1",           625,       8.69606,       24.2205,            0.,NA,NA,"",       5.24269,       4.45927,      -2.75693,   161.361E-09
C:/temp/dataset/2/27_5.odb,Step-1,Increment      1: Step Time =    1.000,"PART-1-1",           626,      -3.33333,            5.,            0.,NA,NA,"",       2.24527,       2.01048,  -999.622E-03,   11.7949E-03
C:/temp/dataset/2/27_5.odb,Step-1,Increment      1: Step Time =    1.000,"PART-1-1",           627,      -4.94363,       3.89105,            0.,NA,NA,"",       2.01699,       1.86568,  -766.479E-03,   11.5461E-03
C:/temp/dataset/2/27_5.odb,Step-1,Increment      1: Step Time =    1.000,"PART-1-1",           628,      -6.66667,            5.,            0.,NA,NA,"",       2.07679,       1.99946,  -561.439E-03,   12.7043E-03
C:/temp/dataset/2/27_5.odb,Step-1,Increment      1: Step Time =    1.000,"PART-1-1",           629,           10.,          -20.,            0.,NA,NA,"",   4.93891E-03,   4.89001E-03,   693.254E-06,   183.653E-06
C:/temp/dataset/2/27_5.odb,Step-1,Increment      1: Step Time =    1.000,"PART-1-1",           630,       8.42239,      -21.2201,            0.,NA,NA,"",   4.69530E-03,   4.57768E-03,   1.04438E-03,   137.783E-06
C:/temp/dataset/2/27_5.odb,Step-1,Increment      1: Step Time =    1.000,"PART-1-1",           631,       6.66667,          -20.,            0.,NA,NA,"",   4.08569E-03,   3.98948E-03,   881.430E-06,   443.430E-06
C:/temp/dataset/2/27_5.odb,Step-1,Increment      1: Step Time =    1.000,"PART-1-1",           632,       9.53008,       25.0675,            0.,NA,NA,"",       5.39235,       4.56299,      -2.87341,   92.3002E-09
