ODB Name,Step,Frame,Part Instance Name,    êﬂì_ÉâÉxÉã,X,Y,Z,Section Name,Material Name,Section Point,   U-Magnitude,          U-U1,          U-U2,       S-Mises
C:/temp/dataset/2/27_6.odb,Step-1,Increment      1: Step Time =    1.000,"PART-1-1",             1,          -15.,           20.,            0.,NA,NA,"",       4.86936,       4.85282,   401.098E-03,   2.53973E-09
C:/temp/dataset/2/27_6.odb,Step-1,Increment      1: Step Time =    1.000,"PART-1-1",             2,          -15.,           25.,            0.,NA,NA,"",       5.63777,       5.62747,   340.725E-03,   3.46809E-09
C:/temp/dataset/2/27_6.odb,Step-1,Increment      1: Step Time =    1.000,"PART-1-1",             3,          -10.,           20.,            0.,NA,NA,"",       4.80698,       4.79244,  -373.553E-03,   9.51312E-09
C:/temp/dataset/2/27_6.odb,Step-1,Increment      1: Step Time =    1.000,"PART-1-1",             4,           -5.,           20.,            0.,NA,NA,"",       4.86938,       4.73207,      -1.14820,   18.0606E-09
C:/temp/dataset/2/27_6.odb,Step-1,Increment      1: Step Time =    1.000,"PART-1-1",             5,            0.,           20.,            0.,NA,NA,"",       5.05194,       4.67170,      -1.92286,   46.2835E-09
C:/temp/dataset/2/27_6.odb,Step-1,Increment      1: Step Time =    1.000,"PART-1-1",             6,            5.,           20.,            0.,NA,NA,"",       5.34236,       4.61132,      -2.69751,   721.590E-09
C:/temp/dataset/2/27_6.odb,Step-1,Increment      1: Step Time =    1.000,"PART-1-1",             7,            5.,          12.5,            0.,NA,NA,"",       4.32363,       3.44931,      -2.60691,   23.1717E-06
C:/temp/dataset/2/27_6.odb,Step-1,Increment      1: Step Time =    1.000,"PART-1-1",             8,            5.,            5.,            0.,NA,NA,"",       3.40142,       2.28575,      -2.51892,   3.04231E-03
C:/temp/dataset/2/27_6.odb,Step-1,Increment      1: Step Time =    1.000,"PART-1-1",             9,           -5.,            5.,            0.,NA,NA,"",       2.52554,       2.34451,  -938.937E-03,   16.6408E-03
C:/temp/dataset/2/27_6.odb,Step-1,Increment      1: Step Time =    1.000,"PART-1-1",            10,          -15.,            5.,            0.,NA,NA,"",       2.39866,       2.35994,   429.275E-03,   846.574E-06
C:/temp/dataset/2/27_6.odb,Step-1,Increment      1: Step Time =    1.000,"PART-1-1",            11,          -15.,         -3.75,            0.,NA,NA,"",       1.26620,       1.18635,   442.512E-03,   22.0967E-03
C:/temp/dataset/2/27_6.odb,Step-1,Increment      1: Step Time =    1.000,"PART-1-1",            12,          -15.,         -12.5,            0.,NA,NA,"",   432.939E-03,   342.195E-03,   265.214E-03,   28.5324E-03
C:/temp/dataset/2/27_6.odb,Step-1,Increment      1: Step Time =    1.000,"PART-1-1",            13,          -15.,        -21.25,            0.,NA,NA,"",   74.2136E-03,   3.05762E-03,   74.1506E-03,   19.1363E-03
C:/temp/dataset/2/27_6.odb,Step-1,Increment      1: Step Time =    1.000,"PART-1-1",            14,          -15.,          -30.,            0.,NA,NA,"",            0.,  -1.18950E-39,  -986.033E-42,   3.06572E-03
C:/temp/dataset/2/27_6.odb,Step-1,Increment      1: Step Time =    1.000,"PART-1-1",            15,           15.,          -30.,            0.,NA,NA,"",            0.,   308.897E-42,  -493.878E-42,   834.360E-06
C:/temp/dataset/2/27_6.odb,Step-1,Increment      1: Step Time =    1.000,"PART-1-1",            16,           15.,          -25.,            0.,NA,NA,"",   3.62499E-03,   3.50908E-03,  -909.316E-06,   93.6038E-06
C:/temp/dataset/2/27_6.odb,Step-1,Increment      1: Step Time =    1.000,"PART-1-1",            17,           15.,          -20.,            0.,NA,NA,"",   5.12512E-03,   5.08214E-03,  -662.399E-06,   16.1059E-06
C:/temp/dataset/2/27_6.odb,Step-1,Increment      1: Step Time =    1.000,"PART-1-1",            18,            5.,          -20.,            0.,NA,NA,"",   2.65973E-03,   2.65603E-03,   140.158E-06,   828.976E-06
C:/temp/dataset/2/27_6.odb,Step-1,Increment      1: Step Time =    1.000,"PART-1-1",            19,           -5.,          -20.,            0.,NA,NA,"",   112.466E-03,   5.37971E-03,  -112.337E-03,   40.3026E-03
C:/temp/dataset/2/27_6.odb,Step-1,Increment      1: Step Time =    1.000,"PART-1-1",            20,           -5.,         -12.5,            0.,NA,NA,"",   523.071E-03,   342.878E-03,  -395.017E-03,   38.8136E-03
C:/temp/dataset/2/27_6.odb,Step-1,Increment      1: Step Time =    1.000,"PART-1-1",            21,           -5.,           -5.,            0.,NA,NA,"",       1.16375,   917.604E-03,  -715.766E-03,   52.3393E-03
C:/temp/dataset/2/27_6.odb,Step-1,Increment      1: Step Time =    1.000,"PART-1-1",            22,            0.,           -5.,            0.,NA,NA,"",       1.77313,   794.674E-03,      -1.58508,   2.82669E-03
C:/temp/dataset/2/27_6.odb,Step-1,Increment      1: Step Time =    1.000,"PART-1-1",            23,            5.,           -5.,            0.,NA,NA,"",       2.49490,   729.995E-03,      -2.38571,   934.691E-06
C:/temp/dataset/2/27_6.odb,Step-1,Increment      1: Step Time =    1.000,"PART-1-1",            24,           10.,           -5.,            0.,NA,NA,"",       3.23905,   671.890E-03,      -3.16859,   436.311E-06
C:/temp/dataset/2/27_6.odb,Step-1,Increment      1: Step Time =    1.000,"PART-1-1",            25,           15.,           -5.,            0.,NA,NA,"",       3.99382,   611.603E-03,      -3.94671,   24.0138E-06
C:/temp/dataset/2/27_6.odb,Step-1,Increment      1: Step Time =    1.000,"PART-1-1",            26,           15.,          3.75,            0.,NA,NA,"",       4.50632,       1.97294,      -4.05147,   336.759E-06
C:/temp/dataset/2/27_6.odb,Step-1,Increment      1: Step Time =    1.000,"PART-1-1",            27,           15.,          12.5,            0.,NA,NA,"",       5.32486,       3.32864,      -4.15624,   6.43777E-06
C:/temp/dataset/2/27_6.odb,Step-1,Increment      1: Step Time =    1.000,"PART-1-1",            28,           15.,         21.25,            0.,NA,NA,"",       6.33292,       4.68424,      -4.26190,   470.470E-09
C:/temp/dataset/2/27_6.odb,Step-1,Increment      1: Step Time =    1.000,"PART-1-1",            29,           15.,           30.,            0.,NA,NA,"",       7.45357,       6.03988,      -4.36756,   4.15908E-09
C:/temp/dataset/2/27_6.odb,Step-1,Increment      1: Step Time =    1.000,"PART-1-1",            30,           7.5,           30.,            0.,NA,NA,"",       6.91795,       6.13044,      -3.20558,   6.63240E-09
C:/temp/dataset/2/27_6.odb,Step-1,Increment      1: Step Time =    1.000,"PART-1-1",            31,            0.,           30.,            0.,NA,NA,"",       6.54806,       6.22100,      -2.04360,   14.0621E-09
C:/temp/dataset/2/27_6.odb,Step-1,Increment      1: Step Time =    1.000,"PART-1-1",            32,          -7.5,           30.,            0.,NA,NA,"",       6.37284,       6.31156,  -881.625E-03,   12.1993E-09
C:/temp/dataset/2/27_6.odb,Step-1,Increment      1: Step Time =    1.000,"PART-1-1",            33,          -15.,           30.,            0.,NA,NA,"",       6.40825,       6.40212,   280.352E-03,   2.83883E-09
C:/temp/dataset/2/27_6.odb,Step-1,Increment      1: Step Time =    1.000,"PART-1-1",            34,          -15.,          22.5,            0.,NA,NA,"",       5.25325,       5.24014,   370.912E-03,   4.46607E-09
C:/temp/dataset/2/27_6.odb,Step-1,Increment      1: Step Time =    1.000,"PART-1-1",            35,         -12.5,           20.,            0.,NA,NA,"",       4.82265,       4.82263,   13.7726E-03,   6.92730E-09
C:/temp/dataset/2/27_6.odb,Step-1,Increment      1: Step Time =    1.000,"PART-1-1",            36,          -7.5,           20.,            0.,NA,NA,"",       4.82266,       4.76226,  -760.879E-03,   13.3681E-09
C:/temp/dataset/2/27_6.odb,Step-1,Increment      1: Step Time =    1.000,"PART-1-1",            37,          -2.5,           20.,            0.,NA,NA,"",       4.94627,       4.70188,      -1.53553,   23.3090E-09
C:/temp/dataset/2/27_6.odb,Step-1,Increment      1: Step Time =    1.000,"PART-1-1",            38,           2.5,           20.,            0.,NA,NA,"",       5.18465,       4.64151,      -2.31018,   122.321E-09
C:/temp/dataset/2/27_6.odb,Step-1,Increment      1: Step Time =    1.000,"PART-1-1",            39,            5.,           15.,            0.,NA,NA,"",       4.65558,       3.83666,      -2.63712,   8.36466E-06
C:/temp/dataset/2/27_6.odb,Step-1,Increment      1: Step Time =    1.000,"PART-1-1",            40,            5.,          17.5,            0.,NA,NA,"",       4.99567,       4.22400,      -2.66732,   2.64368E-06
C:/temp/dataset/2/27_6.odb,Step-1,Increment      1: Step Time =    1.000,"PART-1-1",            41,            5.,           7.5,            0.,NA,NA,"",       3.69257,       2.67412,      -2.54639,   435.575E-06
C:/temp/dataset/2/27_6.odb,Step-1,Increment      1: Step Time =    1.000,"PART-1-1",            42,            5.,           10.,            0.,NA,NA,"",       4.00183,       3.06186,      -2.57676,   84.7238E-06
C:/temp/dataset/2/27_6.odb,Step-1,Increment      1: Step Time =    1.000,"PART-1-1",            43,      -1.66667,            5.,            0.,NA,NA,"",       2.76444,       2.34212,      -1.46853,   11.7530E-03
C:/temp/dataset/2/27_6.odb,Step-1,Increment      1: Step Time =    1.000,"PART-1-1",            44,       1.66667,            5.,            0.,NA,NA,"",       3.06486,       2.32048,      -2.00219,   7.30022E-03
C:/temp/dataset/2/27_6.odb,Step-1,Increment      1: Step Time =    1.000,"PART-1-1",            45,      -11.6667,            5.,            0.,NA,NA,"",       2.33356,       2.33355,  -8.80226E-03,   3.92136E-03
C:/temp/dataset/2/27_6.odb,Step-1,Increment      1: Step Time =    1.000,"PART-1-1",            46,      -8.33333,            5.,            0.,NA,NA,"",       2.37369,       2.33062,  -450.119E-03,   13.6414E-03
C:/temp/dataset/2/27_6.odb,Step-1,Increment      1: Step Time =    1.000,"PART-1-1",            47,          -15.,  -833.333E-03,            0.,NA,NA,"",       1.63548,       1.56880,   462.259E-03,   12.7060E-03
C:/temp/dataset/2/27_6.odb,Step-1,Increment      1: Step Time =    1.000,"PART-1-1",            48,          -15.,       2.08333,            0.,NA,NA,"",       2.01964,       1.96788,   454.285E-03,   3.14173E-03
C:/temp/dataset/2/27_6.odb,Step-1,Increment      1: Step Time =    1.000,"PART-1-1",            49,          -15.,      -9.58333,            0.,NA,NA,"",   655.344E-03,   564.617E-03,   332.692E-03,   29.2826E-03
C:/temp/dataset/2/27_6.odb,Step-1,Increment      1: Step Time =    1.000,"PART-1-1",            50,          -15.,      -6.66667,            0.,NA,NA,"",   934.015E-03,   846.370E-03,   395.020E-03,   27.8967E-03
C:/temp/dataset/2/27_6.odb,Step-1,Increment      1: Step Time =    1.000,"PART-1-1",            51,          -15.,      -18.3333,            0.,NA,NA,"",   146.448E-03,   64.5142E-03,   131.472E-03,   24.1408E-03
C:/temp/dataset/2/27_6.odb,Step-1,Increment      1: Step Time =    1.000,"PART-1-1",            52,          -15.,      -15.4167,            0.,NA,NA,"",   264.252E-03,   176.180E-03,   196.950E-03,   27.2083E-03
C:/temp/dataset/2/27_6.odb,Step-1,Increment      1: Step Time =    1.000,"PART-1-1",            53,          -15.,      -27.0833,            0.,NA,NA,"",   16.5344E-03,  -15.3672E-03,   6.10210E-03,   6.70833E-03
C:/temp/dataset/2/27_6.odb,Step-1,Increment      1: Step Time =    1.000,"PART-1-1",            54,          -15.,      -24.1667,            0.,NA,NA,"",   37.3611E-03,  -18.8301E-03,   32.2689E-03,   12.9630E-03
C:/temp/dataset/2/27_6.odb,Step-1,Increment      1: Step Time =    1.000,"PART-1-1",            55,           12.,          -30.,            0.,NA,NA,"",            0.,   1.31930E-39,  -940.232E-42,   526.263E-06
C:/temp/dataset/2/27_6.odb,Step-1,Increment      1: Step Time =    1.000,"PART-1-1",            56,            9.,          -30.,            0.,NA,NA,"",            0.,   1.60034E-39,   716.363E-42,   898.835E-06
C:/temp/dataset/2/27_6.odb,Step-1,Increment      1: Step Time =    1.000,"PART-1-1",            57,            6.,          -30.,            0.,NA,NA,"",            0.,   3.72053E-39,  -3.47183E-39,   1.54063E-03
C:/temp/dataset/2/27_6.odb,Step-1,Increment      1: Step Time =    1.000,"PART-1-1",            58,            3.,          -30.,            0.,NA,NA,"",            0.,   3.60137E-39,  -2.35136E-39,   2.60457E-03
C:/temp/dataset/2/27_6.odb,Step-1,Increment      1: Step Time =    1.000,"PART-1-1",            59,            0.,          -30.,            0.,NA,NA,"",            0.,   8.93898E-39,  -13.3547E-39,   3.95698E-03
C:/temp/dataset/2/27_6.odb,Step-1,Increment      1: Step Time =    1.000,"PART-1-1",            60,           -3.,          -30.,            0.,NA,NA,"",            0.,   8.44266E-39,  -19.4368E-39,   5.03948E-03
C:/temp/dataset/2/27_6.odb,Step-1,Increment      1: Step Time =    1.000,"PART-1-1",            61,           -6.,          -30.,            0.,NA,NA,"",            0.,   2.15139E-39,  -18.1501E-39,   5.82009E-03
C:/temp/dataset/2/27_6.odb,Step-1,Increment      1: Step Time =    1.000,"PART-1-1",            62,           -9.,          -30.,            0.,NA,NA,"",            0.,  -15.9154E-39,  -21.2184E-39,   6.63395E-03
C:/temp/dataset/2/27_6.odb,Step-1,Increment      1: Step Time =    1.000,"PART-1-1",            63,          -12.,          -30.,            0.,NA,NA,"",            0.,  -12.0243E-39,  -3.71223E-39,   6.18939E-03
C:/temp/dataset/2/27_6.odb,Step-1,Increment      1: Step Time =    1.000,"PART-1-1",            64,           15.,         -27.5,            0.,NA,NA,"",   2.30462E-03,   2.05654E-03,  -1.04014E-03,   176.666E-06
C:/temp/dataset/2/27_6.odb,Step-1,Increment      1: Step Time =    1.000,"PART-1-1",            65,           15.,         -22.5,            0.,NA,NA,"",   4.43816E-03,   4.38376E-03,  -692.751E-06,   52.5149E-06
C:/temp/dataset/2/27_6.odb,Step-1,Increment      1: Step Time =    1.000,"PART-1-1",            66,       8.33333,          -20.,            0.,NA,NA,"",   4.47502E-03,   4.34920E-03,   1.05367E-03,   363.500E-06
C:/temp/dataset/2/27_6.odb,Step-1,Increment      1: Step Time =    1.000,"PART-1-1",            67,       11.6667,          -20.,            0.,NA,NA,"",   5.00664E-03,   4.99247E-03,   376.444E-06,   87.0215E-06
C:/temp/dataset/2/27_6.odb,Step-1,Increment      1: Step Time =    1.000,"PART-1-1",            68,      -1.66667,          -20.,            0.,NA,NA,"",   28.6325E-03,  -6.43210E-03,  -27.9007E-03,   7.65852E-03
C:/temp/dataset/2/27_6.odb,Step-1,Increment      1: Step Time =    1.000,"PART-1-1",            69,       1.66667,          -20.,            0.,NA,NA,"",   6.38002E-03,  -1.04901E-03,  -6.29319E-03,   2.22380E-03
C:/temp/dataset/2/27_6.odb,Step-1,Increment      1: Step Time =    1.000,"PART-1-1",            70,           -5.,          -15.,            0.,NA,NA,"",   366.750E-03,   204.056E-03,  -304.740E-03,   37.5894E-03
C:/temp/dataset/2/27_6.odb,Step-1,Increment      1: Step Time =    1.000,"PART-1-1",            71,           -5.,         -17.5,            0.,NA,NA,"",   239.714E-03,   94.5742E-03,  -220.269E-03,   40.6534E-03
C:/temp/dataset/2/27_6.odb,Step-1,Increment      1: Step Time =    1.000,"PART-1-1",            72,           -5.,          -7.5,            0.,NA,NA,"",   923.731E-03,   716.311E-03,  -583.247E-03,   43.8056E-03
C:/temp/dataset/2/27_6.odb,Step-1,Increment      1: Step Time =    1.000,"PART-1-1",            73,           -5.,          -10.,            0.,NA,NA,"",   709.617E-03,   514.573E-03,  -488.643E-03,   38.5302E-03
C:/temp/dataset/2/27_6.odb,Step-1,Increment      1: Step Time =    1.000,"PART-1-1",            74,          -2.5,           -5.,            0.,NA,NA,"",       1.43877,   837.475E-03,      -1.16991,   16.7646E-03
C:/temp/dataset/2/27_6.odb,Step-1,Increment      1: Step Time =    1.000,"PART-1-1",            75,           2.5,           -5.,            0.,NA,NA,"",       2.12912,   760.184E-03,      -1.98879,   772.180E-06
C:/temp/dataset/2/27_6.odb,Step-1,Increment      1: Step Time =    1.000,"PART-1-1",            76,           7.5,           -5.,            0.,NA,NA,"",       2.86556,   701.083E-03,      -2.77848,   773.705E-06
C:/temp/dataset/2/27_6.odb,Step-1,Increment      1: Step Time =    1.000,"PART-1-1",            77,          12.5,           -5.,            0.,NA,NA,"",       3.61514,   642.007E-03,      -3.55768,   113.298E-06
C:/temp/dataset/2/27_6.odb,Step-1,Increment      1: Step Time =    1.000,"PART-1-1",            78,           15.,   833.333E-03,            0.,NA,NA,"",       4.29495,       1.51982,      -4.01706,   357.029E-06
C:/temp/dataset/2/27_6.odb,Step-1,Increment      1: Step Time =    1.000,"PART-1-1",            79,           15.,      -2.08333,            0.,NA,NA,"",       4.12234,       1.06574,      -3.98220,   133.004E-06
C:/temp/dataset/2/27_6.odb,Step-1,Increment      1: Step Time =    1.000,"PART-1-1",            80,           15.,       9.58333,            0.,NA,NA,"",       5.02587,       2.87685,      -4.12106,   34.5161E-06
C:/temp/dataset/2/27_6.odb,Step-1,Increment      1: Step Time =    1.000,"PART-1-1",            81,           15.,       6.66667,            0.,NA,NA,"",       4.75152,       2.42508,      -4.08607,   163.148E-06
C:/temp/dataset/2/27_6.odb,Step-1,Increment      1: Step Time =    1.000,"PART-1-1",            82,           15.,       18.3333,            0.,NA,NA,"",       5.98145,       4.23236,      -4.22668,   1.87536E-06
C:/temp/dataset/2/27_6.odb,Step-1,Increment      1: Step Time =    1.000,"PART-1-1",            83,           15.,       15.4167,            0.,NA,NA,"",       5.64450,       3.78049,      -4.19146,   5.66238E-06
C:/temp/dataset/2/27_6.odb,Step-1,Increment      1: Step Time =    1.000,"PART-1-1",            84,           15.,       27.0833,            0.,NA,NA,"",       7.07071,       5.58800,      -4.33234,   8.55405E-09
C:/temp/dataset/2/27_6.odb,Step-1,Increment      1: Step Time =    1.000,"PART-1-1",            85,           15.,       24.1667,            0.,NA,NA,"",       6.69664,       5.13612,      -4.29712,   71.0694E-09
C:/temp/dataset/2/27_6.odb,Step-1,Increment      1: Step Time =    1.000,"PART-1-1",            86,           10.,           30.,            0.,NA,NA,"",       7.07969,       6.10025,      -3.59291,   4.35504E-09
C:/temp/dataset/2/27_6.odb,Step-1,Increment      1: Step Time =    1.000,"PART-1-1",            87,          12.5,           30.,            0.,NA,NA,"",       7.25865,       6.07007,      -3.98023,   6.38073E-09
C:/temp/dataset/2/27_6.odb,Step-1,Increment      1: Step Time =    1.000,"PART-1-1",            88,           2.5,           30.,            0.,NA,NA,"",       6.65098,       6.19081,      -2.43093,   9.65970E-09
C:/temp/dataset/2/27_6.odb,Step-1,Increment      1: Step Time =    1.000,"PART-1-1",            89,            5.,           30.,            0.,NA,NA,"",       6.77465,       6.16063,      -2.81825,   7.34354E-09
C:/temp/dataset/2/27_6.odb,Step-1,Increment      1: Step Time =    1.000,"PART-1-1",            90,           -5.,           30.,            0.,NA,NA,"",       6.40827,       6.28137,      -1.26895,   15.5171E-09
C:/temp/dataset/2/27_6.odb,Step-1,Increment      1: Step Time =    1.000,"PART-1-1",            91,          -2.5,           30.,            0.,NA,NA,"",       6.46688,       6.25119,      -1.65628,   17.1353E-09
C:/temp/dataset/2/27_6.odb,Step-1,Increment      1: Step Time =    1.000,"PART-1-1",            92,         -12.5,           30.,            0.,NA,NA,"",       6.37283,       6.37193,  -106.973E-03,   5.61348E-09
C:/temp/dataset/2/27_6.odb,Step-1,Increment      1: Step Time =    1.000,"PART-1-1",            93,          -10.,           30.,            0.,NA,NA,"",       6.36098,       6.34175,  -494.299E-03,   8.27187E-09
C:/temp/dataset/2/27_6.odb,Step-1,Increment      1: Step Time =    1.000,"PART-1-1",            94,          -15.,          27.5,            0.,NA,NA,"",       6.02280,       6.01479,   310.539E-03,   5.62434E-09
C:/temp/dataset/2/27_6.odb,Step-1,Increment      1: Step Time =    1.000,"PART-1-1",            95,      -12.4978,       24.9766,            0.,NA,NA,"",       5.59382,       5.59362,  -46.6631E-03,   6.11045E-09
C:/temp/dataset/2/27_6.odb,Step-1,Increment      1: Step Time =    1.000,"PART-1-1",            96,      -7.49872,       27.4475,            0.,NA,NA,"",       5.97698,       5.91609,  -851.004E-03,   6.31145E-09
C:/temp/dataset/2/27_6.odb,Step-1,Increment      1: Step Time =    1.000,"PART-1-1",            97,      -7.50661,       22.4446,            0.,NA,NA,"",       5.20132,       5.14107,  -789.371E-03,   7.93100E-09
C:/temp/dataset/2/27_6.odb,Step-1,Increment      1: Step Time =    1.000,"PART-1-1",            98,      -2.53392,       22.4091,            0.,NA,NA,"",       5.30968,       5.07554,      -1.55936,   13.3179E-09
C:/temp/dataset/2/27_6.odb,Step-1,Increment      1: Step Time =    1.000,"PART-1-1",            99,  -19.7467E-03,       27.3919,            0.,NA,NA,"",       6.15433,       5.81717,      -2.00905,   14.4772E-09
C:/temp/dataset/2/27_6.odb,Step-1,Increment      1: Step Time =    1.000,"PART-1-1",           100,       2.31326,       22.2671,            0.,NA,NA,"",       5.50272,       4.99501,      -2.30863,   52.8192E-09
C:/temp/dataset/2/27_6.odb,Step-1,Increment      1: Step Time =    1.000,"PART-1-1",           101,       7.89882,       27.4278,            0.,NA,NA,"",       6.57826,       5.72711,      -3.23631,   35.4980E-09
C:/temp/dataset/2/27_6.odb,Step-1,Increment      1: Step Time =    1.000,"PART-1-1",           102,       6.74061,       20.0564,            0.,NA,NA,"",       5.47353,       4.59905,      -2.96786,   978.055E-09
C:/temp/dataset/2/27_6.odb,Step-1,Increment      1: Step Time =    1.000,"PART-1-1",           103,       6.76082,       17.7755,            0.,NA,NA,"",       5.16599,       4.24542,      -2.94345,   2.24322E-06
C:/temp/dataset/2/27_6.odb,Step-1,Increment      1: Step Time =    1.000,"PART-1-1",           104,       7.34933,       13.0959,            0.,NA,NA,"",       4.60568,       3.51328,      -2.97811,   20.5656E-06
C:/temp/dataset/2/27_6.odb,Step-1,Increment      1: Step Time =    1.000,"PART-1-1",           105,       12.5251,      -2.17932,            0.,NA,NA,"",       3.75499,       1.08103,      -3.59602,   288.949E-06
C:/temp/dataset/2/27_6.odb,Step-1,Increment      1: Step Time =    1.000,"PART-1-1",           106,       11.8446,      -24.9441,            0.,NA,NA,"",   3.73274E-03,   3.72585E-03,   226.727E-06,   161.410E-06
C:/temp/dataset/2/27_6.odb,Step-1,Increment      1: Step Time =    1.000,"PART-1-1",           107,       2.44158,      -2.66949,            0.,NA,NA,"",       2.30445,       1.12958,      -2.00862,   2.72730E-03
C:/temp/dataset/2/27_6.odb,Step-1,Increment      1: Step Time =    1.000,"PART-1-1",           108,       7.46163,      -2.37632,            0.,NA,NA,"",       3.01763,       1.11192,      -2.80530,   217.427E-06
C:/temp/dataset/2/27_6.odb,Step-1,Increment      1: Step Time =    1.000,"PART-1-1",           109,       7.48217,       7.95809,            0.,NA,NA,"",       3.99953,       2.71553,      -2.93634,   514.160E-06
C:/temp/dataset/2/27_6.odb,Step-1,Increment      1: Step Time =    1.000,"PART-1-1",           110,      -5.01446,       22.4347,            0.,NA,NA,"",       5.24289,       5.10945,      -1.17536,   9.93315E-09
C:/temp/dataset/2/27_6.odb,Step-1,Increment      1: Step Time =    1.000,"PART-1-1",           111,  -75.1424E-03,       22.3615,            0.,NA,NA,"",       5.39896,       5.03848,      -1.93973,   15.2250E-09
C:/temp/dataset/2/27_6.odb,Step-1,Increment      1: Step Time =    1.000,"PART-1-1",           112,       4.50776,       22.1530,            0.,NA,NA,"",       5.61414,       4.95083,      -2.64724,   105.161E-09
C:/temp/dataset/2/27_6.odb,Step-1,Increment      1: Step Time =    1.000,"PART-1-1",           113,       7.06405,       15.4904,            0.,NA,NA,"",       4.88803,       3.88773,      -2.96284,   6.29229E-06
C:/temp/dataset/2/27_6.odb,Step-1,Increment      1: Step Time =    1.000,"PART-1-1",           114,       7.46285,       10.5556,            0.,NA,NA,"",       4.30292,       3.11826,      -2.96505,   111.751E-06
C:/temp/dataset/2/27_6.odb,Step-1,Increment      1: Step Time =    1.000,"PART-1-1",           115,      -2.89738,      -2.05905,            0.,NA,NA,"",       1.73364,       1.30275,      -1.14382,   18.7897E-03
C:/temp/dataset/2/27_6.odb,Step-1,Increment      1: Step Time =    1.000,"PART-1-1",           116,      -7.61206,      -10.6629,            0.,NA,NA,"",   510.845E-03,   437.916E-03,  -263.045E-03,   22.5482E-03
C:/temp/dataset/2/27_6.odb,Step-1,Increment      1: Step Time =    1.000,"PART-1-1",           117,      -6.85891,      -17.7385,            0.,NA,NA,"",   160.003E-03,   64.8959E-03,  -146.252E-03,   25.7569E-03
C:/temp/dataset/2/27_6.odb,Step-1,Increment      1: Step Time =    1.000,"PART-1-1",           118,       11.9280,      -27.4687,            0.,NA,NA,"",   2.20152E-03,   2.20117E-03,  -39.0996E-06,   534.651E-06
C:/temp/dataset/2/27_6.odb,Step-1,Increment      1: Step Time =    1.000,"PART-1-1",           119,      -7.44747,      -13.1413,            0.,NA,NA,"",   351.592E-03,   275.042E-03,  -219.017E-03,   22.4010E-03
C:/temp/dataset/2/27_6.odb,Step-1,Increment      1: Step Time =    1.000,"PART-1-1",           120,      -7.13169,      -15.4658,            0.,NA,NA,"",   240.518E-03,   154.733E-03,  -184.137E-03,   24.5322E-03
C:/temp/dataset/2/27_6.odb,Step-1,Increment      1: Step Time =    1.000,"PART-1-1",           121,      -8.02089,      -5.87394,            0.,NA,NA,"",   918.253E-03,   860.526E-03,  -320.441E-03,   12.3045E-03
C:/temp/dataset/2/27_6.odb,Step-1,Increment      1: Step Time =    1.000,"PART-1-1",           122,      -7.74476,      -8.18529,            0.,NA,NA,"",   705.423E-03,   637.391E-03,  -302.248E-03,   21.7915E-03
C:/temp/dataset/2/27_6.odb,Step-1,Increment      1: Step Time =    1.000,"PART-1-1",           123,  -21.3834E-03,      -2.74811,            0.,NA,NA,"",       1.98075,       1.15488,      -1.60923,   7.54457E-03
C:/temp/dataset/2/27_6.odb,Step-1,Increment      1: Step Time =    1.000,"PART-1-1",           124,       4.94012,      -2.49525,            0.,NA,NA,"",       2.65769,       1.12460,      -2.40803,   873.157E-06
C:/temp/dataset/2/27_6.odb,Step-1,Increment      1: Step Time =    1.000,"PART-1-1",           125,       10.0127,      -2.27482,            0.,NA,NA,"",       3.38668,       1.09672,      -3.20418,   361.908E-06
C:/temp/dataset/2/27_6.odb,Step-1,Increment      1: Step Time =    1.000,"PART-1-1",           126,       10.2967,       27.4669,            0.,NA,NA,"",       6.74966,       5.70422,      -3.60829,   40.5894E-09
C:/temp/dataset/2/27_6.odb,Step-1,Increment      1: Step Time =    1.000,"PART-1-1",           127,       12.6750,       27.3103,            0.,NA,NA,"",       6.90912,       5.65123,      -3.97487,   27.3196E-09
C:/temp/dataset/2/27_6.odb,Step-1,Increment      1: Step Time =    1.000,"PART-1-1",           128,       2.52543,       27.2659,            0.,NA,NA,"",       6.24710,       5.76692,      -2.40186,   12.9426E-09
C:/temp/dataset/2/27_6.odb,Step-1,Increment      1: Step Time =    1.000,"PART-1-1",           129,       5.32711,       26.8707,            0.,NA,NA,"",       6.33919,       5.67185,      -2.83115,   21.3406E-09
C:/temp/dataset/2/27_6.odb,Step-1,Increment      1: Step Time =    1.000,"PART-1-1",           130,      -5.00948,       27.4462,            0.,NA,NA,"",       6.01433,       5.88582,      -1.23665,   8.06051E-09
C:/temp/dataset/2/27_6.odb,Step-1,Increment      1: Step Time =    1.000,"PART-1-1",           131,      -2.51658,       27.4324,            0.,NA,NA,"",       6.07434,       5.85358,      -1.62270,   10.0829E-09
C:/temp/dataset/2/27_6.odb,Step-1,Increment      1: Step Time =    1.000,"PART-1-1",           132,      -9.99211,       27.4668,            0.,NA,NA,"",       5.96732,       5.94918,  -464.935E-03,   4.80398E-09
C:/temp/dataset/2/27_6.odb,Step-1,Increment      1: Step Time =    1.000,"PART-1-1",           133,       12.5029,       21.6680,            0.,NA,NA,"",       6.15592,       4.77916,      -3.88007,   563.595E-09
C:/temp/dataset/2/27_6.odb,Step-1,Increment      1: Step Time =    1.000,"PART-1-1",           134,      -12.7198,      -9.27859,            0.,NA,NA,"",   579.866E-03,   561.272E-03,   145.666E-03,   13.2150E-03
C:/temp/dataset/2/27_6.odb,Step-1,Increment      1: Step Time =    1.000,"PART-1-1",           135,      -12.2206,      -21.4876,            0.,NA,NA,"",   28.0074E-03,  -15.9253E-03,   23.0390E-03,   9.60420E-03
C:/temp/dataset/2/27_6.odb,Step-1,Increment      1: Step Time =    1.000,"PART-1-1",           136,       12.4390,       11.8581,            0.,NA,NA,"",       4.97030,       3.26012,      -3.75173,   22.0579E-06
C:/temp/dataset/2/27_6.odb,Step-1,Increment      1: Step Time =    1.000,"PART-1-1",           137,      -12.6285,      -12.0158,            0.,NA,NA,"",   366.655E-03,   348.031E-03,   115.369E-03,   12.1860E-03
C:/temp/dataset/2/27_6.odb,Step-1,Increment      1: Step Time =    1.000,"PART-1-1",           138,      -12.4213,      -14.8709,            0.,NA,NA,"",   194.557E-03,   177.819E-03,   78.9473E-03,   10.4312E-03
C:/temp/dataset/2/27_6.odb,Step-1,Increment      1: Step Time =    1.000,"PART-1-1",           139,       12.2989,       14.8029,            0.,NA,NA,"",       5.29181,       3.71801,      -3.76558,   4.28128E-06
C:/temp/dataset/2/27_6.odb,Step-1,Increment      1: Step Time =    1.000,"PART-1-1",           140,       11.7182,       18.2155,            0.,NA,NA,"",       5.64880,       4.25373,      -3.71681,   1.59653E-06
C:/temp/dataset/2/27_6.odb,Step-1,Increment      1: Step Time =    1.000,"PART-1-1",           141,      -12.3380,      -4.01281,            0.,NA,NA,"",       1.12437,       1.11636,   133.995E-03,   12.5654E-03
C:/temp/dataset/2/27_6.odb,Step-1,Increment      1: Step Time =    1.000,"PART-1-1",           142,       12.5089,       6.21106,            0.,NA,NA,"",       4.39725,       2.38473,      -3.69443,   194.568E-06
C:/temp/dataset/2/27_6.odb,Step-1,Increment      1: Step Time =    1.000,"PART-1-1",           143,      -10.9765,      -1.21375,            0.,NA,NA,"",       1.47322,       1.47284,  -33.6287E-03,   14.1330E-03
C:/temp/dataset/2/27_6.odb,Step-1,Increment      1: Step Time =    1.000,"PART-1-1",           144,      -11.4273,       2.02370,            0.,NA,NA,"",       1.92871,       1.92870,  -8.09959E-03,   10.4181E-03
C:/temp/dataset/2/27_6.odb,Step-1,Increment      1: Step Time =    1.000,"PART-1-1",           145,      -12.7154,      -6.64001,            0.,NA,NA,"",   832.684E-03,   816.273E-03,   164.505E-03,   13.5997E-03
C:/temp/dataset/2/27_6.odb,Step-1,Increment      1: Step Time =    1.000,"PART-1-1",           146,      -11.7762,      -18.1315,            0.,NA,NA,"",   54.7283E-03,   46.0307E-03,   29.6034E-03,   7.75514E-03
C:/temp/dataset/2/27_6.odb,Step-1,Increment      1: Step Time =    1.000,"PART-1-1",           147,      -12.2481,      -24.4184,            0.,NA,NA,"",   31.0641E-03,  -29.0935E-03,   10.8878E-03,   8.11217E-03
C:/temp/dataset/2/27_6.odb,Step-1,Increment      1: Step Time =    1.000,"PART-1-1",           148,       12.5340,       3.42208,            0.,NA,NA,"",       4.15239,       1.95223,      -3.66485,   196.467E-06
C:/temp/dataset/2/27_6.odb,Step-1,Increment      1: Step Time =    1.000,"PART-1-1",           149,       12.5428,   630.306E-03,            0.,NA,NA,"",       3.93731,       1.51842,      -3.63274,   212.600E-06
C:/temp/dataset/2/27_6.odb,Step-1,Increment      1: Step Time =    1.000,"PART-1-1",           150,       12.5001,       9.03097,            0.,NA,NA,"",       4.67461,       2.82151,      -3.72706,   90.6826E-06
C:/temp/dataset/2/27_6.odb,Step-1,Increment      1: Step Time =    1.000,"PART-1-1",           151,       12.7192,       24.5718,            0.,NA,NA,"",       6.55037,       5.22643,      -3.94864,   139.820E-09
C:/temp/dataset/2/27_6.odb,Step-1,Increment      1: Step Time =    1.000,"PART-1-1",           152,       2.66783,      -27.4286,            0.,NA,NA,"",   6.94243E-03,   6.69104E-03,  -1.85132E-03,   2.07377E-03
C:/temp/dataset/2/27_6.odb,Step-1,Increment      1: Step Time =    1.000,"PART-1-1",           153,       8.86089,      -27.4494,            0.,NA,NA,"",   3.02093E-03,   3.01557E-03,   179.745E-06,   759.882E-06
C:/temp/dataset/2/27_6.odb,Step-1,Increment      1: Step Time =    1.000,"PART-1-1",           154,       5.76511,      -27.4328,            0.,NA,NA,"",   4.62825E-03,   4.62532E-03,  -164.717E-06,   1.25756E-03
C:/temp/dataset/2/27_6.odb,Step-1,Increment      1: Step Time =    1.000,"PART-1-1",           155,  -414.647E-03,      -27.4330,            0.,NA,NA,"",   9.79739E-03,   7.48692E-03,  -6.31940E-03,   3.96880E-03
C:/temp/dataset/2/27_6.odb,Step-1,Increment      1: Step Time =    1.000,"PART-1-1",           156,      -3.42691,      -27.4460,            0.,NA,NA,"",   13.1878E-03,   3.16648E-03,  -12.8020E-03,   7.11870E-03
C:/temp/dataset/2/27_6.odb,Step-1,Increment      1: Step Time =    1.000,"PART-1-1",           157,      -6.36574,      -27.4272,            0.,NA,NA,"",   16.7179E-03,  -7.50061E-03,  -14.9408E-03,   8.82402E-03
C:/temp/dataset/2/27_6.odb,Step-1,Increment      1: Step Time =    1.000,"PART-1-1",           158,       10.5238,       25.0033,            0.,NA,NA,"",       6.43111,       5.31979,      -3.61372,   134.598E-09
C:/temp/dataset/2/27_6.odb,Step-1,Increment      1: Step Time =    1.000,"PART-1-1",           159,       6.26912,       22.1485,            0.,NA,NA,"",       5.72893,       4.92887,      -2.92008,   336.741E-09
C:/temp/dataset/2/27_6.odb,Step-1,Increment      1: Step Time =    1.000,"PART-1-1",           160,      -5.96402,      -2.70245,            0.,NA,NA,"",       1.39720,       1.24224,  -639.545E-03,   21.1220E-03
C:/temp/dataset/2/27_6.odb,Step-1,Increment      1: Step Time =    1.000,"PART-1-1",           161,      -12.5033,       22.4816,            0.,NA,NA,"",       5.20717,       5.20715,  -15.6873E-03,   4.18252E-09
C:/temp/dataset/2/27_6.odb,Step-1,Increment      1: Step Time =    1.000,"PART-1-1",           162,      -2.53325,       24.9024,            0.,NA,NA,"",       5.68843,       5.46182,      -1.58958,   6.96680E-09
C:/temp/dataset/2/27_6.odb,Step-1,Increment      1: Step Time =    1.000,"PART-1-1",           163,       4.43197,       24.4161,            0.,NA,NA,"",       5.93344,       5.30237,      -2.66283,   40.5516E-09
C:/temp/dataset/2/27_6.odb,Step-1,Increment      1: Step Time =    1.000,"PART-1-1",           164,      -10.2797,      -8.84555,            0.,NA,NA,"",   584.371E-03,   580.692E-03,  -65.4672E-03,   3.06020E-03
C:/temp/dataset/2/27_6.odb,Step-1,Increment      1: Step Time =    1.000,"PART-1-1",           165,       2.21534,  -332.134E-03,            0.,NA,NA,"",       2.49883,       1.49489,      -2.00236,   5.06292E-03
C:/temp/dataset/2/27_6.odb,Step-1,Increment      1: Step Time =    1.000,"PART-1-1",           166,  -74.2209E-03,       24.8536,            0.,NA,NA,"",       5.77119,       5.42456,      -1.96996,   10.3160E-09
C:/temp/dataset/2/27_6.odb,Step-1,Increment      1: Step Time =    1.000,"PART-1-1",           167,       2.30693,       24.7164,            0.,NA,NA,"",       5.86075,       5.37455,      -2.33722,   14.3389E-09
C:/temp/dataset/2/27_6.odb,Step-1,Increment      1: Step Time =    1.000,"PART-1-1",           168,       9.79368,       13.9045,            0.,NA,NA,"",       4.93552,       3.60907,      -3.36659,   13.0294E-06
C:/temp/dataset/2/27_6.odb,Step-1,Increment      1: Step Time =    1.000,"PART-1-1",           169,       9.30777,       16.4521,            0.,NA,NA,"",       5.20704,       4.00962,      -3.32208,   3.92057E-06
C:/temp/dataset/2/27_6.odb,Step-1,Increment      1: Step Time =    1.000,"PART-1-1",           170,      -2.35985,       1.11806,            0.,NA,NA,"",       2.17814,       1.76130,      -1.28146,   12.5973E-03
C:/temp/dataset/2/27_6.odb,Step-1,Increment      1: Step Time =    1.000,"PART-1-1",           171,      -9.94133,      -13.9778,            0.,NA,NA,"",   224.246E-03,   216.932E-03,  -56.8034E-03,   6.12000E-03
C:/temp/dataset/2/27_6.odb,Step-1,Increment      1: Step Time =    1.000,"PART-1-1",           172,       4.80988,   33.7751E-03,            0.,NA,NA,"",       2.85809,       1.52039,      -2.42014,   1.88199E-03
C:/temp/dataset/2/27_6.odb,Step-1,Increment      1: Step Time =    1.000,"PART-1-1",           173,       9.94126,       11.1894,            0.,NA,NA,"",       4.62837,       3.18663,      -3.35666,   53.0957E-06
C:/temp/dataset/2/27_6.odb,Step-1,Increment      1: Step Time =    1.000,"PART-1-1",           174,       7.43598,   226.782E-03,            0.,NA,NA,"",       3.21487,       1.51845,      -2.83367,   426.707E-06
C:/temp/dataset/2/27_6.odb,Step-1,Increment      1: Step Time =    1.000,"PART-1-1",           175,      -7.50368,       24.9336,            0.,NA,NA,"",       5.58715,       5.52667,  -819.880E-03,   5.31403E-09
C:/temp/dataset/2/27_6.odb,Step-1,Increment      1: Step Time =    1.000,"PART-1-1",           176,      -10.1536,      -11.3797,            0.,NA,NA,"",   384.901E-03,   380.173E-03,  -60.1419E-03,   4.40778E-03
C:/temp/dataset/2/27_6.odb,Step-1,Increment      1: Step Time =    1.000,"PART-1-1",           177,       6.92724,       24.6415,            0.,NA,NA,"",       6.12221,       5.30716,      -3.05214,   101.402E-09
C:/temp/dataset/2/27_6.odb,Step-1,Increment      1: Step Time =    1.000,"PART-1-1",           178,      -9.99868,       24.9580,            0.,NA,NA,"",       5.57746,       5.56058,  -433.624E-03,   5.59216E-09
C:/temp/dataset/2/27_6.odb,Step-1,Increment      1: Step Time =    1.000,"PART-1-1",           179,       8.37028,       18.0705,            0.,NA,NA,"",       5.33518,       4.27169,      -3.19637,   1.38787E-06
C:/temp/dataset/2/27_6.odb,Step-1,Increment      1: Step Time =    1.000,"PART-1-1",           180,      -10.4068,      -6.54987,            0.,NA,NA,"",   805.442E-03,   802.755E-03,  -65.7312E-03,   5.24455E-03
C:/temp/dataset/2/27_6.odb,Step-1,Increment      1: Step Time =    1.000,"PART-1-1",           181,      -8.52723,      -17.8680,            0.,NA,NA,"",   99.3619E-03,   49.9557E-03,  -85.8908E-03,   11.3113E-03
C:/temp/dataset/2/27_6.odb,Step-1,Increment      1: Step Time =    1.000,"PART-1-1",           182,       9.99063,       8.47585,            0.,NA,NA,"",       4.32979,       2.76567,      -3.33138,   182.104E-06
C:/temp/dataset/2/27_6.odb,Step-1,Increment      1: Step Time =    1.000,"PART-1-1",           183,      -6.87511,      -22.3968,            0.,NA,NA,"",   67.8647E-03,  -11.1156E-03,  -66.9482E-03,   18.8567E-03
C:/temp/dataset/2/27_6.odb,Step-1,Increment      1: Step Time =    1.000,"PART-1-1",           184,       7.48189,       5.34092,            0.,NA,NA,"",       3.71119,       2.31040,      -2.90430,   920.783E-06
C:/temp/dataset/2/27_6.odb,Step-1,Increment      1: Step Time =    1.000,"PART-1-1",           185,       10.0207,   425.902E-03,            0.,NA,NA,"",       3.57632,       1.51762,      -3.23835,   289.198E-06
C:/temp/dataset/2/27_6.odb,Step-1,Increment      1: Step Time =    1.000,"PART-1-1",           186,      -8.86720,      -3.63325,            0.,NA,NA,"",       1.16078,       1.13241,  -255.037E-03,   13.2569E-03
C:/temp/dataset/2/27_6.odb,Step-1,Increment      1: Step Time =    1.000,"PART-1-1",           187,       10.0155,       5.77118,            0.,NA,NA,"",       4.05120,       2.34671,      -3.30229,   312.334E-06
C:/temp/dataset/2/27_6.odb,Step-1,Increment      1: Step Time =    1.000,"PART-1-1",           188,       9.07540,       20.2179,            0.,NA,NA,"",       5.67637,       4.59587,      -3.33154,   1.12644E-06
C:/temp/dataset/2/27_6.odb,Step-1,Increment      1: Step Time =    1.000,"PART-1-1",           189,       5.51479,      -24.9218,            0.,NA,NA,"",   6.18231E-03,   6.17650E-03,   267.797E-06,   834.559E-06
C:/temp/dataset/2/27_6.odb,Step-1,Increment      1: Step Time =    1.000,"PART-1-1",           190,       2.33502,      -24.9114,            0.,NA,NA,"",   9.52819E-03,   8.86240E-03,  -3.49917E-03,   1.45107E-03
C:/temp/dataset/2/27_6.odb,Step-1,Increment      1: Step Time =    1.000,"PART-1-1",           191,      -3.83494,      -24.9465,            0.,NA,NA,"",   31.9795E-03,   5.11319E-03,  -31.5681E-03,   10.0103E-03
C:/temp/dataset/2/27_6.odb,Step-1,Increment      1: Step Time =    1.000,"PART-1-1",           192,       8.68706,      -24.9229,            0.,NA,NA,"",   4.61059E-03,   4.54867E-03,   753.078E-06,   458.297E-06
C:/temp/dataset/2/27_6.odb,Step-1,Increment      1: Step Time =    1.000,"PART-1-1",           193,  -793.545E-03,      -24.9263,            0.,NA,NA,"",   17.8110E-03,   10.6453E-03,  -14.2797E-03,   4.91952E-03
C:/temp/dataset/2/27_6.odb,Step-1,Increment      1: Step Time =    1.000,"PART-1-1",           194,      -10.0041,       22.4687,            0.,NA,NA,"",       5.19062,       5.17498,  -402.730E-03,   5.91502E-09
C:/temp/dataset/2/27_6.odb,Step-1,Increment      1: Step Time =    1.000,"PART-1-1",           195,       7.76291,       22.5689,            0.,NA,NA,"",       5.89273,       4.97597,      -3.15659,   276.730E-09
C:/temp/dataset/2/27_6.odb,Step-1,Increment      1: Step Time =    1.000,"PART-1-1",           196,       10.0314,       3.09975,            0.,NA,NA,"",       3.80053,       1.93283,      -3.27234,   258.874E-06
C:/temp/dataset/2/27_6.odb,Step-1,Increment      1: Step Time =    1.000,"PART-1-1",           197,       7.45157,       2.78517,            0.,NA,NA,"",       3.44896,       1.91582,      -2.86791,   558.786E-06
C:/temp/dataset/2/27_6.odb,Step-1,Increment      1: Step Time =    1.000,"PART-1-1",           198,       1.23926,       2.17480,            0.,NA,NA,"",       2.66707,       1.88761,      -1.88420,   8.32882E-03
C:/temp/dataset/2/27_6.odb,Step-1,Increment      1: Step Time =    1.000,"PART-1-1",           199,       5.89388,       23.8379,            0.,NA,NA,"",       5.94115,       5.19513,      -2.88234,   64.1753E-09
C:/temp/dataset/2/27_6.odb,Step-1,Increment      1: Step Time =    1.000,"PART-1-1",           200,       4.70825,       2.52712,            0.,NA,NA,"",       3.09676,       1.90761,      -2.43946,   3.06378E-03
C:/temp/dataset/2/27_6.odb,Step-1,Increment      1: Step Time =    1.000,"PART-1-1",           201,      -6.67563,      -24.8783,            0.,NA,NA,"",   39.4095E-03,  -12.0301E-03,  -37.5284E-03,   12.7560E-03
C:/temp/dataset/2/27_6.odb,Step-1,Increment      1: Step Time =    1.000,"PART-1-1",           202,      -1.93740,       2.90022,            0.,NA,NA,"",       2.44968,       2.02160,      -1.38350,   12.2144E-03
C:/temp/dataset/2/27_6.odb,Step-1,Increment      1: Step Time =    1.000,"PART-1-1",           203,      -4.27328,      -22.5070,            0.,NA,NA,"",   55.3313E-03,   6.92186E-03,  -54.8966E-03,   16.6751E-03
C:/temp/dataset/2/27_6.odb,Step-1,Increment      1: Step Time =    1.000,"PART-1-1",           204,      -7.29195,  -216.826E-03,            0.,NA,NA,"",       1.67349,       1.59383,  -510.177E-03,   11.1964E-03
C:/temp/dataset/2/27_6.odb,Step-1,Increment      1: Step Time =    1.000,"PART-1-1",           205,      -4.39370,   432.763E-03,            0.,NA,NA,"",       1.92288,       1.67483,  -944.669E-03,   14.5546E-03
C:/temp/dataset/2/27_6.odb,Step-1,Increment      1: Step Time =    1.000,"PART-1-1",           206,      -1.20581,      -22.4416,            0.,NA,NA,"",   19.4702E-03,   7.23641E-03,  -18.0755E-03,   6.04948E-03
C:/temp/dataset/2/27_6.odb,Step-1,Increment      1: Step Time =    1.000,"PART-1-1",           207,      -4.88725,       2.78210,            0.,NA,NA,"",       2.21252,       2.01500,  -913.783E-03,   11.7490E-03
C:/temp/dataset/2/27_6.odb,Step-1,Increment      1: Step Time =    1.000,"PART-1-1",           208,      -8.02678,       2.39768,            0.,NA,NA,"",       2.01908,       1.96766,  -452.762E-03,   9.59995E-03
C:/temp/dataset/2/27_6.odb,Step-1,Increment      1: Step Time =    1.000,"PART-1-1",           209,       8.51144,      -22.4401,            0.,NA,NA,"",   4.79445E-03,   4.64281E-03,   1.19626E-03,   229.626E-06
C:/temp/dataset/2/27_6.odb,Step-1,Increment      1: Step Time =    1.000,"PART-1-1",           210,       5.25488,      -22.4306,            0.,NA,NA,"",   5.01177E-03,   4.95083E-03,   779.189E-06,   370.980E-06
C:/temp/dataset/2/27_6.odb,Step-1,Increment      1: Step Time =    1.000,"PART-1-1",           211,       2.00226,      -22.4217,            0.,NA,NA,"",   7.16596E-03,   6.09730E-03,  -3.76483E-03,   1.27845E-03
C:/temp/dataset/2/27_6.odb,Step-1,Increment      1: Step Time =    1.000,"PART-1-1",           212,      -9.28570,      -27.3600,            0.,NA,NA,"",   19.4560E-03,  -17.6934E-03,  -8.09205E-03,   7.38234E-03
C:/temp/dataset/2/27_6.odb,Step-1,Increment      1: Step Time =    1.000,"PART-1-1",           213,       11.7596,      -22.4488,            0.,NA,NA,"",   4.46735E-03,   4.45037E-03,   389.108E-06,   111.890E-06
C:/temp/dataset/2/27_6.odb,Step-1,Increment      1: Step Time =    1.000,"PART-1-1",           214,      -12.4952,       27.4851,            0.,NA,NA,"",       5.98275,       5.98225,  -77.3502E-03,   3.67286E-09
C:/temp/dataset/2/27_6.odb,Step-1,Increment      1: Step Time =    1.000,"PART-1-1",           215,      -12.1608,      -27.2494,            0.,NA,NA,"",   20.5657E-03,  -20.3021E-03,   3.28268E-03,   6.95684E-03
C:/temp/dataset/2/27_6.odb,Step-1,Increment      1: Step Time =    1.000,"PART-1-1",           216,      -6.92277,      -20.0189,            0.,NA,NA,"",   100.815E-03,   2.86857E-03,  -100.775E-03,   16.3058E-03
C:/temp/dataset/2/27_6.odb,Step-1,Increment      1: Step Time =    1.000,"PART-1-1",           217,       10.3403,       22.5364,            0.,NA,NA,"",       6.08632,       4.93981,      -3.55550,   462.396E-09
C:/temp/dataset/2/27_6.odb,Step-1,Increment      1: Step Time =    1.000,"PART-1-1",           218,      -9.38591,      -16.3373,            0.,NA,NA,"",   123.979E-03,   104.188E-03,  -67.1998E-03,   8.38902E-03
C:/temp/dataset/2/27_6.odb,Step-1,Increment      1: Step Time =    1.000,"PART-1-1",           219,      -9.56004,      -22.0160,            0.,NA,NA,"",   38.5046E-03,  -22.7466E-03,  -31.0676E-03,   10.7086E-03
C:/temp/dataset/2/27_6.odb,Step-1,Increment      1: Step Time =    1.000,"PART-1-1",           220,      -9.49058,      -24.6874,            0.,NA,NA,"",   32.8240E-03,  -26.7473E-03,  -19.0262E-03,   9.91654E-03
C:/temp/dataset/2/27_6.odb,Step-1,Increment      1: Step Time =    1.000,"PART-1-1",           221,  -968.003E-03,   33.9082E-03,            0.,NA,NA,"",       2.17808,       1.58824,      -1.49049,   9.93569E-03
C:/temp/dataset/2/27_6.odb,Step-1,Increment      1: Step Time =    1.000,"PART-1-1",           222,   333.674E-03,      -1.00763,            0.,NA,NA,"",       2.20328,       1.41595,      -1.68805,   8.26800E-03
C:/temp/dataset/2/27_6.odb,Step-1,Increment      1: Step Time =    1.000,"PART-1-1",           223,      -10.5623,      -4.72446,            0.,NA,NA,"",       1.01204,       1.01040,  -57.6490E-03,   9.30960E-03
C:/temp/dataset/2/27_6.odb,Step-1,Increment      1: Step Time =    1.000,"PART-1-1",           224,      -5.01319,       24.9269,            0.,NA,NA,"",       5.62626,       5.49556,      -1.20565,   5.38959E-09
C:/temp/dataset/2/27_6.odb,Step-1,Increment      1: Step Time =    1.000,"PART-1-1",           225,      -9.24174,      -19.5473,            0.,NA,NA,"",   51.1314E-03,   6.75525E-03,  -50.6832E-03,   9.40926E-03
C:/temp/dataset/2/27_6.odb,Step-1,Increment      1: Step Time =    1.000,"PART-1-1",           226,       8.53639,       25.1316,            0.,NA,NA,"",       6.30140,       5.36367,      -3.30737,   108.376E-09
C:/temp/dataset/2/27_6.odb,Step-1,Increment      1: Step Time =    1.000,"PART-1-1",           227,       8.85572,       23.3093,            0.,NA,NA,"",       6.07469,       5.07747,      -3.33483,   279.232E-09
C:/temp/dataset/2/27_6.odb,Step-1,Increment      1: Step Time =    1.000,"PART-1-1",           228,      -13.7516,       22.4908,            0.,NA,NA,"",       5.22666,       5.22365,   177.612E-03,   3.97810E-09
C:/temp/dataset/2/27_6.odb,Step-1,Increment      1: Step Time =    1.000,"PART-1-1",           229,          -15.,         21.25,            0.,NA,NA,"",       5.06122,       5.04648,   386.005E-03,   3.13618E-09
C:/temp/dataset/2/27_6.odb,Step-1,Increment      1: Step Time =    1.000,"PART-1-1",           230,        -13.75,           20.,            0.,NA,NA,"",       4.84217,       4.83772,   207.436E-03,   4.85886E-09
C:/temp/dataset/2/27_6.odb,Step-1,Increment      1: Step Time =    1.000,"PART-1-1",           231,      -12.5016,       21.2408,            0.,NA,NA,"",       5.01489,       5.01489,  -957.413E-06,   4.15466E-09
C:/temp/dataset/2/27_6.odb,Step-1,Increment      1: Step Time =    1.000,"PART-1-1",           232,      -9.99605,       28.7334,            0.,NA,NA,"",       6.16415,       6.14546,  -479.617E-03,   5.72717E-09
C:/temp/dataset/2/27_6.odb,Step-1,Increment      1: Step Time =    1.000,"PART-1-1",           233,        -11.25,           30.,            0.,NA,NA,"",       6.36394,       6.35684,  -300.636E-03,   6.66224E-09
C:/temp/dataset/2/27_6.odb,Step-1,Increment      1: Step Time =    1.000,"PART-1-1",           234,      -12.4976,       28.7426,            0.,NA,NA,"",       6.17778,       6.17709,  -92.1619E-03,   2.42504E-09
C:/temp/dataset/2/27_6.odb,Step-1,Increment      1: Step Time =    1.000,"PART-1-1",           235,      -11.2437,       27.4760,            0.,NA,NA,"",       5.97187,       5.96571,  -271.142E-03,   3.90638E-09
C:/temp/dataset/2/27_6.odb,Step-1,Increment      1: Step Time =    1.000,"PART-1-1",           236,      -8.74541,       27.4572,            0.,NA,NA,"",       5.96901,       5.93264,  -657.970E-03,   5.50864E-09
C:/temp/dataset/2/27_6.odb,Step-1,Increment      1: Step Time =    1.000,"PART-1-1",           237,      -7.49936,       28.7238,            0.,NA,NA,"",       6.17490,       6.11383,  -866.315E-03,   8.74109E-09
C:/temp/dataset/2/27_6.odb,Step-1,Increment      1: Step Time =    1.000,"PART-1-1",           238,         -8.75,           30.,            0.,NA,NA,"",       6.36395,       6.32665,  -687.962E-03,   10.2183E-09
C:/temp/dataset/2/27_6.odb,Step-1,Increment      1: Step Time =    1.000,"PART-1-1",           239,      -10.0020,       21.2344,            0.,NA,NA,"",       4.99880,       4.98371,  -388.142E-03,   7.14033E-09
C:/temp/dataset/2/27_6.odb,Step-1,Increment      1: Step Time =    1.000,"PART-1-1",           240,      -11.2537,       22.4752,            0.,NA,NA,"",       5.19528,       5.19106,  -209.209E-03,   4.83601E-09
C:/temp/dataset/2/27_6.odb,Step-1,Increment      1: Step Time =    1.000,"PART-1-1",           241,        -11.25,           20.,            0.,NA,NA,"",       4.81090,       4.80754,  -179.890E-03,   7.88949E-09
C:/temp/dataset/2/27_6.odb,Step-1,Increment      1: Step Time =    1.000,"PART-1-1",           242,      -6.25410,       27.4469,            0.,NA,NA,"",       5.99257,       5.90096,      -1.04382,   7.11483E-09
C:/temp/dataset/2/27_6.odb,Step-1,Increment      1: Step Time =    1.000,"PART-1-1",           243,      -7.50120,       26.1906,            0.,NA,NA,"",       5.78205,       5.72138,  -835.442E-03,   4.90357E-09
C:/temp/dataset/2/27_6.odb,Step-1,Increment      1: Step Time =    1.000,"PART-1-1",           244,      -6.25844,       24.9303,            0.,NA,NA,"",       5.60340,       5.51111,      -1.01277,   5.27389E-09
C:/temp/dataset/2/27_6.odb,Step-1,Increment      1: Step Time =    1.000,"PART-1-1",           245,      -5.01133,       26.1865,            0.,NA,NA,"",       5.82024,       5.69069,      -1.22115,   5.58607E-09
C:/temp/dataset/2/27_6.odb,Step-1,Increment      1: Step Time =    1.000,"PART-1-1",           246,       1.11906,       22.3143,            0.,NA,NA,"",       5.44792,       5.01674,      -2.12418,   28.7298E-09
C:/temp/dataset/2/27_6.odb,Step-1,Increment      1: Step Time =    1.000,"PART-1-1",           247,  -37.5712E-03,       21.1808,            0.,NA,NA,"",       5.22511,       4.85509,      -1.93129,   27.2701E-09
C:/temp/dataset/2/27_6.odb,Step-1,Increment      1: Step Time =    1.000,"PART-1-1",           248,          1.25,           20.,            0.,NA,NA,"",       5.11504,       4.65660,      -2.11652,   45.1688E-09
C:/temp/dataset/2/27_6.odb,Step-1,Increment      1: Step Time =    1.000,"PART-1-1",           249,       2.40663,       21.1336,            0.,NA,NA,"",       5.34312,       4.81826,      -2.30940,   63.3640E-09
C:/temp/dataset/2/27_6.odb,Step-1,Increment      1: Step Time =    1.000,"PART-1-1",           250,  -46.9838E-03,       26.1228,            0.,NA,NA,"",       5.96257,       5.62086,      -1.98951,   10.4466E-09
C:/temp/dataset/2/27_6.odb,Step-1,Increment      1: Step Time =    1.000,"PART-1-1",           251,       1.11635,       24.7850,            0.,NA,NA,"",       5.81319,       5.39955,      -2.15359,   11.8137E-09
C:/temp/dataset/2/27_6.odb,Step-1,Increment      1: Step Time =    1.000,"PART-1-1",           252,       2.41618,       25.9912,            0.,NA,NA,"",       6.05374,       5.57073,      -2.36954,   12.8783E-09
C:/temp/dataset/2/27_6.odb,Step-1,Increment      1: Step Time =    1.000,"PART-1-1",           253,       1.25284,       27.3289,            0.,NA,NA,"",       6.19773,       5.79205,      -2.20545,   13.6653E-09
C:/temp/dataset/2/27_6.odb,Step-1,Increment      1: Step Time =    1.000,"PART-1-1",           254,       11.4216,       22.1022,            0.,NA,NA,"",       6.11854,       4.85948,      -3.71779,   457.363E-09
C:/temp/dataset/2/27_6.odb,Step-1,Increment      1: Step Time =    1.000,"PART-1-1",           255,       9.70783,       21.3771,            0.,NA,NA,"",       5.88134,       4.76784,      -3.44352,   677.111E-09
C:/temp/dataset/2/27_6.odb,Step-1,Increment      1: Step Time =    1.000,"PART-1-1",           256,       10.3968,       19.2167,            0.,NA,NA,"",       5.65674,       4.42480,      -3.52418,   902.420E-09
C:/temp/dataset/2/27_6.odb,Step-1,Increment      1: Step Time =    1.000,"PART-1-1",           257,       12.1105,       19.9418,            0.,NA,NA,"",       5.90139,       4.51644,      -3.79844,   999.541E-09
C:/temp/dataset/2/27_6.odb,Step-1,Increment      1: Step Time =    1.000,"PART-1-1",           258,       11.6215,       24.7876,            0.,NA,NA,"",       6.48869,       5.27311,      -3.78118,   127.106E-09
C:/temp/dataset/2/27_6.odb,Step-1,Increment      1: Step Time =    1.000,"PART-1-1",           259,       12.6971,       25.9410,            0.,NA,NA,"",       6.72877,       5.43883,      -3.96176,   81.8391E-09
C:/temp/dataset/2/27_6.odb,Step-1,Increment      1: Step Time =    1.000,"PART-1-1",           260,       11.4859,       27.3886,            0.,NA,NA,"",       6.82734,       5.67772,      -3.79158,   32.7352E-09
C:/temp/dataset/2/27_6.odb,Step-1,Increment      1: Step Time =    1.000,"PART-1-1",           261,       10.4103,       26.2351,            0.,NA,NA,"",       6.58950,       5.51200,      -3.61101,   88.3423E-09
C:/temp/dataset/2/27_6.odb,Step-1,Increment      1: Step Time =    1.000,"PART-1-1",           262,       5.88041,       17.6377,            0.,NA,NA,"",       5.07966,       4.23471,      -2.80538,   1.45265E-06
C:/temp/dataset/2/27_6.odb,Step-1,Increment      1: Step Time =    1.000,"PART-1-1",           263,       6.75071,       18.9160,            0.,NA,NA,"",       5.31903,       4.42224,      -2.95566,   1.27276E-06
C:/temp/dataset/2/27_6.odb,Step-1,Increment      1: Step Time =    1.000,"PART-1-1",           264,       5.87030,       20.0282,            0.,NA,NA,"",       5.40665,       4.60519,      -2.83268,   710.730E-09
C:/temp/dataset/2/27_6.odb,Step-1,Increment      1: Step Time =    1.000,"PART-1-1",           265,            5.,         18.75,            0.,NA,NA,"",       5.16828,       4.41766,      -2.68241,   1.59707E-06
C:/temp/dataset/2/27_6.odb,Step-1,Increment      1: Step Time =    1.000,"PART-1-1",           266,       12.3690,       13.3305,            0.,NA,NA,"",       5.12845,       3.48905,      -3.75866,   10.9749E-06
C:/temp/dataset/2/27_6.odb,Step-1,Increment      1: Step Time =    1.000,"PART-1-1",           267,       13.7195,       12.1790,            0.,NA,NA,"",       5.14655,       3.29438,      -3.95399,   8.63477E-06
C:/temp/dataset/2/27_6.odb,Step-1,Increment      1: Step Time =    1.000,"PART-1-1",           268,           15.,       13.9583,            0.,NA,NA,"",       5.48232,       3.55456,      -4.17384,   2.64293E-06
C:/temp/dataset/2/27_6.odb,Step-1,Increment      1: Step Time =    1.000,"PART-1-1",           269,       13.6495,       15.1098,            0.,NA,NA,"",       5.46676,       3.74925,      -3.97852,   2.30978E-06
C:/temp/dataset/2/27_6.odb,Step-1,Increment      1: Step Time =    1.000,"PART-1-1",           270,       12.5214,       4.81657,            0.,NA,NA,"",       4.27110,       2.16857,      -3.67962,   191.423E-06
C:/temp/dataset/2/27_6.odb,Step-1,Increment      1: Step Time =    1.000,"PART-1-1",           271,       13.7670,       3.58604,            0.,NA,NA,"",       4.32871,       1.96259,      -3.85823,   246.060E-06
C:/temp/dataset/2/27_6.odb,Step-1,Increment      1: Step Time =    1.000,"PART-1-1",           272,           15.,       5.20833,            0.,NA,NA,"",       4.62499,       2.19910,      -4.06873,   246.775E-06
C:/temp/dataset/2/27_6.odb,Step-1,Increment      1: Step Time =    1.000,"PART-1-1",           273,       13.7545,       6.43886,            0.,NA,NA,"",       4.57365,       2.40491,      -3.89033,   141.254E-06
C:/temp/dataset/2/27_6.odb,Step-1,Increment      1: Step Time =    1.000,"PART-1-1",           274,       13.7625,      -2.13133,            0.,NA,NA,"",       3.93814,       1.07341,      -3.78902,   184.638E-06
C:/temp/dataset/2/27_6.odb,Step-1,Increment      1: Step Time =    1.000,"PART-1-1",           275,       12.5125,      -3.58966,            0.,NA,NA,"",       3.67914,   861.418E-03,      -3.57687,   173.799E-06
C:/temp/dataset/2/27_6.odb,Step-1,Increment      1: Step Time =    1.000,"PART-1-1",           276,         13.75,           -5.,            0.,NA,NA,"",       3.80417,   626.839E-03,      -3.75217,   46.0483E-06
C:/temp/dataset/2/27_6.odb,Step-1,Increment      1: Step Time =    1.000,"PART-1-1",           277,           15.,      -3.54167,            0.,NA,NA,"",       4.05222,   838.633E-03,      -3.96449,   49.0984E-06
C:/temp/dataset/2/27_6.odb,Step-1,Increment      1: Step Time =    1.000,"PART-1-1",           278,      -9.21387,      -6.21191,            0.,NA,NA,"",   852.216E-03,   831.060E-03,  -188.713E-03,   7.03322E-03
C:/temp/dataset/2/27_6.odb,Step-1,Increment      1: Step Time =    1.000,"PART-1-1",           279,      -8.44405,      -4.75360,            0.,NA,NA,"",       1.02929,   987.583E-03,  -290.040E-03,   11.4750E-03
C:/temp/dataset/2/27_6.odb,Step-1,Increment      1: Step Time =    1.000,"PART-1-1",           280,      -9.71477,      -4.17886,            0.,NA,NA,"",       1.08088,       1.06991,  -153.616E-03,   10.4500E-03
C:/temp/dataset/2/27_6.odb,Step-1,Increment      1: Step Time =    1.000,"PART-1-1",           281,      -10.4846,      -5.63717,            0.,NA,NA,"",   905.943E-03,   903.821E-03,  -61.9731E-03,   7.16711E-03
C:/temp/dataset/2/27_6.odb,Step-1,Increment      1: Step Time =    1.000,"PART-1-1",           282,      -5.84282,   107.969E-03,            0.,NA,NA,"",       1.78589,       1.63405,  -720.621E-03,   11.1095E-03
C:/temp/dataset/2/27_6.odb,Step-1,Increment      1: Step Time =    1.000,"PART-1-1",           283,      -4.64047,       1.60743,            0.,NA,NA,"",       2.06537,       1.84435,  -929.591E-03,   12.2776E-03
C:/temp/dataset/2/27_6.odb,Step-1,Increment      1: Step Time =    1.000,"PART-1-1",           284,      -6.45702,       2.58989,            0.,NA,NA,"",       2.10294,       1.99130,  -676.085E-03,   8.52696E-03
C:/temp/dataset/2/27_6.odb,Step-1,Increment      1: Step Time =    1.000,"PART-1-1",           285,      -7.65937,       1.09043,            0.,NA,NA,"",       1.84491,       1.78064,  -482.720E-03,   9.74362E-03
C:/temp/dataset/2/27_6.odb,Step-1,Increment      1: Step Time =    1.000,"PART-1-1",           286,      -6.51044,      -5.43697,            0.,NA,NA,"",       1.01906,   889.241E-03,  -497.736E-03,   27.3599E-03
C:/temp/dataset/2/27_6.odb,Step-1,Increment      1: Step Time =    1.000,"PART-1-1",           287,      -5.48201,      -3.85122,            0.,NA,NA,"",       1.27507,       1.08266,  -673.538E-03,   28.7636E-03
C:/temp/dataset/2/27_6.odb,Step-1,Increment      1: Step Time =    1.000,"PART-1-1",           288,      -7.41561,      -3.16785,            0.,NA,NA,"",       1.26087,       1.18313,  -435.893E-03,   15.5012E-03
C:/temp/dataset/2/27_6.odb,Step-1,Increment      1: Step Time =    1.000,"PART-1-1",           289,      -12.6742,      -10.6472,            0.,NA,NA,"",   466.623E-03,   448.031E-03,   130.402E-03,   12.7256E-03
C:/temp/dataset/2/27_6.odb,Step-1,Increment      1: Step Time =    1.000,"PART-1-1",           290,      -11.3911,      -11.6978,            0.,NA,NA,"",   363.062E-03,   361.796E-03,   30.3002E-03,   4.21165E-03
C:/temp/dataset/2/27_6.odb,Step-1,Increment      1: Step Time =    1.000,"PART-1-1",           291,      -10.2167,      -10.1126,            0.,NA,NA,"",   479.758E-03,   475.610E-03,  -62.9518E-03,   4.00085E-03
C:/temp/dataset/2/27_6.odb,Step-1,Increment      1: Step Time =    1.000,"PART-1-1",           292,      -11.4997,      -9.06207,            0.,NA,NA,"",   570.783E-03,   569.255E-03,   41.7410E-03,   5.84281E-03
C:/temp/dataset/2/27_6.odb,Step-1,Increment      1: Step Time =    1.000,"PART-1-1",           293,      -13.7107,      -15.1438,            0.,NA,NA,"",   224.406E-03,   174.638E-03,   140.924E-03,   18.7173E-03
C:/temp/dataset/2/27_6.odb,Step-1,Increment      1: Step Time =    1.000,"PART-1-1",           294,      -12.5249,      -13.4434,            0.,NA,NA,"",   273.755E-03,   256.189E-03,   96.4835E-03,   11.3441E-03
C:/temp/dataset/2/27_6.odb,Step-1,Increment      1: Step Time =    1.000,"PART-1-1",           295,      -13.8143,      -12.2579,            0.,NA,NA,"",   393.444E-03,   343.075E-03,   192.607E-03,   20.3293E-03
C:/temp/dataset/2/27_6.odb,Step-1,Increment      1: Step Time =    1.000,"PART-1-1",           296,          -15.,      -13.9583,            0.,NA,NA,"",   342.113E-03,   252.323E-03,   231.029E-03,   27.7810E-03
C:/temp/dataset/2/27_6.odb,Step-1,Increment      1: Step Time =    1.000,"PART-1-1",           297,      -12.0988,      -16.5012,            0.,NA,NA,"",   115.478E-03,   103.207E-03,   51.8017E-03,   8.76649E-03
C:/temp/dataset/2/27_6.odb,Step-1,Increment      1: Step Time =    1.000,"PART-1-1",           298,      -10.5811,      -17.2344,            0.,NA,NA,"",   72.0679E-03,   70.8489E-03,  -13.1994E-03,   3.56508E-03
C:/temp/dataset/2/27_6.odb,Step-1,Increment      1: Step Time =    1.000,"PART-1-1",           299,      -9.66362,      -15.1575,            0.,NA,NA,"",   168.788E-03,   156.471E-03,  -63.2934E-03,   7.22349E-03
C:/temp/dataset/2/27_6.odb,Step-1,Increment      1: Step Time =    1.000,"PART-1-1",           300,      -11.1813,      -14.4243,            0.,NA,NA,"",   195.315E-03,   194.765E-03,   14.6465E-03,   2.91524E-03
C:/temp/dataset/2/27_6.odb,Step-1,Increment      1: Step Time =    1.000,"PART-1-1",           301,      -10.5090,      -18.8394,            0.,NA,NA,"",   27.5035E-03,   23.2934E-03,  -14.6239E-03,   5.63029E-03
C:/temp/dataset/2/27_6.odb,Step-1,Increment      1: Step Time =    1.000,"PART-1-1",           302,      -8.88448,      -18.7076,            0.,NA,NA,"",   72.0170E-03,   25.8180E-03,  -67.2301E-03,   9.41963E-03
C:/temp/dataset/2/27_6.odb,Step-1,Increment      1: Step Time =    1.000,"PART-1-1",           303,      -8.95657,      -17.1026,            0.,NA,NA,"",   108.947E-03,   75.6437E-03,  -78.4055E-03,   10.2084E-03
C:/temp/dataset/2/27_6.odb,Step-1,Increment      1: Step Time =    1.000,"PART-1-1",           304,      -8.08225,      -19.7831,            0.,NA,NA,"",   79.6986E-03,   4.00095E-03,  -79.5982E-03,   11.8559E-03
C:/temp/dataset/2/27_6.odb,Step-1,Increment      1: Step Time =    1.000,"PART-1-1",           305,      -6.89084,      -18.8787,            0.,NA,NA,"",   122.166E-03,   25.4306E-03,  -119.490E-03,   19.1864E-03
C:/temp/dataset/2/27_6.odb,Step-1,Increment      1: Step Time =    1.000,"PART-1-1",           306,      -7.69307,      -17.8032,            0.,NA,NA,"",   128.151E-03,   55.9358E-03,  -115.299E-03,   18.3550E-03
C:/temp/dataset/2/27_6.odb,Step-1,Increment      1: Step Time =    1.000,"PART-1-1",           307,       7.10093,      -24.9223,            0.,NA,NA,"",   5.28845E-03,   5.23309E-03,   763.229E-06,   644.086E-06
C:/temp/dataset/2/27_6.odb,Step-1,Increment      1: Step Time =    1.000,"PART-1-1",           308,       8.59925,      -23.6815,            0.,NA,NA,"",   4.80531E-03,   4.69232E-03,   1.03592E-03,   289.940E-06
C:/temp/dataset/2/27_6.odb,Step-1,Increment      1: Step Time =    1.000,"PART-1-1",           309,       6.88316,      -22.4353,            0.,NA,NA,"",   4.92225E-03,   4.76998E-03,   1.21484E-03,   306.607E-06
C:/temp/dataset/2/27_6.odb,Step-1,Increment      1: Step Time =    1.000,"PART-1-1",           310,       5.38484,      -23.6762,            0.,NA,NA,"",   5.92863E-03,   5.90193E-03,   562.025E-06,   503.358E-06
C:/temp/dataset/2/27_6.odb,Step-1,Increment      1: Step Time =    1.000,"PART-1-1",           311,       13.3798,      -22.4744,            0.,NA,NA,"",   4.41987E-03,   4.41625E-03,  -178.757E-06,   75.6445E-06
C:/temp/dataset/2/27_6.odb,Step-1,Increment      1: Step Time =    1.000,"PART-1-1",           312,           15.,        -21.25,            0.,NA,NA,"",   4.77102E-03,   4.72435E-03,  -665.630E-06,   21.3119E-06
C:/temp/dataset/2/27_6.odb,Step-1,Increment      1: Step Time =    1.000,"PART-1-1",           313,       13.3333,          -20.,            0.,NA,NA,"",   5.07543E-03,   5.07319E-03,  -150.867E-06,   37.2661E-06
C:/temp/dataset/2/27_6.odb,Step-1,Increment      1: Step Time =    1.000,"PART-1-1",           314,       11.7131,      -21.2244,            0.,NA,NA,"",   4.70732E-03,   4.69076E-03,   394.509E-06,   75.1257E-06
C:/temp/dataset/2/27_6.odb,Step-1,Increment      1: Step Time =    1.000,"PART-1-1",           315,      -2.14863,       2.00914,            0.,NA,NA,"",       2.31242,       1.89026,      -1.33199,   12.1930E-03
C:/temp/dataset/2/27_6.odb,Step-1,Increment      1: Step Time =    1.000,"PART-1-1",           316,      -1.66393,   575.985E-03,            0.,NA,NA,"",       2.17447,       1.67527,      -1.38628,   11.3744E-03
C:/temp/dataset/2/27_6.odb,Step-1,Increment      1: Step Time =    1.000,"PART-1-1",           317,   135.628E-03,       1.10435,            0.,NA,NA,"",       2.42124,       1.73652,      -1.68728,   8.95373E-03
C:/temp/dataset/2/27_6.odb,Step-1,Increment      1: Step Time =    1.000,"PART-1-1",           318,  -349.073E-03,       2.53751,            0.,NA,NA,"",       2.54849,       1.95645,      -1.63313,   9.77237E-03
C:/temp/dataset/2/27_6.odb,Step-1,Increment      1: Step Time =    1.000,"PART-1-1",           319,   156.145E-03,      -1.87787,            0.,NA,NA,"",       2.09040,       1.28603,      -1.64800,   7.72198E-03
C:/temp/dataset/2/27_6.odb,Step-1,Increment      1: Step Time =    1.000,"PART-1-1",           320,       1.21010,      -2.70880,            0.,NA,NA,"",       2.13944,       1.14122,      -1.80965,   4.28681E-03
C:/temp/dataset/2/27_6.odb,Step-1,Increment      1: Step Time =    1.000,"PART-1-1",           321,       2.32846,      -1.50081,            0.,NA,NA,"",       2.39699,       1.31341,      -2.00511,   3.69718E-03
C:/temp/dataset/2/27_6.odb,Step-1,Increment      1: Step Time =    1.000,"PART-1-1",           322,       1.27451,  -669.883E-03,            0.,NA,NA,"",       2.35052,       1.45512,      -1.84595,   6.60701E-03
C:/temp/dataset/2/27_6.odb,Step-1,Increment      1: Step Time =    1.000,"PART-1-1",           323,       4.87500,      -1.23074,            0.,NA,NA,"",       2.75249,       1.32279,      -2.41379,   1.34438E-03
C:/temp/dataset/2/27_6.odb,Step-1,Increment      1: Step Time =    1.000,"PART-1-1",           324,       6.20088,      -2.43579,            0.,NA,NA,"",       2.83680,       1.11811,      -2.60716,   359.553E-06
C:/temp/dataset/2/27_6.odb,Step-1,Increment      1: Step Time =    1.000,"PART-1-1",           325,       7.44880,      -1.07477,            0.,NA,NA,"",       3.11125,       1.31542,      -2.81949,   260.117E-06
C:/temp/dataset/2/27_6.odb,Step-1,Increment      1: Step Time =    1.000,"PART-1-1",           326,       6.12293,   130.279E-03,            0.,NA,NA,"",       3.03525,       1.51950,      -2.62752,   1.04784E-03
C:/temp/dataset/2/27_6.odb,Step-1,Increment      1: Step Time =    1.000,"PART-1-1",           327,          8.75,           -5.,            0.,NA,NA,"",       3.05197,   686.542E-03,      -2.97375,   600.746E-06
C:/temp/dataset/2/27_6.odb,Step-1,Increment      1: Step Time =    1.000,"PART-1-1",           328,       10.0063,      -3.63741,            0.,NA,NA,"",       3.30683,   884.160E-03,      -3.18644,   318.920E-06
C:/temp/dataset/2/27_6.odb,Step-1,Increment      1: Step Time =    1.000,"PART-1-1",           329,       8.73716,      -2.32557,            0.,NA,NA,"",       3.20144,       1.10429,      -3.00496,   269.285E-06
C:/temp/dataset/2/27_6.odb,Step-1,Increment      1: Step Time =    1.000,"PART-1-1",           330,       7.48081,      -3.68816,            0.,NA,NA,"",       2.93542,   906.472E-03,      -2.79195,   417.404E-06
C:/temp/dataset/2/27_6.odb,Step-1,Increment      1: Step Time =    1.000,"PART-1-1",           331,       6.24109,       7.72904,            0.,NA,NA,"",       3.84427,       2.69461,      -2.74181,   187.731E-06
C:/temp/dataset/2/27_6.odb,Step-1,Increment      1: Step Time =    1.000,"PART-1-1",           332,            5.,          6.25,            0.,NA,NA,"",       3.54453,       2.48000,      -2.53245,   1.28430E-03
C:/temp/dataset/2/27_6.odb,Step-1,Increment      1: Step Time =    1.000,"PART-1-1",           333,       6.24095,       5.17046,            0.,NA,NA,"",       3.55340,       2.29822,      -2.71014,   782.173E-06
C:/temp/dataset/2/27_6.odb,Step-1,Increment      1: Step Time =    1.000,"PART-1-1",           334,       7.48203,       6.64950,            0.,NA,NA,"",       3.85262,       2.51263,      -2.92051,   546.040E-06
C:/temp/dataset/2/27_6.odb,Step-1,Increment      1: Step Time =    1.000,"PART-1-1",           335,       7.34508,       23.6052,            0.,NA,NA,"",       6.00606,       5.14156,      -3.10436,   169.976E-09
C:/temp/dataset/2/27_6.odb,Step-1,Increment      1: Step Time =    1.000,"PART-1-1",           336,       6.41056,       24.2397,            0.,NA,NA,"",       6.03150,       5.25115,      -2.96724,   75.3716E-09
C:/temp/dataset/2/27_6.odb,Step-1,Increment      1: Step Time =    1.000,"PART-1-1",           337,       6.08150,       22.9932,            0.,NA,NA,"",       5.83446,       5.06200,      -2.90121,   181.783E-09
C:/temp/dataset/2/27_6.odb,Step-1,Increment      1: Step Time =    1.000,"PART-1-1",           338,       7.01602,       22.3587,            0.,NA,NA,"",       5.81016,       4.95242,      -3.03833,   299.306E-09
C:/temp/dataset/2/27_6.odb,Step-1,Increment      1: Step Time =    1.000,"PART-1-1",           339,      -12.5005,       23.7291,            0.,NA,NA,"",       5.40048,       5.40039,  -31.1752E-03,   5.20641E-09
C:/temp/dataset/2/27_6.odb,Step-1,Increment      1: Step Time =    1.000,"PART-1-1",           340,      -13.7489,       24.9883,            0.,NA,NA,"",       5.61247,       5.61055,   147.031E-03,   4.85577E-09
C:/temp/dataset/2/27_6.odb,Step-1,Increment      1: Step Time =    1.000,"PART-1-1",           341,          -15.,         23.75,            0.,NA,NA,"",       5.44544,       5.43380,   355.819E-03,   3.26950E-09
C:/temp/dataset/2/27_6.odb,Step-1,Increment      1: Step Time =    1.000,"PART-1-1",           342,      -2.52491,       26.1674,            0.,NA,NA,"",       5.88126,       5.65770,      -1.60614,   7.82698E-09
C:/temp/dataset/2/27_6.odb,Step-1,Increment      1: Step Time =    1.000,"PART-1-1",           343,      -1.30373,       24.8780,            0.,NA,NA,"",       5.72677,       5.44319,      -1.77977,   8.00555E-09
C:/temp/dataset/2/27_6.odb,Step-1,Increment      1: Step Time =    1.000,"PART-1-1",           344,      -1.26817,       27.4122,            0.,NA,NA,"",       6.11139,       5.83538,      -1.81588,   11.5928E-09
C:/temp/dataset/2/27_6.odb,Step-1,Increment      1: Step Time =    1.000,"PART-1-1",           345,       2.31009,       23.4917,            0.,NA,NA,"",       5.68136,       5.18478,      -2.32292,   17.7027E-09
C:/temp/dataset/2/27_6.odb,Step-1,Increment      1: Step Time =    1.000,"PART-1-1",           346,       3.41051,       22.2101,            0.,NA,NA,"",       5.55609,       4.97292,      -2.47793,   43.2866E-09
C:/temp/dataset/2/27_6.odb,Step-1,Increment      1: Step Time =    1.000,"PART-1-1",           347,       4.46987,       23.2845,            0.,NA,NA,"",       5.77332,       5.12660,      -2.65503,   60.2558E-09
C:/temp/dataset/2/27_6.odb,Step-1,Increment      1: Step Time =    1.000,"PART-1-1",           348,       3.36945,       24.5662,            0.,NA,NA,"",       5.89485,       5.33846,      -2.50002,   19.7465E-09
C:/temp/dataset/2/27_6.odb,Step-1,Increment      1: Step Time =    1.000,"PART-1-1",           349,       3.92627,       27.0683,            0.,NA,NA,"",       6.28947,       5.71939,      -2.61650,   15.0028E-09
C:/temp/dataset/2/27_6.odb,Step-1,Increment      1: Step Time =    1.000,"PART-1-1",           350,       5.16355,       28.4353,            0.,NA,NA,"",       6.55598,       5.91624,      -2.82470,   12.7788E-09
C:/temp/dataset/2/27_6.odb,Step-1,Increment      1: Step Time =    1.000,"PART-1-1",           351,          3.75,           30.,            0.,NA,NA,"",       6.71029,       6.17572,      -2.62459,   7.31835E-09
C:/temp/dataset/2/27_6.odb,Step-1,Increment      1: Step Time =    1.000,"PART-1-1",           352,       2.51272,       28.6330,            0.,NA,NA,"",       6.44870,       5.97887,      -2.41639,   11.1293E-09
C:/temp/dataset/2/27_6.odb,Step-1,Increment      1: Step Time =    1.000,"PART-1-1",           353,       11.0463,       14.3537,            0.,NA,NA,"",       5.11259,       3.66354,      -3.56609,   3.56748E-06
C:/temp/dataset/2/27_6.odb,Step-1,Increment      1: Step Time =    1.000,"PART-1-1",           354,       9.86747,       12.5470,            0.,NA,NA,"",       4.77975,       3.39785,      -3.36164,   22.3619E-06
C:/temp/dataset/2/27_6.odb,Step-1,Increment      1: Step Time =    1.000,"PART-1-1",           355,       11.1901,       11.5237,            0.,NA,NA,"",       4.79817,       3.22338,      -3.55419,   30.1164E-06
C:/temp/dataset/2/27_6.odb,Step-1,Increment      1: Step Time =    1.000,"PART-1-1",           356,       9.55073,       15.1783,            0.,NA,NA,"",       5.06909,       3.80935,      -3.34434,   5.50580E-06
C:/temp/dataset/2/27_6.odb,Step-1,Increment      1: Step Time =    1.000,"PART-1-1",           357,       8.18591,       15.9712,            0.,NA,NA,"",       5.04649,       3.94868,      -3.14246,   1.70094E-06
C:/temp/dataset/2/27_6.odb,Step-1,Increment      1: Step Time =    1.000,"PART-1-1",           358,       7.20669,       14.2932,            0.,NA,NA,"",       4.74526,       3.70051,      -2.97048,   8.61592E-06
C:/temp/dataset/2/27_6.odb,Step-1,Increment      1: Step Time =    1.000,"PART-1-1",           359,       8.57151,       13.5002,            0.,NA,NA,"",       4.76926,       3.56117,      -3.17237,   5.66590E-06
C:/temp/dataset/2/27_6.odb,Step-1,Increment      1: Step Time =    1.000,"PART-1-1",           360,       7.44377,       1.50598,            0.,NA,NA,"",       3.32823,       1.71738,      -2.85091,   427.109E-06
C:/temp/dataset/2/27_6.odb,Step-1,Increment      1: Step Time =    1.000,"PART-1-1",           361,       8.72836,   326.342E-03,            0.,NA,NA,"",       3.39453,       1.51807,      -3.03616,   276.109E-06
C:/temp/dataset/2/27_6.odb,Step-1,Increment      1: Step Time =    1.000,"PART-1-1",           362,       10.0261,       1.76283,            0.,NA,NA,"",       3.68435,       1.72545,      -3.25534,   201.392E-06
C:/temp/dataset/2/27_6.odb,Step-1,Increment      1: Step Time =    1.000,"PART-1-1",           363,       8.74149,       2.94246,            0.,NA,NA,"",       3.62332,       1.92431,      -3.07009,   365.025E-06
C:/temp/dataset/2/27_6.odb,Step-1,Increment      1: Step Time =    1.000,"PART-1-1",           364,       12.5045,       7.62102,            0.,NA,NA,"",       4.53275,       2.60312,      -3.71075,   138.262E-06
C:/temp/dataset/2/27_6.odb,Step-1,Increment      1: Step Time =    1.000,"PART-1-1",           365,           15.,         8.125,            0.,NA,NA,"",       4.88534,       2.65098,      -4.10352,   93.7827E-06
C:/temp/dataset/2/27_6.odb,Step-1,Increment      1: Step Time =    1.000,"PART-1-1",           366,       13.7500,       9.30715,            0.,NA,NA,"",       4.84937,       2.84919,      -3.92409,   49.6785E-06
C:/temp/dataset/2/27_6.odb,Step-1,Increment      1: Step Time =    1.000,"PART-1-1",           367,      -1.45938,      -2.40358,            0.,NA,NA,"",       1.84629,       1.23161,      -1.37547,   11.5118E-03
C:/temp/dataset/2/27_6.odb,Step-1,Increment      1: Step Time =    1.000,"PART-1-1",           368,      -2.69869,      -3.52952,            0.,NA,NA,"",       1.58168,       1.08260,      -1.15312,   11.8098E-03
C:/temp/dataset/2/27_6.odb,Step-1,Increment      1: Step Time =    1.000,"PART-1-1",           369,         -1.25,           -5.,            0.,NA,NA,"",       1.60332,   812.120E-03,      -1.38243,   6.22284E-03
C:/temp/dataset/2/27_6.odb,Step-1,Increment      1: Step Time =    1.000,"PART-1-1",           370,  -10.6917E-03,      -3.87406,            0.,NA,NA,"",       1.87255,   975.438E-03,      -1.59843,   3.87446E-03
C:/temp/dataset/2/27_6.odb,Step-1,Increment      1: Step Time =    1.000,"PART-1-1",           371,      -13.3333,            5.,            0.,NA,NA,"",       2.35441,       2.34511,   209.078E-03,   1.45659E-03
C:/temp/dataset/2/27_6.odb,Step-1,Increment      1: Step Time =    1.000,"PART-1-1",           372,          -15.,       3.54167,            0.,NA,NA,"",       2.20993,       2.16515,   442.658E-03,   1.30513E-03
C:/temp/dataset/2/27_6.odb,Step-1,Increment      1: Step Time =    1.000,"PART-1-1",           373,      -13.2137,       2.05352,            0.,NA,NA,"",       1.95869,       1.94643,   218.832E-03,   6.01151E-03
C:/temp/dataset/2/27_6.odb,Step-1,Increment      1: Step Time =    1.000,"PART-1-1",           374,      -11.5470,       3.51185,            0.,NA,NA,"",       2.13512,       2.13510,  -8.52518E-03,   6.34087E-03
C:/temp/dataset/2/27_6.odb,Step-1,Increment      1: Step Time =    1.000,"PART-1-1",           375,          -15.,      625.E-03,            0.,NA,NA,"",       1.82715,       1.76792,   461.466E-03,   7.91265E-03
C:/temp/dataset/2/27_6.odb,Step-1,Increment      1: Step Time =    1.000,"PART-1-1",           376,      -12.9883,      -1.02354,            0.,NA,NA,"",       1.53162,       1.51759,   206.849E-03,   10.7301E-03
C:/temp/dataset/2/27_6.odb,Step-1,Increment      1: Step Time =    1.000,"PART-1-1",           377,      -11.2019,   404.974E-03,            0.,NA,NA,"",       1.70049,       1.70036,  -20.8727E-03,   12.2375E-03
C:/temp/dataset/2/27_6.odb,Step-1,Increment      1: Step Time =    1.000,"PART-1-1",           378,      -13.6690,      -3.88141,            0.,NA,NA,"",       1.18380,       1.14920,   284.107E-03,   16.1949E-03
C:/temp/dataset/2/27_6.odb,Step-1,Increment      1: Step Time =    1.000,"PART-1-1",           379,      -11.6573,      -2.61328,            0.,NA,NA,"",       1.29064,       1.28949,   54.3448E-03,   12.3469E-03
C:/temp/dataset/2/27_6.odb,Step-1,Increment      1: Step Time =    1.000,"PART-1-1",           380,          -15.,      -2.29167,            0.,NA,NA,"",       1.44757,       1.37387,   456.000E-03,   17.4245E-03
C:/temp/dataset/2/27_6.odb,Step-1,Increment      1: Step Time =    1.000,"PART-1-1",           381,           -5.,         -8.75,            0.,NA,NA,"",   814.219E-03,   614.354E-03,  -534.342E-03,   40.7458E-03
C:/temp/dataset/2/27_6.odb,Step-1,Increment      1: Step Time =    1.000,"PART-1-1",           382,      -6.37238,      -7.84264,            0.,NA,NA,"",   805.561E-03,   669.920E-03,  -447.365E-03,   31.2403E-03
C:/temp/dataset/2/27_6.odb,Step-1,Increment      1: Step Time =    1.000,"PART-1-1",           383,      -7.67841,      -9.42411,            0.,NA,NA,"",   603.339E-03,   532.413E-03,  -283.821E-03,   20.9519E-03
C:/temp/dataset/2/27_6.odb,Step-1,Increment      1: Step Time =    1.000,"PART-1-1",           384,      -6.30603,      -10.3315,            0.,NA,NA,"",   603.231E-03,   474.127E-03,  -372.950E-03,   30.6831E-03
C:/temp/dataset/2/27_6.odb,Step-1,Increment      1: Step Time =    1.000,"PART-1-1",           385,      -13.6103,      -21.3688,            0.,NA,NA,"",   51.5693E-03,  -8.31513E-03,   50.8945E-03,   13.2393E-03
C:/temp/dataset/2/27_6.odb,Step-1,Increment      1: Step Time =    1.000,"PART-1-1",           386,          -15.,      -22.7083,            0.,NA,NA,"",   52.5987E-03,  -11.8118E-03,   51.2553E-03,   15.9958E-03
C:/temp/dataset/2/27_6.odb,Step-1,Increment      1: Step Time =    1.000,"PART-1-1",           387,      -13.6241,      -24.2925,            0.,NA,NA,"",   35.0367E-03,  -25.6167E-03,   23.9030E-03,   9.06393E-03
C:/temp/dataset/2/27_6.odb,Step-1,Increment      1: Step Time =    1.000,"PART-1-1",           388,      -12.2343,      -22.9530,            0.,NA,NA,"",   30.9401E-03,  -26.3655E-03,   16.1910E-03,   8.73443E-03
C:/temp/dataset/2/27_6.odb,Step-1,Increment      1: Step Time =    1.000,"PART-1-1",           389,           -5.,        -16.25,            0.,NA,NA,"",   301.542E-03,   148.035E-03,  -262.704E-03,   38.4425E-03
C:/temp/dataset/2/27_6.odb,Step-1,Increment      1: Step Time =    1.000,"PART-1-1",           390,      -6.06585,      -15.2329,            0.,NA,NA,"",   301.957E-03,   177.940E-03,  -243.958E-03,   31.2935E-03
C:/temp/dataset/2/27_6.odb,Step-1,Increment      1: Step Time =    1.000,"PART-1-1",           391,      -6.99530,      -16.6022,            0.,NA,NA,"",   196.281E-03,   105.682E-03,  -165.401E-03,   24.3183E-03
C:/temp/dataset/2/27_6.odb,Step-1,Increment      1: Step Time =    1.000,"PART-1-1",           392,      -5.92946,      -17.6192,            0.,NA,NA,"",   193.614E-03,   76.7227E-03,  -177.763E-03,   32.0609E-03
C:/temp/dataset/2/27_6.odb,Step-1,Increment      1: Step Time =    1.000,"PART-1-1",           393,         -13.5,          -30.,            0.,NA,NA,"",            0.,  -4.21027E-39,   2.93764E-39,   4.50647E-03
C:/temp/dataset/2/27_6.odb,Step-1,Increment      1: Step Time =    1.000,"PART-1-1",           394,      -12.0804,      -28.6247,            0.,NA,NA,"",   11.6492E-03,  -11.5746E-03,   1.31660E-03,   6.48895E-03
C:/temp/dataset/2/27_6.odb,Step-1,Increment      1: Step Time =    1.000,"PART-1-1",           395,      -13.5804,      -27.1664,            0.,NA,NA,"",   20.1573E-03,  -18.4410E-03,   8.13930E-03,   5.88047E-03
C:/temp/dataset/2/27_6.odb,Step-1,Increment      1: Step Time =    1.000,"PART-1-1",           396,          -15.,      -28.5417,            0.,NA,NA,"",   7.47871E-03,  -7.43089E-03,   844.361E-06,   3.80881E-03
C:/temp/dataset/2/27_6.odb,Step-1,Increment      1: Step Time =    1.000,"PART-1-1",           397,          13.5,          -30.,            0.,NA,NA,"",            0.,   320.316E-42,  -512.257E-42,   596.881E-06
C:/temp/dataset/2/27_6.odb,Step-1,Increment      1: Step Time =    1.000,"PART-1-1",           398,           15.,        -28.75,            0.,NA,NA,"",   1.23239E-03,   1.05840E-03,  -631.320E-06,   470.865E-06
C:/temp/dataset/2/27_6.odb,Step-1,Increment      1: Step Time =    1.000,"PART-1-1",           399,       13.4640,      -27.4843,            0.,NA,NA,"",   2.01833E-03,   2.00481E-03,  -233.267E-06,   301.121E-06
C:/temp/dataset/2/27_6.odb,Step-1,Increment      1: Step Time =    1.000,"PART-1-1",           400,       11.9640,      -28.7343,            0.,NA,NA,"",   1.08550E-03,   1.08478E-03,  -39.4659E-06,   536.028E-06
C:/temp/dataset/2/27_6.odb,Step-1,Increment      1: Step Time =    1.000,"PART-1-1",           401,       10.2658,      -24.9335,            0.,NA,NA,"",   4.07377E-03,   4.03462E-03,   563.410E-06,   320.809E-06
C:/temp/dataset/2/27_6.odb,Step-1,Increment      1: Step Time =    1.000,"PART-1-1",           402,       8.77397,      -26.1861,            0.,NA,NA,"",   4.00196E-03,   3.97586E-03,   456.370E-06,   573.107E-06
C:/temp/dataset/2/27_6.odb,Step-1,Increment      1: Step Time =    1.000,"PART-1-1",           403,       10.3945,      -27.4590,            0.,NA,NA,"",   2.51118E-03,   2.50722E-03,   140.862E-06,   603.599E-06
C:/temp/dataset/2/27_6.odb,Step-1,Increment      1: Step Time =    1.000,"PART-1-1",           404,       11.8863,      -26.2064,            0.,NA,NA,"",   3.06802E-03,   3.06662E-03,   92.5833E-06,   332.280E-06
C:/temp/dataset/2/27_6.odb,Step-1,Increment      1: Step Time =    1.000,"PART-1-1",           405,       8.93044,      -28.7247,            0.,NA,NA,"",   1.64634E-03,   1.64631E-03,  -10.3002E-06,   794.151E-06
C:/temp/dataset/2/27_6.odb,Step-1,Increment      1: Step Time =    1.000,"PART-1-1",           406,       7.31300,      -27.4411,            0.,NA,NA,"",   3.72096E-03,   3.71992E-03,   88.1392E-06,   977.849E-06
C:/temp/dataset/2/27_6.odb,Step-1,Increment      1: Step Time =    1.000,"PART-1-1",           407,       5.88256,      -28.7164,            0.,NA,NA,"",   2.66016E-03,   2.64977E-03,  -234.957E-06,   1.33005E-03
C:/temp/dataset/2/27_6.odb,Step-1,Increment      1: Step Time =    1.000,"PART-1-1",           408,           7.5,          -30.,            0.,NA,NA,"",            0.,   1.30823E-39,  -588.091E-42,   1.21384E-03
C:/temp/dataset/2/27_6.odb,Step-1,Increment      1: Step Time =    1.000,"PART-1-1",           409,       5.63995,      -26.1773,            0.,NA,NA,"",   5.81195E-03,   5.81194E-03,   13.9683E-06,   975.077E-06
C:/temp/dataset/2/27_6.odb,Step-1,Increment      1: Step Time =    1.000,"PART-1-1",           410,       3.92490,      -24.9166,            0.,NA,NA,"",   7.45724E-03,   7.40916E-03,  -845.423E-06,   1.16435E-03
C:/temp/dataset/2/27_6.odb,Step-1,Increment      1: Step Time =    1.000,"PART-1-1",           411,       2.50142,      -26.1700,            0.,NA,NA,"",   8.76815E-03,   8.32055E-03,  -2.76566E-03,   1.76584E-03
C:/temp/dataset/2/27_6.odb,Step-1,Increment      1: Step Time =    1.000,"PART-1-1",           412,       4.21647,      -27.4307,            0.,NA,NA,"",   5.75847E-03,   5.69517E-03,  -851.424E-06,   1.58015E-03
C:/temp/dataset/2/27_6.odb,Step-1,Increment      1: Step Time =    1.000,"PART-1-1",           413,       1.12659,      -27.4308,            0.,NA,NA,"",   8.48628E-03,   7.57225E-03,  -3.83120E-03,   2.82068E-03
C:/temp/dataset/2/27_6.odb,Step-1,Increment      1: Step Time =    1.000,"PART-1-1",           414,  -207.324E-03,      -28.7165,            0.,NA,NA,"",   5.49730E-03,   4.62648E-03,  -2.96917E-03,   3.88277E-03
C:/temp/dataset/2/27_6.odb,Step-1,Increment      1: Step Time =    1.000,"PART-1-1",           415,           1.5,          -30.,            0.,NA,NA,"",            0.,   3.00649E-39,  -4.50255E-39,   3.22402E-03
C:/temp/dataset/2/27_6.odb,Step-1,Increment      1: Step Time =    1.000,"PART-1-1",           416,       2.83391,      -28.7143,            0.,NA,NA,"",   4.11931E-03,   3.97963E-03,  -1.06362E-03,   2.28250E-03
C:/temp/dataset/2/27_6.odb,Step-1,Increment      1: Step Time =    1.000,"PART-1-1",           417,      -1.92078,      -27.4395,            0.,NA,NA,"",   11.5745E-03,   6.33589E-03,  -9.68641E-03,   5.32388E-03
C:/temp/dataset/2/27_6.odb,Step-1,Increment      1: Step Time =    1.000,"PART-1-1",           418,      -3.21345,      -28.7230,            0.,NA,NA,"",   5.95882E-03,   2.24977E-03,  -5.51780E-03,   5.94805E-03
C:/temp/dataset/2/27_6.odb,Step-1,Increment      1: Step Time =    1.000,"PART-1-1",           419,          -1.5,          -30.,            0.,NA,NA,"",            0.,   2.87258E-39,  -8.68642E-39,   4.35772E-03
C:/temp/dataset/2/27_6.odb,Step-1,Increment      1: Step Time =    1.000,"PART-1-1",           420,      -5.57419,      -22.4519,            0.,NA,NA,"",   69.2556E-03,  -877.946E-06,  -69.2501E-03,   16.8370E-03
C:/temp/dataset/2/27_6.odb,Step-1,Increment      1: Step Time =    1.000,"PART-1-1",           421,      -6.77537,      -23.6376,            0.,NA,NA,"",   52.4262E-03,  -12.3542E-03,  -50.9498E-03,   15.3961E-03
C:/temp/dataset/2/27_6.odb,Step-1,Increment      1: Step Time =    1.000,"PART-1-1",           422,      -5.25528,      -24.9124,            0.,NA,NA,"",   36.9514E-03,  -2.41545E-03,  -36.8724E-03,   11.2428E-03
C:/temp/dataset/2/27_6.odb,Step-1,Increment      1: Step Time =    1.000,"PART-1-1",           423,      -4.05411,      -23.7268,            0.,NA,NA,"",   42.5111E-03,   5.90151E-03,  -42.0995E-03,   12.5230E-03
C:/temp/dataset/2/27_6.odb,Step-1,Increment      1: Step Time =    1.000,"PART-1-1",           424,       13.4223,      -24.9720,            0.,NA,NA,"",   3.61029E-03,   3.59905E-03,  -284.616E-06,   90.8602E-06
C:/temp/dataset/2/27_6.odb,Step-1,Increment      1: Step Time =    1.000,"PART-1-1",           425,           15.,        -26.25,            0.,NA,NA,"",   3.07763E-03,   2.89648E-03,  -1.04030E-03,   51.6934E-06
C:/temp/dataset/2/27_6.odb,Step-1,Increment      1: Step Time =    1.000,"PART-1-1",           426,       11.8021,      -23.6964,            0.,NA,NA,"",   4.17427E-03,   4.16224E-03,   316.658E-06,   77.8714E-06
C:/temp/dataset/2/27_6.odb,Step-1,Increment      1: Step Time =    1.000,"PART-1-1",           427,       10.1355,      -22.4445,            0.,NA,NA,"",   4.59756E-03,   4.51591E-03,   862.609E-06,   167.140E-06
C:/temp/dataset/2/27_6.odb,Step-1,Increment      1: Step Time =    1.000,"PART-1-1",           428,      -2.31424,      -24.9364,            0.,NA,NA,"",   24.2766E-03,   8.97053E-03,  -22.5584E-03,   7.07296E-03
C:/temp/dataset/2/27_6.odb,Step-1,Increment      1: Step Time =    1.000,"PART-1-1",           429,      -3.63092,      -26.1962,            0.,NA,NA,"",   21.7947E-03,   3.90468E-03,  -21.4421E-03,   8.50626E-03
C:/temp/dataset/2/27_6.odb,Step-1,Increment      1: Step Time =    1.000,"PART-1-1",           430,  -604.096E-03,      -26.1796,            0.,NA,NA,"",   14.0621E-03,   9.57688E-03,  -10.2970E-03,   4.30719E-03
C:/temp/dataset/2/27_6.odb,Step-1,Increment      1: Step Time =    1.000,"PART-1-1",           431,      -7.52977,      -11.9021,            0.,NA,NA,"",   426.728E-03,   352.048E-03,  -241.163E-03,   22.2821E-03
C:/temp/dataset/2/27_6.odb,Step-1,Increment      1: Step Time =    1.000,"PART-1-1",           432,      -6.22373,      -12.8207,            0.,NA,NA,"",   432.016E-03,   306.076E-03,  -304.885E-03,   30.5891E-03
C:/temp/dataset/2/27_6.odb,Step-1,Increment      1: Step Time =    1.000,"PART-1-1",           433,           -5.,        -11.25,            0.,NA,NA,"",   612.694E-03,   424.806E-03,  -441.514E-03,   38.8133E-03
C:/temp/dataset/2/27_6.odb,Step-1,Increment      1: Step Time =    1.000,"PART-1-1",           434,      -10.0475,      -12.6788,            0.,NA,NA,"",   299.286E-03,   293.417E-03,  -58.9795E-03,   5.28971E-03
C:/temp/dataset/2/27_6.odb,Step-1,Increment      1: Step Time =    1.000,"PART-1-1",           435,           -5.,         -6.25,            0.,NA,NA,"",       1.04750,   823.437E-03,  -647.460E-03,   51.7082E-03
C:/temp/dataset/2/27_6.odb,Step-1,Increment      1: Step Time =    1.000,"PART-1-1",           436,      -7.88282,      -7.02961,            0.,NA,NA,"",   803.570E-03,   739.009E-03,  -315.579E-03,   13.7002E-03
C:/temp/dataset/2/27_6.odb,Step-1,Increment      1: Step Time =    1.000,"PART-1-1",           437,      -13.8577,      -6.65334,            0.,NA,NA,"",   875.287E-03,   829.640E-03,   278.969E-03,   20.4759E-03
C:/temp/dataset/2/27_6.odb,Step-1,Increment      1: Step Time =    1.000,"PART-1-1",           438,      -12.5267,      -5.32641,            0.,NA,NA,"",   972.164E-03,   960.285E-03,   151.513E-03,   12.5245E-03
C:/temp/dataset/2/27_6.odb,Step-1,Increment      1: Step Time =    1.000,"PART-1-1",           439,          -15.,      -5.20833,            0.,NA,NA,"",       1.09409,       1.00962,   421.540E-03,   25.1170E-03
C:/temp/dataset/2/27_6.odb,Step-1,Increment      1: Step Time =    1.000,"PART-1-1",           440,          1.25,           -5.,            0.,NA,NA,"",       1.94964,   777.077E-03,      -1.78808,   1.15207E-03
C:/temp/dataset/2/27_6.odb,Step-1,Increment      1: Step Time =    1.000,"PART-1-1",           441,       2.47079,      -3.83474,            0.,NA,NA,"",       2.21121,   946.092E-03,      -1.99859,   1.35065E-03
C:/temp/dataset/2/27_6.odb,Step-1,Increment      1: Step Time =    1.000,"PART-1-1",           442,       3.51261,  -149.180E-03,            0.,NA,NA,"",       2.67707,       1.50735,      -2.21238,   3.41887E-03
C:/temp/dataset/2/27_6.odb,Step-1,Increment      1: Step Time =    1.000,"PART-1-1",           443,       3.69085,      -2.58237,            0.,NA,NA,"",       2.47981,       1.12680,      -2.20903,   1.77862E-03
C:/temp/dataset/2/27_6.odb,Step-1,Increment      1: Step Time =    1.000,"PART-1-1",           444,       8.74868,       5.55605,            0.,NA,NA,"",       3.87970,       2.32865,      -3.10314,   410.884E-06
C:/temp/dataset/2/27_6.odb,Step-1,Increment      1: Step Time =    1.000,"PART-1-1",           445,       10.0030,       7.12352,            0.,NA,NA,"",       4.18751,       2.55618,      -3.31680,   232.920E-06
C:/temp/dataset/2/27_6.odb,Step-1,Increment      1: Step Time =    1.000,"PART-1-1",           446,       8.73640,       8.21697,            0.,NA,NA,"",       4.16319,       2.74061,      -3.13388,   179.537E-06
C:/temp/dataset/2/27_6.odb,Step-1,Increment      1: Step Time =    1.000,"PART-1-1",           447,           15.,     -625.E-03,            0.,NA,NA,"",       4.20347,       1.29286,      -3.99971,   253.613E-06
C:/temp/dataset/2/27_6.odb,Step-1,Increment      1: Step Time =    1.000,"PART-1-1",           448,       13.7714,   731.820E-03,            0.,NA,NA,"",       4.11551,       1.51914,      -3.82487,   265.038E-06
C:/temp/dataset/2/27_6.odb,Step-1,Increment      1: Step Time =    1.000,"PART-1-1",           449,       12.5339,  -774.506E-03,            0.,NA,NA,"",       3.84104,       1.29981,      -3.61442,   238.475E-06
C:/temp/dataset/2/27_6.odb,Step-1,Increment      1: Step Time =    1.000,"PART-1-1",           450,       7.40609,       11.8257,            0.,NA,NA,"",       4.45249,       3.31578,      -2.97159,   28.8314E-06
C:/temp/dataset/2/27_6.odb,Step-1,Increment      1: Step Time =    1.000,"PART-1-1",           451,       8.70206,       10.8725,            0.,NA,NA,"",       4.46416,       3.15246,      -3.16081,   57.4490E-06
C:/temp/dataset/2/27_6.odb,Step-1,Increment      1: Step Time =    1.000,"PART-1-1",           452,       11.2454,       8.75341,            0.,NA,NA,"",       4.50110,       2.79363,      -3.52923,   116.486E-06
C:/temp/dataset/2/27_6.odb,Step-1,Increment      1: Step Time =    1.000,"PART-1-1",           453,       11.2622,       5.99112,            0.,NA,NA,"",       4.22319,       2.36574,      -3.49837,   224.651E-06
C:/temp/dataset/2/27_6.odb,Step-1,Increment      1: Step Time =    1.000,"PART-1-1",           454,       13.8596,       24.3693,            0.,NA,NA,"",       6.62146,       5.18128,      -4.12288,   86.7185E-09
C:/temp/dataset/2/27_6.odb,Step-1,Increment      1: Step Time =    1.000,"PART-1-1",           455,       12.6110,       23.1199,            0.,NA,NA,"",       6.35218,       5.00280,      -3.91436,   321.326E-09
C:/temp/dataset/2/27_6.odb,Step-1,Increment      1: Step Time =    1.000,"PART-1-1",           456,       13.7514,       21.4590,            0.,NA,NA,"",       6.24195,       4.73170,      -4.07099,   401.290E-09
C:/temp/dataset/2/27_6.odb,Step-1,Increment      1: Step Time =    1.000,"PART-1-1",           457,           15.,       22.7083,            0.,NA,NA,"",       6.51338,       4.91018,      -4.27951,   273.575E-09
C:/temp/dataset/2/27_6.odb,Step-1,Increment      1: Step Time =    1.000,"PART-1-1",           458,       8.83903,       17.2613,            0.,NA,NA,"",       5.26949,       4.14066,      -3.25923,   2.17501E-06
C:/temp/dataset/2/27_6.odb,Step-1,Increment      1: Step Time =    1.000,"PART-1-1",           459,       10.5130,       17.3338,            0.,NA,NA,"",       5.42745,       4.13168,      -3.51945,   1.97912E-06
C:/temp/dataset/2/27_6.odb,Step-1,Increment      1: Step Time =    1.000,"PART-1-1",           460,       8.72284,       19.1442,            0.,NA,NA,"",       5.50562,       4.43378,      -3.26396,   1.16294E-06
C:/temp/dataset/2/27_6.odb,Step-1,Increment      1: Step Time =    1.000,"PART-1-1",           461,           15.,       28.5417,            0.,NA,NA,"",       7.26113,       5.81394,      -4.34995,   3.22522E-09
C:/temp/dataset/2/27_6.odb,Step-1,Increment      1: Step Time =    1.000,"PART-1-1",           462,         13.75,           30.,            0.,NA,NA,"",       7.35419,       6.05497,      -4.17389,   4.82987E-09
C:/temp/dataset/2/27_6.odb,Step-1,Increment      1: Step Time =    1.000,"PART-1-1",           463,       12.5875,       28.6551,            0.,NA,NA,"",       7.08295,       5.86065,      -3.97755,   13.0877E-09
C:/temp/dataset/2/27_6.odb,Step-1,Increment      1: Step Time =    1.000,"PART-1-1",           464,       13.8375,       27.1968,            0.,NA,NA,"",       6.98803,       5.61962,      -4.15360,   9.71970E-09
C:/temp/dataset/2/27_6.odb,Step-1,Increment      1: Step Time =    1.000,"PART-1-1",           465,         11.25,           30.,            0.,NA,NA,"",       7.16710,       6.08516,      -3.78657,   1.96543E-09
C:/temp/dataset/2/27_6.odb,Step-1,Increment      1: Step Time =    1.000,"PART-1-1",           466,       10.1484,       28.7335,            0.,NA,NA,"",       6.91381,       5.90224,      -3.60060,   23.5787E-09
C:/temp/dataset/2/27_6.odb,Step-1,Increment      1: Step Time =    1.000,"PART-1-1",           467,       7.69941,       28.7139,            0.,NA,NA,"",       6.74721,       5.92877,      -3.22095,   21.4735E-09
C:/temp/dataset/2/27_6.odb,Step-1,Increment      1: Step Time =    1.000,"PART-1-1",           468,       9.09777,       27.4473,            0.,NA,NA,"",       6.66190,       5.71566,      -3.42230,   36.1291E-09
C:/temp/dataset/2/27_6.odb,Step-1,Increment      1: Step Time =    1.000,"PART-1-1",           469,          8.75,           30.,            0.,NA,NA,"",       6.99659,       6.11535,      -3.39924,   6.27048E-09
C:/temp/dataset/2/27_6.odb,Step-1,Increment      1: Step Time =    1.000,"PART-1-1",           470,  -9.87333E-03,       28.6960,            0.,NA,NA,"",       6.35102,       6.01909,      -2.02633,   14.0004E-09
C:/temp/dataset/2/27_6.odb,Step-1,Increment      1: Step Time =    1.000,"PART-1-1",           471,          1.25,           30.,            0.,NA,NA,"",       6.59687,       6.20591,      -2.23727,   11.9271E-09
C:/temp/dataset/2/27_6.odb,Step-1,Increment      1: Step Time =    1.000,"PART-1-1",           472,       4.87954,       25.6434,            0.,NA,NA,"",       6.13631,       5.48711,      -2.74699,   23.3361E-09
C:/temp/dataset/2/27_6.odb,Step-1,Increment      1: Step Time =    1.000,"PART-1-1",           473,      -5.00474,       28.7231,            0.,NA,NA,"",       6.21125,       6.08360,      -1.25280,   11.4533E-09
C:/temp/dataset/2/27_6.odb,Step-1,Increment      1: Step Time =    1.000,"PART-1-1",           474,         -6.25,           30.,            0.,NA,NA,"",       6.38762,       6.29647,      -1.07529,   13.8430E-09
C:/temp/dataset/2/27_6.odb,Step-1,Increment      1: Step Time =    1.000,"PART-1-1",           475,      -3.76303,       27.4393,            0.,NA,NA,"",       6.04130,       5.86970,      -1.42967,   8.88600E-09
C:/temp/dataset/2/27_6.odb,Step-1,Increment      1: Step Time =    1.000,"PART-1-1",           476,      -3.77322,       24.9147,            0.,NA,NA,"",       5.65415,       5.47869,      -1.39761,   5.77305E-09
C:/temp/dataset/2/27_6.odb,Step-1,Increment      1: Step Time =    1.000,"PART-1-1",           477,      -13.7476,       27.4926,            0.,NA,NA,"",       5.99965,       5.99852,   116.594E-03,   4.47844E-09
C:/temp/dataset/2/27_6.odb,Step-1,Increment      1: Step Time =    1.000,"PART-1-1",           478,        -13.75,           30.,            0.,NA,NA,"",       6.38761,       6.38703,   86.6895E-03,   3.71347E-09
C:/temp/dataset/2/27_6.odb,Step-1,Increment      1: Step Time =    1.000,"PART-1-1",           479,          -15.,         28.75,            0.,NA,NA,"",       6.21548,       6.20846,   295.446E-03,   4.33527E-09
C:/temp/dataset/2/27_6.odb,Step-1,Increment      1: Step Time =    1.000,"PART-1-1",           480,          -15.,         26.25,            0.,NA,NA,"",       5.83023,       5.82113,   325.632E-03,   3.90032E-09
C:/temp/dataset/2/27_6.odb,Step-1,Increment      1: Step Time =    1.000,"PART-1-1",           481,      -12.4965,       26.2309,            0.,NA,NA,"",       5.78827,       5.78793,  -62.0067E-03,   5.06934E-09
C:/temp/dataset/2/27_6.odb,Step-1,Increment      1: Step Time =    1.000,"PART-1-1",           482,      -10.0014,       23.7134,            0.,NA,NA,"",       5.38404,       5.36778,  -418.177E-03,   5.26708E-09
C:/temp/dataset/2/27_6.odb,Step-1,Increment      1: Step Time =    1.000,"PART-1-1",           483,      -8.75535,       22.4567,            0.,NA,NA,"",       5.19235,       5.15802,  -596.051E-03,   6.92287E-09
C:/temp/dataset/2/27_6.odb,Step-1,Increment      1: Step Time =    1.000,"PART-1-1",           484,      -7.50515,       23.6891,            0.,NA,NA,"",       5.39422,       5.33387,  -804.626E-03,   5.87014E-09
C:/temp/dataset/2/27_6.odb,Step-1,Increment      1: Step Time =    1.000,"PART-1-1",           485,      -8.75118,       24.9458,            0.,NA,NA,"",       5.57894,       5.54362,  -626.752E-03,   5.42537E-09
C:/temp/dataset/2/27_6.odb,Step-1,Increment      1: Step Time =    1.000,"PART-1-1",           486,      -3.77419,       22.4219,            0.,NA,NA,"",       5.27287,       5.09249,      -1.36736,   11.7901E-09
C:/temp/dataset/2/27_6.odb,Step-1,Increment      1: Step Time =    1.000,"PART-1-1",           487,      -5.00723,       21.2173,            0.,NA,NA,"",       5.05605,       4.92076,      -1.16178,   13.6994E-09
C:/temp/dataset/2/27_6.odb,Step-1,Increment      1: Step Time =    1.000,"PART-1-1",           488,         -3.75,           20.,            0.,NA,NA,"",       4.90413,       4.71698,      -1.34187,   20.6722E-09
C:/temp/dataset/2/27_6.odb,Step-1,Increment      1: Step Time =    1.000,"PART-1-1",           489,      -2.51696,       21.2046,            0.,NA,NA,"",       5.12778,       4.88871,      -1.54745,   17.1206E-09
C:/temp/dataset/2/27_6.odb,Step-1,Increment      1: Step Time =    1.000,"PART-1-1",           490,         -8.75,           20.,            0.,NA,NA,"",       4.81090,       4.77735,  -567.216E-03,   11.4592E-09
C:/temp/dataset/2/27_6.odb,Step-1,Increment      1: Step Time =    1.000,"PART-1-1",           491,      -7.50331,       21.2223,            0.,NA,NA,"",       5.01197,       4.95166,  -775.125E-03,   10.1949E-09
C:/temp/dataset/2/27_6.odb,Step-1,Increment      1: Step Time =    1.000,"PART-1-1",           492,         -6.25,           20.,            0.,NA,NA,"",       4.84218,       4.74716,  -954.542E-03,   15.7791E-09
C:/temp/dataset/2/27_6.odb,Step-1,Increment      1: Step Time =    1.000,"PART-1-1",           493,      -6.26054,       22.4396,            0.,NA,NA,"",       5.21856,       5.12526,  -982.367E-03,   8.86947E-09
C:/temp/dataset/2/27_6.odb,Step-1,Increment      1: Step Time =    1.000,"PART-1-1",           494,         -1.25,           20.,            0.,NA,NA,"",       4.99561,       4.68679,      -1.72919,   34.0688E-09
C:/temp/dataset/2/27_6.odb,Step-1,Increment      1: Step Time =    1.000,"PART-1-1",           495,      -1.30453,       22.3853,            0.,NA,NA,"",       5.35110,       5.05701,      -1.74955,   13.2407E-09
C:/temp/dataset/2/27_6.odb,Step-1,Increment      1: Step Time =    1.000,"PART-1-1",           496,         -1.25,           30.,            0.,NA,NA,"",       6.50470,       6.23609,      -1.84994,   15.9096E-09
C:/temp/dataset/2/27_6.odb,Step-1,Increment      1: Step Time =    1.000,"PART-1-1",           497,      -2.50829,       28.7162,            0.,NA,NA,"",       6.27051,       6.05238,      -1.63949,   13.3877E-09
C:/temp/dataset/2/27_6.odb,Step-1,Increment      1: Step Time =    1.000,"PART-1-1",           498,         -3.75,           30.,            0.,NA,NA,"",       6.43471,       6.26628,      -1.46261,   16.4170E-09
C:/temp/dataset/2/27_6.odb,Step-1,Increment      1: Step Time =    1.000,"PART-1-1",           499,          3.75,           20.,            0.,NA,NA,"",       5.26051,       4.62642,      -2.50385,   155.978E-09
C:/temp/dataset/2/27_6.odb,Step-1,Increment      1: Step Time =    1.000,"PART-1-1",           500,       4.75388,       21.0765,            0.,NA,NA,"",       5.47725,       4.78108,      -2.67237,   315.904E-09
C:/temp/dataset/2/27_6.odb,Step-1,Increment      1: Step Time =    1.000,"PART-1-1",           501,          6.25,           30.,            0.,NA,NA,"",       6.84392,       6.14553,      -3.01192,   6.62558E-09
C:/temp/dataset/2/27_6.odb,Step-1,Increment      1: Step Time =    1.000,"PART-1-1",           502,       6.61296,       27.1492,            0.,NA,NA,"",       6.45659,       5.69948,      -3.03373,   27.4753E-09
C:/temp/dataset/2/27_6.odb,Step-1,Increment      1: Step Time =    1.000,"PART-1-1",           503,            5.,         16.25,            0.,NA,NA,"",       4.82471,       4.03033,      -2.65222,   4.72452E-06
C:/temp/dataset/2/27_6.odb,Step-1,Increment      1: Step Time =    1.000,"PART-1-1",           504,       6.03202,       15.2452,            0.,NA,NA,"",       4.77037,       3.86220,      -2.79998,   3.22973E-06
C:/temp/dataset/2/27_6.odb,Step-1,Increment      1: Step Time =    1.000,"PART-1-1",           505,       6.91243,       16.6330,            0.,NA,NA,"",       5.02574,       4.06658,      -2.95315,   2.69225E-06
C:/temp/dataset/2/27_6.odb,Step-1,Increment      1: Step Time =    1.000,"PART-1-1",           506,            5.,         13.75,            0.,NA,NA,"",       4.48847,       3.64300,      -2.62201,   10.2781E-06
C:/temp/dataset/2/27_6.odb,Step-1,Increment      1: Step Time =    1.000,"PART-1-1",           507,       6.17466,       12.7979,            0.,NA,NA,"",       4.46291,       3.48129,      -2.79253,   4.94683E-06
C:/temp/dataset/2/27_6.odb,Step-1,Increment      1: Step Time =    1.000,"PART-1-1",           508,       12.0086,       16.5092,            0.,NA,NA,"",       5.46660,       3.98587,      -3.74120,   1.75288E-06
C:/temp/dataset/2/27_6.odb,Step-1,Increment      1: Step Time =    1.000,"PART-1-1",           509,           15.,        16.875,            0.,NA,NA,"",       5.81100,       4.00642,      -4.20907,   2.76484E-06
C:/temp/dataset/2/27_6.odb,Step-1,Increment      1: Step Time =    1.000,"PART-1-1",           510,       13.3591,       18.2744,            0.,NA,NA,"",       5.81190,       4.24304,      -3.97175,   1.18232E-06
C:/temp/dataset/2/27_6.odb,Step-1,Increment      1: Step Time =    1.000,"PART-1-1",           511,            5.,         11.25,            0.,NA,NA,"",       4.16132,       3.25560,      -2.59184,   47.7561E-06
C:/temp/dataset/2/27_6.odb,Step-1,Increment      1: Step Time =    1.000,"PART-1-1",           512,       6.23142,       10.2778,            0.,NA,NA,"",       4.15046,       3.09009,      -2.77086,   46.1729E-06
C:/temp/dataset/2/27_6.odb,Step-1,Increment      1: Step Time =    1.000,"PART-1-1",           513,            5.,          8.75,            0.,NA,NA,"",       3.84552,       2.86820,      -2.56153,   163.064E-06
C:/temp/dataset/2/27_6.odb,Step-1,Increment      1: Step Time =    1.000,"PART-1-1",           514,       7.47251,       9.25684,            0.,NA,NA,"",       4.14908,       2.91684,      -2.95075,   224.226E-06
C:/temp/dataset/2/27_6.odb,Step-1,Increment      1: Step Time =    1.000,"PART-1-1",           515,         11.25,           -5.,            0.,NA,NA,"",       3.42677,   657.027E-03,      -3.36319,   273.954E-06
C:/temp/dataset/2/27_6.odb,Step-1,Increment      1: Step Time =    1.000,"PART-1-1",           516,       11.2689,      -2.22707,            0.,NA,NA,"",       3.57024,       1.08888,      -3.40014,   316.077E-06
C:/temp/dataset/2/27_6.odb,Step-1,Increment      1: Step Time =    1.000,"PART-1-1",           517,          10.5,          -30.,            0.,NA,NA,"",            0.,   797.840E-42,  -249.819E-42,   720.547E-06
C:/temp/dataset/2/27_6.odb,Step-1,Increment      1: Step Time =    1.000,"PART-1-1",           518,           15.,        -23.75,            0.,NA,NA,"",   4.07490E-03,   3.99707E-03,  -792.637E-06,   71.7433E-06
C:/temp/dataset/2/27_6.odb,Step-1,Increment      1: Step Time =    1.000,"PART-1-1",           519,          3.75,           -5.,            0.,NA,NA,"",       2.31118,   744.661E-03,      -2.18793,   472.017E-06
C:/temp/dataset/2/27_6.odb,Step-1,Increment      1: Step Time =    1.000,"PART-1-1",           520,       4.97006,      -3.74763,            0.,NA,NA,"",       2.57025,   927.534E-03,      -2.39705,   479.073E-06
C:/temp/dataset/2/27_6.odb,Step-1,Increment      1: Step Time =    1.000,"PART-1-1",           521,       4.85412,       3.76356,            0.,NA,NA,"",       3.24817,       2.09795,      -2.47976,   3.04535E-03
C:/temp/dataset/2/27_6.odb,Step-1,Increment      1: Step Time =    1.000,"PART-1-1",           522,       3.33333,            5.,            0.,NA,NA,"",       3.23130,       2.30321,      -2.26640,   5.51577E-03
C:/temp/dataset/2/27_6.odb,Step-1,Increment      1: Step Time =    1.000,"PART-1-1",           523,       1.45296,       3.58740,            0.,NA,NA,"",       2.86210,       2.10189,      -1.94260,   7.49163E-03
C:/temp/dataset/2/27_6.odb,Step-1,Increment      1: Step Time =    1.000,"PART-1-1",           524,       2.97375,       2.35096,            0.,NA,NA,"",       2.87851,       1.89829,      -2.16387,   5.65675E-03
C:/temp/dataset/2/27_6.odb,Step-1,Increment      1: Step Time =    1.000,"PART-1-1",           525,          6.25,           -5.,            0.,NA,NA,"",       2.67983,   715.507E-03,      -2.58254,   851.071E-06
C:/temp/dataset/2/27_6.odb,Step-1,Increment      1: Step Time =    1.000,"PART-1-1",           526,       12.4696,       10.4445,            0.,NA,NA,"",       4.81970,       3.04079,      -3.73940,   52.9829E-06
C:/temp/dataset/2/27_6.odb,Step-1,Increment      1: Step Time =    1.000,"PART-1-1",           527,           15.,       11.0417,            0.,NA,NA,"",       5.17255,       3.10274,      -4.13863,   15.9602E-06
C:/temp/dataset/2/27_6.odb,Step-1,Increment      1: Step Time =    1.000,"PART-1-1",           528,      -5.01382,       23.6808,            0.,NA,NA,"",       5.43450,       5.30250,      -1.19051,   6.55495E-09
C:/temp/dataset/2/27_6.odb,Step-1,Increment      1: Step Time =    1.000,"PART-1-1",           529,      -2.53358,       23.6558,            0.,NA,NA,"",       5.49890,       5.26868,      -1.57447,   7.60327E-09
C:/temp/dataset/2/27_6.odb,Step-1,Increment      1: Step Time =    1.000,"PART-1-1",           530,  -74.6816E-03,       23.6075,            0.,NA,NA,"",       5.58482,       5.23152,      -1.95485,   8.09566E-09
C:/temp/dataset/2/27_6.odb,Step-1,Increment      1: Step Time =    1.000,"PART-1-1",           531,      -6.62798,      -1.45964,            0.,NA,NA,"",       1.52910,       1.41632,  -576.351E-03,   14.8973E-03
C:/temp/dataset/2/27_6.odb,Step-1,Increment      1: Step Time =    1.000,"PART-1-1",           532,      -4.43070,      -2.38075,            0.,NA,NA,"",       1.55200,       1.27850,  -879.862E-03,   16.8923E-03
C:/temp/dataset/2/27_6.odb,Step-1,Increment      1: Step Time =    1.000,"PART-1-1",           533,      -3.64554,  -813.143E-03,            0.,NA,NA,"",       1.81903,       1.49299,      -1.03916,   15.0134E-03
C:/temp/dataset/2/27_6.odb,Step-1,Increment      1: Step Time =    1.000,"PART-1-1",           534,         -3.75,           -5.,            0.,NA,NA,"",       1.29902,   875.941E-03,  -959.262E-03,   26.1855E-03
C:/temp/dataset/2/27_6.odb,Step-1,Increment      1: Step Time =    1.000,"PART-1-1",           535,      -13.8599,      -9.43096,            0.,NA,NA,"",   610.446E-03,   561.122E-03,   240.388E-03,   21.2016E-03
C:/temp/dataset/2/27_6.odb,Step-1,Increment      1: Step Time =    1.000,"PART-1-1",           536,          -15.,      -11.0417,            0.,NA,NA,"",   537.410E-03,   446.325E-03,   299.339E-03,   28.8271E-03
C:/temp/dataset/2/27_6.odb,Step-1,Increment      1: Step Time =    1.000,"PART-1-1",           537,      -11.9984,      -19.8095,            0.,NA,NA,"",   28.1971E-03,   7.15209E-03,   27.2750E-03,   8.71142E-03
C:/temp/dataset/2/27_6.odb,Step-1,Increment      1: Step Time =    1.000,"PART-1-1",           538,      -13.3881,      -18.2324,            0.,NA,NA,"",   98.6999E-03,   52.5722E-03,   83.5335E-03,   15.3466E-03
C:/temp/dataset/2/27_6.odb,Step-1,Increment      1: Step Time =    1.000,"PART-1-1",           539,          -15.,      -19.7917,            0.,NA,NA,"",   105.097E-03,   28.0423E-03,   101.287E-03,   21.7141E-03
C:/temp/dataset/2/27_6.odb,Step-1,Increment      1: Step Time =    1.000,"PART-1-1",           540,           -5.,        -18.75,            0.,NA,NA,"",   175.630E-03,   51.7153E-03,  -167.844E-03,   45.5119E-03
C:/temp/dataset/2/27_6.odb,Step-1,Increment      1: Step Time =    1.000,"PART-1-1",           541,      -5.96138,      -20.0094,            0.,NA,NA,"",   115.133E-03,   1.62928E-03,  -115.121E-03,   28.2079E-03
C:/temp/dataset/2/27_6.odb,Step-1,Increment      1: Step Time =    1.000,"PART-1-1",           542,           -5.,        -13.75,            0.,NA,NA,"",   440.912E-03,   269.105E-03,  -349.265E-03,   38.1635E-03
C:/temp/dataset/2/27_6.odb,Step-1,Increment      1: Step Time =    1.000,"PART-1-1",           543,      -7.28958,      -14.3036,            0.,NA,NA,"",   292.554E-03,   211.150E-03,  -202.494E-03,   23.3501E-03
C:/temp/dataset/2/27_6.odb,Step-1,Increment      1: Step Time =    1.000,"PART-1-1",           544,      -8.88285,      -11.0213,            0.,NA,NA,"",   436.190E-03,   406.527E-03,  -158.105E-03,   13.2635E-03
C:/temp/dataset/2/27_6.odb,Step-1,Increment      1: Step Time =    1.000,"PART-1-1",           545,      -9.01222,      -8.51542,            0.,NA,NA,"",   633.563E-03,   606.790E-03,  -182.230E-03,   11.7332E-03
C:/temp/dataset/2/27_6.odb,Step-1,Increment      1: Step Time =    1.000,"PART-1-1",           546,      -9.13424,  -715.290E-03,            0.,NA,NA,"",       1.55371,       1.53130,  -262.963E-03,   11.3011E-03
C:/temp/dataset/2/27_6.odb,Step-1,Increment      1: Step Time =    1.000,"PART-1-1",           547,      -9.92186,      -2.42350,            0.,NA,NA,"",       1.30819,       1.29994,  -146.664E-03,   12.5819E-03
C:/temp/dataset/2/27_6.odb,Step-1,Increment      1: Step Time =    1.000,"PART-1-1",           548,      -12.7176,      -7.95930,            0.,NA,NA,"",   699.698E-03,   682.177E-03,   155.604E-03,   13.2639E-03
C:/temp/dataset/2/27_6.odb,Step-1,Increment      1: Step Time =    1.000,"PART-1-1",           549,          -15.,        -8.125,            0.,NA,NA,"",   787.802E-03,   698.069E-03,   365.145E-03,   28.6164E-03
C:/temp/dataset/2/27_6.odb,Step-1,Increment      1: Step Time =    1.000,"PART-1-1",           550,       11.2818,   528.104E-03,            0.,NA,NA,"",       3.75598,       1.51800,      -3.43556,   231.200E-06
C:/temp/dataset/2/27_6.odb,Step-1,Increment      1: Step Time =    1.000,"PART-1-1",           551,       10.0167,  -924.457E-03,            0.,NA,NA,"",       3.47647,       1.30728,      -3.22131,   277.340E-06
C:/temp/dataset/2/27_6.odb,Step-1,Increment      1: Step Time =    1.000,"PART-1-1",           552,       10.4320,       23.7699,            0.,NA,NA,"",       6.25814,       5.12980,      -3.58461,   269.783E-09
C:/temp/dataset/2/27_6.odb,Step-1,Increment      1: Step Time =    1.000,"PART-1-1",           553,           15.,        25.625,            0.,NA,NA,"",       6.88248,       5.36206,      -4.31473,   39.8141E-09
C:/temp/dataset/2/27_6.odb,Step-1,Increment      1: Step Time =    1.000,"PART-1-1",           554,      -9.99539,       26.2124,            0.,NA,NA,"",       5.77239,       5.75488,  -449.279E-03,   4.65902E-09
C:/temp/dataset/2/27_6.odb,Step-1,Increment      1: Step Time =    1.000,"PART-1-1",           555,          -15.,       -25.625,            0.,NA,NA,"",   26.1096E-03,  -19.7127E-03,   17.1208E-03,   9.79168E-03
C:/temp/dataset/2/27_6.odb,Step-1,Increment      1: Step Time =    1.000,"PART-1-1",           556,      -12.2044,      -25.8339,            0.,NA,NA,"",   27.4352E-03,  -26.6398E-03,   6.55842E-03,   7.49563E-03
C:/temp/dataset/2/27_6.odb,Step-1,Increment      1: Step Time =    1.000,"PART-1-1",           557,          -15.,       -16.875,            0.,NA,NA,"",   199.088E-03,   113.723E-03,   163.411E-03,   25.6873E-03
C:/temp/dataset/2/27_6.odb,Step-1,Increment      1: Step Time =    1.000,"PART-1-1",           558,      -8.25880,      -15.9015,            0.,NA,NA,"",   176.786E-03,   126.797E-03,  -123.190E-03,   16.1607E-03
C:/temp/dataset/2/27_6.odb,Step-1,Increment      1: Step Time =    1.000,"PART-1-1",           559,       7.56555,       17.9230,            0.,NA,NA,"",       5.24973,       4.25855,      -3.06991,   1.43566E-06
C:/temp/dataset/2/27_6.odb,Step-1,Increment      1: Step Time =    1.000,"PART-1-1",           560,      -9.72707,       2.21069,            0.,NA,NA,"",       1.95997,       1.94679,  -226.912E-03,   9.77294E-03
C:/temp/dataset/2/27_6.odb,Step-1,Increment      1: Step Time =    1.000,"PART-1-1",           561,      -8.18006,       3.69884,            0.,NA,NA,"",       2.19910,       2.15227,  -451.433E-03,   10.8477E-03
C:/temp/dataset/2/27_6.odb,Step-1,Increment      1: Step Time =    1.000,"PART-1-1",           562,          -10.,            5.,            0.,NA,NA,"",       2.34007,       2.32909,  -226.402E-03,   8.78047E-03
C:/temp/dataset/2/27_6.odb,Step-1,Increment      1: Step Time =    1.000,"PART-1-1",           563,      -10.3433,      -7.69771,            0.,NA,NA,"",   690.298E-03,   687.187E-03,  -65.4581E-03,   3.10815E-03
C:/temp/dataset/2/27_6.odb,Step-1,Increment      1: Step Time =    1.000,"PART-1-1",           564,      -11.5611,      -6.59494,            0.,NA,NA,"",   810.006E-03,   808.477E-03,   49.7545E-03,   7.98555E-03
C:/temp/dataset/2/27_6.odb,Step-1,Increment      1: Step Time =    1.000,"PART-1-1",           565,      -9.40089,      -20.7816,            0.,NA,NA,"",   41.7736E-03,  -11.8666E-03,  -40.0527E-03,   9.77549E-03
C:/temp/dataset/2/27_6.odb,Step-1,Increment      1: Step Time =    1.000,"PART-1-1",           566,      -8.21757,      -22.2064,            0.,NA,NA,"",   56.8073E-03,  -19.4425E-03,  -53.3765E-03,   13.4405E-03
C:/temp/dataset/2/27_6.odb,Step-1,Increment      1: Step Time =    1.000,"PART-1-1",           567,      -6.89894,      -21.2078,            0.,NA,NA,"",   85.0174E-03,  -8.98896E-03,  -84.5409E-03,   18.1258E-03
C:/temp/dataset/2/27_6.odb,Step-1,Increment      1: Step Time =    1.000,"PART-1-1",           568,      -9.14285,      -28.6800,            0.,NA,NA,"",   10.9518E-03,  -10.3218E-03,  -3.66093E-03,   6.76243E-03
C:/temp/dataset/2/27_6.odb,Step-1,Increment      1: Step Time =    1.000,"PART-1-1",           569,      -10.7232,      -27.3047,            0.,NA,NA,"",   20.4235E-03,  -20.2867E-03,  -2.35950E-03,   6.05062E-03
C:/temp/dataset/2/27_6.odb,Step-1,Increment      1: Step Time =    1.000,"PART-1-1",           570,         -10.5,          -30.,            0.,NA,NA,"",            0.,  -7.83185E-39,  -2.81851E-39,   6.09152E-03
C:/temp/dataset/2/27_6.odb,Step-1,Increment      1: Step Time =    1.000,"PART-1-1",           571,      -4.89633,      -27.4366,            0.,NA,NA,"",   14.8915E-03,  -1.62740E-03,  -14.8024E-03,   7.86693E-03
C:/temp/dataset/2/27_6.odb,Step-1,Increment      1: Step Time =    1.000,"PART-1-1",           572,      -6.18287,      -28.7136,            0.,NA,NA,"",   7.47969E-03,  -3.93151E-03,  -6.36310E-03,   7.12443E-03
C:/temp/dataset/2/27_6.odb,Step-1,Increment      1: Step Time =    1.000,"PART-1-1",           573,          -4.5,          -30.,            0.,NA,NA,"",            0.,   106.001E-42,  -11.8545E-39,   5.18339E-03
C:/temp/dataset/2/27_6.odb,Step-1,Increment      1: Step Time =    1.000,"PART-1-1",           574,       12.5384,       2.02620,            0.,NA,NA,"",       4.04051,       1.73548,      -3.64881,   163.111E-06
C:/temp/dataset/2/27_6.odb,Step-1,Increment      1: Step Time =    1.000,"PART-1-1",           575,           15.,       2.29167,            0.,NA,NA,"",       4.39611,       1.74653,      -4.03428,   352.955E-06
C:/temp/dataset/2/27_6.odb,Step-1,Increment      1: Step Time =    1.000,"PART-1-1",           576,       9.96595,       9.83263,            0.,NA,NA,"",       4.47662,       2.97617,      -3.34404,   86.1854E-06
C:/temp/dataset/2/27_6.odb,Step-1,Increment      1: Step Time =    1.000,"PART-1-1",           577,           15.,       19.7917,            0.,NA,NA,"",       6.15552,       4.45830,      -4.24429,   1.13239E-06
C:/temp/dataset/2/27_6.odb,Step-1,Increment      1: Step Time =    1.000,"PART-1-1",           578,       7.90800,       20.1372,            0.,NA,NA,"",       5.57291,       4.59746,      -3.14970,   811.704E-09
C:/temp/dataset/2/27_6.odb,Step-1,Increment      1: Step Time =    1.000,"PART-1-1",           579,       8.41916,       21.3934,            0.,NA,NA,"",       5.78178,       4.78592,      -3.24406,   587.202E-09
C:/temp/dataset/2/27_6.odb,Step-1,Increment      1: Step Time =    1.000,"PART-1-1",           580,       6.50486,       21.1025,            0.,NA,NA,"",       5.60020,       4.76396,      -2.94397,   611.913E-09
C:/temp/dataset/2/27_6.odb,Step-1,Increment      1: Step Time =    1.000,"PART-1-1",           581,           4.5,          -30.,            0.,NA,NA,"",            0.,   2.12412E-39,  -1.80326E-39,   2.05889E-03
C:/temp/dataset/2/27_6.odb,Step-1,Increment      1: Step Time =    1.000,"PART-1-1",           582,       3.62857,      -22.4261,            0.,NA,NA,"",   5.45153E-03,   5.37938E-03,  -883.966E-06,   483.475E-06
C:/temp/dataset/2/27_6.odb,Step-1,Increment      1: Step Time =    1.000,"PART-1-1",           583,       2.16864,      -23.6665,            0.,NA,NA,"",   8.59563E-03,   7.84293E-03,  -3.51756E-03,   1.26324E-03
C:/temp/dataset/2/27_6.odb,Step-1,Increment      1: Step Time =    1.000,"PART-1-1",           584,      -2.73954,      -22.4743,            0.,NA,NA,"",   39.8470E-03,   11.3298E-03,  -38.2023E-03,   8.48822E-03
C:/temp/dataset/2/27_6.odb,Step-1,Increment      1: Step Time =    1.000,"PART-1-1",           585,  -999.676E-03,      -23.6839,            0.,NA,NA,"",   19.8425E-03,   10.4066E-03,  -16.8946E-03,   4.69518E-03
C:/temp/dataset/2/27_6.odb,Step-1,Increment      1: Step Time =    1.000,"PART-1-1",           586,      -7.82572,      -27.3936,            0.,NA,NA,"",   18.3885E-03,  -13.2820E-03,  -12.7172E-03,   7.73372E-03
C:/temp/dataset/2/27_6.odb,Step-1,Increment      1: Step Time =    1.000,"PART-1-1",           587,      -6.52069,      -26.1528,            0.,NA,NA,"",   27.0862E-03,  -10.0305E-03,  -25.1606E-03,   10.7266E-03
C:/temp/dataset/2/27_6.odb,Step-1,Increment      1: Step Time =    1.000,"PART-1-1",           588,      -8.08310,      -24.7829,            0.,NA,NA,"",   36.9799E-03,  -20.4508E-03,  -30.8104E-03,   10.6465E-03
C:/temp/dataset/2/27_6.odb,Step-1,Increment      1: Step Time =    1.000,"PART-1-1",           589,      -9.38814,      -26.0237,            0.,NA,NA,"",   26.9921E-03,  -23.4121E-03,  -13.4330E-03,   8.64223E-03
C:/temp/dataset/2/27_6.odb,Step-1,Increment      1: Step Time =    1.000,"PART-1-1",           590,          -7.5,          -30.,            0.,NA,NA,"",            0.,  -4.68644E-39,  -9.99356E-39,   5.88260E-03
C:/temp/dataset/2/27_6.odb,Step-1,Increment      1: Step Time =    1.000,"PART-1-1",           591,       7.73182,       24.8866,            0.,NA,NA,"",       6.21108,       5.33541,      -3.17975,   94.8394E-09
C:/temp/dataset/2/27_6.odb,Step-1,Increment      1: Step Time =    1.000,"PART-1-1",           592,       8.21760,       26.2797,            0.,NA,NA,"",       6.43865,       5.54539,      -3.27184,   70.5028E-09
C:/temp/dataset/2/27_6.odb,Step-1,Increment      1: Step Time =    1.000,"PART-1-1",           593,       6.12718,       25.7561,            0.,NA,NA,"",       6.22800,       5.48950,      -2.94164,   59.9138E-09
C:/temp/dataset/2/27_6.odb,Step-1,Increment      1: Step Time =    1.000,"PART-1-1",           594,       5.38844,       22.1508,            0.,NA,NA,"",       5.67018,       4.93985,      -2.78366,   170.238E-09
C:/temp/dataset/2/27_6.odb,Step-1,Increment      1: Step Time =    1.000,"PART-1-1",           595,      -3.37677,   775.412E-03,            0.,NA,NA,"",       2.04691,       1.71855,      -1.11194,   13.4731E-03
C:/temp/dataset/2/27_6.odb,Step-1,Increment      1: Step Time =    1.000,"PART-1-1",           596,      -3.41233,       2.84116,            0.,NA,NA,"",       2.32145,       2.01920,      -1.14541,   12.4306E-03
C:/temp/dataset/2/27_6.odb,Step-1,Increment      1: Step Time =    1.000,"PART-1-1",           597,      -11.2482,       24.9673,            0.,NA,NA,"",       5.58227,       5.57710,  -240.144E-03,   5.76786E-09
C:/temp/dataset/2/27_6.odb,Step-1,Increment      1: Step Time =    1.000,"PART-1-1",           598,       5.16292,       24.1270,            0.,NA,NA,"",       5.93604,       5.24875,      -2.77258,   57.0270E-09
C:/temp/dataset/2/27_6.odb,Step-1,Increment      1: Step Time =    1.000,"PART-1-1",           599,            0.,            5.,            0.,NA,NA,"",       2.90830,       2.33321,      -1.73618,   8.95016E-03
C:/temp/dataset/2/27_6.odb,Step-1,Increment      1: Step Time =    1.000,"PART-1-1",           600,      -1.80204,       3.95011,            0.,NA,NA,"",       2.60465,       2.17990,      -1.42558,   11.5309E-03
C:/temp/dataset/2/27_6.odb,Step-1,Increment      1: Step Time =    1.000,"PART-1-1",           601,       9.59799,       22.9228,            0.,NA,NA,"",       6.07912,       5.00864,      -3.44517,   338.920E-09
C:/temp/dataset/2/27_6.odb,Step-1,Increment      1: Step Time =    1.000,"PART-1-1",           602,       8.30932,       22.9391,            0.,NA,NA,"",       5.98352,       5.02672,      -3.24571,   269.833E-09
C:/temp/dataset/2/27_6.odb,Step-1,Increment      1: Step Time =    1.000,"PART-1-1",           603,      -1.93269,      -1.01257,            0.,NA,NA,"",       1.95461,       1.44387,      -1.31747,   11.5243E-03
C:/temp/dataset/2/27_6.odb,Step-1,Increment      1: Step Time =    1.000,"PART-1-1",           604,      -8.69440,      -13.5596,            0.,NA,NA,"",   277.979E-03,   243.084E-03,  -134.843E-03,   14.1883E-03
C:/temp/dataset/2/27_6.odb,Step-1,Increment      1: Step Time =    1.000,"PART-1-1",           605,       6.07991,       2.65614,            0.,NA,NA,"",       3.27110,       1.91227,      -2.65392,   1.33205E-03
C:/temp/dataset/2/27_6.odb,Step-1,Increment      1: Step Time =    1.000,"PART-1-1",           606,       4.75906,       1.28045,            0.,NA,NA,"",       2.97319,       1.71408,      -2.42936,   2.31866E-03
C:/temp/dataset/2/27_6.odb,Step-1,Increment      1: Step Time =    1.000,"PART-1-1",           607,       10.0234,       4.43547,            0.,NA,NA,"",       3.92243,       2.13990,      -3.28729,   271.902E-06
C:/temp/dataset/2/27_6.odb,Step-1,Increment      1: Step Time =    1.000,"PART-1-1",           608,       7.46673,       4.06304,            0.,NA,NA,"",       3.57692,       2.11309,      -2.88603,   495.370E-06
C:/temp/dataset/2/27_6.odb,Step-1,Increment      1: Step Time =    1.000,"PART-1-1",           609,  -317.165E-03,  -486.862E-03,            0.,NA,NA,"",       2.18707,       1.50255,      -1.58922,   8.93960E-03
C:/temp/dataset/2/27_6.odb,Step-1,Increment      1: Step Time =    1.000,"PART-1-1",           610,       1.72730,   921.331E-03,            0.,NA,NA,"",       2.57607,       1.69225,      -1.94227,   6.44676E-03
C:/temp/dataset/2/27_6.odb,Step-1,Increment      1: Step Time =    1.000,"PART-1-1",           611,      -4.63664,      -21.2535,            0.,NA,NA,"",   81.3398E-03,   10.2837E-03,  -80.6871E-03,   22.8674E-03
C:/temp/dataset/2/27_6.odb,Step-1,Increment      1: Step Time =    1.000,"PART-1-1",           612,       11.2827,       3.26092,            0.,NA,NA,"",       3.97551,       1.94252,      -3.46862,   201.608E-06
C:/temp/dataset/2/27_6.odb,Step-1,Increment      1: Step Time =    1.000,"PART-1-1",           613,      -11.4502,      -4.36864,            0.,NA,NA,"",       1.06333,       1.06270,   36.5916E-03,   10.6411E-03
C:/temp/dataset/2/27_6.odb,Step-1,Increment      1: Step Time =    1.000,"PART-1-1",           614,      -10.8693,      -24.5529,            0.,NA,NA,"",   29.9650E-03,  -29.6355E-03,  -4.43139E-03,   7.77285E-03
C:/temp/dataset/2/27_6.odb,Step-1,Increment      1: Step Time =    1.000,"PART-1-1",           615,      -9.52531,      -23.3517,            0.,NA,NA,"",   37.0314E-03,  -26.9257E-03,  -25.4231E-03,   10.4927E-03
C:/temp/dataset/2/27_6.odb,Step-1,Increment      1: Step Time =    1.000,"PART-1-1",           616,      -10.8903,      -21.7518,            0.,NA,NA,"",   21.7964E-03,  -21.1862E-03,  -5.12110E-03,   8.25746E-03
C:/temp/dataset/2/27_6.odb,Step-1,Increment      1: Step Time =    1.000,"PART-1-1",           617,       3.33333,          -20.,            0.,NA,NA,"",   2.03787E-03,   1.16207E-03,  -1.67406E-03,   1.26017E-03
C:/temp/dataset/2/27_6.odb,Step-1,Increment      1: Step Time =    1.000,"PART-1-1",           618,       1.83446,      -21.2108,            0.,NA,NA,"",   5.12224E-03,   2.57991E-03,  -4.42509E-03,   787.712E-06
C:/temp/dataset/2/27_6.odb,Step-1,Increment      1: Step Time =    1.000,"PART-1-1",           619,       5.12744,      -21.2153,            0.,NA,NA,"",   3.84060E-03,   3.80567E-03,   516.819E-06,   385.800E-06
C:/temp/dataset/2/27_6.odb,Step-1,Increment      1: Step Time =    1.000,"PART-1-1",           620,            0.,          -20.,            0.,NA,NA,"",   12.7858E-03,  -4.40275E-03,  -12.0039E-03,   1.36863E-03
C:/temp/dataset/2/27_6.odb,Step-1,Increment      1: Step Time =    1.000,"PART-1-1",           621,      -1.43624,      -21.2208,            0.,NA,NA,"",   24.1645E-03,   3.66547E-03,  -23.8849E-03,   3.81551E-03
C:/temp/dataset/2/27_6.odb,Step-1,Increment      1: Step Time =    1.000,"PART-1-1",           622,   398.228E-03,      -22.4316,            0.,NA,NA,"",   12.2390E-03,   6.85935E-03,  -10.1362E-03,   2.03398E-03
C:/temp/dataset/2/27_6.odb,Step-1,Increment      1: Step Time =    1.000,"PART-1-1",           623,   770.736E-03,      -24.9188,            0.,NA,NA,"",   12.2031E-03,   9.88362E-03,  -7.15743E-03,   2.98088E-03
C:/temp/dataset/2/27_6.odb,Step-1,Increment      1: Step Time =    1.000,"PART-1-1",           624,      -3.33333,          -20.,            0.,NA,NA,"",   45.7719E-03,  -6.37078E-03,  -45.3264E-03,   9.57015E-03
C:/temp/dataset/2/27_6.odb,Step-1,Increment      1: Step Time =    1.000,"PART-1-1",           625,       8.69606,       24.2205,            0.,NA,NA,"",       6.18741,       5.22057,      -3.32110,   185.808E-09
C:/temp/dataset/2/27_6.odb,Step-1,Increment      1: Step Time =    1.000,"PART-1-1",           626,      -3.33333,            5.,            0.,NA,NA,"",       2.63629,       2.34528,      -1.20404,   14.1867E-03
C:/temp/dataset/2/27_6.odb,Step-1,Increment      1: Step Time =    1.000,"PART-1-1",           627,      -4.94363,       3.89105,            0.,NA,NA,"",       2.36568,       2.17712,  -925.522E-03,   13.8915E-03
C:/temp/dataset/2/27_6.odb,Step-1,Increment      1: Step Time =    1.000,"PART-1-1",           628,      -6.66667,            5.,            0.,NA,NA,"",       2.43596,       2.33780,  -684.528E-03,   15.2800E-03
C:/temp/dataset/2/27_6.odb,Step-1,Increment      1: Step Time =    1.000,"PART-1-1",           629,           10.,          -20.,            0.,NA,NA,"",   4.85045E-03,   4.77802E-03,   835.123E-06,   225.214E-06
C:/temp/dataset/2/27_6.odb,Step-1,Increment      1: Step Time =    1.000,"PART-1-1",           630,       8.42239,      -21.2201,            0.,NA,NA,"",   4.59865E-03,   4.43508E-03,   1.21559E-03,   192.454E-06
C:/temp/dataset/2/27_6.odb,Step-1,Increment      1: Step Time =    1.000,"PART-1-1",           631,       6.66667,          -20.,            0.,NA,NA,"",   3.78856E-03,   3.65864E-03,   983.642E-06,   560.462E-06
C:/temp/dataset/2/27_6.odb,Step-1,Increment      1: Step Time =    1.000,"PART-1-1",           632,       9.53008,       25.0675,            0.,NA,NA,"",       6.36470,       5.34173,      -3.46054,   111.757E-09
