ODB Name,Step,Frame,Part Instance Name,    êﬂì_ÉâÉxÉã,X,Y,Z,Section Name,Material Name,Section Point,   U-Magnitude,          U-U1,          U-U2,       S-Mises
C:/temp/dataset/2/29_2.odb,Step-1,Increment      1: Step Time =    1.000,"PART-1-1",             1,          -15.,           20.,            0.,NA,NA,"",       2.40497,       2.38764,   288.227E-03,   467.631E-12
C:/temp/dataset/2/29_2.odb,Step-1,Increment      1: Step Time =    1.000,"PART-1-1",             2,          -15.,           25.,            0.,NA,NA,"",       2.71696,       2.70267,   278.292E-03,   467.841E-12
C:/temp/dataset/2/29_2.odb,Step-1,Increment      1: Step Time =    1.000,"PART-1-1",             3,          -10.,           20.,            0.,NA,NA,"",       2.37785,       2.37770,  -26.8040E-03,   631.128E-12
C:/temp/dataset/2/29_2.odb,Step-1,Increment      1: Step Time =    1.000,"PART-1-1",             4,           -5.,           20.,            0.,NA,NA,"",       2.39232,       2.36777,  -341.835E-03,   812.606E-12
C:/temp/dataset/2/29_2.odb,Step-1,Increment      1: Step Time =    1.000,"PART-1-1",             5,            0.,           20.,            0.,NA,NA,"",       2.44762,       2.35784,  -656.866E-03,   934.467E-12
C:/temp/dataset/2/29_2.odb,Step-1,Increment      1: Step Time =    1.000,"PART-1-1",             6,            5.,           20.,            0.,NA,NA,"",       2.54111,       2.34790,  -971.896E-03,   5.31371E-09
C:/temp/dataset/2/29_2.odb,Step-1,Increment      1: Step Time =    1.000,"PART-1-1",             7,            5.,          12.5,            0.,NA,NA,"",       2.10542,       1.87535,  -956.995E-03,   64.3933E-09
C:/temp/dataset/2/29_2.odb,Step-1,Increment      1: Step Time =    1.000,"PART-1-1",             8,            5.,            5.,            0.,NA,NA,"",       1.68978,       1.40280,  -942.082E-03,   9.60754E-06
C:/temp/dataset/2/29_2.odb,Step-1,Increment      1: Step Time =    1.000,"PART-1-1",             9,           -5.,            5.,            0.,NA,NA,"",       1.45553,       1.42128,  -313.874E-03,   165.530E-06
C:/temp/dataset/2/29_2.odb,Step-1,Increment      1: Step Time =    1.000,"PART-1-1",            10,          -15.,            5.,            0.,NA,NA,"",       1.48265,       1.45094,   304.953E-03,   2.07537E-03
C:/temp/dataset/2/29_2.odb,Step-1,Increment      1: Step Time =    1.000,"PART-1-1",            11,          -15.,         -3.75,            0.,NA,NA,"",   944.033E-03,   892.253E-03,   308.355E-03,   4.92045E-03
C:/temp/dataset/2/29_2.odb,Step-1,Increment      1: Step Time =    1.000,"PART-1-1",            12,          -15.,         -12.5,            0.,NA,NA,"",   453.768E-03,   379.326E-03,   249.032E-03,   14.0246E-03
C:/temp/dataset/2/29_2.odb,Step-1,Increment      1: Step Time =    1.000,"PART-1-1",            13,          -15.,        -21.25,            0.,NA,NA,"",   135.206E-03,   70.7041E-03,   115.245E-03,   18.6803E-03
C:/temp/dataset/2/29_2.odb,Step-1,Increment      1: Step Time =    1.000,"PART-1-1",            14,          -15.,          -30.,            0.,NA,NA,"",            0.,   4.20798E-39,   7.86132E-39,   12.3754E-03
C:/temp/dataset/2/29_2.odb,Step-1,Increment      1: Step Time =    1.000,"PART-1-1",            15,           15.,          -30.,            0.,NA,NA,"",            0.,   982.338E-42,  -1.63581E-39,   2.73704E-03
C:/temp/dataset/2/29_2.odb,Step-1,Increment      1: Step Time =    1.000,"PART-1-1",            16,           15.,          -25.,            0.,NA,NA,"",   11.5971E-03,   10.6272E-03,  -4.64278E-03,   114.513E-06
C:/temp/dataset/2/29_2.odb,Step-1,Increment      1: Step Time =    1.000,"PART-1-1",            17,           15.,          -20.,            0.,NA,NA,"",   17.4061E-03,   16.8128E-03,  -4.50549E-03,   11.5822E-06
C:/temp/dataset/2/29_2.odb,Step-1,Increment      1: Step Time =    1.000,"PART-1-1",            18,            5.,          -20.,            0.,NA,NA,"",   17.4734E-03,   17.4523E-03,   858.992E-06,   538.185E-06
C:/temp/dataset/2/29_2.odb,Step-1,Increment      1: Step Time =    1.000,"PART-1-1",            19,           -5.,          -20.,            0.,NA,NA,"",   84.2118E-03,   51.9847E-03,  -66.2512E-03,   30.2192E-03
C:/temp/dataset/2/29_2.odb,Step-1,Increment      1: Step Time =    1.000,"PART-1-1",            20,           -5.,         -12.5,            0.,NA,NA,"",   421.850E-03,   368.258E-03,  -205.775E-03,   13.6585E-03
C:/temp/dataset/2/29_2.odb,Step-1,Increment      1: Step Time =    1.000,"PART-1-1",            21,           -5.,           -5.,            0.,NA,NA,"",   840.047E-03,   790.264E-03,  -284.891E-03,   5.02893E-03
C:/temp/dataset/2/29_2.odb,Step-1,Increment      1: Step Time =    1.000,"PART-1-1",            22,            0.,           -5.,            0.,NA,NA,"",   990.298E-03,   782.330E-03,  -607.166E-03,   297.095E-06
C:/temp/dataset/2/29_2.odb,Step-1,Increment      1: Step Time =    1.000,"PART-1-1",            23,            5.,           -5.,            0.,NA,NA,"",       1.20324,   772.763E-03,  -922.292E-03,   20.6007E-06
C:/temp/dataset/2/29_2.odb,Step-1,Increment      1: Step Time =    1.000,"PART-1-1",            24,           10.,           -5.,            0.,NA,NA,"",       1.45354,   762.848E-03,      -1.23727,   949.010E-09
C:/temp/dataset/2/29_2.odb,Step-1,Increment      1: Step Time =    1.000,"PART-1-1",            25,           15.,           -5.,            0.,NA,NA,"",       1.72524,   752.913E-03,      -1.55228,   30.2374E-09
C:/temp/dataset/2/29_2.odb,Step-1,Increment      1: Step Time =    1.000,"PART-1-1",            26,           15.,          3.75,            0.,NA,NA,"",       2.04077,       1.30419,      -1.56967,   1.17161E-06
C:/temp/dataset/2/29_2.odb,Step-1,Increment      1: Step Time =    1.000,"PART-1-1",            27,           15.,          12.5,            0.,NA,NA,"",       2.44163,       1.85549,      -1.58706,   69.1013E-09
C:/temp/dataset/2/29_2.odb,Step-1,Increment      1: Step Time =    1.000,"PART-1-1",            28,           15.,         21.25,            0.,NA,NA,"",       2.89255,       2.40679,      -1.60444,   1.98055E-09
C:/temp/dataset/2/29_2.odb,Step-1,Increment      1: Step Time =    1.000,"PART-1-1",            29,           15.,           30.,            0.,NA,NA,"",       3.37352,       2.95809,      -1.62183,   413.756E-12
C:/temp/dataset/2/29_2.odb,Step-1,Increment      1: Step Time =    1.000,"PART-1-1",            30,           7.5,           30.,            0.,NA,NA,"",       3.18740,       2.97300,      -1.14928,   400.309E-12
C:/temp/dataset/2/29_2.odb,Step-1,Increment      1: Step Time =    1.000,"PART-1-1",            31,            0.,           30.,            0.,NA,NA,"",       3.06358,       2.98790,  -676.734E-03,   696.019E-12
C:/temp/dataset/2/29_2.odb,Step-1,Increment      1: Step Time =    1.000,"PART-1-1",            32,          -7.5,           30.,            0.,NA,NA,"",       3.00973,       3.00280,  -204.188E-03,   427.977E-12
C:/temp/dataset/2/29_2.odb,Step-1,Increment      1: Step Time =    1.000,"PART-1-1",            33,          -15.,           30.,            0.,NA,NA,"",       3.02961,       3.01770,   268.358E-03,   482.950E-12
C:/temp/dataset/2/29_2.odb,Step-1,Increment      1: Step Time =    1.000,"PART-1-1",            34,          -15.,          22.5,            0.,NA,NA,"",       2.56087,       2.54515,   283.260E-03,   419.891E-12
C:/temp/dataset/2/29_2.odb,Step-1,Increment      1: Step Time =    1.000,"PART-1-1",            35,         -12.5,           20.,            0.,NA,NA,"",       2.38625,       2.38267,   130.711E-03,   570.362E-12
C:/temp/dataset/2/29_2.odb,Step-1,Increment      1: Step Time =    1.000,"PART-1-1",            36,          -7.5,           20.,            0.,NA,NA,"",       2.37988,       2.37274,  -184.319E-03,   720.920E-12
C:/temp/dataset/2/29_2.odb,Step-1,Increment      1: Step Time =    1.000,"PART-1-1",            37,          -2.5,           20.,            0.,NA,NA,"",       2.41499,       2.36280,  -499.350E-03,   888.934E-12
C:/temp/dataset/2/29_2.odb,Step-1,Increment      1: Step Time =    1.000,"PART-1-1",            38,           2.5,           20.,            0.,NA,NA,"",       2.48982,       2.35287,  -814.381E-03,   1.36207E-09
C:/temp/dataset/2/29_2.odb,Step-1,Increment      1: Step Time =    1.000,"PART-1-1",            39,            5.,           15.,            0.,NA,NA,"",       2.24898,       2.03287,  -961.962E-03,   18.5005E-09
C:/temp/dataset/2/29_2.odb,Step-1,Increment      1: Step Time =    1.000,"PART-1-1",            40,            5.,          17.5,            0.,NA,NA,"",       2.39431,       2.19039,  -966.929E-03,   10.6907E-09
C:/temp/dataset/2/29_2.odb,Step-1,Increment      1: Step Time =    1.000,"PART-1-1",            41,            5.,           7.5,            0.,NA,NA,"",       1.82525,       1.56032,  -947.059E-03,   1.86071E-06
C:/temp/dataset/2/29_2.odb,Step-1,Increment      1: Step Time =    1.000,"PART-1-1",            42,            5.,           10.,            0.,NA,NA,"",       1.96401,       1.71784,  -952.027E-03,   489.797E-09
C:/temp/dataset/2/29_2.odb,Step-1,Increment      1: Step Time =    1.000,"PART-1-1",            43,      -1.66667,            5.,            0.,NA,NA,"",       1.50876,       1.41548,  -522.279E-03,   230.111E-06
C:/temp/dataset/2/29_2.odb,Step-1,Increment      1: Step Time =    1.000,"PART-1-1",            44,       1.66667,            5.,            0.,NA,NA,"",       1.58808,       1.40930,  -732.033E-03,   84.7397E-06
C:/temp/dataset/2/29_2.odb,Step-1,Increment      1: Step Time =    1.000,"PART-1-1",            45,      -11.6667,            5.,            0.,NA,NA,"",       1.44167,       1.43837,   97.5082E-03,   1.79312E-03
C:/temp/dataset/2/29_2.odb,Step-1,Increment      1: Step Time =    1.000,"PART-1-1",            46,      -8.33333,            5.,            0.,NA,NA,"",       1.43226,       1.42819,  -107.828E-03,   702.544E-06
C:/temp/dataset/2/29_2.odb,Step-1,Increment      1: Step Time =    1.000,"PART-1-1",            47,          -15.,  -833.333E-03,            0.,NA,NA,"",       1.12550,       1.08196,   310.055E-03,   3.22610E-03
C:/temp/dataset/2/29_2.odb,Step-1,Increment      1: Step Time =    1.000,"PART-1-1",            48,          -15.,       2.08333,            0.,NA,NA,"",       1.30465,       1.26774,   308.134E-03,   2.09649E-03
C:/temp/dataset/2/29_2.odb,Step-1,Increment      1: Step Time =    1.000,"PART-1-1",            49,          -15.,      -9.58333,            0.,NA,NA,"",   602.343E-03,   534.529E-03,   277.661E-03,   10.8658E-03
C:/temp/dataset/2/29_2.odb,Step-1,Increment      1: Step Time =    1.000,"PART-1-1",            50,          -15.,      -6.66667,            0.,NA,NA,"",   766.307E-03,   706.385E-03,   297.064E-03,   7.86486E-03
C:/temp/dataset/2/29_2.odb,Step-1,Increment      1: Step Time =    1.000,"PART-1-1",            51,          -15.,      -18.3333,            0.,NA,NA,"",   217.531E-03,   141.905E-03,   164.872E-03,   18.9294E-03
C:/temp/dataset/2/29_2.odb,Step-1,Increment      1: Step Time =    1.000,"PART-1-1",            52,          -15.,      -15.4167,            0.,NA,NA,"",   324.343E-03,   246.298E-03,   211.035E-03,   17.1674E-03
C:/temp/dataset/2/29_2.odb,Step-1,Increment      1: Step Time =    1.000,"PART-1-1",            53,          -15.,      -27.0833,            0.,NA,NA,"",   33.7746E-03,   12.5929E-03,   31.3391E-03,   13.8031E-03
C:/temp/dataset/2/29_2.odb,Step-1,Increment      1: Step Time =    1.000,"PART-1-1",            54,          -15.,      -24.1667,            0.,NA,NA,"",   76.0256E-03,   30.5627E-03,   69.6118E-03,   16.1112E-03
C:/temp/dataset/2/29_2.odb,Step-1,Increment      1: Step Time =    1.000,"PART-1-1",            55,           12.,          -30.,            0.,NA,NA,"",            0.,   2.39435E-39,  -2.06362E-39,   1.24895E-03
C:/temp/dataset/2/29_2.odb,Step-1,Increment      1: Step Time =    1.000,"PART-1-1",            56,            9.,          -30.,            0.,NA,NA,"",            0.,   2.12760E-39,   284.479E-42,   1.79253E-03
C:/temp/dataset/2/29_2.odb,Step-1,Increment      1: Step Time =    1.000,"PART-1-1",            57,            6.,          -30.,            0.,NA,NA,"",            0.,   3.83100E-39,  -3.50527E-39,   2.41719E-03
C:/temp/dataset/2/29_2.odb,Step-1,Increment      1: Step Time =    1.000,"PART-1-1",            58,            3.,          -30.,            0.,NA,NA,"",            0.,   3.69437E-39,  -1.70547E-39,   3.24023E-03
C:/temp/dataset/2/29_2.odb,Step-1,Increment      1: Step Time =    1.000,"PART-1-1",            59,            0.,          -30.,            0.,NA,NA,"",            0.,   6.00479E-39,  -8.40472E-39,   3.92191E-03
C:/temp/dataset/2/29_2.odb,Step-1,Increment      1: Step Time =    1.000,"PART-1-1",            60,           -3.,          -30.,            0.,NA,NA,"",            0.,   4.62683E-39,  -10.0310E-39,   3.76330E-03
C:/temp/dataset/2/29_2.odb,Step-1,Increment      1: Step Time =    1.000,"PART-1-1",            61,           -6.,          -30.,            0.,NA,NA,"",            0.,   224.279E-42,  -6.46549E-39,   2.71898E-03
C:/temp/dataset/2/29_2.odb,Step-1,Increment      1: Step Time =    1.000,"PART-1-1",            62,           -9.,          -30.,            0.,NA,NA,"",            0.,  -4.07846E-39,  -336.114E-42,   3.14482E-03
C:/temp/dataset/2/29_2.odb,Step-1,Increment      1: Step Time =    1.000,"PART-1-1",            63,          -12.,          -30.,            0.,NA,NA,"",            0.,   1.62508E-39,   14.3747E-39,   5.99563E-03
C:/temp/dataset/2/29_2.odb,Step-1,Increment      1: Step Time =    1.000,"PART-1-1",            64,           15.,         -27.5,            0.,NA,NA,"",   7.15393E-03,   5.99241E-03,  -3.90766E-03,   976.835E-06
C:/temp/dataset/2/29_2.odb,Step-1,Increment      1: Step Time =    1.000,"PART-1-1",            65,           15.,         -22.5,            0.,NA,NA,"",   14.8241E-03,   14.0990E-03,  -4.57964E-03,   66.6728E-06
C:/temp/dataset/2/29_2.odb,Step-1,Increment      1: Step Time =    1.000,"PART-1-1",            66,       8.33333,          -20.,            0.,NA,NA,"",   16.7058E-03,   16.6815E-03,   900.158E-06,   111.607E-06
C:/temp/dataset/2/29_2.odb,Step-1,Increment      1: Step Time =    1.000,"PART-1-1",            67,       11.6667,          -20.,            0.,NA,NA,"",   16.7097E-03,   16.6719E-03,  -1.12305E-03,   68.6650E-06
C:/temp/dataset/2/29_2.odb,Step-1,Increment      1: Step Time =    1.000,"PART-1-1",            68,      -1.66667,          -20.,            0.,NA,NA,"",   29.1532E-03,   23.7301E-03,  -16.9349E-03,   6.54881E-03
C:/temp/dataset/2/29_2.odb,Step-1,Increment      1: Step Time =    1.000,"PART-1-1",            69,       1.66667,          -20.,            0.,NA,NA,"",   19.7296E-03,   19.4625E-03,  -3.23552E-03,   1.17586E-03
C:/temp/dataset/2/29_2.odb,Step-1,Increment      1: Step Time =    1.000,"PART-1-1",            70,           -5.,          -15.,            0.,NA,NA,"",   304.666E-03,   252.995E-03,  -169.749E-03,   15.8290E-03
C:/temp/dataset/2/29_2.odb,Step-1,Increment      1: Step Time =    1.000,"PART-1-1",            71,           -5.,         -17.5,            0.,NA,NA,"",   199.333E-03,   150.456E-03,  -130.754E-03,   21.5927E-03
C:/temp/dataset/2/29_2.odb,Step-1,Increment      1: Step Time =    1.000,"PART-1-1",            72,           -5.,          -7.5,            0.,NA,NA,"",   691.385E-03,   639.683E-03,  -262.335E-03,   8.66628E-03
C:/temp/dataset/2/29_2.odb,Step-1,Increment      1: Step Time =    1.000,"PART-1-1",            73,           -5.,          -10.,            0.,NA,NA,"",   551.276E-03,   497.912E-03,  -236.619E-03,   11.0182E-03
C:/temp/dataset/2/29_2.odb,Step-1,Increment      1: Step Time =    1.000,"PART-1-1",            74,          -2.5,           -5.,            0.,NA,NA,"",   905.577E-03,   786.607E-03,  -448.686E-03,   957.951E-06
C:/temp/dataset/2/29_2.odb,Step-1,Increment      1: Step Time =    1.000,"PART-1-1",            75,           2.5,           -5.,            0.,NA,NA,"",       1.09074,   777.658E-03,  -764.821E-03,   57.7374E-06
C:/temp/dataset/2/29_2.odb,Step-1,Increment      1: Step Time =    1.000,"PART-1-1",            76,           7.5,           -5.,            0.,NA,NA,"",       1.32494,   767.815E-03,      -1.07978,   1.93079E-06
C:/temp/dataset/2/29_2.odb,Step-1,Increment      1: Step Time =    1.000,"PART-1-1",            77,          12.5,           -5.,            0.,NA,NA,"",       1.58738,   757.880E-03,      -1.39477,   506.178E-09
C:/temp/dataset/2/29_2.odb,Step-1,Increment      1: Step Time =    1.000,"PART-1-1",            78,           15.,   833.333E-03,            0.,NA,NA,"",       1.92381,       1.12042,      -1.56387,   1.12356E-06
C:/temp/dataset/2/29_2.odb,Step-1,Increment      1: Step Time =    1.000,"PART-1-1",            79,           15.,      -2.08333,            0.,NA,NA,"",       1.81795,   936.668E-03,      -1.55807,   527.860E-09
C:/temp/dataset/2/29_2.odb,Step-1,Increment      1: Step Time =    1.000,"PART-1-1",            80,           15.,       9.58333,            0.,NA,NA,"",       2.30109,       1.67172,      -1.58126,   307.686E-09
C:/temp/dataset/2/29_2.odb,Step-1,Increment      1: Step Time =    1.000,"PART-1-1",            81,           15.,       6.66667,            0.,NA,NA,"",       2.16705,       1.48795,      -1.57546,   784.158E-09
C:/temp/dataset/2/29_2.odb,Step-1,Increment      1: Step Time =    1.000,"PART-1-1",            82,           15.,       18.3333,            0.,NA,NA,"",       2.73816,       2.22302,      -1.59865,   3.97202E-09
C:/temp/dataset/2/29_2.odb,Step-1,Increment      1: Step Time =    1.000,"PART-1-1",            83,           15.,       15.4167,            0.,NA,NA,"",       2.58761,       2.03925,      -1.59285,   4.85709E-09
C:/temp/dataset/2/29_2.odb,Step-1,Increment      1: Step Time =    1.000,"PART-1-1",            84,           15.,       27.0833,            0.,NA,NA,"",       3.21068,       2.77433,      -1.61603,   343.219E-12
C:/temp/dataset/2/29_2.odb,Step-1,Increment      1: Step Time =    1.000,"PART-1-1",            85,           15.,       24.1667,            0.,NA,NA,"",       3.05022,       2.59056,      -1.61024,   552.751E-12
C:/temp/dataset/2/29_2.odb,Step-1,Increment      1: Step Time =    1.000,"PART-1-1",            86,           10.,           30.,            0.,NA,NA,"",       3.24298,       2.96803,      -1.30680,   413.486E-12
C:/temp/dataset/2/29_2.odb,Step-1,Increment      1: Step Time =    1.000,"PART-1-1",            87,          12.5,           30.,            0.,NA,NA,"",       3.30514,       2.96306,      -1.46431,   475.751E-12
C:/temp/dataset/2/29_2.odb,Step-1,Increment      1: Step Time =    1.000,"PART-1-1",            88,           2.5,           30.,            0.,NA,NA,"",       3.09739,       2.98293,  -834.249E-03,   749.435E-12
C:/temp/dataset/2/29_2.odb,Step-1,Increment      1: Step Time =    1.000,"PART-1-1",            89,            5.,           30.,            0.,NA,NA,"",       3.13877,       2.97796,  -991.765E-03,   609.609E-12
C:/temp/dataset/2/29_2.odb,Step-1,Increment      1: Step Time =    1.000,"PART-1-1",            90,           -5.,           30.,            0.,NA,NA,"",       3.01957,       2.99783,  -361.703E-03,   487.496E-12
C:/temp/dataset/2/29_2.odb,Step-1,Increment      1: Step Time =    1.000,"PART-1-1",            91,          -2.5,           30.,            0.,NA,NA,"",       3.03757,       2.99286,  -519.219E-03,   581.692E-12
C:/temp/dataset/2/29_2.odb,Step-1,Increment      1: Step Time =    1.000,"PART-1-1",            92,         -12.5,           30.,            0.,NA,NA,"",       3.01477,       3.01273,   110.843E-03,   409.946E-12
C:/temp/dataset/2/29_2.odb,Step-1,Increment      1: Step Time =    1.000,"PART-1-1",            93,          -10.,           30.,            0.,NA,NA,"",       3.00813,       3.00777,  -46.6726E-03,   403.009E-12
C:/temp/dataset/2/29_2.odb,Step-1,Increment      1: Step Time =    1.000,"PART-1-1",            94,          -15.,          27.5,            0.,NA,NA,"",       2.87321,       2.86018,   273.325E-03,   537.708E-12
C:/temp/dataset/2/29_2.odb,Step-1,Increment      1: Step Time =    1.000,"PART-1-1",            95,      -12.4978,       24.9766,            0.,NA,NA,"",       2.69892,       2.69622,   120.683E-03,   491.694E-12
C:/temp/dataset/2/29_2.odb,Step-1,Increment      1: Step Time =    1.000,"PART-1-1",            96,      -7.49872,       27.4475,            0.,NA,NA,"",       2.84895,       2.84198,  -199.198E-03,   407.215E-12
C:/temp/dataset/2/29_2.odb,Step-1,Increment      1: Step Time =    1.000,"PART-1-1",            97,      -7.50661,       22.4446,            0.,NA,NA,"",       2.53381,       2.52677,  -188.760E-03,   579.743E-12
C:/temp/dataset/2/29_2.odb,Step-1,Increment      1: Step Time =    1.000,"PART-1-1",            98,      -2.53392,       22.4091,            0.,NA,NA,"",       2.56428,       2.51466,  -501.999E-03,   667.876E-12
C:/temp/dataset/2/29_2.odb,Step-1,Increment      1: Step Time =    1.000,"PART-1-1",            99,  -19.7467E-03,       27.3919,            0.,NA,NA,"",       2.90209,       2.82361,  -670.308E-03,   427.161E-12
C:/temp/dataset/2/29_2.odb,Step-1,Increment      1: Step Time =    1.000,"PART-1-1",           100,       2.31326,       22.2671,            0.,NA,NA,"",       2.62333,       2.49608,  -807.120E-03,   1.09716E-09
C:/temp/dataset/2/29_2.odb,Step-1,Increment      1: Step Time =    1.000,"PART-1-1",           101,       7.89882,       27.4278,            0.,NA,NA,"",       3.04370,       2.81014,      -1.16930,   723.045E-12
C:/temp/dataset/2/29_2.odb,Step-1,Increment      1: Step Time =    1.000,"PART-1-1",           102,       6.74061,       20.0564,            0.,NA,NA,"",       2.58517,       2.34800,      -1.08168,   2.93280E-09
C:/temp/dataset/2/29_2.odb,Step-1,Increment      1: Step Time =    1.000,"PART-1-1",           103,       6.76082,       17.7755,            0.,NA,NA,"",       2.45391,       2.20424,      -1.07842,   3.42988E-09
C:/temp/dataset/2/29_2.odb,Step-1,Increment      1: Step Time =    1.000,"PART-1-1",           104,       7.34933,       13.0959,            0.,NA,NA,"",       2.20568,       1.90823,      -1.10620,   109.800E-09
C:/temp/dataset/2/29_2.odb,Step-1,Increment      1: Step Time =    1.000,"PART-1-1",           105,       12.5251,      -2.17932,            0.,NA,NA,"",       1.68544,   935.537E-03,      -1.40196,   622.601E-09
C:/temp/dataset/2/29_2.odb,Step-1,Increment      1: Step Time =    1.000,"PART-1-1",           106,       11.8446,      -24.9441,            0.,NA,NA,"",   10.7521E-03,   10.6903E-03,  -1.15165E-03,   765.425E-06
C:/temp/dataset/2/29_2.odb,Step-1,Increment      1: Step Time =    1.000,"PART-1-1",           107,       2.44158,      -2.66949,            0.,NA,NA,"",       1.20063,   924.696E-03,  -765.802E-03,   67.7632E-06
C:/temp/dataset/2/29_2.odb,Step-1,Increment      1: Step Time =    1.000,"PART-1-1",           108,       7.46163,      -2.37632,            0.,NA,NA,"",       1.42926,   933.186E-03,      -1.08257,   7.30816E-06
C:/temp/dataset/2/29_2.odb,Step-1,Increment      1: Step Time =    1.000,"PART-1-1",           109,       7.48217,       7.95809,            0.,NA,NA,"",       1.93119,       1.58426,      -1.10436,   1.22723E-06
C:/temp/dataset/2/29_2.odb,Step-1,Increment      1: Step Time =    1.000,"PART-1-1",           110,      -5.01446,       22.4347,            0.,NA,NA,"",       2.54480,       2.52120,  -345.761E-03,   621.027E-12
C:/temp/dataset/2/29_2.odb,Step-1,Increment      1: Step Time =    1.000,"PART-1-1",           111,  -75.1424E-03,       22.3615,            0.,NA,NA,"",       2.59140,       2.50677,  -656.823E-03,   763.917E-12
C:/temp/dataset/2/29_2.odb,Step-1,Increment      1: Step Time =    1.000,"PART-1-1",           112,       4.50776,       22.1530,            0.,NA,NA,"",       2.65824,       2.48453,  -945.160E-03,   1.39781E-09
C:/temp/dataset/2/29_2.odb,Step-1,Increment      1: Step Time =    1.000,"PART-1-1",           113,       7.06405,       15.4904,            0.,NA,NA,"",       2.33171,       2.05967,      -1.09298,   22.7488E-09
C:/temp/dataset/2/29_2.odb,Step-1,Increment      1: Step Time =    1.000,"PART-1-1",           114,       7.46285,       10.5556,            0.,NA,NA,"",       2.06971,       1.74795,      -1.10831,   338.384E-09
C:/temp/dataset/2/29_2.odb,Step-1,Increment      1: Step Time =    1.000,"PART-1-1",           115,      -2.89738,      -2.05905,            0.,NA,NA,"",       1.06488,   974.039E-03,  -430.357E-03,   552.999E-06
C:/temp/dataset/2/29_2.odb,Step-1,Increment      1: Step Time =    1.000,"PART-1-1",           116,      -7.61206,      -10.6629,            0.,NA,NA,"",   465.219E-03,   455.504E-03,  -94.5774E-03,   6.81440E-03
C:/temp/dataset/2/29_2.odb,Step-1,Increment      1: Step Time =    1.000,"PART-1-1",           117,      -6.85891,      -17.7385,            0.,NA,NA,"",   148.240E-03,   133.465E-03,  -64.5145E-03,   14.8825E-03
C:/temp/dataset/2/29_2.odb,Step-1,Increment      1: Step Time =    1.000,"PART-1-1",           118,       11.9280,      -27.4687,            0.,NA,NA,"",   5.76036E-03,   5.68605E-03,  -922.274E-06,   1.48302E-03
C:/temp/dataset/2/29_2.odb,Step-1,Increment      1: Step Time =    1.000,"PART-1-1",           119,      -7.44747,      -13.1413,            0.,NA,NA,"",   338.795E-03,   328.067E-03,  -84.5825E-03,   8.17220E-03
C:/temp/dataset/2/29_2.odb,Step-1,Increment      1: Step Time =    1.000,"PART-1-1",           120,      -7.13169,      -15.4658,            0.,NA,NA,"",   235.570E-03,   222.683E-03,  -76.8470E-03,   10.8049E-03
C:/temp/dataset/2/29_2.odb,Step-1,Increment      1: Step Time =    1.000,"PART-1-1",           121,      -8.02089,      -5.87394,            0.,NA,NA,"",   743.443E-03,   736.913E-03,  -98.3152E-03,   5.12407E-03
C:/temp/dataset/2/29_2.odb,Step-1,Increment      1: Step Time =    1.000,"PART-1-1",           122,      -7.74476,      -8.18529,            0.,NA,NA,"",   604.816E-03,   596.087E-03,  -102.386E-03,   5.49161E-03
C:/temp/dataset/2/29_2.odb,Step-1,Increment      1: Step Time =    1.000,"PART-1-1",           123,  -21.3834E-03,      -2.74811,            0.,NA,NA,"",       1.10806,   924.723E-03,  -610.472E-03,   185.318E-06
C:/temp/dataset/2/29_2.odb,Step-1,Increment      1: Step Time =    1.000,"PART-1-1",           124,       4.94012,      -2.49525,            0.,NA,NA,"",       1.31114,   930.711E-03,  -923.503E-03,   26.4162E-06
C:/temp/dataset/2/29_2.odb,Step-1,Increment      1: Step Time =    1.000,"PART-1-1",           125,       10.0127,      -2.27482,            0.,NA,NA,"",       1.55550,   934.512E-03,      -1.24348,   1.28348E-06
C:/temp/dataset/2/29_2.odb,Step-1,Increment      1: Step Time =    1.000,"PART-1-1",           126,       10.2967,       27.4669,            0.,NA,NA,"",       3.10283,       2.80784,      -1.32046,   502.787E-12
C:/temp/dataset/2/29_2.odb,Step-1,Increment      1: Step Time =    1.000,"PART-1-1",           127,       12.6750,       27.3103,            0.,NA,NA,"",       3.15644,       2.79324,      -1.46999,   398.176E-12
C:/temp/dataset/2/29_2.odb,Step-1,Increment      1: Step Time =    1.000,"PART-1-1",           128,       2.52543,       27.2659,            0.,NA,NA,"",       2.93073,       2.81062,  -830.420E-03,   493.838E-12
C:/temp/dataset/2/29_2.odb,Step-1,Increment      1: Step Time =    1.000,"PART-1-1",           129,       5.32711,       26.8707,            0.,NA,NA,"",       2.95661,       2.78015,      -1.00616,   722.843E-12
C:/temp/dataset/2/29_2.odb,Step-1,Increment      1: Step Time =    1.000,"PART-1-1",           130,      -5.00948,       27.4462,            0.,NA,NA,"",       2.85920,       2.83694,  -356.032E-03,   400.242E-12
C:/temp/dataset/2/29_2.odb,Step-1,Increment      1: Step Time =    1.000,"PART-1-1",           131,      -2.51658,       27.4324,            0.,NA,NA,"",       2.87723,       2.83112,  -513.072E-03,   407.535E-12
C:/temp/dataset/2/29_2.odb,Step-1,Increment      1: Step Time =    1.000,"PART-1-1",           132,      -9.99211,       27.4668,            0.,NA,NA,"",       2.84845,       2.84814,  -42.1367E-03,   421.050E-12
C:/temp/dataset/2/29_2.odb,Step-1,Increment      1: Step Time =    1.000,"PART-1-1",           133,       12.5029,       21.6680,            0.,NA,NA,"",       2.83563,       2.43809,      -1.44794,   1.90991E-09
C:/temp/dataset/2/29_2.odb,Step-1,Increment      1: Step Time =    1.000,"PART-1-1",           134,      -12.7198,      -9.27859,            0.,NA,NA,"",   562.573E-03,   540.163E-03,   157.203E-03,   6.60234E-03
C:/temp/dataset/2/29_2.odb,Step-1,Increment      1: Step Time =    1.000,"PART-1-1",           135,      -12.2206,      -21.4876,            0.,NA,NA,"",   76.6930E-03,   48.4343E-03,   59.4638E-03,   9.46638E-03
C:/temp/dataset/2/29_2.odb,Step-1,Increment      1: Step Time =    1.000,"PART-1-1",           136,       12.4390,       11.8581,            0.,NA,NA,"",       2.31124,       1.82013,      -1.42442,   148.753E-09
C:/temp/dataset/2/29_2.odb,Step-1,Increment      1: Step Time =    1.000,"PART-1-1",           137,      -12.6285,      -12.0158,            0.,NA,NA,"",   414.831E-03,   390.092E-03,   141.114E-03,   7.82884E-03
C:/temp/dataset/2/29_2.odb,Step-1,Increment      1: Step Time =    1.000,"PART-1-1",           138,      -12.4213,      -14.8709,            0.,NA,NA,"",   278.338E-03,   252.872E-03,   116.309E-03,   8.70052E-03
C:/temp/dataset/2/29_2.odb,Step-1,Increment      1: Step Time =    1.000,"PART-1-1",           139,       12.2989,       14.8029,            0.,NA,NA,"",       2.45853,       2.00595,      -1.42145,   37.3235E-09
C:/temp/dataset/2/29_2.odb,Step-1,Increment      1: Step Time =    1.000,"PART-1-1",           140,       11.7182,       18.2155,            0.,NA,NA,"",       2.62192,       2.22212,      -1.39164,   3.09426E-09
C:/temp/dataset/2/29_2.odb,Step-1,Increment      1: Step Time =    1.000,"PART-1-1",           141,      -12.3380,      -4.01281,            0.,NA,NA,"",   876.003E-03,   864.014E-03,   144.433E-03,   4.94956E-03
C:/temp/dataset/2/29_2.odb,Step-1,Increment      1: Step Time =    1.000,"PART-1-1",           142,       12.5089,       6.21106,            0.,NA,NA,"",       2.03801,       1.46419,      -1.41761,   421.980E-09
C:/temp/dataset/2/29_2.odb,Step-1,Increment      1: Step Time =    1.000,"PART-1-1",           143,      -10.9765,      -1.21375,            0.,NA,NA,"",       1.04354,       1.04167,   62.3023E-03,   3.72132E-03
C:/temp/dataset/2/29_2.odb,Step-1,Increment      1: Step Time =    1.000,"PART-1-1",           144,      -11.4273,       2.02370,            0.,NA,NA,"",       1.25375,       1.25079,   86.1921E-03,   2.09491E-03
C:/temp/dataset/2/29_2.odb,Step-1,Increment      1: Step Time =    1.000,"PART-1-1",           145,      -12.7154,      -6.64001,            0.,NA,NA,"",   716.867E-03,   697.902E-03,   163.802E-03,   5.24874E-03
C:/temp/dataset/2/29_2.odb,Step-1,Increment      1: Step Time =    1.000,"PART-1-1",           146,      -11.7762,      -18.1315,            0.,NA,NA,"",   146.931E-03,   126.894E-03,   74.0727E-03,   8.08117E-03
C:/temp/dataset/2/29_2.odb,Step-1,Increment      1: Step Time =    1.000,"PART-1-1",           147,      -12.2481,      -24.4184,            0.,NA,NA,"",   38.9866E-03,   13.2962E-03,   36.6492E-03,   8.97305E-03
C:/temp/dataset/2/29_2.odb,Step-1,Increment      1: Step Time =    1.000,"PART-1-1",           148,       12.5340,       3.42208,            0.,NA,NA,"",       1.91270,       1.28842,      -1.41365,   165.807E-09
C:/temp/dataset/2/29_2.odb,Step-1,Increment      1: Step Time =    1.000,"PART-1-1",           149,       12.5428,   630.306E-03,            0.,NA,NA,"",       1.79499,       1.11251,      -1.40865,   389.006E-09
C:/temp/dataset/2/29_2.odb,Step-1,Increment      1: Step Time =    1.000,"PART-1-1",           150,       12.5001,       9.03097,            0.,NA,NA,"",       2.17249,       1.64188,      -1.42265,   380.325E-09
C:/temp/dataset/2/29_2.odb,Step-1,Increment      1: Step Time =    1.000,"PART-1-1",           151,       12.7192,       24.5718,            0.,NA,NA,"",       3.00345,       2.62062,      -1.46733,   509.548E-12
C:/temp/dataset/2/29_2.odb,Step-1,Increment      1: Step Time =    1.000,"PART-1-1",           152,       2.66783,      -27.4286,            0.,NA,NA,"",   10.4161E-03,   10.2015E-03,  -2.10343E-03,   2.91942E-03
C:/temp/dataset/2/29_2.odb,Step-1,Increment      1: Step Time =    1.000,"PART-1-1",           153,       8.86089,      -27.4494,            0.,NA,NA,"",   6.56276E-03,   6.55550E-03,  -308.640E-06,   1.65811E-03
C:/temp/dataset/2/29_2.odb,Step-1,Increment      1: Step Time =    1.000,"PART-1-1",           154,       5.76511,      -27.4328,            0.,NA,NA,"",   8.33566E-03,   8.30958E-03,  -658.849E-06,   2.15166E-03
C:/temp/dataset/2/29_2.odb,Step-1,Increment      1: Step Time =    1.000,"PART-1-1",           155,  -414.647E-03,      -27.4330,            0.,NA,NA,"",   11.9592E-03,   10.7621E-03,  -5.21520E-03,   4.18245E-03
C:/temp/dataset/2/29_2.odb,Step-1,Increment      1: Step Time =    1.000,"PART-1-1",           156,      -3.42691,      -27.4460,            0.,NA,NA,"",   11.3550E-03,   7.42932E-03,  -8.58734E-03,   5.44396E-03
C:/temp/dataset/2/29_2.odb,Step-1,Increment      1: Step Time =    1.000,"PART-1-1",           157,      -6.36574,      -27.4272,            0.,NA,NA,"",   7.21369E-03,   585.291E-06,  -7.18991E-03,   4.63719E-03
C:/temp/dataset/2/29_2.odb,Step-1,Increment      1: Step Time =    1.000,"PART-1-1",           158,       10.5238,       25.0033,            0.,NA,NA,"",       2.96691,       2.65217,      -1.32987,   886.145E-12
C:/temp/dataset/2/29_2.odb,Step-1,Increment      1: Step Time =    1.000,"PART-1-1",           159,       6.26912,       22.1485,            0.,NA,NA,"",       2.69621,       2.48075,      -1.05613,   2.19474E-09
C:/temp/dataset/2/29_2.odb,Step-1,Increment      1: Step Time =    1.000,"PART-1-1",           160,      -5.96402,      -2.70245,            0.,NA,NA,"",   966.476E-03,   937.560E-03,  -234.642E-03,   2.83819E-03
C:/temp/dataset/2/29_2.odb,Step-1,Increment      1: Step Time =    1.000,"PART-1-1",           161,      -12.5033,       22.4816,            0.,NA,NA,"",       2.54216,       2.53904,   125.986E-03,   497.470E-12
C:/temp/dataset/2/29_2.odb,Step-1,Increment      1: Step Time =    1.000,"PART-1-1",           162,      -2.53325,       24.9024,            0.,NA,NA,"",       2.71943,       2.67175,  -506.996E-03,   485.137E-12
C:/temp/dataset/2/29_2.odb,Step-1,Increment      1: Step Time =    1.000,"PART-1-1",           163,       4.43197,       24.4161,            0.,NA,NA,"",       2.79202,       2.62727,  -944.881E-03,   859.783E-12
C:/temp/dataset/2/29_2.odb,Step-1,Increment      1: Step Time =    1.000,"PART-1-1",           164,      -10.2797,      -8.84555,            0.,NA,NA,"",   559.589E-03,   558.667E-03,   32.1169E-03,   4.79862E-03
C:/temp/dataset/2/29_2.odb,Step-1,Increment      1: Step Time =    1.000,"PART-1-1",           165,       2.21534,  -332.134E-03,            0.,NA,NA,"",       1.31225,       1.07253,  -756.098E-03,   81.6858E-06
C:/temp/dataset/2/29_2.odb,Step-1,Increment      1: Step Time =    1.000,"PART-1-1",           166,  -74.2209E-03,       24.8536,            0.,NA,NA,"",       2.74477,       2.66379,  -661.833E-03,   489.031E-12
C:/temp/dataset/2/29_2.odb,Step-1,Increment      1: Step Time =    1.000,"PART-1-1",           167,       2.30693,       24.7164,            0.,NA,NA,"",       2.77189,       2.65041,  -811.587E-03,   614.601E-12
C:/temp/dataset/2/29_2.odb,Step-1,Increment      1: Step Time =    1.000,"PART-1-1",           168,       9.79368,       13.9045,            0.,NA,NA,"",       2.32628,       1.95433,      -1.26182,   77.8165E-09
C:/temp/dataset/2/29_2.odb,Step-1,Increment      1: Step Time =    1.000,"PART-1-1",           169,       9.30777,       16.4521,            0.,NA,NA,"",       2.45050,       2.11580,      -1.23626,   13.5449E-09
C:/temp/dataset/2/29_2.odb,Step-1,Increment      1: Step Time =    1.000,"PART-1-1",           170,      -2.35985,       1.11806,            0.,NA,NA,"",       1.26414,       1.17318,  -470.832E-03,   126.811E-06
C:/temp/dataset/2/29_2.odb,Step-1,Increment      1: Step Time =    1.000,"PART-1-1",           171,      -9.94133,      -13.9778,            0.,NA,NA,"",   287.223E-03,   286.330E-03,   22.6294E-03,   4.81628E-03
C:/temp/dataset/2/29_2.odb,Step-1,Increment      1: Step Time =    1.000,"PART-1-1",           172,       4.80988,   33.7751E-03,            0.,NA,NA,"",       1.42680,       1.09034,  -920.275E-03,   31.6576E-06
C:/temp/dataset/2/29_2.odb,Step-1,Increment      1: Step Time =    1.000,"PART-1-1",           173,       9.94126,       11.1894,            0.,NA,NA,"",       2.18655,       1.78296,      -1.26572,   233.596E-09
C:/temp/dataset/2/29_2.odb,Step-1,Increment      1: Step Time =    1.000,"PART-1-1",           174,       7.43598,   226.782E-03,            0.,NA,NA,"",       1.54389,       1.09725,      -1.08611,   8.76530E-06
C:/temp/dataset/2/29_2.odb,Step-1,Increment      1: Step Time =    1.000,"PART-1-1",           175,      -7.50368,       24.9336,            0.,NA,NA,"",       2.69059,       2.68359,  -193.890E-03,   479.919E-12
C:/temp/dataset/2/29_2.odb,Step-1,Increment      1: Step Time =    1.000,"PART-1-1",           176,      -10.1536,      -11.3797,            0.,NA,NA,"",   417.702E-03,   416.699E-03,   28.9296E-03,   4.78149E-03
C:/temp/dataset/2/29_2.odb,Step-1,Increment      1: Step Time =    1.000,"PART-1-1",           177,       6.92724,       24.6415,            0.,NA,NA,"",       2.85776,       2.63651,      -1.10255,   1.15286E-09
C:/temp/dataset/2/29_2.odb,Step-1,Increment      1: Step Time =    1.000,"PART-1-1",           178,      -9.99868,       24.9580,            0.,NA,NA,"",       2.69034,       2.69009,  -36.7381E-03,   485.126E-12
C:/temp/dataset/2/29_2.odb,Step-1,Increment      1: Step Time =    1.000,"PART-1-1",           179,       8.37028,       18.0705,            0.,NA,NA,"",       2.51399,       2.21963,      -1.18041,   4.84549E-09
C:/temp/dataset/2/29_2.odb,Step-1,Increment      1: Step Time =    1.000,"PART-1-1",           180,      -10.4068,      -6.54987,            0.,NA,NA,"",   698.366E-03,   697.441E-03,   35.9416E-03,   4.92245E-03
C:/temp/dataset/2/29_2.odb,Step-1,Increment      1: Step Time =    1.000,"PART-1-1",           181,      -8.52723,      -17.8680,            0.,NA,NA,"",   126.497E-03,   125.551E-03,  -15.4443E-03,   6.94319E-03
C:/temp/dataset/2/29_2.odb,Step-1,Increment      1: Step Time =    1.000,"PART-1-1",           182,       9.99063,       8.47585,            0.,NA,NA,"",       2.04804,       1.61189,      -1.26344,   624.681E-09
C:/temp/dataset/2/29_2.odb,Step-1,Increment      1: Step Time =    1.000,"PART-1-1",           183,      -6.87511,      -22.3968,            0.,NA,NA,"",   39.7758E-03,   26.1186E-03,  -29.9989E-03,   8.58557E-03
C:/temp/dataset/2/29_2.odb,Step-1,Increment      1: Step Time =    1.000,"PART-1-1",           184,       7.48189,       5.34092,            0.,NA,NA,"",       1.79519,       1.41936,      -1.09915,   2.07727E-06
C:/temp/dataset/2/29_2.odb,Step-1,Increment      1: Step Time =    1.000,"PART-1-1",           185,       10.0207,   425.902E-03,            0.,NA,NA,"",       1.66767,       1.10465,      -1.24935,   2.04588E-06
C:/temp/dataset/2/29_2.odb,Step-1,Increment      1: Step Time =    1.000,"PART-1-1",           186,      -8.86720,      -3.63325,            0.,NA,NA,"",   882.161E-03,   880.290E-03,  -57.4170E-03,   4.47199E-03
C:/temp/dataset/2/29_2.odb,Step-1,Increment      1: Step Time =    1.000,"PART-1-1",           187,       10.0155,       5.77118,            0.,NA,NA,"",       1.91426,       1.44143,      -1.25963,   528.521E-09
C:/temp/dataset/2/29_2.odb,Step-1,Increment      1: Step Time =    1.000,"PART-1-1",           188,       9.07540,       20.2179,            0.,NA,NA,"",       2.65515,       2.35353,      -1.22910,   1.96832E-09
C:/temp/dataset/2/29_2.odb,Step-1,Increment      1: Step Time =    1.000,"PART-1-1",           189,       5.51479,      -24.9218,            0.,NA,NA,"",   14.1552E-03,   14.1467E-03,  -489.524E-06,   1.73489E-03
C:/temp/dataset/2/29_2.odb,Step-1,Increment      1: Step Time =    1.000,"PART-1-1",           190,       2.33502,      -24.9114,            0.,NA,NA,"",   17.9515E-03,   17.5707E-03,  -3.67784E-03,   2.62218E-03
C:/temp/dataset/2/29_2.odb,Step-1,Increment      1: Step Time =    1.000,"PART-1-1",           191,      -3.83494,      -24.9465,            0.,NA,NA,"",   27.0305E-03,   17.6447E-03,  -20.4771E-03,   7.51527E-03
C:/temp/dataset/2/29_2.odb,Step-1,Increment      1: Step Time =    1.000,"PART-1-1",           192,       8.68706,      -24.9229,            0.,NA,NA,"",   11.8331E-03,   11.8331E-03,  -7.33181E-06,   1.17106E-03
C:/temp/dataset/2/29_2.odb,Step-1,Increment      1: Step Time =    1.000,"PART-1-1",           193,  -793.545E-03,      -24.9263,            0.,NA,NA,"",   23.2193E-03,   20.2685E-03,  -11.3280E-03,   5.37389E-03
C:/temp/dataset/2/29_2.odb,Step-1,Increment      1: Step Time =    1.000,"PART-1-1",           194,      -10.0041,       22.4687,            0.,NA,NA,"",       2.53345,       2.53326,  -31.4519E-03,   539.283E-12
C:/temp/dataset/2/29_2.odb,Step-1,Increment      1: Step Time =    1.000,"PART-1-1",           195,       7.76291,       22.5689,            0.,NA,NA,"",       2.75615,       2.50427,      -1.15108,   2.00602E-09
C:/temp/dataset/2/29_2.odb,Step-1,Increment      1: Step Time =    1.000,"PART-1-1",           196,       10.0314,       3.09975,            0.,NA,NA,"",       1.78791,       1.27309,      -1.25533,   1.26520E-06
C:/temp/dataset/2/29_2.odb,Step-1,Increment      1: Step Time =    1.000,"PART-1-1",           197,       7.45157,       2.78517,            0.,NA,NA,"",       1.66624,       1.25839,      -1.09216,   5.94056E-06
C:/temp/dataset/2/29_2.odb,Step-1,Increment      1: Step Time =    1.000,"PART-1-1",           198,       1.23926,       2.17480,            0.,NA,NA,"",       1.41702,       1.23235,  -699.485E-03,   93.8444E-06
C:/temp/dataset/2/29_2.odb,Step-1,Increment      1: Step Time =    1.000,"PART-1-1",           199,       5.89388,       23.8379,            0.,NA,NA,"",       2.78754,       2.58793,      -1.03584,   1.20051E-09
C:/temp/dataset/2/29_2.odb,Step-1,Increment      1: Step Time =    1.000,"PART-1-1",           200,       4.70825,       2.52712,            0.,NA,NA,"",       1.54940,       1.24760,  -918.782E-03,   28.0190E-06
C:/temp/dataset/2/29_2.odb,Step-1,Increment      1: Step Time =    1.000,"PART-1-1",           201,      -6.67563,      -24.8783,            0.,NA,NA,"",   19.8642E-03,   8.96566E-03,  -17.7258E-03,   6.32405E-03
C:/temp/dataset/2/29_2.odb,Step-1,Increment      1: Step Time =    1.000,"PART-1-1",           202,      -1.93740,       2.90022,            0.,NA,NA,"",       1.37852,       1.28424,  -501.032E-03,   77.8004E-06
C:/temp/dataset/2/29_2.odb,Step-1,Increment      1: Step Time =    1.000,"PART-1-1",           203,      -4.27328,      -22.5070,            0.,NA,NA,"",   46.0267E-03,   31.0858E-03,  -33.9430E-03,   12.0455E-03
C:/temp/dataset/2/29_2.odb,Step-1,Increment      1: Step Time =    1.000,"PART-1-1",           204,      -7.29195,  -216.826E-03,            0.,NA,NA,"",       1.10936,       1.09755,  -161.434E-03,   2.12740E-03
C:/temp/dataset/2/29_2.odb,Step-1,Increment      1: Step Time =    1.000,"PART-1-1",           205,      -4.39370,   432.763E-03,            0.,NA,NA,"",       1.18431,       1.13387,  -341.953E-03,   721.405E-06
C:/temp/dataset/2/29_2.odb,Step-1,Increment      1: Step Time =    1.000,"PART-1-1",           206,      -1.20581,      -22.4416,            0.,NA,NA,"",   29.4157E-03,   26.3626E-03,  -13.0498E-03,   6.99959E-03
C:/temp/dataset/2/29_2.odb,Step-1,Increment      1: Step Time =    1.000,"PART-1-1",           207,      -4.88725,       2.78210,            0.,NA,NA,"",       1.32102,       1.28256,  -316.458E-03,   426.752E-06
C:/temp/dataset/2/29_2.odb,Step-1,Increment      1: Step Time =    1.000,"PART-1-1",           208,      -8.02678,       2.39768,            0.,NA,NA,"",       1.27091,       1.26502,  -122.167E-03,   1.40864E-03
C:/temp/dataset/2/29_2.odb,Step-1,Increment      1: Step Time =    1.000,"PART-1-1",           209,       8.51144,      -22.4401,            0.,NA,NA,"",   15.1715E-03,   15.1622E-03,   530.127E-06,   665.306E-06
C:/temp/dataset/2/29_2.odb,Step-1,Increment      1: Step Time =    1.000,"PART-1-1",           210,       5.25488,      -22.4306,            0.,NA,NA,"",   17.1855E-03,   17.1825E-03,   325.091E-06,   1.17122E-03
C:/temp/dataset/2/29_2.odb,Step-1,Increment      1: Step Time =    1.000,"PART-1-1",           211,       2.00226,      -22.4217,            0.,NA,NA,"",   21.4557E-03,   21.2061E-03,  -3.26321E-03,   2.56844E-03
C:/temp/dataset/2/29_2.odb,Step-1,Increment      1: Step Time =    1.000,"PART-1-1",           212,      -9.28570,      -27.3600,            0.,NA,NA,"",   4.36723E-03,  -4.01660E-03,   1.71454E-03,   2.04946E-03
C:/temp/dataset/2/29_2.odb,Step-1,Increment      1: Step Time =    1.000,"PART-1-1",           213,       11.7596,      -22.4488,            0.,NA,NA,"",   14.3189E-03,   14.2673E-03,  -1.21443E-03,   234.745E-06
C:/temp/dataset/2/29_2.odb,Step-1,Increment      1: Step Time =    1.000,"PART-1-1",           214,      -12.4952,       27.4851,            0.,NA,NA,"",       2.85661,       2.85427,   115.537E-03,   448.823E-12
C:/temp/dataset/2/29_2.odb,Step-1,Increment      1: Step Time =    1.000,"PART-1-1",           215,      -12.1608,      -27.2494,            0.,NA,NA,"",   16.1966E-03,   15.4363E-06,   16.1966E-03,   7.91572E-03
C:/temp/dataset/2/29_2.odb,Step-1,Increment      1: Step Time =    1.000,"PART-1-1",           216,      -6.92277,      -20.0189,            0.,NA,NA,"",   73.7398E-03,   59.9122E-03,  -42.9893E-03,   8.08113E-03
C:/temp/dataset/2/29_2.odb,Step-1,Increment      1: Step Time =    1.000,"PART-1-1",           217,       10.3403,       22.5364,            0.,NA,NA,"",       2.82144,       2.49710,      -1.31341,   1.57035E-09
C:/temp/dataset/2/29_2.odb,Step-1,Increment      1: Step Time =    1.000,"PART-1-1",           218,      -9.38591,      -16.3373,            0.,NA,NA,"",   183.583E-03,   183.480E-03,   6.14996E-03,   4.93292E-03
C:/temp/dataset/2/29_2.odb,Step-1,Increment      1: Step Time =    1.000,"PART-1-1",           219,      -9.56004,      -22.0160,            0.,NA,NA,"",   31.6350E-03,   30.6465E-03,   7.84622E-03,   3.93349E-03
C:/temp/dataset/2/29_2.odb,Step-1,Increment      1: Step Time =    1.000,"PART-1-1",           220,      -9.49058,      -24.6874,            0.,NA,NA,"",   7.07606E-03,   5.63101E-03,   4.28513E-03,   3.05852E-03
C:/temp/dataset/2/29_2.odb,Step-1,Increment      1: Step Time =    1.000,"PART-1-1",           221,  -968.003E-03,   33.9082E-03,            0.,NA,NA,"",       1.23457,       1.10215,  -556.251E-03,   114.864E-06
C:/temp/dataset/2/29_2.odb,Step-1,Increment      1: Step Time =    1.000,"PART-1-1",           222,   333.674E-03,      -1.00763,            0.,NA,NA,"",       1.21391,       1.03383,  -636.212E-03,   84.0945E-06
C:/temp/dataset/2/29_2.odb,Step-1,Increment      1: Step Time =    1.000,"PART-1-1",           223,      -10.5623,      -4.72446,            0.,NA,NA,"",   814.217E-03,   813.123E-03,   42.1998E-03,   4.83864E-03
C:/temp/dataset/2/29_2.odb,Step-1,Increment      1: Step Time =    1.000,"PART-1-1",           224,      -5.01319,       24.9269,            0.,NA,NA,"",       2.70110,       2.67822,  -350.793E-03,   476.407E-12
C:/temp/dataset/2/29_2.odb,Step-1,Increment      1: Step Time =    1.000,"PART-1-1",           225,      -9.24174,      -19.5473,            0.,NA,NA,"",   77.0620E-03,   76.9532E-03,   4.09287E-03,   3.39735E-03
C:/temp/dataset/2/29_2.odb,Step-1,Increment      1: Step Time =    1.000,"PART-1-1",           226,       8.53639,       25.1316,            0.,NA,NA,"",       2.92400,       2.66420,      -1.20491,   1.05411E-09
C:/temp/dataset/2/29_2.odb,Step-1,Increment      1: Step Time =    1.000,"PART-1-1",           227,       8.85572,       23.3093,            0.,NA,NA,"",       2.82629,       2.54874,      -1.22141,   1.59045E-09
C:/temp/dataset/2/29_2.odb,Step-1,Increment      1: Step Time =    1.000,"PART-1-1",           228,      -13.7516,       22.4908,            0.,NA,NA,"",       2.55032,       2.54209,   204.623E-03,   457.031E-12
C:/temp/dataset/2/29_2.odb,Step-1,Increment      1: Step Time =    1.000,"PART-1-1",           229,          -15.,         21.25,            0.,NA,NA,"",       2.48289,       2.46640,   285.743E-03,   431.667E-12
C:/temp/dataset/2/29_2.odb,Step-1,Increment      1: Step Time =    1.000,"PART-1-1",           230,        -13.75,           20.,            0.,NA,NA,"",       2.39433,       2.38515,   209.469E-03,   525.985E-12
C:/temp/dataset/2/29_2.odb,Step-1,Increment      1: Step Time =    1.000,"PART-1-1",           231,      -12.5016,       21.2408,            0.,NA,NA,"",       2.46420,       2.46085,   128.349E-03,   523.058E-12
C:/temp/dataset/2/29_2.odb,Step-1,Increment      1: Step Time =    1.000,"PART-1-1",           232,      -9.99605,       28.7334,            0.,NA,NA,"",       2.92829,       2.92795,  -44.4047E-03,   398.363E-12
C:/temp/dataset/2/29_2.odb,Step-1,Increment      1: Step Time =    1.000,"PART-1-1",           233,        -11.25,           30.,            0.,NA,NA,"",       3.01042,       3.01025,   32.0851E-03,   410.493E-12
C:/temp/dataset/2/29_2.odb,Step-1,Increment      1: Step Time =    1.000,"PART-1-1",           234,      -12.4976,       28.7426,            0.,NA,NA,"",       2.93568,       2.93350,   113.190E-03,   412.432E-12
C:/temp/dataset/2/29_2.odb,Step-1,Increment      1: Step Time =    1.000,"PART-1-1",           235,      -11.2437,       27.4760,            0.,NA,NA,"",       2.85144,       2.85121,   36.7003E-03,   431.039E-12
C:/temp/dataset/2/29_2.odb,Step-1,Increment      1: Step Time =    1.000,"PART-1-1",           236,      -8.74541,       27.4572,            0.,NA,NA,"",       2.84762,       2.84506,  -120.667E-03,   413.213E-12
C:/temp/dataset/2/29_2.odb,Step-1,Increment      1: Step Time =    1.000,"PART-1-1",           237,      -7.49936,       28.7238,            0.,NA,NA,"",       2.92934,       2.92239,  -201.693E-03,   397.274E-12
C:/temp/dataset/2/29_2.odb,Step-1,Increment      1: Step Time =    1.000,"PART-1-1",           238,         -8.75,           30.,            0.,NA,NA,"",       3.00790,       3.00528,  -125.430E-03,   411.055E-12
C:/temp/dataset/2/29_2.odb,Step-1,Increment      1: Step Time =    1.000,"PART-1-1",           239,      -10.0020,       21.2344,            0.,NA,NA,"",       2.45565,       2.45548,  -29.1279E-03,   577.591E-12
C:/temp/dataset/2/29_2.odb,Step-1,Increment      1: Step Time =    1.000,"PART-1-1",           240,      -11.2537,       22.4752,            0.,NA,NA,"",       2.53659,       2.53615,   47.2671E-03,   517.013E-12
C:/temp/dataset/2/29_2.odb,Step-1,Increment      1: Step Time =    1.000,"PART-1-1",           241,        -11.25,           20.,            0.,NA,NA,"",       2.38075,       2.38019,   51.9537E-03,   589.792E-12
C:/temp/dataset/2/29_2.odb,Step-1,Increment      1: Step Time =    1.000,"PART-1-1",           242,      -6.25410,       27.4469,            0.,NA,NA,"",       2.85300,       2.83946,  -277.615E-03,   402.540E-12
C:/temp/dataset/2/29_2.odb,Step-1,Increment      1: Step Time =    1.000,"PART-1-1",           243,      -7.50120,       26.1906,            0.,NA,NA,"",       2.76977,       2.76278,  -196.544E-03,   434.227E-12
C:/temp/dataset/2/29_2.odb,Step-1,Increment      1: Step Time =    1.000,"PART-1-1",           244,      -6.25844,       24.9303,            0.,NA,NA,"",       2.69470,       2.68091,  -272.341E-03,   478.545E-12
C:/temp/dataset/2/29_2.odb,Step-1,Increment      1: Step Time =    1.000,"PART-1-1",           245,      -5.01133,       26.1865,            0.,NA,NA,"",       2.78014,       2.75758,  -353.412E-03,   420.614E-12
C:/temp/dataset/2/29_2.odb,Step-1,Increment      1: Step Time =    1.000,"PART-1-1",           246,       1.11906,       22.3143,            0.,NA,NA,"",       2.60632,       2.50143,  -731.971E-03,   817.754E-12
C:/temp/dataset/2/29_2.odb,Step-1,Increment      1: Step Time =    1.000,"PART-1-1",           247,  -37.5712E-03,       21.1808,            0.,NA,NA,"",       2.51943,       2.43231,  -656.844E-03,   827.871E-12
C:/temp/dataset/2/29_2.odb,Step-1,Increment      1: Step Time =    1.000,"PART-1-1",           248,          1.25,           20.,            0.,NA,NA,"",       2.46755,       2.35535,  -735.623E-03,   988.397E-12
C:/temp/dataset/2/29_2.odb,Step-1,Increment      1: Step Time =    1.000,"PART-1-1",           249,       2.40663,       21.1336,            0.,NA,NA,"",       2.55644,       2.42447,  -810.750E-03,   1.00248E-09
C:/temp/dataset/2/29_2.odb,Step-1,Increment      1: Step Time =    1.000,"PART-1-1",           250,  -46.9838E-03,       26.1228,            0.,NA,NA,"",       2.82339,       2.74370,  -666.070E-03,   423.891E-12
C:/temp/dataset/2/29_2.odb,Step-1,Increment      1: Step Time =    1.000,"PART-1-1",           251,       1.11635,       24.7850,            0.,NA,NA,"",       2.75734,       2.65710,  -736.710E-03,   554.973E-12
C:/temp/dataset/2/29_2.odb,Step-1,Increment      1: Step Time =    1.000,"PART-1-1",           252,       2.41618,       25.9912,            0.,NA,NA,"",       2.85127,       2.73051,  -821.003E-03,   517.755E-12
C:/temp/dataset/2/29_2.odb,Step-1,Increment      1: Step Time =    1.000,"PART-1-1",           253,       1.25284,       27.3289,            0.,NA,NA,"",       2.91534,       2.81711,  -750.364E-03,   446.200E-12
C:/temp/dataset/2/29_2.odb,Step-1,Increment      1: Step Time =    1.000,"PART-1-1",           254,       11.4216,       22.1022,            0.,NA,NA,"",       2.82759,       2.46759,      -1.38067,   1.43982E-09
C:/temp/dataset/2/29_2.odb,Step-1,Increment      1: Step Time =    1.000,"PART-1-1",           255,       9.70783,       21.3771,            0.,NA,NA,"",       2.73829,       2.42531,      -1.27125,   1.73236E-09
C:/temp/dataset/2/29_2.odb,Step-1,Increment      1: Step Time =    1.000,"PART-1-1",           256,       10.3968,       19.2167,            0.,NA,NA,"",       2.63651,       2.28782,      -1.31037,   2.11527E-09
C:/temp/dataset/2/29_2.odb,Step-1,Increment      1: Step Time =    1.000,"PART-1-1",           257,       12.1105,       19.9418,            0.,NA,NA,"",       2.72859,       2.33010,      -1.41979,   1.24933E-09
C:/temp/dataset/2/29_2.odb,Step-1,Increment      1: Step Time =    1.000,"PART-1-1",           258,       11.6215,       24.7876,            0.,NA,NA,"",       2.98440,       2.63639,      -1.39860,   629.683E-12
C:/temp/dataset/2/29_2.odb,Step-1,Increment      1: Step Time =    1.000,"PART-1-1",           259,       12.6971,       25.9410,            0.,NA,NA,"",       3.07968,       2.70693,      -1.46866,   408.323E-12
C:/temp/dataset/2/29_2.odb,Step-1,Increment      1: Step Time =    1.000,"PART-1-1",           260,       11.4859,       27.3886,            0.,NA,NA,"",       3.12885,       2.80054,      -1.39523,   417.481E-12
C:/temp/dataset/2/29_2.odb,Step-1,Increment      1: Step Time =    1.000,"PART-1-1",           261,       10.4103,       26.2351,            0.,NA,NA,"",       3.03463,       2.73000,      -1.32516,   633.842E-12
C:/temp/dataset/2/29_2.odb,Step-1,Increment      1: Step Time =    1.000,"PART-1-1",           262,       5.88041,       17.6377,            0.,NA,NA,"",       2.42364,       2.19731,      -1.02267,   5.39701E-09
C:/temp/dataset/2/29_2.odb,Step-1,Increment      1: Step Time =    1.000,"PART-1-1",           263,       6.75071,       18.9160,            0.,NA,NA,"",       2.51937,       2.27612,      -1.08005,   950.331E-12
C:/temp/dataset/2/29_2.odb,Step-1,Increment      1: Step Time =    1.000,"PART-1-1",           264,       5.87030,       20.0282,            0.,NA,NA,"",       2.56265,       2.34795,      -1.02679,   3.18084E-09
C:/temp/dataset/2/29_2.odb,Step-1,Increment      1: Step Time =    1.000,"PART-1-1",           265,            5.,         18.75,            0.,NA,NA,"",       2.46754,       2.26914,  -969.413E-03,   7.79176E-09
C:/temp/dataset/2/29_2.odb,Step-1,Increment      1: Step Time =    1.000,"PART-1-1",           266,       12.3690,       13.3305,            0.,NA,NA,"",       2.38421,       1.91304,      -1.42294,   90.9648E-09
C:/temp/dataset/2/29_2.odb,Step-1,Increment      1: Step Time =    1.000,"PART-1-1",           267,       13.7195,       12.1790,            0.,NA,NA,"",       2.37588,       1.83781,      -1.50574,   82.0094E-09
C:/temp/dataset/2/29_2.odb,Step-1,Increment      1: Step Time =    1.000,"PART-1-1",           268,           15.,       13.9583,            0.,NA,NA,"",       2.51400,       1.94737,      -1.58995,   37.4568E-09
C:/temp/dataset/2/29_2.odb,Step-1,Increment      1: Step Time =    1.000,"PART-1-1",           269,       13.6495,       15.1098,            0.,NA,NA,"",       2.52238,       2.02260,      -1.50715,   16.3608E-09
C:/temp/dataset/2/29_2.odb,Step-1,Increment      1: Step Time =    1.000,"PART-1-1",           270,       12.5214,       4.81657,            0.,NA,NA,"",       1.97439,       1.37631,      -1.41563,   263.997E-09
C:/temp/dataset/2/29_2.odb,Step-1,Increment      1: Step Time =    1.000,"PART-1-1",           271,       13.7670,       3.58604,            0.,NA,NA,"",       1.97622,       1.29630,      -1.49166,   599.795E-09
C:/temp/dataset/2/29_2.odb,Step-1,Increment      1: Step Time =    1.000,"PART-1-1",           272,           15.,       5.20833,            0.,NA,NA,"",       2.10285,       1.39607,      -1.57257,   981.531E-09
C:/temp/dataset/2/29_2.odb,Step-1,Increment      1: Step Time =    1.000,"PART-1-1",           273,       13.7545,       6.43886,            0.,NA,NA,"",       2.10200,       1.47607,      -1.49654,   505.526E-09
C:/temp/dataset/2/29_2.odb,Step-1,Increment      1: Step Time =    1.000,"PART-1-1",           274,       13.7625,      -2.13133,            0.,NA,NA,"",       1.75121,   936.103E-03,      -1.48001,   425.580E-09
C:/temp/dataset/2/29_2.odb,Step-1,Increment      1: Step Time =    1.000,"PART-1-1",           275,       12.5125,      -3.58966,            0.,NA,NA,"",       1.63473,   846.709E-03,      -1.39836,   479.521E-09
C:/temp/dataset/2/29_2.odb,Step-1,Increment      1: Step Time =    1.000,"PART-1-1",           276,         13.75,           -5.,            0.,NA,NA,"",       1.65587,   755.397E-03,      -1.47353,   195.492E-09
C:/temp/dataset/2/29_2.odb,Step-1,Increment      1: Step Time =    1.000,"PART-1-1",           277,           15.,      -3.54167,            0.,NA,NA,"",       1.76981,   844.791E-03,      -1.55518,   223.079E-09
C:/temp/dataset/2/29_2.odb,Step-1,Increment      1: Step Time =    1.000,"PART-1-1",           278,      -9.21387,      -6.21191,            0.,NA,NA,"",   717.407E-03,   716.763E-03,  -30.3776E-03,   4.60483E-03
C:/temp/dataset/2/29_2.odb,Step-1,Increment      1: Step Time =    1.000,"PART-1-1",           279,      -8.44405,      -4.75360,            0.,NA,NA,"",   811.610E-03,   807.799E-03,  -78.5585E-03,   4.78137E-03
C:/temp/dataset/2/29_2.odb,Step-1,Increment      1: Step Time =    1.000,"PART-1-1",           280,      -9.71477,      -4.17886,            0.,NA,NA,"",   846.532E-03,   846.502E-03,  -7.11415E-03,   4.54280E-03
C:/temp/dataset/2/29_2.odb,Step-1,Increment      1: Step Time =    1.000,"PART-1-1",           281,      -10.4846,      -5.63717,            0.,NA,NA,"",   755.861E-03,   754.853E-03,   39.0184E-03,   4.85376E-03
C:/temp/dataset/2/29_2.odb,Step-1,Increment      1: Step Time =    1.000,"PART-1-1",           282,      -5.84282,   107.969E-03,            0.,NA,NA,"",       1.14367,       1.11576,  -251.151E-03,   1.31968E-03
C:/temp/dataset/2/29_2.odb,Step-1,Increment      1: Step Time =    1.000,"PART-1-1",           283,      -4.64047,       1.60743,            0.,NA,NA,"",       1.25236,       1.20830,  -329.284E-03,   518.938E-06
C:/temp/dataset/2/29_2.odb,Step-1,Increment      1: Step Time =    1.000,"PART-1-1",           284,      -6.45702,       2.58989,            0.,NA,NA,"",       1.29234,       1.27365,  -218.970E-03,   879.641E-06
C:/temp/dataset/2/29_2.odb,Step-1,Increment      1: Step Time =    1.000,"PART-1-1",           285,      -7.65937,       1.09043,            0.,NA,NA,"",       1.18996,       1.18144,  -142.109E-03,   1.66445E-03
C:/temp/dataset/2/29_2.odb,Step-1,Increment      1: Step Time =    1.000,"PART-1-1",           286,      -6.51044,      -5.43697,            0.,NA,NA,"",   786.017E-03,   763.279E-03,  -187.690E-03,   4.34651E-03
C:/temp/dataset/2/29_2.odb,Step-1,Increment      1: Step Time =    1.000,"PART-1-1",           287,      -5.48201,      -3.85122,            0.,NA,NA,"",   902.551E-03,   864.434E-03,  -259.520E-03,   3.26888E-03
C:/temp/dataset/2/29_2.odb,Step-1,Increment      1: Step Time =    1.000,"PART-1-1",           288,      -7.41561,      -3.16785,            0.,NA,NA,"",   920.128E-03,   908.694E-03,  -144.604E-03,   3.62079E-03
C:/temp/dataset/2/29_2.odb,Step-1,Increment      1: Step Time =    1.000,"PART-1-1",           289,      -12.6742,      -10.6472,            0.,NA,NA,"",   486.656E-03,   463.092E-03,   149.601E-03,   7.20683E-03
C:/temp/dataset/2/29_2.odb,Step-1,Increment      1: Step Time =    1.000,"PART-1-1",           290,      -11.3911,      -11.6978,            0.,NA,NA,"",   411.337E-03,   402.345E-03,   85.5341E-03,   5.52177E-03
C:/temp/dataset/2/29_2.odb,Step-1,Increment      1: Step Time =    1.000,"PART-1-1",           291,      -10.2167,      -10.1126,            0.,NA,NA,"",   487.030E-03,   486.074E-03,   30.4942E-03,   4.78988E-03
C:/temp/dataset/2/29_2.odb,Step-1,Increment      1: Step Time =    1.000,"PART-1-1",           292,      -11.4997,      -9.06207,            0.,NA,NA,"",   556.753E-03,   548.651E-03,   94.6372E-03,   5.11555E-03
C:/temp/dataset/2/29_2.odb,Step-1,Increment      1: Step Time =    1.000,"PART-1-1",           293,      -13.7107,      -15.1438,            0.,NA,NA,"",   297.159E-03,   248.124E-03,   163.518E-03,   12.6742E-03
C:/temp/dataset/2/29_2.odb,Step-1,Increment      1: Step Time =    1.000,"PART-1-1",           294,      -12.5249,      -13.4434,            0.,NA,NA,"",   343.700E-03,   318.599E-03,   128.937E-03,   8.23830E-03
C:/temp/dataset/2/29_2.odb,Step-1,Increment      1: Step Time =    1.000,"PART-1-1",           295,      -13.8143,      -12.2579,            0.,NA,NA,"",   430.184E-03,   383.654E-03,   194.597E-03,   10.6732E-03
C:/temp/dataset/2/29_2.odb,Step-1,Increment      1: Step Time =    1.000,"PART-1-1",           296,          -15.,      -13.9583,            0.,NA,NA,"",   386.416E-03,   309.643E-03,   231.167E-03,   15.5603E-03
C:/temp/dataset/2/29_2.odb,Step-1,Increment      1: Step Time =    1.000,"PART-1-1",           297,      -12.0988,      -16.5012,            0.,NA,NA,"",   207.657E-03,   184.921E-03,   94.4738E-03,   8.32776E-03
C:/temp/dataset/2/29_2.odb,Step-1,Increment      1: Step Time =    1.000,"PART-1-1",           298,      -10.5811,      -17.2344,            0.,NA,NA,"",   158.348E-03,   152.315E-03,   43.2916E-03,   4.88405E-03
C:/temp/dataset/2/29_2.odb,Step-1,Increment      1: Step Time =    1.000,"PART-1-1",           299,      -9.66362,      -15.1575,            0.,NA,NA,"",   233.383E-03,   232.976E-03,   13.7749E-03,   4.91610E-03
C:/temp/dataset/2/29_2.odb,Step-1,Increment      1: Step Time =    1.000,"PART-1-1",           300,      -11.1813,      -14.4243,            0.,NA,NA,"",   277.387E-03,   268.205E-03,   70.7788E-03,   5.69860E-03
C:/temp/dataset/2/29_2.odb,Step-1,Increment      1: Step Time =    1.000,"PART-1-1",           301,      -10.5090,      -18.8394,            0.,NA,NA,"",   106.753E-03,   100.312E-03,   36.5188E-03,   5.04881E-03
C:/temp/dataset/2/29_2.odb,Step-1,Increment      1: Step Time =    1.000,"PART-1-1",           302,      -8.88448,      -18.7076,            0.,NA,NA,"",   99.4498E-03,   99.3272E-03,  -4.93704E-03,   4.64969E-03
C:/temp/dataset/2/29_2.odb,Step-1,Increment      1: Step Time =    1.000,"PART-1-1",           303,      -8.95657,      -17.1026,            0.,NA,NA,"",   153.965E-03,   153.862E-03,  -5.61733E-03,   5.92696E-03
C:/temp/dataset/2/29_2.odb,Step-1,Increment      1: Step Time =    1.000,"PART-1-1",           304,      -8.08225,      -19.7831,            0.,NA,NA,"",   71.5969E-03,   68.3138E-03,  -21.4324E-03,   5.25349E-03
C:/temp/dataset/2/29_2.odb,Step-1,Increment      1: Step Time =    1.000,"PART-1-1",           305,      -6.89084,      -18.8787,            0.,NA,NA,"",   103.532E-03,   90.3118E-03,  -50.6228E-03,   10.3346E-03
C:/temp/dataset/2/29_2.odb,Step-1,Increment      1: Step Time =    1.000,"PART-1-1",           306,      -7.69307,      -17.8032,            0.,NA,NA,"",   134.134E-03,   128.407E-03,  -38.7775E-03,   9.76184E-03
C:/temp/dataset/2/29_2.odb,Step-1,Increment      1: Step Time =    1.000,"PART-1-1",           307,       7.10093,      -24.9223,            0.,NA,NA,"",   12.8420E-03,   12.8420E-03,   9.41778E-06,   1.47274E-03
C:/temp/dataset/2/29_2.odb,Step-1,Increment      1: Step Time =    1.000,"PART-1-1",           308,       8.59925,      -23.6815,            0.,NA,NA,"",   13.7144E-03,   13.7118E-03,   269.052E-06,   912.234E-06
C:/temp/dataset/2/29_2.odb,Step-1,Increment      1: Step Time =    1.000,"PART-1-1",           309,       6.88316,      -22.4353,            0.,NA,NA,"",   16.0194E-03,   16.0043E-03,   695.820E-06,   898.945E-06
C:/temp/dataset/2/29_2.odb,Step-1,Increment      1: Step Time =    1.000,"PART-1-1",           310,       5.38484,      -23.6762,            0.,NA,NA,"",   16.0830E-03,   16.0824E-03,  -136.787E-06,   1.42224E-03
C:/temp/dataset/2/29_2.odb,Step-1,Increment      1: Step Time =    1.000,"PART-1-1",           311,       13.3798,      -22.4744,            0.,NA,NA,"",   14.4056E-03,   14.1385E-03,  -2.76120E-03,   86.0933E-06
C:/temp/dataset/2/29_2.odb,Step-1,Increment      1: Step Time =    1.000,"PART-1-1",           312,           15.,        -21.25,            0.,NA,NA,"",   16.1201E-03,   15.4687E-03,  -4.53628E-03,   36.0058E-06
C:/temp/dataset/2/29_2.odb,Step-1,Increment      1: Step Time =    1.000,"PART-1-1",           313,       13.3333,          -20.,            0.,NA,NA,"",   16.9858E-03,   16.7628E-03,  -2.74321E-03,   42.1062E-06
C:/temp/dataset/2/29_2.odb,Step-1,Increment      1: Step Time =    1.000,"PART-1-1",           314,       11.7131,      -21.2244,            0.,NA,NA,"",   15.6023E-03,   15.5586E-03,  -1.16640E-03,   89.5487E-06
C:/temp/dataset/2/29_2.odb,Step-1,Increment      1: Step Time =    1.000,"PART-1-1",           315,      -2.14863,       2.00914,            0.,NA,NA,"",       1.32132,       1.22872,  -485.946E-03,   80.3488E-06
C:/temp/dataset/2/29_2.odb,Step-1,Increment      1: Step Time =    1.000,"PART-1-1",           316,      -1.66393,   575.985E-03,            0.,NA,NA,"",       1.24823,       1.13768,  -513.576E-03,   102.543E-06
C:/temp/dataset/2/29_2.odb,Step-1,Increment      1: Step Time =    1.000,"PART-1-1",           317,   135.628E-03,       1.10435,            0.,NA,NA,"",       1.32539,       1.16725,  -627.850E-03,   73.2277E-06
C:/temp/dataset/2/29_2.odb,Step-1,Increment      1: Step Time =    1.000,"PART-1-1",           318,  -349.073E-03,       2.53751,            0.,NA,NA,"",       1.39413,       1.25833,  -600.158E-03,   67.4500E-06
C:/temp/dataset/2/29_2.odb,Step-1,Increment      1: Step Time =    1.000,"PART-1-1",           319,   156.145E-03,      -1.87787,            0.,NA,NA,"",       1.16086,   979.312E-03,  -623.336E-03,   105.942E-06
C:/temp/dataset/2/29_2.odb,Step-1,Increment      1: Step Time =    1.000,"PART-1-1",           320,       1.21010,      -2.70880,            0.,NA,NA,"",       1.15264,   924.689E-03,  -688.143E-03,   121.231E-06
C:/temp/dataset/2/29_2.odb,Step-1,Increment      1: Step Time =    1.000,"PART-1-1",           321,       2.32846,      -1.50081,            0.,NA,NA,"",       1.25553,   998.640E-03,  -760.963E-03,   61.9243E-06
C:/temp/dataset/2/29_2.odb,Step-1,Increment      1: Step Time =    1.000,"PART-1-1",           322,       1.27451,  -669.883E-03,            0.,NA,NA,"",       1.26248,       1.05318,  -696.169E-03,   81.1394E-06
C:/temp/dataset/2/29_2.odb,Step-1,Increment      1: Step Time =    1.000,"PART-1-1",           323,       4.87500,      -1.23074,            0.,NA,NA,"",       1.36786,       1.01053,  -921.894E-03,   24.9147E-06
C:/temp/dataset/2/29_2.odb,Step-1,Increment      1: Step Time =    1.000,"PART-1-1",           324,       6.20088,      -2.43579,            0.,NA,NA,"",       1.36916,   931.947E-03,      -1.00303,   17.2702E-06
C:/temp/dataset/2/29_2.odb,Step-1,Increment      1: Step Time =    1.000,"PART-1-1",           325,       7.44880,      -1.07477,            0.,NA,NA,"",       1.48542,       1.01522,      -1.08434,   7.10976E-06
C:/temp/dataset/2/29_2.odb,Step-1,Increment      1: Step Time =    1.000,"PART-1-1",           326,       6.12293,   130.279E-03,            0.,NA,NA,"",       1.48417,       1.09379,      -1.00319,   19.4191E-06
C:/temp/dataset/2/29_2.odb,Step-1,Increment      1: Step Time =    1.000,"PART-1-1",           327,          8.75,           -5.,            0.,NA,NA,"",       1.38849,   765.333E-03,      -1.15852,   424.852E-09
C:/temp/dataset/2/29_2.odb,Step-1,Increment      1: Step Time =    1.000,"PART-1-1",           328,       10.0063,      -3.63741,            0.,NA,NA,"",       1.50293,   848.680E-03,      -1.24038,   536.982E-09
C:/temp/dataset/2/29_2.odb,Step-1,Increment      1: Step Time =    1.000,"PART-1-1",           329,       8.73716,      -2.32557,            0.,NA,NA,"",       1.49154,   933.849E-03,      -1.16303,   4.31912E-06
C:/temp/dataset/2/29_2.odb,Step-1,Increment      1: Step Time =    1.000,"PART-1-1",           330,       7.48081,      -3.68816,            0.,NA,NA,"",       1.37560,   850.498E-03,      -1.08117,   3.83067E-06
C:/temp/dataset/2/29_2.odb,Step-1,Increment      1: Step Time =    1.000,"PART-1-1",           331,       6.24109,       7.72904,            0.,NA,NA,"",       1.87728,       1.57229,      -1.02571,   1.18885E-06
C:/temp/dataset/2/29_2.odb,Step-1,Increment      1: Step Time =    1.000,"PART-1-1",           332,            5.,          6.25,            0.,NA,NA,"",       1.75706,       1.48157,  -944.572E-03,   3.24853E-06
C:/temp/dataset/2/29_2.odb,Step-1,Increment      1: Step Time =    1.000,"PART-1-1",           333,       6.24095,       5.17046,            0.,NA,NA,"",       1.74150,       1.41108,      -1.02062,   4.54908E-06
C:/temp/dataset/2/29_2.odb,Step-1,Increment      1: Step Time =    1.000,"PART-1-1",           334,       7.48203,       6.64950,            0.,NA,NA,"",       1.86260,       1.50181,      -1.10176,   1.32373E-06
C:/temp/dataset/2/29_2.odb,Step-1,Increment      1: Step Time =    1.000,"PART-1-1",           335,       7.34508,       23.6052,            0.,NA,NA,"",       2.80653,       2.57039,      -1.12681,   1.52334E-09
C:/temp/dataset/2/29_2.odb,Step-1,Increment      1: Step Time =    1.000,"PART-1-1",           336,       6.41056,       24.2397,            0.,NA,NA,"",       2.82257,       2.61222,      -1.06919,   1.16997E-09
C:/temp/dataset/2/29_2.odb,Step-1,Increment      1: Step Time =    1.000,"PART-1-1",           337,       6.08150,       22.9932,            0.,NA,NA,"",       2.74171,       2.53434,      -1.04598,   1.55548E-09
C:/temp/dataset/2/29_2.odb,Step-1,Increment      1: Step Time =    1.000,"PART-1-1",           338,       7.01602,       22.3587,            0.,NA,NA,"",       2.72590,       2.49251,      -1.10360,   1.99804E-09
C:/temp/dataset/2/29_2.odb,Step-1,Increment      1: Step Time =    1.000,"PART-1-1",           339,      -12.5005,       23.7291,            0.,NA,NA,"",       2.62053,       2.61763,   123.335E-03,   492.907E-12
C:/temp/dataset/2/29_2.odb,Step-1,Increment      1: Step Time =    1.000,"PART-1-1",           340,      -13.7489,       24.9883,            0.,NA,NA,"",       2.70681,       2.69944,   199.488E-03,   478.959E-12
C:/temp/dataset/2/29_2.odb,Step-1,Increment      1: Step Time =    1.000,"PART-1-1",           341,          -15.,         23.75,            0.,NA,NA,"",       2.63889,       2.62391,   280.776E-03,   445.459E-12
C:/temp/dataset/2/29_2.odb,Step-1,Increment      1: Step Time =    1.000,"PART-1-1",           342,      -2.52491,       26.1674,            0.,NA,NA,"",       2.79831,       2.75144,  -510.034E-03,   411.096E-12
C:/temp/dataset/2/29_2.odb,Step-1,Increment      1: Step Time =    1.000,"PART-1-1",           343,      -1.30373,       24.8780,            0.,NA,NA,"",       2.73103,       2.66777,  -584.414E-03,   489.647E-12
C:/temp/dataset/2/29_2.odb,Step-1,Increment      1: Step Time =    1.000,"PART-1-1",           344,      -1.26817,       27.4122,            0.,NA,NA,"",       2.88861,       2.82737,  -591.690E-03,   414.019E-12
C:/temp/dataset/2/29_2.odb,Step-1,Increment      1: Step Time =    1.000,"PART-1-1",           345,       2.31009,       23.4917,            0.,NA,NA,"",       2.69753,       2.57325,  -809.353E-03,   745.735E-12
C:/temp/dataset/2/29_2.odb,Step-1,Increment      1: Step Time =    1.000,"PART-1-1",           346,       3.41051,       22.2101,            0.,NA,NA,"",       2.63993,       2.49031,  -876.140E-03,   937.164E-12
C:/temp/dataset/2/29_2.odb,Step-1,Increment      1: Step Time =    1.000,"PART-1-1",           347,       4.46987,       23.2845,            0.,NA,NA,"",       2.72501,       2.55590,  -945.021E-03,   1.04886E-09
C:/temp/dataset/2/29_2.odb,Step-1,Increment      1: Step Time =    1.000,"PART-1-1",           348,       3.36945,       24.5662,            0.,NA,NA,"",       2.78115,       2.63884,  -878.234E-03,   696.465E-12
C:/temp/dataset/2/29_2.odb,Step-1,Increment      1: Step Time =    1.000,"PART-1-1",           349,       3.92627,       27.0683,            0.,NA,NA,"",       2.94235,       2.79538,  -918.288E-03,   570.881E-12
C:/temp/dataset/2/29_2.odb,Step-1,Increment      1: Step Time =    1.000,"PART-1-1",           350,       5.16355,       28.4353,            0.,NA,NA,"",       3.04744,       2.87905,  -998.961E-03,   594.330E-12
C:/temp/dataset/2/29_2.odb,Step-1,Increment      1: Step Time =    1.000,"PART-1-1",           351,          3.75,           30.,            0.,NA,NA,"",       3.11715,       2.98045,  -913.007E-03,   688.891E-12
C:/temp/dataset/2/29_2.odb,Step-1,Increment      1: Step Time =    1.000,"PART-1-1",           352,       2.51272,       28.6330,            0.,NA,NA,"",       3.01398,       2.89677,  -832.335E-03,   576.142E-12
C:/temp/dataset/2/29_2.odb,Step-1,Increment      1: Step Time =    1.000,"PART-1-1",           353,       11.0463,       14.3537,            0.,NA,NA,"",       2.39185,       1.98014,      -1.34163,   48.7258E-09
C:/temp/dataset/2/29_2.odb,Step-1,Increment      1: Step Time =    1.000,"PART-1-1",           354,       9.86747,       12.5470,            0.,NA,NA,"",       2.25587,       1.86864,      -1.26377,   156.397E-09
C:/temp/dataset/2/29_2.odb,Step-1,Increment      1: Step Time =    1.000,"PART-1-1",           355,       11.1901,       11.5237,            0.,NA,NA,"",       2.24828,       1.80154,      -1.34507,   164.865E-09
C:/temp/dataset/2/29_2.odb,Step-1,Increment      1: Step Time =    1.000,"PART-1-1",           356,       9.55073,       15.1783,            0.,NA,NA,"",       2.38780,       2.03506,      -1.24904,   44.5398E-09
C:/temp/dataset/2/29_2.odb,Step-1,Increment      1: Step Time =    1.000,"PART-1-1",           357,       8.18591,       15.9712,            0.,NA,NA,"",       2.39060,       2.08773,      -1.16462,   18.1243E-09
C:/temp/dataset/2/29_2.odb,Step-1,Increment      1: Step Time =    1.000,"PART-1-1",           358,       7.20669,       14.2932,            0.,NA,NA,"",       2.26830,       1.98395,      -1.09959,   64.9151E-09
C:/temp/dataset/2/29_2.odb,Step-1,Increment      1: Step Time =    1.000,"PART-1-1",           359,       8.57151,       13.5002,            0.,NA,NA,"",       2.26533,       1.93128,      -1.18401,   70.8396E-09
C:/temp/dataset/2/29_2.odb,Step-1,Increment      1: Step Time =    1.000,"PART-1-1",           360,       7.44377,       1.50598,            0.,NA,NA,"",       1.60420,       1.17782,      -1.08913,   6.64930E-06
C:/temp/dataset/2/29_2.odb,Step-1,Increment      1: Step Time =    1.000,"PART-1-1",           361,       8.72836,   326.342E-03,            0.,NA,NA,"",       1.60489,       1.10095,      -1.16773,   5.43845E-06
C:/temp/dataset/2/29_2.odb,Step-1,Increment      1: Step Time =    1.000,"PART-1-1",           362,       10.0261,       1.76283,            0.,NA,NA,"",       1.72678,       1.18887,      -1.25234,   1.61677E-06
C:/temp/dataset/2/29_2.odb,Step-1,Increment      1: Step Time =    1.000,"PART-1-1",           363,       8.74149,       2.94246,            0.,NA,NA,"",       1.72620,       1.26574,      -1.17375,   3.51467E-06
C:/temp/dataset/2/29_2.odb,Step-1,Increment      1: Step Time =    1.000,"PART-1-1",           364,       12.5045,       7.62102,            0.,NA,NA,"",       2.10445,       1.55304,      -1.42013,   407.877E-09
C:/temp/dataset/2/29_2.odb,Step-1,Increment      1: Step Time =    1.000,"PART-1-1",           365,           15.,         8.125,            0.,NA,NA,"",       2.23318,       1.57983,      -1.57836,   546.493E-09
C:/temp/dataset/2/29_2.odb,Step-1,Increment      1: Step Time =    1.000,"PART-1-1",           366,       13.7500,       9.30715,            0.,NA,NA,"",       2.23626,       1.65680,      -1.50196,   266.742E-09
C:/temp/dataset/2/29_2.odb,Step-1,Increment      1: Step Time =    1.000,"PART-1-1",           367,      -1.45938,      -2.40358,            0.,NA,NA,"",       1.08270,   949.453E-03,  -520.357E-03,   167.352E-06
C:/temp/dataset/2/29_2.odb,Step-1,Increment      1: Step Time =    1.000,"PART-1-1",           368,      -2.69869,      -3.52952,            0.,NA,NA,"",   984.046E-03,   880.524E-03,  -439.346E-03,   423.004E-06
C:/temp/dataset/2/29_2.odb,Step-1,Increment      1: Step Time =    1.000,"PART-1-1",           369,         -1.25,           -5.,            0.,NA,NA,"",   945.763E-03,   784.451E-03,  -528.302E-03,   281.217E-06
C:/temp/dataset/2/29_2.odb,Step-1,Increment      1: Step Time =    1.000,"PART-1-1",           370,  -10.6917E-03,      -3.87406,            0.,NA,NA,"",       1.04841,   853.460E-03,  -608.908E-03,   148.025E-06
C:/temp/dataset/2/29_2.odb,Step-1,Increment      1: Step Time =    1.000,"PART-1-1",           371,      -13.3333,            5.,            0.,NA,NA,"",       1.45846,       1.44454,   200.992E-03,   1.93853E-03
C:/temp/dataset/2/29_2.odb,Step-1,Increment      1: Step Time =    1.000,"PART-1-1",           372,          -15.,       3.54167,            0.,NA,NA,"",       1.39361,       1.35947,   306.605E-03,   2.05959E-03
C:/temp/dataset/2/29_2.odb,Step-1,Increment      1: Step Time =    1.000,"PART-1-1",           373,      -13.2137,       2.05352,            0.,NA,NA,"",       1.27433,       1.25908,   196.540E-03,   2.01308E-03
C:/temp/dataset/2/29_2.odb,Step-1,Increment      1: Step Time =    1.000,"PART-1-1",           374,      -11.5470,       3.51185,            0.,NA,NA,"",       1.34829,       1.34516,   91.8423E-03,   1.80824E-03
C:/temp/dataset/2/29_2.odb,Step-1,Increment      1: Step Time =    1.000,"PART-1-1",           375,          -15.,      625.E-03,            0.,NA,NA,"",       1.21538,       1.17529,   309.579E-03,   2.58774E-03
C:/temp/dataset/2/29_2.odb,Step-1,Increment      1: Step Time =    1.000,"PART-1-1",           376,      -12.9883,      -1.02354,            0.,NA,NA,"",       1.07699,       1.06113,   184.149E-03,   3.05831E-03
C:/temp/dataset/2/29_2.odb,Step-1,Increment      1: Step Time =    1.000,"PART-1-1",           377,      -11.2019,   404.974E-03,            0.,NA,NA,"",       1.14917,       1.14677,   74.1717E-03,   2.77952E-03
C:/temp/dataset/2/29_2.odb,Step-1,Increment      1: Step Time =    1.000,"PART-1-1",           378,      -13.6690,      -3.88141,            0.,NA,NA,"",   905.597E-03,   877.495E-03,   223.848E-03,   4.53623E-03
C:/temp/dataset/2/29_2.odb,Step-1,Increment      1: Step Time =    1.000,"PART-1-1",           379,      -11.6573,      -2.61328,            0.,NA,NA,"",   958.407E-03,   952.750E-03,   103.978E-03,   4.40282E-03
C:/temp/dataset/2/29_2.odb,Step-1,Increment      1: Step Time =    1.000,"PART-1-1",           380,          -15.,      -2.29167,            0.,NA,NA,"",       1.03554,   988.127E-03,   309.751E-03,   4.00805E-03
C:/temp/dataset/2/29_2.odb,Step-1,Increment      1: Step Time =    1.000,"PART-1-1",           381,           -5.,         -8.75,            0.,NA,NA,"",   620.205E-03,   567.560E-03,  -250.062E-03,   9.81818E-03
C:/temp/dataset/2/29_2.odb,Step-1,Increment      1: Step Time =    1.000,"PART-1-1",           382,      -6.37238,      -7.84264,            0.,NA,NA,"",   642.995E-03,   617.185E-03,  -180.350E-03,   6.62378E-03
C:/temp/dataset/2/29_2.odb,Step-1,Increment      1: Step Time =    1.000,"PART-1-1",           383,      -7.67841,      -9.42411,            0.,NA,NA,"",   533.543E-03,   524.288E-03,  -98.9469E-03,   6.13937E-03
C:/temp/dataset/2/29_2.odb,Step-1,Increment      1: Step Time =    1.000,"PART-1-1",           384,      -6.30603,      -10.3315,            0.,NA,NA,"",   503.253E-03,   476.049E-03,  -163.220E-03,   8.59640E-03
C:/temp/dataset/2/29_2.odb,Step-1,Increment      1: Step Time =    1.000,"PART-1-1",           385,      -13.6103,      -21.3688,            0.,NA,NA,"",   105.190E-03,   58.2687E-03,   87.5770E-03,   13.9405E-03
C:/temp/dataset/2/29_2.odb,Step-1,Increment      1: Step Time =    1.000,"PART-1-1",           386,          -15.,      -22.7083,            0.,NA,NA,"",   103.160E-03,   47.2905E-03,   91.6819E-03,   17.3622E-03
C:/temp/dataset/2/29_2.odb,Step-1,Increment      1: Step Time =    1.000,"PART-1-1",           387,      -13.6241,      -24.2925,            0.,NA,NA,"",   57.8136E-03,   20.8206E-03,   53.9344E-03,   12.3965E-03
C:/temp/dataset/2/29_2.odb,Step-1,Increment      1: Step Time =    1.000,"PART-1-1",           388,      -12.2343,      -22.9530,            0.,NA,NA,"",   55.1579E-03,   27.3633E-03,   47.8920E-03,   9.18598E-03
C:/temp/dataset/2/29_2.odb,Step-1,Increment      1: Step Time =    1.000,"PART-1-1",           389,           -5.,        -16.25,            0.,NA,NA,"",   252.300E-03,   201.942E-03,  -151.244E-03,   17.9322E-03
C:/temp/dataset/2/29_2.odb,Step-1,Increment      1: Step Time =    1.000,"PART-1-1",           390,      -6.06585,      -15.2329,            0.,NA,NA,"",   266.910E-03,   237.386E-03,  -122.021E-03,   13.1957E-03
C:/temp/dataset/2/29_2.odb,Step-1,Increment      1: Step Time =    1.000,"PART-1-1",           391,      -6.99530,      -16.6022,            0.,NA,NA,"",   189.484E-03,   175.620E-03,  -71.1465E-03,   11.7349E-03
C:/temp/dataset/2/29_2.odb,Step-1,Increment      1: Step Time =    1.000,"PART-1-1",           392,      -5.92946,      -17.6192,            0.,NA,NA,"",   167.834E-03,   140.057E-03,  -92.4777E-03,   16.3956E-03
C:/temp/dataset/2/29_2.odb,Step-1,Increment      1: Step Time =    1.000,"PART-1-1",           393,         -13.5,          -30.,            0.,NA,NA,"",            0.,  -2.27537E-39,   17.1988E-39,   8.34177E-03
C:/temp/dataset/2/29_2.odb,Step-1,Increment      1: Step Time =    1.000,"PART-1-1",           394,      -12.0804,      -28.6247,            0.,NA,NA,"",   7.56338E-03,  -2.73238E-03,   7.05258E-03,   6.82341E-03
C:/temp/dataset/2/29_2.odb,Step-1,Increment      1: Step Time =    1.000,"PART-1-1",           395,      -13.5804,      -27.1664,            0.,NA,NA,"",   24.6588E-03,   4.85364E-03,   24.1764E-03,   10.8170E-03
C:/temp/dataset/2/29_2.odb,Step-1,Increment      1: Step Time =    1.000,"PART-1-1",           396,          -15.,      -28.5417,            0.,NA,NA,"",   16.9732E-03,   8.72450E-03,   14.5593E-03,   12.2797E-03
C:/temp/dataset/2/29_2.odb,Step-1,Increment      1: Step Time =    1.000,"PART-1-1",           397,          13.5,          -30.,            0.,NA,NA,"",            0.,   764.394E-42,  -2.12777E-39,   1.80767E-03
C:/temp/dataset/2/29_2.odb,Step-1,Increment      1: Step Time =    1.000,"PART-1-1",           398,           15.,        -28.75,            0.,NA,NA,"",   3.86478E-03,   3.15695E-03,  -2.22939E-03,   1.70911E-03
C:/temp/dataset/2/29_2.odb,Step-1,Increment      1: Step Time =    1.000,"PART-1-1",           399,       13.4640,      -27.4843,            0.,NA,NA,"",   5.72092E-03,   5.51165E-03,  -1.53318E-03,   999.932E-06
C:/temp/dataset/2/29_2.odb,Step-1,Increment      1: Step Time =    1.000,"PART-1-1",           400,       11.9640,      -28.7343,            0.,NA,NA,"",   2.70046E-03,   2.66209E-03,  -453.591E-06,   1.40082E-03
C:/temp/dataset/2/29_2.odb,Step-1,Increment      1: Step Time =    1.000,"PART-1-1",           401,       10.2658,      -24.9335,            0.,NA,NA,"",   11.1056E-03,   11.0985E-03,  -396.682E-06,   967.645E-06
C:/temp/dataset/2/29_2.odb,Step-1,Increment      1: Step Time =    1.000,"PART-1-1",           402,       8.77397,      -26.1861,            0.,NA,NA,"",   9.41586E-03,   9.41348E-03,  -211.898E-06,   1.41387E-03
C:/temp/dataset/2/29_2.odb,Step-1,Increment      1: Step Time =    1.000,"PART-1-1",           403,       10.3945,      -27.4590,            0.,NA,NA,"",   5.99666E-03,   5.98243E-03,  -412.855E-06,   1.46877E-03
C:/temp/dataset/2/29_2.odb,Step-1,Increment      1: Step Time =    1.000,"PART-1-1",           404,       11.8863,      -26.2064,            0.,NA,NA,"",   8.38714E-03,   8.32000E-03,  -1.05916E-03,   1.09204E-03
C:/temp/dataset/2/29_2.odb,Step-1,Increment      1: Step Time =    1.000,"PART-1-1",           405,       8.93044,      -28.7247,            0.,NA,NA,"",   3.39245E-03,   3.38067E-03,  -282.552E-06,   1.69786E-03
C:/temp/dataset/2/29_2.odb,Step-1,Increment      1: Step Time =    1.000,"PART-1-1",           406,       7.31300,      -27.4411,            0.,NA,NA,"",   7.37479E-03,   7.36447E-03,  -389.990E-06,   1.87338E-03
C:/temp/dataset/2/29_2.odb,Step-1,Increment      1: Step Time =    1.000,"PART-1-1",           407,       5.88256,      -28.7164,            0.,NA,NA,"",   4.43843E-03,   4.41246E-03,  -479.471E-06,   2.24940E-03
C:/temp/dataset/2/29_2.odb,Step-1,Increment      1: Step Time =    1.000,"PART-1-1",           408,           7.5,          -30.,            0.,NA,NA,"",            0.,   2.31067E-39,  -1.17828E-39,   2.10091E-03
C:/temp/dataset/2/29_2.odb,Step-1,Increment      1: Step Time =    1.000,"PART-1-1",           409,       5.63995,      -26.1773,            0.,NA,NA,"",   11.5901E-03,   11.5713E-03,  -658.931E-06,   1.90246E-03
C:/temp/dataset/2/29_2.odb,Step-1,Increment      1: Step Time =    1.000,"PART-1-1",           410,       3.92490,      -24.9166,            0.,NA,NA,"",   15.8365E-03,   15.7627E-03,  -1.52804E-03,   2.23155E-03
C:/temp/dataset/2/29_2.odb,Step-1,Increment      1: Step Time =    1.000,"PART-1-1",           411,       2.50142,      -26.1700,            0.,NA,NA,"",   14.5619E-03,   14.2389E-03,  -3.05008E-03,   2.78358E-03
C:/temp/dataset/2/29_2.odb,Step-1,Increment      1: Step Time =    1.000,"PART-1-1",           412,       4.21647,      -27.4307,            0.,NA,NA,"",   9.41897E-03,   9.33232E-03,  -1.27468E-03,   2.48343E-03
C:/temp/dataset/2/29_2.odb,Step-1,Increment      1: Step Time =    1.000,"PART-1-1",           413,       1.12659,      -27.4308,            0.,NA,NA,"",   11.4719E-03,   10.9000E-03,  -3.57683E-03,   3.42815E-03
C:/temp/dataset/2/29_2.odb,Step-1,Increment      1: Step Time =    1.000,"PART-1-1",           414,  -207.324E-03,      -28.7165,            0.,NA,NA,"",   6.29668E-03,   5.79866E-03,  -2.45433E-03,   3.99360E-03
C:/temp/dataset/2/29_2.odb,Step-1,Increment      1: Step Time =    1.000,"PART-1-1",           415,           1.5,          -30.,            0.,NA,NA,"",            0.,   3.62248E-39,  -4.05967E-39,   3.54569E-03
C:/temp/dataset/2/29_2.odb,Step-1,Increment      1: Step Time =    1.000,"PART-1-1",           416,       2.83391,      -28.7143,            0.,NA,NA,"",   5.63918E-03,   5.51780E-03,  -1.16375E-03,   3.04348E-03
C:/temp/dataset/2/29_2.odb,Step-1,Increment      1: Step Time =    1.000,"PART-1-1",           417,      -1.92078,      -27.4395,            0.,NA,NA,"",   12.1579E-03,   9.80617E-03,  -7.18697E-03,   4.68641E-03
C:/temp/dataset/2/29_2.odb,Step-1,Increment      1: Step Time =    1.000,"PART-1-1",           418,      -3.21345,      -28.7230,            0.,NA,NA,"",   5.23685E-03,   3.70468E-03,  -3.70134E-03,   4.52380E-03
C:/temp/dataset/2/29_2.odb,Step-1,Increment      1: Step Time =    1.000,"PART-1-1",           419,          -1.5,          -30.,            0.,NA,NA,"",            0.,   3.20693E-39,  -6.35114E-39,   3.76740E-03
C:/temp/dataset/2/29_2.odb,Step-1,Increment      1: Step Time =    1.000,"PART-1-1",           420,      -5.57419,      -22.4519,            0.,NA,NA,"",   48.1218E-03,   28.7500E-03,  -38.5894E-03,   9.71993E-03
C:/temp/dataset/2/29_2.odb,Step-1,Increment      1: Step Time =    1.000,"PART-1-1",           421,      -6.77537,      -23.6376,            0.,NA,NA,"",   28.5354E-03,   16.1261E-03,  -23.5418E-03,   7.13995E-03
C:/temp/dataset/2/29_2.odb,Step-1,Increment      1: Step Time =    1.000,"PART-1-1",           422,      -5.25528,      -24.9124,            0.,NA,NA,"",   25.1823E-03,   13.6916E-03,  -21.1350E-03,   6.84483E-03
C:/temp/dataset/2/29_2.odb,Step-1,Increment      1: Step Time =    1.000,"PART-1-1",           423,      -4.05411,      -23.7268,            0.,NA,NA,"",   35.6913E-03,   23.8026E-03,  -26.5952E-03,   9.27221E-03
C:/temp/dataset/2/29_2.odb,Step-1,Increment      1: Step Time =    1.000,"PART-1-1",           424,       13.4223,      -24.9720,            0.,NA,NA,"",   10.9446E-03,   10.6407E-03,  -2.56140E-03,   400.284E-06
C:/temp/dataset/2/29_2.odb,Step-1,Increment      1: Step Time =    1.000,"PART-1-1",           425,           15.,        -26.25,            0.,NA,NA,"",   9.65711E-03,   8.54594E-03,  -4.49742E-03,   511.893E-06
C:/temp/dataset/2/29_2.odb,Step-1,Increment      1: Step Time =    1.000,"PART-1-1",           426,       11.8021,      -23.6964,            0.,NA,NA,"",   12.7181E-03,   12.6586E-03,  -1.22907E-03,   478.549E-06
C:/temp/dataset/2/29_2.odb,Step-1,Increment      1: Step Time =    1.000,"PART-1-1",           427,       10.1355,      -22.4445,            0.,NA,NA,"",   14.5743E-03,   14.5739E-03,  -112.388E-06,   449.052E-06
C:/temp/dataset/2/29_2.odb,Step-1,Increment      1: Step Time =    1.000,"PART-1-1",           428,      -2.31424,      -24.9364,            0.,NA,NA,"",   25.3845E-03,   19.5713E-03,  -16.1660E-03,   6.23428E-03
C:/temp/dataset/2/29_2.odb,Step-1,Increment      1: Step Time =    1.000,"PART-1-1",           429,      -3.63092,      -26.1962,            0.,NA,NA,"",   18.5177E-03,   11.9205E-03,  -14.1707E-03,   6.45133E-03
C:/temp/dataset/2/29_2.odb,Step-1,Increment      1: Step Time =    1.000,"PART-1-1",           430,  -604.096E-03,      -26.1796,            0.,NA,NA,"",   17.7255E-03,   15.6409E-03,  -8.33994E-03,   4.65972E-03
C:/temp/dataset/2/29_2.odb,Step-1,Increment      1: Step Time =    1.000,"PART-1-1",           431,      -7.52977,      -11.9021,            0.,NA,NA,"",   400.248E-03,   389.981E-03,  -90.0721E-03,   7.50147E-03
C:/temp/dataset/2/29_2.odb,Step-1,Increment      1: Step Time =    1.000,"PART-1-1",           432,      -6.22373,      -12.8207,            0.,NA,NA,"",   375.409E-03,   347.230E-03,  -142.701E-03,   10.6301E-03
C:/temp/dataset/2/29_2.odb,Step-1,Increment      1: Step Time =    1.000,"PART-1-1",           433,           -5.,        -11.25,            0.,NA,NA,"",   485.139E-03,   431.452E-03,  -221.831E-03,   12.3312E-03
C:/temp/dataset/2/29_2.odb,Step-1,Increment      1: Step Time =    1.000,"PART-1-1",           434,      -10.0475,      -12.6788,            0.,NA,NA,"",   350.355E-03,   349.418E-03,   25.6081E-03,   4.78769E-03
C:/temp/dataset/2/29_2.odb,Step-1,Increment      1: Step Time =    1.000,"PART-1-1",           435,           -5.,         -6.25,            0.,NA,NA,"",   764.967E-03,   714.149E-03,  -274.164E-03,   7.66660E-03
C:/temp/dataset/2/29_2.odb,Step-1,Increment      1: Step Time =    1.000,"PART-1-1",           436,      -7.88282,      -7.02961,            0.,NA,NA,"",   672.897E-03,   665.287E-03,  -100.915E-03,   5.13584E-03
C:/temp/dataset/2/29_2.odb,Step-1,Increment      1: Step Time =    1.000,"PART-1-1",           437,      -13.8577,      -6.65334,            0.,NA,NA,"",   738.164E-03,   701.621E-03,   229.379E-03,   6.12844E-03
C:/temp/dataset/2/29_2.odb,Step-1,Increment      1: Step Time =    1.000,"PART-1-1",           438,      -12.5267,      -5.32641,            0.,NA,NA,"",   795.236E-03,   780.048E-03,   154.679E-03,   4.97720E-03
C:/temp/dataset/2/29_2.odb,Step-1,Increment      1: Step Time =    1.000,"PART-1-1",           439,          -15.,      -5.20833,            0.,NA,NA,"",   853.125E-03,   797.177E-03,   303.858E-03,   6.37268E-03
C:/temp/dataset/2/29_2.odb,Step-1,Increment      1: Step Time =    1.000,"PART-1-1",           440,          1.25,           -5.,            0.,NA,NA,"",       1.03882,   780.054E-03,  -686.054E-03,   155.946E-06
C:/temp/dataset/2/29_2.odb,Step-1,Increment      1: Step Time =    1.000,"PART-1-1",           441,       2.47079,      -3.83474,            0.,NA,NA,"",       1.14462,   851.158E-03,  -765.308E-03,   48.2414E-06
C:/temp/dataset/2/29_2.odb,Step-1,Increment      1: Step Time =    1.000,"PART-1-1",           442,       3.51261,  -149.180E-03,            0.,NA,NA,"",       1.36822,       1.08142,  -838.191E-03,   54.2407E-06
C:/temp/dataset/2/29_2.odb,Step-1,Increment      1: Step Time =    1.000,"PART-1-1",           443,       3.69085,      -2.58237,            0.,NA,NA,"",       1.25462,   927.706E-03,  -844.648E-03,   47.6431E-06
C:/temp/dataset/2/29_2.odb,Step-1,Increment      1: Step Time =    1.000,"PART-1-1",           444,       8.74868,       5.55605,            0.,NA,NA,"",       1.85391,       1.43039,      -1.17939,   889.099E-09
C:/temp/dataset/2/29_2.odb,Step-1,Increment      1: Step Time =    1.000,"PART-1-1",           445,       10.0030,       7.12352,            0.,NA,NA,"",       1.98045,       1.52666,      -1.26154,   495.694E-09
C:/temp/dataset/2/29_2.odb,Step-1,Increment      1: Step Time =    1.000,"PART-1-1",           446,       8.73640,       8.21697,            0.,NA,NA,"",       1.98884,       1.59807,      -1.18390,   584.878E-09
C:/temp/dataset/2/29_2.odb,Step-1,Increment      1: Step Time =    1.000,"PART-1-1",           447,           15.,     -625.E-03,            0.,NA,NA,"",       1.86937,       1.02855,      -1.56097,   847.903E-09
C:/temp/dataset/2/29_2.odb,Step-1,Increment      1: Step Time =    1.000,"PART-1-1",           448,       13.7714,   731.820E-03,            0.,NA,NA,"",       1.85889,       1.11647,      -1.48626,   489.381E-09
C:/temp/dataset/2/29_2.odb,Step-1,Increment      1: Step Time =    1.000,"PART-1-1",           449,       12.5339,  -774.506E-03,            0.,NA,NA,"",       1.73882,       1.02403,      -1.40530,   444.164E-09
C:/temp/dataset/2/29_2.odb,Step-1,Increment      1: Step Time =    1.000,"PART-1-1",           450,       7.40609,       11.8257,            0.,NA,NA,"",       2.13727,       1.82809,      -1.10725,   208.360E-09
C:/temp/dataset/2/29_2.odb,Step-1,Increment      1: Step Time =    1.000,"PART-1-1",           451,       8.70206,       10.8725,            0.,NA,NA,"",       2.12740,       1.76546,      -1.18701,   264.997E-09
C:/temp/dataset/2/29_2.odb,Step-1,Increment      1: Step Time =    1.000,"PART-1-1",           452,       11.2454,       8.75341,            0.,NA,NA,"",       2.10963,       1.62689,      -1.34305,   420.034E-09
C:/temp/dataset/2/29_2.odb,Step-1,Increment      1: Step Time =    1.000,"PART-1-1",           453,       11.2622,       5.99112,            0.,NA,NA,"",       1.97549,       1.45281,      -1.33862,   366.780E-09
C:/temp/dataset/2/29_2.odb,Step-1,Increment      1: Step Time =    1.000,"PART-1-1",           454,       13.8596,       24.3693,            0.,NA,NA,"",       3.02604,       2.60559,      -1.53879,   495.758E-12
C:/temp/dataset/2/29_2.odb,Step-1,Increment      1: Step Time =    1.000,"PART-1-1",           455,       12.6110,       23.1199,            0.,NA,NA,"",       2.91930,       2.52935,      -1.45764,   1.13029E-09
C:/temp/dataset/2/29_2.odb,Step-1,Increment      1: Step Time =    1.000,"PART-1-1",           456,       13.7514,       21.4590,            0.,NA,NA,"",       2.86312,       2.42244,      -1.52619,   1.21862E-09
C:/temp/dataset/2/29_2.odb,Step-1,Increment      1: Step Time =    1.000,"PART-1-1",           457,           15.,       22.7083,            0.,NA,NA,"",       2.97101,       2.49867,      -1.60734,   1.00669E-09
C:/temp/dataset/2/29_2.odb,Step-1,Increment      1: Step Time =    1.000,"PART-1-1",           458,       8.83903,       17.2613,            0.,NA,NA,"",       2.48175,       2.16772,      -1.20834,   8.48831E-09
C:/temp/dataset/2/29_2.odb,Step-1,Increment      1: Step Time =    1.000,"PART-1-1",           459,       10.5130,       17.3338,            0.,NA,NA,"",       2.53591,       2.16896,      -1.31395,   7.34564E-09
C:/temp/dataset/2/29_2.odb,Step-1,Increment      1: Step Time =    1.000,"PART-1-1",           460,       8.72284,       19.1442,            0.,NA,NA,"",       2.58455,       2.28658,      -1.20476,   1.99462E-09
C:/temp/dataset/2/29_2.odb,Step-1,Increment      1: Step Time =    1.000,"PART-1-1",           461,           15.,       28.5417,            0.,NA,NA,"",       3.29182,       2.86621,      -1.61893,   372.206E-12
C:/temp/dataset/2/29_2.odb,Step-1,Increment      1: Step Time =    1.000,"PART-1-1",           462,         13.75,           30.,            0.,NA,NA,"",       3.33857,       2.96058,      -1.54307,   445.345E-12
C:/temp/dataset/2/29_2.odb,Step-1,Increment      1: Step Time =    1.000,"PART-1-1",           463,       12.5875,       28.6551,            0.,NA,NA,"",       3.23053,       2.87815,      -1.46715,   431.105E-12
C:/temp/dataset/2/29_2.odb,Step-1,Increment      1: Step Time =    1.000,"PART-1-1",           464,       13.8375,       27.1968,            0.,NA,NA,"",       3.18282,       2.78378,      -1.54301,   369.590E-12
C:/temp/dataset/2/29_2.odb,Step-1,Increment      1: Step Time =    1.000,"PART-1-1",           465,         11.25,           30.,            0.,NA,NA,"",       3.27326,       2.96554,      -1.38555,   440.054E-12
C:/temp/dataset/2/29_2.odb,Step-1,Increment      1: Step Time =    1.000,"PART-1-1",           466,       10.1484,       28.7335,            0.,NA,NA,"",       3.17266,       2.88793,      -1.31363,   436.309E-12
C:/temp/dataset/2/29_2.odb,Step-1,Increment      1: Step Time =    1.000,"PART-1-1",           467,       7.69941,       28.7139,            0.,NA,NA,"",       3.11530,       2.89157,      -1.15929,   503.666E-12
C:/temp/dataset/2/29_2.odb,Step-1,Increment      1: Step Time =    1.000,"PART-1-1",           468,       9.09777,       27.4473,            0.,NA,NA,"",       3.07248,       2.80899,      -1.24488,   602.764E-12
C:/temp/dataset/2/29_2.odb,Step-1,Increment      1: Step Time =    1.000,"PART-1-1",           469,          8.75,           30.,            0.,NA,NA,"",       3.21435,       2.97051,      -1.22804,   361.812E-12
C:/temp/dataset/2/29_2.odb,Step-1,Increment      1: Step Time =    1.000,"PART-1-1",           470,  -9.87333E-03,       28.6960,            0.,NA,NA,"",       2.98279,       2.90575,  -673.521E-03,   522.251E-12
C:/temp/dataset/2/29_2.odb,Step-1,Increment      1: Step Time =    1.000,"PART-1-1",           471,          1.25,           30.,            0.,NA,NA,"",       3.07952,       2.98541,  -755.492E-03,   720.113E-12
C:/temp/dataset/2/29_2.odb,Step-1,Increment      1: Step Time =    1.000,"PART-1-1",           472,       4.87954,       25.6434,            0.,NA,NA,"",       2.87431,       2.70371,  -975.519E-03,   762.023E-12
C:/temp/dataset/2/29_2.odb,Step-1,Increment      1: Step Time =    1.000,"PART-1-1",           473,      -5.00474,       28.7231,            0.,NA,NA,"",       2.93938,       2.91739,  -358.868E-03,   417.059E-12
C:/temp/dataset/2/29_2.odb,Step-1,Increment      1: Step Time =    1.000,"PART-1-1",           474,         -6.25,           30.,            0.,NA,NA,"",       3.01363,       3.00031,  -282.946E-03,   453.587E-12
C:/temp/dataset/2/29_2.odb,Step-1,Increment      1: Step Time =    1.000,"PART-1-1",           475,      -3.76303,       27.4393,            0.,NA,NA,"",       2.86715,       2.83403,  -434.552E-03,   402.583E-12
C:/temp/dataset/2/29_2.odb,Step-1,Increment      1: Step Time =    1.000,"PART-1-1",           476,      -3.77322,       24.9147,            0.,NA,NA,"",       2.70915,       2.67499,  -428.894E-03,   479.715E-12
C:/temp/dataset/2/29_2.odb,Step-1,Increment      1: Step Time =    1.000,"PART-1-1",           477,      -13.7476,       27.4926,            0.,NA,NA,"",       2.86384,       2.85723,   194.431E-03,   493.455E-12
C:/temp/dataset/2/29_2.odb,Step-1,Increment      1: Step Time =    1.000,"PART-1-1",           478,        -13.75,           30.,            0.,NA,NA,"",       3.02117,       3.01522,   189.600E-03,   432.524E-12
C:/temp/dataset/2/29_2.odb,Step-1,Increment      1: Step Time =    1.000,"PART-1-1",           479,          -15.,         28.75,            0.,NA,NA,"",       2.95140,       2.93894,   270.842E-03,   517.619E-12
C:/temp/dataset/2/29_2.odb,Step-1,Increment      1: Step Time =    1.000,"PART-1-1",           480,          -15.,         26.25,            0.,NA,NA,"",       2.79507,       2.78143,   275.809E-03,   493.149E-12
C:/temp/dataset/2/29_2.odb,Step-1,Increment      1: Step Time =    1.000,"PART-1-1",           481,      -12.4965,       26.2309,            0.,NA,NA,"",       2.77776,       2.77525,   118.110E-03,   472.003E-12
C:/temp/dataset/2/29_2.odb,Step-1,Increment      1: Step Time =    1.000,"PART-1-1",           482,      -10.0014,       23.7134,            0.,NA,NA,"",       2.61190,       2.61167,  -34.0950E-03,   508.633E-12
C:/temp/dataset/2/29_2.odb,Step-1,Increment      1: Step Time =    1.000,"PART-1-1",           483,      -8.75535,       22.4567,            0.,NA,NA,"",       2.53241,       2.53002,  -110.106E-03,   558.751E-12
C:/temp/dataset/2/29_2.odb,Step-1,Increment      1: Step Time =    1.000,"PART-1-1",           484,      -7.50515,       23.6891,            0.,NA,NA,"",       2.61220,       2.60518,  -191.325E-03,   523.278E-12
C:/temp/dataset/2/29_2.odb,Step-1,Increment      1: Step Time =    1.000,"PART-1-1",           485,      -8.75118,       24.9458,            0.,NA,NA,"",       2.68931,       2.68684,  -115.314E-03,   482.335E-12
C:/temp/dataset/2/29_2.odb,Step-1,Increment      1: Step Time =    1.000,"PART-1-1",           486,      -3.77419,       22.4219,            0.,NA,NA,"",       2.55336,       2.51793,  -423.880E-03,   644.136E-12
C:/temp/dataset/2/29_2.odb,Step-1,Increment      1: Step Time =    1.000,"PART-1-1",           487,      -5.00723,       21.2173,            0.,NA,NA,"",       2.46854,       2.44448,  -343.798E-03,   708.825E-12
C:/temp/dataset/2/29_2.odb,Step-1,Increment      1: Step Time =    1.000,"PART-1-1",           488,         -3.75,           20.,            0.,NA,NA,"",       2.40239,       2.36529,  -420.592E-03,   850.942E-12
C:/temp/dataset/2/29_2.odb,Step-1,Increment      1: Step Time =    1.000,"PART-1-1",           489,      -2.51696,       21.2046,            0.,NA,NA,"",       2.48959,       2.43873,  -500.675E-03,   775.695E-12
C:/temp/dataset/2/29_2.odb,Step-1,Increment      1: Step Time =    1.000,"PART-1-1",           490,         -8.75,           20.,            0.,NA,NA,"",       2.37756,       2.37522,  -105.562E-03,   675.086E-12
C:/temp/dataset/2/29_2.odb,Step-1,Increment      1: Step Time =    1.000,"PART-1-1",           491,      -7.50331,       21.2223,            0.,NA,NA,"",       2.45685,       2.44975,  -186.540E-03,   643.433E-12
C:/temp/dataset/2/29_2.odb,Step-1,Increment      1: Step Time =    1.000,"PART-1-1",           492,         -6.25,           20.,            0.,NA,NA,"",       2.38481,       2.37025,  -263.077E-03,   766.024E-12
C:/temp/dataset/2/29_2.odb,Step-1,Increment      1: Step Time =    1.000,"PART-1-1",           493,      -6.26054,       22.4396,            0.,NA,NA,"",       2.53809,       2.52398,  -267.260E-03,   599.896E-12
C:/temp/dataset/2/29_2.odb,Step-1,Increment      1: Step Time =    1.000,"PART-1-1",           494,         -1.25,           20.,            0.,NA,NA,"",       2.43008,       2.36032,  -578.108E-03,   915.242E-12
C:/temp/dataset/2/29_2.odb,Step-1,Increment      1: Step Time =    1.000,"PART-1-1",           495,      -1.30453,       22.3853,            0.,NA,NA,"",       2.57671,       2.51072,  -579.411E-03,   705.602E-12
C:/temp/dataset/2/29_2.odb,Step-1,Increment      1: Step Time =    1.000,"PART-1-1",           496,         -1.25,           30.,            0.,NA,NA,"",       3.04958,       2.99038,  -597.976E-03,   634.566E-12
C:/temp/dataset/2/29_2.odb,Step-1,Increment      1: Step Time =    1.000,"PART-1-1",           497,      -2.50829,       28.7162,            0.,NA,NA,"",       2.95738,       2.91199,  -516.146E-03,   459.672E-12
C:/temp/dataset/2/29_2.odb,Step-1,Increment      1: Step Time =    1.000,"PART-1-1",           498,         -3.75,           30.,            0.,NA,NA,"",       3.02756,       2.99535,  -440.461E-03,   530.387E-12
C:/temp/dataset/2/29_2.odb,Step-1,Increment      1: Step Time =    1.000,"PART-1-1",           499,          3.75,           20.,            0.,NA,NA,"",       2.51436,       2.35038,  -893.139E-03,   1.94135E-09
C:/temp/dataset/2/29_2.odb,Step-1,Increment      1: Step Time =    1.000,"PART-1-1",           500,       4.75388,       21.0765,            0.,NA,NA,"",       2.59940,       2.41622,  -958.528E-03,   2.64488E-09
C:/temp/dataset/2/29_2.odb,Step-1,Increment      1: Step Time =    1.000,"PART-1-1",           501,          6.25,           30.,            0.,NA,NA,"",       3.16220,       2.97548,      -1.07052,   489.572E-12
C:/temp/dataset/2/29_2.odb,Step-1,Increment      1: Step Time =    1.000,"PART-1-1",           502,       6.61296,       27.1492,            0.,NA,NA,"",       2.99933,       2.79514,      -1.08773,   715.371E-12
C:/temp/dataset/2/29_2.odb,Step-1,Increment      1: Step Time =    1.000,"PART-1-1",           503,            5.,         16.25,            0.,NA,NA,"",       2.32145,       2.11163,  -964.446E-03,   5.97965E-09
C:/temp/dataset/2/29_2.odb,Step-1,Increment      1: Step Time =    1.000,"PART-1-1",           504,       6.03202,       15.2452,            0.,NA,NA,"",       2.28974,       2.04627,      -1.02747,   10.6970E-09
C:/temp/dataset/2/29_2.odb,Step-1,Increment      1: Step Time =    1.000,"PART-1-1",           505,       6.91243,       16.6330,            0.,NA,NA,"",       2.39249,       2.13196,      -1.08570,   10.9085E-09
C:/temp/dataset/2/29_2.odb,Step-1,Increment      1: Step Time =    1.000,"PART-1-1",           506,            5.,         13.75,            0.,NA,NA,"",       2.17696,       1.95411,  -959.478E-03,   18.7470E-09
C:/temp/dataset/2/29_2.odb,Step-1,Increment      1: Step Time =    1.000,"PART-1-1",           507,       6.17466,       12.7979,            0.,NA,NA,"",       2.15478,       1.89179,      -1.03160,   79.5744E-09
C:/temp/dataset/2/29_2.odb,Step-1,Increment      1: Step Time =    1.000,"PART-1-1",           508,       12.0086,       16.5092,            0.,NA,NA,"",       2.53919,       2.11403,      -1.40654,   18.1172E-09
C:/temp/dataset/2/29_2.odb,Step-1,Increment      1: Step Time =    1.000,"PART-1-1",           509,           15.,        16.875,            0.,NA,NA,"",       2.66236,       2.13114,      -1.59575,   1.33132E-09
C:/temp/dataset/2/29_2.odb,Step-1,Increment      1: Step Time =    1.000,"PART-1-1",           510,       13.3591,       18.2744,            0.,NA,NA,"",       2.67867,       2.22257,      -1.49514,   1.60699E-09
C:/temp/dataset/2/29_2.odb,Step-1,Increment      1: Step Time =    1.000,"PART-1-1",           511,            5.,         11.25,            0.,NA,NA,"",       2.03442,       1.79660,  -954.511E-03,   265.826E-09
C:/temp/dataset/2/29_2.odb,Step-1,Increment      1: Step Time =    1.000,"PART-1-1",           512,       6.23142,       10.2778,            0.,NA,NA,"",       2.01598,       1.73290,      -1.03017,   244.197E-09
C:/temp/dataset/2/29_2.odb,Step-1,Increment      1: Step Time =    1.000,"PART-1-1",           513,            5.,          8.75,            0.,NA,NA,"",       1.89426,       1.63908,  -949.543E-03,   551.628E-09
C:/temp/dataset/2/29_2.odb,Step-1,Increment      1: Step Time =    1.000,"PART-1-1",           514,       7.47251,       9.25684,            0.,NA,NA,"",       1.99997,       1.66610,      -1.10633,   646.198E-09
C:/temp/dataset/2/29_2.odb,Step-1,Increment      1: Step Time =    1.000,"PART-1-1",           515,         11.25,           -5.,            0.,NA,NA,"",       1.51989,   760.364E-03,      -1.31602,   570.889E-09
C:/temp/dataset/2/29_2.odb,Step-1,Increment      1: Step Time =    1.000,"PART-1-1",           516,       11.2689,      -2.22707,            0.,NA,NA,"",       1.61983,   935.025E-03,      -1.32272,   522.023E-09
C:/temp/dataset/2/29_2.odb,Step-1,Increment      1: Step Time =    1.000,"PART-1-1",           517,          10.5,          -30.,            0.,NA,NA,"",            0.,   1.73164E-39,  -1.06961E-39,   1.55667E-03
C:/temp/dataset/2/29_2.odb,Step-1,Increment      1: Step Time =    1.000,"PART-1-1",           518,           15.,        -23.75,            0.,NA,NA,"",   13.3431E-03,   12.5043E-03,  -4.65627E-03,   35.4416E-06
C:/temp/dataset/2/29_2.odb,Step-1,Increment      1: Step Time =    1.000,"PART-1-1",           519,          3.75,           -5.,            0.,NA,NA,"",       1.14567,   775.221E-03,  -843.560E-03,   35.9792E-06
C:/temp/dataset/2/29_2.odb,Step-1,Increment      1: Step Time =    1.000,"PART-1-1",           520,       4.97006,      -3.74763,            0.,NA,NA,"",       1.25586,   851.727E-03,  -922.906E-03,   16.7424E-06
C:/temp/dataset/2/29_2.odb,Step-1,Increment      1: Step Time =    1.000,"PART-1-1",           521,       4.85412,       3.76356,            0.,NA,NA,"",       1.61920,       1.32519,  -930.428E-03,   15.6642E-06
C:/temp/dataset/2/29_2.odb,Step-1,Increment      1: Step Time =    1.000,"PART-1-1",           522,       3.33333,            5.,            0.,NA,NA,"",       1.63637,       1.40607,  -837.054E-03,   45.1280E-06
C:/temp/dataset/2/29_2.odb,Step-1,Increment      1: Step Time =    1.000,"PART-1-1",           523,       1.45296,       3.58740,            0.,NA,NA,"",       1.50226,       1.32079,  -715.737E-03,   59.6190E-06
C:/temp/dataset/2/29_2.odb,Step-1,Increment      1: Step Time =    1.000,"PART-1-1",           524,       2.97375,       2.35096,            0.,NA,NA,"",       1.48060,       1.23996,  -809.123E-03,   53.5956E-06
C:/temp/dataset/2/29_2.odb,Step-1,Increment      1: Step Time =    1.000,"PART-1-1",           525,          6.25,           -5.,            0.,NA,NA,"",       1.26310,   770.295E-03,      -1.00103,   10.7204E-06
C:/temp/dataset/2/29_2.odb,Step-1,Increment      1: Step Time =    1.000,"PART-1-1",           526,       12.4696,       10.4445,            0.,NA,NA,"",       2.24117,       1.73100,      -1.42354,   259.968E-09
C:/temp/dataset/2/29_2.odb,Step-1,Increment      1: Step Time =    1.000,"PART-1-1",           527,           15.,       11.0417,            0.,NA,NA,"",       2.37062,       1.76360,      -1.58416,   185.880E-09
C:/temp/dataset/2/29_2.odb,Step-1,Increment      1: Step Time =    1.000,"PART-1-1",           528,      -5.01382,       23.6808,            0.,NA,NA,"",       2.62293,       2.59971,  -348.277E-03,   540.939E-12
C:/temp/dataset/2/29_2.odb,Step-1,Increment      1: Step Time =    1.000,"PART-1-1",           529,      -2.53358,       23.6558,            0.,NA,NA,"",       2.64182,       2.59320,  -504.498E-03,   560.682E-12
C:/temp/dataset/2/29_2.odb,Step-1,Increment      1: Step Time =    1.000,"PART-1-1",           530,  -74.6816E-03,       23.6075,            0.,NA,NA,"",       2.66803,       2.58528,  -659.328E-03,   624.110E-12
C:/temp/dataset/2/29_2.odb,Step-1,Increment      1: Step Time =    1.000,"PART-1-1",           531,      -6.62798,      -1.45964,            0.,NA,NA,"",       1.03647,       1.01732,  -198.288E-03,   2.32257E-03
C:/temp/dataset/2/29_2.odb,Step-1,Increment      1: Step Time =    1.000,"PART-1-1",           532,      -4.43070,      -2.38075,            0.,NA,NA,"",       1.01235,   956.428E-03,  -331.805E-03,   1.20781E-03
C:/temp/dataset/2/29_2.odb,Step-1,Increment      1: Step Time =    1.000,"PART-1-1",           533,      -3.64554,  -813.143E-03,            0.,NA,NA,"",       1.12248,       1.05411,  -385.771E-03,   478.771E-06
C:/temp/dataset/2/29_2.odb,Step-1,Increment      1: Step Time =    1.000,"PART-1-1",           534,         -3.75,           -5.,            0.,NA,NA,"",   870.846E-03,   788.828E-03,  -368.948E-03,   1.36864E-03
C:/temp/dataset/2/29_2.odb,Step-1,Increment      1: Step Time =    1.000,"PART-1-1",           535,      -13.8599,      -9.43096,            0.,NA,NA,"",   578.649E-03,   536.589E-03,   216.580E-03,   8.45514E-03
C:/temp/dataset/2/29_2.odb,Step-1,Increment      1: Step Time =    1.000,"PART-1-1",           536,          -15.,      -11.0417,            0.,NA,NA,"",   525.886E-03,   454.531E-03,   264.495E-03,   12.4372E-03
C:/temp/dataset/2/29_2.odb,Step-1,Increment      1: Step Time =    1.000,"PART-1-1",           537,      -11.9984,      -19.8095,            0.,NA,NA,"",   106.153E-03,   81.5583E-03,   67.9468E-03,   8.57234E-03
C:/temp/dataset/2/29_2.odb,Step-1,Increment      1: Step Time =    1.000,"PART-1-1",           538,      -13.3881,      -18.2324,            0.,NA,NA,"",   178.402E-03,   132.712E-03,   119.226E-03,   13.3020E-03
C:/temp/dataset/2/29_2.odb,Step-1,Increment      1: Step Time =    1.000,"PART-1-1",           539,          -15.,      -19.7917,            0.,NA,NA,"",   173.386E-03,   102.140E-03,   140.107E-03,   18.8834E-03
C:/temp/dataset/2/29_2.odb,Step-1,Increment      1: Step Time =    1.000,"PART-1-1",           540,           -5.,        -18.75,            0.,NA,NA,"",   146.050E-03,   105.608E-03,  -100.883E-03,   27.5945E-03
C:/temp/dataset/2/29_2.odb,Step-1,Increment      1: Step Time =    1.000,"PART-1-1",           541,      -5.96138,      -20.0094,            0.,NA,NA,"",   79.7824E-03,   54.0606E-03,  -58.6744E-03,   18.3648E-03
C:/temp/dataset/2/29_2.odb,Step-1,Increment      1: Step Time =    1.000,"PART-1-1",           542,           -5.,        -13.75,            0.,NA,NA,"",   361.514E-03,   308.636E-03,  -188.244E-03,   14.6896E-03
C:/temp/dataset/2/29_2.odb,Step-1,Increment      1: Step Time =    1.000,"PART-1-1",           543,      -7.28958,      -14.3036,            0.,NA,NA,"",   285.503E-03,   273.603E-03,  -81.5665E-03,   9.32773E-03
C:/temp/dataset/2/29_2.odb,Step-1,Increment      1: Step Time =    1.000,"PART-1-1",           544,      -8.88285,      -11.0213,            0.,NA,NA,"",   436.338E-03,   435.212E-03,  -31.3315E-03,   5.01597E-03
C:/temp/dataset/2/29_2.odb,Step-1,Increment      1: Step Time =    1.000,"PART-1-1",           545,      -9.01222,      -8.51542,            0.,NA,NA,"",   577.732E-03,   576.727E-03,  -34.0625E-03,   4.68257E-03
C:/temp/dataset/2/29_2.odb,Step-1,Increment      1: Step Time =    1.000,"PART-1-1",           546,      -9.13424,  -715.290E-03,            0.,NA,NA,"",       1.07024,       1.06913,  -48.8756E-03,   2.77993E-03
C:/temp/dataset/2/29_2.odb,Step-1,Increment      1: Step Time =    1.000,"PART-1-1",           547,      -9.92186,      -2.42350,            0.,NA,NA,"",   960.379E-03,   960.378E-03,   1.43156E-03,   3.88627E-03
C:/temp/dataset/2/29_2.odb,Step-1,Increment      1: Step Time =    1.000,"PART-1-1",           548,      -12.7176,      -7.95930,            0.,NA,NA,"",   638.253E-03,   617.602E-03,   161.041E-03,   5.91275E-03
C:/temp/dataset/2/29_2.odb,Step-1,Increment      1: Step Time =    1.000,"PART-1-1",           549,          -15.,        -8.125,            0.,NA,NA,"",   682.602E-03,   618.659E-03,   288.456E-03,   9.34755E-03
C:/temp/dataset/2/29_2.odb,Step-1,Increment      1: Step Time =    1.000,"PART-1-1",           550,       11.2818,   528.104E-03,            0.,NA,NA,"",       1.73066,       1.10858,      -1.32900,   1.15833E-06
C:/temp/dataset/2/29_2.odb,Step-1,Increment      1: Step Time =    1.000,"PART-1-1",           551,       10.0167,  -924.457E-03,            0.,NA,NA,"",       1.61031,       1.01958,      -1.24642,   1.57022E-06
C:/temp/dataset/2/29_2.odb,Step-1,Increment      1: Step Time =    1.000,"PART-1-1",           552,       10.4320,       23.7699,            0.,NA,NA,"",       2.89404,       2.57463,      -1.32164,   1.02366E-09
C:/temp/dataset/2/29_2.odb,Step-1,Increment      1: Step Time =    1.000,"PART-1-1",           553,           15.,        25.625,            0.,NA,NA,"",       3.13013,       2.68244,      -1.61313,   458.667E-12
C:/temp/dataset/2/29_2.odb,Step-1,Increment      1: Step Time =    1.000,"PART-1-1",           554,      -9.99539,       26.2124,            0.,NA,NA,"",       2.76940,       2.76912,  -39.4374E-03,   448.485E-12
C:/temp/dataset/2/29_2.odb,Step-1,Increment      1: Step Time =    1.000,"PART-1-1",           555,          -15.,       -25.625,            0.,NA,NA,"",   53.4373E-03,   19.7632E-03,   49.6484E-03,   14.7787E-03
C:/temp/dataset/2/29_2.odb,Step-1,Increment      1: Step Time =    1.000,"PART-1-1",           556,      -12.2044,      -25.8339,            0.,NA,NA,"",   26.3963E-03,   4.45564E-03,   26.0175E-03,   8.32419E-03
C:/temp/dataset/2/29_2.odb,Step-1,Increment      1: Step Time =    1.000,"PART-1-1",           557,          -15.,       -16.875,            0.,NA,NA,"",   267.802E-03,   190.101E-03,   188.625E-03,   18.0651E-03
C:/temp/dataset/2/29_2.odb,Step-1,Increment      1: Step Time =    1.000,"PART-1-1",           558,      -8.25880,      -15.9015,            0.,NA,NA,"",   204.372E-03,   201.638E-03,  -33.3186E-03,   7.24127E-03
C:/temp/dataset/2/29_2.odb,Step-1,Increment      1: Step Time =    1.000,"PART-1-1",           559,       7.56555,       17.9230,            0.,NA,NA,"",       2.48360,       2.21194,      -1.12942,   2.49338E-09
C:/temp/dataset/2/29_2.odb,Step-1,Increment      1: Step Time =    1.000,"PART-1-1",           560,      -9.72707,       2.21069,            0.,NA,NA,"",       1.25766,       1.25753,  -18.0824E-03,   1.70807E-03
C:/temp/dataset/2/29_2.odb,Step-1,Increment      1: Step Time =    1.000,"PART-1-1",           561,      -8.18006,       3.69884,            0.,NA,NA,"",       1.35201,       1.34710,  -115.113E-03,   928.970E-06
C:/temp/dataset/2/29_2.odb,Step-1,Increment      1: Step Time =    1.000,"PART-1-1",           562,          -10.,            5.,            0.,NA,NA,"",       1.43290,       1.43289,  -5.32849E-03,   1.26870E-03
C:/temp/dataset/2/29_2.odb,Step-1,Increment      1: Step Time =    1.000,"PART-1-1",           563,      -10.3433,      -7.69771,            0.,NA,NA,"",   627.946E-03,   627.024E-03,   34.0249E-03,   4.85543E-03
C:/temp/dataset/2/29_2.odb,Step-1,Increment      1: Step Time =    1.000,"PART-1-1",           564,      -11.5611,      -6.59494,            0.,NA,NA,"",   704.310E-03,   697.263E-03,   99.3816E-03,   4.81658E-03
C:/temp/dataset/2/29_2.odb,Step-1,Increment      1: Step Time =    1.000,"PART-1-1",           565,      -9.40089,      -20.7816,            0.,NA,NA,"",   50.8226E-03,   50.3894E-03,   6.62131E-03,   3.01788E-03
C:/temp/dataset/2/29_2.odb,Step-1,Increment      1: Step Time =    1.000,"PART-1-1",           566,      -8.21757,      -22.2064,            0.,NA,NA,"",   30.0468E-03,   26.5956E-03,  -13.9816E-03,   4.19840E-03
C:/temp/dataset/2/29_2.odb,Step-1,Increment      1: Step Time =    1.000,"PART-1-1",           567,      -6.89894,      -21.2078,            0.,NA,NA,"",   53.4411E-03,   38.1583E-03,  -37.4152E-03,   7.81208E-03
C:/temp/dataset/2/29_2.odb,Step-1,Increment      1: Step Time =    1.000,"PART-1-1",           568,      -9.14285,      -28.6800,            0.,NA,NA,"",   4.20488E-03,  -4.12615E-03,   809.850E-06,   2.49954E-03
C:/temp/dataset/2/29_2.odb,Step-1,Increment      1: Step Time =    1.000,"PART-1-1",           569,      -10.7232,      -27.3047,            0.,NA,NA,"",   8.96055E-03,  -3.41461E-03,   8.28443E-03,   4.37102E-03
C:/temp/dataset/2/29_2.odb,Step-1,Increment      1: Step Time =    1.000,"PART-1-1",           570,         -10.5,          -30.,            0.,NA,NA,"",            0.,  -4.01505E-39,   7.29235E-39,   4.20843E-03
C:/temp/dataset/2/29_2.odb,Step-1,Increment      1: Step Time =    1.000,"PART-1-1",           571,      -4.89633,      -27.4366,            0.,NA,NA,"",   9.68777E-03,   4.19777E-03,  -8.73107E-03,   4.97760E-03
C:/temp/dataset/2/29_2.odb,Step-1,Increment      1: Step Time =    1.000,"PART-1-1",           572,      -6.18287,      -28.7136,            0.,NA,NA,"",   3.09200E-03,  -656.579E-06,  -3.02149E-03,   3.50710E-03
C:/temp/dataset/2/29_2.odb,Step-1,Increment      1: Step Time =    1.000,"PART-1-1",           573,          -4.5,          -30.,            0.,NA,NA,"",            0.,   876.170E-42,  -6.70346E-39,   3.00655E-03
C:/temp/dataset/2/29_2.odb,Step-1,Increment      1: Step Time =    1.000,"PART-1-1",           574,       12.5384,       2.02620,            0.,NA,NA,"",       1.85269,       1.20047,      -1.41115,   189.591E-09
C:/temp/dataset/2/29_2.odb,Step-1,Increment      1: Step Time =    1.000,"PART-1-1",           575,           15.,       2.29167,            0.,NA,NA,"",       1.98102,       1.21230,      -1.56677,   1.15000E-06
C:/temp/dataset/2/29_2.odb,Step-1,Increment      1: Step Time =    1.000,"PART-1-1",           576,       9.96595,       9.83263,            0.,NA,NA,"",       2.11670,       1.69743,      -1.26458,   390.034E-09
C:/temp/dataset/2/29_2.odb,Step-1,Increment      1: Step Time =    1.000,"PART-1-1",           577,           15.,       19.7917,            0.,NA,NA,"",       2.81491,       2.31491,      -1.60154,   2.54096E-09
C:/temp/dataset/2/29_2.odb,Step-1,Increment      1: Step Time =    1.000,"PART-1-1",           578,       7.90800,       20.1372,            0.,NA,NA,"",       2.61936,       2.35076,      -1.15539,   1.92644E-09
C:/temp/dataset/2/29_2.odb,Step-1,Increment      1: Step Time =    1.000,"PART-1-1",           579,       8.41916,       21.3934,            0.,NA,NA,"",       2.70479,       2.42890,      -1.19009,   1.75599E-09
C:/temp/dataset/2/29_2.odb,Step-1,Increment      1: Step Time =    1.000,"PART-1-1",           580,       6.50486,       21.1025,            0.,NA,NA,"",       2.64041,       2.41437,      -1.06890,   2.52559E-09
C:/temp/dataset/2/29_2.odb,Step-1,Increment      1: Step Time =    1.000,"PART-1-1",           581,           4.5,          -30.,            0.,NA,NA,"",            0.,   3.04229E-39,  -2.15997E-39,   2.81952E-03
C:/temp/dataset/2/29_2.odb,Step-1,Increment      1: Step Time =    1.000,"PART-1-1",           582,       3.62857,      -22.4261,            0.,NA,NA,"",   18.9365E-03,   18.9082E-03,  -1.03395E-03,   1.64922E-03
C:/temp/dataset/2/29_2.odb,Step-1,Increment      1: Step Time =    1.000,"PART-1-1",           583,       2.16864,      -23.6665,            0.,NA,NA,"",   20.0703E-03,   19.7564E-03,  -3.53591E-03,   2.59277E-03
C:/temp/dataset/2/29_2.odb,Step-1,Increment      1: Step Time =    1.000,"PART-1-1",           584,      -2.73954,      -22.4743,            0.,NA,NA,"",   41.2061E-03,   31.9970E-03,  -25.9641E-03,   7.77723E-03
C:/temp/dataset/2/29_2.odb,Step-1,Increment      1: Step Time =    1.000,"PART-1-1",           585,  -999.676E-03,      -23.6839,            0.,NA,NA,"",   27.5291E-03,   24.2972E-03,  -12.9421E-03,   5.53464E-03
C:/temp/dataset/2/29_2.odb,Step-1,Increment      1: Step Time =    1.000,"PART-1-1",           586,      -7.82572,      -27.3936,            0.,NA,NA,"",   4.48021E-03,  -2.46492E-03,  -3.74118E-03,   2.57433E-03
C:/temp/dataset/2/29_2.odb,Step-1,Increment      1: Step Time =    1.000,"PART-1-1",           587,      -6.52069,      -26.1528,            0.,NA,NA,"",   12.6708E-03,   3.89220E-03,  -12.0582E-03,   5.42289E-03
C:/temp/dataset/2/29_2.odb,Step-1,Increment      1: Step Time =    1.000,"PART-1-1",           588,      -8.08310,      -24.7829,            0.,NA,NA,"",   10.5960E-03,   6.18998E-03,  -8.59992E-03,   3.30482E-03
C:/temp/dataset/2/29_2.odb,Step-1,Increment      1: Step Time =    1.000,"PART-1-1",           589,      -9.38814,      -26.0237,            0.,NA,NA,"",   2.85525E-03,  -750.600E-06,   2.75483E-03,   2.51914E-03
C:/temp/dataset/2/29_2.odb,Step-1,Increment      1: Step Time =    1.000,"PART-1-1",           590,          -7.5,          -30.,            0.,NA,NA,"",            0.,  -2.49842E-39,  -2.21359E-39,   2.18890E-03
C:/temp/dataset/2/29_2.odb,Step-1,Increment      1: Step Time =    1.000,"PART-1-1",           591,       7.73182,       24.8866,            0.,NA,NA,"",       2.89058,       2.65036,      -1.15373,   1.08738E-09
C:/temp/dataset/2/29_2.odb,Step-1,Increment      1: Step Time =    1.000,"PART-1-1",           592,       8.21760,       26.2797,            0.,NA,NA,"",       2.98350,       2.73717,      -1.18710,   853.694E-12
C:/temp/dataset/2/29_2.odb,Step-1,Increment      1: Step Time =    1.000,"PART-1-1",           593,       6.12718,       25.7561,            0.,NA,NA,"",       2.90632,       2.70833,      -1.05435,   926.533E-12
C:/temp/dataset/2/29_2.odb,Step-1,Increment      1: Step Time =    1.000,"PART-1-1",           594,       5.38844,       22.1508,            0.,NA,NA,"",       2.67671,       2.48264,      -1.00064,   1.66895E-09
C:/temp/dataset/2/29_2.odb,Step-1,Increment      1: Step Time =    1.000,"PART-1-1",           595,      -3.37677,   775.412E-03,            0.,NA,NA,"",       1.22308,       1.15361,  -406.342E-03,   370.631E-06
C:/temp/dataset/2/29_2.odb,Step-1,Increment      1: Step Time =    1.000,"PART-1-1",           596,      -3.41233,       2.84116,            0.,NA,NA,"",       1.34682,       1.28338,  -408.484E-03,   164.095E-06
C:/temp/dataset/2/29_2.odb,Step-1,Increment      1: Step Time =    1.000,"PART-1-1",           597,      -11.2482,       24.9673,            0.,NA,NA,"",       2.69348,       2.69315,   41.9725E-03,   487.573E-12
C:/temp/dataset/2/29_2.odb,Step-1,Increment      1: Step Time =    1.000,"PART-1-1",           598,       5.16292,       24.1270,            0.,NA,NA,"",       2.78934,       2.60760,  -990.361E-03,   1.02572E-09
C:/temp/dataset/2/29_2.odb,Step-1,Increment      1: Step Time =    1.000,"PART-1-1",           599,            0.,            5.,            0.,NA,NA,"",       1.54539,       1.41244,  -627.084E-03,   148.138E-06
C:/temp/dataset/2/29_2.odb,Step-1,Increment      1: Step Time =    1.000,"PART-1-1",           600,      -1.80204,       3.95011,            0.,NA,NA,"",       1.44354,       1.34983,  -511.635E-03,   132.133E-06
C:/temp/dataset/2/29_2.odb,Step-1,Increment      1: Step Time =    1.000,"PART-1-1",           601,       9.59799,       22.9228,            0.,NA,NA,"",       2.82337,       2.52292,      -1.26741,   1.52916E-09
C:/temp/dataset/2/29_2.odb,Step-1,Increment      1: Step Time =    1.000,"PART-1-1",           602,       8.30932,       22.9391,            0.,NA,NA,"",       2.79113,       2.52651,      -1.18624,   1.75256E-09
C:/temp/dataset/2/29_2.odb,Step-1,Increment      1: Step Time =    1.000,"PART-1-1",           603,      -1.93269,      -1.01257,            0.,NA,NA,"",       1.14942,       1.03813,  -493.408E-03,   114.026E-06
C:/temp/dataset/2/29_2.odb,Step-1,Increment      1: Step Time =    1.000,"PART-1-1",           604,      -8.69440,      -13.5596,            0.,NA,NA,"",   307.306E-03,   305.948E-03,  -28.8639E-03,   5.61226E-03
C:/temp/dataset/2/29_2.odb,Step-1,Increment      1: Step Time =    1.000,"PART-1-1",           605,       6.07991,       2.65614,            0.,NA,NA,"",       1.60654,       1.25299,      -1.00547,   15.1954E-06
C:/temp/dataset/2/29_2.odb,Step-1,Increment      1: Step Time =    1.000,"PART-1-1",           606,       4.75906,       1.28045,            0.,NA,NA,"",       1.48729,       1.16897,  -919.524E-03,   26.1634E-06
C:/temp/dataset/2/29_2.odb,Step-1,Increment      1: Step Time =    1.000,"PART-1-1",           607,       10.0234,       4.43547,            0.,NA,NA,"",       1.85025,       1.35726,      -1.25748,   846.602E-09
C:/temp/dataset/2/29_2.odb,Step-1,Increment      1: Step Time =    1.000,"PART-1-1",           608,       7.46673,       4.06304,            0.,NA,NA,"",       1.73004,       1.33887,      -1.09565,   2.81003E-06
C:/temp/dataset/2/29_2.odb,Step-1,Increment      1: Step Time =    1.000,"PART-1-1",           609,  -317.165E-03,  -486.862E-03,            0.,NA,NA,"",       1.22314,       1.06799,  -596.221E-03,   88.3562E-06
C:/temp/dataset/2/29_2.odb,Step-1,Increment      1: Step Time =    1.000,"PART-1-1",           610,       1.72730,   921.331E-03,            0.,NA,NA,"",       1.36305,       1.15248,  -727.786E-03,   67.7695E-06
C:/temp/dataset/2/29_2.odb,Step-1,Increment      1: Step Time =    1.000,"PART-1-1",           611,      -4.63664,      -21.2535,            0.,NA,NA,"",   64.7869E-03,   41.9580E-03,  -49.3647E-03,   16.9536E-03
C:/temp/dataset/2/29_2.odb,Step-1,Increment      1: Step Time =    1.000,"PART-1-1",           612,       11.2827,       3.26092,            0.,NA,NA,"",       1.84965,       1.28076,      -1.33449,   672.750E-09
C:/temp/dataset/2/29_2.odb,Step-1,Increment      1: Step Time =    1.000,"PART-1-1",           613,      -11.4502,      -4.36864,            0.,NA,NA,"",   843.347E-03,   838.236E-03,   92.7008E-03,   4.67664E-03
C:/temp/dataset/2/29_2.odb,Step-1,Increment      1: Step Time =    1.000,"PART-1-1",           614,      -10.8693,      -24.5529,            0.,NA,NA,"",   21.4106E-03,   8.12651E-03,   19.8084E-03,   5.39628E-03
C:/temp/dataset/2/29_2.odb,Step-1,Increment      1: Step Time =    1.000,"PART-1-1",           615,      -9.52531,      -23.3517,            0.,NA,NA,"",   16.7277E-03,   15.7594E-03,   5.60887E-03,   3.33386E-03
C:/temp/dataset/2/29_2.odb,Step-1,Increment      1: Step Time =    1.000,"PART-1-1",           616,      -10.8903,      -21.7518,            0.,NA,NA,"",   50.2716E-03,   38.4561E-03,   32.3784E-03,   6.18903E-03
C:/temp/dataset/2/29_2.odb,Step-1,Increment      1: Step Time =    1.000,"PART-1-1",           617,       3.33333,          -20.,            0.,NA,NA,"",   18.3169E-03,   18.3149E-03,  -266.379E-06,   709.708E-06
C:/temp/dataset/2/29_2.odb,Step-1,Increment      1: Step Time =    1.000,"PART-1-1",           618,       1.83446,      -21.2108,            0.,NA,NA,"",   20.8778E-03,   20.6705E-03,  -2.93488E-03,   1.57012E-03
C:/temp/dataset/2/29_2.odb,Step-1,Increment      1: Step Time =    1.000,"PART-1-1",           619,       5.12744,      -21.2153,            0.,NA,NA,"",   17.6859E-03,   17.6764E-03,   581.025E-06,   775.360E-06
C:/temp/dataset/2/29_2.odb,Step-1,Increment      1: Step Time =    1.000,"PART-1-1",           620,            0.,          -20.,            0.,NA,NA,"",   21.4691E-03,   20.4491E-03,  -6.53877E-03,   2.22334E-03
C:/temp/dataset/2/29_2.odb,Step-1,Increment      1: Step Time =    1.000,"PART-1-1",           621,      -1.43624,      -21.2208,            0.,NA,NA,"",   32.7623E-03,   28.5916E-03,  -15.9965E-03,   4.30006E-03
C:/temp/dataset/2/29_2.odb,Step-1,Increment      1: Step Time =    1.000,"PART-1-1",           622,   398.228E-03,      -22.4316,            0.,NA,NA,"",   25.0537E-03,   23.7723E-03,  -7.90987E-03,   3.69534E-03
C:/temp/dataset/2/29_2.odb,Step-1,Increment      1: Step Time =    1.000,"PART-1-1",           623,   770.736E-03,      -24.9188,            0.,NA,NA,"",   20.0950E-03,   19.0464E-03,  -6.40652E-03,   3.89814E-03
C:/temp/dataset/2/29_2.odb,Step-1,Increment      1: Step Time =    1.000,"PART-1-1",           624,      -3.33333,          -20.,            0.,NA,NA,"",   41.8310E-03,   32.4010E-03,  -26.4576E-03,   11.5761E-03
C:/temp/dataset/2/29_2.odb,Step-1,Increment      1: Step Time =    1.000,"PART-1-1",           625,       8.69606,       24.2205,            0.,NA,NA,"",       2.87497,       2.60647,      -1.21316,   1.24668E-09
C:/temp/dataset/2/29_2.odb,Step-1,Increment      1: Step Time =    1.000,"PART-1-1",           626,      -3.33333,            5.,            0.,NA,NA,"",       1.47862,       1.41836,  -417.811E-03,   205.360E-06
C:/temp/dataset/2/29_2.odb,Step-1,Increment      1: Step Time =    1.000,"PART-1-1",           627,      -4.94363,       3.89105,            0.,NA,NA,"",       1.38831,       1.35206,  -315.169E-03,   208.895E-06
C:/temp/dataset/2/29_2.odb,Step-1,Increment      1: Step Time =    1.000,"PART-1-1",           628,      -6.66667,            5.,            0.,NA,NA,"",       1.43992,       1.42444,  -210.557E-03,   239.586E-06
C:/temp/dataset/2/29_2.odb,Step-1,Increment      1: Step Time =    1.000,"PART-1-1",           629,           10.,          -20.,            0.,NA,NA,"",   16.6221E-03,   16.6217E-03,   119.781E-06,   21.7530E-06
C:/temp/dataset/2/29_2.odb,Step-1,Increment      1: Step Time =    1.000,"PART-1-1",           630,       8.42239,      -21.2201,            0.,NA,NA,"",   16.1141E-03,   16.0953E-03,   779.350E-06,   363.378E-06
C:/temp/dataset/2/29_2.odb,Step-1,Increment      1: Step Time =    1.000,"PART-1-1",           631,       6.66667,          -20.,            0.,NA,NA,"",   16.9761E-03,   16.9308E-03,   1.23941E-03,   303.873E-06
C:/temp/dataset/2/29_2.odb,Step-1,Increment      1: Step Time =    1.000,"PART-1-1",           632,       9.53008,       25.0675,            0.,NA,NA,"",       2.94486,       2.65818,      -1.26739,   899.142E-12
