ODB Name,Step,Frame,Part Instance Name,    êﬂì_ÉâÉxÉã,X,Y,Z,Section Name,Material Name,Section Point,   U-Magnitude,          U-U1,          U-U2,       S-Mises
C:/temp/dataset/2/29_9.odb,Step-1,Increment      1: Step Time =    1.000,"PART-1-1",             1,          -15.,           20.,            0.,NA,NA,"",       10.9865,       10.9849,   189.489E-03,   1.31481E-09
C:/temp/dataset/2/29_9.odb,Step-1,Increment      1: Step Time =    1.000,"PART-1-1",             2,          -15.,           25.,            0.,NA,NA,"",       12.4078,       12.4077,  -17.2381E-03,   1.88521E-09
C:/temp/dataset/2/29_9.odb,Step-1,Increment      1: Step Time =    1.000,"PART-1-1",             3,          -10.,           20.,            0.,NA,NA,"",       10.8485,       10.7782,      -1.23337,   5.31874E-09
C:/temp/dataset/2/29_9.odb,Step-1,Increment      1: Step Time =    1.000,"PART-1-1",             4,           -5.,           20.,            0.,NA,NA,"",       10.9000,       10.5714,      -2.65624,   9.81588E-09
C:/temp/dataset/2/29_9.odb,Step-1,Increment      1: Step Time =    1.000,"PART-1-1",             5,            0.,           20.,            0.,NA,NA,"",       11.1385,       10.3647,      -4.07910,   13.4537E-09
C:/temp/dataset/2/29_9.odb,Step-1,Increment      1: Step Time =    1.000,"PART-1-1",             6,            5.,           20.,            0.,NA,NA,"",       11.5523,       10.1580,      -5.50196,   25.6228E-09
C:/temp/dataset/2/29_9.odb,Step-1,Increment      1: Step Time =    1.000,"PART-1-1",             7,            5.,          12.5,            0.,NA,NA,"",       9.55693,       8.02367,      -5.19187,   307.094E-09
C:/temp/dataset/2/29_9.odb,Step-1,Increment      1: Step Time =    1.000,"PART-1-1",             8,            5.,            5.,            0.,NA,NA,"",       7.64955,       5.88934,      -4.88172,   42.3195E-06
C:/temp/dataset/2/29_9.odb,Step-1,Increment      1: Step Time =    1.000,"PART-1-1",             9,           -5.,            5.,            0.,NA,NA,"",       6.61794,       6.29482,      -2.04264,   795.512E-06
C:/temp/dataset/2/29_9.odb,Step-1,Increment      1: Step Time =    1.000,"PART-1-1",            10,          -15.,            5.,            0.,NA,NA,"",       6.77997,       6.73913,   743.132E-03,   9.31366E-03
C:/temp/dataset/2/29_9.odb,Step-1,Increment      1: Step Time =    1.000,"PART-1-1",            11,          -15.,         -3.75,            0.,NA,NA,"",       4.33302,       4.20402,       1.04941,   22.4020E-03
C:/temp/dataset/2/29_9.odb,Step-1,Increment      1: Step Time =    1.000,"PART-1-1",            12,          -15.,         -12.5,            0.,NA,NA,"",       2.09221,       1.82087,       1.03044,   64.1526E-03
C:/temp/dataset/2/29_9.odb,Step-1,Increment      1: Step Time =    1.000,"PART-1-1",            13,          -15.,        -21.25,            0.,NA,NA,"",   617.683E-03,   338.144E-03,   516.905E-03,   85.8681E-03
C:/temp/dataset/2/29_9.odb,Step-1,Increment      1: Step Time =    1.000,"PART-1-1",            14,          -15.,          -30.,            0.,NA,NA,"",            0.,   18.8849E-39,   34.8185E-39,   54.9091E-03
C:/temp/dataset/2/29_9.odb,Step-1,Increment      1: Step Time =    1.000,"PART-1-1",            15,           15.,          -30.,            0.,NA,NA,"",            0.,   4.18138E-39,  -6.92247E-39,   11.6133E-03
C:/temp/dataset/2/29_9.odb,Step-1,Increment      1: Step Time =    1.000,"PART-1-1",            16,           15.,          -25.,            0.,NA,NA,"",   49.3797E-03,   45.3024E-03,  -19.6482E-03,   442.861E-06
C:/temp/dataset/2/29_9.odb,Step-1,Increment      1: Step Time =    1.000,"PART-1-1",            17,           15.,          -20.,            0.,NA,NA,"",   74.2014E-03,   71.7129E-03,  -19.0554E-03,   45.4998E-06
C:/temp/dataset/2/29_9.odb,Step-1,Increment      1: Step Time =    1.000,"PART-1-1",            18,            5.,          -20.,            0.,NA,NA,"",   73.4233E-03,   73.2968E-03,   4.30837E-03,   1.90857E-03
C:/temp/dataset/2/29_9.odb,Step-1,Increment      1: Step Time =    1.000,"PART-1-1",            19,           -5.,          -20.,            0.,NA,NA,"",   382.776E-03,   203.067E-03,  -324.471E-03,   136.856E-03
C:/temp/dataset/2/29_9.odb,Step-1,Increment      1: Step Time =    1.000,"PART-1-1",            20,           -5.,         -12.5,            0.,NA,NA,"",       1.90533,       1.59368,      -1.04426,   61.0755E-03
C:/temp/dataset/2/29_9.odb,Step-1,Increment      1: Step Time =    1.000,"PART-1-1",            21,           -5.,           -5.,            0.,NA,NA,"",       3.80157,       3.45381,      -1.58842,   22.4399E-03
C:/temp/dataset/2/29_9.odb,Step-1,Increment      1: Step Time =    1.000,"PART-1-1",            22,            0.,           -5.,            0.,NA,NA,"",       4.45278,       3.24887,      -3.04501,   1.32518E-03
C:/temp/dataset/2/29_9.odb,Step-1,Increment      1: Step Time =    1.000,"PART-1-1",            23,            5.,           -5.,            0.,NA,NA,"",       5.40671,       3.04365,      -4.46864,   91.0144E-06
C:/temp/dataset/2/29_9.odb,Step-1,Increment      1: Step Time =    1.000,"PART-1-1",            24,           10.,           -5.,            0.,NA,NA,"",       6.53882,       2.83706,      -5.89129,   4.39254E-06
C:/temp/dataset/2/29_9.odb,Step-1,Increment      1: Step Time =    1.000,"PART-1-1",            25,           15.,           -5.,            0.,NA,NA,"",       7.77265,       2.63036,      -7.31405,   142.572E-09
C:/temp/dataset/2/29_9.odb,Step-1,Increment      1: Step Time =    1.000,"PART-1-1",            26,           15.,          3.75,            0.,NA,NA,"",       9.22685,       5.12022,      -7.67581,   5.29363E-06
C:/temp/dataset/2/29_9.odb,Step-1,Increment      1: Step Time =    1.000,"PART-1-1",            27,           15.,          12.5,            0.,NA,NA,"",       11.0688,       7.61022,      -8.03760,   271.424E-09
C:/temp/dataset/2/29_9.odb,Step-1,Increment      1: Step Time =    1.000,"PART-1-1",            28,           15.,         21.25,            0.,NA,NA,"",       13.1364,       10.1002,      -8.39937,   31.6184E-09
C:/temp/dataset/2/29_9.odb,Step-1,Increment      1: Step Time =    1.000,"PART-1-1",            29,           15.,           30.,            0.,NA,NA,"",       15.3386,       12.5902,      -8.76115,   890.948E-12
C:/temp/dataset/2/29_9.odb,Step-1,Increment      1: Step Time =    1.000,"PART-1-1",            30,           7.5,           30.,            0.,NA,NA,"",       14.5029,       12.9003,      -6.62685,   12.6333E-09
C:/temp/dataset/2/29_9.odb,Step-1,Increment      1: Step Time =    1.000,"PART-1-1",            31,            0.,           30.,            0.,NA,NA,"",       13.9534,       13.2104,      -4.49256,   14.5533E-09
C:/temp/dataset/2/29_9.odb,Step-1,Increment      1: Step Time =    1.000,"PART-1-1",            32,          -7.5,           30.,            0.,NA,NA,"",       13.7246,       13.5205,      -2.35826,   7.44997E-09
C:/temp/dataset/2/29_9.odb,Step-1,Increment      1: Step Time =    1.000,"PART-1-1",            33,          -15.,           30.,            0.,NA,NA,"",       13.8324,       13.8306,  -223.966E-03,   1.37269E-09
C:/temp/dataset/2/29_9.odb,Step-1,Increment      1: Step Time =    1.000,"PART-1-1",            34,          -15.,          22.5,            0.,NA,NA,"",       11.6966,       11.6963,   86.1257E-03,   2.81113E-09
C:/temp/dataset/2/29_9.odb,Step-1,Increment      1: Step Time =    1.000,"PART-1-1",            35,         -12.5,           20.,            0.,NA,NA,"",       10.8940,       10.8815,  -521.942E-03,   3.75847E-09
C:/temp/dataset/2/29_9.odb,Step-1,Increment      1: Step Time =    1.000,"PART-1-1",            36,          -7.5,           20.,            0.,NA,NA,"",       10.8505,       10.6748,      -1.94481,   7.61046E-09
C:/temp/dataset/2/29_9.odb,Step-1,Increment      1: Step Time =    1.000,"PART-1-1",            37,          -2.5,           20.,            0.,NA,NA,"",       10.9964,       10.4681,      -3.36767,   11.9313E-09
C:/temp/dataset/2/29_9.odb,Step-1,Increment      1: Step Time =    1.000,"PART-1-1",            38,           2.5,           20.,            0.,NA,NA,"",       11.3245,       10.2613,      -4.79053,   17.2263E-09
C:/temp/dataset/2/29_9.odb,Step-1,Increment      1: Step Time =    1.000,"PART-1-1",            39,            5.,           15.,            0.,NA,NA,"",       10.2148,       8.73510,      -5.29524,   91.2287E-09
C:/temp/dataset/2/29_9.odb,Step-1,Increment      1: Step Time =    1.000,"PART-1-1",            40,            5.,          17.5,            0.,NA,NA,"",       10.8803,       9.44654,      -5.39860,   14.5492E-09
C:/temp/dataset/2/29_9.odb,Step-1,Increment      1: Step Time =    1.000,"PART-1-1",            41,            5.,           7.5,            0.,NA,NA,"",       8.27178,       6.60081,      -4.98514,   8.27280E-06
C:/temp/dataset/2/29_9.odb,Step-1,Increment      1: Step Time =    1.000,"PART-1-1",            42,            5.,           10.,            0.,NA,NA,"",       8.90852,       7.31224,      -5.08851,   2.20187E-06
C:/temp/dataset/2/29_9.odb,Step-1,Increment      1: Step Time =    1.000,"PART-1-1",            43,      -1.66667,            5.,            0.,NA,NA,"",       6.84718,       6.16227,      -2.98501,   1.04423E-03
C:/temp/dataset/2/29_9.odb,Step-1,Increment      1: Step Time =    1.000,"PART-1-1",            44,       1.66667,            5.,            0.,NA,NA,"",       7.19641,       6.02667,      -3.93289,   380.445E-06
C:/temp/dataset/2/29_9.odb,Step-1,Increment      1: Step Time =    1.000,"PART-1-1",            45,      -11.6667,            5.,            0.,NA,NA,"",       6.58073,       6.57805,  -187.688E-03,   8.00414E-03
C:/temp/dataset/2/29_9.odb,Step-1,Increment      1: Step Time =    1.000,"PART-1-1",            46,      -8.33333,            5.,            0.,NA,NA,"",       6.52509,       6.42967,      -1.11183,   3.06808E-03
C:/temp/dataset/2/29_9.odb,Step-1,Increment      1: Step Time =    1.000,"PART-1-1",            47,          -15.,  -833.333E-03,            0.,NA,NA,"",       5.15648,       5.06696,   956.713E-03,   14.6262E-03
C:/temp/dataset/2/29_9.odb,Step-1,Increment      1: Step Time =    1.000,"PART-1-1",            48,          -15.,       2.08333,            0.,NA,NA,"",       5.97041,       5.90937,   851.543E-03,   9.41787E-03
C:/temp/dataset/2/29_9.odb,Step-1,Increment      1: Step Time =    1.000,"PART-1-1",            49,          -15.,      -9.58333,            0.,NA,NA,"",       2.77451,       2.55077,       1.09156,   49.5804E-03
C:/temp/dataset/2/29_9.odb,Step-1,Increment      1: Step Time =    1.000,"PART-1-1",            50,          -15.,      -6.66667,            0.,NA,NA,"",       3.52410,       3.34944,       1.09568,   35.8414E-03
C:/temp/dataset/2/29_9.odb,Step-1,Increment      1: Step Time =    1.000,"PART-1-1",            51,          -15.,      -18.3333,            0.,NA,NA,"",   999.853E-03,   684.230E-03,   729.065E-03,   87.1081E-03
C:/temp/dataset/2/29_9.odb,Step-1,Increment      1: Step Time =    1.000,"PART-1-1",            52,          -15.,      -15.4167,            0.,NA,NA,"",       1.49497,       1.18739,   908.311E-03,   78.8736E-03
C:/temp/dataset/2/29_9.odb,Step-1,Increment      1: Step Time =    1.000,"PART-1-1",            53,          -15.,      -27.0833,            0.,NA,NA,"",   151.445E-03,   56.4851E-03,   140.517E-03,   62.2237E-03
C:/temp/dataset/2/29_9.odb,Step-1,Increment      1: Step Time =    1.000,"PART-1-1",            54,          -15.,      -24.1667,            0.,NA,NA,"",   344.326E-03,   143.039E-03,   313.210E-03,   73.5414E-03
C:/temp/dataset/2/29_9.odb,Step-1,Increment      1: Step Time =    1.000,"PART-1-1",            55,           12.,          -30.,            0.,NA,NA,"",            0.,   16.3959E-39,  -15.5829E-39,   5.34770E-03
C:/temp/dataset/2/29_9.odb,Step-1,Increment      1: Step Time =    1.000,"PART-1-1",            56,            9.,          -30.,            0.,NA,NA,"",            0.,   14.2418E-39,   4.57472E-39,   7.74549E-03
C:/temp/dataset/2/29_9.odb,Step-1,Increment      1: Step Time =    1.000,"PART-1-1",            57,            6.,          -30.,            0.,NA,NA,"",            0.,   27.6653E-39,  -27.3852E-39,   10.6137E-03
C:/temp/dataset/2/29_9.odb,Step-1,Increment      1: Step Time =    1.000,"PART-1-1",            58,            3.,          -30.,            0.,NA,NA,"",            0.,   25.0992E-39,  -8.46136E-39,   14.5117E-03
C:/temp/dataset/2/29_9.odb,Step-1,Increment      1: Step Time =    1.000,"PART-1-1",            59,            0.,          -30.,            0.,NA,NA,"",            0.,   46.1299E-39,  -64.9275E-39,   17.9555E-03
C:/temp/dataset/2/29_9.odb,Step-1,Increment      1: Step Time =    1.000,"PART-1-1",            60,           -3.,          -30.,            0.,NA,NA,"",            0.,   37.8025E-39,  -76.8787E-39,   17.7104E-03
C:/temp/dataset/2/29_9.odb,Step-1,Increment      1: Step Time =    1.000,"PART-1-1",            61,           -6.,          -30.,            0.,NA,NA,"",            0.,   5.37427E-39,  -48.9500E-39,   13.4528E-03
C:/temp/dataset/2/29_9.odb,Step-1,Increment      1: Step Time =    1.000,"PART-1-1",            62,           -9.,          -30.,            0.,NA,NA,"",            0.,  -30.4334E-39,  -11.3843E-39,   14.4337E-03
C:/temp/dataset/2/29_9.odb,Step-1,Increment      1: Step Time =    1.000,"PART-1-1",            63,          -12.,          -30.,            0.,NA,NA,"",            0.,   13.9137E-39,   96.3211E-39,   26.6353E-03
C:/temp/dataset/2/29_9.odb,Step-1,Increment      1: Step Time =    1.000,"PART-1-1",            64,           15.,         -27.5,            0.,NA,NA,"",   30.4536E-03,   25.5270E-03,  -16.6071E-03,   4.11483E-03
C:/temp/dataset/2/29_9.odb,Step-1,Increment      1: Step Time =    1.000,"PART-1-1",            65,           15.,         -22.5,            0.,NA,NA,"",   63.1324E-03,   60.0950E-03,  -19.3464E-03,   287.121E-06
C:/temp/dataset/2/29_9.odb,Step-1,Increment      1: Step Time =    1.000,"PART-1-1",            66,       8.33333,          -20.,            0.,NA,NA,"",   71.0771E-03,   70.9409E-03,   4.39841E-03,   350.106E-06
C:/temp/dataset/2/29_9.odb,Step-1,Increment      1: Step Time =    1.000,"PART-1-1",            67,       11.6667,          -20.,            0.,NA,NA,"",   71.2662E-03,   71.1243E-03,  -4.49467E-03,   310.929E-06
C:/temp/dataset/2/29_9.odb,Step-1,Increment      1: Step Time =    1.000,"PART-1-1",            68,      -1.66667,          -20.,            0.,NA,NA,"",   122.067E-03,   92.6819E-03,  -79.4386E-03,   29.1503E-03
C:/temp/dataset/2/29_9.odb,Step-1,Increment      1: Step Time =    1.000,"PART-1-1",            69,       1.66667,          -20.,            0.,NA,NA,"",   80.8666E-03,   79.5774E-03,  -14.3816E-03,   4.79940E-03
C:/temp/dataset/2/29_9.odb,Step-1,Increment      1: Step Time =    1.000,"PART-1-1",            70,           -5.,          -15.,            0.,NA,NA,"",       1.37583,       1.08866,  -841.256E-03,   70.3441E-03
C:/temp/dataset/2/29_9.odb,Step-1,Increment      1: Step Time =    1.000,"PART-1-1",            71,           -5.,         -17.5,            0.,NA,NA,"",   898.374E-03,   635.498E-03,  -634.995E-03,   98.0627E-03
C:/temp/dataset/2/29_9.odb,Step-1,Increment      1: Step Time =    1.000,"PART-1-1",            72,           -5.,          -7.5,            0.,NA,NA,"",       3.12696,       2.78836,      -1.41524,   38.7238E-03
C:/temp/dataset/2/29_9.odb,Step-1,Increment      1: Step Time =    1.000,"PART-1-1",            73,           -5.,          -10.,            0.,NA,NA,"",       2.49129,       2.16312,      -1.23590,   49.2401E-03
C:/temp/dataset/2/29_9.odb,Step-1,Increment      1: Step Time =    1.000,"PART-1-1",            74,          -2.5,           -5.,            0.,NA,NA,"",       4.08000,       3.35015,      -2.32871,   4.32576E-03
C:/temp/dataset/2/29_9.odb,Step-1,Increment      1: Step Time =    1.000,"PART-1-1",            75,           2.5,           -5.,            0.,NA,NA,"",       4.90092,       3.14666,      -3.75733,   257.476E-06
C:/temp/dataset/2/29_9.odb,Step-1,Increment      1: Step Time =    1.000,"PART-1-1",            76,           7.5,           -5.,            0.,NA,NA,"",       5.95633,       2.94040,      -5.17995,   8.42301E-06
C:/temp/dataset/2/29_9.odb,Step-1,Increment      1: Step Time =    1.000,"PART-1-1",            77,          12.5,           -5.,            0.,NA,NA,"",       7.14621,       2.73371,      -6.60267,   2.29632E-06
C:/temp/dataset/2/29_9.odb,Step-1,Increment      1: Step Time =    1.000,"PART-1-1",            78,           15.,   833.333E-03,            0.,NA,NA,"",       8.68836,       4.29025,      -7.55521,   5.11738E-06
C:/temp/dataset/2/29_9.odb,Step-1,Increment      1: Step Time =    1.000,"PART-1-1",            79,           15.,      -2.08333,            0.,NA,NA,"",       8.20045,       3.46030,      -7.43463,   2.40340E-06
C:/temp/dataset/2/29_9.odb,Step-1,Increment      1: Step Time =    1.000,"PART-1-1",            80,           15.,       9.58333,            0.,NA,NA,"",       10.4235,       6.78021,      -7.91701,   1.34077E-06
C:/temp/dataset/2/29_9.odb,Step-1,Increment      1: Step Time =    1.000,"PART-1-1",            81,           15.,       6.66667,            0.,NA,NA,"",       9.80760,       5.95021,      -7.79641,   3.49762E-06
C:/temp/dataset/2/29_9.odb,Step-1,Increment      1: Step Time =    1.000,"PART-1-1",            82,           15.,       18.3333,            0.,NA,NA,"",       12.4288,       9.27022,      -8.27878,   47.2885E-09
C:/temp/dataset/2/29_9.odb,Step-1,Increment      1: Step Time =    1.000,"PART-1-1",            83,           15.,       15.4167,            0.,NA,NA,"",       11.7385,       8.44022,      -8.15819,   30.1352E-09
C:/temp/dataset/2/29_9.odb,Step-1,Increment      1: Step Time =    1.000,"PART-1-1",            84,           15.,       27.0833,            0.,NA,NA,"",       14.5932,       11.7602,      -8.64055,   4.22748E-09
C:/temp/dataset/2/29_9.odb,Step-1,Increment      1: Step Time =    1.000,"PART-1-1",            85,           15.,       24.1667,            0.,NA,NA,"",       13.8586,       10.9302,      -8.51996,   14.0635E-09
C:/temp/dataset/2/29_9.odb,Step-1,Increment      1: Step Time =    1.000,"PART-1-1",            86,           10.,           30.,            0.,NA,NA,"",       14.7517,       12.7970,      -7.33828,   6.52122E-09
C:/temp/dataset/2/29_9.odb,Step-1,Increment      1: Step Time =    1.000,"PART-1-1",            87,          12.5,           30.,            0.,NA,NA,"",       15.0308,       12.6936,      -8.04971,   1.51605E-09
C:/temp/dataset/2/29_9.odb,Step-1,Increment      1: Step Time =    1.000,"PART-1-1",            88,           2.5,           30.,            0.,NA,NA,"",       14.1024,       13.1071,      -5.20399,   16.2281E-09
C:/temp/dataset/2/29_9.odb,Step-1,Increment      1: Step Time =    1.000,"PART-1-1",            89,            5.,           30.,            0.,NA,NA,"",       14.2859,       13.0037,      -5.91542,   15.6793E-09
C:/temp/dataset/2/29_9.odb,Step-1,Increment      1: Step Time =    1.000,"PART-1-1",            90,           -5.,           30.,            0.,NA,NA,"",       13.7638,       13.4171,      -3.06969,   9.83935E-09
C:/temp/dataset/2/29_9.odb,Step-1,Increment      1: Step Time =    1.000,"PART-1-1",            91,          -2.5,           30.,            0.,NA,NA,"",       13.8403,       13.3138,      -3.78112,   12.2588E-09
C:/temp/dataset/2/29_9.odb,Step-1,Increment      1: Step Time =    1.000,"PART-1-1",            92,         -12.5,           30.,            0.,NA,NA,"",       13.7591,       13.7272,  -935.397E-03,   3.54278E-09
C:/temp/dataset/2/29_9.odb,Step-1,Increment      1: Step Time =    1.000,"PART-1-1",            93,          -10.,           30.,            0.,NA,NA,"",       13.7230,       13.6239,      -1.64683,   5.10882E-09
C:/temp/dataset/2/29_9.odb,Step-1,Increment      1: Step Time =    1.000,"PART-1-1",            94,          -15.,          27.5,            0.,NA,NA,"",       13.1197,       13.1192,  -120.602E-03,   2.99267E-09
C:/temp/dataset/2/29_9.odb,Step-1,Increment      1: Step Time =    1.000,"PART-1-1",            95,      -12.4978,       24.9766,            0.,NA,NA,"",       12.3192,       12.2976,  -728.336E-03,   3.52209E-09
C:/temp/dataset/2/29_9.odb,Step-1,Increment      1: Step Time =    1.000,"PART-1-1",            96,      -7.49872,       27.4475,            0.,NA,NA,"",       12.9910,       12.7941,      -2.25309,   3.99138E-09
C:/temp/dataset/2/29_9.odb,Step-1,Increment      1: Step Time =    1.000,"PART-1-1",            97,      -7.50661,       22.4446,            0.,NA,NA,"",       11.5530,       11.3707,      -2.04399,   4.23223E-09
C:/temp/dataset/2/29_9.odb,Step-1,Increment      1: Step Time =    1.000,"PART-1-1",            98,      -2.53392,       22.4091,            0.,NA,NA,"",       11.6786,       11.1550,      -3.45762,   6.42615E-09
C:/temp/dataset/2/29_9.odb,Step-1,Increment      1: Step Time =    1.000,"PART-1-1",            99,  -19.7467E-03,       27.3919,            0.,NA,NA,"",       13.2157,       12.4691,      -4.37910,   6.80704E-09
C:/temp/dataset/2/29_9.odb,Step-1,Increment      1: Step Time =    1.000,"PART-1-1",           100,       2.31326,       22.2671,            0.,NA,NA,"",       11.9357,       10.9142,      -4.83113,   10.2538E-09
C:/temp/dataset/2/29_9.odb,Step-1,Increment      1: Step Time =    1.000,"PART-1-1",           101,       7.89882,       27.4278,            0.,NA,NA,"",       13.8448,       12.1519,      -6.63399,   10.4189E-09
C:/temp/dataset/2/29_9.odb,Step-1,Increment      1: Step Time =    1.000,"PART-1-1",           102,       6.74061,       20.0564,            0.,NA,NA,"",       11.7493,       10.1021,      -5.99963,   14.5340E-09
C:/temp/dataset/2/29_9.odb,Step-1,Increment      1: Step Time =    1.000,"PART-1-1",           103,       6.76082,       17.7755,            0.,NA,NA,"",       11.1483,       9.45213,      -5.91107,   24.8300E-09
C:/temp/dataset/2/29_9.odb,Step-1,Increment      1: Step Time =    1.000,"PART-1-1",           104,       7.34933,       13.0959,            0.,NA,NA,"",       10.0090,       8.09611,      -5.88506,   490.277E-09
C:/temp/dataset/2/29_9.odb,Step-1,Increment      1: Step Time =    1.000,"PART-1-1",           105,       12.5251,      -2.17932,            0.,NA,NA,"",       7.59887,       3.53530,      -6.72640,   2.87082E-06
C:/temp/dataset/2/29_9.odb,Step-1,Increment      1: Step Time =    1.000,"PART-1-1",           106,       11.8446,      -24.9441,            0.,NA,NA,"",   45.9167E-03,   45.6806E-03,  -4.65033E-03,   3.19225E-03
C:/temp/dataset/2/29_9.odb,Step-1,Increment      1: Step Time =    1.000,"PART-1-1",           107,       2.44158,      -2.66949,            0.,NA,NA,"",       5.40932,       3.81261,      -3.83728,   305.554E-06
C:/temp/dataset/2/29_9.odb,Step-1,Increment      1: Step Time =    1.000,"PART-1-1",           108,       7.46163,      -2.37632,            0.,NA,NA,"",       6.43874,       3.68856,      -5.27749,   32.4979E-06
C:/temp/dataset/2/29_9.odb,Step-1,Increment      1: Step Time =    1.000,"PART-1-1",           109,       7.48217,       7.95809,            0.,NA,NA,"",       8.74910,       6.62854,      -5.71045,   5.50720E-06
C:/temp/dataset/2/29_9.odb,Step-1,Increment      1: Step Time =    1.000,"PART-1-1",           110,      -5.01446,       22.4347,            0.,NA,NA,"",       11.5963,       11.2649,      -2.75279,   5.32834E-09
C:/temp/dataset/2/29_9.odb,Step-1,Increment      1: Step Time =    1.000,"PART-1-1",           111,  -75.1424E-03,       22.3615,            0.,NA,NA,"",       11.7960,       11.0398,      -4.15535,   7.97607E-09
C:/temp/dataset/2/29_9.odb,Step-1,Increment      1: Step Time =    1.000,"PART-1-1",           112,       4.50776,       22.1530,            0.,NA,NA,"",       12.0896,       10.7910,      -5.45090,   7.52127E-09
C:/temp/dataset/2/29_9.odb,Step-1,Increment      1: Step Time =    1.000,"PART-1-1",           113,       7.06405,       15.4904,            0.,NA,NA,"",       10.5876,       8.78933,      -5.90288,   102.739E-09
C:/temp/dataset/2/29_9.odb,Step-1,Increment      1: Step Time =    1.000,"PART-1-1",           114,       7.46285,       10.5556,            0.,NA,NA,"",       9.38501,       7.36852,      -5.81234,   1.50682E-06
C:/temp/dataset/2/29_9.odb,Step-1,Increment      1: Step Time =    1.000,"PART-1-1",           115,      -2.89738,      -2.05905,            0.,NA,NA,"",       4.81652,       4.20859,      -2.34235,   2.46021E-03
C:/temp/dataset/2/29_9.odb,Step-1,Increment      1: Step Time =    1.000,"PART-1-1",           116,      -7.61206,      -10.6629,            0.,NA,NA,"",       2.11137,       2.03440,  -564.877E-03,   30.3762E-03
C:/temp/dataset/2/29_9.odb,Step-1,Increment      1: Step Time =    1.000,"PART-1-1",           117,      -6.85891,      -17.7385,            0.,NA,NA,"",   661.637E-03,   580.289E-03,  -317.848E-03,   67.3378E-03
C:/temp/dataset/2/29_9.odb,Step-1,Increment      1: Step Time =    1.000,"PART-1-1",           118,       11.9280,      -27.4687,            0.,NA,NA,"",   24.6466E-03,   24.3499E-03,  -3.81226E-03,   6.32091E-03
C:/temp/dataset/2/29_9.odb,Step-1,Increment      1: Step Time =    1.000,"PART-1-1",           119,      -7.44747,      -13.1413,            0.,NA,NA,"",       1.53416,       1.46075,  -468.898E-03,   36.1884E-03
C:/temp/dataset/2/29_9.odb,Step-1,Increment      1: Step Time =    1.000,"PART-1-1",           120,      -7.13169,      -15.4658,            0.,NA,NA,"",       1.06210,   984.693E-03,  -398.044E-03,   48.2987E-03
C:/temp/dataset/2/29_9.odb,Step-1,Increment      1: Step Time =    1.000,"PART-1-1",           121,      -8.02089,      -5.87394,            0.,NA,NA,"",       3.38160,       3.30562,  -712.810E-03,   23.1794E-03
C:/temp/dataset/2/29_9.odb,Step-1,Increment      1: Step Time =    1.000,"PART-1-1",           122,      -7.74476,      -8.18529,            0.,NA,NA,"",       2.74838,       2.66717,  -663.163E-03,   24.6491E-03
C:/temp/dataset/2/29_9.odb,Step-1,Increment      1: Step Time =    1.000,"PART-1-1",           123,  -21.3834E-03,      -2.74811,            0.,NA,NA,"",       4.99685,       3.89243,      -3.13328,   829.014E-06
C:/temp/dataset/2/29_9.odb,Step-1,Increment      1: Step Time =    1.000,"PART-1-1",           124,       4.94012,      -2.49525,            0.,NA,NA,"",       5.90590,       3.75897,      -4.55520,   118.242E-06
C:/temp/dataset/2/29_9.odb,Step-1,Increment      1: Step Time =    1.000,"PART-1-1",           125,       10.0127,      -2.27482,            0.,NA,NA,"",       7.00979,       3.61199,      -6.00756,   5.62383E-06
C:/temp/dataset/2/29_9.odb,Step-1,Increment      1: Step Time =    1.000,"PART-1-1",           126,       10.2967,       27.4669,            0.,NA,NA,"",       14.1099,       12.0638,      -7.31799,   10.6407E-09
C:/temp/dataset/2/29_9.odb,Step-1,Increment      1: Step Time =    1.000,"PART-1-1",           127,       12.6750,       27.3103,            0.,NA,NA,"",       14.3500,       11.9209,      -7.98831,   7.54263E-09
C:/temp/dataset/2/29_9.odb,Step-1,Increment      1: Step Time =    1.000,"PART-1-1",           128,       2.52543,       27.2659,            0.,NA,NA,"",       13.3406,       12.3280,      -5.09818,   7.24163E-09
C:/temp/dataset/2/29_9.odb,Step-1,Increment      1: Step Time =    1.000,"PART-1-1",           129,       5.32711,       26.8707,            0.,NA,NA,"",       13.4523,       12.0997,      -5.87912,   8.09067E-09
C:/temp/dataset/2/29_9.odb,Step-1,Increment      1: Step Time =    1.000,"PART-1-1",           130,      -5.00948,       27.4462,            0.,NA,NA,"",       13.0317,       12.6908,      -2.96140,   5.00150E-09
C:/temp/dataset/2/29_9.odb,Step-1,Increment      1: Step Time =    1.000,"PART-1-1",           131,      -2.51658,       27.4324,            0.,NA,NA,"",       13.1081,       12.5838,      -3.67024,   5.96950E-09
C:/temp/dataset/2/29_9.odb,Step-1,Increment      1: Step Time =    1.000,"PART-1-1",           132,      -9.99211,       27.4668,            0.,NA,NA,"",       12.9948,       12.9027,      -1.54434,   2.97984E-09
C:/temp/dataset/2/29_9.odb,Step-1,Increment      1: Step Time =    1.000,"PART-1-1",           133,       12.5029,       21.6680,            0.,NA,NA,"",       12.8816,       10.3224,      -7.70604,   17.6724E-09
C:/temp/dataset/2/29_9.odb,Step-1,Increment      1: Step Time =    1.000,"PART-1-1",           134,      -12.7198,      -9.27859,            0.,NA,NA,"",       2.58356,       2.52538,   545.171E-03,   30.2311E-03
C:/temp/dataset/2/29_9.odb,Step-1,Increment      1: Step Time =    1.000,"PART-1-1",           135,      -12.2206,      -21.4876,            0.,NA,NA,"",   350.392E-03,   227.167E-03,   266.776E-03,   44.7533E-03
C:/temp/dataset/2/29_9.odb,Step-1,Increment      1: Step Time =    1.000,"PART-1-1",           136,       12.4390,       11.8581,            0.,NA,NA,"",       10.4778,       7.53342,      -7.28227,   667.705E-09
C:/temp/dataset/2/29_9.odb,Step-1,Increment      1: Step Time =    1.000,"PART-1-1",           137,      -12.6285,      -12.0158,            0.,NA,NA,"",       1.90829,       1.83070,   538.616E-03,   36.1877E-03
C:/temp/dataset/2/29_9.odb,Step-1,Increment      1: Step Time =    1.000,"PART-1-1",           138,      -12.4213,      -14.8709,            0.,NA,NA,"",       1.28203,       1.18957,   478.024E-03,   40.8174E-03
C:/temp/dataset/2/29_9.odb,Step-1,Increment      1: Step Time =    1.000,"PART-1-1",           139,       12.2989,       14.8029,            0.,NA,NA,"",       11.1539,       8.37724,      -7.36416,   167.254E-09
C:/temp/dataset/2/29_9.odb,Step-1,Increment      1: Step Time =    1.000,"PART-1-1",           140,       11.7182,       18.2155,            0.,NA,NA,"",       11.9045,       9.37238,      -7.33999,   17.7860E-09
C:/temp/dataset/2/29_9.odb,Step-1,Increment      1: Step Time =    1.000,"PART-1-1",           141,      -12.3380,      -4.01281,            0.,NA,NA,"",       4.00779,       3.99462,   324.627E-03,   22.3227E-03
C:/temp/dataset/2/29_9.odb,Step-1,Increment      1: Step Time =    1.000,"PART-1-1",           142,       12.5089,       6.21106,            0.,NA,NA,"",       9.22251,       5.92355,      -7.06868,   1.93878E-06
C:/temp/dataset/2/29_9.odb,Step-1,Increment      1: Step Time =    1.000,"PART-1-1",           143,      -10.9765,      -1.21375,            0.,NA,NA,"",       4.76329,       4.76120,  -141.260E-03,   16.7725E-03
C:/temp/dataset/2/29_9.odb,Step-1,Increment      1: Step Time =    1.000,"PART-1-1",           144,      -11.4273,       2.02370,            0.,NA,NA,"",       5.72304,       5.72126,  -142.609E-03,   9.43470E-03
C:/temp/dataset/2/29_9.odb,Step-1,Increment      1: Step Time =    1.000,"PART-1-1",           145,      -12.7154,      -6.64001,            0.,NA,NA,"",       3.28640,       3.24838,   498.411E-03,   23.8417E-03
C:/temp/dataset/2/29_9.odb,Step-1,Increment      1: Step Time =    1.000,"PART-1-1",           146,      -11.7762,      -18.1315,            0.,NA,NA,"",   675.211E-03,   593.697E-03,   321.611E-03,   39.0854E-03
C:/temp/dataset/2/29_9.odb,Step-1,Increment      1: Step Time =    1.000,"PART-1-1",           147,      -12.2481,      -24.4184,            0.,NA,NA,"",   175.789E-03,   61.8268E-03,   164.558E-03,   41.3669E-03
C:/temp/dataset/2/29_9.odb,Step-1,Increment      1: Step Time =    1.000,"PART-1-1",           148,       12.5340,       3.42208,            0.,NA,NA,"",       8.64603,       5.12886,      -6.96051,   767.054E-09
C:/temp/dataset/2/29_9.odb,Step-1,Increment      1: Step Time =    1.000,"PART-1-1",           149,       12.5428,   630.306E-03,            0.,NA,NA,"",       8.10393,       4.33406,      -6.84760,   1.72830E-06
C:/temp/dataset/2/29_9.odb,Step-1,Increment      1: Step Time =    1.000,"PART-1-1",           150,       12.5001,       9.03097,            0.,NA,NA,"",       9.84055,       6.72638,      -7.18277,   1.71657E-06
C:/temp/dataset/2/29_9.odb,Step-1,Increment      1: Step Time =    1.000,"PART-1-1",           151,       12.7192,       24.5718,            0.,NA,NA,"",       13.6496,       11.1398,      -7.88765,   13.0436E-09
C:/temp/dataset/2/29_9.odb,Step-1,Increment      1: Step Time =    1.000,"PART-1-1",           152,       2.66783,      -27.4286,            0.,NA,NA,"",   46.1716E-03,   45.2721E-03,  -9.06908E-03,   12.8731E-03
C:/temp/dataset/2/29_9.odb,Step-1,Increment      1: Step Time =    1.000,"PART-1-1",           153,       8.86089,      -27.4494,            0.,NA,NA,"",   28.3242E-03,   28.3023E-03,  -1.11508E-03,   7.12143E-03
C:/temp/dataset/2/29_9.odb,Step-1,Increment      1: Step Time =    1.000,"PART-1-1",           154,       5.76511,      -27.4328,            0.,NA,NA,"",   36.4075E-03,   36.3167E-03,  -2.56975E-03,   9.36338E-03
C:/temp/dataset/2/29_9.odb,Step-1,Increment      1: Step Time =    1.000,"PART-1-1",           155,  -414.647E-03,      -27.4330,            0.,NA,NA,"",   53.9045E-03,   48.3896E-03,  -23.7517E-03,   18.8502E-03
C:/temp/dataset/2/29_9.odb,Step-1,Increment      1: Step Time =    1.000,"PART-1-1",           156,      -3.42691,      -27.4460,            0.,NA,NA,"",   52.4143E-03,   33.1384E-03,  -40.6092E-03,   25.3514E-03
C:/temp/dataset/2/29_9.odb,Step-1,Increment      1: Step Time =    1.000,"PART-1-1",           157,      -6.36574,      -27.4272,            0.,NA,NA,"",   35.1481E-03,   948.645E-06,  -35.1353E-03,   22.1895E-03
C:/temp/dataset/2/29_9.odb,Step-1,Increment      1: Step Time =    1.000,"PART-1-1",           158,       10.5238,       25.0033,            0.,NA,NA,"",       13.4874,       11.3534,      -7.28074,   13.0406E-09
C:/temp/dataset/2/29_9.odb,Step-1,Increment      1: Step Time =    1.000,"PART-1-1",           159,       6.26912,       22.1485,            0.,NA,NA,"",       12.2588,       10.7169,      -5.95195,   7.24263E-09
C:/temp/dataset/2/29_9.odb,Step-1,Increment      1: Step Time =    1.000,"PART-1-1",           160,      -5.96402,      -2.70245,            0.,NA,NA,"",       4.38630,       4.14471,      -1.43564,   12.7142E-03
C:/temp/dataset/2/29_9.odb,Step-1,Increment      1: Step Time =    1.000,"PART-1-1",           161,      -12.5033,       22.4816,            0.,NA,NA,"",       11.6046,       11.5879,  -623.619E-03,   2.20243E-09
C:/temp/dataset/2/29_9.odb,Step-1,Increment      1: Step Time =    1.000,"PART-1-1",           162,      -2.53325,       24.9024,            0.,NA,NA,"",       12.3874,       11.8645,      -3.56090,   2.75963E-09
C:/temp/dataset/2/29_9.odb,Step-1,Increment      1: Step Time =    1.000,"PART-1-1",           163,       4.43197,       24.4161,            0.,NA,NA,"",       12.7017,       11.4382,      -5.52290,   3.90170E-09
C:/temp/dataset/2/29_9.odb,Step-1,Increment      1: Step Time =    1.000,"PART-1-1",           164,      -10.2797,      -8.84555,            0.,NA,NA,"",       2.55663,       2.55643,  -31.8362E-03,   21.7730E-03
C:/temp/dataset/2/29_9.odb,Step-1,Increment      1: Step Time =    1.000,"PART-1-1",           165,       2.21534,  -332.134E-03,            0.,NA,NA,"",       5.92544,       4.48773,      -3.86925,   369.223E-06
C:/temp/dataset/2/29_9.odb,Step-1,Increment      1: Step Time =    1.000,"PART-1-1",           166,  -74.2209E-03,       24.8536,            0.,NA,NA,"",       12.4970,       11.7490,      -4.25865,   2.51052E-09
C:/temp/dataset/2/29_9.odb,Step-1,Increment      1: Step Time =    1.000,"PART-1-1",           167,       2.30693,       24.7164,            0.,NA,NA,"",       12.6149,       11.6115,      -4.93059,   2.90451E-09
C:/temp/dataset/2/29_9.odb,Step-1,Increment      1: Step Time =    1.000,"PART-1-1",           168,       9.79368,       13.9045,            0.,NA,NA,"",       10.5546,       8.22517,      -6.61410,   346.074E-09
C:/temp/dataset/2/29_9.odb,Step-1,Increment      1: Step Time =    1.000,"PART-1-1",           169,       9.30777,       16.4521,            0.,NA,NA,"",       11.1255,       8.97021,      -6.58114,   60.9804E-09
C:/temp/dataset/2/29_9.odb,Step-1,Increment      1: Step Time =    1.000,"PART-1-1",           170,      -2.35985,       1.11806,            0.,NA,NA,"",       5.72864,       5.09033,      -2.62791,   581.849E-06
C:/temp/dataset/2/29_9.odb,Step-1,Increment      1: Step Time =    1.000,"PART-1-1",           171,      -9.94133,      -13.9778,            0.,NA,NA,"",       1.31128,       1.31070,   39.1029E-03,   22.2308E-03
C:/temp/dataset/2/29_9.odb,Step-1,Increment      1: Step Time =    1.000,"PART-1-1",           172,       4.80988,   33.7751E-03,            0.,NA,NA,"",       6.44017,       4.48420,      -4.62253,   142.065E-06
C:/temp/dataset/2/29_9.odb,Step-1,Increment      1: Step Time =    1.000,"PART-1-1",           173,       9.94126,       11.1894,            0.,NA,NA,"",       9.91317,       7.44642,      -6.54384,   1.05044E-06
C:/temp/dataset/2/29_9.odb,Step-1,Increment      1: Step Time =    1.000,"PART-1-1",           174,       7.43598,   226.782E-03,            0.,NA,NA,"",       6.96768,       4.43040,      -5.37774,   38.9796E-06
C:/temp/dataset/2/29_9.odb,Step-1,Increment      1: Step Time =    1.000,"PART-1-1",           175,      -7.50368,       24.9336,            0.,NA,NA,"",       12.2684,       12.0789,      -2.14774,   2.95233E-09
C:/temp/dataset/2/29_9.odb,Step-1,Increment      1: Step Time =    1.000,"PART-1-1",           176,      -10.1536,      -11.3797,            0.,NA,NA,"",       1.90882,       1.90875,   16.9001E-03,   21.8068E-03
C:/temp/dataset/2/29_9.odb,Step-1,Increment      1: Step Time =    1.000,"PART-1-1",           177,       6.92724,       24.6415,            0.,NA,NA,"",       12.9964,       11.3991,      -6.24231,   8.32889E-09
C:/temp/dataset/2/29_9.odb,Step-1,Increment      1: Step Time =    1.000,"PART-1-1",           178,      -9.99868,       24.9580,            0.,NA,NA,"",       12.2736,       12.1890,      -1.43874,   3.18149E-09
C:/temp/dataset/2/29_9.odb,Step-1,Increment      1: Step Time =    1.000,"PART-1-1",           179,       8.37028,       18.0705,            0.,NA,NA,"",       11.4190,       9.46953,      -6.38128,   26.1106E-09
C:/temp/dataset/2/29_9.odb,Step-1,Increment      1: Step Time =    1.000,"PART-1-1",           180,      -10.4068,      -6.54987,            0.,NA,NA,"",       3.18938,       3.18833,  -81.7290E-03,   22.2731E-03
C:/temp/dataset/2/29_9.odb,Step-1,Increment      1: Step Time =    1.000,"PART-1-1",           181,      -8.52723,      -17.8680,            0.,NA,NA,"",   566.403E-03,   559.629E-03,  -87.3363E-03,   32.7032E-03
C:/temp/dataset/2/29_9.odb,Step-1,Increment      1: Step Time =    1.000,"PART-1-1",           182,       9.99063,       8.47585,            0.,NA,NA,"",       9.27711,       6.67217,      -6.44569,   2.82072E-06
C:/temp/dataset/2/29_9.odb,Step-1,Increment      1: Step Time =    1.000,"PART-1-1",           183,      -6.87511,      -22.3968,            0.,NA,NA,"",   179.161E-03,   106.095E-03,  -144.369E-03,   43.0976E-03
C:/temp/dataset/2/29_9.odb,Step-1,Increment      1: Step Time =    1.000,"PART-1-1",           184,       7.48189,       5.34092,            0.,NA,NA,"",       8.12422,       5.88377,      -5.60216,   9.22299E-06
C:/temp/dataset/2/29_9.odb,Step-1,Increment      1: Step Time =    1.000,"PART-1-1",           185,       10.0207,   425.902E-03,            0.,NA,NA,"",       7.52717,       4.38017,      -6.12147,   9.05987E-06
C:/temp/dataset/2/29_9.odb,Step-1,Increment      1: Step Time =    1.000,"PART-1-1",           186,      -8.86720,      -3.63325,            0.,NA,NA,"",       4.01815,       3.97312,  -599.899E-03,   20.1744E-03
C:/temp/dataset/2/29_9.odb,Step-1,Increment      1: Step Time =    1.000,"PART-1-1",           187,       10.0155,       5.77118,            0.,NA,NA,"",       8.66226,       5.90146,      -6.34094,   2.41029E-06
C:/temp/dataset/2/29_9.odb,Step-1,Increment      1: Step Time =    1.000,"PART-1-1",           188,       9.07540,       20.2179,            0.,NA,NA,"",       12.0636,       10.0515,      -6.67072,   9.76408E-09
C:/temp/dataset/2/29_9.odb,Step-1,Increment      1: Step Time =    1.000,"PART-1-1",           189,       5.51479,      -24.9218,            0.,NA,NA,"",   61.0632E-03,   61.0469E-03,  -1.40975E-03,   7.33313E-03
C:/temp/dataset/2/29_9.odb,Step-1,Increment      1: Step Time =    1.000,"PART-1-1",           190,       2.33502,      -24.9114,            0.,NA,NA,"",   78.2039E-03,   76.6275E-03,  -15.6229E-03,   11.2347E-03
C:/temp/dataset/2/29_9.odb,Step-1,Increment      1: Step Time =    1.000,"PART-1-1",           191,      -3.83494,      -24.9465,            0.,NA,NA,"",   123.563E-03,   76.7781E-03,  -96.8138E-03,   35.0056E-03
C:/temp/dataset/2/29_9.odb,Step-1,Increment      1: Step Time =    1.000,"PART-1-1",           192,       8.68706,      -24.9229,            0.,NA,NA,"",   50.7531E-03,   50.7510E-03,   464.213E-06,   4.92647E-03
C:/temp/dataset/2/29_9.odb,Step-1,Increment      1: Step Time =    1.000,"PART-1-1",           193,  -793.545E-03,      -24.9263,            0.,NA,NA,"",   103.123E-03,   89.3399E-03,  -51.5043E-03,   24.0861E-03
C:/temp/dataset/2/29_9.odb,Step-1,Increment      1: Step Time =    1.000,"PART-1-1",           194,      -10.0041,       22.4687,            0.,NA,NA,"",       11.5581,       11.4809,      -1.33428,   3.14271E-09
C:/temp/dataset/2/29_9.odb,Step-1,Increment      1: Step Time =    1.000,"PART-1-1",           195,       7.76291,       22.5689,            0.,NA,NA,"",       12.5293,       10.7748,      -6.39443,   7.52205E-09
C:/temp/dataset/2/29_9.odb,Step-1,Increment      1: Step Time =    1.000,"PART-1-1",           196,       10.0314,       3.09975,            0.,NA,NA,"",       8.08093,       5.14060,      -6.23503,   5.57691E-06
C:/temp/dataset/2/29_9.odb,Step-1,Increment      1: Step Time =    1.000,"PART-1-1",           197,       7.45157,       2.78517,            0.,NA,NA,"",       7.53121,       5.15775,      -5.48787,   26.3278E-06
C:/temp/dataset/2/29_9.odb,Step-1,Increment      1: Step Time =    1.000,"PART-1-1",           198,       1.23926,       2.17480,            0.,NA,NA,"",       6.41257,       5.24125,      -3.69463,   426.199E-06
C:/temp/dataset/2/29_9.odb,Step-1,Increment      1: Step Time =    1.000,"PART-1-1",           199,       5.89388,       23.8379,            0.,NA,NA,"",       12.6776,       11.2132,      -5.91502,   6.45203E-09
C:/temp/dataset/2/29_9.odb,Step-1,Increment      1: Step Time =    1.000,"PART-1-1",           200,       4.70825,       2.52712,            0.,NA,NA,"",       7.00527,       5.19780,      -4.69646,   125.342E-06
C:/temp/dataset/2/29_9.odb,Step-1,Increment      1: Step Time =    1.000,"PART-1-1",           201,      -6.67563,      -24.8783,            0.,NA,NA,"",   93.0349E-03,   34.8679E-03,  -86.2538E-03,   30.3236E-03
C:/temp/dataset/2/29_9.odb,Step-1,Increment      1: Step Time =    1.000,"PART-1-1",           202,      -1.93740,       2.90022,            0.,NA,NA,"",       6.25124,       5.57823,      -2.82159,   363.663E-06
C:/temp/dataset/2/29_9.odb,Step-1,Increment      1: Step Time =    1.000,"PART-1-1",           203,      -4.27328,      -22.5070,            0.,NA,NA,"",   207.918E-03,   131.029E-03,  -161.435E-03,   58.0935E-03
C:/temp/dataset/2/29_9.odb,Step-1,Increment      1: Step Time =    1.000,"PART-1-1",           204,      -7.29195,  -216.826E-03,            0.,NA,NA,"",       5.04589,       4.90468,      -1.18539,   9.54125E-03
C:/temp/dataset/2/29_9.odb,Step-1,Increment      1: Step Time =    1.000,"PART-1-1",           205,      -4.39370,   432.763E-03,            0.,NA,NA,"",       5.37354,       4.97804,      -2.02336,   3.19374E-03
C:/temp/dataset/2/29_9.odb,Step-1,Increment      1: Step Time =    1.000,"PART-1-1",           206,      -1.20581,      -22.4416,            0.,NA,NA,"",   126.250E-03,   112.034E-03,  -58.2006E-03,   31.1771E-03
C:/temp/dataset/2/29_9.odb,Step-1,Increment      1: Step Time =    1.000,"PART-1-1",           207,      -4.88725,       2.78210,            0.,NA,NA,"",       6.00193,       5.66462,      -1.98376,   1.87368E-03
C:/temp/dataset/2/29_9.odb,Step-1,Increment      1: Step Time =    1.000,"PART-1-1",           208,      -8.02678,       2.39768,            0.,NA,NA,"",       5.78694,       5.68265,      -1.09370,   6.30937E-03
C:/temp/dataset/2/29_9.odb,Step-1,Increment      1: Step Time =    1.000,"PART-1-1",           209,       8.51144,      -22.4401,            0.,NA,NA,"",   64.6595E-03,   64.5933E-03,   2.92506E-03,   2.69053E-03
C:/temp/dataset/2/29_9.odb,Step-1,Increment      1: Step Time =    1.000,"PART-1-1",           210,       5.25488,      -22.4306,            0.,NA,NA,"",   73.0541E-03,   73.0145E-03,   2.40670E-03,   4.75686E-03
C:/temp/dataset/2/29_9.odb,Step-1,Increment      1: Step Time =    1.000,"PART-1-1",           211,       2.00226,      -22.4217,            0.,NA,NA,"",   90.7809E-03,   89.8019E-03,  -13.2962E-03,   10.7056E-03
C:/temp/dataset/2/29_9.odb,Step-1,Increment      1: Step Time =    1.000,"PART-1-1",           212,      -9.28570,      -27.3600,            0.,NA,NA,"",   20.6286E-03,  -19.7357E-03,   6.00344E-03,   9.54466E-03
C:/temp/dataset/2/29_9.odb,Step-1,Increment      1: Step Time =    1.000,"PART-1-1",           213,       11.7596,      -22.4488,            0.,NA,NA,"",   61.0351E-03,   60.8416E-03,  -4.85624E-03,   936.565E-06
C:/temp/dataset/2/29_9.odb,Step-1,Increment      1: Step Time =    1.000,"PART-1-1",           214,      -12.4952,       27.4851,            0.,NA,NA,"",       13.0380,       13.0114,  -832.783E-03,   2.13417E-09
C:/temp/dataset/2/29_9.odb,Step-1,Increment      1: Step Time =    1.000,"PART-1-1",           215,      -12.1608,      -27.2494,            0.,NA,NA,"",   72.2106E-03,  -202.439E-06,   72.2103E-03,   35.6783E-03
C:/temp/dataset/2/29_9.odb,Step-1,Increment      1: Step Time =    1.000,"PART-1-1",           216,      -6.92277,      -20.0189,            0.,NA,NA,"",   323.140E-03,   248.912E-03,  -206.064E-03,   38.6563E-03
C:/temp/dataset/2/29_9.odb,Step-1,Increment      1: Step Time =    1.000,"PART-1-1",           217,       10.3403,       22.5364,            0.,NA,NA,"",       12.8219,       10.6590,      -7.12652,   12.5567E-09
C:/temp/dataset/2/29_9.odb,Step-1,Increment      1: Step Time =    1.000,"PART-1-1",           218,      -9.38591,      -16.3373,            0.,NA,NA,"",   833.200E-03,   833.194E-03,  -2.88277E-03,   22.9394E-03
C:/temp/dataset/2/29_9.odb,Step-1,Increment      1: Step Time =    1.000,"PART-1-1",           219,      -9.56004,      -22.0160,            0.,NA,NA,"",   136.762E-03,   132.985E-03,   31.9175E-03,   21.4690E-03
C:/temp/dataset/2/29_9.odb,Step-1,Increment      1: Step Time =    1.000,"PART-1-1",           220,      -9.49058,      -24.6874,            0.,NA,NA,"",   27.1011E-03,   21.6705E-03,   16.2745E-03,   15.1916E-03
C:/temp/dataset/2/29_9.odb,Step-1,Increment      1: Step Time =    1.000,"PART-1-1",           221,  -968.003E-03,   33.9082E-03,            0.,NA,NA,"",       5.58517,       4.72455,      -2.97871,   521.120E-06
C:/temp/dataset/2/29_9.odb,Step-1,Increment      1: Step Time =    1.000,"PART-1-1",           222,   333.674E-03,      -1.00763,            0.,NA,NA,"",       5.48271,       4.37381,      -3.30603,   387.330E-06
C:/temp/dataset/2/29_9.odb,Step-1,Increment      1: Step Time =    1.000,"PART-1-1",           223,      -10.5623,      -4.72446,            0.,NA,NA,"",       3.71746,       3.71576,  -112.297E-03,   21.8438E-03
C:/temp/dataset/2/29_9.odb,Step-1,Increment      1: Step Time =    1.000,"PART-1-1",           224,      -5.01319,       24.9269,            0.,NA,NA,"",       12.3100,       11.9740,      -2.85619,   2.83847E-09
C:/temp/dataset/2/29_9.odb,Step-1,Increment      1: Step Time =    1.000,"PART-1-1",           225,      -9.24174,      -19.5473,            0.,NA,NA,"",   342.868E-03,   342.708E-03,   10.4762E-03,   18.3621E-03
C:/temp/dataset/2/29_9.odb,Step-1,Increment      1: Step Time =    1.000,"PART-1-1",           226,       8.53639,       25.1316,            0.,NA,NA,"",       13.2956,       11.4721,      -6.72049,   11.2184E-09
C:/temp/dataset/2/29_9.odb,Step-1,Increment      1: Step Time =    1.000,"PART-1-1",           227,       8.85572,       23.3093,            0.,NA,NA,"",       12.8477,       10.9403,      -6.73602,   10.5922E-09
C:/temp/dataset/2/29_9.odb,Step-1,Increment      1: Step Time =    1.000,"PART-1-1",           228,      -13.7516,       22.4908,            0.,NA,NA,"",       11.6452,       11.6421,  -268.747E-03,   2.32628E-09
C:/temp/dataset/2/29_9.odb,Step-1,Increment      1: Step Time =    1.000,"PART-1-1",           229,          -15.,         21.25,            0.,NA,NA,"",       11.3414,       11.3406,   137.808E-03,   1.98086E-09
C:/temp/dataset/2/29_9.odb,Step-1,Increment      1: Step Time =    1.000,"PART-1-1",           230,        -13.75,           20.,            0.,NA,NA,"",       10.9345,       10.9332,  -166.226E-03,   2.52235E-09
C:/temp/dataset/2/29_9.odb,Step-1,Increment      1: Step Time =    1.000,"PART-1-1",           231,      -12.5016,       21.2408,            0.,NA,NA,"",       11.2493,       11.2347,  -572.781E-03,   1.97616E-09
C:/temp/dataset/2/29_9.odb,Step-1,Increment      1: Step Time =    1.000,"PART-1-1",           232,      -9.99605,       28.7334,            0.,NA,NA,"",       13.3589,       13.2633,      -1.59558,   3.61160E-09
C:/temp/dataset/2/29_9.odb,Step-1,Increment      1: Step Time =    1.000,"PART-1-1",           233,        -11.25,           30.,            0.,NA,NA,"",       13.7364,       13.6756,      -1.29111,   4.14393E-09
C:/temp/dataset/2/29_9.odb,Step-1,Increment      1: Step Time =    1.000,"PART-1-1",           234,      -12.4976,       28.7426,            0.,NA,NA,"",       13.3985,       13.3693,  -884.090E-03,   1.68581E-09
C:/temp/dataset/2/29_9.odb,Step-1,Increment      1: Step Time =    1.000,"PART-1-1",           235,      -11.2437,       27.4760,            0.,NA,NA,"",       13.0114,       12.9570,      -1.18856,   2.38530E-09
C:/temp/dataset/2/29_9.odb,Step-1,Increment      1: Step Time =    1.000,"PART-1-1",           236,      -8.74541,       27.4572,            0.,NA,NA,"",       12.9879,       12.8484,      -1.89872,   3.46958E-09
C:/temp/dataset/2/29_9.odb,Step-1,Increment      1: Step Time =    1.000,"PART-1-1",           237,      -7.49936,       28.7238,            0.,NA,NA,"",       13.3578,       13.1573,      -2.30568,   5.42434E-09
C:/temp/dataset/2/29_9.odb,Step-1,Increment      1: Step Time =    1.000,"PART-1-1",           238,         -8.75,           30.,            0.,NA,NA,"",       13.7191,       13.5722,      -2.00254,   6.27847E-09
C:/temp/dataset/2/29_9.odb,Step-1,Increment      1: Step Time =    1.000,"PART-1-1",           239,      -10.0020,       21.2344,            0.,NA,NA,"",       11.2033,       11.1295,      -1.28383,   3.84997E-09
C:/temp/dataset/2/29_9.odb,Step-1,Increment      1: Step Time =    1.000,"PART-1-1",           240,      -11.2537,       22.4752,            0.,NA,NA,"",       11.5758,       11.5344,  -978.952E-03,   2.51409E-09
C:/temp/dataset/2/29_9.odb,Step-1,Increment      1: Step Time =    1.000,"PART-1-1",           241,        -11.25,           20.,            0.,NA,NA,"",       10.8653,       10.8298,  -877.658E-03,   4.34827E-09
C:/temp/dataset/2/29_9.odb,Step-1,Increment      1: Step Time =    1.000,"PART-1-1",           242,      -6.25410,       27.4469,            0.,NA,NA,"",       13.0064,       12.7424,      -2.60725,   4.48514E-09
C:/temp/dataset/2/29_9.odb,Step-1,Increment      1: Step Time =    1.000,"PART-1-1",           243,      -7.50120,       26.1906,            0.,NA,NA,"",       12.6297,       12.4365,      -2.20042,   2.94459E-09
C:/temp/dataset/2/29_9.odb,Step-1,Increment      1: Step Time =    1.000,"PART-1-1",           244,      -6.25844,       24.9303,            0.,NA,NA,"",       12.2840,       12.0265,      -2.50197,   2.89915E-09
C:/temp/dataset/2/29_9.odb,Step-1,Increment      1: Step Time =    1.000,"PART-1-1",           245,      -5.01133,       26.1865,            0.,NA,NA,"",       12.6708,       12.3324,      -2.90880,   3.20855E-09
C:/temp/dataset/2/29_9.odb,Step-1,Increment      1: Step Time =    1.000,"PART-1-1",           246,       1.11906,       22.3143,            0.,NA,NA,"",       11.8610,       10.9770,      -4.49324,   8.41447E-09
C:/temp/dataset/2/29_9.odb,Step-1,Increment      1: Step Time =    1.000,"PART-1-1",           247,  -37.5712E-03,       21.1808,            0.,NA,NA,"",       11.4669,       10.7023,      -4.11723,   10.6939E-09
C:/temp/dataset/2/29_9.odb,Step-1,Increment      1: Step Time =    1.000,"PART-1-1",           248,          1.25,           20.,            0.,NA,NA,"",       11.2261,       10.3130,      -4.43482,   14.9519E-09
C:/temp/dataset/2/29_9.odb,Step-1,Increment      1: Step Time =    1.000,"PART-1-1",           249,       2.40663,       21.1336,            0.,NA,NA,"",       11.6295,       10.5878,      -4.81083,   12.4448E-09
C:/temp/dataset/2/29_9.odb,Step-1,Increment      1: Step Time =    1.000,"PART-1-1",           250,  -46.9838E-03,       26.1228,            0.,NA,NA,"",       12.8562,       12.1090,      -4.31888,   3.73984E-09
C:/temp/dataset/2/29_9.odb,Step-1,Increment      1: Step Time =    1.000,"PART-1-1",           251,       1.11635,       24.7850,            0.,NA,NA,"",       12.5514,       11.6802,      -4.59462,   2.63727E-09
C:/temp/dataset/2/29_9.odb,Step-1,Increment      1: Step Time =    1.000,"PART-1-1",           252,       2.41618,       25.9912,            0.,NA,NA,"",       12.9776,       11.9697,      -5.01439,   4.32054E-09
C:/temp/dataset/2/29_9.odb,Step-1,Increment      1: Step Time =    1.000,"PART-1-1",           253,       1.25284,       27.3289,            0.,NA,NA,"",       13.2732,       12.3985,      -4.73864,   6.99801E-09
C:/temp/dataset/2/29_9.odb,Step-1,Increment      1: Step Time =    1.000,"PART-1-1",           254,       11.4216,       22.1022,            0.,NA,NA,"",       12.8474,       10.4907,      -7.41628,   13.7670E-09
C:/temp/dataset/2/29_9.odb,Step-1,Increment      1: Step Time =    1.000,"PART-1-1",           255,       9.70783,       21.3771,            0.,NA,NA,"",       12.4427,       10.3552,      -6.89862,   10.7885E-09
C:/temp/dataset/2/29_9.odb,Step-1,Increment      1: Step Time =    1.000,"PART-1-1",           256,       10.3968,       19.2167,            0.,NA,NA,"",       11.9748,       9.71192,      -7.00535,   11.0930E-09
C:/temp/dataset/2/29_9.odb,Step-1,Increment      1: Step Time =    1.000,"PART-1-1",           257,       12.1105,       19.9418,            0.,NA,NA,"",       12.3922,       9.84741,      -7.52302,   11.3750E-09
C:/temp/dataset/2/29_9.odb,Step-1,Increment      1: Step Time =    1.000,"PART-1-1",           258,       11.6215,       24.7876,            0.,NA,NA,"",       13.5649,       11.2466,      -7.58420,   12.5350E-09
C:/temp/dataset/2/29_9.odb,Step-1,Increment      1: Step Time =    1.000,"PART-1-1",           259,       12.6971,       25.9410,            0.,NA,NA,"",       13.9986,       11.5304,      -7.93798,   9.99158E-09
C:/temp/dataset/2/29_9.odb,Step-1,Increment      1: Step Time =    1.000,"PART-1-1",           260,       11.4859,       27.3886,            0.,NA,NA,"",       14.2263,       11.9924,      -7.65315,   8.95951E-09
C:/temp/dataset/2/29_9.odb,Step-1,Increment      1: Step Time =    1.000,"PART-1-1",           261,       10.4103,       26.2351,            0.,NA,NA,"",       13.7976,       11.7086,      -7.29937,   11.6564E-09
C:/temp/dataset/2/29_9.odb,Step-1,Increment      1: Step Time =    1.000,"PART-1-1",           262,       5.88041,       17.6377,            0.,NA,NA,"",       11.0121,       9.44933,      -5.65483,   10.9024E-09
C:/temp/dataset/2/29_9.odb,Step-1,Increment      1: Step Time =    1.000,"PART-1-1",           263,       6.75071,       18.9160,            0.,NA,NA,"",       11.4480,       9.77710,      -5.95535,   15.2759E-09
C:/temp/dataset/2/29_9.odb,Step-1,Increment      1: Step Time =    1.000,"PART-1-1",           264,       5.87030,       20.0282,            0.,NA,NA,"",       11.6486,       10.1300,      -5.75079,   18.6128E-09
C:/temp/dataset/2/29_9.odb,Step-1,Increment      1: Step Time =    1.000,"PART-1-1",           265,            5.,         18.75,            0.,NA,NA,"",       11.2156,       9.80225,      -5.45028,   17.1635E-09
C:/temp/dataset/2/29_9.odb,Step-1,Increment      1: Step Time =    1.000,"PART-1-1",           266,       12.3690,       13.3305,            0.,NA,NA,"",       10.8128,       7.95533,      -7.32322,   408.047E-09
C:/temp/dataset/2/29_9.odb,Step-1,Increment      1: Step Time =    1.000,"PART-1-1",           267,       13.7195,       12.1790,            0.,NA,NA,"",       10.7707,       7.57182,      -7.65993,   358.065E-09
C:/temp/dataset/2/29_9.odb,Step-1,Increment      1: Step Time =    1.000,"PART-1-1",           268,           15.,       13.9583,            0.,NA,NA,"",       11.4009,       8.02522,      -8.09789,   132.393E-09
C:/temp/dataset/2/29_9.odb,Step-1,Increment      1: Step Time =    1.000,"PART-1-1",           269,       13.6495,       15.1098,            0.,NA,NA,"",       11.4430,       8.40873,      -7.76118,   75.8150E-09
C:/temp/dataset/2/29_9.odb,Step-1,Increment      1: Step Time =    1.000,"PART-1-1",           270,       12.5214,       4.81657,            0.,NA,NA,"",       8.92992,       5.52620,      -7.01459,   1.24065E-06
C:/temp/dataset/2/29_9.odb,Step-1,Increment      1: Step Time =    1.000,"PART-1-1",           271,       13.7670,       3.58604,            0.,NA,NA,"",       8.93400,       5.12454,      -7.31816,   2.71993E-06
C:/temp/dataset/2/29_9.odb,Step-1,Increment      1: Step Time =    1.000,"PART-1-1",           272,           15.,       5.20833,            0.,NA,NA,"",       9.51241,       5.53521,      -7.73611,   4.40944E-06
C:/temp/dataset/2/29_9.odb,Step-1,Increment      1: Step Time =    1.000,"PART-1-1",           273,       13.7545,       6.43886,            0.,NA,NA,"",       9.51258,       5.93688,      -7.43254,   2.26586E-06
C:/temp/dataset/2/29_9.odb,Step-1,Increment      1: Step Time =    1.000,"PART-1-1",           274,       13.7625,      -2.13133,            0.,NA,NA,"",       7.89736,       3.49780,      -7.08052,   1.96406E-06
C:/temp/dataset/2/29_9.odb,Step-1,Increment      1: Step Time =    1.000,"PART-1-1",           275,       12.5125,      -3.58966,            0.,NA,NA,"",       7.36486,       3.13450,      -6.66453,   2.19772E-06
C:/temp/dataset/2/29_9.odb,Step-1,Increment      1: Step Time =    1.000,"PART-1-1",           276,         13.75,           -5.,            0.,NA,NA,"",       7.45735,       2.68203,      -6.95836,   888.946E-09
C:/temp/dataset/2/29_9.odb,Step-1,Increment      1: Step Time =    1.000,"PART-1-1",           277,           15.,      -3.54167,            0.,NA,NA,"",       7.97840,       3.04533,      -7.37434,   1.01291E-06
C:/temp/dataset/2/29_9.odb,Step-1,Increment      1: Step Time =    1.000,"PART-1-1",           278,      -9.21387,      -6.21191,            0.,NA,NA,"",       3.26959,       3.24586,  -393.230E-03,   20.7849E-03
C:/temp/dataset/2/29_9.odb,Step-1,Increment      1: Step Time =    1.000,"PART-1-1",           279,      -8.44405,      -4.75360,            0.,NA,NA,"",       3.69443,       3.63526,  -658.586E-03,   21.6133E-03
C:/temp/dataset/2/29_9.odb,Step-1,Increment      1: Step Time =    1.000,"PART-1-1",           280,      -9.71477,      -4.17886,            0.,NA,NA,"",       3.86023,       3.84400,  -353.679E-03,   20.4948E-03
C:/temp/dataset/2/29_9.odb,Step-1,Increment      1: Step Time =    1.000,"PART-1-1",           281,      -10.4846,      -5.63717,            0.,NA,NA,"",       3.45150,       3.45014,  -96.7859E-03,   21.9443E-03
C:/temp/dataset/2/29_9.odb,Step-1,Increment      1: Step Time =    1.000,"PART-1-1",           282,      -5.84282,   107.969E-03,            0.,NA,NA,"",       5.19530,       4.94213,      -1.60203,   5.88746E-03
C:/temp/dataset/2/29_9.odb,Step-1,Increment      1: Step Time =    1.000,"PART-1-1",           283,      -4.64047,       1.60743,            0.,NA,NA,"",       5.68644,       5.32163,      -2.00398,   2.28929E-03
C:/temp/dataset/2/29_9.odb,Step-1,Increment      1: Step Time =    1.000,"PART-1-1",           284,      -6.45702,       2.58989,            0.,NA,NA,"",       5.87792,       5.67339,      -1.53707,   3.91739E-03
C:/temp/dataset/2/29_9.odb,Step-1,Increment      1: Step Time =    1.000,"PART-1-1",           285,      -7.65937,       1.09043,            0.,NA,NA,"",       5.41563,       5.29406,      -1.14105,   7.46209E-03
C:/temp/dataset/2/29_9.odb,Step-1,Increment      1: Step Time =    1.000,"PART-1-1",           286,      -6.51044,      -5.43697,            0.,NA,NA,"",       3.56687,       3.38215,      -1.13297,   19.4330E-03
C:/temp/dataset/2/29_9.odb,Step-1,Increment      1: Step Time =    1.000,"PART-1-1",           287,      -5.48201,      -3.85122,            0.,NA,NA,"",       4.09136,       3.80191,      -1.51152,   14.6602E-03
C:/temp/dataset/2/29_9.odb,Step-1,Increment      1: Step Time =    1.000,"PART-1-1",           288,      -7.41561,      -3.16785,            0.,NA,NA,"",       4.18336,       4.05931,      -1.01119,   16.2570E-03
C:/temp/dataset/2/29_9.odb,Step-1,Increment      1: Step Time =    1.000,"PART-1-1",           289,      -12.6742,      -10.6472,            0.,NA,NA,"",       2.23682,       2.16921,   545.813E-03,   33.1283E-03
C:/temp/dataset/2/29_9.odb,Step-1,Increment      1: Step Time =    1.000,"PART-1-1",           290,      -11.3911,      -11.6978,            0.,NA,NA,"",       1.88654,       1.86550,   280.969E-03,   25.5450E-03
C:/temp/dataset/2/29_9.odb,Step-1,Increment      1: Step Time =    1.000,"PART-1-1",           291,      -10.2167,      -10.1126,            0.,NA,NA,"",       2.22551,       2.22550,  -6.05719E-03,   21.7866E-03
C:/temp/dataset/2/29_9.odb,Step-1,Increment      1: Step Time =    1.000,"PART-1-1",           292,      -11.4997,      -9.06207,            0.,NA,NA,"",       2.55056,       2.53754,   257.330E-03,   23.3892E-03
C:/temp/dataset/2/29_9.odb,Step-1,Increment      1: Step Time =    1.000,"PART-1-1",           293,      -13.7107,      -15.1438,            0.,NA,NA,"",       1.37088,       1.18248,   693.586E-03,   58.6725E-03
C:/temp/dataset/2/29_9.odb,Step-1,Increment      1: Step Time =    1.000,"PART-1-1",           294,      -12.5249,      -13.4434,            0.,NA,NA,"",       1.58222,       1.49717,   511.775E-03,   38.2917E-03
C:/temp/dataset/2/29_9.odb,Step-1,Increment      1: Step Time =    1.000,"PART-1-1",           295,      -13.8143,      -12.2579,            0.,NA,NA,"",       1.98248,       1.82113,   783.386E-03,   49.0804E-03
C:/temp/dataset/2/29_9.odb,Step-1,Increment      1: Step Time =    1.000,"PART-1-1",           296,          -15.,      -13.9583,            0.,NA,NA,"",       1.78178,       1.49001,   977.039E-03,   71.2882E-03
C:/temp/dataset/2/29_9.odb,Step-1,Increment      1: Step Time =    1.000,"PART-1-1",           297,      -12.0988,      -16.5012,            0.,NA,NA,"",   956.089E-03,   868.408E-03,   399.967E-03,   39.4489E-03
C:/temp/dataset/2/29_9.odb,Step-1,Increment      1: Step Time =    1.000,"PART-1-1",           298,      -10.5811,      -17.2344,            0.,NA,NA,"",   723.468E-03,   701.882E-03,   175.409E-03,   23.8827E-03
C:/temp/dataset/2/29_9.odb,Step-1,Increment      1: Step Time =    1.000,"PART-1-1",           299,      -9.66362,      -15.1575,            0.,NA,NA,"",       1.06328,       1.06315,   16.8893E-03,   22.8209E-03
C:/temp/dataset/2/29_9.odb,Step-1,Increment      1: Step Time =    1.000,"PART-1-1",           300,      -11.1813,      -14.4243,            0.,NA,NA,"",       1.27280,       1.24479,   265.592E-03,   26.8669E-03
C:/temp/dataset/2/29_9.odb,Step-1,Increment      1: Step Time =    1.000,"PART-1-1",           301,      -10.5090,      -18.8394,            0.,NA,NA,"",   485.576E-03,   459.937E-03,   155.700E-03,   25.5800E-03
C:/temp/dataset/2/29_9.odb,Step-1,Increment      1: Step Time =    1.000,"PART-1-1",           302,      -8.88448,      -18.7076,            0.,NA,NA,"",   443.511E-03,   442.186E-03,  -34.2537E-03,   22.5653E-03
C:/temp/dataset/2/29_9.odb,Step-1,Increment      1: Step Time =    1.000,"PART-1-1",           303,      -8.95657,      -17.1026,            0.,NA,NA,"",   694.827E-03,   693.092E-03,  -49.0832E-03,   27.6408E-03
C:/temp/dataset/2/29_9.odb,Step-1,Increment      1: Step Time =    1.000,"PART-1-1",           304,      -8.08225,      -19.7831,            0.,NA,NA,"",   313.353E-03,   294.886E-03,  -105.983E-03,   25.5705E-03
C:/temp/dataset/2/29_9.odb,Step-1,Increment      1: Step Time =    1.000,"PART-1-1",           305,      -6.89084,      -18.8787,            0.,NA,NA,"",   456.345E-03,   385.543E-03,  -244.146E-03,   46.2448E-03
C:/temp/dataset/2/29_9.odb,Step-1,Increment      1: Step Time =    1.000,"PART-1-1",           306,      -7.69307,      -17.8032,            0.,NA,NA,"",   598.353E-03,   565.349E-03,  -195.974E-03,   43.4710E-03
C:/temp/dataset/2/29_9.odb,Step-1,Increment      1: Step Time =    1.000,"PART-1-1",           307,       7.10093,      -24.9223,            0.,NA,NA,"",   55.2274E-03,   55.2232E-03,   682.599E-06,   6.22890E-03
C:/temp/dataset/2/29_9.odb,Step-1,Increment      1: Step Time =    1.000,"PART-1-1",           308,       8.59925,      -23.6815,            0.,NA,NA,"",   58.6168E-03,   58.5903E-03,   1.76144E-03,   3.78104E-03
C:/temp/dataset/2/29_9.odb,Step-1,Increment      1: Step Time =    1.000,"PART-1-1",           309,       6.88316,      -22.4353,            0.,NA,NA,"",   68.2046E-03,   68.0982E-03,   3.80848E-03,   3.62924E-03
C:/temp/dataset/2/29_9.odb,Step-1,Increment      1: Step Time =    1.000,"PART-1-1",           310,       5.38484,      -23.6762,            0.,NA,NA,"",   68.8676E-03,   68.8669E-03,   300.030E-06,   5.92021E-03
C:/temp/dataset/2/29_9.odb,Step-1,Increment      1: Step Time =    1.000,"PART-1-1",           311,       13.3798,      -22.4744,            0.,NA,NA,"",   61.3823E-03,   60.2849E-03,  -11.5553E-03,   336.357E-06
C:/temp/dataset/2/29_9.odb,Step-1,Increment      1: Step Time =    1.000,"PART-1-1",           312,           15.,        -21.25,            0.,NA,NA,"",   68.6824E-03,   65.9522E-03,  -19.1723E-03,   151.793E-06
C:/temp/dataset/2/29_9.odb,Step-1,Increment      1: Step Time =    1.000,"PART-1-1",           313,       13.3333,          -20.,            0.,NA,NA,"",   72.4340E-03,   71.5177E-03,  -11.4849E-03,   185.339E-06
C:/temp/dataset/2/29_9.odb,Step-1,Increment      1: Step Time =    1.000,"PART-1-1",           314,       11.7131,      -21.2244,            0.,NA,NA,"",   66.5013E-03,   66.3378E-03,  -4.66017E-03,   341.920E-06
C:/temp/dataset/2/29_9.odb,Step-1,Increment      1: Step Time =    1.000,"PART-1-1",           315,      -2.14863,       2.00914,            0.,NA,NA,"",       5.98994,       5.33430,      -2.72482,   367.777E-06
C:/temp/dataset/2/29_9.odb,Step-1,Increment      1: Step Time =    1.000,"PART-1-1",           316,      -1.66393,   575.985E-03,            0.,NA,NA,"",       5.65177,       4.90745,      -2.80347,   468.196E-06
C:/temp/dataset/2/29_9.odb,Step-1,Increment      1: Step Time =    1.000,"PART-1-1",           317,   135.628E-03,       1.10435,            0.,NA,NA,"",       5.99686,       4.98293,      -3.33659,   337.596E-06
C:/temp/dataset/2/29_9.odb,Step-1,Increment      1: Step Time =    1.000,"PART-1-1",           318,  -349.073E-03,       2.53751,            0.,NA,NA,"",       6.31513,       5.41001,      -3.25771,   314.157E-06
C:/temp/dataset/2/29_9.odb,Step-1,Increment      1: Step Time =    1.000,"PART-1-1",           319,   156.145E-03,      -1.87787,            0.,NA,NA,"",       5.23931,       4.13329,      -3.21967,   479.929E-06
C:/temp/dataset/2/29_9.odb,Step-1,Increment      1: Step Time =    1.000,"PART-1-1",           320,       1.21010,      -2.70880,            0.,NA,NA,"",       5.19504,       3.85243,      -3.48528,   547.246E-06
C:/temp/dataset/2/29_9.odb,Step-1,Increment      1: Step Time =    1.000,"PART-1-1",           321,       2.32846,      -1.50081,            0.,NA,NA,"",       5.66330,       4.15027,      -3.85335,   280.171E-06
C:/temp/dataset/2/29_9.odb,Step-1,Increment      1: Step Time =    1.000,"PART-1-1",           322,       1.27451,  -669.883E-03,            0.,NA,NA,"",       5.70116,       4.43076,      -3.58770,   370.985E-06
C:/temp/dataset/2/29_9.odb,Step-1,Increment      1: Step Time =    1.000,"PART-1-1",           323,       4.87500,      -1.23074,            0.,NA,NA,"",       6.16809,       4.12159,      -4.58888,   111.730E-06
C:/temp/dataset/2/29_9.odb,Step-1,Increment      1: Step Time =    1.000,"PART-1-1",           324,       6.20088,      -2.43579,            0.,NA,NA,"",       6.16739,       3.72376,      -4.91633,   77.2253E-06
C:/temp/dataset/2/29_9.odb,Step-1,Increment      1: Step Time =    1.000,"PART-1-1",           325,       7.44880,      -1.07477,            0.,NA,NA,"",       6.69798,       4.05949,      -5.32762,   31.6707E-06
C:/temp/dataset/2/29_9.odb,Step-1,Increment      1: Step Time =    1.000,"PART-1-1",           326,       6.12293,   130.279E-03,            0.,NA,NA,"",       6.69840,       4.45727,      -5.00013,   87.0527E-06
C:/temp/dataset/2/29_9.odb,Step-1,Increment      1: Step Time =    1.000,"PART-1-1",           327,          8.75,           -5.,            0.,NA,NA,"",       6.24403,       2.88874,      -5.53562,   1.77073E-06
C:/temp/dataset/2/29_9.odb,Step-1,Increment      1: Step Time =    1.000,"PART-1-1",           328,       10.0063,      -3.63741,            0.,NA,NA,"",       6.76707,       3.22452,      -5.94942,   2.38750E-06
C:/temp/dataset/2/29_9.odb,Step-1,Increment      1: Step Time =    1.000,"PART-1-1",           329,       8.73716,      -2.32557,            0.,NA,NA,"",       6.72030,       3.65028,      -5.64251,   19.1518E-06
C:/temp/dataset/2/29_9.odb,Step-1,Increment      1: Step Time =    1.000,"PART-1-1",           330,       7.48081,      -3.68816,            0.,NA,NA,"",       6.19074,       3.31447,      -5.22872,   17.0093E-06
C:/temp/dataset/2/29_9.odb,Step-1,Increment      1: Step Time =    1.000,"PART-1-1",           331,       6.24109,       7.72904,            0.,NA,NA,"",       8.50605,       6.61468,      -5.34779,   5.31803E-06
C:/temp/dataset/2/29_9.odb,Step-1,Increment      1: Step Time =    1.000,"PART-1-1",           332,            5.,          6.25,            0.,NA,NA,"",       7.95865,       6.24510,      -4.93344,   14.6253E-06
C:/temp/dataset/2/29_9.odb,Step-1,Increment      1: Step Time =    1.000,"PART-1-1",           333,       6.24095,       5.17046,            0.,NA,NA,"",       7.88224,       5.88656,      -5.24196,   20.0746E-06
C:/temp/dataset/2/29_9.odb,Step-1,Increment      1: Step Time =    1.000,"PART-1-1",           334,       7.48203,       6.64950,            0.,NA,NA,"",       8.43405,       6.25616,      -5.65630,   5.96158E-06
C:/temp/dataset/2/29_9.odb,Step-1,Increment      1: Step Time =    1.000,"PART-1-1",           335,       7.34508,       23.6052,            0.,NA,NA,"",       12.7610,       11.0869,      -6.31837,   8.10893E-09
C:/temp/dataset/2/29_9.odb,Step-1,Increment      1: Step Time =    1.000,"PART-1-1",           336,       6.41056,       24.2397,            0.,NA,NA,"",       12.8366,       11.3061,      -6.07866,   7.19769E-09
C:/temp/dataset/2/29_9.odb,Step-1,Increment      1: Step Time =    1.000,"PART-1-1",           337,       6.08150,       22.9932,            0.,NA,NA,"",       12.4675,       10.9650,      -5.93348,   6.30037E-09
C:/temp/dataset/2/29_9.odb,Step-1,Increment      1: Step Time =    1.000,"PART-1-1",           338,       7.01602,       22.3587,            0.,NA,NA,"",       12.3928,       10.7458,      -6.17319,   6.82586E-09
C:/temp/dataset/2/29_9.odb,Step-1,Increment      1: Step Time =    1.000,"PART-1-1",           339,      -12.5005,       23.7291,            0.,NA,NA,"",       11.9619,       11.9427,  -675.978E-03,   2.93389E-09
C:/temp/dataset/2/29_9.odb,Step-1,Increment      1: Step Time =    1.000,"PART-1-1",           340,      -13.7489,       24.9883,            0.,NA,NA,"",       12.3583,       12.3527,  -372.787E-03,   2.75449E-09
C:/temp/dataset/2/29_9.odb,Step-1,Increment      1: Step Time =    1.000,"PART-1-1",           341,          -15.,         23.75,            0.,NA,NA,"",       12.0521,       12.0520,   34.4438E-03,   1.91555E-09
C:/temp/dataset/2/29_9.odb,Step-1,Increment      1: Step Time =    1.000,"PART-1-1",           342,      -2.52491,       26.1674,            0.,NA,NA,"",       12.7476,       12.2242,      -3.61557,   3.45494E-09
C:/temp/dataset/2/29_9.odb,Step-1,Increment      1: Step Time =    1.000,"PART-1-1",           343,      -1.30373,       24.8780,            0.,NA,NA,"",       12.4373,       11.8067,      -3.90978,   2.67823E-09
C:/temp/dataset/2/29_9.odb,Step-1,Increment      1: Step Time =    1.000,"PART-1-1",           344,      -1.26817,       27.4122,            0.,NA,NA,"",       13.1571,       12.5264,      -4.02467,   6.38299E-09
C:/temp/dataset/2/29_9.odb,Step-1,Increment      1: Step Time =    1.000,"PART-1-1",           345,       2.31009,       23.4917,            0.,NA,NA,"",       12.2749,       11.2628,      -4.88086,   5.36180E-09
C:/temp/dataset/2/29_9.odb,Step-1,Increment      1: Step Time =    1.000,"PART-1-1",           346,       3.41051,       22.2101,            0.,NA,NA,"",       12.0087,       10.8526,      -5.14101,   7.39120E-09
C:/temp/dataset/2/29_9.odb,Step-1,Increment      1: Step Time =    1.000,"PART-1-1",           347,       4.46987,       23.2845,            0.,NA,NA,"",       12.3952,       11.1146,      -5.48690,   4.77560E-09
C:/temp/dataset/2/29_9.odb,Step-1,Increment      1: Step Time =    1.000,"PART-1-1",           348,       3.36945,       24.5662,            0.,NA,NA,"",       12.6546,       11.5248,      -5.22675,   3.01324E-09
C:/temp/dataset/2/29_9.odb,Step-1,Increment      1: Step Time =    1.000,"PART-1-1",           349,       3.92627,       27.0683,            0.,NA,NA,"",       13.3904,       12.2138,      -5.48865,   7.37704E-09
C:/temp/dataset/2/29_9.odb,Step-1,Increment      1: Step Time =    1.000,"PART-1-1",           350,       5.16355,       28.4353,            0.,NA,NA,"",       13.8680,       12.5517,      -5.89727,   11.5010E-09
C:/temp/dataset/2/29_9.odb,Step-1,Increment      1: Step Time =    1.000,"PART-1-1",           351,          3.75,           30.,            0.,NA,NA,"",       14.1899,       13.0554,      -5.55970,   16.0081E-09
C:/temp/dataset/2/29_9.odb,Step-1,Increment      1: Step Time =    1.000,"PART-1-1",           352,       2.51272,       28.6330,            0.,NA,NA,"",       13.7211,       12.7175,      -5.15108,   11.6101E-09
C:/temp/dataset/2/29_9.odb,Step-1,Increment      1: Step Time =    1.000,"PART-1-1",           353,       11.0463,       14.3537,            0.,NA,NA,"",       10.8516,       8.30121,      -6.98913,   221.296E-09
C:/temp/dataset/2/29_9.odb,Step-1,Increment      1: Step Time =    1.000,"PART-1-1",           354,       9.86747,       12.5470,            0.,NA,NA,"",       10.2314,       7.83579,      -6.57897,   699.884E-09
C:/temp/dataset/2/29_9.odb,Step-1,Increment      1: Step Time =    1.000,"PART-1-1",           355,       11.1901,       11.5237,            0.,NA,NA,"",       10.1926,       7.48992,      -6.91305,   744.486E-09
C:/temp/dataset/2/29_9.odb,Step-1,Increment      1: Step Time =    1.000,"PART-1-1",           356,       9.55073,       15.1783,            0.,NA,NA,"",       10.8374,       8.59769,      -6.59762,   197.503E-09
C:/temp/dataset/2/29_9.odb,Step-1,Increment      1: Step Time =    1.000,"PART-1-1",           357,       8.18591,       15.9712,            0.,NA,NA,"",       10.8542,       8.87977,      -6.24201,   78.5190E-09
C:/temp/dataset/2/29_9.odb,Step-1,Increment      1: Step Time =    1.000,"PART-1-1",           358,       7.20669,       14.2932,            0.,NA,NA,"",       10.2965,       8.44272,      -5.89397,   291.276E-09
C:/temp/dataset/2/29_9.odb,Step-1,Increment      1: Step Time =    1.000,"PART-1-1",           359,       8.57151,       13.5002,            0.,NA,NA,"",       10.2788,       8.16064,      -6.24958,   312.696E-09
C:/temp/dataset/2/29_9.odb,Step-1,Increment      1: Step Time =    1.000,"PART-1-1",           360,       7.44377,       1.50598,            0.,NA,NA,"",       7.24559,       4.79408,      -5.43280,   29.5420E-06
C:/temp/dataset/2/29_9.odb,Step-1,Increment      1: Step Time =    1.000,"PART-1-1",           361,       8.72836,   326.342E-03,            0.,NA,NA,"",       7.24323,       4.40528,      -5.74960,   24.1844E-06
C:/temp/dataset/2/29_9.odb,Step-1,Increment      1: Step Time =    1.000,"PART-1-1",           362,       10.0261,       1.76283,            0.,NA,NA,"",       7.79949,       4.76038,      -6.17825,   7.15729E-06
C:/temp/dataset/2/29_9.odb,Step-1,Increment      1: Step Time =    1.000,"PART-1-1",           363,       8.74149,       2.94246,            0.,NA,NA,"",       7.80197,       5.14918,      -5.86146,   15.6071E-06
C:/temp/dataset/2/29_9.odb,Step-1,Increment      1: Step Time =    1.000,"PART-1-1",           364,       12.5045,       7.62102,            0.,NA,NA,"",       9.52791,       6.32497,      -7.12572,   1.85661E-06
C:/temp/dataset/2/29_9.odb,Step-1,Increment      1: Step Time =    1.000,"PART-1-1",           365,           15.,         8.125,            0.,NA,NA,"",       10.1116,       6.36521,      -7.85671,   2.41987E-06
C:/temp/dataset/2/29_9.odb,Step-1,Increment      1: Step Time =    1.000,"PART-1-1",           366,       13.7500,       9.30715,            0.,NA,NA,"",       10.1295,       6.75330,      -7.54988,   1.18219E-06
C:/temp/dataset/2/29_9.odb,Step-1,Increment      1: Step Time =    1.000,"PART-1-1",           367,      -1.45938,      -2.40358,            0.,NA,NA,"",       4.88919,       4.05086,      -2.73764,   742.699E-06
C:/temp/dataset/2/29_9.odb,Step-1,Increment      1: Step Time =    1.000,"PART-1-1",           368,      -2.69869,      -3.52952,            0.,NA,NA,"",       4.44335,       3.78037,      -2.33499,   1.90929E-03
C:/temp/dataset/2/29_9.odb,Step-1,Increment      1: Step Time =    1.000,"PART-1-1",           369,         -1.25,           -5.,            0.,NA,NA,"",       4.25579,       3.29907,      -2.68848,   1.27704E-03
C:/temp/dataset/2/29_9.odb,Step-1,Increment      1: Step Time =    1.000,"PART-1-1",           370,  -10.6917E-03,      -3.87406,            0.,NA,NA,"",       4.72140,       3.57027,      -3.08946,   665.785E-06
C:/temp/dataset/2/29_9.odb,Step-1,Increment      1: Step Time =    1.000,"PART-1-1",           371,      -13.3333,            5.,            0.,NA,NA,"",       6.66357,       6.65782,   276.796E-03,   8.68139E-03
C:/temp/dataset/2/29_9.odb,Step-1,Increment      1: Step Time =    1.000,"PART-1-1",           372,          -15.,       3.54167,            0.,NA,NA,"",       6.37495,       6.32487,   797.490E-03,   9.24633E-03
C:/temp/dataset/2/29_9.odb,Step-1,Increment      1: Step Time =    1.000,"PART-1-1",           373,      -13.2137,       2.05352,            0.,NA,NA,"",       5.82450,       5.81386,   351.891E-03,   9.05065E-03
C:/temp/dataset/2/29_9.odb,Step-1,Increment      1: Step Time =    1.000,"PART-1-1",           374,      -11.5470,       3.51185,            0.,NA,NA,"",       6.15445,       6.15222,  -165.768E-03,   8.09642E-03
C:/temp/dataset/2/29_9.odb,Step-1,Increment      1: Step Time =    1.000,"PART-1-1",           375,          -15.,      625.E-03,            0.,NA,NA,"",       5.56480,       5.49058,   905.848E-03,   11.6849E-03
C:/temp/dataset/2/29_9.odb,Step-1,Increment      1: Step Time =    1.000,"PART-1-1",           376,      -12.9883,      -1.02354,            0.,NA,NA,"",       4.92525,       4.90902,   399.561E-03,   13.8436E-03
C:/temp/dataset/2/29_9.odb,Step-1,Increment      1: Step Time =    1.000,"PART-1-1",           377,      -11.2019,   404.974E-03,            0.,NA,NA,"",       5.24546,       5.24351,  -142.793E-03,   12.5332E-03
C:/temp/dataset/2/29_9.odb,Step-1,Increment      1: Step Time =    1.000,"PART-1-1",           378,      -13.6690,      -3.88141,            0.,NA,NA,"",       4.14957,       4.09403,   676.657E-03,   20.6642E-03
C:/temp/dataset/2/29_9.odb,Step-1,Increment      1: Step Time =    1.000,"PART-1-1",           379,      -11.6573,      -2.61328,            0.,NA,NA,"",       4.37905,       4.37803,   94.5621E-03,   19.8460E-03
C:/temp/dataset/2/29_9.odb,Step-1,Increment      1: Step Time =    1.000,"PART-1-1",           380,          -15.,      -2.29167,            0.,NA,NA,"",       4.74791,       4.64044,       1.00449,   18.2147E-03
C:/temp/dataset/2/29_9.odb,Step-1,Increment      1: Step Time =    1.000,"PART-1-1",           381,           -5.,         -8.75,            0.,NA,NA,"",       2.80392,       2.47000,      -1.32704,   43.8665E-03
C:/temp/dataset/2/29_9.odb,Step-1,Increment      1: Step Time =    1.000,"PART-1-1",           382,      -6.37238,      -7.84264,            0.,NA,NA,"",       2.91425,       2.72642,      -1.02932,   29.4781E-03
C:/temp/dataset/2/29_9.odb,Step-1,Increment      1: Step Time =    1.000,"PART-1-1",           383,      -7.67841,      -9.42411,            0.,NA,NA,"",       2.42315,       2.34389,  -614.672E-03,   27.4861E-03
C:/temp/dataset/2/29_9.odb,Step-1,Increment      1: Step Time =    1.000,"PART-1-1",           384,      -6.30603,      -10.3315,            0.,NA,NA,"",       2.27824,       2.09769,  -888.864E-03,   38.1792E-03
C:/temp/dataset/2/29_9.odb,Step-1,Increment      1: Step Time =    1.000,"PART-1-1",           385,      -13.6103,      -21.3688,            0.,NA,NA,"",   481.367E-03,   277.759E-03,   393.146E-03,   64.6198E-03
C:/temp/dataset/2/29_9.odb,Step-1,Increment      1: Step Time =    1.000,"PART-1-1",           386,          -15.,      -22.7083,            0.,NA,NA,"",   469.371E-03,   224.306E-03,   412.305E-03,   79.4974E-03
C:/temp/dataset/2/29_9.odb,Step-1,Increment      1: Step Time =    1.000,"PART-1-1",           387,      -13.6241,      -24.2925,            0.,NA,NA,"",   261.709E-03,   98.0381E-03,   242.653E-03,   56.7228E-03
C:/temp/dataset/2/29_9.odb,Step-1,Increment      1: Step Time =    1.000,"PART-1-1",           388,      -12.2343,      -22.9530,            0.,NA,NA,"",   250.406E-03,   127.838E-03,   215.315E-03,   42.7476E-03
C:/temp/dataset/2/29_9.odb,Step-1,Increment      1: Step Time =    1.000,"PART-1-1",           389,           -5.,        -16.25,            0.,NA,NA,"",       1.13975,   864.468E-03,  -742.784E-03,   79.7332E-03
C:/temp/dataset/2/29_9.odb,Step-1,Increment      1: Step Time =    1.000,"PART-1-1",           390,      -6.06585,      -15.2329,            0.,NA,NA,"",       1.20345,       1.03542,  -613.358E-03,   58.5841E-03
C:/temp/dataset/2/29_9.odb,Step-1,Increment      1: Step Time =    1.000,"PART-1-1",           391,      -6.99530,      -16.6022,            0.,NA,NA,"",   850.476E-03,   771.359E-03,  -358.211E-03,   52.3350E-03
C:/temp/dataset/2/29_9.odb,Step-1,Increment      1: Step Time =    1.000,"PART-1-1",           392,      -5.92946,      -17.6192,            0.,NA,NA,"",   751.758E-03,   601.769E-03,  -450.571E-03,   72.9918E-03
C:/temp/dataset/2/29_9.odb,Step-1,Increment      1: Step Time =    1.000,"PART-1-1",           393,         -13.5,          -30.,            0.,NA,NA,"",            0.,  -10.6958E-39,   76.8293E-39,   36.8995E-03
C:/temp/dataset/2/29_9.odb,Step-1,Increment      1: Step Time =    1.000,"PART-1-1",           394,      -12.0804,      -28.6247,            0.,NA,NA,"",   33.7025E-03,  -12.4693E-03,   31.3109E-03,   30.4474E-03
C:/temp/dataset/2/29_9.odb,Step-1,Increment      1: Step Time =    1.000,"PART-1-1",           395,      -13.5804,      -27.1664,            0.,NA,NA,"",   110.642E-03,   22.0533E-03,   108.422E-03,   48.7502E-03
C:/temp/dataset/2/29_9.odb,Step-1,Increment      1: Step Time =    1.000,"PART-1-1",           396,          -15.,      -28.5417,            0.,NA,NA,"",   75.5868E-03,   38.3773E-03,   65.1195E-03,   55.1621E-03
C:/temp/dataset/2/29_9.odb,Step-1,Increment      1: Step Time =    1.000,"PART-1-1",           397,          13.5,          -30.,            0.,NA,NA,"",            0.,   3.24856E-39,  -9.02596E-39,   7.67116E-03
C:/temp/dataset/2/29_9.odb,Step-1,Increment      1: Step Time =    1.000,"PART-1-1",           398,           15.,        -28.75,            0.,NA,NA,"",   16.4294E-03,   13.4240E-03,  -9.47212E-03,   7.23362E-03
C:/temp/dataset/2/29_9.odb,Step-1,Increment      1: Step Time =    1.000,"PART-1-1",           399,       13.4640,      -27.4843,            0.,NA,NA,"",   24.4090E-03,   23.5469E-03,  -6.42963E-03,   4.22645E-03
C:/temp/dataset/2/29_9.odb,Step-1,Increment      1: Step Time =    1.000,"PART-1-1",           400,       11.9640,      -28.7343,            0.,NA,NA,"",   11.5649E-03,   11.4112E-03,  -1.87922E-03,   5.98187E-03
C:/temp/dataset/2/29_9.odb,Step-1,Increment      1: Step Time =    1.000,"PART-1-1",           401,       10.2658,      -24.9335,            0.,NA,NA,"",   47.5128E-03,   47.4944E-03,  -1.32161E-03,   4.05826E-03
C:/temp/dataset/2/29_9.odb,Step-1,Increment      1: Step Time =    1.000,"PART-1-1",           402,       8.77397,      -26.1861,            0.,NA,NA,"",   40.5120E-03,   40.5082E-03,  -552.026E-06,   6.01327E-03
C:/temp/dataset/2/29_9.odb,Step-1,Increment      1: Step Time =    1.000,"PART-1-1",           403,       10.3945,      -27.4590,            0.,NA,NA,"",   25.7601E-03,   25.7103E-03,  -1.60099E-03,   6.27575E-03
C:/temp/dataset/2/29_9.odb,Step-1,Increment      1: Step Time =    1.000,"PART-1-1",           404,       11.8863,      -26.2064,            0.,NA,NA,"",   35.8553E-03,   35.5941E-03,  -4.31985E-03,   4.61952E-03
C:/temp/dataset/2/29_9.odb,Step-1,Increment      1: Step Time =    1.000,"PART-1-1",           405,       8.93044,      -28.7247,            0.,NA,NA,"",   14.6678E-03,   14.6240E-03,  -1.13242E-03,   7.31035E-03
C:/temp/dataset/2/29_9.odb,Step-1,Increment      1: Step Time =    1.000,"PART-1-1",           406,       7.31300,      -27.4411,            0.,NA,NA,"",   31.9999E-03,   31.9676E-03,  -1.43591E-03,   8.09596E-03
C:/temp/dataset/2/29_9.odb,Step-1,Increment      1: Step Time =    1.000,"PART-1-1",           407,       5.88256,      -28.7164,            0.,NA,NA,"",   19.4653E-03,   19.3633E-03,  -1.99015E-03,   9.81368E-03
C:/temp/dataset/2/29_9.odb,Step-1,Increment      1: Step Time =    1.000,"PART-1-1",           408,           7.5,          -30.,            0.,NA,NA,"",            0.,   10.0699E-39,  -4.98879E-39,   9.16077E-03
C:/temp/dataset/2/29_9.odb,Step-1,Increment      1: Step Time =    1.000,"PART-1-1",           409,       5.63995,      -26.1773,            0.,NA,NA,"",   50.3432E-03,   50.2883E-03,  -2.34929E-03,   8.15580E-03
C:/temp/dataset/2/29_9.odb,Step-1,Increment      1: Step Time =    1.000,"PART-1-1",           410,       3.92490,      -24.9166,            0.,NA,NA,"",   68.5620E-03,   68.3100E-03,  -5.87285E-03,   9.55619E-03
C:/temp/dataset/2/29_9.odb,Step-1,Increment      1: Step Time =    1.000,"PART-1-1",           411,       2.50142,      -26.1700,            0.,NA,NA,"",   64.0454E-03,   62.6961E-03,  -13.0771E-03,   12.0996E-03
C:/temp/dataset/2/29_9.odb,Step-1,Increment      1: Step Time =    1.000,"PART-1-1",           412,       4.21647,      -27.4307,            0.,NA,NA,"",   41.4498E-03,   41.1058E-03,  -5.32863E-03,   10.8656E-03
C:/temp/dataset/2/29_9.odb,Step-1,Increment      1: Step Time =    1.000,"PART-1-1",           413,       1.12659,      -27.4308,            0.,NA,NA,"",   51.3134E-03,   48.7669E-03,  -15.9641E-03,   15.2632E-03
C:/temp/dataset/2/29_9.odb,Step-1,Increment      1: Step Time =    1.000,"PART-1-1",           414,  -207.324E-03,      -28.7165,            0.,NA,NA,"",   28.6434E-03,   26.3468E-03,  -11.2378E-03,   18.1241E-03
C:/temp/dataset/2/29_9.odb,Step-1,Increment      1: Step Time =    1.000,"PART-1-1",           415,           1.5,          -30.,            0.,NA,NA,"",            0.,   16.3671E-39,  -18.3883E-39,   16.0647E-03
C:/temp/dataset/2/29_9.odb,Step-1,Increment      1: Step Time =    1.000,"PART-1-1",           416,       2.83391,      -28.7143,            0.,NA,NA,"",   25.1789E-03,   24.6552E-03,  -5.10842E-03,   13.5075E-03
C:/temp/dataset/2/29_9.odb,Step-1,Increment      1: Step Time =    1.000,"PART-1-1",           417,      -1.92078,      -27.4395,            0.,NA,NA,"",   55.4032E-03,   44.1848E-03,  -33.4248E-03,   21.4627E-03
C:/temp/dataset/2/29_9.odb,Step-1,Increment      1: Step Time =    1.000,"PART-1-1",           418,      -3.21345,      -28.7230,            0.,NA,NA,"",   24.2797E-03,   16.8177E-03,  -17.5119E-03,   21.1622E-03
C:/temp/dataset/2/29_9.odb,Step-1,Increment      1: Step Time =    1.000,"PART-1-1",           419,          -1.5,          -30.,            0.,NA,NA,"",            0.,   14.7345E-39,  -29.6634E-39,   17.4570E-03
C:/temp/dataset/2/29_9.odb,Step-1,Increment      1: Step Time =    1.000,"PART-1-1",           420,      -5.57419,      -22.4519,            0.,NA,NA,"",   220.730E-03,   117.878E-03,  -186.619E-03,   45.1205E-03
C:/temp/dataset/2/29_9.odb,Step-1,Increment      1: Step Time =    1.000,"PART-1-1",           421,      -6.77537,      -23.6376,            0.,NA,NA,"",   130.725E-03,   64.1658E-03,  -113.894E-03,   34.2559E-03
C:/temp/dataset/2/29_9.odb,Step-1,Increment      1: Step Time =    1.000,"PART-1-1",           422,      -5.25528,      -24.9124,            0.,NA,NA,"",   116.620E-03,   57.6429E-03,  -101.378E-03,   32.2385E-03
C:/temp/dataset/2/29_9.odb,Step-1,Increment      1: Step Time =    1.000,"PART-1-1",           423,      -4.05411,      -23.7268,            0.,NA,NA,"",   162.311E-03,   102.459E-03,  -125.886E-03,   43.4088E-03
C:/temp/dataset/2/29_9.odb,Step-1,Increment      1: Step Time =    1.000,"PART-1-1",           424,       13.4223,      -24.9720,            0.,NA,NA,"",   46.6690E-03,   45.4150E-03,  -10.7460E-03,   1.65369E-03
C:/temp/dataset/2/29_9.odb,Step-1,Increment      1: Step Time =    1.000,"PART-1-1",           425,           15.,        -26.25,            0.,NA,NA,"",   41.1225E-03,   36.4294E-03,  -19.0777E-03,   2.13143E-03
C:/temp/dataset/2/29_9.odb,Step-1,Increment      1: Step Time =    1.000,"PART-1-1",           426,       11.8021,      -23.6964,            0.,NA,NA,"",   54.2509E-03,   54.0254E-03,  -4.94080E-03,   1.97014E-03
C:/temp/dataset/2/29_9.odb,Step-1,Increment      1: Step Time =    1.000,"PART-1-1",           427,       10.1355,      -22.4445,            0.,NA,NA,"",   62.1333E-03,   62.1333E-03,  -11.4673E-06,   1.80606E-03
C:/temp/dataset/2/29_9.odb,Step-1,Increment      1: Step Time =    1.000,"PART-1-1",           428,      -2.31424,      -24.9364,            0.,NA,NA,"",   114.122E-03,   85.9511E-03,  -75.0747E-03,   28.4046E-03
C:/temp/dataset/2/29_9.odb,Step-1,Increment      1: Step Time =    1.000,"PART-1-1",           429,      -3.63092,      -26.1962,            0.,NA,NA,"",   85.0469E-03,   52.4315E-03,  -66.9620E-03,   29.9744E-03
C:/temp/dataset/2/29_9.odb,Step-1,Increment      1: Step Time =    1.000,"PART-1-1",           430,  -604.096E-03,      -26.1796,            0.,NA,NA,"",   79.3611E-03,   69.6873E-03,  -37.9718E-03,   20.9166E-03
C:/temp/dataset/2/29_9.odb,Step-1,Increment      1: Step Time =    1.000,"PART-1-1",           431,      -7.52977,      -11.9021,            0.,NA,NA,"",       1.81478,       1.73942,  -517.535E-03,   33.3531E-03
C:/temp/dataset/2/29_9.odb,Step-1,Increment      1: Step Time =    1.000,"PART-1-1",           432,      -6.22373,      -12.8207,            0.,NA,NA,"",       1.69660,       1.52459,  -744.359E-03,   47.1473E-03
C:/temp/dataset/2/29_9.odb,Step-1,Increment      1: Step Time =    1.000,"PART-1-1",           433,           -5.,        -11.25,            0.,NA,NA,"",       2.19173,       1.87098,      -1.14154,   55.1093E-03
C:/temp/dataset/2/29_9.odb,Step-1,Increment      1: Step Time =    1.000,"PART-1-1",           434,      -10.0475,      -12.6788,            0.,NA,NA,"",       1.60065,       1.60038,   29.0377E-03,   21.9532E-03
C:/temp/dataset/2/29_9.odb,Step-1,Increment      1: Step Time =    1.000,"PART-1-1",           435,           -5.,         -6.25,            0.,NA,NA,"",       3.46070,       3.11704,      -1.50351,   34.1265E-03
C:/temp/dataset/2/29_9.odb,Step-1,Increment      1: Step Time =    1.000,"PART-1-1",           436,      -7.88282,      -7.02961,            0.,NA,NA,"",       3.05931,       2.98066,  -689.255E-03,   23.2399E-03
C:/temp/dataset/2/29_9.odb,Step-1,Increment      1: Step Time =    1.000,"PART-1-1",           437,      -13.8577,      -6.65334,            0.,NA,NA,"",       3.38981,       3.29575,   792.998E-03,   27.9948E-03
C:/temp/dataset/2/29_9.odb,Step-1,Increment      1: Step Time =    1.000,"PART-1-1",           438,      -12.5267,      -5.32641,            0.,NA,NA,"",       3.64166,       3.61794,   415.000E-03,   22.4861E-03
C:/temp/dataset/2/29_9.odb,Step-1,Increment      1: Step Time =    1.000,"PART-1-1",           439,          -15.,      -5.20833,            0.,NA,NA,"",       3.91996,       3.76829,       1.07985,   29.0133E-03
C:/temp/dataset/2/29_9.odb,Step-1,Increment      1: Step Time =    1.000,"PART-1-1",           440,          1.25,           -5.,            0.,NA,NA,"",       4.66874,       3.19796,      -3.40149,   697.118E-06
C:/temp/dataset/2/29_9.odb,Step-1,Increment      1: Step Time =    1.000,"PART-1-1",           441,       2.47079,      -3.83474,            0.,NA,NA,"",       5.15040,       3.47955,      -3.79727,   217.290E-06
C:/temp/dataset/2/29_9.odb,Step-1,Increment      1: Step Time =    1.000,"PART-1-1",           442,       3.51261,  -149.180E-03,            0.,NA,NA,"",       6.17664,       4.48590,      -4.24589,   244.699E-06
C:/temp/dataset/2/29_9.odb,Step-1,Increment      1: Step Time =    1.000,"PART-1-1",           443,       3.69085,      -2.58237,            0.,NA,NA,"",       5.65160,       3.78580,      -4.19622,   214.606E-06
C:/temp/dataset/2/29_9.odb,Step-1,Increment      1: Step Time =    1.000,"PART-1-1",           444,       8.74868,       5.55605,            0.,NA,NA,"",       8.38942,       5.89262,      -5.97155,   3.91744E-06
C:/temp/dataset/2/29_9.odb,Step-1,Increment      1: Step Time =    1.000,"PART-1-1",           445,       10.0030,       7.12352,            0.,NA,NA,"",       8.96652,       6.28681,      -6.39332,   2.26851E-06
C:/temp/dataset/2/29_9.odb,Step-1,Increment      1: Step Time =    1.000,"PART-1-1",           446,       8.73640,       8.21697,            0.,NA,NA,"",       9.00945,       6.65035,      -6.07807,   2.62833E-06
C:/temp/dataset/2/29_9.odb,Step-1,Increment      1: Step Time =    1.000,"PART-1-1",           447,           15.,     -625.E-03,            0.,NA,NA,"",       8.43751,       3.87528,      -7.49492,   3.86438E-06
C:/temp/dataset/2/29_9.odb,Step-1,Increment      1: Step Time =    1.000,"PART-1-1",           448,       13.7714,   731.820E-03,            0.,NA,NA,"",       8.39374,       4.31216,      -7.20141,   2.25929E-06
C:/temp/dataset/2/29_9.odb,Step-1,Increment      1: Step Time =    1.000,"PART-1-1",           449,       12.5339,  -774.506E-03,            0.,NA,NA,"",       7.84507,       3.93468,      -6.78700,   2.02606E-06
C:/temp/dataset/2/29_9.odb,Step-1,Increment      1: Step Time =    1.000,"PART-1-1",           450,       7.40609,       11.8257,            0.,NA,NA,"",       9.69516,       7.73232,      -5.84870,   924.756E-09
C:/temp/dataset/2/29_9.odb,Step-1,Increment      1: Step Time =    1.000,"PART-1-1",           451,       8.70206,       10.8725,            0.,NA,NA,"",       9.64569,       7.40747,      -6.17809,   1.18311E-06
C:/temp/dataset/2/29_9.odb,Step-1,Increment      1: Step Time =    1.000,"PART-1-1",           452,       11.2454,       8.75341,            0.,NA,NA,"",       9.55584,       6.69927,      -6.81423,   1.90386E-06
C:/temp/dataset/2/29_9.odb,Step-1,Increment      1: Step Time =    1.000,"PART-1-1",           453,       11.2622,       5.99112,            0.,NA,NA,"",       8.93936,       5.91251,      -6.70481,   1.68784E-06
C:/temp/dataset/2/29_9.odb,Step-1,Increment      1: Step Time =    1.000,"PART-1-1",           454,       13.8596,       24.3693,            0.,NA,NA,"",       13.7504,       11.0350,      -8.20381,   11.8913E-09
C:/temp/dataset/2/29_9.odb,Step-1,Increment      1: Step Time =    1.000,"PART-1-1",           455,       12.6110,       23.1199,            0.,NA,NA,"",       13.2645,       10.7311,      -7.79684,   15.0077E-09
C:/temp/dataset/2/29_9.odb,Step-1,Increment      1: Step Time =    1.000,"PART-1-1",           456,       13.7514,       21.4590,            0.,NA,NA,"",       13.0045,       10.2113,      -8.05271,   21.4097E-09
C:/temp/dataset/2/29_9.odb,Step-1,Increment      1: Step Time =    1.000,"PART-1-1",           457,           15.,       22.7083,            0.,NA,NA,"",       13.4958,       10.5152,      -8.45967,   22.4338E-09
C:/temp/dataset/2/29_9.odb,Step-1,Increment      1: Step Time =    1.000,"PART-1-1",           458,       8.83903,       17.2613,            0.,NA,NA,"",       11.2700,       9.21987,      -6.48121,   38.5429E-09
C:/temp/dataset/2/29_9.odb,Step-1,Increment      1: Step Time =    1.000,"PART-1-1",           459,       10.5130,       17.3338,            0.,NA,NA,"",       11.5136,       9.17129,      -6.96057,   36.7165E-09
C:/temp/dataset/2/29_9.odb,Step-1,Increment      1: Step Time =    1.000,"PART-1-1",           460,       8.72284,       19.1442,            0.,NA,NA,"",       11.7412,       9.76050,      -6.52600,   16.3619E-09
C:/temp/dataset/2/29_9.odb,Step-1,Increment      1: Step Time =    1.000,"PART-1-1",           461,           15.,       28.5417,            0.,NA,NA,"",       14.9647,       12.1752,      -8.70085,   2.22338E-09
C:/temp/dataset/2/29_9.odb,Step-1,Increment      1: Step Time =    1.000,"PART-1-1",           462,         13.75,           30.,            0.,NA,NA,"",       15.1812,       12.6419,      -8.40543,   838.697E-12
C:/temp/dataset/2/29_9.odb,Step-1,Increment      1: Step Time =    1.000,"PART-1-1",           463,       12.5875,       28.6551,            0.,NA,NA,"",       14.6892,       12.3073,      -8.01901,   4.53555E-09
C:/temp/dataset/2/29_9.odb,Step-1,Increment      1: Step Time =    1.000,"PART-1-1",           464,       13.8375,       27.1968,            0.,NA,NA,"",       14.4682,       11.8406,      -8.31443,   4.28368E-09
C:/temp/dataset/2/29_9.odb,Step-1,Increment      1: Step Time =    1.000,"PART-1-1",           465,         11.25,           30.,            0.,NA,NA,"",       14.8876,       12.7453,      -7.69400,   3.55497E-09
C:/temp/dataset/2/29_9.odb,Step-1,Increment      1: Step Time =    1.000,"PART-1-1",           466,       10.1484,       28.7335,            0.,NA,NA,"",       14.4297,       12.4304,      -7.32814,   7.83296E-09
C:/temp/dataset/2/29_9.odb,Step-1,Increment      1: Step Time =    1.000,"PART-1-1",           467,       7.69941,       28.7139,            0.,NA,NA,"",       14.1727,       12.5261,      -6.63042,   10.6762E-09
C:/temp/dataset/2/29_9.odb,Step-1,Increment      1: Step Time =    1.000,"PART-1-1",           468,       9.09777,       27.4473,            0.,NA,NA,"",       13.9737,       12.1079,      -6.97599,   10.3834E-09
C:/temp/dataset/2/29_9.odb,Step-1,Increment      1: Step Time =    1.000,"PART-1-1",           469,          8.75,           30.,            0.,NA,NA,"",       14.6234,       12.8486,      -6.98257,   9.60881E-09
C:/temp/dataset/2/29_9.odb,Step-1,Increment      1: Step Time =    1.000,"PART-1-1",           470,  -9.87333E-03,       28.6960,            0.,NA,NA,"",       13.5844,       12.8397,      -4.43583,   10.5353E-09
C:/temp/dataset/2/29_9.odb,Step-1,Increment      1: Step Time =    1.000,"PART-1-1",           471,          1.25,           30.,            0.,NA,NA,"",       14.0235,       13.1587,      -4.84827,   15.3494E-09
C:/temp/dataset/2/29_9.odb,Step-1,Increment      1: Step Time =    1.000,"PART-1-1",           472,       4.87954,       25.6434,            0.,NA,NA,"",       13.0770,       11.7689,      -5.70101,   5.48533E-09
C:/temp/dataset/2/29_9.odb,Step-1,Increment      1: Step Time =    1.000,"PART-1-1",           473,      -5.00474,       28.7231,            0.,NA,NA,"",       13.3977,       13.0540,      -3.01555,   7.19817E-09
C:/temp/dataset/2/29_9.odb,Step-1,Increment      1: Step Time =    1.000,"PART-1-1",           474,         -6.25,           30.,            0.,NA,NA,"",       13.7395,       13.4688,      -2.71398,   8.64423E-09
C:/temp/dataset/2/29_9.odb,Step-1,Increment      1: Step Time =    1.000,"PART-1-1",           475,      -3.76303,       27.4393,            0.,NA,NA,"",       13.0651,       12.6373,      -3.31582,   5.47564E-09
C:/temp/dataset/2/29_9.odb,Step-1,Increment      1: Step Time =    1.000,"PART-1-1",           476,      -3.77322,       24.9147,            0.,NA,NA,"",       12.3436,       11.9193,      -3.20855,   2.80020E-09
C:/temp/dataset/2/29_9.odb,Step-1,Increment      1: Step Time =    1.000,"PART-1-1",           477,      -13.7476,       27.4926,            0.,NA,NA,"",       13.0740,       13.0653,  -476.693E-03,   2.41195E-09
C:/temp/dataset/2/29_9.odb,Step-1,Increment      1: Step Time =    1.000,"PART-1-1",           478,        -13.75,           30.,            0.,NA,NA,"",       13.7911,       13.7789,  -579.682E-03,   2.32766E-09
C:/temp/dataset/2/29_9.odb,Step-1,Increment      1: Step Time =    1.000,"PART-1-1",           479,          -15.,         28.75,            0.,NA,NA,"",       13.4760,       13.4749,  -172.284E-03,   2.18632E-09
C:/temp/dataset/2/29_9.odb,Step-1,Increment      1: Step Time =    1.000,"PART-1-1",           480,          -15.,         26.25,            0.,NA,NA,"",       12.7636,       12.7635,  -68.9200E-03,   2.01819E-09
C:/temp/dataset/2/29_9.odb,Step-1,Increment      1: Step Time =    1.000,"PART-1-1",           481,      -12.4965,       26.2309,            0.,NA,NA,"",       12.6785,       12.6545,  -780.560E-03,   2.92173E-09
C:/temp/dataset/2/29_9.odb,Step-1,Increment      1: Step Time =    1.000,"PART-1-1",           482,      -10.0014,       23.7134,            0.,NA,NA,"",       11.9159,       11.8349,      -1.38651,   2.84327E-09
C:/temp/dataset/2/29_9.odb,Step-1,Increment      1: Step Time =    1.000,"PART-1-1",           483,      -8.75535,       22.4567,            0.,NA,NA,"",       11.5500,       11.4258,      -1.68914,   3.66980E-09
C:/temp/dataset/2/29_9.odb,Step-1,Increment      1: Step Time =    1.000,"PART-1-1",           484,      -7.50515,       23.6891,            0.,NA,NA,"",       11.9107,       11.7248,      -2.09587,   3.12351E-09
C:/temp/dataset/2/29_9.odb,Step-1,Increment      1: Step Time =    1.000,"PART-1-1",           485,      -8.75118,       24.9458,            0.,NA,NA,"",       12.2658,       12.1340,      -1.79324,   3.05714E-09
C:/temp/dataset/2/29_9.odb,Step-1,Increment      1: Step Time =    1.000,"PART-1-1",           486,      -3.77419,       22.4219,            0.,NA,NA,"",       11.6321,       11.2099,      -3.10520,   5.87304E-09
C:/temp/dataset/2/29_9.odb,Step-1,Increment      1: Step Time =    1.000,"PART-1-1",           487,      -5.00723,       21.2173,            0.,NA,NA,"",       11.2481,       10.9181,      -2.70451,   7.39813E-09
C:/temp/dataset/2/29_9.odb,Step-1,Increment      1: Step Time =    1.000,"PART-1-1",           488,         -3.75,           20.,            0.,NA,NA,"",       10.9424,       10.5197,      -3.01195,   10.8740E-09
C:/temp/dataset/2/29_9.odb,Step-1,Increment      1: Step Time =    1.000,"PART-1-1",           489,      -2.51696,       21.2046,            0.,NA,NA,"",       11.3374,       10.8115,      -3.41264,   9.04671E-09
C:/temp/dataset/2/29_9.odb,Step-1,Increment      1: Step Time =    1.000,"PART-1-1",           490,         -8.75,           20.,            0.,NA,NA,"",       10.8435,       10.7265,      -1.58909,   6.46395E-09
C:/temp/dataset/2/29_9.odb,Step-1,Increment      1: Step Time =    1.000,"PART-1-1",           491,      -7.50331,       21.2223,            0.,NA,NA,"",       11.2017,       11.0228,      -1.99440,   5.67458E-09
C:/temp/dataset/2/29_9.odb,Step-1,Increment      1: Step Time =    1.000,"PART-1-1",           492,         -6.25,           20.,            0.,NA,NA,"",       10.8693,       10.6231,      -2.30052,   8.71359E-09
C:/temp/dataset/2/29_9.odb,Step-1,Increment      1: Step Time =    1.000,"PART-1-1",           493,      -6.26054,       22.4396,            0.,NA,NA,"",       11.5691,       11.3178,      -2.39839,   4.76820E-09
C:/temp/dataset/2/29_9.odb,Step-1,Increment      1: Step Time =    1.000,"PART-1-1",           494,         -1.25,           20.,            0.,NA,NA,"",       11.0618,       10.4164,      -3.72338,   12.7035E-09
C:/temp/dataset/2/29_9.odb,Step-1,Increment      1: Step Time =    1.000,"PART-1-1",           495,      -1.30453,       22.3853,            0.,NA,NA,"",       11.7321,       11.0974,      -3.80649,   7.08222E-09
C:/temp/dataset/2/29_9.odb,Step-1,Increment      1: Step Time =    1.000,"PART-1-1",           496,         -1.25,           30.,            0.,NA,NA,"",       13.8923,       13.2621,      -4.13684,   13.3785E-09
C:/temp/dataset/2/29_9.odb,Step-1,Increment      1: Step Time =    1.000,"PART-1-1",           497,      -2.50829,       28.7162,            0.,NA,NA,"",       13.4741,       12.9488,      -3.72568,   8.92628E-09
C:/temp/dataset/2/29_9.odb,Step-1,Increment      1: Step Time =    1.000,"PART-1-1",           498,         -3.75,           30.,            0.,NA,NA,"",       13.7974,       13.3655,      -3.42541,   11.0338E-09
C:/temp/dataset/2/29_9.odb,Step-1,Increment      1: Step Time =    1.000,"PART-1-1",           499,          3.75,           20.,            0.,NA,NA,"",       11.4333,       10.2096,      -5.14625,   22.6005E-09
C:/temp/dataset/2/29_9.odb,Step-1,Increment      1: Step Time =    1.000,"PART-1-1",           500,       4.75388,       21.0765,            0.,NA,NA,"",       11.8197,       10.4745,      -5.47643,   14.9954E-09
C:/temp/dataset/2/29_9.odb,Step-1,Increment      1: Step Time =    1.000,"PART-1-1",           501,          6.25,           30.,            0.,NA,NA,"",       14.3903,       12.9520,      -6.27113,   14.2355E-09
C:/temp/dataset/2/29_9.odb,Step-1,Increment      1: Step Time =    1.000,"PART-1-1",           502,       6.61296,       27.1492,            0.,NA,NA,"",       13.6447,       12.1258,      -6.25656,   9.08397E-09
C:/temp/dataset/2/29_9.odb,Step-1,Increment      1: Step Time =    1.000,"PART-1-1",           503,            5.,         16.25,            0.,NA,NA,"",       10.5467,       9.09082,      -5.34692,   38.8546E-09
C:/temp/dataset/2/29_9.odb,Step-1,Increment      1: Step Time =    1.000,"PART-1-1",           504,       6.03202,       15.2452,            0.,NA,NA,"",       10.3984,       8.76222,      -5.59906,   63.3670E-09
C:/temp/dataset/2/29_9.odb,Step-1,Increment      1: Step Time =    1.000,"PART-1-1",           505,       6.91243,       16.6330,            0.,NA,NA,"",       10.8665,       9.12073,      -5.90698,   48.0428E-09
C:/temp/dataset/2/29_9.odb,Step-1,Increment      1: Step Time =    1.000,"PART-1-1",           506,            5.,         13.75,            0.,NA,NA,"",       9.88479,       8.37939,      -5.24355,   114.562E-09
C:/temp/dataset/2/29_9.odb,Step-1,Increment      1: Step Time =    1.000,"PART-1-1",           507,       6.17466,       12.7979,            0.,NA,NA,"",       9.77939,       8.05989,      -5.53847,   360.991E-09
C:/temp/dataset/2/29_9.odb,Step-1,Increment      1: Step Time =    1.000,"PART-1-1",           508,       12.0086,       16.5092,            0.,NA,NA,"",       11.5246,       8.87481,      -7.35208,   80.5827E-09
C:/temp/dataset/2/29_9.odb,Step-1,Increment      1: Step Time =    1.000,"PART-1-1",           509,           15.,        16.875,            0.,NA,NA,"",       12.0813,       8.85522,      -8.21849,   33.3455E-09
C:/temp/dataset/2/29_9.odb,Step-1,Increment      1: Step Time =    1.000,"PART-1-1",           510,       13.3591,       18.2744,            0.,NA,NA,"",       12.1603,       9.32130,      -7.80939,   26.9295E-09
C:/temp/dataset/2/29_9.odb,Step-1,Increment      1: Step Time =    1.000,"PART-1-1",           511,            5.,         11.25,            0.,NA,NA,"",       9.23142,       7.66796,      -5.14019,   1.21491E-06
C:/temp/dataset/2/29_9.odb,Step-1,Increment      1: Step Time =    1.000,"PART-1-1",           512,       6.23142,       10.2778,            0.,NA,NA,"",       9.14267,       7.34038,      -5.45042,   1.11137E-06
C:/temp/dataset/2/29_9.odb,Step-1,Increment      1: Step Time =    1.000,"PART-1-1",           513,            5.,          8.75,            0.,NA,NA,"",       8.58853,       6.95653,      -5.03682,   2.51048E-06
C:/temp/dataset/2/29_9.odb,Step-1,Increment      1: Step Time =    1.000,"PART-1-1",           514,       7.47251,       9.25684,            0.,NA,NA,"",       9.06494,       6.99853,      -5.76139,   2.90978E-06
C:/temp/dataset/2/29_9.odb,Step-1,Increment      1: Step Time =    1.000,"PART-1-1",           515,         11.25,           -5.,            0.,NA,NA,"",       6.83982,       2.78538,      -6.24698,   2.65598E-06
C:/temp/dataset/2/29_9.odb,Step-1,Increment      1: Step Time =    1.000,"PART-1-1",           516,       11.2689,      -2.22707,            0.,NA,NA,"",       7.30132,       3.57365,      -6.36698,   2.28218E-06
C:/temp/dataset/2/29_9.odb,Step-1,Increment      1: Step Time =    1.000,"PART-1-1",           517,          10.5,          -30.,            0.,NA,NA,"",            0.,   7.45168E-39,  -4.47654E-39,   6.69532E-03
C:/temp/dataset/2/29_9.odb,Step-1,Increment      1: Step Time =    1.000,"PART-1-1",           518,           15.,        -23.75,            0.,NA,NA,"",   56.8151E-03,   53.2969E-03,  -19.6824E-03,   123.662E-06
C:/temp/dataset/2/29_9.odb,Step-1,Increment      1: Step Time =    1.000,"PART-1-1",           519,          3.75,           -5.,            0.,NA,NA,"",       5.14753,       3.09520,      -4.11301,   160.718E-06
C:/temp/dataset/2/29_9.odb,Step-1,Increment      1: Step Time =    1.000,"PART-1-1",           520,       4.97006,      -3.74763,            0.,NA,NA,"",       5.65033,       3.40126,      -4.51194,   74.6664E-06
C:/temp/dataset/2/29_9.odb,Step-1,Increment      1: Step Time =    1.000,"PART-1-1",           521,       4.85412,       3.76356,            0.,NA,NA,"",       7.32570,       5.54353,      -4.78906,   69.9130E-06
C:/temp/dataset/2/29_9.odb,Step-1,Increment      1: Step Time =    1.000,"PART-1-1",           522,       3.33333,            5.,            0.,NA,NA,"",       7.41105,       5.95812,      -4.40732,   202.112E-06
C:/temp/dataset/2/29_9.odb,Step-1,Increment      1: Step Time =    1.000,"PART-1-1",           523,       1.45296,       3.58740,            0.,NA,NA,"",       6.80323,       5.63384,      -3.81363,   269.454E-06
C:/temp/dataset/2/29_9.odb,Step-1,Increment      1: Step Time =    1.000,"PART-1-1",           524,       2.97375,       2.35096,            0.,NA,NA,"",       6.69665,       5.21949,      -4.19549,   242.616E-06
C:/temp/dataset/2/29_9.odb,Step-1,Increment      1: Step Time =    1.000,"PART-1-1",           525,          6.25,           -5.,            0.,NA,NA,"",       5.67682,       2.99206,      -4.82430,   47.2839E-06
C:/temp/dataset/2/29_9.odb,Step-1,Increment      1: Step Time =    1.000,"PART-1-1",           526,       12.4696,       10.4445,            0.,NA,NA,"",       10.1560,       7.12990,      -7.23252,   1.17157E-06
C:/temp/dataset/2/29_9.odb,Step-1,Increment      1: Step Time =    1.000,"PART-1-1",           527,           15.,       11.0417,            0.,NA,NA,"",       10.7428,       7.19521,      -7.97730,   794.699E-09
C:/temp/dataset/2/29_9.odb,Step-1,Increment      1: Step Time =    1.000,"PART-1-1",           528,      -5.01382,       23.6808,            0.,NA,NA,"",       11.9531,       11.6194,      -2.80449,   3.51540E-09
C:/temp/dataset/2/29_9.odb,Step-1,Increment      1: Step Time =    1.000,"PART-1-1",           529,      -2.53358,       23.6558,            0.,NA,NA,"",       12.0329,       11.5098,      -3.50926,   3.97238E-09
C:/temp/dataset/2/29_9.odb,Step-1,Increment      1: Step Time =    1.000,"PART-1-1",           530,  -74.6816E-03,       23.6075,            0.,NA,NA,"",       12.1462,       11.3944,      -4.20700,   4.61403E-09
C:/temp/dataset/2/29_9.odb,Step-1,Increment      1: Step Time =    1.000,"PART-1-1",           531,      -6.62798,      -1.45964,            0.,NA,NA,"",       4.70973,       4.52348,      -1.31136,   10.4158E-03
C:/temp/dataset/2/29_9.odb,Step-1,Increment      1: Step Time =    1.000,"PART-1-1",           532,      -4.43070,      -2.38075,            0.,NA,NA,"",       4.58612,       4.18010,      -1.88661,   5.36496E-03
C:/temp/dataset/2/29_9.odb,Step-1,Increment      1: Step Time =    1.000,"PART-1-1",           533,      -3.64554,  -813.143E-03,            0.,NA,NA,"",       5.08594,       4.59441,      -2.18133,   2.11534E-03
C:/temp/dataset/2/29_9.odb,Step-1,Increment      1: Step Time =    1.000,"PART-1-1",           534,         -3.75,           -5.,            0.,NA,NA,"",       3.93004,       3.40151,      -1.96849,   6.05556E-03
C:/temp/dataset/2/29_9.odb,Step-1,Increment      1: Step Time =    1.000,"PART-1-1",           535,      -13.8599,      -9.43096,            0.,NA,NA,"",       2.66217,       2.53421,   815.418E-03,   38.7151E-03
C:/temp/dataset/2/29_9.odb,Step-1,Increment      1: Step Time =    1.000,"PART-1-1",           536,          -15.,      -11.0417,            0.,NA,NA,"",       2.42379,       2.17564,       1.06833,   56.8080E-03
C:/temp/dataset/2/29_9.odb,Step-1,Increment      1: Step Time =    1.000,"PART-1-1",           537,      -11.9984,      -19.8095,            0.,NA,NA,"",   486.907E-03,   382.182E-03,   301.689E-03,   40.7742E-03
C:/temp/dataset/2/29_9.odb,Step-1,Increment      1: Step Time =    1.000,"PART-1-1",           538,      -13.3881,      -18.2324,            0.,NA,NA,"",   822.117E-03,   632.569E-03,   525.103E-03,   62.1419E-03
C:/temp/dataset/2/29_9.odb,Step-1,Increment      1: Step Time =    1.000,"PART-1-1",           539,          -15.,      -19.7917,            0.,NA,NA,"",   794.934E-03,   491.309E-03,   624.929E-03,   86.8005E-03
C:/temp/dataset/2/29_9.odb,Step-1,Increment      1: Step Time =    1.000,"PART-1-1",           540,           -5.,        -18.75,            0.,NA,NA,"",   659.252E-03,   441.445E-03,  -489.632E-03,   119.813E-03
C:/temp/dataset/2/29_9.odb,Step-1,Increment      1: Step Time =    1.000,"PART-1-1",           541,      -5.96138,      -20.0094,            0.,NA,NA,"",   352.958E-03,   213.996E-03,  -280.687E-03,   83.8000E-03
C:/temp/dataset/2/29_9.odb,Step-1,Increment      1: Step Time =    1.000,"PART-1-1",           542,           -5.,        -13.75,            0.,NA,NA,"",       1.63254,       1.33244,  -943.290E-03,   65.3552E-03
C:/temp/dataset/2/29_9.odb,Step-1,Increment      1: Step Time =    1.000,"PART-1-1",           543,      -7.28958,      -14.3036,            0.,NA,NA,"",       1.29047,       1.21457,  -436.035E-03,   41.4275E-03
C:/temp/dataset/2/29_9.odb,Step-1,Increment      1: Step Time =    1.000,"PART-1-1",           544,      -8.88285,      -11.0213,            0.,NA,NA,"",       1.98663,       1.96868,  -266.450E-03,   22.3596E-03
C:/temp/dataset/2/29_9.odb,Step-1,Increment      1: Step Time =    1.000,"PART-1-1",           545,      -9.01222,      -8.51542,            0.,NA,NA,"",       2.63210,       2.60978,  -342.053E-03,   21.0479E-03
C:/temp/dataset/2/29_9.odb,Step-1,Increment      1: Step Time =    1.000,"PART-1-1",           546,      -9.13424,  -715.290E-03,            0.,NA,NA,"",       4.87635,       4.83152,  -659.730E-03,   12.5093E-03
C:/temp/dataset/2/29_9.odb,Step-1,Increment      1: Step Time =    1.000,"PART-1-1",           547,      -9.92186,      -2.42350,            0.,NA,NA,"",       4.37961,       4.36357,  -374.394E-03,   17.5498E-03
C:/temp/dataset/2/29_9.odb,Step-1,Increment      1: Step Time =    1.000,"PART-1-1",           548,      -12.7176,      -7.95930,            0.,NA,NA,"",       2.92851,       2.88095,   525.651E-03,   26.9548E-03
C:/temp/dataset/2/29_9.odb,Step-1,Increment      1: Step Time =    1.000,"PART-1-1",           549,          -15.,        -8.125,            0.,NA,NA,"",       3.14182,       2.94285,       1.10029,   42.6068E-03
C:/temp/dataset/2/29_9.odb,Step-1,Increment      1: Step Time =    1.000,"PART-1-1",           550,       11.2818,   528.104E-03,            0.,NA,NA,"",       7.81240,       4.35712,      -6.48453,   5.10317E-06
C:/temp/dataset/2/29_9.odb,Step-1,Increment      1: Step Time =    1.000,"PART-1-1",           551,       10.0167,  -924.457E-03,            0.,NA,NA,"",       7.26271,       3.99608,      -6.06452,   6.93003E-06
C:/temp/dataset/2/29_9.odb,Step-1,Increment      1: Step Time =    1.000,"PART-1-1",           552,       10.4320,       23.7699,            0.,NA,NA,"",       13.1540,       11.0062,      -7.20363,   12.6068E-09
C:/temp/dataset/2/29_9.odb,Step-1,Increment      1: Step Time =    1.000,"PART-1-1",           553,           15.,        25.625,            0.,NA,NA,"",       14.2245,       11.3452,      -8.58026,   9.14016E-09
C:/temp/dataset/2/29_9.odb,Step-1,Increment      1: Step Time =    1.000,"PART-1-1",           554,      -9.99539,       26.2124,            0.,NA,NA,"",       12.6342,       12.5458,      -1.49154,   2.75958E-09
C:/temp/dataset/2/29_9.odb,Step-1,Increment      1: Step Time =    1.000,"PART-1-1",           555,          -15.,       -25.625,            0.,NA,NA,"",   240.817E-03,   90.6798E-03,   223.092E-03,   67.0909E-03
C:/temp/dataset/2/29_9.odb,Step-1,Increment      1: Step Time =    1.000,"PART-1-1",           556,      -12.2044,      -25.8339,            0.,NA,NA,"",   118.260E-03,   20.4349E-03,   116.481E-03,   37.9292E-03
C:/temp/dataset/2/29_9.odb,Step-1,Increment      1: Step Time =    1.000,"PART-1-1",           557,          -15.,       -16.875,            0.,NA,NA,"",       1.23308,   917.138E-03,   824.224E-03,   83.0035E-03
C:/temp/dataset/2/29_9.odb,Step-1,Increment      1: Step Time =    1.000,"PART-1-1",           558,      -8.25880,      -15.9015,            0.,NA,NA,"",   923.043E-03,   903.258E-03,  -190.088E-03,   32.2053E-03
C:/temp/dataset/2/29_9.odb,Step-1,Increment      1: Step Time =    1.000,"PART-1-1",           559,       7.56555,       17.9230,            0.,NA,NA,"",       11.2820,       9.46083,      -6.14617,   20.4699E-09
C:/temp/dataset/2/29_9.odb,Step-1,Increment      1: Step Time =    1.000,"PART-1-1",           560,      -9.72707,       2.21069,            0.,NA,NA,"",       5.73366,       5.70024,  -618.152E-03,   7.68073E-03
C:/temp/dataset/2/29_9.odb,Step-1,Increment      1: Step Time =    1.000,"PART-1-1",           561,      -8.18006,       3.69884,            0.,NA,NA,"",       6.15793,       6.05821,      -1.10375,   4.12991E-03
C:/temp/dataset/2/29_9.odb,Step-1,Increment      1: Step Time =    1.000,"PART-1-1",           562,          -10.,            5.,            0.,NA,NA,"",       6.53437,       6.50196,  -650.054E-03,   5.62531E-03
C:/temp/dataset/2/29_9.odb,Step-1,Increment      1: Step Time =    1.000,"PART-1-1",           563,      -10.3433,      -7.69771,            0.,NA,NA,"",       2.86841,       2.86787,  -55.7533E-03,   21.9968E-03
C:/temp/dataset/2/29_9.odb,Step-1,Increment      1: Step Time =    1.000,"PART-1-1",           564,      -11.5611,      -6.59494,            0.,NA,NA,"",       3.22276,       3.21614,   206.600E-03,   21.8434E-03
C:/temp/dataset/2/29_9.odb,Step-1,Increment      1: Step Time =    1.000,"PART-1-1",           565,      -9.40089,      -20.7816,            0.,NA,NA,"",   223.515E-03,   222.062E-03,   25.4424E-03,   16.9480E-03
C:/temp/dataset/2/29_9.odb,Step-1,Increment      1: Step Time =    1.000,"PART-1-1",           566,      -8.21757,      -22.2064,            0.,NA,NA,"",   129.783E-03,   109.619E-03,  -69.4779E-03,   21.7733E-03
C:/temp/dataset/2/29_9.odb,Step-1,Increment      1: Step Time =    1.000,"PART-1-1",           567,      -6.89894,      -21.2078,            0.,NA,NA,"",   237.201E-03,   153.760E-03,  -180.616E-03,   36.6098E-03
C:/temp/dataset/2/29_9.odb,Step-1,Increment      1: Step Time =    1.000,"PART-1-1",           568,      -9.14285,      -28.6800,            0.,NA,NA,"",   19.6307E-03,  -19.4538E-03,   2.62927E-03,   11.6182E-03
C:/temp/dataset/2/29_9.odb,Step-1,Increment      1: Step Time =    1.000,"PART-1-1",           569,      -10.7232,      -27.3047,            0.,NA,NA,"",   39.6603E-03,  -16.3587E-03,   36.1294E-03,   19.5324E-03
C:/temp/dataset/2/29_9.odb,Step-1,Increment      1: Step Time =    1.000,"PART-1-1",           570,         -10.5,          -30.,            0.,NA,NA,"",            0.,  -18.7577E-39,   30.7718E-39,   18.5692E-03
C:/temp/dataset/2/29_9.odb,Step-1,Increment      1: Step Time =    1.000,"PART-1-1",           571,      -4.89633,      -27.4366,            0.,NA,NA,"",   45.5003E-03,   17.9010E-03,  -41.8310E-03,   23.5051E-03
C:/temp/dataset/2/29_9.odb,Step-1,Increment      1: Step Time =    1.000,"PART-1-1",           572,      -6.18287,      -28.7136,            0.,NA,NA,"",   15.2931E-03,  -3.59607E-03,  -14.8642E-03,   17.0838E-03
C:/temp/dataset/2/29_9.odb,Step-1,Increment      1: Step Time =    1.000,"PART-1-1",           573,          -4.5,          -30.,            0.,NA,NA,"",            0.,   4.03924E-39,  -32.4235E-39,   14.5435E-03
C:/temp/dataset/2/29_9.odb,Step-1,Increment      1: Step Time =    1.000,"PART-1-1",           574,       12.5384,       2.02620,            0.,NA,NA,"",       8.36975,       4.73146,      -6.90405,   824.242E-09
C:/temp/dataset/2/29_9.odb,Step-1,Increment      1: Step Time =    1.000,"PART-1-1",           575,           15.,       2.29167,            0.,NA,NA,"",       8.95183,       4.70524,      -7.61551,   5.21817E-06
C:/temp/dataset/2/29_9.odb,Step-1,Increment      1: Step Time =    1.000,"PART-1-1",           576,       9.96595,       9.83263,            0.,NA,NA,"",       9.59247,       7.05929,      -6.49476,   1.75563E-06
C:/temp/dataset/2/29_9.odb,Step-1,Increment      1: Step Time =    1.000,"PART-1-1",           577,           15.,       19.7917,            0.,NA,NA,"",       12.7806,       9.68523,      -8.33908,   37.4370E-09
C:/temp/dataset/2/29_9.odb,Step-1,Increment      1: Step Time =    1.000,"PART-1-1",           578,       7.90800,       20.1372,            0.,NA,NA,"",       11.9028,       10.0768,      -6.33517,   8.51596E-09
C:/temp/dataset/2/29_9.odb,Step-1,Increment      1: Step Time =    1.000,"PART-1-1",           579,       8.41916,       21.3934,            0.,NA,NA,"",       12.2926,       10.4131,      -6.53257,   8.52105E-09
C:/temp/dataset/2/29_9.odb,Step-1,Increment      1: Step Time =    1.000,"PART-1-1",           580,       6.50486,       21.1025,            0.,NA,NA,"",       12.0028,       10.4095,      -5.97579,   9.64582E-09
C:/temp/dataset/2/29_9.odb,Step-1,Increment      1: Step Time =    1.000,"PART-1-1",           581,           4.5,          -30.,            0.,NA,NA,"",            0.,   13.4777E-39,  -9.45991E-39,   12.5202E-03
C:/temp/dataset/2/29_9.odb,Step-1,Increment      1: Step Time =    1.000,"PART-1-1",           582,       3.62857,      -22.4261,            0.,NA,NA,"",   80.2981E-03,   80.2213E-03,  -3.51155E-03,   6.68396E-03
C:/temp/dataset/2/29_9.odb,Step-1,Increment      1: Step Time =    1.000,"PART-1-1",           583,       2.16864,      -23.6665,            0.,NA,NA,"",   86.1936E-03,   84.9520E-03,  -14.5768E-03,   10.9441E-03
C:/temp/dataset/2/29_9.odb,Step-1,Increment      1: Step Time =    1.000,"PART-1-1",           584,      -2.73954,      -22.4743,            0.,NA,NA,"",   183.033E-03,   137.686E-03,  -120.597E-03,   35.4612E-03
C:/temp/dataset/2/29_9.odb,Step-1,Increment      1: Step Time =    1.000,"PART-1-1",           585,  -999.676E-03,      -23.6839,            0.,NA,NA,"",   120.591E-03,   105.496E-03,  -58.4193E-03,   24.5903E-03
C:/temp/dataset/2/29_9.odb,Step-1,Increment      1: Step Time =    1.000,"PART-1-1",           586,      -7.82572,      -27.3936,            0.,NA,NA,"",   23.3603E-03,  -13.1067E-03,  -19.3370E-03,   12.5110E-03
C:/temp/dataset/2/29_9.odb,Step-1,Increment      1: Step Time =    1.000,"PART-1-1",           587,      -6.52069,      -26.1528,            0.,NA,NA,"",   60.4792E-03,   14.3374E-03,  -58.7552E-03,   25.9404E-03
C:/temp/dataset/2/29_9.odb,Step-1,Increment      1: Step Time =    1.000,"PART-1-1",           588,      -8.08310,      -24.7829,            0.,NA,NA,"",   49.0007E-03,   22.7459E-03,  -43.4016E-03,   16.3213E-03
C:/temp/dataset/2/29_9.odb,Step-1,Increment      1: Step Time =    1.000,"PART-1-1",           589,      -9.38814,      -26.0237,            0.,NA,NA,"",   11.5767E-03,  -6.01103E-03,   9.89379E-03,   12.1993E-03
C:/temp/dataset/2/29_9.odb,Step-1,Increment      1: Step Time =    1.000,"PART-1-1",           590,          -7.5,          -30.,            0.,NA,NA,"",            0.,  -11.6561E-39,  -12.6755E-39,   10.7248E-03
C:/temp/dataset/2/29_9.odb,Step-1,Increment      1: Step Time =    1.000,"PART-1-1",           591,       7.73182,       24.8866,            0.,NA,NA,"",       13.1446,       11.4356,      -6.48140,   9.60468E-09
C:/temp/dataset/2/29_9.odb,Step-1,Increment      1: Step Time =    1.000,"PART-1-1",           592,       8.21760,       26.2797,            0.,NA,NA,"",       13.5686,       11.8120,      -6.67724,   10.6604E-09
C:/temp/dataset/2/29_9.odb,Step-1,Increment      1: Step Time =    1.000,"PART-1-1",           593,       6.12718,       25.7561,            0.,NA,NA,"",       13.2205,       11.7494,      -6.06072,   7.87161E-09
C:/temp/dataset/2/29_9.odb,Step-1,Increment      1: Step Time =    1.000,"PART-1-1",           594,       5.38844,       22.1508,            0.,NA,NA,"",       12.1718,       10.7540,      -5.70143,   7.15694E-09
C:/temp/dataset/2/29_9.odb,Step-1,Increment      1: Step Time =    1.000,"PART-1-1",           595,      -3.37677,   775.412E-03,            0.,NA,NA,"",       5.54575,       5.03462,      -2.32550,   1.63381E-03
C:/temp/dataset/2/29_9.odb,Step-1,Increment      1: Step Time =    1.000,"PART-1-1",           596,      -3.41233,       2.84116,            0.,NA,NA,"",       6.11310,       5.62163,      -2.40151,   706.831E-06
C:/temp/dataset/2/29_9.odb,Step-1,Increment      1: Step Time =    1.000,"PART-1-1",           597,      -11.2482,       24.9673,            0.,NA,NA,"",       12.2912,       12.2433,      -1.08354,   3.30286E-09
C:/temp/dataset/2/29_9.odb,Step-1,Increment      1: Step Time =    1.000,"PART-1-1",           598,       5.16292,       24.1270,            0.,NA,NA,"",       12.6877,       11.3257,      -5.71896,   5.14927E-09
C:/temp/dataset/2/29_9.odb,Step-1,Increment      1: Step Time =    1.000,"PART-1-1",           599,            0.,            5.,            0.,NA,NA,"",       7.00775,       6.09476,      -3.45869,   670.290E-06
C:/temp/dataset/2/29_9.odb,Step-1,Increment      1: Step Time =    1.000,"PART-1-1",           600,      -1.80204,       3.95011,            0.,NA,NA,"",       6.54880,       5.87013,      -2.90317,   604.057E-06
C:/temp/dataset/2/29_9.odb,Step-1,Increment      1: Step Time =    1.000,"PART-1-1",           601,       9.59799,       22.9228,            0.,NA,NA,"",       12.8325,       10.7996,      -6.93127,   11.0612E-09
C:/temp/dataset/2/29_9.odb,Step-1,Increment      1: Step Time =    1.000,"PART-1-1",           602,       8.30932,       22.9391,            0.,NA,NA,"",       12.6881,       10.8575,      -6.56522,   8.87353E-09
C:/temp/dataset/2/29_9.odb,Step-1,Increment      1: Step Time =    1.000,"PART-1-1",           603,      -1.93269,      -1.01257,            0.,NA,NA,"",       5.19921,       4.46663,      -2.66101,   511.771E-06
C:/temp/dataset/2/29_9.odb,Step-1,Increment      1: Step Time =    1.000,"PART-1-1",           604,      -8.69440,      -13.5596,            0.,NA,NA,"",       1.39643,       1.38143,  -204.167E-03,   24.7996E-03
C:/temp/dataset/2/29_9.odb,Step-1,Increment      1: Step Time =    1.000,"PART-1-1",           605,       6.07991,       2.65614,            0.,NA,NA,"",       7.26220,       5.17777,      -5.09218,   67.8660E-06
C:/temp/dataset/2/29_9.odb,Step-1,Increment      1: Step Time =    1.000,"PART-1-1",           606,       4.75906,       1.28045,            0.,NA,NA,"",       6.71909,       4.84102,      -4.65947,   117.363E-06
C:/temp/dataset/2/29_9.odb,Step-1,Increment      1: Step Time =    1.000,"PART-1-1",           607,       10.0234,       4.43547,            0.,NA,NA,"",       8.36783,       5.52103,      -6.28799,   3.77369E-06
C:/temp/dataset/2/29_9.odb,Step-1,Increment      1: Step Time =    1.000,"PART-1-1",           608,       7.46673,       4.06304,            0.,NA,NA,"",       7.82470,       5.52076,      -5.54501,   12.4297E-06
C:/temp/dataset/2/29_9.odb,Step-1,Increment      1: Step Time =    1.000,"PART-1-1",           609,  -317.165E-03,  -486.862E-03,            0.,NA,NA,"",       5.52895,       4.54919,      -3.14233,   408.646E-06
C:/temp/dataset/2/29_9.odb,Step-1,Increment      1: Step Time =    1.000,"PART-1-1",           610,       1.72730,   921.331E-03,            0.,NA,NA,"",       6.16185,       4.86469,      -3.78196,   307.399E-06
C:/temp/dataset/2/29_9.odb,Step-1,Increment      1: Step Time =    1.000,"PART-1-1",           611,      -4.63664,      -21.2535,            0.,NA,NA,"",   296.245E-03,   175.672E-03,  -238.538E-03,   77.7313E-03
C:/temp/dataset/2/29_9.odb,Step-1,Increment      1: Step Time =    1.000,"PART-1-1",           612,       11.2827,       3.26092,            0.,NA,NA,"",       8.36039,       5.13473,      -6.59777,   2.93714E-06
C:/temp/dataset/2/29_9.odb,Step-1,Increment      1: Step Time =    1.000,"PART-1-1",           613,      -11.4502,      -4.36864,            0.,NA,NA,"",       3.85458,       3.85318,   103.810E-03,   21.1586E-03
C:/temp/dataset/2/29_9.odb,Step-1,Increment      1: Step Time =    1.000,"PART-1-1",           614,      -10.8693,      -24.5529,            0.,NA,NA,"",   94.7154E-03,   35.5628E-03,   87.7855E-03,   25.1689E-03
C:/temp/dataset/2/29_9.odb,Step-1,Increment      1: Step Time =    1.000,"PART-1-1",           615,      -9.52531,      -23.3517,            0.,NA,NA,"",   70.0831E-03,   66.5633E-03,   21.9311E-03,   17.3975E-03
C:/temp/dataset/2/29_9.odb,Step-1,Increment      1: Step Time =    1.000,"PART-1-1",           616,      -10.8903,      -21.7518,            0.,NA,NA,"",   226.640E-03,   174.992E-03,   144.026E-03,   30.3548E-03
C:/temp/dataset/2/29_9.odb,Step-1,Increment      1: Step Time =    1.000,"PART-1-1",           617,       3.33333,          -20.,            0.,NA,NA,"",   76.0551E-03,   76.0519E-03,  -696.361E-06,   2.29775E-03
C:/temp/dataset/2/29_9.odb,Step-1,Increment      1: Step Time =    1.000,"PART-1-1",           618,       1.83446,      -21.2108,            0.,NA,NA,"",   86.8718E-03,   85.9881E-03,  -12.3599E-03,   6.11482E-03
C:/temp/dataset/2/29_9.odb,Step-1,Increment      1: Step Time =    1.000,"PART-1-1",           619,       5.12744,      -21.2153,            0.,NA,NA,"",   74.6619E-03,   74.5851E-03,   3.38665E-03,   2.96758E-03
C:/temp/dataset/2/29_9.odb,Step-1,Increment      1: Step Time =    1.000,"PART-1-1",           620,            0.,          -20.,            0.,NA,NA,"",   86.8296E-03,   81.5648E-03,  -29.7752E-03,   7.80347E-03
C:/temp/dataset/2/29_9.odb,Step-1,Increment      1: Step Time =    1.000,"PART-1-1",           621,      -1.43624,      -21.2208,            0.,NA,NA,"",   138.297E-03,   117.862E-03,  -72.3508E-03,   18.4735E-03
C:/temp/dataset/2/29_9.odb,Step-1,Increment      1: Step Time =    1.000,"PART-1-1",           622,   398.228E-03,      -22.4316,            0.,NA,NA,"",   106.538E-03,   100.752E-03,  -34.6308E-03,   15.4192E-03
C:/temp/dataset/2/29_9.odb,Step-1,Increment      1: Step Time =    1.000,"PART-1-1",           623,   770.736E-03,      -24.9188,            0.,NA,NA,"",   88.0918E-03,   83.4900E-03,  -28.0995E-03,   17.1546E-03
C:/temp/dataset/2/29_9.odb,Step-1,Increment      1: Step Time =    1.000,"PART-1-1",           624,      -3.33333,          -20.,            0.,NA,NA,"",   174.978E-03,   122.467E-03,  -124.976E-03,   46.7446E-03
C:/temp/dataset/2/29_9.odb,Step-1,Increment      1: Step Time =    1.000,"PART-1-1",           625,       8.69606,       24.2205,            0.,NA,NA,"",       13.0709,       11.2062,      -6.72826,   10.9034E-09
C:/temp/dataset/2/29_9.odb,Step-1,Increment      1: Step Time =    1.000,"PART-1-1",           626,      -3.33333,            5.,            0.,NA,NA,"",       6.71644,       6.22874,      -2.51264,   951.762E-06
C:/temp/dataset/2/29_9.odb,Step-1,Increment      1: Step Time =    1.000,"PART-1-1",           627,      -4.94363,       3.89105,            0.,NA,NA,"",       6.31015,       5.98034,      -2.01335,   924.412E-06
C:/temp/dataset/2/29_9.odb,Step-1,Increment      1: Step Time =    1.000,"PART-1-1",           628,      -6.66667,            5.,            0.,NA,NA,"",       6.55350,       6.36128,      -1.57562,   1.00685E-03
C:/temp/dataset/2/29_9.odb,Step-1,Increment      1: Step Time =    1.000,"PART-1-1",           629,           10.,          -20.,            0.,NA,NA,"",   70.8586E-03,   70.8524E-03,   936.049E-06,   38.0282E-06
C:/temp/dataset/2/29_9.odb,Step-1,Increment      1: Step Time =    1.000,"PART-1-1",           630,       8.42239,      -21.2201,            0.,NA,NA,"",   68.5546E-03,   68.4404E-03,   3.95429E-03,   1.41184E-03
C:/temp/dataset/2/29_9.odb,Step-1,Increment      1: Step Time =    1.000,"PART-1-1",           631,       6.66667,          -20.,            0.,NA,NA,"",   71.9255E-03,   71.6759E-03,   5.98670E-03,   987.934E-06
C:/temp/dataset/2/29_9.odb,Step-1,Increment      1: Step Time =    1.000,"PART-1-1",           632,       9.53008,       25.0675,            0.,NA,NA,"",       13.3888,       11.4127,      -7.00062,   11.8550E-09
