ODB Name,Step,Frame,Part Instance Name,    êﬂì_ÉâÉxÉã,X,Y,Z,Section Name,Material Name,Section Point,   U-Magnitude,          U-U1,          U-U2,       S-Mises
C:/temp/dataset/2/30_1.odb,Step-1,Increment      1: Step Time =    1.000,"PART-1-1",             1,          -15.,           20.,            0.,NA,NA,"",   579.945E-03,   574.801E-03,   77.0680E-03,   45.6656E-09
C:/temp/dataset/2/30_1.odb,Step-1,Increment      1: Step Time =    1.000,"PART-1-1",             2,          -15.,           25.,            0.,NA,NA,"",   648.313E-03,   643.773E-03,   76.5923E-03,   56.8764E-09
C:/temp/dataset/2/30_1.odb,Step-1,Increment      1: Step Time =    1.000,"PART-1-1",             3,          -10.,           20.,            0.,NA,NA,"",   574.382E-03,   574.325E-03,   8.09635E-03,   134.716E-09
C:/temp/dataset/2/30_1.odb,Step-1,Increment      1: Step Time =    1.000,"PART-1-1",             4,           -5.,           20.,            0.,NA,NA,"",   577.069E-03,   573.849E-03,  -60.8759E-03,   231.990E-09
C:/temp/dataset/2/30_1.odb,Step-1,Increment      1: Step Time =    1.000,"PART-1-1",             5,            0.,           20.,            0.,NA,NA,"",   587.891E-03,   573.372E-03,  -129.849E-03,   312.700E-09
C:/temp/dataset/2/30_1.odb,Step-1,Increment      1: Step Time =    1.000,"PART-1-1",             6,            5.,           20.,            0.,NA,NA,"",   606.414E-03,   572.894E-03,  -198.822E-03,   946.380E-09
C:/temp/dataset/2/30_1.odb,Step-1,Increment      1: Step Time =    1.000,"PART-1-1",             7,            5.,          12.5,            0.,NA,NA,"",   509.511E-03,   469.421E-03,  -198.103E-03,   797.678E-09
C:/temp/dataset/2/30_1.odb,Step-1,Increment      1: Step Time =    1.000,"PART-1-1",             8,            5.,            5.,            0.,NA,NA,"",   415.783E-03,   365.944E-03,  -197.383E-03,   2.16386E-06
C:/temp/dataset/2/30_1.odb,Step-1,Increment      1: Step Time =    1.000,"PART-1-1",             9,           -5.,            5.,            0.,NA,NA,"",   371.618E-03,   366.849E-03,  -59.3437E-03,   32.0622E-06
C:/temp/dataset/2/30_1.odb,Step-1,Increment      1: Step Time =    1.000,"PART-1-1",            10,          -15.,            5.,            0.,NA,NA,"",   375.585E-03,   367.443E-03,   77.7831E-03,   6.10491E-06
C:/temp/dataset/2/30_1.odb,Step-1,Increment      1: Step Time =    1.000,"PART-1-1",            11,          -15.,         -3.75,            0.,NA,NA,"",   261.151E-03,   249.347E-03,   77.6259E-03,   543.448E-06
C:/temp/dataset/2/30_1.odb,Step-1,Increment      1: Step Time =    1.000,"PART-1-1",            12,          -15.,         -12.5,            0.,NA,NA,"",   143.369E-03,   124.086E-03,   71.8146E-03,   2.57296E-03
C:/temp/dataset/2/30_1.odb,Step-1,Increment      1: Step Time =    1.000,"PART-1-1",            13,          -15.,        -21.25,            0.,NA,NA,"",   45.8092E-03,   26.9939E-03,   37.0109E-03,   5.46721E-03
C:/temp/dataset/2/30_1.odb,Step-1,Increment      1: Step Time =    1.000,"PART-1-1",            14,          -15.,          -30.,            0.,NA,NA,"",            0.,   1.56741E-39,   2.87678E-39,   4.53274E-03
C:/temp/dataset/2/30_1.odb,Step-1,Increment      1: Step Time =    1.000,"PART-1-1",            15,           15.,          -30.,            0.,NA,NA,"",            0.,   395.030E-42,  -660.093E-42,   1.10363E-03
C:/temp/dataset/2/30_1.odb,Step-1,Increment      1: Step Time =    1.000,"PART-1-1",            16,           15.,          -25.,            0.,NA,NA,"",   4.67602E-03,   4.26727E-03,  -1.91196E-03,   56.3042E-06
C:/temp/dataset/2/30_1.odb,Step-1,Increment      1: Step Time =    1.000,"PART-1-1",            17,           15.,          -20.,            0.,NA,NA,"",   7.05249E-03,   6.79921E-03,  -1.87305E-03,   5.63788E-06
C:/temp/dataset/2/30_1.odb,Step-1,Increment      1: Step Time =    1.000,"PART-1-1",            18,            5.,          -20.,            0.,NA,NA,"",   7.26483E-03,   7.25346E-03,   406.161E-06,   267.239E-06
C:/temp/dataset/2/30_1.odb,Step-1,Increment      1: Step Time =    1.000,"PART-1-1",            19,           -5.,          -20.,            0.,NA,NA,"",   28.7979E-03,   21.2917E-03,  -19.3903E-03,   9.57304E-03
C:/temp/dataset/2/30_1.odb,Step-1,Increment      1: Step Time =    1.000,"PART-1-1",            20,           -5.,         -12.5,            0.,NA,NA,"",   131.847E-03,   120.929E-03,  -52.5333E-03,   2.18621E-03
C:/temp/dataset/2/30_1.odb,Step-1,Increment      1: Step Time =    1.000,"PART-1-1",            21,           -5.,           -5.,            0.,NA,NA,"",   236.076E-03,   228.714E-03,  -58.4964E-03,   129.803E-06
C:/temp/dataset/2/30_1.odb,Step-1,Increment      1: Step Time =    1.000,"PART-1-1",            22,            0.,           -5.,            0.,NA,NA,"",   261.573E-03,   228.425E-03,  -127.447E-03,   6.54339E-06
C:/temp/dataset/2/30_1.odb,Step-1,Increment      1: Step Time =    1.000,"PART-1-1",            23,            5.,           -5.,            0.,NA,NA,"",   300.910E-03,   227.953E-03,  -196.429E-03,   395.024E-09
C:/temp/dataset/2/30_1.odb,Step-1,Increment      1: Step Time =    1.000,"PART-1-1",            24,           10.,           -5.,            0.,NA,NA,"",   349.564E-03,   227.479E-03,  -265.421E-03,   276.216E-09
C:/temp/dataset/2/30_1.odb,Step-1,Increment      1: Step Time =    1.000,"PART-1-1",            25,           15.,           -5.,            0.,NA,NA,"",   404.181E-03,   227.003E-03,  -334.413E-03,   67.5061E-09
C:/temp/dataset/2/30_1.odb,Step-1,Increment      1: Step Time =    1.000,"PART-1-1",            26,           15.,          3.75,            0.,NA,NA,"",   483.025E-03,   347.741E-03,  -335.245E-03,   687.412E-09
C:/temp/dataset/2/30_1.odb,Step-1,Increment      1: Step Time =    1.000,"PART-1-1",            27,           15.,          12.5,            0.,NA,NA,"",   576.548E-03,   468.469E-03,  -336.071E-03,   806.431E-09
C:/temp/dataset/2/30_1.odb,Step-1,Increment      1: Step Time =    1.000,"PART-1-1",            28,           15.,         21.25,            0.,NA,NA,"",   678.705E-03,   589.185E-03,  -336.899E-03,   480.657E-09
C:/temp/dataset/2/30_1.odb,Step-1,Increment      1: Step Time =    1.000,"PART-1-1",            29,           15.,           30.,            0.,NA,NA,"",   786.137E-03,   709.895E-03,  -337.730E-03,   57.0862E-09
C:/temp/dataset/2/30_1.odb,Step-1,Increment      1: Step Time =    1.000,"PART-1-1",            30,           7.5,           30.,            0.,NA,NA,"",   748.227E-03,   710.608E-03,  -234.264E-03,   252.789E-09
C:/temp/dataset/2/30_1.odb,Step-1,Increment      1: Step Time =    1.000,"PART-1-1",            31,            0.,           30.,            0.,NA,NA,"",   723.246E-03,   711.320E-03,  -130.801E-03,   314.372E-09
C:/temp/dataset/2/30_1.odb,Step-1,Increment      1: Step Time =    1.000,"PART-1-1",            32,          -7.5,           30.,            0.,NA,NA,"",   712.557E-03,   712.032E-03,  -27.3413E-03,   145.587E-09
C:/temp/dataset/2/30_1.odb,Step-1,Increment      1: Step Time =    1.000,"PART-1-1",            33,          -15.,           30.,            0.,NA,NA,"",   716.798E-03,   712.745E-03,   76.1163E-03,   51.1059E-09
C:/temp/dataset/2/30_1.odb,Step-1,Increment      1: Step Time =    1.000,"PART-1-1",            34,          -15.,          22.5,            0.,NA,NA,"",   614.112E-03,   609.287E-03,   76.8302E-03,   56.4951E-09
C:/temp/dataset/2/30_1.odb,Step-1,Increment      1: Step Time =    1.000,"PART-1-1",            35,         -12.5,           20.,            0.,NA,NA,"",   576.139E-03,   574.563E-03,   42.5822E-03,   101.082E-09
C:/temp/dataset/2/30_1.odb,Step-1,Increment      1: Step Time =    1.000,"PART-1-1",            36,          -7.5,           20.,            0.,NA,NA,"",   574.693E-03,   574.087E-03,  -26.3897E-03,   183.453E-09
C:/temp/dataset/2/30_1.odb,Step-1,Increment      1: Step Time =    1.000,"PART-1-1",            37,          -2.5,           20.,            0.,NA,NA,"",   581.483E-03,   573.610E-03,  -95.3623E-03,   279.987E-09
C:/temp/dataset/2/30_1.odb,Step-1,Increment      1: Step Time =    1.000,"PART-1-1",            38,           2.5,           20.,            0.,NA,NA,"",   596.228E-03,   573.133E-03,  -164.336E-03,   432.963E-09
C:/temp/dataset/2/30_1.odb,Step-1,Increment      1: Step Time =    1.000,"PART-1-1",            39,            5.,           15.,            0.,NA,NA,"",   541.542E-03,   503.913E-03,  -198.343E-03,   739.925E-09
C:/temp/dataset/2/30_1.odb,Step-1,Increment      1: Step Time =    1.000,"PART-1-1",            40,            5.,          17.5,            0.,NA,NA,"",   573.858E-03,   538.403E-03,  -198.582E-03,   753.954E-09
C:/temp/dataset/2/30_1.odb,Step-1,Increment      1: Step Time =    1.000,"PART-1-1",            41,            5.,           7.5,            0.,NA,NA,"",   446.547E-03,   400.436E-03,  -197.624E-03,   1.05477E-06
C:/temp/dataset/2/30_1.odb,Step-1,Increment      1: Step Time =    1.000,"PART-1-1",            42,            5.,           10.,            0.,NA,NA,"",   477.821E-03,   434.929E-03,  -197.864E-03,   801.851E-09
C:/temp/dataset/2/30_1.odb,Step-1,Increment      1: Step Time =    1.000,"PART-1-1",            43,      -1.66667,            5.,            0.,NA,NA,"",   381.422E-03,   366.581E-03,  -105.360E-03,   6.23675E-06
C:/temp/dataset/2/30_1.odb,Step-1,Increment      1: Step Time =    1.000,"PART-1-1",            44,       1.66667,            5.,            0.,NA,NA,"",   396.317E-03,   366.268E-03,  -151.377E-03,   1.16990E-06
C:/temp/dataset/2/30_1.odb,Step-1,Increment      1: Step Time =    1.000,"PART-1-1",            45,      -11.6667,            5.,            0.,NA,NA,"",   368.581E-03,   367.170E-03,   32.2277E-03,   32.1000E-06
C:/temp/dataset/2/30_1.odb,Step-1,Increment      1: Step Time =    1.000,"PART-1-1",            46,      -8.33333,            5.,            0.,NA,NA,"",   367.267E-03,   367.021E-03,  -13.4353E-03,   61.7557E-06
C:/temp/dataset/2/30_1.odb,Step-1,Increment      1: Step Time =    1.000,"PART-1-1",            47,          -15.,  -833.333E-03,            0.,NA,NA,"",   298.152E-03,   287.744E-03,   78.0928E-03,   170.182E-06
C:/temp/dataset/2/30_1.odb,Step-1,Increment      1: Step Time =    1.000,"PART-1-1",            48,          -15.,       2.08333,            0.,NA,NA,"",   336.711E-03,   327.545E-03,   78.0303E-03,   44.8829E-06
C:/temp/dataset/2/30_1.odb,Step-1,Increment      1: Step Time =    1.000,"PART-1-1",            49,          -15.,      -9.58333,            0.,NA,NA,"",   184.287E-03,   167.941E-03,   75.8790E-03,   1.50928E-03
C:/temp/dataset/2/30_1.odb,Step-1,Increment      1: Step Time =    1.000,"PART-1-1",            50,          -15.,      -6.66667,            0.,NA,NA,"",   224.000E-03,   210.115E-03,   77.6385E-03,   1.04628E-03
C:/temp/dataset/2/30_1.odb,Step-1,Increment      1: Step Time =    1.000,"PART-1-1",            51,          -15.,      -18.3333,            0.,NA,NA,"",   71.8359E-03,   50.4414E-03,   51.1474E-03,   5.06692E-03
C:/temp/dataset/2/30_1.odb,Step-1,Increment      1: Step Time =    1.000,"PART-1-1",            52,          -15.,      -15.4167,            0.,NA,NA,"",   104.456E-03,   83.1870E-03,   63.1736E-03,   4.04115E-03
C:/temp/dataset/2/30_1.odb,Step-1,Increment      1: Step Time =    1.000,"PART-1-1",            53,          -15.,      -27.0833,            0.,NA,NA,"",   12.2724E-03,   5.54376E-03,   10.9489E-03,   4.59016E-03
C:/temp/dataset/2/30_1.odb,Step-1,Increment      1: Step Time =    1.000,"PART-1-1",            54,          -15.,      -24.1667,            0.,NA,NA,"",   26.4881E-03,   12.8063E-03,   23.1866E-03,   5.00167E-03
C:/temp/dataset/2/30_1.odb,Step-1,Increment      1: Step Time =    1.000,"PART-1-1",            55,           12.,          -30.,            0.,NA,NA,"",            0.,   568.734E-42,  -403.486E-42,   492.291E-06
C:/temp/dataset/2/30_1.odb,Step-1,Increment      1: Step Time =    1.000,"PART-1-1",            56,            9.,          -30.,            0.,NA,NA,"",            0.,   526.311E-42,  -78.7488E-42,   695.305E-06
C:/temp/dataset/2/30_1.odb,Step-1,Increment      1: Step Time =    1.000,"PART-1-1",            57,            6.,          -30.,            0.,NA,NA,"",            0.,   823.256E-42,  -619.880E-42,   915.119E-06
C:/temp/dataset/2/30_1.odb,Step-1,Increment      1: Step Time =    1.000,"PART-1-1",            58,            3.,          -30.,            0.,NA,NA,"",            0.,   902.222E-42,  -521.737E-42,   1.19530E-03
C:/temp/dataset/2/30_1.odb,Step-1,Increment      1: Step Time =    1.000,"PART-1-1",            59,            0.,          -30.,            0.,NA,NA,"",            0.,   1.19193E-39,  -1.56236E-39,   1.41280E-03
C:/temp/dataset/2/30_1.odb,Step-1,Increment      1: Step Time =    1.000,"PART-1-1",            60,           -3.,          -30.,            0.,NA,NA,"",            0.,   894.935E-42,  -1.93622E-39,   1.32148E-03
C:/temp/dataset/2/30_1.odb,Step-1,Increment      1: Step Time =    1.000,"PART-1-1",            61,           -6.,          -30.,            0.,NA,NA,"",            0.,   103.147E-42,  -1.36111E-39,   818.207E-06
C:/temp/dataset/2/30_1.odb,Step-1,Increment      1: Step Time =    1.000,"PART-1-1",            62,           -9.,          -30.,            0.,NA,NA,"",            0.,  -578.512E-42,   231.067E-42,   749.816E-06
C:/temp/dataset/2/30_1.odb,Step-1,Increment      1: Step Time =    1.000,"PART-1-1",            63,          -12.,          -30.,            0.,NA,NA,"",            0.,   412.156E-42,   3.04284E-39,   1.85585E-03
C:/temp/dataset/2/30_1.odb,Step-1,Increment      1: Step Time =    1.000,"PART-1-1",            64,           15.,         -27.5,            0.,NA,NA,"",   2.87585E-03,   2.39830E-03,  -1.58703E-03,   404.286E-06
C:/temp/dataset/2/30_1.odb,Step-1,Increment      1: Step Time =    1.000,"PART-1-1",            65,           15.,         -22.5,            0.,NA,NA,"",   5.99730E-03,   5.68755E-03,  -1.90247E-03,   25.1119E-06
C:/temp/dataset/2/30_1.odb,Step-1,Increment      1: Step Time =    1.000,"PART-1-1",            66,       8.33333,          -20.,            0.,NA,NA,"",   6.80904E-03,   6.80122E-03,   326.300E-06,   73.1567E-06
C:/temp/dataset/2/30_1.odb,Step-1,Increment      1: Step Time =    1.000,"PART-1-1",            67,       11.6667,          -20.,            0.,NA,NA,"",   6.76466E-03,   6.74615E-03,  -500.023E-06,   22.5783E-06
C:/temp/dataset/2/30_1.odb,Step-1,Increment      1: Step Time =    1.000,"PART-1-1",            68,      -1.66667,          -20.,            0.,NA,NA,"",   11.5842E-03,   10.4676E-03,  -4.96202E-03,   2.23592E-03
C:/temp/dataset/2/30_1.odb,Step-1,Increment      1: Step Time =    1.000,"PART-1-1",            69,       1.66667,          -20.,            0.,NA,NA,"",   8.39288E-03,   8.35404E-03,  -806.555E-06,   517.466E-06
C:/temp/dataset/2/30_1.odb,Step-1,Increment      1: Step Time =    1.000,"PART-1-1",            70,           -5.,          -15.,            0.,NA,NA,"",   98.2027E-03,   86.7150E-03,  -46.0898E-03,   3.33345E-03
C:/temp/dataset/2/30_1.odb,Step-1,Increment      1: Step Time =    1.000,"PART-1-1",            71,           -5.,         -17.5,            0.,NA,NA,"",   65.9955E-03,   54.3528E-03,  -37.4323E-03,   5.71383E-03
C:/temp/dataset/2/30_1.odb,Step-1,Increment      1: Step Time =    1.000,"PART-1-1",            72,           -5.,          -7.5,            0.,NA,NA,"",   201.483E-03,   192.939E-03,  -58.0517E-03,   375.426E-06
C:/temp/dataset/2/30_1.odb,Step-1,Increment      1: Step Time =    1.000,"PART-1-1",            73,           -5.,          -10.,            0.,NA,NA,"",   166.543E-03,   156.745E-03,  -56.2802E-03,   1.11127E-03
C:/temp/dataset/2/30_1.odb,Step-1,Increment      1: Step Time =    1.000,"PART-1-1",            74,          -2.5,           -5.,            0.,NA,NA,"",   246.825E-03,   228.645E-03,  -92.9734E-03,   30.2482E-06
C:/temp/dataset/2/30_1.odb,Step-1,Increment      1: Step Time =    1.000,"PART-1-1",            75,           2.5,           -5.,            0.,NA,NA,"",   279.809E-03,   228.190E-03,  -161.934E-03,   2.63197E-06
C:/temp/dataset/2/30_1.odb,Step-1,Increment      1: Step Time =    1.000,"PART-1-1",            76,           7.5,           -5.,            0.,NA,NA,"",   324.316E-03,   227.716E-03,  -230.925E-03,   530.207E-09
C:/temp/dataset/2/30_1.odb,Step-1,Increment      1: Step Time =    1.000,"PART-1-1",            77,          12.5,           -5.,            0.,NA,NA,"",   376.283E-03,   227.241E-03,  -299.917E-03,   104.454E-09
C:/temp/dataset/2/30_1.odb,Step-1,Increment      1: Step Time =    1.000,"PART-1-1",            78,           15.,   833.333E-03,            0.,NA,NA,"",   454.705E-03,   307.495E-03,  -334.969E-03,   329.348E-09
C:/temp/dataset/2/30_1.odb,Step-1,Increment      1: Step Time =    1.000,"PART-1-1",            79,           15.,      -2.08333,            0.,NA,NA,"",   428.299E-03,   267.249E-03,  -334.691E-03,   70.7291E-09
C:/temp/dataset/2/30_1.odb,Step-1,Increment      1: Step Time =    1.000,"PART-1-1",            80,           15.,       9.58333,            0.,NA,NA,"",   544.186E-03,   428.228E-03,  -335.796E-03,   875.709E-09
C:/temp/dataset/2/30_1.odb,Step-1,Increment      1: Step Time =    1.000,"PART-1-1",            81,           15.,       6.66667,            0.,NA,NA,"",   512.939E-03,   387.985E-03,  -335.520E-03,   873.538E-09
C:/temp/dataset/2/30_1.odb,Step-1,Increment      1: Step Time =    1.000,"PART-1-1",            82,           15.,       18.3333,            0.,NA,NA,"",   643.940E-03,   548.948E-03,  -336.622E-03,   633.611E-09
C:/temp/dataset/2/30_1.odb,Step-1,Increment      1: Step Time =    1.000,"PART-1-1",            83,           15.,       15.4167,            0.,NA,NA,"",   609.848E-03,   508.709E-03,  -336.347E-03,   736.009E-09
C:/temp/dataset/2/30_1.odb,Step-1,Increment      1: Step Time =    1.000,"PART-1-1",            84,           15.,       27.0833,            0.,NA,NA,"",   749.878E-03,   669.659E-03,  -337.452E-03,   95.1582E-09
C:/temp/dataset/2/30_1.odb,Step-1,Increment      1: Step Time =    1.000,"PART-1-1",            85,           15.,       24.1667,            0.,NA,NA,"",   714.044E-03,   629.422E-03,  -337.175E-03,   271.451E-09
C:/temp/dataset/2/30_1.odb,Step-1,Increment      1: Step Time =    1.000,"PART-1-1",            86,           10.,           30.,            0.,NA,NA,"",   759.509E-03,   710.371E-03,  -268.753E-03,   111.647E-09
C:/temp/dataset/2/30_1.odb,Step-1,Increment      1: Step Time =    1.000,"PART-1-1",            87,          12.5,           30.,            0.,NA,NA,"",   772.168E-03,   710.133E-03,  -303.241E-03,   74.7669E-09
C:/temp/dataset/2/30_1.odb,Step-1,Increment      1: Step Time =    1.000,"PART-1-1",            88,           2.5,           30.,            0.,NA,NA,"",   730.040E-03,   711.083E-03,  -165.288E-03,   356.441E-09
C:/temp/dataset/2/30_1.odb,Step-1,Increment      1: Step Time =    1.000,"PART-1-1",            89,            5.,           30.,            0.,NA,NA,"",   738.384E-03,   710.845E-03,  -199.776E-03,   336.456E-09
C:/temp/dataset/2/30_1.odb,Step-1,Increment      1: Step Time =    1.000,"PART-1-1",            90,           -5.,           30.,            0.,NA,NA,"",   714.474E-03,   711.794E-03,  -61.8275E-03,   198.665E-09
C:/temp/dataset/2/30_1.odb,Step-1,Increment      1: Step Time =    1.000,"PART-1-1",            91,          -2.5,           30.,            0.,NA,NA,"",   718.046E-03,   711.557E-03,  -96.3140E-03,   256.192E-09
C:/temp/dataset/2/30_1.odb,Step-1,Increment      1: Step Time =    1.000,"PART-1-1",            92,         -12.5,           30.,            0.,NA,NA,"",   713.722E-03,   712.507E-03,   41.6306E-03,   66.7685E-09
C:/temp/dataset/2/30_1.odb,Step-1,Increment      1: Step Time =    1.000,"PART-1-1",            93,          -10.,           30.,            0.,NA,NA,"",   712.305E-03,   712.269E-03,   7.14470E-03,   96.7909E-09
C:/temp/dataset/2/30_1.odb,Step-1,Increment      1: Step Time =    1.000,"PART-1-1",            94,          -15.,          27.5,            0.,NA,NA,"",   682.543E-03,   678.259E-03,   76.3543E-03,   85.2083E-09
C:/temp/dataset/2/30_1.odb,Step-1,Increment      1: Step Time =    1.000,"PART-1-1",            95,      -12.4978,       24.9766,            0.,NA,NA,"",   644.587E-03,   643.212E-03,   42.0779E-03,   84.1746E-09
C:/temp/dataset/2/30_1.odb,Step-1,Increment      1: Step Time =    1.000,"PART-1-1",            96,      -7.49872,       27.4475,            0.,NA,NA,"",   677.365E-03,   676.822E-03,  -27.1160E-03,   79.6740E-09
C:/temp/dataset/2/30_1.odb,Step-1,Increment      1: Step Time =    1.000,"PART-1-1",            97,      -7.50661,       22.4446,            0.,NA,NA,"",   608.388E-03,   607.809E-03,  -26.5309E-03,   113.973E-09
C:/temp/dataset/2/30_1.odb,Step-1,Increment      1: Step Time =    1.000,"PART-1-1",            98,      -2.53392,       22.4091,            0.,NA,NA,"",   614.256E-03,   606.846E-03,  -95.1234E-03,   165.352E-09
C:/temp/dataset/2/30_1.odb,Step-1,Increment      1: Step Time =    1.000,"PART-1-1",            99,  -19.7467E-03,       27.3919,            0.,NA,NA,"",   687.795E-03,   675.344E-03,  -130.280E-03,   143.522E-09
C:/temp/dataset/2/30_1.odb,Step-1,Increment      1: Step Time =    1.000,"PART-1-1",           100,       2.31326,       22.2671,            0.,NA,NA,"",   625.753E-03,   604.426E-03,  -161.975E-03,   286.993E-09
C:/temp/dataset/2/30_1.odb,Step-1,Increment      1: Step Time =    1.000,"PART-1-1",           101,       7.89882,       27.4278,            0.,NA,NA,"",   716.318E-03,   675.086E-03,  -239.521E-03,   250.964E-09
C:/temp/dataset/2/30_1.odb,Step-1,Increment      1: Step Time =    1.000,"PART-1-1",           102,       6.74061,       20.0564,            0.,NA,NA,"",   615.279E-03,   573.507E-03,  -222.840E-03,   305.594E-09
C:/temp/dataset/2/30_1.odb,Step-1,Increment      1: Step Time =    1.000,"PART-1-1",           103,       6.76082,       17.7755,            0.,NA,NA,"",   586.079E-03,   542.037E-03,  -222.901E-03,   507.194E-09
C:/temp/dataset/2/30_1.odb,Step-1,Increment      1: Step Time =    1.000,"PART-1-1",           104,       7.34933,       13.0959,            0.,NA,NA,"",   530.183E-03,   477.420E-03,  -230.573E-03,   440.037E-09
C:/temp/dataset/2/30_1.odb,Step-1,Increment      1: Step Time =    1.000,"PART-1-1",           105,       12.5251,      -2.17932,            0.,NA,NA,"",   401.448E-03,   266.160E-03,  -300.532E-03,   274.646E-09
C:/temp/dataset/2/30_1.odb,Step-1,Increment      1: Step Time =    1.000,"PART-1-1",           106,       11.8446,      -24.9441,            0.,NA,NA,"",   4.30667E-03,   4.27712E-03,  -503.612E-06,   318.036E-06
C:/temp/dataset/2/30_1.odb,Step-1,Increment      1: Step Time =    1.000,"PART-1-1",           107,       2.44158,      -2.66949,            0.,NA,NA,"",   306.297E-03,   260.353E-03,  -161.350E-03,   1.76434E-06
C:/temp/dataset/2/30_1.odb,Step-1,Increment      1: Step Time =    1.000,"PART-1-1",           108,       7.46163,      -2.37632,            0.,NA,NA,"",   350.504E-03,   263.923E-03,  -230.646E-03,   491.245E-09
C:/temp/dataset/2/30_1.odb,Step-1,Increment      1: Step Time =    1.000,"PART-1-1",           109,       7.48217,       7.95809,            0.,NA,NA,"",   468.021E-03,   406.521E-03,  -231.915E-03,   588.797E-09
C:/temp/dataset/2/30_1.odb,Step-1,Increment      1: Step Time =    1.000,"PART-1-1",           110,      -5.01446,       22.4347,            0.,NA,NA,"",   610.481E-03,   607.435E-03,  -60.9080E-03,   138.968E-09
C:/temp/dataset/2/30_1.odb,Step-1,Increment      1: Step Time =    1.000,"PART-1-1",           111,  -75.1424E-03,       22.3615,            0.,NA,NA,"",   619.542E-03,   605.956E-03,  -129.037E-03,   207.378E-09
C:/temp/dataset/2/30_1.odb,Step-1,Increment      1: Step Time =    1.000,"PART-1-1",           112,       4.50776,       22.1530,            0.,NA,NA,"",   632.560E-03,   602.642E-03,  -192.237E-03,   263.884E-09
C:/temp/dataset/2/30_1.odb,Step-1,Increment      1: Step Time =    1.000,"PART-1-1",           113,       7.06405,       15.4904,            0.,NA,NA,"",   558.624E-03,   510.483E-03,  -226.866E-03,   461.399E-09
C:/temp/dataset/2/30_1.odb,Step-1,Increment      1: Step Time =    1.000,"PART-1-1",           114,       7.46285,       10.5556,            0.,NA,NA,"",   499.459E-03,   442.361E-03,  -231.897E-03,   486.838E-09
C:/temp/dataset/2/30_1.odb,Step-1,Increment      1: Step Time =    1.000,"PART-1-1",           115,      -2.89738,      -2.05905,            0.,NA,NA,"",   283.255E-03,   269.320E-03,  -87.7513E-03,   40.9358E-06
C:/temp/dataset/2/30_1.odb,Step-1,Increment      1: Step Time =    1.000,"PART-1-1",           116,      -7.61206,      -10.6629,            0.,NA,NA,"",   147.639E-03,   146.244E-03,  -20.2443E-03,   1.58213E-03
C:/temp/dataset/2/30_1.odb,Step-1,Increment      1: Step Time =    1.000,"PART-1-1",           117,      -6.85891,      -17.7385,            0.,NA,NA,"",   52.3338E-03,   49.4576E-03,  -17.1105E-03,   4.56402E-03
C:/temp/dataset/2/30_1.odb,Step-1,Increment      1: Step Time =    1.000,"PART-1-1",           118,       11.9280,      -27.4687,            0.,NA,NA,"",   2.28906E-03,   2.25593E-03,  -388.085E-06,   593.209E-06
C:/temp/dataset/2/30_1.odb,Step-1,Increment      1: Step Time =    1.000,"PART-1-1",           119,      -7.44747,      -13.1413,            0.,NA,NA,"",   111.876E-03,   110.108E-03,  -19.8088E-03,   2.15800E-03
C:/temp/dataset/2/30_1.odb,Step-1,Increment      1: Step Time =    1.000,"PART-1-1",           120,      -7.13169,      -15.4658,            0.,NA,NA,"",   80.4338E-03,   78.0750E-03,  -19.3363E-03,   2.98378E-03
C:/temp/dataset/2/30_1.odb,Step-1,Increment      1: Step Time =    1.000,"PART-1-1",           121,      -8.02089,      -5.87394,            0.,NA,NA,"",   217.124E-03,   216.489E-03,  -16.5987E-03,   516.666E-06
C:/temp/dataset/2/30_1.odb,Step-1,Increment      1: Step Time =    1.000,"PART-1-1",           122,      -7.74476,      -8.18529,            0.,NA,NA,"",   183.941E-03,   182.870E-03,  -19.8180E-03,   1.00996E-03
C:/temp/dataset/2/30_1.odb,Step-1,Increment      1: Step Time =    1.000,"PART-1-1",           123,  -21.3834E-03,      -2.74811,            0.,NA,NA,"",   289.069E-03,   259.498E-03,  -127.364E-03,   10.7367E-06
C:/temp/dataset/2/30_1.odb,Step-1,Increment      1: Step Time =    1.000,"PART-1-1",           124,       4.94012,      -2.49525,            0.,NA,NA,"",   327.522E-03,   262.520E-03,  -195.842E-03,   893.363E-09
C:/temp/dataset/2/30_1.odb,Step-1,Increment      1: Step Time =    1.000,"PART-1-1",           125,       10.0127,      -2.27482,            0.,NA,NA,"",   375.430E-03,   265.081E-03,  -265.856E-03,   423.194E-09
C:/temp/dataset/2/30_1.odb,Step-1,Increment      1: Step Time =    1.000,"PART-1-1",           126,       10.2967,       27.4669,            0.,NA,NA,"",   728.337E-03,   675.398E-03,  -272.605E-03,   236.776E-09
C:/temp/dataset/2/30_1.odb,Step-1,Increment      1: Step Time =    1.000,"PART-1-1",           127,       12.6750,       27.3103,            0.,NA,NA,"",   739.062E-03,   673.010E-03,  -305.400E-03,   144.579E-09
C:/temp/dataset/2/30_1.odb,Step-1,Increment      1: Step Time =    1.000,"PART-1-1",           128,       2.52543,       27.2659,            0.,NA,NA,"",   693.375E-03,   673.364E-03,  -165.378E-03,   160.242E-09
C:/temp/dataset/2/30_1.odb,Step-1,Increment      1: Step Time =    1.000,"PART-1-1",           129,       5.32711,       26.8707,            0.,NA,NA,"",   698.113E-03,   667.645E-03,  -203.990E-03,   202.727E-09
C:/temp/dataset/2/30_1.odb,Step-1,Increment      1: Step Time =    1.000,"PART-1-1",           130,      -5.00948,       27.4462,            0.,NA,NA,"",   679.351E-03,   676.566E-03,  -61.4535E-03,   100.146E-09
C:/temp/dataset/2/30_1.odb,Step-1,Increment      1: Step Time =    1.000,"PART-1-1",           131,      -2.51658,       27.4324,            0.,NA,NA,"",   682.898E-03,   676.139E-03,  -95.8406E-03,   122.394E-09
C:/temp/dataset/2/30_1.odb,Step-1,Increment      1: Step Time =    1.000,"PART-1-1",           132,      -9.99211,       27.4668,            0.,NA,NA,"",   677.364E-03,   677.325E-03,   7.27700E-03,   62.1309E-09
C:/temp/dataset/2/30_1.odb,Step-1,Increment      1: Step Time =    1.000,"PART-1-1",           133,       12.5029,       21.6680,            0.,NA,NA,"",   667.646E-03,   595.191E-03,  -302.489E-03,   309.989E-09
C:/temp/dataset/2/30_1.odb,Step-1,Increment      1: Step Time =    1.000,"PART-1-1",           134,      -12.7198,      -9.27859,            0.,NA,NA,"",   175.399E-03,   169.653E-03,   44.5264E-03,   1.72000E-03
C:/temp/dataset/2/30_1.odb,Step-1,Increment      1: Step Time =    1.000,"PART-1-1",           135,      -12.2206,      -21.4876,            0.,NA,NA,"",   27.7359E-03,   20.2989E-03,   18.9006E-03,   2.73223E-03
C:/temp/dataset/2/30_1.odb,Step-1,Increment      1: Step Time =    1.000,"PART-1-1",           136,       12.4390,       11.8581,            0.,NA,NA,"",   549.432E-03,   459.857E-03,  -300.677E-03,   377.433E-09
C:/temp/dataset/2/30_1.odb,Step-1,Increment      1: Step Time =    1.000,"PART-1-1",           137,      -12.6285,      -12.0158,            0.,NA,NA,"",   134.533E-03,   128.269E-03,   40.5746E-03,   2.43738E-03
C:/temp/dataset/2/30_1.odb,Step-1,Increment      1: Step Time =    1.000,"PART-1-1",           138,      -12.4213,      -14.8709,            0.,NA,NA,"",   93.3607E-03,   86.7546E-03,   34.4942E-03,   2.44813E-03
C:/temp/dataset/2/30_1.odb,Step-1,Increment      1: Step Time =    1.000,"PART-1-1",           139,       12.2989,       14.8029,            0.,NA,NA,"",   583.022E-03,   500.500E-03,  -299.024E-03,   326.444E-09
C:/temp/dataset/2/30_1.odb,Step-1,Increment      1: Step Time =    1.000,"PART-1-1",           140,       11.7182,       18.2155,            0.,NA,NA,"",   620.307E-03,   547.635E-03,  -291.335E-03,   261.304E-09
C:/temp/dataset/2/30_1.odb,Step-1,Increment      1: Step Time =    1.000,"PART-1-1",           141,      -12.3380,      -4.01281,            0.,NA,NA,"",   248.004E-03,   244.417E-03,   42.0252E-03,   557.453E-06
C:/temp/dataset/2/30_1.odb,Step-1,Increment      1: Step Time =    1.000,"PART-1-1",           142,       12.5089,       6.21106,            0.,NA,NA,"",   486.354E-03,   381.937E-03,  -301.106E-03,   471.974E-09
C:/temp/dataset/2/30_1.odb,Step-1,Increment      1: Step Time =    1.000,"PART-1-1",           143,      -10.9765,      -1.21375,            0.,NA,NA,"",   283.014E-03,   282.036E-03,   23.5090E-03,   92.9697E-06
C:/temp/dataset/2/30_1.odb,Step-1,Increment      1: Step Time =    1.000,"PART-1-1",           144,      -11.4273,       2.02370,            0.,NA,NA,"",   327.700E-03,   326.389E-03,   29.2906E-03,   57.1791E-06
C:/temp/dataset/2/30_1.odb,Step-1,Increment      1: Step Time =    1.000,"PART-1-1",           145,      -12.7154,      -6.64001,            0.,NA,NA,"",   213.332E-03,   208.269E-03,   46.2000E-03,   1.22346E-03
C:/temp/dataset/2/30_1.odb,Step-1,Increment      1: Step Time =    1.000,"PART-1-1",           146,      -11.7762,      -18.1315,            0.,NA,NA,"",   52.3051E-03,   46.9849E-03,   22.9836E-03,   2.47770E-03
C:/temp/dataset/2/30_1.odb,Step-1,Increment      1: Step Time =    1.000,"PART-1-1",           147,      -12.2481,      -24.4184,            0.,NA,NA,"",   13.9364E-03,   7.27253E-03,   11.8884E-03,   2.72357E-03
C:/temp/dataset/2/30_1.odb,Step-1,Increment      1: Step Time =    1.000,"PART-1-1",           148,       12.5340,       3.42208,            0.,NA,NA,"",   456.807E-03,   343.451E-03,  -301.187E-03,   519.794E-09
C:/temp/dataset/2/30_1.odb,Step-1,Increment      1: Step Time =    1.000,"PART-1-1",           149,       12.5428,   630.306E-03,            0.,NA,NA,"",   428.495E-03,   304.928E-03,  -301.044E-03,   483.483E-09
C:/temp/dataset/2/30_1.odb,Step-1,Increment      1: Step Time =    1.000,"PART-1-1",           150,       12.5001,       9.03097,            0.,NA,NA,"",   517.555E-03,   420.846E-03,  -301.252E-03,   421.322E-09
C:/temp/dataset/2/30_1.odb,Step-1,Increment      1: Step Time =    1.000,"PART-1-1",           151,       12.7192,       24.5718,            0.,NA,NA,"",   704.981E-03,   635.229E-03,  -305.748E-03,   242.760E-09
C:/temp/dataset/2/30_1.odb,Step-1,Increment      1: Step Time =    1.000,"PART-1-1",           152,       2.66783,      -27.4286,            0.,NA,NA,"",   3.95625E-03,   3.88901E-03,  -726.293E-06,   1.09449E-03
C:/temp/dataset/2/30_1.odb,Step-1,Increment      1: Step Time =    1.000,"PART-1-1",           153,       8.86089,      -27.4494,            0.,NA,NA,"",   2.57085E-03,   2.56713E-03,  -138.183E-06,   653.168E-06
C:/temp/dataset/2/30_1.odb,Step-1,Increment      1: Step Time =    1.000,"PART-1-1",           154,       5.76511,      -27.4328,            0.,NA,NA,"",   3.21385E-03,   3.20394E-03,  -252.097E-06,   827.824E-06
C:/temp/dataset/2/30_1.odb,Step-1,Increment      1: Step Time =    1.000,"PART-1-1",           155,  -414.647E-03,      -27.4330,            0.,NA,NA,"",   4.48988E-03,   4.15246E-03,  -1.70767E-03,   1.49214E-03
C:/temp/dataset/2/30_1.odb,Step-1,Increment      1: Step Time =    1.000,"PART-1-1",           156,      -3.42691,      -27.4460,            0.,NA,NA,"",   4.19999E-03,   3.20647E-03,  -2.71265E-03,   1.81664E-03
C:/temp/dataset/2/30_1.odb,Step-1,Increment      1: Step Time =    1.000,"PART-1-1",           157,      -6.36574,      -27.4272,            0.,NA,NA,"",   2.50893E-03,   1.22328E-03,  -2.19050E-03,   1.43876E-03
C:/temp/dataset/2/30_1.odb,Step-1,Increment      1: Step Time =    1.000,"PART-1-1",           158,       10.5238,       25.0033,            0.,NA,NA,"",   698.057E-03,   641.391E-03,  -275.503E-03,   287.196E-09
C:/temp/dataset/2/30_1.odb,Step-1,Increment      1: Step Time =    1.000,"PART-1-1",           159,       6.26912,       22.1485,            0.,NA,NA,"",   640.148E-03,   602.413E-03,  -216.535E-03,   325.086E-09
C:/temp/dataset/2/30_1.odb,Step-1,Increment      1: Step Time =    1.000,"PART-1-1",           160,      -5.96402,      -2.70245,            0.,NA,NA,"",   264.713E-03,   260.803E-03,  -45.3316E-03,   43.0084E-06
C:/temp/dataset/2/30_1.odb,Step-1,Increment      1: Step Time =    1.000,"PART-1-1",           161,      -12.5033,       22.4816,            0.,NA,NA,"",   610.270E-03,   608.796E-03,   42.3911E-03,   67.8268E-09
C:/temp/dataset/2/30_1.odb,Step-1,Increment      1: Step Time =    1.000,"PART-1-1",           162,      -2.53325,       24.9024,            0.,NA,NA,"",   648.294E-03,   641.241E-03,  -95.3699E-03,   81.0888E-09
C:/temp/dataset/2/30_1.odb,Step-1,Increment      1: Step Time =    1.000,"PART-1-1",           163,       4.43197,       24.4161,            0.,NA,NA,"",   662.138E-03,   633.869E-03,  -191.408E-03,   156.164E-09
C:/temp/dataset/2/30_1.odb,Step-1,Increment      1: Step Time =    1.000,"PART-1-1",           164,      -10.2797,      -8.84555,            0.,NA,NA,"",   174.432E-03,   173.933E-03,   13.1776E-03,   1.51458E-03
C:/temp/dataset/2/30_1.odb,Step-1,Increment      1: Step Time =    1.000,"PART-1-1",           165,       2.21534,  -332.134E-03,            0.,NA,NA,"",   332.774E-03,   292.630E-03,  -158.449E-03,   2.25128E-06
C:/temp/dataset/2/30_1.odb,Step-1,Increment      1: Step Time =    1.000,"PART-1-1",           166,  -74.2209E-03,       24.8536,            0.,NA,NA,"",   653.254E-03,   640.333E-03,  -129.287E-03,   81.6282E-09
C:/temp/dataset/2/30_1.odb,Step-1,Increment      1: Step Time =    1.000,"PART-1-1",           167,       2.30693,       24.7164,            0.,NA,NA,"",   658.483E-03,   638.213E-03,  -162.121E-03,   109.725E-09
C:/temp/dataset/2/30_1.odb,Step-1,Increment      1: Step Time =    1.000,"PART-1-1",           168,       9.79368,       13.9045,            0.,NA,NA,"",   555.314E-03,   488.344E-03,  -264.374E-03,   100.151E-09
C:/temp/dataset/2/30_1.odb,Step-1,Increment      1: Step Time =    1.000,"PART-1-1",           169,       9.30777,       16.4521,            0.,NA,NA,"",   583.618E-03,   523.536E-03,  -257.913E-03,   129.984E-09
C:/temp/dataset/2/30_1.odb,Step-1,Increment      1: Step Time =    1.000,"PART-1-1",           170,      -2.35985,       1.11806,            0.,NA,NA,"",   327.318E-03,   313.100E-03,  -95.4246E-03,   16.9568E-06
C:/temp/dataset/2/30_1.odb,Step-1,Increment      1: Step Time =    1.000,"PART-1-1",           171,      -9.94133,      -13.9778,            0.,NA,NA,"",   98.1495E-03,   97.7655E-03,   8.67456E-03,   2.38669E-03
C:/temp/dataset/2/30_1.odb,Step-1,Increment      1: Step Time =    1.000,"PART-1-1",           172,       4.80988,   33.7751E-03,            0.,NA,NA,"",   355.264E-03,   297.431E-03,  -194.286E-03,   444.969E-09
C:/temp/dataset/2/30_1.odb,Step-1,Increment      1: Step Time =    1.000,"PART-1-1",           173,       9.94126,       11.1894,            0.,NA,NA,"",   523.565E-03,   450.870E-03,  -266.152E-03,   80.8615E-09
C:/temp/dataset/2/30_1.odb,Step-1,Increment      1: Step Time =    1.000,"PART-1-1",           174,       7.43598,   226.782E-03,            0.,NA,NA,"",   378.228E-03,   299.845E-03,  -230.541E-03,   711.117E-09
C:/temp/dataset/2/30_1.odb,Step-1,Increment      1: Step Time =    1.000,"PART-1-1",           175,      -7.50368,       24.9336,            0.,NA,NA,"",   642.703E-03,   642.144E-03,  -26.8082E-03,   77.2587E-09
C:/temp/dataset/2/30_1.odb,Step-1,Increment      1: Step Time =    1.000,"PART-1-1",           176,      -10.1536,      -11.3797,            0.,NA,NA,"",   136.353E-03,   135.897E-03,   11.1389E-03,   2.07114E-03
C:/temp/dataset/2/30_1.odb,Step-1,Increment      1: Step Time =    1.000,"PART-1-1",           177,       6.92724,       24.6415,            0.,NA,NA,"",   675.609E-03,   636.741E-03,  -225.852E-03,   262.291E-09
C:/temp/dataset/2/30_1.odb,Step-1,Increment      1: Step Time =    1.000,"PART-1-1",           178,      -9.99868,       24.9580,            0.,NA,NA,"",   642.763E-03,   642.718E-03,   7.60641E-03,   79.4197E-09
C:/temp/dataset/2/30_1.odb,Step-1,Increment      1: Step Time =    1.000,"PART-1-1",           179,       8.37028,       18.0705,            0.,NA,NA,"",   598.461E-03,   545.954E-03,  -245.134E-03,   194.312E-09
C:/temp/dataset/2/30_1.odb,Step-1,Increment      1: Step Time =    1.000,"PART-1-1",           180,      -10.4068,      -6.54987,            0.,NA,NA,"",   208.244E-03,   207.676E-03,   15.3689E-03,   925.562E-06
C:/temp/dataset/2/30_1.odb,Step-1,Increment      1: Step Time =    1.000,"PART-1-1",           181,      -8.52723,      -17.8680,            0.,NA,NA,"",   47.1419E-03,   47.0585E-03,  -2.80372E-03,   2.86473E-03
C:/temp/dataset/2/30_1.odb,Step-1,Increment      1: Step Time =    1.000,"PART-1-1",           182,       9.99063,       8.47585,            0.,NA,NA,"",   491.918E-03,   413.426E-03,  -266.575E-03,   144.414E-09
C:/temp/dataset/2/30_1.odb,Step-1,Increment      1: Step Time =    1.000,"PART-1-1",           183,      -6.87511,      -22.3968,            0.,NA,NA,"",   14.7557E-03,   12.0295E-03,  -8.54519E-03,   2.29439E-03
C:/temp/dataset/2/30_1.odb,Step-1,Increment      1: Step Time =    1.000,"PART-1-1",           184,       7.48189,       5.34092,            0.,NA,NA,"",   436.888E-03,   370.410E-03,  -231.661E-03,   523.531E-09
C:/temp/dataset/2/30_1.odb,Step-1,Increment      1: Step Time =    1.000,"PART-1-1",           185,       10.0207,   425.902E-03,            0.,NA,NA,"",   402.852E-03,   302.347E-03,  -266.225E-03,   613.748E-09
C:/temp/dataset/2/30_1.odb,Step-1,Increment      1: Step Time =    1.000,"PART-1-1",           186,      -8.86720,      -3.63325,            0.,NA,NA,"",   248.378E-03,   248.323E-03,  -5.24688E-03,   215.107E-06
C:/temp/dataset/2/30_1.odb,Step-1,Increment      1: Step Time =    1.000,"PART-1-1",           187,       10.0155,       5.77118,            0.,NA,NA,"",   461.045E-03,   376.105E-03,  -266.660E-03,   330.640E-09
C:/temp/dataset/2/30_1.odb,Step-1,Increment      1: Step Time =    1.000,"PART-1-1",           188,       9.07540,       20.2179,            0.,NA,NA,"",   629.501E-03,   575.511E-03,  -255.066E-03,   232.639E-09
C:/temp/dataset/2/30_1.odb,Step-1,Increment      1: Step Time =    1.000,"PART-1-1",           189,       5.51479,      -24.9218,            0.,NA,NA,"",   5.58000E-03,   5.57675E-03,  -190.434E-06,   688.732E-06
C:/temp/dataset/2/30_1.odb,Step-1,Increment      1: Step Time =    1.000,"PART-1-1",           190,       2.33502,      -24.9114,            0.,NA,NA,"",   6.96657E-03,   6.85834E-03,  -1.22322E-03,   1.00703E-03
C:/temp/dataset/2/30_1.odb,Step-1,Increment      1: Step Time =    1.000,"PART-1-1",           191,      -3.83494,      -24.9465,            0.,NA,NA,"",   9.74463E-03,   7.40469E-03,  -6.33470E-03,   2.45103E-03
C:/temp/dataset/2/30_1.odb,Step-1,Increment      1: Step Time =    1.000,"PART-1-1",           192,       8.68706,      -24.9229,            0.,NA,NA,"",   4.70416E-03,   4.70395E-03,  -44.4767E-06,   476.330E-06
C:/temp/dataset/2/30_1.odb,Step-1,Increment      1: Step Time =    1.000,"PART-1-1",           193,  -793.545E-03,      -24.9263,            0.,NA,NA,"",   8.73441E-03,   7.94395E-03,  -3.63091E-03,   1.88366E-03
C:/temp/dataset/2/30_1.odb,Step-1,Increment      1: Step Time =    1.000,"PART-1-1",           194,      -10.0041,       22.4687,            0.,NA,NA,"",   608.432E-03,   608.381E-03,   7.91781E-03,   90.0238E-09
C:/temp/dataset/2/30_1.odb,Step-1,Increment      1: Step Time =    1.000,"PART-1-1",           195,       7.76291,       22.5689,            0.,NA,NA,"",   652.691E-03,   608.070E-03,  -237.183E-03,   308.092E-09
C:/temp/dataset/2/30_1.odb,Step-1,Increment      1: Step Time =    1.000,"PART-1-1",           196,       10.0314,       3.09975,            0.,NA,NA,"",   431.480E-03,   339.242E-03,  -266.626E-03,   604.467E-09
C:/temp/dataset/2/30_1.odb,Step-1,Increment      1: Step Time =    1.000,"PART-1-1",           197,       7.45157,       2.78517,            0.,NA,NA,"",   407.044E-03,   335.148E-03,  -231.000E-03,   857.563E-09
C:/temp/dataset/2/30_1.odb,Step-1,Increment      1: Step Time =    1.000,"PART-1-1",           198,       1.23926,       2.17480,            0.,NA,NA,"",   358.084E-03,   327.319E-03,  -145.210E-03,   3.51304E-06
C:/temp/dataset/2/30_1.odb,Step-1,Increment      1: Step Time =    1.000,"PART-1-1",           199,       5.89388,       23.8379,            0.,NA,NA,"",   660.536E-03,   625.753E-03,  -211.520E-03,   237.284E-09
C:/temp/dataset/2/30_1.odb,Step-1,Increment      1: Step Time =    1.000,"PART-1-1",           200,       4.70825,       2.52712,            0.,NA,NA,"",   383.951E-03,   331.848E-03,  -193.121E-03,   641.081E-09
C:/temp/dataset/2/30_1.odb,Step-1,Increment      1: Step Time =    1.000,"PART-1-1",           201,      -6.67563,      -24.8783,            0.,NA,NA,"",   7.34402E-03,   5.12984E-03,  -5.25541E-03,   1.85318E-03
C:/temp/dataset/2/30_1.odb,Step-1,Increment      1: Step Time =    1.000,"PART-1-1",           202,      -1.93740,       2.90022,            0.,NA,NA,"",   352.536E-03,   337.633E-03,  -101.418E-03,   12.9653E-06
C:/temp/dataset/2/30_1.odb,Step-1,Increment      1: Step Time =    1.000,"PART-1-1",           203,      -4.27328,      -22.5070,            0.,NA,NA,"",   16.3704E-03,   12.7485E-03,  -10.2697E-03,   3.78466E-03
C:/temp/dataset/2/30_1.odb,Step-1,Increment      1: Step Time =    1.000,"PART-1-1",           204,      -7.29195,  -216.826E-03,            0.,NA,NA,"",   296.514E-03,   295.264E-03,  -27.2009E-03,   35.0730E-06
C:/temp/dataset/2/30_1.odb,Step-1,Increment      1: Step Time =    1.000,"PART-1-1",           205,      -4.39370,   432.763E-03,            0.,NA,NA,"",   311.235E-03,   303.876E-03,  -67.2806E-03,   37.5102E-06
C:/temp/dataset/2/30_1.odb,Step-1,Increment      1: Step Time =    1.000,"PART-1-1",           206,      -1.20581,      -22.4416,            0.,NA,NA,"",   11.4218E-03,   10.6715E-03,  -4.07125E-03,   2.45973E-03
C:/temp/dataset/2/30_1.odb,Step-1,Increment      1: Step Time =    1.000,"PART-1-1",           207,      -4.88725,       2.78210,            0.,NA,NA,"",   341.709E-03,   336.279E-03,  -60.6718E-03,   29.4333E-06
C:/temp/dataset/2/30_1.odb,Step-1,Increment      1: Step Time =    1.000,"PART-1-1",           208,      -8.02678,       2.39768,            0.,NA,NA,"",   331.710E-03,   331.255E-03,  -17.3607E-03,   23.8022E-06
C:/temp/dataset/2/30_1.odb,Step-1,Increment      1: Step Time =    1.000,"PART-1-1",           209,       8.51144,      -22.4401,            0.,NA,NA,"",   6.12252E-03,   6.12054E-03,   155.785E-06,   285.695E-06
C:/temp/dataset/2/30_1.odb,Step-1,Increment      1: Step Time =    1.000,"PART-1-1",           210,       5.25488,      -22.4306,            0.,NA,NA,"",   6.95839E-03,   6.95720E-03,   128.555E-06,   492.247E-06
C:/temp/dataset/2/30_1.odb,Step-1,Increment      1: Step Time =    1.000,"PART-1-1",           211,       2.00226,      -22.4217,            0.,NA,NA,"",   8.63206E-03,   8.57267E-03,  -1.01080E-03,   989.414E-06
C:/temp/dataset/2/30_1.odb,Step-1,Increment      1: Step Time =    1.000,"PART-1-1",           212,      -9.28570,      -27.3600,            0.,NA,NA,"",   642.752E-06,  -55.8098E-06,   640.325E-06,   406.383E-06
C:/temp/dataset/2/30_1.odb,Step-1,Increment      1: Step Time =    1.000,"PART-1-1",           213,       11.7596,      -22.4488,            0.,NA,NA,"",   5.77923E-03,   5.75386E-03,  -541.003E-06,   106.466E-06
C:/temp/dataset/2/30_1.odb,Step-1,Increment      1: Step Time =    1.000,"PART-1-1",           214,      -12.4952,       27.4851,            0.,NA,NA,"",   679.104E-03,   677.816E-03,   41.8038E-03,   54.0221E-09
C:/temp/dataset/2/30_1.odb,Step-1,Increment      1: Step Time =    1.000,"PART-1-1",           215,      -12.1608,      -27.2494,            0.,NA,NA,"",   5.52007E-03,   1.35451E-03,   5.35130E-03,   2.51335E-03
C:/temp/dataset/2/30_1.odb,Step-1,Increment      1: Step Time =    1.000,"PART-1-1",           216,      -6.92277,      -20.0189,            0.,NA,NA,"",   27.2136E-03,   24.5769E-03,  -11.6858E-03,   2.74339E-03
C:/temp/dataset/2/30_1.odb,Step-1,Increment      1: Step Time =    1.000,"PART-1-1",           217,       10.3403,       22.5364,            0.,NA,NA,"",   665.801E-03,   607.376E-03,  -272.736E-03,   299.517E-09
C:/temp/dataset/2/30_1.odb,Step-1,Increment      1: Step Time =    1.000,"PART-1-1",           218,      -9.38591,      -16.3373,            0.,NA,NA,"",   65.9350E-03,   65.8338E-03,   3.65181E-03,   2.39551E-03
C:/temp/dataset/2/30_1.odb,Step-1,Increment      1: Step Time =    1.000,"PART-1-1",           219,      -9.56004,      -22.0160,            0.,NA,NA,"",   14.6613E-03,   14.3295E-03,   3.10180E-03,   1.05847E-03
C:/temp/dataset/2/30_1.odb,Step-1,Increment      1: Step Time =    1.000,"PART-1-1",           220,      -9.49058,      -24.6874,            0.,NA,NA,"",   4.85900E-03,   4.56835E-03,   1.65532E-03,   556.478E-06
C:/temp/dataset/2/30_1.odb,Step-1,Increment      1: Step Time =    1.000,"PART-1-1",           221,  -968.003E-03,   33.9082E-03,            0.,NA,NA,"",   319.257E-03,   297.999E-03,  -114.549E-03,   12.7192E-06
C:/temp/dataset/2/30_1.odb,Step-1,Increment      1: Step Time =    1.000,"PART-1-1",           222,   333.674E-03,      -1.00763,            0.,NA,NA,"",   312.894E-03,   283.490E-03,  -132.423E-03,   9.18823E-06
C:/temp/dataset/2/30_1.odb,Step-1,Increment      1: Step Time =    1.000,"PART-1-1",           223,      -10.5623,      -4.72446,            0.,NA,NA,"",   234.353E-03,   233.676E-03,   17.7971E-03,   522.908E-06
C:/temp/dataset/2/30_1.odb,Step-1,Increment      1: Step Time =    1.000,"PART-1-1",           224,      -5.01319,       24.9269,            0.,NA,NA,"",   644.722E-03,   641.815E-03,  -61.1626E-03,   77.6710E-09
C:/temp/dataset/2/30_1.odb,Step-1,Increment      1: Step Time =    1.000,"PART-1-1",           225,      -9.24174,      -19.5473,            0.,NA,NA,"",   30.8262E-03,   30.7298E-03,   2.43581E-03,   1.61870E-03
C:/temp/dataset/2/30_1.odb,Step-1,Increment      1: Step Time =    1.000,"PART-1-1",           226,       8.53639,       25.1316,            0.,NA,NA,"",   689.530E-03,   643.350E-03,  -248.098E-03,   296.755E-09
C:/temp/dataset/2/30_1.odb,Step-1,Increment      1: Step Time =    1.000,"PART-1-1",           227,       8.85572,       23.3093,            0.,NA,NA,"",   667.694E-03,   618.179E-03,  -252.330E-03,   307.198E-09
C:/temp/dataset/2/30_1.odb,Step-1,Increment      1: Step Time =    1.000,"PART-1-1",           228,      -13.7516,       22.4908,            0.,NA,NA,"",   611.952E-03,   609.042E-03,   59.6106E-03,   58.7018E-09
C:/temp/dataset/2/30_1.odb,Step-1,Increment      1: Step Time =    1.000,"PART-1-1",           229,          -15.,         21.25,            0.,NA,NA,"",   597.024E-03,   592.044E-03,   76.9491E-03,   44.2155E-09
C:/temp/dataset/2/30_1.odb,Step-1,Increment      1: Step Time =    1.000,"PART-1-1",           230,        -13.75,           20.,            0.,NA,NA,"",   577.788E-03,   574.682E-03,   59.8252E-03,   75.7288E-09
C:/temp/dataset/2/30_1.odb,Step-1,Increment      1: Step Time =    1.000,"PART-1-1",           231,      -12.5016,       21.2408,            0.,NA,NA,"",   593.203E-03,   591.680E-03,   42.4867E-03,   71.2102E-09
C:/temp/dataset/2/30_1.odb,Step-1,Increment      1: Step Time =    1.000,"PART-1-1",           232,      -9.99605,       28.7334,            0.,NA,NA,"",   694.835E-03,   694.797E-03,   7.21085E-03,   68.0176E-09
C:/temp/dataset/2/30_1.odb,Step-1,Increment      1: Step Time =    1.000,"PART-1-1",           233,        -11.25,           30.,            0.,NA,NA,"",   712.806E-03,   712.388E-03,   24.3877E-03,   79.0312E-09
C:/temp/dataset/2/30_1.odb,Step-1,Increment      1: Step Time =    1.000,"PART-1-1",           234,      -12.4976,       28.7426,            0.,NA,NA,"",   696.412E-03,   695.162E-03,   41.7172E-03,   34.2941E-09
C:/temp/dataset/2/30_1.odb,Step-1,Increment      1: Step Time =    1.000,"PART-1-1",           235,      -11.2437,       27.4760,            0.,NA,NA,"",   678.015E-03,   677.570E-03,   24.5404E-03,   54.0928E-09
C:/temp/dataset/2/30_1.odb,Step-1,Increment      1: Step Time =    1.000,"PART-1-1",           236,      -8.74541,       27.4572,            0.,NA,NA,"",   677.146E-03,   677.073E-03,  -9.91949E-03,   70.2541E-09
C:/temp/dataset/2/30_1.odb,Step-1,Increment      1: Step Time =    1.000,"PART-1-1",           237,      -7.49936,       28.7238,            0.,NA,NA,"",   694.961E-03,   694.427E-03,  -27.2287E-03,   104.220E-09
C:/temp/dataset/2/30_1.odb,Step-1,Increment      1: Step Time =    1.000,"PART-1-1",           238,         -8.75,           30.,            0.,NA,NA,"",   712.222E-03,   712.151E-03,  -10.0983E-03,   120.920E-09
C:/temp/dataset/2/30_1.odb,Step-1,Increment      1: Step Time =    1.000,"PART-1-1",           239,      -10.0020,       21.2344,            0.,NA,NA,"",   591.407E-03,   591.353E-03,   8.00709E-03,   105.957E-09
C:/temp/dataset/2/30_1.odb,Step-1,Increment      1: Step Time =    1.000,"PART-1-1",           240,      -11.2537,       22.4752,            0.,NA,NA,"",   609.108E-03,   608.588E-03,   25.1544E-03,   77.0041E-09
C:/temp/dataset/2/30_1.odb,Step-1,Increment      1: Step Time =    1.000,"PART-1-1",           241,        -11.25,           20.,            0.,NA,NA,"",   575.003E-03,   574.444E-03,   25.3393E-03,   113.628E-09
C:/temp/dataset/2/30_1.odb,Step-1,Increment      1: Step Time =    1.000,"PART-1-1",           242,      -6.25410,       27.4469,            0.,NA,NA,"",   678.142E-03,   676.694E-03,  -44.2847E-03,   89.5167E-09
C:/temp/dataset/2/30_1.odb,Step-1,Increment      1: Step Time =    1.000,"PART-1-1",           243,      -7.50120,       26.1906,            0.,NA,NA,"",   660.034E-03,   659.483E-03,  -26.9621E-03,   66.6319E-09
C:/temp/dataset/2/30_1.odb,Step-1,Increment      1: Step Time =    1.000,"PART-1-1",           244,      -6.25844,       24.9303,            0.,NA,NA,"",   643.484E-03,   641.979E-03,  -43.9854E-03,   77.5662E-09
C:/temp/dataset/2/30_1.odb,Step-1,Increment      1: Step Time =    1.000,"PART-1-1",           245,      -5.01133,       26.1865,            0.,NA,NA,"",   662.035E-03,   659.190E-03,  -61.3080E-03,   70.7407E-09
C:/temp/dataset/2/30_1.odb,Step-1,Increment      1: Step Time =    1.000,"PART-1-1",           246,       1.11906,       22.3143,            0.,NA,NA,"",   622.437E-03,   605.191E-03,  -145.506E-03,   220.898E-09
C:/temp/dataset/2/30_1.odb,Step-1,Increment      1: Step Time =    1.000,"PART-1-1",           247,  -37.5712E-03,       21.1808,            0.,NA,NA,"",   603.704E-03,   589.664E-03,  -129.443E-03,   257.948E-09
C:/temp/dataset/2/30_1.odb,Step-1,Increment      1: Step Time =    1.000,"PART-1-1",           248,          1.25,           20.,            0.,NA,NA,"",   591.823E-03,   573.252E-03,  -147.092E-03,   352.298E-09
C:/temp/dataset/2/30_1.odb,Step-1,Increment      1: Step Time =    1.000,"PART-1-1",           249,       2.40663,       21.1336,            0.,NA,NA,"",   610.967E-03,   588.779E-03,  -163.156E-03,   312.534E-09
C:/temp/dataset/2/30_1.odb,Step-1,Increment      1: Step Time =    1.000,"PART-1-1",           250,  -46.9838E-03,       26.1228,            0.,NA,NA,"",   670.519E-03,   657.838E-03,  -129.783E-03,   85.6723E-09
C:/temp/dataset/2/30_1.odb,Step-1,Increment      1: Step Time =    1.000,"PART-1-1",           251,       1.11635,       24.7850,            0.,NA,NA,"",   655.667E-03,   639.273E-03,  -145.704E-03,   95.3023E-09
C:/temp/dataset/2/30_1.odb,Step-1,Increment      1: Step Time =    1.000,"PART-1-1",           252,       2.41618,       25.9912,            0.,NA,NA,"",   675.924E-03,   655.789E-03,  -163.750E-03,   111.415E-09
C:/temp/dataset/2/30_1.odb,Step-1,Increment      1: Step Time =    1.000,"PART-1-1",           253,       1.25284,       27.3289,            0.,NA,NA,"",   690.367E-03,   674.354E-03,  -147.829E-03,   149.973E-09
C:/temp/dataset/2/30_1.odb,Step-1,Increment      1: Step Time =    1.000,"PART-1-1",           254,       11.4216,       22.1022,            0.,NA,NA,"",   666.530E-03,   601.283E-03,  -287.613E-03,   287.419E-09
C:/temp/dataset/2/30_1.odb,Step-1,Increment      1: Step Time =    1.000,"PART-1-1",           255,       9.70783,       21.3771,            0.,NA,NA,"",   647.649E-03,   591.444E-03,  -263.901E-03,   258.649E-09
C:/temp/dataset/2/30_1.odb,Step-1,Increment      1: Step Time =    1.000,"PART-1-1",           256,       10.3968,       19.2167,            0.,NA,NA,"",   624.502E-03,   561.573E-03,  -273.201E-03,   206.513E-09
C:/temp/dataset/2/30_1.odb,Step-1,Increment      1: Step Time =    1.000,"PART-1-1",           257,       12.1105,       19.9418,            0.,NA,NA,"",   643.949E-03,   571.413E-03,  -296.912E-03,   287.707E-09
C:/temp/dataset/2/30_1.odb,Step-1,Increment      1: Step Time =    1.000,"PART-1-1",           258,       11.6215,       24.7876,            0.,NA,NA,"",   701.358E-03,   638.310E-03,  -290.626E-03,   252.492E-09
C:/temp/dataset/2/30_1.odb,Step-1,Increment      1: Step Time =    1.000,"PART-1-1",           259,       12.6971,       25.9410,            0.,NA,NA,"",   721.975E-03,   654.120E-03,  -305.574E-03,   186.896E-09
C:/temp/dataset/2/30_1.odb,Step-1,Increment      1: Step Time =    1.000,"PART-1-1",           260,       11.4859,       27.3886,            0.,NA,NA,"",   733.535E-03,   674.204E-03,  -289.002E-03,   189.632E-09
C:/temp/dataset/2/30_1.odb,Step-1,Increment      1: Step Time =    1.000,"PART-1-1",           261,       10.4103,       26.2351,            0.,NA,NA,"",   713.154E-03,   658.394E-03,  -274.054E-03,   256.277E-09
C:/temp/dataset/2/30_1.odb,Step-1,Increment      1: Step Time =    1.000,"PART-1-1",           262,       5.88041,       17.6377,            0.,NA,NA,"",   579.871E-03,   540.220E-03,  -210.742E-03,   605.542E-09
C:/temp/dataset/2/30_1.odb,Step-1,Increment      1: Step Time =    1.000,"PART-1-1",           263,       6.75071,       18.9160,            0.,NA,NA,"",   600.650E-03,   557.772E-03,  -222.871E-03,   359.573E-09
C:/temp/dataset/2/30_1.odb,Step-1,Increment      1: Step Time =    1.000,"PART-1-1",           264,       5.87030,       20.0282,            0.,NA,NA,"",   610.744E-03,   573.200E-03,  -210.831E-03,   569.022E-09
C:/temp/dataset/2/30_1.odb,Step-1,Increment      1: Step Time =    1.000,"PART-1-1",           265,            5.,         18.75,            0.,NA,NA,"",   590.108E-03,   555.649E-03,  -198.702E-03,   864.990E-09
C:/temp/dataset/2/30_1.odb,Step-1,Increment      1: Step Time =    1.000,"PART-1-1",           266,       12.3690,       13.3305,            0.,NA,NA,"",   566.111E-03,   480.178E-03,  -299.850E-03,   354.070E-09
C:/temp/dataset/2/30_1.odb,Step-1,Increment      1: Step Time =    1.000,"PART-1-1",           267,       13.7195,       12.1790,            0.,NA,NA,"",   562.858E-03,   464.163E-03,  -318.374E-03,   589.738E-09
C:/temp/dataset/2/30_1.odb,Step-1,Increment      1: Step Time =    1.000,"PART-1-1",           268,           15.,       13.9583,            0.,NA,NA,"",   593.090E-03,   488.589E-03,  -336.209E-03,   768.200E-09
C:/temp/dataset/2/30_1.odb,Step-1,Increment      1: Step Time =    1.000,"PART-1-1",           269,       13.6495,       15.1098,            0.,NA,NA,"",   596.280E-03,   504.605E-03,  -317.685E-03,   527.696E-09
C:/temp/dataset/2/30_1.odb,Step-1,Increment      1: Step Time =    1.000,"PART-1-1",           270,       12.5214,       4.81657,            0.,NA,NA,"",   471.420E-03,   362.694E-03,  -301.147E-03,   479.963E-09
C:/temp/dataset/2/30_1.odb,Step-1,Increment      1: Step Time =    1.000,"PART-1-1",           271,       13.7670,       3.58604,            0.,NA,NA,"",   469.785E-03,   345.596E-03,  -318.216E-03,   560.775E-09
C:/temp/dataset/2/30_1.odb,Step-1,Increment      1: Step Time =    1.000,"PART-1-1",           272,           15.,       5.20833,            0.,NA,NA,"",   497.800E-03,   367.863E-03,  -335.383E-03,   786.150E-09
C:/temp/dataset/2/30_1.odb,Step-1,Increment      1: Step Time =    1.000,"PART-1-1",           273,       13.7545,       6.43886,            0.,NA,NA,"",   499.518E-03,   384.961E-03,  -318.313E-03,   661.105E-09
C:/temp/dataset/2/30_1.odb,Step-1,Increment      1: Step Time =    1.000,"PART-1-1",           274,       13.7625,      -2.13133,            0.,NA,NA,"",   414.739E-03,   266.704E-03,  -317.611E-03,   165.457E-09
C:/temp/dataset/2/30_1.odb,Step-1,Increment      1: Step Time =    1.000,"PART-1-1",           275,       12.5125,      -3.58966,            0.,NA,NA,"",   388.582E-03,   246.700E-03,  -300.225E-03,   125.585E-09
C:/temp/dataset/2/30_1.odb,Step-1,Increment      1: Step Time =    1.000,"PART-1-1",           276,         13.75,           -5.,            0.,NA,NA,"",   390.100E-03,   227.122E-03,  -317.165E-03,   68.4426E-09
C:/temp/dataset/2/30_1.odb,Step-1,Increment      1: Step Time =    1.000,"PART-1-1",           277,           15.,      -3.54167,            0.,NA,NA,"",   415.928E-03,   247.126E-03,  -334.552E-03,   62.2944E-09
C:/temp/dataset/2/30_1.odb,Step-1,Increment      1: Step Time =    1.000,"PART-1-1",           278,      -9.21387,      -6.21191,            0.,NA,NA,"",   211.972E-03,   211.971E-03,  -512.855E-06,   698.867E-06
C:/temp/dataset/2/30_1.odb,Step-1,Increment      1: Step Time =    1.000,"PART-1-1",           279,      -8.44405,      -4.75360,            0.,NA,NA,"",   232.780E-03,   232.521E-03,  -10.9695E-03,   347.166E-06
C:/temp/dataset/2/30_1.odb,Step-1,Increment      1: Step Time =    1.000,"PART-1-1",           280,      -9.71477,      -4.17886,            0.,NA,NA,"",   241.047E-03,   240.964E-03,   6.32890E-03,   363.105E-06
C:/temp/dataset/2/30_1.odb,Step-1,Increment      1: Step Time =    1.000,"PART-1-1",           281,      -10.4846,      -5.63717,            0.,NA,NA,"",   221.400E-03,   220.777E-03,   16.5984E-03,   716.262E-06
C:/temp/dataset/2/30_1.odb,Step-1,Increment      1: Step Time =    1.000,"PART-1-1",           282,      -5.84282,   107.969E-03,            0.,NA,NA,"",   303.271E-03,   299.570E-03,  -47.2335E-03,   36.7013E-06
C:/temp/dataset/2/30_1.odb,Step-1,Increment      1: Step Time =    1.000,"PART-1-1",           283,      -4.64047,       1.60743,            0.,NA,NA,"",   326.411E-03,   320.081E-03,  -63.9700E-03,   29.1705E-06
C:/temp/dataset/2/30_1.odb,Step-1,Increment      1: Step Time =    1.000,"PART-1-1",           284,      -6.45702,       2.58989,            0.,NA,NA,"",   336.039E-03,   333.768E-03,  -38.9933E-03,   25.9426E-06
C:/temp/dataset/2/30_1.odb,Step-1,Increment      1: Step Time =    1.000,"PART-1-1",           285,      -7.65937,       1.09043,            0.,NA,NA,"",   314.064E-03,   313.274E-03,  -22.2736E-03,   23.4376E-06
C:/temp/dataset/2/30_1.odb,Step-1,Increment      1: Step Time =    1.000,"PART-1-1",           286,      -6.51044,      -5.43697,            0.,NA,NA,"",   225.701E-03,   222.581E-03,  -37.3946E-03,   272.680E-06
C:/temp/dataset/2/30_1.odb,Step-1,Increment      1: Step Time =    1.000,"PART-1-1",           287,      -5.48201,      -3.85122,            0.,NA,NA,"",   250.239E-03,   244.793E-03,  -51.9197E-03,   55.5850E-06
C:/temp/dataset/2/30_1.odb,Step-1,Increment      1: Step Time =    1.000,"PART-1-1",           288,      -7.41561,      -3.16785,            0.,NA,NA,"",   255.773E-03,   254.526E-03,  -25.2330E-03,   115.629E-06
C:/temp/dataset/2/30_1.odb,Step-1,Increment      1: Step Time =    1.000,"PART-1-1",           289,      -12.6742,      -10.6472,            0.,NA,NA,"",   154.972E-03,   148.987E-03,   42.6513E-03,   2.09720E-03
C:/temp/dataset/2/30_1.odb,Step-1,Increment      1: Step Time =    1.000,"PART-1-1",           290,      -11.3911,      -11.6978,            0.,NA,NA,"",   134.390E-03,   131.895E-03,   25.7773E-03,   2.13989E-03
C:/temp/dataset/2/30_1.odb,Step-1,Increment      1: Step Time =    1.000,"PART-1-1",           291,      -10.2167,      -10.1126,            0.,NA,NA,"",   155.414E-03,   154.943E-03,   12.1018E-03,   1.78668E-03
C:/temp/dataset/2/30_1.odb,Step-1,Increment      1: Step Time =    1.000,"PART-1-1",           292,      -11.4997,      -9.06207,            0.,NA,NA,"",   174.019E-03,   171.629E-03,   28.7365E-03,   1.58408E-03
C:/temp/dataset/2/30_1.odb,Step-1,Increment      1: Step Time =    1.000,"PART-1-1",           293,      -13.7107,      -15.1438,            0.,NA,NA,"",   97.4660E-03,   84.5703E-03,   48.4509E-03,   2.95235E-03
C:/temp/dataset/2/30_1.odb,Step-1,Increment      1: Step Time =    1.000,"PART-1-1",           294,      -12.5249,      -13.4434,            0.,NA,NA,"",   113.374E-03,   106.967E-03,   37.5718E-03,   2.41868E-03
C:/temp/dataset/2/30_1.odb,Step-1,Increment      1: Step Time =    1.000,"PART-1-1",           295,      -13.8143,      -12.2579,            0.,NA,NA,"",   137.675E-03,   126.065E-03,   55.3367E-03,   2.34842E-03
C:/temp/dataset/2/30_1.odb,Step-1,Increment      1: Step Time =    1.000,"PART-1-1",           296,          -15.,      -13.9583,            0.,NA,NA,"",   122.945E-03,   102.442E-03,   67.9791E-03,   3.26420E-03
C:/temp/dataset/2/30_1.odb,Step-1,Increment      1: Step Time =    1.000,"PART-1-1",           297,      -12.0988,      -16.5012,            0.,NA,NA,"",   71.5822E-03,   65.5884E-03,   28.6734E-03,   2.43674E-03
C:/temp/dataset/2/30_1.odb,Step-1,Increment      1: Step Time =    1.000,"PART-1-1",           298,      -10.5811,      -17.2344,            0.,NA,NA,"",   57.3492E-03,   55.6015E-03,   14.0501E-03,   2.08461E-03
C:/temp/dataset/2/30_1.odb,Step-1,Increment      1: Step Time =    1.000,"PART-1-1",           299,      -9.66362,      -15.1575,            0.,NA,NA,"",   81.6267E-03,   81.4055E-03,   6.00552E-03,   2.40517E-03
C:/temp/dataset/2/30_1.odb,Step-1,Increment      1: Step Time =    1.000,"PART-1-1",           300,      -11.1813,      -14.4243,            0.,NA,NA,"",   94.5246E-03,   92.0032E-03,   21.6866E-03,   2.28189E-03
C:/temp/dataset/2/30_1.odb,Step-1,Increment      1: Step Time =    1.000,"PART-1-1",           301,      -10.5090,      -18.8394,            0.,NA,NA,"",   40.3262E-03,   38.4979E-03,   12.0049E-03,   1.90285E-03
C:/temp/dataset/2/30_1.odb,Step-1,Increment      1: Step Time =    1.000,"PART-1-1",           302,      -8.88448,      -18.7076,            0.,NA,NA,"",   38.3269E-03,   38.3269E-03,   3.05398E-06,   2.16956E-03
C:/temp/dataset/2/30_1.odb,Step-1,Increment      1: Step Time =    1.000,"PART-1-1",           303,      -8.95657,      -17.1026,            0.,NA,NA,"",   56.3160E-03,   56.3157E-03,   202.522E-06,   2.61048E-03
C:/temp/dataset/2/30_1.odb,Step-1,Increment      1: Step Time =    1.000,"PART-1-1",           304,      -8.08225,      -19.7831,            0.,NA,NA,"",   28.1716E-03,   27.7034E-03,  -5.11456E-03,   2.09061E-03
C:/temp/dataset/2/30_1.odb,Step-1,Increment      1: Step Time =    1.000,"PART-1-1",           305,      -6.89084,      -18.8787,            0.,NA,NA,"",   37.5833E-03,   35.0836E-03,  -13.4775E-03,   3.36949E-03
C:/temp/dataset/2/30_1.odb,Step-1,Increment      1: Step Time =    1.000,"PART-1-1",           306,      -7.69307,      -17.8032,            0.,NA,NA,"",   48.8655E-03,   47.9288E-03,  -9.52172E-03,   3.28108E-03
C:/temp/dataset/2/30_1.odb,Step-1,Increment      1: Step Time =    1.000,"PART-1-1",           307,       7.10093,      -24.9223,            0.,NA,NA,"",   5.08569E-03,   5.08561E-03,  -29.0808E-06,   589.032E-06
C:/temp/dataset/2/30_1.odb,Step-1,Increment      1: Step Time =    1.000,"PART-1-1",           308,       8.59925,      -23.6815,            0.,NA,NA,"",   5.49630E-03,   5.49603E-03,   54.6814E-06,   378.512E-06
C:/temp/dataset/2/30_1.odb,Step-1,Increment      1: Step Time =    1.000,"PART-1-1",           309,       6.88316,      -22.4353,            0.,NA,NA,"",   6.47408E-03,   6.46972E-03,   237.577E-06,   382.739E-06
C:/temp/dataset/2/30_1.odb,Step-1,Increment      1: Step Time =    1.000,"PART-1-1",           310,       5.38484,      -23.6762,            0.,NA,NA,"",   6.41875E-03,   6.41851E-03,  -55.1012E-06,   578.286E-06
C:/temp/dataset/2/30_1.odb,Step-1,Increment      1: Step Time =    1.000,"PART-1-1",           311,       13.3798,      -22.4744,            0.,NA,NA,"",   5.81879E-03,   5.70163E-03,  -1.16175E-03,   40.8558E-06
C:/temp/dataset/2/30_1.odb,Step-1,Increment      1: Step Time =    1.000,"PART-1-1",           312,           15.,        -21.25,            0.,NA,NA,"",   6.52796E-03,   6.24955E-03,  -1.88609E-03,   14.3004E-06
C:/temp/dataset/2/30_1.odb,Step-1,Increment      1: Step Time =    1.000,"PART-1-1",           313,       13.3333,          -20.,            0.,NA,NA,"",   6.87629E-03,   6.77848E-03,  -1.15571E-03,   15.2582E-06
C:/temp/dataset/2/30_1.odb,Step-1,Increment      1: Step Time =    1.000,"PART-1-1",           314,       11.7131,      -21.2244,            0.,NA,NA,"",   6.31182E-03,   6.29033E-03,  -520.367E-06,   43.9968E-06
C:/temp/dataset/2/30_1.odb,Step-1,Increment      1: Step Time =    1.000,"PART-1-1",           315,      -2.14863,       2.00914,            0.,NA,NA,"",   339.925E-03,   325.365E-03,  -98.4202E-03,   14.3796E-06
C:/temp/dataset/2/30_1.odb,Step-1,Increment      1: Step Time =    1.000,"PART-1-1",           316,      -1.66393,   575.985E-03,            0.,NA,NA,"",   323.084E-03,   305.550E-03,  -104.987E-03,   14.9738E-06
C:/temp/dataset/2/30_1.odb,Step-1,Increment      1: Step Time =    1.000,"PART-1-1",           317,   135.628E-03,       1.10435,            0.,NA,NA,"",   338.559E-03,   312.657E-03,  -129.878E-03,   7.69414E-06
C:/temp/dataset/2/30_1.odb,Step-1,Increment      1: Step Time =    1.000,"PART-1-1",           318,  -349.073E-03,       2.53751,            0.,NA,NA,"",   354.610E-03,   332.477E-03,  -123.317E-03,   7.65835E-06
C:/temp/dataset/2/30_1.odb,Step-1,Increment      1: Step Time =    1.000,"PART-1-1",           319,   156.145E-03,      -1.87787,            0.,NA,NA,"",   300.970E-03,   271.496E-03,  -129.895E-03,   8.24509E-06
C:/temp/dataset/2/30_1.odb,Step-1,Increment      1: Step Time =    1.000,"PART-1-1",           320,       1.21010,      -2.70880,            0.,NA,NA,"",   297.322E-03,   259.926E-03,  -144.356E-03,   3.67417E-06
C:/temp/dataset/2/30_1.odb,Step-1,Increment      1: Step Time =    1.000,"PART-1-1",           321,       2.32846,      -1.50081,            0.,NA,NA,"",   319.398E-03,   276.491E-03,  -159.900E-03,   1.43720E-06
C:/temp/dataset/2/30_1.odb,Step-1,Increment      1: Step Time =    1.000,"PART-1-1",           322,       1.27451,  -669.883E-03,            0.,NA,NA,"",   322.691E-03,   288.059E-03,  -145.435E-03,   5.30674E-06
C:/temp/dataset/2/30_1.odb,Step-1,Increment      1: Step Time =    1.000,"PART-1-1",           323,       4.87500,      -1.23074,            0.,NA,NA,"",   341.228E-03,   279.976E-03,  -195.064E-03,   628.836E-09
C:/temp/dataset/2/30_1.odb,Step-1,Increment      1: Step Time =    1.000,"PART-1-1",           324,       6.20088,      -2.43579,            0.,NA,NA,"",   338.760E-03,   263.221E-03,  -213.244E-03,   660.565E-09
C:/temp/dataset/2/30_1.odb,Step-1,Increment      1: Step Time =    1.000,"PART-1-1",           325,       7.44880,      -1.07477,            0.,NA,NA,"",   364.187E-03,   281.884E-03,  -230.594E-03,   566.259E-09
C:/temp/dataset/2/30_1.odb,Step-1,Increment      1: Step Time =    1.000,"PART-1-1",           326,       6.12293,   130.279E-03,            0.,NA,NA,"",   366.475E-03,   298.638E-03,  -212.413E-03,   535.588E-09
C:/temp/dataset/2/30_1.odb,Step-1,Increment      1: Step Time =    1.000,"PART-1-1",           327,          8.75,           -5.,            0.,NA,NA,"",   336.735E-03,   227.597E-03,  -248.173E-03,   400.245E-09
C:/temp/dataset/2/30_1.odb,Step-1,Increment      1: Step Time =    1.000,"PART-1-1",           328,       10.0063,      -3.63741,            0.,NA,NA,"",   362.240E-03,   246.280E-03,  -265.639E-03,   298.193E-09
C:/temp/dataset/2/30_1.odb,Step-1,Increment      1: Step Time =    1.000,"PART-1-1",           329,       8.73716,      -2.32557,            0.,NA,NA,"",   362.753E-03,   264.502E-03,  -248.251E-03,   449.198E-09
C:/temp/dataset/2/30_1.odb,Step-1,Increment      1: Step Time =    1.000,"PART-1-1",           330,       7.48081,      -3.68816,            0.,NA,NA,"",   337.178E-03,   245.819E-03,  -230.786E-03,   470.800E-09
C:/temp/dataset/2/30_1.odb,Step-1,Increment      1: Step Time =    1.000,"PART-1-1",           331,       6.24109,       7.72904,            0.,NA,NA,"",   457.079E-03,   403.479E-03,  -214.769E-03,   731.080E-09
C:/temp/dataset/2/30_1.odb,Step-1,Increment      1: Step Time =    1.000,"PART-1-1",           332,            5.,          6.25,            0.,NA,NA,"",   431.094E-03,   383.190E-03,  -197.503E-03,   1.33386E-06
C:/temp/dataset/2/30_1.odb,Step-1,Increment      1: Step Time =    1.000,"PART-1-1",           333,       6.24095,       5.17046,            0.,NA,NA,"",   426.115E-03,   368.177E-03,  -214.522E-03,   1.06467E-06
C:/temp/dataset/2/30_1.odb,Step-1,Increment      1: Step Time =    1.000,"PART-1-1",           334,       7.48203,       6.64950,            0.,NA,NA,"",   452.362E-03,   388.466E-03,  -231.788E-03,   364.428E-09
C:/temp/dataset/2/30_1.odb,Step-1,Increment      1: Step Time =    1.000,"PART-1-1",           335,       7.34508,       23.6052,            0.,NA,NA,"",   664.070E-03,   622.406E-03,  -231.518E-03,   285.346E-09
C:/temp/dataset/2/30_1.odb,Step-1,Increment      1: Step Time =    1.000,"PART-1-1",           336,       6.41056,       24.2397,            0.,NA,NA,"",   668.054E-03,   631.247E-03,  -218.686E-03,   245.935E-09
C:/temp/dataset/2/30_1.odb,Step-1,Increment      1: Step Time =    1.000,"PART-1-1",           337,       6.08150,       22.9932,            0.,NA,NA,"",   650.312E-03,   614.083E-03,  -214.027E-03,   267.932E-09
C:/temp/dataset/2/30_1.odb,Step-1,Increment      1: Step Time =    1.000,"PART-1-1",           338,       7.01602,       22.3587,            0.,NA,NA,"",   646.361E-03,   605.242E-03,  -226.859E-03,   301.579E-09
C:/temp/dataset/2/30_1.odb,Step-1,Increment      1: Step Time =    1.000,"PART-1-1",           339,      -12.5005,       23.7291,            0.,NA,NA,"",   627.427E-03,   626.004E-03,   42.2345E-03,   75.9242E-09
C:/temp/dataset/2/30_1.odb,Step-1,Increment      1: Step Time =    1.000,"PART-1-1",           340,      -13.7489,       24.9883,            0.,NA,NA,"",   646.222E-03,   643.493E-03,   59.3351E-03,   70.6975E-09
C:/temp/dataset/2/30_1.odb,Step-1,Increment      1: Step Time =    1.000,"PART-1-1",           341,          -15.,         23.75,            0.,NA,NA,"",   631.209E-03,   626.530E-03,   76.7113E-03,   50.2540E-09
C:/temp/dataset/2/30_1.odb,Step-1,Increment      1: Step Time =    1.000,"PART-1-1",           342,      -2.52491,       26.1674,            0.,NA,NA,"",   665.592E-03,   658.690E-03,  -95.6053E-03,   75.9171E-09
C:/temp/dataset/2/30_1.odb,Step-1,Increment      1: Step Time =    1.000,"PART-1-1",           343,      -1.30373,       24.8780,            0.,NA,NA,"",   650.558E-03,   640.787E-03,  -112.328E-03,   82.3941E-09
C:/temp/dataset/2/30_1.odb,Step-1,Increment      1: Step Time =    1.000,"PART-1-1",           344,      -1.26817,       27.4122,            0.,NA,NA,"",   685.134E-03,   675.741E-03,  -113.060E-03,   132.681E-09
C:/temp/dataset/2/30_1.odb,Step-1,Increment      1: Step Time =    1.000,"PART-1-1",           345,       2.31009,       23.4917,            0.,NA,NA,"",   642.104E-03,   621.319E-03,  -162.048E-03,   165.525E-09
C:/temp/dataset/2/30_1.odb,Step-1,Increment      1: Step Time =    1.000,"PART-1-1",           346,       3.41051,       22.2101,            0.,NA,NA,"",   628.983E-03,   603.534E-03,  -177.106E-03,   220.228E-09
C:/temp/dataset/2/30_1.odb,Step-1,Increment      1: Step Time =    1.000,"PART-1-1",           347,       4.46987,       23.2845,            0.,NA,NA,"",   647.330E-03,   618.255E-03,  -191.822E-03,   189.477E-09
C:/temp/dataset/2/30_1.odb,Step-1,Increment      1: Step Time =    1.000,"PART-1-1",           348,       3.36945,       24.5662,            0.,NA,NA,"",   660.147E-03,   636.041E-03,  -176.764E-03,   122.439E-09
C:/temp/dataset/2/30_1.odb,Step-1,Increment      1: Step Time =    1.000,"PART-1-1",           349,       3.92627,       27.0683,            0.,NA,NA,"",   695.474E-03,   670.505E-03,  -184.684E-03,   171.507E-09
C:/temp/dataset/2/30_1.odb,Step-1,Increment      1: Step Time =    1.000,"PART-1-1",           350,       5.16355,       28.4353,            0.,NA,NA,"",   718.203E-03,   689.245E-03,  -201.883E-03,   254.163E-09
C:/temp/dataset/2/30_1.odb,Step-1,Increment      1: Step Time =    1.000,"PART-1-1",           351,          3.75,           30.,            0.,NA,NA,"",   734.022E-03,   710.964E-03,  -182.532E-03,   348.460E-09
C:/temp/dataset/2/30_1.odb,Step-1,Increment      1: Step Time =    1.000,"PART-1-1",           352,       2.51272,       28.6330,            0.,NA,NA,"",   711.694E-03,   692.223E-03,  -165.333E-03,   253.010E-09
C:/temp/dataset/2/30_1.odb,Step-1,Increment      1: Step Time =    1.000,"PART-1-1",           353,       11.0463,       14.3537,            0.,NA,NA,"",   569.041E-03,   494.422E-03,  -281.699E-03,   145.954E-09
C:/temp/dataset/2/30_1.odb,Step-1,Increment      1: Step Time =    1.000,"PART-1-1",           354,       9.86747,       12.5470,            0.,NA,NA,"",   539.347E-03,   469.607E-03,  -265.263E-03,   91.6762E-09
C:/temp/dataset/2/30_1.odb,Step-1,Increment      1: Step Time =    1.000,"PART-1-1",           355,       11.1901,       11.5237,            0.,NA,NA,"",   536.358E-03,   455.364E-03,  -283.415E-03,   181.406E-09
C:/temp/dataset/2/30_1.odb,Step-1,Increment      1: Step Time =    1.000,"PART-1-1",           356,       9.55073,       15.1783,            0.,NA,NA,"",   569.361E-03,   505.940E-03,  -261.144E-03,   113.049E-09
C:/temp/dataset/2/30_1.odb,Step-1,Increment      1: Step Time =    1.000,"PART-1-1",           357,       8.18591,       15.9712,            0.,NA,NA,"",   571.009E-03,   517.010E-03,  -242.390E-03,   285.110E-09
C:/temp/dataset/2/30_1.odb,Step-1,Increment      1: Step Time =    1.000,"PART-1-1",           358,       7.20669,       14.2932,            0.,NA,NA,"",   544.335E-03,   493.951E-03,  -228.720E-03,   449.128E-09
C:/temp/dataset/2/30_1.odb,Step-1,Increment      1: Step Time =    1.000,"PART-1-1",           359,       8.57151,       13.5002,            0.,NA,NA,"",   542.603E-03,   482.882E-03,  -247.474E-03,   258.626E-09
C:/temp/dataset/2/30_1.odb,Step-1,Increment      1: Step Time =    1.000,"PART-1-1",           360,       7.44377,       1.50598,            0.,NA,NA,"",   392.503E-03,   317.496E-03,  -230.770E-03,   726.594E-09
C:/temp/dataset/2/30_1.odb,Step-1,Increment      1: Step Time =    1.000,"PART-1-1",           361,       8.72836,   326.342E-03,            0.,NA,NA,"",   390.324E-03,   301.096E-03,  -248.383E-03,   652.620E-09
C:/temp/dataset/2/30_1.odb,Step-1,Increment      1: Step Time =    1.000,"PART-1-1",           362,       10.0261,       1.76283,            0.,NA,NA,"",   417.004E-03,   320.795E-03,  -266.426E-03,   607.096E-09
C:/temp/dataset/2/30_1.odb,Step-1,Increment      1: Step Time =    1.000,"PART-1-1",           363,       8.74149,       2.94246,            0.,NA,NA,"",   419.057E-03,   337.195E-03,  -248.813E-03,   670.115E-09
C:/temp/dataset/2/30_1.odb,Step-1,Increment      1: Step Time =    1.000,"PART-1-1",           364,       12.5045,       7.62102,            0.,NA,NA,"",   501.820E-03,   401.391E-03,  -301.179E-03,   436.065E-09
C:/temp/dataset/2/30_1.odb,Step-1,Increment      1: Step Time =    1.000,"PART-1-1",           365,           15.,         8.125,            0.,NA,NA,"",   528.410E-03,   408.107E-03,  -335.658E-03,   876.866E-09
C:/temp/dataset/2/30_1.odb,Step-1,Increment      1: Step Time =    1.000,"PART-1-1",           366,       13.7500,       9.30715,            0.,NA,NA,"",   530.744E-03,   424.537E-03,  -318.524E-03,   645.870E-09
C:/temp/dataset/2/30_1.odb,Step-1,Increment      1: Step Time =    1.000,"PART-1-1",           367,      -1.45938,      -2.40358,            0.,NA,NA,"",   285.440E-03,   264.397E-03,  -107.565E-03,   22.0763E-06
C:/temp/dataset/2/30_1.odb,Step-1,Increment      1: Step Time =    1.000,"PART-1-1",           368,      -2.69869,      -3.52952,            0.,NA,NA,"",   264.854E-03,   248.956E-03,  -90.3824E-03,   21.6201E-06
C:/temp/dataset/2/30_1.odb,Step-1,Increment      1: Step Time =    1.000,"PART-1-1",           369,         -1.25,           -5.,            0.,NA,NA,"",   253.725E-03,   228.544E-03,  -110.200E-03,   15.4692E-06
C:/temp/dataset/2/30_1.odb,Step-1,Increment      1: Step Time =    1.000,"PART-1-1",           370,  -10.6917E-03,      -3.87406,            0.,NA,NA,"",   275.225E-03,   243.962E-03,  -127.403E-03,   4.36258E-06
C:/temp/dataset/2/30_1.odb,Step-1,Increment      1: Step Time =    1.000,"PART-1-1",           371,      -13.3333,            5.,            0.,NA,NA,"",   371.395E-03,   367.299E-03,   55.0045E-03,   14.6471E-06
C:/temp/dataset/2/30_1.odb,Step-1,Increment      1: Step Time =    1.000,"PART-1-1",           372,          -15.,       3.54167,            0.,NA,NA,"",   356.131E-03,   347.502E-03,   77.9202E-03,   16.7186E-06
C:/temp/dataset/2/30_1.odb,Step-1,Increment      1: Step Time =    1.000,"PART-1-1",           373,      -13.2137,       2.05352,            0.,NA,NA,"",   331.317E-03,   326.946E-03,   53.6397E-03,   40.7207E-06
C:/temp/dataset/2/30_1.odb,Step-1,Increment      1: Step Time =    1.000,"PART-1-1",           374,      -11.5470,       3.51185,            0.,NA,NA,"",   348.156E-03,   346.795E-03,   30.7557E-03,   41.1181E-06
C:/temp/dataset/2/30_1.odb,Step-1,Increment      1: Step Time =    1.000,"PART-1-1",           375,          -15.,      625.E-03,            0.,NA,NA,"",   317.343E-03,   307.588E-03,   78.0786E-03,   70.5328E-06
C:/temp/dataset/2/30_1.odb,Step-1,Increment      1: Step Time =    1.000,"PART-1-1",           376,      -12.9883,      -1.02354,            0.,NA,NA,"",   289.393E-03,   284.895E-03,   50.8261E-03,   70.0857E-06
C:/temp/dataset/2/30_1.odb,Step-1,Increment      1: Step Time =    1.000,"PART-1-1",           377,      -11.2019,   404.974E-03,            0.,NA,NA,"",   305.341E-03,   304.198E-03,   26.3999E-03,   46.1000E-06
C:/temp/dataset/2/30_1.odb,Step-1,Increment      1: Step Time =    1.000,"PART-1-1",           378,      -13.6690,      -3.88141,            0.,NA,NA,"",   254.187E-03,   246.952E-03,   60.2104E-03,   568.409E-06
C:/temp/dataset/2/30_1.odb,Step-1,Increment      1: Step Time =    1.000,"PART-1-1",           379,      -11.6573,      -2.61328,            0.,NA,NA,"",   265.218E-03,   263.174E-03,   32.8590E-03,   250.811E-06
C:/temp/dataset/2/30_1.odb,Step-1,Increment      1: Step Time =    1.000,"PART-1-1",           380,          -15.,      -2.29167,            0.,NA,NA,"",   279.137E-03,   268.039E-03,   77.9258E-03,   158.362E-06
C:/temp/dataset/2/30_1.odb,Step-1,Increment      1: Step Time =    1.000,"PART-1-1",           381,           -5.,         -8.75,            0.,NA,NA,"",   184.027E-03,   174.856E-03,  -57.3679E-03,   740.545E-06
C:/temp/dataset/2/30_1.odb,Step-1,Increment      1: Step Time =    1.000,"PART-1-1",           382,      -6.37238,      -7.84264,            0.,NA,NA,"",   191.796E-03,   187.888E-03,  -38.5189E-03,   599.064E-06
C:/temp/dataset/2/30_1.odb,Step-1,Increment      1: Step Time =    1.000,"PART-1-1",           383,      -7.67841,      -9.42411,            0.,NA,NA,"",   165.812E-03,   164.582E-03,  -20.1619E-03,   1.28815E-03
C:/temp/dataset/2/30_1.odb,Step-1,Increment      1: Step Time =    1.000,"PART-1-1",           384,      -6.30603,      -10.3315,            0.,NA,NA,"",   156.067E-03,   151.453E-03,  -37.6680E-03,   1.17517E-03
C:/temp/dataset/2/30_1.odb,Step-1,Increment      1: Step Time =    1.000,"PART-1-1",           385,      -13.6103,      -21.3688,            0.,NA,NA,"",   36.2651E-03,   23.2685E-03,   27.8161E-03,   4.07133E-03
C:/temp/dataset/2/30_1.odb,Step-1,Increment      1: Step Time =    1.000,"PART-1-1",           386,          -15.,      -22.7083,            0.,NA,NA,"",   35.4180E-03,   18.8768E-03,   29.9684E-03,   5.22496E-03
C:/temp/dataset/2/30_1.odb,Step-1,Increment      1: Step Time =    1.000,"PART-1-1",           387,      -13.6241,      -24.2925,            0.,NA,NA,"",   20.1365E-03,   9.71038E-03,   17.6405E-03,   3.84576E-03
C:/temp/dataset/2/30_1.odb,Step-1,Increment      1: Step Time =    1.000,"PART-1-1",           388,      -12.2343,      -22.9530,            0.,NA,NA,"",   19.9428E-03,   12.6804E-03,   15.3923E-03,   2.71395E-03
C:/temp/dataset/2/30_1.odb,Step-1,Increment      1: Step Time =    1.000,"PART-1-1",           389,           -5.,        -16.25,            0.,NA,NA,"",   82.4559E-03,   70.8321E-03,  -42.2114E-03,   4.24429E-03
C:/temp/dataset/2/30_1.odb,Step-1,Increment      1: Step Time =    1.000,"PART-1-1",           390,      -6.06585,      -15.2329,            0.,NA,NA,"",   88.4304E-03,   82.3595E-03,  -32.2002E-03,   3.00435E-03
C:/temp/dataset/2/30_1.odb,Step-1,Increment      1: Step Time =    1.000,"PART-1-1",           391,      -6.99530,      -16.6022,            0.,NA,NA,"",   65.7873E-03,   63.1559E-03,  -18.4199E-03,   3.38703E-03
C:/temp/dataset/2/30_1.odb,Step-1,Increment      1: Step Time =    1.000,"PART-1-1",           392,      -5.92946,      -17.6192,            0.,NA,NA,"",   57.3388E-03,   51.3387E-03,  -25.5358E-03,   4.37657E-03
C:/temp/dataset/2/30_1.odb,Step-1,Increment      1: Step Time =    1.000,"PART-1-1",           393,         -13.5,          -30.,            0.,NA,NA,"",            0.,  -613.924E-42,   5.89355E-39,   2.94856E-03
C:/temp/dataset/2/30_1.odb,Step-1,Increment      1: Step Time =    1.000,"PART-1-1",           394,      -12.0804,      -28.6247,            0.,NA,NA,"",   2.35104E-03,  -288.392E-06,   2.33329E-03,   2.15353E-03
C:/temp/dataset/2/30_1.odb,Step-1,Increment      1: Step Time =    1.000,"PART-1-1",           395,      -13.5804,      -27.1664,            0.,NA,NA,"",   8.59276E-03,   2.93155E-03,   8.07722E-03,   3.53992E-03
C:/temp/dataset/2/30_1.odb,Step-1,Increment      1: Step Time =    1.000,"PART-1-1",           396,          -15.,      -28.5417,            0.,NA,NA,"",   6.30179E-03,   3.56123E-03,   5.19906E-03,   4.25247E-03
C:/temp/dataset/2/30_1.odb,Step-1,Increment      1: Step Time =    1.000,"PART-1-1",           397,          13.5,          -30.,            0.,NA,NA,"",            0.,   301.098E-42,  -866.932E-42,   725.541E-06
C:/temp/dataset/2/30_1.odb,Step-1,Increment      1: Step Time =    1.000,"PART-1-1",           398,           15.,        -28.75,            0.,NA,NA,"",   1.55406E-03,   1.26513E-03,  -902.520E-06,   693.750E-06
C:/temp/dataset/2/30_1.odb,Step-1,Increment      1: Step Time =    1.000,"PART-1-1",           399,       13.4640,      -27.4843,            0.,NA,NA,"",   2.28652E-03,   2.19639E-03,  -635.651E-06,   406.269E-06
C:/temp/dataset/2/30_1.odb,Step-1,Increment      1: Step Time =    1.000,"PART-1-1",           400,       11.9640,      -28.7343,            0.,NA,NA,"",   1.06824E-03,   1.05130E-03,  -189.462E-06,   556.945E-06
C:/temp/dataset/2/30_1.odb,Step-1,Increment      1: Step Time =    1.000,"PART-1-1",           401,       10.2658,      -24.9335,            0.,NA,NA,"",   4.43288E-03,   4.42824E-03,  -202.796E-06,   396.111E-06
C:/temp/dataset/2/30_1.odb,Step-1,Increment      1: Step Time =    1.000,"PART-1-1",           402,       8.77397,      -26.1861,            0.,NA,NA,"",   3.71599E-03,   3.71426E-03,  -113.436E-06,   565.092E-06
C:/temp/dataset/2/30_1.odb,Step-1,Increment      1: Step Time =    1.000,"PART-1-1",           403,       10.3945,      -27.4590,            0.,NA,NA,"",   2.36660E-03,   2.35955E-03,  -182.497E-06,   583.365E-06
C:/temp/dataset/2/30_1.odb,Step-1,Increment      1: Step Time =    1.000,"PART-1-1",           404,       11.8863,      -26.2064,            0.,NA,NA,"",   3.34546E-03,   3.31434E-03,  -455.205E-06,   442.701E-06
C:/temp/dataset/2/30_1.odb,Step-1,Increment      1: Step Time =    1.000,"PART-1-1",           405,       8.93044,      -28.7247,            0.,NA,NA,"",   1.32132E-03,   1.31617E-03,  -116.486E-06,   664.002E-06
C:/temp/dataset/2/30_1.odb,Step-1,Increment      1: Step Time =    1.000,"PART-1-1",           406,       7.31300,      -27.4411,            0.,NA,NA,"",   2.86673E-03,   2.86217E-03,  -161.683E-06,   729.452E-06
C:/temp/dataset/2/30_1.odb,Step-1,Increment      1: Step Time =    1.000,"PART-1-1",           407,       5.88256,      -28.7164,            0.,NA,NA,"",   1.69575E-03,   1.68619E-03,  -179.798E-06,   859.875E-06
C:/temp/dataset/2/30_1.odb,Step-1,Increment      1: Step Time =    1.000,"PART-1-1",           408,           7.5,          -30.,            0.,NA,NA,"",            0.,   886.516E-42,  -449.197E-42,   803.940E-06
C:/temp/dataset/2/30_1.odb,Step-1,Increment      1: Step Time =    1.000,"PART-1-1",           409,       5.63995,      -26.1773,            0.,NA,NA,"",   4.51374E-03,   4.50658E-03,  -254.216E-06,   744.550E-06
C:/temp/dataset/2/30_1.odb,Step-1,Increment      1: Step Time =    1.000,"PART-1-1",           410,       3.92490,      -24.9166,            0.,NA,NA,"",   6.20467E-03,   6.18182E-03,  -532.100E-06,   864.615E-06
C:/temp/dataset/2/30_1.odb,Step-1,Increment      1: Step Time =    1.000,"PART-1-1",           411,       2.50142,      -26.1700,            0.,NA,NA,"",   5.58656E-03,   5.48990E-03,  -1.03476E-03,   1.05316E-03
C:/temp/dataset/2/30_1.odb,Step-1,Increment      1: Step Time =    1.000,"PART-1-1",           412,       4.21647,      -27.4307,            0.,NA,NA,"",   3.59987E-03,   3.57101E-03,  -454.892E-06,   945.306E-06
C:/temp/dataset/2/30_1.odb,Step-1,Increment      1: Step Time =    1.000,"PART-1-1",           413,       1.12659,      -27.4308,            0.,NA,NA,"",   4.32121E-03,   4.15233E-03,  -1.19624E-03,   1.25791E-03
C:/temp/dataset/2/30_1.odb,Step-1,Increment      1: Step Time =    1.000,"PART-1-1",           414,  -207.324E-03,      -28.7165,            0.,NA,NA,"",   2.34518E-03,   2.20016E-03,  -811.881E-06,   1.43484E-03
C:/temp/dataset/2/30_1.odb,Step-1,Increment      1: Step Time =    1.000,"PART-1-1",           415,           1.5,          -30.,            0.,NA,NA,"",            0.,   1.34744E-39,  -1.38294E-39,   1.29410E-03
C:/temp/dataset/2/30_1.odb,Step-1,Increment      1: Step Time =    1.000,"PART-1-1",           416,       2.83391,      -28.7143,            0.,NA,NA,"",   2.11624E-03,   2.07724E-03,  -404.426E-06,   1.13225E-03
C:/temp/dataset/2/30_1.odb,Step-1,Increment      1: Step Time =    1.000,"PART-1-1",           417,      -1.92078,      -27.4395,            0.,NA,NA,"",   4.52964E-03,   3.89789E-03,  -2.30740E-03,   1.62222E-03
C:/temp/dataset/2/30_1.odb,Step-1,Increment      1: Step Time =    1.000,"PART-1-1",           418,      -3.21345,      -28.7230,            0.,NA,NA,"",   1.97532E-03,   1.58227E-03,  -1.18251E-03,   1.54847E-03
C:/temp/dataset/2/30_1.odb,Step-1,Increment      1: Step Time =    1.000,"PART-1-1",           419,          -1.5,          -30.,            0.,NA,NA,"",            0.,   1.23052E-39,  -2.08766E-39,   1.34989E-03
C:/temp/dataset/2/30_1.odb,Step-1,Increment      1: Step Time =    1.000,"PART-1-1",           420,      -5.57419,      -22.4519,            0.,NA,NA,"",   16.8631E-03,   12.4029E-03,  -11.4251E-03,   2.95289E-03
C:/temp/dataset/2/30_1.odb,Step-1,Increment      1: Step Time =    1.000,"PART-1-1",           421,      -6.77537,      -23.6376,            0.,NA,NA,"",   10.6042E-03,   8.08443E-03,  -6.86224E-03,   1.99487E-03
C:/temp/dataset/2/30_1.odb,Step-1,Increment      1: Step Time =    1.000,"PART-1-1",           422,      -5.25528,      -24.9124,            0.,NA,NA,"",   9.04679E-03,   6.37290E-03,  -6.42111E-03,   2.15096E-03
C:/temp/dataset/2/30_1.odb,Step-1,Increment      1: Step Time =    1.000,"PART-1-1",           423,      -4.05411,      -23.7268,            0.,NA,NA,"",   12.7944E-03,   9.87329E-03,  -8.13727E-03,   2.98108E-03
C:/temp/dataset/2/30_1.odb,Step-1,Increment      1: Step Time =    1.000,"PART-1-1",           424,       13.4223,      -24.9720,            0.,NA,NA,"",   4.39738E-03,   4.26547E-03,  -1.06898E-03,   169.517E-06
C:/temp/dataset/2/30_1.odb,Step-1,Increment      1: Step Time =    1.000,"PART-1-1",           425,           15.,        -26.25,            0.,NA,NA,"",   3.88688E-03,   3.42423E-03,  -1.83915E-03,   216.969E-06
C:/temp/dataset/2/30_1.odb,Step-1,Increment      1: Step Time =    1.000,"PART-1-1",           426,       11.8021,      -23.6964,            0.,NA,NA,"",   5.11495E-03,   5.08611E-03,  -542.417E-06,   203.912E-06
C:/temp/dataset/2/30_1.odb,Step-1,Increment      1: Step Time =    1.000,"PART-1-1",           427,       10.1355,      -22.4445,            0.,NA,NA,"",   5.88046E-03,   5.87959E-03,  -101.179E-06,   195.898E-06
C:/temp/dataset/2/30_1.odb,Step-1,Increment      1: Step Time =    1.000,"PART-1-1",           428,      -2.31424,      -24.9364,            0.,NA,NA,"",   9.35564E-03,   7.85017E-03,  -5.08949E-03,   2.11306E-03
C:/temp/dataset/2/30_1.odb,Step-1,Increment      1: Step Time =    1.000,"PART-1-1",           429,      -3.63092,      -26.1962,            0.,NA,NA,"",   6.75303E-03,   5.09668E-03,  -4.43026E-03,   2.12844E-03
C:/temp/dataset/2/30_1.odb,Step-1,Increment      1: Step Time =    1.000,"PART-1-1",           430,  -604.096E-03,      -26.1796,            0.,NA,NA,"",   6.65452E-03,   6.08243E-03,  -2.69937E-03,   1.65029E-03
C:/temp/dataset/2/30_1.odb,Step-1,Increment      1: Step Time =    1.000,"PART-1-1",           431,      -7.52977,      -11.9021,            0.,NA,NA,"",   129.607E-03,   128.020E-03,  -20.2205E-03,   1.86855E-03
C:/temp/dataset/2/30_1.odb,Step-1,Increment      1: Step Time =    1.000,"PART-1-1",           432,      -6.22373,      -12.8207,            0.,NA,NA,"",   120.694E-03,   115.394E-03,  -35.3736E-03,   1.97061E-03
C:/temp/dataset/2/30_1.odb,Step-1,Increment      1: Step Time =    1.000,"PART-1-1",           433,           -5.,        -11.25,            0.,NA,NA,"",   149.130E-03,   138.737E-03,  -54.6958E-03,   1.64119E-03
C:/temp/dataset/2/30_1.odb,Step-1,Increment      1: Step Time =    1.000,"PART-1-1",           434,      -10.0475,      -12.6788,            0.,NA,NA,"",   117.001E-03,   116.590E-03,   9.80628E-03,   2.23217E-03
C:/temp/dataset/2/30_1.odb,Step-1,Increment      1: Step Time =    1.000,"PART-1-1",           435,           -5.,         -6.25,            0.,NA,NA,"",   218.826E-03,   210.895E-03,  -58.3790E-03,   190.176E-06
C:/temp/dataset/2/30_1.odb,Step-1,Increment      1: Step Time =    1.000,"PART-1-1",           436,      -7.88282,      -7.02961,            0.,NA,NA,"",   200.625E-03,   199.791E-03,  -18.2719E-03,   756.233E-06
C:/temp/dataset/2/30_1.odb,Step-1,Increment      1: Step Time =    1.000,"PART-1-1",           437,      -13.8577,      -6.65334,            0.,NA,NA,"",   218.091E-03,   209.196E-03,   61.6510E-03,   1.10713E-03
C:/temp/dataset/2/30_1.odb,Step-1,Increment      1: Step Time =    1.000,"PART-1-1",           438,      -12.5267,      -5.32641,            0.,NA,NA,"",   230.808E-03,   226.530E-03,   44.2306E-03,   897.982E-06
C:/temp/dataset/2/30_1.odb,Step-1,Increment      1: Step Time =    1.000,"PART-1-1",           439,          -15.,      -5.20833,            0.,NA,NA,"",   243.225E-03,   230.483E-03,   77.6903E-03,   863.198E-06
C:/temp/dataset/2/30_1.odb,Step-1,Increment      1: Step Time =    1.000,"PART-1-1",           440,          1.25,           -5.,            0.,NA,NA,"",   270.294E-03,   228.306E-03,  -144.688E-03,   3.07352E-06
C:/temp/dataset/2/30_1.odb,Step-1,Increment      1: Step Time =    1.000,"PART-1-1",           441,       2.47079,      -3.83474,            0.,NA,NA,"",   292.910E-03,   244.270E-03,  -161.643E-03,   1.18823E-06
C:/temp/dataset/2/30_1.odb,Step-1,Increment      1: Step Time =    1.000,"PART-1-1",           442,       3.51261,  -149.180E-03,            0.,NA,NA,"",   343.727E-03,   295.030E-03,  -176.367E-03,   1.08878E-06
C:/temp/dataset/2/30_1.odb,Step-1,Increment      1: Step Time =    1.000,"PART-1-1",           443,       3.69085,      -2.58237,            0.,NA,NA,"",   316.616E-03,   261.437E-03,  -178.596E-03,   1.05455E-06
C:/temp/dataset/2/30_1.odb,Step-1,Increment      1: Step Time =    1.000,"PART-1-1",           444,       8.74868,       5.55605,            0.,NA,NA,"",   448.779E-03,   373.258E-03,  -249.161E-03,   368.419E-09
C:/temp/dataset/2/30_1.odb,Step-1,Increment      1: Step Time =    1.000,"PART-1-1",           445,       10.0030,       7.12352,            0.,NA,NA,"",   476.366E-03,   394.766E-03,  -266.618E-03,   208.879E-09
C:/temp/dataset/2/30_1.odb,Step-1,Increment      1: Step Time =    1.000,"PART-1-1",           446,       8.73640,       8.21697,            0.,NA,NA,"",   479.793E-03,   409.973E-03,  -249.245E-03,   282.070E-09
C:/temp/dataset/2/30_1.odb,Step-1,Increment      1: Step Time =    1.000,"PART-1-1",           447,           15.,     -625.E-03,            0.,NA,NA,"",   441.241E-03,   287.372E-03,  -334.830E-03,   170.029E-09
C:/temp/dataset/2/30_1.odb,Step-1,Increment      1: Step Time =    1.000,"PART-1-1",           448,       13.7714,   731.820E-03,            0.,NA,NA,"",   441.467E-03,   306.211E-03,  -318.006E-03,   359.545E-09
C:/temp/dataset/2/30_1.odb,Step-1,Increment      1: Step Time =    1.000,"PART-1-1",           449,       12.5339,  -774.506E-03,            0.,NA,NA,"",   414.739E-03,   285.544E-03,  -300.788E-03,   376.313E-09
C:/temp/dataset/2/30_1.odb,Step-1,Increment      1: Step Time =    1.000,"PART-1-1",           450,       7.40609,       11.8257,            0.,NA,NA,"",   514.751E-03,   459.890E-03,  -231.235E-03,   455.018E-09
C:/temp/dataset/2/30_1.odb,Step-1,Increment      1: Step Time =    1.000,"PART-1-1",           451,       8.70206,       10.8725,            0.,NA,NA,"",   511.350E-03,   446.615E-03,  -249.024E-03,   266.002E-09
C:/temp/dataset/2/30_1.odb,Step-1,Increment      1: Step Time =    1.000,"PART-1-1",           452,       11.2454,       8.75341,            0.,NA,NA,"",   504.588E-03,   417.136E-03,  -283.913E-03,   244.551E-09
C:/temp/dataset/2/30_1.odb,Step-1,Increment      1: Step Time =    1.000,"PART-1-1",           453,       11.2622,       5.99112,            0.,NA,NA,"",   473.547E-03,   379.021E-03,  -283.883E-03,   376.581E-09
C:/temp/dataset/2/30_1.odb,Step-1,Increment      1: Step Time =    1.000,"PART-1-1",           454,       13.8596,       24.3693,            0.,NA,NA,"",   709.347E-03,   632.326E-03,  -321.462E-03,   224.288E-09
C:/temp/dataset/2/30_1.odb,Step-1,Increment      1: Step Time =    1.000,"PART-1-1",           455,       12.6110,       23.1199,            0.,NA,NA,"",   686.273E-03,   615.210E-03,  -304.118E-03,   271.834E-09
C:/temp/dataset/2/30_1.odb,Step-1,Increment      1: Step Time =    1.000,"PART-1-1",           456,       13.7514,       21.4590,            0.,NA,NA,"",   672.972E-03,   592.188E-03,  -319.694E-03,   370.480E-09
C:/temp/dataset/2/30_1.odb,Step-1,Increment      1: Step Time =    1.000,"PART-1-1",           457,           15.,       22.7083,            0.,NA,NA,"",   696.308E-03,   609.304E-03,  -337.037E-03,   376.844E-09
C:/temp/dataset/2/30_1.odb,Step-1,Increment      1: Step Time =    1.000,"PART-1-1",           458,       8.83903,       17.2613,            0.,NA,NA,"",   590.945E-03,   534.745E-03,  -251.523E-03,   165.681E-09
C:/temp/dataset/2/30_1.odb,Step-1,Increment      1: Step Time =    1.000,"PART-1-1",           459,       10.5130,       17.3338,            0.,NA,NA,"",   601.889E-03,   535.586E-03,  -274.624E-03,   126.122E-09
C:/temp/dataset/2/30_1.odb,Step-1,Increment      1: Step Time =    1.000,"PART-1-1",           460,       8.72284,       19.1442,            0.,NA,NA,"",   613.980E-03,   560.733E-03,  -250.100E-03,   175.666E-09
C:/temp/dataset/2/30_1.odb,Step-1,Increment      1: Step Time =    1.000,"PART-1-1",           461,           15.,       28.5417,            0.,NA,NA,"",   767.958E-03,   689.777E-03,  -337.591E-03,   59.3627E-09
C:/temp/dataset/2/30_1.odb,Step-1,Increment      1: Step Time =    1.000,"PART-1-1",           462,         13.75,           30.,            0.,NA,NA,"",   778.993E-03,   710.014E-03,  -320.486E-03,   64.1938E-09
C:/temp/dataset/2/30_1.odb,Step-1,Increment      1: Step Time =    1.000,"PART-1-1",           463,       12.5875,       28.6551,            0.,NA,NA,"",   755.567E-03,   691.572E-03,  -304.321E-03,   101.405E-09
C:/temp/dataset/2/30_1.odb,Step-1,Increment      1: Step Time =    1.000,"PART-1-1",           464,       13.8375,       27.1968,            0.,NA,NA,"",   744.315E-03,   671.335E-03,  -321.426E-03,   75.4529E-09
C:/temp/dataset/2/30_1.odb,Step-1,Increment      1: Step Time =    1.000,"PART-1-1",           465,         11.25,           30.,            0.,NA,NA,"",   765.671E-03,   710.252E-03,  -285.997E-03,   65.7426E-09
C:/temp/dataset/2/30_1.odb,Step-1,Increment      1: Step Time =    1.000,"PART-1-1",           466,       10.1484,       28.7335,            0.,NA,NA,"",   743.879E-03,   692.884E-03,  -270.679E-03,   162.736E-09
C:/temp/dataset/2/30_1.odb,Step-1,Increment      1: Step Time =    1.000,"PART-1-1",           467,       7.69941,       28.7139,            0.,NA,NA,"",   732.226E-03,   692.847E-03,  -236.892E-03,   227.273E-09
C:/temp/dataset/2/30_1.odb,Step-1,Increment      1: Step Time =    1.000,"PART-1-1",           468,       9.09777,       27.4473,            0.,NA,NA,"",   722.163E-03,   675.242E-03,  -256.063E-03,   240.684E-09
C:/temp/dataset/2/30_1.odb,Step-1,Increment      1: Step Time =    1.000,"PART-1-1",           469,          8.75,           30.,            0.,NA,NA,"",   753.692E-03,   710.490E-03,  -251.508E-03,   179.933E-09
C:/temp/dataset/2/30_1.odb,Step-1,Increment      1: Step Time =    1.000,"PART-1-1",           470,  -9.87333E-03,       28.6960,            0.,NA,NA,"",   705.514E-03,   693.332E-03,  -130.540E-03,   223.588E-09
C:/temp/dataset/2/30_1.odb,Step-1,Increment      1: Step Time =    1.000,"PART-1-1",           471,          1.25,           30.,            0.,NA,NA,"",   726.446E-03,   711.201E-03,  -148.044E-03,   334.351E-09
C:/temp/dataset/2/30_1.odb,Step-1,Increment      1: Step Time =    1.000,"PART-1-1",           472,       4.87954,       25.6434,            0.,NA,NA,"",   680.125E-03,   650.757E-03,  -197.699E-03,   165.912E-09
C:/temp/dataset/2/30_1.odb,Step-1,Increment      1: Step Time =    1.000,"PART-1-1",           473,      -5.00474,       28.7231,            0.,NA,NA,"",   696.912E-03,   694.180E-03,  -61.6405E-03,   142.747E-09
C:/temp/dataset/2/30_1.odb,Step-1,Increment      1: Step Time =    1.000,"PART-1-1",           474,         -6.25,           30.,            0.,NA,NA,"",   713.308E-03,   711.913E-03,  -44.5844E-03,   171.992E-09
C:/temp/dataset/2/30_1.odb,Step-1,Increment      1: Step Time =    1.000,"PART-1-1",           475,      -3.76303,       27.4393,            0.,NA,NA,"",   680.910E-03,   676.353E-03,  -78.6470E-03,   110.943E-09
C:/temp/dataset/2/30_1.odb,Step-1,Increment      1: Step Time =    1.000,"PART-1-1",           476,      -3.77322,       24.9147,            0.,NA,NA,"",   646.284E-03,   641.528E-03,  -78.2662E-03,   79.3143E-09
C:/temp/dataset/2/30_1.odb,Step-1,Increment      1: Step Time =    1.000,"PART-1-1",           477,      -13.7476,       27.4926,            0.,NA,NA,"",   680.606E-03,   678.038E-03,   59.0791E-03,   68.6978E-09
C:/temp/dataset/2/30_1.odb,Step-1,Increment      1: Step Time =    1.000,"PART-1-1",           478,        -13.75,           30.,            0.,NA,NA,"",   715.054E-03,   712.626E-03,   58.8735E-03,   49.7053E-09
C:/temp/dataset/2/30_1.odb,Step-1,Increment      1: Step Time =    1.000,"PART-1-1",           479,          -15.,         28.75,            0.,NA,NA,"",   699.668E-03,   695.502E-03,   76.2353E-03,   70.1333E-09
C:/temp/dataset/2/30_1.odb,Step-1,Increment      1: Step Time =    1.000,"PART-1-1",           480,          -15.,         26.25,            0.,NA,NA,"",   665.425E-03,   661.016E-03,   76.4733E-03,   64.6113E-09
C:/temp/dataset/2/30_1.odb,Step-1,Increment      1: Step Time =    1.000,"PART-1-1",           481,      -12.4965,       26.2309,            0.,NA,NA,"",   661.844E-03,   660.514E-03,   41.9409E-03,   71.0567E-09
C:/temp/dataset/2/30_1.odb,Step-1,Increment      1: Step Time =    1.000,"PART-1-1",           482,      -10.0014,       23.7134,            0.,NA,NA,"",   625.598E-03,   625.549E-03,   7.76212E-03,   79.6942E-09
C:/temp/dataset/2/30_1.odb,Step-1,Increment      1: Step Time =    1.000,"PART-1-1",           483,      -8.75535,       22.4567,            0.,NA,NA,"",   608.166E-03,   608.095E-03,  -9.30654E-03,   101.654E-09
C:/temp/dataset/2/30_1.odb,Step-1,Increment      1: Step Time =    1.000,"PART-1-1",           484,      -7.50515,       23.6891,            0.,NA,NA,"",   625.545E-03,   624.977E-03,  -26.6696E-03,   88.4015E-09
C:/temp/dataset/2/30_1.odb,Step-1,Increment      1: Step Time =    1.000,"PART-1-1",           485,      -8.75118,       24.9458,            0.,NA,NA,"",   642.503E-03,   642.431E-03,  -9.60087E-03,   78.1630E-09
C:/temp/dataset/2/30_1.odb,Step-1,Increment      1: Step Time =    1.000,"PART-1-1",           486,      -3.77419,       22.4219,            0.,NA,NA,"",   612.132E-03,   607.141E-03,  -78.0157E-03,   152.032E-09
C:/temp/dataset/2/30_1.odb,Step-1,Increment      1: Step Time =    1.000,"PART-1-1",           487,      -5.00723,       21.2173,            0.,NA,NA,"",   593.772E-03,   590.642E-03,  -60.8919E-03,   181.715E-09
C:/temp/dataset/2/30_1.odb,Step-1,Increment      1: Step Time =    1.000,"PART-1-1",           488,         -3.75,           20.,            0.,NA,NA,"",   579.024E-03,   573.730E-03,  -78.1190E-03,   255.937E-09
C:/temp/dataset/2/30_1.odb,Step-1,Increment      1: Step Time =    1.000,"PART-1-1",           489,      -2.51696,       21.2046,            0.,NA,NA,"",   597.863E-03,   590.228E-03,  -95.2428E-03,   219.847E-09
C:/temp/dataset/2/30_1.odb,Step-1,Increment      1: Step Time =    1.000,"PART-1-1",           490,         -8.75,           20.,            0.,NA,NA,"",   574.279E-03,   574.206E-03,  -9.14664E-03,   158.959E-09
C:/temp/dataset/2/30_1.odb,Step-1,Increment      1: Step Time =    1.000,"PART-1-1",           491,      -7.50331,       21.2223,            0.,NA,NA,"",   591.540E-03,   590.948E-03,  -26.4603E-03,   144.026E-09
C:/temp/dataset/2/30_1.odb,Step-1,Increment      1: Step Time =    1.000,"PART-1-1",           492,         -6.25,           20.,            0.,NA,NA,"",   575.624E-03,   573.968E-03,  -43.6327E-03,   207.691E-09
C:/temp/dataset/2/30_1.odb,Step-1,Increment      1: Step Time =    1.000,"PART-1-1",           493,      -6.26054,       22.4396,            0.,NA,NA,"",   609.193E-03,   607.622E-03,  -43.7194E-03,   126.245E-09
C:/temp/dataset/2/30_1.odb,Step-1,Increment      1: Step Time =    1.000,"PART-1-1",           494,         -1.25,           20.,            0.,NA,NA,"",   584.442E-03,   573.491E-03,  -112.606E-03,   296.816E-09
C:/temp/dataset/2/30_1.odb,Step-1,Increment      1: Step Time =    1.000,"PART-1-1",           495,      -1.30453,       22.3853,            0.,NA,NA,"",   616.672E-03,   606.401E-03,  -112.080E-03,   183.003E-09
C:/temp/dataset/2/30_1.odb,Step-1,Increment      1: Step Time =    1.000,"PART-1-1",           496,         -1.25,           30.,            0.,NA,NA,"",   720.444E-03,   711.438E-03,  -113.557E-03,   284.391E-09
C:/temp/dataset/2/30_1.odb,Step-1,Increment      1: Step Time =    1.000,"PART-1-1",           497,      -2.50829,       28.7162,            0.,NA,NA,"",   700.468E-03,   693.848E-03,  -96.0773E-03,   183.104E-09
C:/temp/dataset/2/30_1.odb,Step-1,Increment      1: Step Time =    1.000,"PART-1-1",           498,         -3.75,           30.,            0.,NA,NA,"",   716.055E-03,   711.676E-03,  -79.0707E-03,   226.903E-09
C:/temp/dataset/2/30_1.odb,Step-1,Increment      1: Step Time =    1.000,"PART-1-1",           499,          3.75,           20.,            0.,NA,NA,"",   601.095E-03,   573.014E-03,  -181.579E-03,   583.427E-09
C:/temp/dataset/2/30_1.odb,Step-1,Increment      1: Step Time =    1.000,"PART-1-1",           500,       4.75388,       21.0765,            0.,NA,NA,"",   619.438E-03,   587.768E-03,  -195.530E-03,   508.189E-09
C:/temp/dataset/2/30_1.odb,Step-1,Increment      1: Step Time =    1.000,"PART-1-1",           501,          6.25,           30.,            0.,NA,NA,"",   743.122E-03,   710.727E-03,  -217.020E-03,   296.491E-09
C:/temp/dataset/2/30_1.odb,Step-1,Increment      1: Step Time =    1.000,"PART-1-1",           502,       6.61296,       27.1492,            0.,NA,NA,"",   707.041E-03,   671.366E-03,  -221.755E-03,   222.889E-09
C:/temp/dataset/2/30_1.odb,Step-1,Increment      1: Step Time =    1.000,"PART-1-1",           503,            5.,         16.25,            0.,NA,NA,"",   557.668E-03,   521.158E-03,  -198.463E-03,   727.025E-09
C:/temp/dataset/2/30_1.odb,Step-1,Increment      1: Step Time =    1.000,"PART-1-1",           504,       6.03202,       15.2452,            0.,NA,NA,"",   549.955E-03,   507.198E-03,  -212.605E-03,   602.564E-09
C:/temp/dataset/2/30_1.odb,Step-1,Increment      1: Step Time =    1.000,"PART-1-1",           505,       6.91243,       16.6330,            0.,NA,NA,"",   572.296E-03,   526.260E-03,  -224.884E-03,   459.079E-09
C:/temp/dataset/2/30_1.odb,Step-1,Increment      1: Step Time =    1.000,"PART-1-1",           506,            5.,         13.75,            0.,NA,NA,"",   525.488E-03,   486.667E-03,  -198.223E-03,   766.975E-09
C:/temp/dataset/2/30_1.odb,Step-1,Increment      1: Step Time =    1.000,"PART-1-1",           507,       6.17466,       12.7979,            0.,NA,NA,"",   519.681E-03,   473.421E-03,  -214.338E-03,   617.830E-09
C:/temp/dataset/2/30_1.odb,Step-1,Increment      1: Step Time =    1.000,"PART-1-1",           508,       12.0086,       16.5092,            0.,NA,NA,"",   601.480E-03,   524.068E-03,  -295.179E-03,   288.850E-09
C:/temp/dataset/2/30_1.odb,Step-1,Increment      1: Step Time =    1.000,"PART-1-1",           509,           15.,        16.875,            0.,NA,NA,"",   626.803E-03,   528.829E-03,  -336.485E-03,   684.125E-09
C:/temp/dataset/2/30_1.odb,Step-1,Increment      1: Step Time =    1.000,"PART-1-1",           510,       13.3591,       18.2744,            0.,NA,NA,"",   631.828E-03,   548.292E-03,  -313.979E-03,   432.986E-09
C:/temp/dataset/2/30_1.odb,Step-1,Increment      1: Step Time =    1.000,"PART-1-1",           511,            5.,         11.25,            0.,NA,NA,"",   493.619E-03,   452.175E-03,  -197.983E-03,   803.458E-09
C:/temp/dataset/2/30_1.odb,Step-1,Increment      1: Step Time =    1.000,"PART-1-1",           512,       6.23142,       10.2778,            0.,NA,NA,"",   488.449E-03,   438.645E-03,  -214.880E-03,   645.756E-09
C:/temp/dataset/2/30_1.odb,Step-1,Increment      1: Step Time =    1.000,"PART-1-1",           513,            5.,          8.75,            0.,NA,NA,"",   462.127E-03,   417.683E-03,  -197.744E-03,   883.112E-09
C:/temp/dataset/2/30_1.odb,Step-1,Increment      1: Step Time =    1.000,"PART-1-1",           514,       7.47251,       9.25684,            0.,NA,NA,"",   483.664E-03,   424.441E-03,  -231.906E-03,   467.951E-09
C:/temp/dataset/2/30_1.odb,Step-1,Increment      1: Step Time =    1.000,"PART-1-1",           515,         11.25,           -5.,            0.,NA,NA,"",   362.760E-03,   227.360E-03,  -282.669E-03,   182.534E-09
C:/temp/dataset/2/30_1.odb,Step-1,Increment      1: Step Time =    1.000,"PART-1-1",           516,       11.2689,      -2.22707,            0.,NA,NA,"",   388.269E-03,   265.620E-03,  -283.194E-03,   335.088E-09
C:/temp/dataset/2/30_1.odb,Step-1,Increment      1: Step Time =    1.000,"PART-1-1",           517,          10.5,          -30.,            0.,NA,NA,"",            0.,   676.604E-42,  -432.891E-42,   608.455E-06
C:/temp/dataset/2/30_1.odb,Step-1,Increment      1: Step Time =    1.000,"PART-1-1",           518,           15.,        -23.75,            0.,NA,NA,"",   5.38984E-03,   5.03352E-03,  -1.92718E-03,   21.1494E-06
C:/temp/dataset/2/30_1.odb,Step-1,Increment      1: Step Time =    1.000,"PART-1-1",           519,          3.75,           -5.,            0.,NA,NA,"",   290.039E-03,   228.072E-03,  -179.181E-03,   1.15143E-06
C:/temp/dataset/2/30_1.odb,Step-1,Increment      1: Step Time =    1.000,"PART-1-1",           520,       4.97006,      -3.74763,            0.,NA,NA,"",   314.022E-03,   245.236E-03,  -196.135E-03,   527.288E-09
C:/temp/dataset/2/30_1.odb,Step-1,Increment      1: Step Time =    1.000,"PART-1-1",           521,       4.85412,       3.76356,            0.,NA,NA,"",   399.815E-03,   348.897E-03,  -195.252E-03,   1.00940E-06
C:/temp/dataset/2/30_1.odb,Step-1,Increment      1: Step Time =    1.000,"PART-1-1",           522,       3.33333,            5.,            0.,NA,NA,"",   405.515E-03,   366.107E-03,  -174.381E-03,   1.68943E-06
C:/temp/dataset/2/30_1.odb,Step-1,Increment      1: Step Time =    1.000,"PART-1-1",           523,       1.45296,       3.58740,            0.,NA,NA,"",   377.168E-03,   346.792E-03,  -148.293E-03,   1.98659E-06
C:/temp/dataset/2/30_1.odb,Step-1,Increment      1: Step Time =    1.000,"PART-1-1",           524,       2.97375,       2.35096,            0.,NA,NA,"",   370.462E-03,   329.583E-03,  -169.167E-03,   1.51408E-06
C:/temp/dataset/2/30_1.odb,Step-1,Increment      1: Step Time =    1.000,"PART-1-1",           525,          6.25,           -5.,            0.,NA,NA,"",   312.356E-03,   227.834E-03,  -213.677E-03,   421.306E-09
C:/temp/dataset/2/30_1.odb,Step-1,Increment      1: Step Time =    1.000,"PART-1-1",           526,       12.4696,       10.4445,            0.,NA,NA,"",   533.375E-03,   440.351E-03,  -300.964E-03,   399.036E-09
C:/temp/dataset/2/30_1.odb,Step-1,Increment      1: Step Time =    1.000,"PART-1-1",           527,           15.,       11.0417,            0.,NA,NA,"",   560.239E-03,   448.349E-03,  -335.933E-03,   838.975E-09
C:/temp/dataset/2/30_1.odb,Step-1,Increment      1: Step Time =    1.000,"PART-1-1",           528,      -5.01382,       23.6808,            0.,NA,NA,"",   627.600E-03,   624.625E-03,  -61.0353E-03,   99.5423E-09
C:/temp/dataset/2/30_1.odb,Step-1,Increment      1: Step Time =    1.000,"PART-1-1",           529,      -2.53358,       23.6558,            0.,NA,NA,"",   631.270E-03,   624.044E-03,  -95.2466E-03,   112.499E-09
C:/temp/dataset/2/30_1.odb,Step-1,Increment      1: Step Time =    1.000,"PART-1-1",           530,  -74.6816E-03,       23.6075,            0.,NA,NA,"",   636.389E-03,   623.144E-03,  -129.162E-03,   133.934E-09
C:/temp/dataset/2/30_1.odb,Step-1,Increment      1: Step Time =    1.000,"PART-1-1",           531,      -6.62798,      -1.45964,            0.,NA,NA,"",   280.411E-03,   278.057E-03,  -36.2534E-03,   39.4706E-06
C:/temp/dataset/2/30_1.odb,Step-1,Increment      1: Step Time =    1.000,"PART-1-1",           532,      -4.43070,      -2.38075,            0.,NA,NA,"",   273.281E-03,   265.051E-03,  -66.5630E-03,   46.0213E-06
C:/temp/dataset/2/30_1.odb,Step-1,Increment      1: Step Time =    1.000,"PART-1-1",           533,      -3.64554,  -813.143E-03,            0.,NA,NA,"",   296.906E-03,   286.607E-03,  -77.5184E-03,   28.9485E-06
C:/temp/dataset/2/30_1.odb,Step-1,Increment      1: Step Time =    1.000,"PART-1-1",           534,         -3.75,           -5.,            0.,NA,NA,"",   240.915E-03,   228.695E-03,  -75.7527E-03,   82.0292E-06
C:/temp/dataset/2/30_1.odb,Step-1,Increment      1: Step Time =    1.000,"PART-1-1",           535,      -13.8599,      -9.43096,            0.,NA,NA,"",   179.039E-03,   168.734E-03,   59.8649E-03,   1.52996E-03
C:/temp/dataset/2/30_1.odb,Step-1,Increment      1: Step Time =    1.000,"PART-1-1",           536,          -15.,      -11.0417,            0.,NA,NA,"",   164.225E-03,   146.467E-03,   74.2778E-03,   1.98555E-03
C:/temp/dataset/2/30_1.odb,Step-1,Increment      1: Step Time =    1.000,"PART-1-1",           537,      -11.9984,      -19.8095,            0.,NA,NA,"",   38.3010E-03,   31.8141E-03,   21.3269E-03,   2.49153E-03
C:/temp/dataset/2/30_1.odb,Step-1,Increment      1: Step Time =    1.000,"PART-1-1",           538,      -13.3881,      -18.2324,            0.,NA,NA,"",   60.5666E-03,   48.2550E-03,   36.6028E-03,   3.60051E-03
C:/temp/dataset/2/30_1.odb,Step-1,Increment      1: Step Time =    1.000,"PART-1-1",           539,          -15.,      -19.7917,            0.,NA,NA,"",   57.9944E-03,   37.5075E-03,   44.2328E-03,   5.29620E-03
C:/temp/dataset/2/30_1.odb,Step-1,Increment      1: Step Time =    1.000,"PART-1-1",           540,           -5.,        -18.75,            0.,NA,NA,"",   49.2478E-03,   39.5499E-03,  -29.3453E-03,   7.99614E-03
C:/temp/dataset/2/30_1.odb,Step-1,Increment      1: Step Time =    1.000,"PART-1-1",           541,      -5.96138,      -20.0094,            0.,NA,NA,"",   27.8530E-03,   22.3933E-03,  -16.5630E-03,   5.75757E-03
C:/temp/dataset/2/30_1.odb,Step-1,Increment      1: Step Time =    1.000,"PART-1-1",           542,           -5.,        -13.75,            0.,NA,NA,"",   114.790E-03,   103.516E-03,  -49.6098E-03,   2.74413E-03
C:/temp/dataset/2/30_1.odb,Step-1,Increment      1: Step Time =    1.000,"PART-1-1",           543,      -7.28958,      -14.3036,            0.,NA,NA,"",   95.8741E-03,   93.7945E-03,  -19.8606E-03,   2.49234E-03
C:/temp/dataset/2/30_1.odb,Step-1,Increment      1: Step Time =    1.000,"PART-1-1",           544,      -8.88285,      -11.0213,            0.,NA,NA,"",   140.973E-03,   140.909E-03,  -4.23519E-03,   1.74420E-03
C:/temp/dataset/2/30_1.odb,Step-1,Increment      1: Step Time =    1.000,"PART-1-1",           545,      -9.01222,      -8.51542,            0.,NA,NA,"",   178.280E-03,   178.253E-03,  -3.12005E-03,   1.20441E-03
C:/temp/dataset/2/30_1.odb,Step-1,Increment      1: Step Time =    1.000,"PART-1-1",           546,      -9.13424,  -715.290E-03,            0.,NA,NA,"",   288.633E-03,   288.628E-03,  -1.80120E-03,   49.7763E-06
C:/temp/dataset/2/30_1.odb,Step-1,Increment      1: Step Time =    1.000,"PART-1-1",           547,      -9.92186,      -2.42350,            0.,NA,NA,"",   265.465E-03,   265.308E-03,   9.15081E-03,   121.453E-06
C:/temp/dataset/2/30_1.odb,Step-1,Increment      1: Step Time =    1.000,"PART-1-1",           548,      -12.7176,      -7.95930,            0.,NA,NA,"",   194.520E-03,   189.133E-03,   45.4589E-03,   1.42332E-03
C:/temp/dataset/2/30_1.odb,Step-1,Increment      1: Step Time =    1.000,"PART-1-1",           549,          -15.,        -8.125,            0.,NA,NA,"",   204.312E-03,   189.241E-03,   77.0134E-03,   1.19350E-03
C:/temp/dataset/2/30_1.odb,Step-1,Increment      1: Step Time =    1.000,"PART-1-1",           550,       11.2818,   528.104E-03,            0.,NA,NA,"",   415.505E-03,   303.637E-03,  -283.634E-03,   534.480E-09
C:/temp/dataset/2/30_1.odb,Step-1,Increment      1: Step Time =    1.000,"PART-1-1",           551,       10.0167,  -924.457E-03,            0.,NA,NA,"",   388.936E-03,   283.714E-03,  -266.041E-03,   500.315E-09
C:/temp/dataset/2/30_1.odb,Step-1,Increment      1: Step Time =    1.000,"PART-1-1",           552,       10.4320,       23.7699,            0.,NA,NA,"",   681.906E-03,   624.383E-03,  -274.120E-03,   291.122E-09
C:/temp/dataset/2/30_1.odb,Step-1,Increment      1: Step Time =    1.000,"PART-1-1",           553,           15.,        25.625,            0.,NA,NA,"",   731.904E-03,   649.540E-03,  -337.314E-03,   179.867E-09
C:/temp/dataset/2/30_1.odb,Step-1,Increment      1: Step Time =    1.000,"PART-1-1",           554,      -9.99539,       26.2124,            0.,NA,NA,"",   660.064E-03,   660.022E-03,   7.44171E-03,   64.8795E-09
C:/temp/dataset/2/30_1.odb,Step-1,Increment      1: Step Time =    1.000,"PART-1-1",           555,          -15.,       -25.625,            0.,NA,NA,"",   18.9755E-03,   8.61845E-03,   16.9053E-03,   4.73208E-03
C:/temp/dataset/2/30_1.odb,Step-1,Increment      1: Step Time =    1.000,"PART-1-1",           556,      -12.2044,      -25.8339,            0.,NA,NA,"",   9.23356E-03,   3.57894E-03,   8.51175E-03,   2.56663E-03
C:/temp/dataset/2/30_1.odb,Step-1,Increment      1: Step Time =    1.000,"PART-1-1",           557,          -15.,       -16.875,            0.,NA,NA,"",   87.3109E-03,   65.7158E-03,   57.4860E-03,   4.56501E-03
C:/temp/dataset/2/30_1.odb,Step-1,Increment      1: Step Time =    1.000,"PART-1-1",           558,      -8.25880,      -15.9015,            0.,NA,NA,"",   71.9758E-03,   71.6098E-03,  -7.24893E-03,   2.56834E-03
C:/temp/dataset/2/30_1.odb,Step-1,Increment      1: Step Time =    1.000,"PART-1-1",           559,       7.56555,       17.9230,            0.,NA,NA,"",   592.195E-03,   543.995E-03,  -234.017E-03,   334.682E-09
C:/temp/dataset/2/30_1.odb,Step-1,Increment      1: Step Time =    1.000,"PART-1-1",           560,      -9.72707,       2.21069,            0.,NA,NA,"",   328.883E-03,   328.828E-03,   6.00888E-03,   25.2572E-06
C:/temp/dataset/2/30_1.odb,Step-1,Increment      1: Step Time =    1.000,"PART-1-1",           561,      -8.18006,       3.69884,            0.,NA,NA,"",   349.477E-03,   349.138E-03,  -15.3914E-03,   37.1295E-06
C:/temp/dataset/2/30_1.odb,Step-1,Increment      1: Step Time =    1.000,"PART-1-1",           562,          -10.,            5.,            0.,NA,NA,"",   367.206E-03,   367.085E-03,   9.42995E-03,   51.7761E-06
C:/temp/dataset/2/30_1.odb,Step-1,Increment      1: Step Time =    1.000,"PART-1-1",           563,      -10.3433,      -7.69771,            0.,NA,NA,"",   191.478E-03,   190.946E-03,   14.2639E-03,   1.20740E-03
C:/temp/dataset/2/30_1.odb,Step-1,Increment      1: Step Time =    1.000,"PART-1-1",           564,      -11.5611,      -6.59494,            0.,NA,NA,"",   210.119E-03,   207.859E-03,   30.7347E-03,   1.03334E-03
C:/temp/dataset/2/30_1.odb,Step-1,Increment      1: Step Time =    1.000,"PART-1-1",           565,      -9.40089,      -20.7816,            0.,NA,NA,"",   21.6615E-03,   21.4605E-03,   2.94389E-03,   1.16664E-03
C:/temp/dataset/2/30_1.odb,Step-1,Increment      1: Step Time =    1.000,"PART-1-1",           566,      -8.21757,      -22.2064,            0.,NA,NA,"",   13.1791E-03,   12.6900E-03,  -3.55708E-03,   1.00695E-03
C:/temp/dataset/2/30_1.odb,Step-1,Increment      1: Step Time =    1.000,"PART-1-1",           567,      -6.89894,      -21.2078,            0.,NA,NA,"",   19.7212E-03,   16.7273E-03,  -10.4462E-03,   2.26278E-03
C:/temp/dataset/2/30_1.odb,Step-1,Increment      1: Step Time =    1.000,"PART-1-1",           568,      -9.14285,      -28.6800,            0.,NA,NA,"",   791.122E-06,  -731.995E-06,   300.096E-06,   526.680E-06
C:/temp/dataset/2/30_1.odb,Step-1,Increment      1: Step Time =    1.000,"PART-1-1",           569,      -10.7232,      -27.3047,            0.,NA,NA,"",   2.73996E-03,   206.514E-06,   2.73217E-03,   1.34278E-03
C:/temp/dataset/2/30_1.odb,Step-1,Increment      1: Step Time =    1.000,"PART-1-1",           570,         -10.5,          -30.,            0.,NA,NA,"",            0.,  -963.585E-42,   2.45742E-39,   1.22447E-03
C:/temp/dataset/2/30_1.odb,Step-1,Increment      1: Step Time =    1.000,"PART-1-1",           571,      -4.89633,      -27.4366,            0.,NA,NA,"",   3.53855E-03,   2.26975E-03,  -2.71469E-03,   1.61895E-03
C:/temp/dataset/2/30_1.odb,Step-1,Increment      1: Step Time =    1.000,"PART-1-1",           572,      -6.18287,      -28.7136,            0.,NA,NA,"",   975.752E-06,   284.878E-06,  -933.240E-06,   1.08374E-03
C:/temp/dataset/2/30_1.odb,Step-1,Increment      1: Step Time =    1.000,"PART-1-1",           573,          -4.5,          -30.,            0.,NA,NA,"",            0.,   522.348E-42,  -2.13979E-39,   1.02224E-03
C:/temp/dataset/2/30_1.odb,Step-1,Increment      1: Step Time =    1.000,"PART-1-1",           574,       12.5384,       2.02620,            0.,NA,NA,"",   442.458E-03,   324.190E-03,  -301.116E-03,   495.491E-09
C:/temp/dataset/2/30_1.odb,Step-1,Increment      1: Step Time =    1.000,"PART-1-1",           575,           15.,       2.29167,            0.,NA,NA,"",   468.647E-03,   327.618E-03,  -335.107E-03,   509.947E-09
C:/temp/dataset/2/30_1.odb,Step-1,Increment      1: Step Time =    1.000,"PART-1-1",           576,       9.96595,       9.83263,            0.,NA,NA,"",   507.643E-03,   432.148E-03,  -266.363E-03,   101.641E-09
C:/temp/dataset/2/30_1.odb,Step-1,Increment      1: Step Time =    1.000,"PART-1-1",           577,           15.,       19.7917,            0.,NA,NA,"",   661.245E-03,   569.067E-03,  -336.760E-03,   560.259E-09
C:/temp/dataset/2/30_1.odb,Step-1,Increment      1: Step Time =    1.000,"PART-1-1",           578,       7.90800,       20.1372,            0.,NA,NA,"",   622.221E-03,   574.509E-03,  -238.953E-03,   232.923E-09
C:/temp/dataset/2/30_1.odb,Step-1,Increment      1: Step Time =    1.000,"PART-1-1",           579,       8.41916,       21.3934,            0.,NA,NA,"",   640.932E-03,   591.791E-03,  -246.124E-03,   266.054E-09
C:/temp/dataset/2/30_1.odb,Step-1,Increment      1: Step Time =    1.000,"PART-1-1",           580,       6.50486,       21.1025,            0.,NA,NA,"",   627.662E-03,   587.960E-03,  -219.688E-03,   318.011E-09
C:/temp/dataset/2/30_1.odb,Step-1,Increment      1: Step Time =    1.000,"PART-1-1",           581,           4.5,          -30.,            0.,NA,NA,"",            0.,   1.14451E-39,  -771.768E-42,   1.05248E-03
C:/temp/dataset/2/30_1.odb,Step-1,Increment      1: Step Time =    1.000,"PART-1-1",           582,       3.62857,      -22.4261,            0.,NA,NA,"",   7.66143E-03,   7.65553E-03,  -300.539E-06,   672.096E-06
C:/temp/dataset/2/30_1.odb,Step-1,Increment      1: Step Time =    1.000,"PART-1-1",           583,       2.16864,      -23.6665,            0.,NA,NA,"",   7.93272E-03,   7.84880E-03,  -1.15083E-03,   996.191E-06
C:/temp/dataset/2/30_1.odb,Step-1,Increment      1: Step Time =    1.000,"PART-1-1",           584,      -2.73954,      -22.4743,            0.,NA,NA,"",   15.0348E-03,   12.7297E-03,  -8.00002E-03,   2.62777E-03
C:/temp/dataset/2/30_1.odb,Step-1,Increment      1: Step Time =    1.000,"PART-1-1",           585,  -999.676E-03,      -23.6839,            0.,NA,NA,"",   10.4589E-03,   9.61987E-03,  -4.10437E-03,   1.96235E-03
C:/temp/dataset/2/30_1.odb,Step-1,Increment      1: Step Time =    1.000,"PART-1-1",           586,      -7.82572,      -27.3936,            0.,NA,NA,"",   1.14457E-03,   359.487E-06,  -1.08665E-03,   710.616E-06
C:/temp/dataset/2/30_1.odb,Step-1,Increment      1: Step Time =    1.000,"PART-1-1",           587,      -6.52069,      -26.1528,            0.,NA,NA,"",   4.62326E-03,   2.86330E-03,  -3.62989E-03,   1.63112E-03
C:/temp/dataset/2/30_1.odb,Step-1,Increment      1: Step Time =    1.000,"PART-1-1",           588,      -8.08310,      -24.7829,            0.,NA,NA,"",   5.09856E-03,   4.51604E-03,  -2.36658E-03,   763.752E-06
C:/temp/dataset/2/30_1.odb,Step-1,Increment      1: Step Time =    1.000,"PART-1-1",           589,      -9.38814,      -26.0237,            0.,NA,NA,"",   2.02414E-03,   1.72730E-03,   1.05526E-03,   450.780E-06
C:/temp/dataset/2/30_1.odb,Step-1,Increment      1: Step Time =    1.000,"PART-1-1",           590,          -7.5,          -30.,            0.,NA,NA,"",            0.,  -499.924E-42,  -650.762E-42,   473.566E-06
C:/temp/dataset/2/30_1.odb,Step-1,Increment      1: Step Time =    1.000,"PART-1-1",           591,       7.73182,       24.8866,            0.,NA,NA,"",   682.507E-03,   640.045E-03,  -236.975E-03,   275.943E-09
C:/temp/dataset/2/30_1.odb,Step-1,Increment      1: Step Time =    1.000,"PART-1-1",           592,       8.21760,       26.2797,            0.,NA,NA,"",   702.859E-03,   659.218E-03,  -243.809E-03,   268.401E-09
C:/temp/dataset/2/30_1.odb,Step-1,Increment      1: Step Time =    1.000,"PART-1-1",           593,       6.12718,       25.7561,            0.,NA,NA,"",   686.693E-03,   652.193E-03,  -214.921E-03,   225.307E-09
C:/temp/dataset/2/30_1.odb,Step-1,Increment      1: Step Time =    1.000,"PART-1-1",           594,       5.38844,       22.1508,            0.,NA,NA,"",   636.249E-03,   602.527E-03,  -204.386E-03,   275.117E-09
C:/temp/dataset/2/30_1.odb,Step-1,Increment      1: Step Time =    1.000,"PART-1-1",           595,      -3.37677,   775.412E-03,            0.,NA,NA,"",   319.030E-03,   308.483E-03,  -81.3534E-03,   25.2297E-06
C:/temp/dataset/2/30_1.odb,Step-1,Increment      1: Step Time =    1.000,"PART-1-1",           596,      -3.41233,       2.84116,            0.,NA,NA,"",   346.567E-03,   336.958E-03,  -81.0435E-03,   20.1340E-06
C:/temp/dataset/2/30_1.odb,Step-1,Increment      1: Step Time =    1.000,"PART-1-1",           597,      -11.2482,       24.9673,            0.,NA,NA,"",   643.445E-03,   642.965E-03,   24.8422E-03,   80.9019E-09
C:/temp/dataset/2/30_1.odb,Step-1,Increment      1: Step Time =    1.000,"PART-1-1",           598,       5.16292,       24.1270,            0.,NA,NA,"",   661.249E-03,   629.811E-03,  -201.464E-03,   195.786E-09
C:/temp/dataset/2/30_1.odb,Step-1,Increment      1: Step Time =    1.000,"PART-1-1",           599,            0.,            5.,            0.,NA,NA,"",   388.263E-03,   366.427E-03,  -128.370E-03,   2.43342E-06
C:/temp/dataset/2/30_1.odb,Step-1,Increment      1: Step Time =    1.000,"PART-1-1",           600,      -1.80204,       3.95011,            0.,NA,NA,"",   366.968E-03,   352.103E-03,  -103.388E-03,   7.60861E-06
C:/temp/dataset/2/30_1.odb,Step-1,Increment      1: Step Time =    1.000,"PART-1-1",           601,       9.59799,       22.9228,            0.,NA,NA,"",   666.648E-03,   612.778E-03,  -262.533E-03,   298.105E-09
C:/temp/dataset/2/30_1.odb,Step-1,Increment      1: Step Time =    1.000,"PART-1-1",           602,       8.30932,       22.9391,            0.,NA,NA,"",   660.172E-03,   613.125E-03,  -244.756E-03,   306.523E-09
C:/temp/dataset/2/30_1.odb,Step-1,Increment      1: Step Time =    1.000,"PART-1-1",           603,      -1.93269,      -1.01257,            0.,NA,NA,"",   301.154E-03,   283.660E-03,  -101.146E-03,   21.0849E-06
C:/temp/dataset/2/30_1.odb,Step-1,Increment      1: Step Time =    1.000,"PART-1-1",           604,      -8.69440,      -13.5596,            0.,NA,NA,"",   103.826E-03,   103.704E-03,  -5.03534E-03,   2.12560E-03
C:/temp/dataset/2/30_1.odb,Step-1,Increment      1: Step Time =    1.000,"PART-1-1",           605,       6.07991,       2.65614,            0.,NA,NA,"",   395.210E-03,   333.498E-03,  -212.061E-03,   605.051E-09
C:/temp/dataset/2/30_1.odb,Step-1,Increment      1: Step Time =    1.000,"PART-1-1",           606,       4.75906,       1.28045,            0.,NA,NA,"",   369.485E-03,   314.640E-03,  -193.703E-03,   277.465E-09
C:/temp/dataset/2/30_1.odb,Step-1,Increment      1: Step Time =    1.000,"PART-1-1",           607,       10.0234,       4.43547,            0.,NA,NA,"",   446.127E-03,   357.674E-03,  -266.643E-03,   462.801E-09
C:/temp/dataset/2/30_1.odb,Step-1,Increment      1: Step Time =    1.000,"PART-1-1",           608,       7.46673,       4.06304,            0.,NA,NA,"",   421.862E-03,   352.779E-03,  -231.331E-03,   580.288E-09
C:/temp/dataset/2/30_1.odb,Step-1,Increment      1: Step Time =    1.000,"PART-1-1",           609,  -317.165E-03,  -486.862E-03,            0.,NA,NA,"",   315.883E-03,   290.746E-03,  -123.487E-03,   10.0625E-06
C:/temp/dataset/2/30_1.odb,Step-1,Increment      1: Step Time =    1.000,"PART-1-1",           610,       1.72730,   921.331E-03,            0.,NA,NA,"",   345.162E-03,   309.975E-03,  -151.830E-03,   2.58158E-06
C:/temp/dataset/2/30_1.odb,Step-1,Increment      1: Step Time =    1.000,"PART-1-1",           611,      -4.63664,      -21.2535,            0.,NA,NA,"",   22.4083E-03,   16.8745E-03,  -14.7440E-03,   5.39363E-03
C:/temp/dataset/2/30_1.odb,Step-1,Increment      1: Step Time =    1.000,"PART-1-1",           612,       11.2827,       3.26092,            0.,NA,NA,"",   443.983E-03,   341.347E-03,  -283.907E-03,   543.335E-09
C:/temp/dataset/2/30_1.odb,Step-1,Increment      1: Step Time =    1.000,"PART-1-1",           613,      -11.4502,      -4.36864,            0.,NA,NA,"",   240.937E-03,   239.075E-03,   29.8925E-03,   490.069E-06
C:/temp/dataset/2/30_1.odb,Step-1,Increment      1: Step Time =    1.000,"PART-1-1",           614,      -10.8693,      -24.5529,            0.,NA,NA,"",   8.54875E-03,   5.53190E-03,   6.51761E-03,   1.56061E-03
C:/temp/dataset/2/30_1.odb,Step-1,Increment      1: Step Time =    1.000,"PART-1-1",           615,      -9.52531,      -23.3517,            0.,NA,NA,"",   8.94529E-03,   8.66453E-03,   2.22354E-03,   697.446E-06
C:/temp/dataset/2/30_1.odb,Step-1,Increment      1: Step Time =    1.000,"PART-1-1",           616,      -10.8903,      -21.7518,            0.,NA,NA,"",   20.0505E-03,   17.0468E-03,   10.5560E-03,   1.81822E-03
C:/temp/dataset/2/30_1.odb,Step-1,Increment      1: Step Time =    1.000,"PART-1-1",           617,       3.33333,          -20.,            0.,NA,NA,"",   7.72186E-03,   7.72143E-03,   81.3804E-06,   373.784E-06
C:/temp/dataset/2/30_1.odb,Step-1,Increment      1: Step Time =    1.000,"PART-1-1",           618,       1.83446,      -21.2108,            0.,NA,NA,"",   8.63624E-03,   8.59715E-03,  -820.698E-06,   675.563E-06
C:/temp/dataset/2/30_1.odb,Step-1,Increment      1: Step Time =    1.000,"PART-1-1",           619,       5.12744,      -21.2153,            0.,NA,NA,"",   7.25873E-03,   7.25407E-03,   259.946E-06,   351.493E-06
C:/temp/dataset/2/30_1.odb,Step-1,Increment      1: Step Time =    1.000,"PART-1-1",           620,            0.,          -20.,            0.,NA,NA,"",   9.16682E-03,   8.99192E-03,  -1.78212E-03,   970.875E-06
C:/temp/dataset/2/30_1.odb,Step-1,Increment      1: Step Time =    1.000,"PART-1-1",           621,      -1.43624,      -21.2208,            0.,NA,NA,"",   12.7598E-03,   11.7978E-03,  -4.86065E-03,   1.57934E-03
C:/temp/dataset/2/30_1.odb,Step-1,Increment      1: Step Time =    1.000,"PART-1-1",           622,   398.228E-03,      -22.4316,            0.,NA,NA,"",   9.91271E-03,   9.59893E-03,  -2.47432E-03,   1.39424E-03
C:/temp/dataset/2/30_1.odb,Step-1,Increment      1: Step Time =    1.000,"PART-1-1",           623,   770.736E-03,      -24.9188,            0.,NA,NA,"",   7.72840E-03,   7.43933E-03,  -2.09394E-03,   1.41907E-03
C:/temp/dataset/2/30_1.odb,Step-1,Increment      1: Step Time =    1.000,"PART-1-1",           624,      -3.33333,          -20.,            0.,NA,NA,"",   16.0412E-03,   14.0334E-03,  -7.77060E-03,   4.16042E-03
C:/temp/dataset/2/30_1.odb,Step-1,Increment      1: Step Time =    1.000,"PART-1-1",           625,       8.69606,       24.2205,            0.,NA,NA,"",   678.580E-03,   630.765E-03,  -250.214E-03,   296.698E-09
C:/temp/dataset/2/30_1.odb,Step-1,Increment      1: Step Time =    1.000,"PART-1-1",           626,      -3.33333,            5.,            0.,NA,NA,"",   375.856E-03,   366.724E-03,  -82.3485E-03,   17.9592E-06
C:/temp/dataset/2/30_1.odb,Step-1,Increment      1: Step Time =    1.000,"PART-1-1",           627,      -4.94363,       3.89105,            0.,NA,NA,"",   356.639E-03,   351.555E-03,  -60.0046E-03,   25.1056E-06
C:/temp/dataset/2/30_1.odb,Step-1,Increment      1: Step Time =    1.000,"PART-1-1",           628,      -6.66667,            5.,            0.,NA,NA,"",   368.742E-03,   366.944E-03,  -36.3671E-03,   46.1151E-06
C:/temp/dataset/2/30_1.odb,Step-1,Increment      1: Step Time =    1.000,"PART-1-1",           629,           10.,          -20.,            0.,NA,NA,"",   6.74217E-03,   6.74217E-03,   1.20047E-06,   26.3342E-06
C:/temp/dataset/2/30_1.odb,Step-1,Increment      1: Step Time =    1.000,"PART-1-1",           630,       8.42239,      -21.2201,            0.,NA,NA,"",   6.54385E-03,   6.53863E-03,   261.408E-06,   168.473E-06
C:/temp/dataset/2/30_1.odb,Step-1,Increment      1: Step Time =    1.000,"PART-1-1",           631,       6.66667,          -20.,            0.,NA,NA,"",   6.97691E-03,   6.95985E-03,   487.575E-06,   167.675E-06
C:/temp/dataset/2/30_1.odb,Step-1,Increment      1: Step Time =    1.000,"PART-1-1",           632,       9.53008,       25.0675,            0.,NA,NA,"",   693.671E-03,   642.370E-03,  -261.800E-03,   288.006E-09
