ODB Name,Step,Frame,Part Instance Name,    êﬂì_ÉâÉxÉã,X,Y,Z,Section Name,Material Name,Section Point,   U-Magnitude,          U-U1,          U-U2,       S-Mises
C:/temp/dataset/2/30_2.odb,Step-1,Increment      1: Step Time =    1.000,"PART-1-1",             1,          -15.,           20.,            0.,NA,NA,"",       1.16224,       1.15289,   147.146E-03,   31.3504E-09
C:/temp/dataset/2/30_2.odb,Step-1,Increment      1: Step Time =    1.000,"PART-1-1",             2,          -15.,           25.,            0.,NA,NA,"",       1.29932,       1.29118,   145.233E-03,   30.6469E-09
C:/temp/dataset/2/30_2.odb,Step-1,Increment      1: Step Time =    1.000,"PART-1-1",             3,          -10.,           20.,            0.,NA,NA,"",       1.15101,       1.15098,   8.85810E-03,   31.1313E-09
C:/temp/dataset/2/30_2.odb,Step-1,Increment      1: Step Time =    1.000,"PART-1-1",             4,           -5.,           20.,            0.,NA,NA,"",       1.15633,       1.14907,  -129.429E-03,   30.9286E-09
C:/temp/dataset/2/30_2.odb,Step-1,Increment      1: Step Time =    1.000,"PART-1-1",             5,            0.,           20.,            0.,NA,NA,"",       1.17798,       1.14715,  -267.717E-03,   30.3833E-09
C:/temp/dataset/2/30_2.odb,Step-1,Increment      1: Step Time =    1.000,"PART-1-1",             6,            5.,           20.,            0.,NA,NA,"",       1.21508,       1.14524,  -406.005E-03,   31.5477E-09
C:/temp/dataset/2/30_2.odb,Step-1,Increment      1: Step Time =    1.000,"PART-1-1",             7,            5.,          12.5,            0.,NA,NA,"",       1.02079,   937.810E-03,  -403.136E-03,   30.7550E-09
C:/temp/dataset/2/30_2.odb,Step-1,Increment      1: Step Time =    1.000,"PART-1-1",             8,            5.,            5.,            0.,NA,NA,"",   832.867E-03,   730.379E-03,  -400.267E-03,   1.08284E-06
C:/temp/dataset/2/30_2.odb,Step-1,Increment      1: Step Time =    1.000,"PART-1-1",             9,           -5.,            5.,            0.,NA,NA,"",   744.423E-03,   734.086E-03,  -123.627E-03,   66.6071E-06
C:/temp/dataset/2/30_2.odb,Step-1,Increment      1: Step Time =    1.000,"PART-1-1",            10,          -15.,            5.,            0.,NA,NA,"",   752.499E-03,   737.160E-03,   151.163E-03,   12.1188E-06
C:/temp/dataset/2/30_2.odb,Step-1,Increment      1: Step Time =    1.000,"PART-1-1",            11,          -15.,         -3.75,            0.,NA,NA,"",   523.178E-03,   500.475E-03,   152.447E-03,   1.08634E-03
C:/temp/dataset/2/30_2.odb,Step-1,Increment      1: Step Time =    1.000,"PART-1-1",            12,          -15.,         -12.5,            0.,NA,NA,"",   287.239E-03,   249.358E-03,   142.572E-03,   5.15755E-03
C:/temp/dataset/2/30_2.odb,Step-1,Increment      1: Step Time =    1.000,"PART-1-1",            13,          -15.,        -21.25,            0.,NA,NA,"",   91.7309E-03,   54.2428E-03,   73.9748E-03,   10.9525E-03
C:/temp/dataset/2/30_2.odb,Step-1,Increment      1: Step Time =    1.000,"PART-1-1",            14,          -15.,          -30.,            0.,NA,NA,"",            0.,   3.13844E-39,   5.75307E-39,   9.06009E-03
C:/temp/dataset/2/30_2.odb,Step-1,Increment      1: Step Time =    1.000,"PART-1-1",            15,           15.,          -30.,            0.,NA,NA,"",            0.,   788.602E-42,  -1.31709E-39,   2.20243E-03
C:/temp/dataset/2/30_2.odb,Step-1,Increment      1: Step Time =    1.000,"PART-1-1",            16,           15.,          -25.,            0.,NA,NA,"",   9.33439E-03,   8.51862E-03,  -3.81627E-03,   111.814E-06
C:/temp/dataset/2/30_2.odb,Step-1,Increment      1: Step Time =    1.000,"PART-1-1",            17,           15.,          -20.,            0.,NA,NA,"",   14.0794E-03,   13.5739E-03,  -3.73908E-03,   11.1878E-06
C:/temp/dataset/2/30_2.odb,Step-1,Increment      1: Step Time =    1.000,"PART-1-1",            18,            5.,          -20.,            0.,NA,NA,"",   14.4912E-03,   14.4682E-03,   817.103E-06,   528.623E-06
C:/temp/dataset/2/30_2.odb,Step-1,Increment      1: Step Time =    1.000,"PART-1-1",            19,           -5.,          -20.,            0.,NA,NA,"",   57.5954E-03,   42.2596E-03,  -39.1325E-03,   19.1458E-03
C:/temp/dataset/2/30_2.odb,Step-1,Increment      1: Step Time =    1.000,"PART-1-1",            20,           -5.,         -12.5,            0.,NA,NA,"",   263.928E-03,   241.475E-03,  -106.526E-03,   4.36736E-03
C:/temp/dataset/2/30_2.odb,Step-1,Increment      1: Step Time =    1.000,"PART-1-1",            21,           -5.,           -5.,            0.,NA,NA,"",   472.756E-03,   457.273E-03,  -120.001E-03,   255.650E-06
C:/temp/dataset/2/30_2.odb,Step-1,Increment      1: Step Time =    1.000,"PART-1-1",            22,            0.,           -5.,            0.,NA,NA,"",   523.778E-03,   455.722E-03,  -258.189E-03,   13.1632E-06
C:/temp/dataset/2/30_2.odb,Step-1,Increment      1: Step Time =    1.000,"PART-1-1",            23,            5.,           -5.,            0.,NA,NA,"",   602.585E-03,   453.807E-03,  -396.444E-03,   1.70641E-06
C:/temp/dataset/2/30_2.odb,Step-1,Increment      1: Step Time =    1.000,"PART-1-1",            24,           10.,           -5.,            0.,NA,NA,"",   700.101E-03,   451.892E-03,  -534.729E-03,   232.950E-09
C:/temp/dataset/2/30_2.odb,Step-1,Increment      1: Step Time =    1.000,"PART-1-1",            25,           15.,           -5.,            0.,NA,NA,"",   809.587E-03,   449.979E-03,  -673.016E-03,   30.7320E-09
C:/temp/dataset/2/30_2.odb,Step-1,Increment      1: Step Time =    1.000,"PART-1-1",            26,           15.,          3.75,            0.,NA,NA,"",   967.629E-03,   691.981E-03,  -676.363E-03,   81.9900E-09
C:/temp/dataset/2/30_2.odb,Step-1,Increment      1: Step Time =    1.000,"PART-1-1",            27,           15.,          12.5,            0.,NA,NA,"",       1.15513,   933.984E-03,  -679.711E-03,   22.3031E-09
C:/temp/dataset/2/30_2.odb,Step-1,Increment      1: Step Time =    1.000,"PART-1-1",            28,           15.,         21.25,            0.,NA,NA,"",       1.35997,       1.17599,  -683.058E-03,   24.8265E-09
C:/temp/dataset/2/30_2.odb,Step-1,Increment      1: Step Time =    1.000,"PART-1-1",            29,           15.,           30.,            0.,NA,NA,"",       1.57539,       1.41799,  -686.405E-03,   27.5273E-09
C:/temp/dataset/2/30_2.odb,Step-1,Increment      1: Step Time =    1.000,"PART-1-1",            30,           7.5,           30.,            0.,NA,NA,"",       1.49942,       1.42086,  -478.974E-03,   25.9940E-09
C:/temp/dataset/2/30_2.odb,Step-1,Increment      1: Step Time =    1.000,"PART-1-1",            31,            0.,           30.,            0.,NA,NA,"",       1.44939,       1.42373,  -271.542E-03,   28.1736E-09
C:/temp/dataset/2/30_2.odb,Step-1,Increment      1: Step Time =    1.000,"PART-1-1",            32,          -7.5,           30.,            0.,NA,NA,"",       1.42804,       1.42660,  -64.1110E-03,   30.0225E-09
C:/temp/dataset/2/30_2.odb,Step-1,Increment      1: Step Time =    1.000,"PART-1-1",            33,          -15.,           30.,            0.,NA,NA,"",       1.43663,       1.42947,   143.320E-03,   31.3963E-09
C:/temp/dataset/2/30_2.odb,Step-1,Increment      1: Step Time =    1.000,"PART-1-1",            34,          -15.,          22.5,            0.,NA,NA,"",       1.23075,       1.22204,   146.189E-03,   30.6059E-09
C:/temp/dataset/2/30_2.odb,Step-1,Increment      1: Step Time =    1.000,"PART-1-1",            35,         -12.5,           20.,            0.,NA,NA,"",       1.15457,       1.15194,   78.0019E-03,   31.1379E-09
C:/temp/dataset/2/30_2.odb,Step-1,Increment      1: Step Time =    1.000,"PART-1-1",            36,          -7.5,           20.,            0.,NA,NA,"",       1.15160,       1.15002,  -60.2857E-03,   31.0683E-09
C:/temp/dataset/2/30_2.odb,Step-1,Increment      1: Step Time =    1.000,"PART-1-1",            37,          -2.5,           20.,            0.,NA,NA,"",       1.16516,       1.14811,  -198.573E-03,   30.6751E-09
C:/temp/dataset/2/30_2.odb,Step-1,Increment      1: Step Time =    1.000,"PART-1-1",            38,           2.5,           20.,            0.,NA,NA,"",       1.19467,       1.14620,  -336.861E-03,   30.0505E-09
C:/temp/dataset/2/30_2.odb,Step-1,Increment      1: Step Time =    1.000,"PART-1-1",            39,            5.,           15.,            0.,NA,NA,"",       1.08501,       1.00695,  -404.092E-03,   26.5572E-09
C:/temp/dataset/2/30_2.odb,Step-1,Increment      1: Step Time =    1.000,"PART-1-1",            40,            5.,          17.5,            0.,NA,NA,"",       1.14980,       1.07610,  -405.048E-03,   26.3888E-09
C:/temp/dataset/2/30_2.odb,Step-1,Increment      1: Step Time =    1.000,"PART-1-1",            41,            5.,           7.5,            0.,NA,NA,"",   894.548E-03,   799.522E-03,  -401.223E-03,   153.353E-09
C:/temp/dataset/2/30_2.odb,Step-1,Increment      1: Step Time =    1.000,"PART-1-1",            42,            5.,           10.,            0.,NA,NA,"",   957.251E-03,   868.666E-03,  -402.179E-03,   37.7901E-09
C:/temp/dataset/2/30_2.odb,Step-1,Increment      1: Step Time =    1.000,"PART-1-1",            43,      -1.66667,            5.,            0.,NA,NA,"",   764.040E-03,   732.918E-03,  -215.843E-03,   15.0834E-06
C:/temp/dataset/2/30_2.odb,Step-1,Increment      1: Step Time =    1.000,"PART-1-1",            44,       1.66667,            5.,            0.,NA,NA,"",   793.868E-03,   731.658E-03,  -308.065E-03,   1.05423E-06
C:/temp/dataset/2/30_2.odb,Step-1,Increment      1: Step Time =    1.000,"PART-1-1",            45,      -11.6667,            5.,            0.,NA,NA,"",   738.418E-03,   735.987E-03,   59.8753E-03,   64.5093E-06
C:/temp/dataset/2/30_2.odb,Step-1,Increment      1: Step Time =    1.000,"PART-1-1",            46,      -8.33333,            5.,            0.,NA,NA,"",   735.742E-03,   735.061E-03,  -31.6293E-03,   124.966E-06
C:/temp/dataset/2/30_2.odb,Step-1,Increment      1: Step Time =    1.000,"PART-1-1",            47,          -15.,  -833.333E-03,            0.,NA,NA,"",   597.339E-03,   577.445E-03,   152.877E-03,   341.416E-06
C:/temp/dataset/2/30_2.odb,Step-1,Increment      1: Step Time =    1.000,"PART-1-1",            48,          -15.,       2.08333,            0.,NA,NA,"",   674.604E-03,   657.209E-03,   152.207E-03,   90.0230E-06
C:/temp/dataset/2/30_2.odb,Step-1,Increment      1: Step Time =    1.000,"PART-1-1",            49,          -15.,      -9.58333,            0.,NA,NA,"",   369.188E-03,   337.311E-03,   150.069E-03,   3.02525E-03
C:/temp/dataset/2/30_2.odb,Step-1,Increment      1: Step Time =    1.000,"PART-1-1",            50,          -15.,      -6.66667,            0.,NA,NA,"",   448.740E-03,   421.854E-03,   152.994E-03,   2.09339E-03
C:/temp/dataset/2/30_2.odb,Step-1,Increment      1: Step Time =    1.000,"PART-1-1",            51,          -15.,      -18.3333,            0.,NA,NA,"",   143.907E-03,   101.410E-03,   102.104E-03,   10.1539E-03
C:/temp/dataset/2/30_2.odb,Step-1,Increment      1: Step Time =    1.000,"PART-1-1",            52,          -15.,      -15.4167,            0.,NA,NA,"",   209.286E-03,   167.234E-03,   125.831E-03,   8.10024E-03
C:/temp/dataset/2/30_2.odb,Step-1,Increment      1: Step Time =    1.000,"PART-1-1",            53,          -15.,      -27.0833,            0.,NA,NA,"",   24.5467E-03,   11.1026E-03,   21.8923E-03,   9.17979E-03
C:/temp/dataset/2/30_2.odb,Step-1,Increment      1: Step Time =    1.000,"PART-1-1",            54,          -15.,      -24.1667,            0.,NA,NA,"",   53.0108E-03,   25.7035E-03,   46.3625E-03,   10.0133E-03
C:/temp/dataset/2/30_2.odb,Step-1,Increment      1: Step Time =    1.000,"PART-1-1",            55,           12.,          -30.,            0.,NA,NA,"",            0.,   1.51481E-39,  -1.23467E-39,   983.005E-06
C:/temp/dataset/2/30_2.odb,Step-1,Increment      1: Step Time =    1.000,"PART-1-1",            56,            9.,          -30.,            0.,NA,NA,"",            0.,   1.34605E-39,   23.3120E-42,   1.38915E-03
C:/temp/dataset/2/30_2.odb,Step-1,Increment      1: Step Time =    1.000,"PART-1-1",            57,            6.,          -30.,            0.,NA,NA,"",            0.,   2.26048E-39,  -1.93000E-39,   1.83007E-03
C:/temp/dataset/2/30_2.odb,Step-1,Increment      1: Step Time =    1.000,"PART-1-1",            58,            3.,          -30.,            0.,NA,NA,"",            0.,   2.29796E-39,  -1.06737E-39,   2.39320E-03
C:/temp/dataset/2/30_2.odb,Step-1,Increment      1: Step Time =    1.000,"PART-1-1",            59,            0.,          -30.,            0.,NA,NA,"",            0.,   3.36536E-39,  -4.48358E-39,   2.83222E-03
C:/temp/dataset/2/30_2.odb,Step-1,Increment      1: Step Time =    1.000,"PART-1-1",            60,           -3.,          -30.,            0.,NA,NA,"",            0.,   2.64124E-39,  -5.34300E-39,   2.65357E-03
C:/temp/dataset/2/30_2.odb,Step-1,Increment      1: Step Time =    1.000,"PART-1-1",            61,           -6.,          -30.,            0.,NA,NA,"",            0.,   483.113E-42,  -3.58363E-39,   1.65131E-03
C:/temp/dataset/2/30_2.odb,Step-1,Increment      1: Step Time =    1.000,"PART-1-1",            62,           -9.,          -30.,            0.,NA,NA,"",            0.,  -1.44861E-39,   403.245E-42,   1.49960E-03
C:/temp/dataset/2/30_2.odb,Step-1,Increment      1: Step Time =    1.000,"PART-1-1",            63,          -12.,          -30.,            0.,NA,NA,"",            0.,   1.40713E-39,   7.97658E-39,   3.70712E-03
C:/temp/dataset/2/30_2.odb,Step-1,Increment      1: Step Time =    1.000,"PART-1-1",            64,           15.,         -27.5,            0.,NA,NA,"",   5.74072E-03,   4.78729E-03,  -3.16824E-03,   806.567E-06
C:/temp/dataset/2/30_2.odb,Step-1,Increment      1: Step Time =    1.000,"PART-1-1",            65,           15.,         -22.5,            0.,NA,NA,"",   11.9721E-03,   11.3540E-03,  -3.79729E-03,   50.1676E-06
C:/temp/dataset/2/30_2.odb,Step-1,Increment      1: Step Time =    1.000,"PART-1-1",            66,       8.33333,          -20.,            0.,NA,NA,"",   13.5916E-03,   13.5757E-03,   656.525E-06,   144.365E-06
C:/temp/dataset/2/30_2.odb,Step-1,Increment      1: Step Time =    1.000,"PART-1-1",            67,       11.6667,          -20.,            0.,NA,NA,"",   13.5052E-03,   13.4684E-03,  -996.260E-06,   45.2735E-06
C:/temp/dataset/2/30_2.odb,Step-1,Increment      1: Step Time =    1.000,"PART-1-1",            68,      -1.66667,          -20.,            0.,NA,NA,"",   23.0738E-03,   20.8025E-03,  -9.98289E-03,   4.47006E-03
C:/temp/dataset/2/30_2.odb,Step-1,Increment      1: Step Time =    1.000,"PART-1-1",            69,       1.66667,          -20.,            0.,NA,NA,"",   16.7173E-03,   16.6389E-03,  -1.61706E-03,   1.02517E-03
C:/temp/dataset/2/30_2.odb,Step-1,Increment      1: Step Time =    1.000,"PART-1-1",            70,           -5.,          -15.,            0.,NA,NA,"",   196.553E-03,   173.056E-03,  -93.1914E-03,   6.65509E-03
C:/temp/dataset/2/30_2.odb,Step-1,Increment      1: Step Time =    1.000,"PART-1-1",            71,           -5.,         -17.5,            0.,NA,NA,"",   132.043E-03,   108.328E-03,  -75.5008E-03,   11.4413E-03
C:/temp/dataset/2/30_2.odb,Step-1,Increment      1: Step Time =    1.000,"PART-1-1",            72,           -5.,          -7.5,            0.,NA,NA,"",   403.435E-03,   385.612E-03,  -118.592E-03,   751.376E-06
C:/temp/dataset/2/30_2.odb,Step-1,Increment      1: Step Time =    1.000,"PART-1-1",            73,           -5.,          -10.,            0.,NA,NA,"",   333.428E-03,   313.142E-03,  -114.525E-03,   2.21999E-03
C:/temp/dataset/2/30_2.odb,Step-1,Increment      1: Step Time =    1.000,"PART-1-1",            74,          -2.5,           -5.,            0.,NA,NA,"",   494.253E-03,   456.648E-03,  -189.101E-03,   57.4748E-06
C:/temp/dataset/2/30_2.odb,Step-1,Increment      1: Step Time =    1.000,"PART-1-1",            75,           2.5,           -5.,            0.,NA,NA,"",   560.306E-03,   454.766E-03,  -327.307E-03,   3.97778E-06
C:/temp/dataset/2/30_2.odb,Step-1,Increment      1: Step Time =    1.000,"PART-1-1",            76,           7.5,           -5.,            0.,NA,NA,"",   649.494E-03,   452.849E-03,  -465.585E-03,   513.311E-09
C:/temp/dataset/2/30_2.odb,Step-1,Increment      1: Step Time =    1.000,"PART-1-1",            77,          12.5,           -5.,            0.,NA,NA,"",   753.661E-03,   450.935E-03,  -603.872E-03,   32.6516E-09
C:/temp/dataset/2/30_2.odb,Step-1,Increment      1: Step Time =    1.000,"PART-1-1",            78,           15.,   833.333E-03,            0.,NA,NA,"",   910.858E-03,   611.314E-03,  -675.247E-03,   112.177E-09
C:/temp/dataset/2/30_2.odb,Step-1,Increment      1: Step Time =    1.000,"PART-1-1",            79,           15.,      -2.08333,            0.,NA,NA,"",   857.927E-03,   530.646E-03,  -674.131E-03,   43.5530E-09
C:/temp/dataset/2/30_2.odb,Step-1,Increment      1: Step Time =    1.000,"PART-1-1",            80,           15.,       9.58333,            0.,NA,NA,"",       1.09025,   853.317E-03,  -678.595E-03,   20.7092E-09
C:/temp/dataset/2/30_2.odb,Step-1,Increment      1: Step Time =    1.000,"PART-1-1",            81,           15.,       6.66667,            0.,NA,NA,"",       1.02760,   772.649E-03,  -677.479E-03,   24.5735E-09
C:/temp/dataset/2/30_2.odb,Step-1,Increment      1: Step Time =    1.000,"PART-1-1",            82,           15.,       18.3333,            0.,NA,NA,"",       1.29026,       1.09532,  -681.942E-03,   23.1907E-09
C:/temp/dataset/2/30_2.odb,Step-1,Increment      1: Step Time =    1.000,"PART-1-1",            83,           15.,       15.4167,            0.,NA,NA,"",       1.22190,       1.01465,  -680.826E-03,   22.2023E-09
C:/temp/dataset/2/30_2.odb,Step-1,Increment      1: Step Time =    1.000,"PART-1-1",            84,           15.,       27.0833,            0.,NA,NA,"",       1.50268,       1.33732,  -685.289E-03,   26.8801E-09
C:/temp/dataset/2/30_2.odb,Step-1,Increment      1: Step Time =    1.000,"PART-1-1",            85,           15.,       24.1667,            0.,NA,NA,"",       1.43083,       1.25666,  -684.173E-03,   26.1883E-09
C:/temp/dataset/2/30_2.odb,Step-1,Increment      1: Step Time =    1.000,"PART-1-1",            86,           10.,           30.,            0.,NA,NA,"",       1.52202,       1.41990,  -548.117E-03,   26.1633E-09
C:/temp/dataset/2/30_2.odb,Step-1,Increment      1: Step Time =    1.000,"PART-1-1",            87,          12.5,           30.,            0.,NA,NA,"",       1.54739,       1.41895,  -617.261E-03,   26.8812E-09
C:/temp/dataset/2/30_2.odb,Step-1,Increment      1: Step Time =    1.000,"PART-1-1",            88,           2.5,           30.,            0.,NA,NA,"",       1.46299,       1.42277,  -340.686E-03,   27.3031E-09
C:/temp/dataset/2/30_2.odb,Step-1,Increment      1: Step Time =    1.000,"PART-1-1",            89,            5.,           30.,            0.,NA,NA,"",       1.47970,       1.42182,  -409.830E-03,   26.4837E-09
C:/temp/dataset/2/30_2.odb,Step-1,Increment      1: Step Time =    1.000,"PART-1-1",            90,           -5.,           30.,            0.,NA,NA,"",       1.43186,       1.42564,  -133.255E-03,   29.5290E-09
C:/temp/dataset/2/30_2.odb,Step-1,Increment      1: Step Time =    1.000,"PART-1-1",            91,          -2.5,           30.,            0.,NA,NA,"",       1.43899,       1.42469,  -202.399E-03,   28.9202E-09
C:/temp/dataset/2/30_2.odb,Step-1,Increment      1: Step Time =    1.000,"PART-1-1",            92,         -12.5,           30.,            0.,NA,NA,"",       1.43043,       1.42851,   74.1766E-03,   30.6631E-09
C:/temp/dataset/2/30_2.odb,Step-1,Increment      1: Step Time =    1.000,"PART-1-1",            93,          -10.,           30.,            0.,NA,NA,"",       1.42756,       1.42755,   5.03281E-03,   30.4144E-09
C:/temp/dataset/2/30_2.odb,Step-1,Increment      1: Step Time =    1.000,"PART-1-1",            94,          -15.,          27.5,            0.,NA,NA,"",       1.36795,       1.36032,   144.277E-03,   30.9483E-09
C:/temp/dataset/2/30_2.odb,Step-1,Increment      1: Step Time =    1.000,"PART-1-1",            95,      -12.4978,       24.9766,            0.,NA,NA,"",       1.29181,       1.28957,   76.0365E-03,   30.7085E-09
C:/temp/dataset/2/30_2.odb,Step-1,Increment      1: Step Time =    1.000,"PART-1-1",            96,      -7.49872,       27.4475,            0.,NA,NA,"",       1.35747,       1.35600,  -63.1701E-03,   30.1394E-09
C:/temp/dataset/2/30_2.odb,Step-1,Increment      1: Step Time =    1.000,"PART-1-1",            97,      -7.50661,       22.4446,            0.,NA,NA,"",       1.21916,       1.21764,  -61.0379E-03,   30.6722E-09
C:/temp/dataset/2/30_2.odb,Step-1,Increment      1: Step Time =    1.000,"PART-1-1",            98,      -2.53392,       22.4091,            0.,NA,NA,"",       1.23087,       1.21475,  -198.557E-03,   30.1600E-09
C:/temp/dataset/2/30_2.odb,Step-1,Increment      1: Step Time =    1.000,"PART-1-1",            99,  -19.7467E-03,       27.3919,            0.,NA,NA,"",       1.37831,       1.35160,  -269.999E-03,   28.6458E-09
C:/temp/dataset/2/30_2.odb,Step-1,Increment      1: Step Time =    1.000,"PART-1-1",           100,       2.31326,       22.2671,            0.,NA,NA,"",       1.25388,       1.20897,  -332.563E-03,   29.8180E-09
C:/temp/dataset/2/30_2.odb,Step-1,Increment      1: Step Time =    1.000,"PART-1-1",           101,       7.89882,       27.4278,            0.,NA,NA,"",       1.43543,       1.34957,  -489.020E-03,   26.7533E-09
C:/temp/dataset/2/30_2.odb,Step-1,Increment      1: Step Time =    1.000,"PART-1-1",           102,       6.74061,       20.0564,            0.,NA,NA,"",       1.23284,       1.14614,  -454.167E-03,   27.4652E-09
C:/temp/dataset/2/30_2.odb,Step-1,Increment      1: Step Time =    1.000,"PART-1-1",           103,       6.76082,       17.7755,            0.,NA,NA,"",       1.17429,       1.08304,  -453.853E-03,   26.2619E-09
C:/temp/dataset/2/30_2.odb,Step-1,Increment      1: Step Time =    1.000,"PART-1-1",           104,       7.34933,       13.0959,            0.,NA,NA,"",       1.06221,   953.392E-03,  -468.340E-03,   23.1463E-09
C:/temp/dataset/2/30_2.odb,Step-1,Increment      1: Step Time =    1.000,"PART-1-1",           105,       12.5251,      -2.17932,            0.,NA,NA,"",   804.102E-03,   528.938E-03,  -605.644E-03,   122.545E-09
C:/temp/dataset/2/30_2.odb,Step-1,Increment      1: Step Time =    1.000,"PART-1-1",           106,       11.8446,      -24.9441,            0.,NA,NA,"",   8.59856E-03,   8.53984E-03,  -1.00314E-03,   634.061E-06
C:/temp/dataset/2/30_2.odb,Step-1,Increment      1: Step Time =    1.000,"PART-1-1",           107,       2.44158,      -2.66949,            0.,NA,NA,"",   613.405E-03,   519.240E-03,  -326.582E-03,   3.57204E-06
C:/temp/dataset/2/30_2.odb,Step-1,Increment      1: Step Time =    1.000,"PART-1-1",           108,       7.46163,      -2.37632,            0.,NA,NA,"",   701.989E-03,   525.427E-03,  -465.527E-03,   386.812E-09
C:/temp/dataset/2/30_2.odb,Step-1,Increment      1: Step Time =    1.000,"PART-1-1",           109,       7.48217,       7.95809,            0.,NA,NA,"",   937.582E-03,   811.242E-03,  -470.049E-03,   95.0823E-09
C:/temp/dataset/2/30_2.odb,Step-1,Increment      1: Step Time =    1.000,"PART-1-1",           110,      -5.01446,       22.4347,            0.,NA,NA,"",       1.22333,       1.21641,  -129.961E-03,   30.4464E-09
C:/temp/dataset/2/30_2.odb,Step-1,Increment      1: Step Time =    1.000,"PART-1-1",           111,  -75.1424E-03,       22.3615,            0.,NA,NA,"",       1.24145,       1.21250,  -266.542E-03,   29.8699E-09
C:/temp/dataset/2/30_2.odb,Step-1,Increment      1: Step Time =    1.000,"PART-1-1",           112,       4.50776,       22.1530,            0.,NA,NA,"",       1.26751,       1.20498,  -393.214E-03,   29.1520E-09
C:/temp/dataset/2/30_2.odb,Step-1,Increment      1: Step Time =    1.000,"PART-1-1",           113,       7.06405,       15.4904,            0.,NA,NA,"",       1.11924,       1.01973,  -461.366E-03,   25.0687E-09
C:/temp/dataset/2/30_2.odb,Step-1,Increment      1: Step Time =    1.000,"PART-1-1",           114,       7.46285,       10.5556,            0.,NA,NA,"",       1.00061,   883.090E-03,  -470.508E-03,   27.7402E-09
C:/temp/dataset/2/30_2.odb,Step-1,Increment      1: Step Time =    1.000,"PART-1-1",           115,      -2.89738,      -2.05905,            0.,NA,NA,"",   567.284E-03,   538.237E-03,  -179.199E-03,   81.6369E-06
C:/temp/dataset/2/30_2.odb,Step-1,Increment      1: Step Time =    1.000,"PART-1-1",           116,      -7.61206,      -10.6629,            0.,NA,NA,"",   295.627E-03,   292.607E-03,  -42.1445E-03,   3.16372E-03
C:/temp/dataset/2/30_2.odb,Step-1,Increment      1: Step Time =    1.000,"PART-1-1",           117,      -6.85891,      -17.7385,            0.,NA,NA,"",   104.661E-03,   98.7669E-03,  -34.6254E-03,   9.14336E-03
C:/temp/dataset/2/30_2.odb,Step-1,Increment      1: Step Time =    1.000,"PART-1-1",           118,       11.9280,      -27.4687,            0.,NA,NA,"",   4.57077E-03,   4.50481E-03,  -773.682E-06,   1.18426E-03
C:/temp/dataset/2/30_2.odb,Step-1,Increment      1: Step Time =    1.000,"PART-1-1",           119,      -7.44747,      -13.1413,            0.,NA,NA,"",   223.978E-03,   220.238E-03,  -40.7594E-03,   4.31619E-03
C:/temp/dataset/2/30_2.odb,Step-1,Increment      1: Step Time =    1.000,"PART-1-1",           120,      -7.13169,      -15.4658,            0.,NA,NA,"",   160.981E-03,   156.086E-03,  -39.3969E-03,   5.97241E-03
C:/temp/dataset/2/30_2.odb,Step-1,Increment      1: Step Time =    1.000,"PART-1-1",           121,      -8.02089,      -5.87394,            0.,NA,NA,"",   434.848E-03,   433.366E-03,  -35.8683E-03,   1.03204E-03
C:/temp/dataset/2/30_2.odb,Step-1,Increment      1: Step Time =    1.000,"PART-1-1",           122,      -7.74476,      -8.18529,            0.,NA,NA,"",   368.356E-03,   365.973E-03,  -41.8281E-03,   2.01788E-03
C:/temp/dataset/2/30_2.odb,Step-1,Increment      1: Step Time =    1.000,"PART-1-1",           123,  -21.3834E-03,      -2.74811,            0.,NA,NA,"",   578.897E-03,   518.000E-03,  -258.453E-03,   20.5180E-06
C:/temp/dataset/2/30_2.odb,Step-1,Increment      1: Step Time =    1.000,"PART-1-1",           124,       4.94012,      -2.49525,            0.,NA,NA,"",   655.934E-03,   523.101E-03,  -395.745E-03,   885.667E-09
C:/temp/dataset/2/30_2.odb,Step-1,Increment      1: Step Time =    1.000,"PART-1-1",           125,       10.0127,      -2.27482,            0.,NA,NA,"",   751.949E-03,   527.258E-03,  -536.122E-03,   234.104E-09
C:/temp/dataset/2/30_2.odb,Step-1,Increment      1: Step Time =    1.000,"PART-1-1",           126,       10.2967,       27.4669,            0.,NA,NA,"",       1.45952,       1.34973,  -555.355E-03,   26.6042E-09
C:/temp/dataset/2/30_2.odb,Step-1,Increment      1: Step Time =    1.000,"PART-1-1",           127,       12.6750,       27.3103,            0.,NA,NA,"",       1.48101,       1.34449,  -621.073E-03,   26.6903E-09
C:/temp/dataset/2/30_2.odb,Step-1,Increment      1: Step Time =    1.000,"PART-1-1",           128,       2.52543,       27.2659,            0.,NA,NA,"",       1.38947,       1.34715,  -340.344E-03,   27.9959E-09
C:/temp/dataset/2/30_2.odb,Step-1,Increment      1: Step Time =    1.000,"PART-1-1",           129,       5.32711,       26.8707,            0.,NA,NA,"",       1.39895,       1.33514,  -417.680E-03,   27.3787E-09
C:/temp/dataset/2/30_2.odb,Step-1,Increment      1: Step Time =    1.000,"PART-1-1",           130,      -5.00948,       27.4462,            0.,NA,NA,"",       1.36143,       1.35501,  -132.016E-03,   29.7314E-09
C:/temp/dataset/2/30_2.odb,Step-1,Increment      1: Step Time =    1.000,"PART-1-1",           131,      -2.51658,       27.4324,            0.,NA,NA,"",       1.36851,       1.35368,  -200.958E-03,   29.2303E-09
C:/temp/dataset/2/30_2.odb,Step-1,Increment      1: Step Time =    1.000,"PART-1-1",           132,      -9.99211,       27.4668,            0.,NA,NA,"",       1.35750,       1.35749,   5.78357E-03,   30.4578E-09
C:/temp/dataset/2/30_2.odb,Step-1,Increment      1: Step Time =    1.000,"PART-1-1",           133,       12.5029,       21.6680,            0.,NA,NA,"",       1.33781,       1.18850,  -614.153E-03,   25.4173E-09
C:/temp/dataset/2/30_2.odb,Step-1,Increment      1: Step Time =    1.000,"PART-1-1",           134,      -12.7198,      -9.27859,            0.,NA,NA,"",   351.326E-03,   340.314E-03,   87.2725E-03,   3.44103E-03
C:/temp/dataset/2/30_2.odb,Step-1,Increment      1: Step Time =    1.000,"PART-1-1",           135,      -12.2206,      -21.4876,            0.,NA,NA,"",   55.5415E-03,   40.7163E-03,   37.7762E-03,   5.48838E-03
C:/temp/dataset/2/30_2.odb,Step-1,Increment      1: Step Time =    1.000,"PART-1-1",           136,       12.4390,       11.8581,            0.,NA,NA,"",       1.10078,   917.209E-03,  -608.635E-03,   19.2512E-09
C:/temp/dataset/2/30_2.odb,Step-1,Increment      1: Step Time =    1.000,"PART-1-1",           137,      -12.6285,      -12.0158,            0.,NA,NA,"",   269.467E-03,   257.325E-03,   79.9783E-03,   4.87730E-03
C:/temp/dataset/2/30_2.odb,Step-1,Increment      1: Step Time =    1.000,"PART-1-1",           138,      -12.4213,      -14.8709,            0.,NA,NA,"",   187.008E-03,   174.055E-03,   68.3863E-03,   4.90393E-03
C:/temp/dataset/2/30_2.odb,Step-1,Increment      1: Step Time =    1.000,"PART-1-1",           139,       12.2989,       14.8029,            0.,NA,NA,"",       1.16813,   998.711E-03,  -605.887E-03,   22.2958E-09
C:/temp/dataset/2/30_2.odb,Step-1,Increment      1: Step Time =    1.000,"PART-1-1",           140,       11.7182,       18.2155,            0.,NA,NA,"",       1.24289,       1.09332,  -591.130E-03,   24.1754E-09
C:/temp/dataset/2/30_2.odb,Step-1,Increment      1: Step Time =    1.000,"PART-1-1",           141,      -12.3380,      -4.01281,            0.,NA,NA,"",   496.801E-03,   490.122E-03,   81.1894E-03,   1.11439E-03
C:/temp/dataset/2/30_2.odb,Step-1,Increment      1: Step Time =    1.000,"PART-1-1",           142,       12.5089,       6.21106,            0.,NA,NA,"",   974.311E-03,   761.001E-03,  -608.407E-03,   57.3326E-09
C:/temp/dataset/2/30_2.odb,Step-1,Increment      1: Step Time =    1.000,"PART-1-1",           143,      -10.9765,      -1.21375,            0.,NA,NA,"",   566.938E-03,   565.260E-03,   43.5759E-03,   185.081E-06
C:/temp/dataset/2/30_2.odb,Step-1,Increment      1: Step Time =    1.000,"PART-1-1",           144,      -11.4273,       2.02370,            0.,NA,NA,"",   656.493E-03,   654.223E-03,   54.5514E-03,   115.453E-06
C:/temp/dataset/2/30_2.odb,Step-1,Increment      1: Step Time =    1.000,"PART-1-1",           145,      -12.7154,      -6.64001,            0.,NA,NA,"",   427.326E-03,   417.729E-03,   90.0570E-03,   2.44758E-03
C:/temp/dataset/2/30_2.odb,Step-1,Increment      1: Step Time =    1.000,"PART-1-1",           146,      -11.7762,      -18.1315,            0.,NA,NA,"",   104.755E-03,   94.2242E-03,   45.7750E-03,   4.97669E-03
C:/temp/dataset/2/30_2.odb,Step-1,Increment      1: Step Time =    1.000,"PART-1-1",           147,      -12.2481,      -24.4184,            0.,NA,NA,"",   27.8922E-03,   14.5865E-03,   23.7741E-03,   5.45940E-03
C:/temp/dataset/2/30_2.odb,Step-1,Increment      1: Step Time =    1.000,"PART-1-1",           148,       12.5340,       3.42208,            0.,NA,NA,"",   915.075E-03,   683.855E-03,  -608.034E-03,   87.1816E-09
C:/temp/dataset/2/30_2.odb,Step-1,Increment      1: Step Time =    1.000,"PART-1-1",           149,       12.5428,   630.306E-03,            0.,NA,NA,"",   858.320E-03,   606.638E-03,  -607.209E-03,   95.3312E-09
C:/temp/dataset/2/30_2.odb,Step-1,Increment      1: Step Time =    1.000,"PART-1-1",           150,       12.5001,       9.03097,            0.,NA,NA,"",       1.03687,   838.996E-03,  -609.243E-03,   19.7803E-09
C:/temp/dataset/2/30_2.odb,Step-1,Increment      1: Step Time =    1.000,"PART-1-1",           151,       12.7192,       24.5718,            0.,NA,NA,"",       1.41267,       1.26873,  -621.246E-03,   26.2748E-09
C:/temp/dataset/2/30_2.odb,Step-1,Increment      1: Step Time =    1.000,"PART-1-1",           152,       2.66783,      -27.4286,            0.,NA,NA,"",   7.91571E-03,   7.78149E-03,  -1.45148E-03,   2.18901E-03
C:/temp/dataset/2/30_2.odb,Step-1,Increment      1: Step Time =    1.000,"PART-1-1",           153,       8.86089,      -27.4494,            0.,NA,NA,"",   5.13600E-03,   5.12869E-03,  -273.929E-06,   1.30439E-03
C:/temp/dataset/2/30_2.odb,Step-1,Increment      1: Step Time =    1.000,"PART-1-1",           154,       5.76511,      -27.4328,            0.,NA,NA,"",   6.42496E-03,   6.40539E-03,  -501.090E-06,   1.65436E-03
C:/temp/dataset/2/30_2.odb,Step-1,Increment      1: Step Time =    1.000,"PART-1-1",           155,  -414.647E-03,      -27.4330,            0.,NA,NA,"",   8.99127E-03,   8.31338E-03,  -3.42500E-03,   2.98838E-03
C:/temp/dataset/2/30_2.odb,Step-1,Increment      1: Step Time =    1.000,"PART-1-1",           156,      -3.42691,      -27.4460,            0.,NA,NA,"",   8.41921E-03,   6.41360E-03,  -5.45424E-03,   3.64574E-03
C:/temp/dataset/2/30_2.odb,Step-1,Increment      1: Step Time =    1.000,"PART-1-1",           157,      -6.36574,      -27.4272,            0.,NA,NA,"",   5.03908E-03,   2.42967E-03,  -4.41464E-03,   2.89152E-03
C:/temp/dataset/2/30_2.odb,Step-1,Increment      1: Step Time =    1.000,"PART-1-1",           158,       10.5238,       25.0033,            0.,NA,NA,"",       1.39880,       1.28151,  -560.692E-03,   26.5747E-09
C:/temp/dataset/2/30_2.odb,Step-1,Increment      1: Step Time =    1.000,"PART-1-1",           159,       6.26912,       22.1485,            0.,NA,NA,"",       1.28271,       1.20418,  -441.927E-03,   28.2772E-09
C:/temp/dataset/2/30_2.odb,Step-1,Increment      1: Step Time =    1.000,"PART-1-1",           160,      -5.96402,      -2.70245,            0.,NA,NA,"",   530.172E-03,   521.759E-03,  -94.0712E-03,   86.0925E-06
C:/temp/dataset/2/30_2.odb,Step-1,Increment      1: Step Time =    1.000,"PART-1-1",           161,      -12.5033,       22.4816,            0.,NA,NA,"",       1.22301,       1.22057,   77.1427E-03,   30.8694E-09
C:/temp/dataset/2/30_2.odb,Step-1,Increment      1: Step Time =    1.000,"PART-1-1",           162,      -2.53325,       24.9024,            0.,NA,NA,"",       1.29913,       1.28371,  -199.529E-03,   29.6613E-09
C:/temp/dataset/2/30_2.odb,Step-1,Increment      1: Step Time =    1.000,"PART-1-1",           163,       4.43197,       24.4161,            0.,NA,NA,"",       1.32682,       1.26760,  -391.984E-03,   28.3230E-09
C:/temp/dataset/2/30_2.odb,Step-1,Increment      1: Step Time =    1.000,"PART-1-1",           164,      -10.2797,      -8.84555,            0.,NA,NA,"",   349.349E-03,   348.495E-03,   24.4189E-03,   3.02825E-03
C:/temp/dataset/2/30_2.odb,Step-1,Increment      1: Step Time =    1.000,"PART-1-1",           165,       2.21534,  -332.134E-03,            0.,NA,NA,"",   666.484E-03,   583.972E-03,  -321.213E-03,   4.80489E-06
C:/temp/dataset/2/30_2.odb,Step-1,Increment      1: Step Time =    1.000,"PART-1-1",           166,  -74.2209E-03,       24.8536,            0.,NA,NA,"",       1.30905,       1.28142,  -267.521E-03,   29.2059E-09
C:/temp/dataset/2/30_2.odb,Step-1,Increment      1: Step Time =    1.000,"PART-1-1",           167,       2.30693,       24.7164,            0.,NA,NA,"",       1.31951,       1.27671,  -333.325E-03,   28.7438E-09
C:/temp/dataset/2/30_2.odb,Step-1,Increment      1: Step Time =    1.000,"PART-1-1",           168,       9.79368,       13.9045,            0.,NA,NA,"",       1.11259,   974.822E-03,  -536.254E-03,   21.7488E-09
C:/temp/dataset/2/30_2.odb,Step-1,Increment      1: Step Time =    1.000,"PART-1-1",           169,       9.30777,       16.4521,            0.,NA,NA,"",       1.16934,       1.04547,  -523.789E-03,   24.1649E-09
C:/temp/dataset/2/30_2.odb,Step-1,Increment      1: Step Time =    1.000,"PART-1-1",           170,      -2.35985,       1.11806,            0.,NA,NA,"",   655.601E-03,   625.871E-03,  -195.186E-03,   33.4408E-06
C:/temp/dataset/2/30_2.odb,Step-1,Increment      1: Step Time =    1.000,"PART-1-1",           171,      -9.94133,      -13.9778,            0.,NA,NA,"",   196.531E-03,   195.836E-03,   16.5102E-03,   4.77818E-03
C:/temp/dataset/2/30_2.odb,Step-1,Increment      1: Step Time =    1.000,"PART-1-1",           172,       4.80988,   33.7751E-03,            0.,NA,NA,"",   711.547E-03,   593.096E-03,  -393.110E-03,   782.188E-09
C:/temp/dataset/2/30_2.odb,Step-1,Increment      1: Step Time =    1.000,"PART-1-1",           173,       9.94126,       11.1894,            0.,NA,NA,"",       1.04893,   899.672E-03,  -539.297E-03,   20.3789E-09
C:/temp/dataset/2/30_2.odb,Step-1,Increment      1: Step Time =    1.000,"PART-1-1",           174,       7.43598,   226.782E-03,            0.,NA,NA,"",   757.566E-03,   597.431E-03,  -465.814E-03,   509.427E-09
C:/temp/dataset/2/30_2.odb,Step-1,Increment      1: Step Time =    1.000,"PART-1-1",           175,      -7.50368,       24.9336,            0.,NA,NA,"",       1.28797,       1.28648,  -62.0711E-03,   30.3608E-09
C:/temp/dataset/2/30_2.odb,Step-1,Increment      1: Step Time =    1.000,"PART-1-1",           176,      -10.1536,      -11.3797,            0.,NA,NA,"",   273.063E-03,   272.261E-03,   20.9032E-03,   4.14291E-03
C:/temp/dataset/2/30_2.odb,Step-1,Increment      1: Step Time =    1.000,"PART-1-1",           177,       6.92724,       24.6415,            0.,NA,NA,"",       1.35381,       1.27288,  -461.083E-03,   27.4570E-09
C:/temp/dataset/2/30_2.odb,Step-1,Increment      1: Step Time =    1.000,"PART-1-1",           178,      -9.99868,       24.9580,            0.,NA,NA,"",       1.28812,       1.28811,   6.92497E-03,   30.5862E-09
C:/temp/dataset/2/30_2.odb,Step-1,Increment      1: Step Time =    1.000,"PART-1-1",           179,       8.37028,       18.0705,            0.,NA,NA,"",       1.19911,       1.09059,  -498.480E-03,   25.5443E-09
C:/temp/dataset/2/30_2.odb,Step-1,Increment      1: Step Time =    1.000,"PART-1-1",           180,      -10.4068,      -6.54987,            0.,NA,NA,"",   417.095E-03,   416.134E-03,   28.3100E-03,   1.85043E-03
C:/temp/dataset/2/30_2.odb,Step-1,Increment      1: Step Time =    1.000,"PART-1-1",           181,      -8.52723,      -17.8680,            0.,NA,NA,"",   94.2882E-03,   94.1039E-03,  -5.89289E-03,   5.74922E-03
C:/temp/dataset/2/30_2.odb,Step-1,Increment      1: Step Time =    1.000,"PART-1-1",           182,       9.99063,       8.47585,            0.,NA,NA,"",   985.477E-03,   824.603E-03,  -539.625E-03,   31.2587E-09
C:/temp/dataset/2/30_2.odb,Step-1,Increment      1: Step Time =    1.000,"PART-1-1",           183,      -6.87511,      -22.3968,            0.,NA,NA,"",   29.4897E-03,   23.9430E-03,  -17.2156E-03,   4.63133E-03
C:/temp/dataset/2/30_2.odb,Step-1,Increment      1: Step Time =    1.000,"PART-1-1",           184,       7.48189,       5.34092,            0.,NA,NA,"",   875.163E-03,   738.858E-03,  -469.040E-03,   240.548E-09
C:/temp/dataset/2/30_2.odb,Step-1,Increment      1: Step Time =    1.000,"PART-1-1",           185,       10.0207,   425.902E-03,            0.,NA,NA,"",   806.919E-03,   601.949E-03,  -537.378E-03,   185.428E-09
C:/temp/dataset/2/30_2.odb,Step-1,Increment      1: Step Time =    1.000,"PART-1-1",           186,      -8.86720,      -3.63325,            0.,NA,NA,"",   497.492E-03,   497.307E-03,  -13.5753E-03,   430.565E-06
C:/temp/dataset/2/30_2.odb,Step-1,Increment      1: Step Time =    1.000,"PART-1-1",           187,       10.0155,       5.77118,            0.,NA,NA,"",   923.581E-03,   749.789E-03,  -539.277E-03,   98.9921E-09
C:/temp/dataset/2/30_2.odb,Step-1,Increment      1: Step Time =    1.000,"PART-1-1",           188,       9.07540,       20.2179,            0.,NA,NA,"",       1.26134,       1.14971,  -518.803E-03,   26.0875E-09
C:/temp/dataset/2/30_2.odb,Step-1,Increment      1: Step Time =    1.000,"PART-1-1",           189,       5.51479,      -24.9218,            0.,NA,NA,"",   11.1468E-03,   11.1405E-03,  -373.560E-06,   1.37392E-03
C:/temp/dataset/2/30_2.odb,Step-1,Increment      1: Step Time =    1.000,"PART-1-1",           190,       2.33502,      -24.9114,            0.,NA,NA,"",   13.9241E-03,   13.7082E-03,  -2.44234E-03,   2.01051E-03
C:/temp/dataset/2/30_2.odb,Step-1,Increment      1: Step Time =    1.000,"PART-1-1",           191,      -3.83494,      -24.9465,            0.,NA,NA,"",   19.5189E-03,   14.7889E-03,  -12.7388E-03,   4.91833E-03
C:/temp/dataset/2/30_2.odb,Step-1,Increment      1: Step Time =    1.000,"PART-1-1",           192,       8.68706,      -24.9229,            0.,NA,NA,"",   9.39432E-03,   9.39394E-03,  -83.9727E-06,   949.976E-06
C:/temp/dataset/2/30_2.odb,Step-1,Increment      1: Step Time =    1.000,"PART-1-1",           193,  -793.545E-03,      -24.9263,            0.,NA,NA,"",   17.4745E-03,   15.8846E-03,  -7.28253E-03,   3.77176E-03
C:/temp/dataset/2/30_2.odb,Step-1,Increment      1: Step Time =    1.000,"PART-1-1",           194,      -10.0041,       22.4687,            0.,NA,NA,"",       1.21929,       1.21926,   8.02662E-03,   30.8096E-09
C:/temp/dataset/2/30_2.odb,Step-1,Increment      1: Step Time =    1.000,"PART-1-1",           195,       7.76291,       22.5689,            0.,NA,NA,"",       1.30785,       1.21523,  -483.403E-03,   27.3114E-09
C:/temp/dataset/2/30_2.odb,Step-1,Increment      1: Step Time =    1.000,"PART-1-1",           196,       10.0314,       3.09975,            0.,NA,NA,"",   864.309E-03,   675.897E-03,  -538.696E-03,   171.020E-09
C:/temp/dataset/2/30_2.odb,Step-1,Increment      1: Step Time =    1.000,"PART-1-1",           197,       7.45157,       2.78517,            0.,NA,NA,"",   815.333E-03,   668.184E-03,  -467.224E-03,   511.657E-09
C:/temp/dataset/2/30_2.odb,Step-1,Increment      1: Step Time =    1.000,"PART-1-1",           198,       1.23926,       2.17480,            0.,NA,NA,"",   717.230E-03,   653.681E-03,  -295.162E-03,   6.57612E-06
C:/temp/dataset/2/30_2.odb,Step-1,Increment      1: Step Time =    1.000,"PART-1-1",           199,       5.89388,       23.8379,            0.,NA,NA,"",       1.32360,       1.25104,  -432.195E-03,   28.0234E-09
C:/temp/dataset/2/30_2.odb,Step-1,Increment      1: Step Time =    1.000,"PART-1-1",           200,       4.70825,       2.52712,            0.,NA,NA,"",   769.056E-03,   662.095E-03,  -391.251E-03,   809.020E-09
C:/temp/dataset/2/30_2.odb,Step-1,Increment      1: Step Time =    1.000,"PART-1-1",           201,      -6.67563,      -24.8783,            0.,NA,NA,"",   14.7072E-03,   10.2039E-03,  -10.5916E-03,   3.72427E-03
C:/temp/dataset/2/30_2.odb,Step-1,Increment      1: Step Time =    1.000,"PART-1-1",           202,      -1.93740,       2.90022,            0.,NA,NA,"",   706.144E-03,   674.957E-03,  -207.539E-03,   25.9732E-06
C:/temp/dataset/2/30_2.odb,Step-1,Increment      1: Step Time =    1.000,"PART-1-1",           203,      -4.27328,      -22.5070,            0.,NA,NA,"",   32.7577E-03,   25.4154E-03,  -20.6669E-03,   7.61629E-03
C:/temp/dataset/2/30_2.odb,Step-1,Increment      1: Step Time =    1.000,"PART-1-1",           204,      -7.29195,  -216.826E-03,            0.,NA,NA,"",   593.932E-03,   591.072E-03,  -58.2199E-03,   69.1364E-06
C:/temp/dataset/2/30_2.odb,Step-1,Increment      1: Step Time =    1.000,"PART-1-1",           205,      -4.39370,   432.763E-03,            0.,NA,NA,"",   623.391E-03,   607.775E-03,  -138.656E-03,   73.9592E-06
C:/temp/dataset/2/30_2.odb,Step-1,Increment      1: Step Time =    1.000,"PART-1-1",           206,      -1.20581,      -22.4416,            0.,NA,NA,"",   22.8037E-03,   21.2951E-03,  -8.15631E-03,   4.92300E-03
C:/temp/dataset/2/30_2.odb,Step-1,Increment      1: Step Time =    1.000,"PART-1-1",           207,      -4.88725,       2.78210,            0.,NA,NA,"",   684.477E-03,   672.805E-03,  -125.862E-03,   58.6515E-06
C:/temp/dataset/2/30_2.odb,Step-1,Increment      1: Step Time =    1.000,"PART-1-1",           208,      -8.02678,       2.39768,            0.,NA,NA,"",   664.480E-03,   663.334E-03,  -39.0000E-03,   47.3165E-06
C:/temp/dataset/2/30_2.odb,Step-1,Increment      1: Step Time =    1.000,"PART-1-1",           209,       8.51144,      -22.4401,            0.,NA,NA,"",   12.2223E-03,   12.2182E-03,   317.396E-06,   568.609E-06
C:/temp/dataset/2/30_2.odb,Step-1,Increment      1: Step Time =    1.000,"PART-1-1",           210,       5.25488,      -22.4306,            0.,NA,NA,"",   13.8885E-03,   13.8859E-03,   266.888E-06,   979.759E-06
C:/temp/dataset/2/30_2.odb,Step-1,Increment      1: Step Time =    1.000,"PART-1-1",           211,       2.00226,      -22.4217,            0.,NA,NA,"",   17.2244E-03,   17.1064E-03,  -2.01207E-03,   1.97253E-03
C:/temp/dataset/2/30_2.odb,Step-1,Increment      1: Step Time =    1.000,"PART-1-1",           212,      -9.28570,      -27.3600,            0.,NA,NA,"",   1.26954E-03,  -124.182E-06,   1.26346E-03,   807.200E-06
C:/temp/dataset/2/30_2.odb,Step-1,Increment      1: Step Time =    1.000,"PART-1-1",           213,       11.7596,      -22.4488,            0.,NA,NA,"",   11.5374E-03,   11.4869E-03,  -1.07754E-03,   211.745E-06
C:/temp/dataset/2/30_2.odb,Step-1,Increment      1: Step Time =    1.000,"PART-1-1",           214,      -12.4952,       27.4851,            0.,NA,NA,"",       1.36102,       1.35895,   75.0060E-03,   30.7262E-09
C:/temp/dataset/2/30_2.odb,Step-1,Increment      1: Step Time =    1.000,"PART-1-1",           215,      -12.1608,      -27.2494,            0.,NA,NA,"",   11.0389E-03,   2.71943E-03,   10.6986E-03,   5.02881E-03
C:/temp/dataset/2/30_2.odb,Step-1,Increment      1: Step Time =    1.000,"PART-1-1",           216,      -6.92277,      -20.0189,            0.,NA,NA,"",   54.3298E-03,   48.9551E-03,  -23.5612E-03,   5.51535E-03
C:/temp/dataset/2/30_2.odb,Step-1,Increment      1: Step Time =    1.000,"PART-1-1",           217,       10.3403,       22.5364,            0.,NA,NA,"",       1.33412,       1.21335,  -554.673E-03,   26.2321E-09
C:/temp/dataset/2/30_2.odb,Step-1,Increment      1: Step Time =    1.000,"PART-1-1",           218,      -9.38591,      -16.3373,            0.,NA,NA,"",   131.976E-03,   131.799E-03,   6.84890E-03,   4.79973E-03
C:/temp/dataset/2/30_2.odb,Step-1,Increment      1: Step Time =    1.000,"PART-1-1",           219,      -9.56004,      -22.0160,            0.,NA,NA,"",   29.2712E-03,   28.6181E-03,   6.14849E-03,   2.15516E-03
C:/temp/dataset/2/30_2.odb,Step-1,Increment      1: Step Time =    1.000,"PART-1-1",           220,      -9.49058,      -24.6874,            0.,NA,NA,"",   9.67806E-03,   9.10652E-03,   3.27660E-03,   1.12848E-03
C:/temp/dataset/2/30_2.odb,Step-1,Increment      1: Step Time =    1.000,"PART-1-1",           221,  -968.003E-03,   33.9082E-03,            0.,NA,NA,"",   639.424E-03,   595.342E-03,  -233.304E-03,   25.3353E-06
C:/temp/dataset/2/30_2.odb,Step-1,Increment      1: Step Time =    1.000,"PART-1-1",           222,   333.674E-03,      -1.00763,            0.,NA,NA,"",   626.652E-03,   566.015E-03,  -268.925E-03,   18.5762E-06
C:/temp/dataset/2/30_2.odb,Step-1,Increment      1: Step Time =    1.000,"PART-1-1",           223,      -10.5623,      -4.72446,            0.,NA,NA,"",   469.416E-03,   468.269E-03,   32.8013E-03,   1.04568E-03
C:/temp/dataset/2/30_2.odb,Step-1,Increment      1: Step Time =    1.000,"PART-1-1",           224,      -5.01319,       24.9269,            0.,NA,NA,"",       1.29199,       1.28534,  -130.949E-03,   30.0453E-09
C:/temp/dataset/2/30_2.odb,Step-1,Increment      1: Step Time =    1.000,"PART-1-1",           225,      -9.24174,      -19.5473,            0.,NA,NA,"",   61.6244E-03,   61.4424E-03,   4.73216E-03,   3.25385E-03
C:/temp/dataset/2/30_2.odb,Step-1,Increment      1: Step Time =    1.000,"PART-1-1",           226,       8.53639,       25.1316,            0.,NA,NA,"",       1.38171,       1.28582,  -505.775E-03,   26.9680E-09
C:/temp/dataset/2/30_2.odb,Step-1,Increment      1: Step Time =    1.000,"PART-1-1",           227,       8.85572,       23.3093,            0.,NA,NA,"",       1.33793,       1.23529,  -513.910E-03,   26.8575E-09
C:/temp/dataset/2/30_2.odb,Step-1,Increment      1: Step Time =    1.000,"PART-1-1",           228,      -13.7516,       22.4908,            0.,NA,NA,"",       1.22640,       1.22130,   111.666E-03,   30.7439E-09
C:/temp/dataset/2/30_2.odb,Step-1,Increment      1: Step Time =    1.000,"PART-1-1",           229,          -15.,         21.25,            0.,NA,NA,"",       1.19649,       1.18746,   146.667E-03,   30.9430E-09
C:/temp/dataset/2/30_2.odb,Step-1,Increment      1: Step Time =    1.000,"PART-1-1",           230,        -13.75,           20.,            0.,NA,NA,"",       1.15790,       1.15241,   112.574E-03,   31.2535E-09
C:/temp/dataset/2/30_2.odb,Step-1,Increment      1: Step Time =    1.000,"PART-1-1",           231,      -12.5016,       21.2408,            0.,NA,NA,"",       1.18879,       1.18625,   77.5723E-03,   31.0140E-09
C:/temp/dataset/2/30_2.odb,Step-1,Increment      1: Step Time =    1.000,"PART-1-1",           232,      -9.99605,       28.7334,            0.,NA,NA,"",       1.39253,       1.39252,   5.40817E-03,   30.4335E-09
C:/temp/dataset/2/30_2.odb,Step-1,Increment      1: Step Time =    1.000,"PART-1-1",           233,        -11.25,           30.,            0.,NA,NA,"",       1.42858,       1.42803,   39.6047E-03,   30.5786E-09
C:/temp/dataset/2/30_2.odb,Step-1,Increment      1: Step Time =    1.000,"PART-1-1",           234,      -12.4976,       28.7426,            0.,NA,NA,"",       1.39573,       1.39373,   74.5913E-03,   30.7006E-09
C:/temp/dataset/2/30_2.odb,Step-1,Increment      1: Step Time =    1.000,"PART-1-1",           235,      -11.2437,       27.4760,            0.,NA,NA,"",       1.35882,       1.35822,   40.3948E-03,   30.5813E-09
C:/temp/dataset/2/30_2.odb,Step-1,Increment      1: Step Time =    1.000,"PART-1-1",           236,      -8.74541,       27.4572,            0.,NA,NA,"",       1.35705,       1.35675,  -28.6933E-03,   30.2991E-09
C:/temp/dataset/2/30_2.odb,Step-1,Increment      1: Step Time =    1.000,"PART-1-1",           237,      -7.49936,       28.7238,            0.,NA,NA,"",       1.39275,       1.39130,  -63.6405E-03,   30.0787E-09
C:/temp/dataset/2/30_2.odb,Step-1,Increment      1: Step Time =    1.000,"PART-1-1",           238,         -8.75,           30.,            0.,NA,NA,"",       1.42738,       1.42708,  -29.5391E-03,   30.2199E-09
C:/temp/dataset/2/30_2.odb,Step-1,Increment      1: Step Time =    1.000,"PART-1-1",           239,      -10.0020,       21.2344,            0.,NA,NA,"",       1.18515,       1.18512,   8.44236E-03,   30.9676E-09
C:/temp/dataset/2/30_2.odb,Step-1,Increment      1: Step Time =    1.000,"PART-1-1",           240,      -11.2537,       22.4752,            0.,NA,NA,"",       1.22066,       1.21992,   42.5847E-03,   30.8339E-09
C:/temp/dataset/2/30_2.odb,Step-1,Increment      1: Step Time =    1.000,"PART-1-1",           241,        -11.25,           20.,            0.,NA,NA,"",       1.15228,       1.15146,   43.4300E-03,   31.1217E-09
C:/temp/dataset/2/30_2.odb,Step-1,Increment      1: Step Time =    1.000,"PART-1-1",           242,      -6.25410,       27.4469,            0.,NA,NA,"",       1.35902,       1.35551,  -97.5929E-03,   29.9352E-09
C:/temp/dataset/2/30_2.odb,Step-1,Increment      1: Step Time =    1.000,"PART-1-1",           243,      -7.50120,       26.1906,            0.,NA,NA,"",       1.32272,       1.32124,  -62.6206E-03,   30.2494E-09
C:/temp/dataset/2/30_2.odb,Step-1,Increment      1: Step Time =    1.000,"PART-1-1",           244,      -6.25844,       24.9303,            0.,NA,NA,"",       1.28952,       1.28591,  -96.5102E-03,   30.2038E-09
C:/temp/dataset/2/30_2.odb,Step-1,Increment      1: Step Time =    1.000,"PART-1-1",           245,      -5.01133,       26.1865,            0.,NA,NA,"",       1.32671,       1.32017,  -131.483E-03,   29.8867E-09
C:/temp/dataset/2/30_2.odb,Step-1,Increment      1: Step Time =    1.000,"PART-1-1",           246,       1.11906,       22.3143,            0.,NA,NA,"",       1.24724,       1.21073,  -299.553E-03,   29.7463E-09
C:/temp/dataset/2/30_2.odb,Step-1,Increment      1: Step Time =    1.000,"PART-1-1",           247,  -37.5712E-03,       21.1808,            0.,NA,NA,"",       1.20969,       1.17982,  -267.130E-03,   30.1111E-09
C:/temp/dataset/2/30_2.odb,Step-1,Increment      1: Step Time =    1.000,"PART-1-1",           248,          1.25,           20.,            0.,NA,NA,"",       1.18585,       1.14668,  -302.289E-03,   30.4113E-09
C:/temp/dataset/2/30_2.odb,Step-1,Increment      1: Step Time =    1.000,"PART-1-1",           249,       2.40663,       21.1336,            0.,NA,NA,"",       1.22423,       1.17758,  -334.712E-03,   29.8735E-09
C:/temp/dataset/2/30_2.odb,Step-1,Increment      1: Step Time =    1.000,"PART-1-1",           250,  -46.9838E-03,       26.1228,            0.,NA,NA,"",       1.34366,       1.31651,  -268.760E-03,   28.9161E-09
C:/temp/dataset/2/30_2.odb,Step-1,Increment      1: Step Time =    1.000,"PART-1-1",           251,       1.11635,       24.7850,            0.,NA,NA,"",       1.31387,       1.27907,  -300.423E-03,   29.0282E-09
C:/temp/dataset/2/30_2.odb,Step-1,Increment      1: Step Time =    1.000,"PART-1-1",           252,       2.41618,       25.9912,            0.,NA,NA,"",       1.35448,       1.31193,  -336.834E-03,   28.3772E-09
C:/temp/dataset/2/30_2.odb,Step-1,Increment      1: Step Time =    1.000,"PART-1-1",           253,       1.25284,       27.3289,            0.,NA,NA,"",       1.38345,       1.34937,  -305.171E-03,   28.3105E-09
C:/temp/dataset/2/30_2.odb,Step-1,Increment      1: Step Time =    1.000,"PART-1-1",           254,       11.4216,       22.1022,            0.,NA,NA,"",       1.33558,       1.20093,  -584.413E-03,   25.8284E-09
C:/temp/dataset/2/30_2.odb,Step-1,Increment      1: Step Time =    1.000,"PART-1-1",           255,       9.70783,       21.3771,            0.,NA,NA,"",       1.29773,       1.18153,  -536.738E-03,   26.1689E-09
C:/temp/dataset/2/30_2.odb,Step-1,Increment      1: Step Time =    1.000,"PART-1-1",           256,       10.3968,       19.2167,            0.,NA,NA,"",       1.25131,       1.12151,  -554.967E-03,   25.1145E-09
C:/temp/dataset/2/30_2.odb,Step-1,Increment      1: Step Time =    1.000,"PART-1-1",           257,       12.1105,       19.9418,            0.,NA,NA,"",       1.29029,       1.14091,  -602.642E-03,   24.7839E-09
C:/temp/dataset/2/30_2.odb,Step-1,Increment      1: Step Time =    1.000,"PART-1-1",           258,       11.6215,       24.7876,            0.,NA,NA,"",       1.40541,       1.27512,  -590.969E-03,   26.4193E-09
C:/temp/dataset/2/30_2.odb,Step-1,Increment      1: Step Time =    1.000,"PART-1-1",           259,       12.6971,       25.9410,            0.,NA,NA,"",       1.44675,       1.30661,  -621.159E-03,   26.4718E-09
C:/temp/dataset/2/30_2.odb,Step-1,Increment      1: Step Time =    1.000,"PART-1-1",           260,       11.4859,       27.3886,            0.,NA,NA,"",       1.46993,       1.34711,  -588.214E-03,   26.6421E-09
C:/temp/dataset/2/30_2.odb,Step-1,Increment      1: Step Time =    1.000,"PART-1-1",           261,       10.4103,       26.2351,            0.,NA,NA,"",       1.42907,       1.31562,  -558.024E-03,   26.5843E-09
C:/temp/dataset/2/30_2.odb,Step-1,Increment      1: Step Time =    1.000,"PART-1-1",           262,       5.88041,       17.6377,            0.,NA,NA,"",       1.16185,       1.07957,  -429.451E-03,   26.3176E-09
C:/temp/dataset/2/30_2.odb,Step-1,Increment      1: Step Time =    1.000,"PART-1-1",           263,       6.75071,       18.9160,            0.,NA,NA,"",       1.20351,       1.11459,  -454.010E-03,   26.6297E-09
C:/temp/dataset/2/30_2.odb,Step-1,Increment      1: Step Time =    1.000,"PART-1-1",           264,       5.87030,       20.0282,            0.,NA,NA,"",       1.22375,       1.14569,  -430.086E-03,   28.8503E-09
C:/temp/dataset/2/30_2.odb,Step-1,Increment      1: Step Time =    1.000,"PART-1-1",           265,            5.,         18.75,            0.,NA,NA,"",       1.18239,       1.11067,  -405.526E-03,   28.2945E-09
C:/temp/dataset/2/30_2.odb,Step-1,Increment      1: Step Time =    1.000,"PART-1-1",           266,       12.3690,       13.3305,            0.,NA,NA,"",       1.13422,   957.960E-03,  -607.261E-03,   20.9198E-09
C:/temp/dataset/2/30_2.odb,Step-1,Increment      1: Step Time =    1.000,"PART-1-1",           267,       13.7195,       12.1790,            0.,NA,NA,"",       1.12769,   925.597E-03,  -644.173E-03,   20.6940E-09
C:/temp/dataset/2/30_2.odb,Step-1,Increment      1: Step Time =    1.000,"PART-1-1",           268,           15.,       13.9583,            0.,NA,NA,"",       1.18830,   974.318E-03,  -680.268E-03,   21.7571E-09
C:/temp/dataset/2/30_2.odb,Step-1,Increment      1: Step Time =    1.000,"PART-1-1",           269,       13.6495,       15.1098,            0.,NA,NA,"",       1.19470,       1.00668,  -643.356E-03,   22.0891E-09
C:/temp/dataset/2/30_2.odb,Step-1,Increment      1: Step Time =    1.000,"PART-1-1",           270,       12.5214,       4.81657,            0.,NA,NA,"",   944.370E-03,   722.428E-03,  -608.221E-03,   68.7814E-09
C:/temp/dataset/2/30_2.odb,Step-1,Increment      1: Step Time =    1.000,"PART-1-1",           271,       13.7670,       3.58604,            0.,NA,NA,"",   941.090E-03,   687.918E-03,  -642.199E-03,   73.2595E-09
C:/temp/dataset/2/30_2.odb,Step-1,Increment      1: Step Time =    1.000,"PART-1-1",           272,           15.,       5.20833,            0.,NA,NA,"",   997.250E-03,   732.315E-03,  -676.921E-03,   49.1750E-09
C:/temp/dataset/2/30_2.odb,Step-1,Increment      1: Step Time =    1.000,"PART-1-1",           273,       13.7545,       6.43886,            0.,NA,NA,"",       1.00070,   766.825E-03,  -642.943E-03,   32.9307E-09
C:/temp/dataset/2/30_2.odb,Step-1,Increment      1: Step Time =    1.000,"PART-1-1",           274,       13.7625,      -2.13133,            0.,NA,NA,"",   830.744E-03,   529.792E-03,  -639.888E-03,   74.7871E-09
C:/temp/dataset/2/30_2.odb,Step-1,Increment      1: Step Time =    1.000,"PART-1-1",           275,       12.5125,      -3.58966,            0.,NA,NA,"",   778.313E-03,   489.937E-03,  -604.758E-03,   67.9238E-09
C:/temp/dataset/2/30_2.odb,Step-1,Increment      1: Step Time =    1.000,"PART-1-1",           276,         13.75,           -5.,            0.,NA,NA,"",   781.359E-03,   450.457E-03,  -638.444E-03,   18.7664E-09
C:/temp/dataset/2/30_2.odb,Step-1,Increment      1: Step Time =    1.000,"PART-1-1",           277,           15.,      -3.54167,            0.,NA,NA,"",   833.131E-03,   490.313E-03,  -673.573E-03,   18.5808E-09
C:/temp/dataset/2/30_2.odb,Step-1,Increment      1: Step Time =    1.000,"PART-1-1",           278,      -9.21387,      -6.21191,            0.,NA,NA,"",   424.546E-03,   424.531E-03,  -3.57137E-03,   1.39669E-03
C:/temp/dataset/2/30_2.odb,Step-1,Increment      1: Step Time =    1.000,"PART-1-1",           279,      -8.44405,      -4.75360,            0.,NA,NA,"",   466.226E-03,   465.565E-03,  -24.8184E-03,   693.894E-06
C:/temp/dataset/2/30_2.odb,Step-1,Increment      1: Step Time =    1.000,"PART-1-1",           280,      -9.71477,      -4.17886,            0.,NA,NA,"",   482.816E-03,   482.718E-03,   9.72185E-03,   726.257E-06
C:/temp/dataset/2/30_2.odb,Step-1,Increment      1: Step Time =    1.000,"PART-1-1",           281,      -10.4846,      -5.63717,            0.,NA,NA,"",   443.459E-03,   442.403E-03,   30.5835E-03,   1.43219E-03
C:/temp/dataset/2/30_2.odb,Step-1,Increment      1: Step Time =    1.000,"PART-1-1",           282,      -5.84282,   107.969E-03,            0.,NA,NA,"",   607.451E-03,   599.424E-03,  -98.4227E-03,   72.2147E-06
C:/temp/dataset/2/30_2.odb,Step-1,Increment      1: Step Time =    1.000,"PART-1-1",           283,      -4.64047,       1.60743,            0.,NA,NA,"",   653.813E-03,   640.298E-03,  -132.247E-03,   57.4260E-06
C:/temp/dataset/2/30_2.odb,Step-1,Increment      1: Step Time =    1.000,"PART-1-1",           284,      -6.45702,       2.58989,            0.,NA,NA,"",   673.133E-03,   668.073E-03,  -82.3847E-03,   51.6280E-06
C:/temp/dataset/2/30_2.odb,Step-1,Increment      1: Step Time =    1.000,"PART-1-1",           285,      -7.65937,       1.09043,            0.,NA,NA,"",   629.111E-03,   627.231E-03,  -48.5960E-03,   45.9739E-06
C:/temp/dataset/2/30_2.odb,Step-1,Increment      1: Step Time =    1.000,"PART-1-1",           286,      -6.51044,      -5.43697,            0.,NA,NA,"",   452.001E-03,   445.285E-03,  -77.6278E-03,   543.700E-06
C:/temp/dataset/2/30_2.odb,Step-1,Increment      1: Step Time =    1.000,"PART-1-1",           287,      -5.48201,      -3.85122,            0.,NA,NA,"",   501.152E-03,   489.586E-03,  -107.048E-03,   110.017E-06
C:/temp/dataset/2/30_2.odb,Step-1,Increment      1: Step Time =    1.000,"PART-1-1",           288,      -7.41561,      -3.16785,            0.,NA,NA,"",   512.284E-03,   509.460E-03,  -53.7092E-03,   231.776E-06
C:/temp/dataset/2/30_2.odb,Step-1,Increment      1: Step Time =    1.000,"PART-1-1",           289,      -12.6742,      -10.6472,            0.,NA,NA,"",   310.405E-03,   298.871E-03,   83.8279E-03,   4.19659E-03
C:/temp/dataset/2/30_2.odb,Step-1,Increment      1: Step Time =    1.000,"PART-1-1",           290,      -11.3911,      -11.6978,            0.,NA,NA,"",   269.154E-03,   264.414E-03,   50.2890E-03,   4.28203E-03
C:/temp/dataset/2/30_2.odb,Step-1,Increment      1: Step Time =    1.000,"PART-1-1",           291,      -10.2167,      -10.1126,            0.,NA,NA,"",   311.249E-03,   310.431E-03,   22.5484E-03,   3.57350E-03
C:/temp/dataset/2/30_2.odb,Step-1,Increment      1: Step Time =    1.000,"PART-1-1",           292,      -11.4997,      -9.06207,            0.,NA,NA,"",   348.540E-03,   344.073E-03,   55.6206E-03,   3.16830E-03
C:/temp/dataset/2/30_2.odb,Step-1,Increment      1: Step Time =    1.000,"PART-1-1",           293,      -13.7107,      -15.1438,            0.,NA,NA,"",   195.267E-03,   169.837E-03,   96.3581E-03,   5.91928E-03
C:/temp/dataset/2/30_2.odb,Step-1,Increment      1: Step Time =    1.000,"PART-1-1",           294,      -12.5249,      -13.4434,            0.,NA,NA,"",   227.088E-03,   214.598E-03,   74.2747E-03,   4.84180E-03
C:/temp/dataset/2/30_2.odb,Step-1,Increment      1: Step Time =    1.000,"PART-1-1",           295,      -13.8143,      -12.2579,            0.,NA,NA,"",   275.790E-03,   253.091E-03,   109.567E-03,   4.70592E-03
C:/temp/dataset/2/30_2.odb,Step-1,Increment      1: Step Time =    1.000,"PART-1-1",           296,          -15.,      -13.9583,            0.,NA,NA,"",   246.335E-03,   205.913E-03,   135.206E-03,   6.54240E-03
C:/temp/dataset/2/30_2.odb,Step-1,Increment      1: Step Time =    1.000,"PART-1-1",           297,      -12.0988,      -16.5012,            0.,NA,NA,"",   143.379E-03,   131.569E-03,   56.9840E-03,   4.88535E-03
C:/temp/dataset/2/30_2.odb,Step-1,Increment      1: Step Time =    1.000,"PART-1-1",           298,      -10.5811,      -17.2344,            0.,NA,NA,"",   114.817E-03,   111.402E-03,   27.7975E-03,   4.17928E-03
C:/temp/dataset/2/30_2.odb,Step-1,Increment      1: Step Time =    1.000,"PART-1-1",           299,      -9.66362,      -15.1575,            0.,NA,NA,"",   163.425E-03,   163.028E-03,   11.3773E-03,   4.81788E-03
C:/temp/dataset/2/30_2.odb,Step-1,Increment      1: Step Time =    1.000,"PART-1-1",           300,      -11.1813,      -14.4243,            0.,NA,NA,"",   189.302E-03,   184.432E-03,   42.6620E-03,   4.56902E-03
C:/temp/dataset/2/30_2.odb,Step-1,Increment      1: Step Time =    1.000,"PART-1-1",           301,      -10.5090,      -18.8394,            0.,NA,NA,"",   80.7109E-03,   77.1049E-03,   23.8556E-03,   3.82502E-03
C:/temp/dataset/2/30_2.odb,Step-1,Increment      1: Step Time =    1.000,"PART-1-1",           302,      -8.88448,      -18.7076,            0.,NA,NA,"",   76.6338E-03,   76.6335E-03,  -197.221E-06,   4.35251E-03
C:/temp/dataset/2/30_2.odb,Step-1,Increment      1: Step Time =    1.000,"PART-1-1",           303,      -8.95657,      -17.1026,            0.,NA,NA,"",   112.689E-03,   112.689E-03,   38.4930E-06,   5.23386E-03
C:/temp/dataset/2/30_2.odb,Step-1,Increment      1: Step Time =    1.000,"PART-1-1",           304,      -8.08225,      -19.7831,            0.,NA,NA,"",   56.2639E-03,   55.2970E-03,  -10.3863E-03,   4.19624E-03
C:/temp/dataset/2/30_2.odb,Step-1,Increment      1: Step Time =    1.000,"PART-1-1",           305,      -6.89084,      -18.8787,            0.,NA,NA,"",   75.0855E-03,   69.9833E-03,  -27.2062E-03,   6.74381E-03
C:/temp/dataset/2/30_2.odb,Step-1,Increment      1: Step Time =    1.000,"PART-1-1",           306,      -7.69307,      -17.8032,            0.,NA,NA,"",   97.7211E-03,   95.7813E-03,  -19.3741E-03,   6.56724E-03
C:/temp/dataset/2/30_2.odb,Step-1,Increment      1: Step Time =    1.000,"PART-1-1",           307,       7.10093,      -24.9223,            0.,NA,NA,"",   10.1576E-03,   10.1575E-03,  -51.7195E-06,   1.17510E-03
C:/temp/dataset/2/30_2.odb,Step-1,Increment      1: Step Time =    1.000,"PART-1-1",           308,       8.59925,      -23.6815,            0.,NA,NA,"",   10.9740E-03,   10.9734E-03,   115.119E-06,   754.299E-06
C:/temp/dataset/2/30_2.odb,Step-1,Increment      1: Step Time =    1.000,"PART-1-1",           309,       6.88316,      -22.4353,            0.,NA,NA,"",   12.9232E-03,   12.9142E-03,   482.633E-06,   761.595E-06
C:/temp/dataset/2/30_2.odb,Step-1,Increment      1: Step Time =    1.000,"PART-1-1",           310,       5.38484,      -23.6762,            0.,NA,NA,"",   12.8168E-03,   12.8164E-03,  -101.182E-06,   1.15257E-03
C:/temp/dataset/2/30_2.odb,Step-1,Increment      1: Step Time =    1.000,"PART-1-1",           311,       13.3798,      -22.4744,            0.,NA,NA,"",   11.6161E-03,   11.3825E-03,  -2.31805E-03,   81.1538E-06
C:/temp/dataset/2/30_2.odb,Step-1,Increment      1: Step Time =    1.000,"PART-1-1",           312,           15.,        -21.25,            0.,NA,NA,"",   13.0318E-03,   12.4762E-03,  -3.76485E-03,   28.5250E-06
C:/temp/dataset/2/30_2.odb,Step-1,Increment      1: Step Time =    1.000,"PART-1-1",           313,       13.3333,          -20.,            0.,NA,NA,"",   13.7280E-03,   13.5329E-03,  -2.30631E-03,   30.5209E-06
C:/temp/dataset/2/30_2.odb,Step-1,Increment      1: Step Time =    1.000,"PART-1-1",           314,       11.7131,      -21.2244,            0.,NA,NA,"",   12.6006E-03,   12.5579E-03,  -1.03657E-03,   87.3517E-06
C:/temp/dataset/2/30_2.odb,Step-1,Increment      1: Step Time =    1.000,"PART-1-1",           315,      -2.14863,       2.00914,            0.,NA,NA,"",   680.868E-03,   650.412E-03,  -201.360E-03,   28.2662E-06
C:/temp/dataset/2/30_2.odb,Step-1,Increment      1: Step Time =    1.000,"PART-1-1",           316,      -1.66393,   575.985E-03,            0.,NA,NA,"",   647.104E-03,   610.608E-03,  -214.245E-03,   29.6125E-06
C:/temp/dataset/2/30_2.odb,Step-1,Increment      1: Step Time =    1.000,"PART-1-1",           317,   135.628E-03,       1.10435,            0.,NA,NA,"",   678.104E-03,   624.506E-03,  -264.229E-03,   15.0365E-06
C:/temp/dataset/2/30_2.odb,Step-1,Increment      1: Step Time =    1.000,"PART-1-1",           318,  -349.073E-03,       2.53751,            0.,NA,NA,"",   710.284E-03,   664.321E-03,  -251.356E-03,   15.2847E-06
C:/temp/dataset/2/30_2.odb,Step-1,Increment      1: Step Time =    1.000,"PART-1-1",           319,   156.145E-03,      -1.87787,            0.,NA,NA,"",   602.752E-03,   542.012E-03,  -263.691E-03,   16.4216E-06
C:/temp/dataset/2/30_2.odb,Step-1,Increment      1: Step Time =    1.000,"PART-1-1",           320,       1.21010,      -2.70880,            0.,NA,NA,"",   595.427E-03,   518.622E-03,  -292.515E-03,   6.68192E-06
C:/temp/dataset/2/30_2.odb,Step-1,Increment      1: Step Time =    1.000,"PART-1-1",           321,       2.32846,      -1.50081,            0.,NA,NA,"",   639.669E-03,   551.604E-03,  -323.898E-03,   3.26360E-06
C:/temp/dataset/2/30_2.odb,Step-1,Increment      1: Step Time =    1.000,"PART-1-1",           322,       1.27451,  -669.883E-03,            0.,NA,NA,"",   646.282E-03,   574.992E-03,  -295.067E-03,   10.8790E-06
C:/temp/dataset/2/30_2.odb,Step-1,Increment      1: Step Time =    1.000,"PART-1-1",           323,       4.87500,      -1.23074,            0.,NA,NA,"",   683.409E-03,   558.099E-03,  -394.428E-03,   618.459E-09
C:/temp/dataset/2/30_2.odb,Step-1,Increment      1: Step Time =    1.000,"PART-1-1",           324,       6.20088,      -2.43579,            0.,NA,NA,"",   678.454E-03,   524.264E-03,  -430.636E-03,   449.593E-09
C:/temp/dataset/2/30_2.odb,Step-1,Increment      1: Step Time =    1.000,"PART-1-1",           325,       7.44880,      -1.07477,            0.,NA,NA,"",   729.418E-03,   561.428E-03,  -465.671E-03,   319.774E-09
C:/temp/dataset/2/30_2.odb,Step-1,Increment      1: Step Time =    1.000,"PART-1-1",           326,       6.12293,   130.279E-03,            0.,NA,NA,"",   734.013E-03,   595.263E-03,  -429.462E-03,   390.783E-09
C:/temp/dataset/2/30_2.odb,Step-1,Increment      1: Step Time =    1.000,"PART-1-1",           327,          8.75,           -5.,            0.,NA,NA,"",   674.386E-03,   452.370E-03,  -500.157E-03,   360.138E-09
C:/temp/dataset/2/30_2.odb,Step-1,Increment      1: Step Time =    1.000,"PART-1-1",           328,       10.0063,      -3.63741,            0.,NA,NA,"",   725.510E-03,   489.575E-03,  -535.425E-03,   170.916E-09
C:/temp/dataset/2/30_2.odb,Step-1,Increment      1: Step Time =    1.000,"PART-1-1",           329,       8.73716,      -2.32557,            0.,NA,NA,"",   726.541E-03,   526.342E-03,  -500.825E-03,   299.546E-09
C:/temp/dataset/2/30_2.odb,Step-1,Increment      1: Step Time =    1.000,"PART-1-1",           330,       7.48081,      -3.68816,            0.,NA,NA,"",   675.277E-03,   489.138E-03,  -465.556E-03,   305.287E-09
C:/temp/dataset/2/30_2.odb,Step-1,Increment      1: Step Time =    1.000,"PART-1-1",           331,       6.24109,       7.72904,            0.,NA,NA,"",   915.653E-03,   805.382E-03,  -435.636E-03,   62.8327E-09
C:/temp/dataset/2/30_2.odb,Step-1,Increment      1: Step Time =    1.000,"PART-1-1",           332,            5.,          6.25,            0.,NA,NA,"",   863.566E-03,   764.951E-03,  -400.745E-03,   187.045E-09
C:/temp/dataset/2/30_2.odb,Step-1,Increment      1: Step Time =    1.000,"PART-1-1",           333,       6.24095,       5.17046,            0.,NA,NA,"",   853.574E-03,   734.619E-03,  -434.653E-03,   427.589E-09
C:/temp/dataset/2/30_2.odb,Step-1,Increment      1: Step Time =    1.000,"PART-1-1",           334,       7.48203,       6.64950,            0.,NA,NA,"",   906.187E-03,   775.050E-03,  -469.544E-03,   103.271E-09
C:/temp/dataset/2/30_2.odb,Step-1,Increment      1: Step Time =    1.000,"PART-1-1",           335,       7.34508,       23.6052,            0.,NA,NA,"",       1.33067,       1.24405,  -472.243E-03,   27.4153E-09
C:/temp/dataset/2/30_2.odb,Step-1,Increment      1: Step Time =    1.000,"PART-1-1",           336,       6.41056,       24.2397,            0.,NA,NA,"",       1.33867,       1.26196,  -446.639E-03,   27.7477E-09
C:/temp/dataset/2/30_2.odb,Step-1,Increment      1: Step Time =    1.000,"PART-1-1",           337,       6.08150,       22.9932,            0.,NA,NA,"",       1.30309,       1.22761,  -437.061E-03,   28.0889E-09
C:/temp/dataset/2/30_2.odb,Step-1,Increment      1: Step Time =    1.000,"PART-1-1",           338,       7.01602,       22.3587,            0.,NA,NA,"",       1.29516,       1.20971,  -462.665E-03,   27.8185E-09
C:/temp/dataset/2/30_2.odb,Step-1,Increment      1: Step Time =    1.000,"PART-1-1",           339,      -12.5005,       23.7291,            0.,NA,NA,"",       1.25741,       1.25507,   76.5896E-03,   30.7750E-09
C:/temp/dataset/2/30_2.odb,Step-1,Increment      1: Step Time =    1.000,"PART-1-1",           340,      -13.7489,       24.9883,            0.,NA,NA,"",       1.29511,       1.29038,   110.635E-03,   30.6780E-09
C:/temp/dataset/2/30_2.odb,Step-1,Increment      1: Step Time =    1.000,"PART-1-1",           341,          -15.,         23.75,            0.,NA,NA,"",       1.26503,       1.25661,   145.711E-03,   30.6527E-09
C:/temp/dataset/2/30_2.odb,Step-1,Increment      1: Step Time =    1.000,"PART-1-1",           342,      -2.52491,       26.1674,            0.,NA,NA,"",       1.33381,       1.31869,  -200.243E-03,   29.4411E-09
C:/temp/dataset/2/30_2.odb,Step-1,Increment      1: Step Time =    1.000,"PART-1-1",           343,      -1.30373,       24.8780,            0.,NA,NA,"",       1.30365,       1.28257,  -233.525E-03,   29.4399E-09
C:/temp/dataset/2/30_2.odb,Step-1,Increment      1: Step Time =    1.000,"PART-1-1",           344,      -1.26817,       27.4122,            0.,NA,NA,"",       1.37298,       1.35264,  -235.478E-03,   28.9326E-09
C:/temp/dataset/2/30_2.odb,Step-1,Increment      1: Step Time =    1.000,"PART-1-1",           345,       2.31009,       23.4917,            0.,NA,NA,"",       1.28667,       1.24284,  -332.944E-03,   29.2886E-09
C:/temp/dataset/2/30_2.odb,Step-1,Increment      1: Step Time =    1.000,"PART-1-1",           346,       3.41051,       22.2101,            0.,NA,NA,"",       1.26035,       1.20697,  -362.889E-03,   29.3676E-09
C:/temp/dataset/2/30_2.odb,Step-1,Increment      1: Step Time =    1.000,"PART-1-1",           347,       4.46987,       23.2845,            0.,NA,NA,"",       1.29713,       1.23629,  -392.599E-03,   28.6949E-09
C:/temp/dataset/2/30_2.odb,Step-1,Increment      1: Step Time =    1.000,"PART-1-1",           348,       3.36945,       24.5662,            0.,NA,NA,"",       1.32284,       1.27216,  -362.654E-03,   28.4948E-09
C:/temp/dataset/2/30_2.odb,Step-1,Increment      1: Step Time =    1.000,"PART-1-1",           349,       3.92627,       27.0683,            0.,NA,NA,"",       1.39367,       1.34114,  -379.012E-03,   27.6890E-09
C:/temp/dataset/2/30_2.odb,Step-1,Increment      1: Step Time =    1.000,"PART-1-1",           350,       5.16355,       28.4353,            0.,NA,NA,"",       1.43924,       1.37848,  -413.755E-03,   26.9194E-09
C:/temp/dataset/2/30_2.odb,Step-1,Increment      1: Step Time =    1.000,"PART-1-1",           351,          3.75,           30.,            0.,NA,NA,"",       1.47097,       1.42229,  -375.258E-03,   26.8743E-09
C:/temp/dataset/2/30_2.odb,Step-1,Increment      1: Step Time =    1.000,"PART-1-1",           352,       2.51272,       28.6330,            0.,NA,NA,"",       1.42621,       1.38496,  -340.515E-03,   27.6421E-09
C:/temp/dataset/2/30_2.odb,Step-1,Increment      1: Step Time =    1.000,"PART-1-1",           353,       11.0463,       14.3537,            0.,NA,NA,"",       1.14010,   986.767E-03,  -571.070E-03,   22.2066E-09
C:/temp/dataset/2/30_2.odb,Step-1,Increment      1: Step Time =    1.000,"PART-1-1",           354,       9.86747,       12.5470,            0.,NA,NA,"",       1.08057,   937.247E-03,  -537.776E-03,   20.3725E-09
C:/temp/dataset/2/30_2.odb,Step-1,Increment      1: Step Time =    1.000,"PART-1-1",           355,       11.1901,       11.5237,            0.,NA,NA,"",       1.07457,   908.441E-03,  -573.966E-03,   19.7857E-09
C:/temp/dataset/2/30_2.odb,Step-1,Increment      1: Step Time =    1.000,"PART-1-1",           356,       9.55073,       15.1783,            0.,NA,NA,"",       1.14075,       1.01014,  -530.022E-03,   23.0511E-09
C:/temp/dataset/2/30_2.odb,Step-1,Increment      1: Step Time =    1.000,"PART-1-1",           357,       8.18591,       15.9712,            0.,NA,NA,"",       1.14407,       1.03260,  -492.578E-03,   24.4135E-09
C:/temp/dataset/2/30_2.odb,Step-1,Increment      1: Step Time =    1.000,"PART-1-1",           358,       7.20669,       14.2932,            0.,NA,NA,"",       1.09059,   986.560E-03,  -464.853E-03,   24.0849E-09
C:/temp/dataset/2/30_2.odb,Step-1,Increment      1: Step Time =    1.000,"PART-1-1",           359,       8.57151,       13.5002,            0.,NA,NA,"",       1.08711,   964.107E-03,  -502.297E-03,   23.2396E-09
C:/temp/dataset/2/30_2.odb,Step-1,Increment      1: Step Time =    1.000,"PART-1-1",           360,       7.44377,       1.50598,            0.,NA,NA,"",   786.184E-03,   632.807E-03,  -466.519E-03,   375.130E-09
C:/temp/dataset/2/30_2.odb,Step-1,Increment      1: Step Time =    1.000,"PART-1-1",           361,       8.72836,   326.342E-03,            0.,NA,NA,"",   781.810E-03,   599.690E-03,  -501.596E-03,   289.874E-09
C:/temp/dataset/2/30_2.odb,Step-1,Increment      1: Step Time =    1.000,"PART-1-1",           362,       10.0261,       1.76283,            0.,NA,NA,"",   835.289E-03,   638.923E-03,  -538.037E-03,   151.975E-09
C:/temp/dataset/2/30_2.odb,Step-1,Increment      1: Step Time =    1.000,"PART-1-1",           363,       8.74149,       2.94246,            0.,NA,NA,"",   839.409E-03,   672.041E-03,  -502.960E-03,   248.876E-09
C:/temp/dataset/2/30_2.odb,Step-1,Increment      1: Step Time =    1.000,"PART-1-1",           364,       12.5045,       7.62102,            0.,NA,NA,"",       1.00532,   799.998E-03,  -608.825E-03,   33.9313E-09
C:/temp/dataset/2/30_2.odb,Step-1,Increment      1: Step Time =    1.000,"PART-1-1",           365,           15.,         8.125,            0.,NA,NA,"",       1.05862,   812.983E-03,  -678.037E-03,   18.4331E-09
C:/temp/dataset/2/30_2.odb,Step-1,Increment      1: Step Time =    1.000,"PART-1-1",           366,       13.7500,       9.30715,            0.,NA,NA,"",       1.06330,   846.156E-03,  -643.919E-03,   18.7265E-09
C:/temp/dataset/2/30_2.odb,Step-1,Increment      1: Step Time =    1.000,"PART-1-1",           367,      -1.45938,      -2.40358,            0.,NA,NA,"",   571.642E-03,   528.095E-03,  -218.840E-03,   44.2062E-06
C:/temp/dataset/2/30_2.odb,Step-1,Increment      1: Step Time =    1.000,"PART-1-1",           368,      -2.69869,      -3.52952,            0.,NA,NA,"",   530.397E-03,   497.389E-03,  -184.189E-03,   42.9109E-06
C:/temp/dataset/2/30_2.odb,Step-1,Increment      1: Step Time =    1.000,"PART-1-1",           369,         -1.25,           -5.,            0.,NA,NA,"",   508.064E-03,   456.203E-03,  -223.625E-03,   28.5041E-06
C:/temp/dataset/2/30_2.odb,Step-1,Increment      1: Step Time =    1.000,"PART-1-1",           370,  -10.6917E-03,      -3.87406,            0.,NA,NA,"",   551.146E-03,   486.863E-03,  -258.315E-03,   7.62156E-06
C:/temp/dataset/2/30_2.odb,Step-1,Increment      1: Step Time =    1.000,"PART-1-1",           371,      -13.3333,            5.,            0.,NA,NA,"",   744.078E-03,   736.559E-03,   105.517E-03,   29.3657E-06
C:/temp/dataset/2/30_2.odb,Step-1,Increment      1: Step Time =    1.000,"PART-1-1",           372,          -15.,       3.54167,            0.,NA,NA,"",   713.517E-03,   697.201E-03,   151.712E-03,   33.5800E-06
C:/temp/dataset/2/30_2.odb,Step-1,Increment      1: Step Time =    1.000,"PART-1-1",           373,      -13.2137,       2.05352,            0.,NA,NA,"",   663.767E-03,   655.674E-03,   103.338E-03,   82.0859E-06
C:/temp/dataset/2/30_2.odb,Step-1,Increment      1: Step Time =    1.000,"PART-1-1",           374,      -11.5470,       3.51185,            0.,NA,NA,"",   697.486E-03,   695.136E-03,   57.2060E-03,   82.8972E-06
C:/temp/dataset/2/30_2.odb,Step-1,Increment      1: Step Time =    1.000,"PART-1-1",           375,          -15.,      625.E-03,            0.,NA,NA,"",   635.795E-03,   617.216E-03,   152.578E-03,   142.040E-06
C:/temp/dataset/2/30_2.odb,Step-1,Increment      1: Step Time =    1.000,"PART-1-1",           376,      -12.9883,      -1.02354,            0.,NA,NA,"",   579.754E-03,   571.364E-03,   98.2754E-03,   140.965E-06
C:/temp/dataset/2/30_2.odb,Step-1,Increment      1: Step Time =    1.000,"PART-1-1",           377,      -11.2019,   404.974E-03,            0.,NA,NA,"",   611.684E-03,   609.713E-03,   49.0643E-03,   92.8583E-06
C:/temp/dataset/2/30_2.odb,Step-1,Increment      1: Step Time =    1.000,"PART-1-1",           378,      -13.6690,      -3.88141,            0.,NA,NA,"",   509.211E-03,   495.449E-03,   117.585E-03,   1.13620E-03
C:/temp/dataset/2/30_2.odb,Step-1,Increment      1: Step Time =    1.000,"PART-1-1",           379,      -11.6573,      -2.61328,            0.,NA,NA,"",   531.286E-03,   527.589E-03,   62.5681E-03,   500.697E-06
C:/temp/dataset/2/30_2.odb,Step-1,Increment      1: Step Time =    1.000,"PART-1-1",           380,          -15.,      -2.29167,            0.,NA,NA,"",   559.233E-03,   537.950E-03,   152.809E-03,   318.179E-06
C:/temp/dataset/2/30_2.odb,Step-1,Increment      1: Step Time =    1.000,"PART-1-1",           381,           -5.,         -8.75,            0.,NA,NA,"",   368.458E-03,   349.401E-03,  -116.962E-03,   1.48003E-03
C:/temp/dataset/2/30_2.odb,Step-1,Increment      1: Step Time =    1.000,"PART-1-1",           382,      -6.37238,      -7.84264,            0.,NA,NA,"",   384.065E-03,   375.772E-03,  -79.3788E-03,   1.19725E-03
C:/temp/dataset/2/30_2.odb,Step-1,Increment      1: Step Time =    1.000,"PART-1-1",           383,      -7.67841,      -9.42411,            0.,NA,NA,"",   332.036E-03,   329.337E-03,  -42.2481E-03,   2.57519E-03
C:/temp/dataset/2/30_2.odb,Step-1,Increment      1: Step Time =    1.000,"PART-1-1",           384,      -6.30603,      -10.3315,            0.,NA,NA,"",   312.481E-03,   302.808E-03,  -77.1450E-03,   2.34835E-03
C:/temp/dataset/2/30_2.odb,Step-1,Increment      1: Step Time =    1.000,"PART-1-1",           385,      -13.6103,      -21.3688,            0.,NA,NA,"",   72.6343E-03,   46.7327E-03,   55.6039E-03,   8.16292E-03
C:/temp/dataset/2/30_2.odb,Step-1,Increment      1: Step Time =    1.000,"PART-1-1",           386,          -15.,      -22.7083,            0.,NA,NA,"",   70.9043E-03,   37.9148E-03,   59.9157E-03,   10.4637E-03
C:/temp/dataset/2/30_2.odb,Step-1,Increment      1: Step Time =    1.000,"PART-1-1",           387,      -13.6241,      -24.2925,            0.,NA,NA,"",   40.3062E-03,   19.4939E-03,   35.2786E-03,   7.70194E-03
C:/temp/dataset/2/30_2.odb,Step-1,Increment      1: Step Time =    1.000,"PART-1-1",           388,      -12.2343,      -22.9530,            0.,NA,NA,"",   39.9254E-03,   25.4321E-03,   30.7773E-03,   5.44448E-03
C:/temp/dataset/2/30_2.odb,Step-1,Increment      1: Step Time =    1.000,"PART-1-1",           389,           -5.,        -16.25,            0.,NA,NA,"",   165.026E-03,   141.300E-03,  -85.2510E-03,   8.47542E-03
C:/temp/dataset/2/30_2.odb,Step-1,Increment      1: Step Time =    1.000,"PART-1-1",           390,      -6.06585,      -15.2329,            0.,NA,NA,"",   176.987E-03,   164.514E-03,  -65.2645E-03,   6.00195E-03
C:/temp/dataset/2/30_2.odb,Step-1,Increment      1: Step Time =    1.000,"PART-1-1",           391,      -6.99530,      -16.6022,            0.,NA,NA,"",   131.623E-03,   126.202E-03,  -37.3859E-03,   6.77730E-03
C:/temp/dataset/2/30_2.odb,Step-1,Increment      1: Step Time =    1.000,"PART-1-1",           392,      -5.92946,      -17.6192,            0.,NA,NA,"",   114.690E-03,   102.446E-03,  -51.5606E-03,   8.74910E-03
C:/temp/dataset/2/30_2.odb,Step-1,Increment      1: Step Time =    1.000,"PART-1-1",           393,         -13.5,          -30.,            0.,NA,NA,"",            0.,  -1.23152E-39,   11.7856E-39,   5.89225E-03
C:/temp/dataset/2/30_2.odb,Step-1,Increment      1: Step Time =    1.000,"PART-1-1",           394,      -12.0804,      -28.6247,            0.,NA,NA,"",   4.69854E-03,  -570.586E-06,   4.66377E-03,   4.30483E-03
C:/temp/dataset/2/30_2.odb,Step-1,Increment      1: Step Time =    1.000,"PART-1-1",           395,      -13.5804,      -27.1664,            0.,NA,NA,"",   17.1913E-03,   5.88259E-03,   16.1535E-03,   7.08112E-03
C:/temp/dataset/2/30_2.odb,Step-1,Increment      1: Step Time =    1.000,"PART-1-1",           396,          -15.,      -28.5417,            0.,NA,NA,"",   12.6009E-03,   7.12169E-03,   10.3954E-03,   8.50528E-03
C:/temp/dataset/2/30_2.odb,Step-1,Increment      1: Step Time =    1.000,"PART-1-1",           397,          13.5,          -30.,            0.,NA,NA,"",            0.,   600.683E-42,  -1.73067E-39,   1.44785E-03
C:/temp/dataset/2/30_2.odb,Step-1,Increment      1: Step Time =    1.000,"PART-1-1",           398,           15.,        -28.75,            0.,NA,NA,"",   3.10180E-03,   2.52499E-03,  -1.80155E-03,   1.38423E-03
C:/temp/dataset/2/30_2.odb,Step-1,Increment      1: Step Time =    1.000,"PART-1-1",           399,       13.4640,      -27.4843,            0.,NA,NA,"",   4.56492E-03,   4.38530E-03,  -1.26793E-03,   810.581E-06
C:/temp/dataset/2/30_2.odb,Step-1,Increment      1: Step Time =    1.000,"PART-1-1",           400,       11.9640,      -28.7343,            0.,NA,NA,"",   2.13314E-03,   2.09944E-03,  -377.691E-06,   1.11196E-03
C:/temp/dataset/2/30_2.odb,Step-1,Increment      1: Step Time =    1.000,"PART-1-1",           401,       10.2658,      -24.9335,            0.,NA,NA,"",   8.85139E-03,   8.84228E-03,  -401.399E-06,   789.906E-06
C:/temp/dataset/2/30_2.odb,Step-1,Increment      1: Step Time =    1.000,"PART-1-1",           402,       8.77397,      -26.1861,            0.,NA,NA,"",   7.42231E-03,   7.41896E-03,  -223.044E-06,   1.12780E-03
C:/temp/dataset/2/30_2.odb,Step-1,Increment      1: Step Time =    1.000,"PART-1-1",           403,       10.3945,      -27.4590,            0.,NA,NA,"",   4.72669E-03,   4.71275E-03,  -362.787E-06,   1.16465E-03
C:/temp/dataset/2/30_2.odb,Step-1,Increment      1: Step Time =    1.000,"PART-1-1",           404,       11.8863,      -26.2064,            0.,NA,NA,"",   6.67984E-03,   6.61798E-03,  -906.998E-06,   883.363E-06
C:/temp/dataset/2/30_2.odb,Step-1,Increment      1: Step Time =    1.000,"PART-1-1",           405,       8.93044,      -28.7247,            0.,NA,NA,"",   2.64003E-03,   2.62983E-03,  -231.880E-06,   1.32629E-03
C:/temp/dataset/2/30_2.odb,Step-1,Increment      1: Step Time =    1.000,"PART-1-1",           406,       7.31300,      -27.4411,            0.,NA,NA,"",   5.72888E-03,   5.71990E-03,  -320.633E-06,   1.45720E-03
C:/temp/dataset/2/30_2.odb,Step-1,Increment      1: Step Time =    1.000,"PART-1-1",           407,       5.88256,      -28.7164,            0.,NA,NA,"",   3.39099E-03,   3.37198E-03,  -358.545E-06,   1.71882E-03
C:/temp/dataset/2/30_2.odb,Step-1,Increment      1: Step Time =    1.000,"PART-1-1",           408,           7.5,          -30.,            0.,NA,NA,"",            0.,   1.77210E-39,  -896.604E-42,   1.60705E-03
C:/temp/dataset/2/30_2.odb,Step-1,Increment      1: Step Time =    1.000,"PART-1-1",           409,       5.63995,      -26.1773,            0.,NA,NA,"",   9.02053E-03,   9.00649E-03,  -503.125E-06,   1.48656E-03
C:/temp/dataset/2/30_2.odb,Step-1,Increment      1: Step Time =    1.000,"PART-1-1",           410,       3.92490,      -24.9166,            0.,NA,NA,"",   12.3971E-03,   12.3520E-03,  -1.05619E-03,   1.72612E-03
C:/temp/dataset/2/30_2.odb,Step-1,Increment      1: Step Time =    1.000,"PART-1-1",           411,       2.50142,      -26.1700,            0.,NA,NA,"",   11.1723E-03,   10.9793E-03,  -2.06729E-03,   2.10453E-03
C:/temp/dataset/2/30_2.odb,Step-1,Increment      1: Step Time =    1.000,"PART-1-1",           412,       4.21647,      -27.4307,            0.,NA,NA,"",   7.19979E-03,   7.14238E-03,  -907.457E-06,   1.88972E-03
C:/temp/dataset/2/30_2.odb,Step-1,Increment      1: Step Time =    1.000,"PART-1-1",           413,       1.12659,      -27.4308,            0.,NA,NA,"",   8.65026E-03,   8.31180E-03,  -2.39605E-03,   2.51731E-03
C:/temp/dataset/2/30_2.odb,Step-1,Increment      1: Step Time =    1.000,"PART-1-1",           414,  -207.324E-03,      -28.7165,            0.,NA,NA,"",   4.69914E-03,   4.40781E-03,  -1.62885E-03,   2.87485E-03
C:/temp/dataset/2/30_2.odb,Step-1,Increment      1: Step Time =    1.000,"PART-1-1",           415,           1.5,          -30.,            0.,NA,NA,"",            0.,   2.69888E-39,  -2.77173E-39,   2.59267E-03
C:/temp/dataset/2/30_2.odb,Step-1,Increment      1: Step Time =    1.000,"PART-1-1",           416,       2.83391,      -28.7143,            0.,NA,NA,"",   4.23626E-03,   4.15827E-03,  -809.146E-06,   2.26555E-03
C:/temp/dataset/2/30_2.odb,Step-1,Increment      1: Step Time =    1.000,"PART-1-1",           417,      -1.92078,      -27.4395,            0.,NA,NA,"",   9.07537E-03,   7.80296E-03,  -4.63424E-03,   3.25203E-03
C:/temp/dataset/2/30_2.odb,Step-1,Increment      1: Step Time =    1.000,"PART-1-1",           418,      -3.21345,      -28.7230,            0.,NA,NA,"",   3.96091E-03,   3.16793E-03,  -2.37760E-03,   3.10830E-03
C:/temp/dataset/2/30_2.odb,Step-1,Increment      1: Step Time =    1.000,"PART-1-1",           419,          -1.5,          -30.,            0.,NA,NA,"",            0.,   2.46639E-39,  -4.19274E-39,   2.70795E-03
C:/temp/dataset/2/30_2.odb,Step-1,Increment      1: Step Time =    1.000,"PART-1-1",           420,      -5.57419,      -22.4519,            0.,NA,NA,"",   33.7559E-03,   24.6880E-03,  -23.0210E-03,   5.92165E-03
C:/temp/dataset/2/30_2.odb,Step-1,Increment      1: Step Time =    1.000,"PART-1-1",           421,      -6.77537,      -23.6376,            0.,NA,NA,"",   21.2096E-03,   16.0832E-03,  -13.8267E-03,   4.00915E-03
C:/temp/dataset/2/30_2.odb,Step-1,Increment      1: Step Time =    1.000,"PART-1-1",           422,      -5.25528,      -24.9124,            0.,NA,NA,"",   18.1259E-03,   12.7079E-03,  -12.9252E-03,   4.31819E-03
C:/temp/dataset/2/30_2.odb,Step-1,Increment      1: Step Time =    1.000,"PART-1-1",           423,      -4.05411,      -23.7268,            0.,NA,NA,"",   25.6167E-03,   19.7063E-03,  -16.3669E-03,   5.98385E-03
C:/temp/dataset/2/30_2.odb,Step-1,Increment      1: Step Time =    1.000,"PART-1-1",           424,       13.4223,      -24.9720,            0.,NA,NA,"",   8.77898E-03,   8.51592E-03,  -2.13296E-03,   337.744E-06
C:/temp/dataset/2/30_2.odb,Step-1,Increment      1: Step Time =    1.000,"PART-1-1",           425,           15.,        -26.25,            0.,NA,NA,"",   7.75917E-03,   6.83564E-03,  -3.67134E-03,   432.524E-06
C:/temp/dataset/2/30_2.odb,Step-1,Increment      1: Step Time =    1.000,"PART-1-1",           426,       11.8021,      -23.6964,            0.,NA,NA,"",   10.2117E-03,   10.1544E-03,  -1.08042E-03,   406.230E-06
C:/temp/dataset/2/30_2.odb,Step-1,Increment      1: Step Time =    1.000,"PART-1-1",           427,       10.1355,      -22.4445,            0.,NA,NA,"",   11.7394E-03,   11.7378E-03,  -197.788E-06,   389.774E-06
C:/temp/dataset/2/30_2.odb,Step-1,Increment      1: Step Time =    1.000,"PART-1-1",           428,      -2.31424,      -24.9364,            0.,NA,NA,"",   18.7266E-03,   15.6903E-03,  -10.2224E-03,   4.23453E-03
C:/temp/dataset/2/30_2.odb,Step-1,Increment      1: Step Time =    1.000,"PART-1-1",           429,      -3.63092,      -26.1962,            0.,NA,NA,"",   13.5316E-03,   10.1861E-03,  -8.90783E-03,   4.27049E-03
C:/temp/dataset/2/30_2.odb,Step-1,Increment      1: Step Time =    1.000,"PART-1-1",           430,  -604.096E-03,      -26.1796,            0.,NA,NA,"",   13.3202E-03,   12.1702E-03,  -5.41420E-03,   3.30449E-03
C:/temp/dataset/2/30_2.odb,Step-1,Increment      1: Step Time =    1.000,"PART-1-1",           431,      -7.52977,      -11.9021,            0.,NA,NA,"",   259.500E-03,   256.106E-03,  -41.8345E-03,   3.73739E-03
C:/temp/dataset/2/30_2.odb,Step-1,Increment      1: Step Time =    1.000,"PART-1-1",           432,      -6.22373,      -12.8207,            0.,NA,NA,"",   241.618E-03,   230.628E-03,  -72.0424E-03,   3.93703E-03
C:/temp/dataset/2/30_2.odb,Step-1,Increment      1: Step Time =    1.000,"PART-1-1",           433,           -5.,        -11.25,            0.,NA,NA,"",   298.546E-03,   277.104E-03,  -111.100E-03,   3.27849E-03
C:/temp/dataset/2/30_2.odb,Step-1,Increment      1: Step Time =    1.000,"PART-1-1",           434,      -10.0475,      -12.6788,            0.,NA,NA,"",   234.297E-03,   233.564E-03,   18.5143E-03,   4.46732E-03
C:/temp/dataset/2/30_2.odb,Step-1,Increment      1: Step Time =    1.000,"PART-1-1",           435,           -5.,         -6.25,            0.,NA,NA,"",   438.190E-03,   421.578E-03,  -119.508E-03,   381.352E-06
C:/temp/dataset/2/30_2.odb,Step-1,Increment      1: Step Time =    1.000,"PART-1-1",           436,      -7.88282,      -7.02961,            0.,NA,NA,"",   401.787E-03,   399.892E-03,  -38.9787E-03,   1.51081E-03
C:/temp/dataset/2/30_2.odb,Step-1,Increment      1: Step Time =    1.000,"PART-1-1",           437,      -13.8577,      -6.65334,            0.,NA,NA,"",   436.878E-03,   419.791E-03,   120.988E-03,   2.21535E-03
C:/temp/dataset/2/30_2.odb,Step-1,Increment      1: Step Time =    1.000,"PART-1-1",           438,      -12.5267,      -5.32641,            0.,NA,NA,"",   462.343E-03,   454.302E-03,   85.8543E-03,   1.79603E-03
C:/temp/dataset/2/30_2.odb,Step-1,Increment      1: Step Time =    1.000,"PART-1-1",           439,          -15.,      -5.20833,            0.,NA,NA,"",   487.255E-03,   462.671E-03,   152.817E-03,   1.72637E-03
C:/temp/dataset/2/30_2.odb,Step-1,Increment      1: Step Time =    1.000,"PART-1-1",           440,          1.25,           -5.,            0.,NA,NA,"",   541.244E-03,   455.243E-03,  -292.744E-03,   6.07677E-06
C:/temp/dataset/2/30_2.odb,Step-1,Increment      1: Step Time =    1.000,"PART-1-1",           441,       2.47079,      -3.83474,            0.,NA,NA,"",   586.569E-03,   487.001E-03,  -326.946E-03,   1.35453E-06
C:/temp/dataset/2/30_2.odb,Step-1,Increment      1: Step Time =    1.000,"PART-1-1",           442,       3.51261,  -149.180E-03,            0.,NA,NA,"",   688.430E-03,   588.533E-03,  -357.161E-03,   2.38758E-06
C:/temp/dataset/2/30_2.odb,Step-1,Increment      1: Step Time =    1.000,"PART-1-1",           443,       3.69085,      -2.58237,            0.,NA,NA,"",   634.079E-03,   521.170E-03,  -361.162E-03,   1.64237E-06
C:/temp/dataset/2/30_2.odb,Step-1,Increment      1: Step Time =    1.000,"PART-1-1",           444,       8.74868,       5.55605,            0.,NA,NA,"",   898.996E-03,   744.323E-03,  -504.158E-03,   143.201E-09
C:/temp/dataset/2/30_2.odb,Step-1,Increment      1: Step Time =    1.000,"PART-1-1",           445,       10.0030,       7.12352,            0.,NA,NA,"",   954.298E-03,   787.196E-03,  -539.451E-03,   62.1925E-09
C:/temp/dataset/2/30_2.odb,Step-1,Increment      1: Step Time =    1.000,"PART-1-1",           446,       8.73640,       8.21697,            0.,NA,NA,"",   961.175E-03,   817.923E-03,  -504.837E-03,   44.3389E-09
C:/temp/dataset/2/30_2.odb,Step-1,Increment      1: Step Time =    1.000,"PART-1-1",           447,           15.,     -625.E-03,            0.,NA,NA,"",   883.869E-03,   570.980E-03,  -674.689E-03,   82.2712E-09
C:/temp/dataset/2/30_2.odb,Step-1,Increment      1: Step Time =    1.000,"PART-1-1",           448,       13.7714,   731.820E-03,            0.,NA,NA,"",   884.322E-03,   608.976E-03,  -641.228E-03,   99.2153E-09
C:/temp/dataset/2/30_2.odb,Step-1,Increment      1: Step Time =    1.000,"PART-1-1",           449,       12.5339,  -774.506E-03,            0.,NA,NA,"",   830.745E-03,   567.788E-03,  -606.427E-03,   96.9596E-09
C:/temp/dataset/2/30_2.odb,Step-1,Increment      1: Step Time =    1.000,"PART-1-1",           450,       7.40609,       11.8257,            0.,NA,NA,"",       1.03127,   918.241E-03,  -469.424E-03,   23.0213E-09
C:/temp/dataset/2/30_2.odb,Step-1,Increment      1: Step Time =    1.000,"PART-1-1",           451,       8.70206,       10.8725,            0.,NA,NA,"",       1.02444,   891.381E-03,  -504.903E-03,   16.2061E-09
C:/temp/dataset/2/30_2.odb,Step-1,Increment      1: Step Time =    1.000,"PART-1-1",           452,       11.2454,       8.75341,            0.,NA,NA,"",       1.01087,   831.799E-03,  -574.434E-03,   22.1926E-09
C:/temp/dataset/2/30_2.odb,Step-1,Increment      1: Step Time =    1.000,"PART-1-1",           453,       11.2622,       5.99112,            0.,NA,NA,"",   948.639E-03,   755.395E-03,  -573.842E-03,   71.3836E-09
C:/temp/dataset/2/30_2.odb,Step-1,Increment      1: Step Time =    1.000,"PART-1-1",           454,       13.8596,       24.3693,            0.,NA,NA,"",       1.42142,       1.26269,  -652.710E-03,   26.2118E-09
C:/temp/dataset/2/30_2.odb,Step-1,Increment      1: Step Time =    1.000,"PART-1-1",           455,       12.6110,       23.1199,            0.,NA,NA,"",       1.37516,       1.22862,  -617.700E-03,   25.8437E-09
C:/temp/dataset/2/30_2.odb,Step-1,Increment      1: Step Time =    1.000,"PART-1-1",           456,       13.7514,       21.4590,            0.,NA,NA,"",       1.34848,       1.18225,  -648.606E-03,   25.0961E-09
C:/temp/dataset/2/30_2.odb,Step-1,Increment      1: Step Time =    1.000,"PART-1-1",           457,           15.,       22.7083,            0.,NA,NA,"",       1.39527,       1.21632,  -683.616E-03,   25.4975E-09
C:/temp/dataset/2/30_2.odb,Step-1,Increment      1: Step Time =    1.000,"PART-1-1",           458,       8.83903,       17.2613,            0.,NA,NA,"",       1.18403,       1.06803,  -511.135E-03,   24.8382E-09
C:/temp/dataset/2/30_2.odb,Step-1,Increment      1: Step Time =    1.000,"PART-1-1",           459,       10.5130,       17.3338,            0.,NA,NA,"",       1.20597,       1.06939,  -557.460E-03,   24.1251E-09
C:/temp/dataset/2/30_2.odb,Step-1,Increment      1: Step Time =    1.000,"PART-1-1",           460,       8.72284,       19.1442,            0.,NA,NA,"",       1.23022,       1.12015,  -508.642E-03,   25.7839E-09
C:/temp/dataset/2/30_2.odb,Step-1,Increment      1: Step Time =    1.000,"PART-1-1",           461,           15.,       28.5417,            0.,NA,NA,"",       1.53894,       1.37766,  -685.847E-03,   27.1522E-09
C:/temp/dataset/2/30_2.odb,Step-1,Increment      1: Step Time =    1.000,"PART-1-1",           462,         13.75,           30.,            0.,NA,NA,"",       1.56107,       1.41847,  -651.833E-03,   27.2255E-09
C:/temp/dataset/2/30_2.odb,Step-1,Increment      1: Step Time =    1.000,"PART-1-1",           463,       12.5875,       28.6551,            0.,NA,NA,"",       1.51410,       1.38172,  -619.167E-03,   26.7892E-09
C:/temp/dataset/2/30_2.odb,Step-1,Increment      1: Step Time =    1.000,"PART-1-1",           464,       13.8375,       27.1968,            0.,NA,NA,"",       1.49153,       1.34091,  -653.181E-03,   26.7835E-09
C:/temp/dataset/2/30_2.odb,Step-1,Increment      1: Step Time =    1.000,"PART-1-1",           465,         11.25,           30.,            0.,NA,NA,"",       1.53437,       1.41943,  -582.689E-03,   26.5132E-09
C:/temp/dataset/2/30_2.odb,Step-1,Increment      1: Step Time =    1.000,"PART-1-1",           466,       10.1484,       28.7335,            0.,NA,NA,"",       1.49068,       1.38482,  -551.736E-03,   26.3811E-09
C:/temp/dataset/2/30_2.odb,Step-1,Increment      1: Step Time =    1.000,"PART-1-1",           467,       7.69941,       28.7139,            0.,NA,NA,"",       1.46733,       1.38521,  -483.997E-03,   26.3708E-09
C:/temp/dataset/2/30_2.odb,Step-1,Increment      1: Step Time =    1.000,"PART-1-1",           468,       9.09777,       27.4473,            0.,NA,NA,"",       1.44715,       1.34965,  -522.188E-03,   26.6772E-09
C:/temp/dataset/2/30_2.odb,Step-1,Increment      1: Step Time =    1.000,"PART-1-1",           469,          8.75,           30.,            0.,NA,NA,"",       1.51037,       1.42038,  -513.546E-03,   26.0624E-09
C:/temp/dataset/2/30_2.odb,Step-1,Increment      1: Step Time =    1.000,"PART-1-1",           470,  -9.87333E-03,       28.6960,            0.,NA,NA,"",       1.41384,       1.38767,  -270.770E-03,   28.4022E-09
C:/temp/dataset/2/30_2.odb,Step-1,Increment      1: Step Time =    1.000,"PART-1-1",           471,          1.25,           30.,            0.,NA,NA,"",       1.45580,       1.42325,  -306.114E-03,   27.7497E-09
C:/temp/dataset/2/30_2.odb,Step-1,Increment      1: Step Time =    1.000,"PART-1-1",           472,       4.87954,       25.6434,            0.,NA,NA,"",       1.36288,       1.30137,  -404.832E-03,   27.8392E-09
C:/temp/dataset/2/30_2.odb,Step-1,Increment      1: Step Time =    1.000,"PART-1-1",           473,      -5.00474,       28.7231,            0.,NA,NA,"",       1.39664,       1.39033,  -132.635E-03,   29.6269E-09
C:/temp/dataset/2/30_2.odb,Step-1,Increment      1: Step Time =    1.000,"PART-1-1",           474,         -6.25,           30.,            0.,NA,NA,"",       1.42953,       1.42612,  -98.6829E-03,   29.7751E-09
C:/temp/dataset/2/30_2.odb,Step-1,Increment      1: Step Time =    1.000,"PART-1-1",           475,      -3.76303,       27.4393,            0.,NA,NA,"",       1.36454,       1.35434,  -166.487E-03,   29.4804E-09
C:/temp/dataset/2/30_2.odb,Step-1,Increment      1: Step Time =    1.000,"PART-1-1",           476,      -3.77322,       24.9147,            0.,NA,NA,"",       1.29511,       1.28452,  -165.239E-03,   29.8521E-09
C:/temp/dataset/2/30_2.odb,Step-1,Increment      1: Step Time =    1.000,"PART-1-1",           477,      -13.7476,       27.4926,            0.,NA,NA,"",       1.36405,       1.35964,   109.641E-03,   30.8466E-09
C:/temp/dataset/2/30_2.odb,Step-1,Increment      1: Step Time =    1.000,"PART-1-1",           478,        -13.75,           30.,            0.,NA,NA,"",       1.43312,       1.42899,   108.748E-03,   30.9871E-09
C:/temp/dataset/2/30_2.odb,Step-1,Increment      1: Step Time =    1.000,"PART-1-1",           479,          -15.,         28.75,            0.,NA,NA,"",       1.40229,       1.39489,   143.799E-03,   31.1880E-09
C:/temp/dataset/2/30_2.odb,Step-1,Increment      1: Step Time =    1.000,"PART-1-1",           480,          -15.,         26.25,            0.,NA,NA,"",       1.33363,       1.32575,   144.755E-03,   30.7891E-09
C:/temp/dataset/2/30_2.odb,Step-1,Increment      1: Step Time =    1.000,"PART-1-1",           481,      -12.4965,       26.2309,            0.,NA,NA,"",       1.32642,       1.32426,   75.5213E-03,   30.7115E-09
C:/temp/dataset/2/30_2.odb,Step-1,Increment      1: Step Time =    1.000,"PART-1-1",           482,      -10.0014,       23.7134,            0.,NA,NA,"",       1.25370,       1.25368,   7.47581E-03,   30.7002E-09
C:/temp/dataset/2/30_2.odb,Step-1,Increment      1: Step Time =    1.000,"PART-1-1",           483,      -8.75535,       22.4567,            0.,NA,NA,"",       1.21874,       1.21845,  -26.5056E-03,   30.7404E-09
C:/temp/dataset/2/30_2.odb,Step-1,Increment      1: Step Time =    1.000,"PART-1-1",           484,      -7.50515,       23.6891,            0.,NA,NA,"",       1.25357,       1.25206,  -61.5545E-03,   30.5144E-09
C:/temp/dataset/2/30_2.odb,Step-1,Increment      1: Step Time =    1.000,"PART-1-1",           485,      -8.75118,       24.9458,            0.,NA,NA,"",       1.28759,       1.28729,  -27.5730E-03,   30.4725E-09
C:/temp/dataset/2/30_2.odb,Step-1,Increment      1: Step Time =    1.000,"PART-1-1",           486,      -3.77419,       22.4219,            0.,NA,NA,"",       1.22663,       1.21558,  -164.259E-03,   30.3044E-09
C:/temp/dataset/2/30_2.odb,Step-1,Increment      1: Step Time =    1.000,"PART-1-1",           487,      -5.00723,       21.2173,            0.,NA,NA,"",       1.18983,       1.18274,  -129.695E-03,   30.6838E-09
C:/temp/dataset/2/30_2.odb,Step-1,Increment      1: Step Time =    1.000,"PART-1-1",           488,         -3.75,           20.,            0.,NA,NA,"",       1.16024,       1.14859,  -164.001E-03,   30.8063E-09
C:/temp/dataset/2/30_2.odb,Step-1,Increment      1: Step Time =    1.000,"PART-1-1",           489,      -2.51696,       21.2046,            0.,NA,NA,"",       1.19800,       1.18143,  -198.565E-03,   30.4197E-09
C:/temp/dataset/2/30_2.odb,Step-1,Increment      1: Step Time =    1.000,"PART-1-1",           490,         -8.75,           20.,            0.,NA,NA,"",       1.15079,       1.15050,  -25.7138E-03,   31.1016E-09
C:/temp/dataset/2/30_2.odb,Step-1,Increment      1: Step Time =    1.000,"PART-1-1",           491,      -7.50331,       21.2223,            0.,NA,NA,"",       1.18538,       1.18383,  -60.6618E-03,   30.8696E-09
C:/temp/dataset/2/30_2.odb,Step-1,Increment      1: Step Time =    1.000,"PART-1-1",           492,         -6.25,           20.,            0.,NA,NA,"",       1.15345,       1.14954,  -94.8576E-03,   30.9983E-09
C:/temp/dataset/2/30_2.odb,Step-1,Increment      1: Step Time =    1.000,"PART-1-1",           493,      -6.26054,       22.4396,            0.,NA,NA,"",       1.22076,       1.21702,  -95.4994E-03,   30.5590E-09
C:/temp/dataset/2/30_2.odb,Step-1,Increment      1: Step Time =    1.000,"PART-1-1",           494,         -1.25,           20.,            0.,NA,NA,"",       1.17107,       1.14763,  -233.145E-03,   30.5751E-09
C:/temp/dataset/2/30_2.odb,Step-1,Increment      1: Step Time =    1.000,"PART-1-1",           495,      -1.30453,       22.3853,            0.,NA,NA,"",       1.23570,       1.21362,  -232.549E-03,   29.9979E-09
C:/temp/dataset/2/30_2.odb,Step-1,Increment      1: Step Time =    1.000,"PART-1-1",           496,         -1.25,           30.,            0.,NA,NA,"",       1.44379,       1.42421,  -236.970E-03,   28.5524E-09
C:/temp/dataset/2/30_2.odb,Step-1,Increment      1: Step Time =    1.000,"PART-1-1",           497,      -2.50829,       28.7162,            0.,NA,NA,"",       1.40374,       1.38918,  -201.678E-03,   29.0719E-09
C:/temp/dataset/2/30_2.odb,Step-1,Increment      1: Step Time =    1.000,"PART-1-1",           498,         -3.75,           30.,            0.,NA,NA,"",       1.43501,       1.42516,  -167.827E-03,   29.2270E-09
C:/temp/dataset/2/30_2.odb,Step-1,Increment      1: Step Time =    1.000,"PART-1-1",           499,          3.75,           20.,            0.,NA,NA,"",       1.20442,       1.14572,  -371.433E-03,   31.6168E-09
C:/temp/dataset/2/30_2.odb,Step-1,Increment      1: Step Time =    1.000,"PART-1-1",           500,       4.75388,       21.0765,            0.,NA,NA,"",       1.24120,       1.17511,  -399.609E-03,   30.5672E-09
C:/temp/dataset/2/30_2.odb,Step-1,Increment      1: Step Time =    1.000,"PART-1-1",           501,          6.25,           30.,            0.,NA,NA,"",       1.48919,       1.42134,  -444.402E-03,   26.2338E-09
C:/temp/dataset/2/30_2.odb,Step-1,Increment      1: Step Time =    1.000,"PART-1-1",           502,       6.61296,       27.1492,            0.,NA,NA,"",       1.41684,       1.34235,  -453.350E-03,   27.0639E-09
C:/temp/dataset/2/30_2.odb,Step-1,Increment      1: Step Time =    1.000,"PART-1-1",           503,            5.,         16.25,            0.,NA,NA,"",       1.11734,       1.04153,  -404.570E-03,   26.5653E-09
C:/temp/dataset/2/30_2.odb,Step-1,Increment      1: Step Time =    1.000,"PART-1-1",           504,       6.03202,       15.2452,            0.,NA,NA,"",       1.10187,       1.01334,  -432.729E-03,   25.9304E-09
C:/temp/dataset/2/30_2.odb,Step-1,Increment      1: Step Time =    1.000,"PART-1-1",           505,       6.91243,       16.6330,            0.,NA,NA,"",       1.14666,       1.05139,  -457.610E-03,   25.6580E-09
C:/temp/dataset/2/30_2.odb,Step-1,Increment      1: Step Time =    1.000,"PART-1-1",           506,            5.,         13.75,            0.,NA,NA,"",       1.05282,   972.382E-03,  -403.614E-03,   27.7024E-09
C:/temp/dataset/2/30_2.odb,Step-1,Increment      1: Step Time =    1.000,"PART-1-1",           507,       6.17466,       12.7979,            0.,NA,NA,"",       1.04117,   945.601E-03,  -435.738E-03,   25.8923E-09
C:/temp/dataset/2/30_2.odb,Step-1,Increment      1: Step Time =    1.000,"PART-1-1",           508,       12.0086,       16.5092,            0.,NA,NA,"",       1.20514,       1.04601,  -598.508E-03,   23.0756E-09
C:/temp/dataset/2/30_2.odb,Step-1,Increment      1: Step Time =    1.000,"PART-1-1",           509,           15.,        16.875,            0.,NA,NA,"",       1.25590,       1.05499,  -681.384E-03,   22.7199E-09
C:/temp/dataset/2/30_2.odb,Step-1,Increment      1: Step Time =    1.000,"PART-1-1",           510,       13.3591,       18.2744,            0.,NA,NA,"",       1.26598,       1.09432,  -636.536E-03,   23.6524E-09
C:/temp/dataset/2/30_2.odb,Step-1,Increment      1: Step Time =    1.000,"PART-1-1",           511,            5.,         11.25,            0.,NA,NA,"",   988.925E-03,   903.238E-03,  -402.657E-03,   29.1345E-09
C:/temp/dataset/2/30_2.odb,Step-1,Increment      1: Step Time =    1.000,"PART-1-1",           512,       6.23142,       10.2778,            0.,NA,NA,"",   978.549E-03,   875.878E-03,  -436.344E-03,   26.6186E-09
C:/temp/dataset/2/30_2.odb,Step-1,Increment      1: Step Time =    1.000,"PART-1-1",           513,            5.,          8.75,            0.,NA,NA,"",   925.785E-03,   834.094E-03,  -401.701E-03,   40.6363E-09
C:/temp/dataset/2/30_2.odb,Step-1,Increment      1: Step Time =    1.000,"PART-1-1",           514,       7.47251,       9.25684,            0.,NA,NA,"",   968.944E-03,   847.166E-03,  -470.278E-03,   35.0308E-09
C:/temp/dataset/2/30_2.odb,Step-1,Increment      1: Step Time =    1.000,"PART-1-1",           515,         11.25,           -5.,            0.,NA,NA,"",   726.552E-03,   451.414E-03,  -569.300E-03,   132.924E-09
C:/temp/dataset/2/30_2.odb,Step-1,Increment      1: Step Time =    1.000,"PART-1-1",           516,       11.2689,      -2.22707,            0.,NA,NA,"",   777.686E-03,   528.098E-03,  -570.883E-03,   173.778E-09
C:/temp/dataset/2/30_2.odb,Step-1,Increment      1: Step Time =    1.000,"PART-1-1",           517,          10.5,          -30.,            0.,NA,NA,"",            0.,   1.35147E-39,  -863.538E-42,   1.21527E-03
C:/temp/dataset/2/30_2.odb,Step-1,Increment      1: Step Time =    1.000,"PART-1-1",           518,           15.,        -23.75,            0.,NA,NA,"",   10.7594E-03,   10.0483E-03,  -3.84657E-03,   41.8637E-06
C:/temp/dataset/2/30_2.odb,Step-1,Increment      1: Step Time =    1.000,"PART-1-1",           519,          3.75,           -5.,            0.,NA,NA,"",   580.801E-03,   454.288E-03,  -361.874E-03,   1.38676E-06
C:/temp/dataset/2/30_2.odb,Step-1,Increment      1: Step Time =    1.000,"PART-1-1",           520,       4.97006,      -3.74763,            0.,NA,NA,"",   628.871E-03,   488.454E-03,  -396.094E-03,   603.046E-09
C:/temp/dataset/2/30_2.odb,Step-1,Increment      1: Step Time =    1.000,"PART-1-1",           521,       4.85412,       3.76356,            0.,NA,NA,"",   800.857E-03,   696.238E-03,  -395.759E-03,   429.226E-09
C:/temp/dataset/2/30_2.odb,Step-1,Increment      1: Step Time =    1.000,"PART-1-1",           522,       3.33333,            5.,            0.,NA,NA,"",   812.296E-03,   731.020E-03,  -354.168E-03,   529.894E-09
C:/temp/dataset/2/30_2.odb,Step-1,Increment      1: Step Time =    1.000,"PART-1-1",           523,       1.45296,       3.58740,            0.,NA,NA,"",   755.484E-03,   692.666E-03,  -301.612E-03,   3.30630E-06
C:/temp/dataset/2/30_2.odb,Step-1,Increment      1: Step Time =    1.000,"PART-1-1",           524,       2.97375,       2.35096,            0.,NA,NA,"",   742.029E-03,   657.887E-03,  -343.209E-03,   2.98539E-06
C:/temp/dataset/2/30_2.odb,Step-1,Increment      1: Step Time =    1.000,"PART-1-1",           525,          6.25,           -5.,            0.,NA,NA,"",   625.523E-03,   453.328E-03,  -431.014E-03,   997.677E-09
C:/temp/dataset/2/30_2.odb,Step-1,Increment      1: Step Time =    1.000,"PART-1-1",           526,       12.4696,       10.4445,            0.,NA,NA,"",       1.06858,   878.103E-03,  -608.939E-03,   18.4455E-09
C:/temp/dataset/2/30_2.odb,Step-1,Increment      1: Step Time =    1.000,"PART-1-1",           527,           15.,       11.0417,            0.,NA,NA,"",       1.12243,   893.651E-03,  -679.153E-03,   21.0214E-09
C:/temp/dataset/2/30_2.odb,Step-1,Increment      1: Step Time =    1.000,"PART-1-1",           528,      -5.01382,       23.6808,            0.,NA,NA,"",       1.25766,       1.25087,  -130.455E-03,   30.2460E-09
C:/temp/dataset/2/30_2.odb,Step-1,Increment      1: Step Time =    1.000,"PART-1-1",           529,      -2.53358,       23.6558,            0.,NA,NA,"",       1.26499,       1.24923,  -199.043E-03,   29.9035E-09
C:/temp/dataset/2/30_2.odb,Step-1,Increment      1: Step Time =    1.000,"PART-1-1",           530,  -74.6816E-03,       23.6075,            0.,NA,NA,"",       1.27523,       1.24696,  -267.031E-03,   29.5548E-09
C:/temp/dataset/2/30_2.odb,Step-1,Increment      1: Step Time =    1.000,"PART-1-1",           531,      -6.62798,      -1.45964,            0.,NA,NA,"",   561.646E-03,   556.463E-03,  -76.1206E-03,   78.5031E-06
C:/temp/dataset/2/30_2.odb,Step-1,Increment      1: Step Time =    1.000,"PART-1-1",           532,      -4.43070,      -2.38075,            0.,NA,NA,"",   547.317E-03,   529.977E-03,  -136.677E-03,   91.9890E-06
C:/temp/dataset/2/30_2.odb,Step-1,Increment      1: Step Time =    1.000,"PART-1-1",           533,      -3.64554,  -813.143E-03,            0.,NA,NA,"",   594.658E-03,   573.026E-03,  -158.932E-03,   57.5889E-06
C:/temp/dataset/2/30_2.odb,Step-1,Increment      1: Step Time =    1.000,"PART-1-1",           534,         -3.75,           -5.,            0.,NA,NA,"",   482.430E-03,   456.992E-03,  -154.588E-03,   160.653E-06
C:/temp/dataset/2/30_2.odb,Step-1,Increment      1: Step Time =    1.000,"PART-1-1",           535,      -13.8599,      -9.43096,            0.,NA,NA,"",   358.642E-03,   338.675E-03,   117.998E-03,   3.06391E-03
C:/temp/dataset/2/30_2.odb,Step-1,Increment      1: Step Time =    1.000,"PART-1-1",           536,          -15.,      -11.0417,            0.,NA,NA,"",   329.003E-03,   294.251E-03,   147.170E-03,   3.98009E-03
C:/temp/dataset/2/30_2.odb,Step-1,Increment      1: Step Time =    1.000,"PART-1-1",           537,      -11.9984,      -19.8095,            0.,NA,NA,"",   76.7051E-03,   63.8060E-03,   42.5731E-03,   5.00301E-03
C:/temp/dataset/2/30_2.odb,Step-1,Increment      1: Step Time =    1.000,"PART-1-1",           538,      -13.3881,      -18.2324,            0.,NA,NA,"",   121.341E-03,   96.9033E-03,   73.0296E-03,   7.22345E-03
C:/temp/dataset/2/30_2.odb,Step-1,Increment      1: Step Time =    1.000,"PART-1-1",           539,          -15.,      -19.7917,            0.,NA,NA,"",   116.160E-03,   75.3969E-03,   88.3655E-03,   10.6118E-03
C:/temp/dataset/2/30_2.odb,Step-1,Increment      1: Step Time =    1.000,"PART-1-1",           540,           -5.,        -18.75,            0.,NA,NA,"",   98.5327E-03,   78.7839E-03,  -59.1759E-03,   15.9393E-03
C:/temp/dataset/2/30_2.odb,Step-1,Increment      1: Step Time =    1.000,"PART-1-1",           541,      -5.96138,      -20.0094,            0.,NA,NA,"",   55.6057E-03,   44.4870E-03,  -33.3603E-03,   11.5176E-03
C:/temp/dataset/2/30_2.odb,Step-1,Increment      1: Step Time =    1.000,"PART-1-1",           542,           -5.,        -13.75,            0.,NA,NA,"",   229.767E-03,   206.649E-03,  -100.444E-03,   5.47860E-03
C:/temp/dataset/2/30_2.odb,Step-1,Increment      1: Step Time =    1.000,"PART-1-1",           543,      -7.28958,      -14.3036,            0.,NA,NA,"",   191.918E-03,   187.564E-03,  -40.6459E-03,   4.98638E-03
C:/temp/dataset/2/30_2.odb,Step-1,Increment      1: Step Time =    1.000,"PART-1-1",           544,      -8.88285,      -11.0213,            0.,NA,NA,"",   282.296E-03,   282.119E-03,  -9.97972E-03,   3.48807E-03
C:/temp/dataset/2/30_2.odb,Step-1,Increment      1: Step Time =    1.000,"PART-1-1",           545,      -9.01222,      -8.51542,            0.,NA,NA,"",   357.039E-03,   356.943E-03,  -8.29930E-03,   2.40731E-03
C:/temp/dataset/2/30_2.odb,Step-1,Increment      1: Step Time =    1.000,"PART-1-1",           546,      -9.13424,  -715.290E-03,            0.,NA,NA,"",   578.168E-03,   578.123E-03,  -7.23131E-03,   98.6180E-06
C:/temp/dataset/2/30_2.odb,Step-1,Increment      1: Step Time =    1.000,"PART-1-1",           547,      -9.92186,      -2.42350,            0.,NA,NA,"",   531.753E-03,   531.540E-03,   15.0362E-03,   243.075E-06
C:/temp/dataset/2/30_2.odb,Step-1,Increment      1: Step Time =    1.000,"PART-1-1",           548,      -12.7176,      -7.95930,            0.,NA,NA,"",   389.632E-03,   379.366E-03,   88.8516E-03,   2.84761E-03
C:/temp/dataset/2/30_2.odb,Step-1,Increment      1: Step Time =    1.000,"PART-1-1",           549,          -15.,        -8.125,            0.,NA,NA,"",   409.300E-03,   380.015E-03,   152.036E-03,   2.39094E-03
C:/temp/dataset/2/30_2.odb,Step-1,Increment      1: Step Time =    1.000,"PART-1-1",           550,       11.2818,   528.104E-03,            0.,NA,NA,"",   832.281E-03,   604.294E-03,  -572.294E-03,   137.452E-09
C:/temp/dataset/2/30_2.odb,Step-1,Increment      1: Step Time =    1.000,"PART-1-1",           551,       10.0167,  -924.457E-03,            0.,NA,NA,"",   779.024E-03,   564.604E-03,  -536.750E-03,   177.926E-09
C:/temp/dataset/2/30_2.odb,Step-1,Increment      1: Step Time =    1.000,"PART-1-1",           552,       10.4320,       23.7699,            0.,NA,NA,"",       1.36641,       1.24743,  -557.683E-03,   26.4082E-09
C:/temp/dataset/2/30_2.odb,Step-1,Increment      1: Step Time =    1.000,"PART-1-1",           553,           15.,        25.625,            0.,NA,NA,"",       1.46664,       1.29699,  -684.731E-03,   26.5894E-09
C:/temp/dataset/2/30_2.odb,Step-1,Increment      1: Step Time =    1.000,"PART-1-1",           554,      -9.99539,       26.2124,            0.,NA,NA,"",       1.32281,       1.32280,   6.35427E-03,   30.5213E-09
C:/temp/dataset/2/30_2.odb,Step-1,Increment      1: Step Time =    1.000,"PART-1-1",           555,          -15.,       -25.625,            0.,NA,NA,"",   37.9635E-03,   17.2803E-03,   33.8026E-03,   9.46938E-03
C:/temp/dataset/2/30_2.odb,Step-1,Increment      1: Step Time =    1.000,"PART-1-1",           556,      -12.2044,      -25.8339,            0.,NA,NA,"",   18.4732E-03,   7.17963E-03,   17.0209E-03,   5.13999E-03
C:/temp/dataset/2/30_2.odb,Step-1,Increment      1: Step Time =    1.000,"PART-1-1",           557,          -15.,       -16.875,            0.,NA,NA,"",   174.925E-03,   132.120E-03,   114.644E-03,   9.14852E-03
C:/temp/dataset/2/30_2.odb,Step-1,Increment      1: Step Time =    1.000,"PART-1-1",           558,      -8.25880,      -15.9015,            0.,NA,NA,"",   144.052E-03,   143.261E-03,  -15.0748E-03,   5.14105E-03
C:/temp/dataset/2/30_2.odb,Step-1,Increment      1: Step Time =    1.000,"PART-1-1",           559,       7.56555,       17.9230,            0.,NA,NA,"",       1.18655,       1.08681,  -476.167E-03,   25.8281E-09
C:/temp/dataset/2/30_2.odb,Step-1,Increment      1: Step Time =    1.000,"PART-1-1",           560,      -9.72707,       2.21069,            0.,NA,NA,"",   658.838E-03,   658.792E-03,   7.86350E-03,   51.5126E-06
C:/temp/dataset/2/30_2.odb,Step-1,Increment      1: Step Time =    1.000,"PART-1-1",           561,      -8.18006,       3.69884,            0.,NA,NA,"",   700.089E-03,   699.198E-03,  -35.3015E-03,   75.2831E-06
C:/temp/dataset/2/30_2.odb,Step-1,Increment      1: Step Time =    1.000,"PART-1-1",           562,          -10.,            5.,            0.,NA,NA,"",   735.641E-03,   735.504E-03,   14.1908E-03,   104.434E-06
C:/temp/dataset/2/30_2.odb,Step-1,Increment      1: Step Time =    1.000,"PART-1-1",           563,      -10.3433,      -7.69771,            0.,NA,NA,"",   383.502E-03,   382.596E-03,   26.3419E-03,   2.41409E-03
C:/temp/dataset/2/30_2.odb,Step-1,Increment      1: Step Time =    1.000,"PART-1-1",           564,      -11.5611,      -6.59494,            0.,NA,NA,"",   420.870E-03,   416.702E-03,   59.0874E-03,   2.06659E-03
C:/temp/dataset/2/30_2.odb,Step-1,Increment      1: Step Time =    1.000,"PART-1-1",           565,      -9.40089,      -20.7816,            0.,NA,NA,"",   43.2771E-03,   42.8857E-03,   5.80706E-03,   2.35548E-03
C:/temp/dataset/2/30_2.odb,Step-1,Increment      1: Step Time =    1.000,"PART-1-1",           566,      -8.21757,      -22.2064,            0.,NA,NA,"",   26.2883E-03,   25.2815E-03,  -7.20568E-03,   2.04110E-03
C:/temp/dataset/2/30_2.odb,Step-1,Increment      1: Step Time =    1.000,"PART-1-1",           567,      -6.89894,      -21.2078,            0.,NA,NA,"",   39.3771E-03,   33.2720E-03,  -21.0601E-03,   4.53259E-03
C:/temp/dataset/2/30_2.odb,Step-1,Increment      1: Step Time =    1.000,"PART-1-1",           568,      -9.14285,      -28.6800,            0.,NA,NA,"",   1.58483E-03,  -1.47101E-03,   589.740E-06,   1.05300E-03
C:/temp/dataset/2/30_2.odb,Step-1,Increment      1: Step Time =    1.000,"PART-1-1",           569,      -10.7232,      -27.3047,            0.,NA,NA,"",   5.47046E-03,   411.373E-06,   5.45497E-03,   2.68359E-03
C:/temp/dataset/2/30_2.odb,Step-1,Increment      1: Step Time =    1.000,"PART-1-1",           570,         -10.5,          -30.,            0.,NA,NA,"",            0.,  -1.93326E-39,   4.89248E-39,   2.44191E-03
C:/temp/dataset/2/30_2.odb,Step-1,Increment      1: Step Time =    1.000,"PART-1-1",           571,      -4.89633,      -27.4366,            0.,NA,NA,"",   7.09725E-03,   4.53051E-03,  -5.46309E-03,   3.25128E-03
C:/temp/dataset/2/30_2.odb,Step-1,Increment      1: Step Time =    1.000,"PART-1-1",           572,      -6.18287,      -28.7136,            0.,NA,NA,"",   1.96426E-03,   562.887E-06,  -1.88188E-03,   2.18196E-03
C:/temp/dataset/2/30_2.odb,Step-1,Increment      1: Step Time =    1.000,"PART-1-1",           573,          -4.5,          -30.,            0.,NA,NA,"",            0.,   1.04618E-39,  -4.30896E-39,   2.05687E-03
C:/temp/dataset/2/30_2.odb,Step-1,Increment      1: Step Time =    1.000,"PART-1-1",           574,       12.5384,       2.02620,            0.,NA,NA,"",   886.311E-03,   645.247E-03,  -607.622E-03,   75.8039E-09
C:/temp/dataset/2/30_2.odb,Step-1,Increment      1: Step Time =    1.000,"PART-1-1",           575,           15.,       2.29167,            0.,NA,NA,"",   938.806E-03,   651.647E-03,  -675.805E-03,   99.2666E-09
C:/temp/dataset/2/30_2.odb,Step-1,Increment      1: Step Time =    1.000,"PART-1-1",           576,       9.96595,       9.83263,            0.,NA,NA,"",       1.01700,   862.137E-03,  -539.461E-03,   16.9986E-09
C:/temp/dataset/2/30_2.odb,Step-1,Increment      1: Step Time =    1.000,"PART-1-1",           577,           15.,       19.7917,            0.,NA,NA,"",       1.32496,       1.13565,  -682.500E-03,   24.0099E-09
C:/temp/dataset/2/30_2.odb,Step-1,Increment      1: Step Time =    1.000,"PART-1-1",           578,       7.90800,       20.1372,            0.,NA,NA,"",       1.24675,       1.14792,  -486.485E-03,   26.7067E-09
C:/temp/dataset/2/30_2.odb,Step-1,Increment      1: Step Time =    1.000,"PART-1-1",           579,       8.41916,       21.3934,            0.,NA,NA,"",       1.28427,       1.18247,  -501.103E-03,   26.6886E-09
C:/temp/dataset/2/30_2.odb,Step-1,Increment      1: Step Time =    1.000,"PART-1-1",           580,       6.50486,       21.1025,            0.,NA,NA,"",       1.25767,       1.17516,  -448.047E-03,   28.0523E-09
C:/temp/dataset/2/30_2.odb,Step-1,Increment      1: Step Time =    1.000,"PART-1-1",           581,           4.5,          -30.,            0.,NA,NA,"",            0.,   2.28997E-39,  -1.54349E-39,   2.10614E-03
C:/temp/dataset/2/30_2.odb,Step-1,Increment      1: Step Time =    1.000,"PART-1-1",           582,       3.62857,      -22.4261,            0.,NA,NA,"",   15.2895E-03,   15.2780E-03,  -591.096E-06,   1.33774E-03
C:/temp/dataset/2/30_2.odb,Step-1,Increment      1: Step Time =    1.000,"PART-1-1",           583,       2.16864,      -23.6665,            0.,NA,NA,"",   15.8420E-03,   15.6751E-03,  -2.29326E-03,   1.98741E-03
C:/temp/dataset/2/30_2.odb,Step-1,Increment      1: Step Time =    1.000,"PART-1-1",           584,      -2.73954,      -22.4743,            0.,NA,NA,"",   30.0699E-03,   25.4125E-03,  -16.0749E-03,   5.26676E-03
C:/temp/dataset/2/30_2.odb,Step-1,Increment      1: Step Time =    1.000,"PART-1-1",           585,  -999.676E-03,      -23.6839,            0.,NA,NA,"",   20.9067E-03,   19.2194E-03,  -8.22845E-03,   3.92680E-03
C:/temp/dataset/2/30_2.odb,Step-1,Increment      1: Step Time =    1.000,"PART-1-1",           586,      -7.82572,      -27.3936,            0.,NA,NA,"",   2.31001E-03,   699.683E-06,  -2.20149E-03,   1.42775E-03
C:/temp/dataset/2/30_2.odb,Step-1,Increment      1: Step Time =    1.000,"PART-1-1",           587,      -6.52069,      -26.1528,            0.,NA,NA,"",   9.27019E-03,   5.69476E-03,  -7.31479E-03,   3.27776E-03
C:/temp/dataset/2/30_2.odb,Step-1,Increment      1: Step Time =    1.000,"PART-1-1",           588,      -8.08310,      -24.7829,            0.,NA,NA,"",   10.1794E-03,   8.98222E-03,  -4.78949E-03,   1.53888E-03
C:/temp/dataset/2/30_2.odb,Step-1,Increment      1: Step Time =    1.000,"PART-1-1",           589,      -9.38814,      -26.0237,            0.,NA,NA,"",   4.01667E-03,   3.43356E-03,   2.08430E-03,   905.833E-06
C:/temp/dataset/2/30_2.odb,Step-1,Increment      1: Step Time =    1.000,"PART-1-1",           590,          -7.5,          -30.,            0.,NA,NA,"",            0.,  -1.00419E-39,  -1.33365E-39,   958.199E-06
C:/temp/dataset/2/30_2.odb,Step-1,Increment      1: Step Time =    1.000,"PART-1-1",           591,       7.73182,       24.8866,            0.,NA,NA,"",       1.36764,       1.27935,  -483.429E-03,   27.2086E-09
C:/temp/dataset/2/30_2.odb,Step-1,Increment      1: Step Time =    1.000,"PART-1-1",           592,       8.21760,       26.2797,            0.,NA,NA,"",       1.40844,       1.31769,  -497.398E-03,   26.8556E-09
C:/temp/dataset/2/30_2.odb,Step-1,Increment      1: Step Time =    1.000,"PART-1-1",           593,       6.12718,       25.7561,            0.,NA,NA,"",       1.37604,       1.30401,  -439.381E-03,   27.4239E-09
C:/temp/dataset/2/30_2.odb,Step-1,Increment      1: Step Time =    1.000,"PART-1-1",           594,       5.38844,       22.1508,            0.,NA,NA,"",       1.27490,       1.20458,  -417.571E-03,   28.8550E-09
C:/temp/dataset/2/30_2.odb,Step-1,Increment      1: Step Time =    1.000,"PART-1-1",           595,      -3.37677,   775.412E-03,            0.,NA,NA,"",   639.001E-03,   616.813E-03,  -166.922E-03,   49.6976E-06
C:/temp/dataset/2/30_2.odb,Step-1,Increment      1: Step Time =    1.000,"PART-1-1",           596,      -3.41233,       2.84116,            0.,NA,NA,"",   694.195E-03,   673.884E-03,  -166.697E-03,   40.2611E-06
C:/temp/dataset/2/30_2.odb,Step-1,Increment      1: Step Time =    1.000,"PART-1-1",           597,      -11.2482,       24.9673,            0.,NA,NA,"",       1.28951,       1.28884,   41.4807E-03,   30.6476E-09
C:/temp/dataset/2/30_2.odb,Step-1,Increment      1: Step Time =    1.000,"PART-1-1",           598,       5.16292,       24.1270,            0.,NA,NA,"",       1.32503,       1.25932,  -412.089E-03,   28.1704E-09
C:/temp/dataset/2/30_2.odb,Step-1,Increment      1: Step Time =    1.000,"PART-1-1",           599,            0.,            5.,            0.,NA,NA,"",   777.737E-03,   732.293E-03,  -261.956E-03,   7.44832E-06
C:/temp/dataset/2/30_2.odb,Step-1,Increment      1: Step Time =    1.000,"PART-1-1",           600,      -1.80204,       3.95011,            0.,NA,NA,"",   735.070E-03,   703.929E-03,  -211.688E-03,   16.3328E-06
C:/temp/dataset/2/30_2.odb,Step-1,Increment      1: Step Time =    1.000,"PART-1-1",           601,       9.59799,       22.9228,            0.,NA,NA,"",       1.33582,       1.22432,  -534.292E-03,   26.5631E-09
C:/temp/dataset/2/30_2.odb,Step-1,Increment      1: Step Time =    1.000,"PART-1-1",           602,       8.30932,       22.9391,            0.,NA,NA,"",       1.32285,       1.22526,  -498.656E-03,   27.0834E-09
C:/temp/dataset/2/30_2.odb,Step-1,Increment      1: Step Time =    1.000,"PART-1-1",           603,      -1.93269,      -1.01257,            0.,NA,NA,"",   603.149E-03,   566.792E-03,  -206.242E-03,   42.2757E-06
C:/temp/dataset/2/30_2.odb,Step-1,Increment      1: Step Time =    1.000,"PART-1-1",           604,      -8.69440,      -13.5596,            0.,NA,NA,"",   207.876E-03,   207.582E-03,  -11.0511E-03,   4.25255E-03
C:/temp/dataset/2/30_2.odb,Step-1,Increment      1: Step Time =    1.000,"PART-1-1",           605,       6.07991,       2.65614,            0.,NA,NA,"",   791.616E-03,   665.140E-03,  -429.238E-03,   336.101E-09
C:/temp/dataset/2/30_2.odb,Step-1,Increment      1: Step Time =    1.000,"PART-1-1",           606,       4.75906,       1.28045,            0.,NA,NA,"",   740.055E-03,   627.596E-03,  -392.180E-03,   450.981E-09
C:/temp/dataset/2/30_2.odb,Step-1,Increment      1: Step Time =    1.000,"PART-1-1",           607,       10.0234,       4.43547,            0.,NA,NA,"",   893.673E-03,   712.843E-03,  -538.987E-03,   129.699E-09
C:/temp/dataset/2/30_2.odb,Step-1,Increment      1: Step Time =    1.000,"PART-1-1",           608,       7.46673,       4.06304,            0.,NA,NA,"",   845.038E-03,   703.521E-03,  -468.132E-03,   292.678E-09
C:/temp/dataset/2/30_2.odb,Step-1,Increment      1: Step Time =    1.000,"PART-1-1",           609,  -317.165E-03,  -486.862E-03,            0.,NA,NA,"",   632.654E-03,   580.682E-03,  -251.116E-03,   20.2223E-06
C:/temp/dataset/2/30_2.odb,Step-1,Increment      1: Step Time =    1.000,"PART-1-1",           610,       1.72730,   921.331E-03,            0.,NA,NA,"",   691.323E-03,   618.827E-03,  -308.189E-03,   5.09744E-06
C:/temp/dataset/2/30_2.odb,Step-1,Increment      1: Step Time =    1.000,"PART-1-1",           611,      -4.63664,      -21.2535,            0.,NA,NA,"",   44.8714E-03,   33.6191E-03,  -29.7185E-03,   10.8025E-03
C:/temp/dataset/2/30_2.odb,Step-1,Increment      1: Step Time =    1.000,"PART-1-1",           612,       11.2827,       3.26092,            0.,NA,NA,"",   889.370E-03,   679.876E-03,  -573.365E-03,   120.750E-09
C:/temp/dataset/2/30_2.odb,Step-1,Increment      1: Step Time =    1.000,"PART-1-1",           613,      -11.4502,      -4.36864,            0.,NA,NA,"",   482.625E-03,   479.252E-03,   56.9571E-03,   979.997E-06
C:/temp/dataset/2/30_2.odb,Step-1,Increment      1: Step Time =    1.000,"PART-1-1",           614,      -10.8693,      -24.5529,            0.,NA,NA,"",   17.0893E-03,   11.0673E-03,   13.0215E-03,   3.13062E-03
C:/temp/dataset/2/30_2.odb,Step-1,Increment      1: Step Time =    1.000,"PART-1-1",           615,      -9.52531,      -23.3517,            0.,NA,NA,"",   17.8448E-03,   17.2928E-03,   4.40392E-03,   1.42235E-03
C:/temp/dataset/2/30_2.odb,Step-1,Increment      1: Step Time =    1.000,"PART-1-1",           616,      -10.8903,      -21.7518,            0.,NA,NA,"",   40.1130E-03,   34.1293E-03,   21.0772E-03,   3.66248E-03
C:/temp/dataset/2/30_2.odb,Step-1,Increment      1: Step Time =    1.000,"PART-1-1",           617,       3.33333,          -20.,            0.,NA,NA,"",   15.3928E-03,   15.3919E-03,   166.678E-06,   737.469E-06
C:/temp/dataset/2/30_2.odb,Step-1,Increment      1: Step Time =    1.000,"PART-1-1",           618,       1.83446,      -21.2108,            0.,NA,NA,"",   17.2167E-03,   17.1387E-03,  -1.63699E-03,   1.34146E-03
C:/temp/dataset/2/30_2.odb,Step-1,Increment      1: Step Time =    1.000,"PART-1-1",           619,       5.12744,      -21.2153,            0.,NA,NA,"",   14.4824E-03,   14.4728E-03,   527.957E-06,   697.835E-06
C:/temp/dataset/2/30_2.odb,Step-1,Increment      1: Step Time =    1.000,"PART-1-1",           620,            0.,          -20.,            0.,NA,NA,"",   18.2419E-03,   17.8875E-03,  -3.57835E-03,   1.91979E-03
C:/temp/dataset/2/30_2.odb,Step-1,Increment      1: Step Time =    1.000,"PART-1-1",           621,      -1.43624,      -21.2208,            0.,NA,NA,"",   25.4472E-03,   23.5055E-03,  -9.74947E-03,   3.15059E-03
C:/temp/dataset/2/30_2.odb,Step-1,Increment      1: Step Time =    1.000,"PART-1-1",           622,   398.228E-03,      -22.4316,            0.,NA,NA,"",   19.7838E-03,   19.1544E-03,  -4.95048E-03,   2.77958E-03
C:/temp/dataset/2/30_2.odb,Step-1,Increment      1: Step Time =    1.000,"PART-1-1",           623,   770.736E-03,      -24.9188,            0.,NA,NA,"",   15.4515E-03,   14.8727E-03,  -4.18951E-03,   2.83787E-03
C:/temp/dataset/2/30_2.odb,Step-1,Increment      1: Step Time =    1.000,"PART-1-1",           624,      -3.33333,          -20.,            0.,NA,NA,"",   31.9348E-03,   27.8443E-03,  -15.6374E-03,   8.26818E-03
C:/temp/dataset/2/30_2.odb,Step-1,Increment      1: Step Time =    1.000,"PART-1-1",           625,       8.69606,       24.2205,            0.,NA,NA,"",       1.35976,       1.26055,  -509.843E-03,   26.8984E-09
C:/temp/dataset/2/30_2.odb,Step-1,Increment      1: Step Time =    1.000,"PART-1-1",           626,      -3.33333,            5.,            0.,NA,NA,"",   752.900E-03,   733.520E-03,  -169.727E-03,   38.4993E-06
C:/temp/dataset/2/30_2.odb,Step-1,Increment      1: Step Time =    1.000,"PART-1-1",           627,      -4.94363,       3.89105,            0.,NA,NA,"",   714.402E-03,   703.427E-03,  -124.738E-03,   51.5425E-06
C:/temp/dataset/2/30_2.odb,Step-1,Increment      1: Step Time =    1.000,"PART-1-1",           628,      -6.66667,            5.,            0.,NA,NA,"",   738.677E-03,   734.592E-03,  -77.5827E-03,   94.2135E-06
C:/temp/dataset/2/30_2.odb,Step-1,Increment      1: Step Time =    1.000,"PART-1-1",           629,           10.,          -20.,            0.,NA,NA,"",   13.4598E-03,   13.4598E-03,   5.93851E-06,   51.5449E-06
C:/temp/dataset/2/30_2.odb,Step-1,Increment      1: Step Time =    1.000,"PART-1-1",           630,       8.42239,      -21.2201,            0.,NA,NA,"",   13.0621E-03,   13.0515E-03,   527.833E-06,   334.726E-06
C:/temp/dataset/2/30_2.odb,Step-1,Increment      1: Step Time =    1.000,"PART-1-1",           631,       6.66667,          -20.,            0.,NA,NA,"",   13.9232E-03,   13.8887E-03,   980.060E-06,   331.204E-06
C:/temp/dataset/2/30_2.odb,Step-1,Increment      1: Step Time =    1.000,"PART-1-1",           632,       9.53008,       25.0675,            0.,NA,NA,"",       1.39001,       1.28366,  -533.234E-03,   26.7696E-09
