ODB Name,Step,Frame,Part Instance Name,    êﬂì_ÉâÉxÉã,X,Y,Z,Section Name,Material Name,Section Point,   U-Magnitude,          U-U1,          U-U2,       S-Mises
C:/temp/dataset/2/30_9.odb,Step-1,Increment      1: Step Time =    1.000,"PART-1-1",             1,          -15.,           20.,            0.,NA,NA,"",       5.28962,       5.27264,   423.406E-03,   34.9309E-09
C:/temp/dataset/2/30_9.odb,Step-1,Increment      1: Step Time =    1.000,"PART-1-1",             2,          -15.,           25.,            0.,NA,NA,"",       5.91363,       5.90117,   383.745E-03,   34.1238E-09
C:/temp/dataset/2/30_9.odb,Step-1,Increment      1: Step Time =    1.000,"PART-1-1",             3,          -10.,           20.,            0.,NA,NA,"",       5.23700,       5.23298,  -205.115E-03,   37.0842E-09
C:/temp/dataset/2/30_9.odb,Step-1,Increment      1: Step Time =    1.000,"PART-1-1",             4,           -5.,           20.,            0.,NA,NA,"",       5.25980,       5.19332,  -833.636E-03,   39.3474E-09
C:/temp/dataset/2/30_9.odb,Step-1,Increment      1: Step Time =    1.000,"PART-1-1",             5,            0.,           20.,            0.,NA,NA,"",       5.35706,       5.15366,      -1.46216,   40.9904E-09
C:/temp/dataset/2/30_9.odb,Step-1,Increment      1: Step Time =    1.000,"PART-1-1",             6,            5.,           20.,            0.,NA,NA,"",       5.52485,       5.11400,      -2.09068,   64.3864E-09
C:/temp/dataset/2/30_9.odb,Step-1,Increment      1: Step Time =    1.000,"PART-1-1",             7,            5.,          12.5,            0.,NA,NA,"",       4.63948,       4.17122,      -2.03119,   72.0664E-09
C:/temp/dataset/2/30_9.odb,Step-1,Increment      1: Step Time =    1.000,"PART-1-1",             8,            5.,            5.,            0.,NA,NA,"",       3.78291,       3.22844,      -1.97170,   4.87823E-06
C:/temp/dataset/2/30_9.odb,Step-1,Increment      1: Step Time =    1.000,"PART-1-1",             9,           -5.,            5.,            0.,NA,NA,"",       3.38352,       3.30726,  -714.310E-03,   298.043E-06
C:/temp/dataset/2/30_9.odb,Step-1,Increment      1: Step Time =    1.000,"PART-1-1",            10,          -15.,            5.,            0.,NA,NA,"",       3.42452,       3.38246,   535.120E-03,   54.4365E-06
C:/temp/dataset/2/30_9.odb,Step-1,Increment      1: Step Time =    1.000,"PART-1-1",            11,          -15.,         -3.75,            0.,NA,NA,"",       2.38039,       2.30534,   593.008E-03,   4.88712E-03
C:/temp/dataset/2/30_9.odb,Step-1,Increment      1: Step Time =    1.000,"PART-1-1",            12,          -15.,         -12.5,            0.,NA,NA,"",       1.30793,       1.15912,   605.918E-03,   23.5081E-03
C:/temp/dataset/2/30_9.odb,Step-1,Increment      1: Step Time =    1.000,"PART-1-1",            13,          -15.,        -21.25,            0.,NA,NA,"",   416.042E-03,   251.941E-03,   331.084E-03,   49.8780E-03
C:/temp/dataset/2/30_9.odb,Step-1,Increment      1: Step Time =    1.000,"PART-1-1",            14,          -15.,          -30.,            0.,NA,NA,"",            0.,   14.1721E-39,   25.7611E-39,   40.5215E-03
C:/temp/dataset/2/30_9.odb,Step-1,Increment      1: Step Time =    1.000,"PART-1-1",            15,           15.,          -30.,            0.,NA,NA,"",            0.,   3.48708E-39,  -5.80283E-39,   9.71595E-03
C:/temp/dataset/2/30_9.odb,Step-1,Increment      1: Step Time =    1.000,"PART-1-1",            16,           15.,          -25.,            0.,NA,NA,"",   41.2671E-03,   37.6691E-03,  -16.8528E-03,   475.615E-06
C:/temp/dataset/2/30_9.odb,Step-1,Increment      1: Step Time =    1.000,"PART-1-1",            17,           15.,          -20.,            0.,NA,NA,"",   62.2849E-03,   60.0526E-03,  -16.5254E-03,   47.3485E-06
C:/temp/dataset/2/30_9.odb,Step-1,Increment      1: Step Time =    1.000,"PART-1-1",            18,            5.,          -20.,            0.,NA,NA,"",   63.7033E-03,   63.5874E-03,   3.84153E-03,   2.17354E-03
C:/temp/dataset/2/30_9.odb,Step-1,Increment      1: Step Time =    1.000,"PART-1-1",            19,           -5.,          -20.,            0.,NA,NA,"",   259.205E-03,   178.993E-03,  -187.480E-03,   86.4635E-03
C:/temp/dataset/2/30_9.odb,Step-1,Increment      1: Step Time =    1.000,"PART-1-1",            20,           -5.,         -12.5,            0.,NA,NA,"",       1.19481,       1.07284,  -525.908E-03,   19.4080E-03
C:/temp/dataset/2/30_9.odb,Step-1,Increment      1: Step Time =    1.000,"PART-1-1",            21,           -5.,           -5.,            0.,NA,NA,"",       2.14545,       2.04908,  -635.799E-03,   1.14365E-03
C:/temp/dataset/2/30_9.odb,Step-1,Increment      1: Step Time =    1.000,"PART-1-1",            22,            0.,           -5.,            0.,NA,NA,"",       2.37531,       2.01107,      -1.26401,   59.5871E-06
C:/temp/dataset/2/30_9.odb,Step-1,Increment      1: Step Time =    1.000,"PART-1-1",            23,            5.,           -5.,            0.,NA,NA,"",       2.73269,       1.97141,      -1.89239,   7.70850E-06
C:/temp/dataset/2/30_9.odb,Step-1,Increment      1: Step Time =    1.000,"PART-1-1",            24,           10.,           -5.,            0.,NA,NA,"",       3.17593,       1.93174,      -2.52089,   1.06086E-06
C:/temp/dataset/2/30_9.odb,Step-1,Increment      1: Step Time =    1.000,"PART-1-1",            25,           15.,           -5.,            0.,NA,NA,"",       3.67407,       1.89208,      -3.14941,   81.5652E-09
C:/temp/dataset/2/30_9.odb,Step-1,Increment      1: Step Time =    1.000,"PART-1-1",            26,           15.,          3.75,            0.,NA,NA,"",       4.39463,       2.99198,      -3.21882,   395.651E-09
C:/temp/dataset/2/30_9.odb,Step-1,Increment      1: Step Time =    1.000,"PART-1-1",            27,           15.,          12.5,            0.,NA,NA,"",       5.24939,       4.09190,      -3.28823,   23.3155E-09
C:/temp/dataset/2/30_9.odb,Step-1,Increment      1: Step Time =    1.000,"PART-1-1",            28,           15.,         21.25,            0.,NA,NA,"",       6.18293,       5.19181,      -3.35764,   25.6092E-09
C:/temp/dataset/2/30_9.odb,Step-1,Increment      1: Step Time =    1.000,"PART-1-1",            29,           15.,           30.,            0.,NA,NA,"",       7.16452,       6.29172,      -3.42704,   30.3183E-09
C:/temp/dataset/2/30_9.odb,Step-1,Increment      1: Step Time =    1.000,"PART-1-1",            30,           7.5,           30.,            0.,NA,NA,"",       6.81978,       6.35121,      -2.48426,   25.3210E-09
C:/temp/dataset/2/30_9.odb,Step-1,Increment      1: Step Time =    1.000,"PART-1-1",            31,            0.,           30.,            0.,NA,NA,"",       6.59343,       6.41070,      -1.54148,   27.8657E-09
C:/temp/dataset/2/30_9.odb,Step-1,Increment      1: Step Time =    1.000,"PART-1-1",            32,          -7.5,           30.,            0.,NA,NA,"",       6.49784,       6.47019,  -598.698E-03,   30.8937E-09
C:/temp/dataset/2/30_9.odb,Step-1,Increment      1: Step Time =    1.000,"PART-1-1",            33,          -15.,           30.,            0.,NA,NA,"",       6.53875,       6.52969,   344.084E-03,   35.2440E-09
C:/temp/dataset/2/30_9.odb,Step-1,Increment      1: Step Time =    1.000,"PART-1-1",            34,          -15.,          22.5,            0.,NA,NA,"",       5.60146,       5.58690,   403.576E-03,   33.1129E-09
C:/temp/dataset/2/30_9.odb,Step-1,Increment      1: Step Time =    1.000,"PART-1-1",            35,         -12.5,           20.,            0.,NA,NA,"",       5.25395,       5.25281,   109.146E-03,   36.2618E-09
C:/temp/dataset/2/30_9.odb,Step-1,Increment      1: Step Time =    1.000,"PART-1-1",            36,          -7.5,           20.,            0.,NA,NA,"",       5.23896,       5.21315,  -519.376E-03,   38.2158E-09
C:/temp/dataset/2/30_9.odb,Step-1,Increment      1: Step Time =    1.000,"PART-1-1",            37,          -2.5,           20.,            0.,NA,NA,"",       5.29931,       5.17349,      -1.14790,   40.1935E-09
C:/temp/dataset/2/30_9.odb,Step-1,Increment      1: Step Time =    1.000,"PART-1-1",            38,           2.5,           20.,            0.,NA,NA,"",       5.43248,       5.13383,      -1.77642,   41.5671E-09
C:/temp/dataset/2/30_9.odb,Step-1,Increment      1: Step Time =    1.000,"PART-1-1",            39,            5.,           15.,            0.,NA,NA,"",       4.93216,       4.48548,      -2.05102,   54.9309E-09
C:/temp/dataset/2/30_9.odb,Step-1,Increment      1: Step Time =    1.000,"PART-1-1",            40,            5.,          17.5,            0.,NA,NA,"",       5.22742,       4.79974,      -2.07085,   48.6306E-09
C:/temp/dataset/2/30_9.odb,Step-1,Increment      1: Step Time =    1.000,"PART-1-1",            41,            5.,           7.5,            0.,NA,NA,"",       4.06410,       3.54270,      -1.99153,   646.156E-09
C:/temp/dataset/2/30_9.odb,Step-1,Increment      1: Step Time =    1.000,"PART-1-1",            42,            5.,           10.,            0.,NA,NA,"",       4.34991,       3.85696,      -2.01136,   155.431E-09
C:/temp/dataset/2/30_9.odb,Step-1,Increment      1: Step Time =    1.000,"PART-1-1",            43,      -1.66667,            5.,            0.,NA,NA,"",       3.47155,       3.28129,      -1.13348,   67.1122E-06
C:/temp/dataset/2/30_9.odb,Step-1,Increment      1: Step Time =    1.000,"PART-1-1",            44,       1.66667,            5.,            0.,NA,NA,"",       3.60625,       3.25490,      -1.55264,   4.70856E-06
C:/temp/dataset/2/30_9.odb,Step-1,Increment      1: Step Time =    1.000,"PART-1-1",            45,      -11.6667,            5.,            0.,NA,NA,"",       3.35901,       3.35686,   120.085E-03,   289.234E-06
C:/temp/dataset/2/30_9.odb,Step-1,Increment      1: Step Time =    1.000,"PART-1-1",            46,      -8.33333,            5.,            0.,NA,NA,"",       3.34541,       3.33229,  -296.025E-03,   560.137E-06
C:/temp/dataset/2/30_9.odb,Step-1,Increment      1: Step Time =    1.000,"PART-1-1",            47,          -15.,  -833.333E-03,            0.,NA,NA,"",       2.71840,       2.65616,   578.372E-03,   1.53771E-03
C:/temp/dataset/2/30_9.odb,Step-1,Increment      1: Step Time =    1.000,"PART-1-1",            48,          -15.,       2.08333,            0.,NA,NA,"",       3.07004,       3.01897,   557.625E-03,   403.601E-06
C:/temp/dataset/2/30_9.odb,Step-1,Increment      1: Step Time =    1.000,"PART-1-1",            49,          -15.,      -9.58333,            0.,NA,NA,"",       1.67993,       1.56177,   618.911E-03,   13.7670E-03
C:/temp/dataset/2/30_9.odb,Step-1,Increment      1: Step Time =    1.000,"PART-1-1",            50,          -15.,      -6.66667,            0.,NA,NA,"",       2.04156,       1.94750,   612.543E-03,   9.41600E-03
C:/temp/dataset/2/30_9.odb,Step-1,Increment      1: Step Time =    1.000,"PART-1-1",            51,          -15.,      -18.3333,            0.,NA,NA,"",   654.733E-03,   472.952E-03,   452.760E-03,   46.3175E-03
C:/temp/dataset/2/30_9.odb,Step-1,Increment      1: Step Time =    1.000,"PART-1-1",            52,          -15.,      -15.4167,            0.,NA,NA,"",   953.329E-03,   779.673E-03,   548.586E-03,   36.9667E-03
C:/temp/dataset/2/30_9.odb,Step-1,Increment      1: Step Time =    1.000,"PART-1-1",            53,          -15.,      -27.0833,            0.,NA,NA,"",   110.302E-03,   50.2364E-03,   98.1981E-03,   41.2757E-03
C:/temp/dataset/2/30_9.odb,Step-1,Increment      1: Step Time =    1.000,"PART-1-1",            54,          -15.,      -24.1667,            0.,NA,NA,"",   239.346E-03,   118.253E-03,   208.093E-03,   45.3911E-03
C:/temp/dataset/2/30_9.odb,Step-1,Increment      1: Step Time =    1.000,"PART-1-1",            55,           12.,          -30.,            0.,NA,NA,"",            0.,   10.0760E-39,  -9.23723E-39,   4.35515E-03
C:/temp/dataset/2/30_9.odb,Step-1,Increment      1: Step Time =    1.000,"PART-1-1",            56,            9.,          -30.,            0.,NA,NA,"",            0.,   8.63007E-39,   1.77498E-39,   6.18036E-03
C:/temp/dataset/2/30_9.odb,Step-1,Increment      1: Step Time =    1.000,"PART-1-1",            57,            6.,          -30.,            0.,NA,NA,"",            0.,   15.6469E-39,  -14.8278E-39,   8.20239E-03
C:/temp/dataset/2/30_9.odb,Step-1,Increment      1: Step Time =    1.000,"PART-1-1",            58,            3.,          -30.,            0.,NA,NA,"",            0.,   14.8192E-39,  -4.99963E-39,   10.8246E-03
C:/temp/dataset/2/30_9.odb,Step-1,Increment      1: Step Time =    1.000,"PART-1-1",            59,            0.,          -30.,            0.,NA,NA,"",            0.,   24.2657E-39,  -32.9634E-39,   12.9368E-03
C:/temp/dataset/2/30_9.odb,Step-1,Increment      1: Step Time =    1.000,"PART-1-1",            60,           -3.,          -30.,            0.,NA,NA,"",            0.,   19.9147E-39,  -38.3498E-39,   12.2740E-03
C:/temp/dataset/2/30_9.odb,Step-1,Increment      1: Step Time =    1.000,"PART-1-1",            61,           -6.,          -30.,            0.,NA,NA,"",            0.,   4.87337E-39,  -25.0370E-39,   7.92087E-03
C:/temp/dataset/2/30_9.odb,Step-1,Increment      1: Step Time =    1.000,"PART-1-1",            62,           -9.,          -30.,            0.,NA,NA,"",            0.,  -9.61163E-39,   56.0772E-42,   6.78791E-03
C:/temp/dataset/2/30_9.odb,Step-1,Increment      1: Step Time =    1.000,"PART-1-1",            63,          -12.,          -30.,            0.,NA,NA,"",            0.,   11.2155E-39,   51.8886E-39,   16.5293E-03
C:/temp/dataset/2/30_9.odb,Step-1,Increment      1: Step Time =    1.000,"PART-1-1",            64,           15.,         -27.5,            0.,NA,NA,"",   25.3752E-03,   21.1573E-03,  -14.0097E-03,   3.55001E-03
C:/temp/dataset/2/30_9.odb,Step-1,Increment      1: Step Time =    1.000,"PART-1-1",            65,           15.,         -22.5,            0.,NA,NA,"",   52.9364E-03,   50.2110E-03,  -16.7665E-03,   222.909E-06
C:/temp/dataset/2/30_9.odb,Step-1,Increment      1: Step Time =    1.000,"PART-1-1",            66,       8.33333,          -20.,            0.,NA,NA,"",   60.0692E-03,   59.9898E-03,   3.08661E-03,   584.043E-06
C:/temp/dataset/2/30_9.odb,Step-1,Increment      1: Step Time =    1.000,"PART-1-1",            67,       11.6667,          -20.,            0.,NA,NA,"",   59.7561E-03,   59.5988E-03,  -4.33269E-03,   206.769E-06
C:/temp/dataset/2/30_9.odb,Step-1,Increment      1: Step Time =    1.000,"PART-1-1",            68,      -1.66667,          -20.,            0.,NA,NA,"",   100.337E-03,   88.8068E-03,  -46.6988E-03,   19.9921E-03
C:/temp/dataset/2/30_9.odb,Step-1,Increment      1: Step Time =    1.000,"PART-1-1",            69,       1.66667,          -20.,            0.,NA,NA,"",   72.6927E-03,   72.3208E-03,  -7.34356E-03,   4.29430E-03
C:/temp/dataset/2/30_9.odb,Step-1,Increment      1: Step Time =    1.000,"PART-1-1",            70,           -5.,          -15.,            0.,NA,NA,"",   889.067E-03,   765.749E-03,  -451.738E-03,   29.4899E-03
C:/temp/dataset/2/30_9.odb,Step-1,Increment      1: Step Time =    1.000,"PART-1-1",            71,           -5.,         -17.5,            0.,NA,NA,"",   595.826E-03,   474.609E-03,  -360.215E-03,   51.7608E-03
C:/temp/dataset/2/30_9.odb,Step-1,Increment      1: Step Time =    1.000,"PART-1-1",            72,           -5.,          -7.5,            0.,NA,NA,"",       1.82948,       1.72375,  -612.922E-03,   3.30574E-03
C:/temp/dataset/2/30_9.odb,Step-1,Increment      1: Step Time =    1.000,"PART-1-1",            73,           -5.,          -10.,            0.,NA,NA,"",       1.51075,       1.39583,  -577.942E-03,   9.82986E-03
C:/temp/dataset/2/30_9.odb,Step-1,Increment      1: Step Time =    1.000,"PART-1-1",            74,          -2.5,           -5.,            0.,NA,NA,"",       2.24196,       2.03074,  -949.989E-03,   258.638E-06
C:/temp/dataset/2/30_9.odb,Step-1,Increment      1: Step Time =    1.000,"PART-1-1",            75,           2.5,           -5.,            0.,NA,NA,"",       2.54080,       1.99125,      -1.57816,   17.9624E-06
C:/temp/dataset/2/30_9.odb,Step-1,Increment      1: Step Time =    1.000,"PART-1-1",            76,           7.5,           -5.,            0.,NA,NA,"",       2.94582,       1.95157,      -2.20664,   2.34336E-06
C:/temp/dataset/2/30_9.odb,Step-1,Increment      1: Step Time =    1.000,"PART-1-1",            77,          12.5,           -5.,            0.,NA,NA,"",       3.41957,       1.91191,      -2.83515,   166.348E-09
C:/temp/dataset/2/30_9.odb,Step-1,Increment      1: Step Time =    1.000,"PART-1-1",            78,           15.,   833.333E-03,            0.,NA,NA,"",       4.13580,       2.62535,      -3.19568,   529.393E-09
C:/temp/dataset/2/30_9.odb,Step-1,Increment      1: Step Time =    1.000,"PART-1-1",            79,           15.,      -2.08333,            0.,NA,NA,"",       3.89446,       2.25871,      -3.17255,   213.626E-09
C:/temp/dataset/2/30_9.odb,Step-1,Increment      1: Step Time =    1.000,"PART-1-1",            80,           15.,       9.58333,            0.,NA,NA,"",       4.95362,       3.72526,      -3.26509,   27.2738E-09
C:/temp/dataset/2/30_9.odb,Step-1,Increment      1: Step Time =    1.000,"PART-1-1",            81,           15.,       6.66667,            0.,NA,NA,"",       4.66804,       3.35862,      -3.24196,   118.439E-09
C:/temp/dataset/2/30_9.odb,Step-1,Increment      1: Step Time =    1.000,"PART-1-1",            82,           15.,       18.3333,            0.,NA,NA,"",       5.86525,       4.82517,      -3.33450,   25.7010E-09
C:/temp/dataset/2/30_9.odb,Step-1,Increment      1: Step Time =    1.000,"PART-1-1",            83,           15.,       15.4167,            0.,NA,NA,"",       5.55371,       4.45853,      -3.31137,   23.9160E-09
C:/temp/dataset/2/30_9.odb,Step-1,Increment      1: Step Time =    1.000,"PART-1-1",            84,           15.,       27.0833,            0.,NA,NA,"",       6.83324,       5.92508,      -3.40391,   27.7162E-09
C:/temp/dataset/2/30_9.odb,Step-1,Increment      1: Step Time =    1.000,"PART-1-1",            85,           15.,       24.1667,            0.,NA,NA,"",       6.50584,       5.55844,      -3.38077,   25.5976E-09
C:/temp/dataset/2/30_9.odb,Step-1,Increment      1: Step Time =    1.000,"PART-1-1",            86,           10.,           30.,            0.,NA,NA,"",       6.92229,       6.33138,      -2.79852,   26.6193E-09
C:/temp/dataset/2/30_9.odb,Step-1,Increment      1: Step Time =    1.000,"PART-1-1",            87,          12.5,           30.,            0.,NA,NA,"",       7.03741,       6.31155,      -3.11278,   29.6679E-09
C:/temp/dataset/2/30_9.odb,Step-1,Increment      1: Step Time =    1.000,"PART-1-1",            88,           2.5,           30.,            0.,NA,NA,"",       6.65485,       6.39087,      -1.85574,   26.9734E-09
C:/temp/dataset/2/30_9.odb,Step-1,Increment      1: Step Time =    1.000,"PART-1-1",            89,            5.,           30.,            0.,NA,NA,"",       6.73046,       6.37104,      -2.17000,   25.8819E-09
C:/temp/dataset/2/30_9.odb,Step-1,Increment      1: Step Time =    1.000,"PART-1-1",            90,           -5.,           30.,            0.,NA,NA,"",       6.51465,       6.45036,  -912.959E-03,   29.7964E-09
C:/temp/dataset/2/30_9.odb,Step-1,Increment      1: Step Time =    1.000,"PART-1-1",            91,          -2.5,           30.,            0.,NA,NA,"",       6.54659,       6.43053,      -1.22722,   28.7804E-09
C:/temp/dataset/2/30_9.odb,Step-1,Increment      1: Step Time =    1.000,"PART-1-1",            92,         -12.5,           30.,            0.,NA,NA,"",       6.50992,       6.50986,   29.8234E-03,   32.8600E-09
C:/temp/dataset/2/30_9.odb,Step-1,Increment      1: Step Time =    1.000,"PART-1-1",            93,          -10.,           30.,            0.,NA,NA,"",       6.49626,       6.49003,  -284.437E-03,   31.9961E-09
C:/temp/dataset/2/30_9.odb,Step-1,Increment      1: Step Time =    1.000,"PART-1-1",            94,          -15.,          27.5,            0.,NA,NA,"",       6.22607,       6.21543,   363.915E-03,   35.5782E-09
C:/temp/dataset/2/30_9.odb,Step-1,Increment      1: Step Time =    1.000,"PART-1-1",            95,      -12.4978,       24.9766,            0.,NA,NA,"",       5.87878,       5.87837,   69.3900E-03,   34.3348E-09
C:/temp/dataset/2/30_9.odb,Step-1,Increment      1: Step Time =    1.000,"PART-1-1",            96,      -7.49872,       27.4475,            0.,NA,NA,"",       6.17649,       6.14933,  -578.613E-03,   32.1121E-09
C:/temp/dataset/2/30_9.odb,Step-1,Increment      1: Step Time =    1.000,"PART-1-1",            97,      -7.50661,       22.4446,            0.,NA,NA,"",       5.54664,       5.52050,  -537.935E-03,   35.8437E-09
C:/temp/dataset/2/30_9.odb,Step-1,Increment      1: Step Time =    1.000,"PART-1-1",            98,      -2.53392,       22.4091,            0.,NA,NA,"",       5.59867,       5.47660,      -1.16274,   36.4544E-09
C:/temp/dataset/2/30_9.odb,Step-1,Increment      1: Step Time =    1.000,"PART-1-1",            99,  -19.7467E-03,       27.3919,            0.,NA,NA,"",       6.26964,       6.08302,      -1.51831,   29.4589E-09
C:/temp/dataset/2/30_9.odb,Step-1,Increment      1: Step Time =    1.000,"PART-1-1",           100,       2.31326,       22.2671,            0.,NA,NA,"",       5.70226,       5.42030,      -1.77093,   39.4954E-09
C:/temp/dataset/2/30_9.odb,Step-1,Increment      1: Step Time =    1.000,"PART-1-1",           101,       7.89882,       27.4278,            0.,NA,NA,"",       6.52819,       6.02471,      -2.51399,   29.0910E-09
C:/temp/dataset/2/30_9.odb,Step-1,Increment      1: Step Time =    1.000,"PART-1-1",           102,       6.74061,       20.0564,            0.,NA,NA,"",       5.60537,       5.10729,      -2.30993,   39.3376E-09
C:/temp/dataset/2/30_9.odb,Step-1,Increment      1: Step Time =    1.000,"PART-1-1",           103,       6.76082,       17.7755,            0.,NA,NA,"",       5.33858,       4.82040,      -2.29438,   41.6559E-09
C:/temp/dataset/2/30_9.odb,Step-1,Increment      1: Step Time =    1.000,"PART-1-1",           104,       7.34933,       13.0959,            0.,NA,NA,"",       4.82766,       4.22749,      -2.33123,   35.7944E-09
C:/temp/dataset/2/30_9.odb,Step-1,Increment      1: Step Time =    1.000,"PART-1-1",           105,       12.5251,      -2.17932,            0.,NA,NA,"",       3.64959,       2.26628,      -2.86068,   556.184E-09
C:/temp/dataset/2/30_9.odb,Step-1,Increment      1: Step Time =    1.000,"PART-1-1",           106,       11.8446,      -24.9441,            0.,NA,NA,"",   38.0633E-03,   37.8130E-03,  -4.35776E-03,   2.77638E-03
C:/temp/dataset/2/30_9.odb,Step-1,Increment      1: Step Time =    1.000,"PART-1-1",           107,       2.44158,      -2.66949,            0.,NA,NA,"",       2.78307,       2.28465,      -1.58929,   15.8962E-06
C:/temp/dataset/2/30_9.odb,Step-1,Increment      1: Step Time =    1.000,"PART-1-1",           108,       7.46163,      -2.37632,            0.,NA,NA,"",       3.18530,       2.28168,      -2.22262,   1.74248E-06
C:/temp/dataset/2/30_9.odb,Step-1,Increment      1: Step Time =    1.000,"PART-1-1",           109,       7.48217,       7.95809,            0.,NA,NA,"",       4.25954,       3.58059,      -2.30718,   430.773E-09
C:/temp/dataset/2/30_9.odb,Step-1,Increment      1: Step Time =    1.000,"PART-1-1",           110,      -5.01446,       22.4347,            0.,NA,NA,"",       5.56496,       5.49948,  -851.132E-03,   36.1513E-09
C:/temp/dataset/2/30_9.odb,Step-1,Increment      1: Step Time =    1.000,"PART-1-1",           111,  -75.1424E-03,       22.3615,            0.,NA,NA,"",       5.64622,       5.45111,      -1.47144,   36.9786E-09
C:/temp/dataset/2/30_9.odb,Step-1,Increment      1: Step Time =    1.000,"PART-1-1",           112,       4.50776,       22.1530,            0.,NA,NA,"",       5.76386,       5.38854,      -2.04588,   38.8420E-09
C:/temp/dataset/2/30_9.odb,Step-1,Increment      1: Step Time =    1.000,"PART-1-1",           113,       7.06405,       15.4904,            0.,NA,NA,"",       5.08764,       4.53076,      -2.31437,   38.1308E-09
C:/temp/dataset/2/30_9.odb,Step-1,Increment      1: Step Time =    1.000,"PART-1-1",           114,       7.46285,       10.5556,            0.,NA,NA,"",       4.54686,       3.90726,      -2.32535,   80.0349E-09
C:/temp/dataset/2/30_9.odb,Step-1,Increment      1: Step Time =    1.000,"PART-1-1",           115,      -2.89738,      -2.05905,            0.,NA,NA,"",       2.57522,       2.40403,  -923.244E-03,   366.498E-06
C:/temp/dataset/2/30_9.odb,Step-1,Increment      1: Step Time =    1.000,"PART-1-1",           116,      -7.61206,      -10.6629,            0.,NA,NA,"",       1.34110,       1.31888,  -243.086E-03,   14.2041E-03
C:/temp/dataset/2/30_9.odb,Step-1,Increment      1: Step Time =    1.000,"PART-1-1",           117,      -6.85891,      -17.7385,            0.,NA,NA,"",   470.766E-03,   439.436E-03,  -168.867E-03,   41.6778E-03
C:/temp/dataset/2/30_9.odb,Step-1,Increment      1: Step Time =    1.000,"PART-1-1",           118,       11.9280,      -27.4687,            0.,NA,NA,"",   20.2494E-03,   19.9646E-03,  -3.38440E-03,   5.23787E-03
C:/temp/dataset/2/30_9.odb,Step-1,Increment      1: Step Time =    1.000,"PART-1-1",           119,      -7.44747,      -13.1413,            0.,NA,NA,"",       1.01501,   990.806E-03,  -220.335E-03,   19.4070E-03
C:/temp/dataset/2/30_9.odb,Step-1,Increment      1: Step Time =    1.000,"PART-1-1",           120,      -7.13169,      -15.4658,            0.,NA,NA,"",   728.062E-03,   699.837E-03,  -200.752E-03,   27.0025E-03
C:/temp/dataset/2/30_9.odb,Step-1,Increment      1: Step Time =    1.000,"PART-1-1",           121,      -8.02089,      -5.87394,            0.,NA,NA,"",       1.97490,       1.95932,  -247.563E-03,   4.59946E-03
C:/temp/dataset/2/30_9.odb,Step-1,Increment      1: Step Time =    1.000,"PART-1-1",           122,      -7.74476,      -8.18529,            0.,NA,NA,"",       1.67207,       1.65191,  -258.902E-03,   9.02387E-03
C:/temp/dataset/2/30_9.odb,Step-1,Increment      1: Step Time =    1.000,"PART-1-1",           123,  -21.3834E-03,      -2.74811,            0.,NA,NA,"",       2.62676,       2.29426,      -1.27915,   92.1093E-06
C:/temp/dataset/2/30_9.odb,Step-1,Increment      1: Step Time =    1.000,"PART-1-1",           124,       4.94012,      -2.49525,            0.,NA,NA,"",       2.97608,       2.28672,      -1.90472,   3.96877E-06
C:/temp/dataset/2/30_9.odb,Step-1,Increment      1: Step Time =    1.000,"PART-1-1",           125,       10.0127,      -2.27482,            0.,NA,NA,"",       3.41240,       2.27420,      -2.54411,   1.05377E-06
C:/temp/dataset/2/30_9.odb,Step-1,Increment      1: Step Time =    1.000,"PART-1-1",           126,       10.2967,       27.4669,            0.,NA,NA,"",       6.63745,       6.01061,      -2.81573,   29.1106E-09
C:/temp/dataset/2/30_9.odb,Step-1,Increment      1: Step Time =    1.000,"PART-1-1",           127,       12.6750,       27.3103,            0.,NA,NA,"",       6.73490,       5.97205,      -3.11345,   28.1108E-09
C:/temp/dataset/2/30_9.odb,Step-1,Increment      1: Step Time =    1.000,"PART-1-1",           128,       2.52543,       27.2659,            0.,NA,NA,"",       6.31993,       6.04699,      -1.83725,   28.9486E-09
C:/temp/dataset/2/30_9.odb,Step-1,Increment      1: Step Time =    1.000,"PART-1-1",           129,       5.32711,       26.8707,            0.,NA,NA,"",       6.36251,       5.97508,      -2.18630,   29.4443E-09
C:/temp/dataset/2/30_9.odb,Step-1,Increment      1: Step Time =    1.000,"PART-1-1",           130,      -5.00948,       27.4462,            0.,NA,NA,"",       6.19391,       6.12941,  -891.509E-03,   31.2119E-09
C:/temp/dataset/2/30_9.odb,Step-1,Increment      1: Step Time =    1.000,"PART-1-1",           131,      -2.51658,       27.4324,            0.,NA,NA,"",       6.22559,       6.10790,      -1.20477,   30.2914E-09
C:/temp/dataset/2/30_9.odb,Step-1,Increment      1: Step Time =    1.000,"PART-1-1",           132,      -9.99211,       27.4668,            0.,NA,NA,"",       6.17723,       6.17153,  -265.336E-03,   32.9398E-09
C:/temp/dataset/2/30_9.odb,Step-1,Increment      1: Step Time =    1.000,"PART-1-1",           133,       12.5029,       21.6680,            0.,NA,NA,"",       6.08243,       5.26416,      -3.04705,   26.6393E-09
C:/temp/dataset/2/30_9.odb,Step-1,Increment      1: Step Time =    1.000,"PART-1-1",           134,      -12.7198,      -9.27859,            0.,NA,NA,"",       1.59709,       1.56177,   334.023E-03,   15.4960E-03
C:/temp/dataset/2/30_9.odb,Step-1,Increment      1: Step Time =    1.000,"PART-1-1",           135,      -12.2206,      -21.4876,            0.,NA,NA,"",   251.832E-03,   186.759E-03,   168.940E-03,   25.4489E-03
C:/temp/dataset/2/30_9.odb,Step-1,Increment      1: Step Time =    1.000,"PART-1-1",           136,       12.4390,       11.8581,            0.,NA,NA,"",       5.00219,       4.03152,      -2.96121,   21.1847E-09
C:/temp/dataset/2/30_9.odb,Step-1,Increment      1: Step Time =    1.000,"PART-1-1",           137,      -12.6285,      -12.0158,            0.,NA,NA,"",       1.22501,       1.18217,   321.115E-03,   22.0174E-03
C:/temp/dataset/2/30_9.odb,Step-1,Increment      1: Step Time =    1.000,"PART-1-1",           138,      -12.4213,      -14.8709,            0.,NA,NA,"",   850.484E-03,   800.385E-03,   287.587E-03,   22.3235E-03
C:/temp/dataset/2/30_9.odb,Step-1,Increment      1: Step Time =    1.000,"PART-1-1",           139,       12.2989,       14.8029,            0.,NA,NA,"",       5.30920,       4.40281,      -2.96696,   25.1517E-09
C:/temp/dataset/2/30_9.odb,Step-1,Increment      1: Step Time =    1.000,"PART-1-1",           140,       11.7182,       18.2155,            0.,NA,NA,"",       5.65005,       4.83639,      -2.92103,   25.6267E-09
C:/temp/dataset/2/30_9.odb,Step-1,Increment      1: Step Time =    1.000,"PART-1-1",           141,      -12.3380,      -4.01281,            0.,NA,NA,"",       2.25931,       2.24294,   271.478E-03,   4.98825E-03
C:/temp/dataset/2/30_9.odb,Step-1,Increment      1: Step Time =    1.000,"PART-1-1",           142,       12.5089,       6.21106,            0.,NA,NA,"",       4.42567,       3.32111,      -2.92520,   252.561E-09
C:/temp/dataset/2/30_9.odb,Step-1,Increment      1: Step Time =    1.000,"PART-1-1",           143,      -10.9765,      -1.21375,            0.,NA,NA,"",       2.57804,       2.57668,   83.8523E-03,   829.014E-06
C:/temp/dataset/2/30_9.odb,Step-1,Increment      1: Step Time =    1.000,"PART-1-1",           144,      -11.4273,       2.02370,            0.,NA,NA,"",       2.98595,       2.98377,   114.028E-03,   518.684E-06
C:/temp/dataset/2/30_9.odb,Step-1,Increment      1: Step Time =    1.000,"PART-1-1",           145,      -12.7154,      -6.64001,            0.,NA,NA,"",       1.94295,       1.91504,   328.166E-03,   11.0017E-03
C:/temp/dataset/2/30_9.odb,Step-1,Increment      1: Step Time =    1.000,"PART-1-1",           146,      -11.7762,      -18.1315,            0.,NA,NA,"",   475.809E-03,   432.009E-03,   199.405E-03,   23.0965E-03
C:/temp/dataset/2/30_9.odb,Step-1,Increment      1: Step Time =    1.000,"PART-1-1",           147,      -12.2481,      -24.4184,            0.,NA,NA,"",   125.854E-03,   66.6859E-03,   106.735E-03,   24.9405E-03
C:/temp/dataset/2/30_9.odb,Step-1,Increment      1: Step Time =    1.000,"PART-1-1",           148,       12.5340,       3.42208,            0.,NA,NA,"",       4.15560,       2.97032,      -2.90623,   390.437E-09
C:/temp/dataset/2/30_9.odb,Step-1,Increment      1: Step Time =    1.000,"PART-1-1",           149,       12.5428,   630.306E-03,            0.,NA,NA,"",       3.89681,       2.61932,      -2.88519,   432.286E-09
C:/temp/dataset/2/30_9.odb,Step-1,Increment      1: Step Time =    1.000,"PART-1-1",           150,       12.5001,       9.03097,            0.,NA,NA,"",       4.71085,       3.67565,      -2.94646,   60.7353E-09
C:/temp/dataset/2/30_9.odb,Step-1,Increment      1: Step Time =    1.000,"PART-1-1",           151,       12.7192,       24.5718,            0.,NA,NA,"",       6.42351,       5.62747,      -3.09727,   27.6723E-09
C:/temp/dataset/2/30_9.odb,Step-1,Increment      1: Step Time =    1.000,"PART-1-1",           152,       2.66783,      -27.4286,            0.,NA,NA,"",   35.6212E-03,   35.0302E-03,  -6.46209E-03,   9.82148E-03
C:/temp/dataset/2/30_9.odb,Step-1,Increment      1: Step Time =    1.000,"PART-1-1",           153,       8.86089,      -27.4494,            0.,NA,NA,"",   22.8408E-03,   22.8121E-03,  -1.14359E-03,   5.78475E-03
C:/temp/dataset/2/30_9.odb,Step-1,Increment      1: Step Time =    1.000,"PART-1-1",           154,       5.76511,      -27.4328,            0.,NA,NA,"",   28.7249E-03,   28.6454E-03,  -2.13627E-03,   7.37756E-03
C:/temp/dataset/2/30_9.odb,Step-1,Increment      1: Step Time =    1.000,"PART-1-1",           155,  -414.647E-03,      -27.4330,            0.,NA,NA,"",   40.7425E-03,   37.6041E-03,  -15.6806E-03,   13.5492E-03
C:/temp/dataset/2/30_9.odb,Step-1,Increment      1: Step Time =    1.000,"PART-1-1",           156,      -3.42691,      -27.4460,            0.,NA,NA,"",   38.4604E-03,   28.8237E-03,  -25.4636E-03,   16.7970E-03
C:/temp/dataset/2/30_9.odb,Step-1,Increment      1: Step Time =    1.000,"PART-1-1",           157,      -6.36574,      -27.4272,            0.,NA,NA,"",   23.3742E-03,   10.3045E-03,  -20.9803E-03,   13.4858E-03
C:/temp/dataset/2/30_9.odb,Step-1,Increment      1: Step Time =    1.000,"PART-1-1",           158,       10.5238,       25.0033,            0.,NA,NA,"",       6.36075,       5.69912,      -2.82473,   30.2839E-09
C:/temp/dataset/2/30_9.odb,Step-1,Increment      1: Step Time =    1.000,"PART-1-1",           159,       6.26912,       22.1485,            0.,NA,NA,"",       5.83271,       5.37401,      -2.26726,   38.7503E-09
C:/temp/dataset/2/30_9.odb,Step-1,Increment      1: Step Time =    1.000,"PART-1-1",           160,      -5.96402,      -2.70245,            0.,NA,NA,"",       2.40776,       2.34815,  -532.420E-03,   387.045E-06
C:/temp/dataset/2/30_9.odb,Step-1,Increment      1: Step Time =    1.000,"PART-1-1",           161,      -12.5033,       22.4816,            0.,NA,NA,"",       5.56552,       5.56479,   89.8704E-03,   34.8487E-09
C:/temp/dataset/2/30_9.odb,Step-1,Increment      1: Step Time =    1.000,"PART-1-1",           162,      -2.53325,       24.9024,            0.,NA,NA,"",       5.90955,       5.79001,      -1.18261,   33.1036E-09
C:/temp/dataset/2/30_9.odb,Step-1,Increment      1: Step Time =    1.000,"PART-1-1",           163,       4.43197,       24.4161,            0.,NA,NA,"",       6.03409,       5.67363,      -2.05430,   33.5142E-09
C:/temp/dataset/2/30_9.odb,Step-1,Increment      1: Step Time =    1.000,"PART-1-1",           164,      -10.2797,      -8.84555,            0.,NA,NA,"",       1.58696,       1.58627,   46.7550E-03,   13.6037E-03
C:/temp/dataset/2/30_9.odb,Step-1,Increment      1: Step Time =    1.000,"PART-1-1",           165,       2.21534,  -332.134E-03,            0.,NA,NA,"",       3.02525,       2.58026,      -1.57937,   21.3670E-06
C:/temp/dataset/2/30_9.odb,Step-1,Increment      1: Step Time =    1.000,"PART-1-1",           166,  -74.2209E-03,       24.8536,            0.,NA,NA,"",       5.95415,       5.76436,      -1.49133,   32.6882E-09
C:/temp/dataset/2/30_9.odb,Step-1,Increment      1: Step Time =    1.000,"PART-1-1",           167,       2.30693,       24.7164,            0.,NA,NA,"",       6.00126,       5.72823,      -1.78956,   32.8621E-09
C:/temp/dataset/2/30_9.odb,Step-1,Increment      1: Step Time =    1.000,"PART-1-1",           168,       9.79368,       13.9045,            0.,NA,NA,"",       5.05663,       4.30975,      -2.64491,   22.9784E-09
C:/temp/dataset/2/30_9.odb,Step-1,Increment      1: Step Time =    1.000,"PART-1-1",           169,       9.30777,       16.4521,            0.,NA,NA,"",       5.31540,       4.63384,      -2.60404,   28.2703E-09
C:/temp/dataset/2/30_9.odb,Step-1,Increment      1: Step Time =    1.000,"PART-1-1",           170,      -2.35985,       1.11806,            0.,NA,NA,"",       2.97759,       2.79905,      -1.01558,   149.496E-06
C:/temp/dataset/2/30_9.odb,Step-1,Increment      1: Step Time =    1.000,"PART-1-1",           171,      -9.94133,      -13.9778,            0.,NA,NA,"",   891.707E-03,   890.479E-03,   46.7860E-03,   21.6740E-03
C:/temp/dataset/2/30_9.odb,Step-1,Increment      1: Step Time =    1.000,"PART-1-1",           172,       4.80988,   33.7751E-03,            0.,NA,NA,"",       3.22978,       2.60566,      -1.90841,   3.44982E-06
C:/temp/dataset/2/30_9.odb,Step-1,Increment      1: Step Time =    1.000,"PART-1-1",           173,       9.94126,       11.1894,            0.,NA,NA,"",       4.76645,       3.96728,      -2.64193,   30.1678E-09
C:/temp/dataset/2/30_9.odb,Step-1,Increment      1: Step Time =    1.000,"PART-1-1",           174,       7.43598,   226.782E-03,            0.,NA,NA,"",       3.43878,       2.60910,      -2.24005,   2.27095E-06
C:/temp/dataset/2/30_9.odb,Step-1,Increment      1: Step Time =    1.000,"PART-1-1",           175,      -7.50368,       24.9336,            0.,NA,NA,"",       5.85999,       5.83336,  -558.047E-03,   33.8621E-09
C:/temp/dataset/2/30_9.odb,Step-1,Increment      1: Step Time =    1.000,"PART-1-1",           176,      -10.1536,      -11.3797,            0.,NA,NA,"",       1.23989,       1.23892,   49.1502E-03,   18.6720E-03
C:/temp/dataset/2/30_9.odb,Step-1,Increment      1: Step Time =    1.000,"PART-1-1",           177,       6.92724,       24.6415,            0.,NA,NA,"",       6.15652,       5.68216,      -2.36976,   32.9222E-09
C:/temp/dataset/2/30_9.odb,Step-1,Increment      1: Step Time =    1.000,"PART-1-1",           178,      -9.99868,       24.9580,            0.,NA,NA,"",       5.86132,       5.85622,  -244.609E-03,   34.1548E-09
C:/temp/dataset/2/30_9.odb,Step-1,Increment      1: Step Time =    1.000,"PART-1-1",           179,       8.37028,       18.0705,            0.,NA,NA,"",       5.45128,       4.84472,      -2.49903,   32.7334E-09
C:/temp/dataset/2/30_9.odb,Step-1,Increment      1: Step Time =    1.000,"PART-1-1",           180,      -10.4068,      -6.54987,            0.,NA,NA,"",       1.89537,       1.89476,   48.2881E-03,   8.29329E-03
C:/temp/dataset/2/30_9.odb,Step-1,Increment      1: Step Time =    1.000,"PART-1-1",           181,      -8.52723,      -17.8680,            0.,NA,NA,"",   424.406E-03,   422.893E-03,  -35.8021E-03,   26.5751E-03
C:/temp/dataset/2/30_9.odb,Step-1,Increment      1: Step Time =    1.000,"PART-1-1",           182,       9.99063,       8.47585,            0.,NA,NA,"",       4.47720,       3.62578,      -2.62661,   126.375E-09
C:/temp/dataset/2/30_9.odb,Step-1,Increment      1: Step Time =    1.000,"PART-1-1",           183,      -6.87511,      -22.3968,            0.,NA,NA,"",   131.930E-03,   103.726E-03,  -81.5263E-03,   22.3708E-03
C:/temp/dataset/2/30_9.odb,Step-1,Increment      1: Step Time =    1.000,"PART-1-1",           184,       7.48189,       5.34092,            0.,NA,NA,"",       3.97498,       3.25160,      -2.28639,   1.08064E-06
C:/temp/dataset/2/30_9.odb,Step-1,Increment      1: Step Time =    1.000,"PART-1-1",           185,       10.0207,   425.902E-03,            0.,NA,NA,"",       3.66308,       2.61363,      -2.56654,   818.499E-09
C:/temp/dataset/2/30_9.odb,Step-1,Increment      1: Step Time =    1.000,"PART-1-1",           186,      -8.86720,      -3.63325,            0.,NA,NA,"",       2.26064,       2.25491,  -160.830E-03,   1.91570E-03
C:/temp/dataset/2/30_9.odb,Step-1,Increment      1: Step Time =    1.000,"PART-1-1",           187,       10.0155,       5.77118,            0.,NA,NA,"",       4.19503,       3.28559,      -2.60828,   440.412E-09
C:/temp/dataset/2/30_9.odb,Step-1,Increment      1: Step Time =    1.000,"PART-1-1",           188,       9.07540,       20.2179,            0.,NA,NA,"",       5.73472,       5.10906,      -2.60470,   32.4399E-09
C:/temp/dataset/2/30_9.odb,Step-1,Increment      1: Step Time =    1.000,"PART-1-1",           189,       5.51479,      -24.9218,            0.,NA,NA,"",   49.5490E-03,   49.5288E-03,  -1.41642E-03,   6.04252E-03
C:/temp/dataset/2/30_9.odb,Step-1,Increment      1: Step Time =    1.000,"PART-1-1",           190,       2.33502,      -24.9114,            0.,NA,NA,"",   62.1547E-03,   61.2113E-03,  -10.7881E-03,   8.89925E-03
C:/temp/dataset/2/30_9.odb,Step-1,Increment      1: Step Time =    1.000,"PART-1-1",           191,      -3.83494,      -24.9465,            0.,NA,NA,"",   88.6795E-03,   65.7387E-03,  -59.5187E-03,   22.6595E-03
C:/temp/dataset/2/30_9.odb,Step-1,Increment      1: Step Time =    1.000,"PART-1-1",           192,       8.68706,      -24.9229,            0.,NA,NA,"",   41.6594E-03,   41.6590E-03,  -202.721E-06,   4.17093E-03
C:/temp/dataset/2/30_9.odb,Step-1,Increment      1: Step Time =    1.000,"PART-1-1",           193,  -793.545E-03,      -24.9263,            0.,NA,NA,"",   78.6095E-03,   71.1906E-03,  -33.3369E-03,   17.0750E-03
C:/temp/dataset/2/30_9.odb,Step-1,Increment      1: Step Time =    1.000,"PART-1-1",           194,      -10.0041,       22.4687,            0.,NA,NA,"",       5.54788,       5.54335,  -224.185E-03,   35.4219E-09
C:/temp/dataset/2/30_9.odb,Step-1,Increment      1: Step Time =    1.000,"PART-1-1",           195,       7.76291,       22.5689,            0.,NA,NA,"",       5.94692,       5.41501,      -2.45837,   35.3029E-09
C:/temp/dataset/2/30_9.odb,Step-1,Increment      1: Step Time =    1.000,"PART-1-1",           196,       10.0314,       3.09975,            0.,NA,NA,"",       3.92478,       2.94966,      -2.58909,   757.273E-09
C:/temp/dataset/2/30_9.odb,Step-1,Increment      1: Step Time =    1.000,"PART-1-1",           197,       7.45157,       2.78517,            0.,NA,NA,"",       3.70220,       2.93058,      -2.26230,   2.28394E-06
C:/temp/dataset/2/30_9.odb,Step-1,Increment      1: Step Time =    1.000,"PART-1-1",           198,       1.23926,       2.17480,            0.,NA,NA,"",       3.25703,       2.90314,      -1.47650,   29.2476E-06
C:/temp/dataset/2/30_9.odb,Step-1,Increment      1: Step Time =    1.000,"PART-1-1",           199,       5.89388,       23.8379,            0.,NA,NA,"",       6.01907,       5.58935,      -2.23349,   34.6333E-09
C:/temp/dataset/2/30_9.odb,Step-1,Increment      1: Step Time =    1.000,"PART-1-1",           200,       4.70825,       2.52712,            0.,NA,NA,"",       3.49207,       2.91990,      -1.91540,   3.64386E-06
C:/temp/dataset/2/30_9.odb,Step-1,Increment      1: Step Time =    1.000,"PART-1-1",           201,      -6.67563,      -24.8783,            0.,NA,NA,"",   66.8033E-03,   43.9187E-03,  -50.3372E-03,   17.3872E-03
C:/temp/dataset/2/30_9.odb,Step-1,Increment      1: Step Time =    1.000,"PART-1-1",           202,      -1.93740,       2.90022,            0.,NA,NA,"",       3.20779,       3.01953,      -1.08274,   116.230E-06
C:/temp/dataset/2/30_9.odb,Step-1,Increment      1: Step Time =    1.000,"PART-1-1",           203,      -4.27328,      -22.5070,            0.,NA,NA,"",   147.766E-03,   111.409E-03,  -97.0718E-03,   35.8704E-03
C:/temp/dataset/2/30_9.odb,Step-1,Increment      1: Step Time =    1.000,"PART-1-1",           204,      -7.29195,  -216.826E-03,            0.,NA,NA,"",       2.69901,       2.67143,  -384.892E-03,   310.958E-06
C:/temp/dataset/2/30_9.odb,Step-1,Increment      1: Step Time =    1.000,"PART-1-1",           205,      -4.39370,   432.763E-03,            0.,NA,NA,"",       2.83174,       2.72940,  -754.436E-03,   332.686E-06
C:/temp/dataset/2/30_9.odb,Step-1,Increment      1: Step Time =    1.000,"PART-1-1",           206,      -1.20581,      -22.4416,            0.,NA,NA,"",   100.957E-03,   93.9437E-03,  -36.9723E-03,   22.2128E-03
C:/temp/dataset/2/30_9.odb,Step-1,Increment      1: Step Time =    1.000,"PART-1-1",           207,      -4.88725,       2.78210,            0.,NA,NA,"",       3.11035,       3.02805,  -710.783E-03,   263.283E-06
C:/temp/dataset/2/30_9.odb,Step-1,Increment      1: Step Time =    1.000,"PART-1-1",           208,      -8.02678,       2.39768,            0.,NA,NA,"",       3.02072,       3.00440,  -313.576E-03,   213.364E-06
C:/temp/dataset/2/30_9.odb,Step-1,Increment      1: Step Time =    1.000,"PART-1-1",           209,       8.51144,      -22.4401,            0.,NA,NA,"",   54.0510E-03,   54.0265E-03,   1.62804E-03,   2.45676E-03
C:/temp/dataset/2/30_9.odb,Step-1,Increment      1: Step Time =    1.000,"PART-1-1",           210,       5.25488,      -22.4306,            0.,NA,NA,"",   61.3396E-03,   61.3202E-03,   1.54250E-03,   4.23666E-03
C:/temp/dataset/2/30_9.odb,Step-1,Increment      1: Step Time =    1.000,"PART-1-1",           211,       2.00226,      -22.4217,            0.,NA,NA,"",   75.9074E-03,   75.4111E-03,  -8.66617E-03,   8.62400E-03
C:/temp/dataset/2/30_9.odb,Step-1,Increment      1: Step Time =    1.000,"PART-1-1",           212,      -9.28570,      -27.3600,            0.,NA,NA,"",   5.19616E-03,  -1.08978E-03,   5.08059E-03,   3.50051E-03
C:/temp/dataset/2/30_9.odb,Step-1,Increment      1: Step Time =    1.000,"PART-1-1",           213,       11.7596,      -22.4488,            0.,NA,NA,"",   51.0324E-03,   50.8177E-03,  -4.67587E-03,   910.539E-06
C:/temp/dataset/2/30_9.odb,Step-1,Increment      1: Step Time =    1.000,"PART-1-1",           214,      -12.4952,       27.4851,            0.,NA,NA,"",       6.19388,       6.19369,   49.1692E-03,   33.8426E-09
C:/temp/dataset/2/30_9.odb,Step-1,Increment      1: Step Time =    1.000,"PART-1-1",           215,      -12.1608,      -27.2494,            0.,NA,NA,"",   49.5146E-03,   12.3950E-03,   47.9381E-03,   22.6713E-03
C:/temp/dataset/2/30_9.odb,Step-1,Increment      1: Step Time =    1.000,"PART-1-1",           216,      -6.92277,      -20.0189,            0.,NA,NA,"",   241.161E-03,   213.541E-03,  -112.065E-03,   25.9058E-03
C:/temp/dataset/2/30_9.odb,Step-1,Increment      1: Step Time =    1.000,"PART-1-1",           217,       10.3403,       22.5364,            0.,NA,NA,"",       6.06607,       5.39047,      -2.78209,   30.6615E-09
C:/temp/dataset/2/30_9.odb,Step-1,Increment      1: Step Time =    1.000,"PART-1-1",           218,      -9.38591,      -16.3373,            0.,NA,NA,"",   597.291E-03,   597.080E-03,   15.8966E-03,   21.9193E-03
C:/temp/dataset/2/30_9.odb,Step-1,Increment      1: Step Time =    1.000,"PART-1-1",           219,      -9.56004,      -22.0160,            0.,NA,NA,"",   129.775E-03,   127.187E-03,   25.7863E-03,   10.9712E-03
C:/temp/dataset/2/30_9.odb,Step-1,Increment      1: Step Time =    1.000,"PART-1-1",           220,      -9.49058,      -24.6874,            0.,NA,NA,"",   42.0016E-03,   39.7615E-03,   13.5334E-03,   5.60696E-03
C:/temp/dataset/2/30_9.odb,Step-1,Increment      1: Step Time =    1.000,"PART-1-1",           221,  -968.003E-03,   33.9082E-03,            0.,NA,NA,"",       2.90321,       2.65165,      -1.18210,   113.466E-06
C:/temp/dataset/2/30_9.odb,Step-1,Increment      1: Step Time =    1.000,"PART-1-1",           222,   333.674E-03,      -1.00763,            0.,NA,NA,"",       2.84439,       2.51029,      -1.33754,   83.1380E-06
C:/temp/dataset/2/30_9.odb,Step-1,Increment      1: Step Time =    1.000,"PART-1-1",           223,      -10.5623,      -4.72446,            0.,NA,NA,"",       2.13371,       2.13296,   56.5967E-03,   4.67645E-03
C:/temp/dataset/2/30_9.odb,Step-1,Increment      1: Step Time =    1.000,"PART-1-1",           224,      -5.01319,       24.9269,            0.,NA,NA,"",       5.87766,       5.81276,  -871.060E-03,   33.4687E-09
C:/temp/dataset/2/30_9.odb,Step-1,Increment      1: Step Time =    1.000,"PART-1-1",           225,      -9.24174,      -19.5473,            0.,NA,NA,"",   276.255E-03,   275.750E-03,   16.6970E-03,   15.2448E-03
C:/temp/dataset/2/30_9.odb,Step-1,Increment      1: Step Time =    1.000,"PART-1-1",           226,       8.53639,       25.1316,            0.,NA,NA,"",       6.28331,       5.73102,      -2.57592,   31.8315E-09
C:/temp/dataset/2/30_9.odb,Step-1,Increment      1: Step Time =    1.000,"PART-1-1",           227,       8.85572,       23.3093,            0.,NA,NA,"",       6.08373,       5.49940,      -2.60161,   32.9014E-09
C:/temp/dataset/2/30_9.odb,Step-1,Increment      1: Step Time =    1.000,"PART-1-1",           228,      -13.7516,       22.4908,            0.,NA,NA,"",       5.58130,       5.57585,   246.723E-03,   33.9753E-09
C:/temp/dataset/2/30_9.odb,Step-1,Increment      1: Step Time =    1.000,"PART-1-1",           229,          -15.,         21.25,            0.,NA,NA,"",       5.44550,       5.42977,   413.491E-03,   33.8098E-09
C:/temp/dataset/2/30_9.odb,Step-1,Increment      1: Step Time =    1.000,"PART-1-1",           230,        -13.75,           20.,            0.,NA,NA,"",       5.26946,       5.26273,   266.276E-03,   35.7480E-09
C:/temp/dataset/2/30_9.odb,Step-1,Increment      1: Step Time =    1.000,"PART-1-1",           231,      -12.5016,       21.2408,            0.,NA,NA,"",       5.40972,       5.40880,   99.5080E-03,   35.5122E-09
C:/temp/dataset/2/30_9.odb,Step-1,Increment      1: Step Time =    1.000,"PART-1-1",           232,      -9.99605,       28.7334,            0.,NA,NA,"",       6.33674,       6.33078,  -274.886E-03,   32.4028E-09
C:/temp/dataset/2/30_9.odb,Step-1,Increment      1: Step Time =    1.000,"PART-1-1",           233,        -11.25,           30.,            0.,NA,NA,"",       6.50119,       6.49994,  -127.307E-03,   32.6159E-09
C:/temp/dataset/2/30_9.odb,Step-1,Increment      1: Step Time =    1.000,"PART-1-1",           234,      -12.4976,       28.7426,            0.,NA,NA,"",       6.35190,       6.35177,   39.4962E-03,   33.2681E-09
C:/temp/dataset/2/30_9.odb,Step-1,Increment      1: Step Time =    1.000,"PART-1-1",           235,      -11.2437,       27.4760,            0.,NA,NA,"",       6.18355,       6.18261,  -108.083E-03,   33.3476E-09
C:/temp/dataset/2/30_9.odb,Step-1,Increment      1: Step Time =    1.000,"PART-1-1",           236,      -8.74541,       27.4572,            0.,NA,NA,"",       6.17487,       6.16043,  -421.974E-03,   32.5256E-09
C:/temp/dataset/2/30_9.odb,Step-1,Increment      1: Step Time =    1.000,"PART-1-1",           237,      -7.49936,       28.7238,            0.,NA,NA,"",       6.33716,       6.30976,  -588.655E-03,   31.4035E-09
C:/temp/dataset/2/30_9.odb,Step-1,Increment      1: Step Time =    1.000,"PART-1-1",           238,         -8.75,           30.,            0.,NA,NA,"",       6.49514,       6.48011,  -441.568E-03,   31.4259E-09
C:/temp/dataset/2/30_9.odb,Step-1,Increment      1: Step Time =    1.000,"PART-1-1",           239,      -10.0020,       21.2344,            0.,NA,NA,"",       5.39244,       5.38816,  -214.650E-03,   36.1973E-09
C:/temp/dataset/2/30_9.odb,Step-1,Increment      1: Step Time =    1.000,"PART-1-1",           240,      -11.2537,       22.4752,            0.,NA,NA,"",       5.55448,       5.55407,  -67.1572E-03,   35.1305E-09
C:/temp/dataset/2/30_9.odb,Step-1,Increment      1: Step Time =    1.000,"PART-1-1",           241,        -11.25,           20.,            0.,NA,NA,"",       5.24312,       5.24290,  -47.9847E-03,   36.4842E-09
C:/temp/dataset/2/30_9.odb,Step-1,Increment      1: Step Time =    1.000,"PART-1-1",           242,      -6.25410,       27.4469,            0.,NA,NA,"",       6.18322,       6.13937,  -735.061E-03,   31.6586E-09
C:/temp/dataset/2/30_9.odb,Step-1,Increment      1: Step Time =    1.000,"PART-1-1",           243,      -7.50120,       26.1906,            0.,NA,NA,"",       6.01824,       5.99134,  -568.330E-03,   32.9456E-09
C:/temp/dataset/2/30_9.odb,Step-1,Increment      1: Step Time =    1.000,"PART-1-1",           244,      -6.25844,       24.9303,            0.,NA,NA,"",       5.86674,       5.82306,  -714.554E-03,   33.6688E-09
C:/temp/dataset/2/30_9.odb,Step-1,Increment      1: Step Time =    1.000,"PART-1-1",           245,      -5.01133,       26.1865,            0.,NA,NA,"",       6.03577,       5.97109,  -881.285E-03,   32.2629E-09
C:/temp/dataset/2/30_9.odb,Step-1,Increment      1: Step Time =    1.000,"PART-1-1",           246,       1.11906,       22.3143,            0.,NA,NA,"",       5.67231,       5.43570,      -1.62119,   37.7188E-09
C:/temp/dataset/2/30_9.odb,Step-1,Increment      1: Step Time =    1.000,"PART-1-1",           247,  -37.5712E-03,       21.1808,            0.,NA,NA,"",       5.50153,       5.30239,      -1.46680,   38.7556E-09
C:/temp/dataset/2/30_9.odb,Step-1,Increment      1: Step Time =    1.000,"PART-1-1",           248,          1.25,           20.,            0.,NA,NA,"",       5.39261,       5.14375,      -1.61929,   41.3895E-09
C:/temp/dataset/2/30_9.odb,Step-1,Increment      1: Step Time =    1.000,"PART-1-1",           249,       2.40663,       21.1336,            0.,NA,NA,"",       5.56716,       5.27706,      -1.77367,   39.6170E-09
C:/temp/dataset/2/30_9.odb,Step-1,Increment      1: Step Time =    1.000,"PART-1-1",           250,  -46.9838E-03,       26.1228,            0.,NA,NA,"",       6.11184,       5.92369,      -1.50482,   30.9005E-09
C:/temp/dataset/2/30_9.odb,Step-1,Increment      1: Step Time =    1.000,"PART-1-1",           251,       1.11635,       24.7850,            0.,NA,NA,"",       5.97587,       5.74630,      -1.64044,   33.0268E-09
C:/temp/dataset/2/30_9.odb,Step-1,Increment      1: Step Time =    1.000,"PART-1-1",           252,       2.41618,       25.9912,            0.,NA,NA,"",       6.16055,       5.88761,      -1.81341,   30.7180E-09
C:/temp/dataset/2/30_9.odb,Step-1,Increment      1: Step Time =    1.000,"PART-1-1",           253,       1.25284,       27.3289,            0.,NA,NA,"",       6.29279,       6.06500,      -1.67778,   29.1157E-09
C:/temp/dataset/2/30_9.odb,Step-1,Increment      1: Step Time =    1.000,"PART-1-1",           254,       11.4216,       22.1022,            0.,NA,NA,"",       6.07248,       5.32732,      -2.91457,   28.4839E-09
C:/temp/dataset/2/30_9.odb,Step-1,Increment      1: Step Time =    1.000,"PART-1-1",           255,       9.70783,       21.3771,            0.,NA,NA,"",       5.90038,       5.24977,      -2.69340,   31.4649E-09
C:/temp/dataset/2/30_9.odb,Step-1,Increment      1: Step Time =    1.000,"PART-1-1",           256,       10.3968,       19.2167,            0.,NA,NA,"",       5.68871,       4.97272,      -2.76286,   28.5211E-09
C:/temp/dataset/2/30_9.odb,Step-1,Increment      1: Step Time =    1.000,"PART-1-1",           257,       12.1105,       19.9418,            0.,NA,NA,"",       5.86599,       5.05028,      -2.98404,   25.9169E-09
C:/temp/dataset/2/30_9.odb,Step-1,Increment      1: Step Time =    1.000,"PART-1-1",           258,       11.6215,       24.7876,            0.,NA,NA,"",       6.39065,       5.66330,      -2.96100,   28.7650E-09
C:/temp/dataset/2/30_9.odb,Step-1,Increment      1: Step Time =    1.000,"PART-1-1",           259,       12.6971,       25.9410,            0.,NA,NA,"",       6.57879,       5.79976,      -3.10536,   27.7152E-09
C:/temp/dataset/2/30_9.odb,Step-1,Increment      1: Step Time =    1.000,"PART-1-1",           260,       11.4859,       27.3886,            0.,NA,NA,"",       6.68467,       5.99133,      -2.96459,   28.5545E-09
C:/temp/dataset/2/30_9.odb,Step-1,Increment      1: Step Time =    1.000,"PART-1-1",           261,       10.4103,       26.2351,            0.,NA,NA,"",       6.49870,       5.85486,      -2.82023,   29.5818E-09
C:/temp/dataset/2/30_9.odb,Step-1,Increment      1: Step Time =    1.000,"PART-1-1",           262,       5.88041,       17.6377,            0.,NA,NA,"",       5.28210,       4.81007,      -2.18261,   44.3931E-09
C:/temp/dataset/2/30_9.odb,Step-1,Increment      1: Step Time =    1.000,"PART-1-1",           263,       6.75071,       18.9160,            0.,NA,NA,"",       5.47171,       4.96384,      -2.30215,   38.8101E-09
C:/temp/dataset/2/30_9.odb,Step-1,Increment      1: Step Time =    1.000,"PART-1-1",           264,       5.87030,       20.0282,            0.,NA,NA,"",       5.56417,       5.11064,      -2.20030,   49.2521E-09
C:/temp/dataset/2/30_9.odb,Step-1,Increment      1: Step Time =    1.000,"PART-1-1",           265,            5.,         18.75,            0.,NA,NA,"",       5.37588,       4.95687,      -2.08076,   56.6868E-09
C:/temp/dataset/2/30_9.odb,Step-1,Increment      1: Step Time =    1.000,"PART-1-1",           266,       12.3690,       13.3305,            0.,NA,NA,"",       5.15463,       4.21716,      -2.96409,   20.2241E-09
C:/temp/dataset/2/30_9.odb,Step-1,Increment      1: Step Time =    1.000,"PART-1-1",           267,       13.7195,       12.1790,            0.,NA,NA,"",       5.12458,       4.06171,      -3.12472,   20.8808E-09
C:/temp/dataset/2/30_9.odb,Step-1,Increment      1: Step Time =    1.000,"PART-1-1",           268,           15.,       13.9583,            0.,NA,NA,"",       5.40057,       4.27521,      -3.29980,   22.2554E-09
C:/temp/dataset/2/30_9.odb,Step-1,Increment      1: Step Time =    1.000,"PART-1-1",           269,       13.6495,       15.1098,            0.,NA,NA,"",       5.43003,       4.43067,      -3.13916,   23.2174E-09
C:/temp/dataset/2/30_9.odb,Step-1,Increment      1: Step Time =    1.000,"PART-1-1",           270,       12.5214,       4.81657,            0.,NA,NA,"",       4.28917,       3.14572,      -2.91572,   309.681E-09
C:/temp/dataset/2/30_9.odb,Step-1,Increment      1: Step Time =    1.000,"PART-1-1",           271,       13.7670,       3.58604,            0.,NA,NA,"",       4.27391,       2.98115,      -3.06253,   344.582E-09
C:/temp/dataset/2/30_9.odb,Step-1,Increment      1: Step Time =    1.000,"PART-1-1",           272,           15.,       5.20833,            0.,NA,NA,"",       4.52968,       3.17530,      -3.23039,   244.537E-09
C:/temp/dataset/2/30_9.odb,Step-1,Increment      1: Step Time =    1.000,"PART-1-1",           273,       13.7545,       6.43886,            0.,NA,NA,"",       4.54568,       3.33987,      -3.08358,   148.065E-09
C:/temp/dataset/2/30_9.odb,Step-1,Increment      1: Step Time =    1.000,"PART-1-1",           274,       13.7625,      -2.13133,            0.,NA,NA,"",       3.77079,       2.26250,      -3.01661,   345.151E-09
C:/temp/dataset/2/30_9.odb,Step-1,Increment      1: Step Time =    1.000,"PART-1-1",           275,       12.5125,      -3.58966,            0.,NA,NA,"",       3.53199,       2.08909,      -2.84792,   313.493E-09
C:/temp/dataset/2/30_9.odb,Step-1,Increment      1: Step Time =    1.000,"PART-1-1",           276,         13.75,           -5.,            0.,NA,NA,"",       3.54561,       1.90199,      -2.99228,   69.6758E-09
C:/temp/dataset/2/30_9.odb,Step-1,Increment      1: Step Time =    1.000,"PART-1-1",           277,           15.,      -3.54167,            0.,NA,NA,"",       3.78141,       2.07539,      -3.16098,   70.4172E-09
C:/temp/dataset/2/30_9.odb,Step-1,Increment      1: Step Time =    1.000,"PART-1-1",           278,      -9.21387,      -6.21191,            0.,NA,NA,"",       1.92868,       1.92616,  -98.6014E-03,   6.24766E-03
C:/temp/dataset/2/30_9.odb,Step-1,Increment      1: Step Time =    1.000,"PART-1-1",           279,      -8.44405,      -4.75360,            0.,NA,NA,"",       2.11801,       2.10809,  -204.726E-03,   3.09020E-03
C:/temp/dataset/2/30_9.odb,Step-1,Increment      1: Step Time =    1.000,"PART-1-1",           280,      -9.71477,      -4.17886,            0.,NA,NA,"",       2.19428,       2.19367,  -51.5978E-03,   3.24226E-03
C:/temp/dataset/2/30_9.odb,Step-1,Increment      1: Step Time =    1.000,"PART-1-1",           281,      -10.4846,      -5.63717,            0.,NA,NA,"",       2.01545,       2.01477,   52.4755E-03,   6.41455E-03
C:/temp/dataset/2/30_9.odb,Step-1,Increment      1: Step Time =    1.000,"PART-1-1",           282,      -5.84282,   107.969E-03,            0.,NA,NA,"",       2.75984,       2.70042,  -569.598E-03,   324.929E-06
C:/temp/dataset/2/30_9.odb,Step-1,Increment      1: Step Time =    1.000,"PART-1-1",           283,      -4.64047,       1.60743,            0.,NA,NA,"",       2.97051,       2.87876,  -732.558E-03,   258.067E-06
C:/temp/dataset/2/30_9.odb,Step-1,Increment      1: Step Time =    1.000,"PART-1-1",           284,      -6.45702,       2.58989,            0.,NA,NA,"",       3.05940,       3.01626,  -511.974E-03,   232.203E-06
C:/temp/dataset/2/30_9.odb,Step-1,Increment      1: Step Time =    1.000,"PART-1-1",           285,      -7.65937,       1.09043,            0.,NA,NA,"",       2.85944,       2.83804,  -349.184E-03,   208.187E-06
C:/temp/dataset/2/30_9.odb,Step-1,Increment      1: Step Time =    1.000,"PART-1-1",           286,      -6.51044,      -5.43697,            0.,NA,NA,"",       2.05199,       2.00419,  -440.318E-03,   2.41801E-03
C:/temp/dataset/2/30_9.odb,Step-1,Increment      1: Step Time =    1.000,"PART-1-1",           287,      -5.48201,      -3.85122,            0.,NA,NA,"",       2.27520,       2.19892,  -584.193E-03,   488.538E-06
C:/temp/dataset/2/30_9.odb,Step-1,Increment      1: Step Time =    1.000,"PART-1-1",           288,      -7.41561,      -3.16785,            0.,NA,NA,"",       2.32714,       2.30126,  -346.087E-03,   1.03022E-03
C:/temp/dataset/2/30_9.odb,Step-1,Increment      1: Step Time =    1.000,"PART-1-1",           289,      -12.6742,      -10.6472,            0.,NA,NA,"",       1.41102,       1.37225,   328.513E-03,   18.9358E-03
C:/temp/dataset/2/30_9.odb,Step-1,Increment      1: Step Time =    1.000,"PART-1-1",           290,      -11.3911,      -11.6978,            0.,NA,NA,"",       1.22280,       1.20877,   184.681E-03,   19.3437E-03
C:/temp/dataset/2/30_9.odb,Step-1,Increment      1: Step Time =    1.000,"PART-1-1",           291,      -10.2167,      -10.1126,            0.,NA,NA,"",       1.41360,       1.41280,   47.4537E-03,   16.0925E-03
C:/temp/dataset/2/30_9.odb,Step-1,Increment      1: Step Time =    1.000,"PART-1-1",           292,      -11.4997,      -9.06207,            0.,NA,NA,"",       1.58382,       1.57244,   189.563E-03,   14.2551E-03
C:/temp/dataset/2/30_9.odb,Step-1,Increment      1: Step Time =    1.000,"PART-1-1",           293,      -13.7107,      -15.1438,            0.,NA,NA,"",   889.106E-03,   786.215E-03,   415.182E-03,   27.0661E-03
C:/temp/dataset/2/30_9.odb,Step-1,Increment      1: Step Time =    1.000,"PART-1-1",           294,      -12.5249,      -13.4434,            0.,NA,NA,"",       1.03251,   986.331E-03,   305.338E-03,   21.9277E-03
C:/temp/dataset/2/30_9.odb,Step-1,Increment      1: Step Time =    1.000,"PART-1-1",           295,      -13.8143,      -12.2579,            0.,NA,NA,"",       1.25461,       1.16876,   456.133E-03,   21.4233E-03
C:/temp/dataset/2/30_9.odb,Step-1,Increment      1: Step Time =    1.000,"PART-1-1",           296,          -15.,      -13.9583,            0.,NA,NA,"",       1.12218,   958.912E-03,   582.906E-03,   29.8093E-03
C:/temp/dataset/2/30_9.odb,Step-1,Increment      1: Step Time =    1.000,"PART-1-1",           297,      -12.0988,      -16.5012,            0.,NA,NA,"",   651.905E-03,   604.449E-03,   244.175E-03,   22.3713E-03
C:/temp/dataset/2/30_9.odb,Step-1,Increment      1: Step Time =    1.000,"PART-1-1",           298,      -10.5811,      -17.2344,            0.,NA,NA,"",   520.390E-03,   507.524E-03,   114.997E-03,   19.1617E-03
C:/temp/dataset/2/30_9.odb,Step-1,Increment      1: Step Time =    1.000,"PART-1-1",           299,      -9.66362,      -15.1575,            0.,NA,NA,"",   740.858E-03,   740.235E-03,   30.3952E-03,   21.9482E-03
C:/temp/dataset/2/30_9.odb,Step-1,Increment      1: Step Time =    1.000,"PART-1-1",           300,      -11.1813,      -14.4243,            0.,NA,NA,"",   859.806E-03,   843.144E-03,   168.445E-03,   20.7450E-03
C:/temp/dataset/2/30_9.odb,Step-1,Increment      1: Step Time =    1.000,"PART-1-1",           301,      -10.5090,      -18.8394,            0.,NA,NA,"",   364.909E-03,   350.319E-03,   102.150E-03,   17.8630E-03
C:/temp/dataset/2/30_9.odb,Step-1,Increment      1: Step Time =    1.000,"PART-1-1",           302,      -8.88448,      -18.7076,            0.,NA,NA,"",   344.105E-03,   344.023E-03,  -7.52384E-03,   20.0772E-03
C:/temp/dataset/2/30_9.odb,Step-1,Increment      1: Step Time =    1.000,"PART-1-1",           303,      -8.95657,      -17.1026,            0.,NA,NA,"",   508.906E-03,   508.769E-03,  -11.8169E-03,   24.0183E-03
C:/temp/dataset/2/30_9.odb,Step-1,Increment      1: Step Time =    1.000,"PART-1-1",           304,      -8.08225,      -19.7831,            0.,NA,NA,"",   250.477E-03,   245.065E-03,  -51.7873E-03,   19.4808E-03
C:/temp/dataset/2/30_9.odb,Step-1,Increment      1: Step Time =    1.000,"PART-1-1",           305,      -6.89084,      -18.8787,            0.,NA,NA,"",   335.205E-03,   308.793E-03,  -130.419E-03,   30.5658E-03
C:/temp/dataset/2/30_9.odb,Step-1,Increment      1: Step Time =    1.000,"PART-1-1",           306,      -7.69307,      -17.8032,            0.,NA,NA,"",   439.425E-03,   428.385E-03,  -97.8797E-03,   29.7592E-03
C:/temp/dataset/2/30_9.odb,Step-1,Increment      1: Step Time =    1.000,"PART-1-1",           307,       7.10093,      -24.9223,            0.,NA,NA,"",   45.0934E-03,   45.0934E-03,  -6.11225E-06,   5.17079E-03
C:/temp/dataset/2/30_9.odb,Step-1,Increment      1: Step Time =    1.000,"PART-1-1",           308,       8.59925,      -23.6815,            0.,NA,NA,"",   48.5893E-03,   48.5840E-03,   717.756E-06,   3.29158E-03
C:/temp/dataset/2/30_9.odb,Step-1,Increment      1: Step Time =    1.000,"PART-1-1",           309,       6.88316,      -22.4353,            0.,NA,NA,"",   57.1203E-03,   57.0687E-03,   2.42748E-03,   3.28624E-03
C:/temp/dataset/2/30_9.odb,Step-1,Increment      1: Step Time =    1.000,"PART-1-1",           310,       5.38484,      -23.6762,            0.,NA,NA,"",   56.7855E-03,   56.7854E-03,  -135.847E-06,   5.03557E-03
C:/temp/dataset/2/30_9.odb,Step-1,Increment      1: Step Time =    1.000,"PART-1-1",           311,       13.3798,      -22.4744,            0.,NA,NA,"",   51.3740E-03,   50.3500E-03,  -10.2057E-03,   345.715E-06
C:/temp/dataset/2/30_9.odb,Step-1,Increment      1: Step Time =    1.000,"PART-1-1",           312,           15.,        -21.25,            0.,NA,NA,"",   57.6351E-03,   55.1836E-03,  -16.6305E-03,   125.346E-06
C:/temp/dataset/2/30_9.odb,Step-1,Increment      1: Step Time =    1.000,"PART-1-1",           313,       13.3333,          -20.,            0.,NA,NA,"",   60.7389E-03,   59.8826E-03,  -10.1630E-03,   136.997E-06
C:/temp/dataset/2/30_9.odb,Step-1,Increment      1: Step Time =    1.000,"PART-1-1",           314,       11.7131,      -21.2244,            0.,NA,NA,"",   55.7354E-03,   55.5533E-03,  -4.50138E-03,   370.642E-06
C:/temp/dataset/2/30_9.odb,Step-1,Increment      1: Step Time =    1.000,"PART-1-1",           315,      -2.14863,       2.00914,            0.,NA,NA,"",       3.09267,       2.90928,      -1.04915,   126.490E-06
C:/temp/dataset/2/30_9.odb,Step-1,Increment      1: Step Time =    1.000,"PART-1-1",           316,      -1.66393,   575.985E-03,            0.,NA,NA,"",       2.93854,       2.72536,      -1.09884,   132.502E-06
C:/temp/dataset/2/30_9.odb,Step-1,Increment      1: Step Time =    1.000,"PART-1-1",           317,   135.628E-03,       1.10435,            0.,NA,NA,"",       3.07909,       2.77737,      -1.32928,   67.2344E-06
C:/temp/dataset/2/30_9.odb,Step-1,Increment      1: Step Time =    1.000,"PART-1-1",           318,  -349.073E-03,       2.53751,            0.,NA,NA,"",       3.22600,       2.96135,      -1.27964,   68.3194E-06
C:/temp/dataset/2/30_9.odb,Step-1,Increment      1: Step Time =    1.000,"PART-1-1",           319,   156.145E-03,      -1.87787,            0.,NA,NA,"",       2.73547,       2.40229,      -1.30836,   73.4747E-06
C:/temp/dataset/2/30_9.odb,Step-1,Increment      1: Step Time =    1.000,"PART-1-1",           320,       1.21010,      -2.70880,            0.,NA,NA,"",       2.70159,       2.28946,      -1.43422,   29.8222E-06
C:/temp/dataset/2/30_9.odb,Step-1,Increment      1: Step Time =    1.000,"PART-1-1",           321,       2.32846,      -1.50081,            0.,NA,NA,"",       2.90291,       2.43244,      -1.58434,   14.4799E-06
C:/temp/dataset/2/30_9.odb,Step-1,Increment      1: Step Time =    1.000,"PART-1-1",           322,       1.27451,  -669.883E-03,            0.,NA,NA,"",       2.93351,       2.54527,      -1.45845,   48.5950E-06
C:/temp/dataset/2/30_9.odb,Step-1,Increment      1: Step Time =    1.000,"PART-1-1",           323,       4.87500,      -1.23074,            0.,NA,NA,"",       3.10143,       2.44619,      -1.90657,   2.72234E-06
C:/temp/dataset/2/30_9.odb,Step-1,Increment      1: Step Time =    1.000,"PART-1-1",           324,       6.20088,      -2.43579,            0.,NA,NA,"",       3.07836,       2.28420,      -2.06367,   2.00445E-06
C:/temp/dataset/2/30_9.odb,Step-1,Increment      1: Step Time =    1.000,"PART-1-1",           325,       7.44880,      -1.07477,            0.,NA,NA,"",       3.31040,       2.44539,      -2.23133,   1.42376E-06
C:/temp/dataset/2/30_9.odb,Step-1,Increment      1: Step Time =    1.000,"PART-1-1",           326,       6.12293,   130.279E-03,            0.,NA,NA,"",       3.33179,       2.60738,      -2.07423,   1.70487E-06
C:/temp/dataset/2/30_9.odb,Step-1,Increment      1: Step Time =    1.000,"PART-1-1",           327,          8.75,           -5.,            0.,NA,NA,"",       3.05899,       1.94166,      -2.36377,   1.64862E-06
C:/temp/dataset/2/30_9.odb,Step-1,Increment      1: Step Time =    1.000,"PART-1-1",           328,       10.0063,      -3.63741,            0.,NA,NA,"",       3.29181,       2.10297,      -2.53250,   786.157E-09
C:/temp/dataset/2/30_9.odb,Step-1,Increment      1: Step Time =    1.000,"PART-1-1",           329,       8.73716,      -2.32557,            0.,NA,NA,"",       3.29688,       2.27794,      -2.38336,   1.34819E-06
C:/temp/dataset/2/30_9.odb,Step-1,Increment      1: Step Time =    1.000,"PART-1-1",           330,       7.48081,      -3.68816,            0.,NA,NA,"",       3.06344,       2.11663,      -2.21463,   1.39591E-06
C:/temp/dataset/2/30_9.odb,Step-1,Increment      1: Step Time =    1.000,"PART-1-1",           331,       6.24109,       7.72904,            0.,NA,NA,"",       4.15993,       3.56165,      -2.14935,   265.259E-09
C:/temp/dataset/2/30_9.odb,Step-1,Increment      1: Step Time =    1.000,"PART-1-1",           332,            5.,          6.25,            0.,NA,NA,"",       3.92286,       3.38557,      -1.98161,   866.678E-09
C:/temp/dataset/2/30_9.odb,Step-1,Increment      1: Step Time =    1.000,"PART-1-1",           333,       6.24095,       5.17046,            0.,NA,NA,"",       3.87693,       3.24002,      -2.12904,   1.93735E-06
C:/temp/dataset/2/30_9.odb,Step-1,Increment      1: Step Time =    1.000,"PART-1-1",           334,       7.48203,       6.64950,            0.,NA,NA,"",       4.11642,       3.41610,      -2.29678,   455.099E-09
C:/temp/dataset/2/30_9.odb,Step-1,Increment      1: Step Time =    1.000,"PART-1-1",           335,       7.34508,       23.6052,            0.,NA,NA,"",       6.05099,       5.54859,      -2.41406,   34.1625E-09
C:/temp/dataset/2/30_9.odb,Step-1,Increment      1: Step Time =    1.000,"PART-1-1",           336,       6.41056,       24.2397,            0.,NA,NA,"",       6.08763,       5.63576,      -2.30162,   33.7853E-09
C:/temp/dataset/2/30_9.odb,Step-1,Increment      1: Step Time =    1.000,"PART-1-1",           337,       6.08150,       22.9932,            0.,NA,NA,"",       5.92562,       5.48168,      -2.25037,   36.4221E-09
C:/temp/dataset/2/30_9.odb,Step-1,Increment      1: Step Time =    1.000,"PART-1-1",           338,       7.01602,       22.3587,            0.,NA,NA,"",       5.88928,       5.39451,      -2.36281,   36.9499E-09
C:/temp/dataset/2/30_9.odb,Step-1,Increment      1: Step Time =    1.000,"PART-1-1",           339,      -12.5005,       23.7291,            0.,NA,NA,"",       5.72214,       5.72158,   79.6302E-03,   34.5488E-09
C:/temp/dataset/2/30_9.odb,Step-1,Increment      1: Step Time =    1.000,"PART-1-1",           340,      -13.7489,       24.9883,            0.,NA,NA,"",       5.89412,       5.88977,   226.568E-03,   34.2246E-09
C:/temp/dataset/2/30_9.odb,Step-1,Increment      1: Step Time =    1.000,"PART-1-1",           341,          -15.,         23.75,            0.,NA,NA,"",       5.75751,       5.74403,   393.661E-03,   33.7360E-09
C:/temp/dataset/2/30_9.odb,Step-1,Increment      1: Step Time =    1.000,"PART-1-1",           342,      -2.52491,       26.1674,            0.,NA,NA,"",       6.06753,       5.94896,      -1.19369,   31.5364E-09
C:/temp/dataset/2/30_9.odb,Step-1,Increment      1: Step Time =    1.000,"PART-1-1",           343,      -1.30373,       24.8780,            0.,NA,NA,"",       5.92987,       5.77719,      -1.33697,   32.9050E-09
C:/temp/dataset/2/30_9.odb,Step-1,Increment      1: Step Time =    1.000,"PART-1-1",           344,      -1.26817,       27.4122,            0.,NA,NA,"",       6.24567,       6.09546,      -1.36154,   29.8459E-09
C:/temp/dataset/2/30_9.odb,Step-1,Increment      1: Step Time =    1.000,"PART-1-1",           345,       2.31009,       23.4917,            0.,NA,NA,"",       5.85164,       5.57426,      -1.78024,   35.7606E-09
C:/temp/dataset/2/30_9.odb,Step-1,Increment      1: Step Time =    1.000,"PART-1-1",           346,       3.41051,       22.2101,            0.,NA,NA,"",       5.73147,       5.40442,      -1.90840,   37.8908E-09
C:/temp/dataset/2/30_9.odb,Step-1,Increment      1: Step Time =    1.000,"PART-1-1",           347,       4.46987,       23.2845,            0.,NA,NA,"",       5.89879,       5.53109,      -2.05009,   35.8274E-09
C:/temp/dataset/2/30_9.odb,Step-1,Increment      1: Step Time =    1.000,"PART-1-1",           348,       3.36945,       24.5662,            0.,NA,NA,"",       6.01618,       5.70093,      -1.92193,   32.9819E-09
C:/temp/dataset/2/30_9.odb,Step-1,Increment      1: Step Time =    1.000,"PART-1-1",           349,       3.92627,       27.0683,            0.,NA,NA,"",       6.33875,       6.01103,      -2.01177,   29.0633E-09
C:/temp/dataset/2/30_9.odb,Step-1,Increment      1: Step Time =    1.000,"PART-1-1",           350,       5.16355,       28.4353,            0.,NA,NA,"",       6.54607,       6.17306,      -2.17815,   27.2130E-09
C:/temp/dataset/2/30_9.odb,Step-1,Increment      1: Step Time =    1.000,"PART-1-1",           351,          3.75,           30.,            0.,NA,NA,"",       6.69091,       6.38096,      -2.01287,   26.4088E-09
C:/temp/dataset/2/30_9.odb,Step-1,Increment      1: Step Time =    1.000,"PART-1-1",           352,       2.51272,       28.6330,            0.,NA,NA,"",       6.48727,       6.21893,      -1.84650,   27.5174E-09
C:/temp/dataset/2/30_9.odb,Step-1,Increment      1: Step Time =    1.000,"PART-1-1",           353,       11.0463,       14.3537,            0.,NA,NA,"",       5.18174,       4.35628,      -2.80594,   24.4970E-09
C:/temp/dataset/2/30_9.odb,Step-1,Increment      1: Step Time =    1.000,"PART-1-1",           354,       9.86747,       12.5470,            0.,NA,NA,"",       4.91070,       4.13851,      -2.64342,   16.9753E-09
C:/temp/dataset/2/30_9.odb,Step-1,Increment      1: Step Time =    1.000,"PART-1-1",           355,       11.1901,       11.5237,            0.,NA,NA,"",       4.88303,       3.99940,      -2.80157,   15.0080E-09
C:/temp/dataset/2/30_9.odb,Step-1,Increment      1: Step Time =    1.000,"PART-1-1",           356,       9.55073,       15.1783,            0.,NA,NA,"",       5.18506,       4.47179,      -2.62448,   25.3283E-09
C:/temp/dataset/2/30_9.odb,Step-1,Increment      1: Step Time =    1.000,"PART-1-1",           357,       8.18591,       15.9712,            0.,NA,NA,"",       5.20049,       4.58230,      -2.45920,   31.5889E-09
C:/temp/dataset/2/30_9.odb,Step-1,Increment      1: Step Time =    1.000,"PART-1-1",           358,       7.20669,       14.2932,            0.,NA,NA,"",       4.95703,       4.37912,      -2.32280,   37.5878E-09
C:/temp/dataset/2/30_9.odb,Step-1,Increment      1: Step Time =    1.000,"PART-1-1",           359,       8.57151,       13.5002,            0.,NA,NA,"",       4.94081,       4.26862,      -2.48807,   29.4920E-09
C:/temp/dataset/2/30_9.odb,Step-1,Increment      1: Step Time =    1.000,"PART-1-1",           360,       7.44377,       1.50598,            0.,NA,NA,"",       3.56928,       2.76983,      -2.25118,   1.67294E-06
C:/temp/dataset/2/30_9.odb,Step-1,Increment      1: Step Time =    1.000,"PART-1-1",           361,       8.72836,   326.342E-03,            0.,NA,NA,"",       3.54895,       2.61136,      -2.40329,   1.28515E-06
C:/temp/dataset/2/30_9.odb,Step-1,Increment      1: Step Time =    1.000,"PART-1-1",           362,       10.0261,       1.76283,            0.,NA,NA,"",       3.79245,       2.78164,      -2.57782,   664.833E-09
C:/temp/dataset/2/30_9.odb,Step-1,Increment      1: Step Time =    1.000,"PART-1-1",           363,       8.74149,       2.94246,            0.,NA,NA,"",       3.81160,       2.94012,      -2.42570,   1.10043E-06
C:/temp/dataset/2/30_9.odb,Step-1,Increment      1: Step Time =    1.000,"PART-1-1",           364,       12.5045,       7.62102,            0.,NA,NA,"",       4.56703,       3.49838,      -2.93583,   142.806E-09
C:/temp/dataset/2/30_9.odb,Step-1,Increment      1: Step Time =    1.000,"PART-1-1",           365,           15.,         8.125,            0.,NA,NA,"",       4.80945,       3.54194,      -3.25353,   57.9447E-09
C:/temp/dataset/2/30_9.odb,Step-1,Increment      1: Step Time =    1.000,"PART-1-1",           366,       13.7500,       9.30715,            0.,NA,NA,"",       4.83107,       3.70046,      -3.10578,   26.5836E-09
C:/temp/dataset/2/30_9.odb,Step-1,Increment      1: Step Time =    1.000,"PART-1-1",           367,      -1.45938,      -2.40358,            0.,NA,NA,"",       2.59436,       2.34903,      -1.10125,   198.061E-06
C:/temp/dataset/2/30_9.odb,Step-1,Increment      1: Step Time =    1.000,"PART-1-1",           368,      -2.69869,      -3.52952,            0.,NA,NA,"",       2.40691,       2.21713,  -936.766E-03,   191.665E-06
C:/temp/dataset/2/30_9.odb,Step-1,Increment      1: Step Time =    1.000,"PART-1-1",           369,         -1.25,           -5.,            0.,NA,NA,"",       2.30427,       2.02099,      -1.10692,   127.472E-06
C:/temp/dataset/2/30_9.odb,Step-1,Increment      1: Step Time =    1.000,"PART-1-1",           370,  -10.6917E-03,      -3.87406,            0.,NA,NA,"",       2.50017,       2.15267,      -1.27156,   34.0251E-06
C:/temp/dataset/2/30_9.odb,Step-1,Increment      1: Step Time =    1.000,"PART-1-1",           371,      -13.3333,            5.,            0.,NA,NA,"",       3.38548,       3.36959,   327.601E-03,   131.521E-06
C:/temp/dataset/2/30_9.odb,Step-1,Increment      1: Step Time =    1.000,"PART-1-1",           372,          -15.,       3.54167,            0.,NA,NA,"",       3.24712,       3.20080,   546.485E-03,   150.545E-06
C:/temp/dataset/2/30_9.odb,Step-1,Increment      1: Step Time =    1.000,"PART-1-1",           373,      -13.2137,       2.05352,            0.,NA,NA,"",       3.01988,       3.00116,   335.658E-03,   368.652E-06
C:/temp/dataset/2/30_9.odb,Step-1,Increment      1: Step Time =    1.000,"PART-1-1",           374,      -11.5470,       3.51185,            0.,NA,NA,"",       3.17261,       3.17045,   117.010E-03,   372.245E-06
C:/temp/dataset/2/30_9.odb,Step-1,Increment      1: Step Time =    1.000,"PART-1-1",           375,          -15.,      625.E-03,            0.,NA,NA,"",       2.89343,       2.83709,   568.209E-03,   639.285E-06
C:/temp/dataset/2/30_9.odb,Step-1,Increment      1: Step Time =    1.000,"PART-1-1",           376,      -12.9883,      -1.02354,            0.,NA,NA,"",       2.63738,       2.61649,   331.326E-03,   635.158E-06
C:/temp/dataset/2/30_9.odb,Step-1,Increment      1: Step Time =    1.000,"PART-1-1",           377,      -11.2019,   404.974E-03,            0.,NA,NA,"",       2.78185,       2.78009,   98.9539E-03,   417.974E-06
C:/temp/dataset/2/30_9.odb,Step-1,Increment      1: Step Time =    1.000,"PART-1-1",           378,      -13.6690,      -3.88141,            0.,NA,NA,"",       2.31646,       2.27514,   435.589E-03,   5.09403E-03
C:/temp/dataset/2/30_9.odb,Step-1,Increment      1: Step Time =    1.000,"PART-1-1",           379,      -11.6573,      -2.61328,            0.,NA,NA,"",       2.41604,       2.40944,   178.543E-03,   2.23446E-03
C:/temp/dataset/2/30_9.odb,Step-1,Increment      1: Step Time =    1.000,"PART-1-1",           380,          -15.,      -2.29167,            0.,NA,NA,"",       2.54488,       2.47631,   586.777E-03,   1.43281E-03
C:/temp/dataset/2/30_9.odb,Step-1,Increment      1: Step Time =    1.000,"PART-1-1",           381,           -5.,         -8.75,            0.,NA,NA,"",       1.67019,       1.55976,  -597.228E-03,   6.54065E-03
C:/temp/dataset/2/30_9.odb,Step-1,Increment      1: Step Time =    1.000,"PART-1-1",           382,      -6.37238,      -7.84264,            0.,NA,NA,"",       1.74258,       1.68813,  -432.213E-03,   5.32930E-03
C:/temp/dataset/2/30_9.odb,Step-1,Increment      1: Step Time =    1.000,"PART-1-1",           383,      -7.67841,      -9.42411,            0.,NA,NA,"",       1.50678,       1.48552,  -252.177E-03,   11.5472E-03
C:/temp/dataset/2/30_9.odb,Step-1,Increment      1: Step Time =    1.000,"PART-1-1",           384,      -6.30603,      -10.3315,            0.,NA,NA,"",       1.41679,       1.35762,  -405.158E-03,   10.4580E-03
C:/temp/dataset/2/30_9.odb,Step-1,Increment      1: Step Time =    1.000,"PART-1-1",           385,      -13.6103,      -21.3688,            0.,NA,NA,"",   329.820E-03,   216.271E-03,   249.014E-03,   37.3775E-03
C:/temp/dataset/2/30_9.odb,Step-1,Increment      1: Step Time =    1.000,"PART-1-1",           386,          -15.,      -22.7083,            0.,NA,NA,"",   320.920E-03,   175.445E-03,   268.717E-03,   47.5339E-03
C:/temp/dataset/2/30_9.odb,Step-1,Increment      1: Step Time =    1.000,"PART-1-1",           387,      -13.6241,      -24.2925,            0.,NA,NA,"",   182.141E-03,   89.7556E-03,   158.491E-03,   34.9840E-03
C:/temp/dataset/2/30_9.odb,Step-1,Increment      1: Step Time =    1.000,"PART-1-1",           388,      -12.2343,      -22.9530,            0.,NA,NA,"",   180.606E-03,   116.437E-03,   138.062E-03,   25.0078E-03
C:/temp/dataset/2/30_9.odb,Step-1,Increment      1: Step Time =    1.000,"PART-1-1",           389,           -5.,        -16.25,            0.,NA,NA,"",   746.203E-03,   623.322E-03,  -410.230E-03,   37.6089E-03
C:/temp/dataset/2/30_9.odb,Step-1,Increment      1: Step Time =    1.000,"PART-1-1",           390,      -6.06585,      -15.2329,            0.,NA,NA,"",   800.441E-03,   733.025E-03,  -321.527E-03,   26.7370E-03
C:/temp/dataset/2/30_9.odb,Step-1,Increment      1: Step Time =    1.000,"PART-1-1",           391,      -6.99530,      -16.6022,            0.,NA,NA,"",   593.902E-03,   564.052E-03,  -185.917E-03,   30.5904E-03
C:/temp/dataset/2/30_9.odb,Step-1,Increment      1: Step Time =    1.000,"PART-1-1",           392,      -5.92946,      -17.6192,            0.,NA,NA,"",   516.556E-03,   453.236E-03,  -247.805E-03,   39.1538E-03
C:/temp/dataset/2/30_9.odb,Step-1,Increment      1: Step Time =    1.000,"PART-1-1",           393,         -13.5,          -30.,            0.,NA,NA,"",            0.,  -5.64269E-39,   52.8157E-39,   26.3114E-03
C:/temp/dataset/2/30_9.odb,Step-1,Increment      1: Step Time =    1.000,"PART-1-1",           394,      -12.0804,      -28.6247,            0.,NA,NA,"",   21.0066E-03,  -2.45904E-03,   20.8621E-03,   19.2808E-03
C:/temp/dataset/2/30_9.odb,Step-1,Increment      1: Step Time =    1.000,"PART-1-1",           395,      -13.5804,      -27.1664,            0.,NA,NA,"",   77.3912E-03,   26.8991E-03,   72.5661E-03,   31.8823E-03
C:/temp/dataset/2/30_9.odb,Step-1,Increment      1: Step Time =    1.000,"PART-1-1",           396,          -15.,      -28.5417,            0.,NA,NA,"",   56.4845E-03,   31.9057E-03,   46.6104E-03,   38.2414E-03
C:/temp/dataset/2/30_9.odb,Step-1,Increment      1: Step Time =    1.000,"PART-1-1",           397,          13.5,          -30.,            0.,NA,NA,"",            0.,   2.64458E-39,  -7.65097E-39,   6.38520E-03
C:/temp/dataset/2/30_9.odb,Step-1,Increment      1: Step Time =    1.000,"PART-1-1",           398,           15.,        -28.75,            0.,NA,NA,"",   13.6982E-03,   11.1475E-03,  -7.96075E-03,   6.09891E-03
C:/temp/dataset/2/30_9.odb,Step-1,Increment      1: Step Time =    1.000,"PART-1-1",           399,       13.4640,      -27.4843,            0.,NA,NA,"",   20.1978E-03,   19.4139E-03,  -5.57219E-03,   3.56976E-03
C:/temp/dataset/2/30_9.odb,Step-1,Increment      1: Step Time =    1.000,"PART-1-1",           400,       11.9640,      -28.7343,            0.,NA,NA,"",   9.45352E-03,   9.30808E-03,  -1.65192E-03,   4.92162E-03
C:/temp/dataset/2/30_9.odb,Step-1,Increment      1: Step Time =    1.000,"PART-1-1",           401,       10.2658,      -24.9335,            0.,NA,NA,"",   39.2113E-03,   39.1764E-03,  -1.65438E-03,   3.46505E-03
C:/temp/dataset/2/30_9.odb,Step-1,Increment      1: Step Time =    1.000,"PART-1-1",           402,       8.77397,      -26.1861,            0.,NA,NA,"",   32.9612E-03,   32.9498E-03,  -867.003E-06,   4.97825E-03
C:/temp/dataset/2/30_9.odb,Step-1,Increment      1: Step Time =    1.000,"PART-1-1",           403,       10.3945,      -27.4590,            0.,NA,NA,"",   20.9777E-03,   20.9203E-03,  -1.55090E-03,   5.15323E-03
C:/temp/dataset/2/30_9.odb,Step-1,Increment      1: Step Time =    1.000,"PART-1-1",           404,       11.8863,      -26.2064,            0.,NA,NA,"",   29.5829E-03,   29.3179E-03,  -3.95025E-03,   3.89299E-03
C:/temp/dataset/2/30_9.odb,Step-1,Increment      1: Step Time =    1.000,"PART-1-1",           405,       8.93044,      -28.7247,            0.,NA,NA,"",   11.7512E-03,   11.7084E-03,  -1.00176E-03,   5.89028E-03
C:/temp/dataset/2/30_9.odb,Step-1,Increment      1: Step Time =    1.000,"PART-1-1",           406,       7.31300,      -27.4411,            0.,NA,NA,"",   25.5381E-03,   25.5029E-03,  -1.34157E-03,   6.47854E-03
C:/temp/dataset/2/30_9.odb,Step-1,Increment      1: Step Time =    1.000,"PART-1-1",           407,       5.88256,      -28.7164,            0.,NA,NA,"",   15.1916E-03,   15.1103E-03,  -1.56972E-03,   7.67810E-03
C:/temp/dataset/2/30_9.odb,Step-1,Increment      1: Step Time =    1.000,"PART-1-1",           408,           7.5,          -30.,            0.,NA,NA,"",            0.,   7.91592E-39,  -3.95745E-39,   7.17925E-03
C:/temp/dataset/2/30_9.odb,Step-1,Increment      1: Step Time =    1.000,"PART-1-1",           409,       5.63995,      -26.1773,            0.,NA,NA,"",   40.2242E-03,   40.1711E-03,  -2.06737E-03,   6.58200E-03
C:/temp/dataset/2/30_9.odb,Step-1,Increment      1: Step Time =    1.000,"PART-1-1",           410,       3.92490,      -24.9166,            0.,NA,NA,"",   55.1916E-03,   55.0121E-03,  -4.44756E-03,   7.63776E-03
C:/temp/dataset/2/30_9.odb,Step-1,Increment      1: Step Time =    1.000,"PART-1-1",           411,       2.50142,      -26.1700,            0.,NA,NA,"",   50.0910E-03,   49.2429E-03,  -9.17830E-03,   9.37987E-03
C:/temp/dataset/2/30_9.odb,Step-1,Increment      1: Step Time =    1.000,"PART-1-1",           412,       4.21647,      -27.4307,            0.,NA,NA,"",   32.2977E-03,   32.0512E-03,  -3.98261E-03,   8.44754E-03
C:/temp/dataset/2/30_9.odb,Step-1,Increment      1: Step Time =    1.000,"PART-1-1",           413,       1.12659,      -27.4308,            0.,NA,NA,"",   39.0804E-03,   37.5422E-03,  -10.8563E-03,   11.3451E-03
C:/temp/dataset/2/30_9.odb,Step-1,Increment      1: Step Time =    1.000,"PART-1-1",           414,  -207.324E-03,      -28.7165,            0.,NA,NA,"",   21.3898E-03,   20.0408E-03,  -7.47574E-03,   13.0771E-03
C:/temp/dataset/2/30_9.odb,Step-1,Increment      1: Step Time =    1.000,"PART-1-1",           415,           1.5,          -30.,            0.,NA,NA,"",            0.,   12.2497E-39,  -12.6337E-39,   11.7860E-03
C:/temp/dataset/2/30_9.odb,Step-1,Increment      1: Step Time =    1.000,"PART-1-1",           416,       2.83391,      -28.7143,            0.,NA,NA,"",   19.1331E-03,   18.7846E-03,  -3.63477E-03,   10.1994E-03
C:/temp/dataset/2/30_9.odb,Step-1,Increment      1: Step Time =    1.000,"PART-1-1",           417,      -1.92078,      -27.4395,            0.,NA,NA,"",   41.2879E-03,   35.2808E-03,  -21.4466E-03,   14.8562E-03
C:/temp/dataset/2/30_9.odb,Step-1,Increment      1: Step Time =    1.000,"PART-1-1",           418,      -3.21345,      -28.7230,            0.,NA,NA,"",   18.1344E-03,   14.3416E-03,  -11.0985E-03,   14.3442E-03
C:/temp/dataset/2/30_9.odb,Step-1,Increment      1: Step Time =    1.000,"PART-1-1",           419,          -1.5,          -30.,            0.,NA,NA,"",            0.,   11.2590E-39,  -19.4192E-39,   12.4330E-03
C:/temp/dataset/2/30_9.odb,Step-1,Increment      1: Step Time =    1.000,"PART-1-1",           420,      -5.57419,      -22.4519,            0.,NA,NA,"",   152.835E-03,   106.961E-03,  -109.170E-03,   27.1688E-03
C:/temp/dataset/2/30_9.odb,Step-1,Increment      1: Step Time =    1.000,"PART-1-1",           421,      -6.77537,      -23.6376,            0.,NA,NA,"",   95.4430E-03,   69.3502E-03,  -65.5738E-03,   18.7207E-03
C:/temp/dataset/2/30_9.odb,Step-1,Increment      1: Step Time =    1.000,"PART-1-1",           422,      -5.25528,      -24.9124,            0.,NA,NA,"",   82.5737E-03,   55.7983E-03,  -60.8684E-03,   19.9769E-03
C:/temp/dataset/2/30_9.odb,Step-1,Increment      1: Step Time =    1.000,"PART-1-1",           423,      -4.05411,      -23.7268,            0.,NA,NA,"",   116.037E-03,   87.1771E-03,  -76.5818E-03,   27.6449E-03
C:/temp/dataset/2/30_9.odb,Step-1,Increment      1: Step Time =    1.000,"PART-1-1",           424,       13.4223,      -24.9720,            0.,NA,NA,"",   38.8384E-03,   37.6855E-03,  -9.39265E-03,   1.47193E-03
C:/temp/dataset/2/30_9.odb,Step-1,Increment      1: Step Time =    1.000,"PART-1-1",           425,           15.,        -26.25,            0.,NA,NA,"",   34.3049E-03,   30.2248E-03,  -16.2262E-03,   1.89293E-03
C:/temp/dataset/2/30_9.odb,Step-1,Increment      1: Step Time =    1.000,"PART-1-1",           426,       11.8021,      -23.6964,            0.,NA,NA,"",   45.1820E-03,   44.9378E-03,  -4.69151E-03,   1.76888E-03
C:/temp/dataset/2/30_9.odb,Step-1,Increment      1: Step Time =    1.000,"PART-1-1",           427,       10.1355,      -22.4445,            0.,NA,NA,"",   51.9265E-03,   51.9214E-03,  -726.370E-06,   1.68053E-03
C:/temp/dataset/2/30_9.odb,Step-1,Increment      1: Step Time =    1.000,"PART-1-1",           428,      -2.31424,      -24.9364,            0.,NA,NA,"",   84.5863E-03,   70.1133E-03,  -47.3177E-03,   19.3002E-03
C:/temp/dataset/2/30_9.odb,Step-1,Increment      1: Step Time =    1.000,"PART-1-1",           429,      -3.63092,      -26.1962,            0.,NA,NA,"",   61.6414E-03,   45.5011E-03,  -41.5850E-03,   19.6468E-03
C:/temp/dataset/2/30_9.odb,Step-1,Increment      1: Step Time =    1.000,"PART-1-1",           430,  -604.096E-03,      -26.1796,            0.,NA,NA,"",   60.1558E-03,   54.8100E-03,  -24.7910E-03,   14.9608E-03
C:/temp/dataset/2/30_9.odb,Step-1,Increment      1: Step Time =    1.000,"PART-1-1",           431,      -7.52977,      -11.9021,            0.,NA,NA,"",       1.17669,       1.15334,  -233.262E-03,   16.8070E-03
C:/temp/dataset/2/30_9.odb,Step-1,Increment      1: Step Time =    1.000,"PART-1-1",           432,      -6.22373,      -12.8207,            0.,NA,NA,"",       1.09443,       1.03149,  -365.791E-03,   17.5286E-03
C:/temp/dataset/2/30_9.odb,Step-1,Increment      1: Step Time =    1.000,"PART-1-1",           433,           -5.,        -11.25,            0.,NA,NA,"",       1.35213,       1.23325,  -554.381E-03,   14.5470E-03
C:/temp/dataset/2/30_9.odb,Step-1,Increment      1: Step Time =    1.000,"PART-1-1",           434,      -10.0475,      -12.6788,            0.,NA,NA,"",       1.06356,       1.06250,   47.3741E-03,   20.2106E-03
C:/temp/dataset/2/30_9.odb,Step-1,Increment      1: Step Time =    1.000,"PART-1-1",           435,           -5.,         -6.25,            0.,NA,NA,"",       1.98786,       1.88694,  -625.356E-03,   1.66465E-03
C:/temp/dataset/2/30_9.odb,Step-1,Increment      1: Step Time =    1.000,"PART-1-1",           436,      -7.88282,      -7.02961,            0.,NA,NA,"",       1.82431,       1.80656,  -253.913E-03,   6.74893E-03
C:/temp/dataset/2/30_9.odb,Step-1,Increment      1: Step Time =    1.000,"PART-1-1",           437,      -13.8577,      -6.65334,            0.,NA,NA,"",       1.98691,       1.93102,   467.940E-03,   9.96806E-03
C:/temp/dataset/2/30_9.odb,Step-1,Increment      1: Step Time =    1.000,"PART-1-1",           438,      -12.5267,      -5.32641,            0.,NA,NA,"",       2.10240,       2.08078,   300.694E-03,   8.05633E-03
C:/temp/dataset/2/30_9.odb,Step-1,Increment      1: Step Time =    1.000,"PART-1-1",           439,          -15.,      -5.20833,            0.,NA,NA,"",       2.21669,       2.13321,   602.591E-03,   7.75348E-03
C:/temp/dataset/2/30_9.odb,Step-1,Increment      1: Step Time =    1.000,"PART-1-1",           440,          1.25,           -5.,            0.,NA,NA,"",       2.45439,       2.00116,      -1.42107,   27.3858E-06
C:/temp/dataset/2/30_9.odb,Step-1,Increment      1: Step Time =    1.000,"PART-1-1",           441,       2.47079,      -3.83474,            0.,NA,NA,"",       2.66064,       2.13794,      -1.58373,   5.98045E-06
C:/temp/dataset/2/30_9.odb,Step-1,Increment      1: Step Time =    1.000,"PART-1-1",           442,       3.51261,  -149.180E-03,            0.,NA,NA,"",       3.12483,       2.59296,      -1.74389,   10.5848E-06
C:/temp/dataset/2/30_9.odb,Step-1,Increment      1: Step Time =    1.000,"PART-1-1",           443,       3.69085,      -2.58237,            0.,NA,NA,"",       2.87687,       2.28569,      -1.74700,   7.25588E-06
C:/temp/dataset/2/30_9.odb,Step-1,Increment      1: Step Time =    1.000,"PART-1-1",           444,       8.74868,       5.55605,            0.,NA,NA,"",       4.08328,       3.26860,      -2.44733,   645.403E-09
C:/temp/dataset/2/30_9.odb,Step-1,Increment      1: Step Time =    1.000,"PART-1-1",           445,       10.0030,       7.12352,            0.,NA,NA,"",       4.33506,       3.45569,      -2.61744,   276.345E-09
C:/temp/dataset/2/30_9.odb,Step-1,Increment      1: Step Time =    1.000,"PART-1-1",           446,       8.73640,       8.21697,            0.,NA,NA,"",       4.36675,       3.60319,      -2.46690,   190.738E-09
C:/temp/dataset/2/30_9.odb,Step-1,Increment      1: Step Time =    1.000,"PART-1-1",           447,           15.,     -625.E-03,            0.,NA,NA,"",       4.01274,       2.44203,      -3.18412,   391.860E-09
C:/temp/dataset/2/30_9.odb,Step-1,Increment      1: Step Time =    1.000,"PART-1-1",           448,       13.7714,   731.820E-03,            0.,NA,NA,"",       4.01508,       2.62233,      -3.04044,   462.018E-09
C:/temp/dataset/2/30_9.odb,Step-1,Increment      1: Step Time =    1.000,"PART-1-1",           449,       12.5339,  -774.506E-03,            0.,NA,NA,"",       3.77108,       2.44280,      -2.87294,   441.401E-09
C:/temp/dataset/2/30_9.odb,Step-1,Increment      1: Step Time =    1.000,"PART-1-1",           450,       7.40609,       11.8257,            0.,NA,NA,"",       4.68663,       4.06738,      -2.32829,   35.0259E-09
C:/temp/dataset/2/30_9.odb,Step-1,Increment      1: Step Time =    1.000,"PART-1-1",           451,       8.70206,       10.8725,            0.,NA,NA,"",       4.65517,       3.93727,      -2.48364,   21.9550E-09
C:/temp/dataset/2/30_9.odb,Step-1,Increment      1: Step Time =    1.000,"PART-1-1",           452,       11.2454,       8.75341,            0.,NA,NA,"",       4.59266,       3.65072,      -2.78654,   81.0544E-09
C:/temp/dataset/2/30_9.odb,Step-1,Increment      1: Step Time =    1.000,"PART-1-1",           453,       11.2622,       5.99112,            0.,NA,NA,"",       4.30894,       3.30335,      -2.76674,   316.814E-09
C:/temp/dataset/2/30_9.odb,Step-1,Increment      1: Step Time =    1.000,"PART-1-1",           454,       13.8596,       24.3693,            0.,NA,NA,"",       6.46316,       5.59296,      -3.23902,   26.0796E-09
C:/temp/dataset/2/30_9.odb,Step-1,Increment      1: Step Time =    1.000,"PART-1-1",           455,       12.6110,       23.1199,            0.,NA,NA,"",       6.25261,       5.44582,      -3.07216,   27.0408E-09
C:/temp/dataset/2/30_9.odb,Step-1,Increment      1: Step Time =    1.000,"PART-1-1",           456,       13.7514,       21.4590,            0.,NA,NA,"",       6.13081,       5.22799,      -3.20234,   25.1779E-09
C:/temp/dataset/2/30_9.odb,Step-1,Increment      1: Step Time =    1.000,"PART-1-1",           457,           15.,       22.7083,            0.,NA,NA,"",       6.34378,       5.37513,      -3.36920,   25.1101E-09
C:/temp/dataset/2/30_9.odb,Step-1,Increment      1: Step Time =    1.000,"PART-1-1",           458,       8.83903,       17.2613,            0.,NA,NA,"",       5.38248,       4.73928,      -2.55154,   30.5025E-09
C:/temp/dataset/2/30_9.odb,Step-1,Increment      1: Step Time =    1.000,"PART-1-1",           459,       10.5130,       17.3338,            0.,NA,NA,"",       5.48205,       4.73511,      -2.76253,   26.3495E-09
C:/temp/dataset/2/30_9.odb,Step-1,Increment      1: Step Time =    1.000,"PART-1-1",           460,       8.72284,       19.1442,            0.,NA,NA,"",       5.59298,       4.97689,      -2.55187,   32.1253E-09
C:/temp/dataset/2/30_9.odb,Step-1,Increment      1: Step Time =    1.000,"PART-1-1",           461,           15.,       28.5417,            0.,NA,NA,"",       6.99843,       6.10840,      -3.41548,   28.7826E-09
C:/temp/dataset/2/30_9.odb,Step-1,Increment      1: Step Time =    1.000,"PART-1-1",           462,         13.75,           30.,            0.,NA,NA,"",       7.09950,       6.30163,      -3.26991,   30.1023E-09
C:/temp/dataset/2/30_9.odb,Step-1,Increment      1: Step Time =    1.000,"PART-1-1",           463,       12.5875,       28.6551,            0.,NA,NA,"",       6.88572,       6.14180,      -3.11312,   28.8072E-09
C:/temp/dataset/2/30_9.odb,Step-1,Increment      1: Step Time =    1.000,"PART-1-1",           464,       13.8375,       27.1968,            0.,NA,NA,"",       6.78266,       5.94857,      -3.25868,   27.6014E-09
C:/temp/dataset/2/30_9.odb,Step-1,Increment      1: Step Time =    1.000,"PART-1-1",           465,         11.25,           30.,            0.,NA,NA,"",       6.97831,       6.32147,      -2.95565,   27.9834E-09
C:/temp/dataset/2/30_9.odb,Step-1,Increment      1: Step Time =    1.000,"PART-1-1",           466,       10.1484,       28.7335,            0.,NA,NA,"",       6.77946,       6.17099,      -2.80713,   27.6035E-09
C:/temp/dataset/2/30_9.odb,Step-1,Increment      1: Step Time =    1.000,"PART-1-1",           467,       7.69941,       28.7139,            0.,NA,NA,"",       6.67357,       6.18796,      -2.49913,   26.8277E-09
C:/temp/dataset/2/30_9.odb,Step-1,Increment      1: Step Time =    1.000,"PART-1-1",           468,       9.09777,       27.4473,            0.,NA,NA,"",       6.58131,       6.01766,      -2.66486,   29.0576E-09
C:/temp/dataset/2/30_9.odb,Step-1,Increment      1: Step Time =    1.000,"PART-1-1",           469,          8.75,           30.,            0.,NA,NA,"",       6.86942,       6.34130,      -2.64139,   25.7182E-09
C:/temp/dataset/2/30_9.odb,Step-1,Increment      1: Step Time =    1.000,"PART-1-1",           470,  -9.87333E-03,       28.6960,            0.,NA,NA,"",       6.43147,       6.24686,      -1.52990,   28.3171E-09
C:/temp/dataset/2/30_9.odb,Step-1,Increment      1: Step Time =    1.000,"PART-1-1",           471,          1.25,           30.,            0.,NA,NA,"",       6.62234,       6.40079,      -1.69861,   27.4296E-09
C:/temp/dataset/2/30_9.odb,Step-1,Increment      1: Step Time =    1.000,"PART-1-1",           472,       4.87954,       25.6434,            0.,NA,NA,"",       6.19829,       5.82435,      -2.12030,   31.3326E-09
C:/temp/dataset/2/30_9.odb,Step-1,Increment      1: Step Time =    1.000,"PART-1-1",           473,      -5.00474,       28.7231,            0.,NA,NA,"",       6.35427,       6.28989,  -902.234E-03,   30.3600E-09
C:/temp/dataset/2/30_9.odb,Step-1,Increment      1: Step Time =    1.000,"PART-1-1",           474,         -6.25,           30.,            0.,NA,NA,"",       6.50434,       6.46028,  -755.828E-03,   30.3163E-09
C:/temp/dataset/2/30_9.odb,Step-1,Increment      1: Step Time =    1.000,"PART-1-1",           475,      -3.76303,       27.4393,            0.,NA,NA,"",       6.20778,       6.11866,      -1.04814,   30.7488E-09
C:/temp/dataset/2/30_9.odb,Step-1,Increment      1: Step Time =    1.000,"PART-1-1",           476,      -3.77322,       24.9147,            0.,NA,NA,"",       5.89156,       5.80139,      -1.02683,   33.2776E-09
C:/temp/dataset/2/30_9.odb,Step-1,Increment      1: Step Time =    1.000,"PART-1-1",           477,      -13.7476,       27.4926,            0.,NA,NA,"",       6.20799,       6.20456,   206.542E-03,   34.7290E-09
C:/temp/dataset/2/30_9.odb,Step-1,Increment      1: Step Time =    1.000,"PART-1-1",           478,        -13.75,           30.,            0.,NA,NA,"",       6.52245,       6.51977,   186.954E-03,   33.8225E-09
C:/temp/dataset/2/30_9.odb,Step-1,Increment      1: Step Time =    1.000,"PART-1-1",           479,          -15.,         28.75,            0.,NA,NA,"",       6.38238,       6.37256,   353.999E-03,   35.5725E-09
C:/temp/dataset/2/30_9.odb,Step-1,Increment      1: Step Time =    1.000,"PART-1-1",           480,          -15.,         26.25,            0.,NA,NA,"",       6.06982,       6.05830,   373.830E-03,   34.7141E-09
C:/temp/dataset/2/30_9.odb,Step-1,Increment      1: Step Time =    1.000,"PART-1-1",           481,      -12.4965,       26.2309,            0.,NA,NA,"",       6.03632,       6.03603,   59.2796E-03,   34.1056E-09
C:/temp/dataset/2/30_9.odb,Step-1,Increment      1: Step Time =    1.000,"PART-1-1",           482,      -10.0014,       23.7134,            0.,NA,NA,"",       5.70460,       5.69978,  -234.397E-03,   34.7776E-09
C:/temp/dataset/2/30_9.odb,Step-1,Increment      1: Step Time =    1.000,"PART-1-1",           483,      -8.75535,       22.4567,            0.,NA,NA,"",       5.54503,       5.53192,  -381.060E-03,   35.6241E-09
C:/temp/dataset/2/30_9.odb,Step-1,Increment      1: Step Time =    1.000,"PART-1-1",           484,      -7.50515,       23.6891,            0.,NA,NA,"",       5.70331,       5.67693,  -547.991E-03,   34.8072E-09
C:/temp/dataset/2/30_9.odb,Step-1,Increment      1: Step Time =    1.000,"PART-1-1",           485,      -8.75118,       24.9458,            0.,NA,NA,"",       5.85855,       5.84479,  -401.328E-03,   34.0062E-09
C:/temp/dataset/2/30_9.odb,Step-1,Increment      1: Step Time =    1.000,"PART-1-1",           486,      -3.77419,       22.4219,            0.,NA,NA,"",       5.57965,       5.48804,      -1.00694,   36.3037E-09
C:/temp/dataset/2/30_9.odb,Step-1,Increment      1: Step Time =    1.000,"PART-1-1",           487,      -5.00723,       21.2173,            0.,NA,NA,"",       5.41236,       5.34640,  -842.384E-03,   37.6610E-09
C:/temp/dataset/2/30_9.odb,Step-1,Increment      1: Step Time =    1.000,"PART-1-1",           488,         -3.75,           20.,            0.,NA,NA,"",       5.27725,       5.18341,  -990.767E-03,   39.7725E-09
C:/temp/dataset/2/30_9.odb,Step-1,Increment      1: Step Time =    1.000,"PART-1-1",           489,      -2.51696,       21.2046,            0.,NA,NA,"",       5.44893,       5.32504,      -1.15532,   38.2838E-09
C:/temp/dataset/2/30_9.odb,Step-1,Increment      1: Step Time =    1.000,"PART-1-1",           490,         -8.75,           20.,            0.,NA,NA,"",       5.23561,       5.22307,  -362.245E-03,   37.6406E-09
C:/temp/dataset/2/30_9.odb,Step-1,Increment      1: Step Time =    1.000,"PART-1-1",           491,      -7.50331,       21.2223,            0.,NA,NA,"",       5.39280,       5.36682,  -528.655E-03,   36.9739E-09
C:/temp/dataset/2/30_9.odb,Step-1,Increment      1: Step Time =    1.000,"PART-1-1",           492,         -6.25,           20.,            0.,NA,NA,"",       5.24703,       5.20324,  -676.506E-03,   38.7728E-09
C:/temp/dataset/2/30_9.odb,Step-1,Increment      1: Step Time =    1.000,"PART-1-1",           493,      -6.26054,       22.4396,            0.,NA,NA,"",       5.55359,       5.50999,  -694.533E-03,   35.9921E-09
C:/temp/dataset/2/30_9.odb,Step-1,Increment      1: Step Time =    1.000,"PART-1-1",           494,         -1.25,           20.,            0.,NA,NA,"",       5.32594,       5.16358,      -1.30503,   40.7778E-09
C:/temp/dataset/2/30_9.odb,Step-1,Increment      1: Step Time =    1.000,"PART-1-1",           495,      -1.30453,       22.3853,            0.,NA,NA,"",       5.62036,       5.46385,      -1.31709,   36.6579E-09
C:/temp/dataset/2/30_9.odb,Step-1,Increment      1: Step Time =    1.000,"PART-1-1",           496,         -1.25,           30.,            0.,NA,NA,"",       6.56816,       6.42062,      -1.38435,   28.2985E-09
C:/temp/dataset/2/30_9.odb,Step-1,Increment      1: Step Time =    1.000,"PART-1-1",           497,      -2.50829,       28.7162,            0.,NA,NA,"",       6.38606,       6.26922,      -1.21599,   29.3096E-09
C:/temp/dataset/2/30_9.odb,Step-1,Increment      1: Step Time =    1.000,"PART-1-1",           498,         -3.75,           30.,            0.,NA,NA,"",       6.52874,       6.44045,      -1.07009,   29.2633E-09
C:/temp/dataset/2/30_9.odb,Step-1,Increment      1: Step Time =    1.000,"PART-1-1",           499,          3.75,           20.,            0.,NA,NA,"",       5.47660,       5.12391,      -1.93355,   51.6691E-09
C:/temp/dataset/2/30_9.odb,Step-1,Increment      1: Step Time =    1.000,"PART-1-1",           500,       4.75388,       21.0765,            0.,NA,NA,"",       5.64390,       5.25127,      -2.06828,   48.6357E-09
C:/temp/dataset/2/30_9.odb,Step-1,Increment      1: Step Time =    1.000,"PART-1-1",           501,          6.25,           30.,            0.,NA,NA,"",       6.77344,       6.36113,      -2.32713,   25.5032E-09
C:/temp/dataset/2/30_9.odb,Step-1,Increment      1: Step Time =    1.000,"PART-1-1",           502,       6.61296,       27.1492,            0.,NA,NA,"",       6.44375,       5.99989,      -2.35014,   29.2048E-09
C:/temp/dataset/2/30_9.odb,Step-1,Increment      1: Step Time =    1.000,"PART-1-1",           503,            5.,         16.25,            0.,NA,NA,"",       5.07949,       4.64261,      -2.06093,   51.8502E-09
C:/temp/dataset/2/30_9.odb,Step-1,Increment      1: Step Time =    1.000,"PART-1-1",           504,       6.03202,       15.2452,            0.,NA,NA,"",       5.00872,       4.50812,      -2.18269,   46.5759E-09
C:/temp/dataset/2/30_9.odb,Step-1,Increment      1: Step Time =    1.000,"PART-1-1",           505,       6.91243,       16.6330,            0.,NA,NA,"",       5.21260,       4.67558,      -2.30437,   39.0028E-09
C:/temp/dataset/2/30_9.odb,Step-1,Increment      1: Step Time =    1.000,"PART-1-1",           506,            5.,         13.75,            0.,NA,NA,"",       4.78547,       4.32835,      -2.04110,   58.4234E-09
C:/temp/dataset/2/30_9.odb,Step-1,Increment      1: Step Time =    1.000,"PART-1-1",           507,       6.17466,       12.7979,            0.,NA,NA,"",       4.73205,       4.19935,      -2.18121,   49.5146E-09
C:/temp/dataset/2/30_9.odb,Step-1,Increment      1: Step Time =    1.000,"PART-1-1",           508,       12.0086,       16.5092,            0.,NA,NA,"",       5.47794,       4.61960,      -2.94399,   23.8472E-09
C:/temp/dataset/2/30_9.odb,Step-1,Increment      1: Step Time =    1.000,"PART-1-1",           509,           15.,        16.875,            0.,NA,NA,"",       5.70865,       4.64185,      -3.32293,   25.5891E-09
C:/temp/dataset/2/30_9.odb,Step-1,Increment      1: Step Time =    1.000,"PART-1-1",           510,       13.3591,       18.2744,            0.,NA,NA,"",       5.75494,       4.83078,      -3.12776,   24.3875E-09
C:/temp/dataset/2/30_9.odb,Step-1,Increment      1: Step Time =    1.000,"PART-1-1",           511,            5.,         11.25,            0.,NA,NA,"",       4.49427,       4.01409,      -2.02127,   90.7524E-09
C:/temp/dataset/2/30_9.odb,Step-1,Increment      1: Step Time =    1.000,"PART-1-1",           512,       6.23142,       10.2778,            0.,NA,NA,"",       4.44663,       3.88211,      -2.16836,   61.2787E-09
C:/temp/dataset/2/30_9.odb,Step-1,Increment      1: Step Time =    1.000,"PART-1-1",           513,            5.,          8.75,            0.,NA,NA,"",       4.20648,       3.69983,      -2.00144,   116.913E-09
C:/temp/dataset/2/30_9.odb,Step-1,Increment      1: Step Time =    1.000,"PART-1-1",           514,       7.47251,       9.25684,            0.,NA,NA,"",       4.40251,       3.74393,      -2.31627,   153.992E-09
C:/temp/dataset/2/30_9.odb,Step-1,Increment      1: Step Time =    1.000,"PART-1-1",           515,         11.25,           -5.,            0.,NA,NA,"",       3.29624,       1.92182,      -2.67802,   612.531E-09
C:/temp/dataset/2/30_9.odb,Step-1,Increment      1: Step Time =    1.000,"PART-1-1",           516,       11.2689,      -2.22707,            0.,NA,NA,"",       3.52944,       2.27024,      -2.70239,   784.638E-09
C:/temp/dataset/2/30_9.odb,Step-1,Increment      1: Step Time =    1.000,"PART-1-1",           517,          10.5,          -30.,            0.,NA,NA,"",            0.,   6.00196E-39,  -3.79483E-39,   5.39480E-03
C:/temp/dataset/2/30_9.odb,Step-1,Increment      1: Step Time =    1.000,"PART-1-1",           518,           15.,        -23.75,            0.,NA,NA,"",   47.5686E-03,   44.4334E-03,  -16.9835E-03,   173.732E-06
C:/temp/dataset/2/30_9.odb,Step-1,Increment      1: Step Time =    1.000,"PART-1-1",           519,          3.75,           -5.,            0.,NA,NA,"",       2.63379,       1.98134,      -1.73527,   6.30462E-06
C:/temp/dataset/2/30_9.odb,Step-1,Increment      1: Step Time =    1.000,"PART-1-1",           520,       4.97006,      -3.74763,            0.,NA,NA,"",       2.85262,       2.12907,      -1.89855,   2.75231E-06
C:/temp/dataset/2/30_9.odb,Step-1,Increment      1: Step Time =    1.000,"PART-1-1",           521,       4.85412,       3.76356,            0.,NA,NA,"",       3.63702,       3.07417,      -1.94355,   1.97145E-06
C:/temp/dataset/2/30_9.odb,Step-1,Increment      1: Step Time =    1.000,"PART-1-1",           522,       3.33333,            5.,            0.,NA,NA,"",       3.68968,       3.24168,      -1.76218,   2.45338E-06
C:/temp/dataset/2/30_9.odb,Step-1,Increment      1: Step Time =    1.000,"PART-1-1",           523,       1.45296,       3.58740,            0.,NA,NA,"",       3.43135,       3.07901,      -1.51456,   14.7102E-06
C:/temp/dataset/2/30_9.odb,Step-1,Increment      1: Step Time =    1.000,"PART-1-1",           524,       2.97375,       2.35096,            0.,NA,NA,"",       3.36945,       2.91151,      -1.69596,   13.2512E-06
C:/temp/dataset/2/30_9.odb,Step-1,Increment      1: Step Time =    1.000,"PART-1-1",           525,          6.25,           -5.,            0.,NA,NA,"",       2.83689,       1.96149,      -2.04951,   4.51266E-06
C:/temp/dataset/2/30_9.odb,Step-1,Increment      1: Step Time =    1.000,"PART-1-1",           526,       12.4696,       10.4445,            0.,NA,NA,"",       4.85544,       3.85358,      -2.95384,   25.9222E-09
C:/temp/dataset/2/30_9.odb,Step-1,Increment      1: Step Time =    1.000,"PART-1-1",           527,           15.,       11.0417,            0.,NA,NA,"",       5.10034,       3.90858,      -3.27666,   21.8169E-09
C:/temp/dataset/2/30_9.odb,Step-1,Increment      1: Step Time =    1.000,"PART-1-1",           528,      -5.01382,       23.6808,            0.,NA,NA,"",       5.72129,       5.65612,  -861.096E-03,   34.7577E-09
C:/temp/dataset/2/30_9.odb,Step-1,Increment      1: Step Time =    1.000,"PART-1-1",           529,      -2.53358,       23.6558,            0.,NA,NA,"",       5.75407,       5.63330,      -1.17267,   34.6463E-09
C:/temp/dataset/2/30_9.odb,Step-1,Increment      1: Step Time =    1.000,"PART-1-1",           530,  -74.6816E-03,       23.6075,            0.,NA,NA,"",       5.80010,       5.60774,      -1.48139,   34.8809E-09
C:/temp/dataset/2/30_9.odb,Step-1,Increment      1: Step Time =    1.000,"PART-1-1",           531,      -6.62798,      -1.45964,            0.,NA,NA,"",       2.55156,       2.51002,  -458.564E-03,   352.974E-06
C:/temp/dataset/2/30_9.odb,Step-1,Increment      1: Step Time =    1.000,"PART-1-1",           532,      -4.43070,      -2.38075,            0.,NA,NA,"",       2.48501,       2.37598,  -728.011E-03,   413.588E-06
C:/temp/dataset/2/30_9.odb,Step-1,Increment      1: Step Time =    1.000,"PART-1-1",           533,      -3.64554,  -813.143E-03,            0.,NA,NA,"",       2.70040,       2.56680,  -838.870E-03,   258.655E-06
C:/temp/dataset/2/30_9.odb,Step-1,Increment      1: Step Time =    1.000,"PART-1-1",           534,         -3.75,           -5.,            0.,NA,NA,"",       2.18876,       2.04003,  -793.064E-03,   720.696E-06
C:/temp/dataset/2/30_9.odb,Step-1,Increment      1: Step Time =    1.000,"PART-1-1",           535,      -13.8599,      -9.43096,            0.,NA,NA,"",       1.63107,       1.56081,   473.538E-03,   13.8714E-03
C:/temp/dataset/2/30_9.odb,Step-1,Increment      1: Step Time =    1.000,"PART-1-1",           536,          -15.,      -11.0417,            0.,NA,NA,"",       1.49734,       1.36484,   615.835E-03,   18.1321E-03
C:/temp/dataset/2/30_9.odb,Step-1,Increment      1: Step Time =    1.000,"PART-1-1",           537,      -11.9984,      -19.8095,            0.,NA,NA,"",   348.178E-03,   292.629E-03,   188.670E-03,   23.1410E-03
C:/temp/dataset/2/30_9.odb,Step-1,Increment      1: Step Time =    1.000,"PART-1-1",           538,      -13.3881,      -18.2324,            0.,NA,NA,"",   552.353E-03,   448.471E-03,   322.440E-03,   33.2093E-03
C:/temp/dataset/2/30_9.odb,Step-1,Increment      1: Step Time =    1.000,"PART-1-1",           539,          -15.,      -19.7917,            0.,NA,NA,"",   527.845E-03,   351.231E-03,   394.027E-03,   48.3643E-03
C:/temp/dataset/2/30_9.odb,Step-1,Increment      1: Step Time =    1.000,"PART-1-1",           540,           -5.,        -18.75,            0.,NA,NA,"",   444.694E-03,   343.750E-03,  -282.115E-03,   69.9619E-03
C:/temp/dataset/2/30_9.odb,Step-1,Increment      1: Step Time =    1.000,"PART-1-1",           541,      -5.96138,      -20.0094,            0.,NA,NA,"",   246.800E-03,   190.015E-03,  -157.494E-03,   52.1535E-03
C:/temp/dataset/2/30_9.odb,Step-1,Increment      1: Step Time =    1.000,"PART-1-1",           542,           -5.,        -13.75,            0.,NA,NA,"",       1.03974,   916.443E-03,  -491.108E-03,   24.2614E-03
C:/temp/dataset/2/30_9.odb,Step-1,Increment      1: Step Time =    1.000,"PART-1-1",           543,      -7.28958,      -14.3036,            0.,NA,NA,"",   869.014E-03,   842.547E-03,  -212.836E-03,   22.4643E-03
C:/temp/dataset/2/30_9.odb,Step-1,Increment      1: Step Time =    1.000,"PART-1-1",           544,      -8.88285,      -11.0213,            0.,NA,NA,"",       1.28121,       1.27776,  -93.9150E-03,   15.6911E-03
C:/temp/dataset/2/30_9.odb,Step-1,Increment      1: Step Time =    1.000,"PART-1-1",           545,      -9.01222,      -8.51542,            0.,NA,NA,"",       1.62132,       1.61797,  -104.106E-03,   10.7950E-03
C:/temp/dataset/2/30_9.odb,Step-1,Increment      1: Step Time =    1.000,"PART-1-1",           546,      -9.13424,  -715.290E-03,            0.,NA,NA,"",       2.62819,       2.62390,  -150.094E-03,   440.614E-06
C:/temp/dataset/2/30_9.odb,Step-1,Increment      1: Step Time =    1.000,"PART-1-1",           547,      -9.92186,      -2.42350,            0.,NA,NA,"",       2.41726,       2.41695,  -38.4392E-03,   1.08003E-03
C:/temp/dataset/2/30_9.odb,Step-1,Increment      1: Step Time =    1.000,"PART-1-1",           548,      -12.7176,      -7.95930,            0.,NA,NA,"",       1.77136,       1.74001,   331.785E-03,   12.8180E-03
C:/temp/dataset/2/30_9.odb,Step-1,Increment      1: Step Time =    1.000,"PART-1-1",           549,          -15.,        -8.125,            0.,NA,NA,"",       1.86226,       1.75678,   617.828E-03,   10.8346E-03
C:/temp/dataset/2/30_9.odb,Step-1,Increment      1: Step Time =    1.000,"PART-1-1",           550,       11.2818,   528.104E-03,            0.,NA,NA,"",       3.77840,       2.61647,      -2.72587,   608.059E-09
C:/temp/dataset/2/30_9.odb,Step-1,Increment      1: Step Time =    1.000,"PART-1-1",           551,       10.0167,  -924.457E-03,            0.,NA,NA,"",       3.53587,       2.44391,      -2.55532,   794.238E-09
C:/temp/dataset/2/30_9.odb,Step-1,Increment      1: Step Time =    1.000,"PART-1-1",           552,       10.4320,       23.7699,            0.,NA,NA,"",       6.21320,       5.54480,      -2.80341,   30.4492E-09
C:/temp/dataset/2/30_9.odb,Step-1,Increment      1: Step Time =    1.000,"PART-1-1",           553,           15.,        25.625,            0.,NA,NA,"",       6.66902,       5.74176,      -3.39234,   26.6367E-09
C:/temp/dataset/2/30_9.odb,Step-1,Increment      1: Step Time =    1.000,"PART-1-1",           554,      -9.99539,       26.2124,            0.,NA,NA,"",       6.01928,       6.01387,  -254.972E-03,   33.5167E-09
C:/temp/dataset/2/30_9.odb,Step-1,Increment      1: Step Time =    1.000,"PART-1-1",           555,          -15.,       -25.625,            0.,NA,NA,"",   170.965E-03,   78.8725E-03,   151.684E-03,   42.7741E-03
C:/temp/dataset/2/30_9.odb,Step-1,Increment      1: Step Time =    1.000,"PART-1-1",           556,      -12.2044,      -25.8339,            0.,NA,NA,"",   83.1189E-03,   32.7621E-03,   76.3898E-03,   23.3221E-03
C:/temp/dataset/2/30_9.odb,Step-1,Increment      1: Step Time =    1.000,"PART-1-1",           557,          -15.,       -16.875,            0.,NA,NA,"",   796.491E-03,   616.292E-03,   504.560E-03,   41.7162E-03
C:/temp/dataset/2/30_9.odb,Step-1,Increment      1: Step Time =    1.000,"PART-1-1",           558,      -8.25880,      -15.9015,            0.,NA,NA,"",   651.478E-03,   645.693E-03,  -86.6272E-03,   23.2826E-03
C:/temp/dataset/2/30_9.odb,Step-1,Increment      1: Step Time =    1.000,"PART-1-1",           559,       7.56555,       17.9230,            0.,NA,NA,"",       5.39424,       4.83256,      -2.39670,   36.3319E-09
C:/temp/dataset/2/30_9.odb,Step-1,Increment      1: Step Time =    1.000,"PART-1-1",           560,      -9.72707,       2.21069,            0.,NA,NA,"",       2.99583,       2.99418,  -99.3880E-03,   231.823E-06
C:/temp/dataset/2/30_9.odb,Step-1,Increment      1: Step Time =    1.000,"PART-1-1",           561,      -8.18006,       3.69884,            0.,NA,NA,"",       3.18297,       3.16835,  -304.742E-03,   338.159E-06
C:/temp/dataset/2/30_9.odb,Step-1,Increment      1: Step Time =    1.000,"PART-1-1",           562,          -10.,            5.,            0.,NA,NA,"",       3.34566,       3.34451,  -87.6586E-03,   468.205E-06
C:/temp/dataset/2/30_9.odb,Step-1,Increment      1: Step Time =    1.000,"PART-1-1",           563,      -10.3433,      -7.69771,            0.,NA,NA,"",       1.74241,       1.74177,   47.3020E-03,   10.8382E-03
C:/temp/dataset/2/30_9.odb,Step-1,Increment      1: Step Time =    1.000,"PART-1-1",           564,      -11.5611,      -6.59494,            0.,NA,NA,"",       1.91308,       1.90383,   187.910E-03,   9.27681E-03
C:/temp/dataset/2/30_9.odb,Step-1,Increment      1: Step Time =    1.000,"PART-1-1",           565,      -9.40089,      -20.7816,            0.,NA,NA,"",   193.035E-03,   191.605E-03,   23.4525E-03,   11.3626E-03
C:/temp/dataset/2/30_9.odb,Step-1,Increment      1: Step Time =    1.000,"PART-1-1",           566,      -8.21757,      -22.2064,            0.,NA,NA,"",   115.850E-03,   110.294E-03,  -35.4449E-03,   10.1401E-03
C:/temp/dataset/2/30_9.odb,Step-1,Increment      1: Step Time =    1.000,"PART-1-1",           567,      -6.89894,      -21.2078,            0.,NA,NA,"",   174.976E-03,   143.450E-03,  -100.194E-03,   20.7010E-03
C:/temp/dataset/2/30_9.odb,Step-1,Increment      1: Step Time =    1.000,"PART-1-1",           568,      -9.14285,      -28.6800,            0.,NA,NA,"",   7.28088E-03,  -6.91015E-03,   2.29368E-03,   4.76842E-03
C:/temp/dataset/2/30_9.odb,Step-1,Increment      1: Step Time =    1.000,"PART-1-1",           569,      -10.7232,      -27.3047,            0.,NA,NA,"",   24.2360E-03,   1.64641E-03,   24.1800E-03,   11.9948E-03
C:/temp/dataset/2/30_9.odb,Step-1,Increment      1: Step Time =    1.000,"PART-1-1",           570,         -10.5,          -30.,            0.,NA,NA,"",            0.,  -8.91789E-39,   21.2272E-39,   10.7677E-03
C:/temp/dataset/2/30_9.odb,Step-1,Increment      1: Step Time =    1.000,"PART-1-1",           571,      -4.89633,      -27.4366,            0.,NA,NA,"",   32.5660E-03,   20.0310E-03,  -25.6769E-03,   15.0687E-03
C:/temp/dataset/2/30_9.odb,Step-1,Increment      1: Step Time =    1.000,"PART-1-1",           572,      -6.18287,      -28.7136,            0.,NA,NA,"",   9.26012E-03,   2.27578E-03,  -8.97611E-03,   10.3013E-03
C:/temp/dataset/2/30_9.odb,Step-1,Increment      1: Step Time =    1.000,"PART-1-1",           573,          -4.5,          -30.,            0.,NA,NA,"",            0.,   4.74331E-39,  -20.3580E-39,   9.65454E-03
C:/temp/dataset/2/30_9.odb,Step-1,Increment      1: Step Time =    1.000,"PART-1-1",           574,       12.5384,       2.02620,            0.,NA,NA,"",       4.02445,       2.79482,      -2.89571,   344.349E-09
C:/temp/dataset/2/30_9.odb,Step-1,Increment      1: Step Time =    1.000,"PART-1-1",           575,           15.,       2.29167,            0.,NA,NA,"",       4.26322,       2.80867,      -3.20725,   472.805E-09
C:/temp/dataset/2/30_9.odb,Step-1,Increment      1: Step Time =    1.000,"PART-1-1",           576,       9.96595,       9.83263,            0.,NA,NA,"",       4.62093,       3.79653,      -2.63427,   43.3870E-09
C:/temp/dataset/2/30_9.odb,Step-1,Increment      1: Step Time =    1.000,"PART-1-1",           577,           15.,       19.7917,            0.,NA,NA,"",       6.02338,       5.00849,      -3.34607,   25.6219E-09
C:/temp/dataset/2/30_9.odb,Step-1,Increment      1: Step Time =    1.000,"PART-1-1",           578,       7.90800,       20.1372,            0.,NA,NA,"",       5.66849,       5.10817,      -2.45732,   35.1783E-09
C:/temp/dataset/2/30_9.odb,Step-1,Increment      1: Step Time =    1.000,"PART-1-1",           579,       8.41916,       21.3934,            0.,NA,NA,"",       5.83932,       5.26203,      -2.53153,   33.8089E-09
C:/temp/dataset/2/30_9.odb,Step-1,Increment      1: Step Time =    1.000,"PART-1-1",           580,       6.50486,       21.1025,            0.,NA,NA,"",       5.71857,       5.24065,      -2.28859,   39.8528E-09
C:/temp/dataset/2/30_9.odb,Step-1,Increment      1: Step Time =    1.000,"PART-1-1",           581,           4.5,          -30.,            0.,NA,NA,"",            0.,   10.3047E-39,  -6.91819E-39,   9.48801E-03
C:/temp/dataset/2/30_9.odb,Step-1,Increment      1: Step Time =    1.000,"PART-1-1",           582,       3.62857,      -22.4261,            0.,NA,NA,"",   67.4516E-03,   67.4127E-03,  -2.28985E-03,   5.77917E-03
C:/temp/dataset/2/30_9.odb,Step-1,Increment      1: Step Time =    1.000,"PART-1-1",           583,       2.16864,      -23.6665,            0.,NA,NA,"",   70.2657E-03,   69.5555E-03,  -9.96498E-03,   8.74102E-03
C:/temp/dataset/2/30_9.odb,Step-1,Increment      1: Step Time =    1.000,"PART-1-1",           584,      -2.73954,      -22.4743,            0.,NA,NA,"",   134.997E-03,   112.540E-03,  -74.5579E-03,   24.0349E-03
C:/temp/dataset/2/30_9.odb,Step-1,Increment      1: Step Time =    1.000,"PART-1-1",           585,  -999.676E-03,      -23.6839,            0.,NA,NA,"",   93.4367E-03,   85.5683E-03,  -37.5298E-03,   17.6928E-03
C:/temp/dataset/2/30_9.odb,Step-1,Increment      1: Step Time =    1.000,"PART-1-1",           586,      -7.82572,      -27.3936,            0.,NA,NA,"",   11.1255E-03,   2.41935E-03,  -10.8593E-03,   6.67436E-03
C:/temp/dataset/2/30_9.odb,Step-1,Increment      1: Step Time =    1.000,"PART-1-1",           587,      -6.52069,      -26.1528,            0.,NA,NA,"",   42.4877E-03,   24.4596E-03,  -34.7409E-03,   15.2821E-03
C:/temp/dataset/2/30_9.odb,Step-1,Increment      1: Step Time =    1.000,"PART-1-1",           588,      -8.08310,      -24.7829,            0.,NA,NA,"",   45.1624E-03,   38.5974E-03,  -23.4496E-03,   7.36098E-03
C:/temp/dataset/2/30_9.odb,Step-1,Increment      1: Step Time =    1.000,"PART-1-1",           589,      -9.38814,      -26.0237,            0.,NA,NA,"",   16.8551E-03,   14.5850E-03,   8.44819E-03,   4.26672E-03
C:/temp/dataset/2/30_9.odb,Step-1,Increment      1: Step Time =    1.000,"PART-1-1",           590,          -7.5,          -30.,            0.,NA,NA,"",            0.,  -4.68174E-39,  -7.07660E-39,   4.70527E-03
C:/temp/dataset/2/30_9.odb,Step-1,Increment      1: Step Time =    1.000,"PART-1-1",           591,       7.73182,       24.8866,            0.,NA,NA,"",       6.21934,       5.70659,      -2.47284,   32.3027E-09
C:/temp/dataset/2/30_9.odb,Step-1,Increment      1: Step Time =    1.000,"PART-1-1",           592,       8.21760,       26.2797,            0.,NA,NA,"",       6.40516,       5.87786,      -2.54496,   30.3789E-09
C:/temp/dataset/2/30_9.odb,Step-1,Increment      1: Step Time =    1.000,"PART-1-1",           593,       6.12718,       25.7561,            0.,NA,NA,"",       6.25798,       5.82862,      -2.27803,   31.1628E-09
C:/temp/dataset/2/30_9.odb,Step-1,Increment      1: Step Time =    1.000,"PART-1-1",           594,       5.38844,       22.1508,            0.,NA,NA,"",       5.79732,       5.38128,      -2.15657,   39.0323E-09
C:/temp/dataset/2/30_9.odb,Step-1,Increment      1: Step Time =    1.000,"PART-1-1",           595,      -3.37677,   775.412E-03,            0.,NA,NA,"",       2.90240,       2.76418,  -885.007E-03,   223.135E-06
C:/temp/dataset/2/30_9.odb,Step-1,Increment      1: Step Time =    1.000,"PART-1-1",           596,      -3.41233,       2.84116,            0.,NA,NA,"",       3.15397,       3.02381,  -896.748E-03,   180.516E-06
C:/temp/dataset/2/30_9.odb,Step-1,Increment      1: Step Time =    1.000,"PART-1-1",           597,      -11.2482,       24.9673,            0.,NA,NA,"",       5.86795,       5.86730,  -87.6097E-03,   34.2406E-09
C:/temp/dataset/2/30_9.odb,Step-1,Increment      1: Step Time =    1.000,"PART-1-1",           598,       5.16292,       24.1270,            0.,NA,NA,"",       6.02577,       5.63149,      -2.14390,   33.9952E-09
C:/temp/dataset/2/30_9.odb,Step-1,Increment      1: Step Time =    1.000,"PART-1-1",           599,            0.,            5.,            0.,NA,NA,"",       3.53333,       3.26812,      -1.34307,   33.0566E-06
C:/temp/dataset/2/30_9.odb,Step-1,Increment      1: Step Time =    1.000,"PART-1-1",           600,      -1.80204,       3.95011,            0.,NA,NA,"",       3.33957,       3.15037,      -1.10810,   72.9296E-06
C:/temp/dataset/2/30_9.odb,Step-1,Increment      1: Step Time =    1.000,"PART-1-1",           601,       9.59799,       22.9228,            0.,NA,NA,"",       6.07399,       5.44494,      -2.69185,   31.7860E-09
C:/temp/dataset/2/30_9.odb,Step-1,Increment      1: Step Time =    1.000,"PART-1-1",           602,       8.30932,       22.9391,            0.,NA,NA,"",       6.01514,       5.45721,      -2.52999,   34.0579E-09
C:/temp/dataset/2/30_9.odb,Step-1,Increment      1: Step Time =    1.000,"PART-1-1",           603,      -1.93269,      -1.01257,            0.,NA,NA,"",       2.73826,       2.52785,      -1.05263,   189.197E-06
C:/temp/dataset/2/30_9.odb,Step-1,Increment      1: Step Time =    1.000,"PART-1-1",           604,      -8.69440,      -13.5596,            0.,NA,NA,"",   942.532E-03,   938.989E-03,  -81.6445E-03,   19.1836E-03
C:/temp/dataset/2/30_9.odb,Step-1,Increment      1: Step Time =    1.000,"PART-1-1",           605,       6.07991,       2.65614,            0.,NA,NA,"",       3.59449,       2.92524,      -2.08886,   1.51872E-06
C:/temp/dataset/2/30_9.odb,Step-1,Increment      1: Step Time =    1.000,"PART-1-1",           606,       4.75906,       1.28045,            0.,NA,NA,"",       3.35981,       2.76278,      -1.91190,   1.99688E-06
C:/temp/dataset/2/30_9.odb,Step-1,Increment      1: Step Time =    1.000,"PART-1-1",           607,       10.0234,       4.43547,            0.,NA,NA,"",       4.05866,       3.11762,      -2.59869,   568.686E-09
C:/temp/dataset/2/30_9.odb,Step-1,Increment      1: Step Time =    1.000,"PART-1-1",           608,       7.46673,       4.06304,            0.,NA,NA,"",       3.83764,       3.09109,      -2.27434,   1.30964E-06
C:/temp/dataset/2/30_9.odb,Step-1,Increment      1: Step Time =    1.000,"PART-1-1",           609,  -317.165E-03,  -486.862E-03,            0.,NA,NA,"",       2.87205,       2.58099,      -1.25983,   90.4345E-06
C:/temp/dataset/2/30_9.odb,Step-1,Increment      1: Step Time =    1.000,"PART-1-1",           610,       1.72730,   921.331E-03,            0.,NA,NA,"",       3.13871,       2.74170,      -1.52794,   22.6881E-06
C:/temp/dataset/2/30_9.odb,Step-1,Increment      1: Step Time =    1.000,"PART-1-1",           611,      -4.63664,      -21.2535,            0.,NA,NA,"",   203.596E-03,   146.718E-03,  -141.156E-03,   49.1699E-03
C:/temp/dataset/2/30_9.odb,Step-1,Increment      1: Step Time =    1.000,"PART-1-1",           612,       11.2827,       3.26092,            0.,NA,NA,"",       4.03871,       2.95999,      -2.74766,   534.427E-09
C:/temp/dataset/2/30_9.odb,Step-1,Increment      1: Step Time =    1.000,"PART-1-1",           613,      -11.4502,      -4.36864,            0.,NA,NA,"",       2.19431,       2.18818,   163.841E-03,   4.38578E-03
C:/temp/dataset/2/30_9.odb,Step-1,Increment      1: Step Time =    1.000,"PART-1-1",           614,      -10.8693,      -24.5529,            0.,NA,NA,"",   76.3631E-03,   49.6500E-03,   58.0189E-03,   14.3818E-03
C:/temp/dataset/2/30_9.odb,Step-1,Increment      1: Step Time =    1.000,"PART-1-1",           615,      -9.52531,      -23.3517,            0.,NA,NA,"",   78.5453E-03,   76.3820E-03,   18.3073E-03,   7.30068E-03
C:/temp/dataset/2/30_9.odb,Step-1,Increment      1: Step Time =    1.000,"PART-1-1",           616,      -10.8903,      -21.7518,            0.,NA,NA,"",   180.580E-03,   154.459E-03,   93.5494E-03,   17.3225E-03
C:/temp/dataset/2/30_9.odb,Step-1,Increment      1: Step Time =    1.000,"PART-1-1",           617,       3.33333,          -20.,            0.,NA,NA,"",   67.3316E-03,   67.3256E-03,   900.575E-06,   2.97184E-03
C:/temp/dataset/2/30_9.odb,Step-1,Increment      1: Step Time =    1.000,"PART-1-1",           618,       1.83446,      -21.2108,            0.,NA,NA,"",   75.3358E-03,   74.9944E-03,  -7.16328E-03,   5.69461E-03
C:/temp/dataset/2/30_9.odb,Step-1,Increment      1: Step Time =    1.000,"PART-1-1",           619,       5.12744,      -21.2153,            0.,NA,NA,"",   63.7799E-03,   63.7245E-03,   2.65755E-03,   2.95659E-03
C:/temp/dataset/2/30_9.odb,Step-1,Increment      1: Step Time =    1.000,"PART-1-1",           620,            0.,          -20.,            0.,NA,NA,"",   78.7406E-03,   76.9993E-03,  -16.4679E-03,   7.85168E-03
C:/temp/dataset/2/30_9.odb,Step-1,Increment      1: Step Time =    1.000,"PART-1-1",           621,      -1.43624,      -21.2208,            0.,NA,NA,"",   111.679E-03,   102.401E-03,  -44.5688E-03,   13.8517E-03
C:/temp/dataset/2/30_9.odb,Step-1,Increment      1: Step Time =    1.000,"PART-1-1",           622,   398.228E-03,      -22.4316,            0.,NA,NA,"",   87.3192E-03,   84.4476E-03,  -22.2091E-03,   12.1622E-03
C:/temp/dataset/2/30_9.odb,Step-1,Increment      1: Step Time =    1.000,"PART-1-1",           623,   770.736E-03,      -24.9188,            0.,NA,NA,"",   69.1466E-03,   66.5384E-03,  -18.8123E-03,   12.7235E-03
C:/temp/dataset/2/30_9.odb,Step-1,Increment      1: Step Time =    1.000,"PART-1-1",           624,      -3.33333,          -20.,            0.,NA,NA,"",   138.341E-03,   117.298E-03,  -73.3435E-03,   35.3601E-03
C:/temp/dataset/2/30_9.odb,Step-1,Increment      1: Step Time =    1.000,"PART-1-1",           625,       8.69606,       24.2205,            0.,NA,NA,"",       6.18323,       5.61521,      -2.58877,   32.2406E-09
C:/temp/dataset/2/30_9.odb,Step-1,Increment      1: Step Time =    1.000,"PART-1-1",           626,      -3.33333,            5.,            0.,NA,NA,"",       3.42145,       3.29436,  -923.872E-03,   172.034E-06
C:/temp/dataset/2/30_9.odb,Step-1,Increment      1: Step Time =    1.000,"PART-1-1",           627,      -4.94363,       3.89105,            0.,NA,NA,"",       3.24672,       3.16758,  -712.509E-03,   230.967E-06
C:/temp/dataset/2/30_9.odb,Step-1,Increment      1: Step Time =    1.000,"PART-1-1",           628,      -6.66667,            5.,            0.,NA,NA,"",       3.35806,       3.31988,  -504.974E-03,   422.080E-06
C:/temp/dataset/2/30_9.odb,Step-1,Increment      1: Step Time =    1.000,"PART-1-1",           629,           10.,          -20.,            0.,NA,NA,"",   59.5403E-03,   59.5401E-03,   153.907E-06,   194.517E-06
C:/temp/dataset/2/30_9.odb,Step-1,Increment      1: Step Time =    1.000,"PART-1-1",           630,       8.42239,      -21.2201,            0.,NA,NA,"",   57.7231E-03,   57.6670E-03,   2.54486E-03,   1.42750E-03
C:/temp/dataset/2/30_9.odb,Step-1,Increment      1: Step Time =    1.000,"PART-1-1",           631,       6.66667,          -20.,            0.,NA,NA,"",   61.4207E-03,   61.2501E-03,   4.57427E-03,   1.34650E-03
C:/temp/dataset/2/30_9.odb,Step-1,Increment      1: Step Time =    1.000,"PART-1-1",           632,       9.53008,       25.0675,            0.,NA,NA,"",       6.32090,       5.71507,      -2.70033,   31.0019E-09
