ODB Name,Step,Frame,Part Instance Name,    êﬂì_ÉâÉxÉã,X,Y,Z,Section Name,Material Name,Section Point,   U-Magnitude,          U-U1,          U-U2,       S-Mises
C:/temp/dataset/2/7_7.odb,Step-1,Increment      1: Step Time =    1.000,"PART-1-1",             1,          -15.,           20.,            0.,NA,NA,"",       13.4919,      -12.3023,      -5.53924,   78.2533E-09
C:/temp/dataset/2/7_7.odb,Step-1,Increment      1: Step Time =    1.000,"PART-1-1",             2,          -15.,           25.,            0.,NA,NA,"",       15.5000,      -14.3086,      -5.95938,   75.5046E-09
C:/temp/dataset/2/7_7.odb,Step-1,Increment      1: Step Time =    1.000,"PART-1-1",             3,          -10.,           20.,            0.,NA,NA,"",       13.2039,      -12.7225,      -3.53304,   93.4310E-09
C:/temp/dataset/2/7_7.odb,Step-1,Increment      1: Step Time =    1.000,"PART-1-1",             4,           -5.,           20.,            0.,NA,NA,"",       13.2310,      -13.1426,      -1.52683,   189.636E-09
C:/temp/dataset/2/7_7.odb,Step-1,Increment      1: Step Time =    1.000,"PART-1-1",             5,            0.,           20.,            0.,NA,NA,"",       13.5712,      -13.5628,   479.371E-03,   3.86578E-06
C:/temp/dataset/2/7_7.odb,Step-1,Increment      1: Step Time =    1.000,"PART-1-1",             6,            5.,           20.,            0.,NA,NA,"",       14.2021,      -13.9829,       2.48546,   88.3655E-06
C:/temp/dataset/2/7_7.odb,Step-1,Increment      1: Step Time =    1.000,"PART-1-1",             7,            5.,          12.5,            0.,NA,NA,"",       11.4012,      -10.9679,       3.11345,   1.14426E-03
C:/temp/dataset/2/7_7.odb,Step-1,Increment      1: Step Time =    1.000,"PART-1-1",             8,            5.,            5.,            0.,NA,NA,"",       8.74210,      -7.86835,       3.80965,   43.8229E-03
C:/temp/dataset/2/7_7.odb,Step-1,Increment      1: Step Time =    1.000,"PART-1-1",             9,           -5.,            5.,            0.,NA,NA,"",       6.97084,      -6.95236,   507.194E-03,   31.1431E-03
C:/temp/dataset/2/7_7.odb,Step-1,Increment      1: Step Time =    1.000,"PART-1-1",            10,          -15.,            5.,            0.,NA,NA,"",       6.84632,      -6.37341,      -2.50035,   1.26659E-03
C:/temp/dataset/2/7_7.odb,Step-1,Increment      1: Step Time =    1.000,"PART-1-1",            11,          -15.,         -3.75,            0.,NA,NA,"",       4.18550,      -3.68400,      -1.98658,   33.2872E-03
C:/temp/dataset/2/7_7.odb,Step-1,Increment      1: Step Time =    1.000,"PART-1-1",            12,          -15.,         -12.5,            0.,NA,NA,"",       1.92967,      -1.46426,      -1.25682,   71.8471E-03
C:/temp/dataset/2/7_7.odb,Step-1,Increment      1: Step Time =    1.000,"PART-1-1",            13,          -15.,        -21.25,            0.,NA,NA,"",   563.297E-03,  -250.310E-03,  -504.627E-03,   82.9756E-03
C:/temp/dataset/2/7_7.odb,Step-1,Increment      1: Step Time =    1.000,"PART-1-1",            14,          -15.,          -30.,            0.,NA,NA,"",            0.,  -17.0086E-39,  -32.9480E-39,   51.6419E-03
C:/temp/dataset/2/7_7.odb,Step-1,Increment      1: Step Time =    1.000,"PART-1-1",            15,           15.,          -30.,            0.,NA,NA,"",            0.,  -4.00695E-39,   6.69018E-39,   11.2042E-03
C:/temp/dataset/2/7_7.odb,Step-1,Increment      1: Step Time =    1.000,"PART-1-1",            16,           15.,          -25.,            0.,NA,NA,"",   47.2283E-03,  -43.3250E-03,   18.8006E-03,   465.389E-06
C:/temp/dataset/2/7_7.odb,Step-1,Increment      1: Step Time =    1.000,"PART-1-1",            17,           15.,          -20.,            0.,NA,NA,"",   70.5631E-03,  -68.1908E-03,   18.1427E-03,   47.6219E-06
C:/temp/dataset/2/7_7.odb,Step-1,Increment      1: Step Time =    1.000,"PART-1-1",            18,            5.,          -20.,            0.,NA,NA,"",   71.0977E-03,  -71.0604E-03,  -2.30113E-03,   2.40804E-03
C:/temp/dataset/2/7_7.odb,Step-1,Increment      1: Step Time =    1.000,"PART-1-1",            19,           -5.,          -20.,            0.,NA,NA,"",   353.394E-03,  -237.801E-03,   261.415E-03,   134.668E-03
C:/temp/dataset/2/7_7.odb,Step-1,Increment      1: Step Time =    1.000,"PART-1-1",            20,           -5.,         -12.5,            0.,NA,NA,"",       1.85519,      -1.68191,   782.888E-03,   71.1455E-03
C:/temp/dataset/2/7_7.odb,Step-1,Increment      1: Step Time =    1.000,"PART-1-1",            21,           -5.,           -5.,            0.,NA,NA,"",       3.78901,      -3.67051,   940.194E-03,   49.2609E-03
C:/temp/dataset/2/7_7.odb,Step-1,Increment      1: Step Time =    1.000,"PART-1-1",            22,            0.,           -5.,            0.,NA,NA,"",       4.74208,      -3.88609,       2.71765,   20.7313E-03
C:/temp/dataset/2/7_7.odb,Step-1,Increment      1: Step Time =    1.000,"PART-1-1",            23,            5.,           -5.,            0.,NA,NA,"",       6.15956,      -4.13612,       4.56428,   19.2802E-03
C:/temp/dataset/2/7_7.odb,Step-1,Increment      1: Step Time =    1.000,"PART-1-1",            24,           10.,           -5.,            0.,NA,NA,"",       7.89140,      -4.46199,       6.50883,   7.44271E-03
C:/temp/dataset/2/7_7.odb,Step-1,Increment      1: Step Time =    1.000,"PART-1-1",            25,           15.,           -5.,            0.,NA,NA,"",       9.75503,      -4.84938,       8.46429,   513.541E-06
C:/temp/dataset/2/7_7.odb,Step-1,Increment      1: Step Time =    1.000,"PART-1-1",            26,           15.,          3.75,            0.,NA,NA,"",       11.3874,      -8.28458,       7.81265,   12.0477E-03
C:/temp/dataset/2/7_7.odb,Step-1,Increment      1: Step Time =    1.000,"PART-1-1",            27,           15.,          12.5,            0.,NA,NA,"",       13.7982,      -11.8210,       7.11714,   4.20262E-03
C:/temp/dataset/2/7_7.odb,Step-1,Increment      1: Step Time =    1.000,"PART-1-1",            28,           15.,         21.25,            0.,NA,NA,"",       16.6046,      -15.3245,       6.39323,   52.1714E-06
C:/temp/dataset/2/7_7.odb,Step-1,Increment      1: Step Time =    1.000,"PART-1-1",            29,           15.,           30.,            0.,NA,NA,"",       19.6671,      -18.8357,       5.65788,   365.804E-09
C:/temp/dataset/2/7_7.odb,Step-1,Increment      1: Step Time =    1.000,"PART-1-1",            30,           7.5,           30.,            0.,NA,NA,"",       18.3971,      -18.2054,       2.64843,   4.96317E-06
C:/temp/dataset/2/7_7.odb,Step-1,Increment      1: Step Time =    1.000,"PART-1-1",            31,            0.,           30.,            0.,NA,NA,"",       17.5789,      -17.5752,  -360.906E-03,   1.88177E-06
C:/temp/dataset/2/7_7.odb,Step-1,Increment      1: Step Time =    1.000,"PART-1-1",            32,          -7.5,           30.,            0.,NA,NA,"",       17.2769,      -16.9450,      -3.37021,   76.9340E-09
C:/temp/dataset/2/7_7.odb,Step-1,Increment      1: Step Time =    1.000,"PART-1-1",            33,          -15.,           30.,            0.,NA,NA,"",       17.5177,      -16.3148,      -6.37952,   78.6641E-09
C:/temp/dataset/2/7_7.odb,Step-1,Increment      1: Step Time =    1.000,"PART-1-1",            34,          -15.,          22.5,            0.,NA,NA,"",       14.4945,      -13.3054,      -5.74931,   71.1838E-09
C:/temp/dataset/2/7_7.odb,Step-1,Increment      1: Step Time =    1.000,"PART-1-1",            35,         -12.5,           20.,            0.,NA,NA,"",       13.3093,      -12.5124,      -4.53614,   79.2955E-09
C:/temp/dataset/2/7_7.odb,Step-1,Increment      1: Step Time =    1.000,"PART-1-1",            36,          -7.5,           20.,            0.,NA,NA,"",       13.1777,      -12.9326,      -2.52994,   92.9154E-09
C:/temp/dataset/2/7_7.odb,Step-1,Increment      1: Step Time =    1.000,"PART-1-1",            37,          -2.5,           20.,            0.,NA,NA,"",       13.3630,      -13.3527,  -523.729E-03,   544.484E-09
C:/temp/dataset/2/7_7.odb,Step-1,Increment      1: Step Time =    1.000,"PART-1-1",            38,           2.5,           20.,            0.,NA,NA,"",       13.8524,      -13.7728,       1.48247,   16.5549E-06
C:/temp/dataset/2/7_7.odb,Step-1,Increment      1: Step Time =    1.000,"PART-1-1",            39,            5.,           15.,            0.,NA,NA,"",       12.3223,      -11.9751,       2.90418,   876.543E-06
C:/temp/dataset/2/7_7.odb,Step-1,Increment      1: Step Time =    1.000,"PART-1-1",            40,            5.,          17.5,            0.,NA,NA,"",       13.2564,      -12.9796,       2.69503,   379.535E-06
C:/temp/dataset/2/7_7.odb,Step-1,Increment      1: Step Time =    1.000,"PART-1-1",            41,            5.,           7.5,            0.,NA,NA,"",       9.60697,      -8.92909,       3.54475,   9.82386E-03
C:/temp/dataset/2/7_7.odb,Step-1,Increment      1: Step Time =    1.000,"PART-1-1",            42,            5.,           10.,            0.,NA,NA,"",       10.4949,      -9.95410,       3.32542,   1.67062E-03
C:/temp/dataset/2/7_7.odb,Step-1,Increment      1: Step Time =    1.000,"PART-1-1",            43,      -1.66667,            5.,            0.,NA,NA,"",       7.39727,      -7.23019,       1.56330,   34.3238E-03
C:/temp/dataset/2/7_7.odb,Step-1,Increment      1: Step Time =    1.000,"PART-1-1",            44,       1.66667,            5.,            0.,NA,NA,"",       7.99116,      -7.53013,       2.67502,   36.5722E-03
C:/temp/dataset/2/7_7.odb,Step-1,Increment      1: Step Time =    1.000,"PART-1-1",            45,      -11.6667,            5.,            0.,NA,NA,"",       6.69969,      -6.53246,      -1.48754,   4.24533E-03
C:/temp/dataset/2/7_7.odb,Step-1,Increment      1: Step Time =    1.000,"PART-1-1",            46,      -8.33333,            5.,            0.,NA,NA,"",       6.73557,      -6.71716,  -497.557E-03,   18.6957E-03
C:/temp/dataset/2/7_7.odb,Step-1,Increment      1: Step Time =    1.000,"PART-1-1",            47,          -15.,  -833.333E-03,            0.,NA,NA,"",       5.06517,      -4.56770,      -2.18909,   16.9776E-03
C:/temp/dataset/2/7_7.odb,Step-1,Increment      1: Step Time =    1.000,"PART-1-1",            48,          -15.,       2.08333,            0.,NA,NA,"",       5.96035,      -5.47430,      -2.35750,   3.29882E-03
C:/temp/dataset/2/7_7.odb,Step-1,Increment      1: Step Time =    1.000,"PART-1-1",            49,          -15.,      -9.58333,            0.,NA,NA,"",       2.59617,      -2.11278,      -1.50873,   60.8590E-03
C:/temp/dataset/2/7_7.odb,Step-1,Increment      1: Step Time =    1.000,"PART-1-1",            50,          -15.,      -6.66667,            0.,NA,NA,"",       3.35319,      -2.85760,      -1.75441,   48.4852E-03
C:/temp/dataset/2/7_7.odb,Step-1,Increment      1: Step Time =    1.000,"PART-1-1",            51,          -15.,      -18.3333,            0.,NA,NA,"",   908.744E-03,  -519.190E-03,  -745.827E-03,   86.6130E-03
C:/temp/dataset/2/7_7.odb,Step-1,Increment      1: Step Time =    1.000,"PART-1-1",            52,          -15.,      -15.4167,            0.,NA,NA,"",       1.36437,  -927.063E-03,      -1.00102,   82.1279E-03
C:/temp/dataset/2/7_7.odb,Step-1,Increment      1: Step Time =    1.000,"PART-1-1",            53,          -15.,      -27.0833,            0.,NA,NA,"",   139.221E-03,  -44.9801E-03,  -131.755E-03,   59.3667E-03
C:/temp/dataset/2/7_7.odb,Step-1,Increment      1: Step Time =    1.000,"PART-1-1",            54,          -15.,      -24.1667,            0.,NA,NA,"",   316.462E-03,  -104.769E-03,  -298.616E-03,   70.4950E-03
C:/temp/dataset/2/7_7.odb,Step-1,Increment      1: Step Time =    1.000,"PART-1-1",            55,           12.,          -30.,            0.,NA,NA,"",            0.,  -20.8316E-39,   20.8875E-39,   5.11767E-03
C:/temp/dataset/2/7_7.odb,Step-1,Increment      1: Step Time =    1.000,"PART-1-1",            56,            9.,          -30.,            0.,NA,NA,"",            0.,  -17.3437E-39,  -6.22433E-39,   7.32306E-03
C:/temp/dataset/2/7_7.odb,Step-1,Increment      1: Step Time =    1.000,"PART-1-1",            57,            6.,          -30.,            0.,NA,NA,"",            0.,  -34.1896E-39,   35.3222E-39,   9.79895E-03
C:/temp/dataset/2/7_7.odb,Step-1,Increment      1: Step Time =    1.000,"PART-1-1",            58,            3.,          -30.,            0.,NA,NA,"",            0.,  -28.7818E-39,   9.81206E-39,   12.9762E-03
C:/temp/dataset/2/7_7.odb,Step-1,Increment      1: Step Time =    1.000,"PART-1-1",            59,            0.,          -30.,            0.,NA,NA,"",            0.,  -53.5392E-39,   75.2846E-39,   15.4301E-03
C:/temp/dataset/2/7_7.odb,Step-1,Increment      1: Step Time =    1.000,"PART-1-1",            60,           -3.,          -30.,            0.,NA,NA,"",            0.,  -41.6670E-39,   83.1617E-39,   14.4153E-03
C:/temp/dataset/2/7_7.odb,Step-1,Increment      1: Step Time =    1.000,"PART-1-1",            61,           -6.,          -30.,            0.,NA,NA,"",            0.,  -1.41547E-39,   44.6182E-39,   10.7785E-03
C:/temp/dataset/2/7_7.odb,Step-1,Increment      1: Step Time =    1.000,"PART-1-1",            62,           -9.,          -30.,            0.,NA,NA,"",            0.,   36.0136E-39,   2.58012E-39,   15.5333E-03
C:/temp/dataset/2/7_7.odb,Step-1,Increment      1: Step Time =    1.000,"PART-1-1",            63,          -12.,          -30.,            0.,NA,NA,"",            0.,  -20.1922E-39,  -129.847E-39,   27.5398E-03
C:/temp/dataset/2/7_7.odb,Step-1,Increment      1: Step Time =    1.000,"PART-1-1",            64,           15.,         -27.5,            0.,NA,NA,"",   29.1953E-03,  -24.5042E-03,   15.8718E-03,   3.97279E-03
C:/temp/dataset/2/7_7.odb,Step-1,Increment      1: Step Time =    1.000,"PART-1-1",            65,           15.,         -22.5,            0.,NA,NA,"",   60.2310E-03,  -57.3249E-03,   18.4832E-03,   278.661E-06
C:/temp/dataset/2/7_7.odb,Step-1,Increment      1: Step Time =    1.000,"PART-1-1",            66,       8.33333,          -20.,            0.,NA,NA,"",   67.6811E-03,  -67.6063E-03,  -3.18113E-03,   470.050E-06
C:/temp/dataset/2/7_7.odb,Step-1,Increment      1: Step Time =    1.000,"PART-1-1",            67,       11.6667,          -20.,            0.,NA,NA,"",   67.7291E-03,  -67.5704E-03,   4.63380E-03,   288.089E-06
C:/temp/dataset/2/7_7.odb,Step-1,Increment      1: Step Time =    1.000,"PART-1-1",            68,      -1.66667,          -20.,            0.,NA,NA,"",   124.016E-03,  -101.789E-03,   70.8447E-03,   27.7586E-03
C:/temp/dataset/2/7_7.odb,Step-1,Increment      1: Step Time =    1.000,"PART-1-1",            69,       1.66667,          -20.,            0.,NA,NA,"",   82.0741E-03,  -80.6331E-03,   15.3122E-03,   5.19197E-03
C:/temp/dataset/2/7_7.odb,Step-1,Increment      1: Step Time =    1.000,"PART-1-1",            70,           -5.,          -15.,            0.,NA,NA,"",       1.32489,      -1.14430,   667.773E-03,   79.0657E-03
C:/temp/dataset/2/7_7.odb,Step-1,Increment      1: Step Time =    1.000,"PART-1-1",            71,           -5.,         -17.5,            0.,NA,NA,"",   859.257E-03,  -679.146E-03,   526.387E-03,   98.1881E-03
C:/temp/dataset/2/7_7.odb,Step-1,Increment      1: Step Time =    1.000,"PART-1-1",            72,           -5.,          -7.5,            0.,NA,NA,"",       3.09700,      -2.96374,   898.718E-03,   55.6613E-03
C:/temp/dataset/2/7_7.odb,Step-1,Increment      1: Step Time =    1.000,"PART-1-1",            73,           -5.,          -10.,            0.,NA,NA,"",       2.44850,      -2.29261,   859.707E-03,   61.2874E-03
C:/temp/dataset/2/7_7.odb,Step-1,Increment      1: Step Time =    1.000,"PART-1-1",            74,          -2.5,           -5.,            0.,NA,NA,"",       4.19670,      -3.77381,       1.83593,   26.9815E-03
C:/temp/dataset/2/7_7.odb,Step-1,Increment      1: Step Time =    1.000,"PART-1-1",            75,           2.5,           -5.,            0.,NA,NA,"",       5.40153,      -4.00402,       3.62552,   22.2465E-03
C:/temp/dataset/2/7_7.odb,Step-1,Increment      1: Step Time =    1.000,"PART-1-1",            76,           7.5,           -5.,            0.,NA,NA,"",       6.99736,      -4.28840,       5.52926,   14.1413E-03
C:/temp/dataset/2/7_7.odb,Step-1,Increment      1: Step Time =    1.000,"PART-1-1",            77,          12.5,           -5.,            0.,NA,NA,"",       8.81730,      -4.65229,       7.49006,   1.76493E-03
C:/temp/dataset/2/7_7.odb,Step-1,Increment      1: Step Time =    1.000,"PART-1-1",            78,           15.,   833.333E-03,            0.,NA,NA,"",       10.7244,      -7.11664,       8.02288,   9.09575E-03
C:/temp/dataset/2/7_7.odb,Step-1,Increment      1: Step Time =    1.000,"PART-1-1",            79,           15.,      -2.08333,            0.,NA,NA,"",       10.1796,      -5.98095,       8.23724,   2.41665E-03
C:/temp/dataset/2/7_7.odb,Step-1,Increment      1: Step Time =    1.000,"PART-1-1",            80,           15.,       9.58333,            0.,NA,NA,"",       12.9476,      -10.6551,       7.35590,   7.82447E-03
C:/temp/dataset/2/7_7.odb,Step-1,Increment      1: Step Time =    1.000,"PART-1-1",            81,           15.,       6.66667,            0.,NA,NA,"",       12.1363,      -9.47145,       7.58818,   10.8303E-03
C:/temp/dataset/2/7_7.odb,Step-1,Increment      1: Step Time =    1.000,"PART-1-1",            82,           15.,       18.3333,            0.,NA,NA,"",       15.6331,      -14.1539,       6.63790,   328.328E-06
C:/temp/dataset/2/7_7.odb,Step-1,Increment      1: Step Time =    1.000,"PART-1-1",            83,           15.,       15.4167,            0.,NA,NA,"",       14.6946,      -12.9838,       6.88118,   1.63608E-03
C:/temp/dataset/2/7_7.odb,Step-1,Increment      1: Step Time =    1.000,"PART-1-1",            84,           15.,       27.0833,            0.,NA,NA,"",       18.6255,      -17.6654,       5.90300,   3.18174E-06
C:/temp/dataset/2/7_7.odb,Step-1,Increment      1: Step Time =    1.000,"PART-1-1",            85,           15.,       24.1667,            0.,NA,NA,"",       17.6035,      -16.4950,       6.14812,   7.35769E-06
C:/temp/dataset/2/7_7.odb,Step-1,Increment      1: Step Time =    1.000,"PART-1-1",            86,           10.,           30.,            0.,NA,NA,"",       18.7741,      -18.4155,       3.65157,   3.59983E-06
C:/temp/dataset/2/7_7.odb,Step-1,Increment      1: Step Time =    1.000,"PART-1-1",            87,          12.5,           30.,            0.,NA,NA,"",       19.1984,      -18.6256,       4.65472,   1.88509E-06
C:/temp/dataset/2/7_7.odb,Step-1,Increment      1: Step Time =    1.000,"PART-1-1",            88,           2.5,           30.,            0.,NA,NA,"",       17.7968,      -17.7852,   642.197E-03,   3.80706E-06
C:/temp/dataset/2/7_7.odb,Step-1,Increment      1: Step Time =    1.000,"PART-1-1",            89,            5.,           30.,            0.,NA,NA,"",       18.0704,      -17.9953,       1.64531,   5.13261E-06
C:/temp/dataset/2/7_7.odb,Step-1,Increment      1: Step Time =    1.000,"PART-1-1",            90,           -5.,           30.,            0.,NA,NA,"",       17.3176,      -17.1550,      -2.36711,   106.669E-09
C:/temp/dataset/2/7_7.odb,Step-1,Increment      1: Step Time =    1.000,"PART-1-1",            91,          -2.5,           30.,            0.,NA,NA,"",       17.4186,      -17.3651,      -1.36401,   553.651E-09
C:/temp/dataset/2/7_7.odb,Step-1,Increment      1: Step Time =    1.000,"PART-1-1",            92,         -12.5,           30.,            0.,NA,NA,"",       17.3774,      -16.5248,      -5.37641,   72.3931E-09
C:/temp/dataset/2/7_7.odb,Step-1,Increment      1: Step Time =    1.000,"PART-1-1",            93,          -10.,           30.,            0.,NA,NA,"",       17.2969,      -16.7349,      -4.37331,   77.0361E-09
C:/temp/dataset/2/7_7.odb,Step-1,Increment      1: Step Time =    1.000,"PART-1-1",            94,          -15.,          27.5,            0.,NA,NA,"",       16.5078,      -15.3117,      -6.16945,   76.6286E-09
C:/temp/dataset/2/7_7.odb,Step-1,Increment      1: Step Time =    1.000,"PART-1-1",            95,      -12.4978,       24.9766,            0.,NA,NA,"",       15.3316,      -14.5094,      -4.95341,   69.1062E-09
C:/temp/dataset/2/7_7.odb,Step-1,Increment      1: Step Time =    1.000,"PART-1-1",            96,      -7.49872,       27.4475,            0.,NA,NA,"",       16.2306,      -15.9209,      -3.15522,   62.9792E-09
C:/temp/dataset/2/7_7.odb,Step-1,Increment      1: Step Time =    1.000,"PART-1-1",            97,      -7.50661,       22.4446,            0.,NA,NA,"",       14.1797,      -13.9129,      -2.73800,   65.6604E-09
C:/temp/dataset/2/7_7.odb,Step-1,Increment      1: Step Time =    1.000,"PART-1-1",            98,      -2.53392,       22.4091,            0.,NA,NA,"",       14.3356,      -14.3165,  -739.772E-03,   969.623E-09
C:/temp/dataset/2/7_7.odb,Step-1,Increment      1: Step Time =    1.000,"PART-1-1",            99,  -19.7467E-03,       27.3919,            0.,NA,NA,"",       16.5277,      -16.5270,  -149.680E-03,   1.83211E-06
C:/temp/dataset/2/7_7.odb,Step-1,Increment      1: Step Time =    1.000,"PART-1-1",           100,       2.31326,       22.2671,            0.,NA,NA,"",       14.7172,      -14.6668,       1.21705,   8.64615E-06
C:/temp/dataset/2/7_7.odb,Step-1,Increment      1: Step Time =    1.000,"PART-1-1",           101,       7.89882,       27.4278,            0.,NA,NA,"",       17.4706,      -17.2068,       3.02461,   3.87870E-06
C:/temp/dataset/2/7_7.odb,Step-1,Increment      1: Step Time =    1.000,"PART-1-1",           102,       6.74061,       20.0564,            0.,NA,NA,"",       14.5046,      -14.1519,       3.17919,   150.581E-06
C:/temp/dataset/2/7_7.odb,Step-1,Increment      1: Step Time =    1.000,"PART-1-1",           103,       6.76082,       17.7755,            0.,NA,NA,"",       13.6628,      -13.2385,       3.37882,   306.267E-06
C:/temp/dataset/2/7_7.odb,Step-1,Increment      1: Step Time =    1.000,"PART-1-1",           104,       7.34933,       13.0959,            0.,NA,NA,"",       12.0920,      -11.4079,       4.00947,   399.889E-06
C:/temp/dataset/2/7_7.odb,Step-1,Increment      1: Step Time =    1.000,"PART-1-1",           105,       12.5251,      -2.17932,            0.,NA,NA,"",       9.27403,      -5.74610,       7.27942,   6.35164E-03
C:/temp/dataset/2/7_7.odb,Step-1,Increment      1: Step Time =    1.000,"PART-1-1",           106,       11.8446,      -24.9441,            0.,NA,NA,"",   43.7866E-03,  -43.5264E-03,   4.76653E-03,   3.14945E-03
C:/temp/dataset/2/7_7.odb,Step-1,Increment      1: Step Time =    1.000,"PART-1-1",           107,       2.44158,      -2.66949,            0.,NA,NA,"",       5.92993,      -4.83621,       3.43148,   9.57615E-03
C:/temp/dataset/2/7_7.odb,Step-1,Increment      1: Step Time =    1.000,"PART-1-1",           108,       7.46163,      -2.37632,            0.,NA,NA,"",       7.48460,      -5.27782,       5.30696,   9.53250E-03
C:/temp/dataset/2/7_7.odb,Step-1,Increment      1: Step Time =    1.000,"PART-1-1",           109,       7.48217,       7.95809,            0.,NA,NA,"",       10.3649,      -9.33353,       4.50745,   11.9297E-03
C:/temp/dataset/2/7_7.odb,Step-1,Increment      1: Step Time =    1.000,"PART-1-1",           110,      -5.01446,       22.4347,            0.,NA,NA,"",       14.2248,      -14.1183,      -1.73721,   247.595E-09
C:/temp/dataset/2/7_7.odb,Step-1,Increment      1: Step Time =    1.000,"PART-1-1",           111,  -75.1424E-03,       22.3615,            0.,NA,NA,"",       14.5062,      -14.5040,   250.792E-03,   2.52735E-06
C:/temp/dataset/2/7_7.odb,Step-1,Increment      1: Step Time =    1.000,"PART-1-1",           112,       4.50776,       22.1530,            0.,NA,NA,"",       14.9546,      -14.8054,       2.10715,   13.1827E-06
C:/temp/dataset/2/7_7.odb,Step-1,Increment      1: Step Time =    1.000,"PART-1-1",           113,       7.06405,       15.4904,            0.,NA,NA,"",       12.8872,      -12.3468,       3.69272,   370.627E-06
C:/temp/dataset/2/7_7.odb,Step-1,Increment      1: Step Time =    1.000,"PART-1-1",           114,       7.46285,       10.5556,            0.,NA,NA,"",       11.2353,      -10.3910,       4.27312,   3.31939E-03
C:/temp/dataset/2/7_7.odb,Step-1,Increment      1: Step Time =    1.000,"PART-1-1",           115,      -2.89738,      -2.05905,            0.,NA,NA,"",       4.98301,      -4.74556,       1.51987,   7.67514E-03
C:/temp/dataset/2/7_7.odb,Step-1,Increment      1: Step Time =    1.000,"PART-1-1",           116,      -7.61206,      -10.6629,            0.,NA,NA,"",       2.01670,      -2.00042,   255.667E-03,   34.6508E-03
C:/temp/dataset/2/7_7.odb,Step-1,Increment      1: Step Time =    1.000,"PART-1-1",           117,      -6.85891,      -17.7385,            0.,NA,NA,"",   631.485E-03,  -575.480E-03,   259.992E-03,   67.2391E-03
C:/temp/dataset/2/7_7.odb,Step-1,Increment      1: Step Time =    1.000,"PART-1-1",           118,       11.9280,      -27.4687,            0.,NA,NA,"",   23.5077E-03,  -23.1985E-03,   3.80003E-03,   6.06055E-03
C:/temp/dataset/2/7_7.odb,Step-1,Increment      1: Step Time =    1.000,"PART-1-1",           119,      -7.44747,      -13.1413,            0.,NA,NA,"",       1.45442,      -1.42776,   277.200E-03,   40.6057E-03
C:/temp/dataset/2/7_7.odb,Step-1,Increment      1: Step Time =    1.000,"PART-1-1",           120,      -7.13169,      -15.4658,            0.,NA,NA,"",       1.00480,  -962.769E-03,   287.572E-03,   51.4908E-03
C:/temp/dataset/2/7_7.odb,Step-1,Increment      1: Step Time =    1.000,"PART-1-1",           121,      -8.02089,      -5.87394,            0.,NA,NA,"",       3.28211,      -3.28117,   78.1771E-03,   21.0799E-03
C:/temp/dataset/2/7_7.odb,Step-1,Increment      1: Step Time =    1.000,"PART-1-1",           122,      -7.74476,      -8.18529,            0.,NA,NA,"",       2.64693,      -2.63929,   201.070E-03,   26.7777E-03
C:/temp/dataset/2/7_7.odb,Step-1,Increment      1: Step Time =    1.000,"PART-1-1",           123,  -21.3834E-03,      -2.74811,            0.,NA,NA,"",       5.32159,      -4.66921,       2.55299,   11.7936E-03
C:/temp/dataset/2/7_7.odb,Step-1,Increment      1: Step Time =    1.000,"PART-1-1",           124,       4.94012,      -2.49525,            0.,NA,NA,"",       6.66898,      -5.05710,       4.34753,   9.66929E-03
C:/temp/dataset/2/7_7.odb,Step-1,Increment      1: Step Time =    1.000,"PART-1-1",           125,       10.0127,      -2.27482,            0.,NA,NA,"",       8.36833,      -5.51019,       6.29816,   8.90996E-03
C:/temp/dataset/2/7_7.odb,Step-1,Increment      1: Step Time =    1.000,"PART-1-1",           126,       10.2967,       27.4669,            0.,NA,NA,"",       17.8736,      -17.4240,       3.98351,   4.13160E-06
C:/temp/dataset/2/7_7.odb,Step-1,Increment      1: Step Time =    1.000,"PART-1-1",           127,       12.6750,       27.3103,            0.,NA,NA,"",       18.2456,      -17.5610,       4.95099,   1.71072E-06
C:/temp/dataset/2/7_7.odb,Step-1,Increment      1: Step Time =    1.000,"PART-1-1",           128,       2.52543,       27.2659,            0.,NA,NA,"",       16.7137,      -16.6904,   882.138E-03,   2.22915E-06
C:/temp/dataset/2/7_7.odb,Step-1,Increment      1: Step Time =    1.000,"PART-1-1",           129,       5.32711,       26.8707,            0.,NA,NA,"",       16.8908,      -16.7672,       2.03951,   2.08164E-06
C:/temp/dataset/2/7_7.odb,Step-1,Increment      1: Step Time =    1.000,"PART-1-1",           130,      -5.00948,       27.4462,            0.,NA,NA,"",       16.2730,      -16.1295,      -2.15632,   264.315E-09
C:/temp/dataset/2/7_7.odb,Step-1,Increment      1: Step Time =    1.000,"PART-1-1",           131,      -2.51658,       27.4324,            0.,NA,NA,"",       16.3742,      -16.3335,      -1.15491,   877.066E-09
C:/temp/dataset/2/7_7.odb,Step-1,Increment      1: Step Time =    1.000,"PART-1-1",           132,      -9.99211,       27.4668,            0.,NA,NA,"",       16.2596,      -15.7191,      -4.15729,   61.7097E-09
C:/temp/dataset/2/7_7.odb,Step-1,Increment      1: Step Time =    1.000,"PART-1-1",           133,       12.5029,       21.6680,            0.,NA,NA,"",       16.1939,      -15.2824,       5.35615,   86.3717E-06
C:/temp/dataset/2/7_7.odb,Step-1,Increment      1: Step Time =    1.000,"PART-1-1",           134,      -12.7198,      -9.27859,            0.,NA,NA,"",       2.41035,      -2.21174,  -958.139E-03,   34.0742E-03
C:/temp/dataset/2/7_7.odb,Step-1,Increment      1: Step Time =    1.000,"PART-1-1",           135,      -12.2206,      -21.4876,            0.,NA,NA,"",   309.727E-03,  -166.129E-03,  -261.404E-03,   40.5230E-03
C:/temp/dataset/2/7_7.odb,Step-1,Increment      1: Step Time =    1.000,"PART-1-1",           136,       12.4390,       11.8581,            0.,NA,NA,"",       12.9046,      -11.3442,       6.15129,   4.63244E-03
C:/temp/dataset/2/7_7.odb,Step-1,Increment      1: Step Time =    1.000,"PART-1-1",           137,      -12.6285,      -12.0158,            0.,NA,NA,"",       1.74659,      -1.56540,  -774.668E-03,   37.2559E-03
C:/temp/dataset/2/7_7.odb,Step-1,Increment      1: Step Time =    1.000,"PART-1-1",           138,      -12.4213,      -14.8709,            0.,NA,NA,"",       1.14930,  -991.343E-03,  -581.488E-03,   38.4406E-03
C:/temp/dataset/2/7_7.odb,Step-1,Increment      1: Step Time =    1.000,"PART-1-1",           139,       12.2989,       14.8029,            0.,NA,NA,"",       13.8123,      -12.5114,       5.85195,   860.777E-06
C:/temp/dataset/2/7_7.odb,Step-1,Increment      1: Step Time =    1.000,"PART-1-1",           140,       11.7182,       18.2155,            0.,NA,NA,"",       14.8233,      -13.8311,       5.33181,   328.630E-06
C:/temp/dataset/2/7_7.odb,Step-1,Increment      1: Step Time =    1.000,"PART-1-1",           141,      -12.3380,      -4.01281,            0.,NA,NA,"",       3.87676,      -3.69030,      -1.18783,   26.2936E-03
C:/temp/dataset/2/7_7.odb,Step-1,Increment      1: Step Time =    1.000,"PART-1-1",           142,       12.5089,       6.21106,            0.,NA,NA,"",       11.2294,      -9.05916,       6.63553,   11.8792E-03
C:/temp/dataset/2/7_7.odb,Step-1,Increment      1: Step Time =    1.000,"PART-1-1",           143,      -10.9765,      -1.21375,            0.,NA,NA,"",       4.71178,      -4.61123,  -968.214E-03,   25.6909E-03
C:/temp/dataset/2/7_7.odb,Step-1,Increment      1: Step Time =    1.000,"PART-1-1",           144,      -11.4273,       2.02370,            0.,NA,NA,"",       5.76508,      -5.62241,      -1.27461,   15.7404E-03
C:/temp/dataset/2/7_7.odb,Step-1,Increment      1: Step Time =    1.000,"PART-1-1",           145,      -12.7154,      -6.64001,            0.,NA,NA,"",       3.12302,      -2.91392,      -1.12353,   30.4219E-03
C:/temp/dataset/2/7_7.odb,Step-1,Increment      1: Step Time =    1.000,"PART-1-1",           146,      -11.7762,      -18.1315,            0.,NA,NA,"",   590.775E-03,  -481.940E-03,  -341.685E-03,   32.7307E-03
C:/temp/dataset/2/7_7.odb,Step-1,Increment      1: Step Time =    1.000,"PART-1-1",           147,      -12.2481,      -24.4184,            0.,NA,NA,"",   163.725E-03,  -33.9800E-03,  -160.160E-03,   39.2488E-03
C:/temp/dataset/2/7_7.odb,Step-1,Increment      1: Step Time =    1.000,"PART-1-1",           148,       12.5340,       3.42208,            0.,NA,NA,"",       10.4890,      -7.93317,       6.86175,   8.28037E-03
C:/temp/dataset/2/7_7.odb,Step-1,Increment      1: Step Time =    1.000,"PART-1-1",           149,       12.5428,   630.306E-03,            0.,NA,NA,"",       9.83630,      -6.83267,       7.07583,   7.10406E-03
C:/temp/dataset/2/7_7.odb,Step-1,Increment      1: Step Time =    1.000,"PART-1-1",           150,       12.5001,       9.03097,            0.,NA,NA,"",       12.0505,      -10.2067,       6.40598,   9.30809E-03
C:/temp/dataset/2/7_7.odb,Step-1,Increment      1: Step Time =    1.000,"PART-1-1",           151,       12.7192,       24.5718,            0.,NA,NA,"",       17.2671,      -16.4659,       5.19884,   16.3231E-06
C:/temp/dataset/2/7_7.odb,Step-1,Increment      1: Step Time =    1.000,"PART-1-1",           152,       2.66783,      -27.4286,            0.,NA,NA,"",   41.6104E-03,  -40.5914E-03,   9.15197E-03,   11.8601E-03
C:/temp/dataset/2/7_7.odb,Step-1,Increment      1: Step Time =    1.000,"PART-1-1",           153,       8.86089,      -27.4494,            0.,NA,NA,"",   26.6958E-03,  -26.6578E-03,   1.42380E-03,   6.77307E-03
C:/temp/dataset/2/7_7.odb,Step-1,Increment      1: Step Time =    1.000,"PART-1-1",           154,       5.76511,      -27.4328,            0.,NA,NA,"",   33.6788E-03,  -33.5399E-03,   3.05512E-03,   8.76012E-03
C:/temp/dataset/2/7_7.odb,Step-1,Increment      1: Step Time =    1.000,"PART-1-1",           155,  -414.647E-03,      -27.4330,            0.,NA,NA,"",   47.0248E-03,  -41.7171E-03,   21.7030E-03,   16.9726E-03
C:/temp/dataset/2/7_7.odb,Step-1,Increment      1: Step Time =    1.000,"PART-1-1",           156,      -3.42691,      -27.4460,            0.,NA,NA,"",   43.7680E-03,  -26.8280E-03,   34.5818E-03,   21.9723E-03
C:/temp/dataset/2/7_7.odb,Step-1,Increment      1: Step Time =    1.000,"PART-1-1",           157,      -6.36574,      -27.4272,            0.,NA,NA,"",   28.0184E-03,   2.63803E-03,   27.8939E-03,   18.8810E-03
C:/temp/dataset/2/7_7.odb,Step-1,Increment      1: Step Time =    1.000,"PART-1-1",           158,       10.5238,       25.0033,            0.,NA,NA,"",       17.0025,      -16.4546,       4.28166,   16.3366E-06
C:/temp/dataset/2/7_7.odb,Step-1,Increment      1: Step Time =    1.000,"PART-1-1",           159,       6.26912,       22.1485,            0.,NA,NA,"",       15.2142,      -14.9516,       2.81426,   43.8414E-06
C:/temp/dataset/2/7_7.odb,Step-1,Increment      1: Step Time =    1.000,"PART-1-1",           160,      -5.96402,      -2.70245,            0.,NA,NA,"",       4.39654,      -4.36162,   552.998E-03,   22.4053E-03
C:/temp/dataset/2/7_7.odb,Step-1,Increment      1: Step Time =    1.000,"PART-1-1",           161,      -12.5033,       22.4816,            0.,NA,NA,"",       14.3174,      -13.5079,      -4.74597,   74.2198E-09
C:/temp/dataset/2/7_7.odb,Step-1,Increment      1: Step Time =    1.000,"PART-1-1",           162,      -2.53325,       24.9024,            0.,NA,NA,"",       15.3463,      -15.3170,  -949.009E-03,   1.02385E-06
C:/temp/dataset/2/7_7.odb,Step-1,Increment      1: Step Time =    1.000,"PART-1-1",           163,       4.43197,       24.4161,            0.,NA,NA,"",       15.8200,      -15.7071,       1.88659,   5.60725E-06
C:/temp/dataset/2/7_7.odb,Step-1,Increment      1: Step Time =    1.000,"PART-1-1",           164,      -10.2797,      -8.84555,            0.,NA,NA,"",       2.40747,      -2.37522,  -392.710E-03,   17.1228E-03
C:/temp/dataset/2/7_7.odb,Step-1,Increment      1: Step Time =    1.000,"PART-1-1",           165,       2.21534,  -332.134E-03,            0.,NA,NA,"",       6.49390,      -5.65884,       3.18565,   3.10474E-03
C:/temp/dataset/2/7_7.odb,Step-1,Increment      1: Step Time =    1.000,"PART-1-1",           166,  -74.2209E-03,       24.8536,            0.,NA,NA,"",       15.5040,      -15.5040,   41.7596E-03,   2.15035E-06
C:/temp/dataset/2/7_7.odb,Step-1,Increment      1: Step Time =    1.000,"PART-1-1",           167,       2.30693,       24.7164,            0.,NA,NA,"",       15.6815,      -15.6490,       1.00870,   3.41888E-06
C:/temp/dataset/2/7_7.odb,Step-1,Increment      1: Step Time =    1.000,"PART-1-1",           168,       9.79368,       13.9045,            0.,NA,NA,"",       12.9151,      -11.9400,       4.92299,   753.127E-06
C:/temp/dataset/2/7_7.odb,Step-1,Increment      1: Step Time =    1.000,"PART-1-1",           169,       9.30777,       16.4521,            0.,NA,NA,"",       13.6872,      -12.9217,       4.51323,   485.210E-06
C:/temp/dataset/2/7_7.odb,Step-1,Increment      1: Step Time =    1.000,"PART-1-1",           170,      -2.35985,       1.11806,            0.,NA,NA,"",       6.04889,      -5.85388,       1.52354,   12.3403E-03
C:/temp/dataset/2/7_7.odb,Step-1,Increment      1: Step Time =    1.000,"PART-1-1",           171,      -9.94133,      -13.9778,            0.,NA,NA,"",       1.19647,      -1.18316,  -177.972E-03,   16.4155E-03
C:/temp/dataset/2/7_7.odb,Step-1,Increment      1: Step Time =    1.000,"PART-1-1",           172,       4.80988,   33.7751E-03,            0.,NA,NA,"",       7.25568,      -5.97709,       4.11331,   6.51244E-03
C:/temp/dataset/2/7_7.odb,Step-1,Increment      1: Step Time =    1.000,"PART-1-1",           173,       9.94126,       11.1894,            0.,NA,NA,"",       12.0443,      -10.8585,       5.21118,   3.61412E-03
C:/temp/dataset/2/7_7.odb,Step-1,Increment      1: Step Time =    1.000,"PART-1-1",           174,       7.43598,   226.782E-03,            0.,NA,NA,"",       8.07047,      -6.25263,       5.10266,   10.0777E-03
C:/temp/dataset/2/7_7.odb,Step-1,Increment      1: Step Time =    1.000,"PART-1-1",           175,      -7.50368,       24.9336,            0.,NA,NA,"",       15.2000,      -14.9118,      -2.94597,   72.8564E-09
C:/temp/dataset/2/7_7.odb,Step-1,Increment      1: Step Time =    1.000,"PART-1-1",           176,      -10.1536,      -11.3797,            0.,NA,NA,"",       1.76981,      -1.74750,  -280.141E-03,   16.7429E-03
C:/temp/dataset/2/7_7.odb,Step-1,Increment      1: Step Time =    1.000,"PART-1-1",           177,       6.92724,       24.6415,            0.,NA,NA,"",       16.2622,      -16.0072,       2.86890,   15.1604E-06
C:/temp/dataset/2/7_7.odb,Step-1,Increment      1: Step Time =    1.000,"PART-1-1",           178,      -9.99868,       24.9580,            0.,NA,NA,"",       15.2328,      -14.7120,      -3.94912,   58.0645E-09
C:/temp/dataset/2/7_7.odb,Step-1,Increment      1: Step Time =    1.000,"PART-1-1",           179,       8.37028,       18.0705,            0.,NA,NA,"",       14.0727,      -13.4922,       4.00038,   296.805E-06
C:/temp/dataset/2/7_7.odb,Step-1,Increment      1: Step Time =    1.000,"PART-1-1",           180,      -10.4068,      -6.54987,            0.,NA,NA,"",       3.04608,      -3.00094,  -522.445E-03,   20.8766E-03
C:/temp/dataset/2/7_7.odb,Step-1,Increment      1: Step Time =    1.000,"PART-1-1",           181,      -8.52723,      -17.8680,            0.,NA,NA,"",   521.010E-03,  -518.278E-03,   53.2845E-03,   26.8417E-03
C:/temp/dataset/2/7_7.odb,Step-1,Increment      1: Step Time =    1.000,"PART-1-1",           182,       9.99063,       8.47585,            0.,NA,NA,"",       11.1827,      -9.75918,       5.45998,   9.90813E-03
C:/temp/dataset/2/7_7.odb,Step-1,Increment      1: Step Time =    1.000,"PART-1-1",           183,      -6.87511,      -22.3968,            0.,NA,NA,"",   161.934E-03,  -105.798E-03,   122.594E-03,   35.0977E-03
C:/temp/dataset/2/7_7.odb,Step-1,Increment      1: Step Time =    1.000,"PART-1-1",           184,       7.48189,       5.34092,            0.,NA,NA,"",       9.51725,      -8.25361,       4.73877,   19.2282E-03
C:/temp/dataset/2/7_7.odb,Step-1,Increment      1: Step Time =    1.000,"PART-1-1",           185,       10.0207,   425.902E-03,            0.,NA,NA,"",       8.94419,      -6.54249,       6.09872,   8.97211E-03
C:/temp/dataset/2/7_7.odb,Step-1,Increment      1: Step Time =    1.000,"PART-1-1",           186,      -8.86720,      -3.63325,            0.,NA,NA,"",       3.93594,      -3.92823,  -246.270E-03,   25.2684E-03
C:/temp/dataset/2/7_7.odb,Step-1,Increment      1: Step Time =    1.000,"PART-1-1",           187,       10.0155,       5.77118,            0.,NA,NA,"",       10.3607,      -8.65657,       5.69272,   12.6250E-03
C:/temp/dataset/2/7_7.odb,Step-1,Increment      1: Step Time =    1.000,"PART-1-1",           188,       9.07540,       20.2179,            0.,NA,NA,"",       14.9854,      -14.4128,       4.10277,   177.820E-06
C:/temp/dataset/2/7_7.odb,Step-1,Increment      1: Step Time =    1.000,"PART-1-1",           189,       5.51479,      -24.9218,            0.,NA,NA,"",   57.4255E-03,  -57.3529E-03,   2.88685E-03,   7.21392E-03
C:/temp/dataset/2/7_7.odb,Step-1,Increment      1: Step Time =    1.000,"PART-1-1",           190,       2.33502,      -24.9114,            0.,NA,NA,"",   72.5735E-03,  -70.6601E-03,   16.5551E-03,   10.9414E-03
C:/temp/dataset/2/7_7.odb,Step-1,Increment      1: Step Time =    1.000,"PART-1-1",           191,      -3.83494,      -24.9465,            0.,NA,NA,"",   107.675E-03,  -68.2363E-03,   83.2934E-03,   30.8079E-03
C:/temp/dataset/2/7_7.odb,Step-1,Increment      1: Step Time =    1.000,"PART-1-1",           192,       8.68706,      -24.9229,            0.,NA,NA,"",   48.1298E-03,  -48.1281E-03,   402.693E-06,   4.83347E-03
C:/temp/dataset/2/7_7.odb,Step-1,Increment      1: Step Time =    1.000,"PART-1-1",           193,  -793.545E-03,      -24.9263,            0.,NA,NA,"",   93.3951E-03,  -80.2770E-03,   47.7310E-03,   22.2130E-03
C:/temp/dataset/2/7_7.odb,Step-1,Increment      1: Step Time =    1.000,"PART-1-1",           194,      -10.0041,       22.4687,            0.,NA,NA,"",       14.2141,      -13.7127,      -3.74212,   68.1200E-09
C:/temp/dataset/2/7_7.odb,Step-1,Increment      1: Step Time =    1.000,"PART-1-1",           195,       7.76291,       22.5689,            0.,NA,NA,"",       15.6157,      -15.2458,       3.37839,   50.9513E-06
C:/temp/dataset/2/7_7.odb,Step-1,Increment      1: Step Time =    1.000,"PART-1-1",           196,       10.0314,       3.09975,            0.,NA,NA,"",       9.61161,      -7.58403,       5.90469,   10.5549E-03
C:/temp/dataset/2/7_7.odb,Step-1,Increment      1: Step Time =    1.000,"PART-1-1",           197,       7.45157,       2.78517,            0.,NA,NA,"",       8.74675,      -7.22961,       4.92326,   15.5463E-03
C:/temp/dataset/2/7_7.odb,Step-1,Increment      1: Step Time =    1.000,"PART-1-1",           198,       1.23926,       2.17480,            0.,NA,NA,"",       7.01766,      -6.48379,       2.68477,   18.6338E-03
C:/temp/dataset/2/7_7.odb,Step-1,Increment      1: Step Time =    1.000,"PART-1-1",           199,       5.89388,       23.8379,            0.,NA,NA,"",       15.8004,      -15.5979,       2.52177,   11.3131E-06
C:/temp/dataset/2/7_7.odb,Step-1,Increment      1: Step Time =    1.000,"PART-1-1",           200,       4.70825,       2.52712,            0.,NA,NA,"",       7.91752,      -6.89235,       3.89650,   12.2764E-03
C:/temp/dataset/2/7_7.odb,Step-1,Increment      1: Step Time =    1.000,"PART-1-1",           201,      -6.67563,      -24.8783,            0.,NA,NA,"",   76.8420E-03,  -30.8903E-03,   70.3596E-03,   26.3789E-03
C:/temp/dataset/2/7_7.odb,Step-1,Increment      1: Step Time =    1.000,"PART-1-1",           202,      -1.93740,       2.90022,            0.,NA,NA,"",       6.67944,      -6.49166,       1.57266,   22.9356E-03
C:/temp/dataset/2/7_7.odb,Step-1,Increment      1: Step Time =    1.000,"PART-1-1",           203,      -4.27328,      -22.5070,            0.,NA,NA,"",   188.670E-03,  -128.278E-03,   138.351E-03,   48.0945E-03
C:/temp/dataset/2/7_7.odb,Step-1,Increment      1: Step Time =    1.000,"PART-1-1",           204,      -7.29195,  -216.826E-03,            0.,NA,NA,"",       5.10631,      -5.10611,   45.6511E-03,   22.6536E-03
C:/temp/dataset/2/7_7.odb,Step-1,Increment      1: Step Time =    1.000,"PART-1-1",           205,      -4.39370,   432.763E-03,            0.,NA,NA,"",       5.56296,      -5.48955,   900.791E-03,   16.3626E-03
C:/temp/dataset/2/7_7.odb,Step-1,Increment      1: Step Time =    1.000,"PART-1-1",           206,      -1.20581,      -22.4416,            0.,NA,NA,"",   121.809E-03,  -107.764E-03,   56.7837E-03,   29.2255E-03
C:/temp/dataset/2/7_7.odb,Step-1,Increment      1: Step Time =    1.000,"PART-1-1",           207,      -4.88725,       2.78210,            0.,NA,NA,"",       6.27028,      -6.23793,   636.177E-03,   20.7817E-03
C:/temp/dataset/2/7_7.odb,Step-1,Increment      1: Step Time =    1.000,"PART-1-1",           208,      -8.02678,       2.39768,            0.,NA,NA,"",       5.92447,      -5.91711,  -295.322E-03,   20.3655E-03
C:/temp/dataset/2/7_7.odb,Step-1,Increment      1: Step Time =    1.000,"PART-1-1",           209,       8.51144,      -22.4401,            0.,NA,NA,"",   61.6856E-03,  -61.6630E-03,  -1.66722E-03,   2.79126E-03
C:/temp/dataset/2/7_7.odb,Step-1,Increment      1: Step Time =    1.000,"PART-1-1",           210,       5.25488,      -22.4306,            0.,NA,NA,"",   70.0123E-03,  -70.0123E-03,  -39.0013E-06,   4.97902E-03
C:/temp/dataset/2/7_7.odb,Step-1,Increment      1: Step Time =    1.000,"PART-1-1",           211,       2.00226,      -22.4217,            0.,NA,NA,"",   88.2833E-03,  -86.8487E-03,   15.8508E-03,   10.9834E-03
C:/temp/dataset/2/7_7.odb,Step-1,Increment      1: Step Time =    1.000,"PART-1-1",           212,      -9.28570,      -27.3600,            0.,NA,NA,"",   26.0902E-03,   24.2086E-03,  -9.72832E-03,   10.8544E-03
C:/temp/dataset/2/7_7.odb,Step-1,Increment      1: Step Time =    1.000,"PART-1-1",           213,       11.7596,      -22.4488,            0.,NA,NA,"",   58.1933E-03,  -57.9764E-03,   5.01977E-03,   970.363E-06
C:/temp/dataset/2/7_7.odb,Step-1,Increment      1: Step Time =    1.000,"PART-1-1",           214,      -12.4952,       27.4851,            0.,NA,NA,"",       16.3527,      -15.5162,      -5.16317,   71.0222E-09
C:/temp/dataset/2/7_7.odb,Step-1,Increment      1: Step Time =    1.000,"PART-1-1",           215,      -12.1608,      -27.2494,            0.,NA,NA,"",   71.6878E-03,   9.28650E-03,  -71.0837E-03,   35.2111E-03
C:/temp/dataset/2/7_7.odb,Step-1,Increment      1: Step Time =    1.000,"PART-1-1",           216,      -6.92277,      -20.0189,            0.,NA,NA,"",   313.830E-03,  -257.699E-03,   179.110E-03,   34.3683E-03
C:/temp/dataset/2/7_7.odb,Step-1,Increment      1: Step Time =    1.000,"PART-1-1",           217,       10.3403,       22.5364,            0.,NA,NA,"",       16.0679,      -15.4493,       4.41540,   74.6884E-06
C:/temp/dataset/2/7_7.odb,Step-1,Increment      1: Step Time =    1.000,"PART-1-1",           218,      -9.38591,      -16.3373,            0.,NA,NA,"",   754.117E-03,  -751.765E-03,  -59.5090E-03,   17.7280E-03
C:/temp/dataset/2/7_7.odb,Step-1,Increment      1: Step Time =    1.000,"PART-1-1",           219,      -9.56004,      -22.0160,            0.,NA,NA,"",   116.908E-03,  -111.099E-03,  -36.3945E-03,   14.8346E-03
C:/temp/dataset/2/7_7.odb,Step-1,Increment      1: Step Time =    1.000,"PART-1-1",           220,      -9.49058,      -24.6874,            0.,NA,NA,"",   24.0903E-03,  -10.3328E-03,  -21.7618E-03,   14.5798E-03
C:/temp/dataset/2/7_7.odb,Step-1,Increment      1: Step Time =    1.000,"PART-1-1",           221,  -968.003E-03,   33.9082E-03,            0.,NA,NA,"",       5.94023,      -5.57540,       2.04969,   6.18687E-03
C:/temp/dataset/2/7_7.odb,Step-1,Increment      1: Step Time =    1.000,"PART-1-1",           222,   333.674E-03,      -1.00763,            0.,NA,NA,"",       5.88428,      -5.29697,       2.56258,   723.581E-06
C:/temp/dataset/2/7_7.odb,Step-1,Increment      1: Step Time =    1.000,"PART-1-1",           223,      -10.5623,      -4.72446,            0.,NA,NA,"",       3.59249,      -3.53200,  -656.482E-03,   24.2369E-03
C:/temp/dataset/2/7_7.odb,Step-1,Increment      1: Step Time =    1.000,"PART-1-1",           224,      -5.01319,       24.9269,            0.,NA,NA,"",       15.2431,      -15.1184,      -1.94612,   293.400E-09
C:/temp/dataset/2/7_7.odb,Step-1,Increment      1: Step Time =    1.000,"PART-1-1",           225,      -9.24174,      -19.5473,            0.,NA,NA,"",   305.810E-03,  -304.925E-03,  -23.2515E-03,   8.96010E-03
C:/temp/dataset/2/7_7.odb,Step-1,Increment      1: Step Time =    1.000,"PART-1-1",           226,       8.53639,       25.1316,            0.,NA,NA,"",       16.7042,      -16.3391,       3.47340,   17.9969E-06
C:/temp/dataset/2/7_7.odb,Step-1,Increment      1: Step Time =    1.000,"PART-1-1",           227,       8.85572,       23.3093,            0.,NA,NA,"",       16.0792,      -15.6347,       3.75470,   43.2331E-06
C:/temp/dataset/2/7_7.odb,Step-1,Increment      1: Step Time =    1.000,"PART-1-1",           228,      -13.7516,       22.4908,            0.,NA,NA,"",       14.3971,      -13.4067,      -5.24764,   72.5351E-09
C:/temp/dataset/2/7_7.odb,Step-1,Increment      1: Step Time =    1.000,"PART-1-1",           229,          -15.,         21.25,            0.,NA,NA,"",       13.9928,      -12.8039,      -5.64428,   73.7820E-09
C:/temp/dataset/2/7_7.odb,Step-1,Increment      1: Step Time =    1.000,"PART-1-1",           230,        -13.75,           20.,            0.,NA,NA,"",       13.3911,      -12.4074,      -5.03769,   78.7425E-09
C:/temp/dataset/2/7_7.odb,Step-1,Increment      1: Step Time =    1.000,"PART-1-1",           231,      -12.5016,       21.2408,            0.,NA,NA,"",       13.8132,      -13.0101,      -4.64106,   76.2484E-09
C:/temp/dataset/2/7_7.odb,Step-1,Increment      1: Step Time =    1.000,"PART-1-1",           232,      -9.99605,       28.7334,            0.,NA,NA,"",       16.7782,      -16.2270,      -4.26530,   69.0004E-09
C:/temp/dataset/2/7_7.odb,Step-1,Increment      1: Step Time =    1.000,"PART-1-1",           233,        -11.25,           30.,            0.,NA,NA,"",       17.3296,      -16.6299,      -4.87486,   74.2730E-09
C:/temp/dataset/2/7_7.odb,Step-1,Increment      1: Step Time =    1.000,"PART-1-1",           234,      -12.4976,       28.7426,            0.,NA,NA,"",       16.8650,      -16.0205,      -5.26979,   71.6063E-09
C:/temp/dataset/2/7_7.odb,Step-1,Increment      1: Step Time =    1.000,"PART-1-1",           235,      -11.2437,       27.4760,            0.,NA,NA,"",       16.2981,      -15.6176,      -4.66023,   65.9186E-09
C:/temp/dataset/2/7_7.odb,Step-1,Increment      1: Step Time =    1.000,"PART-1-1",           236,      -8.74541,       27.4572,            0.,NA,NA,"",       16.2370,      -15.8200,      -3.65625,   56.7681E-09
C:/temp/dataset/2/7_7.odb,Step-1,Increment      1: Step Time =    1.000,"PART-1-1",           237,      -7.49936,       28.7238,            0.,NA,NA,"",       16.7537,      -16.4329,      -3.26271,   59.8237E-09
C:/temp/dataset/2/7_7.odb,Step-1,Increment      1: Step Time =    1.000,"PART-1-1",           238,         -8.75,           30.,            0.,NA,NA,"",       17.2793,      -16.8399,      -3.87176,   73.6099E-09
C:/temp/dataset/2/7_7.odb,Step-1,Increment      1: Step Time =    1.000,"PART-1-1",           239,      -10.0020,       21.2344,            0.,NA,NA,"",       13.7090,      -13.2176,      -3.63758,   78.5165E-09
C:/temp/dataset/2/7_7.odb,Step-1,Increment      1: Step Time =    1.000,"PART-1-1",           240,      -11.2537,       22.4752,            0.,NA,NA,"",       14.2566,      -13.6103,      -4.24405,   70.4514E-09
C:/temp/dataset/2/7_7.odb,Step-1,Increment      1: Step Time =    1.000,"PART-1-1",           241,        -11.25,           20.,            0.,NA,NA,"",       13.2468,      -12.6174,      -4.03459,   84.0180E-09
C:/temp/dataset/2/7_7.odb,Step-1,Increment      1: Step Time =    1.000,"PART-1-1",           242,      -6.25410,       27.4469,            0.,NA,NA,"",       16.2438,      -16.0252,      -2.65577,   150.365E-09
C:/temp/dataset/2/7_7.odb,Step-1,Increment      1: Step Time =    1.000,"PART-1-1",           243,      -7.50120,       26.1906,            0.,NA,NA,"",       15.7153,      -15.4164,      -3.05060,   63.1610E-09
C:/temp/dataset/2/7_7.odb,Step-1,Increment      1: Step Time =    1.000,"PART-1-1",           244,      -6.25844,       24.9303,            0.,NA,NA,"",       15.2130,      -15.0151,      -2.44605,   184.522E-09
C:/temp/dataset/2/7_7.odb,Step-1,Increment      1: Step Time =    1.000,"PART-1-1",           245,      -5.01133,       26.1865,            0.,NA,NA,"",       15.7580,      -15.6240,      -2.05122,   245.132E-09
C:/temp/dataset/2/7_7.odb,Step-1,Increment      1: Step Time =    1.000,"PART-1-1",           246,       1.11906,       22.3143,            0.,NA,NA,"",       14.6038,      -14.5854,   733.922E-03,   4.15920E-06
C:/temp/dataset/2/7_7.odb,Step-1,Increment      1: Step Time =    1.000,"PART-1-1",           247,  -37.5712E-03,       21.1808,            0.,NA,NA,"",       14.0381,      -14.0334,   365.083E-03,   1.93485E-06
C:/temp/dataset/2/7_7.odb,Step-1,Increment      1: Step Time =    1.000,"PART-1-1",           248,          1.25,           20.,            0.,NA,NA,"",       13.7030,      -13.6678,   980.921E-03,   4.21541E-06
C:/temp/dataset/2/7_7.odb,Step-1,Increment      1: Step Time =    1.000,"PART-1-1",           249,       2.40663,       21.1336,            0.,NA,NA,"",       14.2837,      -14.2198,       1.34976,   8.91812E-06
C:/temp/dataset/2/7_7.odb,Step-1,Increment      1: Step Time =    1.000,"PART-1-1",           250,  -46.9838E-03,       26.1228,            0.,NA,NA,"",       16.0156,      -16.0155,  -53.9602E-03,   1.63321E-06
C:/temp/dataset/2/7_7.odb,Step-1,Increment      1: Step Time =    1.000,"PART-1-1",           251,       1.11635,       24.7850,            0.,NA,NA,"",       15.5853,      -15.5765,   525.232E-03,   2.77902E-06
C:/temp/dataset/2/7_7.odb,Step-1,Increment      1: Step Time =    1.000,"PART-1-1",           252,       2.41618,       25.9912,            0.,NA,NA,"",       16.1973,      -16.1697,   945.421E-03,   2.23957E-06
C:/temp/dataset/2/7_7.odb,Step-1,Increment      1: Step Time =    1.000,"PART-1-1",           253,       1.25284,       27.3289,            0.,NA,NA,"",       16.6127,      -16.6087,   366.229E-03,   1.96232E-06
C:/temp/dataset/2/7_7.odb,Step-1,Increment      1: Step Time =    1.000,"PART-1-1",           254,       11.4216,       22.1022,            0.,NA,NA,"",       16.1239,      -15.3659,       4.88578,   68.6972E-06
C:/temp/dataset/2/7_7.odb,Step-1,Increment      1: Step Time =    1.000,"PART-1-1",           255,       9.70783,       21.3771,            0.,NA,NA,"",       15.5266,      -14.9310,       4.25909,   116.098E-06
C:/temp/dataset/2/7_7.odb,Step-1,Increment      1: Step Time =    1.000,"PART-1-1",           256,       10.3968,       19.2167,            0.,NA,NA,"",       14.8891,      -14.1221,       4.71737,   213.349E-06
C:/temp/dataset/2/7_7.odb,Step-1,Increment      1: Step Time =    1.000,"PART-1-1",           257,       12.1105,       19.9418,            0.,NA,NA,"",       15.5067,      -14.5568,       5.34390,   183.158E-06
C:/temp/dataset/2/7_7.odb,Step-1,Increment      1: Step Time =    1.000,"PART-1-1",           258,       11.6215,       24.7876,            0.,NA,NA,"",       17.1292,      -16.4602,       4.74025,   16.0796E-06
C:/temp/dataset/2/7_7.odb,Step-1,Increment      1: Step Time =    1.000,"PART-1-1",           259,       12.6971,       25.9410,            0.,NA,NA,"",       17.7542,      -17.0135,       5.07491,   7.96724E-06
C:/temp/dataset/2/7_7.odb,Step-1,Increment      1: Step Time =    1.000,"PART-1-1",           260,       11.4859,       27.3886,            0.,NA,NA,"",       18.0539,      -17.4925,       4.46725,   2.45837E-06
C:/temp/dataset/2/7_7.odb,Step-1,Increment      1: Step Time =    1.000,"PART-1-1",           261,       10.4103,       26.2351,            0.,NA,NA,"",       17.4361,      -16.9393,       4.13258,   10.4260E-06
C:/temp/dataset/2/7_7.odb,Step-1,Increment      1: Step Time =    1.000,"PART-1-1",           262,       5.88041,       17.6377,            0.,NA,NA,"",       13.4562,      -13.1090,       3.03686,   281.299E-06
C:/temp/dataset/2/7_7.odb,Step-1,Increment      1: Step Time =    1.000,"PART-1-1",           263,       6.75071,       18.9160,            0.,NA,NA,"",       14.0823,      -13.6952,       3.27901,   217.974E-06
C:/temp/dataset/2/7_7.odb,Step-1,Increment      1: Step Time =    1.000,"PART-1-1",           264,       5.87030,       20.0282,            0.,NA,NA,"",       14.3497,      -14.0674,       2.83228,   101.181E-06
C:/temp/dataset/2/7_7.odb,Step-1,Increment      1: Step Time =    1.000,"PART-1-1",           265,            5.,         18.75,            0.,NA,NA,"",       13.7279,      -13.4813,       2.59029,   245.934E-06
C:/temp/dataset/2/7_7.odb,Step-1,Increment      1: Step Time =    1.000,"PART-1-1",           266,       12.3690,       13.3305,            0.,NA,NA,"",       13.3535,      -11.9284,       6.00252,   1.96459E-03
C:/temp/dataset/2/7_7.odb,Step-1,Increment      1: Step Time =    1.000,"PART-1-1",           267,       13.7195,       12.1790,            0.,NA,NA,"",       13.3505,      -11.5844,       6.63601,   4.41433E-03
C:/temp/dataset/2/7_7.odb,Step-1,Increment      1: Step Time =    1.000,"PART-1-1",           268,           15.,       13.9583,            0.,NA,NA,"",       14.2391,      -12.3991,       7.00096,   1.36569E-03
C:/temp/dataset/2/7_7.odb,Step-1,Increment      1: Step Time =    1.000,"PART-1-1",           269,       13.6495,       15.1098,            0.,NA,NA,"",       14.2485,      -12.7472,       6.36626,   755.598E-06
C:/temp/dataset/2/7_7.odb,Step-1,Increment      1: Step Time =    1.000,"PART-1-1",           270,       12.5214,       4.81657,            0.,NA,NA,"",       10.8487,      -8.49363,       6.74931,   10.5592E-03
C:/temp/dataset/2/7_7.odb,Step-1,Increment      1: Step Time =    1.000,"PART-1-1",           271,       13.7670,       3.58604,            0.,NA,NA,"",       10.9324,      -8.10691,       7.33456,   10.0278E-03
C:/temp/dataset/2/7_7.odb,Step-1,Increment      1: Step Time =    1.000,"PART-1-1",           272,           15.,       5.20833,            0.,NA,NA,"",       11.7537,      -8.87990,       7.70047,   11.5784E-03
C:/temp/dataset/2/7_7.odb,Step-1,Increment      1: Step Time =    1.000,"PART-1-1",           273,       13.7545,       6.43886,            0.,NA,NA,"",       11.6787,      -9.26478,       7.11024,   11.1276E-03
C:/temp/dataset/2/7_7.odb,Step-1,Increment      1: Step Time =    1.000,"PART-1-1",           274,       13.7625,      -2.13133,            0.,NA,NA,"",       9.72669,      -5.86391,       7.76035,   3.86645E-03
C:/temp/dataset/2/7_7.odb,Step-1,Increment      1: Step Time =    1.000,"PART-1-1",           275,       12.5125,      -3.58966,            0.,NA,NA,"",       9.03130,      -5.20108,       7.38330,   3.53974E-03
C:/temp/dataset/2/7_7.odb,Step-1,Increment      1: Step Time =    1.000,"PART-1-1",           276,         13.75,           -5.,            0.,NA,NA,"",       9.28531,      -4.75068,       7.97798,   733.228E-06
C:/temp/dataset/2/7_7.odb,Step-1,Increment      1: Step Time =    1.000,"PART-1-1",           277,           15.,      -3.54167,            0.,NA,NA,"",       9.95224,      -5.41564,       8.34973,   864.099E-06
C:/temp/dataset/2/7_7.odb,Step-1,Increment      1: Step Time =    1.000,"PART-1-1",           278,      -9.21387,      -6.21191,            0.,NA,NA,"",       3.14567,      -3.13747,  -227.029E-03,   17.6832E-03
C:/temp/dataset/2/7_7.odb,Step-1,Increment      1: Step Time =    1.000,"PART-1-1",           279,      -8.44405,      -4.75360,            0.,NA,NA,"",       3.59871,      -3.59788,  -77.0473E-03,   21.7816E-03
C:/temp/dataset/2/7_7.odb,Step-1,Increment      1: Step Time =    1.000,"PART-1-1",           280,      -9.71477,      -4.17886,            0.,NA,NA,"",       3.75480,      -3.72728,  -453.704E-03,   24.0100E-03
C:/temp/dataset/2/7_7.odb,Step-1,Increment      1: Step Time =    1.000,"PART-1-1",           281,      -10.4846,      -5.63717,            0.,NA,NA,"",       3.31586,      -3.26332,  -587.913E-03,   22.5537E-03
C:/temp/dataset/2/7_7.odb,Step-1,Increment      1: Step Time =    1.000,"PART-1-1",           282,      -5.84282,   107.969E-03,            0.,NA,NA,"",       5.31404,      -5.29354,   466.289E-03,   18.8462E-03
C:/temp/dataset/2/7_7.odb,Step-1,Increment      1: Step Time =    1.000,"PART-1-1",           283,      -4.64047,       1.60743,            0.,NA,NA,"",       5.91556,      -5.86558,   767.296E-03,   18.1733E-03
C:/temp/dataset/2/7_7.odb,Step-1,Increment      1: Step Time =    1.000,"PART-1-1",           284,      -6.45702,       2.58989,            0.,NA,NA,"",       6.07514,      -6.07292,   164.456E-03,   19.8906E-03
C:/temp/dataset/2/7_7.odb,Step-1,Increment      1: Step Time =    1.000,"PART-1-1",           285,      -7.65937,       1.09043,            0.,NA,NA,"",       5.51548,      -5.51406,  -125.137E-03,   20.8310E-03
C:/temp/dataset/2/7_7.odb,Step-1,Increment      1: Step Time =    1.000,"PART-1-1",           286,      -6.51044,      -5.43697,            0.,NA,NA,"",       3.50089,      -3.46719,   484.602E-03,   26.0812E-03
C:/temp/dataset/2/7_7.odb,Step-1,Increment      1: Step Time =    1.000,"PART-1-1",           287,      -5.48201,      -3.85122,            0.,NA,NA,"",       4.08088,      -4.01258,   743.527E-03,   23.9344E-03
C:/temp/dataset/2/7_7.odb,Step-1,Increment      1: Step Time =    1.000,"PART-1-1",           288,      -7.41561,      -3.16785,            0.,NA,NA,"",       4.13973,      -4.13723,   143.875E-03,   23.5418E-03
C:/temp/dataset/2/7_7.odb,Step-1,Increment      1: Step Time =    1.000,"PART-1-1",           289,      -12.6742,      -10.6472,            0.,NA,NA,"",       2.06691,      -1.87754,  -864.258E-03,   35.7144E-03
C:/temp/dataset/2/7_7.odb,Step-1,Increment      1: Step Time =    1.000,"PART-1-1",           290,      -11.3911,      -11.6978,            0.,NA,NA,"",       1.73309,      -1.65031,  -529.208E-03,   23.0546E-03
C:/temp/dataset/2/7_7.odb,Step-1,Increment      1: Step Time =    1.000,"PART-1-1",           291,      -10.2167,      -10.1126,            0.,NA,NA,"",       2.07989,      -2.05302,  -333.251E-03,   16.7266E-03
C:/temp/dataset/2/7_7.odb,Step-1,Increment      1: Step Time =    1.000,"PART-1-1",           292,      -11.4997,      -9.06207,            0.,NA,NA,"",       2.38686,      -2.28942,  -675.046E-03,   23.1368E-03
C:/temp/dataset/2/7_7.odb,Step-1,Increment      1: Step Time =    1.000,"PART-1-1",           293,      -13.7107,      -15.1438,            0.,NA,NA,"",       1.23657,  -951.007E-03,  -790.366E-03,   59.5686E-03
C:/temp/dataset/2/7_7.odb,Step-1,Increment      1: Step Time =    1.000,"PART-1-1",           294,      -12.5249,      -13.4434,            0.,NA,NA,"",       1.43324,      -1.26459,  -674.520E-03,   37.8789E-03
C:/temp/dataset/2/7_7.odb,Step-1,Increment      1: Step Time =    1.000,"PART-1-1",           295,      -13.8143,      -12.2579,            0.,NA,NA,"",       1.81786,      -1.50915,      -1.01345,   53.8481E-03
C:/temp/dataset/2/7_7.odb,Step-1,Increment      1: Step Time =    1.000,"PART-1-1",           296,          -15.,      -13.9583,            0.,NA,NA,"",       1.63373,      -1.18071,      -1.12917,   76.7732E-03
C:/temp/dataset/2/7_7.odb,Step-1,Increment      1: Step Time =    1.000,"PART-1-1",           297,      -12.0988,      -16.5012,            0.,NA,NA,"",   846.416E-03,  -715.221E-03,  -452.636E-03,   35.4413E-03
C:/temp/dataset/2/7_7.odb,Step-1,Increment      1: Step Time =    1.000,"PART-1-1",           298,      -10.5811,      -17.2344,            0.,NA,NA,"",   638.283E-03,  -601.647E-03,  -213.133E-03,   16.4324E-03
C:/temp/dataset/2/7_7.odb,Step-1,Increment      1: Step Time =    1.000,"PART-1-1",           299,      -9.66362,      -15.1575,            0.,NA,NA,"",   965.239E-03,  -958.574E-03,  -113.238E-03,   17.0013E-03
C:/temp/dataset/2/7_7.odb,Step-1,Increment      1: Step Time =    1.000,"PART-1-1",           300,      -11.1813,      -14.4243,            0.,NA,NA,"",       1.14565,      -1.07911,  -384.760E-03,   22.0927E-03
C:/temp/dataset/2/7_7.odb,Step-1,Increment      1: Step Time =    1.000,"PART-1-1",           301,      -10.5090,      -18.8394,            0.,NA,NA,"",   422.698E-03,  -387.465E-03,  -168.952E-03,   17.1323E-03
C:/temp/dataset/2/7_7.odb,Step-1,Increment      1: Step Time =    1.000,"PART-1-1",           302,      -8.88448,      -18.7076,            0.,NA,NA,"",   403.382E-03,  -403.183E-03,   12.6624E-03,   16.0126E-03
C:/temp/dataset/2/7_7.odb,Step-1,Increment      1: Step Time =    1.000,"PART-1-1",           303,      -8.95657,      -17.1026,            0.,NA,NA,"",   632.488E-03,  -632.485E-03,   2.13951E-03,   22.5664E-03
C:/temp/dataset/2/7_7.odb,Step-1,Increment      1: Step Time =    1.000,"PART-1-1",           304,      -8.08225,      -19.7831,            0.,NA,NA,"",   294.909E-03,  -281.451E-03,   88.0736E-03,   20.6235E-03
C:/temp/dataset/2/7_7.odb,Step-1,Increment      1: Step Time =    1.000,"PART-1-1",           305,      -6.89084,      -18.8787,            0.,NA,NA,"",   442.380E-03,  -389.325E-03,   210.063E-03,   47.1782E-03
C:/temp/dataset/2/7_7.odb,Step-1,Increment      1: Step Time =    1.000,"PART-1-1",           306,      -7.69307,      -17.8032,            0.,NA,NA,"",   563.140E-03,  -541.882E-03,   153.267E-03,   44.4357E-03
C:/temp/dataset/2/7_7.odb,Step-1,Increment      1: Step Time =    1.000,"PART-1-1",           307,       7.10093,      -24.9223,            0.,NA,NA,"",   52.1736E-03,  -52.1704E-03,   573.453E-06,   6.09435E-03
C:/temp/dataset/2/7_7.odb,Step-1,Increment      1: Step Time =    1.000,"PART-1-1",           308,       8.59925,      -23.6815,            0.,NA,NA,"",   55.7803E-03,  -55.7766E-03,  -646.416E-06,   3.79020E-03
C:/temp/dataset/2/7_7.odb,Step-1,Increment      1: Step Time =    1.000,"PART-1-1",           309,       6.88316,      -22.4353,            0.,NA,NA,"",   65.1734E-03,  -65.1421E-03,  -2.01911E-03,   3.81481E-03
C:/temp/dataset/2/7_7.odb,Step-1,Increment      1: Step Time =    1.000,"PART-1-1",           310,       5.38484,      -23.6762,            0.,NA,NA,"",   65.4252E-03,  -65.4035E-03,   1.68414E-03,   5.95957E-03
C:/temp/dataset/2/7_7.odb,Step-1,Increment      1: Step Time =    1.000,"PART-1-1",           311,       13.3798,      -22.4744,            0.,NA,NA,"",   58.5445E-03,  -57.4655E-03,   11.1878E-03,   356.449E-06
C:/temp/dataset/2/7_7.odb,Step-1,Increment      1: Step Time =    1.000,"PART-1-1",           312,           15.,        -21.25,            0.,NA,NA,"",   65.4177E-03,  -62.8104E-03,   18.2848E-03,   150.470E-06
C:/temp/dataset/2/7_7.odb,Step-1,Increment      1: Step Time =    1.000,"PART-1-1",           313,       13.3333,          -20.,            0.,NA,NA,"",   68.8622E-03,  -67.9627E-03,   11.0937E-03,   175.021E-06
C:/temp/dataset/2/7_7.odb,Step-1,Increment      1: Step Time =    1.000,"PART-1-1",           314,       11.7131,      -21.2244,            0.,NA,NA,"",   63.3267E-03,  -63.1432E-03,   4.81787E-03,   369.339E-06
C:/temp/dataset/2/7_7.odb,Step-1,Increment      1: Step Time =    1.000,"PART-1-1",           315,      -2.14863,       2.00914,            0.,NA,NA,"",       6.36290,      -6.17183,       1.54760,   17.6977E-03
C:/temp/dataset/2/7_7.odb,Step-1,Increment      1: Step Time =    1.000,"PART-1-1",           316,      -1.66393,   575.985E-03,            0.,NA,NA,"",       5.98811,      -5.71587,       1.78502,   9.41804E-03
C:/temp/dataset/2/7_7.odb,Step-1,Increment      1: Step Time =    1.000,"PART-1-1",           317,   135.628E-03,       1.10435,            0.,NA,NA,"",       6.47114,      -6.02323,       2.36567,   11.3487E-03
C:/temp/dataset/2/7_7.odb,Step-1,Increment      1: Step Time =    1.000,"PART-1-1",           318,  -349.073E-03,       2.53751,            0.,NA,NA,"",       6.82626,      -6.48891,       2.11938,   20.0305E-03
C:/temp/dataset/2/7_7.odb,Step-1,Increment      1: Step Time =    1.000,"PART-1-1",           319,   156.145E-03,      -1.87787,            0.,NA,NA,"",       5.59987,      -4.98190,       2.55719,   5.82867E-03
C:/temp/dataset/2/7_7.odb,Step-1,Increment      1: Step Time =    1.000,"PART-1-1",           320,       1.21010,      -2.70880,            0.,NA,NA,"",       5.61231,      -4.75063,       2.98823,   10.2418E-03
C:/temp/dataset/2/7_7.odb,Step-1,Increment      1: Step Time =    1.000,"PART-1-1",           321,       2.32846,      -1.50081,            0.,NA,NA,"",       6.20320,      -5.24806,       3.30720,   5.04277E-03
C:/temp/dataset/2/7_7.odb,Step-1,Increment      1: Step Time =    1.000,"PART-1-1",           322,       1.27451,  -669.883E-03,            0.,NA,NA,"",       6.18397,      -5.47625,       2.87265,   1.79819E-03
C:/temp/dataset/2/7_7.odb,Step-1,Increment      1: Step Time =    1.000,"PART-1-1",           323,       4.87500,      -1.23074,            0.,NA,NA,"",       6.95159,      -5.51685,       4.22953,   6.32511E-03
C:/temp/dataset/2/7_7.odb,Step-1,Increment      1: Step Time =    1.000,"PART-1-1",           324,       6.20088,      -2.43579,            0.,NA,NA,"",       7.06759,      -5.16519,       4.82407,   9.33712E-03
C:/temp/dataset/2/7_7.odb,Step-1,Increment      1: Step Time =    1.000,"PART-1-1",           325,       7.44880,      -1.07477,            0.,NA,NA,"",       7.76638,      -5.76504,       5.20395,   8.78683E-03
C:/temp/dataset/2/7_7.odb,Step-1,Increment      1: Step Time =    1.000,"PART-1-1",           326,       6.12293,   130.279E-03,            0.,NA,NA,"",       7.65270,      -6.11289,       4.60395,   8.11790E-03
C:/temp/dataset/2/7_7.odb,Step-1,Increment      1: Step Time =    1.000,"PART-1-1",           327,          8.75,           -5.,            0.,NA,NA,"",       7.43892,      -4.37278,       6.01800,   10.8209E-03
C:/temp/dataset/2/7_7.odb,Step-1,Increment      1: Step Time =    1.000,"PART-1-1",           328,       10.0063,      -3.63741,            0.,NA,NA,"",       8.11584,      -4.98878,       6.40148,   6.90573E-03
C:/temp/dataset/2/7_7.odb,Step-1,Increment      1: Step Time =    1.000,"PART-1-1",           329,       8.73716,      -2.32557,            0.,NA,NA,"",       7.92020,      -5.39243,       5.80096,   9.12216E-03
C:/temp/dataset/2/7_7.odb,Step-1,Increment      1: Step Time =    1.000,"PART-1-1",           330,       7.48081,      -3.68816,            0.,NA,NA,"",       7.22721,      -4.78555,       5.41581,   10.6084E-03
C:/temp/dataset/2/7_7.odb,Step-1,Increment      1: Step Time =    1.000,"PART-1-1",           331,       6.24109,       7.72904,            0.,NA,NA,"",       9.98302,      -9.13199,       4.03329,   5.91945E-03
C:/temp/dataset/2/7_7.odb,Step-1,Increment      1: Step Time =    1.000,"PART-1-1",           332,            5.,          6.25,            0.,NA,NA,"",       9.17830,      -8.41446,       3.66578,   17.8443E-03
C:/temp/dataset/2/7_7.odb,Step-1,Increment      1: Step Time =    1.000,"PART-1-1",           333,       6.24095,       5.17046,            0.,NA,NA,"",       9.12633,      -8.06294,       4.27537,   26.3663E-03
C:/temp/dataset/2/7_7.odb,Step-1,Increment      1: Step Time =    1.000,"PART-1-1",           334,       7.48203,       6.64950,            0.,NA,NA,"",       9.93541,      -8.79122,       4.62891,   13.0201E-03
C:/temp/dataset/2/7_7.odb,Step-1,Increment      1: Step Time =    1.000,"PART-1-1",           335,       7.34508,       23.6052,            0.,NA,NA,"",       15.9356,      -15.6265,       3.12364,   31.3505E-06
C:/temp/dataset/2/7_7.odb,Step-1,Increment      1: Step Time =    1.000,"PART-1-1",           336,       6.41056,       24.2397,            0.,NA,NA,"",       16.0308,      -15.8025,       2.69533,   12.8706E-06
C:/temp/dataset/2/7_7.odb,Step-1,Increment      1: Step Time =    1.000,"PART-1-1",           337,       6.08150,       22.9932,            0.,NA,NA,"",       15.5060,      -15.2748,       2.66802,   26.6156E-06
C:/temp/dataset/2/7_7.odb,Step-1,Increment      1: Step Time =    1.000,"PART-1-1",           338,       7.01602,       22.3587,            0.,NA,NA,"",       15.4129,      -15.0987,       3.09632,   46.9097E-06
C:/temp/dataset/2/7_7.odb,Step-1,Increment      1: Step Time =    1.000,"PART-1-1",           339,      -12.5005,       23.7291,            0.,NA,NA,"",       14.8244,      -14.0086,      -4.84969,   71.5048E-09
C:/temp/dataset/2/7_7.odb,Step-1,Increment      1: Step Time =    1.000,"PART-1-1",           340,      -13.7489,       24.9883,            0.,NA,NA,"",       15.4075,      -14.4090,      -5.45640,   72.2301E-09
C:/temp/dataset/2/7_7.odb,Step-1,Increment      1: Step Time =    1.000,"PART-1-1",           341,          -15.,         23.75,            0.,NA,NA,"",       14.9969,      -13.8070,      -5.85435,   73.9579E-09
C:/temp/dataset/2/7_7.odb,Step-1,Increment      1: Step Time =    1.000,"PART-1-1",           342,      -2.52491,       26.1674,            0.,NA,NA,"",       15.8601,      -15.8252,      -1.05196,   807.654E-09
C:/temp/dataset/2/7_7.odb,Step-1,Increment      1: Step Time =    1.000,"PART-1-1",           343,      -1.30373,       24.8780,            0.,NA,NA,"",       15.4171,      -15.4105,  -453.625E-03,   1.59300E-06
C:/temp/dataset/2/7_7.odb,Step-1,Increment      1: Step Time =    1.000,"PART-1-1",           344,      -1.26817,       27.4122,            0.,NA,NA,"",       16.4432,      -16.4303,  -652.294E-03,   1.26772E-06
C:/temp/dataset/2/7_7.odb,Step-1,Increment      1: Step Time =    1.000,"PART-1-1",           345,       2.31009,       23.4917,            0.,NA,NA,"",       15.1987,      -15.1579,       1.11288,   3.70966E-06
C:/temp/dataset/2/7_7.odb,Step-1,Increment      1: Step Time =    1.000,"PART-1-1",           346,       3.41051,       22.2101,            0.,NA,NA,"",       14.8295,      -14.7361,       1.66210,   7.22620E-06
C:/temp/dataset/2/7_7.odb,Step-1,Increment      1: Step Time =    1.000,"PART-1-1",           347,       4.46987,       23.2845,            0.,NA,NA,"",       15.3864,      -15.2562,       1.99688,   8.57247E-06
C:/temp/dataset/2/7_7.odb,Step-1,Increment      1: Step Time =    1.000,"PART-1-1",           348,       3.36945,       24.5662,            0.,NA,NA,"",       15.7447,      -15.6780,       1.44765,   2.88728E-06
C:/temp/dataset/2/7_7.odb,Step-1,Increment      1: Step Time =    1.000,"PART-1-1",           349,       3.92627,       27.0683,            0.,NA,NA,"",       16.7924,      -16.7288,       1.46082,   1.01312E-06
C:/temp/dataset/2/7_7.odb,Step-1,Increment      1: Step Time =    1.000,"PART-1-1",           350,       5.16355,       28.4353,            0.,NA,NA,"",       17.4786,      -17.3813,       1.84241,   2.20306E-06
C:/temp/dataset/2/7_7.odb,Step-1,Increment      1: Step Time =    1.000,"PART-1-1",           351,          3.75,           30.,            0.,NA,NA,"",       17.9268,      -17.8903,       1.14375,   4.61511E-06
C:/temp/dataset/2/7_7.odb,Step-1,Increment      1: Step Time =    1.000,"PART-1-1",           352,       2.51272,       28.6330,            0.,NA,NA,"",       17.2546,      -17.2378,   762.167E-03,   2.34947E-06
C:/temp/dataset/2/7_7.odb,Step-1,Increment      1: Step Time =    1.000,"PART-1-1",           353,       11.0463,       14.3537,            0.,NA,NA,"",       13.3607,      -12.2262,       5.38766,   537.776E-06
C:/temp/dataset/2/7_7.odb,Step-1,Increment      1: Step Time =    1.000,"PART-1-1",           354,       9.86747,       12.5470,            0.,NA,NA,"",       12.4757,      -11.4003,       5.06703,   2.01773E-03
C:/temp/dataset/2/7_7.odb,Step-1,Increment      1: Step Time =    1.000,"PART-1-1",           355,       11.1901,       11.5237,            0.,NA,NA,"",       12.4705,      -11.1012,       5.68126,   3.89028E-03
C:/temp/dataset/2/7_7.odb,Step-1,Increment      1: Step Time =    1.000,"PART-1-1",           356,       9.55073,       15.1783,            0.,NA,NA,"",       13.2963,      -12.4311,       4.71816,   411.249E-06
C:/temp/dataset/2/7_7.odb,Step-1,Increment      1: Step Time =    1.000,"PART-1-1",           357,       8.18591,       15.9712,            0.,NA,NA,"",       13.2839,      -12.6344,       4.10305,   339.482E-06
C:/temp/dataset/2/7_7.odb,Step-1,Increment      1: Step Time =    1.000,"PART-1-1",           358,       7.20669,       14.2932,            0.,NA,NA,"",       12.4864,      -11.8777,       3.85086,   187.423E-06
C:/temp/dataset/2/7_7.odb,Step-1,Increment      1: Step Time =    1.000,"PART-1-1",           359,       8.57151,       13.5002,            0.,NA,NA,"",       12.4995,      -11.6742,       4.46665,   495.005E-06
C:/temp/dataset/2/7_7.odb,Step-1,Increment      1: Step Time =    1.000,"PART-1-1",           360,       7.44377,       1.50598,            0.,NA,NA,"",       8.39749,      -6.73721,       5.01276,   11.2225E-03
C:/temp/dataset/2/7_7.odb,Step-1,Increment      1: Step Time =    1.000,"PART-1-1",           361,       8.72836,   326.342E-03,            0.,NA,NA,"",       8.50101,      -6.39647,       5.59931,   9.62677E-03
C:/temp/dataset/2/7_7.odb,Step-1,Increment      1: Step Time =    1.000,"PART-1-1",           362,       10.0261,       1.76283,            0.,NA,NA,"",       9.26617,      -7.05968,       6.00191,   8.45593E-03
C:/temp/dataset/2/7_7.odb,Step-1,Increment      1: Step Time =    1.000,"PART-1-1",           363,       8.74149,       2.94246,            0.,NA,NA,"",       9.17392,      -7.40698,       5.41271,   12.4062E-03
C:/temp/dataset/2/7_7.odb,Step-1,Increment      1: Step Time =    1.000,"PART-1-1",           364,       12.5045,       7.62102,            0.,NA,NA,"",       11.6330,      -9.63284,       6.52189,   10.2269E-03
C:/temp/dataset/2/7_7.odb,Step-1,Increment      1: Step Time =    1.000,"PART-1-1",           365,           15.,         8.125,            0.,NA,NA,"",       12.5352,      -10.0640,       7.47307,   8.80454E-03
C:/temp/dataset/2/7_7.odb,Step-1,Increment      1: Step Time =    1.000,"PART-1-1",           366,       13.7500,       9.30715,            0.,NA,NA,"",       12.4945,      -10.4302,       6.87919,   8.34831E-03
C:/temp/dataset/2/7_7.odb,Step-1,Increment      1: Step Time =    1.000,"PART-1-1",           367,      -1.45938,      -2.40358,            0.,NA,NA,"",       5.12749,      -4.70941,       2.02797,   7.55795E-03
C:/temp/dataset/2/7_7.odb,Step-1,Increment      1: Step Time =    1.000,"PART-1-1",           368,      -2.69869,      -3.52952,            0.,NA,NA,"",       4.57878,      -4.26370,       1.66917,   14.3317E-03
C:/temp/dataset/2/7_7.odb,Step-1,Increment      1: Step Time =    1.000,"PART-1-1",           369,         -1.25,           -5.,            0.,NA,NA,"",       4.45534,      -3.82920,       2.27758,   21.8284E-03
C:/temp/dataset/2/7_7.odb,Step-1,Increment      1: Step Time =    1.000,"PART-1-1",           370,  -10.6917E-03,      -3.87406,            0.,NA,NA,"",       5.02342,      -4.27662,       2.63538,   16.2153E-03
C:/temp/dataset/2/7_7.odb,Step-1,Increment      1: Step Time =    1.000,"PART-1-1",           371,      -13.3333,            5.,            0.,NA,NA,"",       6.75229,      -6.45205,      -1.99112,   1.54448E-03
C:/temp/dataset/2/7_7.odb,Step-1,Increment      1: Step Time =    1.000,"PART-1-1",           372,          -15.,       3.54167,            0.,NA,NA,"",       6.40410,      -5.92495,      -2.43051,   1.40798E-03
C:/temp/dataset/2/7_7.odb,Step-1,Increment      1: Step Time =    1.000,"PART-1-1",           373,      -13.2137,       2.05352,            0.,NA,NA,"",       5.83619,      -5.54883,      -1.80877,   8.40642E-03
C:/temp/dataset/2/7_7.odb,Step-1,Increment      1: Step Time =    1.000,"PART-1-1",           374,      -11.5470,       3.51185,            0.,NA,NA,"",       6.23857,      -6.08321,      -1.38357,   8.79189E-03
C:/temp/dataset/2/7_7.odb,Step-1,Increment      1: Step Time =    1.000,"PART-1-1",           375,          -15.,      625.E-03,            0.,NA,NA,"",       5.51297,      -5.02039,      -2.27784,   10.0925E-03
C:/temp/dataset/2/7_7.odb,Step-1,Increment      1: Step Time =    1.000,"PART-1-1",           376,      -12.9883,      -1.02354,            0.,NA,NA,"",       4.85023,      -4.59122,      -1.56379,   17.8293E-03
C:/temp/dataset/2/7_7.odb,Step-1,Increment      1: Step Time =    1.000,"PART-1-1",           377,      -11.2019,   404.974E-03,            0.,NA,NA,"",       5.24008,      -5.11841,      -1.12262,   20.6148E-03
C:/temp/dataset/2/7_7.odb,Step-1,Increment      1: Step Time =    1.000,"PART-1-1",           378,      -13.6690,      -3.88141,            0.,NA,NA,"",       4.01078,      -3.68768,      -1.57713,   27.2138E-03
C:/temp/dataset/2/7_7.odb,Step-1,Increment      1: Step Time =    1.000,"PART-1-1",           379,      -11.6573,      -2.61328,            0.,NA,NA,"",       4.28238,      -4.14376,      -1.08077,   25.1549E-03
C:/temp/dataset/2/7_7.odb,Step-1,Increment      1: Step Time =    1.000,"PART-1-1",           380,          -15.,      -2.29167,            0.,NA,NA,"",       4.62164,      -4.12113,      -2.09186,   25.1727E-03
C:/temp/dataset/2/7_7.odb,Step-1,Increment      1: Step Time =    1.000,"PART-1-1",           381,           -5.,         -8.75,            0.,NA,NA,"",       2.76713,      -2.62275,   882.140E-03,   58.2732E-03
C:/temp/dataset/2/7_7.odb,Step-1,Increment      1: Step Time =    1.000,"PART-1-1",           382,      -6.37238,      -7.84264,            0.,NA,NA,"",       2.84762,      -2.79437,   548.109E-03,   40.1154E-03
C:/temp/dataset/2/7_7.odb,Step-1,Increment      1: Step Time =    1.000,"PART-1-1",           383,      -7.67841,      -9.42411,            0.,NA,NA,"",       2.32377,      -2.31200,   233.592E-03,   30.2064E-03
C:/temp/dataset/2/7_7.odb,Step-1,Increment      1: Step Time =    1.000,"PART-1-1",           384,      -6.30603,      -10.3315,            0.,NA,NA,"",       2.21001,      -2.14072,   549.052E-03,   47.5354E-03
C:/temp/dataset/2/7_7.odb,Step-1,Increment      1: Step Time =    1.000,"PART-1-1",           385,      -13.6103,      -21.3688,            0.,NA,NA,"",   433.916E-03,  -200.518E-03,  -384.806E-03,   61.0331E-03
C:/temp/dataset/2/7_7.odb,Step-1,Increment      1: Step Time =    1.000,"PART-1-1",           386,          -15.,      -22.7083,            0.,NA,NA,"",   429.737E-03,  -164.431E-03,  -397.034E-03,   76.5525E-03
C:/temp/dataset/2/7_7.odb,Step-1,Increment      1: Step Time =    1.000,"PART-1-1",           387,      -13.6241,      -24.2925,            0.,NA,NA,"",   242.238E-03,  -63.3072E-03,  -233.819E-03,   54.0257E-03
C:/temp/dataset/2/7_7.odb,Step-1,Increment      1: Step Time =    1.000,"PART-1-1",           388,      -12.2343,      -22.9530,            0.,NA,NA,"",   226.254E-03,  -85.7084E-03,  -209.392E-03,   39.9002E-03
C:/temp/dataset/2/7_7.odb,Step-1,Increment      1: Step Time =    1.000,"PART-1-1",           389,           -5.,        -16.25,            0.,NA,NA,"",       1.09027,  -909.367E-03,   601.450E-03,   87.0134E-03
C:/temp/dataset/2/7_7.odb,Step-1,Increment      1: Step Time =    1.000,"PART-1-1",           390,      -6.06585,      -15.2329,            0.,NA,NA,"",       1.15227,      -1.05041,   473.668E-03,   65.3109E-03
C:/temp/dataset/2/7_7.odb,Step-1,Increment      1: Step Time =    1.000,"PART-1-1",           391,      -6.99530,      -16.6022,            0.,NA,NA,"",   807.546E-03,  -758.052E-03,   278.365E-03,   55.2232E-03
C:/temp/dataset/2/7_7.odb,Step-1,Increment      1: Step Time =    1.000,"PART-1-1",           392,      -5.92946,      -17.6192,            0.,NA,NA,"",   721.866E-03,  -616.880E-03,   374.898E-03,   77.0627E-03
C:/temp/dataset/2/7_7.odb,Step-1,Increment      1: Step Time =    1.000,"PART-1-1",           393,         -13.5,          -30.,            0.,NA,NA,"",            0.,   10.0249E-39,  -73.8410E-39,   35.8502E-03
C:/temp/dataset/2/7_7.odb,Step-1,Increment      1: Step Time =    1.000,"PART-1-1",           394,      -12.0804,      -28.6247,            0.,NA,NA,"",   35.0324E-03,   16.0230E-03,  -31.1534E-03,   30.8836E-03
C:/temp/dataset/2/7_7.odb,Step-1,Increment      1: Step Time =    1.000,"PART-1-1",           395,      -13.5804,      -27.1664,            0.,NA,NA,"",   105.013E-03,  -11.1645E-03,  -104.418E-03,   47.0228E-03
C:/temp/dataset/2/7_7.odb,Step-1,Increment      1: Step Time =    1.000,"PART-1-1",           396,          -15.,      -28.5417,            0.,NA,NA,"",   69.7538E-03,  -34.3750E-03,  -60.6956E-03,   51.9316E-03
C:/temp/dataset/2/7_7.odb,Step-1,Increment      1: Step Time =    1.000,"PART-1-1",           397,          13.5,          -30.,            0.,NA,NA,"",            0.,  -3.17385E-39,   8.65511E-39,   7.42044E-03
C:/temp/dataset/2/7_7.odb,Step-1,Increment      1: Step Time =    1.000,"PART-1-1",           398,           15.,        -28.75,            0.,NA,NA,"",   15.8020E-03,  -12.9330E-03,   9.07961E-03,   6.99310E-03
C:/temp/dataset/2/7_7.odb,Step-1,Increment      1: Step Time =    1.000,"PART-1-1",           399,       13.4640,      -27.4843,            0.,NA,NA,"",   23.3563E-03,  -22.5009E-03,   6.26291E-03,   4.09648E-03
C:/temp/dataset/2/7_7.odb,Step-1,Increment      1: Step Time =    1.000,"PART-1-1",           400,       11.9640,      -28.7343,            0.,NA,NA,"",   11.0364E-03,  -10.8763E-03,   1.87340E-03,   5.73093E-03
C:/temp/dataset/2/7_7.odb,Step-1,Increment      1: Step Time =    1.000,"PART-1-1",           401,       10.2658,      -24.9335,            0.,NA,NA,"",   45.2103E-03,  -45.1738E-03,   1.81703E-03,   3.99096E-03
C:/temp/dataset/2/7_7.odb,Step-1,Increment      1: Step Time =    1.000,"PART-1-1",           402,       8.77397,      -26.1861,            0.,NA,NA,"",   38.2986E-03,  -38.2818E-03,   1.13542E-03,   5.80523E-03
C:/temp/dataset/2/7_7.odb,Step-1,Increment      1: Step Time =    1.000,"PART-1-1",           403,       10.3945,      -27.4590,            0.,NA,NA,"",   24.4401E-03,  -24.3751E-03,   1.78175E-03,   6.01171E-03
C:/temp/dataset/2/7_7.odb,Step-1,Increment      1: Step Time =    1.000,"PART-1-1",           404,       11.8863,      -26.2064,            0.,NA,NA,"",   34.1904E-03,  -33.9088E-03,   4.37895E-03,   4.47361E-03
C:/temp/dataset/2/7_7.odb,Step-1,Increment      1: Step Time =    1.000,"PART-1-1",           405,       8.93044,      -28.7247,            0.,NA,NA,"",   13.8110E-03,  -13.7568E-03,   1.22281E-03,   6.93809E-03
C:/temp/dataset/2/7_7.odb,Step-1,Increment      1: Step Time =    1.000,"PART-1-1",           406,       7.31300,      -27.4411,            0.,NA,NA,"",   29.9173E-03,  -29.8605E-03,   1.84200E-03,   7.64323E-03
C:/temp/dataset/2/7_7.odb,Step-1,Increment      1: Step Time =    1.000,"PART-1-1",           407,       5.88256,      -28.7164,            0.,NA,NA,"",   17.9230E-03,  -17.8001E-03,   2.09538E-03,   9.15199E-03
C:/temp/dataset/2/7_7.odb,Step-1,Increment      1: Step Time =    1.000,"PART-1-1",           408,           7.5,          -30.,            0.,NA,NA,"",            0.,  -9.38715E-39,   4.97817E-39,   8.54532E-03
C:/temp/dataset/2/7_7.odb,Step-1,Increment      1: Step Time =    1.000,"PART-1-1",           409,       5.63995,      -26.1773,            0.,NA,NA,"",   46.9111E-03,  -46.7935E-03,   3.31994E-03,   7.82677E-03
C:/temp/dataset/2/7_7.odb,Step-1,Increment      1: Step Time =    1.000,"PART-1-1",           410,       3.92490,      -24.9166,            0.,NA,NA,"",   64.1684E-03,  -63.7267E-03,   7.51552E-03,   9.26013E-03
C:/temp/dataset/2/7_7.odb,Step-1,Increment      1: Step Time =    1.000,"PART-1-1",           411,       2.50142,      -26.1700,            0.,NA,NA,"",   58.4850E-03,  -56.9125E-03,   13.4708E-03,   11.4706E-03
C:/temp/dataset/2/7_7.odb,Step-1,Increment      1: Step Time =    1.000,"PART-1-1",           412,       4.21647,      -27.4307,            0.,NA,NA,"",   37.8627E-03,  -37.4369E-03,   5.66230E-03,   10.1029E-03
C:/temp/dataset/2/7_7.odb,Step-1,Increment      1: Step Time =    1.000,"PART-1-1",           413,       1.12659,      -27.4308,            0.,NA,NA,"",   45.4877E-03,  -42.8975E-03,   15.1306E-03,   13.9169E-03
C:/temp/dataset/2/7_7.odb,Step-1,Increment      1: Step Time =    1.000,"PART-1-1",           414,  -207.324E-03,      -28.7165,            0.,NA,NA,"",   24.5253E-03,  -22.3541E-03,   10.0889E-03,   15.9531E-03
C:/temp/dataset/2/7_7.odb,Step-1,Increment      1: Step Time =    1.000,"PART-1-1",           415,           1.5,          -30.,            0.,NA,NA,"",            0.,  -14.2491E-39,   16.6582E-39,   14.0535E-03
C:/temp/dataset/2/7_7.odb,Step-1,Increment      1: Step Time =    1.000,"PART-1-1",           416,       2.83391,      -28.7143,            0.,NA,NA,"",   22.4502E-03,  -21.9014E-03,   4.93357E-03,   12.2909E-03
C:/temp/dataset/2/7_7.odb,Step-1,Increment      1: Step Time =    1.000,"PART-1-1",           417,      -1.92078,      -27.4395,            0.,NA,NA,"",   47.3621E-03,  -37.1494E-03,   29.3784E-03,   18.9463E-03
C:/temp/dataset/2/7_7.odb,Step-1,Increment      1: Step Time =    1.000,"PART-1-1",           418,      -3.21345,      -28.7230,            0.,NA,NA,"",   19.7288E-03,  -13.0616E-03,   14.7858E-03,   17.8201E-03
C:/temp/dataset/2/7_7.odb,Step-1,Increment      1: Step Time =    1.000,"PART-1-1",           419,          -1.5,          -30.,            0.,NA,NA,"",            0.,  -12.0376E-39,   25.4336E-39,   14.5882E-03
C:/temp/dataset/2/7_7.odb,Step-1,Increment      1: Step Time =    1.000,"PART-1-1",           420,      -5.57419,      -22.4519,            0.,NA,NA,"",   195.826E-03,  -119.468E-03,   155.162E-03,   41.3285E-03
C:/temp/dataset/2/7_7.odb,Step-1,Increment      1: Step Time =    1.000,"PART-1-1",           421,      -6.77537,      -23.6376,            0.,NA,NA,"",   113.273E-03,  -61.9585E-03,   94.8259E-03,   30.2543E-03
C:/temp/dataset/2/7_7.odb,Step-1,Increment      1: Step Time =    1.000,"PART-1-1",           422,      -5.25528,      -24.9124,            0.,NA,NA,"",   99.3378E-03,  -51.3353E-03,   85.0452E-03,   28.2207E-03
C:/temp/dataset/2/7_7.odb,Step-1,Increment      1: Step Time =    1.000,"PART-1-1",           423,      -4.05411,      -23.7268,            0.,NA,NA,"",   144.081E-03,  -94.7112E-03,   108.578E-03,   38.0755E-03
C:/temp/dataset/2/7_7.odb,Step-1,Increment      1: Step Time =    1.000,"PART-1-1",           424,       13.4223,      -24.9720,            0.,NA,NA,"",   44.5759E-03,  -43.3454E-03,   10.4012E-03,   1.64987E-03
C:/temp/dataset/2/7_7.odb,Step-1,Increment      1: Step Time =    1.000,"PART-1-1",           425,           15.,        -26.25,            0.,NA,NA,"",   39.3638E-03,  -34.8859E-03,   18.2343E-03,   2.08490E-03
C:/temp/dataset/2/7_7.odb,Step-1,Increment      1: Step Time =    1.000,"PART-1-1",           426,       11.8021,      -23.6964,            0.,NA,NA,"",   51.7464E-03,  -51.4963E-03,   5.08223E-03,   1.97274E-03
C:/temp/dataset/2/7_7.odb,Step-1,Increment      1: Step Time =    1.000,"PART-1-1",           427,       10.1355,      -22.4445,            0.,NA,NA,"",   59.2357E-03,  -59.2315E-03,   702.959E-06,   1.87979E-03
C:/temp/dataset/2/7_7.odb,Step-1,Increment      1: Step Time =    1.000,"PART-1-1",           428,      -2.31424,      -24.9364,            0.,NA,NA,"",   101.847E-03,  -76.8532E-03,   66.8312E-03,   25.7397E-03
C:/temp/dataset/2/7_7.odb,Step-1,Increment      1: Step Time =    1.000,"PART-1-1",           429,      -3.63092,      -26.1962,            0.,NA,NA,"",   72.6743E-03,  -44.5420E-03,   57.4244E-03,   26.2895E-03
C:/temp/dataset/2/7_7.odb,Step-1,Increment      1: Step Time =    1.000,"PART-1-1",           430,  -604.096E-03,      -26.1796,            0.,NA,NA,"",   70.4858E-03,  -61.2254E-03,   34.9242E-03,   19.1066E-03
C:/temp/dataset/2/7_7.odb,Step-1,Increment      1: Step Time =    1.000,"PART-1-1",           431,      -7.52977,      -11.9021,            0.,NA,NA,"",       1.72659,      -1.70517,   271.092E-03,   37.5735E-03
C:/temp/dataset/2/7_7.odb,Step-1,Increment      1: Step Time =    1.000,"PART-1-1",           432,      -6.22373,      -12.8207,            0.,NA,NA,"",       1.63382,      -1.54829,   521.703E-03,   55.2856E-03
C:/temp/dataset/2/7_7.odb,Step-1,Increment      1: Step Time =    1.000,"PART-1-1",           433,           -5.,        -11.25,            0.,NA,NA,"",       2.14446,      -1.97902,   825.934E-03,   66.2910E-03
C:/temp/dataset/2/7_7.odb,Step-1,Increment      1: Step Time =    1.000,"PART-1-1",           434,      -10.0475,      -12.6788,            0.,NA,NA,"",       1.47231,      -1.45502,  -224.974E-03,   16.3844E-03
C:/temp/dataset/2/7_7.odb,Step-1,Increment      1: Step Time =    1.000,"PART-1-1",           435,           -5.,         -6.25,            0.,NA,NA,"",       3.44413,      -3.31935,   918.673E-03,   57.8076E-03
C:/temp/dataset/2/7_7.odb,Step-1,Increment      1: Step Time =    1.000,"PART-1-1",           436,      -7.88282,      -7.02961,            0.,NA,NA,"",       2.95531,      -2.95159,   148.213E-03,   21.0977E-03
C:/temp/dataset/2/7_7.odb,Step-1,Increment      1: Step Time =    1.000,"PART-1-1",           437,      -13.8577,      -6.65334,            0.,NA,NA,"",       3.22071,      -2.88439,      -1.43291,   38.0782E-03
C:/temp/dataset/2/7_7.odb,Step-1,Increment      1: Step Time =    1.000,"PART-1-1",           438,      -12.5267,      -5.32641,            0.,NA,NA,"",       3.49141,      -3.29427,      -1.15662,   27.9544E-03
C:/temp/dataset/2/7_7.odb,Step-1,Increment      1: Step Time =    1.000,"PART-1-1",           439,          -15.,      -5.20833,            0.,NA,NA,"",       3.76124,      -3.26174,      -1.87296,   40.9850E-03
C:/temp/dataset/2/7_7.odb,Step-1,Increment      1: Step Time =    1.000,"PART-1-1",           440,          1.25,           -5.,            0.,NA,NA,"",       5.05874,      -3.94410,       3.16779,   21.4178E-03
C:/temp/dataset/2/7_7.odb,Step-1,Increment      1: Step Time =    1.000,"PART-1-1",           441,       2.47079,      -3.83474,            0.,NA,NA,"",       5.65475,      -4.42030,       3.52664,   15.7337E-03
C:/temp/dataset/2/7_7.odb,Step-1,Increment      1: Step Time =    1.000,"PART-1-1",           442,       3.51261,  -149.180E-03,            0.,NA,NA,"",       6.86309,      -5.81497,       3.64529,   4.25851E-03
C:/temp/dataset/2/7_7.odb,Step-1,Increment      1: Step Time =    1.000,"PART-1-1",           443,       3.69085,      -2.58237,            0.,NA,NA,"",       6.28827,      -4.94442,       3.88523,   9.38317E-03
C:/temp/dataset/2/7_7.odb,Step-1,Increment      1: Step Time =    1.000,"PART-1-1",           444,       8.74868,       5.55605,            0.,NA,NA,"",       9.93469,      -8.45611,       5.21461,   15.2490E-03
C:/temp/dataset/2/7_7.odb,Step-1,Increment      1: Step Time =    1.000,"PART-1-1",           445,       10.0030,       7.12352,            0.,NA,NA,"",       10.7649,      -9.20752,       5.57707,   11.3018E-03
C:/temp/dataset/2/7_7.odb,Step-1,Increment      1: Step Time =    1.000,"PART-1-1",           446,       8.73640,       8.21697,            0.,NA,NA,"",       10.7692,      -9.54581,       4.98538,   9.39978E-03
C:/temp/dataset/2/7_7.odb,Step-1,Increment      1: Step Time =    1.000,"PART-1-1",           447,           15.,     -625.E-03,            0.,NA,NA,"",       10.4374,      -6.54687,       8.12879,   5.62040E-03
C:/temp/dataset/2/7_7.odb,Step-1,Increment      1: Step Time =    1.000,"PART-1-1",           448,       13.7714,   731.820E-03,            0.,NA,NA,"",       10.2798,      -6.97506,       7.55141,   7.26625E-03
C:/temp/dataset/2/7_7.odb,Step-1,Increment      1: Step Time =    1.000,"PART-1-1",           449,       12.5339,  -774.506E-03,            0.,NA,NA,"",       9.54214,      -6.28818,       7.17714,   6.70041E-03
C:/temp/dataset/2/7_7.odb,Step-1,Increment      1: Step Time =    1.000,"PART-1-1",           450,       7.40609,       11.8257,            0.,NA,NA,"",       11.6602,      -10.9002,       4.14065,   1.49964E-03
C:/temp/dataset/2/7_7.odb,Step-1,Increment      1: Step Time =    1.000,"PART-1-1",           451,       8.70206,       10.8725,            0.,NA,NA,"",       11.6349,      -10.6245,       4.74241,   3.37696E-03
C:/temp/dataset/2/7_7.odb,Step-1,Increment      1: Step Time =    1.000,"PART-1-1",           452,       11.2454,       8.75341,            0.,NA,NA,"",       11.6122,      -9.98243,       5.93256,   9.09215E-03
C:/temp/dataset/2/7_7.odb,Step-1,Increment      1: Step Time =    1.000,"PART-1-1",           453,       11.2622,       5.99112,            0.,NA,NA,"",       10.7906,      -8.85745,       6.16298,   12.1459E-03
C:/temp/dataset/2/7_7.odb,Step-1,Increment      1: Step Time =    1.000,"PART-1-1",           454,       13.8596,       24.3693,            0.,NA,NA,"",       17.4297,      -16.4804,       5.67348,   7.51911E-06
C:/temp/dataset/2/7_7.odb,Step-1,Increment      1: Step Time =    1.000,"PART-1-1",           455,       12.6110,       23.1199,            0.,NA,NA,"",       16.7285,      -15.8742,       5.27748,   48.8029E-06
C:/temp/dataset/2/7_7.odb,Step-1,Increment      1: Step Time =    1.000,"PART-1-1",           456,       13.7514,       21.4590,            0.,NA,NA,"",       16.3923,      -15.3034,       5.87465,   58.5798E-06
C:/temp/dataset/2/7_7.odb,Step-1,Increment      1: Step Time =    1.000,"PART-1-1",           457,           15.,       22.7083,            0.,NA,NA,"",       17.1009,      -15.9098,       6.27068,   27.9385E-06
C:/temp/dataset/2/7_7.odb,Step-1,Increment      1: Step Time =    1.000,"PART-1-1",           458,       8.83903,       17.2613,            0.,NA,NA,"",       13.8760,      -13.2069,       4.25676,   364.187E-06
C:/temp/dataset/2/7_7.odb,Step-1,Increment      1: Step Time =    1.000,"PART-1-1",           459,       10.5130,       17.3338,            0.,NA,NA,"",       14.2535,      -13.3764,       4.92264,   376.484E-06
C:/temp/dataset/2/7_7.odb,Step-1,Increment      1: Step Time =    1.000,"PART-1-1",           460,       8.72284,       19.1442,            0.,NA,NA,"",       14.5289,      -13.9525,       4.05157,   235.046E-06
C:/temp/dataset/2/7_7.odb,Step-1,Increment      1: Step Time =    1.000,"PART-1-1",           461,           15.,       28.5417,            0.,NA,NA,"",       19.1441,      -18.2505,       5.78044,   1.11829E-06
C:/temp/dataset/2/7_7.odb,Step-1,Increment      1: Step Time =    1.000,"PART-1-1",           462,         13.75,           30.,            0.,NA,NA,"",       19.4274,      -18.7307,       5.15630,   1.00980E-06
C:/temp/dataset/2/7_7.odb,Step-1,Increment      1: Step Time =    1.000,"PART-1-1",           463,       12.5875,       28.6551,            0.,NA,NA,"",       18.7199,      -18.0933,       4.80286,   628.987E-09
C:/temp/dataset/2/7_7.odb,Step-1,Increment      1: Step Time =    1.000,"PART-1-1",           464,       13.8375,       27.1968,            0.,NA,NA,"",       18.4303,      -17.6132,       5.42699,   1.39964E-06
C:/temp/dataset/2/7_7.odb,Step-1,Increment      1: Step Time =    1.000,"PART-1-1",           465,         11.25,           30.,            0.,NA,NA,"",       18.9805,      -18.5206,       4.15315,   2.64452E-06
C:/temp/dataset/2/7_7.odb,Step-1,Increment      1: Step Time =    1.000,"PART-1-1",           466,       10.1484,       28.7335,            0.,NA,NA,"",       18.3219,      -17.9198,       3.81754,   712.722E-09
C:/temp/dataset/2/7_7.odb,Step-1,Increment      1: Step Time =    1.000,"PART-1-1",           467,       7.69941,       28.7139,            0.,NA,NA,"",       17.9319,      -17.7061,       2.83652,   1.80224E-06
C:/temp/dataset/2/7_7.odb,Step-1,Increment      1: Step Time =    1.000,"PART-1-1",           468,       9.09777,       27.4473,            0.,NA,NA,"",       17.6664,      -17.3154,       3.50406,   3.72832E-06
C:/temp/dataset/2/7_7.odb,Step-1,Increment      1: Step Time =    1.000,"PART-1-1",           469,          8.75,           30.,            0.,NA,NA,"",       18.5794,      -18.3105,       3.15000,   4.04796E-06
C:/temp/dataset/2/7_7.odb,Step-1,Increment      1: Step Time =    1.000,"PART-1-1",           470,  -9.87333E-03,       28.6960,            0.,NA,NA,"",       17.0530,      -17.0511,  -255.293E-03,   1.33441E-06
C:/temp/dataset/2/7_7.odb,Step-1,Increment      1: Step Time =    1.000,"PART-1-1",           471,          1.25,           30.,            0.,NA,NA,"",       17.6808,      -17.6802,   140.645E-03,   2.79366E-06
C:/temp/dataset/2/7_7.odb,Step-1,Increment      1: Step Time =    1.000,"PART-1-1",           472,       4.87954,       25.6434,            0.,NA,NA,"",       16.3554,      -16.2371,       1.96305,   3.37691E-06
C:/temp/dataset/2/7_7.odb,Step-1,Increment      1: Step Time =    1.000,"PART-1-1",           473,      -5.00474,       28.7231,            0.,NA,NA,"",       16.7953,      -16.6423,      -2.26171,   139.285E-09
C:/temp/dataset/2/7_7.odb,Step-1,Increment      1: Step Time =    1.000,"PART-1-1",           474,         -6.25,           30.,            0.,NA,NA,"",       17.2896,      -17.0500,      -2.86866,   68.8597E-09
C:/temp/dataset/2/7_7.odb,Step-1,Increment      1: Step Time =    1.000,"PART-1-1",           475,      -3.76303,       27.4393,            0.,NA,NA,"",       16.3157,      -16.2315,      -1.65561,   537.658E-09
C:/temp/dataset/2/7_7.odb,Step-1,Increment      1: Step Time =    1.000,"PART-1-1",           476,      -3.77322,       24.9147,            0.,NA,NA,"",       15.2864,      -15.2177,      -1.44757,   638.913E-09
C:/temp/dataset/2/7_7.odb,Step-1,Increment      1: Step Time =    1.000,"PART-1-1",           477,      -13.7476,       27.4926,            0.,NA,NA,"",       16.4224,      -15.4139,      -5.66631,   73.5949E-09
C:/temp/dataset/2/7_7.odb,Step-1,Increment      1: Step Time =    1.000,"PART-1-1",           478,        -13.75,           30.,            0.,NA,NA,"",       17.4402,      -16.4198,      -5.87797,   74.4953E-09
C:/temp/dataset/2/7_7.odb,Step-1,Increment      1: Step Time =    1.000,"PART-1-1",           479,          -15.,         28.75,            0.,NA,NA,"",       17.0125,      -15.8132,      -6.27448,   77.6325E-09
C:/temp/dataset/2/7_7.odb,Step-1,Increment      1: Step Time =    1.000,"PART-1-1",           480,          -15.,         26.25,            0.,NA,NA,"",       16.0036,      -14.8101,      -6.06441,   76.1590E-09
C:/temp/dataset/2/7_7.odb,Step-1,Increment      1: Step Time =    1.000,"PART-1-1",           481,      -12.4965,       26.2309,            0.,NA,NA,"",       15.8420,      -15.0128,      -5.05829,   69.8489E-09
C:/temp/dataset/2/7_7.odb,Step-1,Increment      1: Step Time =    1.000,"PART-1-1",           482,      -10.0014,       23.7134,            0.,NA,NA,"",       14.7234,      -14.2123,      -3.84562,   63.5842E-09
C:/temp/dataset/2/7_7.odb,Step-1,Increment      1: Step Time =    1.000,"PART-1-1",           483,      -8.75535,       22.4567,            0.,NA,NA,"",       14.1877,      -13.8128,      -3.24006,   62.1974E-09
C:/temp/dataset/2/7_7.odb,Step-1,Increment      1: Step Time =    1.000,"PART-1-1",           484,      -7.50515,       23.6891,            0.,NA,NA,"",       14.6899,      -14.4123,      -2.84199,   62.6786E-09
C:/temp/dataset/2/7_7.odb,Step-1,Increment      1: Step Time =    1.000,"PART-1-1",           485,      -8.75118,       24.9458,            0.,NA,NA,"",       15.2078,      -14.8119,      -3.44755,   58.2829E-09
C:/temp/dataset/2/7_7.odb,Step-1,Increment      1: Step Time =    1.000,"PART-1-1",           486,      -3.77419,       22.4219,            0.,NA,NA,"",       14.2712,      -14.2174,      -1.23849,   628.311E-09
C:/temp/dataset/2/7_7.odb,Step-1,Increment      1: Step Time =    1.000,"PART-1-1",           487,      -5.00723,       21.2173,            0.,NA,NA,"",       13.7278,      -13.6305,      -1.63202,   132.013E-09
C:/temp/dataset/2/7_7.odb,Step-1,Increment      1: Step Time =    1.000,"PART-1-1",           488,         -3.75,           20.,            0.,NA,NA,"",       13.2873,      -13.2477,      -1.02528,   222.414E-09
C:/temp/dataset/2/7_7.odb,Step-1,Increment      1: Step Time =    1.000,"PART-1-1",           489,      -2.51696,       21.2046,            0.,NA,NA,"",       13.8490,      -13.8346,  -631.751E-03,   599.529E-09
C:/temp/dataset/2/7_7.odb,Step-1,Increment      1: Step Time =    1.000,"PART-1-1",           490,         -8.75,           20.,            0.,NA,NA,"",       13.1809,      -12.8275,      -3.03149,   91.3518E-09
C:/temp/dataset/2/7_7.odb,Step-1,Increment      1: Step Time =    1.000,"PART-1-1",           491,      -7.50331,       21.2223,            0.,NA,NA,"",       13.6787,      -13.4227,      -2.63397,   75.2497E-09
C:/temp/dataset/2/7_7.odb,Step-1,Increment      1: Step Time =    1.000,"PART-1-1",           492,         -6.25,           20.,            0.,NA,NA,"",       13.1944,      -13.0376,      -2.02838,   89.0552E-09
C:/temp/dataset/2/7_7.odb,Step-1,Increment      1: Step Time =    1.000,"PART-1-1",           493,      -6.26054,       22.4396,            0.,NA,NA,"",       14.1931,      -14.0156,      -2.23761,   141.752E-09
C:/temp/dataset/2/7_7.odb,Step-1,Increment      1: Step Time =    1.000,"PART-1-1",           494,         -1.25,           20.,            0.,NA,NA,"",       13.4577,      -13.4577,  -22.1782E-03,   1.99840E-06
C:/temp/dataset/2/7_7.odb,Step-1,Increment      1: Step Time =    1.000,"PART-1-1",           495,      -1.30453,       22.3853,            0.,NA,NA,"",       14.4123,      -14.4102,  -244.490E-03,   1.62517E-06
C:/temp/dataset/2/7_7.odb,Step-1,Increment      1: Step Time =    1.000,"PART-1-1",           496,         -1.25,           30.,            0.,NA,NA,"",       17.4914,      -17.4701,  -862.456E-03,   1.17541E-06
C:/temp/dataset/2/7_7.odb,Step-1,Increment      1: Step Time =    1.000,"PART-1-1",           497,      -2.50829,       28.7162,            0.,NA,NA,"",       16.8963,      -16.8493,      -1.25946,   520.309E-09
C:/temp/dataset/2/7_7.odb,Step-1,Increment      1: Step Time =    1.000,"PART-1-1",           498,         -3.75,           30.,            0.,NA,NA,"",       17.3606,      -17.2601,      -1.86556,   310.540E-09
C:/temp/dataset/2/7_7.odb,Step-1,Increment      1: Step Time =    1.000,"PART-1-1",           499,          3.75,           20.,            0.,NA,NA,"",       14.0190,      -13.8779,       1.98400,   21.0887E-06
C:/temp/dataset/2/7_7.odb,Step-1,Increment      1: Step Time =    1.000,"PART-1-1",           500,       4.75388,       21.0765,            0.,NA,NA,"",       14.5762,      -14.3941,       2.29633,   39.1098E-06
C:/temp/dataset/2/7_7.odb,Step-1,Increment      1: Step Time =    1.000,"PART-1-1",           501,          6.25,           30.,            0.,NA,NA,"",       18.2272,      -18.1004,       2.14687,   5.06124E-06
C:/temp/dataset/2/7_7.odb,Step-1,Increment      1: Step Time =    1.000,"PART-1-1",           502,       6.61296,       27.1492,            0.,NA,NA,"",       17.1747,      -16.9870,       2.53206,   2.98014E-06
C:/temp/dataset/2/7_7.odb,Step-1,Increment      1: Step Time =    1.000,"PART-1-1",           503,            5.,         16.25,            0.,NA,NA,"",       12.7878,      -12.4776,       2.79965,   615.937E-06
C:/temp/dataset/2/7_7.odb,Step-1,Increment      1: Step Time =    1.000,"PART-1-1",           504,       6.03202,       15.2452,            0.,NA,NA,"",       12.6004,      -12.1611,       3.29836,   515.159E-06
C:/temp/dataset/2/7_7.odb,Step-1,Increment      1: Step Time =    1.000,"PART-1-1",           505,       6.91243,       16.6330,            0.,NA,NA,"",       13.2723,      -12.7927,       3.53569,   325.197E-06
C:/temp/dataset/2/7_7.odb,Step-1,Increment      1: Step Time =    1.000,"PART-1-1",           506,            5.,         13.75,            0.,NA,NA,"",       11.8599,      -11.4720,       3.00863,   963.751E-06
C:/temp/dataset/2/7_7.odb,Step-1,Increment      1: Step Time =    1.000,"PART-1-1",           507,       6.17466,       12.7979,            0.,NA,NA,"",       11.7414,      -11.1881,       3.56182,   460.735E-06
C:/temp/dataset/2/7_7.odb,Step-1,Increment      1: Step Time =    1.000,"PART-1-1",           508,       12.0086,       16.5092,            0.,NA,NA,"",       14.3089,      -13.1710,       5.59198,   483.723E-06
C:/temp/dataset/2/7_7.odb,Step-1,Increment      1: Step Time =    1.000,"PART-1-1",           509,           15.,        16.875,            0.,NA,NA,"",       15.1593,      -13.5686,       6.75997,   697.375E-06
C:/temp/dataset/2/7_7.odb,Step-1,Increment      1: Step Time =    1.000,"PART-1-1",           510,       13.3591,       18.2744,            0.,NA,NA,"",       15.2186,      -13.9924,       5.98487,   229.933E-06
C:/temp/dataset/2/7_7.odb,Step-1,Increment      1: Step Time =    1.000,"PART-1-1",           511,            5.,         11.25,            0.,NA,NA,"",       10.9461,      -10.4622,       3.21879,   1.04695E-03
C:/temp/dataset/2/7_7.odb,Step-1,Increment      1: Step Time =    1.000,"PART-1-1",           512,       6.23142,       10.2778,            0.,NA,NA,"",       10.8600,      -10.1735,       3.79995,   1.15754E-03
C:/temp/dataset/2/7_7.odb,Step-1,Increment      1: Step Time =    1.000,"PART-1-1",           513,            5.,          8.75,            0.,NA,NA,"",       10.0490,      -9.44480,       3.43184,   2.08658E-03
C:/temp/dataset/2/7_7.odb,Step-1,Increment      1: Step Time =    1.000,"PART-1-1",           514,       7.47251,       9.25684,            0.,NA,NA,"",       10.7960,      -9.86308,       4.39015,   6.15439E-03
C:/temp/dataset/2/7_7.odb,Step-1,Increment      1: Step Time =    1.000,"PART-1-1",           515,         11.25,           -5.,            0.,NA,NA,"",       8.35189,      -4.55573,       6.99995,   4.62217E-03
C:/temp/dataset/2/7_7.odb,Step-1,Increment      1: Step Time =    1.000,"PART-1-1",           516,       11.2689,      -2.22707,            0.,NA,NA,"",       8.81817,      -5.62749,       6.78907,   7.47738E-03
C:/temp/dataset/2/7_7.odb,Step-1,Increment      1: Step Time =    1.000,"PART-1-1",           517,          10.5,          -30.,            0.,NA,NA,"",            0.,  -7.08001E-39,   4.43909E-39,   6.37135E-03
C:/temp/dataset/2/7_7.odb,Step-1,Increment      1: Step Time =    1.000,"PART-1-1",           518,           15.,        -23.75,            0.,NA,NA,"",   54.2777E-03,  -50.9094E-03,   18.8227E-03,   139.993E-06
C:/temp/dataset/2/7_7.odb,Step-1,Increment      1: Step Time =    1.000,"PART-1-1",           519,          3.75,           -5.,            0.,NA,NA,"",       5.76926,      -4.06770,       4.09122,   20.7690E-03
C:/temp/dataset/2/7_7.odb,Step-1,Increment      1: Step Time =    1.000,"PART-1-1",           520,       4.97006,      -3.74763,            0.,NA,NA,"",       6.40153,      -4.59792,       4.45406,   13.9073E-03
C:/temp/dataset/2/7_7.odb,Step-1,Increment      1: Step Time =    1.000,"PART-1-1",           521,       4.85412,       3.76356,            0.,NA,NA,"",       8.31690,      -7.36992,       3.85422,   26.2823E-03
C:/temp/dataset/2/7_7.odb,Step-1,Increment      1: Step Time =    1.000,"PART-1-1",           522,       3.33333,            5.,            0.,NA,NA,"",       8.35439,      -7.69709,       3.24816,   42.0166E-03
C:/temp/dataset/2/7_7.odb,Step-1,Increment      1: Step Time =    1.000,"PART-1-1",           523,       1.45296,       3.58740,            0.,NA,NA,"",       7.50115,      -7.00809,       2.67468,   26.9269E-03
C:/temp/dataset/2/7_7.odb,Step-1,Increment      1: Step Time =    1.000,"PART-1-1",           524,       2.97375,       2.35096,            0.,NA,NA,"",       7.44708,      -6.68688,       3.27789,   14.5423E-03
C:/temp/dataset/2/7_7.odb,Step-1,Increment      1: Step Time =    1.000,"PART-1-1",           525,          6.25,           -5.,            0.,NA,NA,"",       6.56990,      -4.20961,       5.04408,   16.7500E-03
C:/temp/dataset/2/7_7.odb,Step-1,Increment      1: Step Time =    1.000,"PART-1-1",           526,       12.4696,       10.4445,            0.,NA,NA,"",       12.4726,      -10.7768,       6.27904,   7.06703E-03
C:/temp/dataset/2/7_7.odb,Step-1,Increment      1: Step Time =    1.000,"PART-1-1",           527,           15.,       11.0417,            0.,NA,NA,"",       13.3696,      -11.2428,       7.23514,   6.35341E-03
C:/temp/dataset/2/7_7.odb,Step-1,Increment      1: Step Time =    1.000,"PART-1-1",           528,      -5.01382,       23.6808,            0.,NA,NA,"",       14.7339,      -14.6183,      -1.84167,   256.273E-09
C:/temp/dataset/2/7_7.odb,Step-1,Increment      1: Step Time =    1.000,"PART-1-1",           529,      -2.53358,       23.6558,            0.,NA,NA,"",       14.8408,      -14.8167,  -844.390E-03,   787.468E-09
C:/temp/dataset/2/7_7.odb,Step-1,Increment      1: Step Time =    1.000,"PART-1-1",           530,  -74.6816E-03,       23.6075,            0.,NA,NA,"",       15.0047,      -15.0040,   146.276E-03,   2.04228E-06
C:/temp/dataset/2/7_7.odb,Step-1,Increment      1: Step Time =    1.000,"PART-1-1",           531,      -6.62798,      -1.45964,            0.,NA,NA,"",       4.74242,      -4.73291,   300.274E-03,   21.3299E-03
C:/temp/dataset/2/7_7.odb,Step-1,Increment      1: Step Time =    1.000,"PART-1-1",           532,      -4.43070,      -2.38075,            0.,NA,NA,"",       4.66563,      -4.55236,       1.02184,   10.1007E-03
C:/temp/dataset/2/7_7.odb,Step-1,Increment      1: Step Time =    1.000,"PART-1-1",           533,      -3.64554,  -813.143E-03,            0.,NA,NA,"",       5.25915,      -5.11992,       1.20210,   7.65679E-03
C:/temp/dataset/2/7_7.odb,Step-1,Increment      1: Step Time =    1.000,"PART-1-1",           534,         -3.75,           -5.,            0.,NA,NA,"",       3.98168,      -3.72842,       1.39738,   29.3396E-03
C:/temp/dataset/2/7_7.odb,Step-1,Increment      1: Step Time =    1.000,"PART-1-1",           535,      -13.8599,      -9.43096,            0.,NA,NA,"",       2.48433,      -2.15878,      -1.22945,   46.6111E-03
C:/temp/dataset/2/7_7.odb,Step-1,Increment      1: Step Time =    1.000,"PART-1-1",           536,          -15.,      -11.0417,            0.,NA,NA,"",       2.25102,      -1.77578,      -1.38337,   66.2320E-03
C:/temp/dataset/2/7_7.odb,Step-1,Increment      1: Step Time =    1.000,"PART-1-1",           537,      -11.9984,      -19.8095,            0.,NA,NA,"",   425.212E-03,  -297.558E-03,  -303.750E-03,   36.1634E-03
C:/temp/dataset/2/7_7.odb,Step-1,Increment      1: Step Time =    1.000,"PART-1-1",           538,      -13.3881,      -18.2324,            0.,NA,NA,"",   731.509E-03,  -490.289E-03,  -542.883E-03,   59.0833E-03
C:/temp/dataset/2/7_7.odb,Step-1,Increment      1: Step Time =    1.000,"PART-1-1",           539,          -15.,      -19.7917,            0.,NA,NA,"",   722.848E-03,  -367.562E-03,  -622.421E-03,   85.0403E-03
C:/temp/dataset/2/7_7.odb,Step-1,Increment      1: Step Time =    1.000,"PART-1-1",           540,           -5.,        -18.75,            0.,NA,NA,"",   623.781E-03,  -473.124E-03,   406.517E-03,   131.657E-03
C:/temp/dataset/2/7_7.odb,Step-1,Increment      1: Step Time =    1.000,"PART-1-1",           541,      -5.96138,      -20.0094,            0.,NA,NA,"",   343.743E-03,  -244.422E-03,   241.697E-03,   82.3392E-03
C:/temp/dataset/2/7_7.odb,Step-1,Increment      1: Step Time =    1.000,"PART-1-1",           542,           -5.,        -13.75,            0.,NA,NA,"",       1.58127,      -1.40289,   729.591E-03,   74.9964E-03
C:/temp/dataset/2/7_7.odb,Step-1,Increment      1: Step Time =    1.000,"PART-1-1",           543,      -7.28958,      -14.3036,            0.,NA,NA,"",       1.22140,      -1.18692,   288.170E-03,   45.5177E-03
C:/temp/dataset/2/7_7.odb,Step-1,Increment      1: Step Time =    1.000,"PART-1-1",           544,      -8.88285,      -11.0213,            0.,NA,NA,"",       1.86771,      -1.86763,  -18.1081E-03,   21.3436E-03
C:/temp/dataset/2/7_7.odb,Step-1,Increment      1: Step Time =    1.000,"PART-1-1",           545,      -9.01222,      -8.51542,            0.,NA,NA,"",       2.50429,      -2.50232,  -99.2985E-03,   18.0547E-03
C:/temp/dataset/2/7_7.odb,Step-1,Increment      1: Step Time =    1.000,"PART-1-1",           546,      -9.13424,  -715.290E-03,            0.,NA,NA,"",       4.87438,      -4.85197,  -466.870E-03,   23.4664E-03
C:/temp/dataset/2/7_7.odb,Step-1,Increment      1: Step Time =    1.000,"PART-1-1",           547,      -9.92186,      -2.42350,            0.,NA,NA,"",       4.31091,      -4.26860,  -602.540E-03,   24.8450E-03
C:/temp/dataset/2/7_7.odb,Step-1,Increment      1: Step Time =    1.000,"PART-1-1",           548,      -12.7176,      -7.95930,            0.,NA,NA,"",       2.75727,      -2.55374,      -1.03969,   32.1911E-03
C:/temp/dataset/2/7_7.odb,Step-1,Increment      1: Step Time =    1.000,"PART-1-1",           549,          -15.,        -8.125,            0.,NA,NA,"",       2.96426,      -2.47408,      -1.63272,   54.6817E-03
C:/temp/dataset/2/7_7.odb,Step-1,Increment      1: Step Time =    1.000,"PART-1-1",           550,       11.2818,   528.104E-03,            0.,NA,NA,"",       9.38686,      -6.68755,       6.58709,   7.77020E-03
C:/temp/dataset/2/7_7.odb,Step-1,Increment      1: Step Time =    1.000,"PART-1-1",           551,       10.0167,  -924.457E-03,            0.,NA,NA,"",       8.64372,      -6.02533,       6.19753,   8.36208E-03
C:/temp/dataset/2/7_7.odb,Step-1,Increment      1: Step Time =    1.000,"PART-1-1",           552,       10.4320,       23.7699,            0.,NA,NA,"",       16.5340,      -15.9519,       4.34852,   44.2408E-06
C:/temp/dataset/2/7_7.odb,Step-1,Increment      1: Step Time =    1.000,"PART-1-1",           553,           15.,        25.625,            0.,NA,NA,"",       18.1119,      -17.0802,       6.02556,   2.80171E-06
C:/temp/dataset/2/7_7.odb,Step-1,Increment      1: Step Time =    1.000,"PART-1-1",           554,      -9.99539,       26.2124,            0.,NA,NA,"",       15.7462,      -15.2155,      -4.05320,   60.1238E-09
C:/temp/dataset/2/7_7.odb,Step-1,Increment      1: Step Time =    1.000,"PART-1-1",           555,          -15.,       -25.625,            0.,NA,NA,"",   221.755E-03,  -68.0948E-03,  -211.041E-03,   64.1358E-03
C:/temp/dataset/2/7_7.odb,Step-1,Increment      1: Step Time =    1.000,"PART-1-1",           556,      -12.2044,      -25.8339,            0.,NA,NA,"",   113.964E-03,  -3.49315E-03,  -113.911E-03,   36.8255E-03
C:/temp/dataset/2/7_7.odb,Step-1,Increment      1: Step Time =    1.000,"PART-1-1",           557,          -15.,       -16.875,            0.,NA,NA,"",       1.12196,  -705.907E-03,  -872.057E-03,   84.3751E-03
C:/temp/dataset/2/7_7.odb,Step-1,Increment      1: Step Time =    1.000,"PART-1-1",           558,      -8.25880,      -15.9015,            0.,NA,NA,"",   856.299E-03,  -849.613E-03,   106.791E-03,   32.9123E-03
C:/temp/dataset/2/7_7.odb,Step-1,Increment      1: Step Time =    1.000,"PART-1-1",           559,       7.56555,       17.9230,            0.,NA,NA,"",       13.8653,      -13.3653,       3.68963,   271.151E-06
C:/temp/dataset/2/7_7.odb,Step-1,Increment      1: Step Time =    1.000,"PART-1-1",           560,      -9.72707,       2.21069,            0.,NA,NA,"",       5.81919,      -5.76598,  -785.125E-03,   17.8255E-03
C:/temp/dataset/2/7_7.odb,Step-1,Increment      1: Step Time =    1.000,"PART-1-1",           561,      -8.18006,       3.69884,            0.,NA,NA,"",       6.33590,      -6.32334,  -398.865E-03,   17.8776E-03
C:/temp/dataset/2/7_7.odb,Step-1,Increment      1: Step Time =    1.000,"PART-1-1",           562,          -10.,            5.,            0.,NA,NA,"",       6.69369,      -6.61985,  -991.455E-03,   11.4598E-03
C:/temp/dataset/2/7_7.odb,Step-1,Increment      1: Step Time =    1.000,"PART-1-1",           563,      -10.3433,      -7.69771,            0.,NA,NA,"",       2.72027,      -2.68192,  -455.219E-03,   18.8744E-03
C:/temp/dataset/2/7_7.odb,Step-1,Increment      1: Step Time =    1.000,"PART-1-1",           564,      -11.5611,      -6.59494,            0.,NA,NA,"",       3.06755,      -2.95568,  -820.889E-03,   23.8980E-03
C:/temp/dataset/2/7_7.odb,Step-1,Increment      1: Step Time =    1.000,"PART-1-1",           565,      -9.40089,      -20.7816,            0.,NA,NA,"",   195.786E-03,  -193.274E-03,  -31.2616E-03,   9.03700E-03
C:/temp/dataset/2/7_7.odb,Step-1,Increment      1: Step Time =    1.000,"PART-1-1",           566,      -8.21757,      -22.2064,            0.,NA,NA,"",   117.063E-03,  -102.729E-03,   56.1298E-03,   17.4324E-03
C:/temp/dataset/2/7_7.odb,Step-1,Increment      1: Step Time =    1.000,"PART-1-1",           567,      -6.89894,      -21.2078,            0.,NA,NA,"",   223.413E-03,  -162.428E-03,   153.396E-03,   34.7222E-03
C:/temp/dataset/2/7_7.odb,Step-1,Increment      1: Step Time =    1.000,"PART-1-1",           568,      -9.14285,      -28.6800,            0.,NA,NA,"",   21.7606E-03,   21.1948E-03,  -4.92989E-03,   12.6808E-03
C:/temp/dataset/2/7_7.odb,Step-1,Increment      1: Step Time =    1.000,"PART-1-1",           569,      -10.7232,      -27.3047,            0.,NA,NA,"",   44.1788E-03,   23.0167E-03,  -37.7094E-03,   20.3097E-03
C:/temp/dataset/2/7_7.odb,Step-1,Increment      1: Step Time =    1.000,"PART-1-1",           570,         -10.5,          -30.,            0.,NA,NA,"",            0.,   18.9753E-39,  -34.5995E-39,   20.2266E-03
C:/temp/dataset/2/7_7.odb,Step-1,Increment      1: Step Time =    1.000,"PART-1-1",           571,      -4.89633,      -27.4366,            0.,NA,NA,"",   37.0611E-03,  -12.9963E-03,   34.7077E-03,   20.0449E-03
C:/temp/dataset/2/7_7.odb,Step-1,Increment      1: Step Time =    1.000,"PART-1-1",           572,      -6.18287,      -28.7136,            0.,NA,NA,"",   12.7593E-03,   5.62965E-03,   11.4501E-03,   13.9126E-03
C:/temp/dataset/2/7_7.odb,Step-1,Increment      1: Step Time =    1.000,"PART-1-1",           573,          -4.5,          -30.,            0.,NA,NA,"",            0.,  -1.90208E-39,   25.7314E-39,   11.3067E-03
C:/temp/dataset/2/7_7.odb,Step-1,Increment      1: Step Time =    1.000,"PART-1-1",           574,       12.5384,       2.02620,            0.,NA,NA,"",       10.1501,      -7.37906,       6.96945,   5.77510E-03
C:/temp/dataset/2/7_7.odb,Step-1,Increment      1: Step Time =    1.000,"PART-1-1",           575,           15.,       2.29167,            0.,NA,NA,"",       11.0417,      -7.69372,       7.91993,   10.5555E-03
C:/temp/dataset/2/7_7.odb,Step-1,Increment      1: Step Time =    1.000,"PART-1-1",           576,       9.96595,       9.83263,            0.,NA,NA,"",       11.6092,      -10.3106,       5.33528,   6.62571E-03
C:/temp/dataset/2/7_7.odb,Step-1,Increment      1: Step Time =    1.000,"PART-1-1",           577,           15.,       19.7917,            0.,NA,NA,"",       16.1151,      -14.7392,       6.51566,   191.026E-06
C:/temp/dataset/2/7_7.odb,Step-1,Increment      1: Step Time =    1.000,"PART-1-1",           578,       7.90800,       20.1372,            0.,NA,NA,"",       14.7392,      -14.2824,       3.64098,   134.496E-06
C:/temp/dataset/2/7_7.odb,Step-1,Increment      1: Step Time =    1.000,"PART-1-1",           579,       8.41916,       21.3934,            0.,NA,NA,"",       15.2938,      -14.8293,       3.74054,   100.255E-06
C:/temp/dataset/2/7_7.odb,Step-1,Increment      1: Step Time =    1.000,"PART-1-1",           580,       6.50486,       21.1025,            0.,NA,NA,"",       14.8571,      -14.5518,       2.99673,   94.8958E-06
C:/temp/dataset/2/7_7.odb,Step-1,Increment      1: Step Time =    1.000,"PART-1-1",           581,           4.5,          -30.,            0.,NA,NA,"",            0.,  -12.2204E-39,   9.04173E-39,   11.3479E-03
C:/temp/dataset/2/7_7.odb,Step-1,Increment      1: Step Time =    1.000,"PART-1-1",           582,       3.62857,      -22.4261,            0.,NA,NA,"",   77.4496E-03,  -77.2144E-03,   6.03151E-03,   7.10363E-03
C:/temp/dataset/2/7_7.odb,Step-1,Increment      1: Step Time =    1.000,"PART-1-1",           583,       2.16864,      -23.6665,            0.,NA,NA,"",   81.8447E-03,  -80.1450E-03,   16.5933E-03,   10.9731E-03
C:/temp/dataset/2/7_7.odb,Step-1,Increment      1: Step Time =    1.000,"PART-1-1",           584,      -2.73954,      -22.4743,            0.,NA,NA,"",   169.437E-03,  -130.723E-03,   107.798E-03,   32.1602E-03
C:/temp/dataset/2/7_7.odb,Step-1,Increment      1: Step Time =    1.000,"PART-1-1",           585,  -999.676E-03,      -23.6839,            0.,NA,NA,"",   112.259E-03,  -97.7085E-03,   55.2730E-03,   23.0279E-03
C:/temp/dataset/2/7_7.odb,Step-1,Increment      1: Step Time =    1.000,"PART-1-1",           586,      -7.82572,      -27.3936,            0.,NA,NA,"",   21.0184E-03,   16.3606E-03,   13.1949E-03,   11.2529E-03
C:/temp/dataset/2/7_7.odb,Step-1,Increment      1: Step Time =    1.000,"PART-1-1",           587,      -6.52069,      -26.1528,            0.,NA,NA,"",   48.3858E-03,  -9.82123E-03,   47.3786E-03,   22.3804E-03
C:/temp/dataset/2/7_7.odb,Step-1,Increment      1: Step Time =    1.000,"PART-1-1",           588,      -8.08310,      -24.7829,            0.,NA,NA,"",   36.5823E-03,  -16.4692E-03,   32.6655E-03,   14.8068E-03
C:/temp/dataset/2/7_7.odb,Step-1,Increment      1: Step Time =    1.000,"PART-1-1",           589,      -9.38814,      -26.0237,            0.,NA,NA,"",   20.2718E-03,   13.6765E-03,  -14.9632E-03,   12.6469E-03
C:/temp/dataset/2/7_7.odb,Step-1,Increment      1: Step Time =    1.000,"PART-1-1",           590,          -7.5,          -30.,            0.,NA,NA,"",            0.,   12.5815E-39,   5.75552E-39,   10.3236E-03
C:/temp/dataset/2/7_7.odb,Step-1,Increment      1: Step Time =    1.000,"PART-1-1",           591,       7.73182,       24.8866,            0.,NA,NA,"",       16.4811,      -16.1731,       3.17115,   16.0712E-06
C:/temp/dataset/2/7_7.odb,Step-1,Increment      1: Step Time =    1.000,"PART-1-1",           592,       8.21760,       26.2797,            0.,NA,NA,"",       17.0847,      -16.7729,       3.24900,   10.5619E-06
C:/temp/dataset/2/7_7.odb,Step-1,Increment      1: Step Time =    1.000,"PART-1-1",           593,       6.12718,       25.7561,            0.,NA,NA,"",       16.5699,      -16.3872,       2.45420,   8.36001E-06
C:/temp/dataset/2/7_7.odb,Step-1,Increment      1: Step Time =    1.000,"PART-1-1",           594,       5.38844,       22.1508,            0.,NA,NA,"",       15.0806,      -14.8785,       2.46070,   25.5523E-06
C:/temp/dataset/2/7_7.odb,Step-1,Increment      1: Step Time =    1.000,"PART-1-1",           595,      -3.37677,   775.412E-03,            0.,NA,NA,"",       5.79774,      -5.67019,       1.20940,   13.7933E-03
C:/temp/dataset/2/7_7.odb,Step-1,Increment      1: Step Time =    1.000,"PART-1-1",           596,      -3.41233,       2.84116,            0.,NA,NA,"",       6.45525,      -6.36124,       1.09768,   21.3068E-03
C:/temp/dataset/2/7_7.odb,Step-1,Increment      1: Step Time =    1.000,"PART-1-1",           597,      -11.2482,       24.9673,            0.,NA,NA,"",       15.2737,      -14.6107,      -4.45127,   64.3536E-09
C:/temp/dataset/2/7_7.odb,Step-1,Increment      1: Step Time =    1.000,"PART-1-1",           598,       5.16292,       24.1270,            0.,NA,NA,"",       15.8069,      -15.6525,       2.20418,   9.52525E-06
C:/temp/dataset/2/7_7.odb,Step-1,Increment      1: Step Time =    1.000,"PART-1-1",           599,            0.,            5.,            0.,NA,NA,"",       7.67509,      -7.37776,       2.11560,   35.0822E-03
C:/temp/dataset/2/7_7.odb,Step-1,Increment      1: Step Time =    1.000,"PART-1-1",           600,      -1.80204,       3.95011,            0.,NA,NA,"",       7.03645,      -6.85968,       1.56729,   28.5539E-03
C:/temp/dataset/2/7_7.odb,Step-1,Increment      1: Step Time =    1.000,"PART-1-1",           601,       9.59799,       22.9228,            0.,NA,NA,"",       16.0699,      -15.5420,       4.08505,   52.6116E-06
C:/temp/dataset/2/7_7.odb,Step-1,Increment      1: Step Time =    1.000,"PART-1-1",           602,       8.30932,       22.9391,            0.,NA,NA,"",       15.8468,      -15.4403,       3.56655,   42.9253E-06
C:/temp/dataset/2/7_7.odb,Step-1,Increment      1: Step Time =    1.000,"PART-1-1",           603,      -1.93269,      -1.01257,            0.,NA,NA,"",       5.45574,      -5.15565,       1.78448,   2.47476E-03
C:/temp/dataset/2/7_7.odb,Step-1,Increment      1: Step Time =    1.000,"PART-1-1",           604,      -8.69440,      -13.5596,            0.,NA,NA,"",       1.29835,      -1.29767,   42.1728E-03,   25.2661E-03
C:/temp/dataset/2/7_7.odb,Step-1,Increment      1: Step Time =    1.000,"PART-1-1",           605,       6.07991,       2.65614,            0.,NA,NA,"",       8.31715,      -7.05626,       4.40274,   13.8590E-03
C:/temp/dataset/2/7_7.odb,Step-1,Increment      1: Step Time =    1.000,"PART-1-1",           606,       4.75906,       1.28045,            0.,NA,NA,"",       7.57794,      -6.43282,       4.00549,   7.94330E-03
C:/temp/dataset/2/7_7.odb,Step-1,Increment      1: Step Time =    1.000,"PART-1-1",           607,       10.0234,       4.43547,            0.,NA,NA,"",       9.97658,      -8.11710,       5.80042,   11.2679E-03
C:/temp/dataset/2/7_7.odb,Step-1,Increment      1: Step Time =    1.000,"PART-1-1",           608,       7.46673,       4.06304,            0.,NA,NA,"",       9.11958,      -7.73273,       4.83442,   15.9337E-03
C:/temp/dataset/2/7_7.odb,Step-1,Increment      1: Step Time =    1.000,"PART-1-1",           609,  -317.165E-03,  -486.862E-03,            0.,NA,NA,"",       5.90541,      -5.43713,       2.30467,   3.00242E-03
C:/temp/dataset/2/7_7.odb,Step-1,Increment      1: Step Time =    1.000,"PART-1-1",           610,       1.72730,   921.331E-03,            0.,NA,NA,"",       6.74334,      -6.07374,       2.92955,   10.1556E-03
C:/temp/dataset/2/7_7.odb,Step-1,Increment      1: Step Time =    1.000,"PART-1-1",           611,      -4.63664,      -21.2535,            0.,NA,NA,"",   265.786E-03,  -178.043E-03,   197.339E-03,   72.6005E-03
C:/temp/dataset/2/7_7.odb,Step-1,Increment      1: Step Time =    1.000,"PART-1-1",           612,       11.2827,       3.26092,            0.,NA,NA,"",       10.0469,      -7.75907,       6.38261,   9.18010E-03
C:/temp/dataset/2/7_7.odb,Step-1,Increment      1: Step Time =    1.000,"PART-1-1",           613,      -11.4502,      -4.36864,            0.,NA,NA,"",       3.72612,      -3.61110,  -918.654E-03,   24.7264E-03
C:/temp/dataset/2/7_7.odb,Step-1,Increment      1: Step Time =    1.000,"PART-1-1",           614,      -10.8693,      -24.5529,            0.,NA,NA,"",   89.4230E-03,  -16.3061E-03,  -87.9237E-03,   24.0841E-03
C:/temp/dataset/2/7_7.odb,Step-1,Increment      1: Step Time =    1.000,"PART-1-1",           615,      -9.52531,      -23.3517,            0.,NA,NA,"",   57.2569E-03,  -50.3516E-03,  -27.2592E-03,   14.5559E-03
C:/temp/dataset/2/7_7.odb,Step-1,Increment      1: Step Time =    1.000,"PART-1-1",           616,      -10.8903,      -21.7518,            0.,NA,NA,"",   195.761E-03,  -133.828E-03,  -142.872E-03,   25.3492E-03
C:/temp/dataset/2/7_7.odb,Step-1,Increment      1: Step Time =    1.000,"PART-1-1",           617,       3.33333,          -20.,            0.,NA,NA,"",   75.1375E-03,  -75.0852E-03,   2.80548E-03,   3.37248E-03
C:/temp/dataset/2/7_7.odb,Step-1,Increment      1: Step Time =    1.000,"PART-1-1",           618,       1.83446,      -21.2108,            0.,NA,NA,"",   86.4085E-03,  -85.2111E-03,   14.3352E-03,   6.95156E-03
C:/temp/dataset/2/7_7.odb,Step-1,Increment      1: Step Time =    1.000,"PART-1-1",           619,       5.12744,      -21.2153,            0.,NA,NA,"",   72.1309E-03,  -72.1231E-03,  -1.06280E-03,   3.35697E-03
C:/temp/dataset/2/7_7.odb,Step-1,Increment      1: Step Time =    1.000,"PART-1-1",           620,            0.,          -20.,            0.,NA,NA,"",   90.8094E-03,  -86.0040E-03,   29.1489E-03,   10.6499E-03
C:/temp/dataset/2/7_7.odb,Step-1,Increment      1: Step Time =    1.000,"PART-1-1",           621,      -1.43624,      -21.2208,            0.,NA,NA,"",   138.387E-03,  -120.021E-03,   68.8906E-03,   18.3409E-03
C:/temp/dataset/2/7_7.odb,Step-1,Increment      1: Step Time =    1.000,"PART-1-1",           622,   398.228E-03,      -22.4316,            0.,NA,NA,"",   103.524E-03,  -97.3504E-03,   35.2148E-03,   16.0853E-03
C:/temp/dataset/2/7_7.odb,Step-1,Increment      1: Step Time =    1.000,"PART-1-1",           623,   770.736E-03,      -24.9188,            0.,NA,NA,"",   81.0883E-03,  -76.1095E-03,   27.9759E-03,   16.1792E-03
C:/temp/dataset/2/7_7.odb,Step-1,Increment      1: Step Time =    1.000,"PART-1-1",           624,      -3.33333,          -20.,            0.,NA,NA,"",   182.430E-03,  -145.622E-03,   109.885E-03,   54.2601E-03
C:/temp/dataset/2/7_7.odb,Step-1,Increment      1: Step Time =    1.000,"PART-1-1",           625,       8.69606,       24.2205,            0.,NA,NA,"",       16.3903,      -15.9869,       3.61405,   29.8576E-06
C:/temp/dataset/2/7_7.odb,Step-1,Increment      1: Step Time =    1.000,"PART-1-1",           626,      -3.33333,            5.,            0.,NA,NA,"",       7.16150,      -7.08734,       1.02793,   32.9263E-03
C:/temp/dataset/2/7_7.odb,Step-1,Increment      1: Step Time =    1.000,"PART-1-1",           627,      -4.94363,       3.89105,            0.,NA,NA,"",       6.62207,      -6.59755,   569.329E-03,   25.3899E-03
C:/temp/dataset/2/7_7.odb,Step-1,Increment      1: Step Time =    1.000,"PART-1-1",           628,      -6.66667,            5.,            0.,NA,NA,"",       6.82843,      -6.82843,  -16.7572E-06,   25.1250E-03
C:/temp/dataset/2/7_7.odb,Step-1,Increment      1: Step Time =    1.000,"PART-1-1",           629,           10.,          -20.,            0.,NA,NA,"",   67.3479E-03,  -67.3474E-03,  -243.406E-06,   95.9835E-06
C:/temp/dataset/2/7_7.odb,Step-1,Increment      1: Step Time =    1.000,"PART-1-1",           630,       8.42239,      -21.2201,            0.,NA,NA,"",   65.4271E-03,  -65.3718E-03,  -2.68974E-03,   1.52732E-03
C:/temp/dataset/2/7_7.odb,Step-1,Increment      1: Step Time =    1.000,"PART-1-1",           631,       6.66667,          -20.,            0.,NA,NA,"",   68.8192E-03,  -68.6888E-03,  -4.23492E-03,   1.36438E-03
C:/temp/dataset/2/7_7.odb,Step-1,Increment      1: Step Time =    1.000,"PART-1-1",           632,       9.53008,       25.0675,            0.,NA,NA,"",       16.8491,      -16.3968,       3.87753,   16.6034E-06
