ODB Name,Step,Frame,Part Instance Name,    êﬂì_ÉâÉxÉã,X,Y,Z,Section Name,Material Name,Section Point,   U-Magnitude,          U-U1,          U-U2,       S-Mises
C:/temp/dataset/2/7_9.odb,Step-1,Increment      4: Step Time =    1.000,"PART-1-1",             1,          -15.,           20.,            0.,NA,NA,"",       16.8278,      -14.9991,      -7.62901,   1.63137E-09
C:/temp/dataset/2/7_9.odb,Step-1,Increment      4: Step Time =    1.000,"PART-1-1",             2,          -15.,           25.,            0.,NA,NA,"",       19.3497,      -17.4838,      -8.29013,   15.5823E-09
C:/temp/dataset/2/7_9.odb,Step-1,Increment      4: Step Time =    1.000,"PART-1-1",             3,          -10.,           20.,            0.,NA,NA,"",       16.4835,      -15.6602,      -5.14424,   28.8023E-09
C:/temp/dataset/2/7_9.odb,Step-1,Increment      4: Step Time =    1.000,"PART-1-1",             4,           -5.,           20.,            0.,NA,NA,"",       16.5365,      -16.3213,      -2.65947,   216.669E-09
C:/temp/dataset/2/7_9.odb,Step-1,Increment      4: Step Time =    1.000,"PART-1-1",             5,            0.,           20.,            0.,NA,NA,"",       16.9833,      -16.9824,  -174.699E-03,   4.98154E-06
C:/temp/dataset/2/7_9.odb,Step-1,Increment      4: Step Time =    1.000,"PART-1-1",             6,            5.,           20.,            0.,NA,NA,"",       17.7941,      -17.6435,       2.30992,   113.209E-06
C:/temp/dataset/2/7_9.odb,Step-1,Increment      4: Step Time =    1.000,"PART-1-1",             7,            5.,          12.5,            0.,NA,NA,"",       14.2948,      -13.9088,       3.29955,   1.47573E-03
C:/temp/dataset/2/7_9.odb,Step-1,Increment      4: Step Time =    1.000,"PART-1-1",             8,            5.,            5.,            0.,NA,NA,"",       10.9888,      -10.0747,       4.38779,   56.2299E-03
C:/temp/dataset/2/7_9.odb,Step-1,Increment      4: Step Time =    1.000,"PART-1-1",             9,           -5.,            5.,            0.,NA,NA,"",       8.75596,      -8.74967,   331.919E-03,   39.0631E-03
C:/temp/dataset/2/7_9.odb,Step-1,Increment      4: Step Time =    1.000,"PART-1-1",            10,          -15.,            5.,            0.,NA,NA,"",       8.58098,      -7.87900,      -3.39920,   1.58499E-03
C:/temp/dataset/2/7_9.odb,Step-1,Increment      4: Step Time =    1.000,"PART-1-1",            11,          -15.,         -3.75,            0.,NA,NA,"",       5.24235,      -4.53968,      -2.62175,   41.5384E-03
C:/temp/dataset/2/7_9.odb,Step-1,Increment      4: Step Time =    1.000,"PART-1-1",            12,          -15.,         -12.5,            0.,NA,NA,"",       2.41570,      -1.79842,      -1.61285,   90.4697E-03
C:/temp/dataset/2/7_9.odb,Step-1,Increment      4: Step Time =    1.000,"PART-1-1",            13,          -15.,        -21.25,            0.,NA,NA,"",   706.200E-03,  -305.556E-03,  -636.674E-03,   104.587E-03
C:/temp/dataset/2/7_9.odb,Step-1,Increment      4: Step Time =    1.000,"PART-1-1",            14,          -15.,          -30.,            0.,NA,NA,"",            0.,   419.043E-42,   665.450E-42,   65.1190E-03
C:/temp/dataset/2/7_9.odb,Step-1,Increment      4: Step Time =    1.000,"PART-1-1",            15,           15.,          -30.,            0.,NA,NA,"",            0.,   76.9313E-42,  -119.336E-42,   14.1286E-03
C:/temp/dataset/2/7_9.odb,Step-1,Increment      4: Step Time =    1.000,"PART-1-1",            16,           15.,          -25.,            0.,NA,NA,"",   59.4967E-03,  -54.5748E-03,   23.6949E-03,   595.608E-06
C:/temp/dataset/2/7_9.odb,Step-1,Increment      4: Step Time =    1.000,"PART-1-1",            17,           15.,          -20.,            0.,NA,NA,"",   88.8530E-03,  -85.8625E-03,   22.8579E-03,   60.9580E-06
C:/temp/dataset/2/7_9.odb,Step-1,Increment      4: Step Time =    1.000,"PART-1-1",            18,            5.,          -20.,            0.,NA,NA,"",   89.7571E-03,  -89.7169E-03,  -2.68738E-03,   3.12390E-03
C:/temp/dataset/2/7_9.odb,Step-1,Increment      4: Step Time =    1.000,"PART-1-1",            19,           -5.,          -20.,            0.,NA,NA,"",   443.766E-03,  -306.345E-03,   321.062E-03,   170.857E-03
C:/temp/dataset/2/7_9.odb,Step-1,Increment      4: Step Time =    1.000,"PART-1-1",            20,           -5.,         -12.5,            0.,NA,NA,"",       2.33966,      -2.14238,   940.336E-03,   89.8134E-03
C:/temp/dataset/2/7_9.odb,Step-1,Increment      4: Step Time =    1.000,"PART-1-1",            21,           -5.,           -5.,            0.,NA,NA,"",       4.77881,      -4.66190,       1.05058,   61.2372E-03
C:/temp/dataset/2/7_9.odb,Step-1,Increment      4: Step Time =    1.000,"PART-1-1",            22,            0.,           -5.,            0.,NA,NA,"",       5.99780,      -5.03226,       3.26343,   26.3973E-03
C:/temp/dataset/2/7_9.odb,Step-1,Increment      4: Step Time =    1.000,"PART-1-1",            23,            5.,           -5.,            0.,NA,NA,"",       7.79157,      -5.45466,       5.56374,   24.7514E-03
C:/temp/dataset/2/7_9.odb,Step-1,Increment      4: Step Time =    1.000,"PART-1-1",            24,           10.,           -5.,            0.,NA,NA,"",       9.97634,      -5.98609,       7.98086,   9.60414E-03
C:/temp/dataset/2/7_9.odb,Step-1,Increment      4: Step Time =    1.000,"PART-1-1",            25,           15.,           -5.,            0.,NA,NA,"",       12.3201,      -6.59793,       10.4044,   660.746E-06
C:/temp/dataset/2/7_9.odb,Step-1,Increment      4: Step Time =    1.000,"PART-1-1",            26,           15.,          3.75,            0.,NA,NA,"",       14.3403,      -10.8598,       9.36538,   15.5512E-03
C:/temp/dataset/2/7_9.odb,Step-1,Increment      4: Step Time =    1.000,"PART-1-1",            27,           15.,          12.5,            0.,NA,NA,"",       17.3382,      -15.2462,       8.25621,   5.40164E-03
C:/temp/dataset/2/7_9.odb,Step-1,Increment      4: Step Time =    1.000,"PART-1-1",            28,           15.,         21.25,            0.,NA,NA,"",       20.8389,      -19.5867,       7.11472,   66.8164E-06
C:/temp/dataset/2/7_9.odb,Step-1,Increment      4: Step Time =    1.000,"PART-1-1",            29,           15.,           30.,            0.,NA,NA,"",       24.6658,      -23.9355,       5.95759,   461.800E-09
C:/temp/dataset/2/7_9.odb,Step-1,Increment      4: Step Time =    1.000,"PART-1-1",            30,           7.5,           30.,            0.,NA,NA,"",       23.0518,      -22.9437,       2.23025,   6.38207E-06
C:/temp/dataset/2/7_9.odb,Step-1,Increment      4: Step Time =    1.000,"PART-1-1",            31,            0.,           30.,            0.,NA,NA,"",       22.0029,      -21.9520,      -1.49693,   2.40560E-06
C:/temp/dataset/2/7_9.odb,Step-1,Increment      4: Step Time =    1.000,"PART-1-1",            32,          -7.5,           30.,            0.,NA,NA,"",       21.6015,      -20.9603,      -5.22409,   32.7790E-09
C:/temp/dataset/2/7_9.odb,Step-1,Increment      4: Step Time =    1.000,"PART-1-1",            33,          -15.,           30.,            0.,NA,NA,"",       21.8831,      -19.9686,      -8.95125,   1.18414E-09
C:/temp/dataset/2/7_9.odb,Step-1,Increment      4: Step Time =    1.000,"PART-1-1",            34,          -15.,          22.5,            0.,NA,NA,"",       18.0870,      -16.2414,      -7.95957,   8.47092E-09
C:/temp/dataset/2/7_9.odb,Step-1,Increment      4: Step Time =    1.000,"PART-1-1",            35,         -12.5,           20.,            0.,NA,NA,"",       16.6068,      -15.3296,      -6.38663,   10.1659E-09
C:/temp/dataset/2/7_9.odb,Step-1,Increment      4: Step Time =    1.000,"PART-1-1",            36,          -7.5,           20.,            0.,NA,NA,"",       16.4599,      -15.9907,      -3.90186,   47.6652E-09
C:/temp/dataset/2/7_9.odb,Step-1,Increment      4: Step Time =    1.000,"PART-1-1",            37,          -2.5,           20.,            0.,NA,NA,"",       16.7120,      -16.6519,      -1.41708,   780.470E-09
C:/temp/dataset/2/7_9.odb,Step-1,Increment      4: Step Time =    1.000,"PART-1-1",            38,           2.5,           20.,            0.,NA,NA,"",       17.3459,      -17.3130,       1.06768,   21.2776E-06
C:/temp/dataset/2/7_9.odb,Step-1,Increment      4: Step Time =    1.000,"PART-1-1",            39,            5.,           15.,            0.,NA,NA,"",       15.4447,      -15.1565,       2.96945,   1.12584E-03
C:/temp/dataset/2/7_9.odb,Step-1,Increment      4: Step Time =    1.000,"PART-1-1",            40,            5.,          17.5,            0.,NA,NA,"",       16.6119,      -16.4008,       2.63988,   487.000E-06
C:/temp/dataset/2/7_9.odb,Step-1,Increment      4: Step Time =    1.000,"PART-1-1",            41,            5.,           7.5,            0.,NA,NA,"",       12.0593,      -11.3838,       3.97932,   12.6289E-03
C:/temp/dataset/2/7_9.odb,Step-1,Increment      4: Step Time =    1.000,"PART-1-1",            42,            5.,           10.,            0.,NA,NA,"",       13.1645,      -12.6530,       3.63398,   2.16281E-03
C:/temp/dataset/2/7_9.odb,Step-1,Increment      4: Step Time =    1.000,"PART-1-1",            43,      -1.66667,            5.,            0.,NA,NA,"",       9.29574,      -9.15138,       1.63189,   43.3323E-03
C:/temp/dataset/2/7_9.odb,Step-1,Increment      4: Step Time =    1.000,"PART-1-1",            44,       1.66667,            5.,            0.,NA,NA,"",       10.0454,      -9.58748,       2.99822,   46.6274E-03
C:/temp/dataset/2/7_9.odb,Step-1,Increment      4: Step Time =    1.000,"PART-1-1",            45,      -11.6667,            5.,            0.,NA,NA,"",       8.40495,      -8.12831,      -2.13866,   5.22926E-03
C:/temp/dataset/2/7_9.odb,Step-1,Increment      4: Step Time =    1.000,"PART-1-1",            46,      -8.33333,            5.,            0.,NA,NA,"",       8.45590,      -8.40685,  -909.488E-03,   23.2700E-03
C:/temp/dataset/2/7_9.odb,Step-1,Increment      4: Step Time =    1.000,"PART-1-1",            47,          -15.,  -833.333E-03,            0.,NA,NA,"",       6.34558,      -5.63450,      -2.91870,   21.1015E-03
C:/temp/dataset/2/7_9.odb,Step-1,Increment      4: Step Time =    1.000,"PART-1-1",            48,          -15.,       2.08333,            0.,NA,NA,"",       7.46887,      -6.76035,      -3.17518,   4.05558E-03
C:/temp/dataset/2/7_9.odb,Step-1,Increment      4: Step Time =    1.000,"PART-1-1",            49,          -15.,      -9.58333,            0.,NA,NA,"",       3.25056,      -2.59837,      -1.95311,   76.4831E-03
C:/temp/dataset/2/7_9.odb,Step-1,Increment      4: Step Time =    1.000,"PART-1-1",            50,          -15.,      -6.66667,            0.,NA,NA,"",       4.19914,      -3.51805,      -2.29262,   60.7358E-03
C:/temp/dataset/2/7_9.odb,Step-1,Increment      4: Step Time =    1.000,"PART-1-1",            51,          -15.,      -18.3333,            0.,NA,NA,"",       1.13811,  -635.174E-03,  -944.378E-03,   109.154E-03
C:/temp/dataset/2/7_9.odb,Step-1,Increment      4: Step Time =    1.000,"PART-1-1",            52,          -15.,      -15.4167,            0.,NA,NA,"",       1.70801,      -1.13664,      -1.27489,   103.478E-03
C:/temp/dataset/2/7_9.odb,Step-1,Increment      4: Step Time =    1.000,"PART-1-1",            53,          -15.,      -27.0833,            0.,NA,NA,"",   174.895E-03,  -55.6707E-03,  -165.798E-03,   74.8732E-03
C:/temp/dataset/2/7_9.odb,Step-1,Increment      4: Step Time =    1.000,"PART-1-1",            54,          -15.,      -24.1667,            0.,NA,NA,"",   397.316E-03,  -127.887E-03,  -376.172E-03,   88.8957E-03
C:/temp/dataset/2/7_9.odb,Step-1,Increment      4: Step Time =    1.000,"PART-1-1",            55,           12.,          -30.,            0.,NA,NA,"",            0.,  -17.2229E-39,   19.3721E-39,   6.44388E-03
C:/temp/dataset/2/7_9.odb,Step-1,Increment      4: Step Time =    1.000,"PART-1-1",            56,            9.,          -30.,            0.,NA,NA,"",            0.,  -13.5134E-39,  -8.09483E-39,   9.20569E-03
C:/temp/dataset/2/7_9.odb,Step-1,Increment      4: Step Time =    1.000,"PART-1-1",            57,            6.,          -30.,            0.,NA,NA,"",            0.,  -29.1254E-39,   32.8287E-39,   12.2811E-03
C:/temp/dataset/2/7_9.odb,Step-1,Increment      4: Step Time =    1.000,"PART-1-1",            58,            3.,          -30.,            0.,NA,NA,"",            0.,  -21.7376E-39,   4.20097E-39,   16.1992E-03
C:/temp/dataset/2/7_9.odb,Step-1,Increment      4: Step Time =    1.000,"PART-1-1",            59,            0.,          -30.,            0.,NA,NA,"",            0.,  -46.4179E-39,   64.9460E-39,   19.1645E-03
C:/temp/dataset/2/7_9.odb,Step-1,Increment      4: Step Time =    1.000,"PART-1-1",            60,           -3.,          -30.,            0.,NA,NA,"",            0.,  -37.1466E-39,   67.8329E-39,   17.7608E-03
C:/temp/dataset/2/7_9.odb,Step-1,Increment      4: Step Time =    1.000,"PART-1-1",            61,           -6.,          -30.,            0.,NA,NA,"",            0.,  -2.42748E-39,   30.9292E-39,   13.2695E-03
C:/temp/dataset/2/7_9.odb,Step-1,Increment      4: Step Time =    1.000,"PART-1-1",            62,           -9.,          -30.,            0.,NA,NA,"",            0.,   28.6424E-39,   5.82025E-39,   19.8633E-03
C:/temp/dataset/2/7_9.odb,Step-1,Increment      4: Step Time =    1.000,"PART-1-1",            63,          -12.,          -30.,            0.,NA,NA,"",            0.,  -23.0084E-39,  -106.383E-39,   35.0435E-03
C:/temp/dataset/2/7_9.odb,Step-1,Increment      4: Step Time =    1.000,"PART-1-1",            64,           15.,         -27.5,            0.,NA,NA,"",   36.7852E-03,  -30.8768E-03,   19.9943E-03,   5.01329E-03
C:/temp/dataset/2/7_9.odb,Step-1,Increment      4: Step Time =    1.000,"PART-1-1",            65,           15.,         -22.5,            0.,NA,NA,"",   75.8645E-03,  -72.1994E-03,   23.2954E-03,   350.764E-06
C:/temp/dataset/2/7_9.odb,Step-1,Increment      4: Step Time =    1.000,"PART-1-1",            66,       8.33333,          -20.,            0.,NA,NA,"",   85.2552E-03,  -85.1674E-03,  -3.86854E-03,   621.825E-06
C:/temp/dataset/2/7_9.odb,Step-1,Increment      4: Step Time =    1.000,"PART-1-1",            67,       11.6667,          -20.,            0.,NA,NA,"",   85.2767E-03,  -85.0730E-03,   5.89132E-03,   360.048E-06
C:/temp/dataset/2/7_9.odb,Step-1,Increment      4: Step Time =    1.000,"PART-1-1",            68,      -1.66667,          -20.,            0.,NA,NA,"",   157.128E-03,  -130.209E-03,   87.9486E-03,   34.8542E-03
C:/temp/dataset/2/7_9.odb,Step-1,Increment      4: Step Time =    1.000,"PART-1-1",            69,       1.66667,          -20.,            0.,NA,NA,"",   104.187E-03,  -102.385E-03,   19.2943E-03,   6.68944E-03
C:/temp/dataset/2/7_9.odb,Step-1,Increment      4: Step Time =    1.000,"PART-1-1",            70,           -5.,          -15.,            0.,NA,NA,"",       1.67025,      -1.45891,   813.214E-03,   100.102E-03
C:/temp/dataset/2/7_9.odb,Step-1,Increment      4: Step Time =    1.000,"PART-1-1",            71,           -5.,         -17.5,            0.,NA,NA,"",       1.08293,  -868.127E-03,   647.370E-03,   123.228E-03
C:/temp/dataset/2/7_9.odb,Step-1,Increment      4: Step Time =    1.000,"PART-1-1",            72,           -5.,          -7.5,            0.,NA,NA,"",       3.90518,      -3.76621,       1.03254,   69.7337E-03
C:/temp/dataset/2/7_9.odb,Step-1,Increment      4: Step Time =    1.000,"PART-1-1",            73,           -5.,          -10.,            0.,NA,NA,"",       3.08804,      -2.91713,       1.01306,   77.2392E-03
C:/temp/dataset/2/7_9.odb,Step-1,Increment      4: Step Time =    1.000,"PART-1-1",            74,          -2.5,           -5.,            0.,NA,NA,"",       5.30424,      -4.84205,       2.16552,   33.7834E-03
C:/temp/dataset/2/7_9.odb,Step-1,Increment      4: Step Time =    1.000,"PART-1-1",            75,           2.5,           -5.,            0.,NA,NA,"",       6.83315,      -5.23259,       4.39453,   28.4327E-03
C:/temp/dataset/2/7_9.odb,Step-1,Increment      4: Step Time =    1.000,"PART-1-1",            76,           7.5,           -5.,            0.,NA,NA,"",       8.84933,      -5.70577,       6.76422,   18.2040E-03
C:/temp/dataset/2/7_9.odb,Step-1,Increment      4: Step Time =    1.000,"PART-1-1",            77,          12.5,           -5.,            0.,NA,NA,"",       11.1416,      -6.28810,       9.19754,   2.28467E-03
C:/temp/dataset/2/7_9.odb,Step-1,Increment      4: Step Time =    1.000,"PART-1-1",            78,           15.,   833.333E-03,            0.,NA,NA,"",       13.5178,      -9.40884,       9.70590,   11.7385E-03
C:/temp/dataset/2/7_9.odb,Step-1,Increment      4: Step Time =    1.000,"PART-1-1",            79,           15.,      -2.08333,            0.,NA,NA,"",       12.8431,      -7.99986,       10.0473,   3.12756E-03
C:/temp/dataset/2/7_9.odb,Step-1,Increment      4: Step Time =    1.000,"PART-1-1",            80,           15.,       9.58333,            0.,NA,NA,"",       16.2791,      -13.8014,       8.63312,   10.0723E-03
C:/temp/dataset/2/7_9.odb,Step-1,Increment      4: Step Time =    1.000,"PART-1-1",            81,           15.,       6.66667,            0.,NA,NA,"",       15.2702,      -12.3331,       9.00410,   13.9729E-03
C:/temp/dataset/2/7_9.odb,Step-1,Increment      4: Step Time =    1.000,"PART-1-1",            82,           15.,       18.3333,            0.,NA,NA,"",       19.6263,      -18.1368,       7.49991,   421.360E-06
C:/temp/dataset/2/7_9.odb,Step-1,Increment      4: Step Time =    1.000,"PART-1-1",            83,           15.,       15.4167,            0.,NA,NA,"",       18.4557,      -16.6874,       7.88322,   2.10142E-03
C:/temp/dataset/2/7_9.odb,Step-1,Increment      4: Step Time =    1.000,"PART-1-1",            84,           15.,       27.0833,            0.,NA,NA,"",       23.3636,      -22.4860,       6.34329,   4.11116E-06
C:/temp/dataset/2/7_9.odb,Step-1,Increment      4: Step Time =    1.000,"PART-1-1",            85,           15.,       24.1667,            0.,NA,NA,"",       22.0864,      -21.0364,       6.72901,   9.44764E-06
C:/temp/dataset/2/7_9.odb,Step-1,Increment      4: Step Time =    1.000,"PART-1-1",            86,           10.,           30.,            0.,NA,NA,"",       23.5319,      -23.2743,       3.47268,   4.64581E-06
C:/temp/dataset/2/7_9.odb,Step-1,Increment      4: Step Time =    1.000,"PART-1-1",            87,          12.5,           30.,            0.,NA,NA,"",       24.0712,      -23.6049,       4.71513,   2.43942E-06
C:/temp/dataset/2/7_9.odb,Step-1,Increment      4: Step Time =    1.000,"PART-1-1",            88,           2.5,           30.,            0.,NA,NA,"",       22.2840,      -22.2825,  -254.550E-03,   4.87529E-06
C:/temp/dataset/2/7_9.odb,Step-1,Increment      4: Step Time =    1.000,"PART-1-1",            89,            5.,           30.,            0.,NA,NA,"",       22.6347,      -22.6131,   987.843E-03,   6.58547E-06
C:/temp/dataset/2/7_9.odb,Step-1,Increment      4: Step Time =    1.000,"PART-1-1",            90,           -5.,           30.,            0.,NA,NA,"",       21.6600,      -21.2908,      -3.98170,   113.981E-09
C:/temp/dataset/2/7_9.odb,Step-1,Increment      4: Step Time =    1.000,"PART-1-1",            91,          -2.5,           30.,            0.,NA,NA,"",       21.7942,      -21.6214,      -2.73932,   708.341E-09
C:/temp/dataset/2/7_9.odb,Step-1,Increment      4: Step Time =    1.000,"PART-1-1",            92,         -12.5,           30.,            0.,NA,NA,"",       21.7136,      -20.2992,      -7.70886,   9.77828E-09
C:/temp/dataset/2/7_9.odb,Step-1,Increment      4: Step Time =    1.000,"PART-1-1",            93,          -10.,           30.,            0.,NA,NA,"",       21.6194,      -20.6297,      -6.46648,   28.5239E-09
C:/temp/dataset/2/7_9.odb,Step-1,Increment      4: Step Time =    1.000,"PART-1-1",            94,          -15.,          27.5,            0.,NA,NA,"",       20.6152,      -18.7262,      -8.62069,   8.40858E-09
C:/temp/dataset/2/7_9.odb,Step-1,Increment      4: Step Time =    1.000,"PART-1-1",            95,      -12.4978,       24.9766,            0.,NA,NA,"",       19.1457,      -17.8030,      -7.04354,   7.41618E-09
C:/temp/dataset/2/7_9.odb,Step-1,Increment      4: Step Time =    1.000,"PART-1-1",            96,      -7.49872,       27.4475,            0.,NA,NA,"",       20.2891,      -19.6920,      -4.88596,   62.3796E-09
C:/temp/dataset/2/7_9.odb,Step-1,Increment      4: Step Time =    1.000,"PART-1-1",            97,      -7.50661,       22.4446,            0.,NA,NA,"",       17.7167,      -17.2047,      -4.22837,   60.8612E-09
C:/temp/dataset/2/7_9.odb,Step-1,Increment      4: Step Time =    1.000,"PART-1-1",            98,      -2.53392,       22.4091,            0.,NA,NA,"",       17.9304,      -17.8446,      -1.75248,   1.25193E-06
C:/temp/dataset/2/7_9.odb,Step-1,Increment      4: Step Time =    1.000,"PART-1-1",            99,  -19.7467E-03,       27.3919,            0.,NA,NA,"",       20.6859,      -20.6533,      -1.16190,   2.35333E-06
C:/temp/dataset/2/7_9.odb,Step-1,Increment      4: Step Time =    1.000,"PART-1-1",           100,       2.31326,       22.2671,            0.,NA,NA,"",       18.4273,      -18.4149,   675.129E-03,   11.0661E-06
C:/temp/dataset/2/7_9.odb,Step-1,Increment      4: Step Time =    1.000,"PART-1-1",           101,       7.89882,       27.4278,            0.,NA,NA,"",       21.8939,      -21.7181,       2.76858,   4.94685E-06
C:/temp/dataset/2/7_9.odb,Step-1,Increment      4: Step Time =    1.000,"PART-1-1",           102,       6.74061,       20.0564,            0.,NA,NA,"",       18.1799,      -17.9018,       3.16754,   193.264E-06
C:/temp/dataset/2/7_9.odb,Step-1,Increment      4: Step Time =    1.000,"PART-1-1",           103,       6.76082,       17.7755,            0.,NA,NA,"",       17.1281,      -16.7711,       3.47899,   393.478E-06
C:/temp/dataset/2/7_9.odb,Step-1,Increment      4: Step Time =    1.000,"PART-1-1",           104,       7.34933,       13.0959,            0.,NA,NA,"",       15.1702,      -14.5205,       4.39218,   507.151E-06
C:/temp/dataset/2/7_9.odb,Step-1,Increment      4: Step Time =    1.000,"PART-1-1",           105,       12.5251,      -2.17932,            0.,NA,NA,"",       11.7042,      -7.64366,       8.86355,   8.18811E-03
C:/temp/dataset/2/7_9.odb,Step-1,Increment      4: Step Time =    1.000,"PART-1-1",           106,       11.8446,      -24.9441,            0.,NA,NA,"",   55.1344E-03,  -54.8008E-03,   6.05639E-03,   3.98366E-03
C:/temp/dataset/2/7_9.odb,Step-1,Increment      4: Step Time =    1.000,"PART-1-1",           107,       2.44158,      -2.66949,            0.,NA,NA,"",       7.48520,      -6.26075,       4.10259,   12.2507E-03
C:/temp/dataset/2/7_9.odb,Step-1,Increment      4: Step Time =    1.000,"PART-1-1",           108,       7.46163,      -2.37632,            0.,NA,NA,"",       9.44867,      -6.92904,       6.42383,   12.2124E-03
C:/temp/dataset/2/7_9.odb,Step-1,Increment      4: Step Time =    1.000,"PART-1-1",           109,       7.48217,       7.95809,            0.,NA,NA,"",       13.0209,      -11.9560,       5.15745,   15.3442E-03
C:/temp/dataset/2/7_9.odb,Step-1,Increment      4: Step Time =    1.000,"PART-1-1",           110,      -5.01446,       22.4347,            0.,NA,NA,"",       17.7822,      -17.5293,      -2.98857,   331.608E-09
C:/temp/dataset/2/7_9.odb,Step-1,Increment      4: Step Time =    1.000,"PART-1-1",           111,  -75.1424E-03,       22.3615,            0.,NA,NA,"",       18.1536,      -18.1460,  -524.284E-03,   3.23958E-06
C:/temp/dataset/2/7_9.odb,Step-1,Increment      4: Step Time =    1.000,"PART-1-1",           112,       4.50776,       22.1530,            0.,NA,NA,"",       18.7332,      -18.6484,       1.78077,   16.8682E-06
C:/temp/dataset/2/7_9.odb,Step-1,Increment      4: Step Time =    1.000,"PART-1-1",           113,       7.06405,       15.4904,            0.,NA,NA,"",       16.1609,      -15.6752,       3.93214,   477.590E-06
C:/temp/dataset/2/7_9.odb,Step-1,Increment      4: Step Time =    1.000,"PART-1-1",           114,       7.46285,       10.5556,            0.,NA,NA,"",       14.1035,      -13.2646,       4.79140,   4.25117E-03
C:/temp/dataset/2/7_9.odb,Step-1,Increment      4: Step Time =    1.000,"PART-1-1",           115,      -2.89738,      -2.05905,            0.,NA,NA,"",       6.27827,      -6.03900,       1.71674,   9.27500E-03
C:/temp/dataset/2/7_9.odb,Step-1,Increment      4: Step Time =    1.000,"PART-1-1",           116,      -7.61206,      -10.6629,            0.,NA,NA,"",       2.54104,      -2.52680,   268.655E-03,   43.8443E-03
C:/temp/dataset/2/7_9.odb,Step-1,Increment      4: Step Time =    1.000,"PART-1-1",           117,      -6.85891,      -17.7385,            0.,NA,NA,"",   797.557E-03,  -731.497E-03,   317.818E-03,   85.0986E-03
C:/temp/dataset/2/7_9.odb,Step-1,Increment      4: Step Time =    1.000,"PART-1-1",           118,       11.9280,      -27.4687,            0.,NA,NA,"",   29.5943E-03,  -29.2006E-03,   4.81123E-03,   7.63511E-03
C:/temp/dataset/2/7_9.odb,Step-1,Increment      4: Step Time =    1.000,"PART-1-1",           119,      -7.44747,      -13.1413,            0.,NA,NA,"",       1.83334,      -1.80580,   316.615E-03,   51.5228E-03
C:/temp/dataset/2/7_9.odb,Step-1,Increment      4: Step Time =    1.000,"PART-1-1",           120,      -7.13169,      -15.4658,            0.,NA,NA,"",       1.26745,      -1.21996,   343.691E-03,   65.1919E-03
C:/temp/dataset/2/7_9.odb,Step-1,Increment      4: Step Time =    1.000,"PART-1-1",           121,      -8.02089,      -5.87394,            0.,NA,NA,"",       4.13081,      -4.13080,  -10.3500E-03,   26.6328E-03
C:/temp/dataset/2/7_9.odb,Step-1,Increment      4: Step Time =    1.000,"PART-1-1",           122,      -7.74476,      -8.18529,            0.,NA,NA,"",       3.33354,      -3.32902,   173.425E-03,   33.8453E-03
C:/temp/dataset/2/7_9.odb,Step-1,Increment      4: Step Time =    1.000,"PART-1-1",           123,  -21.3834E-03,      -2.74811,            0.,NA,NA,"",       6.71478,      -6.00093,       3.01283,   14.9160E-03
C:/temp/dataset/2/7_9.odb,Step-1,Increment      4: Step Time =    1.000,"PART-1-1",           124,       4.94012,      -2.49525,            0.,NA,NA,"",       8.41884,      -6.59240,       5.23613,   12.3800E-03
C:/temp/dataset/2/7_9.odb,Step-1,Increment      4: Step Time =    1.000,"PART-1-1",           125,       10.0127,      -2.27482,            0.,NA,NA,"",       10.5633,      -7.28412,       7.65021,   11.4542E-03
C:/temp/dataset/2/7_9.odb,Step-1,Increment      4: Step Time =    1.000,"PART-1-1",           126,       10.2967,       27.4669,            0.,NA,NA,"",       22.4065,      -22.0546,       3.95512,   5.28251E-06
C:/temp/dataset/2/7_9.odb,Step-1,Increment      4: Step Time =    1.000,"PART-1-1",           127,       12.6750,       27.3103,            0.,NA,NA,"",       22.8802,      -22.2913,       5.15780,   2.17081E-06
C:/temp/dataset/2/7_9.odb,Step-1,Increment      4: Step Time =    1.000,"PART-1-1",           128,       2.52543,       27.2659,            0.,NA,NA,"",       20.9275,      -20.9272,   119.598E-03,   2.85724E-06
C:/temp/dataset/2/7_9.odb,Step-1,Increment      4: Step Time =    1.000,"PART-1-1",           129,       5.32711,       26.8707,            0.,NA,NA,"",       21.1591,      -21.1012,       1.56418,   2.62322E-06
C:/temp/dataset/2/7_9.odb,Step-1,Increment      4: Step Time =    1.000,"PART-1-1",           130,      -5.00948,       27.4462,            0.,NA,NA,"",       20.3502,      -20.0204,      -3.64874,   345.985E-09
C:/temp/dataset/2/7_9.odb,Step-1,Increment      4: Step Time =    1.000,"PART-1-1",           131,      -2.51658,       27.4324,            0.,NA,NA,"",       20.4852,      -20.3432,      -2.40806,   1.12745E-06
C:/temp/dataset/2/7_9.odb,Step-1,Increment      4: Step Time =    1.000,"PART-1-1",           132,      -9.99211,       27.4668,            0.,NA,NA,"",       20.3179,      -19.3719,      -6.12761,   10.6087E-09
C:/temp/dataset/2/7_9.odb,Step-1,Increment      4: Step Time =    1.000,"PART-1-1",           133,       12.5029,       21.6680,            0.,NA,NA,"",       20.3154,      -19.4643,       5.81848,   110.789E-06
C:/temp/dataset/2/7_9.odb,Step-1,Increment      4: Step Time =    1.000,"PART-1-1",           134,      -12.7198,      -9.27859,            0.,NA,NA,"",       3.02188,      -2.74520,      -1.26320,   42.7916E-03
C:/temp/dataset/2/7_9.odb,Step-1,Increment      4: Step Time =    1.000,"PART-1-1",           135,      -12.2206,      -21.4876,            0.,NA,NA,"",   387.319E-03,  -203.108E-03,  -329.792E-03,   50.5318E-03
C:/temp/dataset/2/7_9.odb,Step-1,Increment      4: Step Time =    1.000,"PART-1-1",           136,       12.4390,       11.8581,            0.,NA,NA,"",       16.2117,      -14.5845,       7.07889,   5.94624E-03
C:/temp/dataset/2/7_9.odb,Step-1,Increment      4: Step Time =    1.000,"PART-1-1",           137,      -12.6285,      -12.0158,            0.,NA,NA,"",       2.18826,      -1.94229,      -1.00795,   46.6940E-03
C:/temp/dataset/2/7_9.odb,Step-1,Increment      4: Step Time =    1.000,"PART-1-1",           138,      -12.4213,      -14.8709,            0.,NA,NA,"",       1.43833,      -1.22915,  -746.977E-03,   47.9655E-03
C:/temp/dataset/2/7_9.odb,Step-1,Increment      4: Step Time =    1.000,"PART-1-1",           139,       12.2989,       14.8029,            0.,NA,NA,"",       17.3422,      -16.0266,       6.62577,   1.10572E-03
C:/temp/dataset/2/7_9.odb,Step-1,Increment      4: Step Time =    1.000,"PART-1-1",           140,       11.7182,       18.2155,            0.,NA,NA,"",       18.6005,      -17.6448,       5.88555,   422.296E-06
C:/temp/dataset/2/7_9.odb,Step-1,Increment      4: Step Time =    1.000,"PART-1-1",           141,      -12.3380,      -4.01281,            0.,NA,NA,"",       4.86380,      -4.58651,      -1.61877,   33.1315E-03
C:/temp/dataset/2/7_9.odb,Step-1,Increment      4: Step Time =    1.000,"PART-1-1",           142,       12.5089,       6.21106,            0.,NA,NA,"",       14.1279,      -11.7528,       7.84025,   15.2983E-03
C:/temp/dataset/2/7_9.odb,Step-1,Increment      4: Step Time =    1.000,"PART-1-1",           143,      -10.9765,      -1.21375,            0.,NA,NA,"",       5.91450,      -5.74893,      -1.38968,   32.2891E-03
C:/temp/dataset/2/7_9.odb,Step-1,Increment      4: Step Time =    1.000,"PART-1-1",           144,      -11.4273,       2.02370,            0.,NA,NA,"",       7.23361,      -6.99935,      -1.82600,   19.6512E-03
C:/temp/dataset/2/7_9.odb,Step-1,Increment      4: Step Time =    1.000,"PART-1-1",           145,      -12.7154,      -6.64001,            0.,NA,NA,"",       3.91680,      -3.61765,      -1.50132,   38.2576E-03
C:/temp/dataset/2/7_9.odb,Step-1,Increment      4: Step Time =    1.000,"PART-1-1",           146,      -11.7762,      -18.1315,            0.,NA,NA,"",   738.347E-03,  -597.251E-03,  -434.105E-03,   40.3816E-03
C:/temp/dataset/2/7_9.odb,Step-1,Increment      4: Step Time =    1.000,"PART-1-1",           147,      -12.2481,      -24.4184,            0.,NA,NA,"",   206.054E-03,  -39.6538E-03,  -202.202E-03,   49.3786E-03
C:/temp/dataset/2/7_9.odb,Step-1,Increment      4: Step Time =    1.000,"PART-1-1",           148,       12.5340,       3.42208,            0.,NA,NA,"",       13.2090,      -10.3562,       8.19927,   10.6803E-03
C:/temp/dataset/2/7_9.odb,Step-1,Increment      4: Step Time =    1.000,"PART-1-1",           149,       12.5428,   630.306E-03,            0.,NA,NA,"",       12.4000,      -8.99124,       8.53925,   9.14911E-03
C:/temp/dataset/2/7_9.odb,Step-1,Increment      4: Step Time =    1.000,"PART-1-1",           150,       12.5001,       9.03097,            0.,NA,NA,"",       15.1486,      -13.1760,       7.47476,   11.9736E-03
C:/temp/dataset/2/7_9.odb,Step-1,Increment      4: Step Time =    1.000,"PART-1-1",           151,       12.7192,       24.5718,            0.,NA,NA,"",       21.6572,      -20.9361,       5.54188,   20.9249E-06
C:/temp/dataset/2/7_9.odb,Step-1,Increment      4: Step Time =    1.000,"PART-1-1",           152,       2.66783,      -27.4286,            0.,NA,NA,"",   52.0212E-03,  -50.7235E-03,   11.5469E-03,   14.8630E-03
C:/temp/dataset/2/7_9.odb,Step-1,Increment      4: Step Time =    1.000,"PART-1-1",           153,       8.86089,      -27.4494,            0.,NA,NA,"",   33.5551E-03,  -33.5045E-03,   1.84260E-03,   8.52349E-03
C:/temp/dataset/2/7_9.odb,Step-1,Increment      4: Step Time =    1.000,"PART-1-1",           154,       5.76511,      -27.4328,            0.,NA,NA,"",   42.2355E-03,  -42.0535E-03,   3.91715E-03,   11.0007E-03
C:/temp/dataset/2/7_9.odb,Step-1,Increment      4: Step Time =    1.000,"PART-1-1",           155,  -414.647E-03,      -27.4330,            0.,NA,NA,"",   58.5583E-03,  -51.9145E-03,   27.0916E-03,   21.1975E-03
C:/temp/dataset/2/7_9.odb,Step-1,Increment      4: Step Time =    1.000,"PART-1-1",           156,      -3.42691,      -27.4460,            0.,NA,NA,"",   54.1770E-03,  -33.1736E-03,   42.8330E-03,   27.3123E-03
C:/temp/dataset/2/7_9.odb,Step-1,Increment      4: Step Time =    1.000,"PART-1-1",           157,      -6.36574,      -27.4272,            0.,NA,NA,"",   34.4022E-03,   3.73547E-03,   34.1987E-03,   23.4208E-03
C:/temp/dataset/2/7_9.odb,Step-1,Increment      4: Step Time =    1.000,"PART-1-1",           158,       10.5238,       25.0033,            0.,NA,NA,"",       21.3180,      -20.8603,       4.39375,   20.9288E-06
C:/temp/dataset/2/7_9.odb,Step-1,Increment      4: Step Time =    1.000,"PART-1-1",           159,       6.26912,       22.1485,            0.,NA,NA,"",       19.0651,      -18.8791,       2.65668,   56.1694E-06
C:/temp/dataset/2/7_9.odb,Step-1,Increment      4: Step Time =    1.000,"PART-1-1",           160,      -5.96402,      -2.70245,            0.,NA,NA,"",       5.53329,      -5.50792,   529.278E-03,   27.9161E-03
C:/temp/dataset/2/7_9.odb,Step-1,Increment      4: Step Time =    1.000,"PART-1-1",           161,      -12.5033,       22.4816,            0.,NA,NA,"",       17.8724,      -16.5624,      -6.71638,   14.1146E-09
C:/temp/dataset/2/7_9.odb,Step-1,Increment      4: Step Time =    1.000,"PART-1-1",           162,      -2.53325,       24.9024,            0.,NA,NA,"",       19.1970,      -19.0837,      -2.08182,   1.31034E-06
C:/temp/dataset/2/7_9.odb,Step-1,Increment      4: Step Time =    1.000,"PART-1-1",           163,       4.43197,       24.4161,            0.,NA,NA,"",       19.8157,      -19.7630,       1.44389,   7.13930E-06
C:/temp/dataset/2/7_9.odb,Step-1,Increment      4: Step Time =    1.000,"PART-1-1",           164,      -10.2797,      -8.84555,            0.,NA,NA,"",       3.02550,      -2.97328,  -559.684E-03,   21.8578E-03
C:/temp/dataset/2/7_9.odb,Step-1,Increment      4: Step Time =    1.000,"PART-1-1",           165,       2.21534,  -332.134E-03,            0.,NA,NA,"",       8.18270,      -7.27473,       3.74631,   4.05255E-03
C:/temp/dataset/2/7_9.odb,Step-1,Increment      4: Step Time =    1.000,"PART-1-1",           166,  -74.2209E-03,       24.8536,            0.,NA,NA,"",       19.4034,      -19.3846,  -853.335E-03,   2.75589E-06
C:/temp/dataset/2/7_9.odb,Step-1,Increment      4: Step Time =    1.000,"PART-1-1",           167,       2.30693,       24.7164,            0.,NA,NA,"",       19.6343,      -19.6312,   348.132E-03,   4.36328E-06
C:/temp/dataset/2/7_9.odb,Step-1,Increment      4: Step Time =    1.000,"PART-1-1",           168,       9.79368,       13.9045,            0.,NA,NA,"",       16.2103,      -15.2486,       5.50058,   964.750E-06
C:/temp/dataset/2/7_9.odb,Step-1,Increment      4: Step Time =    1.000,"PART-1-1",           169,       9.30777,       16.4521,            0.,NA,NA,"",       17.1710,      -16.4507,       4.92127,   624.405E-06
C:/temp/dataset/2/7_9.odb,Step-1,Increment      4: Step Time =    1.000,"PART-1-1",           170,      -2.35985,       1.11806,            0.,NA,NA,"",       7.60927,      -7.42614,       1.65935,   15.6311E-03
C:/temp/dataset/2/7_9.odb,Step-1,Increment      4: Step Time =    1.000,"PART-1-1",           171,      -9.94133,      -13.9778,            0.,NA,NA,"",       1.50339,      -1.48317,  -245.726E-03,   20.9393E-03
C:/temp/dataset/2/7_9.odb,Step-1,Increment      4: Step Time =    1.000,"PART-1-1",           172,       4.80988,   33.7751E-03,            0.,NA,NA,"",       9.14403,      -7.72855,       4.88701,   8.26916E-03
C:/temp/dataset/2/7_9.odb,Step-1,Increment      4: Step Time =    1.000,"PART-1-1",           173,       9.94126,       11.1894,            0.,NA,NA,"",       15.1260,      -13.9132,       5.93462,   4.63131E-03
C:/temp/dataset/2/7_9.odb,Step-1,Increment      4: Step Time =    1.000,"PART-1-1",           174,       7.43598,   226.782E-03,            0.,NA,NA,"",       10.1731,      -8.13578,       6.10750,   12.9333E-03
C:/temp/dataset/2/7_9.odb,Step-1,Increment      4: Step Time =    1.000,"PART-1-1",           175,      -7.50368,       24.9336,            0.,NA,NA,"",       18.9965,      -18.4420,      -4.55603,   90.1467E-09
C:/temp/dataset/2/7_9.odb,Step-1,Increment      4: Step Time =    1.000,"PART-1-1",           176,      -10.1536,      -11.3797,            0.,NA,NA,"",       2.22407,      -2.18903,  -393.231E-03,   21.3903E-03
C:/temp/dataset/2/7_9.odb,Step-1,Increment      4: Step Time =    1.000,"PART-1-1",           177,       6.92724,       24.6415,            0.,NA,NA,"",       20.3785,      -20.2050,       2.65417,   19.4069E-06
C:/temp/dataset/2/7_9.odb,Step-1,Increment      4: Step Time =    1.000,"PART-1-1",           178,      -9.99868,       24.9580,            0.,NA,NA,"",       19.0294,      -18.1243,      -5.79915,   12.6413E-09
C:/temp/dataset/2/7_9.odb,Step-1,Increment      4: Step Time =    1.000,"PART-1-1",           179,       8.37028,       18.0705,            0.,NA,NA,"",       17.6477,      -17.1307,       4.24052,   381.418E-06
C:/temp/dataset/2/7_9.odb,Step-1,Increment      4: Step Time =    1.000,"PART-1-1",           180,      -10.4068,      -6.54987,            0.,NA,NA,"",       3.82732,      -3.75303,  -750.425E-03,   26.4870E-03
C:/temp/dataset/2/7_9.odb,Step-1,Increment      4: Step Time =    1.000,"PART-1-1",           181,      -8.52723,      -17.8680,            0.,NA,NA,"",   657.035E-03,  -654.220E-03,   60.7629E-03,   33.8983E-03
C:/temp/dataset/2/7_9.odb,Step-1,Increment      4: Step Time =    1.000,"PART-1-1",           182,       9.99063,       8.47585,            0.,NA,NA,"",       14.0543,      -12.5525,       6.32126,   12.7489E-03
C:/temp/dataset/2/7_9.odb,Step-1,Increment      4: Step Time =    1.000,"PART-1-1",           183,      -6.87511,      -22.3968,            0.,NA,NA,"",   202.647E-03,  -134.832E-03,   151.281E-03,   43.3364E-03
C:/temp/dataset/2/7_9.odb,Step-1,Increment      4: Step Time =    1.000,"PART-1-1",           184,       7.48189,       5.34092,            0.,NA,NA,"",       11.9688,      -10.6187,       5.52220,   24.8497E-03
C:/temp/dataset/2/7_9.odb,Step-1,Increment      4: Step Time =    1.000,"PART-1-1",           185,       10.0207,   425.902E-03,            0.,NA,NA,"",       11.2757,      -8.56360,       7.33528,   11.5317E-03
C:/temp/dataset/2/7_9.odb,Step-1,Increment      4: Step Time =    1.000,"PART-1-1",           186,      -8.86720,      -3.63325,            0.,NA,NA,"",       4.94784,      -4.92742,  -449.145E-03,   31.7793E-03
C:/temp/dataset/2/7_9.odb,Step-1,Increment      4: Step Time =    1.000,"PART-1-1",           187,       10.0155,       5.77118,            0.,NA,NA,"",       13.0331,      -11.1862,       6.68813,   16.2548E-03
C:/temp/dataset/2/7_9.odb,Step-1,Increment      4: Step Time =    1.000,"PART-1-1",           188,       9.07540,       20.2179,            0.,NA,NA,"",       18.7910,      -18.2908,       4.30691,   228.328E-06
C:/temp/dataset/2/7_9.odb,Step-1,Increment      4: Step Time =    1.000,"PART-1-1",           189,       5.51479,      -24.9218,            0.,NA,NA,"",   72.1808E-03,  -72.0792E-03,   3.82727E-03,   9.11174E-03
C:/temp/dataset/2/7_9.odb,Step-1,Increment      4: Step Time =    1.000,"PART-1-1",           190,       2.33502,      -24.9114,            0.,NA,NA,"",   91.0644E-03,  -88.6185E-03,   20.9638E-03,   13.8006E-03
C:/temp/dataset/2/7_9.odb,Step-1,Increment      4: Step Time =    1.000,"PART-1-1",           191,      -3.83494,      -24.9465,            0.,NA,NA,"",   134.019E-03,  -85.4423E-03,   103.251E-03,   38.3916E-03
C:/temp/dataset/2/7_9.odb,Step-1,Increment      4: Step Time =    1.000,"PART-1-1",           192,       8.68706,      -24.9229,            0.,NA,NA,"",   60.5590E-03,  -60.5558E-03,   626.794E-06,   6.10785E-03
C:/temp/dataset/2/7_9.odb,Step-1,Increment      4: Step Time =    1.000,"PART-1-1",           193,  -793.545E-03,      -24.9263,            0.,NA,NA,"",   116.831E-03,  -100.455E-03,   59.6522E-03,   27.8199E-03
C:/temp/dataset/2/7_9.odb,Step-1,Increment      4: Step Time =    1.000,"PART-1-1",           194,      -10.0041,       22.4687,            0.,NA,NA,"",       17.7512,      -16.8865,      -5.47270,   14.2360E-09
C:/temp/dataset/2/7_9.odb,Step-1,Increment      4: Step Time =    1.000,"PART-1-1",           195,       7.76291,       22.5689,            0.,NA,NA,"",       19.5732,      -19.2855,       3.34355,   65.3123E-06
C:/temp/dataset/2/7_9.odb,Step-1,Increment      4: Step Time =    1.000,"PART-1-1",           196,       10.0314,       3.09975,            0.,NA,NA,"",       12.1033,      -9.85576,       7.02526,   13.5967E-03
C:/temp/dataset/2/7_9.odb,Step-1,Increment      4: Step Time =    1.000,"PART-1-1",           197,       7.45157,       2.78517,            0.,NA,NA,"",       11.0121,      -9.34765,       5.82129,   20.0353E-03
C:/temp/dataset/2/7_9.odb,Step-1,Increment      4: Step Time =    1.000,"PART-1-1",           198,       1.23926,       2.17480,            0.,NA,NA,"",       8.82988,      -8.27828,       3.07196,   23.7130E-03
C:/temp/dataset/2/7_9.odb,Step-1,Increment      4: Step Time =    1.000,"PART-1-1",           199,       5.89388,       23.8379,            0.,NA,NA,"",       19.7969,      -19.6690,       2.24686,   14.4500E-06
C:/temp/dataset/2/7_9.odb,Step-1,Increment      4: Step Time =    1.000,"PART-1-1",           200,       4.70825,       2.52712,            0.,NA,NA,"",       9.96446,      -8.86014,       4.55943,   15.6335E-03
C:/temp/dataset/2/7_9.odb,Step-1,Increment      4: Step Time =    1.000,"PART-1-1",           201,      -6.67563,      -24.8783,            0.,NA,NA,"",   94.9224E-03,  -38.9025E-03,   86.5844E-03,   32.7955E-03
C:/temp/dataset/2/7_9.odb,Step-1,Increment      4: Step Time =    1.000,"PART-1-1",           202,      -1.93740,       2.90022,            0.,NA,NA,"",       8.39799,      -8.22727,       1.68474,   28.9818E-03
C:/temp/dataset/2/7_9.odb,Step-1,Increment      4: Step Time =    1.000,"PART-1-1",           203,      -4.27328,      -22.5070,            0.,NA,NA,"",   236.063E-03,  -162.376E-03,   171.346E-03,   59.5958E-03
C:/temp/dataset/2/7_9.odb,Step-1,Increment      4: Step Time =    1.000,"PART-1-1",           204,      -7.29195,  -216.826E-03,            0.,NA,NA,"",       6.41744,      -6.41579,  -145.710E-03,   28.5616E-03
C:/temp/dataset/2/7_9.odb,Step-1,Increment      4: Step Time =    1.000,"PART-1-1",           205,      -4.39370,   432.763E-03,            0.,NA,NA,"",       6.99618,      -6.93776,   902.261E-03,   20.6361E-03
C:/temp/dataset/2/7_9.odb,Step-1,Increment      4: Step Time =    1.000,"PART-1-1",           206,      -1.20581,      -22.4416,            0.,NA,NA,"",   153.471E-03,  -135.952E-03,   71.2066E-03,   36.6914E-03
C:/temp/dataset/2/7_9.odb,Step-1,Increment      4: Step Time =    1.000,"PART-1-1",           207,      -4.88725,       2.78210,            0.,NA,NA,"",       7.87943,      -7.86153,   530.866E-03,   26.1728E-03
C:/temp/dataset/2/7_9.odb,Step-1,Increment      4: Step Time =    1.000,"PART-1-1",           208,      -8.02678,       2.39768,            0.,NA,NA,"",       7.44023,      -7.41473,  -615.518E-03,   25.6296E-03
C:/temp/dataset/2/7_9.odb,Step-1,Increment      4: Step Time =    1.000,"PART-1-1",           209,       8.51144,      -22.4401,            0.,NA,NA,"",   77.6942E-03,  -77.6699E-03,  -1.93981E-03,   3.55050E-03
C:/temp/dataset/2/7_9.odb,Step-1,Increment      4: Step Time =    1.000,"PART-1-1",           210,       5.25488,      -22.4306,            0.,NA,NA,"",   88.2394E-03,  -88.2391E-03,   236.431E-06,   6.34186E-03
C:/temp/dataset/2/7_9.odb,Step-1,Increment      4: Step Time =    1.000,"PART-1-1",           211,       2.00226,      -22.4217,            0.,NA,NA,"",   111.395E-03,  -109.539E-03,   20.2468E-03,   13.9033E-03
C:/temp/dataset/2/7_9.odb,Step-1,Increment      4: Step Time =    1.000,"PART-1-1",           212,      -9.28570,      -27.3600,            0.,NA,NA,"",   33.7321E-03,   31.1499E-03,  -12.9439E-03,   13.9281E-03
C:/temp/dataset/2/7_9.odb,Step-1,Increment      4: Step Time =    1.000,"PART-1-1",           213,       11.7596,      -22.4488,            0.,NA,NA,"",   73.2892E-03,  -73.0105E-03,   6.38483E-03,   1.23683E-03
C:/temp/dataset/2/7_9.odb,Step-1,Increment      4: Step Time =    1.000,"PART-1-1",           214,      -12.4952,       27.4851,            0.,NA,NA,"",       20.4274,      -19.0500,      -7.37396,   14.3951E-09
C:/temp/dataset/2/7_9.odb,Step-1,Increment      4: Step Time =    1.000,"PART-1-1",           215,      -12.1608,      -27.2494,            0.,NA,NA,"",   90.8655E-03,   12.8595E-03,  -89.9510E-03,   44.5734E-03
C:/temp/dataset/2/7_9.odb,Step-1,Increment      4: Step Time =    1.000,"PART-1-1",           216,      -6.92277,      -20.0189,            0.,NA,NA,"",   396.713E-03,  -329.433E-03,   221.033E-03,   43.3498E-03
C:/temp/dataset/2/7_9.odb,Step-1,Increment      4: Step Time =    1.000,"PART-1-1",           217,       10.3403,       22.5364,            0.,NA,NA,"",       20.1490,      -19.6101,       4.62885,   95.8617E-06
C:/temp/dataset/2/7_9.odb,Step-1,Increment      4: Step Time =    1.000,"PART-1-1",           218,      -9.38591,      -16.3373,            0.,NA,NA,"",   948.380E-03,  -944.530E-03,  -85.3663E-03,   22.6383E-03
C:/temp/dataset/2/7_9.odb,Step-1,Increment      4: Step Time =    1.000,"PART-1-1",           219,      -9.56004,      -22.0160,            0.,NA,NA,"",   146.732E-03,  -138.949E-03,  -47.1537E-03,   17.7921E-03
C:/temp/dataset/2/7_9.odb,Step-1,Increment      4: Step Time =    1.000,"PART-1-1",           220,      -9.49058,      -24.6874,            0.,NA,NA,"",   30.9310E-03,  -11.9931E-03,  -28.5113E-03,   18.2910E-03
C:/temp/dataset/2/7_9.odb,Step-1,Increment      4: Step Time =    1.000,"PART-1-1",           221,  -968.003E-03,   33.9082E-03,            0.,NA,NA,"",       7.47886,      -7.10601,       2.33196,   7.88824E-03
C:/temp/dataset/2/7_9.odb,Step-1,Increment      4: Step Time =    1.000,"PART-1-1",           222,   333.674E-03,      -1.00763,            0.,NA,NA,"",       7.41529,      -6.78631,       2.98874,   1.10548E-03
C:/temp/dataset/2/7_9.odb,Step-1,Increment      4: Step Time =    1.000,"PART-1-1",           223,      -10.5623,      -4.72446,            0.,NA,NA,"",       4.51245,      -4.41261,  -943.982E-03,   30.6484E-03
C:/temp/dataset/2/7_9.odb,Step-1,Increment      4: Step Time =    1.000,"PART-1-1",           224,      -5.01319,       24.9269,            0.,NA,NA,"",       19.0590,      -18.7680,      -3.31748,   383.352E-09
C:/temp/dataset/2/7_9.odb,Step-1,Increment      4: Step Time =    1.000,"PART-1-1",           225,      -9.24174,      -19.5473,            0.,NA,NA,"",   384.912E-03,  -383.568E-03,  -32.1357E-03,   10.3531E-03
C:/temp/dataset/2/7_9.odb,Step-1,Increment      4: Step Time =    1.000,"PART-1-1",           226,       8.53639,       25.1316,            0.,NA,NA,"",       20.9374,      -20.6613,       3.38908,   23.0638E-06
C:/temp/dataset/2/7_9.odb,Step-1,Increment      4: Step Time =    1.000,"PART-1-1",           227,       8.85572,       23.3093,            0.,NA,NA,"",       20.1572,      -19.7979,       3.78878,   55.4339E-06
C:/temp/dataset/2/7_9.odb,Step-1,Increment      4: Step Time =    1.000,"PART-1-1",           228,      -13.7516,       22.4908,            0.,NA,NA,"",       17.9686,      -16.4019,      -7.33798,   9.50174E-09
C:/temp/dataset/2/7_9.odb,Step-1,Increment      4: Step Time =    1.000,"PART-1-1",           229,          -15.,         21.25,            0.,NA,NA,"",       17.4569,      -15.6203,      -7.79429,   4.25953E-09
C:/temp/dataset/2/7_9.odb,Step-1,Increment      4: Step Time =    1.000,"PART-1-1",           230,        -13.75,           20.,            0.,NA,NA,"",       16.7053,      -15.1643,      -7.00782,   4.91481E-09
C:/temp/dataset/2/7_9.odb,Step-1,Increment      4: Step Time =    1.000,"PART-1-1",           231,      -12.5016,       21.2408,            0.,NA,NA,"",       17.2394,      -15.9460,      -6.55150,   9.96102E-09
C:/temp/dataset/2/7_9.odb,Step-1,Increment      4: Step Time =    1.000,"PART-1-1",           232,      -9.99605,       28.7334,            0.,NA,NA,"",       20.9687,      -20.0008,      -6.29704,   13.8674E-09
C:/temp/dataset/2/7_9.odb,Step-1,Increment      4: Step Time =    1.000,"PART-1-1",           233,        -11.25,           30.,            0.,NA,NA,"",       21.6571,      -20.4644,      -7.08767,   17.8811E-09
C:/temp/dataset/2/7_9.odb,Step-1,Increment      4: Step Time =    1.000,"PART-1-1",           234,      -12.4976,       28.7426,            0.,NA,NA,"",       21.0704,      -19.6746,      -7.54141,   10.0956E-09
C:/temp/dataset/2/7_9.odb,Step-1,Increment      4: Step Time =    1.000,"PART-1-1",           235,      -11.2437,       27.4760,            0.,NA,NA,"",       20.3626,      -19.2110,      -6.75078,   9.80974E-09
C:/temp/dataset/2/7_9.odb,Step-1,Increment      4: Step Time =    1.000,"PART-1-1",           236,      -8.74541,       27.4572,            0.,NA,NA,"",       20.2934,      -19.5319,      -5.50678,   28.9169E-09
C:/temp/dataset/2/7_9.odb,Step-1,Increment      4: Step Time =    1.000,"PART-1-1",           237,      -7.49936,       28.7238,            0.,NA,NA,"",       20.9453,      -20.3261,      -5.05502,   28.1478E-09
C:/temp/dataset/2/7_9.odb,Step-1,Increment      4: Step Time =    1.000,"PART-1-1",           238,         -8.75,           30.,            0.,NA,NA,"",       21.6009,      -20.7950,      -5.84528,   25.4898E-09
C:/temp/dataset/2/7_9.odb,Step-1,Increment      4: Step Time =    1.000,"PART-1-1",           239,      -10.0020,       21.2344,            0.,NA,NA,"",       17.1173,      -16.2733,      -5.30847,   14.0736E-09
C:/temp/dataset/2/7_9.odb,Step-1,Increment      4: Step Time =    1.000,"PART-1-1",           240,      -11.2537,       22.4752,            0.,NA,NA,"",       17.8003,      -16.7245,      -6.09454,   11.0821E-09
C:/temp/dataset/2/7_9.odb,Step-1,Increment      4: Step Time =    1.000,"PART-1-1",           241,        -11.25,           20.,            0.,NA,NA,"",       16.5328,      -15.4949,      -5.76543,   17.1531E-09
C:/temp/dataset/2/7_9.odb,Step-1,Increment      4: Step Time =    1.000,"PART-1-1",           242,      -6.25410,       27.4469,            0.,NA,NA,"",       20.3096,      -19.8562,      -4.26735,   196.339E-09
C:/temp/dataset/2/7_9.odb,Step-1,Increment      4: Step Time =    1.000,"PART-1-1",           243,      -7.50120,       26.1906,            0.,NA,NA,"",       19.6428,      -19.0670,      -4.72099,   69.6358E-09
C:/temp/dataset/2/7_9.odb,Step-1,Increment      4: Step Time =    1.000,"PART-1-1",           244,      -6.25844,       24.9303,            0.,NA,NA,"",       19.0170,      -18.6050,      -3.93675,   236.885E-09
C:/temp/dataset/2/7_9.odb,Step-1,Increment      4: Step Time =    1.000,"PART-1-1",           245,      -5.01133,       26.1865,            0.,NA,NA,"",       19.7045,      -19.3942,      -3.48311,   323.132E-09
C:/temp/dataset/2/7_9.odb,Step-1,Increment      4: Step Time =    1.000,"PART-1-1",           246,       1.11906,       22.3143,            0.,NA,NA,"",       18.2806,      -18.2805,   75.4223E-03,   5.32959E-06
C:/temp/dataset/2/7_9.odb,Step-1,Increment      4: Step Time =    1.000,"PART-1-1",           247,  -37.5712E-03,       21.1808,            0.,NA,NA,"",       17.5677,      -17.5642,  -349.490E-03,   2.52194E-06
C:/temp/dataset/2/7_9.odb,Step-1,Increment      4: Step Time =    1.000,"PART-1-1",           248,          1.25,           20.,            0.,NA,NA,"",       17.1535,      -17.1477,   446.492E-03,   5.49581E-06
C:/temp/dataset/2/7_9.odb,Step-1,Increment      4: Step Time =    1.000,"PART-1-1",           249,       2.40663,       21.1336,            0.,NA,NA,"",       17.8852,      -17.8640,   871.400E-03,   11.4624E-06
C:/temp/dataset/2/7_9.odb,Step-1,Increment      4: Step Time =    1.000,"PART-1-1",           250,  -46.9838E-03,       26.1228,            0.,NA,NA,"",       20.0443,      -20.0189,      -1.00762,   2.09666E-06
C:/temp/dataset/2/7_9.odb,Step-1,Increment      4: Step Time =    1.000,"PART-1-1",           251,       1.11635,       24.7850,            0.,NA,NA,"",       19.5096,      -19.5079,  -252.601E-03,   3.54648E-06
C:/temp/dataset/2/7_9.odb,Step-1,Increment      4: Step Time =    1.000,"PART-1-1",           252,       2.41618,       25.9912,            0.,NA,NA,"",       20.2806,      -20.2792,   233.865E-03,   2.86061E-06
C:/temp/dataset/2/7_9.odb,Step-1,Increment      4: Step Time =    1.000,"PART-1-1",           253,       1.25284,       27.3289,            0.,NA,NA,"",       20.7967,      -20.7902,  -521.152E-03,   2.51688E-06
C:/temp/dataset/2/7_9.odb,Step-1,Increment      4: Step Time =    1.000,"PART-1-1",           254,       11.4216,       22.1022,            0.,NA,NA,"",       20.2235,      -19.5372,       5.22368,   88.1537E-06
C:/temp/dataset/2/7_9.odb,Step-1,Increment      4: Step Time =    1.000,"PART-1-1",           255,       9.70783,       21.3771,            0.,NA,NA,"",       19.4700,      -18.9504,       4.46789,   149.017E-06
C:/temp/dataset/2/7_9.odb,Step-1,Increment      4: Step Time =    1.000,"PART-1-1",           256,       10.3968,       19.2167,            0.,NA,NA,"",       18.6767,      -17.9679,       5.09632,   274.031E-06
C:/temp/dataset/2/7_9.odb,Step-1,Increment      4: Step Time =    1.000,"PART-1-1",           257,       12.1105,       19.9418,            0.,NA,NA,"",       19.4554,      -18.5545,       5.85192,   235.273E-06
C:/temp/dataset/2/7_9.odb,Step-1,Increment      4: Step Time =    1.000,"PART-1-1",           258,       11.6215,       24.7876,            0.,NA,NA,"",       21.4806,      -20.8982,       4.96782,   20.6089E-06
C:/temp/dataset/2/7_9.odb,Step-1,Increment      4: Step Time =    1.000,"PART-1-1",           259,       12.6971,       25.9410,            0.,NA,NA,"",       22.2660,      -21.6137,       5.34983,   10.2004E-06
C:/temp/dataset/2/7_9.odb,Step-1,Increment      4: Step Time =    1.000,"PART-1-1",           260,       11.4859,       27.3886,            0.,NA,NA,"",       22.6363,      -22.1730,       4.55646,   3.13431E-06
C:/temp/dataset/2/7_9.odb,Step-1,Increment      4: Step Time =    1.000,"PART-1-1",           261,       10.4103,       26.2351,            0.,NA,NA,"",       21.8598,      -21.4575,       4.17443,   13.3564E-06
C:/temp/dataset/2/7_9.odb,Step-1,Increment      4: Step Time =    1.000,"PART-1-1",           262,       5.88041,       17.6377,            0.,NA,NA,"",       16.8657,      -16.5859,       3.05935,   361.154E-06
C:/temp/dataset/2/7_9.odb,Step-1,Increment      4: Step Time =    1.000,"PART-1-1",           263,       6.75071,       18.9160,            0.,NA,NA,"",       17.6521,      -17.3365,       3.32327,   279.988E-06
C:/temp/dataset/2/7_9.odb,Step-1,Increment      4: Step Time =    1.000,"PART-1-1",           264,       5.87030,       20.0282,            0.,NA,NA,"",       17.9824,      -17.7727,       2.73867,   129.797E-06
C:/temp/dataset/2/7_9.odb,Step-1,Increment      4: Step Time =    1.000,"PART-1-1",           265,            5.,         18.75,            0.,NA,NA,"",       17.2012,      -17.0222,       2.47496,   315.477E-06
C:/temp/dataset/2/7_9.odb,Step-1,Increment      4: Step Time =    1.000,"PART-1-1",           266,       12.3690,       13.3305,            0.,NA,NA,"",       16.7707,      -15.3064,       6.85340,   2.51876E-03
C:/temp/dataset/2/7_9.odb,Step-1,Increment      4: Step Time =    1.000,"PART-1-1",           267,       13.7195,       12.1790,            0.,NA,NA,"",       16.7739,      -14.9179,       7.66959,   5.66718E-03
C:/temp/dataset/2/7_9.odb,Step-1,Increment      4: Step Time =    1.000,"PART-1-1",           268,           15.,       13.9583,            0.,NA,NA,"",       17.8879,      -15.9628,       8.07247,   1.75534E-03
C:/temp/dataset/2/7_9.odb,Step-1,Increment      4: Step Time =    1.000,"PART-1-1",           269,       13.6495,       15.1098,            0.,NA,NA,"",       17.8929,      -16.3564,       7.25417,   970.909E-06
C:/temp/dataset/2/7_9.odb,Step-1,Increment      4: Step Time =    1.000,"PART-1-1",           270,       12.5214,       4.81657,            0.,NA,NA,"",       13.6553,      -11.0513,       8.02098,   13.6037E-03
C:/temp/dataset/2/7_9.odb,Step-1,Increment      4: Step Time =    1.000,"PART-1-1",           271,       13.7670,       3.58604,            0.,NA,NA,"",       13.7675,      -10.6051,       8.77923,   12.9415E-03
C:/temp/dataset/2/7_9.odb,Step-1,Increment      4: Step Time =    1.000,"PART-1-1",           272,           15.,       5.20833,            0.,NA,NA,"",       14.7949,      -11.5988,       9.18456,   14.9427E-03
C:/temp/dataset/2/7_9.odb,Step-1,Increment      4: Step Time =    1.000,"PART-1-1",           273,       13.7545,       6.43886,            0.,NA,NA,"",       14.6939,      -12.0421,       8.42019,   14.3441E-03
C:/temp/dataset/2/7_9.odb,Step-1,Increment      4: Step Time =    1.000,"PART-1-1",           274,       13.7625,      -2.13133,            0.,NA,NA,"",       12.2737,      -7.82252,       9.45796,   4.98886E-03
C:/temp/dataset/2/7_9.odb,Step-1,Increment      4: Step Time =    1.000,"PART-1-1",           275,       12.5125,      -3.58966,            0.,NA,NA,"",       11.4047,      -6.96810,       9.02845,   4.56800E-03
C:/temp/dataset/2/7_9.odb,Step-1,Increment      4: Step Time =    1.000,"PART-1-1",           276,         13.75,           -5.,            0.,NA,NA,"",       11.7299,      -6.44293,       9.80201,   948.881E-06
C:/temp/dataset/2/7_9.odb,Step-1,Increment      4: Step Time =    1.000,"PART-1-1",           277,           15.,      -3.54167,            0.,NA,NA,"",       12.5626,      -7.29937,       10.2244,   1.11897E-03
C:/temp/dataset/2/7_9.odb,Step-1,Increment      4: Step Time =    1.000,"PART-1-1",           278,      -9.21387,      -6.21191,            0.,NA,NA,"",       3.95591,      -3.93702,  -386.157E-03,   22.4849E-03
C:/temp/dataset/2/7_9.odb,Step-1,Increment      4: Step Time =    1.000,"PART-1-1",           279,      -8.44405,      -4.75360,            0.,NA,NA,"",       4.52672,      -4.52135,  -220.367E-03,   27.4686E-03
C:/temp/dataset/2/7_9.odb,Step-1,Increment      4: Step Time =    1.000,"PART-1-1",           280,      -9.71477,      -4.17886,            0.,NA,NA,"",       4.71841,      -4.66632,  -699.194E-03,   30.3057E-03
C:/temp/dataset/2/7_9.odb,Step-1,Increment      4: Step Time =    1.000,"PART-1-1",           281,      -10.4846,      -5.63717,            0.,NA,NA,"",       4.16563,      -4.07903,  -844.955E-03,   28.5480E-03
C:/temp/dataset/2/7_9.odb,Step-1,Increment      4: Step Time =    1.000,"PART-1-1",           282,      -5.84282,   107.969E-03,            0.,NA,NA,"",       6.68103,      -6.67076,   370.154E-03,   23.8250E-03
C:/temp/dataset/2/7_9.odb,Step-1,Increment      4: Step Time =    1.000,"PART-1-1",           283,      -4.64047,       1.60743,            0.,NA,NA,"",       7.43630,      -7.40187,   714.830E-03,   22.9128E-03
C:/temp/dataset/2/7_9.odb,Step-1,Increment      4: Step Time =    1.000,"PART-1-1",           284,      -6.45702,       2.58989,            0.,NA,NA,"",       7.63198,      -7.63182,  -49.1861E-03,   25.0755E-03
C:/temp/dataset/2/7_9.odb,Step-1,Increment      4: Step Time =    1.000,"PART-1-1",           285,      -7.65937,       1.09043,            0.,NA,NA,"",       6.92881,      -6.91832,  -381.276E-03,   26.2433E-03
C:/temp/dataset/2/7_9.odb,Step-1,Increment      4: Step Time =    1.000,"PART-1-1",           286,      -6.51044,      -5.43697,            0.,NA,NA,"",       4.41064,      -4.38331,   490.219E-03,   32.5271E-03
C:/temp/dataset/2/7_9.odb,Step-1,Increment      4: Step Time =    1.000,"PART-1-1",           287,      -5.48201,      -3.85122,            0.,NA,NA,"",       5.14058,      -5.08003,   786.634E-03,   29.5276E-03
C:/temp/dataset/2/7_9.odb,Step-1,Increment      4: Step Time =    1.000,"PART-1-1",           288,      -7.41561,      -3.16785,            0.,NA,NA,"",       5.20746,      -5.20737,   29.0758E-03,   29.5720E-03
C:/temp/dataset/2/7_9.odb,Step-1,Increment      4: Step Time =    1.000,"PART-1-1",           289,      -12.6742,      -10.6472,            0.,NA,NA,"",       2.59057,      -2.33016,      -1.13199,   44.8003E-03
C:/temp/dataset/2/7_9.odb,Step-1,Increment      4: Step Time =    1.000,"PART-1-1",           290,      -11.3911,      -11.6978,            0.,NA,NA,"",       2.17436,      -2.05780,  -702.339E-03,   28.9800E-03
C:/temp/dataset/2/7_9.odb,Step-1,Increment      4: Step Time =    1.000,"PART-1-1",           291,      -10.2167,      -10.1126,            0.,NA,NA,"",       2.61383,      -2.57091,  -471.723E-03,   21.3499E-03
C:/temp/dataset/2/7_9.odb,Step-1,Increment      4: Step Time =    1.000,"PART-1-1",           292,      -11.4997,      -9.06207,            0.,NA,NA,"",       2.99589,      -2.85416,  -910.544E-03,   29.1735E-03
C:/temp/dataset/2/7_9.odb,Step-1,Increment      4: Step Time =    1.000,"PART-1-1",           293,      -13.7107,      -15.1438,            0.,NA,NA,"",       1.54674,      -1.17227,      -1.00906,   74.7717E-03
C:/temp/dataset/2/7_9.odb,Step-1,Increment      4: Step Time =    1.000,"PART-1-1",           294,      -12.5249,      -13.4434,            0.,NA,NA,"",       1.79478,      -1.56871,  -872.000E-03,   47.3721E-03
C:/temp/dataset/2/7_9.odb,Step-1,Increment      4: Step Time =    1.000,"PART-1-1",           295,      -13.8143,      -12.2579,            0.,NA,NA,"",       2.27580,      -1.86318,      -1.30684,   67.6381E-03
C:/temp/dataset/2/7_9.odb,Step-1,Increment      4: Step Time =    1.000,"PART-1-1",           296,          -15.,      -13.9583,            0.,NA,NA,"",       2.04515,      -1.44900,      -1.44328,   96.6701E-03
C:/temp/dataset/2/7_9.odb,Step-1,Increment      4: Step Time =    1.000,"PART-1-1",           297,      -12.0988,      -16.5012,            0.,NA,NA,"",       1.05855,  -886.782E-03,  -578.062E-03,   44.0129E-03
C:/temp/dataset/2/7_9.odb,Step-1,Increment      4: Step Time =    1.000,"PART-1-1",           298,      -10.5811,      -17.2344,            0.,NA,NA,"",   799.933E-03,  -751.249E-03,  -274.807E-03,   20.1825E-03
C:/temp/dataset/2/7_9.odb,Step-1,Increment      4: Step Time =    1.000,"PART-1-1",           299,      -9.66362,      -15.1575,            0.,NA,NA,"",       1.21320,      -1.20287,  -157.989E-03,   21.6457E-03
C:/temp/dataset/2/7_9.odb,Step-1,Increment      4: Step Time =    1.000,"PART-1-1",           300,      -11.1813,      -14.4243,            0.,NA,NA,"",       1.43626,      -1.34563,  -502.116E-03,   27.5893E-03
C:/temp/dataset/2/7_9.odb,Step-1,Increment      4: Step Time =    1.000,"PART-1-1",           301,      -10.5090,      -18.8394,            0.,NA,NA,"",   529.343E-03,  -483.393E-03,  -215.721E-03,   20.5585E-03
C:/temp/dataset/2/7_9.odb,Step-1,Increment      4: Step Time =    1.000,"PART-1-1",           302,      -8.88448,      -18.7076,            0.,NA,NA,"",   508.434E-03,  -508.301E-03,   11.6148E-03,   20.1093E-03
C:/temp/dataset/2/7_9.odb,Step-1,Increment      4: Step Time =    1.000,"PART-1-1",           303,      -8.95657,      -17.1026,            0.,NA,NA,"",   796.381E-03,  -796.361E-03,  -5.54914E-03,   28.6372E-03
C:/temp/dataset/2/7_9.odb,Step-1,Increment      4: Step Time =    1.000,"PART-1-1",           304,      -8.08225,      -19.7831,            0.,NA,NA,"",   372.790E-03,  -357.001E-03,   107.345E-03,   25.9750E-03
C:/temp/dataset/2/7_9.odb,Step-1,Increment      4: Step Time =    1.000,"PART-1-1",           305,      -6.89084,      -18.8787,            0.,NA,NA,"",   559.651E-03,  -496.385E-03,   258.479E-03,   59.9930E-03
C:/temp/dataset/2/7_9.odb,Step-1,Increment      4: Step Time =    1.000,"PART-1-1",           306,      -7.69307,      -17.8032,            0.,NA,NA,"",   711.186E-03,  -686.600E-03,   185.383E-03,   56.5711E-03
C:/temp/dataset/2/7_9.odb,Step-1,Increment      4: Step Time =    1.000,"PART-1-1",           307,       7.10093,      -24.9223,            0.,NA,NA,"",   65.6173E-03,  -65.6113E-03,   886.585E-06,   7.69573E-03
C:/temp/dataset/2/7_9.odb,Step-1,Increment      4: Step Time =    1.000,"PART-1-1",           308,       8.59925,      -23.6815,            0.,NA,NA,"",   70.2257E-03,  -70.2225E-03,  -667.180E-06,   4.80162E-03
C:/temp/dataset/2/7_9.odb,Step-1,Increment      4: Step Time =    1.000,"PART-1-1",           309,       6.88316,      -22.4353,            0.,NA,NA,"",   82.1063E-03,  -82.0733E-03,  -2.32442E-03,   4.86092E-03
C:/temp/dataset/2/7_9.odb,Step-1,Increment      4: Step Time =    1.000,"PART-1-1",           310,       5.38484,      -23.6762,            0.,NA,NA,"",   82.3486E-03,  -82.3145E-03,   2.37123E-03,   7.55209E-03
C:/temp/dataset/2/7_9.odb,Step-1,Increment      4: Step Time =    1.000,"PART-1-1",           311,       13.3798,      -22.4744,            0.,NA,NA,"",   73.7350E-03,  -72.3698E-03,   14.1229E-03,   456.016E-06
C:/temp/dataset/2/7_9.odb,Step-1,Increment      4: Step Time =    1.000,"PART-1-1",           312,           15.,        -21.25,            0.,NA,NA,"",   82.3858E-03,  -79.0981E-03,   23.0415E-03,   190.148E-06
C:/temp/dataset/2/7_9.odb,Step-1,Increment      4: Step Time =    1.000,"PART-1-1",           313,       13.3333,          -20.,            0.,NA,NA,"",   86.7063E-03,  -85.5686E-03,   14.0001E-03,   219.703E-06
C:/temp/dataset/2/7_9.odb,Step-1,Increment      4: Step Time =    1.000,"PART-1-1",           314,       11.7131,      -21.2244,            0.,NA,NA,"",   79.7495E-03,  -79.5137E-03,   6.12751E-03,   473.732E-06
C:/temp/dataset/2/7_9.odb,Step-1,Increment      4: Step Time =    1.000,"PART-1-1",           315,      -2.14863,       2.00914,            0.,NA,NA,"",       8.00201,      -7.82549,       1.67148,   22.3776E-03
C:/temp/dataset/2/7_9.odb,Step-1,Increment      4: Step Time =    1.000,"PART-1-1",           316,      -1.66393,   575.985E-03,            0.,NA,NA,"",       7.53589,      -7.26743,       1.99349,   11.9540E-03
C:/temp/dataset/2/7_9.odb,Step-1,Increment      4: Step Time =    1.000,"PART-1-1",           317,   135.628E-03,       1.10435,            0.,NA,NA,"",       8.14473,      -7.68393,       2.70071,   14.3925E-03
C:/temp/dataset/2/7_9.odb,Step-1,Increment      4: Step Time =    1.000,"PART-1-1",           318,  -349.073E-03,       2.53751,            0.,NA,NA,"",       8.58578,      -8.25322,       2.36643,   25.3670E-03
C:/temp/dataset/2/7_9.odb,Step-1,Increment      4: Step Time =    1.000,"PART-1-1",           319,   156.145E-03,      -1.87787,            0.,NA,NA,"",       7.06110,      -6.39202,       3.00020,   7.39576E-03
C:/temp/dataset/2/7_9.odb,Step-1,Increment      4: Step Time =    1.000,"PART-1-1",           320,       1.21010,      -2.70880,            0.,NA,NA,"",       7.08320,      -6.12774,       3.55281,   13.0370E-03
C:/temp/dataset/2/7_9.odb,Step-1,Increment      4: Step Time =    1.000,"PART-1-1",           321,       2.32846,      -1.50081,            0.,NA,NA,"",       7.82281,      -6.76823,       3.92270,   6.49152E-03
C:/temp/dataset/2/7_9.odb,Step-1,Increment      4: Step Time =    1.000,"PART-1-1",           322,       1.27451,  -669.883E-03,            0.,NA,NA,"",       7.79265,      -7.02826,       3.36585,   2.43733E-03
C:/temp/dataset/2/7_9.odb,Step-1,Increment      4: Step Time =    1.000,"PART-1-1",           323,       4.87500,      -1.23074,            0.,NA,NA,"",       8.76783,      -7.16005,       5.06049,   8.07401E-03
C:/temp/dataset/2/7_9.odb,Step-1,Increment      4: Step Time =    1.000,"PART-1-1",           324,       6.20088,      -2.43579,            0.,NA,NA,"",       8.92227,      -6.75740,       5.82618,   11.9441E-03
C:/temp/dataset/2/7_9.odb,Step-1,Increment      4: Step Time =    1.000,"PART-1-1",           325,       7.44880,      -1.07477,            0.,NA,NA,"",       9.79680,      -7.53207,       6.26460,   11.2665E-03
C:/temp/dataset/2/7_9.odb,Step-1,Increment      4: Step Time =    1.000,"PART-1-1",           326,       6.12293,   130.279E-03,            0.,NA,NA,"",       9.64554,      -7.92911,       5.49232,   10.3516E-03
C:/temp/dataset/2/7_9.odb,Step-1,Increment      4: Step Time =    1.000,"PART-1-1",           327,          8.75,           -5.,            0.,NA,NA,"",       9.40617,      -5.84270,       7.37150,   13.9415E-03
C:/temp/dataset/2/7_9.odb,Step-1,Increment      4: Step Time =    1.000,"PART-1-1",           328,       10.0063,      -3.63741,            0.,NA,NA,"",       10.2520,      -6.63827,       7.81261,   8.89611E-03
C:/temp/dataset/2/7_9.odb,Step-1,Increment      4: Step Time =    1.000,"PART-1-1",           329,       8.73716,      -2.32557,            0.,NA,NA,"",       9.99825,      -7.10434,       7.03516,   11.6995E-03
C:/temp/dataset/2/7_9.odb,Step-1,Increment      4: Step Time =    1.000,"PART-1-1",           330,       7.48081,      -3.68816,            0.,NA,NA,"",       9.13147,      -6.32021,       6.59080,   13.6487E-03
C:/temp/dataset/2/7_9.odb,Step-1,Increment      4: Step Time =    1.000,"PART-1-1",           331,       6.24109,       7.72904,            0.,NA,NA,"",       12.5373,      -11.6718,       4.57745,   7.58543E-03
C:/temp/dataset/2/7_9.odb,Step-1,Increment      4: Step Time =    1.000,"PART-1-1",           332,            5.,          6.25,            0.,NA,NA,"",       11.5274,      -10.7480,       4.16664,   22.7470E-03
C:/temp/dataset/2/7_9.odb,Step-1,Increment      4: Step Time =    1.000,"PART-1-1",           333,       6.24095,       5.17046,            0.,NA,NA,"",       11.4751,      -10.3495,       4.95644,   33.8940E-03
C:/temp/dataset/2/7_9.odb,Step-1,Increment      4: Step Time =    1.000,"PART-1-1",           334,       7.48203,       6.64950,            0.,NA,NA,"",       12.4881,      -11.2851,       5.34763,   16.7633E-03
C:/temp/dataset/2/7_9.odb,Step-1,Increment      4: Step Time =    1.000,"PART-1-1",           335,       7.34508,       23.6052,            0.,NA,NA,"",       19.9717,      -19.7452,       2.99885,   40.1741E-06
C:/temp/dataset/2/7_9.odb,Step-1,Increment      4: Step Time =    1.000,"PART-1-1",           336,       6.41056,       24.2397,            0.,NA,NA,"",       20.0870,      -19.9370,       2.45051,   16.4571E-06
C:/temp/dataset/2/7_9.odb,Step-1,Increment      4: Step Time =    1.000,"PART-1-1",           337,       6.08150,       22.9932,            0.,NA,NA,"",       19.4293,      -19.2740,       2.45178,   34.0863E-06
C:/temp/dataset/2/7_9.odb,Step-1,Increment      4: Step Time =    1.000,"PART-1-1",           338,       7.01602,       22.3587,            0.,NA,NA,"",       19.3167,      -19.0823,       3.00011,   60.1304E-06
C:/temp/dataset/2/7_9.odb,Step-1,Increment      4: Step Time =    1.000,"PART-1-1",           339,      -12.5005,       23.7291,            0.,NA,NA,"",       18.5089,      -17.1827,      -6.87996,   9.20261E-09
C:/temp/dataset/2/7_9.odb,Step-1,Increment      4: Step Time =    1.000,"PART-1-1",           340,      -13.7489,       24.9883,            0.,NA,NA,"",       19.2372,      -17.6434,      -7.66683,   10.2351E-09
C:/temp/dataset/2/7_9.odb,Step-1,Increment      4: Step Time =    1.000,"PART-1-1",           341,          -15.,         23.75,            0.,NA,NA,"",       18.7180,      -16.8626,      -8.12485,   12.5727E-09
C:/temp/dataset/2/7_9.odb,Step-1,Increment      4: Step Time =    1.000,"PART-1-1",           342,      -2.52491,       26.1674,            0.,NA,NA,"",       19.8409,      -19.7135,      -2.24494,   1.04231E-06
C:/temp/dataset/2/7_9.odb,Step-1,Increment      4: Step Time =    1.000,"PART-1-1",           343,      -1.30373,       24.8780,            0.,NA,NA,"",       19.2901,      -19.2342,      -1.46758,   2.03611E-06
C:/temp/dataset/2/7_9.odb,Step-1,Increment      4: Step Time =    1.000,"PART-1-1",           344,      -1.26817,       27.4122,            0.,NA,NA,"",       20.5758,      -20.4982,      -1.78498,   1.63046E-06
C:/temp/dataset/2/7_9.odb,Step-1,Increment      4: Step Time =    1.000,"PART-1-1",           345,       2.31009,       23.4917,            0.,NA,NA,"",       19.0300,      -19.0231,   511.632E-03,   4.73705E-06
C:/temp/dataset/2/7_9.odb,Step-1,Increment      4: Step Time =    1.000,"PART-1-1",           346,       3.41051,       22.2101,            0.,NA,NA,"",       18.5723,      -18.5316,       1.22794,   9.24332E-06
C:/temp/dataset/2/7_9.odb,Step-1,Increment      4: Step Time =    1.000,"PART-1-1",           347,       4.46987,       23.2845,            0.,NA,NA,"",       19.2732,      -19.2057,       1.61233,   10.9321E-06
C:/temp/dataset/2/7_9.odb,Step-1,Increment      4: Step Time =    1.000,"PART-1-1",           348,       3.36945,       24.5662,            0.,NA,NA,"",       19.7175,      -19.6971,   896.011E-03,   3.64950E-06
C:/temp/dataset/2/7_9.odb,Step-1,Increment      4: Step Time =    1.000,"PART-1-1",           349,       3.92627,       27.0683,            0.,NA,NA,"",       21.0310,      -21.0142,   841.887E-03,   1.27163E-06
C:/temp/dataset/2/7_9.odb,Step-1,Increment      4: Step Time =    1.000,"PART-1-1",           350,       5.16355,       28.4353,            0.,NA,NA,"",       21.8944,      -21.8572,       1.27601,   2.81586E-06
C:/temp/dataset/2/7_9.odb,Step-1,Increment      4: Step Time =    1.000,"PART-1-1",           351,          3.75,           30.,            0.,NA,NA,"",       22.4508,      -22.4478,   366.645E-03,   5.91599E-06
C:/temp/dataset/2/7_9.odb,Step-1,Increment      4: Step Time =    1.000,"PART-1-1",           352,       2.51272,       28.6330,            0.,NA,NA,"",       21.6050,      -21.6048,  -67.4768E-03,   3.01283E-06
C:/temp/dataset/2/7_9.odb,Step-1,Increment      4: Step Time =    1.000,"PART-1-1",           353,       11.0463,       14.3537,            0.,NA,NA,"",       16.7726,      -15.6383,       6.06335,   689.481E-06
C:/temp/dataset/2/7_9.odb,Step-1,Increment      4: Step Time =    1.000,"PART-1-1",           354,       9.86747,       12.5470,            0.,NA,NA,"",       15.6630,      -14.5822,       5.71737,   2.58448E-03
C:/temp/dataset/2/7_9.odb,Step-1,Increment      4: Step Time =    1.000,"PART-1-1",           355,       11.1901,       11.5237,            0.,NA,NA,"",       15.6640,      -14.2485,       6.50682,   4.99004E-03
C:/temp/dataset/2/7_9.odb,Step-1,Increment      4: Step Time =    1.000,"PART-1-1",           356,       9.55073,       15.1783,            0.,NA,NA,"",       16.6845,      -15.8498,       5.21097,   528.341E-06
C:/temp/dataset/2/7_9.odb,Step-1,Increment      4: Step Time =    1.000,"PART-1-1",           357,       8.18591,       15.9712,            0.,NA,NA,"",       16.6620,      -16.0631,       4.42678,   437.145E-06
C:/temp/dataset/2/7_9.odb,Step-1,Increment      4: Step Time =    1.000,"PART-1-1",           358,       7.20669,       14.2932,            0.,NA,NA,"",       15.6614,      -15.0983,       4.16182,   241.631E-06
C:/temp/dataset/2/7_9.odb,Step-1,Increment      4: Step Time =    1.000,"PART-1-1",           359,       8.57151,       13.5002,            0.,NA,NA,"",       15.6854,      -14.8849,       4.94689,   631.672E-06
C:/temp/dataset/2/7_9.odb,Step-1,Increment      4: Step Time =    1.000,"PART-1-1",           360,       7.44377,       1.50598,            0.,NA,NA,"",       10.5786,      -8.73668,       5.96464,   14.4102E-03
C:/temp/dataset/2/7_9.odb,Step-1,Increment      4: Step Time =    1.000,"PART-1-1",           361,       8.72836,   326.342E-03,            0.,NA,NA,"",       10.7166,      -8.34809,       6.71978,   12.3595E-03
C:/temp/dataset/2/7_9.odb,Step-1,Increment      4: Step Time =    1.000,"PART-1-1",           362,       10.0261,       1.76283,            0.,NA,NA,"",       11.6748,      -9.20512,       7.18101,   10.8762E-03
C:/temp/dataset/2/7_9.odb,Step-1,Increment      4: Step Time =    1.000,"PART-1-1",           363,       8.74149,       2.94246,            0.,NA,NA,"",       11.5512,      -9.60170,       6.42163,   15.9450E-03
C:/temp/dataset/2/7_9.odb,Step-1,Increment      4: Step Time =    1.000,"PART-1-1",           364,       12.5045,       7.62102,            0.,NA,NA,"",       14.6295,      -12.4644,       7.65899,   13.1629E-03
C:/temp/dataset/2/7_9.odb,Step-1,Increment      4: Step Time =    1.000,"PART-1-1",           365,           15.,         8.125,            0.,NA,NA,"",       15.7661,      -13.0683,       8.81984,   11.3522E-03
C:/temp/dataset/2/7_9.odb,Step-1,Increment      4: Step Time =    1.000,"PART-1-1",           366,       13.7500,       9.30715,            0.,NA,NA,"",       15.7081,      -13.4875,       8.05180,   10.7426E-03
C:/temp/dataset/2/7_9.odb,Step-1,Increment      4: Step Time =    1.000,"PART-1-1",           367,      -1.45938,      -2.40358,            0.,NA,NA,"",       6.46527,      -6.02153,       2.35390,   9.45322E-03
C:/temp/dataset/2/7_9.odb,Step-1,Increment      4: Step Time =    1.000,"PART-1-1",           368,      -2.69869,      -3.52952,            0.,NA,NA,"",       5.77635,      -5.44439,       1.92997,   17.9447E-03
C:/temp/dataset/2/7_9.odb,Step-1,Increment      4: Step Time =    1.000,"PART-1-1",           369,         -1.25,           -5.,            0.,NA,NA,"",       5.63382,      -4.93629,       2.71532,   27.6226E-03
C:/temp/dataset/2/7_9.odb,Step-1,Increment      4: Step Time =    1.000,"PART-1-1",           370,  -10.6917E-03,      -3.87406,            0.,NA,NA,"",       6.34562,      -5.51523,       3.13832,   20.5992E-03
C:/temp/dataset/2/7_9.odb,Step-1,Increment      4: Step Time =    1.000,"PART-1-1",           371,      -13.3333,            5.,            0.,NA,NA,"",       8.46715,      -8.00285,      -2.76532,   1.90195E-03
C:/temp/dataset/2/7_9.odb,Step-1,Increment      4: Step Time =    1.000,"PART-1-1",           372,          -15.,       3.54167,            0.,NA,NA,"",       8.02587,      -7.32088,      -3.28925,   1.73525E-03
C:/temp/dataset/2/7_9.odb,Step-1,Increment      4: Step Time =    1.000,"PART-1-1",           373,      -13.2137,       2.05352,            0.,NA,NA,"",       7.31838,      -6.88119,      -2.49157,   10.4590E-03
C:/temp/dataset/2/7_9.odb,Step-1,Increment      4: Step Time =    1.000,"PART-1-1",           374,      -11.5470,       3.51185,            0.,NA,NA,"",       7.82693,      -7.57078,      -1.98601,   10.9385E-03
C:/temp/dataset/2/7_9.odb,Step-1,Increment      4: Step Time =    1.000,"PART-1-1",           375,          -15.,      625.E-03,            0.,NA,NA,"",       6.90742,      -6.19631,      -3.05257,   12.5189E-03
C:/temp/dataset/2/7_9.odb,Step-1,Increment      4: Step Time =    1.000,"PART-1-1",           376,      -12.9883,      -1.02354,            0.,NA,NA,"",       6.08273,      -5.69547,      -2.13570,   22.3129E-03
C:/temp/dataset/2/7_9.odb,Step-1,Increment      4: Step Time =    1.000,"PART-1-1",           377,      -11.2019,   404.974E-03,            0.,NA,NA,"",       6.57610,      -6.37608,      -1.60954,   25.8456E-03
C:/temp/dataset/2/7_9.odb,Step-1,Increment      4: Step Time =    1.000,"PART-1-1",           378,      -13.6690,      -3.88141,            0.,NA,NA,"",       5.02781,      -4.56478,      -2.10752,   34.0301E-03
C:/temp/dataset/2/7_9.odb,Step-1,Increment      4: Step Time =    1.000,"PART-1-1",           379,      -11.6573,      -2.61328,            0.,NA,NA,"",       5.37446,      -5.15886,      -1.50697,   31.7103E-03
C:/temp/dataset/2/7_9.odb,Step-1,Increment      4: Step Time =    1.000,"PART-1-1",           380,          -15.,      -2.29167,            0.,NA,NA,"",       5.78928,      -5.08095,      -2.77483,   31.3669E-03
C:/temp/dataset/2/7_9.odb,Step-1,Increment      4: Step Time =    1.000,"PART-1-1",           381,           -5.,         -8.75,            0.,NA,NA,"",       3.48950,      -3.33492,       1.02711,   73.2457E-03
C:/temp/dataset/2/7_9.odb,Step-1,Increment      4: Step Time =    1.000,"PART-1-1",           382,      -6.37238,      -7.84264,            0.,NA,NA,"",       3.58941,      -3.53872,   601.101E-03,   50.4054E-03
C:/temp/dataset/2/7_9.odb,Step-1,Increment      4: Step Time =    1.000,"PART-1-1",           383,      -7.67841,      -9.42411,            0.,NA,NA,"",       2.92731,      -2.91839,   228.294E-03,   38.2054E-03
C:/temp/dataset/2/7_9.odb,Step-1,Increment      4: Step Time =    1.000,"PART-1-1",           384,      -6.30603,      -10.3315,            0.,NA,NA,"",       2.78643,      -2.71417,   630.441E-03,   59.9966E-03
C:/temp/dataset/2/7_9.odb,Step-1,Increment      4: Step Time =    1.000,"PART-1-1",           385,      -13.6103,      -21.3688,            0.,NA,NA,"",   543.346E-03,  -244.090E-03,  -485.433E-03,   76.6344E-03
C:/temp/dataset/2/7_9.odb,Step-1,Increment      4: Step Time =    1.000,"PART-1-1",           386,          -15.,      -22.7083,            0.,NA,NA,"",   539.173E-03,  -200.578E-03,  -500.476E-03,   96.4805E-03
C:/temp/dataset/2/7_9.odb,Step-1,Increment      4: Step Time =    1.000,"PART-1-1",           387,      -13.6241,      -24.2925,            0.,NA,NA,"",   304.463E-03,  -75.8027E-03,  -294.876E-03,   68.0408E-03
C:/temp/dataset/2/7_9.odb,Step-1,Increment      4: Step Time =    1.000,"PART-1-1",           388,      -12.2343,      -22.9530,            0.,NA,NA,"",   283.702E-03,  -103.467E-03,  -264.162E-03,   50.0009E-03
C:/temp/dataset/2/7_9.odb,Step-1,Increment      4: Step Time =    1.000,"PART-1-1",           389,           -5.,        -16.25,            0.,NA,NA,"",       1.37387,      -1.16001,   736.143E-03,   110.080E-03
C:/temp/dataset/2/7_9.odb,Step-1,Increment      4: Step Time =    1.000,"PART-1-1",           390,      -6.06585,      -15.2329,            0.,NA,NA,"",       1.45338,      -1.33538,   573.641E-03,   82.7089E-03
C:/temp/dataset/2/7_9.odb,Step-1,Increment      4: Step Time =    1.000,"PART-1-1",           391,      -6.99530,      -16.6022,            0.,NA,NA,"",       1.01933,  -961.928E-03,   337.234E-03,   70.0071E-03
C:/temp/dataset/2/7_9.odb,Step-1,Increment      4: Step Time =    1.000,"PART-1-1",           392,      -5.92946,      -17.6192,            0.,NA,NA,"",   911.232E-03,  -786.373E-03,   460.393E-03,   97.3903E-03
C:/temp/dataset/2/7_9.odb,Step-1,Increment      4: Step Time =    1.000,"PART-1-1",           393,         -13.5,          -30.,            0.,NA,NA,"",            0.,  -280.803E-42,   1.41143E-39,   45.3644E-03
C:/temp/dataset/2/7_9.odb,Step-1,Increment      4: Step Time =    1.000,"PART-1-1",           394,      -12.0804,      -28.6247,            0.,NA,NA,"",   44.5931E-03,   20.7349E-03,  -39.4792E-03,   39.2143E-03
C:/temp/dataset/2/7_9.odb,Step-1,Increment      4: Step Time =    1.000,"PART-1-1",           395,      -13.5804,      -27.1664,            0.,NA,NA,"",   132.423E-03,  -12.8306E-03,  -131.800E-03,   59.3726E-03
C:/temp/dataset/2/7_9.odb,Step-1,Increment      4: Step Time =    1.000,"PART-1-1",           396,          -15.,      -28.5417,            0.,NA,NA,"",   87.7260E-03,  -43.1879E-03,  -76.3588E-03,   65.4284E-03
C:/temp/dataset/2/7_9.odb,Step-1,Increment      4: Step Time =    1.000,"PART-1-1",           397,          13.5,          -30.,            0.,NA,NA,"",            0.,   56.7007E-42,  -168.952E-42,   9.35887E-03
C:/temp/dataset/2/7_9.odb,Step-1,Increment      4: Step Time =    1.000,"PART-1-1",           398,           15.,        -28.75,            0.,NA,NA,"",   19.9174E-03,  -16.3035E-03,   11.4412E-03,   8.82197E-03
C:/temp/dataset/2/7_9.odb,Step-1,Increment      4: Step Time =    1.000,"PART-1-1",           399,       13.4640,      -27.4843,            0.,NA,NA,"",   29.4179E-03,  -28.3345E-03,   7.90996E-03,   5.16903E-03
C:/temp/dataset/2/7_9.odb,Step-1,Increment      4: Step Time =    1.000,"PART-1-1",           400,       11.9640,      -28.7343,            0.,NA,NA,"",   13.8931E-03,  -13.6892E-03,   2.37179E-03,   7.21828E-03
C:/temp/dataset/2/7_9.odb,Step-1,Increment      4: Step Time =    1.000,"PART-1-1",           401,       10.2658,      -24.9335,            0.,NA,NA,"",   56.9099E-03,  -56.8604E-03,   2.37178E-03,   5.04465E-03
C:/temp/dataset/2/7_9.odb,Step-1,Increment      4: Step Time =    1.000,"PART-1-1",           402,       8.77397,      -26.1861,            0.,NA,NA,"",   48.1640E-03,  -48.1402E-03,   1.51565E-03,   7.31979E-03
C:/temp/dataset/2/7_9.odb,Step-1,Increment      4: Step Time =    1.000,"PART-1-1",           403,       10.3945,      -27.4590,            0.,NA,NA,"",   30.7462E-03,  -30.6614E-03,   2.28113E-03,   7.57232E-03
C:/temp/dataset/2/7_9.odb,Step-1,Increment      4: Step Time =    1.000,"PART-1-1",           404,       11.8863,      -26.2064,            0.,NA,NA,"",   43.0462E-03,  -42.6862E-03,   5.55590E-03,   5.64382E-03
C:/temp/dataset/2/7_9.odb,Step-1,Increment      4: Step Time =    1.000,"PART-1-1",           405,       8.93044,      -28.7247,            0.,NA,NA,"",   17.3552E-03,  -17.2851E-03,   1.55842E-03,   8.72723E-03
C:/temp/dataset/2/7_9.odb,Step-1,Increment      4: Step Time =    1.000,"PART-1-1",           406,       7.31300,      -27.4411,            0.,NA,NA,"",   37.5662E-03,  -37.4907E-03,   2.38000E-03,   9.60910E-03
C:/temp/dataset/2/7_9.odb,Step-1,Increment      4: Step Time =    1.000,"PART-1-1",           407,       5.88256,      -28.7164,            0.,NA,NA,"",   22.4601E-03,  -22.3022E-03,   2.65829E-03,   11.4856E-03
C:/temp/dataset/2/7_9.odb,Step-1,Increment      4: Step Time =    1.000,"PART-1-1",           408,           7.5,          -30.,            0.,NA,NA,"",            0.,   197.118E-42,  -82.5169E-42,   10.7240E-03
C:/temp/dataset/2/7_9.odb,Step-1,Increment      4: Step Time =    1.000,"PART-1-1",           409,       5.63995,      -26.1773,            0.,NA,NA,"",   58.8901E-03,  -58.7322E-03,   4.31079E-03,   9.85800E-03
C:/temp/dataset/2/7_9.odb,Step-1,Increment      4: Step Time =    1.000,"PART-1-1",           410,       3.92490,      -24.9166,            0.,NA,NA,"",   80.6031E-03,  -80.0205E-03,   9.67371E-03,   11.6756E-03
C:/temp/dataset/2/7_9.odb,Step-1,Increment      4: Step Time =    1.000,"PART-1-1",           411,       2.50142,      -26.1700,            0.,NA,NA,"",   73.2413E-03,  -71.2355E-03,   17.0235E-03,   14.4201E-03
C:/temp/dataset/2/7_9.odb,Step-1,Increment      4: Step Time =    1.000,"PART-1-1",           412,       4.21647,      -27.4307,            0.,NA,NA,"",   47.4109E-03,  -46.8637E-03,   7.18228E-03,   12.6763E-03
C:/temp/dataset/2/7_9.odb,Step-1,Increment      4: Step Time =    1.000,"PART-1-1",           413,       1.12659,      -27.4308,            0.,NA,NA,"",   56.7562E-03,  -53.4939E-03,   18.9650E-03,   17.4126E-03
C:/temp/dataset/2/7_9.odb,Step-1,Increment      4: Step Time =    1.000,"PART-1-1",           414,  -207.324E-03,      -28.7165,            0.,NA,NA,"",   30.4701E-03,  -27.7554E-03,   12.5723E-03,   19.8702E-03
C:/temp/dataset/2/7_9.odb,Step-1,Increment      4: Step Time =    1.000,"PART-1-1",           415,           1.5,          -30.,            0.,NA,NA,"",            0.,   361.270E-42,  -367.523E-42,   17.4959E-03
C:/temp/dataset/2/7_9.odb,Step-1,Increment      4: Step Time =    1.000,"PART-1-1",           416,       2.83391,      -28.7143,            0.,NA,NA,"",   28.0265E-03,  -27.3324E-03,   6.19879E-03,   15.3763E-03
C:/temp/dataset/2/7_9.odb,Step-1,Increment      4: Step Time =    1.000,"PART-1-1",           417,      -1.92078,      -27.4395,            0.,NA,NA,"",   58.8253E-03,  -46.1164E-03,   36.5199E-03,   23.6030E-03
C:/temp/dataset/2/7_9.odb,Step-1,Increment      4: Step Time =    1.000,"PART-1-1",           418,      -3.21345,      -28.7230,            0.,NA,NA,"",   24.3345E-03,  -16.0500E-03,   18.2911E-03,   22.0631E-03
C:/temp/dataset/2/7_9.odb,Step-1,Increment      4: Step Time =    1.000,"PART-1-1",           419,          -1.5,          -30.,            0.,NA,NA,"",            0.,   367.405E-42,  -650.152E-42,   18.0450E-03
C:/temp/dataset/2/7_9.odb,Step-1,Increment      4: Step Time =    1.000,"PART-1-1",           420,      -5.57419,      -22.4519,            0.,NA,NA,"",   244.472E-03,  -152.007E-03,   191.469E-03,   51.6323E-03
C:/temp/dataset/2/7_9.odb,Step-1,Increment      4: Step Time =    1.000,"PART-1-1",           421,      -6.77537,      -23.6376,            0.,NA,NA,"",   140.897E-03,  -78.6653E-03,   116.892E-03,   37.6115E-03
C:/temp/dataset/2/7_9.odb,Step-1,Increment      4: Step Time =    1.000,"PART-1-1",           422,      -5.25528,      -24.9124,            0.,NA,NA,"",   123.290E-03,  -64.4236E-03,   105.119E-03,   35.1304E-03
C:/temp/dataset/2/7_9.odb,Step-1,Increment      4: Step Time =    1.000,"PART-1-1",           423,      -4.05411,      -23.7268,            0.,NA,NA,"",   179.794E-03,  -119.198E-03,   134.603E-03,   47.4458E-03
C:/temp/dataset/2/7_9.odb,Step-1,Increment      4: Step Time =    1.000,"PART-1-1",           424,       13.4223,      -24.9720,            0.,NA,NA,"",   56.1417E-03,  -54.5853E-03,   13.1276E-03,   2.09057E-03
C:/temp/dataset/2/7_9.odb,Step-1,Increment      4: Step Time =    1.000,"PART-1-1",           425,           15.,        -26.25,            0.,NA,NA,"",   49.5907E-03,  -43.9479E-03,   22.9743E-03,   2.63655E-03
C:/temp/dataset/2/7_9.odb,Step-1,Increment      4: Step Time =    1.000,"PART-1-1",           426,       11.8021,      -23.6964,            0.,NA,NA,"",   65.1661E-03,  -64.8451E-03,   6.46062E-03,   2.50094E-03
C:/temp/dataset/2/7_9.odb,Step-1,Increment      4: Step Time =    1.000,"PART-1-1",           427,       10.1355,      -22.4445,            0.,NA,NA,"",   74.6019E-03,  -74.5954E-03,   989.312E-06,   2.39316E-03
C:/temp/dataset/2/7_9.odb,Step-1,Increment      4: Step Time =    1.000,"PART-1-1",           428,      -2.31424,      -24.9364,            0.,NA,NA,"",   127.146E-03,  -96.1765E-03,   83.1642E-03,   32.1745E-03
C:/temp/dataset/2/7_9.odb,Step-1,Increment      4: Step Time =    1.000,"PART-1-1",           429,      -3.63092,      -26.1962,            0.,NA,NA,"",   90.2262E-03,  -55.4500E-03,   71.1763E-03,   32.7259E-03
C:/temp/dataset/2/7_9.odb,Step-1,Increment      4: Step Time =    1.000,"PART-1-1",           430,  -604.096E-03,      -26.1796,            0.,NA,NA,"",   87.9680E-03,  -76.3907E-03,   43.6216E-03,   23.9043E-03
C:/temp/dataset/2/7_9.odb,Step-1,Increment      4: Step Time =    1.000,"PART-1-1",           431,      -7.52977,      -11.9021,            0.,NA,NA,"",       2.17596,      -2.15529,   299.250E-03,   47.5890E-03
C:/temp/dataset/2/7_9.odb,Step-1,Increment      4: Step Time =    1.000,"PART-1-1",           432,      -6.22373,      -12.8207,            0.,NA,NA,"",       2.06055,      -1.96555,   618.430E-03,   69.9449E-03
C:/temp/dataset/2/7_9.odb,Step-1,Increment      4: Step Time =    1.000,"PART-1-1",           433,           -5.,        -11.25,            0.,NA,NA,"",       2.70459,      -2.51952,   983.259E-03,   83.6099E-03
C:/temp/dataset/2/7_9.odb,Step-1,Increment      4: Step Time =    1.000,"PART-1-1",           434,      -10.0475,      -12.6788,            0.,NA,NA,"",       1.85010,      -1.82334,  -313.533E-03,   20.8924E-03
C:/temp/dataset/2/7_9.odb,Step-1,Increment      4: Step Time =    1.000,"PART-1-1",           435,           -5.,         -6.25,            0.,NA,NA,"",       4.34291,      -4.21642,       1.04053,   72.3619E-03
C:/temp/dataset/2/7_9.odb,Step-1,Increment      4: Step Time =    1.000,"PART-1-1",           436,      -7.88282,      -7.02961,            0.,NA,NA,"",       3.72111,      -3.71995,   93.0117E-03,   26.6707E-03
C:/temp/dataset/2/7_9.odb,Step-1,Increment      4: Step Time =    1.000,"PART-1-1",           437,      -13.8577,      -6.65334,            0.,NA,NA,"",       4.03603,      -3.56667,      -1.88902,   47.6905E-03
C:/temp/dataset/2/7_9.odb,Step-1,Increment      4: Step Time =    1.000,"PART-1-1",           438,      -12.5267,      -5.32641,            0.,NA,NA,"",       4.37976,      -4.09232,      -1.56051,   35.2173E-03
C:/temp/dataset/2/7_9.odb,Step-1,Increment      4: Step Time =    1.000,"PART-1-1",           439,          -15.,      -5.20833,            0.,NA,NA,"",       4.71053,      -4.01746,      -2.45948,   51.2516E-03
C:/temp/dataset/2/7_9.odb,Step-1,Increment      4: Step Time =    1.000,"PART-1-1",           440,          1.25,           -5.,            0.,NA,NA,"",       6.39915,      -5.13074,       3.82421,   27.3335E-03
C:/temp/dataset/2/7_9.odb,Step-1,Increment      4: Step Time =    1.000,"PART-1-1",           441,       2.47079,      -3.83474,            0.,NA,NA,"",       7.14523,      -5.74663,       4.24624,   20.1222E-03
C:/temp/dataset/2/7_9.odb,Step-1,Increment      4: Step Time =    1.000,"PART-1-1",           442,       3.51261,  -149.180E-03,            0.,NA,NA,"",       8.64867,      -7.49728,       4.31165,   5.36990E-03
C:/temp/dataset/2/7_9.odb,Step-1,Increment      4: Step Time =    1.000,"PART-1-1",           443,       3.69085,      -2.58237,            0.,NA,NA,"",       7.93799,      -6.42319,       4.66415,   11.9963E-03
C:/temp/dataset/2/7_9.odb,Step-1,Increment      4: Step Time =    1.000,"PART-1-1",           444,       8.74868,       5.55605,            0.,NA,NA,"",       12.4957,      -10.9036,       6.10361,   19.6472E-03
C:/temp/dataset/2/7_9.odb,Step-1,Increment      4: Step Time =    1.000,"PART-1-1",           445,       10.0030,       7.12352,            0.,NA,NA,"",       13.5350,      -11.8690,       6.50567,   14.5434E-03
C:/temp/dataset/2/7_9.odb,Step-1,Increment      4: Step Time =    1.000,"PART-1-1",           446,       8.73640,       8.21697,            0.,NA,NA,"",       13.5322,      -12.2538,       5.74157,   12.0874E-03
C:/temp/dataset/2/7_9.odb,Step-1,Increment      4: Step Time =    1.000,"PART-1-1",           447,           15.,     -625.E-03,            0.,NA,NA,"",       13.1621,      -8.70169,       9.87523,   7.25659E-03
C:/temp/dataset/2/7_9.odb,Step-1,Increment      4: Step Time =    1.000,"PART-1-1",           448,       13.7714,   731.820E-03,            0.,NA,NA,"",       12.9585,      -9.20081,       9.12514,   9.37138E-03
C:/temp/dataset/2/7_9.odb,Step-1,Increment      4: Step Time =    1.000,"PART-1-1",           449,       12.5339,  -774.506E-03,            0.,NA,NA,"",       12.0358,      -8.31583,       8.70094,   8.62709E-03
C:/temp/dataset/2/7_9.odb,Step-1,Increment      4: Step Time =    1.000,"PART-1-1",           450,       7.40609,       11.8257,            0.,NA,NA,"",       14.6323,      -13.8935,       4.59086,   1.91354E-03
C:/temp/dataset/2/7_9.odb,Step-1,Increment      4: Step Time =    1.000,"PART-1-1",           451,       8.70206,       10.8725,            0.,NA,NA,"",       14.6088,      -13.5886,       5.36338,   4.32649E-03
C:/temp/dataset/2/7_9.odb,Step-1,Increment      4: Step Time =    1.000,"PART-1-1",           452,       11.2454,       8.75341,            0.,NA,NA,"",       14.5961,      -12.8635,       6.89754,   11.6967E-03
C:/temp/dataset/2/7_9.odb,Step-1,Increment      4: Step Time =    1.000,"PART-1-1",           453,       11.2622,       5.99112,            0.,NA,NA,"",       13.5750,      -11.4688,       7.26279,   15.6354E-03
C:/temp/dataset/2/7_9.odb,Step-1,Increment      4: Step Time =    1.000,"PART-1-1",           454,       13.8596,       24.3693,            0.,NA,NA,"",       21.8647,      -20.9863,       6.13544,   9.62250E-06
C:/temp/dataset/2/7_9.odb,Step-1,Increment      4: Step Time =    1.000,"PART-1-1",           455,       12.6110,       23.1199,            0.,NA,NA,"",       20.9837,      -20.2002,       5.68016,   62.5890E-06
C:/temp/dataset/2/7_9.odb,Step-1,Increment      4: Step Time =    1.000,"PART-1-1",           456,       13.7514,       21.4590,            0.,NA,NA,"",       20.5684,      -19.5255,       6.46656,   75.1247E-06
C:/temp/dataset/2/7_9.odb,Step-1,Increment      4: Step Time =    1.000,"PART-1-1",           457,           15.,       22.7083,            0.,NA,NA,"",       21.4586,      -20.3116,       6.92187,   35.7819E-06
C:/temp/dataset/2/7_9.odb,Step-1,Increment      4: Step Time =    1.000,"PART-1-1",           458,       8.83903,       17.2613,            0.,NA,NA,"",       17.4043,      -16.7907,       4.58084,   468.558E-06
C:/temp/dataset/2/7_9.odb,Step-1,Increment      4: Step Time =    1.000,"PART-1-1",           459,       10.5130,       17.3338,            0.,NA,NA,"",       17.8836,      -17.0477,       5.40356,   484.093E-06
C:/temp/dataset/2/7_9.odb,Step-1,Increment      4: Step Time =    1.000,"PART-1-1",           460,       8.72284,       19.1442,            0.,NA,NA,"",       18.2191,      -17.7107,       4.27371,   301.954E-06
C:/temp/dataset/2/7_9.odb,Step-1,Increment      4: Step Time =    1.000,"PART-1-1",           461,           15.,       28.5417,            0.,NA,NA,"",       24.0118,      -23.2107,       6.15044,   1.45490E-06
C:/temp/dataset/2/7_9.odb,Step-1,Increment      4: Step Time =    1.000,"PART-1-1",           462,         13.75,           30.,            0.,NA,NA,"",       24.3618,      -23.7702,       5.33636,   1.31000E-06
C:/temp/dataset/2/7_9.odb,Step-1,Increment      4: Step Time =    1.000,"PART-1-1",           463,       12.5875,       28.6551,            0.,NA,NA,"",       23.4730,      -22.9481,       4.93646,   805.142E-09
C:/temp/dataset/2/7_9.odb,Step-1,Increment      4: Step Time =    1.000,"PART-1-1",           464,       13.8375,       27.1968,            0.,NA,NA,"",       23.1153,      -22.3886,       5.75054,   1.79971E-06
C:/temp/dataset/2/7_9.odb,Step-1,Increment      4: Step Time =    1.000,"PART-1-1",           465,         11.25,           30.,            0.,NA,NA,"",       23.7944,      -23.4396,       4.09391,   3.42030E-06
C:/temp/dataset/2/7_9.odb,Step-1,Increment      4: Step Time =    1.000,"PART-1-1",           466,       10.1484,       28.7335,            0.,NA,NA,"",       22.9667,      -22.6645,       3.71390,   904.146E-09
C:/temp/dataset/2/7_9.odb,Step-1,Increment      4: Step Time =    1.000,"PART-1-1",           467,       7.69941,       28.7139,            0.,NA,NA,"",       22.4703,      -22.3309,       2.49942,   2.30691E-06
C:/temp/dataset/2/7_9.odb,Step-1,Increment      4: Step Time =    1.000,"PART-1-1",           468,       9.09777,       27.4473,            0.,NA,NA,"",       22.1431,      -21.8864,       3.36185,   4.76109E-06
C:/temp/dataset/2/7_9.odb,Step-1,Increment      4: Step Time =    1.000,"PART-1-1",           469,          8.75,           30.,            0.,NA,NA,"",       23.2842,      -23.1090,       2.85147,   5.21425E-06
C:/temp/dataset/2/7_9.odb,Step-1,Increment      4: Step Time =    1.000,"PART-1-1",           470,  -9.87333E-03,       28.6960,            0.,NA,NA,"",       21.3440,      -21.3026,      -1.32942,   1.71511E-06
C:/temp/dataset/2/7_9.odb,Step-1,Increment      4: Step Time =    1.000,"PART-1-1",           471,          1.25,           30.,            0.,NA,NA,"",       22.1346,      -22.1172,  -875.743E-03,   3.57626E-06
C:/temp/dataset/2/7_9.odb,Step-1,Increment      4: Step Time =    1.000,"PART-1-1",           472,       4.87954,       25.6434,            0.,NA,NA,"",       20.4874,      -20.4321,       1.50404,   4.27799E-06
C:/temp/dataset/2/7_9.odb,Step-1,Increment      4: Step Time =    1.000,"PART-1-1",           473,      -5.00474,       28.7231,            0.,NA,NA,"",       21.0050,      -20.6556,      -3.81522,   180.826E-09
C:/temp/dataset/2/7_9.odb,Step-1,Increment      4: Step Time =    1.000,"PART-1-1",           474,         -6.25,           30.,            0.,NA,NA,"",       21.6212,      -21.1256,      -4.60290,   48.9061E-09
C:/temp/dataset/2/7_9.odb,Step-1,Increment      4: Step Time =    1.000,"PART-1-1",           475,      -3.76303,       27.4393,            0.,NA,NA,"",       20.4078,      -20.1818,      -3.02840,   693.474E-09
C:/temp/dataset/2/7_9.odb,Step-1,Increment      4: Step Time =    1.000,"PART-1-1",           476,      -3.77322,       24.9147,            0.,NA,NA,"",       19.1174,      -18.9259,      -2.69965,   819.762E-09
C:/temp/dataset/2/7_9.odb,Step-1,Increment      4: Step Time =    1.000,"PART-1-1",           477,      -13.7476,       27.4926,            0.,NA,NA,"",       20.5114,      -18.8881,      -7.99732,   9.58965E-09
C:/temp/dataset/2/7_9.odb,Step-1,Increment      4: Step Time =    1.000,"PART-1-1",           478,        -13.75,           30.,            0.,NA,NA,"",       21.7891,      -20.1339,      -8.33006,   4.52243E-09
C:/temp/dataset/2/7_9.odb,Step-1,Increment      4: Step Time =    1.000,"PART-1-1",           479,          -15.,         28.75,            0.,NA,NA,"",       21.2489,      -19.3474,      -8.78597,   4.10632E-09
C:/temp/dataset/2/7_9.odb,Step-1,Increment      4: Step Time =    1.000,"PART-1-1",           480,          -15.,         26.25,            0.,NA,NA,"",       19.9821,      -18.1050,      -8.45541,   12.5012E-09
C:/temp/dataset/2/7_9.odb,Step-1,Increment      4: Step Time =    1.000,"PART-1-1",           481,      -12.4965,       26.2309,            0.,NA,NA,"",       19.7864,      -18.4265,      -7.20875,   8.90138E-09
C:/temp/dataset/2/7_9.odb,Step-1,Increment      4: Step Time =    1.000,"PART-1-1",           482,      -10.0014,       23.7134,            0.,NA,NA,"",       18.3903,      -17.5054,      -5.63593,   7.79516E-09
C:/temp/dataset/2/7_9.odb,Step-1,Increment      4: Step Time =    1.000,"PART-1-1",           483,      -8.75535,       22.4567,            0.,NA,NA,"",       17.7223,      -17.0456,      -4.85053,   31.7663E-09
C:/temp/dataset/2/7_9.odb,Step-1,Increment      4: Step Time =    1.000,"PART-1-1",           484,      -7.50515,       23.6891,            0.,NA,NA,"",       18.3566,      -17.8234,      -4.39220,   64.7032E-09
C:/temp/dataset/2/7_9.odb,Step-1,Increment      4: Step Time =    1.000,"PART-1-1",           485,      -8.75118,       24.9458,            0.,NA,NA,"",       19.0021,      -18.2831,      -5.17759,   48.2673E-09
C:/temp/dataset/2/7_9.odb,Step-1,Increment      4: Step Time =    1.000,"PART-1-1",           486,      -3.77419,       22.4219,            0.,NA,NA,"",       17.8451,      -17.6869,      -2.37053,   812.533E-09
C:/temp/dataset/2/7_9.odb,Step-1,Increment      4: Step Time =    1.000,"PART-1-1",           487,      -5.00723,       21.2173,            0.,NA,NA,"",       17.1593,      -16.9253,      -2.82402,   179.040E-09
C:/temp/dataset/2/7_9.odb,Step-1,Increment      4: Step Time =    1.000,"PART-1-1",           488,         -3.75,           20.,            0.,NA,NA,"",       16.6121,      -16.4866,      -2.03828,   357.885E-09
C:/temp/dataset/2/7_9.odb,Step-1,Increment      4: Step Time =    1.000,"PART-1-1",           489,      -2.51696,       21.2046,            0.,NA,NA,"",       17.3209,      -17.2482,      -1.58478,   797.178E-09
C:/temp/dataset/2/7_9.odb,Step-1,Increment      4: Step Time =    1.000,"PART-1-1",           490,         -8.75,           20.,            0.,NA,NA,"",       16.4591,      -15.8255,      -4.52305,   31.8980E-09
C:/temp/dataset/2/7_9.odb,Step-1,Increment      4: Step Time =    1.000,"PART-1-1",           491,      -7.50331,       21.2223,            0.,NA,NA,"",       17.0883,      -16.5977,      -4.06511,   36.7910E-09
C:/temp/dataset/2/7_9.odb,Step-1,Increment      4: Step Time =    1.000,"PART-1-1",           492,         -6.25,           20.,            0.,NA,NA,"",       16.4857,      -16.1560,      -3.28066,   82.3096E-09
C:/temp/dataset/2/7_9.odb,Step-1,Increment      4: Step Time =    1.000,"PART-1-1",           493,      -6.26054,       22.4396,            0.,NA,NA,"",       17.7379,      -17.3670,      -3.60847,   187.288E-09
C:/temp/dataset/2/7_9.odb,Step-1,Increment      4: Step Time =    1.000,"PART-1-1",           494,         -1.25,           20.,            0.,NA,NA,"",       16.8360,      -16.8171,  -795.889E-03,   2.60630E-06
C:/temp/dataset/2/7_9.odb,Step-1,Increment      4: Step Time =    1.000,"PART-1-1",           495,      -1.30453,       22.3853,            0.,NA,NA,"",       18.0313,      -17.9953,      -1.13838,   2.08570E-06
C:/temp/dataset/2/7_9.odb,Step-1,Increment      4: Step Time =    1.000,"PART-1-1",           496,         -1.25,           30.,            0.,NA,NA,"",       21.8894,      -21.7867,      -2.11813,   1.50224E-06
C:/temp/dataset/2/7_9.odb,Step-1,Increment      4: Step Time =    1.000,"PART-1-1",           497,      -2.50829,       28.7162,            0.,NA,NA,"",       21.1396,      -20.9823,      -2.57369,   675.263E-09
C:/temp/dataset/2/7_9.odb,Step-1,Increment      4: Step Time =    1.000,"PART-1-1",           498,         -3.75,           30.,            0.,NA,NA,"",       21.7177,      -21.4561,      -3.36051,   396.321E-09
C:/temp/dataset/2/7_9.odb,Step-1,Increment      4: Step Time =    1.000,"PART-1-1",           499,          3.75,           20.,            0.,NA,NA,"",       17.5597,      -17.4783,       1.68885,   27.1037E-06
C:/temp/dataset/2/7_9.odb,Step-1,Increment      4: Step Time =    1.000,"PART-1-1",           500,       4.75388,       21.0765,            0.,NA,NA,"",       18.2609,      -18.1459,       2.04538,   50.0838E-06
C:/temp/dataset/2/7_9.odb,Step-1,Increment      4: Step Time =    1.000,"PART-1-1",           501,          6.25,           30.,            0.,NA,NA,"",       22.8352,      -22.7784,       1.60905,   6.50142E-06
C:/temp/dataset/2/7_9.odb,Step-1,Increment      4: Step Time =    1.000,"PART-1-1",           502,       6.61296,       27.1492,            0.,NA,NA,"",       21.5190,      -21.4097,       2.16638,   3.78505E-06
C:/temp/dataset/2/7_9.odb,Step-1,Increment      4: Step Time =    1.000,"PART-1-1",           503,            5.,         16.25,            0.,NA,NA,"",       16.0263,      -15.7790,       2.80468,   790.962E-06
C:/temp/dataset/2/7_9.odb,Step-1,Increment      4: Step Time =    1.000,"PART-1-1",           504,       6.03202,       15.2452,            0.,NA,NA,"",       15.7975,      -15.4160,       3.45067,   662.367E-06
C:/temp/dataset/2/7_9.odb,Step-1,Increment      4: Step Time =    1.000,"PART-1-1",           505,       6.91243,       16.6330,            0.,NA,NA,"",       16.6410,      -16.2233,       3.70545,   418.669E-06
C:/temp/dataset/2/7_9.odb,Step-1,Increment      4: Step Time =    1.000,"PART-1-1",           506,            5.,         13.75,            0.,NA,NA,"",       14.8673,      -14.5332,       3.13420,   1.24134E-03
C:/temp/dataset/2/7_9.odb,Step-1,Increment      4: Step Time =    1.000,"PART-1-1",           507,       6.17466,       12.7979,            0.,NA,NA,"",       14.7261,      -14.2149,       3.84630,   594.622E-06
C:/temp/dataset/2/7_9.odb,Step-1,Increment      4: Step Time =    1.000,"PART-1-1",           508,       12.0086,       16.5092,            0.,NA,NA,"",       17.9601,      -16.8354,       6.25582,   622.260E-06
C:/temp/dataset/2/7_9.odb,Step-1,Increment      4: Step Time =    1.000,"PART-1-1",           509,           15.,        16.875,            0.,NA,NA,"",       19.0353,      -17.4119,       7.69214,   895.737E-06
C:/temp/dataset/2/7_9.odb,Step-1,Increment      4: Step Time =    1.000,"PART-1-1",           510,       13.3591,       18.2744,            0.,NA,NA,"",       19.1015,      -17.8906,       6.69276,   295.366E-06
C:/temp/dataset/2/7_9.odb,Step-1,Increment      4: Step Time =    1.000,"PART-1-1",           511,            5.,         11.25,            0.,NA,NA,"",       13.7271,      -13.2823,       3.46577,   1.35588E-03
C:/temp/dataset/2/7_9.odb,Step-1,Increment      4: Step Time =    1.000,"PART-1-1",           512,       6.23142,       10.2778,            0.,NA,NA,"",       13.6279,      -12.9602,       4.21342,   1.47273E-03
C:/temp/dataset/2/7_9.odb,Step-1,Increment      4: Step Time =    1.000,"PART-1-1",           513,            5.,          8.75,            0.,NA,NA,"",       12.6090,      -12.0221,       3.80206,   2.63726E-03
C:/temp/dataset/2/7_9.odb,Step-1,Increment      4: Step Time =    1.000,"PART-1-1",           514,       7.47251,       9.25684,            0.,NA,NA,"",       13.5568,      -12.6113,       4.97414,   7.87927E-03
C:/temp/dataset/2/7_9.odb,Step-1,Increment      4: Step Time =    1.000,"PART-1-1",           515,         11.25,           -5.,            0.,NA,NA,"",       10.5561,      -6.13535,       8.59002,   5.96788E-03
C:/temp/dataset/2/7_9.odb,Step-1,Increment      4: Step Time =    1.000,"PART-1-1",           516,       11.2689,      -2.22707,            0.,NA,NA,"",       11.1302,      -7.46308,       8.25732,   9.61984E-03
C:/temp/dataset/2/7_9.odb,Step-1,Increment      4: Step Time =    1.000,"PART-1-1",           517,          10.5,          -30.,            0.,NA,NA,"",            0.,   139.938E-42,  -76.0359E-42,   8.01623E-03
C:/temp/dataset/2/7_9.odb,Step-1,Increment      4: Step Time =    1.000,"PART-1-1",           518,           15.,        -23.75,            0.,NA,NA,"",   68.3726E-03,  -64.1248E-03,   23.7238E-03,   181.917E-06
C:/temp/dataset/2/7_9.odb,Step-1,Increment      4: Step Time =    1.000,"PART-1-1",           519,          3.75,           -5.,            0.,NA,NA,"",       7.29828,      -5.34016,       4.97470,   26.6004E-03
C:/temp/dataset/2/7_9.odb,Step-1,Increment      4: Step Time =    1.000,"PART-1-1",           520,       4.97006,      -3.74763,            0.,NA,NA,"",       8.08904,      -6.02493,       5.39748,   17.8611E-03
C:/temp/dataset/2/7_9.odb,Step-1,Increment      4: Step Time =    1.000,"PART-1-1",           521,       4.85412,       3.76356,            0.,NA,NA,"",       10.4605,      -9.45436,       4.47624,   33.6812E-03
C:/temp/dataset/2/7_9.odb,Step-1,Increment      4: Step Time =    1.000,"PART-1-1",           522,       3.33333,            5.,            0.,NA,NA,"",       10.5030,      -9.82930,       3.70094,   53.5305E-03
C:/temp/dataset/2/7_9.odb,Step-1,Increment      4: Step Time =    1.000,"PART-1-1",           523,       1.45296,       3.58740,            0.,NA,NA,"",       9.43308,      -8.93383,       3.02814,   34.2439E-03
C:/temp/dataset/2/7_9.odb,Step-1,Increment      4: Step Time =    1.000,"PART-1-1",           524,       2.97375,       2.35096,            0.,NA,NA,"",       9.37094,      -8.56611,       3.79950,   18.4737E-03
C:/temp/dataset/2/7_9.odb,Step-1,Increment      4: Step Time =    1.000,"PART-1-1",           525,          6.25,           -5.,            0.,NA,NA,"",       8.30982,      -5.57649,       6.16084,   21.5285E-03
C:/temp/dataset/2/7_9.odb,Step-1,Increment      4: Step Time =    1.000,"PART-1-1",           526,       12.4696,       10.4445,            0.,NA,NA,"",       15.6738,      -13.8820,       7.27716,   9.08374E-03
C:/temp/dataset/2/7_9.odb,Step-1,Increment      4: Step Time =    1.000,"PART-1-1",           527,           15.,       11.0417,            0.,NA,NA,"",       16.8043,      -14.5297,       8.44226,   8.16939E-03
C:/temp/dataset/2/7_9.odb,Step-1,Increment      4: Step Time =    1.000,"PART-1-1",           528,      -5.01382,       23.6808,            0.,NA,NA,"",       18.4205,      -18.1486,      -3.15302,   330.137E-09
C:/temp/dataset/2/7_9.odb,Step-1,Increment      4: Step Time =    1.000,"PART-1-1",           529,      -2.53358,       23.6558,            0.,NA,NA,"",       18.5634,      -18.4642,      -1.91715,   1.01514E-06
C:/temp/dataset/2/7_9.odb,Step-1,Increment      4: Step Time =    1.000,"PART-1-1",           530,  -74.6816E-03,       23.6075,            0.,NA,NA,"",       18.7780,      -18.7653,  -688.809E-03,   2.60220E-06
C:/temp/dataset/2/7_9.odb,Step-1,Increment      4: Step Time =    1.000,"PART-1-1",           531,      -6.62798,      -1.45964,            0.,NA,NA,"",       5.96384,      -5.96072,   193.028E-03,   26.7625E-03
C:/temp/dataset/2/7_9.odb,Step-1,Increment      4: Step Time =    1.000,"PART-1-1",           532,      -4.43070,      -2.38075,            0.,NA,NA,"",       5.87531,      -5.77043,       1.10515,   12.5256E-03
C:/temp/dataset/2/7_9.odb,Step-1,Increment      4: Step Time =    1.000,"PART-1-1",           533,      -3.64554,  -813.143E-03,            0.,NA,NA,"",       6.61916,      -6.49045,       1.29901,   9.59297E-03
C:/temp/dataset/2/7_9.odb,Step-1,Increment      4: Step Time =    1.000,"PART-1-1",           534,         -3.75,           -5.,            0.,NA,NA,"",       5.02819,      -4.76053,       1.61867,   36.6684E-03
C:/temp/dataset/2/7_9.odb,Step-1,Increment      4: Step Time =    1.000,"PART-1-1",           535,      -13.8599,      -9.43096,            0.,NA,NA,"",       3.11203,      -2.66766,      -1.60260,   58.4944E-03
C:/temp/dataset/2/7_9.odb,Step-1,Increment      4: Step Time =    1.000,"PART-1-1",           536,          -15.,      -11.0417,            0.,NA,NA,"",       2.81818,      -2.18257,      -1.78284,   83.3020E-03
C:/temp/dataset/2/7_9.odb,Step-1,Increment      4: Step Time =    1.000,"PART-1-1",           537,      -11.9984,      -19.8095,            0.,NA,NA,"",   531.128E-03,  -366.910E-03,  -384.023E-03,   44.8838E-03
C:/temp/dataset/2/7_9.odb,Step-1,Increment      4: Step Time =    1.000,"PART-1-1",           538,      -13.3881,      -18.2324,            0.,NA,NA,"",   914.231E-03,  -602.598E-03,  -687.528E-03,   73.9952E-03
C:/temp/dataset/2/7_9.odb,Step-1,Increment      4: Step Time =    1.000,"PART-1-1",           539,          -15.,      -19.7917,            0.,NA,NA,"",   905.655E-03,  -449.049E-03,  -786.490E-03,   107.125E-03
C:/temp/dataset/2/7_9.odb,Step-1,Increment      4: Step Time =    1.000,"PART-1-1",           540,           -5.,        -18.75,            0.,NA,NA,"",   785.657E-03,  -605.137E-03,   501.065E-03,   167.815E-03
C:/temp/dataset/2/7_9.odb,Step-1,Increment      4: Step Time =    1.000,"PART-1-1",           541,      -5.96138,      -20.0094,            0.,NA,NA,"",   433.829E-03,  -314.938E-03,   298.365E-03,   104.581E-03
C:/temp/dataset/2/7_9.odb,Step-1,Increment      4: Step Time =    1.000,"PART-1-1",           542,           -5.,        -13.75,            0.,NA,NA,"",       1.99397,      -1.78781,   882.963E-03,   94.8347E-03
C:/temp/dataset/2/7_9.odb,Step-1,Increment      4: Step Time =    1.000,"PART-1-1",           543,      -7.28958,      -14.3036,            0.,NA,NA,"",       1.54008,      -1.50253,   338.017E-03,   57.6882E-03
C:/temp/dataset/2/7_9.odb,Step-1,Increment      4: Step Time =    1.000,"PART-1-1",           544,      -8.88285,      -11.0213,            0.,NA,NA,"",       2.35066,      -2.34964,  -69.1783E-03,   27.2687E-03
C:/temp/dataset/2/7_9.odb,Step-1,Increment      4: Step Time =    1.000,"PART-1-1",           545,      -9.01222,      -8.51542,            0.,NA,NA,"",       3.15090,      -3.14473,  -197.119E-03,   23.0705E-03
C:/temp/dataset/2/7_9.odb,Step-1,Increment      4: Step Time =    1.000,"PART-1-1",           546,      -9.13424,  -715.290E-03,            0.,NA,NA,"",       6.12265,      -6.07355,  -773.842E-03,   29.5640E-03
C:/temp/dataset/2/7_9.odb,Step-1,Increment      4: Step Time =    1.000,"PART-1-1",           547,      -9.92186,      -2.42350,            0.,NA,NA,"",       5.41479,      -5.33720,  -913.384E-03,   31.2626E-03
C:/temp/dataset/2/7_9.odb,Step-1,Increment      4: Step Time =    1.000,"PART-1-1",           548,      -12.7176,      -7.95930,            0.,NA,NA,"",       3.45759,      -3.17024,      -1.38003,   40.4604E-03
C:/temp/dataset/2/7_9.odb,Step-1,Increment      4: Step Time =    1.000,"PART-1-1",           549,          -15.,        -8.125,            0.,NA,NA,"",       3.71177,      -3.04438,      -2.12344,   68.6088E-03
C:/temp/dataset/2/7_9.odb,Step-1,Increment      4: Step Time =    1.000,"PART-1-1",           550,       11.2818,   528.104E-03,            0.,NA,NA,"",       11.8338,      -8.77735,       7.93704,   9.99881E-03
C:/temp/dataset/2/7_9.odb,Step-1,Increment      4: Step Time =    1.000,"PART-1-1",           551,       10.0167,  -924.457E-03,            0.,NA,NA,"",       10.9037,      -7.92244,       7.49172,   10.7504E-03
C:/temp/dataset/2/7_9.odb,Step-1,Increment      4: Step Time =    1.000,"PART-1-1",           552,       10.4320,       23.7699,            0.,NA,NA,"",       20.7320,      -20.2352,       4.51129,   56.7714E-06
C:/temp/dataset/2/7_9.odb,Step-1,Increment      4: Step Time =    1.000,"PART-1-1",           553,           15.,        25.625,            0.,NA,NA,"",       22.7216,      -21.7612,       6.53615,   3.57344E-06
C:/temp/dataset/2/7_9.odb,Step-1,Increment      4: Step Time =    1.000,"PART-1-1",           554,      -9.99539,       26.2124,            0.,NA,NA,"",       19.6736,      -18.7481,      -5.96338,   8.75859E-09
C:/temp/dataset/2/7_9.odb,Step-1,Increment      4: Step Time =    1.000,"PART-1-1",           555,          -15.,       -25.625,            0.,NA,NA,"",   278.558E-03,  -83.5234E-03,  -265.741E-03,   80.8629E-03
C:/temp/dataset/2/7_9.odb,Step-1,Increment      4: Step Time =    1.000,"PART-1-1",           556,      -12.2044,      -25.8339,            0.,NA,NA,"",   143.991E-03,  -2.35518E-03,  -143.972E-03,   46.4784E-03
C:/temp/dataset/2/7_9.odb,Step-1,Increment      4: Step Time =    1.000,"PART-1-1",           557,          -15.,       -16.875,            0.,NA,NA,"",       1.40470,  -864.590E-03,      -1.10710,   106.274E-03
C:/temp/dataset/2/7_9.odb,Step-1,Increment      4: Step Time =    1.000,"PART-1-1",           558,      -8.25880,      -15.9015,            0.,NA,NA,"",       1.07920,      -1.07246,   120.467E-03,   41.9235E-03
C:/temp/dataset/2/7_9.odb,Step-1,Increment      4: Step Time =    1.000,"PART-1-1",           559,       7.56555,       17.9230,            0.,NA,NA,"",       17.3848,      -16.9509,       3.85978,   348.531E-06
C:/temp/dataset/2/7_9.odb,Step-1,Increment      4: Step Time =    1.000,"PART-1-1",           560,      -9.72707,       2.21069,            0.,NA,NA,"",       7.30504,      -7.20237,      -1.22045,   22.3780E-03
C:/temp/dataset/2/7_9.odb,Step-1,Increment      4: Step Time =    1.000,"PART-1-1",           561,      -8.18006,       3.69884,            0.,NA,NA,"",       7.95536,      -7.91838,  -766.175E-03,   22.3517E-03
C:/temp/dataset/2/7_9.odb,Step-1,Increment      4: Step Time =    1.000,"PART-1-1",           562,          -10.,            5.,            0.,NA,NA,"",       8.40061,      -8.26157,      -1.52209,   14.2275E-03
C:/temp/dataset/2/7_9.odb,Step-1,Increment      4: Step Time =    1.000,"PART-1-1",           563,      -10.3433,      -7.69771,            0.,NA,NA,"",       3.41830,      -3.35564,  -651.506E-03,   24.0003E-03
C:/temp/dataset/2/7_9.odb,Step-1,Increment      4: Step Time =    1.000,"PART-1-1",           564,      -11.5611,      -6.59494,            0.,NA,NA,"",       3.85071,      -3.68331,      -1.12301,   30.1640E-03
C:/temp/dataset/2/7_9.odb,Step-1,Increment      4: Step Time =    1.000,"PART-1-1",           565,      -9.40089,      -20.7816,            0.,NA,NA,"",   246.138E-03,  -242.684E-03,  -41.0891E-03,   10.1661E-03
C:/temp/dataset/2/7_9.odb,Step-1,Increment      4: Step Time =    1.000,"PART-1-1",           566,      -8.21757,      -22.2064,            0.,NA,NA,"",   147.147E-03,  -130.246E-03,   68.4712E-03,   21.3561E-03
C:/temp/dataset/2/7_9.odb,Step-1,Increment      4: Step Time =    1.000,"PART-1-1",           567,      -6.89894,      -21.2078,            0.,NA,NA,"",   281.187E-03,  -208.047E-03,   189.162E-03,   43.6267E-03
C:/temp/dataset/2/7_9.odb,Step-1,Increment      4: Step Time =    1.000,"PART-1-1",           568,      -9.14285,      -28.6800,            0.,NA,NA,"",   27.8435E-03,   27.0449E-03,  -6.62050E-03,   16.2168E-03
C:/temp/dataset/2/7_9.odb,Step-1,Increment      4: Step Time =    1.000,"PART-1-1",           569,      -10.7232,      -27.3047,            0.,NA,NA,"",   56.6146E-03,   29.9367E-03,  -48.0521E-03,   25.8568E-03
C:/temp/dataset/2/7_9.odb,Step-1,Increment      4: Step Time =    1.000,"PART-1-1",           570,         -10.5,          -30.,            0.,NA,NA,"",            0.,  -238.400E-42,   182.041E-42,   25.8789E-03
C:/temp/dataset/2/7_9.odb,Step-1,Increment      4: Step Time =    1.000,"PART-1-1",           571,      -4.89633,      -27.4366,            0.,NA,NA,"",   45.6803E-03,  -15.8708E-03,   42.8346E-03,   24.8685E-03
C:/temp/dataset/2/7_9.odb,Step-1,Increment      4: Step Time =    1.000,"PART-1-1",           572,      -6.18287,      -28.7136,            0.,NA,NA,"",   15.7937E-03,   7.37260E-03,   13.9673E-03,   17.1418E-03
C:/temp/dataset/2/7_9.odb,Step-1,Increment      4: Step Time =    1.000,"PART-1-1",           573,          -4.5,          -30.,            0.,NA,NA,"",            0.,   205.334E-42,  -826.547E-42,   13.8309E-03
C:/temp/dataset/2/7_9.odb,Step-1,Increment      4: Step Time =    1.000,"PART-1-1",           574,       12.5384,       2.02620,            0.,NA,NA,"",       12.7888,      -9.66885,       8.37063,   7.44807E-03
C:/temp/dataset/2/7_9.odb,Step-1,Increment      4: Step Time =    1.000,"PART-1-1",           575,           15.,       2.29167,            0.,NA,NA,"",       13.9115,      -10.1258,       9.53935,   13.6159E-03
C:/temp/dataset/2/7_9.odb,Step-1,Increment      4: Step Time =    1.000,"PART-1-1",           576,       9.96595,       9.83263,            0.,NA,NA,"",       14.5845,      -13.2350,       6.12731,   8.51413E-03
C:/temp/dataset/2/7_9.odb,Step-1,Increment      4: Step Time =    1.000,"PART-1-1",           577,           15.,       19.7917,            0.,NA,NA,"",       20.2278,      -18.8618,       7.30744,   245.114E-06
C:/temp/dataset/2/7_9.odb,Step-1,Increment      4: Step Time =    1.000,"PART-1-1",           578,       7.90800,       20.1372,            0.,NA,NA,"",       18.4782,      -18.0964,       3.73722,   172.636E-06
C:/temp/dataset/2/7_9.odb,Step-1,Increment      4: Step Time =    1.000,"PART-1-1",           579,       8.41916,       21.3934,            0.,NA,NA,"",       19.1736,      -18.7882,       3.82518,   128.665E-06
C:/temp/dataset/2/7_9.odb,Step-1,Increment      4: Step Time =    1.000,"PART-1-1",           580,       6.50486,       21.1025,            0.,NA,NA,"",       18.6196,      -18.3904,       2.91211,   121.754E-06
C:/temp/dataset/2/7_9.odb,Step-1,Increment      4: Step Time =    1.000,"PART-1-1",           581,           4.5,          -30.,            0.,NA,NA,"",            0.,   278.231E-42,  -171.561E-42,   14.1904E-03
C:/temp/dataset/2/7_9.odb,Step-1,Increment      4: Step Time =    1.000,"PART-1-1",           582,       3.62857,      -22.4261,            0.,NA,NA,"",   97.6740E-03,  -97.3546E-03,   7.89239E-03,   9.04071E-03
C:/temp/dataset/2/7_9.odb,Step-1,Increment      4: Step Time =    1.000,"PART-1-1",           583,       2.16864,      -23.6665,            0.,NA,NA,"",   102.985E-03,  -100.795E-03,   21.1257E-03,   13.8697E-03
C:/temp/dataset/2/7_9.odb,Step-1,Increment      4: Step Time =    1.000,"PART-1-1",           584,      -2.73954,      -22.4743,            0.,NA,NA,"",   212.430E-03,  -164.827E-03,   134.010E-03,   40.2263E-03
C:/temp/dataset/2/7_9.odb,Step-1,Increment      4: Step Time =    1.000,"PART-1-1",           585,  -999.676E-03,      -23.6839,            0.,NA,NA,"",   140.865E-03,  -122.703E-03,   69.1884E-03,   28.8991E-03
C:/temp/dataset/2/7_9.odb,Step-1,Increment      4: Step Time =    1.000,"PART-1-1",           586,      -7.82572,      -27.3936,            0.,NA,NA,"",   26.2947E-03,   21.0595E-03,   15.7450E-03,   14.0746E-03
C:/temp/dataset/2/7_9.odb,Step-1,Increment      4: Step Time =    1.000,"PART-1-1",           587,      -6.52069,      -26.1528,            0.,NA,NA,"",   59.4492E-03,  -12.0054E-03,   58.2244E-03,   27.7863E-03
C:/temp/dataset/2/7_9.odb,Step-1,Increment      4: Step Time =    1.000,"PART-1-1",           588,      -8.08310,      -24.7829,            0.,NA,NA,"",   44.5282E-03,  -20.4222E-03,   39.5688E-03,   18.4681E-03
C:/temp/dataset/2/7_9.odb,Step-1,Increment      4: Step Time =    1.000,"PART-1-1",           589,      -9.38814,      -26.0237,            0.,NA,NA,"",   26.8287E-03,   18.1102E-03,  -19.7940E-03,   16.0308E-03
C:/temp/dataset/2/7_9.odb,Step-1,Increment      4: Step Time =    1.000,"PART-1-1",           590,          -7.5,          -30.,            0.,NA,NA,"",            0.,  -60.9551E-42,  -601.709E-42,   13.0707E-03
C:/temp/dataset/2/7_9.odb,Step-1,Increment      4: Step Time =    1.000,"PART-1-1",           591,       7.73182,       24.8866,            0.,NA,NA,"",       20.6553,      -20.4331,       3.02162,   20.5839E-06
C:/temp/dataset/2/7_9.odb,Step-1,Increment      4: Step Time =    1.000,"PART-1-1",           592,       8.21760,       26.2797,            0.,NA,NA,"",       21.4122,      -21.1897,       3.07883,   13.5245E-06
C:/temp/dataset/2/7_9.odb,Step-1,Increment      4: Step Time =    1.000,"PART-1-1",           593,       6.12718,       25.7561,            0.,NA,NA,"",       20.7605,      -20.6531,       2.10917,   10.6854E-06
C:/temp/dataset/2/7_9.odb,Step-1,Increment      4: Step Time =    1.000,"PART-1-1",           594,       5.38844,       22.1508,            0.,NA,NA,"",       18.8944,      -18.7637,       2.21872,   32.7166E-06
C:/temp/dataset/2/7_9.odb,Step-1,Increment      4: Step Time =    1.000,"PART-1-1",           595,      -3.37677,   775.412E-03,            0.,NA,NA,"",       7.29251,      -7.17974,       1.27752,   17.4473E-03
C:/temp/dataset/2/7_9.odb,Step-1,Increment      4: Step Time =    1.000,"PART-1-1",           596,      -3.41233,       2.84116,            0.,NA,NA,"",       8.11409,      -8.03921,       1.09981,   26.8733E-03
C:/temp/dataset/2/7_9.odb,Step-1,Increment      4: Step Time =    1.000,"PART-1-1",           597,      -11.2482,       24.9673,            0.,NA,NA,"",       19.0769,      -17.9637,      -6.42135,   5.45409E-09
C:/temp/dataset/2/7_9.odb,Step-1,Increment      4: Step Time =    1.000,"PART-1-1",           598,       5.16292,       24.1270,            0.,NA,NA,"",       19.8022,      -19.7160,       1.84537,   12.1660E-06
C:/temp/dataset/2/7_9.odb,Step-1,Increment      4: Step Time =    1.000,"PART-1-1",           599,            0.,            5.,            0.,NA,NA,"",       9.64687,      -9.36596,       2.31104,   44.4762E-03
C:/temp/dataset/2/7_9.odb,Step-1,Increment      4: Step Time =    1.000,"PART-1-1",           600,      -1.80204,       3.95011,            0.,NA,NA,"",       8.84447,      -8.68777,       1.65752,   36.0524E-03
C:/temp/dataset/2/7_9.odb,Step-1,Increment      4: Step Time =    1.000,"PART-1-1",           601,       9.59799,       22.9228,            0.,NA,NA,"",       20.1485,      -19.7040,       4.20882,   67.4924E-06
C:/temp/dataset/2/7_9.odb,Step-1,Increment      4: Step Time =    1.000,"PART-1-1",           602,       8.30932,       22.9391,            0.,NA,NA,"",       19.8644,      -19.5417,       3.56617,   55.0277E-06
C:/temp/dataset/2/7_9.odb,Step-1,Increment      4: Step Time =    1.000,"PART-1-1",           603,      -1.93269,      -1.01257,            0.,NA,NA,"",       6.87139,      -6.56638,       2.02449,   3.22216E-03
C:/temp/dataset/2/7_9.odb,Step-1,Increment      4: Step Time =    1.000,"PART-1-1",           604,      -8.69440,      -13.5596,            0.,NA,NA,"",       1.63461,      -1.63439,   26.6278E-03,   32.3045E-03
C:/temp/dataset/2/7_9.odb,Step-1,Increment      4: Step Time =    1.000,"PART-1-1",           605,       6.07991,       2.65614,            0.,NA,NA,"",       10.4691,      -9.09676,       5.18180,   17.7120E-03
C:/temp/dataset/2/7_9.odb,Step-1,Increment      4: Step Time =    1.000,"PART-1-1",           606,       4.75906,       1.28045,            0.,NA,NA,"",       9.54338,      -8.29204,       4.72422,   10.1004E-03
C:/temp/dataset/2/7_9.odb,Step-1,Increment      4: Step Time =    1.000,"PART-1-1",           607,       10.0234,       4.43547,            0.,NA,NA,"",       12.5563,      -10.5171,       6.85933,   14.5058E-03
C:/temp/dataset/2/7_9.odb,Step-1,Increment      4: Step Time =    1.000,"PART-1-1",           608,       7.46673,       4.06304,            0.,NA,NA,"",       11.4750,      -9.97214,       5.67733,   20.4643E-03
C:/temp/dataset/2/7_9.odb,Step-1,Increment      4: Step Time =    1.000,"PART-1-1",           609,  -317.165E-03,  -486.862E-03,            0.,NA,NA,"",       7.43845,      -6.94718,       2.65840,   3.88815E-03
C:/temp/dataset/2/7_9.odb,Step-1,Increment      4: Step Time =    1.000,"PART-1-1",           610,       1.72730,   921.331E-03,            0.,NA,NA,"",       8.49014,      -7.77891,       3.40162,   12.9245E-03
C:/temp/dataset/2/7_9.odb,Step-1,Increment      4: Step Time =    1.000,"PART-1-1",           611,      -4.63664,      -21.2535,            0.,NA,NA,"",   332.323E-03,  -226.377E-03,   243.294E-03,   91.2487E-03
C:/temp/dataset/2/7_9.odb,Step-1,Increment      4: Step Time =    1.000,"PART-1-1",           612,       11.2827,       3.26092,            0.,NA,NA,"",       12.6521,      -10.1065,       7.61142,   11.8279E-03
C:/temp/dataset/2/7_9.odb,Step-1,Increment      4: Step Time =    1.000,"PART-1-1",           613,      -11.4502,      -4.36864,            0.,NA,NA,"",       4.67748,      -4.49980,      -1.27695,   31.1830E-03
C:/temp/dataset/2/7_9.odb,Step-1,Increment      4: Step Time =    1.000,"PART-1-1",           614,      -10.8693,      -24.5529,            0.,NA,NA,"",   112.971E-03,  -18.4834E-03,  -111.449E-03,   30.3222E-03
C:/temp/dataset/2/7_9.odb,Step-1,Increment      4: Step Time =    1.000,"PART-1-1",           615,      -9.52531,      -23.3517,            0.,NA,NA,"",   71.7725E-03,  -62.3494E-03,  -35.5506E-03,   17.9271E-03
C:/temp/dataset/2/7_9.odb,Step-1,Increment      4: Step Time =    1.000,"PART-1-1",           616,      -10.8903,      -21.7518,            0.,NA,NA,"",   244.783E-03,  -165.100E-03,  -180.723E-03,   31.3139E-03
C:/temp/dataset/2/7_9.odb,Step-1,Increment      4: Step Time =    1.000,"PART-1-1",           617,       3.33333,          -20.,            0.,NA,NA,"",   95.0947E-03,  -95.0209E-03,   3.74459E-03,   4.44206E-03
C:/temp/dataset/2/7_9.odb,Step-1,Increment      4: Step Time =    1.000,"PART-1-1",           618,       1.83446,      -21.2108,            0.,NA,NA,"",   109.358E-03,  -107.824E-03,   18.2564E-03,   8.92846E-03
C:/temp/dataset/2/7_9.odb,Step-1,Increment      4: Step Time =    1.000,"PART-1-1",           619,       5.12744,      -21.2153,            0.,NA,NA,"",   91.0177E-03,  -91.0114E-03,  -1.07614E-03,   4.30986E-03
C:/temp/dataset/2/7_9.odb,Step-1,Increment      4: Step Time =    1.000,"PART-1-1",           620,            0.,          -20.,            0.,NA,NA,"",   115.578E-03,  -109.674E-03,   36.4671E-03,   13.8243E-03
C:/temp/dataset/2/7_9.odb,Step-1,Increment      4: Step Time =    1.000,"PART-1-1",           621,      -1.43624,      -21.2208,            0.,NA,NA,"",   174.939E-03,  -152.293E-03,   86.0850E-03,   23.1374E-03
C:/temp/dataset/2/7_9.odb,Step-1,Increment      4: Step Time =    1.000,"PART-1-1",           622,   398.228E-03,      -22.4316,            0.,NA,NA,"",   130.547E-03,  -122.781E-03,   44.3563E-03,   20.4088E-03
C:/temp/dataset/2/7_9.odb,Step-1,Increment      4: Step Time =    1.000,"PART-1-1",           623,   770.736E-03,      -24.9188,            0.,NA,NA,"",   101.652E-03,  -95.3592E-03,   35.2104E-03,   20.3224E-03
C:/temp/dataset/2/7_9.odb,Step-1,Increment      4: Step Time =    1.000,"PART-1-1",           624,      -3.33333,          -20.,            0.,NA,NA,"",   231.630E-03,  -187.331E-03,   136.233E-03,   69.5967E-03
C:/temp/dataset/2/7_9.odb,Step-1,Increment      4: Step Time =    1.000,"PART-1-1",           625,       8.69606,       24.2205,            0.,NA,NA,"",       20.5455,      -20.2296,       3.58893,   38.2781E-06
C:/temp/dataset/2/7_9.odb,Step-1,Increment      4: Step Time =    1.000,"PART-1-1",           626,      -3.33333,            5.,            0.,NA,NA,"",       8.99757,      -8.94477,   973.294E-03,   41.4356E-03
C:/temp/dataset/2/7_9.odb,Step-1,Increment      4: Step Time =    1.000,"PART-1-1",           627,      -4.94363,       3.89105,            0.,NA,NA,"",       8.31949,      -8.30847,   428.100E-03,   31.8620E-03
C:/temp/dataset/2/7_9.odb,Step-1,Increment      4: Step Time =    1.000,"PART-1-1",           628,      -6.66667,            5.,            0.,NA,NA,"",       8.57491,      -8.56987,  -294.022E-03,   31.4162E-03
C:/temp/dataset/2/7_9.odb,Step-1,Increment      4: Step Time =    1.000,"PART-1-1",           629,           10.,          -20.,            0.,NA,NA,"",   84.8040E-03,  -84.8037E-03,  -211.326E-06,   138.729E-06
C:/temp/dataset/2/7_9.odb,Step-1,Increment      4: Step Time =    1.000,"PART-1-1",           630,       8.42239,      -21.2201,            0.,NA,NA,"",   82.4240E-03,  -82.3606E-03,  -3.23385E-03,   1.95573E-03
C:/temp/dataset/2/7_9.odb,Step-1,Increment      4: Step Time =    1.000,"PART-1-1",           631,       6.66667,          -20.,            0.,NA,NA,"",   86.7524E-03,  -86.5996E-03,  -5.14678E-03,   1.78820E-03
C:/temp/dataset/2/7_9.odb,Step-1,Increment      4: Step Time =    1.000,"PART-1-1",           632,       9.53008,       25.0675,            0.,NA,NA,"",       21.1224,      -20.7608,       3.89142,   21.2800E-06
