ODB Name,Step,Frame,Part Instance Name,    êﬂì_ÉâÉxÉã,X,Y,Z,Section Name,Material Name,Section Point,   U-Magnitude,          U-U1,          U-U2,       S-Mises
C:/temp/dataset/4/10_15.odb,Step-1,Increment      1: Step Time =    1.000,"PART-1-1",             1,           -5.,           30.,            0.,NA,NA,"",   757.412E-03,   733.739E-03,   187.886E-03,   30.2229E-12
C:/temp/dataset/4/10_15.odb,Step-1,Increment      1: Step Time =    1.000,"PART-1-1",             2,          -15.,           30.,            0.,NA,NA,"",   799.131E-03,   734.543E-03,   314.733E-03,   30.1059E-12
C:/temp/dataset/4/10_15.odb,Step-1,Increment      1: Step Time =    1.000,"PART-1-1",             3,          -15.,         21.25,            0.,NA,NA,"",   698.797E-03,   623.552E-03,   315.437E-03,   25.6625E-12
C:/temp/dataset/4/10_15.odb,Step-1,Increment      1: Step Time =    1.000,"PART-1-1",             4,          -15.,          12.5,            0.,NA,NA,"",   602.216E-03,   512.561E-03,   316.141E-03,   245.087E-12
C:/temp/dataset/4/10_15.odb,Step-1,Increment      1: Step Time =    1.000,"PART-1-1",             5,          -15.,          3.75,            0.,NA,NA,"",   511.516E-03,   401.570E-03,   316.845E-03,   5.20481E-09
C:/temp/dataset/4/10_15.odb,Step-1,Increment      1: Step Time =    1.000,"PART-1-1",             6,          -15.,           -5.,            0.,NA,NA,"",   430.434E-03,   290.579E-03,   317.549E-03,   347.166E-12
C:/temp/dataset/4/10_15.odb,Step-1,Increment      1: Step Time =    1.000,"PART-1-1",             7,          -10.,           -5.,            0.,NA,NA,"",   385.723E-03,   290.177E-03,   254.125E-03,   5.53935E-09
C:/temp/dataset/4/10_15.odb,Step-1,Increment      1: Step Time =    1.000,"PART-1-1",             8,           -5.,           -5.,            0.,NA,NA,"",   346.895E-03,   289.774E-03,   190.702E-03,   100.544E-09
C:/temp/dataset/4/10_15.odb,Step-1,Increment      1: Step Time =    1.000,"PART-1-1",             9,            0.,           -5.,            0.,NA,NA,"",   316.125E-03,   289.370E-03,   127.278E-03,   1.55756E-06
C:/temp/dataset/4/10_15.odb,Step-1,Increment      1: Step Time =    1.000,"PART-1-1",            10,            5.,           -5.,            0.,NA,NA,"",   295.916E-03,   288.954E-03,   63.8116E-03,   35.4079E-06
C:/temp/dataset/4/10_15.odb,Step-1,Increment      1: Step Time =    1.000,"PART-1-1",            11,            5.,        -11.25,            0.,NA,NA,"",   221.386E-03,   212.231E-03,   63.0062E-03,   773.857E-06
C:/temp/dataset/4/10_15.odb,Step-1,Increment      1: Step Time =    1.000,"PART-1-1",            12,            5.,         -17.5,            0.,NA,NA,"",   141.209E-03,   127.625E-03,   60.4306E-03,   2.13060E-03
C:/temp/dataset/4/10_15.odb,Step-1,Increment      1: Step Time =    1.000,"PART-1-1",            13,            5.,        -23.75,            0.,NA,NA,"",   61.9760E-03,   47.3932E-03,   39.9362E-03,   5.33858E-03
C:/temp/dataset/4/10_15.odb,Step-1,Increment      1: Step Time =    1.000,"PART-1-1",            14,            5.,          -30.,            0.,NA,NA,"",            0.,   2.96522E-39,   5.47894E-39,   10.7129E-03
C:/temp/dataset/4/10_15.odb,Step-1,Increment      1: Step Time =    1.000,"PART-1-1",            15,           15.,          -30.,            0.,NA,NA,"",            0.,   3.03936E-39,  -5.50849E-39,   10.4941E-03
C:/temp/dataset/4/10_15.odb,Step-1,Increment      1: Step Time =    1.000,"PART-1-1",            16,           15.,         -22.5,            0.,NA,NA,"",   75.6187E-03,   60.3628E-03,  -45.5469E-03,   4.50217E-03
C:/temp/dataset/4/10_15.odb,Step-1,Increment      1: Step Time =    1.000,"PART-1-1",            17,           15.,          -15.,            0.,NA,NA,"",   169.466E-03,   157.613E-03,  -62.2624E-03,   600.331E-06
C:/temp/dataset/4/10_15.odb,Step-1,Increment      1: Step Time =    1.000,"PART-1-1",            18,           15.,          -7.5,            0.,NA,NA,"",   264.056E-03,   256.432E-03,  -62.9950E-03,   106.143E-06
C:/temp/dataset/4/10_15.odb,Step-1,Increment      1: Step Time =    1.000,"PART-1-1",            19,           15.,            0.,            0.,NA,NA,"",   357.279E-03,   351.618E-03,  -63.3508E-03,   3.14479E-06
C:/temp/dataset/4/10_15.odb,Step-1,Increment      1: Step Time =    1.000,"PART-1-1",            20,           15.,           7.5,            0.,NA,NA,"",   451.265E-03,   446.711E-03,  -63.9522E-03,   229.431E-09
C:/temp/dataset/4/10_15.odb,Step-1,Increment      1: Step Time =    1.000,"PART-1-1",            21,           15.,           15.,            0.,NA,NA,"",   545.648E-03,   541.816E-03,  -64.5557E-03,   4.58676E-09
C:/temp/dataset/4/10_15.odb,Step-1,Increment      1: Step Time =    1.000,"PART-1-1",            22,           15.,          22.5,            0.,NA,NA,"",   640.246E-03,   636.921E-03,  -65.1587E-03,   466.211E-12
C:/temp/dataset/4/10_15.odb,Step-1,Increment      1: Step Time =    1.000,"PART-1-1",            23,           15.,           30.,            0.,NA,NA,"",   734.975E-03,   732.027E-03,  -65.7617E-03,   11.7022E-12
C:/temp/dataset/4/10_15.odb,Step-1,Increment      1: Step Time =    1.000,"PART-1-1",            24,            5.,           30.,            0.,NA,NA,"",   735.369E-03,   732.831E-03,   61.0456E-03,   13.1438E-12
C:/temp/dataset/4/10_15.odb,Step-1,Increment      1: Step Time =    1.000,"PART-1-1",            25,            5.,         23.75,            0.,NA,NA,"",   656.468E-03,   653.576E-03,   61.5481E-03,   289.192E-12
C:/temp/dataset/4/10_15.odb,Step-1,Increment      1: Step Time =    1.000,"PART-1-1",            26,            5.,          17.5,            0.,NA,NA,"",   577.664E-03,   574.322E-03,   62.0506E-03,   475.325E-12
C:/temp/dataset/4/10_15.odb,Step-1,Increment      1: Step Time =    1.000,"PART-1-1",            27,            5.,         11.25,            0.,NA,NA,"",   499.004E-03,   495.067E-03,   62.5532E-03,   57.2983E-09
C:/temp/dataset/4/10_15.odb,Step-1,Increment      1: Step Time =    1.000,"PART-1-1",            28,            5.,            5.,            0.,NA,NA,"",   420.566E-03,   415.812E-03,   63.0569E-03,   474.922E-09
C:/temp/dataset/4/10_15.odb,Step-1,Increment      1: Step Time =    1.000,"PART-1-1",            29,            0.,            5.,            0.,NA,NA,"",   435.009E-03,   416.218E-03,   126.474E-03,   596.649E-09
C:/temp/dataset/4/10_15.odb,Step-1,Increment      1: Step Time =    1.000,"PART-1-1",            30,           -5.,            5.,            0.,NA,NA,"",   457.858E-03,   416.621E-03,   189.897E-03,   45.7789E-09
C:/temp/dataset/4/10_15.odb,Step-1,Increment      1: Step Time =    1.000,"PART-1-1",            31,           -5.,         11.25,            0.,NA,NA,"",   530.837E-03,   495.901E-03,   189.394E-03,   576.657E-12
C:/temp/dataset/4/10_15.odb,Step-1,Increment      1: Step Time =    1.000,"PART-1-1",            32,           -5.,          17.5,            0.,NA,NA,"",   605.402E-03,   575.180E-03,   188.892E-03,   27.9385E-12
C:/temp/dataset/4/10_15.odb,Step-1,Increment      1: Step Time =    1.000,"PART-1-1",            33,           -5.,         23.75,            0.,NA,NA,"",   681.034E-03,   654.459E-03,   188.389E-03,   27.1069E-12
C:/temp/dataset/4/10_15.odb,Step-1,Increment      1: Step Time =    1.000,"PART-1-1",            34,          -7.5,           30.,            0.,NA,NA,"",   766.088E-03,   733.940E-03,   219.598E-03,   29.3454E-12
C:/temp/dataset/4/10_15.odb,Step-1,Increment      1: Step Time =    1.000,"PART-1-1",            35,          -10.,           30.,            0.,NA,NA,"",   775.964E-03,   734.141E-03,   251.309E-03,   28.7744E-12
C:/temp/dataset/4/10_15.odb,Step-1,Increment      1: Step Time =    1.000,"PART-1-1",            36,         -12.5,           30.,            0.,NA,NA,"",   786.994E-03,   734.342E-03,   283.021E-03,   28.8653E-12
C:/temp/dataset/4/10_15.odb,Step-1,Increment      1: Step Time =    1.000,"PART-1-1",            37,          -15.,       27.8125,            0.,NA,NA,"",   773.775E-03,   706.796E-03,   314.909E-03,   29.7067E-12
C:/temp/dataset/4/10_15.odb,Step-1,Increment      1: Step Time =    1.000,"PART-1-1",            38,          -15.,        25.625,            0.,NA,NA,"",   748.588E-03,   679.048E-03,   315.085E-03,   29.2692E-12
C:/temp/dataset/4/10_15.odb,Step-1,Increment      1: Step Time =    1.000,"PART-1-1",            39,          -15.,       23.4375,            0.,NA,NA,"",   723.589E-03,   651.300E-03,   315.261E-03,   27.8377E-12
C:/temp/dataset/4/10_15.odb,Step-1,Increment      1: Step Time =    1.000,"PART-1-1",            40,          -15.,       19.0625,            0.,NA,NA,"",   674.236E-03,   595.804E-03,   315.613E-03,   24.6120E-12
C:/temp/dataset/4/10_15.odb,Step-1,Increment      1: Step Time =    1.000,"PART-1-1",            41,          -15.,        16.875,            0.,NA,NA,"",   649.931E-03,   568.057E-03,   315.789E-03,   23.9207E-12
C:/temp/dataset/4/10_15.odb,Step-1,Increment      1: Step Time =    1.000,"PART-1-1",            42,          -15.,       14.6875,            0.,NA,NA,"",   625.913E-03,   540.309E-03,   315.965E-03,   35.3231E-12
C:/temp/dataset/4/10_15.odb,Step-1,Increment      1: Step Time =    1.000,"PART-1-1",            43,          -15.,       10.3125,            0.,NA,NA,"",   578.878E-03,   484.813E-03,   316.317E-03,   855.101E-12
C:/temp/dataset/4/10_15.odb,Step-1,Increment      1: Step Time =    1.000,"PART-1-1",            44,          -15.,         8.125,            0.,NA,NA,"",   555.947E-03,   457.065E-03,   316.493E-03,   2.11326E-09
C:/temp/dataset/4/10_15.odb,Step-1,Increment      1: Step Time =    1.000,"PART-1-1",            45,          -15.,        5.9375,            0.,NA,NA,"",   533.472E-03,   429.318E-03,   316.669E-03,   3.83348E-09
C:/temp/dataset/4/10_15.odb,Step-1,Increment      1: Step Time =    1.000,"PART-1-1",            46,          -15.,        1.5625,            0.,NA,NA,"",   490.148E-03,   373.822E-03,   317.021E-03,   5.45618E-09
C:/temp/dataset/4/10_15.odb,Step-1,Increment      1: Step Time =    1.000,"PART-1-1",            47,          -15.,     -625.E-03,            0.,NA,NA,"",   469.448E-03,   346.074E-03,   317.197E-03,   4.13177E-09
C:/temp/dataset/4/10_15.odb,Step-1,Increment      1: Step Time =    1.000,"PART-1-1",            48,          -15.,       -2.8125,            0.,NA,NA,"",   449.508E-03,   318.327E-03,   317.373E-03,   1.63389E-09
C:/temp/dataset/4/10_15.odb,Step-1,Increment      1: Step Time =    1.000,"PART-1-1",            49,         -12.5,           -5.,            0.,NA,NA,"",   407.458E-03,   290.378E-03,   285.837E-03,   2.86378E-09
C:/temp/dataset/4/10_15.odb,Step-1,Increment      1: Step Time =    1.000,"PART-1-1",            50,          -7.5,           -5.,            0.,NA,NA,"",   365.450E-03,   289.975E-03,   222.414E-03,   13.7967E-09
C:/temp/dataset/4/10_15.odb,Step-1,Increment      1: Step Time =    1.000,"PART-1-1",            51,          -2.5,           -5.,            0.,NA,NA,"",   330.349E-03,   289.573E-03,   158.991E-03,   269.988E-09
C:/temp/dataset/4/10_15.odb,Step-1,Increment      1: Step Time =    1.000,"PART-1-1",            52,           2.5,           -5.,            0.,NA,NA,"",   304.549E-03,   289.167E-03,   95.5643E-03,   6.16686E-06
C:/temp/dataset/4/10_15.odb,Step-1,Increment      1: Step Time =    1.000,"PART-1-1",            53,            5.,      -7.08333,            0.,NA,NA,"",   270.241E-03,   262.604E-03,   63.7905E-03,   137.524E-06
C:/temp/dataset/4/10_15.odb,Step-1,Increment      1: Step Time =    1.000,"PART-1-1",            54,            5.,      -9.16667,            0.,NA,NA,"",   244.967E-03,   236.553E-03,   63.6527E-03,   336.721E-06
C:/temp/dataset/4/10_15.odb,Step-1,Increment      1: Step Time =    1.000,"PART-1-1",            55,            5.,      -13.3333,            0.,NA,NA,"",   197.496E-03,   187.116E-03,   63.1847E-03,   1.48764E-03
C:/temp/dataset/4/10_15.odb,Step-1,Increment      1: Step Time =    1.000,"PART-1-1",            56,            5.,      -15.4167,            0.,NA,NA,"",   170.583E-03,   158.779E-03,   62.3508E-03,   1.70292E-03
C:/temp/dataset/4/10_15.odb,Step-1,Increment      1: Step Time =    1.000,"PART-1-1",            57,            5.,      -19.5833,            0.,NA,NA,"",   111.791E-03,   97.0530E-03,   55.4789E-03,   3.17791E-03
C:/temp/dataset/4/10_15.odb,Step-1,Increment      1: Step Time =    1.000,"PART-1-1",            58,            5.,      -21.6667,            0.,NA,NA,"",   85.6835E-03,   70.4628E-03,   48.7509E-03,   4.22281E-03
C:/temp/dataset/4/10_15.odb,Step-1,Increment      1: Step Time =    1.000,"PART-1-1",            59,            5.,      -25.8333,            0.,NA,NA,"",   40.6363E-03,   28.3474E-03,   29.1158E-03,   6.28317E-03
C:/temp/dataset/4/10_15.odb,Step-1,Increment      1: Step Time =    1.000,"PART-1-1",            60,            5.,      -27.9167,            0.,NA,NA,"",   21.4379E-03,   13.8203E-03,   16.3885E-03,   8.04981E-03
C:/temp/dataset/4/10_15.odb,Step-1,Increment      1: Step Time =    1.000,"PART-1-1",            61,           7.5,          -30.,            0.,NA,NA,"",            0.,   1.77767E-39,   4.92823E-39,   2.63014E-03
C:/temp/dataset/4/10_15.odb,Step-1,Increment      1: Step Time =    1.000,"PART-1-1",            62,           10.,          -30.,            0.,NA,NA,"",            0.,   320.569E-42,   514.167E-42,   459.805E-06
C:/temp/dataset/4/10_15.odb,Step-1,Increment      1: Step Time =    1.000,"PART-1-1",            63,          12.5,          -30.,            0.,NA,NA,"",            0.,   3.00689E-39,  -5.54625E-39,   2.71992E-03
C:/temp/dataset/4/10_15.odb,Step-1,Increment      1: Step Time =    1.000,"PART-1-1",            64,           15.,         -27.5,            0.,NA,NA,"",   24.9559E-03,   16.1494E-03,  -19.0261E-03,   7.65952E-03
C:/temp/dataset/4/10_15.odb,Step-1,Increment      1: Step Time =    1.000,"PART-1-1",            65,           15.,          -25.,            0.,NA,NA,"",   48.7553E-03,   35.1088E-03,  -33.8297E-03,   5.75023E-03
C:/temp/dataset/4/10_15.odb,Step-1,Increment      1: Step Time =    1.000,"PART-1-1",            66,           15.,          -20.,            0.,NA,NA,"",   105.366E-03,   90.3739E-03,  -54.1720E-03,   3.00982E-03
C:/temp/dataset/4/10_15.odb,Step-1,Increment      1: Step Time =    1.000,"PART-1-1",            67,           15.,         -17.5,            0.,NA,NA,"",   137.079E-03,   123.446E-03,  -59.5944E-03,   1.65563E-03
C:/temp/dataset/4/10_15.odb,Step-1,Increment      1: Step Time =    1.000,"PART-1-1",            68,           15.,         -12.5,            0.,NA,NA,"",   201.539E-03,   191.415E-03,  -63.0721E-03,   30.6496E-06
C:/temp/dataset/4/10_15.odb,Step-1,Increment      1: Step Time =    1.000,"PART-1-1",            69,           15.,          -10.,            0.,NA,NA,"",   232.993E-03,   224.291E-03,  -63.0832E-03,   139.120E-06
C:/temp/dataset/4/10_15.odb,Step-1,Increment      1: Step Time =    1.000,"PART-1-1",            70,           15.,           -5.,            0.,NA,NA,"",   295.042E-03,   288.230E-03,  -63.0304E-03,   47.6959E-06
C:/temp/dataset/4/10_15.odb,Step-1,Increment      1: Step Time =    1.000,"PART-1-1",            71,           15.,          -2.5,            0.,NA,NA,"",   326.106E-03,   319.930E-03,  -63.1673E-03,   14.6555E-06
C:/temp/dataset/4/10_15.odb,Step-1,Increment      1: Step Time =    1.000,"PART-1-1",            72,           15.,           2.5,            0.,NA,NA,"",   388.543E-03,   383.311E-03,  -63.5490E-03,   214.251E-09
C:/temp/dataset/4/10_15.odb,Step-1,Increment      1: Step Time =    1.000,"PART-1-1",            73,           15.,            5.,            0.,NA,NA,"",   419.878E-03,   415.010E-03,  -63.7505E-03,   376.977E-09
C:/temp/dataset/4/10_15.odb,Step-1,Increment      1: Step Time =    1.000,"PART-1-1",            74,           15.,           10.,            0.,NA,NA,"",   482.694E-03,   478.412E-03,  -64.1535E-03,   92.3032E-09
C:/temp/dataset/4/10_15.odb,Step-1,Increment      1: Step Time =    1.000,"PART-1-1",            75,           15.,          12.5,            0.,NA,NA,"",   514.157E-03,   510.114E-03,  -64.3546E-03,   26.5213E-09
C:/temp/dataset/4/10_15.odb,Step-1,Increment      1: Step Time =    1.000,"PART-1-1",            76,           15.,          17.5,            0.,NA,NA,"",   577.162E-03,   573.518E-03,  -64.7567E-03,   621.468E-12
C:/temp/dataset/4/10_15.odb,Step-1,Increment      1: Step Time =    1.000,"PART-1-1",            77,           15.,           20.,            0.,NA,NA,"",   608.696E-03,   605.220E-03,  -64.9577E-03,   907.442E-12
C:/temp/dataset/4/10_15.odb,Step-1,Increment      1: Step Time =    1.000,"PART-1-1",            78,           15.,           25.,            0.,NA,NA,"",   671.810E-03,   668.623E-03,  -65.3597E-03,   167.063E-12
C:/temp/dataset/4/10_15.odb,Step-1,Increment      1: Step Time =    1.000,"PART-1-1",            79,           15.,          27.5,            0.,NA,NA,"",   703.387E-03,   700.325E-03,  -65.5607E-03,   38.2459E-12
C:/temp/dataset/4/10_15.odb,Step-1,Increment      1: Step Time =    1.000,"PART-1-1",            80,          12.5,           30.,            0.,NA,NA,"",   733.020E-03,   732.228E-03,  -34.0599E-03,   34.5877E-12
C:/temp/dataset/4/10_15.odb,Step-1,Increment      1: Step Time =    1.000,"PART-1-1",            81,           10.,           30.,            0.,NA,NA,"",   732.433E-03,   732.429E-03,  -2.35808E-03,   59.5664E-12
C:/temp/dataset/4/10_15.odb,Step-1,Increment      1: Step Time =    1.000,"PART-1-1",            82,           7.5,           30.,            0.,NA,NA,"",   733.217E-03,   732.630E-03,   29.3438E-03,   34.7922E-12
C:/temp/dataset/4/10_15.odb,Step-1,Increment      1: Step Time =    1.000,"PART-1-1",            83,            5.,       27.9167,            0.,NA,NA,"",   709.060E-03,   706.413E-03,   61.2131E-03,   29.1522E-12
C:/temp/dataset/4/10_15.odb,Step-1,Increment      1: Step Time =    1.000,"PART-1-1",            84,            5.,       25.8333,            0.,NA,NA,"",   682.759E-03,   679.995E-03,   61.3806E-03,   108.143E-12
C:/temp/dataset/4/10_15.odb,Step-1,Increment      1: Step Time =    1.000,"PART-1-1",            85,            5.,       21.6667,            0.,NA,NA,"",   630.187E-03,   627.158E-03,   61.7156E-03,   602.432E-12
C:/temp/dataset/4/10_15.odb,Step-1,Increment      1: Step Time =    1.000,"PART-1-1",            86,            5.,       19.5833,            0.,NA,NA,"",   603.919E-03,   600.740E-03,   61.8831E-03,   902.522E-12
C:/temp/dataset/4/10_15.odb,Step-1,Increment      1: Step Time =    1.000,"PART-1-1",            87,            5.,       15.4167,            0.,NA,NA,"",   551.425E-03,   547.904E-03,   62.2181E-03,   3.71399E-09
C:/temp/dataset/4/10_15.odb,Step-1,Increment      1: Step Time =    1.000,"PART-1-1",            88,            5.,       13.3333,            0.,NA,NA,"",   525.204E-03,   521.485E-03,   62.3857E-03,   17.0599E-09
C:/temp/dataset/4/10_15.odb,Step-1,Increment      1: Step Time =    1.000,"PART-1-1",            89,            5.,       9.16667,            0.,NA,NA,"",   472.827E-03,   468.649E-03,   62.7209E-03,   126.499E-09
C:/temp/dataset/4/10_15.odb,Step-1,Increment      1: Step Time =    1.000,"PART-1-1",            90,            5.,       7.08333,            0.,NA,NA,"",   446.680E-03,   442.231E-03,   62.8887E-03,   279.658E-09
C:/temp/dataset/4/10_15.odb,Step-1,Increment      1: Step Time =    1.000,"PART-1-1",            91,           2.5,            5.,            0.,NA,NA,"",   426.671E-03,   416.015E-03,   94.7637E-03,   983.910E-09
C:/temp/dataset/4/10_15.odb,Step-1,Increment      1: Step Time =    1.000,"PART-1-1",            92,          -2.5,            5.,            0.,NA,NA,"",   445.453E-03,   416.420E-03,   158.185E-03,   226.318E-09
C:/temp/dataset/4/10_15.odb,Step-1,Increment      1: Step Time =    1.000,"PART-1-1",            93,           -5.,       7.08333,            0.,NA,NA,"",   481.963E-03,   443.048E-03,   189.730E-03,   9.03378E-09
C:/temp/dataset/4/10_15.odb,Step-1,Increment      1: Step Time =    1.000,"PART-1-1",            94,           -5.,       9.16667,            0.,NA,NA,"",   506.300E-03,   469.474E-03,   189.562E-03,   2.58714E-09
C:/temp/dataset/4/10_15.odb,Step-1,Increment      1: Step Time =    1.000,"PART-1-1",            95,           -5.,       13.3333,            0.,NA,NA,"",   555.547E-03,   522.327E-03,   189.227E-03,   139.592E-12
C:/temp/dataset/4/10_15.odb,Step-1,Increment      1: Step Time =    1.000,"PART-1-1",            96,           -5.,       15.4167,            0.,NA,NA,"",   580.408E-03,   548.753E-03,   189.059E-03,   26.6926E-12
C:/temp/dataset/4/10_15.odb,Step-1,Increment      1: Step Time =    1.000,"PART-1-1",            97,           -5.,       19.5833,            0.,NA,NA,"",   630.513E-03,   601.606E-03,   188.724E-03,   25.4189E-12
C:/temp/dataset/4/10_15.odb,Step-1,Increment      1: Step Time =    1.000,"PART-1-1",            98,           -5.,       21.6667,            0.,NA,NA,"",   655.728E-03,   628.033E-03,   188.556E-03,   25.2336E-12
C:/temp/dataset/4/10_15.odb,Step-1,Increment      1: Step Time =    1.000,"PART-1-1",            99,           -5.,       25.8333,            0.,NA,NA,"",   706.423E-03,   680.886E-03,   188.221E-03,   28.4482E-12
C:/temp/dataset/4/10_15.odb,Step-1,Increment      1: Step Time =    1.000,"PART-1-1",           100,           -5.,       27.9167,            0.,NA,NA,"",   731.884E-03,   707.312E-03,   188.053E-03,   29.0918E-12
C:/temp/dataset/4/10_15.odb,Step-1,Increment      1: Step Time =    1.000,"PART-1-1",           101,       6.93475,       11.1046,            0.,NA,NA,"",   494.532E-03,   493.067E-03,   38.0308E-03,   58.2733E-09
C:/temp/dataset/4/10_15.odb,Step-1,Increment      1: Step Time =    1.000,"PART-1-1",           102,       7.10183,      -21.7370,            0.,NA,NA,"",   71.2179E-03,   66.3575E-03,   25.8585E-03,   2.89513E-03
C:/temp/dataset/4/10_15.odb,Step-1,Increment      1: Step Time =    1.000,"PART-1-1",           103,      -7.18606,       25.6133,            0.,NA,NA,"",   711.824E-03,   678.271E-03,   215.968E-03,   28.4992E-12
C:/temp/dataset/4/10_15.odb,Step-1,Increment      1: Step Time =    1.000,"PART-1-1",           104,       7.08931,      -17.4629,            0.,NA,NA,"",   129.498E-03,   125.374E-03,   32.4215E-03,   2.59719E-03
C:/temp/dataset/4/10_15.odb,Step-1,Increment      1: Step Time =    1.000,"PART-1-1",           105,       7.11844,      -23.8299,            0.,NA,NA,"",   47.2666E-03,   42.4905E-03,   20.7048E-03,   3.47977E-03
C:/temp/dataset/4/10_15.odb,Step-1,Increment      1: Step Time =    1.000,"PART-1-1",           106,       7.34845,      -27.9642,            0.,NA,NA,"",   10.4947E-03,   8.21237E-03,   6.53418E-03,   4.53697E-03
C:/temp/dataset/4/10_15.odb,Step-1,Increment      1: Step Time =    1.000,"PART-1-1",           107,       7.18399,      -25.9216,            0.,NA,NA,"",   26.5861E-03,   22.7011E-03,   13.8377E-03,   4.22828E-03
C:/temp/dataset/4/10_15.odb,Step-1,Increment      1: Step Time =    1.000,"PART-1-1",           108,       7.00226,      -10.9532,            0.,NA,NA,"",   217.895E-03,   214.411E-03,   38.8102E-03,   713.827E-06
C:/temp/dataset/4/10_15.odb,Step-1,Increment      1: Step Time =    1.000,"PART-1-1",           109,       6.93148,       25.8450,            0.,NA,NA,"",   680.987E-03,   679.988E-03,   36.8870E-03,   133.293E-12
C:/temp/dataset/4/10_15.odb,Step-1,Increment      1: Step Time =    1.000,"PART-1-1",           110,       6.95256,       21.7727,            0.,NA,NA,"",   629.431E-03,   628.346E-03,   36.9472E-03,   274.991E-12
C:/temp/dataset/4/10_15.odb,Step-1,Increment      1: Step Time =    1.000,"PART-1-1",           111,       6.99069,       19.6693,            0.,NA,NA,"",   602.784E-03,   601.670E-03,   36.6329E-03,   258.057E-12
C:/temp/dataset/4/10_15.odb,Step-1,Increment      1: Step Time =    1.000,"PART-1-1",           112,       6.98342,       13.2435,            0.,NA,NA,"",   521.518E-03,   520.186E-03,   37.2416E-03,   26.4429E-09
C:/temp/dataset/4/10_15.odb,Step-1,Increment      1: Step Time =    1.000,"PART-1-1",           113,       6.84904,       8.98858,            0.,NA,NA,"",   467.894E-03,   466.242E-03,   39.2878E-03,   97.3918E-09
C:/temp/dataset/4/10_15.odb,Step-1,Increment      1: Step Time =    1.000,"PART-1-1",           114,      -7.00061,       11.3966,            0.,NA,NA,"",   542.262E-03,   497.922E-03,   214.760E-03,   847.439E-12
C:/temp/dataset/4/10_15.odb,Step-1,Increment      1: Step Time =    1.000,"PART-1-1",           115,      -6.87185,       17.5946,            0.,NA,NA,"",   614.490E-03,   576.530E-03,   212.628E-03,   33.2056E-12
C:/temp/dataset/4/10_15.odb,Step-1,Increment      1: Step Time =    1.000,"PART-1-1",           116,      -6.78696,       21.5686,            0.,NA,NA,"",   661.562E-03,   626.933E-03,   211.231E-03,   27.6609E-12
C:/temp/dataset/4/10_15.odb,Step-1,Increment      1: Step Time =    1.000,"PART-1-1",           117,      -6.92081,       23.5666,            0.,NA,NA,"",   686.112E-03,   652.288E-03,   212.768E-03,   27.9289E-12
C:/temp/dataset/4/10_15.odb,Step-1,Increment      1: Step Time =    1.000,"PART-1-1",           118,      -7.47694,       27.7553,            0.,NA,NA,"",   738.819E-03,   705.464E-03,   219.486E-03,   28.9905E-12
C:/temp/dataset/4/10_15.odb,Step-1,Increment      1: Step Time =    1.000,"PART-1-1",           119,       6.62973,      -6.72562,            0.,NA,NA,"",   270.427E-03,   266.937E-03,   43.3041E-03,   60.1513E-06
C:/temp/dataset/4/10_15.odb,Step-1,Increment      1: Step Time =    1.000,"PART-1-1",           120,       7.00244,       17.5390,            0.,NA,NA,"",   575.823E-03,   574.655E-03,   36.6551E-03,   2.39262E-09
C:/temp/dataset/4/10_15.odb,Step-1,Increment      1: Step Time =    1.000,"PART-1-1",           121,       7.05765,      -13.1226,            0.,NA,NA,"",   190.852E-03,   187.209E-03,   37.1110E-03,   1.58235E-03
C:/temp/dataset/4/10_15.odb,Step-1,Increment      1: Step Time =    1.000,"PART-1-1",           122,      -6.97858,       13.4860,            0.,NA,NA,"",   566.523E-03,   524.423E-03,   214.312E-03,   280.209E-12
C:/temp/dataset/4/10_15.odb,Step-1,Increment      1: Step Time =    1.000,"PART-1-1",           123,      -7.06135,       7.11796,            0.,NA,NA,"",   493.386E-03,   443.653E-03,   215.874E-03,   5.19986E-09
C:/temp/dataset/4/10_15.odb,Step-1,Increment      1: Step Time =    1.000,"PART-1-1",           124,       6.87626,      -8.81940,            0.,NA,NA,"",   243.936E-03,   240.568E-03,   40.3965E-03,   133.391E-06
C:/temp/dataset/4/10_15.odb,Step-1,Increment      1: Step Time =    1.000,"PART-1-1",           125,       7.08495,      -15.2974,            0.,NA,NA,"",   161.113E-03,   157.296E-03,   34.8639E-03,   2.12998E-03
C:/temp/dataset/4/10_15.odb,Step-1,Increment      1: Step Time =    1.000,"PART-1-1",           126,       7.00715,       15.3887,            0.,NA,NA,"",   548.620E-03,   547.387E-03,   36.7682E-03,   9.37207E-09
C:/temp/dataset/4/10_15.odb,Step-1,Increment      1: Step Time =    1.000,"PART-1-1",           127,      -7.01992,       9.30136,            0.,NA,NA,"",   518.137E-03,   471.345E-03,   215.173E-03,   1.86783E-09
C:/temp/dataset/4/10_15.odb,Step-1,Increment      1: Step Time =    1.000,"PART-1-1",           128,      -6.93369,       15.5639,            0.,NA,NA,"",   590.737E-03,   550.777E-03,   213.576E-03,   83.1266E-12
C:/temp/dataset/4/10_15.odb,Step-1,Increment      1: Step Time =    1.000,"PART-1-1",           129,      -6.79206,       19.5889,            0.,NA,NA,"",   637.889E-03,   601.821E-03,   211.455E-03,   28.2798E-12
C:/temp/dataset/4/10_15.odb,Step-1,Increment      1: Step Time =    1.000,"PART-1-1",           130,       7.09662,      -19.6136,            0.,NA,NA,"",   98.6655E-03,   94.1147E-03,   29.6193E-03,   2.36562E-03
C:/temp/dataset/4/10_15.odb,Step-1,Increment      1: Step Time =    1.000,"PART-1-1",           131,       6.89670,       23.8203,            0.,NA,NA,"",   655.389E-03,   654.315E-03,   37.4909E-03,   230.376E-12
C:/temp/dataset/4/10_15.odb,Step-1,Increment      1: Step Time =    1.000,"PART-1-1",           132,       6.67676,       6.98748,            0.,NA,NA,"",   442.842E-03,   440.880E-03,   41.6335E-03,   78.0172E-09
C:/temp/dataset/4/10_15.odb,Step-1,Increment      1: Step Time =    1.000,"PART-1-1",           133,      -13.0361,       12.2042,            0.,NA,NA,"",   586.135E-03,   508.651E-03,   291.254E-03,   478.257E-12
C:/temp/dataset/4/10_15.odb,Step-1,Increment      1: Step Time =    1.000,"PART-1-1",           134,      -13.0483,       3.72302,            0.,NA,NA,"",   496.160E-03,   401.071E-03,   292.090E-03,   1.50880E-09
C:/temp/dataset/4/10_15.odb,Step-1,Increment      1: Step Time =    1.000,"PART-1-1",           135,      -13.0740,       10.0823,            0.,NA,NA,"",   563.277E-03,   481.739E-03,   291.905E-03,   1.08156E-09
C:/temp/dataset/4/10_15.odb,Step-1,Increment      1: Step Time =    1.000,"PART-1-1",           136,      -13.0017,       14.3509,            0.,NA,NA,"",   609.622E-03,   535.878E-03,   290.644E-03,   165.702E-12
C:/temp/dataset/4/10_15.odb,Step-1,Increment      1: Step Time =    1.000,"PART-1-1",           137,      -12.4480,       21.2307,            0.,NA,NA,"",   684.385E-03,   623.102E-03,   283.067E-03,   30.0131E-12
C:/temp/dataset/4/10_15.odb,Step-1,Increment      1: Step Time =    1.000,"PART-1-1",           138,      -13.0426,       25.7965,            0.,NA,NA,"",   740.332E-03,   681.066E-03,   290.242E-03,   28.9752E-12
C:/temp/dataset/4/10_15.odb,Step-1,Increment      1: Step Time =    1.000,"PART-1-1",           139,      -12.9478,       23.6552,            0.,NA,NA,"",   714.999E-03,   653.896E-03,   289.211E-03,   28.6396E-12
C:/temp/dataset/4/10_15.odb,Step-1,Increment      1: Step Time =    1.000,"PART-1-1",           140,      -12.8307,       18.7376,            0.,NA,NA,"",   657.949E-03,   591.508E-03,   288.122E-03,   31.4278E-12
C:/temp/dataset/4/10_15.odb,Step-1,Increment      1: Step Time =    1.000,"PART-1-1",           141,      -12.9472,       16.5227,            0.,NA,NA,"",   633.574E-03,   563.422E-03,   289.778E-03,   50.3265E-12
C:/temp/dataset/4/10_15.odb,Step-1,Increment      1: Step Time =    1.000,"PART-1-1",           142,      -13.1112,       7.97345,            0.,NA,NA,"",   540.925E-03,   454.991E-03,   292.546E-03,   1.75715E-09
C:/temp/dataset/4/10_15.odb,Step-1,Increment      1: Step Time =    1.000,"PART-1-1",           143,      -13.1276,       5.86243,            0.,NA,NA,"",   518.818E-03,   428.215E-03,   292.924E-03,   2.06431E-09
C:/temp/dataset/4/10_15.odb,Step-1,Increment      1: Step Time =    1.000,"PART-1-1",           144,      -12.8109,       1.56310,            0.,NA,NA,"",   472.530E-03,   373.654E-03,   289.253E-03,   1.02580E-09
C:/temp/dataset/4/10_15.odb,Step-1,Increment      1: Step Time =    1.000,"PART-1-1",           145,      -12.5511,  -622.366E-03,            0.,NA,NA,"",   448.917E-03,   345.911E-03,   286.134E-03,   2.12891E-09
C:/temp/dataset/4/10_15.odb,Step-1,Increment      1: Step Time =    1.000,"PART-1-1",           146,      -7.69124,      -3.05836,            0.,NA,NA,"",   386.611E-03,   314.620E-03,   224.683E-03,   23.0366E-09
C:/temp/dataset/4/10_15.odb,Step-1,Increment      1: Step Time =    1.000,"PART-1-1",           147,      -2.59391,      -3.27074,            0.,NA,NA,"",   350.222E-03,   311.516E-03,   160.043E-03,   311.803E-09
C:/temp/dataset/4/10_15.odb,Step-1,Increment      1: Step Time =    1.000,"PART-1-1",           148,      -2.06699,       2.95135,            0.,NA,NA,"",   419.257E-03,   390.399E-03,   152.857E-03,   278.578E-09
C:/temp/dataset/4/10_15.odb,Step-1,Increment      1: Step Time =    1.000,"PART-1-1",           149,       1.86882,      -3.06513,            0.,NA,NA,"",   330.369E-03,   313.765E-03,   103.418E-03,   3.10709E-06
C:/temp/dataset/4/10_15.odb,Step-1,Increment      1: Step Time =    1.000,"PART-1-1",           150,       2.79073,       3.02834,            0.,NA,NA,"",   401.487E-03,   390.984E-03,   91.2343E-03,   270.423E-09
C:/temp/dataset/4/10_15.odb,Step-1,Increment      1: Step Time =    1.000,"PART-1-1",           151,       12.5379,       2.72923,            0.,NA,NA,"",   387.767E-03,   386.415E-03,  -32.3478E-03,   1.58645E-06
C:/temp/dataset/4/10_15.odb,Step-1,Increment      1: Step Time =    1.000,"PART-1-1",           152,       12.9313,       10.2835,            0.,NA,NA,"",   483.664E-03,   482.173E-03,  -37.9444E-03,   77.4661E-09
C:/temp/dataset/4/10_15.odb,Step-1,Increment      1: Step Time =    1.000,"PART-1-1",           153,       12.7723,       24.8557,            0.,NA,NA,"",   668.003E-03,   666.972E-03,  -37.0997E-03,   186.433E-12
C:/temp/dataset/4/10_15.odb,Step-1,Increment      1: Step Time =    1.000,"PART-1-1",           154,       12.5268,       27.4001,            0.,NA,NA,"",   700.092E-03,   699.257E-03,  -34.1907E-03,   85.8902E-12
C:/temp/dataset/4/10_15.odb,Step-1,Increment      1: Step Time =    1.000,"PART-1-1",           155,       12.7627,      -5.01238,            0.,NA,NA,"",   290.340E-03,   288.274E-03,  -34.5740E-03,   41.3725E-06
C:/temp/dataset/4/10_15.odb,Step-1,Increment      1: Step Time =    1.000,"PART-1-1",           156,       13.0118,      -12.5921,            0.,NA,NA,"",   193.898E-03,   190.316E-03,  -37.0959E-03,   451.798E-06
C:/temp/dataset/4/10_15.odb,Step-1,Increment      1: Step Time =    1.000,"PART-1-1",           157,       9.69976,      -27.8547,            0.,NA,NA,"",   6.77196E-03,   6.73780E-03,   679.421E-06,   2.38704E-03
C:/temp/dataset/4/10_15.odb,Step-1,Increment      1: Step Time =    1.000,"PART-1-1",           158,       13.0855,      -17.4497,            0.,NA,NA,"",   128.105E-03,   123.125E-03,  -35.3684E-03,   1.74778E-03
C:/temp/dataset/4/10_15.odb,Step-1,Increment      1: Step Time =    1.000,"PART-1-1",           159,       12.9366,       22.3763,            0.,NA,NA,"",   636.714E-03,   635.519E-03,  -38.9836E-03,   290.987E-12
C:/temp/dataset/4/10_15.odb,Step-1,Increment      1: Step Time =    1.000,"PART-1-1",           160,       13.0248,       17.5365,            0.,NA,NA,"",   575.511E-03,   574.139E-03,  -39.7129E-03,   2.28023E-09
C:/temp/dataset/4/10_15.odb,Step-1,Increment      1: Step Time =    1.000,"PART-1-1",           161,      -10.1545,       27.3700,            0.,NA,NA,"",   745.227E-03,   700.793E-03,   253.481E-03,   28.9160E-12
C:/temp/dataset/4/10_15.odb,Step-1,Increment      1: Step Time =    1.000,"PART-1-1",           162,      -10.0546,      -2.87755,            0.,NA,NA,"",   406.693E-03,   317.104E-03,   254.647E-03,   4.10969E-09
C:/temp/dataset/4/10_15.odb,Step-1,Increment      1: Step Time =    1.000,"PART-1-1",           163,      -5.07747,      -2.66322,            0.,NA,NA,"",   372.426E-03,   319.422E-03,   191.497E-03,   98.4118E-09
C:/temp/dataset/4/10_15.odb,Step-1,Increment      1: Step Time =    1.000,"PART-1-1",           164,  -330.659E-03,      -3.26262,            0.,NA,NA,"",   337.996E-03,   311.437E-03,   131.334E-03,   789.440E-09
C:/temp/dataset/4/10_15.odb,Step-1,Increment      1: Step Time =    1.000,"PART-1-1",           165,       3.93161,      -2.75002,            0.,NA,NA,"",   326.850E-03,   317.596E-03,   77.2218E-03,   4.00762E-06
C:/temp/dataset/4/10_15.odb,Step-1,Increment      1: Step Time =    1.000,"PART-1-1",           166,       12.9585,      -10.1304,            0.,NA,NA,"",   225.844E-03,   222.843E-03,  -36.6941E-03,   90.5746E-06
C:/temp/dataset/4/10_15.odb,Step-1,Increment      1: Step Time =    1.000,"PART-1-1",           167,       13.1106,      -19.8561,            0.,NA,NA,"",   95.8739E-03,   90.2971E-03,  -32.2219E-03,   2.46144E-03
C:/temp/dataset/4/10_15.odb,Step-1,Increment      1: Step Time =    1.000,"PART-1-1",           168,       12.2637,      -27.1930,            0.,NA,NA,"",   14.5881E-03,   12.4576E-03,  -7.59096E-03,   4.02105E-03
C:/temp/dataset/4/10_15.odb,Step-1,Increment      1: Step Time =    1.000,"PART-1-1",           169,       13.0974,      -22.2394,            0.,NA,NA,"",   66.1250E-03,   60.3718E-03,  -26.9770E-03,   3.14845E-03
C:/temp/dataset/4/10_15.odb,Step-1,Increment      1: Step Time =    1.000,"PART-1-1",           170,       13.0625,      -15.0302,            0.,NA,NA,"",   161.217E-03,   156.925E-03,  -36.9544E-03,   1.04867E-03
C:/temp/dataset/4/10_15.odb,Step-1,Increment      1: Step Time =    1.000,"PART-1-1",           171,       12.8638,      -7.61343,            0.,NA,NA,"",   257.692E-03,   255.213E-03,  -35.6614E-03,   44.6764E-06
C:/temp/dataset/4/10_15.odb,Step-1,Increment      1: Step Time =    1.000,"PART-1-1",           172,       12.8109,      -2.41519,            0.,NA,NA,"",   323.131E-03,   321.186E-03,  -35.3956E-03,   18.2335E-06
C:/temp/dataset/4/10_15.odb,Step-1,Increment      1: Step Time =    1.000,"PART-1-1",           173,       12.7001,   168.481E-03,            0.,NA,NA,"",   355.587E-03,   353.939E-03,  -34.1983E-03,   6.00767E-06
C:/temp/dataset/4/10_15.odb,Step-1,Increment      1: Step Time =    1.000,"PART-1-1",           174,       12.6773,       5.28127,            0.,NA,NA,"",   420.167E-03,   418.763E-03,  -34.3202E-03,   190.532E-09
C:/temp/dataset/4/10_15.odb,Step-1,Increment      1: Step Time =    1.000,"PART-1-1",           175,       12.8405,       7.80961,            0.,NA,NA,"",   452.293E-03,   450.810E-03,  -36.5939E-03,   126.537E-09
C:/temp/dataset/4/10_15.odb,Step-1,Increment      1: Step Time =    1.000,"PART-1-1",           176,       12.9955,       12.7023,            0.,NA,NA,"",   514.317E-03,   512.840E-03,  -38.9527E-03,   33.5640E-09
C:/temp/dataset/4/10_15.odb,Step-1,Increment      1: Step Time =    1.000,"PART-1-1",           177,       13.0102,       19.9477,            0.,NA,NA,"",   606.019E-03,   604.716E-03,  -39.7208E-03,   188.950E-12
C:/temp/dataset/4/10_15.odb,Step-1,Increment      1: Step Time =    1.000,"PART-1-1",           178,       9.88408,       27.1269,            0.,NA,NA,"",   696.006E-03,   696.005E-03,  -657.060E-06,   86.4308E-12
C:/temp/dataset/4/10_15.odb,Step-1,Increment      1: Step Time =    1.000,"PART-1-1",           179,       13.0301,       15.1161,            0.,NA,NA,"",   544.886E-03,   543.446E-03,  -39.5852E-03,   10.5564E-09
C:/temp/dataset/4/10_15.odb,Step-1,Increment      1: Step Time =    1.000,"PART-1-1",           180,   300.490E-03,       3.00528,            0.,NA,NA,"",   409.734E-03,   390.892E-03,   122.822E-03,   400.409E-09
C:/temp/dataset/4/10_15.odb,Step-1,Increment      1: Step Time =    1.000,"PART-1-1",           181,      -4.18418,       2.89078,            0.,NA,NA,"",   429.236E-03,   389.801E-03,   179.718E-03,   129.663E-09
C:/temp/dataset/4/10_15.odb,Step-1,Increment      1: Step Time =    1.000,"PART-1-1",           182,      -8.75093,       23.2164,            0.,NA,NA,"",   689.634E-03,   647.992E-03,   236.011E-03,   29.2531E-12
C:/temp/dataset/4/10_15.odb,Step-1,Increment      1: Step Time =    1.000,"PART-1-1",           183,       9.13120,      -23.8882,            0.,NA,NA,"",   40.4298E-03,   40.0141E-03,   5.78249E-03,   2.60265E-03
C:/temp/dataset/4/10_15.odb,Step-1,Increment      1: Step Time =    1.000,"PART-1-1",           184,       8.76025,       8.63504,            0.,NA,NA,"",   461.851E-03,   461.605E-03,   15.0805E-03,   98.4230E-09
C:/temp/dataset/4/10_15.odb,Step-1,Increment      1: Step Time =    1.000,"PART-1-1",           185,       8.81891,       23.9948,            0.,NA,NA,"",   656.505E-03,   656.374E-03,   13.1018E-03,   223.258E-12
C:/temp/dataset/4/10_15.odb,Step-1,Increment      1: Step Time =    1.000,"PART-1-1",           186,       9.00734,       17.5557,            0.,NA,NA,"",   574.816E-03,   574.706E-03,   11.2302E-03,   3.38987E-09
C:/temp/dataset/4/10_15.odb,Step-1,Increment      1: Step Time =    1.000,"PART-1-1",           187,      -8.59230,       19.6811,            0.,NA,NA,"",   647.041E-03,   603.136E-03,   234.283E-03,   33.4631E-12
C:/temp/dataset/4/10_15.odb,Step-1,Increment      1: Step Time =    1.000,"PART-1-1",           188,       9.06266,      -12.9142,            0.,NA,NA,"",   188.120E-03,   187.722E-03,   12.2282E-03,   1.09933E-03
C:/temp/dataset/4/10_15.odb,Step-1,Increment      1: Step Time =    1.000,"PART-1-1",           189,       9.13987,      -19.6571,            0.,NA,NA,"",   92.5811E-03,   92.2311E-03,   8.04293E-03,   2.53205E-03
C:/temp/dataset/4/10_15.odb,Step-1,Increment      1: Step Time =    1.000,"PART-1-1",           190,       9.00941,       15.3265,            0.,NA,NA,"",   546.556E-03,   546.437E-03,   11.3832E-03,   11.9179E-09
C:/temp/dataset/4/10_15.odb,Step-1,Increment      1: Step Time =    1.000,"PART-1-1",           191,      -8.96967,       13.7142,            0.,NA,NA,"",   579.324E-03,   527.477E-03,   239.550E-03,   305.563E-12
C:/temp/dataset/4/10_15.odb,Step-1,Increment      1: Step Time =    1.000,"PART-1-1",           192,       9.12973,      -17.4386,            0.,NA,NA,"",   124.143E-03,   123.813E-03,   9.05174E-03,   2.42116E-03
C:/temp/dataset/4/10_15.odb,Step-1,Increment      1: Step Time =    1.000,"PART-1-1",           193,       8.94484,       21.9321,            0.,NA,NA,"",   630.315E-03,   630.207E-03,   11.6708E-03,   272.324E-12
C:/temp/dataset/4/10_15.odb,Step-1,Increment      1: Step Time =    1.000,"PART-1-1",           194,      -8.78258,       17.8115,            0.,NA,NA,"",   625.973E-03,   579.435E-03,   236.847E-03,   43.0192E-12
C:/temp/dataset/4/10_15.odb,Step-1,Increment      1: Step Time =    1.000,"PART-1-1",           195,       8.90333,       10.8666,            0.,NA,NA,"",   490.067E-03,   489.892E-03,   13.0868E-03,   65.6571E-09
C:/temp/dataset/4/10_15.odb,Step-1,Increment      1: Step Time =    1.000,"PART-1-1",           196,      -9.00437,       11.6266,            0.,NA,NA,"",   555.587E-03,   500.999E-03,   240.158E-03,   862.425E-12
C:/temp/dataset/4/10_15.odb,Step-1,Increment      1: Step Time =    1.000,"PART-1-1",           197,      -9.03622,       9.53759,            0.,NA,NA,"",   532.076E-03,   474.504E-03,   240.730E-03,   1.71724E-09
C:/temp/dataset/4/10_15.odb,Step-1,Increment      1: Step Time =    1.000,"PART-1-1",           198,       8.99264,      -10.6281,            0.,NA,NA,"",   217.886E-03,   217.451E-03,   13.7610E-03,   389.008E-06
C:/temp/dataset/4/10_15.odb,Step-1,Increment      1: Step Time =    1.000,"PART-1-1",           199,       8.82192,      -8.34759,            0.,NA,NA,"",   246.807E-03,   246.295E-03,   15.8816E-03,   77.4656E-06
C:/temp/dataset/4/10_15.odb,Step-1,Increment      1: Step Time =    1.000,"PART-1-1",           200,       8.98411,       13.0928,            0.,NA,NA,"",   518.251E-03,   518.115E-03,   11.8836E-03,   32.8582E-09
C:/temp/dataset/4/10_15.odb,Step-1,Increment      1: Step Time =    1.000,"PART-1-1",           201,       7.30685,       27.8134,            0.,NA,NA,"",   705.642E-03,   704.917E-03,   31.9689E-03,   74.6437E-12
C:/temp/dataset/4/10_15.odb,Step-1,Increment      1: Step Time =    1.000,"PART-1-1",           202,      -8.46063,       21.4565,            0.,NA,NA,"",   667.439E-03,   625.646E-03,   232.470E-03,   30.2753E-12
C:/temp/dataset/4/10_15.odb,Step-1,Increment      1: Step Time =    1.000,"PART-1-1",           203,       9.11250,      -15.1896,            0.,NA,NA,"",   156.637E-03,   156.289E-03,   10.4305E-03,   1.89531E-03
C:/temp/dataset/4/10_15.odb,Step-1,Increment      1: Step Time =    1.000,"PART-1-1",           204,       9.14200,      -21.8221,            0.,NA,NA,"",   64.1871E-03,   63.7998E-03,   7.04056E-03,   2.53207E-03
C:/temp/dataset/4/10_15.odb,Step-1,Increment      1: Step Time =    1.000,"PART-1-1",           205,      -8.90436,       15.8055,            0.,NA,NA,"",   603.178E-03,   554.000E-03,   238.554E-03,   104.068E-12
C:/temp/dataset/4/10_15.odb,Step-1,Increment      1: Step Time =    1.000,"PART-1-1",           206,       9.00445,       19.7587,            0.,NA,NA,"",   602.743E-03,   602.641E-03,   11.0897E-03,   615.363E-12
C:/temp/dataset/4/10_15.odb,Step-1,Increment      1: Step Time =    1.000,"PART-1-1",           207,       8.39742,      -6.16188,            0.,NA,NA,"",   274.765E-03,   273.962E-03,   20.9863E-03,   62.1641E-06
C:/temp/dataset/4/10_15.odb,Step-1,Increment      1: Step Time =    1.000,"PART-1-1",           208,      -9.10294,       7.45394,            0.,NA,NA,"",   509.132E-03,   448.079E-03,   241.744E-03,   3.09884E-09
C:/temp/dataset/4/10_15.odb,Step-1,Increment      1: Step Time =    1.000,"PART-1-1",           209,       8.43260,       6.43235,            0.,NA,NA,"",   434.134E-03,   433.700E-03,   19.4123E-03,   140.900E-09
C:/temp/dataset/4/10_15.odb,Step-1,Increment      1: Step Time =    1.000,"PART-1-1",           210,       5.64784,       2.93298,            0.,NA,NA,"",   393.409E-03,   389.545E-03,   55.0074E-03,   1.41366E-06
C:/temp/dataset/4/10_15.odb,Step-1,Increment      1: Step Time =    1.000,"PART-1-1",           211,      -10.7213,       1.88644,            0.,NA,NA,"",   459.993E-03,   377.587E-03,   262.720E-03,   5.19367E-09
C:/temp/dataset/4/10_15.odb,Step-1,Increment      1: Step Time =    1.000,"PART-1-1",           212,      -12.7178,       27.8380,            0.,NA,NA,"",   762.580E-03,   706.935E-03,   285.958E-03,   29.1577E-12
C:/temp/dataset/4/10_15.odb,Step-1,Increment      1: Step Time =    1.000,"PART-1-1",           213,      -11.0298,       24.2524,            0.,NA,NA,"",   712.375E-03,   661.318E-03,   264.834E-03,   29.2094E-12
C:/temp/dataset/4/10_15.odb,Step-1,Increment      1: Step Time =    1.000,"PART-1-1",           214,      -10.4500,       20.0822,            0.,NA,NA,"",   660.747E-03,   608.373E-03,   257.815E-03,   33.9389E-12
C:/temp/dataset/4/10_15.odb,Step-1,Increment      1: Step Time =    1.000,"PART-1-1",           215,      -10.9919,       14.0243,            0.,NA,NA,"",   594.045E-03,   531.573E-03,   265.177E-03,   264.324E-12
C:/temp/dataset/4/10_15.odb,Step-1,Increment      1: Step Time =    1.000,"PART-1-1",           216,      -11.0796,       9.82104,            0.,NA,NA,"",   547.564E-03,   478.264E-03,   266.628E-03,   1.44373E-09
C:/temp/dataset/4/10_15.odb,Step-1,Increment      1: Step Time =    1.000,"PART-1-1",           217,      -11.0365,       11.9204,            0.,NA,NA,"",   570.634E-03,   504.891E-03,   265.911E-03,   687.372E-12
C:/temp/dataset/4/10_15.odb,Step-1,Increment      1: Step Time =    1.000,"PART-1-1",           218,      -10.5491,       22.5446,            0.,NA,NA,"",   690.017E-03,   639.616E-03,   258.874E-03,   30.2882E-12
C:/temp/dataset/4/10_15.odb,Step-1,Increment      1: Step Time =    1.000,"PART-1-1",           219,      -10.9277,       16.1478,            0.,NA,NA,"",   617.838E-03,   558.505E-03,   264.191E-03,   84.0803E-12
C:/temp/dataset/4/10_15.odb,Step-1,Increment      1: Step Time =    1.000,"PART-1-1",           220,      -10.7891,       18.2216,            0.,NA,NA,"",   640.916E-03,   584.799E-03,   262.266E-03,   40.5778E-12
C:/temp/dataset/4/10_15.odb,Step-1,Increment      1: Step Time =    1.000,"PART-1-1",           221,      -11.1555,       7.76515,            0.,NA,NA,"",   525.519E-03,   452.192E-03,   267.755E-03,   2.02224E-09
C:/temp/dataset/4/10_15.odb,Step-1,Increment      1: Step Time =    1.000,"PART-1-1",           222,      -9.80329,       4.04682,            0.,NA,NA,"",   476.350E-03,   404.917E-03,   250.902E-03,   3.81777E-09
C:/temp/dataset/4/10_15.odb,Step-1,Increment      1: Step Time =    1.000,"PART-1-1",           223,       9.22674,      -25.9093,            0.,NA,NA,"",   20.9358E-03,   20.6332E-03,   3.54670E-03,   2.59908E-03
C:/temp/dataset/4/10_15.odb,Step-1,Increment      1: Step Time =    1.000,"PART-1-1",           224,      -9.21421,       25.1107,            0.,NA,NA,"",   714.212E-03,   672.059E-03,   241.735E-03,   28.8895E-12
C:/temp/dataset/4/10_15.odb,Step-1,Increment      1: Step Time =    1.000,"PART-1-1",           225,       6.25241,      -4.60112,            0.,NA,NA,"",   297.783E-03,   293.901E-03,   47.9246E-03,   42.5601E-06
C:/temp/dataset/4/10_15.odb,Step-1,Increment      1: Step Time =    1.000,"PART-1-1",           226,      -7.19550,       4.55405,            0.,NA,NA,"",   465.259E-03,   411.141E-03,   217.782E-03,   12.8546E-09
C:/temp/dataset/4/10_15.odb,Step-1,Increment      1: Step Time =    1.000,"PART-1-1",           227,       12.9551,      -24.6090,            0.,NA,NA,"",   39.5328E-03,   34.6637E-03,  -19.0071E-03,   3.94485E-03
C:/temp/dataset/4/10_15.odb,Step-1,Increment      1: Step Time =    1.000,"PART-1-1",           228,       10.9241,       22.1645,            0.,NA,NA,"",   633.138E-03,   632.995E-03,  -13.4467E-03,   280.846E-12
C:/temp/dataset/4/10_15.odb,Step-1,Increment      1: Step Time =    1.000,"PART-1-1",           229,      -4.91288,   464.762E-03,            0.,NA,NA,"",   405.861E-03,   359.086E-03,   189.157E-03,   121.909E-09
C:/temp/dataset/4/10_15.odb,Step-1,Increment      1: Step Time =    1.000,"PART-1-1",           230,  -831.143E-03,      -1.35374,            0.,NA,NA,"",   362.771E-03,   335.692E-03,   137.528E-03,   468.920E-09
C:/temp/dataset/4/10_15.odb,Step-1,Increment      1: Step Time =    1.000,"PART-1-1",           231,       11.1616,      -19.7398,            0.,NA,NA,"",   91.6950E-03,   90.8949E-03,  -12.0870E-03,   2.45427E-03
C:/temp/dataset/4/10_15.odb,Step-1,Increment      1: Step Time =    1.000,"PART-1-1",           232,       10.9730,      -10.3410,            0.,NA,NA,"",   220.754E-03,   220.464E-03,  -11.3154E-03,   227.138E-06
C:/temp/dataset/4/10_15.odb,Step-1,Increment      1: Step Time =    1.000,"PART-1-1",           233,       10.4844,      -5.04269,            0.,NA,NA,"",   288.092E-03,   288.037E-03,  -5.58975E-03,   47.3132E-06
C:/temp/dataset/4/10_15.odb,Step-1,Increment      1: Step Time =    1.000,"PART-1-1",           234,       10.9074,       10.5689,            0.,NA,NA,"",   486.110E-03,   485.955E-03,  -12.3025E-03,   77.1015E-09
C:/temp/dataset/4/10_15.odb,Step-1,Increment      1: Step Time =    1.000,"PART-1-1",           235,       11.0515,      -12.7377,            0.,NA,NA,"",   189.245E-03,   188.840E-03,  -12.3810E-03,   757.356E-06
C:/temp/dataset/4/10_15.odb,Step-1,Increment      1: Step Time =    1.000,"PART-1-1",           236,       10.9936,       12.8990,            0.,NA,NA,"",   515.675E-03,   515.496E-03,  -13.5822E-03,   34.5580E-09
C:/temp/dataset/4/10_15.odb,Step-1,Increment      1: Step Time =    1.000,"PART-1-1",           237,      -9.84553,  -403.770E-03,            0.,NA,NA,"",   429.918E-03,   348.466E-03,   251.796E-03,   8.29629E-09
C:/temp/dataset/4/10_15.odb,Step-1,Increment      1: Step Time =    1.000,"PART-1-1",           238,      -6.42098,  -599.403E-03,            0.,NA,NA,"",   403.651E-03,   345.709E-03,   208.373E-03,   62.4646E-09
C:/temp/dataset/4/10_15.odb,Step-1,Increment      1: Step Time =    1.000,"PART-1-1",           239,      -2.35214,      -1.85066,            0.,NA,NA,"",   364.942E-03,   329.510E-03,   156.862E-03,   298.620E-09
C:/temp/dataset/4/10_15.odb,Step-1,Increment      1: Step Time =    1.000,"PART-1-1",           240,       11.1625,      -21.9830,            0.,NA,NA,"",   62.7149E-03,   61.8837E-03,  -10.1766E-03,   2.62781E-03
C:/temp/dataset/4/10_15.odb,Step-1,Increment      1: Step Time =    1.000,"PART-1-1",           241,       11.1073,      -15.0998,            0.,NA,NA,"",   156.796E-03,   156.244E-03,  -13.1388E-03,   1.48031E-03
C:/temp/dataset/4/10_15.odb,Step-1,Increment      1: Step Time =    1.000,"PART-1-1",           242,       11.1457,      -17.4375,            0.,NA,NA,"",   123.734E-03,   123.032E-03,  -13.1558E-03,   2.10045E-03
C:/temp/dataset/4/10_15.odb,Step-1,Increment      1: Step Time =    1.000,"PART-1-1",           243,       10.8340,      -7.85693,            0.,NA,NA,"",   252.485E-03,   252.298E-03,  -9.71432E-03,   52.4922E-06
C:/temp/dataset/4/10_15.odb,Step-1,Increment      1: Step Time =    1.000,"PART-1-1",           244,       10.5842,   120.255E-03,            0.,NA,NA,"",   353.566E-03,   353.490E-03,  -7.35530E-03,   7.19434E-06
C:/temp/dataset/4/10_15.odb,Step-1,Increment      1: Step Time =    1.000,"PART-1-1",           245,       10.8633,      -2.34188,            0.,NA,NA,"",   322.432E-03,   322.255E-03,  -10.6772E-03,   19.4407E-06
C:/temp/dataset/4/10_15.odb,Step-1,Increment      1: Step Time =    1.000,"PART-1-1",           246,       9.78574,       2.89226,            0.,NA,NA,"",   388.708E-03,   388.700E-03,   2.53954E-03,   1.89362E-06
C:/temp/dataset/4/10_15.odb,Step-1,Increment      1: Step Time =    1.000,"PART-1-1",           247,       10.7685,       8.18214,            0.,NA,NA,"",   455.818E-03,   455.701E-03,  -10.3498E-03,   112.786E-09
C:/temp/dataset/4/10_15.odb,Step-1,Increment      1: Step Time =    1.000,"PART-1-1",           248,       10.4587,       5.69287,            0.,NA,NA,"",   424.206E-03,   424.160E-03,  -6.22027E-03,   247.551E-09
C:/temp/dataset/4/10_15.odb,Step-1,Increment      1: Step Time =    1.000,"PART-1-1",           249,       11.0104,       19.8565,            0.,NA,NA,"",   603.892E-03,   603.721E-03,  -14.3555E-03,   561.857E-12
C:/temp/dataset/4/10_15.odb,Step-1,Increment      1: Step Time =    1.000,"PART-1-1",           250,       11.0363,       17.5467,            0.,NA,NA,"",   574.611E-03,   574.428E-03,  -14.4972E-03,   3.30823E-09
C:/temp/dataset/4/10_15.odb,Step-1,Increment      1: Step Time =    1.000,"PART-1-1",           251,       11.0403,       15.2208,            0.,NA,NA,"",   545.124E-03,   544.935E-03,  -14.3617E-03,   12.6414E-09
C:/temp/dataset/4/10_15.odb,Step-1,Increment      1: Step Time =    1.000,"PART-1-1",           252,       1.19009,      -1.06873,            0.,NA,NA,"",   357.118E-03,   339.145E-03,   111.866E-03,   860.259E-09
C:/temp/dataset/4/10_15.odb,Step-1,Increment      1: Step Time =    1.000,"PART-1-1",           253,       10.6932,       24.5073,            0.,NA,NA,"",   662.809E-03,   662.722E-03,  -10.7067E-03,   202.325E-12
C:/temp/dataset/4/10_15.odb,Step-1,Increment      1: Step Time =    1.000,"PART-1-1",           254,       8.51128,       25.6419,            0.,NA,NA,"",   677.495E-03,   677.285E-03,   16.8704E-03,   142.615E-12
C:/temp/dataset/4/10_15.odb,Step-1,Increment      1: Step Time =    1.000,"PART-1-1",           255,      -9.32324,       5.48290,            0.,NA,NA,"",   488.759E-03,   423.095E-03,   244.697E-03,   2.78098E-09
C:/temp/dataset/4/10_15.odb,Step-1,Increment      1: Step Time =    1.000,"PART-1-1",           256,      -11.4569,       25.7537,            0.,NA,NA,"",   732.058E-03,   680.396E-03,   270.132E-03,   28.9381E-12
C:/temp/dataset/4/10_15.odb,Step-1,Increment      1: Step Time =    1.000,"PART-1-1",           257,      -8.85145,       2.84717,            0.,NA,NA,"",   457.046E-03,   389.623E-03,   238.925E-03,   12.3713E-09
C:/temp/dataset/4/10_15.odb,Step-1,Increment      1: Step Time =    1.000,"PART-1-1",           258,       11.0896,      -24.0706,            0.,NA,NA,"",   38.8425E-03,   38.1416E-03,  -7.34595E-03,   2.72457E-03
C:/temp/dataset/4/10_15.odb,Step-1,Increment      1: Step Time =    1.000,"PART-1-1",           259,       5.69240,      -2.12345,            0.,NA,NA,"",   329.988E-03,   325.399E-03,   54.8421E-03,   9.83040E-06
C:/temp/dataset/4/10_15.odb,Step-1,Increment      1: Step Time =    1.000,"PART-1-1",           260,       7.72467,       1.38687,            0.,NA,NA,"",   370.890E-03,   369.770E-03,   28.7981E-03,   3.74325E-06
C:/temp/dataset/4/10_15.odb,Step-1,Increment      1: Step Time =    1.000,"PART-1-1",           261,       8.83369,  -368.727E-03,            0.,NA,NA,"",   347.737E-03,   347.418E-03,   14.8843E-03,   8.43978E-06
C:/temp/dataset/4/10_15.odb,Step-1,Increment      1: Step Time =    1.000,"PART-1-1",           262,       7.58912,       4.39900,            0.,NA,NA,"",   409.103E-03,   407.982E-03,   30.2721E-03,   824.966E-09
C:/temp/dataset/4/10_15.odb,Step-1,Increment      1: Step Time =    1.000,"PART-1-1",           263,      -6.02595,       2.23751,            0.,NA,NA,"",   432.353E-03,   381.662E-03,   203.133E-03,   59.0188E-09
C:/temp/dataset/4/10_15.odb,Step-1,Increment      1: Step Time =    1.000,"PART-1-1",           264,       4.92391,   813.983E-03,            0.,NA,NA,"",   368.391E-03,   362.726E-03,   64.3576E-03,   2.41944E-06
C:/temp/dataset/4/10_15.odb,Step-1,Increment      1: Step Time =    1.000,"PART-1-1",           265,      -7.77287,       1.11371,            0.,NA,NA,"",   431.148E-03,   367.548E-03,   225.383E-03,   29.7045E-09
C:/temp/dataset/4/10_15.odb,Step-1,Increment      1: Step Time =    1.000,"PART-1-1",           266,      -3.71710,       1.36231,            0.,NA,NA,"",   409.176E-03,   370.375E-03,   173.917E-03,   169.041E-09
C:/temp/dataset/4/10_15.odb,Step-1,Increment      1: Step Time =    1.000,"PART-1-1",           267,       2.85817,       1.10052,            0.,NA,NA,"",   377.542E-03,   366.527E-03,   90.5334E-03,   591.215E-09
C:/temp/dataset/4/10_15.odb,Step-1,Increment      1: Step Time =    1.000,"PART-1-1",           268,       7.51165,      -2.37377,            0.,NA,NA,"",   323.645E-03,   322.078E-03,   31.8124E-03,   17.7962E-06
C:/temp/dataset/4/10_15.odb,Step-1,Increment      1: Step Time =    1.000,"PART-1-1",           269,      -1.84913,   666.939E-03,            0.,NA,NA,"",   391.404E-03,   361.405E-03,   150.278E-03,   370.221E-09
C:/temp/dataset/4/10_15.odb,Step-1,Increment      1: Step Time =    1.000,"PART-1-1",           270,   621.955E-03,   989.730E-03,            0.,NA,NA,"",   384.166E-03,   365.301E-03,   118.907E-03,   466.901E-09
C:/temp/dataset/4/10_15.odb,Step-1,Increment      1: Step Time =    1.000,"PART-1-1",           271,       7.77182,      -4.29185,            0.,NA,NA,"",   299.093E-03,   297.714E-03,   28.6909E-03,   38.6171E-06
C:/temp/dataset/4/10_15.odb,Step-1,Increment      1: Step Time =    1.000,"PART-1-1",           272,       6.40836,       5.42027,            0.,NA,NA,"",   423.443E-03,   421.028E-03,   45.1631E-03,   208.999E-09
C:/temp/dataset/4/10_15.odb,Step-1,Increment      1: Step Time =    1.000,"PART-1-1",           273,      -12.5139,      -2.82358,            0.,NA,NA,"",   427.573E-03,   317.986E-03,   285.838E-03,   2.92363E-09
C:/temp/dataset/4/10_15.odb,Step-1,Increment      1: Step Time =    1.000,"PART-1-1",           274,       10.8188,      -25.6946,            0.,NA,NA,"",   22.8888E-03,   22.5309E-03,  -4.03160E-03,   2.59176E-03
C:/temp/dataset/4/10_15.odb,Step-1,Increment      1: Step Time =    1.000,"PART-1-1",           275,       6.49302,  -163.532E-03,            0.,NA,NA,"",   353.021E-03,   350.200E-03,   44.5400E-03,   5.76407E-06
C:/temp/dataset/4/10_15.odb,Step-1,Increment      1: Step Time =    1.000,"PART-1-1",           276,       7.60941,  -936.337E-03,            0.,NA,NA,"",   341.669E-03,   340.309E-03,   30.4521E-03,   9.82143E-06
C:/temp/dataset/4/10_15.odb,Step-1,Increment      1: Step Time =    1.000,"PART-1-1",           277,       9.17282,      -2.25688,            0.,NA,NA,"",   323.623E-03,   323.445E-03,   10.7544E-03,   19.6352E-06
C:/temp/dataset/4/10_15.odb,Step-1,Increment      1: Step Time =    1.000,"PART-1-1",           278,       9.10690,      -3.89703,            0.,NA,NA,"",   302.871E-03,   302.642E-03,   11.7526E-03,   35.3056E-06
C:/temp/dataset/4/10_15.odb,Step-1,Increment      1: Step Time =    1.000,"PART-1-1",           279,      -7.91199,      -1.40732,            0.,NA,NA,"",   405.343E-03,   335.581E-03,   227.351E-03,   28.2280E-09
C:/temp/dataset/4/10_15.odb,Step-1,Increment      1: Step Time =    1.000,"PART-1-1",           280,      -9.83927,       21.3699,            0.,NA,NA,"",   672.814E-03,   624.657E-03,   249.965E-03,   31.4607E-12
C:/temp/dataset/4/10_15.odb,Step-1,Increment      1: Step Time =    1.000,"PART-1-1",           281,      -11.2653,       5.77953,            0.,NA,NA,"",   504.843E-03,   427.013E-03,   269.307E-03,   1.96373E-09
C:/temp/dataset/4/10_15.odb,Step-1,Increment      1: Step Time =    1.000,"PART-1-1",           282,      -11.2487,       3.84080,            0.,NA,NA,"",   484.189E-03,   402.420E-03,   269.253E-03,   1.77918E-09
C:/temp/dataset/4/10_15.odb,Step-1,Increment      1: Step Time =    1.000,"PART-1-1",           283,       3.11059,  -868.354E-03,            0.,NA,NA,"",   352.560E-03,   341.533E-03,   87.4882E-03,   1.57634E-06
C:/temp/dataset/4/10_15.odb,Step-1,Increment      1: Step Time =    1.000,"PART-1-1",           284,       4.50766,  -682.768E-03,            0.,NA,NA,"",   350.779E-03,   343.773E-03,   69.7543E-03,   2.43832E-06
C:/temp/dataset/4/10_15.odb,Step-1,Increment      1: Step Time =    1.000,"PART-1-1",           285,      -3.56662,  -854.847E-03,            0.,NA,NA,"",   383.113E-03,   342.239E-03,   172.187E-03,   236.099E-09
C:/temp/dataset/4/10_15.odb,Step-1,Increment      1: Step Time =    1.000,"PART-1-1",           286,      -7.33150,       26.6843,            0.,NA,NA,"",   725.318E-03,   691.868E-03,   217.727E-03,   28.7156E-12
C:/temp/dataset/4/10_15.odb,Step-1,Increment      1: Step Time =    1.000,"PART-1-1",           287,      -6.09303,       25.7233,            0.,NA,NA,"",   708.992E-03,   679.578E-03,   202.095E-03,   28.4243E-12
C:/temp/dataset/4/10_15.odb,Step-1,Increment      1: Step Time =    1.000,"PART-1-1",           288,           -5.,        26.875,            0.,NA,NA,"",   719.145E-03,   694.099E-03,   188.137E-03,   28.8175E-12
C:/temp/dataset/4/10_15.odb,Step-1,Increment      1: Step Time =    1.000,"PART-1-1",           289,      -6.23847,       27.8360,            0.,NA,NA,"",   735.192E-03,   706.388E-03,   203.770E-03,   29.0393E-12
C:/temp/dataset/4/10_15.odb,Step-1,Increment      1: Step Time =    1.000,"PART-1-1",           290,      -8.20013,       25.3620,            0.,NA,NA,"",   712.896E-03,   675.165E-03,   228.852E-03,   28.6745E-12
C:/temp/dataset/4/10_15.odb,Step-1,Increment      1: Step Time =    1.000,"PART-1-1",           291,      -8.98257,       24.1636,            0.,NA,NA,"",   701.922E-03,   660.026E-03,   238.873E-03,   29.0379E-12
C:/temp/dataset/4/10_15.odb,Step-1,Increment      1: Step Time =    1.000,"PART-1-1",           292,      -7.83587,       23.3915,            0.,NA,NA,"",   687.774E-03,   650.140E-03,   224.390E-03,   28.5093E-12
C:/temp/dataset/4/10_15.odb,Step-1,Increment      1: Step Time =    1.000,"PART-1-1",           293,      -7.05344,       24.5900,            0.,NA,NA,"",   698.964E-03,   665.280E-03,   214.368E-03,   28.2169E-12
C:/temp/dataset/4/10_15.odb,Step-1,Increment      1: Step Time =    1.000,"PART-1-1",           294,      -6.78951,       20.5788,            0.,NA,NA,"",   649.712E-03,   614.377E-03,   211.343E-03,   27.8692E-12
C:/temp/dataset/4/10_15.odb,Step-1,Increment      1: Step Time =    1.000,"PART-1-1",           295,      -5.89603,       19.5861,            0.,NA,NA,"",   634.110E-03,   601.714E-03,   200.090E-03,   25.3909E-12
C:/temp/dataset/4/10_15.odb,Step-1,Increment      1: Step Time =    1.000,"PART-1-1",           296,           -5.,        20.625,            0.,NA,NA,"",   643.108E-03,   614.820E-03,   188.640E-03,   24.7159E-12
C:/temp/dataset/4/10_15.odb,Step-1,Increment      1: Step Time =    1.000,"PART-1-1",           297,      -5.89348,       21.6177,            0.,NA,NA,"",   658.553E-03,   627.483E-03,   199.894E-03,   25.9525E-12
C:/temp/dataset/4/10_15.odb,Step-1,Increment      1: Step Time =    1.000,"PART-1-1",           298,      -7.97413,       13.6001,            0.,NA,NA,"",   572.818E-03,   525.950E-03,   226.931E-03,   277.972E-12
C:/temp/dataset/4/10_15.odb,Step-1,Increment      1: Step Time =    1.000,"PART-1-1",           299,      -8.98702,       12.6704,            0.,NA,NA,"",   567.425E-03,   514.238E-03,   239.854E-03,   575.982E-12
C:/temp/dataset/4/10_15.odb,Step-1,Increment      1: Step Time =    1.000,"PART-1-1",           300,      -8.00249,       11.5116,            0.,NA,NA,"",   548.815E-03,   499.461E-03,   227.459E-03,   723.550E-12
C:/temp/dataset/4/10_15.odb,Step-1,Increment      1: Step Time =    1.000,"PART-1-1",           301,      -6.98959,       12.4413,            0.,NA,NA,"",   554.367E-03,   511.172E-03,   214.536E-03,   584.369E-12
C:/temp/dataset/4/10_15.odb,Step-1,Increment      1: Step Time =    1.000,"PART-1-1",           302,      -9.95004,      -1.64066,            0.,NA,NA,"",   418.171E-03,   332.785E-03,   253.221E-03,   5.32557E-09
C:/temp/dataset/4/10_15.odb,Step-1,Increment      1: Step Time =    1.000,"PART-1-1",           303,      -11.1983,  -513.068E-03,            0.,NA,NA,"",   439.183E-03,   347.188E-03,   268.965E-03,   3.90020E-09
C:/temp/dataset/4/10_15.odb,Step-1,Increment      1: Step Time =    1.000,"PART-1-1",           304,      -12.5325,      -1.72297,            0.,NA,NA,"",   438.153E-03,   331.948E-03,   285.986E-03,   2.51045E-09
C:/temp/dataset/4/10_15.odb,Step-1,Increment      1: Step Time =    1.000,"PART-1-1",           305,      -11.2842,      -2.85056,            0.,NA,NA,"",   416.972E-03,   317.545E-03,   270.242E-03,   1.98441E-09
C:/temp/dataset/4/10_15.odb,Step-1,Increment      1: Step Time =    1.000,"PART-1-1",           306,      -10.2834,   741.336E-03,            0.,NA,NA,"",   444.938E-03,   363.026E-03,   257.258E-03,   6.82731E-09
C:/temp/dataset/4/10_15.odb,Step-1,Increment      1: Step Time =    1.000,"PART-1-1",           307,      -11.7661,       1.72477,            0.,NA,NA,"",   466.111E-03,   375.620E-03,   275.987E-03,   2.37542E-09
C:/temp/dataset/4/10_15.odb,Step-1,Increment      1: Step Time =    1.000,"PART-1-1",           308,      -12.6810,   470.366E-03,            0.,NA,NA,"",   460.663E-03,   359.782E-03,   287.693E-03,   1.41381E-09
C:/temp/dataset/4/10_15.odb,Step-1,Increment      1: Step Time =    1.000,"PART-1-1",           309,         -1.25,           -5.,            0.,NA,NA,"",   322.927E-03,   289.472E-03,   143.135E-03,   757.287E-09
C:/temp/dataset/4/10_15.odb,Step-1,Increment      1: Step Time =    1.000,"PART-1-1",           310,  -165.329E-03,      -4.13131,            0.,NA,NA,"",   327.051E-03,   300.404E-03,   129.306E-03,   695.139E-09
C:/temp/dataset/4/10_15.odb,Step-1,Increment      1: Step Time =    1.000,"PART-1-1",           311,      -1.46228,      -3.26668,            0.,NA,NA,"",   343.864E-03,   311.476E-03,   145.688E-03,   460.929E-09
C:/temp/dataset/4/10_15.odb,Step-1,Increment      1: Step Time =    1.000,"PART-1-1",           312,      -2.54695,      -4.13537,            0.,NA,NA,"",   340.253E-03,   300.544E-03,   159.517E-03,   200.912E-09
C:/temp/dataset/4/10_15.odb,Step-1,Increment      1: Step Time =    1.000,"PART-1-1",           313,   769.081E-03,      -3.16387,            0.,NA,NA,"",   333.911E-03,   312.601E-03,   117.376E-03,   1.13089E-06
C:/temp/dataset/4/10_15.odb,Step-1,Increment      1: Step Time =    1.000,"PART-1-1",           314,          1.25,           -5.,            0.,NA,NA,"",   309.986E-03,   289.268E-03,   111.422E-03,   1.33142E-06
C:/temp/dataset/4/10_15.odb,Step-1,Increment      1: Step Time =    1.000,"PART-1-1",           315,       2.18441,      -4.03256,            0.,NA,NA,"",   317.458E-03,   301.466E-03,   99.4899E-03,   2.98927E-06
C:/temp/dataset/4/10_15.odb,Step-1,Increment      1: Step Time =    1.000,"PART-1-1",           316,       1.54561,       3.01681,            0.,NA,NA,"",   405.324E-03,   390.938E-03,   107.028E-03,   262.709E-09
C:/temp/dataset/4/10_15.odb,Step-1,Increment      1: Step Time =    1.000,"PART-1-1",           317,       2.64536,       4.01417,            0.,NA,NA,"",   414.078E-03,   403.499E-03,   92.9990E-03,   597.116E-09
C:/temp/dataset/4/10_15.odb,Step-1,Increment      1: Step Time =    1.000,"PART-1-1",           318,          1.25,            5.,            0.,NA,NA,"",   430.569E-03,   416.116E-03,   110.618E-03,   780.590E-09
C:/temp/dataset/4/10_15.odb,Step-1,Increment      1: Step Time =    1.000,"PART-1-1",           319,   150.245E-03,       4.00264,            0.,NA,NA,"",   422.367E-03,   403.555E-03,   124.648E-03,   418.720E-09
C:/temp/dataset/4/10_15.odb,Step-1,Increment      1: Step Time =    1.000,"PART-1-1",           320,   179.474E-03,      -1.21124,            0.,NA,NA,"",   359.723E-03,   337.418E-03,   124.697E-03,   630.900E-09
C:/temp/dataset/4/10_15.odb,Step-1,Increment      1: Step Time =    1.000,"PART-1-1",           321,  -580.901E-03,      -2.30818,            0.,NA,NA,"",   350.379E-03,   323.564E-03,   134.431E-03,   481.654E-09
C:/temp/dataset/4/10_15.odb,Step-1,Increment      1: Step Time =    1.000,"PART-1-1",           322,       1.52946,      -2.06693,            0.,NA,NA,"",   343.744E-03,   326.456E-03,   107.642E-03,   1.07526E-06
C:/temp/dataset/4/10_15.odb,Step-1,Increment      1: Step Time =    1.000,"PART-1-1",           323,       12.7868,      -3.71378,            0.,NA,NA,"",   306.735E-03,   304.733E-03,  -34.9855E-03,   28.5829E-06
C:/temp/dataset/4/10_15.odb,Step-1,Increment      1: Step Time =    1.000,"PART-1-1",           324,       13.8814,      -5.00619,            0.,NA,NA,"",   292.363E-03,   288.259E-03,  -48.8145E-03,   33.9743E-06
C:/temp/dataset/4/10_15.odb,Step-1,Increment      1: Step Time =    1.000,"PART-1-1",           325,           15.,         -3.75,            0.,NA,NA,"",   310.560E-03,   304.084E-03,  -63.0897E-03,   30.4317E-06
C:/temp/dataset/4/10_15.odb,Step-1,Increment      1: Step Time =    1.000,"PART-1-1",           326,       13.9054,      -2.45760,            0.,NA,NA,"",   324.327E-03,   320.560E-03,  -49.2872E-03,   12.9282E-06
C:/temp/dataset/4/10_15.odb,Step-1,Increment      1: Step Time =    1.000,"PART-1-1",           327,       5.10003,      -1.40311,            0.,NA,NA,"",   340.338E-03,   334.587E-03,   62.2985E-03,   5.81375E-06
C:/temp/dataset/4/10_15.odb,Step-1,Increment      1: Step Time =    1.000,"PART-1-1",           328,       3.80913,  -775.561E-03,            0.,NA,NA,"",   351.557E-03,   342.653E-03,   78.6211E-03,   2.09615E-06
C:/temp/dataset/4/10_15.odb,Step-1,Increment      1: Step Time =    1.000,"PART-1-1",           329,       3.52110,      -1.80919,            0.,NA,NA,"",   339.699E-03,   329.565E-03,   82.3556E-03,   2.59692E-06
C:/temp/dataset/4/10_15.odb,Step-1,Increment      1: Step Time =    1.000,"PART-1-1",           330,       4.81200,      -2.43673,            0.,NA,NA,"",   328.209E-03,   321.498E-03,   66.0300E-03,   5.66960E-06
C:/temp/dataset/4/10_15.odb,Step-1,Increment      1: Step Time =    1.000,"PART-1-1",           331,           15.,          3.75,            0.,NA,NA,"",   404.203E-03,   399.160E-03,  -63.6495E-03,   111.286E-09
C:/temp/dataset/4/10_15.odb,Step-1,Increment      1: Step Time =    1.000,"PART-1-1",           332,       13.8386,       5.14064,            0.,NA,NA,"",   419.760E-03,   416.886E-03,  -49.0354E-03,   132.631E-09
C:/temp/dataset/4/10_15.odb,Step-1,Increment      1: Step Time =    1.000,"PART-1-1",           333,       12.6076,       4.00525,            0.,NA,NA,"",   403.966E-03,   402.589E-03,  -33.3340E-03,   858.250E-09
C:/temp/dataset/4/10_15.odb,Step-1,Increment      1: Step Time =    1.000,"PART-1-1",           334,       13.7689,       2.61462,            0.,NA,NA,"",   387.839E-03,   384.863E-03,  -47.9490E-03,   794.652E-09
C:/temp/dataset/4/10_15.odb,Step-1,Increment      1: Step Time =    1.000,"PART-1-1",           335,       9.76439,       8.40859,            0.,NA,NA,"",   458.659E-03,   458.653E-03,   2.36531E-03,   96.8240E-09
C:/temp/dataset/4/10_15.odb,Step-1,Increment      1: Step Time =    1.000,"PART-1-1",           336,       8.59642,       7.53369,            0.,NA,NA,"",   447.985E-03,   447.652E-03,   17.2464E-03,   87.6455E-09
C:/temp/dataset/4/10_15.odb,Step-1,Increment      1: Step Time =    1.000,"PART-1-1",           337,       9.44563,       6.06261,            0.,NA,NA,"",   428.981E-03,   428.930E-03,   6.59599E-03,   188.873E-09
C:/temp/dataset/4/10_15.odb,Step-1,Increment      1: Step Time =    1.000,"PART-1-1",           338,       10.6136,       6.93751,            0.,NA,NA,"",   440.008E-03,   439.930E-03,  -8.28509E-03,   113.403E-09
C:/temp/dataset/4/10_15.odb,Step-1,Increment      1: Step Time =    1.000,"PART-1-1",           339,       5.92452,       9.07762,            0.,NA,NA,"",   470.220E-03,   467.446E-03,   51.0044E-03,   92.0709E-09
C:/temp/dataset/4/10_15.odb,Step-1,Increment      1: Step Time =    1.000,"PART-1-1",           340,            5.,         8.125,            0.,NA,NA,"",   459.750E-03,   455.440E-03,   62.8048E-03,   192.046E-09
C:/temp/dataset/4/10_15.odb,Step-1,Increment      1: Step Time =    1.000,"PART-1-1",           341,       5.83838,       7.03541,            0.,NA,NA,"",   444.638E-03,   441.556E-03,   52.2611E-03,   145.476E-09
C:/temp/dataset/4/10_15.odb,Step-1,Increment      1: Step Time =    1.000,"PART-1-1",           342,       6.76290,       7.98803,            0.,NA,NA,"",   455.362E-03,   453.561E-03,   40.4606E-03,   77.1669E-09
C:/temp/dataset/4/10_15.odb,Step-1,Increment      1: Step Time =    1.000,"PART-1-1",           343,       6.00358,       15.4027,            0.,NA,NA,"",   549.877E-03,   547.645E-03,   49.4932E-03,   5.36395E-09
C:/temp/dataset/4/10_15.odb,Step-1,Increment      1: Step Time =    1.000,"PART-1-1",           344,            5.,        14.375,            0.,NA,NA,"",   538.312E-03,   534.694E-03,   62.3019E-03,   10.5041E-09
C:/temp/dataset/4/10_15.odb,Step-1,Increment      1: Step Time =    1.000,"PART-1-1",           345,       5.99171,       13.2884,            0.,NA,NA,"",   523.213E-03,   520.836E-03,   49.8137E-03,   17.3545E-09
C:/temp/dataset/4/10_15.odb,Step-1,Increment      1: Step Time =    1.000,"PART-1-1",           346,       6.99529,       14.3161,            0.,NA,NA,"",   535.068E-03,   533.787E-03,   37.0049E-03,   17.5849E-09
C:/temp/dataset/4/10_15.odb,Step-1,Increment      1: Step Time =    1.000,"PART-1-1",           347,       11.7328,       24.6815,            0.,NA,NA,"",   665.277E-03,   664.847E-03,  -23.9032E-03,   169.745E-12
C:/temp/dataset/4/10_15.odb,Step-1,Increment      1: Step Time =    1.000,"PART-1-1",           348,       12.6496,       26.1279,            0.,NA,NA,"",   684.044E-03,   683.114E-03,  -35.6452E-03,   129.807E-12
C:/temp/dataset/4/10_15.odb,Step-1,Increment      1: Step Time =    1.000,"PART-1-1",           349,       11.2054,       27.2635,            0.,NA,NA,"",   697.848E-03,   697.631E-03,  -17.4239E-03,   72.9573E-12
C:/temp/dataset/4/10_15.odb,Step-1,Increment      1: Step Time =    1.000,"PART-1-1",           350,       10.2886,       25.8171,            0.,NA,NA,"",   679.387E-03,   679.364E-03,  -5.68190E-03,   136.223E-12
C:/temp/dataset/4/10_15.odb,Step-1,Increment      1: Step Time =    1.000,"PART-1-1",           351,       12.5134,       28.7000,            0.,NA,NA,"",   716.555E-03,   715.742E-03,  -34.1253E-03,   54.0115E-12
C:/temp/dataset/4/10_15.odb,Step-1,Increment      1: Step Time =    1.000,"PART-1-1",           352,       13.7634,       27.4500,            0.,NA,NA,"",   701.566E-03,   699.791E-03,  -49.8757E-03,   52.6811E-12
C:/temp/dataset/4/10_15.odb,Step-1,Increment      1: Step Time =    1.000,"PART-1-1",           353,           15.,         28.75,            0.,NA,NA,"",   719.180E-03,   716.176E-03,  -65.6612E-03,   22.4951E-12
C:/temp/dataset/4/10_15.odb,Step-1,Increment      1: Step Time =    1.000,"PART-1-1",           354,         13.75,           30.,            0.,NA,NA,"",   733.827E-03,   732.127E-03,  -49.9108E-03,   20.3880E-12
C:/temp/dataset/4/10_15.odb,Step-1,Increment      1: Step Time =    1.000,"PART-1-1",           355,      -3.83569,      -2.96698,            0.,NA,NA,"",   361.131E-03,   315.469E-03,   175.770E-03,   208.417E-09
C:/temp/dataset/4/10_15.odb,Step-1,Increment      1: Step Time =    1.000,"PART-1-1",           356,      -2.47303,      -2.56070,            0.,NA,NA,"",   357.541E-03,   320.513E-03,   158.452E-03,   268.980E-09
C:/temp/dataset/4/10_15.odb,Step-1,Increment      1: Step Time =    1.000,"PART-1-1",           357,      -2.95938,      -1.35275,            0.,NA,NA,"",   374.005E-03,   335.875E-03,   164.524E-03,   272.878E-09
C:/temp/dataset/4/10_15.odb,Step-1,Increment      1: Step Time =    1.000,"PART-1-1",           358,      -4.32205,      -1.75903,            0.,NA,NA,"",   377.512E-03,   330.831E-03,   181.842E-03,   140.538E-09
C:/temp/dataset/4/10_15.odb,Step-1,Increment      1: Step Time =    1.000,"PART-1-1",           359,       8.60967,      -7.25473,            0.,NA,NA,"",   260.768E-03,   260.115E-03,   18.4385E-03,   51.9089E-06
C:/temp/dataset/4/10_15.odb,Step-1,Increment      1: Step Time =    1.000,"PART-1-1",           360,       7.51358,      -6.44375,            0.,NA,NA,"",   272.347E-03,   270.441E-03,   32.1634E-03,   54.9473E-06
C:/temp/dataset/4/10_15.odb,Step-1,Increment      1: Step Time =    1.000,"PART-1-1",           361,       6.75300,      -7.77251,            0.,NA,NA,"",   257.142E-03,   253.714E-03,   41.8431E-03,   62.0611E-06
C:/temp/dataset/4/10_15.odb,Step-1,Increment      1: Step Time =    1.000,"PART-1-1",           362,       7.84909,      -8.58350,            0.,NA,NA,"",   245.059E-03,   243.433E-03,   28.1806E-03,   71.8778E-06
C:/temp/dataset/4/10_15.odb,Step-1,Increment      1: Step Time =    1.000,"PART-1-1",           363,       7.07130,      -14.2100,            0.,NA,NA,"",   176.275E-03,   172.546E-03,   36.0638E-03,   1.77968E-03
C:/temp/dataset/4/10_15.odb,Step-1,Increment      1: Step Time =    1.000,"PART-1-1",           364,       6.02882,      -13.2279,            0.,NA,NA,"",   193.750E-03,   187.204E-03,   49.9370E-03,   1.50414E-03
C:/temp/dataset/4/10_15.odb,Step-1,Increment      1: Step Time =    1.000,"PART-1-1",           365,            5.,       -14.375,            0.,NA,NA,"",   184.310E-03,   173.241E-03,   62.9103E-03,   1.44126E-03
C:/temp/dataset/4/10_15.odb,Step-1,Increment      1: Step Time =    1.000,"PART-1-1",           366,       6.04247,      -15.3570,            0.,NA,NA,"",   165.239E-03,   158.034E-03,   48.2625E-03,   1.82163E-03
C:/temp/dataset/4/10_15.odb,Step-1,Increment      1: Step Time =    1.000,"PART-1-1",           367,       7.02995,      -12.0379,            0.,NA,NA,"",   204.631E-03,   201.049E-03,   38.1211E-03,   1.12276E-03
C:/temp/dataset/4/10_15.odb,Step-1,Increment      1: Step Time =    1.000,"PART-1-1",           368,       6.00113,      -11.1016,            0.,NA,NA,"",   219.349E-03,   213.246E-03,   51.3834E-03,   770.356E-06
C:/temp/dataset/4/10_15.odb,Step-1,Increment      1: Step Time =    1.000,"PART-1-1",           369,            5.,      -12.2917,            0.,NA,NA,"",   210.176E-03,   200.471E-03,   63.1269E-03,   1.26774E-03
C:/temp/dataset/4/10_15.odb,Step-1,Increment      1: Step Time =    1.000,"PART-1-1",           370,            5.,      -22.7083,            0.,NA,NA,"",   73.5280E-03,   58.4499E-03,   44.6091E-03,   4.77887E-03
C:/temp/dataset/4/10_15.odb,Step-1,Increment      1: Step Time =    1.000,"PART-1-1",           371,       6.05922,      -23.7899,            0.,NA,NA,"",   53.6496E-03,   44.6536E-03,   29.7377E-03,   4.29366E-03
C:/temp/dataset/4/10_15.odb,Step-1,Increment      1: Step Time =    1.000,"PART-1-1",           372,       7.11013,      -22.7834,            0.,NA,NA,"",   58.8209E-03,   53.9483E-03,   23.4411E-03,   3.18313E-03
C:/temp/dataset/4/10_15.odb,Step-1,Increment      1: Step Time =    1.000,"PART-1-1",           373,       6.05091,      -21.7018,            0.,NA,NA,"",   77.4626E-03,   68.1959E-03,   36.7391E-03,   3.41333E-03
C:/temp/dataset/4/10_15.odb,Step-1,Increment      1: Step Time =    1.000,"PART-1-1",           374,          8.75,          -30.,            0.,NA,NA,"",            0.,   404.439E-42,   2.97013E-39,   1.51553E-03
C:/temp/dataset/4/10_15.odb,Step-1,Increment      1: Step Time =    1.000,"PART-1-1",           375,       9.84988,      -28.9274,            0.,NA,NA,"",   2.07747E-03,   2.07312E-03,   134.311E-06,   1.35706E-03
C:/temp/dataset/4/10_15.odb,Step-1,Increment      1: Step Time =    1.000,"PART-1-1",           376,       8.52411,      -27.9095,            0.,NA,NA,"",   7.82253E-03,   7.07977E-03,   3.32699E-03,   3.03578E-03
C:/temp/dataset/4/10_15.odb,Step-1,Increment      1: Step Time =    1.000,"PART-1-1",           377,       7.42422,      -28.9821,            0.,NA,NA,"",   3.81414E-03,   2.55586E-03,   2.83112E-03,   3.62568E-03
C:/temp/dataset/4/10_15.odb,Step-1,Increment      1: Step Time =    1.000,"PART-1-1",           378,       10.1104,      -23.9794,            0.,NA,NA,"",   38.8389E-03,   38.8290E-03,  -879.383E-06,   2.43566E-03
C:/temp/dataset/4/10_15.odb,Step-1,Increment      1: Step Time =    1.000,"PART-1-1",           379,       11.1261,      -23.0268,            0.,NA,NA,"",   50.3277E-03,   49.5561E-03,  -8.77901E-03,   2.67345E-03
C:/temp/dataset/4/10_15.odb,Step-1,Increment      1: Step Time =    1.000,"PART-1-1",           380,       10.1523,      -21.9025,            0.,NA,NA,"",   62.6644E-03,   62.6435E-03,  -1.61823E-03,   2.43310E-03
C:/temp/dataset/4/10_15.odb,Step-1,Increment      1: Step Time =    1.000,"PART-1-1",           381,       9.13660,      -22.8552,            0.,NA,NA,"",   51.8431E-03,   51.4366E-03,   6.47944E-03,   2.56386E-03
C:/temp/dataset/4/10_15.odb,Step-1,Increment      1: Step Time =    1.000,"PART-1-1",           382,       7.09296,      -18.5383,            0.,NA,NA,"",   113.816E-03,   109.490E-03,   31.0798E-03,   2.42567E-03
C:/temp/dataset/4/10_15.odb,Step-1,Increment      1: Step Time =    1.000,"PART-1-1",           383,       6.04465,      -17.4814,            0.,NA,NA,"",   134.322E-03,   126.421E-03,   45.3883E-03,   2.26970E-03
C:/temp/dataset/4/10_15.odb,Step-1,Increment      1: Step Time =    1.000,"PART-1-1",           384,            5.,      -18.5417,            0.,NA,NA,"",   125.807E-03,   111.510E-03,   58.2495E-03,   2.58108E-03
C:/temp/dataset/4/10_15.odb,Step-1,Increment      1: Step Time =    1.000,"PART-1-1",           385,       6.04831,      -19.5985,            0.,NA,NA,"",   104.259E-03,   95.4180E-03,   42.0162E-03,   2.50671E-03
C:/temp/dataset/4/10_15.odb,Step-1,Increment      1: Step Time =    1.000,"PART-1-1",           386,       8.88188,       22.9635,            0.,NA,NA,"",   643.409E-03,   643.290E-03,   12.3863E-03,   225.093E-12
C:/temp/dataset/4/10_15.odb,Step-1,Increment      1: Step Time =    1.000,"PART-1-1",           387,       9.93448,       22.0483,            0.,NA,NA,"",   631.602E-03,   631.601E-03,  -887.924E-06,   250.832E-12
C:/temp/dataset/4/10_15.odb,Step-1,Increment      1: Step Time =    1.000,"PART-1-1",           388,       10.8087,       23.3359,            0.,NA,NA,"",   647.971E-03,   647.859E-03,  -12.0767E-03,   221.533E-12
C:/temp/dataset/4/10_15.odb,Step-1,Increment      1: Step Time =    1.000,"PART-1-1",           389,       9.75606,       24.2511,            0.,NA,NA,"",   659.549E-03,   659.548E-03,   1.19752E-03,   192.797E-12
C:/temp/dataset/4/10_15.odb,Step-1,Increment      1: Step Time =    1.000,"PART-1-1",           390,       10.0218,       17.5512,            0.,NA,NA,"",   574.569E-03,   574.567E-03,  -1.63353E-03,   3.10320E-09
C:/temp/dataset/4/10_15.odb,Step-1,Increment      1: Step Time =    1.000,"PART-1-1",           391,       9.00837,       16.4411,            0.,NA,NA,"",   560.686E-03,   560.572E-03,   11.3067E-03,   7.64573E-09
C:/temp/dataset/4/10_15.odb,Step-1,Increment      1: Step Time =    1.000,"PART-1-1",           392,       10.0249,       15.2736,            0.,NA,NA,"",   545.688E-03,   545.686E-03,  -1.48929E-03,   11.2068E-09
C:/temp/dataset/4/10_15.odb,Step-1,Increment      1: Step Time =    1.000,"PART-1-1",           393,       11.0383,       16.3837,            0.,NA,NA,"",   559.867E-03,   559.681E-03,  -14.4295E-03,   7.95601E-09
C:/temp/dataset/4/10_15.odb,Step-1,Increment      1: Step Time =    1.000,"PART-1-1",           394,      -14.0638,       5.89996,            0.,NA,NA,"",   526.062E-03,   428.766E-03,   304.797E-03,   2.68046E-09
C:/temp/dataset/4/10_15.odb,Step-1,Increment      1: Step Time =    1.000,"PART-1-1",           395,      -13.1194,       6.91794,            0.,NA,NA,"",   529.818E-03,   441.603E-03,   292.735E-03,   1.89929E-09
C:/temp/dataset/4/10_15.odb,Step-1,Increment      1: Step Time =    1.000,"PART-1-1",           396,      -14.0556,       8.04923,            0.,NA,NA,"",   548.356E-03,   456.028E-03,   304.519E-03,   1.63904E-09
C:/temp/dataset/4/10_15.odb,Step-1,Increment      1: Step Time =    1.000,"PART-1-1",           397,          -15.,       7.03125,            0.,NA,NA,"",   544.649E-03,   443.192E-03,   316.581E-03,   2.95488E-09
C:/temp/dataset/4/10_15.odb,Step-1,Increment      1: Step Time =    1.000,"PART-1-1",           398,      -14.0181,       12.3521,            0.,NA,NA,"",   594.096E-03,   510.606E-03,   303.697E-03,   296.490E-12
C:/temp/dataset/4/10_15.odb,Step-1,Increment      1: Step Time =    1.000,"PART-1-1",           399,      -13.0189,       13.2775,            0.,NA,NA,"",   597.839E-03,   522.264E-03,   290.949E-03,   320.196E-12
C:/temp/dataset/4/10_15.odb,Step-1,Increment      1: Step Time =    1.000,"PART-1-1",           400,      -14.0008,       14.5192,            0.,NA,NA,"",   617.688E-03,   538.094E-03,   303.304E-03,   88.9193E-12
C:/temp/dataset/4/10_15.odb,Step-1,Increment      1: Step Time =    1.000,"PART-1-1",           401,          -15.,       13.5938,            0.,NA,NA,"",   614.022E-03,   526.435E-03,   316.053E-03,   142.280E-12
C:/temp/dataset/4/10_15.odb,Step-1,Increment      1: Step Time =    1.000,"PART-1-1",           402,      -10.1942,       21.9572,            0.,NA,NA,"",   681.415E-03,   632.137E-03,   254.419E-03,   30.8713E-12
C:/temp/dataset/4/10_15.odb,Step-1,Increment      1: Step Time =    1.000,"PART-1-1",           403,      -9.14995,       21.4132,            0.,NA,NA,"",   670.075E-03,   625.152E-03,   241.218E-03,   30.8546E-12
C:/temp/dataset/4/10_15.odb,Step-1,Increment      1: Step Time =    1.000,"PART-1-1",           404,      -8.60578,       22.3365,            0.,NA,NA,"",   678.533E-03,   636.819E-03,   234.241E-03,   29.7531E-12
C:/temp/dataset/4/10_15.odb,Step-1,Increment      1: Step Time =    1.000,"PART-1-1",           405,      -9.65000,       22.8805,            0.,NA,NA,"",   689.718E-03,   643.804E-03,   247.442E-03,   29.6011E-12
C:/temp/dataset/4/10_15.odb,Step-1,Increment      1: Step Time =    1.000,"PART-1-1",           406,      -14.0213,       25.7108,            0.,NA,NA,"",   744.367E-03,   680.057E-03,   302.663E-03,   29.0801E-12
C:/temp/dataset/4/10_15.odb,Step-1,Increment      1: Step Time =    1.000,"PART-1-1",           407,      -12.8802,       26.8172,            0.,NA,NA,"",   751.424E-03,   694.000E-03,   288.100E-03,   29.0587E-12
C:/temp/dataset/4/10_15.odb,Step-1,Increment      1: Step Time =    1.000,"PART-1-1",           408,      -13.8589,       27.8252,            0.,NA,NA,"",   768.062E-03,   706.865E-03,   300.433E-03,   29.4423E-12
C:/temp/dataset/4/10_15.odb,Step-1,Increment      1: Step Time =    1.000,"PART-1-1",           409,          -15.,       26.7188,            0.,NA,NA,"",   761.159E-03,   692.922E-03,   314.997E-03,   29.4290E-12
C:/temp/dataset/4/10_15.odb,Step-1,Increment      1: Step Time =    1.000,"PART-1-1",           410,        -13.75,           30.,            0.,NA,NA,"",   792.927E-03,   734.443E-03,   298.877E-03,   29.4535E-12
C:/temp/dataset/4/10_15.odb,Step-1,Increment      1: Step Time =    1.000,"PART-1-1",           411,          -15.,       28.9063,            0.,NA,NA,"",   786.433E-03,   720.669E-03,   314.821E-03,   29.9142E-12
C:/temp/dataset/4/10_15.odb,Step-1,Increment      1: Step Time =    1.000,"PART-1-1",           412,      -12.6089,       28.9190,            0.,NA,NA,"",   774.761E-03,   720.638E-03,   284.490E-03,   29.0192E-12
C:/temp/dataset/4/10_15.odb,Step-1,Increment      1: Step Time =    1.000,"PART-1-1",           413,      -11.4362,       27.6040,            0.,NA,NA,"",   753.772E-03,   703.864E-03,   269.720E-03,   29.0192E-12
C:/temp/dataset/4/10_15.odb,Step-1,Increment      1: Step Time =    1.000,"PART-1-1",           414,      -10.0773,       28.6850,            0.,NA,NA,"",   760.567E-03,   717.467E-03,   252.395E-03,   28.8408E-12
C:/temp/dataset/4/10_15.odb,Step-1,Increment      1: Step Time =    1.000,"PART-1-1",           415,        -11.25,           30.,            0.,NA,NA,"",   781.337E-03,   734.242E-03,   267.165E-03,   28.8410E-12
C:/temp/dataset/4/10_15.odb,Step-1,Increment      1: Step Time =    1.000,"PART-1-1",           416,      -13.7240,       21.2404,            0.,NA,NA,"",   691.439E-03,   623.327E-03,   299.252E-03,   27.2607E-12
C:/temp/dataset/4/10_15.odb,Step-1,Increment      1: Step Time =    1.000,"PART-1-1",           417,      -12.6979,       22.4429,            0.,NA,NA,"",   699.683E-03,   638.499E-03,   286.139E-03,   29.1567E-12
C:/temp/dataset/4/10_15.odb,Step-1,Increment      1: Step Time =    1.000,"PART-1-1",           418,      -13.9739,       23.5463,            0.,NA,NA,"",   719.188E-03,   652.598E-03,   302.236E-03,   28.1846E-12
C:/temp/dataset/4/10_15.odb,Step-1,Increment      1: Step Time =    1.000,"PART-1-1",           419,          -15.,       22.3438,            0.,NA,NA,"",   711.166E-03,   637.426E-03,   315.349E-03,   26.6536E-12
C:/temp/dataset/4/10_15.odb,Step-1,Increment      1: Step Time =    1.000,"PART-1-1",           420,      -11.9375,       16.3352,            0.,NA,NA,"",   625.620E-03,   560.963E-03,   276.985E-03,   64.7228E-12
C:/temp/dataset/4/10_15.odb,Step-1,Increment      1: Step Time =    1.000,"PART-1-1",           421,      -10.8584,       17.1847,            0.,NA,NA,"",   629.345E-03,   571.652E-03,   263.229E-03,   58.9671E-12
C:/temp/dataset/4/10_15.odb,Step-1,Increment      1: Step Time =    1.000,"PART-1-1",           422,      -11.8099,       18.4796,            0.,NA,NA,"",   649.351E-03,   588.154E-03,   275.194E-03,   35.6733E-12
C:/temp/dataset/4/10_15.odb,Step-1,Increment      1: Step Time =    1.000,"PART-1-1",           423,      -12.8889,       17.6301,            0.,NA,NA,"",   645.723E-03,   577.465E-03,   288.950E-03,   38.9568E-12
C:/temp/dataset/4/10_15.odb,Step-1,Increment      1: Step Time =    1.000,"PART-1-1",           424,      -9.98079,       13.8692,            0.,NA,NA,"",   586.587E-03,   529.525E-03,   252.363E-03,   264.276E-12
C:/temp/dataset/4/10_15.odb,Step-1,Increment      1: Step Time =    1.000,"PART-1-1",           425,      -11.0142,       12.9724,            0.,NA,NA,"",   582.304E-03,   518.232E-03,   265.544E-03,   461.351E-12
C:/temp/dataset/4/10_15.odb,Step-1,Increment      1: Step Time =    1.000,"PART-1-1",           426,      -10.0204,       11.7735,            0.,NA,NA,"",   563.010E-03,   502.945E-03,   253.035E-03,   698.649E-12
C:/temp/dataset/4/10_15.odb,Step-1,Increment      1: Step Time =    1.000,"PART-1-1",           427,      -6.95613,       14.5250,            0.,NA,NA,"",   578.607E-03,   537.600E-03,   213.944E-03,   179.149E-12
C:/temp/dataset/4/10_15.odb,Step-1,Increment      1: Step Time =    1.000,"PART-1-1",           428,      -5.98929,       13.4097,            0.,NA,NA,"",   560.921E-03,   523.375E-03,   201.769E-03,   170.375E-12
C:/temp/dataset/4/10_15.odb,Step-1,Increment      1: Step Time =    1.000,"PART-1-1",           429,           -5.,        14.375,            0.,NA,NA,"",   567.960E-03,   535.540E-03,   189.143E-03,   78.0777E-12
C:/temp/dataset/4/10_15.odb,Step-1,Increment      1: Step Time =    1.000,"PART-1-1",           430,      -5.96684,       15.4903,            0.,NA,NA,"",   585.466E-03,   549.765E-03,   201.317E-03,   50.7204E-12
C:/temp/dataset/4/10_15.odb,Step-1,Increment      1: Step Time =    1.000,"PART-1-1",           431,      -11.0581,       10.8707,            0.,NA,NA,"",   559.060E-03,   491.577E-03,   266.269E-03,   1.02824E-09
C:/temp/dataset/4/10_15.odb,Step-1,Increment      1: Step Time =    1.000,"PART-1-1",           432,      -10.0579,       9.67932,            0.,NA,NA,"",   539.717E-03,   476.384E-03,   253.679E-03,   1.40784E-09
C:/temp/dataset/4/10_15.odb,Step-1,Increment      1: Step Time =    1.000,"PART-1-1",           433,      -9.02030,       10.5821,            0.,NA,NA,"",   543.797E-03,   487.752E-03,   240.444E-03,   1.28794E-09
C:/temp/dataset/4/10_15.odb,Step-1,Increment      1: Step Time =    1.000,"PART-1-1",           434,      -7.04064,       8.20966,            0.,NA,NA,"",   505.723E-03,   457.499E-03,   215.524E-03,   3.52276E-09
C:/temp/dataset/4/10_15.odb,Step-1,Increment      1: Step Time =    1.000,"PART-1-1",           435,      -6.03068,       7.10065,            0.,NA,NA,"",   487.533E-03,   443.350E-03,   202.802E-03,   5.51358E-09
C:/temp/dataset/4/10_15.odb,Step-1,Increment      1: Step Time =    1.000,"PART-1-1",           436,           -5.,         8.125,            0.,NA,NA,"",   494.105E-03,   456.261E-03,   189.646E-03,   3.70394E-09
C:/temp/dataset/4/10_15.odb,Step-1,Increment      1: Step Time =    1.000,"PART-1-1",           437,      -6.00996,       9.23401,            0.,NA,NA,"",   512.092E-03,   470.410E-03,   202.368E-03,   1.62625E-09
C:/temp/dataset/4/10_15.odb,Step-1,Increment      1: Step Time =    1.000,"PART-1-1",           438,      -13.0926,       9.02789,            0.,NA,NA,"",   552.052E-03,   468.365E-03,   292.225E-03,   1.40835E-09
C:/temp/dataset/4/10_15.odb,Step-1,Increment      1: Step Time =    1.000,"PART-1-1",           439,      -14.0370,       10.1974,            0.,NA,NA,"",   570.998E-03,   483.276E-03,   304.111E-03,   790.083E-12
C:/temp/dataset/4/10_15.odb,Step-1,Increment      1: Step Time =    1.000,"PART-1-1",           440,          -15.,       9.21875,            0.,NA,NA,"",   567.359E-03,   470.939E-03,   316.405E-03,   1.46660E-09
C:/temp/dataset/4/10_15.odb,Step-1,Increment      1: Step Time =    1.000,"PART-1-1",           441,      -13.9055,       1.56280,            0.,NA,NA,"",   481.219E-03,   373.738E-03,   303.137E-03,   2.87482E-09
C:/temp/dataset/4/10_15.odb,Step-1,Increment      1: Step Time =    1.000,"PART-1-1",           442,      -12.9296,       2.64306,            0.,NA,NA,"",   484.293E-03,   387.362E-03,   290.672E-03,   986.611E-12
C:/temp/dataset/4/10_15.odb,Step-1,Increment      1: Step Time =    1.000,"PART-1-1",           443,      -14.0241,       3.73651,            0.,NA,NA,"",   503.744E-03,   401.320E-03,   304.467E-03,   3.25434E-09
C:/temp/dataset/4/10_15.odb,Step-1,Increment      1: Step Time =    1.000,"PART-1-1",           444,          -15.,       2.65625,            0.,NA,NA,"",   500.754E-03,   387.696E-03,   316.933E-03,   5.30969E-09
C:/temp/dataset/4/10_15.odb,Step-1,Increment      1: Step Time =    1.000,"PART-1-1",           445,      -13.7570,      -2.81804,            0.,NA,NA,"",   438.394E-03,   318.156E-03,   301.605E-03,   1.91183E-09
C:/temp/dataset/4/10_15.odb,Step-1,Increment      1: Step Time =    1.000,"PART-1-1",           446,      -13.7756,  -623.683E-03,            0.,NA,NA,"",   459.035E-03,   345.993E-03,   301.665E-03,   2.35580E-09
C:/temp/dataset/4/10_15.odb,Step-1,Increment      1: Step Time =    1.000,"PART-1-1",           447,          -15.,      -1.71875,            0.,NA,NA,"",   459.377E-03,   332.200E-03,   317.285E-03,   2.98730E-09
C:/temp/dataset/4/10_15.odb,Step-1,Increment      1: Step Time =    1.000,"PART-1-1",           448,        -13.75,           -5.,            0.,NA,NA,"",   418.803E-03,   290.478E-03,   301.693E-03,   1.07717E-09
C:/temp/dataset/4/10_15.odb,Step-1,Increment      1: Step Time =    1.000,"PART-1-1",           449,      -12.5070,      -3.91179,            0.,NA,NA,"",   417.408E-03,   304.182E-03,   285.838E-03,   2.35655E-09
C:/temp/dataset/4/10_15.odb,Step-1,Increment      1: Step Time =    1.000,"PART-1-1",           450,          -15.,      -3.90625,            0.,NA,NA,"",   439.855E-03,   304.453E-03,   317.461E-03,   760.966E-12
C:/temp/dataset/4/10_15.odb,Step-1,Increment      1: Step Time =    1.000,"PART-1-1",           451,          -15.,    468.75E-03,            0.,NA,NA,"",   479.709E-03,   359.948E-03,   317.109E-03,   4.84579E-09
C:/temp/dataset/4/10_15.odb,Step-1,Increment      1: Step Time =    1.000,"PART-1-1",           452,      -5.10506,       2.56414,            0.,NA,NA,"",   430.619E-03,   385.732E-03,   191.426E-03,   93.9159E-09
C:/temp/dataset/4/10_15.odb,Step-1,Increment      1: Step Time =    1.000,"PART-1-1",           453,      -4.59209,       3.94539,            0.,NA,NA,"",   443.546E-03,   403.211E-03,   184.808E-03,   73.8864E-09
C:/temp/dataset/4/10_15.odb,Step-1,Increment      1: Step Time =    1.000,"PART-1-1",           454,      -6.09775,       4.77703,            0.,NA,NA,"",   461.355E-03,   413.881E-03,   203.840E-03,   25.8705E-09
C:/temp/dataset/4/10_15.odb,Step-1,Increment      1: Step Time =    1.000,"PART-1-1",           455,      -6.61072,       3.39578,            0.,NA,NA,"",   448.806E-03,   396.402E-03,   210.458E-03,   31.6658E-09
C:/temp/dataset/4/10_15.odb,Step-1,Increment      1: Step Time =    1.000,"PART-1-1",           456,       9.44090,      -5.60228,            0.,NA,NA,"",   281.105E-03,   280.999E-03,   7.71458E-03,   50.0852E-06
C:/temp/dataset/4/10_15.odb,Step-1,Increment      1: Step Time =    1.000,"PART-1-1",           457,       9.79564,      -4.46986,            0.,NA,NA,"",   295.355E-03,   295.339E-03,   3.08646E-03,   37.6328E-06
C:/temp/dataset/4/10_15.odb,Step-1,Increment      1: Step Time =    1.000,"PART-1-1",           458,       8.43936,      -4.09444,            0.,NA,NA,"",   300.858E-03,   300.177E-03,   20.2256E-03,   34.2664E-06
C:/temp/dataset/4/10_15.odb,Step-1,Increment      1: Step Time =    1.000,"PART-1-1",           459,       8.08462,      -5.22686,            0.,NA,NA,"",   286.908E-03,   285.832E-03,   24.8303E-03,   47.0321E-06
C:/temp/dataset/4/10_15.odb,Step-1,Increment      1: Step Time =    1.000,"PART-1-1",           460,       6.93926,      -9.88629,            0.,NA,NA,"",   230.887E-03,   227.451E-03,   39.6868E-03,   288.556E-06
C:/temp/dataset/4/10_15.odb,Step-1,Increment      1: Step Time =    1.000,"PART-1-1",           461,       5.93813,      -8.99303,            0.,NA,NA,"",   244.151E-03,   238.548E-03,   52.0056E-03,   162.399E-06
C:/temp/dataset/4/10_15.odb,Step-1,Increment      1: Step Time =    1.000,"PART-1-1",           462,            5.,      -10.2083,            0.,NA,NA,"",   232.564E-03,   223.782E-03,   63.3082E-03,   268.667E-06
C:/temp/dataset/4/10_15.odb,Step-1,Increment      1: Step Time =    1.000,"PART-1-1",           463,       12.9852,      -11.3613,            0.,NA,NA,"",   209.993E-03,   206.720E-03,  -36.9310E-03,   263.842E-06
C:/temp/dataset/4/10_15.odb,Step-1,Increment      1: Step Time =    1.000,"PART-1-1",           464,       14.0059,      -12.5461,            0.,NA,NA,"",   197.289E-03,   190.860E-03,  -49.9523E-03,   230.723E-06
C:/temp/dataset/4/10_15.odb,Step-1,Increment      1: Step Time =    1.000,"PART-1-1",           465,           15.,        -11.25,            0.,NA,NA,"",   217.339E-03,   207.968E-03,  -63.1289E-03,   59.3892E-06
C:/temp/dataset/4/10_15.odb,Step-1,Increment      1: Step Time =    1.000,"PART-1-1",           466,       13.9793,      -10.0652,            0.,NA,NA,"",   229.068E-03,   223.574E-03,  -49.8655E-03,   75.7464E-06
C:/temp/dataset/4/10_15.odb,Step-1,Increment      1: Step Time =    1.000,"PART-1-1",           467,       7.08713,      -16.3801,            0.,NA,NA,"",   145.426E-03,   141.474E-03,   33.6747E-03,   2.40148E-03
C:/temp/dataset/4/10_15.odb,Step-1,Increment      1: Step Time =    1.000,"PART-1-1",           468,            5.,      -16.4583,            0.,NA,NA,"",   156.531E-03,   143.888E-03,   61.6297E-03,   1.87243E-03
C:/temp/dataset/4/10_15.odb,Step-1,Increment      1: Step Time =    1.000,"PART-1-1",           469,       13.0372,      -13.8111,            0.,NA,NA,"",   177.678E-03,   173.756E-03,  -37.1267E-03,   744.476E-06
C:/temp/dataset/4/10_15.odb,Step-1,Increment      1: Step Time =    1.000,"PART-1-1",           470,       14.0313,      -15.0151,            0.,NA,NA,"",   164.796E-03,   157.241E-03,  -49.3251E-03,   727.190E-06
C:/temp/dataset/4/10_15.odb,Step-1,Increment      1: Step Time =    1.000,"PART-1-1",           471,           15.,        -13.75,            0.,NA,NA,"",   185.579E-03,   174.620E-03,  -62.8301E-03,   308.061E-06
C:/temp/dataset/4/10_15.odb,Step-1,Increment      1: Step Time =    1.000,"PART-1-1",           472,       13.0981,      -18.6529,            0.,NA,NA,"",   111.797E-03,   106.498E-03,  -34.0102E-03,   2.09545E-03
C:/temp/dataset/4/10_15.odb,Step-1,Increment      1: Step Time =    1.000,"PART-1-1",           473,       14.0553,      -19.9280,            0.,NA,NA,"",   99.8403E-03,   90.2162E-03,  -42.7683E-03,   2.58574E-03
C:/temp/dataset/4/10_15.odb,Step-1,Increment      1: Step Time =    1.000,"PART-1-1",           474,           15.,        -18.75,            0.,NA,NA,"",   121.054E-03,   106.658E-03,  -57.2540E-03,   2.33358E-03
C:/temp/dataset/4/10_15.odb,Step-1,Increment      1: Step Time =    1.000,"PART-1-1",           475,       14.0427,      -17.4749,            0.,NA,NA,"",   131.903E-03,   123.215E-03,  -47.0788E-03,   1.55253E-03
C:/temp/dataset/4/10_15.odb,Step-1,Increment      1: Step Time =    1.000,"PART-1-1",           476,       6.17422,      -27.9405,            0.,NA,NA,"",   14.3250E-03,   10.0943E-03,   10.1641E-03,   6.00731E-03
C:/temp/dataset/4/10_15.odb,Step-1,Increment      1: Step Time =    1.000,"PART-1-1",           477,            5.,      -28.9583,            0.,NA,NA,"",   11.3479E-03,   7.77592E-03,   8.26501E-03,   8.66696E-03
C:/temp/dataset/4/10_15.odb,Step-1,Increment      1: Step Time =    1.000,"PART-1-1",           478,          6.25,          -30.,            0.,NA,NA,"",            0.,   177.062E-42,   9.44915E-39,   6.38682E-03
C:/temp/dataset/4/10_15.odb,Step-1,Increment      1: Step Time =    1.000,"PART-1-1",           479,       9.46325,      -26.8820,            0.,NA,NA,"",   13.1958E-03,   13.0641E-03,   1.85949E-03,   2.53209E-03
C:/temp/dataset/4/10_15.odb,Step-1,Increment      1: Step Time =    1.000,"PART-1-1",           480,       8.20536,      -25.9154,            0.,NA,NA,"",   22.9987E-03,   21.3640E-03,   8.51594E-03,   3.21005E-03
C:/temp/dataset/4/10_15.odb,Step-1,Increment      1: Step Time =    1.000,"PART-1-1",           481,       7.26622,      -26.9429,            0.,NA,NA,"",   17.8019E-03,   14.6653E-03,   10.0914E-03,   4.23019E-03
C:/temp/dataset/4/10_15.odb,Step-1,Increment      1: Step Time =    1.000,"PART-1-1",           482,       13.6319,      -27.3465,            0.,NA,NA,"",   18.1206E-03,   13.2799E-03,  -12.3288E-03,   5.49573E-03
C:/temp/dataset/4/10_15.odb,Step-1,Increment      1: Step Time =    1.000,"PART-1-1",           483,       12.3819,      -28.5965,            0.,NA,NA,"",   5.37882E-03,   4.00835E-03,  -3.58676E-03,   3.45638E-03
C:/temp/dataset/4/10_15.odb,Step-1,Increment      1: Step Time =    1.000,"PART-1-1",           484,         13.75,          -30.,            0.,NA,NA,"",            0.,  -78.4937E-42,  -9.37556E-39,   6.39687E-03
C:/temp/dataset/4/10_15.odb,Step-1,Increment      1: Step Time =    1.000,"PART-1-1",           485,           15.,        -28.75,            0.,NA,NA,"",   13.3867E-03,   9.11738E-03,  -9.80192E-03,   8.38419E-03
C:/temp/dataset/4/10_15.odb,Step-1,Increment      1: Step Time =    1.000,"PART-1-1",           486,         11.25,          -30.,            0.,NA,NA,"",            0.,   416.683E-42,  -2.99187E-39,   1.53845E-03
C:/temp/dataset/4/10_15.odb,Step-1,Increment      1: Step Time =    1.000,"PART-1-1",           487,       10.9817,      -27.5238,            0.,NA,NA,"",   9.29363E-03,   8.91703E-03,  -2.61879E-03,   2.71917E-03
C:/temp/dataset/4/10_15.odb,Step-1,Increment      1: Step Time =    1.000,"PART-1-1",           488,       10.1507,      -19.6985,            0.,NA,NA,"",   91.4391E-03,   91.4162E-03,  -2.04634E-03,   2.41568E-03
C:/temp/dataset/4/10_15.odb,Step-1,Increment      1: Step Time =    1.000,"PART-1-1",           489,       9.14094,      -20.7396,            0.,NA,NA,"",   77.9999E-03,   77.6306E-03,   7.58114E-03,   2.52299E-03
C:/temp/dataset/4/10_15.odb,Step-1,Increment      1: Step Time =    1.000,"PART-1-1",           490,       11.1621,      -20.8614,            0.,NA,NA,"",   76.8339E-03,   76.0113E-03,  -11.2130E-03,   2.53602E-03
C:/temp/dataset/4/10_15.odb,Step-1,Increment      1: Step Time =    1.000,"PART-1-1",           491,       7.09922,      -20.6753,            0.,NA,NA,"",   84.5704E-03,   79.8306E-03,   27.9147E-03,   2.61490E-03
C:/temp/dataset/4/10_15.odb,Step-1,Increment      1: Step Time =    1.000,"PART-1-1",           492,            5.,       -20.625,            0.,NA,NA,"",   98.4265E-03,   83.3378E-03,   52.3697E-03,   3.69083E-03
C:/temp/dataset/4/10_15.odb,Step-1,Increment      1: Step Time =    1.000,"PART-1-1",           493,       9.08758,      -14.0519,            0.,NA,NA,"",   172.632E-03,   172.258E-03,   11.3629E-03,   1.47342E-03
C:/temp/dataset/4/10_15.odb,Step-1,Increment      1: Step Time =    1.000,"PART-1-1",           494,       10.1099,      -15.1447,            0.,NA,NA,"",   156.128E-03,   156.122E-03,  -1.33282E-03,   1.64697E-03
C:/temp/dataset/4/10_15.odb,Step-1,Increment      1: Step Time =    1.000,"PART-1-1",           495,       11.0794,      -13.9187,            0.,NA,NA,"",   173.190E-03,   172.717E-03,  -12.7946E-03,   1.10919E-03
C:/temp/dataset/4/10_15.odb,Step-1,Increment      1: Step Time =    1.000,"PART-1-1",           496,       10.0571,      -12.8260,            0.,NA,NA,"",   188.164E-03,   188.164E-03,  -50.3954E-06,   900.801E-06
C:/temp/dataset/4/10_15.odb,Step-1,Increment      1: Step Time =    1.000,"PART-1-1",           497,       9.02765,      -11.7712,            0.,NA,NA,"",   203.194E-03,   202.772E-03,   13.0913E-03,   722.947E-06
C:/temp/dataset/4/10_15.odb,Step-1,Increment      1: Step Time =    1.000,"PART-1-1",           498,       11.0123,      -11.5393,            0.,NA,NA,"",   205.153E-03,   204.812E-03,  -11.8283E-03,   478.771E-06
C:/temp/dataset/4/10_15.odb,Step-1,Increment      1: Step Time =    1.000,"PART-1-1",           499,       9.98284,      -10.4845,            0.,NA,NA,"",   218.908E-03,   218.904E-03,   1.24249E-03,   295.965E-06
C:/temp/dataset/4/10_15.odb,Step-1,Increment      1: Step Time =    1.000,"PART-1-1",           500,       12.6190,       1.44886,            0.,NA,NA,"",   371.668E-03,   370.176E-03,  -33.2729E-03,   3.80019E-06
C:/temp/dataset/4/10_15.odb,Step-1,Increment      1: Step Time =    1.000,"PART-1-1",           501,       13.8500,   84.2405E-03,            0.,NA,NA,"",   356.135E-03,   352.779E-03,  -48.7766E-03,   3.69393E-06
C:/temp/dataset/4/10_15.odb,Step-1,Increment      1: Step Time =    1.000,"PART-1-1",           502,           15.,          1.25,            0.,NA,NA,"",   372.901E-03,   367.464E-03,  -63.4489E-03,   1.74878E-06
C:/temp/dataset/4/10_15.odb,Step-1,Increment      1: Step Time =    1.000,"PART-1-1",           503,       10.0180,      -2.29938,            0.,NA,NA,"",   322.850E-03,   322.850E-03,   41.6677E-06,   17.9633E-06
C:/temp/dataset/4/10_15.odb,Step-1,Increment      1: Step Time =    1.000,"PART-1-1",           504,       9.13986,      -3.07696,            0.,NA,NA,"",   313.246E-03,   313.043E-03,   11.2516E-03,   26.9512E-06
C:/temp/dataset/4/10_15.odb,Step-1,Increment      1: Step Time =    1.000,"PART-1-1",           505,       10.6738,      -3.69229,            0.,NA,NA,"",   305.256E-03,   305.147E-03,  -8.14123E-03,   31.0524E-06
C:/temp/dataset/4/10_15.odb,Step-1,Increment      1: Step Time =    1.000,"PART-1-1",           506,       12.7589,       6.54544,            0.,NA,NA,"",   436.230E-03,   434.786E-03,  -35.4570E-03,   66.6791E-09
C:/temp/dataset/4/10_15.odb,Step-1,Increment      1: Step Time =    1.000,"PART-1-1",           507,           15.,          6.25,            0.,NA,NA,"",   435.566E-03,   430.860E-03,  -63.8513E-03,   268.550E-09
C:/temp/dataset/4/10_15.odb,Step-1,Increment      1: Step Time =    1.000,"PART-1-1",           508,       13.9203,       7.65480,            0.,NA,NA,"",   451.567E-03,   448.760E-03,  -50.2730E-03,   129.094E-09
C:/temp/dataset/4/10_15.odb,Step-1,Increment      1: Step Time =    1.000,"PART-1-1",           509,       13.0275,       16.3263,            0.,NA,NA,"",   560.198E-03,   558.793E-03,  -39.6491E-03,   6.31334E-09
C:/temp/dataset/4/10_15.odb,Step-1,Increment      1: Step Time =    1.000,"PART-1-1",           510,       14.0150,       15.0581,            0.,NA,NA,"",   545.124E-03,   542.631E-03,  -52.0705E-03,   6.24117E-09
C:/temp/dataset/4/10_15.odb,Step-1,Increment      1: Step Time =    1.000,"PART-1-1",           511,           15.,         16.25,            0.,NA,NA,"",   561.402E-03,   557.667E-03,  -64.6562E-03,   2.24439E-09
C:/temp/dataset/4/10_15.odb,Step-1,Increment      1: Step Time =    1.000,"PART-1-1",           512,       14.0124,       17.5182,            0.,NA,NA,"",   576.201E-03,   573.828E-03,  -52.2348E-03,   1.02378E-09
C:/temp/dataset/4/10_15.odb,Step-1,Increment      1: Step Time =    1.000,"PART-1-1",           513,       13.0175,       18.7421,            0.,NA,NA,"",   590.764E-03,   589.427E-03,  -39.7168E-03,   1.19400E-09
C:/temp/dataset/4/10_15.odb,Step-1,Increment      1: Step Time =    1.000,"PART-1-1",           514,           15.,         18.75,            0.,NA,NA,"",   592.927E-03,   589.369E-03,  -64.8572E-03,   625.079E-12
C:/temp/dataset/4/10_15.odb,Step-1,Increment      1: Step Time =    1.000,"PART-1-1",           515,       14.0051,       19.9738,            0.,NA,NA,"",   607.228E-03,   604.968E-03,  -52.3392E-03,   426.293E-12
C:/temp/dataset/4/10_15.odb,Step-1,Increment      1: Step Time =    1.000,"PART-1-1",           516,       5.97628,       21.7197,            0.,NA,NA,"",   629.687E-03,   627.752E-03,   49.3314E-03,   356.662E-12
C:/temp/dataset/4/10_15.odb,Step-1,Increment      1: Step Time =    1.000,"PART-1-1",           517,       6.92463,       22.7965,            0.,NA,NA,"",   642.410E-03,   641.331E-03,   37.2191E-03,   238.204E-12
C:/temp/dataset/4/10_15.odb,Step-1,Increment      1: Step Time =    1.000,"PART-1-1",           518,       5.94835,       23.7852,            0.,NA,NA,"",   655.818E-03,   653.946E-03,   49.5195E-03,   210.494E-12
C:/temp/dataset/4/10_15.odb,Step-1,Increment      1: Step Time =    1.000,"PART-1-1",           519,            5.,       22.7083,            0.,NA,NA,"",   643.326E-03,   640.367E-03,   61.6319E-03,   434.906E-12
C:/temp/dataset/4/10_15.odb,Step-1,Increment      1: Step Time =    1.000,"PART-1-1",           520,       13.8862,       24.9278,            0.,NA,NA,"",   669.760E-03,   667.798E-03,  -51.2297E-03,   137.029E-12
C:/temp/dataset/4/10_15.odb,Step-1,Increment      1: Step Time =    1.000,"PART-1-1",           521,           15.,         26.25,            0.,NA,NA,"",   687.597E-03,   684.474E-03,  -65.4602E-03,   101.912E-12
C:/temp/dataset/4/10_15.odb,Step-1,Increment      1: Step Time =    1.000,"PART-1-1",           522,       6.15342,       27.8650,            0.,NA,NA,"",   707.201E-03,   705.665E-03,   46.5910E-03,   44.7282E-12
C:/temp/dataset/4/10_15.odb,Step-1,Increment      1: Step Time =    1.000,"PART-1-1",           523,       7.40342,       28.9067,            0.,NA,NA,"",   719.427E-03,   718.774E-03,   30.6563E-03,   49.3285E-12
C:/temp/dataset/4/10_15.odb,Step-1,Increment      1: Step Time =    1.000,"PART-1-1",           524,          6.25,           30.,            0.,NA,NA,"",   734.123E-03,   732.730E-03,   45.1947E-03,   19.7298E-12
C:/temp/dataset/4/10_15.odb,Step-1,Increment      1: Step Time =    1.000,"PART-1-1",           525,            5.,       28.9583,            0.,NA,NA,"",   722.214E-03,   719.622E-03,   61.1293E-03,   19.8647E-12
C:/temp/dataset/4/10_15.odb,Step-1,Increment      1: Step Time =    1.000,"PART-1-1",           526,       7.11917,       26.8292,            0.,NA,NA,"",   693.308E-03,   692.452E-03,   34.4280E-03,   101.046E-12
C:/temp/dataset/4/10_15.odb,Step-1,Increment      1: Step Time =    1.000,"PART-1-1",           527,            5.,        26.875,            0.,NA,NA,"",   695.908E-03,   693.204E-03,   61.2968E-03,   69.8835E-12
C:/temp/dataset/4/10_15.odb,Step-1,Increment      1: Step Time =    1.000,"PART-1-1",           528,       5.96574,       25.8392,            0.,NA,NA,"",   681.764E-03,   679.991E-03,   49.1338E-03,   99.4230E-12
C:/temp/dataset/4/10_15.odb,Step-1,Increment      1: Step Time =    1.000,"PART-1-1",           529,       8.59546,       27.4701,            0.,NA,NA,"",   700.636E-03,   700.461E-03,   15.6559E-03,   70.4772E-12
C:/temp/dataset/4/10_15.odb,Step-1,Increment      1: Step Time =    1.000,"PART-1-1",           530,       9.94204,       28.5635,            0.,NA,NA,"",   714.219E-03,   714.217E-03,  -1.50757E-03,   67.8149E-12
C:/temp/dataset/4/10_15.odb,Step-1,Increment      1: Step Time =    1.000,"PART-1-1",           531,          8.75,           30.,            0.,NA,NA,"",   732.654E-03,   732.529E-03,   13.4928E-03,   50.0351E-12
C:/temp/dataset/4/10_15.odb,Step-1,Increment      1: Step Time =    1.000,"PART-1-1",           532,            5.,       24.7917,            0.,NA,NA,"",   669.612E-03,   666.785E-03,   61.4643E-03,   196.440E-12
C:/temp/dataset/4/10_15.odb,Step-1,Increment      1: Step Time =    1.000,"PART-1-1",           533,       6.91409,       24.8327,            0.,NA,NA,"",   668.187E-03,   667.152E-03,   37.1890E-03,   176.995E-12
C:/temp/dataset/4/10_15.odb,Step-1,Increment      1: Step Time =    1.000,"PART-1-1",           534,            5.,        20.625,            0.,NA,NA,"",   617.052E-03,   613.949E-03,   61.7994E-03,   720.055E-12
C:/temp/dataset/4/10_15.odb,Step-1,Increment      1: Step Time =    1.000,"PART-1-1",           535,       5.99534,       19.6263,            0.,NA,NA,"",   603.219E-03,   601.205E-03,   49.2580E-03,   410.072E-12
C:/temp/dataset/4/10_15.odb,Step-1,Increment      1: Step Time =    1.000,"PART-1-1",           536,       6.97162,       20.7210,            0.,NA,NA,"",   616.107E-03,   615.008E-03,   36.7900E-03,   115.275E-12
C:/temp/dataset/4/10_15.odb,Step-1,Increment      1: Step Time =    1.000,"PART-1-1",           537,       9.90537,       10.7177,            0.,NA,NA,"",   487.923E-03,   487.923E-03,   392.129E-06,   64.4047E-09
C:/temp/dataset/4/10_15.odb,Step-1,Increment      1: Step Time =    1.000,"PART-1-1",           538,       8.83179,       9.75083,            0.,NA,NA,"",   475.957E-03,   475.749E-03,   14.0837E-03,   82.0230E-09
C:/temp/dataset/4/10_15.odb,Step-1,Increment      1: Step Time =    1.000,"PART-1-1",           539,       10.8380,       9.37550,            0.,NA,NA,"",   470.964E-03,   470.828E-03,  -11.3262E-03,   81.1024E-09
C:/temp/dataset/4/10_15.odb,Step-1,Increment      1: Step Time =    1.000,"PART-1-1",           540,       5.96737,       11.1773,            0.,NA,NA,"",   496.620E-03,   494.067E-03,   50.2920E-03,   44.9851E-09
C:/temp/dataset/4/10_15.odb,Step-1,Increment      1: Step Time =    1.000,"PART-1-1",           541,       6.95908,       12.1740,            0.,NA,NA,"",   508.023E-03,   506.627E-03,   37.6362E-03,   41.3029E-09
C:/temp/dataset/4/10_15.odb,Step-1,Increment      1: Step Time =    1.000,"PART-1-1",           542,            5.,       12.2917,            0.,NA,NA,"",   512.101E-03,   508.276E-03,   62.4694E-03,   36.4440E-09
C:/temp/dataset/4/10_15.odb,Step-1,Increment      1: Step Time =    1.000,"PART-1-1",           543,       6.89189,       10.0466,            0.,NA,NA,"",   481.210E-03,   479.655E-03,   38.6593E-03,   73.0821E-09
C:/temp/dataset/4/10_15.odb,Step-1,Increment      1: Step Time =    1.000,"PART-1-1",           544,            5.,       10.2083,            0.,NA,NA,"",   485.912E-03,   481.858E-03,   62.6370E-03,   90.4043E-09
C:/temp/dataset/4/10_15.odb,Step-1,Increment      1: Step Time =    1.000,"PART-1-1",           545,  -883.251E-03,       2.97832,            0.,NA,NA,"",   414.251E-03,   390.645E-03,   137.840E-03,   329.308E-09
C:/temp/dataset/4/10_15.odb,Step-1,Increment      1: Step Time =    1.000,"PART-1-1",           546,         -1.25,            5.,            0.,NA,NA,"",   439.976E-03,   416.319E-03,   142.329E-03,   403.085E-09
C:/temp/dataset/4/10_15.odb,Step-1,Increment      1: Step Time =    1.000,"PART-1-1",           547,      -2.28350,       3.97568,            0.,NA,NA,"",   432.349E-03,   403.409E-03,   155.521E-03,   201.916E-09
C:/temp/dataset/4/10_15.odb,Step-1,Increment      1: Step Time =    1.000,"PART-1-1",           548,      -3.12559,       2.92107,            0.,NA,NA,"",   424.063E-03,   390.100E-03,   166.288E-03,   200.521E-09
C:/temp/dataset/4/10_15.odb,Step-1,Increment      1: Step Time =    1.000,"PART-1-1",           549,         -3.75,            5.,            0.,NA,NA,"",   451.420E-03,   416.521E-03,   174.041E-03,   141.894E-09
C:/temp/dataset/4/10_15.odb,Step-1,Increment      1: Step Time =    1.000,"PART-1-1",           550,      -7.01026,       10.3490,            0.,NA,NA,"",   530.170E-03,   484.633E-03,   214.966E-03,   1.35036E-09
C:/temp/dataset/4/10_15.odb,Step-1,Increment      1: Step Time =    1.000,"PART-1-1",           551,           -5.,       10.2083,            0.,NA,NA,"",   518.545E-03,   482.687E-03,   189.478E-03,   1.57742E-09
C:/temp/dataset/4/10_15.odb,Step-1,Increment      1: Step Time =    1.000,"PART-1-1",           552,      -6.00030,       11.3233,            0.,NA,NA,"",   536.429E-03,   496.911E-03,   202.077E-03,   608.856E-12
C:/temp/dataset/4/10_15.odb,Step-1,Increment      1: Step Time =    1.000,"PART-1-1",           553,      -6.90277,       16.5792,            0.,NA,NA,"",   602.592E-03,   563.654E-03,   213.102E-03,   55.8853E-12
C:/temp/dataset/4/10_15.odb,Step-1,Increment      1: Step Time =    1.000,"PART-1-1",           554,           -5.,       16.4583,            0.,NA,NA,"",   592.890E-03,   561.967E-03,   188.975E-03,   23.6076E-12
C:/temp/dataset/4/10_15.odb,Step-1,Increment      1: Step Time =    1.000,"PART-1-1",           555,      -5.93592,       17.5473,            0.,NA,NA,"",   609.847E-03,   575.855E-03,   200.760E-03,   25.4613E-12
C:/temp/dataset/4/10_15.odb,Step-1,Increment      1: Step Time =    1.000,"PART-1-1",           556,      -5.96041,       23.6583,            0.,NA,NA,"",   683.468E-03,   653.374E-03,   200.579E-03,   27.3861E-12
C:/temp/dataset/4/10_15.odb,Step-1,Increment      1: Step Time =    1.000,"PART-1-1",           557,           -5.,       24.7917,            0.,NA,NA,"",   693.719E-03,   667.673E-03,   188.305E-03,   27.7276E-12
C:/temp/dataset/4/10_15.odb,Step-1,Increment      1: Step Time =    1.000,"PART-1-1",           558,      -7.48847,       28.8776,            0.,NA,NA,"",   752.443E-03,   719.702E-03,   219.542E-03,   29.1766E-12
C:/temp/dataset/4/10_15.odb,Step-1,Increment      1: Step Time =    1.000,"PART-1-1",           559,           -5.,       28.9583,            0.,NA,NA,"",   744.641E-03,   720.526E-03,   187.970E-03,   29.5890E-12
C:/temp/dataset/4/10_15.odb,Step-1,Increment      1: Step Time =    1.000,"PART-1-1",           560,         -6.25,           30.,            0.,NA,NA,"",   761.598E-03,   733.839E-03,   203.742E-03,   29.8169E-12
C:/temp/dataset/4/10_15.odb,Step-1,Increment      1: Step Time =    1.000,"PART-1-1",           561,       12.9634,       11.4929,            0.,NA,NA,"",   498.990E-03,   497.506E-03,  -38.4486E-03,   51.6592E-09
C:/temp/dataset/4/10_15.odb,Step-1,Increment      1: Step Time =    1.000,"PART-1-1",           562,       13.9657,       10.1417,            0.,NA,NA,"",   482.998E-03,   480.293E-03,  -51.0489E-03,   65.5305E-09
C:/temp/dataset/4/10_15.odb,Step-1,Increment      1: Step Time =    1.000,"PART-1-1",           563,           15.,         11.25,            0.,NA,NA,"",   498.422E-03,   494.263E-03,  -64.2541E-03,   58.4350E-09
C:/temp/dataset/4/10_15.odb,Step-1,Increment      1: Step Time =    1.000,"PART-1-1",           564,       13.9978,       12.6011,            0.,NA,NA,"",   514.079E-03,   511.477E-03,  -51.6537E-03,   23.6450E-09
C:/temp/dataset/4/10_15.odb,Step-1,Increment      1: Step Time =    1.000,"PART-1-1",           565,       9.13480,      -18.5479,            0.,NA,NA,"",   108.162E-03,   107.826E-03,   8.52522E-03,   2.47161E-03
C:/temp/dataset/4/10_15.odb,Step-1,Increment      1: Step Time =    1.000,"PART-1-1",           566,       11.1537,      -18.5886,            0.,NA,NA,"",   107.534E-03,   106.779E-03,  -12.7243E-03,   2.27541E-03
C:/temp/dataset/4/10_15.odb,Step-1,Increment      1: Step Time =    1.000,"PART-1-1",           567,       10.1377,      -17.4381,            0.,NA,NA,"",   123.298E-03,   123.281E-03,  -2.03878E-03,   2.20881E-03
C:/temp/dataset/4/10_15.odb,Step-1,Increment      1: Step Time =    1.000,"PART-1-1",           568,      -8.81573,       27.5627,            0.,NA,NA,"",   741.832E-03,   703.129E-03,   236.483E-03,   28.9371E-12
C:/temp/dataset/4/10_15.odb,Step-1,Increment      1: Step Time =    1.000,"PART-1-1",           569,         -8.75,           30.,            0.,NA,NA,"",   770.879E-03,   734.040E-03,   235.454E-03,   29.0342E-12
C:/temp/dataset/4/10_15.odb,Step-1,Increment      1: Step Time =    1.000,"PART-1-1",           570,            5.,      -24.7917,            0.,NA,NA,"",   51.0018E-03,   37.3329E-03,   34.7481E-03,   5.80759E-03
C:/temp/dataset/4/10_15.odb,Step-1,Increment      1: Step Time =    1.000,"PART-1-1",           571,       6.09200,      -25.8775,            0.,NA,NA,"",   32.8328E-03,   25.3115E-03,   20.9122E-03,   5.14229E-03
C:/temp/dataset/4/10_15.odb,Step-1,Increment      1: Step Time =    1.000,"PART-1-1",           572,       7.15121,      -24.8757,            0.,NA,NA,"",   36.4579E-03,   32.0238E-03,   17.4257E-03,   3.81706E-03
C:/temp/dataset/4/10_15.odb,Step-1,Increment      1: Step Time =    1.000,"PART-1-1",           573,       13.1040,      -21.0477,            0.,NA,NA,"",   80.6084E-03,   74.8962E-03,  -29.8041E-03,   2.79294E-03
C:/temp/dataset/4/10_15.odb,Step-1,Increment      1: Step Time =    1.000,"PART-1-1",           574,       14.0487,      -22.3697,            0.,NA,NA,"",   70.0243E-03,   60.1371E-03,  -35.8738E-03,   3.69912E-03
C:/temp/dataset/4/10_15.odb,Step-1,Increment      1: Step Time =    1.000,"PART-1-1",           575,           15.,        -21.25,            0.,NA,NA,"",   90.1712E-03,   74.8603E-03,  -50.2671E-03,   3.75741E-03
C:/temp/dataset/4/10_15.odb,Step-1,Increment      1: Step Time =    1.000,"PART-1-1",           576,            5.,       -26.875,            0.,NA,NA,"",   31.0784E-03,   20.7700E-03,   23.1186E-03,   7.05736E-03
C:/temp/dataset/4/10_15.odb,Step-1,Increment      1: Step Time =    1.000,"PART-1-1",           577,       12.8133,      -6.31290,            0.,NA,NA,"",   274.028E-03,   271.769E-03,  -35.1157E-03,   40.8539E-06
C:/temp/dataset/4/10_15.odb,Step-1,Increment      1: Step Time =    1.000,"PART-1-1",           578,       13.9319,      -7.55671,            0.,NA,NA,"",   260.547E-03,   255.832E-03,  -49.3416E-03,   62.8121E-06
C:/temp/dataset/4/10_15.odb,Step-1,Increment      1: Step Time =    1.000,"PART-1-1",           579,           15.,         -6.25,            0.,NA,NA,"",   279.544E-03,   272.353E-03,  -62.9981E-03,   74.8396E-06
C:/temp/dataset/4/10_15.odb,Step-1,Increment      1: Step Time =    1.000,"PART-1-1",           580,            5.,       18.5417,            0.,NA,NA,"",   590.790E-03,   587.531E-03,   61.9669E-03,   602.528E-12
C:/temp/dataset/4/10_15.odb,Step-1,Increment      1: Step Time =    1.000,"PART-1-1",           581,       6.00122,       17.5195,            0.,NA,NA,"",   576.604E-03,   574.488E-03,   49.3529E-03,   1.11321E-09
C:/temp/dataset/4/10_15.odb,Step-1,Increment      1: Step Time =    1.000,"PART-1-1",           582,       6.99656,       18.6041,            0.,NA,NA,"",   589.303E-03,   588.162E-03,   36.6440E-03,   1.32420E-09
C:/temp/dataset/4/10_15.odb,Step-1,Increment      1: Step Time =    1.000,"PART-1-1",           583,       12.8545,       23.6160,            0.,NA,NA,"",   652.356E-03,   651.246E-03,  -38.0417E-03,   222.615E-12
C:/temp/dataset/4/10_15.odb,Step-1,Increment      1: Step Time =    1.000,"PART-1-1",           584,       13.9683,       22.4382,            0.,NA,NA,"",   638.348E-03,   636.220E-03,  -52.0711E-03,   297.497E-12
C:/temp/dataset/4/10_15.odb,Step-1,Increment      1: Step Time =    1.000,"PART-1-1",           585,           15.,         23.75,            0.,NA,NA,"",   656.026E-03,   652.772E-03,  -65.2592E-03,   306.222E-12
C:/temp/dataset/4/10_15.odb,Step-1,Increment      1: Step Time =    1.000,"PART-1-1",           586,            5.,       16.4583,            0.,NA,NA,"",   564.542E-03,   561.113E-03,   62.1344E-03,   1.75370E-09
C:/temp/dataset/4/10_15.odb,Step-1,Increment      1: Step Time =    1.000,"PART-1-1",           587,       7.00480,       16.4638,            0.,NA,NA,"",   562.221E-03,   561.021E-03,   36.7117E-03,   5.86291E-09
C:/temp/dataset/4/10_15.odb,Step-1,Increment      1: Step Time =    1.000,"PART-1-1",           588,       12.9734,       21.1620,            0.,NA,NA,"",   621.365E-03,   620.117E-03,  -39.3522E-03,   136.825E-12
C:/temp/dataset/4/10_15.odb,Step-1,Increment      1: Step Time =    1.000,"PART-1-1",           589,           15.,         21.25,            0.,NA,NA,"",   624.469E-03,   621.070E-03,  -65.0582E-03,   640.568E-12
C:/temp/dataset/4/10_15.odb,Step-1,Increment      1: Step Time =    1.000,"PART-1-1",           590,            5.,       6.04167,            0.,NA,NA,"",   433.618E-03,   429.021E-03,   62.9728E-03,   299.493E-09
C:/temp/dataset/4/10_15.odb,Step-1,Increment      1: Step Time =    1.000,"PART-1-1",           591,       5.70418,       5.21013,            0.,NA,NA,"",   421.904E-03,   418.420E-03,   54.1099E-03,   181.534E-09
C:/temp/dataset/4/10_15.odb,Step-1,Increment      1: Step Time =    1.000,"PART-1-1",           592,       6.54256,       6.20387,            0.,NA,NA,"",   433.134E-03,   430.954E-03,   43.3983E-03,   67.2728E-09
C:/temp/dataset/4/10_15.odb,Step-1,Increment      1: Step Time =    1.000,"PART-1-1",           593,       7.80464,       8.81181,            0.,NA,NA,"",   464.719E-03,   463.924E-03,   27.1841E-03,   81.4238E-09
C:/temp/dataset/4/10_15.odb,Step-1,Increment      1: Step Time =    1.000,"PART-1-1",           594,       7.55468,       6.70991,            0.,NA,NA,"",   438.354E-03,   437.290E-03,   30.5229E-03,   78.7222E-09
C:/temp/dataset/4/10_15.odb,Step-1,Increment      1: Step Time =    1.000,"PART-1-1",           595,           -5.,       12.2917,            0.,NA,NA,"",   543.172E-03,   509.114E-03,   189.311E-03,   342.512E-12
C:/temp/dataset/4/10_15.odb,Step-1,Increment      1: Step Time =    1.000,"PART-1-1",           596,      -13.0551,       11.1433,            0.,NA,NA,"",   574.662E-03,   495.195E-03,   291.579E-03,   768.135E-12
C:/temp/dataset/4/10_15.odb,Step-1,Increment      1: Step Time =    1.000,"PART-1-1",           597,          -15.,       11.4063,            0.,NA,NA,"",   590.499E-03,   498.687E-03,   316.229E-03,   545.067E-12
C:/temp/dataset/4/10_15.odb,Step-1,Increment      1: Step Time =    1.000,"PART-1-1",           598,           -5.,       18.5417,            0.,NA,NA,"",   617.944E-03,   588.393E-03,   188.808E-03,   26.4754E-12
C:/temp/dataset/4/10_15.odb,Step-1,Increment      1: Step Time =    1.000,"PART-1-1",           599,      -6.83195,       18.5917,            0.,NA,NA,"",   626.171E-03,   589.176E-03,   212.042E-03,   30.1016E-12
C:/temp/dataset/4/10_15.odb,Step-1,Increment      1: Step Time =    1.000,"PART-1-1",           600,      -12.9744,       15.4368,            0.,NA,NA,"",   621.561E-03,   549.650E-03,   290.211E-03,   105.999E-12
C:/temp/dataset/4/10_15.odb,Step-1,Increment      1: Step Time =    1.000,"PART-1-1",           601,      -13.9736,       16.6988,            0.,NA,NA,"",   641.669E-03,   565.739E-03,   302.784E-03,   31.4417E-12
C:/temp/dataset/4/10_15.odb,Step-1,Increment      1: Step Time =    1.000,"PART-1-1",           602,          -15.,       15.7813,            0.,NA,NA,"",   637.884E-03,   554.183E-03,   315.877E-03,   23.4650E-12
C:/temp/dataset/4/10_15.odb,Step-1,Increment      1: Step Time =    1.000,"PART-1-1",           603,      -6.85389,       22.5676,            0.,NA,NA,"",   673.829E-03,   639.611E-03,   212.000E-03,   27.7640E-12
C:/temp/dataset/4/10_15.odb,Step-1,Increment      1: Step Time =    1.000,"PART-1-1",           604,           -5.,       22.7083,            0.,NA,NA,"",   668.370E-03,   641.246E-03,   188.473E-03,   26.0486E-12
C:/temp/dataset/4/10_15.odb,Step-1,Increment      1: Step Time =    1.000,"PART-1-1",           605,      -7.62380,       21.5126,            0.,NA,NA,"",   664.422E-03,   626.290E-03,   221.851E-03,   28.7376E-12
C:/temp/dataset/4/10_15.odb,Step-1,Increment      1: Step Time =    1.000,"PART-1-1",           606,      -11.2433,       25.0031,            0.,NA,NA,"",   722.216E-03,   670.857E-03,   267.483E-03,   29.0629E-12
C:/temp/dataset/4/10_15.odb,Step-1,Increment      1: Step Time =    1.000,"PART-1-1",           607,      -10.1220,       24.6816,            0.,NA,NA,"",   713.181E-03,   666.688E-03,   253.285E-03,   28.9974E-12
C:/temp/dataset/4/10_15.odb,Step-1,Increment      1: Step Time =    1.000,"PART-1-1",           608,      -9.68436,       26.2404,            0.,NA,NA,"",   729.719E-03,   686.426E-03,   247.608E-03,   28.9032E-12
C:/temp/dataset/4/10_15.odb,Step-1,Increment      1: Step Time =    1.000,"PART-1-1",           609,      -10.8057,       26.5619,            0.,NA,NA,"",   738.555E-03,   690.594E-03,   261.806E-03,   28.9425E-12
C:/temp/dataset/4/10_15.odb,Step-1,Increment      1: Step Time =    1.000,"PART-1-1",           610,            5.,      -6.04167,            0.,NA,NA,"",   283.042E-03,   275.753E-03,   63.8190E-03,   92.4044E-06
C:/temp/dataset/4/10_15.odb,Step-1,Increment      1: Step Time =    1.000,"PART-1-1",           611,       5.81487,      -6.90448,            0.,NA,NA,"",   270.115E-03,   264.753E-03,   53.5538E-03,   82.6333E-06
C:/temp/dataset/4/10_15.odb,Step-1,Increment      1: Step Time =    1.000,"PART-1-1",           612,       6.44107,      -5.66337,            0.,NA,NA,"",   284.091E-03,   280.406E-03,   45.6085E-03,   50.1262E-06
C:/temp/dataset/4/10_15.odb,Step-1,Increment      1: Step Time =    1.000,"PART-1-1",           613,       5.62621,      -4.80056,            0.,NA,NA,"",   296.731E-03,   291.426E-03,   55.8561E-03,   35.1040E-06
C:/temp/dataset/4/10_15.odb,Step-1,Increment      1: Step Time =    1.000,"PART-1-1",           614,            5.,        -8.125,            0.,NA,NA,"",   257.517E-03,   249.504E-03,   63.7392E-03,   168.663E-06
C:/temp/dataset/4/10_15.odb,Step-1,Increment      1: Step Time =    1.000,"PART-1-1",           615,       8.00489,       17.5473,            0.,NA,NA,"",   575.179E-03,   574.680E-03,   23.9426E-03,   2.70915E-09
C:/temp/dataset/4/10_15.odb,Step-1,Increment      1: Step Time =    1.000,"PART-1-1",           616,       8.00828,       15.3576,            0.,NA,NA,"",   547.442E-03,   546.912E-03,   24.0757E-03,   9.73478E-09
C:/temp/dataset/4/10_15.odb,Step-1,Increment      1: Step Time =    1.000,"PART-1-1",           617,       11.1265,      -16.2686,            0.,NA,NA,"",   140.302E-03,   139.676E-03,  -13.2401E-03,   1.78573E-03
C:/temp/dataset/4/10_15.odb,Step-1,Increment      1: Step Time =    1.000,"PART-1-1",           618,       9.12111,      -16.3141,            0.,NA,NA,"",   140.472E-03,   140.137E-03,   9.70651E-03,   2.14593E-03
C:/temp/dataset/4/10_15.odb,Step-1,Increment      1: Step Time =    1.000,"PART-1-1",           619,      -9.91602,       15.9767,            0.,NA,NA,"",   610.414E-03,   556.252E-03,   251.372E-03,   88.2863E-12
C:/temp/dataset/4/10_15.odb,Step-1,Increment      1: Step Time =    1.000,"PART-1-1",           620,      -10.9598,       15.0860,            0.,NA,NA,"",   605.908E-03,   545.039E-03,   264.684E-03,   169.449E-12
C:/temp/dataset/4/10_15.odb,Step-1,Increment      1: Step Time =    1.000,"PART-1-1",           621,      -8.93702,       14.7598,            0.,NA,NA,"",   591.223E-03,   540.739E-03,   239.052E-03,   201.582E-12
C:/temp/dataset/4/10_15.odb,Step-1,Increment      1: Step Time =    1.000,"PART-1-1",           622,      -13.0880,       4.79273,            0.,NA,NA,"",   507.434E-03,   414.643E-03,   292.507E-03,   1.74761E-09
C:/temp/dataset/4/10_15.odb,Step-1,Increment      1: Step Time =    1.000,"PART-1-1",           623,          -15.,       4.84375,            0.,NA,NA,"",   522.425E-03,   415.444E-03,   316.757E-03,   4.51625E-09
C:/temp/dataset/4/10_15.odb,Step-1,Increment      1: Step Time =    1.000,"PART-1-1",           624,           -5.,       6.04167,            0.,NA,NA,"",   469.880E-03,   429.834E-03,   189.813E-03,   14.8595E-09
C:/temp/dataset/4/10_15.odb,Step-1,Increment      1: Step Time =    1.000,"PART-1-1",           625,      -7.12843,       5.83601,            0.,NA,NA,"",   479.252E-03,   427.397E-03,   216.828E-03,   4.51717E-09
C:/temp/dataset/4/10_15.odb,Step-1,Increment      1: Step Time =    1.000,"PART-1-1",           626,       12.9112,      -8.87192,            0.,NA,NA,"",   241.829E-03,   239.107E-03,  -36.1819E-03,   29.0944E-06
C:/temp/dataset/4/10_15.odb,Step-1,Increment      1: Step Time =    1.000,"PART-1-1",           627,           15.,         -8.75,            0.,NA,NA,"",   248.552E-03,   240.426E-03,  -63.0343E-03,   120.432E-06
C:/temp/dataset/4/10_15.odb,Step-1,Increment      1: Step Time =    1.000,"PART-1-1",           628,       13.0740,      -16.2399,            0.,NA,NA,"",   144.669E-03,   140.033E-03,  -36.3306E-03,   1.39270E-03
C:/temp/dataset/4/10_15.odb,Step-1,Increment      1: Step Time =    1.000,"PART-1-1",           629,           15.,        -16.25,            0.,NA,NA,"",   153.261E-03,   140.503E-03,  -61.2198E-03,   1.12447E-03
C:/temp/dataset/4/10_15.odb,Step-1,Increment      1: Step Time =    1.000,"PART-1-1",           630,       13.0128,       13.9092,            0.,NA,NA,"",   529.601E-03,   528.143E-03,  -39.2690E-03,   21.2248E-09
C:/temp/dataset/4/10_15.odb,Step-1,Increment      1: Step Time =    1.000,"PART-1-1",           631,           15.,         13.75,            0.,NA,NA,"",   529.900E-03,   525.965E-03,  -64.4552E-03,   15.6374E-09
C:/temp/dataset/4/10_15.odb,Step-1,Increment      1: Step Time =    1.000,"PART-1-1",           632,       10.9505,       11.7339,            0.,NA,NA,"",   500.893E-03,   500.725E-03,  -12.9423E-03,   53.5940E-09
C:/temp/dataset/4/10_15.odb,Step-1,Increment      1: Step Time =    1.000,"PART-1-1",           633,       9.98883,       12.9959,            0.,NA,NA,"",   516.806E-03,   516.806E-03,  -849.300E-06,   30.7687E-09
C:/temp/dataset/4/10_15.odb,Step-1,Increment      1: Step Time =    1.000,"PART-1-1",           634,       8.94372,       11.9797,            0.,NA,NA,"",   504.158E-03,   504.003E-03,   12.4852E-03,   48.5202E-09
C:/temp/dataset/4/10_15.odb,Step-1,Increment      1: Step Time =    1.000,"PART-1-1",           635,      -13.9153,       18.9000,            0.,NA,NA,"",   665.997E-03,   593.656E-03,   301.867E-03,   26.3288E-12
C:/temp/dataset/4/10_15.odb,Step-1,Increment      1: Step Time =    1.000,"PART-1-1",           636,      -12.6393,       19.9841,            0.,NA,NA,"",   671.106E-03,   607.305E-03,   285.594E-03,   30.7745E-12
C:/temp/dataset/4/10_15.odb,Step-1,Increment      1: Step Time =    1.000,"PART-1-1",           637,          -15.,       20.1563,            0.,NA,NA,"",   686.486E-03,   609.678E-03,   315.525E-03,   24.5557E-12
C:/temp/dataset/4/10_15.odb,Step-1,Increment      1: Step Time =    1.000,"PART-1-1",           638,       8.12191,      -21.7795,            0.,NA,NA,"",   66.8614E-03,   64.8819E-03,   16.1489E-03,   2.54317E-03
C:/temp/dataset/4/10_15.odb,Step-1,Increment      1: Step Time =    1.000,"PART-1-1",           639,       8.12482,      -23.8590,            0.,NA,NA,"",   42.9912E-03,   40.9980E-03,   12.9386E-03,   2.84453E-03
C:/temp/dataset/4/10_15.odb,Step-1,Increment      1: Step Time =    1.000,"PART-1-1",           640,       8.11825,      -19.6354,            0.,NA,NA,"",   94.8837E-03,   93.0566E-03,   18.5307E-03,   2.39822E-03
C:/temp/dataset/4/10_15.odb,Step-1,Increment      1: Step Time =    1.000,"PART-1-1",           641,       8.10952,      -17.4508,            0.,NA,NA,"",   126.142E-03,   124.468E-03,   20.4815E-03,   2.40519E-03
C:/temp/dataset/4/10_15.odb,Step-1,Increment      1: Step Time =    1.000,"PART-1-1",           642,       7.85781,       23.9076,            0.,NA,NA,"",   655.833E-03,   655.345E-03,   25.2964E-03,   196.596E-12
C:/temp/dataset/4/10_15.odb,Step-1,Increment      1: Step Time =    1.000,"PART-1-1",           643,       7.94870,       21.8524,            0.,NA,NA,"",   629.746E-03,   629.276E-03,   24.3090E-03,   214.463E-12
C:/temp/dataset/4/10_15.odb,Step-1,Increment      1: Step Time =    1.000,"PART-1-1",           644,       4.21929,       2.98066,            0.,NA,NA,"",   397.055E-03,   390.264E-03,   73.1201E-03,   719.937E-09
C:/temp/dataset/4/10_15.odb,Step-1,Increment      1: Step Time =    1.000,"PART-1-1",           645,       5.32392,       3.96649,            0.,NA,NA,"",   406.982E-03,   402.678E-03,   59.0320E-03,   667.889E-09
C:/temp/dataset/4/10_15.odb,Step-1,Increment      1: Step Time =    1.000,"PART-1-1",           646,          3.75,            5.,            0.,NA,NA,"",   423.333E-03,   415.913E-03,   78.9098E-03,   823.369E-09
C:/temp/dataset/4/10_15.odb,Step-1,Increment      1: Step Time =    1.000,"PART-1-1",           647,       12.8859,       9.04653,            0.,NA,NA,"",   467.978E-03,   466.491E-03,  -37.2691E-03,   84.1617E-09
C:/temp/dataset/4/10_15.odb,Step-1,Increment      1: Step Time =    1.000,"PART-1-1",           648,           15.,          8.75,            0.,NA,NA,"",   466.975E-03,   462.561E-03,  -64.0529E-03,   151.437E-09
C:/temp/dataset/4/10_15.odb,Step-1,Increment      1: Step Time =    1.000,"PART-1-1",           649,      -8.02807,       9.41948,            0.,NA,NA,"",   524.995E-03,   472.925E-03,   227.952E-03,   1.69719E-09
C:/temp/dataset/4/10_15.odb,Step-1,Increment      1: Step Time =    1.000,"PART-1-1",           650,      -8.84347,       16.8085,            0.,NA,NA,"",   614.549E-03,   566.718E-03,   237.700E-03,   70.0246E-12
C:/temp/dataset/4/10_15.odb,Step-1,Increment      1: Step Time =    1.000,"PART-1-1",           651,      -9.78583,       18.0165,            0.,NA,NA,"",   633.355E-03,   582.117E-03,   249.557E-03,   41.6872E-12
C:/temp/dataset/4/10_15.odb,Step-1,Increment      1: Step Time =    1.000,"PART-1-1",           652,          -15.,       17.9688,            0.,NA,NA,"",   662.050E-03,   581.930E-03,   315.701E-03,   23.6373E-12
C:/temp/dataset/4/10_15.odb,Step-1,Increment      1: Step Time =    1.000,"PART-1-1",           653,          -15.,       24.5313,            0.,NA,NA,"",   736.064E-03,   665.174E-03,   315.173E-03,   28.5244E-12
C:/temp/dataset/4/10_15.odb,Step-1,Increment      1: Step Time =    1.000,"PART-1-1",           654,      -12.9952,       24.7258,            0.,NA,NA,"",   727.648E-03,   667.481E-03,   289.727E-03,   28.8321E-12
C:/temp/dataset/4/10_15.odb,Step-1,Increment      1: Step Time =    1.000,"PART-1-1",           655,      -11.4985,       21.8877,            0.,NA,NA,"",   687.051E-03,   631.359E-03,   270.971E-03,   30.2004E-12
C:/temp/dataset/4/10_15.odb,Step-1,Increment      1: Step Time =    1.000,"PART-1-1",           656,      -11.4490,       20.6565,            0.,NA,NA,"",   672.511E-03,   615.738E-03,   270.441E-03,   31.6979E-12
C:/temp/dataset/4/10_15.odb,Step-1,Increment      1: Step Time =    1.000,"PART-1-1",           657,      -10.1446,       20.7260,            0.,NA,NA,"",   666.747E-03,   616.515E-03,   253.890E-03,   32.5937E-12
C:/temp/dataset/4/10_15.odb,Step-1,Increment      1: Step Time =    1.000,"PART-1-1",           658,      -7.69218,       19.6350,            0.,NA,NA,"",   642.379E-03,   602.479E-03,   222.869E-03,   30.4318E-12
C:/temp/dataset/4/10_15.odb,Step-1,Increment      1: Step Time =    1.000,"PART-1-1",           659,      -8.68744,       18.7463,            0.,NA,NA,"",   636.482E-03,   591.286E-03,   235.565E-03,   36.9687E-12
C:/temp/dataset/4/10_15.odb,Step-1,Increment      1: Step Time =    1.000,"PART-1-1",           660,      -7.82721,       17.7030,            0.,NA,NA,"",   620.138E-03,   577.983E-03,   224.738E-03,   37.5768E-12
C:/temp/dataset/4/10_15.odb,Step-1,Increment      1: Step Time =    1.000,"PART-1-1",           661,      -9.52114,       19.8817,            0.,NA,NA,"",   653.819E-03,   605.755E-03,   246.049E-03,   33.4769E-12
C:/temp/dataset/4/10_15.odb,Step-1,Increment      1: Step Time =    1.000,"PART-1-1",           662,      -10.6195,       19.1519,            0.,NA,NA,"",   650.797E-03,   596.586E-03,   260.041E-03,   36.6120E-12
C:/temp/dataset/4/10_15.odb,Step-1,Increment      1: Step Time =    1.000,"PART-1-1",           663,      -12.1485,       3.78191,            0.,NA,NA,"",   490.077E-03,   401.745E-03,   280.672E-03,   677.808E-12
C:/temp/dataset/4/10_15.odb,Step-1,Increment      1: Step Time =    1.000,"PART-1-1",           664,      -10.9850,       2.86362,            0.,NA,NA,"",   472.072E-03,   390.003E-03,   265.987E-03,   3.18444E-09
C:/temp/dataset/4/10_15.odb,Step-1,Increment      1: Step Time =    1.000,"PART-1-1",           665,      -9.06958,       8.49577,            0.,NA,NA,"",   520.562E-03,   461.291E-03,   241.237E-03,   2.37610E-09
C:/temp/dataset/4/10_15.odb,Step-1,Increment      1: Step Time =    1.000,"PART-1-1",           666,      -8.08215,       7.28595,            0.,NA,NA,"",   501.149E-03,   445.866E-03,   228.809E-03,   2.96210E-09
C:/temp/dataset/4/10_15.odb,Step-1,Increment      1: Step Time =    1.000,"PART-1-1",           667,      -10.1292,       7.60955,            0.,NA,NA,"",   517.222E-03,   450.135E-03,   254.750E-03,   2.32425E-09
C:/temp/dataset/4/10_15.odb,Step-1,Increment      1: Step Time =    1.000,"PART-1-1",           668,      -11.2104,       6.77234,            0.,NA,NA,"",   515.130E-03,   439.602E-03,   268.531E-03,   2.04445E-09
C:/temp/dataset/4/10_15.odb,Step-1,Increment      1: Step Time =    1.000,"PART-1-1",           669,      -10.2942,       5.63122,            0.,NA,NA,"",   496.710E-03,   425.054E-03,   257.002E-03,   2.05206E-09
C:/temp/dataset/4/10_15.odb,Step-1,Increment      1: Step Time =    1.000,"PART-1-1",           670,      -9.21309,       6.46842,            0.,NA,NA,"",   498.891E-03,   435.587E-03,   243.221E-03,   2.59392E-09
C:/temp/dataset/4/10_15.odb,Step-1,Increment      1: Step Time =    1.000,"PART-1-1",           671,        -11.25,           -5.,            0.,NA,NA,"",   396.422E-03,   290.277E-03,   269.981E-03,   3.17446E-09
C:/temp/dataset/4/10_15.odb,Step-1,Increment      1: Step Time =    1.000,"PART-1-1",           672,      -10.0273,      -3.93877,            0.,NA,NA,"",   396.118E-03,   303.640E-03,   254.386E-03,   2.21695E-09
C:/temp/dataset/4/10_15.odb,Step-1,Increment      1: Step Time =    1.000,"PART-1-1",           673,         -8.75,           -5.,            0.,NA,NA,"",   375.388E-03,   290.076E-03,   238.269E-03,   5.65658E-09
C:/temp/dataset/4/10_15.odb,Step-1,Increment      1: Step Time =    1.000,"PART-1-1",           674,      -7.59562,      -4.02918,            0.,NA,NA,"",   375.976E-03,   302.298E-03,   223.548E-03,   10.9978E-09
C:/temp/dataset/4/10_15.odb,Step-1,Increment      1: Step Time =    1.000,"PART-1-1",           675,      -8.87289,      -2.96795,            0.,NA,NA,"",   396.495E-03,   315.862E-03,   239.665E-03,   11.7744E-09
C:/temp/dataset/4/10_15.odb,Step-1,Increment      1: Step Time =    1.000,"PART-1-1",           676,         -6.25,           -5.,            0.,NA,NA,"",   355.940E-03,   289.875E-03,   206.558E-03,   43.0442E-09
C:/temp/dataset/4/10_15.odb,Step-1,Increment      1: Step Time =    1.000,"PART-1-1",           677,      -5.03874,      -3.83161,            0.,NA,NA,"",   359.582E-03,   304.598E-03,   191.099E-03,   65.9041E-09
C:/temp/dataset/4/10_15.odb,Step-1,Increment      1: Step Time =    1.000,"PART-1-1",           678,      -6.38435,      -2.86079,            0.,NA,NA,"",   379.215E-03,   317.021E-03,   208.090E-03,   58.7007E-09
C:/temp/dataset/4/10_15.odb,Step-1,Increment      1: Step Time =    1.000,"PART-1-1",           679,      -8.31216,       1.98044,            0.,NA,NA,"",   444.097E-03,   378.585E-03,   232.154E-03,   19.2934E-09
C:/temp/dataset/4/10_15.odb,Step-1,Increment      1: Step Time =    1.000,"PART-1-1",           680,      -6.89941,       1.67561,            0.,NA,NA,"",   431.550E-03,   374.605E-03,   214.258E-03,   42.5400E-09
C:/temp/dataset/4/10_15.odb,Step-1,Increment      1: Step Time =    1.000,"PART-1-1",           681,      -8.02347,       3.70061,            0.,NA,NA,"",   460.924E-03,   400.382E-03,   228.354E-03,   12.0898E-09
C:/temp/dataset/4/10_15.odb,Step-1,Increment      1: Step Time =    1.000,"PART-1-1",           682,      -9.78636,       2.36681,            0.,NA,NA,"",   458.328E-03,   383.605E-03,   250.823E-03,   8.10945E-09
C:/temp/dataset/4/10_15.odb,Step-1,Increment      1: Step Time =    1.000,"PART-1-1",           683,      -8.80920,   354.969E-03,            0.,NA,NA,"",   430.225E-03,   358.007E-03,   238.590E-03,   17.8498E-09
C:/temp/dataset/4/10_15.odb,Step-1,Increment      1: Step Time =    1.000,"PART-1-1",           684,         -3.75,           -5.,            0.,NA,NA,"",   338.352E-03,   289.674E-03,   174.846E-03,   123.810E-09
C:/temp/dataset/4/10_15.odb,Step-1,Increment      1: Step Time =    1.000,"PART-1-1",           685,          3.75,           -5.,            0.,NA,NA,"",   299.847E-03,   289.060E-03,   79.7029E-03,   6.48292E-06
C:/temp/dataset/4/10_15.odb,Step-1,Increment      1: Step Time =    1.000,"PART-1-1",           686,       4.46580,      -3.87501,            0.,NA,NA,"",   311.373E-03,   303.281E-03,   70.5251E-03,   13.5770E-06
C:/temp/dataset/4/10_15.odb,Step-1,Increment      1: Step Time =    1.000,"PART-1-1",           687,       2.90021,      -2.90757,            0.,NA,NA,"",   328.348E-03,   315.681E-03,   90.3177E-03,   2.28681E-06
C:/temp/dataset/4/10_15.odb,Step-1,Increment      1: Step Time =    1.000,"PART-1-1",           688,       11.1618,       2.81075,            0.,NA,NA,"",   387.845E-03,   387.558E-03,  -14.9040E-03,   1.52052E-06
C:/temp/dataset/4/10_15.odb,Step-1,Increment      1: Step Time =    1.000,"PART-1-1",           689,       10.1850,       1.50626,            0.,NA,NA,"",   371.102E-03,   371.094E-03,  -2.40894E-03,   4.48949E-06
C:/temp/dataset/4/10_15.odb,Step-1,Increment      1: Step Time =    1.000,"PART-1-1",           690,       11.6421,   144.368E-03,            0.,NA,NA,"",   354.325E-03,   353.715E-03,  -20.7764E-03,   5.96455E-06
C:/temp/dataset/4/10_15.odb,Step-1,Increment      1: Step Time =    1.000,"PART-1-1",           691,         11.25,           30.,            0.,NA,NA,"",   732.555E-03,   732.328E-03,  -18.2090E-03,   49.9708E-12
C:/temp/dataset/4/10_15.odb,Step-1,Increment      1: Step Time =    1.000,"PART-1-1",           692,       9.19768,       26.3844,            0.,NA,NA,"",   686.693E-03,   686.645E-03,   8.10666E-03,   111.050E-12
C:/temp/dataset/4/10_15.odb,Step-1,Increment      1: Step Time =    1.000,"PART-1-1",           693,       7.72138,       25.7435,            0.,NA,NA,"",   679.168E-03,   678.636E-03,   26.8787E-03,   126.784E-12
C:/temp/dataset/4/10_15.odb,Step-1,Increment      1: Step Time =    1.000,"PART-1-1",           694,       9.17897,      -24.8987,            0.,NA,NA,"",   30.1441E-03,   29.7823E-03,   4.65636E-03,   2.60831E-03
C:/temp/dataset/4/10_15.odb,Step-1,Increment      1: Step Time =    1.000,"PART-1-1",           695,       9.00589,       18.6572,            0.,NA,NA,"",   588.779E-03,   588.674E-03,   11.1599E-03,   1.99191E-09
C:/temp/dataset/4/10_15.odb,Step-1,Increment      1: Step Time =    1.000,"PART-1-1",           696,       7.99757,       19.7140,            0.,NA,NA,"",   602.628E-03,   602.156E-03,   23.8613E-03,   434.073E-12
C:/temp/dataset/4/10_15.odb,Step-1,Increment      1: Step Time =    1.000,"PART-1-1",           697,      -12.2498,       25.7751,            0.,NA,NA,"",   736.138E-03,   680.731E-03,   280.187E-03,   28.9884E-12
C:/temp/dataset/4/10_15.odb,Step-1,Increment      1: Step Time =    1.000,"PART-1-1",           698,      -11.9888,       23.9538,            0.,NA,NA,"",   713.574E-03,   657.607E-03,   277.023E-03,   28.8792E-12
C:/temp/dataset/4/10_15.odb,Step-1,Increment      1: Step Time =    1.000,"PART-1-1",           699,      -1.59164,      -1.60220,            0.,NA,NA,"",   363.716E-03,   332.601E-03,   147.195E-03,   388.303E-09
C:/temp/dataset/4/10_15.odb,Step-1,Increment      1: Step Time =    1.000,"PART-1-1",           700,      -1.34014,  -343.401E-03,            0.,NA,NA,"",   377.086E-03,   348.548E-03,   143.903E-03,   348.905E-09
C:/temp/dataset/4/10_15.odb,Step-1,Increment      1: Step Time =    1.000,"PART-1-1",           701,      -2.70787,  -93.9540E-03,            0.,NA,NA,"",   387.007E-03,   351.822E-03,   161.232E-03,   255.049E-09
C:/temp/dataset/4/10_15.odb,Step-1,Increment      1: Step Time =    1.000,"PART-1-1",           702,       8.06015,      -13.0184,            0.,NA,NA,"",   188.950E-03,   187.337E-03,   24.6351E-03,   1.28676E-03
C:/temp/dataset/4/10_15.odb,Step-1,Increment      1: Step Time =    1.000,"PART-1-1",           703,       7.99745,      -10.7906,            0.,NA,NA,"",   217.472E-03,   215.874E-03,   26.3182E-03,   491.022E-06
C:/temp/dataset/4/10_15.odb,Step-1,Increment      1: Step Time =    1.000,"PART-1-1",           704,           15.,        -26.25,            0.,NA,NA,"",   36.7747E-03,   25.0247E-03,  -26.9470E-03,   6.61984E-03
C:/temp/dataset/4/10_15.odb,Step-1,Increment      1: Step Time =    1.000,"PART-1-1",           705,       13.9776,      -24.8045,            0.,NA,NA,"",   43.4249E-03,   34.6853E-03,  -26.1276E-03,   4.72538E-03
C:/temp/dataset/4/10_15.odb,Step-1,Increment      1: Step Time =    1.000,"PART-1-1",           706,       12.6094,      -25.9010,            0.,NA,NA,"",   25.8389E-03,   22.4561E-03,  -12.7817E-03,   3.85455E-03
C:/temp/dataset/4/10_15.odb,Step-1,Increment      1: Step Time =    1.000,"PART-1-1",           707,       12.0224,      -24.3398,            0.,NA,NA,"",   38.4697E-03,   36.1224E-03,  -13.2321E-03,   3.17400E-03
C:/temp/dataset/4/10_15.odb,Step-1,Increment      1: Step Time =    1.000,"PART-1-1",           708,       13.0263,      -23.4242,            0.,NA,NA,"",   52.2892E-03,   46.8873E-03,  -23.1461E-03,   3.49183E-03
C:/temp/dataset/4/10_15.odb,Step-1,Increment      1: Step Time =    1.000,"PART-1-1",           709,       12.1300,      -22.1112,            0.,NA,NA,"",   63.6476E-03,   60.9299E-03,  -18.3999E-03,   2.74163E-03
C:/temp/dataset/4/10_15.odb,Step-1,Increment      1: Step Time =    1.000,"PART-1-1",           710,           15.,        -23.75,            0.,NA,NA,"",   61.8051E-03,   47.0899E-03,  -40.0302E-03,   5.13263E-03
C:/temp/dataset/4/10_15.odb,Step-1,Increment      1: Step Time =    1.000,"PART-1-1",           711,       10.9035,      -9.09896,            0.,NA,NA,"",   236.687E-03,   236.455E-03,  -10.4894E-03,   109.178E-06
C:/temp/dataset/4/10_15.odb,Step-1,Increment      1: Step Time =    1.000,"PART-1-1",           712,       9.82794,      -8.10226,            0.,NA,NA,"",   249.307E-03,   249.288E-03,   3.10819E-03,   62.4809E-06
C:/temp/dataset/4/10_15.odb,Step-1,Increment      1: Step Time =    1.000,"PART-1-1",           713,       8.90728,      -9.48784,            0.,NA,NA,"",   232.383E-03,   231.906E-03,   14.8859E-03,   194.184E-06
C:/temp/dataset/4/10_15.odb,Step-1,Increment      1: Step Time =    1.000,"PART-1-1",           714,           15.,         -1.25,            0.,NA,NA,"",   341.679E-03,   335.773E-03,  -63.2556E-03,   9.01389E-06
C:/temp/dataset/4/10_15.odb,Step-1,Increment      1: Step Time =    1.000,"PART-1-1",           715,       12.7555,      -1.12336,            0.,NA,NA,"",   339.350E-03,   337.561E-03,  -34.7967E-03,   11.7232E-06
C:/temp/dataset/4/10_15.odb,Step-1,Increment      1: Step Time =    1.000,"PART-1-1",           716,       11.5680,       5.48707,            0.,NA,NA,"",   421.949E-03,   421.461E-03,  -20.2703E-03,   208.373E-09
C:/temp/dataset/4/10_15.odb,Step-1,Increment      1: Step Time =    1.000,"PART-1-1",           717,       10.1222,       4.29256,            0.,NA,NA,"",   406.434E-03,   406.430E-03,  -1.84083E-03,   988.438E-09
C:/temp/dataset/4/10_15.odb,Step-1,Increment      1: Step Time =    1.000,"PART-1-1",           718,       8.27918,   509.070E-03,            0.,NA,NA,"",   359.258E-03,   358.594E-03,   21.8401E-03,   6.03868E-06
C:/temp/dataset/4/10_15.odb,Step-1,Increment      1: Step Time =    1.000,"PART-1-1",           719,       9.70893,  -124.236E-03,            0.,NA,NA,"",   350.475E-03,   350.454E-03,   3.76539E-03,   7.36792E-06
C:/temp/dataset/4/10_15.odb,Step-1,Increment      1: Step Time =    1.000,"PART-1-1",           720,       8.75521,       2.13956,            0.,NA,NA,"",   379.559E-03,   379.236E-03,   15.6691E-03,   2.61881E-06
C:/temp/dataset/4/10_15.odb,Step-1,Increment      1: Step Time =    1.000,"PART-1-1",           721,       6.99874,       4.90963,            0.,NA,NA,"",   416.217E-03,   414.505E-03,   37.7175E-03,   459.136E-09
C:/temp/dataset/4/10_15.odb,Step-1,Increment      1: Step Time =    1.000,"PART-1-1",           722,       8.01086,       5.41567,            0.,NA,NA,"",   421.574E-03,   420.841E-03,   24.8422E-03,   409.517E-09
C:/temp/dataset/4/10_15.odb,Step-1,Increment      1: Step Time =    1.000,"PART-1-1",           723,       11.8045,       7.99587,            0.,NA,NA,"",   453.863E-03,   453.255E-03,  -23.4719E-03,   92.7887E-09
C:/temp/dataset/4/10_15.odb,Step-1,Increment      1: Step Time =    1.000,"PART-1-1",           724,       7.91904,       10.9856,            0.,NA,NA,"",   492.144E-03,   491.480E-03,   25.5588E-03,   54.5318E-09
C:/temp/dataset/4/10_15.odb,Step-1,Increment      1: Step Time =    1.000,"PART-1-1",           725,       11.0233,       18.7016,            0.,NA,NA,"",   589.251E-03,   589.075E-03,  -14.4264E-03,   1.91928E-09
C:/temp/dataset/4/10_15.odb,Step-1,Increment      1: Step Time =    1.000,"PART-1-1",           726,       10.0074,       19.8076,            0.,NA,NA,"",   603.183E-03,   603.181E-03,  -1.63292E-03,   558.190E-12
C:/temp/dataset/4/10_15.odb,Step-1,Increment      1: Step Time =    1.000,"PART-1-1",           727,       10.9673,       21.0105,            0.,NA,NA,"",   618.514E-03,   618.358E-03,  -13.9011E-03,   287.728E-12
C:/temp/dataset/4/10_15.odb,Step-1,Increment      1: Step Time =    1.000,"PART-1-1",           728,       8.97465,       20.8454,            0.,NA,NA,"",   616.529E-03,   616.424E-03,   11.3802E-03,   320.267E-12
C:/temp/dataset/4/10_15.odb,Step-1,Increment      1: Step Time =    1.000,"PART-1-1",           729,       8.66510,       24.8184,            0.,NA,NA,"",   666.998E-03,   666.829E-03,   14.9861E-03,   174.773E-12
C:/temp/dataset/4/10_15.odb,Step-1,Increment      1: Step Time =    1.000,"PART-1-1",           730,       7.98376,       13.1681,            0.,NA,NA,"",   519.731E-03,   519.151E-03,   24.5626E-03,   26.4078E-09
C:/temp/dataset/4/10_15.odb,Step-1,Increment      1: Step Time =    1.000,"PART-1-1",           731,      -1.95806,       1.80915,            0.,NA,NA,"",   405.308E-03,   375.902E-03,   151.568E-03,   282.495E-09
C:/temp/dataset/4/10_15.odb,Step-1,Increment      1: Step Time =    1.000,"PART-1-1",           732,  -613.587E-03,   828.335E-03,            0.,NA,NA,"",   387.480E-03,   363.353E-03,   134.592E-03,   380.363E-09
C:/temp/dataset/4/10_15.odb,Step-1,Increment      1: Step Time =    1.000,"PART-1-1",           733,   461.223E-03,       1.99751,            0.,NA,NA,"",   396.945E-03,   378.097E-03,   120.865E-03,   375.648E-09
C:/temp/dataset/4/10_15.odb,Step-1,Increment      1: Step Time =    1.000,"PART-1-1",           734,       1.74006,       1.04512,            0.,NA,NA,"",   380.604E-03,   365.914E-03,   104.720E-03,   331.588E-09
C:/temp/dataset/4/10_15.odb,Step-1,Increment      1: Step Time =    1.000,"PART-1-1",           735,   906.022E-03,  -39.5003E-03,            0.,NA,NA,"",   370.642E-03,   352.223E-03,   115.386E-03,   530.800E-09
C:/temp/dataset/4/10_15.odb,Step-1,Increment      1: Step Time =    1.000,"PART-1-1",           736,       2.15034,  -968.542E-03,            0.,NA,NA,"",   354.635E-03,   340.339E-03,   99.6771E-03,   746.701E-09
C:/temp/dataset/4/10_15.odb,Step-1,Increment      1: Step Time =    1.000,"PART-1-1",           737,       2.98438,   116.081E-03,            0.,NA,NA,"",   365.048E-03,   354.030E-03,   89.0111E-03,   1.00735E-06
C:/temp/dataset/4/10_15.odb,Step-1,Increment      1: Step Time =    1.000,"PART-1-1",           738,      -8.25937,       5.01848,            0.,NA,NA,"",   476.927E-03,   417.118E-03,   231.240E-03,   5.64401E-09
C:/temp/dataset/4/10_15.odb,Step-1,Increment      1: Step Time =    1.000,"PART-1-1",           739,      -2.78312,       1.01462,            0.,NA,NA,"",   400.189E-03,   365.890E-03,   162.097E-03,   240.479E-09
C:/temp/dataset/4/10_15.odb,Step-1,Increment      1: Step Time =    1.000,"PART-1-1",           740,      -4.31499,   913.536E-03,            0.,NA,NA,"",   407.412E-03,   364.731E-03,   181.537E-03,   144.862E-09
C:/temp/dataset/4/10_15.odb,Step-1,Increment      1: Step Time =    1.000,"PART-1-1",           741,      -4.23975,  -195.042E-03,            0.,NA,NA,"",   394.470E-03,   350.663E-03,   180.672E-03,   169.150E-09
C:/temp/dataset/4/10_15.odb,Step-1,Increment      1: Step Time =    1.000,"PART-1-1",           742,      -8.52646,       20.5688,            0.,NA,NA,"",   657.222E-03,   614.391E-03,   233.377E-03,   31.7048E-12
C:/temp/dataset/4/10_15.odb,Step-1,Increment      1: Step Time =    1.000,"PART-1-1",           743,       8.09873,      -15.2435,            0.,NA,NA,"",   158.262E-03,   156.656E-03,   22.4907E-03,   1.98537E-03
C:/temp/dataset/4/10_15.odb,Step-1,Increment      1: Step Time =    1.000,"PART-1-1",           744,       8.99676,       14.2096,            0.,NA,NA,"",   532.403E-03,   532.276E-03,   11.6334E-03,   22.1899E-09
C:/temp/dataset/4/10_15.odb,Step-1,Increment      1: Step Time =    1.000,"PART-1-1",           745,       11.0169,       14.0599,            0.,NA,NA,"",   530.400E-03,   530.215E-03,  -13.9719E-03,   23.2426E-09
C:/temp/dataset/4/10_15.odb,Step-1,Increment      1: Step Time =    1.000,"PART-1-1",           746,      -7.91902,       15.6847,            0.,NA,NA,"",   596.857E-03,   552.389E-03,   226.065E-03,   87.7371E-12
C:/temp/dataset/4/10_15.odb,Step-1,Increment      1: Step Time =    1.000,"PART-1-1",           747,      -11.9968,       14.1876,            0.,NA,NA,"",   601.745E-03,   533.726E-03,   277.910E-03,   196.863E-12
C:/temp/dataset/4/10_15.odb,Step-1,Increment      1: Step Time =    1.000,"PART-1-1",           748,      -11.1175,       8.79310,            0.,NA,NA,"",   536.496E-03,   465.228E-03,   267.191E-03,   1.73339E-09
C:/temp/dataset/4/10_15.odb,Step-1,Increment      1: Step Time =    1.000,"PART-1-1",           749,       10.6592,      -6.44981,            0.,NA,NA,"",   270.292E-03,   270.184E-03,  -7.64691E-03,   44.8473E-06
C:/temp/dataset/4/10_15.odb,Step-1,Increment      1: Step Time =    1.000,"PART-1-1",           750,      -10.7894,       23.3985,            0.,NA,NA,"",   701.195E-03,   650.467E-03,   261.854E-03,   29.6979E-12
C:/temp/dataset/4/10_15.odb,Step-1,Increment      1: Step Time =    1.000,"PART-1-1",           751,       10.0228,      -25.8019,            0.,NA,NA,"",   21.4351E-03,   21.4345E-03,  -157.712E-06,   2.42934E-03
C:/temp/dataset/4/10_15.odb,Step-1,Increment      1: Step Time =    1.000,"PART-1-1",           752,       10.9542,      -24.8826,            0.,NA,NA,"",   30.5107E-03,   29.9879E-03,  -5.62418E-03,   2.65979E-03
C:/temp/dataset/4/10_15.odb,Step-1,Increment      1: Step Time =    1.000,"PART-1-1",           753,       11.8371,      -2.37854,            0.,NA,NA,"",   322.546E-03,   321.723E-03,  -23.0352E-03,   17.0453E-06
C:/temp/dataset/4/10_15.odb,Step-1,Increment      1: Step Time =    1.000,"PART-1-1",           754,       11.6235,      -5.02753,            0.,NA,NA,"",   288.861E-03,   288.162E-03,  -20.0728E-03,   38.0621E-06
C:/temp/dataset/4/10_15.odb,Step-1,Increment      1: Step Time =    1.000,"PART-1-1",           755,      -12.1333,       7.86930,            0.,NA,NA,"",   533.132E-03,   453.591E-03,   280.150E-03,   1.70940E-09
C:/temp/dataset/4/10_15.odb,Step-1,Increment      1: Step Time =    1.000,"PART-1-1",           756,      -12.0768,       9.95169,            0.,NA,NA,"",   555.330E-03,   480.001E-03,   279.266E-03,   1.11546E-09
C:/temp/dataset/4/10_15.odb,Step-1,Increment      1: Step Time =    1.000,"PART-1-1",           757,       8.68743,       3.64563,            0.,NA,NA,"",   398.678E-03,   398.340E-03,   16.4057E-03,   1.26266E-06
C:/temp/dataset/4/10_15.odb,Step-1,Increment      1: Step Time =    1.000,"PART-1-1",           758,       6.61848,       3.66599,            0.,NA,NA,"",   401.037E-03,   398.763E-03,   42.6397E-03,   1.10747E-06
C:/temp/dataset/4/10_15.odb,Step-1,Increment      1: Step Time =    1.000,"PART-1-1",           759,       4.71579,   65.6079E-03,            0.,NA,NA,"",   359.558E-03,   353.249E-03,   67.0559E-03,   2.48867E-06
C:/temp/dataset/4/10_15.odb,Step-1,Increment      1: Step Time =    1.000,"PART-1-1",           760,       3.89104,   957.250E-03,            0.,NA,NA,"",   372.760E-03,   364.626E-03,   77.4448E-03,   1.46253E-06
C:/temp/dataset/4/10_15.odb,Step-1,Increment      1: Step Time =    1.000,"PART-1-1",           761,      -12.0363,       12.0623,            0.,NA,NA,"",   578.295E-03,   506.771E-03,   278.582E-03,   528.380E-12
C:/temp/dataset/4/10_15.odb,Step-1,Increment      1: Step Time =    1.000,"PART-1-1",           762,      -12.1964,       5.82098,            0.,NA,NA,"",   511.742E-03,   427.614E-03,   281.116E-03,   1.61060E-09
C:/temp/dataset/4/10_15.odb,Step-1,Increment      1: Step Time =    1.000,"PART-1-1",           763,      -11.2570,       4.81016,            0.,NA,NA,"",   494.471E-03,   414.717E-03,   269.280E-03,   1.51993E-09
C:/temp/dataset/4/10_15.odb,Step-1,Increment      1: Step Time =    1.000,"PART-1-1",           764,      -10.5260,       3.94381,            0.,NA,NA,"",   480.196E-03,   403.668E-03,   260.078E-03,   2.78550E-09
C:/temp/dataset/4/10_15.odb,Step-1,Increment      1: Step Time =    1.000,"PART-1-1",           765,      -9.56326,       4.76486,            0.,NA,NA,"",   482.499E-03,   414.006E-03,   247.800E-03,   3.14464E-09
C:/temp/dataset/4/10_15.odb,Step-1,Increment      1: Step Time =    1.000,"PART-1-1",           766,      -9.32737,       3.44699,            0.,NA,NA,"",   466.697E-03,   397.270E-03,   244.914E-03,   7.34269E-09
C:/temp/dataset/4/10_15.odb,Step-1,Increment      1: Step Time =    1.000,"PART-1-1",           767,       11.5413,      -26.4438,            0.,NA,NA,"",   18.1765E-03,   16.9977E-03,  -6.43920E-03,   2.96303E-03
C:/temp/dataset/4/10_15.odb,Step-1,Increment      1: Step Time =    1.000,"PART-1-1",           768,       5.97241,      -3.36228,            0.,NA,NA,"",   313.887E-03,   309.653E-03,   51.3840E-03,   24.7158E-06
C:/temp/dataset/4/10_15.odb,Step-1,Increment      1: Step Time =    1.000,"PART-1-1",           769,       11.9304,       22.2704,            0.,NA,NA,"",   634.799E-03,   634.257E-03,  -26.2151E-03,   234.834E-12
C:/temp/dataset/4/10_15.odb,Step-1,Increment      1: Step Time =    1.000,"PART-1-1",           770,      -3.95064,       2.12654,            0.,NA,NA,"",   419.203E-03,   380.088E-03,   176.818E-03,   142.041E-09
C:/temp/dataset/4/10_15.odb,Step-1,Increment      1: Step Time =    1.000,"PART-1-1",           771,       12.1361,      -19.7979,            0.,NA,NA,"",   93.0783E-03,   90.4534E-03,  -21.9487E-03,   2.34848E-03
C:/temp/dataset/4/10_15.odb,Step-1,Increment      1: Step Time =    1.000,"PART-1-1",           772,       12.1156,      -17.4436,            0.,NA,NA,"",   125.294E-03,   122.963E-03,  -24.0549E-03,   1.85010E-03
C:/temp/dataset/4/10_15.odb,Step-1,Increment      1: Step Time =    1.000,"PART-1-1",           773,       11.8489,      -7.73518,            0.,NA,NA,"",   254.767E-03,   253.756E-03,  -22.6744E-03,   39.8353E-06
C:/temp/dataset/4/10_15.odb,Step-1,Increment      1: Step Time =    1.000,"PART-1-1",           774,       11.9658,      -10.2357,            0.,NA,NA,"",   222.915E-03,   221.623E-03,  -23.9710E-03,   156.423E-06
C:/temp/dataset/4/10_15.odb,Step-1,Increment      1: Step Time =    1.000,"PART-1-1",           775,       10.7237,      -1.11081,            0.,NA,NA,"",   337.992E-03,   337.871E-03,  -9.01868E-03,   13.1840E-06
C:/temp/dataset/4/10_15.odb,Step-1,Increment      1: Step Time =    1.000,"PART-1-1",           776,       11.9194,       10.4262,            0.,NA,NA,"",   484.715E-03,   484.064E-03,  -25.1235E-03,   66.6462E-09
C:/temp/dataset/4/10_15.odb,Step-1,Increment      1: Step Time =    1.000,"PART-1-1",           777,       11.9945,       12.8006,            0.,NA,NA,"",   514.839E-03,   514.168E-03,  -26.2675E-03,   30.4540E-09
C:/temp/dataset/4/10_15.odb,Step-1,Increment      1: Step Time =    1.000,"PART-1-1",           778,       12.0317,      -12.6649,            0.,NA,NA,"",   191.100E-03,   189.503E-03,  -24.6515E-03,   585.831E-06
C:/temp/dataset/4/10_15.odb,Step-1,Increment      1: Step Time =    1.000,"PART-1-1",           779,       12.0352,       15.1685,            0.,NA,NA,"",   544.859E-03,   544.191E-03,  -26.9735E-03,   10.5964E-09
C:/temp/dataset/4/10_15.odb,Step-1,Increment      1: Step Time =    1.000,"PART-1-1",           780,      -7.80161,      -2.23284,            0.,NA,NA,"",   395.947E-03,   325.100E-03,   226.017E-03,   23.3769E-09
C:/temp/dataset/4/10_15.odb,Step-1,Increment      1: Step Time =    1.000,"PART-1-1",           781,      -8.87876,  -905.543E-03,            0.,NA,NA,"",   417.583E-03,   342.023E-03,   239.573E-03,   17.6213E-09
C:/temp/dataset/4/10_15.odb,Step-1,Increment      1: Step Time =    1.000,"PART-1-1",           782,      -7.16649,      -1.00336,            0.,NA,NA,"",   404.354E-03,   340.645E-03,   217.862E-03,   40.6685E-09
C:/temp/dataset/4/10_15.odb,Step-1,Increment      1: Step Time =    1.000,"PART-1-1",           783,      -7.09692,   257.153E-03,            0.,NA,NA,"",   417.396E-03,   356.628E-03,   216.878E-03,   42.6482E-09
C:/temp/dataset/4/10_15.odb,Step-1,Increment      1: Step Time =    1.000,"PART-1-1",           784,      -5.74923,      -1.63131,            0.,NA,NA,"",   388.038E-03,   332.565E-03,   199.935E-03,   71.4095E-09
C:/temp/dataset/4/10_15.odb,Step-1,Increment      1: Step Time =    1.000,"PART-1-1",           785,      -5.66693,  -67.3201E-03,            0.,NA,NA,"",   404.588E-03,   352.398E-03,   198.765E-03,   89.1472E-09
C:/temp/dataset/4/10_15.odb,Step-1,Increment      1: Step Time =    1.000,"PART-1-1",           786,      -5.46941,       1.35113,            0.,NA,NA,"",   419.106E-03,   370.374E-03,   196.145E-03,   83.7283E-09
C:/temp/dataset/4/10_15.odb,Step-1,Increment      1: Step Time =    1.000,"PART-1-1",           787,       12.0849,      -15.0650,            0.,NA,NA,"",   158.448E-03,   156.481E-03,  -24.8907E-03,   1.21952E-03
C:/temp/dataset/4/10_15.odb,Step-1,Increment      1: Step Time =    1.000,"PART-1-1",           788,       7.01212,      -4.44648,            0.,NA,NA,"",   298.274E-03,   295.804E-03,   38.3067E-03,   35.4077E-06
C:/temp/dataset/4/10_15.odb,Step-1,Increment      1: Step Time =    1.000,"PART-1-1",           789,       7.64174,      -3.33281,            0.,NA,NA,"",   311.368E-03,   309.895E-03,   30.2481E-03,   27.1602E-06
C:/temp/dataset/4/10_15.odb,Step-1,Increment      1: Step Time =    1.000,"PART-1-1",           790,       6.60203,      -2.24861,            0.,NA,NA,"",   326.622E-03,   323.736E-03,   43.3247E-03,   12.7461E-06
C:/temp/dataset/4/10_15.odb,Step-1,Increment      1: Step Time =    1.000,"PART-1-1",           791,       6.68626,       2.15992,            0.,NA,NA,"",   381.962E-03,   379.657E-03,   41.9019E-03,   2.49400E-06
C:/temp/dataset/4/10_15.odb,Step-1,Increment      1: Step Time =    1.000,"PART-1-1",           792,       12.0103,       19.9021,            0.,NA,NA,"",   604.823E-03,   604.218E-03,  -27.0382E-03,   339.921E-12
C:/temp/dataset/4/10_15.odb,Step-1,Increment      1: Step Time =    1.000,"PART-1-1",           793,       12.0305,       17.5416,            0.,NA,NA,"",   574.923E-03,   574.284E-03,  -27.1051E-03,   2.62894E-09
C:/temp/dataset/4/10_15.odb,Step-1,Increment      1: Step Time =    1.000,"PART-1-1",           794,       6.09271,      -1.14349,            0.,NA,NA,"",   341.435E-03,   337.800E-03,   49.6927E-03,   7.50174E-06
C:/temp/dataset/4/10_15.odb,Step-1,Increment      1: Step Time =    1.000,"PART-1-1",           795,       7.56053,      -1.65505,            0.,NA,NA,"",   332.654E-03,   331.194E-03,   31.1322E-03,   13.5267E-06
C:/temp/dataset/4/10_15.odb,Step-1,Increment      1: Step Time =    1.000,"PART-1-1",           796,       7.05122,  -549.935E-03,            0.,NA,NA,"",   347.285E-03,   345.254E-03,   37.4953E-03,   7.65523E-06
C:/temp/dataset/4/10_15.odb,Step-1,Increment      1: Step Time =    1.000,"PART-1-1",           797,       5.28588,       1.87348,            0.,NA,NA,"",   380.841E-03,   376.135E-03,   59.6826E-03,   1.80808E-06
C:/temp/dataset/4/10_15.odb,Step-1,Increment      1: Step Time =    1.000,"PART-1-1",           798,       5.70847,   325.226E-03,            0.,NA,NA,"",   360.597E-03,   356.463E-03,   54.4477E-03,   3.78288E-06
C:/temp/dataset/4/10_15.odb,Step-1,Increment      1: Step Time =    1.000,"PART-1-1",           799,       7.10885,   611.668E-03,            0.,NA,NA,"",   361.848E-03,   359.985E-03,   36.6696E-03,   4.46576E-06
C:/temp/dataset/4/10_15.odb,Step-1,Increment      1: Step Time =    1.000,"PART-1-1",           800,       9.00326,      -1.31280,            0.,NA,NA,"",   335.676E-03,   335.431E-03,   12.8172E-03,   13.7670E-06
C:/temp/dataset/4/10_15.odb,Step-1,Increment      1: Step Time =    1.000,"PART-1-1",           801,       8.22155,  -652.532E-03,            0.,NA,NA,"",   344.610E-03,   343.864E-03,   22.6688E-03,   8.89528E-06
C:/temp/dataset/4/10_15.odb,Step-1,Increment      1: Step Time =    1.000,"PART-1-1",           802,       8.34224,      -2.31533,            0.,NA,NA,"",   323.461E-03,   322.759E-03,   21.2854E-03,   17.2263E-06
C:/temp/dataset/4/10_15.odb,Step-1,Increment      1: Step Time =    1.000,"PART-1-1",           803,       2.82445,       2.06443,            0.,NA,NA,"",   389.507E-03,   378.755E-03,   90.8839E-03,   433.733E-09
