ODB Name,Step,Frame,Part Instance Name,    êﬂì_ÉâÉxÉã,X,Y,Z,Section Name,Material Name,Section Point,   U-Magnitude,          U-U1,          U-U2,       S-Mises
C:/temp/dataset/4/10_35.odb,Step-1,Increment      1: Step Time =    1.000,"PART-1-1",             1,           -5.,           30.,            0.,NA,NA,"",       1.76752,       1.71580,   424.467E-03,   17.6268E-09
C:/temp/dataset/4/10_35.odb,Step-1,Increment      1: Step Time =    1.000,"PART-1-1",             2,          -15.,           30.,            0.,NA,NA,"",       1.86494,       1.72018,   720.418E-03,   17.5559E-09
C:/temp/dataset/4/10_35.odb,Step-1,Increment      1: Step Time =    1.000,"PART-1-1",             3,          -15.,         21.25,            0.,NA,NA,"",       1.63086,       1.46122,   724.251E-03,   17.5613E-09
C:/temp/dataset/4/10_35.odb,Step-1,Increment      1: Step Time =    1.000,"PART-1-1",             4,          -15.,          12.5,            0.,NA,NA,"",       1.40554,       1.20226,   728.083E-03,   17.4864E-09
C:/temp/dataset/4/10_35.odb,Step-1,Increment      1: Step Time =    1.000,"PART-1-1",             5,          -15.,          3.75,            0.,NA,NA,"",       1.19396,   943.307E-03,   731.916E-03,   24.7039E-09
C:/temp/dataset/4/10_35.odb,Step-1,Increment      1: Step Time =    1.000,"PART-1-1",             6,          -15.,           -5.,            0.,NA,NA,"",       1.00482,   684.350E-03,   735.749E-03,   13.7931E-09
C:/temp/dataset/4/10_35.odb,Step-1,Increment      1: Step Time =    1.000,"PART-1-1",             7,          -10.,           -5.,            0.,NA,NA,"",   900.455E-03,   682.160E-03,   587.773E-03,   27.2154E-09
C:/temp/dataset/4/10_35.odb,Step-1,Increment      1: Step Time =    1.000,"PART-1-1",             8,           -5.,           -5.,            0.,NA,NA,"",   809.803E-03,   679.970E-03,   439.798E-03,   232.396E-09
C:/temp/dataset/4/10_35.odb,Step-1,Increment      1: Step Time =    1.000,"PART-1-1",             9,            0.,           -5.,            0.,NA,NA,"",   737.929E-03,   677.775E-03,   291.822E-03,   3.62615E-06
C:/temp/dataset/4/10_35.odb,Step-1,Increment      1: Step Time =    1.000,"PART-1-1",            10,            5.,           -5.,            0.,NA,NA,"",   690.675E-03,   675.551E-03,   143.747E-03,   82.5002E-06
C:/temp/dataset/4/10_35.odb,Step-1,Increment      1: Step Time =    1.000,"PART-1-1",            11,            5.,        -11.25,            0.,NA,NA,"",   516.764E-03,   496.487E-03,   143.337E-03,   1.80504E-03
C:/temp/dataset/4/10_35.odb,Step-1,Increment      1: Step Time =    1.000,"PART-1-1",            12,            5.,         -17.5,            0.,NA,NA,"",   329.739E-03,   298.987E-03,   139.048E-03,   4.98240E-03
C:/temp/dataset/4/10_35.odb,Step-1,Increment      1: Step Time =    1.000,"PART-1-1",            13,            5.,        -23.75,            0.,NA,NA,"",   144.816E-03,   111.198E-03,   92.7727E-03,   12.4720E-03
C:/temp/dataset/4/10_35.odb,Step-1,Increment      1: Step Time =    1.000,"PART-1-1",            14,            5.,          -30.,            0.,NA,NA,"",            0.,   6.95908E-39,   12.8461E-39,   25.0693E-03
C:/temp/dataset/4/10_35.odb,Step-1,Increment      1: Step Time =    1.000,"PART-1-1",            15,           15.,          -30.,            0.,NA,NA,"",            0.,   7.04899E-39,  -12.7735E-39,   24.4315E-03
C:/temp/dataset/4/10_35.odb,Step-1,Increment      1: Step Time =    1.000,"PART-1-1",            16,           15.,         -22.5,            0.,NA,NA,"",   176.283E-03,   140.171E-03,  -106.901E-03,   10.4874E-03
C:/temp/dataset/4/10_35.odb,Step-1,Increment      1: Step Time =    1.000,"PART-1-1",            17,           15.,          -15.,            0.,NA,NA,"",   395.277E-03,   366.620E-03,  -147.762E-03,   1.39319E-03
C:/temp/dataset/4/10_35.odb,Step-1,Increment      1: Step Time =    1.000,"PART-1-1",            18,           15.,          -7.5,            0.,NA,NA,"",   616.078E-03,   597.164E-03,  -151.483E-03,   247.505E-06
C:/temp/dataset/4/10_35.odb,Step-1,Increment      1: Step Time =    1.000,"PART-1-1",            19,           15.,            0.,            0.,NA,NA,"",   833.638E-03,   819.254E-03,  -154.194E-03,   7.31127E-06
C:/temp/dataset/4/10_35.odb,Step-1,Increment      1: Step Time =    1.000,"PART-1-1",            20,           15.,           7.5,            0.,NA,NA,"",       1.05296,       1.04112,  -157.472E-03,   532.371E-09
C:/temp/dataset/4/10_35.odb,Step-1,Increment      1: Step Time =    1.000,"PART-1-1",            21,           15.,           15.,            0.,NA,NA,"",       1.27320,       1.26301,  -160.757E-03,   12.7497E-09
C:/temp/dataset/4/10_35.odb,Step-1,Increment      1: Step Time =    1.000,"PART-1-1",            22,           15.,          22.5,            0.,NA,NA,"",       1.49394,       1.48491,  -164.040E-03,   11.1652E-09
C:/temp/dataset/4/10_35.odb,Step-1,Increment      1: Step Time =    1.000,"PART-1-1",            23,           15.,           30.,            0.,NA,NA,"",       1.71498,       1.70680,  -167.323E-03,   11.5867E-09
C:/temp/dataset/4/10_35.odb,Step-1,Increment      1: Step Time =    1.000,"PART-1-1",            24,            5.,           30.,            0.,NA,NA,"",       1.71600,       1.71118,   128.535E-03,   11.5575E-09
C:/temp/dataset/4/10_35.odb,Step-1,Increment      1: Step Time =    1.000,"PART-1-1",            25,            5.,         23.75,            0.,NA,NA,"",       1.53190,       1.52627,   131.271E-03,   11.8865E-09
C:/temp/dataset/4/10_35.odb,Step-1,Increment      1: Step Time =    1.000,"PART-1-1",            26,            5.,          17.5,            0.,NA,NA,"",       1.34803,       1.34135,   134.007E-03,   12.2462E-09
C:/temp/dataset/4/10_35.odb,Step-1,Increment      1: Step Time =    1.000,"PART-1-1",            27,            5.,         11.25,            0.,NA,NA,"",       1.16450,       1.15644,   136.743E-03,   127.318E-09
C:/temp/dataset/4/10_35.odb,Step-1,Increment      1: Step Time =    1.000,"PART-1-1",            28,            5.,            5.,            0.,NA,NA,"",   981.490E-03,   971.529E-03,   139.482E-03,   1.11447E-06
C:/temp/dataset/4/10_35.odb,Step-1,Increment      1: Step Time =    1.000,"PART-1-1",            29,            0.,            5.,            0.,NA,NA,"",       1.01527,   973.728E-03,   287.442E-03,   1.39123E-06
C:/temp/dataset/4/10_35.odb,Step-1,Increment      1: Step Time =    1.000,"PART-1-1",            30,           -5.,            5.,            0.,NA,NA,"",       1.06865,   975.920E-03,   435.417E-03,   106.557E-09
C:/temp/dataset/4/10_35.odb,Step-1,Increment      1: Step Time =    1.000,"PART-1-1",            31,           -5.,         11.25,            0.,NA,NA,"",       1.23890,       1.16089,   432.680E-03,   15.2501E-09
C:/temp/dataset/4/10_35.odb,Step-1,Increment      1: Step Time =    1.000,"PART-1-1",            32,           -5.,          17.5,            0.,NA,NA,"",       1.41287,       1.34586,   429.942E-03,   15.6499E-09
C:/temp/dataset/4/10_35.odb,Step-1,Increment      1: Step Time =    1.000,"PART-1-1",            33,           -5.,         23.75,            0.,NA,NA,"",       1.58932,       1.53083,   427.204E-03,   16.6516E-09
C:/temp/dataset/4/10_35.odb,Step-1,Increment      1: Step Time =    1.000,"PART-1-1",            34,          -7.5,           30.,            0.,NA,NA,"",       1.78779,       1.71689,   498.455E-03,   17.3501E-09
C:/temp/dataset/4/10_35.odb,Step-1,Increment      1: Step Time =    1.000,"PART-1-1",            35,          -10.,           30.,            0.,NA,NA,"",       1.81085,       1.71799,   572.442E-03,   17.0863E-09
C:/temp/dataset/4/10_35.odb,Step-1,Increment      1: Step Time =    1.000,"PART-1-1",            36,         -12.5,           30.,            0.,NA,NA,"",       1.83661,       1.71908,   646.430E-03,   16.9853E-09
C:/temp/dataset/4/10_35.odb,Step-1,Increment      1: Step Time =    1.000,"PART-1-1",            37,          -15.,       27.8125,            0.,NA,NA,"",       1.80579,       1.65544,   721.376E-03,   17.5101E-09
C:/temp/dataset/4/10_35.odb,Step-1,Increment      1: Step Time =    1.000,"PART-1-1",            38,          -15.,        25.625,            0.,NA,NA,"",       1.74702,       1.59070,   722.334E-03,   17.5358E-09
C:/temp/dataset/4/10_35.odb,Step-1,Increment      1: Step Time =    1.000,"PART-1-1",            39,          -15.,       23.4375,            0.,NA,NA,"",       1.68870,       1.52596,   723.292E-03,   17.5684E-09
C:/temp/dataset/4/10_35.odb,Step-1,Increment      1: Step Time =    1.000,"PART-1-1",            40,          -15.,       19.0625,            0.,NA,NA,"",       1.57356,       1.39648,   725.209E-03,   17.5143E-09
C:/temp/dataset/4/10_35.odb,Step-1,Increment      1: Step Time =    1.000,"PART-1-1",            41,          -15.,        16.875,            0.,NA,NA,"",       1.51686,       1.33174,   726.167E-03,   17.4256E-09
C:/temp/dataset/4/10_35.odb,Step-1,Increment      1: Step Time =    1.000,"PART-1-1",            42,          -15.,       14.6875,            0.,NA,NA,"",       1.46082,       1.26700,   727.125E-03,   17.3552E-09
C:/temp/dataset/4/10_35.odb,Step-1,Increment      1: Step Time =    1.000,"PART-1-1",            43,          -15.,       10.3125,            0.,NA,NA,"",       1.35110,       1.13752,   729.042E-03,   18.2057E-09
C:/temp/dataset/4/10_35.odb,Step-1,Increment      1: Step Time =    1.000,"PART-1-1",            44,          -15.,         8.125,            0.,NA,NA,"",       1.29760,       1.07279,   730.000E-03,   20.0560E-09
C:/temp/dataset/4/10_35.odb,Step-1,Increment      1: Step Time =    1.000,"PART-1-1",            45,          -15.,        5.9375,            0.,NA,NA,"",       1.24517,       1.00805,   730.958E-03,   22.7761E-09
C:/temp/dataset/4/10_35.odb,Step-1,Increment      1: Step Time =    1.000,"PART-1-1",            46,          -15.,        1.5625,            0.,NA,NA,"",       1.14411,   878.568E-03,   732.874E-03,   24.0158E-09
C:/temp/dataset/4/10_35.odb,Step-1,Increment      1: Step Time =    1.000,"PART-1-1",            47,          -15.,     -625.E-03,            0.,NA,NA,"",       1.09582,   813.828E-03,   733.832E-03,   20.1616E-09
C:/temp/dataset/4/10_35.odb,Step-1,Increment      1: Step Time =    1.000,"PART-1-1",            48,          -15.,       -2.8125,            0.,NA,NA,"",       1.04931,   749.089E-03,   734.790E-03,   15.2102E-09
C:/temp/dataset/4/10_35.odb,Step-1,Increment      1: Step Time =    1.000,"PART-1-1",            49,         -12.5,           -5.,            0.,NA,NA,"",   951.191E-03,   683.255E-03,   661.761E-03,   16.6228E-09
C:/temp/dataset/4/10_35.odb,Step-1,Increment      1: Step Time =    1.000,"PART-1-1",            50,          -7.5,           -5.,            0.,NA,NA,"",   853.127E-03,   681.065E-03,   513.786E-03,   31.1690E-09
C:/temp/dataset/4/10_35.odb,Step-1,Increment      1: Step Time =    1.000,"PART-1-1",            51,          -2.5,           -5.,            0.,NA,NA,"",   771.160E-03,   678.874E-03,   365.811E-03,   616.444E-09
C:/temp/dataset/4/10_35.odb,Step-1,Increment      1: Step Time =    1.000,"PART-1-1",            52,           2.5,           -5.,            0.,NA,NA,"",   710.872E-03,   676.675E-03,   217.829E-03,   14.3620E-06
C:/temp/dataset/4/10_35.odb,Step-1,Increment      1: Step Time =    1.000,"PART-1-1",            53,            5.,      -7.08333,            0.,NA,NA,"",   630.772E-03,   614.064E-03,   144.217E-03,   320.618E-06
C:/temp/dataset/4/10_35.odb,Step-1,Increment      1: Step Time =    1.000,"PART-1-1",            54,            5.,      -9.16667,            0.,NA,NA,"",   571.804E-03,   553.270E-03,   144.402E-03,   785.550E-06
C:/temp/dataset/4/10_35.odb,Step-1,Increment      1: Step Time =    1.000,"PART-1-1",            55,            5.,      -13.3333,            0.,NA,NA,"",   461.019E-03,   437.884E-03,   144.209E-03,   3.46881E-03
C:/temp/dataset/4/10_35.odb,Step-1,Increment      1: Step Time =    1.000,"PART-1-1",            56,            5.,      -15.4167,            0.,NA,NA,"",   398.235E-03,   371.736E-03,   142.840E-03,   3.97816E-03
C:/temp/dataset/4/10_35.odb,Step-1,Increment      1: Step Time =    1.000,"PART-1-1",            57,            5.,      -19.5833,            0.,NA,NA,"",   261.108E-03,   227.485E-03,   128.172E-03,   7.42854E-03
C:/temp/dataset/4/10_35.odb,Step-1,Increment      1: Step Time =    1.000,"PART-1-1",            58,            5.,      -21.6667,            0.,NA,NA,"",   200.171E-03,   165.244E-03,   112.972E-03,   9.86844E-03
C:/temp/dataset/4/10_35.odb,Step-1,Increment      1: Step Time =    1.000,"PART-1-1",            59,            5.,      -25.8333,            0.,NA,NA,"",   94.9775E-03,   66.5536E-03,   67.7594E-03,   14.6750E-03
C:/temp/dataset/4/10_35.odb,Step-1,Increment      1: Step Time =    1.000,"PART-1-1",            60,            5.,      -27.9167,            0.,NA,NA,"",   50.1388E-03,   32.4664E-03,   38.2077E-03,   18.7698E-03
C:/temp/dataset/4/10_35.odb,Step-1,Increment      1: Step Time =    1.000,"PART-1-1",            61,           7.5,          -30.,            0.,NA,NA,"",            0.,   4.16890E-39,   11.5052E-39,   6.18301E-03
C:/temp/dataset/4/10_35.odb,Step-1,Increment      1: Step Time =    1.000,"PART-1-1",            62,           10.,          -30.,            0.,NA,NA,"",            0.,   752.577E-42,   1.24481E-39,   1.07368E-03
C:/temp/dataset/4/10_35.odb,Step-1,Increment      1: Step Time =    1.000,"PART-1-1",            63,          12.5,          -30.,            0.,NA,NA,"",            0.,   6.98367E-39,  -12.8539E-39,   6.29707E-03
C:/temp/dataset/4/10_35.odb,Step-1,Increment      1: Step Time =    1.000,"PART-1-1",            64,           15.,         -27.5,            0.,NA,NA,"",   58.1147E-03,   37.4392E-03,  -44.4480E-03,   17.8954E-03
C:/temp/dataset/4/10_35.odb,Step-1,Increment      1: Step Time =    1.000,"PART-1-1",            65,           15.,          -25.,            0.,NA,NA,"",   113.627E-03,   81.4605E-03,  -79.2163E-03,   13.4001E-03
C:/temp/dataset/4/10_35.odb,Step-1,Increment      1: Step Time =    1.000,"PART-1-1",            66,           15.,          -20.,            0.,NA,NA,"",   245.682E-03,   209.981E-03,  -127.545E-03,   7.00450E-03
C:/temp/dataset/4/10_35.odb,Step-1,Increment      1: Step Time =    1.000,"PART-1-1",            67,           15.,         -17.5,            0.,NA,NA,"",   319.684E-03,   286.989E-03,  -140.837E-03,   3.84954E-03
C:/temp/dataset/4/10_35.odb,Step-1,Increment      1: Step Time =    1.000,"PART-1-1",            68,           15.,         -12.5,            0.,NA,NA,"",   470.147E-03,   445.458E-03,  -150.351E-03,   69.3452E-06
C:/temp/dataset/4/10_35.odb,Step-1,Increment      1: Step Time =    1.000,"PART-1-1",            69,           15.,          -10.,            0.,NA,NA,"",   543.573E-03,   522.165E-03,  -151.046E-03,   325.020E-06
C:/temp/dataset/4/10_35.odb,Step-1,Increment      1: Step Time =    1.000,"PART-1-1",            70,           15.,           -5.,            0.,NA,NA,"",   688.395E-03,   671.360E-03,  -152.196E-03,   111.137E-06
C:/temp/dataset/4/10_35.odb,Step-1,Increment      1: Step Time =    1.000,"PART-1-1",            71,           15.,          -2.5,            0.,NA,NA,"",   760.891E-03,   745.321E-03,  -153.141E-03,   34.1236E-06
C:/temp/dataset/4/10_35.odb,Step-1,Increment      1: Step Time =    1.000,"PART-1-1",            72,           15.,           2.5,            0.,NA,NA,"",   906.597E-03,   893.199E-03,  -155.281E-03,   494.251E-09
C:/temp/dataset/4/10_35.odb,Step-1,Increment      1: Step Time =    1.000,"PART-1-1",            73,           15.,            5.,            0.,NA,NA,"",   979.716E-03,   967.156E-03,  -156.376E-03,   878.702E-09
C:/temp/dataset/4/10_35.odb,Step-1,Increment      1: Step Time =    1.000,"PART-1-1",            74,           15.,           10.,            0.,NA,NA,"",       1.12630,       1.11508,  -158.568E-03,   212.759E-09
C:/temp/dataset/4/10_35.odb,Step-1,Increment      1: Step Time =    1.000,"PART-1-1",            75,           15.,          12.5,            0.,NA,NA,"",       1.19972,       1.18905,  -159.662E-03,   59.6062E-09
C:/temp/dataset/4/10_35.odb,Step-1,Increment      1: Step Time =    1.000,"PART-1-1",            76,           15.,          17.5,            0.,NA,NA,"",       1.34674,       1.33698,  -161.851E-03,   10.9628E-09
C:/temp/dataset/4/10_35.odb,Step-1,Increment      1: Step Time =    1.000,"PART-1-1",            77,           15.,           20.,            0.,NA,NA,"",       1.42032,       1.41094,  -162.945E-03,   11.4399E-09
C:/temp/dataset/4/10_35.odb,Step-1,Increment      1: Step Time =    1.000,"PART-1-1",            78,           15.,           25.,            0.,NA,NA,"",       1.56759,       1.55887,  -165.134E-03,   11.0804E-09
C:/temp/dataset/4/10_35.odb,Step-1,Increment      1: Step Time =    1.000,"PART-1-1",            79,           15.,          27.5,            0.,NA,NA,"",       1.64127,       1.63283,  -166.229E-03,   11.1174E-09
C:/temp/dataset/4/10_35.odb,Step-1,Increment      1: Step Time =    1.000,"PART-1-1",            80,          12.5,           30.,            0.,NA,NA,"",       1.71044,       1.70789,  -93.3583E-03,   11.3835E-09
C:/temp/dataset/4/10_35.odb,Step-1,Increment      1: Step Time =    1.000,"PART-1-1",            81,           10.,           30.,            0.,NA,NA,"",       1.70910,       1.70899,  -19.3937E-03,   11.2044E-09
C:/temp/dataset/4/10_35.odb,Step-1,Increment      1: Step Time =    1.000,"PART-1-1",            82,           7.5,           30.,            0.,NA,NA,"",       1.71095,       1.71008,   54.5709E-03,   11.0862E-09
C:/temp/dataset/4/10_35.odb,Step-1,Increment      1: Step Time =    1.000,"PART-1-1",            83,            5.,       27.9167,            0.,NA,NA,"",       1.65461,       1.64954,   129.447E-03,   11.5082E-09
C:/temp/dataset/4/10_35.odb,Step-1,Increment      1: Step Time =    1.000,"PART-1-1",            84,            5.,       25.8333,            0.,NA,NA,"",       1.59324,       1.58790,   130.359E-03,   11.6193E-09
C:/temp/dataset/4/10_35.odb,Step-1,Increment      1: Step Time =    1.000,"PART-1-1",            85,            5.,       21.6667,            0.,NA,NA,"",       1.47058,       1.46463,   132.183E-03,   12.3418E-09
C:/temp/dataset/4/10_35.odb,Step-1,Increment      1: Step Time =    1.000,"PART-1-1",            86,            5.,       19.5833,            0.,NA,NA,"",       1.40929,       1.40299,   133.095E-03,   12.8755E-09
C:/temp/dataset/4/10_35.odb,Step-1,Increment      1: Step Time =    1.000,"PART-1-1",            87,            5.,       15.4167,            0.,NA,NA,"",       1.28681,       1.27972,   134.919E-03,   10.7533E-09
C:/temp/dataset/4/10_35.odb,Step-1,Increment      1: Step Time =    1.000,"PART-1-1",            88,            5.,       13.3333,            0.,NA,NA,"",       1.22563,       1.21808,   135.831E-03,   34.1515E-09
C:/temp/dataset/4/10_35.odb,Step-1,Increment      1: Step Time =    1.000,"PART-1-1",            89,            5.,       9.16667,            0.,NA,NA,"",       1.10343,       1.09481,   137.656E-03,   287.054E-09
C:/temp/dataset/4/10_35.odb,Step-1,Increment      1: Step Time =    1.000,"PART-1-1",            90,            5.,       7.08333,            0.,NA,NA,"",       1.04242,       1.03317,   138.569E-03,   647.126E-09
C:/temp/dataset/4/10_35.odb,Step-1,Increment      1: Step Time =    1.000,"PART-1-1",            91,           2.5,            5.,            0.,NA,NA,"",   995.776E-03,   972.628E-03,   213.458E-03,   2.29792E-06
C:/temp/dataset/4/10_35.odb,Step-1,Increment      1: Step Time =    1.000,"PART-1-1",            92,          -2.5,            5.,            0.,NA,NA,"",       1.03967,   974.825E-03,   361.429E-03,   527.462E-09
C:/temp/dataset/4/10_35.odb,Step-1,Increment      1: Step Time =    1.000,"PART-1-1",            93,           -5.,       7.08333,            0.,NA,NA,"",       1.12488,       1.03758,   434.505E-03,   32.9447E-09
C:/temp/dataset/4/10_35.odb,Step-1,Increment      1: Step Time =    1.000,"PART-1-1",            94,           -5.,       9.16667,            0.,NA,NA,"",       1.18166,       1.09923,   433.592E-03,   15.7543E-09
C:/temp/dataset/4/10_35.odb,Step-1,Increment      1: Step Time =    1.000,"PART-1-1",            95,           -5.,       13.3333,            0.,NA,NA,"",       1.29655,       1.22255,   431.767E-03,   14.8869E-09
C:/temp/dataset/4/10_35.odb,Step-1,Increment      1: Step Time =    1.000,"PART-1-1",            96,           -5.,       15.4167,            0.,NA,NA,"",       1.35455,       1.28420,   430.855E-03,   15.2790E-09
C:/temp/dataset/4/10_35.odb,Step-1,Increment      1: Step Time =    1.000,"PART-1-1",            97,           -5.,       19.5833,            0.,NA,NA,"",       1.47145,       1.40752,   429.029E-03,   16.0244E-09
C:/temp/dataset/4/10_35.odb,Step-1,Increment      1: Step Time =    1.000,"PART-1-1",            98,           -5.,       21.6667,            0.,NA,NA,"",       1.53028,       1.46917,   428.117E-03,   16.3601E-09
C:/temp/dataset/4/10_35.odb,Step-1,Increment      1: Step Time =    1.000,"PART-1-1",            99,           -5.,       25.8333,            0.,NA,NA,"",       1.64856,       1.59249,   426.292E-03,   16.8934E-09
C:/temp/dataset/4/10_35.odb,Step-1,Increment      1: Step Time =    1.000,"PART-1-1",           100,           -5.,       27.9167,            0.,NA,NA,"",       1.70796,       1.65414,   425.379E-03,   17.0564E-09
C:/temp/dataset/4/10_35.odb,Step-1,Increment      1: Step Time =    1.000,"PART-1-1",           101,       6.93475,       11.1046,            0.,NA,NA,"",       1.15404,       1.15129,   79.5659E-03,   134.200E-09
C:/temp/dataset/4/10_35.odb,Step-1,Increment      1: Step Time =    1.000,"PART-1-1",           102,       7.10183,      -21.7370,            0.,NA,NA,"",   166.367E-03,   155.275E-03,   59.7308E-03,   6.76464E-03
C:/temp/dataset/4/10_35.odb,Step-1,Increment      1: Step Time =    1.000,"PART-1-1",           103,      -7.18606,       25.6133,            0.,NA,NA,"",       1.66118,       1.58693,   491.085E-03,   16.9350E-09
C:/temp/dataset/4/10_35.odb,Step-1,Increment      1: Step Time =    1.000,"PART-1-1",           104,       7.08931,      -17.4629,            0.,NA,NA,"",   302.302E-03,   293.147E-03,   73.8343E-03,   6.05857E-03
C:/temp/dataset/4/10_35.odb,Step-1,Increment      1: Step Time =    1.000,"PART-1-1",           105,       7.11844,      -23.8299,            0.,NA,NA,"",   110.494E-03,   99.4866E-03,   48.0769E-03,   8.13746E-03
C:/temp/dataset/4/10_35.odb,Step-1,Increment      1: Step Time =    1.000,"PART-1-1",           106,       7.34845,      -27.9642,            0.,NA,NA,"",   24.6294E-03,   19.3147E-03,   15.2824E-03,   10.6297E-03
C:/temp/dataset/4/10_35.odb,Step-1,Increment      1: Step Time =    1.000,"PART-1-1",           107,       7.18399,      -25.9216,            0.,NA,NA,"",   62.2341E-03,   53.2125E-03,   32.2725E-03,   9.89082E-03
C:/temp/dataset/4/10_35.odb,Step-1,Increment      1: Step Time =    1.000,"PART-1-1",           108,       7.00226,      -10.9532,            0.,NA,NA,"",   508.595E-03,   501.123E-03,   86.8613E-03,   1.66243E-03
C:/temp/dataset/4/10_35.odb,Step-1,Increment      1: Step Time =    1.000,"PART-1-1",           109,       6.93148,       25.8450,            0.,NA,NA,"",       1.58909,       1.58740,   73.2097E-03,   11.3922E-09
C:/temp/dataset/4/10_35.odb,Step-1,Increment      1: Step Time =    1.000,"PART-1-1",           110,       6.95256,       21.7727,            0.,NA,NA,"",       1.46880,       1.46691,   74.3688E-03,   11.2780E-09
C:/temp/dataset/4/10_35.odb,Step-1,Increment      1: Step Time =    1.000,"PART-1-1",           111,       6.99069,       19.6693,            0.,NA,NA,"",       1.40662,       1.40466,   74.1617E-03,   10.7090E-09
C:/temp/dataset/4/10_35.odb,Step-1,Increment      1: Step Time =    1.000,"PART-1-1",           112,       6.98342,       13.2435,            0.,NA,NA,"",       1.21700,       1.21455,   77.1895E-03,   60.0768E-09
C:/temp/dataset/4/10_35.odb,Step-1,Increment      1: Step Time =    1.000,"PART-1-1",           113,       6.84904,       8.98858,            0.,NA,NA,"",       1.09189,       1.08873,   83.0279E-03,   226.253E-09
C:/temp/dataset/4/10_35.odb,Step-1,Increment      1: Step Time =    1.000,"PART-1-1",           114,      -7.00061,       11.3966,            0.,NA,NA,"",       1.26558,       1.16611,   491.824E-03,   15.3249E-09
C:/temp/dataset/4/10_35.odb,Step-1,Increment      1: Step Time =    1.000,"PART-1-1",           115,      -6.87185,       17.5946,            0.,NA,NA,"",       1.43409,       1.34948,   485.298E-03,   15.9279E-09
C:/temp/dataset/4/10_35.odb,Step-1,Increment      1: Step Time =    1.000,"PART-1-1",           116,      -6.78696,       21.5686,            0.,NA,NA,"",       1.54391,       1.46705,   481.045E-03,   16.4776E-09
C:/temp/dataset/4/10_35.odb,Step-1,Increment      1: Step Time =    1.000,"PART-1-1",           117,      -6.92081,       23.5666,            0.,NA,NA,"",       1.60119,       1.52624,   484.131E-03,   16.7218E-09
C:/temp/dataset/4/10_35.odb,Step-1,Increment      1: Step Time =    1.000,"PART-1-1",           118,      -7.47694,       27.7553,            0.,NA,NA,"",       1.72416,       1.65045,   498.755E-03,   17.1371E-09
C:/temp/dataset/4/10_35.odb,Step-1,Increment      1: Step Time =    1.000,"PART-1-1",           119,       6.62973,      -6.72562,            0.,NA,NA,"",   631.170E-03,   623.776E-03,   96.3317E-03,   140.392E-06
C:/temp/dataset/4/10_35.odb,Step-1,Increment      1: Step Time =    1.000,"PART-1-1",           120,       7.00244,       17.5390,            0.,NA,NA,"",       1.34371,       1.34163,   74.7466E-03,   10.4441E-09
C:/temp/dataset/4/10_35.odb,Step-1,Increment      1: Step Time =    1.000,"PART-1-1",           121,       7.05765,      -13.1226,            0.,NA,NA,"",   445.476E-03,   437.594E-03,   83.4264E-03,   3.68928E-03
C:/temp/dataset/4/10_35.odb,Step-1,Increment      1: Step Time =    1.000,"PART-1-1",           122,      -6.97858,       13.4860,            0.,NA,NA,"",       1.32218,       1.22793,   490.257E-03,   15.4070E-09
C:/temp/dataset/4/10_35.odb,Step-1,Increment      1: Step Time =    1.000,"PART-1-1",           123,      -7.06135,       7.11796,            0.,NA,NA,"",       1.15156,       1.03950,   495.496E-03,   17.6671E-09
C:/temp/dataset/4/10_35.odb,Step-1,Increment      1: Step Time =    1.000,"PART-1-1",           124,       6.87626,      -8.81940,            0.,NA,NA,"",   569.361E-03,   562.192E-03,   90.0633E-03,   310.900E-06
C:/temp/dataset/4/10_35.odb,Step-1,Increment      1: Step Time =    1.000,"PART-1-1",           125,       7.08495,      -15.2974,            0.,NA,NA,"",   376.066E-03,   367.714E-03,   78.8189E-03,   4.96769E-03
C:/temp/dataset/4/10_35.odb,Step-1,Increment      1: Step Time =    1.000,"PART-1-1",           126,       7.00715,       15.3887,            0.,NA,NA,"",       1.28024,       1.27801,   75.5483E-03,   21.5713E-09
C:/temp/dataset/4/10_35.odb,Step-1,Increment      1: Step Time =    1.000,"PART-1-1",           127,      -7.01992,       9.30136,            0.,NA,NA,"",       1.20930,       1.10410,   493.313E-03,   15.9238E-09
C:/temp/dataset/4/10_35.odb,Step-1,Increment      1: Step Time =    1.000,"PART-1-1",           128,      -6.93369,       15.5639,            0.,NA,NA,"",       1.37867,       1.28941,   488.018E-03,   15.6384E-09
C:/temp/dataset/4/10_35.odb,Step-1,Increment      1: Step Time =    1.000,"PART-1-1",           129,      -6.79206,       19.5889,            0.,NA,NA,"",       1.48868,       1.40847,   482.063E-03,   16.2097E-09
C:/temp/dataset/4/10_35.odb,Step-1,Increment      1: Step Time =    1.000,"PART-1-1",           130,       7.09662,      -19.6136,            0.,NA,NA,"",   230.386E-03,   220.129E-03,   67.9781E-03,   5.52151E-03
C:/temp/dataset/4/10_35.odb,Step-1,Increment      1: Step Time =    1.000,"PART-1-1",           131,       6.89670,       23.8203,            0.,NA,NA,"",       1.52936,       1.52752,   75.1253E-03,   11.4089E-09
C:/temp/dataset/4/10_35.odb,Step-1,Increment      1: Step Time =    1.000,"PART-1-1",           132,       6.67676,       6.98748,            0.,NA,NA,"",       1.03344,       1.02960,   89.0012E-03,   183.941E-09
C:/temp/dataset/4/10_35.odb,Step-1,Increment      1: Step Time =    1.000,"PART-1-1",           133,      -13.0361,       12.2042,            0.,NA,NA,"",       1.36800,       1.19265,   670.092E-03,   16.7799E-09
C:/temp/dataset/4/10_35.odb,Step-1,Increment      1: Step Time =    1.000,"PART-1-1",           134,      -13.0483,       3.72302,            0.,NA,NA,"",       1.15811,   941.654E-03,   674.167E-03,   15.8437E-09
C:/temp/dataset/4/10_35.odb,Step-1,Increment      1: Step Time =    1.000,"PART-1-1",           135,      -13.0740,       10.0823,            0.,NA,NA,"",       1.31468,       1.12987,   672.143E-03,   16.9002E-09
C:/temp/dataset/4/10_35.odb,Step-1,Increment      1: Step Time =    1.000,"PART-1-1",           136,      -13.0017,       14.3509,            0.,NA,NA,"",       1.42280,       1.25617,   668.132E-03,   16.8225E-09
C:/temp/dataset/4/10_35.odb,Step-1,Increment      1: Step Time =    1.000,"PART-1-1",           137,      -12.4480,       21.2307,            0.,NA,NA,"",       1.59721,       1.45953,   648.733E-03,   17.1318E-09
C:/temp/dataset/4/10_35.odb,Step-1,Increment      1: Step Time =    1.000,"PART-1-1",           138,      -13.0426,       25.7965,            0.,NA,NA,"",       1.72774,       1.59492,   664.329E-03,   17.3176E-09
C:/temp/dataset/4/10_35.odb,Step-1,Increment      1: Step Time =    1.000,"PART-1-1",           139,      -12.9478,       23.6552,            0.,NA,NA,"",       1.66864,       1.53150,   662.461E-03,   17.2870E-09
C:/temp/dataset/4/10_35.odb,Step-1,Increment      1: Step Time =    1.000,"PART-1-1",           140,      -12.8307,       18.7376,            0.,NA,NA,"",       1.53554,       1.38592,   661.149E-03,   17.0601E-09
C:/temp/dataset/4/10_35.odb,Step-1,Increment      1: Step Time =    1.000,"PART-1-1",           141,      -12.9472,       16.5227,            0.,NA,NA,"",       1.47868,       1.32042,   665.569E-03,   16.9404E-09
C:/temp/dataset/4/10_35.odb,Step-1,Increment      1: Step Time =    1.000,"PART-1-1",           142,      -13.1112,       7.97345,            0.,NA,NA,"",       1.26254,       1.06747,   674.166E-03,   17.1208E-09
C:/temp/dataset/4/10_35.odb,Step-1,Increment      1: Step Time =    1.000,"PART-1-1",           143,      -13.1276,       5.86243,            0.,NA,NA,"",       1.21097,       1.00500,   675.578E-03,   17.0600E-09
C:/temp/dataset/4/10_35.odb,Step-1,Increment      1: Step Time =    1.000,"PART-1-1",           144,      -12.8109,       1.56310,            0.,NA,NA,"",       1.10298,   877.626E-03,   668.088E-03,   14.3069E-09
C:/temp/dataset/4/10_35.odb,Step-1,Increment      1: Step Time =    1.000,"PART-1-1",           145,      -12.5511,  -622.366E-03,            0.,NA,NA,"",       1.04790,   812.834E-03,   661.357E-03,   14.4755E-09
C:/temp/dataset/4/10_35.odb,Step-1,Increment      1: Step Time =    1.000,"PART-1-1",           146,      -7.69124,      -3.05836,            0.,NA,NA,"",   902.490E-03,   738.612E-03,   518.595E-03,   50.5131E-09
C:/temp/dataset/4/10_35.odb,Step-1,Increment      1: Step Time =    1.000,"PART-1-1",           147,      -2.59391,      -3.27074,            0.,NA,NA,"",   817.519E-03,   730.093E-03,   367.833E-03,   724.623E-09
C:/temp/dataset/4/10_35.odb,Step-1,Increment      1: Step Time =    1.000,"PART-1-1",           148,      -2.06699,       2.95135,            0.,NA,NA,"",   978.552E-03,   914.006E-03,   349.511E-03,   647.993E-09
C:/temp/dataset/4/10_35.odb,Step-1,Increment      1: Step Time =    1.000,"PART-1-1",           149,       1.86882,      -3.06513,            0.,NA,NA,"",   771.118E-03,   734.223E-03,   235.668E-03,   7.24323E-06
C:/temp/dataset/4/10_35.odb,Step-1,Increment      1: Step Time =    1.000,"PART-1-1",           150,       2.79073,       3.02834,            0.,NA,NA,"",   937.016E-03,   914.155E-03,   205.717E-03,   632.929E-09
C:/temp/dataset/4/10_35.odb,Step-1,Increment      1: Step Time =    1.000,"PART-1-1",           151,       12.5379,       2.72923,            0.,NA,NA,"",   904.830E-03,   901.057E-03,  -82.5417E-03,   3.69232E-06
C:/temp/dataset/4/10_35.odb,Step-1,Increment      1: Step Time =    1.000,"PART-1-1",           152,       12.9313,       10.2835,            0.,NA,NA,"",       1.12859,       1.12437,  -97.4891E-03,   179.798E-09
C:/temp/dataset/4/10_35.odb,Step-1,Increment      1: Step Time =    1.000,"PART-1-1",           153,       12.7723,       24.8557,            0.,NA,NA,"",       1.55873,       1.55558,  -99.1637E-03,   11.0197E-09
C:/temp/dataset/4/10_35.odb,Step-1,Increment      1: Step Time =    1.000,"PART-1-1",           154,       12.5268,       27.4001,            0.,NA,NA,"",       1.63361,       1.63096,  -93.0131E-03,   11.1898E-09
C:/temp/dataset/4/10_35.odb,Step-1,Increment      1: Step Time =    1.000,"PART-1-1",           155,       12.7627,      -5.01238,            0.,NA,NA,"",   677.479E-03,   672.024E-03,  -85.8009E-03,   96.4860E-06
C:/temp/dataset/4/10_35.odb,Step-1,Increment      1: Step Time =    1.000,"PART-1-1",           156,       13.0118,      -12.5921,            0.,NA,NA,"",   452.408E-03,   443.423E-03,  -89.7166E-03,   1.05076E-03
C:/temp/dataset/4/10_35.odb,Step-1,Increment      1: Step Time =    1.000,"PART-1-1",           157,       9.69976,      -27.8547,            0.,NA,NA,"",   15.8276E-03,   15.7432E-03,   1.63211E-03,   5.58549E-03
C:/temp/dataset/4/10_35.odb,Step-1,Increment      1: Step Time =    1.000,"PART-1-1",           158,       13.0855,      -17.4497,            0.,NA,NA,"",   298.847E-03,   286.723E-03,  -84.2585E-03,   4.07453E-03
C:/temp/dataset/4/10_35.odb,Step-1,Increment      1: Step Time =    1.000,"PART-1-1",           159,       12.9366,       22.3763,            0.,NA,NA,"",       1.48572,       1.48215,  -102.939E-03,   10.7786E-09
C:/temp/dataset/4/10_35.odb,Step-1,Increment      1: Step Time =    1.000,"PART-1-1",           160,       13.0248,       17.5365,            0.,NA,NA,"",       1.34291,       1.33892,  -103.430E-03,   9.68273E-09
C:/temp/dataset/4/10_35.odb,Step-1,Increment      1: Step Time =    1.000,"PART-1-1",           161,      -10.1545,       27.3700,            0.,NA,NA,"",       1.73914,       1.64022,   578.167E-03,   17.1281E-09
C:/temp/dataset/4/10_35.odb,Step-1,Increment      1: Step Time =    1.000,"PART-1-1",           162,      -10.0546,      -2.87755,            0.,NA,NA,"",   949.371E-03,   744.998E-03,   588.458E-03,   12.0932E-09
C:/temp/dataset/4/10_35.odb,Step-1,Increment      1: Step Time =    1.000,"PART-1-1",           163,      -5.07747,      -2.66322,            0.,NA,NA,"",   869.358E-03,   749.161E-03,   441.068E-03,   226.528E-09
C:/temp/dataset/4/10_35.odb,Step-1,Increment      1: Step Time =    1.000,"PART-1-1",           164,  -330.659E-03,      -3.26262,            0.,NA,NA,"",   788.955E-03,   729.343E-03,   300.849E-03,   1.84097E-06
C:/temp/dataset/4/10_35.odb,Step-1,Increment      1: Step Time =    1.000,"PART-1-1",           165,       3.93161,      -2.75002,            0.,NA,NA,"",   762.866E-03,   742.647E-03,   174.470E-03,   9.33824E-06
C:/temp/dataset/4/10_35.odb,Step-1,Increment      1: Step Time =    1.000,"PART-1-1",           166,       12.9585,      -10.1304,            0.,NA,NA,"",   526.966E-03,   519.319E-03,  -89.4468E-03,   210.035E-06
C:/temp/dataset/4/10_35.odb,Step-1,Increment      1: Step Time =    1.000,"PART-1-1",           167,       13.1106,      -19.8561,            0.,NA,NA,"",   223.610E-03,   210.209E-03,  -76.2459E-03,   5.73952E-03
C:/temp/dataset/4/10_35.odb,Step-1,Increment      1: Step Time =    1.000,"PART-1-1",           168,       12.2637,      -27.1930,            0.,NA,NA,"",   33.8973E-03,   28.9231E-03,  -17.6772E-03,   9.34833E-03
C:/temp/dataset/4/10_35.odb,Step-1,Increment      1: Step Time =    1.000,"PART-1-1",           169,       13.0974,      -22.2394,            0.,NA,NA,"",   154.158E-03,   140.488E-03,  -63.4641E-03,   7.33626E-03
C:/temp/dataset/4/10_35.odb,Step-1,Increment      1: Step Time =    1.000,"PART-1-1",           170,       13.0625,      -15.0302,            0.,NA,NA,"",   376.134E-03,   365.531E-03,  -88.6801E-03,   2.44239E-03
C:/temp/dataset/4/10_35.odb,Step-1,Increment      1: Step Time =    1.000,"PART-1-1",           171,       12.8638,      -7.61343,            0.,NA,NA,"",   601.291E-03,   594.863E-03,  -87.6847E-03,   104.443E-06
C:/temp/dataset/4/10_35.odb,Step-1,Increment      1: Step Time =    1.000,"PART-1-1",           172,       12.8109,      -2.41519,            0.,NA,NA,"",   753.997E-03,   748.801E-03,  -88.3669E-03,   42.4926E-06
C:/temp/dataset/4/10_35.odb,Step-1,Increment      1: Step Time =    1.000,"PART-1-1",           173,       12.7001,   168.481E-03,            0.,NA,NA,"",   829.737E-03,   825.245E-03,  -86.2189E-03,   13.9922E-06
C:/temp/dataset/4/10_35.odb,Step-1,Increment      1: Step Time =    1.000,"PART-1-1",           174,       12.6773,       5.28127,            0.,NA,NA,"",   980.431E-03,   976.494E-03,  -87.7820E-03,   446.055E-09
C:/temp/dataset/4/10_35.odb,Step-1,Increment      1: Step Time =    1.000,"PART-1-1",           175,       12.8405,       7.80961,            0.,NA,NA,"",       1.05539,       1.05122,  -93.7192E-03,   296.701E-09
C:/temp/dataset/4/10_35.odb,Step-1,Increment      1: Step Time =    1.000,"PART-1-1",           176,       12.9955,       12.7023,            0.,NA,NA,"",       1.20012,       1.19591,  -100.447E-03,   76.9591E-09
C:/temp/dataset/4/10_35.odb,Step-1,Increment      1: Step Time =    1.000,"PART-1-1",           177,       13.0102,       19.9477,            0.,NA,NA,"",       1.41410,       1.41026,  -104.051E-03,   10.1378E-09
C:/temp/dataset/4/10_35.odb,Step-1,Increment      1: Step Time =    1.000,"PART-1-1",           178,       9.88408,       27.1269,            0.,NA,NA,"",       1.62410,       1.62404,  -14.7063E-03,   11.1912E-09
C:/temp/dataset/4/10_35.odb,Step-1,Increment      1: Step Time =    1.000,"PART-1-1",           179,       13.0301,       15.1161,            0.,NA,NA,"",       1.27145,       1.26731,  -102.526E-03,   24.0454E-09
C:/temp/dataset/4/10_35.odb,Step-1,Increment      1: Step Time =    1.000,"PART-1-1",           180,   300.490E-03,       3.00528,            0.,NA,NA,"",   956.297E-03,   914.564E-03,   279.422E-03,   934.887E-09
C:/temp/dataset/4/10_35.odb,Step-1,Increment      1: Step Time =    1.000,"PART-1-1",           181,      -4.18418,       2.89078,            0.,NA,NA,"",       1.00186,   913.140E-03,   412.197E-03,   299.641E-09
C:/temp/dataset/4/10_35.odb,Step-1,Increment      1: Step Time =    1.000,"PART-1-1",           182,      -8.75093,       23.2164,            0.,NA,NA,"",       1.60942,       1.51668,   538.447E-03,   16.8262E-09
C:/temp/dataset/4/10_35.odb,Step-1,Increment      1: Step Time =    1.000,"PART-1-1",           183,       9.13120,      -23.8882,            0.,NA,NA,"",   94.4261E-03,   93.4823E-03,   13.3171E-03,   6.08047E-03
C:/temp/dataset/4/10_35.odb,Step-1,Increment      1: Step Time =    1.000,"PART-1-1",           184,       8.76025,       8.63504,            0.,NA,NA,"",       1.07776,       1.07743,   26.6375E-03,   233.379E-09
C:/temp/dataset/4/10_35.odb,Step-1,Increment      1: Step Time =    1.000,"PART-1-1",           185,       8.81891,       23.9948,            0.,NA,NA,"",       1.53194,       1.53184,   18.1785E-03,   11.0609E-09
C:/temp/dataset/4/10_35.odb,Step-1,Increment      1: Step Time =    1.000,"PART-1-1",           186,       9.00734,       17.5557,            0.,NA,NA,"",       1.34134,       1.34125,   15.4225E-03,   10.8958E-09
C:/temp/dataset/4/10_35.odb,Step-1,Increment      1: Step Time =    1.000,"PART-1-1",           187,      -8.59230,       19.6811,            0.,NA,NA,"",       1.51005,       1.41198,   535.301E-03,   16.4504E-09
C:/temp/dataset/4/10_35.odb,Step-1,Increment      1: Step Time =    1.000,"PART-1-1",           188,       9.06266,      -12.9142,            0.,NA,NA,"",   439.054E-03,   438.318E-03,   25.4028E-03,   2.56168E-03
C:/temp/dataset/4/10_35.odb,Step-1,Increment      1: Step Time =    1.000,"PART-1-1",           189,       9.13987,      -19.6571,            0.,NA,NA,"",   216.100E-03,   215.374E-03,   17.6997E-03,   5.90907E-03
C:/temp/dataset/4/10_35.odb,Step-1,Increment      1: Step Time =    1.000,"PART-1-1",           190,       9.00941,       15.3265,            0.,NA,NA,"",       1.27540,       1.27529,   16.3371E-03,   28.0006E-09
C:/temp/dataset/4/10_35.odb,Step-1,Increment      1: Step Time =    1.000,"PART-1-1",           191,      -8.96967,       13.7142,            0.,NA,NA,"",       1.35207,       1.23556,   549.083E-03,   15.7831E-09
C:/temp/dataset/4/10_35.odb,Step-1,Increment      1: Step Time =    1.000,"PART-1-1",           192,       9.12973,      -17.4386,            0.,NA,NA,"",   289.743E-03,   289.094E-03,   19.3825E-03,   5.64884E-03
C:/temp/dataset/4/10_35.odb,Step-1,Increment      1: Step Time =    1.000,"PART-1-1",           193,       8.94484,       21.9321,            0.,NA,NA,"",       1.47083,       1.47075,   15.3558E-03,   10.6539E-09
C:/temp/dataset/4/10_35.odb,Step-1,Increment      1: Step Time =    1.000,"PART-1-1",           194,      -8.78258,       17.8115,            0.,NA,NA,"",       1.46090,       1.35673,   541.751E-03,   16.2578E-09
C:/temp/dataset/4/10_35.odb,Step-1,Increment      1: Step Time =    1.000,"PART-1-1",           195,       8.90333,       10.8666,            0.,NA,NA,"",       1.14359,       1.14339,   21.4276E-03,   154.432E-09
C:/temp/dataset/4/10_35.odb,Step-1,Increment      1: Step Time =    1.000,"PART-1-1",           196,      -9.00437,       11.6266,            0.,NA,NA,"",       1.29669,       1.17379,   551.025E-03,   15.5355E-09
C:/temp/dataset/4/10_35.odb,Step-1,Increment      1: Step Time =    1.000,"PART-1-1",           197,      -9.03622,       9.53759,            0.,NA,NA,"",       1.24184,       1.11198,   552.882E-03,   15.2076E-09
C:/temp/dataset/4/10_35.odb,Step-1,Increment      1: Step Time =    1.000,"PART-1-1",           198,       8.99264,      -10.6281,            0.,NA,NA,"",   508.522E-03,   507.729E-03,   28.3743E-03,   905.509E-06
C:/temp/dataset/4/10_35.odb,Step-1,Increment      1: Step Time =    1.000,"PART-1-1",           199,       8.82192,      -8.34759,            0.,NA,NA,"",   576.008E-03,   575.076E-03,   32.7530E-03,   180.498E-06
C:/temp/dataset/4/10_35.odb,Step-1,Increment      1: Step Time =    1.000,"PART-1-1",           200,       8.98411,       13.0928,            0.,NA,NA,"",       1.20935,       1.20922,   18.0634E-03,   76.7969E-09
C:/temp/dataset/4/10_35.odb,Step-1,Increment      1: Step Time =    1.000,"PART-1-1",           201,       7.30685,       27.8134,            0.,NA,NA,"",       1.64661,       1.64547,   61.2427E-03,   11.3242E-09
C:/temp/dataset/4/10_35.odb,Step-1,Increment      1: Step Time =    1.000,"PART-1-1",           202,      -8.46063,       21.4565,            0.,NA,NA,"",       1.55764,       1.46447,   530.627E-03,   16.6289E-09
C:/temp/dataset/4/10_35.odb,Step-1,Increment      1: Step Time =    1.000,"PART-1-1",           203,       9.11250,      -15.1896,            0.,NA,NA,"",   365.574E-03,   364.919E-03,   21.8835E-03,   4.41968E-03
C:/temp/dataset/4/10_35.odb,Step-1,Increment      1: Step Time =    1.000,"PART-1-1",           204,       9.14200,      -21.8221,            0.,NA,NA,"",   149.854E-03,   149.009E-03,   15.8957E-03,   5.91083E-03
C:/temp/dataset/4/10_35.odb,Step-1,Increment      1: Step Time =    1.000,"PART-1-1",           205,      -8.90436,       15.8055,            0.,NA,NA,"",       1.40772,       1.29742,   546.234E-03,   16.0339E-09
C:/temp/dataset/4/10_35.odb,Step-1,Increment      1: Step Time =    1.000,"PART-1-1",           206,       9.00445,       19.7587,            0.,NA,NA,"",       1.40650,       1.40643,   14.5436E-03,   9.74925E-09
C:/temp/dataset/4/10_35.odb,Step-1,Increment      1: Step Time =    1.000,"PART-1-1",           207,       8.39742,      -6.16188,            0.,NA,NA,"",   641.250E-03,   639.730E-03,   44.1192E-03,   145.047E-06
C:/temp/dataset/4/10_35.odb,Step-1,Increment      1: Step Time =    1.000,"PART-1-1",           208,      -9.10294,       7.45394,            0.,NA,NA,"",       1.18832,       1.05034,   555.769E-03,   13.6871E-09
C:/temp/dataset/4/10_35.odb,Step-1,Increment      1: Step Time =    1.000,"PART-1-1",           209,       8.43260,       6.43235,            0.,NA,NA,"",       1.01309,       1.01241,   37.2952E-03,   333.151E-09
C:/temp/dataset/4/10_35.odb,Step-1,Increment      1: Step Time =    1.000,"PART-1-1",           210,       5.64784,       2.93298,            0.,NA,NA,"",   918.119E-03,   910.082E-03,   121.219E-03,   3.29548E-06
C:/temp/dataset/4/10_35.odb,Step-1,Increment      1: Step Time =    1.000,"PART-1-1",           211,      -10.7213,       1.88644,            0.,NA,NA,"",       1.07371,   886.281E-03,   606.103E-03,   13.2335E-09
C:/temp/dataset/4/10_35.odb,Step-1,Increment      1: Step Time =    1.000,"PART-1-1",           212,      -12.7178,       27.8380,            0.,NA,NA,"",       1.77965,       1.65519,   653.824E-03,   17.2631E-09
C:/temp/dataset/4/10_35.odb,Step-1,Increment      1: Step Time =    1.000,"PART-1-1",           213,      -11.0298,       24.2524,            0.,NA,NA,"",       1.66250,       1.54834,   605.436E-03,   17.0919E-09
C:/temp/dataset/4/10_35.odb,Step-1,Increment      1: Step Time =    1.000,"PART-1-1",           214,      -10.4500,       20.0822,            0.,NA,NA,"",       1.54204,       1.42467,   590.104E-03,   16.7583E-09
C:/temp/dataset/4/10_35.odb,Step-1,Increment      1: Step Time =    1.000,"PART-1-1",           215,      -10.9919,       14.0243,            0.,NA,NA,"",       1.38643,       1.24562,   608.795E-03,   16.2563E-09
C:/temp/dataset/4/10_35.odb,Step-1,Increment      1: Step Time =    1.000,"PART-1-1",           216,      -11.0796,       9.82104,            0.,NA,NA,"",       1.27800,       1.12126,   613.233E-03,   15.6149E-09
C:/temp/dataset/4/10_35.odb,Step-1,Increment      1: Step Time =    1.000,"PART-1-1",           217,      -11.0365,       11.9204,            0.,NA,NA,"",       1.33182,       1.18338,   611.036E-03,   15.9954E-09
C:/temp/dataset/4/10_35.odb,Step-1,Increment      1: Step Time =    1.000,"PART-1-1",           218,      -10.5491,       22.5446,            0.,NA,NA,"",       1.61033,       1.49759,   591.958E-03,   16.9498E-09
C:/temp/dataset/4/10_35.odb,Step-1,Increment      1: Step Time =    1.000,"PART-1-1",           219,      -10.9277,       16.1478,            0.,NA,NA,"",       1.44194,       1.30844,   605.965E-03,   16.4702E-09
C:/temp/dataset/4/10_35.odb,Step-1,Increment      1: Step Time =    1.000,"PART-1-1",           220,      -10.7891,       18.2216,            0.,NA,NA,"",       1.49578,       1.36975,   600.955E-03,   16.6440E-09
C:/temp/dataset/4/10_35.odb,Step-1,Increment      1: Step Time =    1.000,"PART-1-1",           221,      -11.1555,       7.76515,            0.,NA,NA,"",       1.22657,       1.06045,   616.378E-03,   14.8371E-09
C:/temp/dataset/4/10_35.odb,Step-1,Increment      1: Step Time =    1.000,"PART-1-1",           222,      -9.80329,       4.04682,            0.,NA,NA,"",       1.11185,   949.815E-03,   577.989E-03,   8.81479E-09
C:/temp/dataset/4/10_35.odb,Step-1,Increment      1: Step Time =    1.000,"PART-1-1",           223,       9.22674,      -25.9093,            0.,NA,NA,"",   48.9321E-03,   48.2247E-03,   8.29027E-03,   6.08122E-03
C:/temp/dataset/4/10_35.odb,Step-1,Increment      1: Step Time =    1.000,"PART-1-1",           224,      -9.21421,       25.1107,            0.,NA,NA,"",       1.66677,       1.57295,   551.328E-03,   17.0012E-09
C:/temp/dataset/4/10_35.odb,Step-1,Increment      1: Step Time =    1.000,"PART-1-1",           225,       6.25241,      -4.60112,            0.,NA,NA,"",   695.002E-03,   686.781E-03,   106.581E-03,   99.2100E-06
C:/temp/dataset/4/10_35.odb,Step-1,Increment      1: Step Time =    1.000,"PART-1-1",           226,      -7.19550,       4.55405,            0.,NA,NA,"",       1.08595,   963.684E-03,   500.589E-03,   27.2205E-09
C:/temp/dataset/4/10_35.odb,Step-1,Increment      1: Step Time =    1.000,"PART-1-1",           227,       12.9551,      -24.6090,            0.,NA,NA,"",   92.0781E-03,   80.6157E-03,  -44.4915E-03,   9.19313E-03
C:/temp/dataset/4/10_35.odb,Step-1,Increment      1: Step Time =    1.000,"PART-1-1",           228,       10.9241,       22.1645,            0.,NA,NA,"",       1.47740,       1.47676,  -43.3047E-03,   10.5344E-09
C:/temp/dataset/4/10_35.odb,Step-1,Increment      1: Step Time =    1.000,"PART-1-1",           229,      -4.91288,   464.762E-03,            0.,NA,NA,"",   947.348E-03,   841.662E-03,   434.826E-03,   284.556E-09
C:/temp/dataset/4/10_35.odb,Step-1,Increment      1: Step Time =    1.000,"PART-1-1",           230,  -831.143E-03,      -1.35374,            0.,NA,NA,"",   846.758E-03,   786.057E-03,   314.823E-03,   1.09466E-06
C:/temp/dataset/4/10_35.odb,Step-1,Increment      1: Step Time =    1.000,"PART-1-1",           231,       11.1616,      -19.7398,            0.,NA,NA,"",   213.945E-03,   211.937E-03,  -29.2439E-03,   5.72828E-03
C:/temp/dataset/4/10_35.odb,Step-1,Increment      1: Step Time =    1.000,"PART-1-1",           232,       10.9730,      -10.3410,            0.,NA,NA,"",   515.155E-03,   514.270E-03,  -30.1860E-03,   528.247E-06
C:/temp/dataset/4/10_35.odb,Step-1,Increment      1: Step Time =    1.000,"PART-1-1",           233,       10.4844,      -5.04269,            0.,NA,NA,"",   672.292E-03,   672.046E-03,  -18.1682E-03,   110.350E-06
C:/temp/dataset/4/10_35.odb,Step-1,Increment      1: Step Time =    1.000,"PART-1-1",           234,       10.9074,       10.5689,            0.,NA,NA,"",       1.13433,       1.13370,  -37.7345E-03,   180.815E-09
C:/temp/dataset/4/10_35.odb,Step-1,Increment      1: Step Time =    1.000,"PART-1-1",           235,       11.0515,      -12.7377,            0.,NA,NA,"",   441.622E-03,   440.460E-03,  -32.0209E-03,   1.76357E-03
C:/temp/dataset/4/10_35.odb,Step-1,Increment      1: Step Time =    1.000,"PART-1-1",           236,       10.9936,       12.8990,            0.,NA,NA,"",       1.20332,       1.20261,  -41.3031E-03,   80.5575E-09
C:/temp/dataset/4/10_35.odb,Step-1,Increment      1: Step Time =    1.000,"PART-1-1",           237,      -9.84553,  -403.770E-03,            0.,NA,NA,"",       1.00354,   818.118E-03,   581.188E-03,   16.9297E-09
C:/temp/dataset/4/10_35.odb,Step-1,Increment      1: Step Time =    1.000,"PART-1-1",           238,      -6.42098,  -599.403E-03,            0.,NA,NA,"",   942.215E-03,   810.828E-03,   479.924E-03,   144.880E-09
C:/temp/dataset/4/10_35.odb,Step-1,Increment      1: Step Time =    1.000,"PART-1-1",           239,      -2.35214,      -1.85066,            0.,NA,NA,"",   851.850E-03,   772.016E-03,   360.056E-03,   697.423E-09
C:/temp/dataset/4/10_35.odb,Step-1,Increment      1: Step Time =    1.000,"PART-1-1",           240,       11.1625,      -21.9830,            0.,NA,NA,"",   146.299E-03,   144.275E-03,  -24.2494E-03,   6.13174E-03
C:/temp/dataset/4/10_35.odb,Step-1,Increment      1: Step Time =    1.000,"PART-1-1",           241,       11.1073,      -15.0998,            0.,NA,NA,"",   365.890E-03,   364.391E-03,  -33.0903E-03,   3.45057E-03
C:/temp/dataset/4/10_35.odb,Step-1,Increment      1: Step Time =    1.000,"PART-1-1",           242,       11.1457,      -17.4375,            0.,NA,NA,"",   288.725E-03,   286.900E-03,  -32.4080E-03,   4.90029E-03
C:/temp/dataset/4/10_35.odb,Step-1,Increment      1: Step Time =    1.000,"PART-1-1",           243,       10.8340,      -7.85693,            0.,NA,NA,"",   589.201E-03,   588.578E-03,  -27.0862E-03,   122.531E-06
C:/temp/dataset/4/10_35.odb,Step-1,Increment      1: Step Time =    1.000,"PART-1-1",           244,       10.5842,   120.255E-03,            0.,NA,NA,"",   825.063E-03,   824.726E-03,  -23.5784E-03,   16.7615E-06
C:/temp/dataset/4/10_35.odb,Step-1,Increment      1: Step Time =    1.000,"PART-1-1",           245,       10.8633,      -2.34188,            0.,NA,NA,"",   752.410E-03,   751.783E-03,  -30.7134E-03,   45.3116E-06
C:/temp/dataset/4/10_35.odb,Step-1,Increment      1: Step Time =    1.000,"PART-1-1",           246,       9.78574,       2.89226,            0.,NA,NA,"",   907.077E-03,   907.077E-03,  -1.18570E-03,   4.40865E-06
C:/temp/dataset/4/10_35.odb,Step-1,Increment      1: Step Time =    1.000,"PART-1-1",           247,       10.7685,       8.18214,            0.,NA,NA,"",       1.06365,       1.06315,  -32.5816E-03,   268.087E-09
C:/temp/dataset/4/10_35.odb,Step-1,Increment      1: Step Time =    1.000,"PART-1-1",           248,       10.4587,       5.69287,            0.,NA,NA,"",   989.893E-03,   989.641E-03,  -22.3241E-03,   581.124E-09
C:/temp/dataset/4/10_35.odb,Step-1,Increment      1: Step Time =    1.000,"PART-1-1",           249,       11.0104,       19.8565,            0.,NA,NA,"",       1.40916,       1.40844,  -44.8479E-03,   9.55731E-09
C:/temp/dataset/4/10_35.odb,Step-1,Increment      1: Step Time =    1.000,"PART-1-1",           250,       11.0363,       17.5467,            0.,NA,NA,"",       1.34083,       1.34009,  -44.6007E-03,   10.4390E-09
C:/temp/dataset/4/10_35.odb,Step-1,Increment      1: Step Time =    1.000,"PART-1-1",           251,       11.0403,       15.2208,            0.,NA,NA,"",       1.27203,       1.27128,  -43.7027E-03,   29.2871E-09
C:/temp/dataset/4/10_35.odb,Step-1,Increment      1: Step Time =    1.000,"PART-1-1",           252,       1.19009,      -1.06873,            0.,NA,NA,"",   833.534E-03,   793.609E-03,   254.879E-03,   2.01293E-06
C:/temp/dataset/4/10_35.odb,Step-1,Increment      1: Step Time =    1.000,"PART-1-1",           253,       10.6932,       24.5073,            0.,NA,NA,"",       1.54663,       1.54618,  -37.4982E-03,   10.9797E-09
C:/temp/dataset/4/10_35.odb,Step-1,Increment      1: Step Time =    1.000,"PART-1-1",           254,       8.51128,       25.6419,            0.,NA,NA,"",       1.58093,       1.58070,   26.5591E-03,   11.2164E-09
C:/temp/dataset/4/10_35.odb,Step-1,Increment      1: Step Time =    1.000,"PART-1-1",           255,      -9.32324,       5.48290,            0.,NA,NA,"",       1.14080,   992.106E-03,   563.153E-03,   8.92624E-09
C:/temp/dataset/4/10_35.odb,Step-1,Increment      1: Step Time =    1.000,"PART-1-1",           256,      -11.4569,       25.7537,            0.,NA,NA,"",       1.70843,       1.59296,   617.420E-03,   17.1733E-09
C:/temp/dataset/4/10_35.odb,Step-1,Increment      1: Step Time =    1.000,"PART-1-1",           257,      -8.85145,       2.84717,            0.,NA,NA,"",       1.06681,   913.894E-03,   550.344E-03,   27.4127E-09
C:/temp/dataset/4/10_35.odb,Step-1,Increment      1: Step Time =    1.000,"PART-1-1",           258,       11.0896,      -24.0706,            0.,NA,NA,"",   90.5723E-03,   88.9060E-03,  -17.2936E-03,   6.35208E-03
C:/temp/dataset/4/10_35.odb,Step-1,Increment      1: Step Time =    1.000,"PART-1-1",           259,       5.69240,      -2.12345,            0.,NA,NA,"",   770.150E-03,   760.410E-03,   122.099E-03,   22.9056E-06
C:/temp/dataset/4/10_35.odb,Step-1,Increment      1: Step Time =    1.000,"PART-1-1",           260,       7.72467,       1.38687,            0.,NA,NA,"",   865.540E-03,   863.426E-03,   60.4558E-03,   8.72185E-06
C:/temp/dataset/4/10_35.odb,Step-1,Increment      1: Step Time =    1.000,"PART-1-1",           261,       8.83369,  -368.727E-03,            0.,NA,NA,"",   811.497E-03,   810.999E-03,   28.4323E-03,   19.6663E-06
C:/temp/dataset/4/10_35.odb,Step-1,Increment      1: Step Time =    1.000,"PART-1-1",           262,       7.58912,       4.39900,            0.,NA,NA,"",   954.703E-03,   952.613E-03,   63.1413E-03,   1.92041E-06
C:/temp/dataset/4/10_35.odb,Step-1,Increment      1: Step Time =    1.000,"PART-1-1",           263,      -6.02595,       2.23751,            0.,NA,NA,"",       1.00916,   894.614E-03,   466.990E-03,   137.561E-09
C:/temp/dataset/4/10_35.odb,Step-1,Increment      1: Step Time =    1.000,"PART-1-1",           264,       4.92391,   813.983E-03,            0.,NA,NA,"",   859.762E-03,   847.691E-03,   143.564E-03,   5.63998E-06
C:/temp/dataset/4/10_35.odb,Step-1,Increment      1: Step Time =    1.000,"PART-1-1",           265,      -7.77287,       1.11371,            0.,NA,NA,"",       1.00638,   862.120E-03,   519.183E-03,   68.4412E-09
C:/temp/dataset/4/10_35.odb,Step-1,Increment      1: Step Time =    1.000,"PART-1-1",           266,      -3.71710,       1.36231,            0.,NA,NA,"",   955.061E-03,   867.701E-03,   399.043E-03,   393.901E-09
C:/temp/dataset/4/10_35.odb,Step-1,Increment      1: Step Time =    1.000,"PART-1-1",           267,       2.85817,       1.10052,            0.,NA,NA,"",   881.150E-03,   857.076E-03,   204.564E-03,   1.38307E-06
C:/temp/dataset/4/10_35.odb,Step-1,Increment      1: Step Time =    1.000,"PART-1-1",           268,       7.51165,      -2.37377,            0.,NA,NA,"",   755.313E-03,   752.207E-03,   68.4301E-03,   41.4813E-06
C:/temp/dataset/4/10_35.odb,Step-1,Increment      1: Step Time =    1.000,"PART-1-1",           269,      -1.84913,   666.939E-03,            0.,NA,NA,"",   913.571E-03,   846.304E-03,   344.065E-03,   864.785E-09
C:/temp/dataset/4/10_35.odb,Step-1,Increment      1: Step Time =    1.000,"PART-1-1",           270,   621.955E-03,   989.730E-03,            0.,NA,NA,"",   896.644E-03,   854.776E-03,   270.791E-03,   1.09361E-06
C:/temp/dataset/4/10_35.odb,Step-1,Increment      1: Step Time =    1.000,"PART-1-1",           271,       7.77182,      -4.29185,            0.,NA,NA,"",   698.025E-03,   695.299E-03,   61.6279E-03,   90.0332E-06
C:/temp/dataset/4/10_35.odb,Step-1,Increment      1: Step Time =    1.000,"PART-1-1",           272,       6.40836,       5.42027,            0.,NA,NA,"",   988.181E-03,   983.347E-03,   97.6283E-03,   484.918E-09
C:/temp/dataset/4/10_35.odb,Step-1,Increment      1: Step Time =    1.000,"PART-1-1",           273,      -12.5139,      -2.82358,            0.,NA,NA,"",   998.111E-03,   747.672E-03,   661.219E-03,   16.1215E-09
C:/temp/dataset/4/10_35.odb,Step-1,Increment      1: Step Time =    1.000,"PART-1-1",           274,       10.8188,      -25.6946,            0.,NA,NA,"",   53.3536E-03,   52.5173E-03,  -9.40921E-03,   6.03375E-03
C:/temp/dataset/4/10_35.odb,Step-1,Increment      1: Step Time =    1.000,"PART-1-1",           275,       6.49302,  -163.532E-03,            0.,NA,NA,"",   823.874E-03,   818.075E-03,   97.5719E-03,   13.4331E-06
C:/temp/dataset/4/10_35.odb,Step-1,Increment      1: Step Time =    1.000,"PART-1-1",           276,       7.60941,  -936.337E-03,            0.,NA,NA,"",   797.364E-03,   794.718E-03,   64.8963E-03,   22.8901E-06
C:/temp/dataset/4/10_35.odb,Step-1,Increment      1: Step Time =    1.000,"PART-1-1",           277,       9.17282,      -2.25688,            0.,NA,NA,"",   755.227E-03,   754.981E-03,   19.2690E-03,   45.7677E-06
C:/temp/dataset/4/10_35.odb,Step-1,Increment      1: Step Time =    1.000,"PART-1-1",           278,       9.10690,      -3.89703,            0.,NA,NA,"",   706.807E-03,   706.465E-03,   22.0085E-03,   82.3269E-06
C:/temp/dataset/4/10_35.odb,Step-1,Increment      1: Step Time =    1.000,"PART-1-1",           279,      -7.91199,      -1.40732,            0.,NA,NA,"",   946.186E-03,   787.571E-03,   524.405E-03,   63.6637E-09
C:/temp/dataset/4/10_35.odb,Step-1,Increment      1: Step Time =    1.000,"PART-1-1",           280,      -9.83927,       21.3699,            0.,NA,NA,"",       1.57019,       1.46251,   571.466E-03,   16.7820E-09
C:/temp/dataset/4/10_35.odb,Step-1,Increment      1: Step Time =    1.000,"PART-1-1",           281,      -11.2653,       5.77953,            0.,NA,NA,"",       1.17834,       1.00174,   620.497E-03,   12.9160E-09
C:/temp/dataset/4/10_35.odb,Step-1,Increment      1: Step Time =    1.000,"PART-1-1",           282,      -11.2487,       3.84080,            0.,NA,NA,"",       1.13016,   944.351E-03,   620.856E-03,   10.4994E-09
C:/temp/dataset/4/10_35.odb,Step-1,Increment      1: Step Time =    1.000,"PART-1-1",           283,       3.11059,  -868.354E-03,            0.,NA,NA,"",   822.863E-03,   798.698E-03,   197.952E-03,   3.67693E-06
C:/temp/dataset/4/10_35.odb,Step-1,Increment      1: Step Time =    1.000,"PART-1-1",           284,       4.50766,  -682.768E-03,            0.,NA,NA,"",   818.680E-03,   803.577E-03,   156.530E-03,   5.68443E-06
C:/temp/dataset/4/10_35.odb,Step-1,Increment      1: Step Time =    1.000,"PART-1-1",           285,      -3.56662,  -854.847E-03,            0.,NA,NA,"",   894.261E-03,   802.019E-03,   395.561E-03,   551.400E-09
C:/temp/dataset/4/10_35.odb,Step-1,Increment      1: Step Time =    1.000,"PART-1-1",           286,      -7.33150,       26.6843,            0.,NA,NA,"",       1.69266,       1.61869,   494.920E-03,   17.0281E-09
C:/temp/dataset/4/10_35.odb,Step-1,Increment      1: Step Time =    1.000,"PART-1-1",           287,      -6.09303,       25.7233,            0.,NA,NA,"",       1.65456,       1.58971,   458.688E-03,   16.9127E-09
C:/temp/dataset/4/10_35.odb,Step-1,Increment      1: Step Time =    1.000,"PART-1-1",           288,           -5.,        26.875,            0.,NA,NA,"",       1.67824,       1.62331,   425.836E-03,   17.0073E-09
C:/temp/dataset/4/10_35.odb,Step-1,Increment      1: Step Time =    1.000,"PART-1-1",           289,      -6.23847,       27.8360,            0.,NA,NA,"",       1.71569,       1.65230,   462.067E-03,   17.0997E-09
C:/temp/dataset/4/10_35.odb,Step-1,Increment      1: Step Time =    1.000,"PART-1-1",           290,      -8.20013,       25.3620,            0.,NA,NA,"",       1.66369,       1.57994,   521.207E-03,   16.9664E-09
C:/temp/dataset/4/10_35.odb,Step-1,Increment      1: Step Time =    1.000,"PART-1-1",           291,      -8.98257,       24.1636,            0.,NA,NA,"",       1.63809,       1.54481,   544.888E-03,   16.9090E-09
C:/temp/dataset/4/10_35.odb,Step-1,Increment      1: Step Time =    1.000,"PART-1-1",           292,      -7.83587,       23.3915,            0.,NA,NA,"",       1.60507,       1.52146,   511.289E-03,   16.7721E-09
C:/temp/dataset/4/10_35.odb,Step-1,Increment      1: Step Time =    1.000,"PART-1-1",           293,      -7.05344,       24.5900,            0.,NA,NA,"",       1.63117,       1.55659,   487.608E-03,   16.8291E-09
C:/temp/dataset/4/10_35.odb,Step-1,Increment      1: Step Time =    1.000,"PART-1-1",           294,      -6.78951,       20.5788,            0.,NA,NA,"",       1.51626,       1.43776,   481.554E-03,   16.3434E-09
C:/temp/dataset/4/10_35.odb,Step-1,Increment      1: Step Time =    1.000,"PART-1-1",           295,      -5.89603,       19.5861,            0.,NA,NA,"",       1.47985,       1.40799,   455.546E-03,   16.1143E-09
C:/temp/dataset/4/10_35.odb,Step-1,Increment      1: Step Time =    1.000,"PART-1-1",           296,           -5.,        20.625,            0.,NA,NA,"",       1.50084,       1.43834,   428.573E-03,   16.1918E-09
C:/temp/dataset/4/10_35.odb,Step-1,Increment      1: Step Time =    1.000,"PART-1-1",           297,      -5.89348,       21.6177,            0.,NA,NA,"",       1.53688,       1.46811,   454.581E-03,   16.4163E-09
C:/temp/dataset/4/10_35.odb,Step-1,Increment      1: Step Time =    1.000,"PART-1-1",           298,      -7.97413,       13.6001,            0.,NA,NA,"",       1.33688,       1.23174,   519.670E-03,   15.5680E-09
C:/temp/dataset/4/10_35.odb,Step-1,Increment      1: Step Time =    1.000,"PART-1-1",           299,      -8.98702,       12.6704,            0.,NA,NA,"",       1.32431,       1.20467,   550.054E-03,   15.6496E-09
C:/temp/dataset/4/10_35.odb,Step-1,Increment      1: Step Time =    1.000,"PART-1-1",           300,      -8.00249,       11.5116,            0.,NA,NA,"",       1.28088,       1.16995,   521.424E-03,   15.4335E-09
C:/temp/dataset/4/10_35.odb,Step-1,Increment      1: Step Time =    1.000,"PART-1-1",           301,      -6.98959,       12.4413,            0.,NA,NA,"",       1.29382,       1.19702,   491.040E-03,   15.3178E-09
C:/temp/dataset/4/10_35.odb,Step-1,Increment      1: Step Time =    1.000,"PART-1-1",           302,      -9.95004,      -1.64066,            0.,NA,NA,"",   976.141E-03,   781.558E-03,   584.823E-03,   13.5742E-09
C:/temp/dataset/4/10_35.odb,Step-1,Increment      1: Step Time =    1.000,"PART-1-1",           303,      -11.1983,  -513.068E-03,            0.,NA,NA,"",       1.02517,   815.476E-03,   621.273E-03,   11.8191E-09
C:/temp/dataset/4/10_35.odb,Step-1,Increment      1: Step Time =    1.000,"PART-1-1",           304,      -12.5325,      -1.72297,            0.,NA,NA,"",       1.02279,   780.253E-03,   661.288E-03,   14.7851E-09
C:/temp/dataset/4/10_35.odb,Step-1,Increment      1: Step Time =    1.000,"PART-1-1",           305,      -11.2842,      -2.85056,            0.,NA,NA,"",   973.365E-03,   746.335E-03,   624.838E-03,   12.4165E-09
C:/temp/dataset/4/10_35.odb,Step-1,Increment      1: Step Time =    1.000,"PART-1-1",           306,      -10.2834,   741.336E-03,            0.,NA,NA,"",       1.03859,   852.199E-03,   593.646E-03,   15.0610E-09
C:/temp/dataset/4/10_35.odb,Step-1,Increment      1: Step Time =    1.000,"PART-1-1",           307,      -11.7661,       1.72477,            0.,NA,NA,"",       1.08799,   881.954E-03,   637.096E-03,   11.9634E-09
C:/temp/dataset/4/10_35.odb,Step-1,Increment      1: Step Time =    1.000,"PART-1-1",           308,      -12.6810,   470.366E-03,            0.,NA,NA,"",       1.07530,   845.230E-03,   664.723E-03,   14.1226E-09
C:/temp/dataset/4/10_35.odb,Step-1,Increment      1: Step Time =    1.000,"PART-1-1",           309,         -1.25,           -5.,            0.,NA,NA,"",   753.821E-03,   678.326E-03,   328.818E-03,   1.75887E-06
C:/temp/dataset/4/10_35.odb,Step-1,Increment      1: Step Time =    1.000,"PART-1-1",           310,  -165.329E-03,      -4.13131,            0.,NA,NA,"",   763.420E-03,   703.559E-03,   296.337E-03,   1.61272E-06
C:/temp/dataset/4/10_35.odb,Step-1,Increment      1: Step Time =    1.000,"PART-1-1",           311,      -1.46228,      -3.26668,            0.,NA,NA,"",   802.665E-03,   729.718E-03,   334.341E-03,   1.07272E-06
C:/temp/dataset/4/10_35.odb,Step-1,Increment      1: Step Time =    1.000,"PART-1-1",           312,      -2.54695,      -4.13537,            0.,NA,NA,"",   794.264E-03,   704.483E-03,   366.822E-03,   461.056E-09
C:/temp/dataset/4/10_35.odb,Step-1,Increment      1: Step Time =    1.000,"PART-1-1",           313,   769.081E-03,      -3.16387,            0.,NA,NA,"",   779.403E-03,   731.783E-03,   268.258E-03,   2.63828E-06
C:/temp/dataset/4/10_35.odb,Step-1,Increment      1: Step Time =    1.000,"PART-1-1",           314,          1.25,           -5.,            0.,NA,NA,"",   723.582E-03,   677.225E-03,   254.827E-03,   3.09013E-06
C:/temp/dataset/4/10_35.odb,Step-1,Increment      1: Step Time =    1.000,"PART-1-1",           315,       2.18441,      -4.03256,            0.,NA,NA,"",   740.994E-03,   705.449E-03,   226.746E-03,   6.96447E-06
C:/temp/dataset/4/10_35.odb,Step-1,Increment      1: Step Time =    1.000,"PART-1-1",           316,       1.54561,       3.01681,            0.,NA,NA,"",   945.988E-03,   914.360E-03,   242.569E-03,   615.972E-09
C:/temp/dataset/4/10_35.odb,Step-1,Increment      1: Step Time =    1.000,"PART-1-1",           317,       2.64536,       4.01417,            0.,NA,NA,"",   966.393E-03,   943.392E-03,   209.588E-03,   1.39453E-06
C:/temp/dataset/4/10_35.odb,Step-1,Increment      1: Step Time =    1.000,"PART-1-1",           318,          1.25,            5.,            0.,NA,NA,"",       1.00489,   973.178E-03,   250.449E-03,   1.82177E-06
C:/temp/dataset/4/10_35.odb,Step-1,Increment      1: Step Time =    1.000,"PART-1-1",           319,   150.245E-03,       4.00264,            0.,NA,NA,"",   985.771E-03,   944.146E-03,   283.432E-03,   976.328E-09
C:/temp/dataset/4/10_35.odb,Step-1,Increment      1: Step Time =    1.000,"PART-1-1",           320,   179.474E-03,      -1.21124,            0.,NA,NA,"",   839.628E-03,   789.833E-03,   284.852E-03,   1.47752E-06
C:/temp/dataset/4/10_35.odb,Step-1,Increment      1: Step Time =    1.000,"PART-1-1",           321,  -580.901E-03,      -2.30818,            0.,NA,NA,"",   817.846E-03,   757.700E-03,   307.836E-03,   1.12802E-06
C:/temp/dataset/4/10_35.odb,Step-1,Increment      1: Step Time =    1.000,"PART-1-1",           322,       1.52946,      -2.06693,            0.,NA,NA,"",   802.327E-03,   763.918E-03,   245.273E-03,   2.50856E-06
C:/temp/dataset/4/10_35.odb,Step-1,Increment      1: Step Time =    1.000,"PART-1-1",           323,       12.7868,      -3.71378,            0.,NA,NA,"",   715.737E-03,   710.419E-03,  -87.0858E-03,   66.6477E-06
C:/temp/dataset/4/10_35.odb,Step-1,Increment      1: Step Time =    1.000,"PART-1-1",           324,       13.8814,      -5.00619,            0.,NA,NA,"",   682.172E-03,   671.708E-03,  -119.027E-03,   79.1965E-06
C:/temp/dataset/4/10_35.odb,Step-1,Increment      1: Step Time =    1.000,"PART-1-1",           325,           15.,         -3.75,            0.,NA,NA,"",   724.610E-03,   708.349E-03,  -152.647E-03,   70.9003E-06
C:/temp/dataset/4/10_35.odb,Step-1,Increment      1: Step Time =    1.000,"PART-1-1",           326,       13.9054,      -2.45760,            0.,NA,NA,"",   756.765E-03,   747.066E-03,  -120.767E-03,   30.1186E-06
C:/temp/dataset/4/10_35.odb,Step-1,Increment      1: Step Time =    1.000,"PART-1-1",           327,       5.10003,      -1.40311,            0.,NA,NA,"",   794.309E-03,   781.996E-03,   139.315E-03,   13.5506E-06
C:/temp/dataset/4/10_35.odb,Step-1,Increment      1: Step Time =    1.000,"PART-1-1",           328,       3.80913,  -775.561E-03,            0.,NA,NA,"",   820.509E-03,   801.138E-03,   177.241E-03,   4.88794E-06
C:/temp/dataset/4/10_35.odb,Step-1,Increment      1: Step Time =    1.000,"PART-1-1",           329,       3.52110,      -1.80919,            0.,NA,NA,"",   792.850E-03,   770.673E-03,   186.213E-03,   6.05356E-06
C:/temp/dataset/4/10_35.odb,Step-1,Increment      1: Step Time =    1.000,"PART-1-1",           330,       4.81200,      -2.43673,            0.,NA,NA,"",   766.017E-03,   751.529E-03,   148.280E-03,   13.2112E-06
C:/temp/dataset/4/10_35.odb,Step-1,Increment      1: Step Time =    1.000,"PART-1-1",           331,           15.,          3.75,            0.,NA,NA,"",   943.139E-03,   930.177E-03,  -155.828E-03,   258.573E-09
C:/temp/dataset/4/10_35.odb,Step-1,Increment      1: Step Time =    1.000,"PART-1-1",           332,       13.8386,       5.14064,            0.,NA,NA,"",   979.462E-03,   971.825E-03,  -122.079E-03,   309.846E-09
C:/temp/dataset/4/10_35.odb,Step-1,Increment      1: Step Time =    1.000,"PART-1-1",           333,       12.6076,       4.00525,            0.,NA,NA,"",   942.629E-03,   938.774E-03,  -85.1620E-03,   1.99772E-06
C:/temp/dataset/4/10_35.odb,Step-1,Increment      1: Step Time =    1.000,"PART-1-1",           334,       13.7689,       2.61462,            0.,NA,NA,"",   904.975E-03,   897.129E-03,  -118.913E-03,   1.84929E-06
C:/temp/dataset/4/10_35.odb,Step-1,Increment      1: Step Time =    1.000,"PART-1-1",           335,       9.76439,       8.40859,            0.,NA,NA,"",       1.07030,       1.07029,  -2.97215E-03,   230.835E-09
C:/temp/dataset/4/10_35.odb,Step-1,Increment      1: Step Time =    1.000,"PART-1-1",           336,       8.59642,       7.53369,            0.,NA,NA,"",       1.04541,       1.04492,   31.9663E-03,   212.933E-09
C:/temp/dataset/4/10_35.odb,Step-1,Increment      1: Step Time =    1.000,"PART-1-1",           337,       9.44563,       6.06261,            0.,NA,NA,"",       1.00105,       1.00102,   7.48547E-03,   445.872E-09
C:/temp/dataset/4/10_35.odb,Step-1,Increment      1: Step Time =    1.000,"PART-1-1",           338,       10.6136,       6.93751,            0.,NA,NA,"",       1.02676,       1.02640,  -27.4529E-03,   271.840E-09
C:/temp/dataset/4/10_35.odb,Step-1,Increment      1: Step Time =    1.000,"PART-1-1",           339,       5.92452,       9.07762,            0.,NA,NA,"",       1.09733,       1.09177,   110.342E-03,   209.373E-09
C:/temp/dataset/4/10_35.odb,Step-1,Increment      1: Step Time =    1.000,"PART-1-1",           340,            5.,         8.125,            0.,NA,NA,"",       1.07291,       1.06399,   138.112E-03,   441.165E-09
C:/temp/dataset/4/10_35.odb,Step-1,Increment      1: Step Time =    1.000,"PART-1-1",           341,       5.83838,       7.03541,            0.,NA,NA,"",       1.03764,       1.03138,   113.785E-03,   334.609E-09
C:/temp/dataset/4/10_35.odb,Step-1,Increment      1: Step Time =    1.000,"PART-1-1",           342,       6.76290,       7.98803,            0.,NA,NA,"",       1.06265,       1.05916,   86.0145E-03,   179.528E-09
C:/temp/dataset/4/10_35.odb,Step-1,Increment      1: Step Time =    1.000,"PART-1-1",           343,       6.00358,       15.4027,            0.,NA,NA,"",       1.28319,       1.27886,   105.234E-03,   12.9990E-09
C:/temp/dataset/4/10_35.odb,Step-1,Increment      1: Step Time =    1.000,"PART-1-1",           344,            5.,        14.375,            0.,NA,NA,"",       1.25621,       1.24890,   135.375E-03,   20.1185E-09
C:/temp/dataset/4/10_35.odb,Step-1,Increment      1: Step Time =    1.000,"PART-1-1",           345,       5.99171,       13.2884,            0.,NA,NA,"",       1.22097,       1.21632,   106.510E-03,   36.8514E-09
C:/temp/dataset/4/10_35.odb,Step-1,Increment      1: Step Time =    1.000,"PART-1-1",           346,       6.99529,       14.3161,            0.,NA,NA,"",       1.24862,       1.24628,   76.3689E-03,   39.7900E-09
C:/temp/dataset/4/10_35.odb,Step-1,Increment      1: Step Time =    1.000,"PART-1-1",           347,       11.7328,       24.6815,            0.,NA,NA,"",       1.55238,       1.55088,  -68.3310E-03,   10.9957E-09
C:/temp/dataset/4/10_35.odb,Step-1,Increment      1: Step Time =    1.000,"PART-1-1",           348,       12.6496,       26.1279,            0.,NA,NA,"",       1.59616,       1.59327,  -96.0884E-03,   11.0937E-09
C:/temp/dataset/4/10_35.odb,Step-1,Increment      1: Step Time =    1.000,"PART-1-1",           349,       11.2054,       27.2635,            0.,NA,NA,"",       1.62839,       1.62750,  -53.8597E-03,   11.1842E-09
C:/temp/dataset/4/10_35.odb,Step-1,Increment      1: Step Time =    1.000,"PART-1-1",           350,       10.2886,       25.8171,            0.,NA,NA,"",       1.58532,       1.58511,  -26.1023E-03,   11.0871E-09
C:/temp/dataset/4/10_35.odb,Step-1,Increment      1: Step Time =    1.000,"PART-1-1",           351,       12.5134,       28.7000,            0.,NA,NA,"",       1.67203,       1.66943,  -93.1857E-03,   11.2916E-09
C:/temp/dataset/4/10_35.odb,Step-1,Increment      1: Step Time =    1.000,"PART-1-1",           352,       13.7634,       27.4500,            0.,NA,NA,"",       1.63704,       1.63190,  -129.621E-03,   11.1583E-09
C:/temp/dataset/4/10_35.odb,Step-1,Increment      1: Step Time =    1.000,"PART-1-1",           353,           15.,         28.75,            0.,NA,NA,"",       1.67812,       1.66982,  -166.776E-03,   11.3201E-09
C:/temp/dataset/4/10_35.odb,Step-1,Increment      1: Step Time =    1.000,"PART-1-1",           354,         13.75,           30.,            0.,NA,NA,"",       1.71231,       1.70735,  -130.341E-03,   11.4969E-09
C:/temp/dataset/4/10_35.odb,Step-1,Increment      1: Step Time =    1.000,"PART-1-1",           355,      -3.83569,      -2.96698,            0.,NA,NA,"",   842.988E-03,   739.627E-03,   404.450E-03,   484.026E-09
C:/temp/dataset/4/10_35.odb,Step-1,Increment      1: Step Time =    1.000,"PART-1-1",           356,      -2.47303,      -2.56070,            0.,NA,NA,"",   834.589E-03,   751.054E-03,   363.944E-03,   624.787E-09
C:/temp/dataset/4/10_35.odb,Step-1,Increment      1: Step Time =    1.000,"PART-1-1",           357,      -2.95938,      -1.35275,            0.,NA,NA,"",   873.004E-03,   787.017E-03,   377.809E-03,   636.854E-09
C:/temp/dataset/4/10_35.odb,Step-1,Increment      1: Step Time =    1.000,"PART-1-1",           358,      -4.32205,      -1.75903,            0.,NA,NA,"",   881.207E-03,   775.590E-03,   418.315E-03,   328.731E-09
C:/temp/dataset/4/10_35.odb,Step-1,Increment      1: Step Time =    1.000,"PART-1-1",           359,       8.60967,      -7.25473,            0.,NA,NA,"",   608.587E-03,   607.371E-03,   38.4472E-03,   121.176E-06
C:/temp/dataset/4/10_35.odb,Step-1,Increment      1: Step Time =    1.000,"PART-1-1",           360,       7.51358,      -6.44375,            0.,NA,NA,"",   635.629E-03,   631.733E-03,   70.2682E-03,   128.209E-06
C:/temp/dataset/4/10_35.odb,Step-1,Increment      1: Step Time =    1.000,"PART-1-1",           361,       6.75300,      -7.77251,            0.,NA,NA,"",   600.172E-03,   592.894E-03,   93.1823E-03,   144.959E-06
C:/temp/dataset/4/10_35.odb,Step-1,Increment      1: Step Time =    1.000,"PART-1-1",           362,       7.84909,      -8.58350,            0.,NA,NA,"",   571.956E-03,   568.639E-03,   61.5052E-03,   167.384E-06
C:/temp/dataset/4/10_35.odb,Step-1,Increment      1: Step Time =    1.000,"PART-1-1",           363,       7.07130,      -14.2100,            0.,NA,NA,"",   411.451E-03,   403.341E-03,   81.2887E-03,   4.15022E-03
C:/temp/dataset/4/10_35.odb,Step-1,Increment      1: Step Time =    1.000,"PART-1-1",           364,       6.02882,      -13.2279,            0.,NA,NA,"",   452.254E-03,   437.826E-03,   113.324E-03,   3.50803E-03
C:/temp/dataset/4/10_35.odb,Step-1,Increment      1: Step Time =    1.000,"PART-1-1",           365,            5.,       -14.375,            0.,NA,NA,"",   430.257E-03,   405.500E-03,   143.846E-03,   3.36380E-03
C:/temp/dataset/4/10_35.odb,Step-1,Increment      1: Step Time =    1.000,"PART-1-1",           366,       6.04247,      -15.3570,            0.,NA,NA,"",   385.724E-03,   369.699E-03,   110.026E-03,   4.25278E-03
C:/temp/dataset/4/10_35.odb,Step-1,Increment      1: Step Time =    1.000,"PART-1-1",           367,       7.02995,      -12.0379,            0.,NA,NA,"",   477.638E-03,   469.921E-03,   85.5090E-03,   2.61628E-03
C:/temp/dataset/4/10_35.odb,Step-1,Increment      1: Step Time =    1.000,"PART-1-1",           368,       6.00113,      -11.1016,            0.,NA,NA,"",   512.010E-03,   498.648E-03,   116.208E-03,   1.79565E-03
C:/temp/dataset/4/10_35.odb,Step-1,Increment      1: Step Time =    1.000,"PART-1-1",           369,            5.,      -12.2917,            0.,NA,NA,"",   490.601E-03,   469.048E-03,   143.818E-03,   2.95490E-03
C:/temp/dataset/4/10_35.odb,Step-1,Increment      1: Step Time =    1.000,"PART-1-1",           370,            5.,      -22.7083,            0.,NA,NA,"",   171.791E-03,   137.107E-03,   103.509E-03,   11.1657E-03
C:/temp/dataset/4/10_35.odb,Step-1,Increment      1: Step Time =    1.000,"PART-1-1",           371,       6.05922,      -23.7899,            0.,NA,NA,"",   125.408E-03,   104.664E-03,   69.0841E-03,   10.0399E-03
C:/temp/dataset/4/10_35.odb,Step-1,Increment      1: Step Time =    1.000,"PART-1-1",           372,       7.11013,      -22.7834,            0.,NA,NA,"",   137.449E-03,   126.271E-03,   54.2953E-03,   7.44017E-03
C:/temp/dataset/4/10_35.odb,Step-1,Increment      1: Step Time =    1.000,"PART-1-1",           373,       6.05091,      -21.7018,            0.,NA,NA,"",   180.975E-03,   159.746E-03,   85.0488E-03,   7.98121E-03
C:/temp/dataset/4/10_35.odb,Step-1,Increment      1: Step Time =    1.000,"PART-1-1",           374,          8.75,          -30.,            0.,NA,NA,"",            0.,   964.573E-42,   6.91980E-39,   3.56310E-03
C:/temp/dataset/4/10_35.odb,Step-1,Increment      1: Step Time =    1.000,"PART-1-1",           375,       9.84988,      -28.9274,            0.,NA,NA,"",   4.85714E-03,   4.84568E-03,   333.439E-06,   3.17536E-03
C:/temp/dataset/4/10_35.odb,Step-1,Increment      1: Step Time =    1.000,"PART-1-1",           376,       8.52411,      -27.9095,            0.,NA,NA,"",   18.3527E-03,   16.6084E-03,   7.80914E-03,   7.12855E-03
C:/temp/dataset/4/10_35.odb,Step-1,Increment      1: Step Time =    1.000,"PART-1-1",           377,       7.42422,      -28.9821,            0.,NA,NA,"",   8.98066E-03,   6.05833E-03,   6.62939E-03,   8.50886E-03
C:/temp/dataset/4/10_35.odb,Step-1,Increment      1: Step Time =    1.000,"PART-1-1",           378,       10.1104,      -23.9794,            0.,NA,NA,"",   90.6392E-03,   90.6123E-03,  -2.21059E-03,   5.68599E-03
C:/temp/dataset/4/10_35.odb,Step-1,Increment      1: Step Time =    1.000,"PART-1-1",           379,       11.1261,      -23.0268,            0.,NA,NA,"",   117.384E-03,   115.527E-03,  -20.7921E-03,   6.23629E-03
C:/temp/dataset/4/10_35.odb,Step-1,Increment      1: Step Time =    1.000,"PART-1-1",           380,       10.1523,      -21.9025,            0.,NA,NA,"",   146.241E-03,   146.178E-03,  -4.28660E-03,   5.67892E-03
C:/temp/dataset/4/10_35.odb,Step-1,Increment      1: Step Time =    1.000,"PART-1-1",           381,       9.13660,      -22.8552,            0.,NA,NA,"",   121.055E-03,   120.148E-03,   14.7856E-03,   5.98675E-03
C:/temp/dataset/4/10_35.odb,Step-1,Increment      1: Step Time =    1.000,"PART-1-1",           382,       7.09296,      -18.5383,            0.,NA,NA,"",   265.720E-03,   256.043E-03,   71.0572E-03,   5.65929E-03
C:/temp/dataset/4/10_35.odb,Step-1,Increment      1: Step Time =    1.000,"PART-1-1",           383,       6.04465,      -17.4814,            0.,NA,NA,"",   313.596E-03,   295.837E-03,   104.032E-03,   5.30441E-03
C:/temp/dataset/4/10_35.odb,Step-1,Increment      1: Step Time =    1.000,"PART-1-1",           384,            5.,      -18.5417,            0.,NA,NA,"",   293.819E-03,   261.311E-03,   134.335E-03,   6.03306E-03
C:/temp/dataset/4/10_35.odb,Step-1,Increment      1: Step Time =    1.000,"PART-1-1",           385,       6.04831,      -19.5985,            0.,NA,NA,"",   243.490E-03,   223.402E-03,   96.8438E-03,   5.86100E-03
C:/temp/dataset/4/10_35.odb,Step-1,Increment      1: Step Time =    1.000,"PART-1-1",           386,       8.88188,       22.9635,            0.,NA,NA,"",       1.50139,       1.50130,   16.7671E-03,   10.8638E-09
C:/temp/dataset/4/10_35.odb,Step-1,Increment      1: Step Time =    1.000,"PART-1-1",           387,       9.93448,       22.0483,            0.,NA,NA,"",       1.47383,       1.47376,  -13.9745E-03,   10.6018E-09
C:/temp/dataset/4/10_35.odb,Step-1,Increment      1: Step Time =    1.000,"PART-1-1",           388,       10.8087,       23.3359,            0.,NA,NA,"",       1.51201,       1.51147,  -40.4015E-03,   10.7565E-09
C:/temp/dataset/4/10_35.odb,Step-1,Increment      1: Step Time =    1.000,"PART-1-1",           389,       9.75606,       24.2511,            0.,NA,NA,"",       1.53904,       1.53901,  -9.65989E-03,   11.0222E-09
C:/temp/dataset/4/10_35.odb,Step-1,Increment      1: Step Time =    1.000,"PART-1-1",           390,       10.0218,       17.5512,            0.,NA,NA,"",       1.34075,       1.34067,  -14.5891E-03,   10.3436E-09
C:/temp/dataset/4/10_35.odb,Step-1,Increment      1: Step Time =    1.000,"PART-1-1",           391,       9.00837,       16.4411,            0.,NA,NA,"",       1.30837,       1.30827,   15.8798E-03,   18.8593E-09
C:/temp/dataset/4/10_35.odb,Step-1,Increment      1: Step Time =    1.000,"PART-1-1",           392,       10.0249,       15.2736,            0.,NA,NA,"",       1.27336,       1.27329,  -13.6828E-03,   26.2134E-09
C:/temp/dataset/4/10_35.odb,Step-1,Increment      1: Step Time =    1.000,"PART-1-1",           393,       11.0383,       16.3837,            0.,NA,NA,"",       1.30643,       1.30569,  -44.1517E-03,   19.2218E-09
C:/temp/dataset/4/10_35.odb,Step-1,Increment      1: Step Time =    1.000,"PART-1-1",           394,      -14.0638,       5.89996,            0.,NA,NA,"",       1.22788,       1.00653,   703.268E-03,   19.6968E-09
C:/temp/dataset/4/10_35.odb,Step-1,Increment      1: Step Time =    1.000,"PART-1-1",           395,      -13.1194,       6.91794,            0.,NA,NA,"",       1.23663,       1.03624,   674.872E-03,   17.1021E-09
C:/temp/dataset/4/10_35.odb,Step-1,Increment      1: Step Time =    1.000,"PART-1-1",           396,      -14.0556,       8.04923,            0.,NA,NA,"",       1.27988,       1.07013,   702.083E-03,   18.4041E-09
C:/temp/dataset/4/10_35.odb,Step-1,Increment      1: Step Time =    1.000,"PART-1-1",           397,          -15.,       7.03125,            0.,NA,NA,"",       1.27125,       1.04042,   730.479E-03,   21.3389E-09
C:/temp/dataset/4/10_35.odb,Step-1,Increment      1: Step Time =    1.000,"PART-1-1",           398,      -14.0181,       12.3521,            0.,NA,NA,"",       1.38659,       1.19746,   699.088E-03,   17.1092E-09
C:/temp/dataset/4/10_35.odb,Step-1,Increment      1: Step Time =    1.000,"PART-1-1",           399,      -13.0189,       13.2775,            0.,NA,NA,"",       1.39531,       1.22441,   669.112E-03,   16.7926E-09
C:/temp/dataset/4/10_35.odb,Step-1,Increment      1: Step Time =    1.000,"PART-1-1",           400,      -14.0008,       14.5192,            0.,NA,NA,"",       1.44162,       1.26158,   697.628E-03,   17.0850E-09
C:/temp/dataset/4/10_35.odb,Step-1,Increment      1: Step Time =    1.000,"PART-1-1",           401,          -15.,       13.5938,            0.,NA,NA,"",       1.43308,       1.23463,   727.604E-03,   17.4239E-09
C:/temp/dataset/4/10_35.odb,Step-1,Increment      1: Step Time =    1.000,"PART-1-1",           402,      -10.1942,       21.9572,            0.,NA,NA,"",       1.59026,       1.48005,   581.712E-03,   16.8678E-09
C:/temp/dataset/4/10_35.odb,Step-1,Increment      1: Step Time =    1.000,"PART-1-1",           403,      -9.14995,       21.4132,            0.,NA,NA,"",       1.56379,       1.46349,   551.046E-03,   16.7065E-09
C:/temp/dataset/4/10_35.odb,Step-1,Increment      1: Step Time =    1.000,"PART-1-1",           404,      -8.60578,       22.3365,            0.,NA,NA,"",       1.58352,       1.49057,   534.537E-03,   16.7274E-09
C:/temp/dataset/4/10_35.odb,Step-1,Increment      1: Step Time =    1.000,"PART-1-1",           405,      -9.65000,       22.8805,            0.,NA,NA,"",       1.60963,       1.50713,   565.202E-03,   16.8850E-09
C:/temp/dataset/4/10_35.odb,Step-1,Increment      1: Step Time =    1.000,"PART-1-1",           406,      -14.0213,       25.7108,            0.,NA,NA,"",       1.73717,       1.59281,   693.332E-03,   17.4227E-09
C:/temp/dataset/4/10_35.odb,Step-1,Increment      1: Step Time =    1.000,"PART-1-1",           407,      -12.8802,       26.8172,            0.,NA,NA,"",       1.75362,       1.62506,   659.076E-03,   17.2871E-09
C:/temp/dataset/4/10_35.odb,Step-1,Increment      1: Step Time =    1.000,"PART-1-1",           408,      -13.8589,       27.8252,            0.,NA,NA,"",       1.79245,       1.65532,   687.600E-03,   17.3947E-09
C:/temp/dataset/4/10_35.odb,Step-1,Increment      1: Step Time =    1.000,"PART-1-1",           409,          -15.,       26.7188,            0.,NA,NA,"",       1.77635,       1.62307,   721.855E-03,   17.5060E-09
C:/temp/dataset/4/10_35.odb,Step-1,Increment      1: Step Time =    1.000,"PART-1-1",           410,        -13.75,           30.,            0.,NA,NA,"",       1.85046,       1.71963,   683.424E-03,   17.2370E-09
C:/temp/dataset/4/10_35.odb,Step-1,Increment      1: Step Time =    1.000,"PART-1-1",           411,          -15.,       28.9063,            0.,NA,NA,"",       1.83532,       1.68781,   720.897E-03,   17.5496E-09
C:/temp/dataset/4/10_35.odb,Step-1,Increment      1: Step Time =    1.000,"PART-1-1",           412,      -12.6089,       28.9190,            0.,NA,NA,"",       1.80807,       1.68714,   650.127E-03,   17.1281E-09
C:/temp/dataset/4/10_35.odb,Step-1,Increment      1: Step Time =    1.000,"PART-1-1",           413,      -11.4362,       27.6040,            0.,NA,NA,"",       1.75909,       1.64771,   615.995E-03,   17.1834E-09
C:/temp/dataset/4/10_35.odb,Step-1,Increment      1: Step Time =    1.000,"PART-1-1",           414,      -10.0773,       28.6850,            0.,NA,NA,"",       1.77493,       1.67911,   575.305E-03,   17.1069E-09
C:/temp/dataset/4/10_35.odb,Step-1,Increment      1: Step Time =    1.000,"PART-1-1",           415,        -11.25,           30.,            0.,NA,NA,"",       1.82340,       1.71854,   609.436E-03,   17.0622E-09
C:/temp/dataset/4/10_35.odb,Step-1,Increment      1: Step Time =    1.000,"PART-1-1",           416,      -13.7240,       21.2404,            0.,NA,NA,"",       1.61368,       1.46038,   686.492E-03,   17.3427E-09
C:/temp/dataset/4/10_35.odb,Step-1,Increment      1: Step Time =    1.000,"PART-1-1",           417,      -12.6979,       22.4429,            0.,NA,NA,"",       1.63291,       1.49552,   655.597E-03,   17.2117E-09
C:/temp/dataset/4/10_35.odb,Step-1,Increment      1: Step Time =    1.000,"PART-1-1",           418,      -13.9739,       23.5463,            0.,NA,NA,"",       1.67842,       1.52873,   692.877E-03,   17.4259E-09
C:/temp/dataset/4/10_35.odb,Step-1,Increment      1: Step Time =    1.000,"PART-1-1",           419,          -15.,       22.3438,            0.,NA,NA,"",       1.65972,       1.49359,   723.772E-03,   17.5638E-09
C:/temp/dataset/4/10_35.odb,Step-1,Increment      1: Step Time =    1.000,"PART-1-1",           420,      -11.9375,       16.3352,            0.,NA,NA,"",       1.46011,       1.31443,   635.767E-03,   16.7010E-09
C:/temp/dataset/4/10_35.odb,Step-1,Increment      1: Step Time =    1.000,"PART-1-1",           421,      -10.8584,       17.1847,            0.,NA,NA,"",       1.46879,       1.33909,   603.460E-03,   16.5566E-09
C:/temp/dataset/4/10_35.odb,Step-1,Increment      1: Step Time =    1.000,"PART-1-1",           422,      -11.8099,       18.4796,            0.,NA,NA,"",       1.51547,       1.37783,   631.052E-03,   16.8500E-09
C:/temp/dataset/4/10_35.odb,Step-1,Increment      1: Step Time =    1.000,"PART-1-1",           423,      -12.8889,       17.6301,            0.,NA,NA,"",       1.50702,       1.35317,   663.359E-03,   17.0017E-09
C:/temp/dataset/4/10_35.odb,Step-1,Increment      1: Step Time =    1.000,"PART-1-1",           424,      -9.98079,       13.8692,            0.,NA,NA,"",       1.36902,       1.24059,   578.939E-03,   16.0157E-09
C:/temp/dataset/4/10_35.odb,Step-1,Increment      1: Step Time =    1.000,"PART-1-1",           425,      -11.0142,       12.9724,            0.,NA,NA,"",       1.35904,       1.21450,   609.916E-03,   16.1173E-09
C:/temp/dataset/4/10_35.odb,Step-1,Increment      1: Step Time =    1.000,"PART-1-1",           426,      -10.0204,       11.7735,            0.,NA,NA,"",       1.31402,       1.17858,   581.030E-03,   15.7479E-09
C:/temp/dataset/4/10_35.odb,Step-1,Increment      1: Step Time =    1.000,"PART-1-1",           427,      -6.95613,       14.5250,            0.,NA,NA,"",       1.35037,       1.25867,   489.137E-03,   15.5186E-09
C:/temp/dataset/4/10_35.odb,Step-1,Increment      1: Step Time =    1.000,"PART-1-1",           428,      -5.98929,       13.4097,            0.,NA,NA,"",       1.30910,       1.22524,   461.012E-03,   15.1611E-09
C:/temp/dataset/4/10_35.odb,Step-1,Increment      1: Step Time =    1.000,"PART-1-1",           429,           -5.,        14.375,            0.,NA,NA,"",       1.32551,       1.25337,   431.311E-03,   15.1224E-09
C:/temp/dataset/4/10_35.odb,Step-1,Increment      1: Step Time =    1.000,"PART-1-1",           430,      -5.96684,       15.4903,            0.,NA,NA,"",       1.36636,       1.28681,   459.436E-03,   15.4557E-09
C:/temp/dataset/4/10_35.odb,Step-1,Increment      1: Step Time =    1.000,"PART-1-1",           431,      -11.0581,       10.8707,            0.,NA,NA,"",       1.30482,       1.15232,   612.135E-03,   15.8097E-09
C:/temp/dataset/4/10_35.odb,Step-1,Increment      1: Step Time =    1.000,"PART-1-1",           432,      -10.0579,       9.67932,            0.,NA,NA,"",       1.25968,       1.11662,   583.058E-03,   15.3480E-09
C:/temp/dataset/4/10_35.odb,Step-1,Increment      1: Step Time =    1.000,"PART-1-1",           433,      -9.02030,       10.5821,            0.,NA,NA,"",       1.26919,       1.14288,   551.953E-03,   15.2669E-09
C:/temp/dataset/4/10_35.odb,Step-1,Increment      1: Step Time =    1.000,"PART-1-1",           434,      -7.04064,       8.20966,            0.,NA,NA,"",       1.18034,       1.07180,   494.404E-03,   15.5315E-09
C:/temp/dataset/4/10_35.odb,Step-1,Increment      1: Step Time =    1.000,"PART-1-1",           435,      -6.03068,       7.10065,            0.,NA,NA,"",       1.13789,       1.03854,   465.000E-03,   22.5976E-09
C:/temp/dataset/4/10_35.odb,Step-1,Increment      1: Step Time =    1.000,"PART-1-1",           436,           -5.,         8.125,            0.,NA,NA,"",       1.15321,       1.06841,   434.049E-03,   19.2815E-09
C:/temp/dataset/4/10_35.odb,Step-1,Increment      1: Step Time =    1.000,"PART-1-1",           437,      -6.00996,       9.23401,            0.,NA,NA,"",       1.19518,       1.10167,   463.453E-03,   15.9336E-09
C:/temp/dataset/4/10_35.odb,Step-1,Increment      1: Step Time =    1.000,"PART-1-1",           438,      -13.0926,       9.02789,            0.,NA,NA,"",       1.28849,       1.09867,   673.155E-03,   17.0149E-09
C:/temp/dataset/4/10_35.odb,Step-1,Increment      1: Step Time =    1.000,"PART-1-1",           439,      -14.0370,       10.1974,            0.,NA,NA,"",       1.33270,       1.13370,   700.592E-03,   17.4751E-09
C:/temp/dataset/4/10_35.odb,Step-1,Increment      1: Step Time =    1.000,"PART-1-1",           440,          -15.,       9.21875,            0.,NA,NA,"",       1.32422,       1.10516,   729.521E-03,   19.0557E-09
C:/temp/dataset/4/10_35.odb,Step-1,Increment      1: Step Time =    1.000,"PART-1-1",           441,      -13.9055,       1.56280,            0.,NA,NA,"",       1.12327,   878.097E-03,   700.481E-03,   18.5392E-09
C:/temp/dataset/4/10_35.odb,Step-1,Increment      1: Step Time =    1.000,"PART-1-1",           442,      -12.9296,       2.64306,            0.,NA,NA,"",       1.13042,   909.640E-03,   671.127E-03,   15.0389E-09
C:/temp/dataset/4/10_35.odb,Step-1,Increment      1: Step Time =    1.000,"PART-1-1",           443,      -14.0241,       3.73651,            0.,NA,NA,"",       1.17581,   942.480E-03,   703.041E-03,   20.0598E-09
C:/temp/dataset/4/10_35.odb,Step-1,Increment      1: Step Time =    1.000,"PART-1-1",           444,          -15.,       2.65625,            0.,NA,NA,"",       1.16885,   910.937E-03,   732.395E-03,   24.2609E-09
C:/temp/dataset/4/10_35.odb,Step-1,Increment      1: Step Time =    1.000,"PART-1-1",           445,      -13.7570,      -2.81804,            0.,NA,NA,"",       1.02337,   748.381E-03,   698.005E-03,   15.2290E-09
C:/temp/dataset/4/10_35.odb,Step-1,Increment      1: Step Time =    1.000,"PART-1-1",           446,      -13.7756,  -623.683E-03,            0.,NA,NA,"",       1.07152,   813.331E-03,   697.595E-03,   16.6404E-09
C:/temp/dataset/4/10_35.odb,Step-1,Increment      1: Step Time =    1.000,"PART-1-1",           447,          -15.,      -1.71875,            0.,NA,NA,"",       1.07233,   781.459E-03,   734.311E-03,   18.0246E-09
C:/temp/dataset/4/10_35.odb,Step-1,Increment      1: Step Time =    1.000,"PART-1-1",           448,        -13.75,           -5.,            0.,NA,NA,"",   977.673E-03,   683.802E-03,   698.755E-03,   14.6116E-09
C:/temp/dataset/4/10_35.odb,Step-1,Increment      1: Step Time =    1.000,"PART-1-1",           449,      -12.5070,      -3.91179,            0.,NA,NA,"",   974.401E-03,   715.464E-03,   661.490E-03,   16.1958E-09
C:/temp/dataset/4/10_35.odb,Step-1,Increment      1: Step Time =    1.000,"PART-1-1",           450,          -15.,      -3.90625,            0.,NA,NA,"",       1.02680,   716.720E-03,   735.270E-03,   13.9087E-09
C:/temp/dataset/4/10_35.odb,Step-1,Increment      1: Step Time =    1.000,"PART-1-1",           451,          -15.,    468.75E-03,            0.,NA,NA,"",       1.11976,   846.198E-03,   733.353E-03,   22.2492E-09
C:/temp/dataset/4/10_35.odb,Step-1,Increment      1: Step Time =    1.000,"PART-1-1",           452,      -5.10506,       2.56414,            0.,NA,NA,"",       1.00511,   903.877E-03,   439.594E-03,   217.183E-09
C:/temp/dataset/4/10_35.odb,Step-1,Increment      1: Step Time =    1.000,"PART-1-1",           453,      -4.59209,       3.94539,            0.,NA,NA,"",       1.03525,   944.530E-03,   423.807E-03,   168.594E-09
C:/temp/dataset/4/10_35.odb,Step-1,Increment      1: Step Time =    1.000,"PART-1-1",           454,      -6.09775,       4.77703,            0.,NA,NA,"",       1.07682,   969.802E-03,   468.003E-03,   58.8498E-09
C:/temp/dataset/4/10_35.odb,Step-1,Increment      1: Step Time =    1.000,"PART-1-1",           455,      -6.61072,       3.39578,            0.,NA,NA,"",       1.04755,   929.149E-03,   483.790E-03,   72.1024E-09
C:/temp/dataset/4/10_35.odb,Step-1,Increment      1: Step Time =    1.000,"PART-1-1",           456,       9.44090,      -5.60228,            0.,NA,NA,"",   656.017E-03,   655.887E-03,   13.0135E-03,   116.830E-06
C:/temp/dataset/4/10_35.odb,Step-1,Increment      1: Step Time =    1.000,"PART-1-1",           457,       9.79564,      -4.46986,            0.,NA,NA,"",   689.255E-03,   689.252E-03,   1.93199E-03,   87.7676E-06
C:/temp/dataset/4/10_35.odb,Step-1,Increment      1: Step Time =    1.000,"PART-1-1",           458,       8.43936,      -4.09444,            0.,NA,NA,"",   702.127E-03,   700.880E-03,   41.8273E-03,   79.8993E-06
C:/temp/dataset/4/10_35.odb,Step-1,Increment      1: Step Time =    1.000,"PART-1-1",           459,       8.08462,      -5.22686,            0.,NA,NA,"",   669.589E-03,   667.500E-03,   52.8544E-03,   109.726E-06
C:/temp/dataset/4/10_35.odb,Step-1,Increment      1: Step Time =    1.000,"PART-1-1",           460,       6.93926,      -9.88629,            0.,NA,NA,"",   538.913E-03,   531.571E-03,   88.6585E-03,   671.271E-06
C:/temp/dataset/4/10_35.odb,Step-1,Increment      1: Step Time =    1.000,"PART-1-1",           461,       5.93813,      -8.99303,            0.,NA,NA,"",   569.880E-03,   557.701E-03,   117.189E-03,   378.901E-06
C:/temp/dataset/4/10_35.odb,Step-1,Increment      1: Step Time =    1.000,"PART-1-1",           462,            5.,      -10.2083,            0.,NA,NA,"",   542.860E-03,   523.456E-03,   143.843E-03,   626.777E-06
C:/temp/dataset/4/10_35.odb,Step-1,Increment      1: Step Time =    1.000,"PART-1-1",           463,       12.9852,      -11.3613,            0.,NA,NA,"",   489.971E-03,   481.695E-03,  -89.6711E-03,   613.263E-06
C:/temp/dataset/4/10_35.odb,Step-1,Increment      1: Step Time =    1.000,"PART-1-1",           464,       14.0059,      -12.5461,            0.,NA,NA,"",   460.278E-03,   444.434E-03,  -119.727E-03,   536.005E-06
C:/temp/dataset/4/10_35.odb,Step-1,Increment      1: Step Time =    1.000,"PART-1-1",           465,           15.,        -11.25,            0.,NA,NA,"",   507.030E-03,   484.079E-03,  -150.822E-03,   140.047E-06
C:/temp/dataset/4/10_35.odb,Step-1,Increment      1: Step Time =    1.000,"PART-1-1",           466,       13.9793,      -10.0652,            0.,NA,NA,"",   534.450E-03,   520.760E-03,  -120.193E-03,   176.714E-06
C:/temp/dataset/4/10_35.odb,Step-1,Increment      1: Step Time =    1.000,"PART-1-1",           467,       7.08713,      -16.3801,            0.,NA,NA,"",   339.462E-03,   330.753E-03,   76.3969E-03,   5.60229E-03
C:/temp/dataset/4/10_35.odb,Step-1,Increment      1: Step Time =    1.000,"PART-1-1",           468,            5.,      -16.4583,            0.,NA,NA,"",   365.461E-03,   336.969E-03,   141.470E-03,   4.37608E-03
C:/temp/dataset/4/10_35.odb,Step-1,Increment      1: Step Time =    1.000,"PART-1-1",           469,       13.0372,      -13.8111,            0.,NA,NA,"",   414.553E-03,   404.790E-03,  -89.4402E-03,   1.73318E-03
C:/temp/dataset/4/10_35.odb,Step-1,Increment      1: Step Time =    1.000,"PART-1-1",           470,       14.0313,      -15.0151,            0.,NA,NA,"",   384.438E-03,   366.022E-03,  -117.560E-03,   1.69123E-03
C:/temp/dataset/4/10_35.odb,Step-1,Increment      1: Step Time =    1.000,"PART-1-1",           471,           15.,        -13.75,            0.,NA,NA,"",   432.892E-03,   406.279E-03,  -149.440E-03,   713.711E-06
C:/temp/dataset/4/10_35.odb,Step-1,Increment      1: Step Time =    1.000,"PART-1-1",           472,       13.0981,      -18.6529,            0.,NA,NA,"",   260.782E-03,   247.967E-03,  -80.7432E-03,   4.88654E-03
C:/temp/dataset/4/10_35.odb,Step-1,Increment      1: Step Time =    1.000,"PART-1-1",           473,       14.0553,      -19.9280,            0.,NA,NA,"",   232.825E-03,   209.832E-03,  -100.884E-03,   6.01922E-03
C:/temp/dataset/4/10_35.odb,Step-1,Increment      1: Step Time =    1.000,"PART-1-1",           474,           15.,        -18.75,            0.,NA,NA,"",   282.288E-03,   247.890E-03,  -135.044E-03,   5.42891E-03
C:/temp/dataset/4/10_35.odb,Step-1,Increment      1: Step Time =    1.000,"PART-1-1",           475,       14.0427,      -17.4749,            0.,NA,NA,"",   307.664E-03,   286.709E-03,  -111.604E-03,   3.61308E-03
C:/temp/dataset/4/10_35.odb,Step-1,Increment      1: Step Time =    1.000,"PART-1-1",           476,       6.17422,      -27.9405,            0.,NA,NA,"",   33.5961E-03,   23.7576E-03,   23.7544E-03,   14.0481E-03
C:/temp/dataset/4/10_35.odb,Step-1,Increment      1: Step Time =    1.000,"PART-1-1",           477,            5.,      -28.9583,            0.,NA,NA,"",   26.5682E-03,   18.2648E-03,   19.2943E-03,   20.2709E-03
C:/temp/dataset/4/10_35.odb,Step-1,Increment      1: Step Time =    1.000,"PART-1-1",           478,          6.25,          -30.,            0.,NA,NA,"",            0.,   468.520E-42,   22.0484E-39,   14.9716E-03
C:/temp/dataset/4/10_35.odb,Step-1,Increment      1: Step Time =    1.000,"PART-1-1",           479,       9.46325,      -26.8820,            0.,NA,NA,"",   30.8444E-03,   30.5313E-03,   4.38333E-03,   5.92681E-03
C:/temp/dataset/4/10_35.odb,Step-1,Increment      1: Step Time =    1.000,"PART-1-1",           480,       8.20536,      -25.9154,            0.,NA,NA,"",   53.8192E-03,   50.0149E-03,   19.8751E-03,   7.51768E-03
C:/temp/dataset/4/10_35.odb,Step-1,Increment      1: Step Time =    1.000,"PART-1-1",           481,       7.26622,      -26.9429,            0.,NA,NA,"",   41.7224E-03,   34.4199E-03,   23.5803E-03,   9.90581E-03
C:/temp/dataset/4/10_35.odb,Step-1,Increment      1: Step Time =    1.000,"PART-1-1",           482,       13.6319,      -27.3465,            0.,NA,NA,"",   42.1012E-03,   30.7635E-03,  -28.7422E-03,   12.7986E-03
C:/temp/dataset/4/10_35.odb,Step-1,Increment      1: Step Time =    1.000,"PART-1-1",           483,       12.3819,      -28.5965,            0.,NA,NA,"",   12.4515E-03,   9.24752E-03,  -8.33802E-03,   8.01965E-03
C:/temp/dataset/4/10_35.odb,Step-1,Increment      1: Step Time =    1.000,"PART-1-1",           484,         13.75,          -30.,            0.,NA,NA,"",            0.,  -228.623E-42,  -21.9168E-39,   14.8677E-03
C:/temp/dataset/4/10_35.odb,Step-1,Increment      1: Step Time =    1.000,"PART-1-1",           485,           15.,        -28.75,            0.,NA,NA,"",   31.1448E-03,   21.1432E-03,  -22.8684E-03,   19.5291E-03
C:/temp/dataset/4/10_35.odb,Step-1,Increment      1: Step Time =    1.000,"PART-1-1",           486,         11.25,          -30.,            0.,NA,NA,"",            0.,   959.241E-42,  -7.00783E-39,   3.55868E-03
C:/temp/dataset/4/10_35.odb,Step-1,Increment      1: Step Time =    1.000,"PART-1-1",           487,       10.9817,      -27.5238,            0.,NA,NA,"",   21.6166E-03,   20.7497E-03,  -6.06025E-03,   6.31655E-03
C:/temp/dataset/4/10_35.odb,Step-1,Increment      1: Step Time =    1.000,"PART-1-1",           488,       10.1507,      -19.6985,            0.,NA,NA,"",   213.392E-03,   213.313E-03,  -5.82238E-03,   5.63819E-03
C:/temp/dataset/4/10_35.odb,Step-1,Increment      1: Step Time =    1.000,"PART-1-1",           489,       9.14094,      -20.7396,            0.,NA,NA,"",   182.080E-03,   181.294E-03,   16.9084E-03,   5.88836E-03
C:/temp/dataset/4/10_35.odb,Step-1,Increment      1: Step Time =    1.000,"PART-1-1",           490,       11.1621,      -20.8614,            0.,NA,NA,"",   179.257E-03,   177.224E-03,  -26.9180E-03,   5.91921E-03
C:/temp/dataset/4/10_35.odb,Step-1,Increment      1: Step Time =    1.000,"PART-1-1",           491,       7.09922,      -20.6753,            0.,NA,NA,"",   197.512E-03,   186.759E-03,   64.2829E-03,   6.10639E-03
C:/temp/dataset/4/10_35.odb,Step-1,Increment      1: Step Time =    1.000,"PART-1-1",           492,            5.,       -20.625,            0.,NA,NA,"",   229.917E-03,   195.388E-03,   121.184E-03,   8.62560E-03
C:/temp/dataset/4/10_35.odb,Step-1,Increment      1: Step Time =    1.000,"PART-1-1",           493,       9.08758,      -14.0519,            0.,NA,NA,"",   402.906E-03,   402.208E-03,   23.7118E-03,   3.43502E-03
C:/temp/dataset/4/10_35.odb,Step-1,Increment      1: Step Time =    1.000,"PART-1-1",           494,       10.1099,      -15.1447,            0.,NA,NA,"",   364.360E-03,   364.318E-03,  -5.54666E-03,   3.83999E-03
C:/temp/dataset/4/10_35.odb,Step-1,Increment      1: Step Time =    1.000,"PART-1-1",           495,       11.0794,      -13.9187,            0.,NA,NA,"",   404.152E-03,   402.832E-03,  -32.6431E-03,   2.58467E-03
C:/temp/dataset/4/10_35.odb,Step-1,Increment      1: Step Time =    1.000,"PART-1-1",           496,       10.0571,      -12.8260,            0.,NA,NA,"",   439.129E-03,   439.117E-03,  -3.24300E-03,   2.09846E-03
C:/temp/dataset/4/10_35.odb,Step-1,Increment      1: Step Time =    1.000,"PART-1-1",           497,       9.02765,      -11.7712,            0.,NA,NA,"",   474.235E-03,   473.460E-03,   27.1065E-03,   1.68406E-03
C:/temp/dataset/4/10_35.odb,Step-1,Increment      1: Step Time =    1.000,"PART-1-1",           498,       11.0123,      -11.5393,            0.,NA,NA,"",   478.747E-03,   477.738E-03,  -31.0636E-03,   1.11449E-03
C:/temp/dataset/4/10_35.odb,Step-1,Increment      1: Step Time =    1.000,"PART-1-1",           499,       9.98284,      -10.4845,            0.,NA,NA,"",   510.878E-03,   510.877E-03,  -857.674E-06,   688.705E-06
C:/temp/dataset/4/10_35.odb,Step-1,Increment      1: Step Time =    1.000,"PART-1-1",           500,       12.6190,       1.44886,            0.,NA,NA,"",   867.263E-03,   863.149E-03,  -84.3800E-03,   8.84989E-06
C:/temp/dataset/4/10_35.odb,Step-1,Increment      1: Step Time =    1.000,"PART-1-1",           501,       13.8500,   84.2405E-03,            0.,NA,NA,"",   830.992E-03,   822.251E-03,  -120.211E-03,   8.60036E-06
C:/temp/dataset/4/10_35.odb,Step-1,Increment      1: Step Time =    1.000,"PART-1-1",           502,           15.,          1.25,            0.,NA,NA,"",   870.094E-03,   856.225E-03,  -154.735E-03,   4.06352E-06
C:/temp/dataset/4/10_35.odb,Step-1,Increment      1: Step Time =    1.000,"PART-1-1",           503,       10.0180,      -2.29938,            0.,NA,NA,"",   753.404E-03,   753.382E-03,  -5.71501E-03,   41.8699E-06
C:/temp/dataset/4/10_35.odb,Step-1,Increment      1: Step Time =    1.000,"PART-1-1",           504,       9.13986,      -3.07696,            0.,NA,NA,"",   731.014E-03,   730.723E-03,   20.6343E-03,   62.8358E-06
C:/temp/dataset/4/10_35.odb,Step-1,Increment      1: Step Time =    1.000,"PART-1-1",           505,       10.6738,      -3.69229,            0.,NA,NA,"",   712.337E-03,   711.917E-03,  -24.4589E-03,   72.4143E-06
C:/temp/dataset/4/10_35.odb,Step-1,Increment      1: Step Time =    1.000,"PART-1-1",           506,       12.7589,       6.54544,            0.,NA,NA,"",       1.01791,       1.01386,  -90.7506E-03,   162.484E-09
C:/temp/dataset/4/10_35.odb,Step-1,Increment      1: Step Time =    1.000,"PART-1-1",           507,           15.,          6.25,            0.,NA,NA,"",       1.01632,       1.00414,  -156.924E-03,   625.295E-09
C:/temp/dataset/4/10_35.odb,Step-1,Increment      1: Step Time =    1.000,"PART-1-1",           508,       13.9203,       7.65480,            0.,NA,NA,"",       1.05368,       1.04617,  -125.596E-03,   299.388E-09
C:/temp/dataset/4/10_35.odb,Step-1,Increment      1: Step Time =    1.000,"PART-1-1",           509,       13.0275,       16.3263,            0.,NA,NA,"",       1.30718,       1.30311,  -102.978E-03,   15.4210E-09
C:/temp/dataset/4/10_35.odb,Step-1,Increment      1: Step Time =    1.000,"PART-1-1",           510,       14.0150,       15.0581,            0.,NA,NA,"",       1.27199,       1.26516,  -131.641E-03,   14.6244E-09
C:/temp/dataset/4/10_35.odb,Step-1,Increment      1: Step Time =    1.000,"PART-1-1",           511,           15.,         16.25,            0.,NA,NA,"",       1.30996,       1.29999,  -161.304E-03,   9.70506E-09
C:/temp/dataset/4/10_35.odb,Step-1,Increment      1: Step Time =    1.000,"PART-1-1",           512,       14.0124,       17.5182,            0.,NA,NA,"",       1.34451,       1.33795,  -132.640E-03,   9.78402E-09
C:/temp/dataset/4/10_35.odb,Step-1,Increment      1: Step Time =    1.000,"PART-1-1",           513,       13.0175,       18.7421,            0.,NA,NA,"",       1.37850,       1.37459,  -103.740E-03,   9.56177E-09
C:/temp/dataset/4/10_35.odb,Step-1,Increment      1: Step Time =    1.000,"PART-1-1",           514,           15.,         18.75,            0.,NA,NA,"",       1.38352,       1.37396,  -162.398E-03,   10.9292E-09
C:/temp/dataset/4/10_35.odb,Step-1,Increment      1: Step Time =    1.000,"PART-1-1",           515,       14.0051,       19.9738,            0.,NA,NA,"",       1.41691,       1.41060,  -133.498E-03,   10.7309E-09
C:/temp/dataset/4/10_35.odb,Step-1,Increment      1: Step Time =    1.000,"PART-1-1",           516,       5.97628,       21.7197,            0.,NA,NA,"",       1.46940,       1.46577,   103.276E-03,   11.7772E-09
C:/temp/dataset/4/10_35.odb,Step-1,Increment      1: Step Time =    1.000,"PART-1-1",           517,       6.92463,       22.7965,            0.,NA,NA,"",       1.49908,       1.49721,   74.7470E-03,   11.3351E-09
C:/temp/dataset/4/10_35.odb,Step-1,Increment      1: Step Time =    1.000,"PART-1-1",           518,       5.94835,       23.7852,            0.,NA,NA,"",       1.53037,       1.52689,   103.198E-03,   11.6331E-09
C:/temp/dataset/4/10_35.odb,Step-1,Increment      1: Step Time =    1.000,"PART-1-1",           519,            5.,       22.7083,            0.,NA,NA,"",       1.50124,       1.49545,   131.727E-03,   12.0847E-09
C:/temp/dataset/4/10_35.odb,Step-1,Increment      1: Step Time =    1.000,"PART-1-1",           520,       13.8862,       24.9278,            0.,NA,NA,"",       1.56282,       1.55722,  -132.149E-03,   11.0499E-09
C:/temp/dataset/4/10_35.odb,Step-1,Increment      1: Step Time =    1.000,"PART-1-1",           521,           15.,         26.25,            0.,NA,NA,"",       1.60443,       1.59585,  -165.681E-03,   11.1296E-09
C:/temp/dataset/4/10_35.odb,Step-1,Increment      1: Step Time =    1.000,"PART-1-1",           522,       6.15342,       27.8650,            0.,NA,NA,"",       1.65026,       1.64751,   95.3451E-03,   11.4221E-09
C:/temp/dataset/4/10_35.odb,Step-1,Increment      1: Step Time =    1.000,"PART-1-1",           523,       7.40342,       28.9067,            0.,NA,NA,"",       1.67878,       1.67778,   57.9068E-03,   11.2090E-09
C:/temp/dataset/4/10_35.odb,Step-1,Increment      1: Step Time =    1.000,"PART-1-1",           524,          6.25,           30.,            0.,NA,NA,"",       1.71308,       1.71063,   91.5532E-03,   11.2895E-09
C:/temp/dataset/4/10_35.odb,Step-1,Increment      1: Step Time =    1.000,"PART-1-1",           525,            5.,       28.9583,            0.,NA,NA,"",       1.68530,       1.68036,   128.991E-03,   11.5451E-09
C:/temp/dataset/4/10_35.odb,Step-1,Increment      1: Step Time =    1.000,"PART-1-1",           526,       7.11917,       26.8292,            0.,NA,NA,"",       1.61784,       1.61644,   67.2262E-03,   11.3528E-09
C:/temp/dataset/4/10_35.odb,Step-1,Increment      1: Step Time =    1.000,"PART-1-1",           527,            5.,        26.875,            0.,NA,NA,"",       1.62393,       1.61872,   129.903E-03,   11.5542E-09
C:/temp/dataset/4/10_35.odb,Step-1,Increment      1: Step Time =    1.000,"PART-1-1",           528,       5.96574,       25.8392,            0.,NA,NA,"",       1.59091,       1.58765,   101.785E-03,   11.5002E-09
C:/temp/dataset/4/10_35.odb,Step-1,Increment      1: Step Time =    1.000,"PART-1-1",           529,       8.59546,       27.4701,            0.,NA,NA,"",       1.63492,       1.63475,   23.2682E-03,   11.2456E-09
C:/temp/dataset/4/10_35.odb,Step-1,Increment      1: Step Time =    1.000,"PART-1-1",           530,       9.94204,       28.5635,            0.,NA,NA,"",       1.66660,       1.66651,  -17.0500E-03,   11.1972E-09
C:/temp/dataset/4/10_35.odb,Step-1,Increment      1: Step Time =    1.000,"PART-1-1",           531,          8.75,           30.,            0.,NA,NA,"",       1.70963,       1.70954,   17.5886E-03,   11.1711E-09
C:/temp/dataset/4/10_35.odb,Step-1,Increment      1: Step Time =    1.000,"PART-1-1",           532,            5.,       24.7917,            0.,NA,NA,"",       1.56257,       1.55708,   130.815E-03,   11.7447E-09
C:/temp/dataset/4/10_35.odb,Step-1,Increment      1: Step Time =    1.000,"PART-1-1",           533,       6.91409,       24.8327,            0.,NA,NA,"",       1.55922,       1.55746,   74.1675E-03,   11.3932E-09
C:/temp/dataset/4/10_35.odb,Step-1,Increment      1: Step Time =    1.000,"PART-1-1",           534,            5.,        20.625,            0.,NA,NA,"",       1.43993,       1.43381,   132.639E-03,   12.5364E-09
C:/temp/dataset/4/10_35.odb,Step-1,Increment      1: Step Time =    1.000,"PART-1-1",           535,       5.99534,       19.6263,            0.,NA,NA,"",       1.40765,       1.40383,   103.629E-03,   11.7119E-09
C:/temp/dataset/4/10_35.odb,Step-1,Increment      1: Step Time =    1.000,"PART-1-1",           536,       6.97162,       20.7210,            0.,NA,NA,"",       1.43771,       1.43579,   74.2652E-03,   10.9611E-09
C:/temp/dataset/4/10_35.odb,Step-1,Increment      1: Step Time =    1.000,"PART-1-1",           537,       9.90537,       10.7177,            0.,NA,NA,"",       1.13858,       1.13855,  -8.15349E-03,   151.544E-09
C:/temp/dataset/4/10_35.odb,Step-1,Increment      1: Step Time =    1.000,"PART-1-1",           538,       8.83179,       9.75083,            0.,NA,NA,"",       1.11067,       1.11041,   24.0326E-03,   194.217E-09
C:/temp/dataset/4/10_35.odb,Step-1,Increment      1: Step Time =    1.000,"PART-1-1",           539,       10.8380,       9.37550,            0.,NA,NA,"",       1.09899,       1.09843,  -35.1580E-03,   193.000E-09
C:/temp/dataset/4/10_35.odb,Step-1,Increment      1: Step Time =    1.000,"PART-1-1",           540,       5.96737,       11.1773,            0.,NA,NA,"",       1.15893,       1.15387,   108.155E-03,   100.105E-09
C:/temp/dataset/4/10_35.odb,Step-1,Increment      1: Step Time =    1.000,"PART-1-1",           541,       6.95908,       12.1740,            0.,NA,NA,"",       1.18552,       1.18292,   78.3777E-03,   94.5938E-09
C:/temp/dataset/4/10_35.odb,Step-1,Increment      1: Step Time =    1.000,"PART-1-1",           542,            5.,       12.2917,            0.,NA,NA,"",       1.19506,       1.18726,   136.287E-03,   78.9263E-09
C:/temp/dataset/4/10_35.odb,Step-1,Increment      1: Step Time =    1.000,"PART-1-1",           543,       6.89189,       10.0466,            0.,NA,NA,"",       1.12296,       1.12001,   81.2969E-03,   169.154E-09
C:/temp/dataset/4/10_35.odb,Step-1,Increment      1: Step Time =    1.000,"PART-1-1",           544,            5.,       10.2083,            0.,NA,NA,"",       1.13395,       1.12562,   137.200E-03,   203.315E-09
C:/temp/dataset/4/10_35.odb,Step-1,Increment      1: Step Time =    1.000,"PART-1-1",           545,  -883.251E-03,       2.97832,            0.,NA,NA,"",   966.854E-03,   914.285E-03,   314.467E-03,   767.694E-09
C:/temp/dataset/4/10_35.odb,Step-1,Increment      1: Step Time =    1.000,"PART-1-1",           546,         -1.25,            5.,            0.,NA,NA,"",       1.02688,   974.276E-03,   324.435E-03,   939.834E-09
C:/temp/dataset/4/10_35.odb,Step-1,Increment      1: Step Time =    1.000,"PART-1-1",           547,      -2.28350,       3.97568,            0.,NA,NA,"",       1.00910,   944.415E-03,   355.470E-03,   469.549E-09
C:/temp/dataset/4/10_35.odb,Step-1,Increment      1: Step Time =    1.000,"PART-1-1",           548,      -3.12559,       2.92107,            0.,NA,NA,"",   989.781E-03,   913.573E-03,   380.854E-03,   465.944E-09
C:/temp/dataset/4/10_35.odb,Step-1,Increment      1: Step Time =    1.000,"PART-1-1",           549,         -3.75,            5.,            0.,NA,NA,"",       1.05361,   975.373E-03,   398.423E-03,   331.622E-09
C:/temp/dataset/4/10_35.odb,Step-1,Increment      1: Step Time =    1.000,"PART-1-1",           550,      -7.01026,       10.3490,            0.,NA,NA,"",       1.23737,       1.13511,   492.568E-03,   15.5079E-09
C:/temp/dataset/4/10_35.odb,Step-1,Increment      1: Step Time =    1.000,"PART-1-1",           551,           -5.,       10.2083,            0.,NA,NA,"",       1.21023,       1.13006,   433.136E-03,   15.5651E-09
C:/temp/dataset/4/10_35.odb,Step-1,Increment      1: Step Time =    1.000,"PART-1-1",           552,      -6.00030,       11.3233,            0.,NA,NA,"",       1.25196,       1.16350,   462.252E-03,   15.2401E-09
C:/temp/dataset/4/10_35.odb,Step-1,Increment      1: Step Time =    1.000,"PART-1-1",           553,      -6.90277,       16.5792,            0.,NA,NA,"",       1.40633,       1.31944,   486.658E-03,   15.7815E-09
C:/temp/dataset/4/10_35.odb,Step-1,Increment      1: Step Time =    1.000,"PART-1-1",           554,           -5.,       16.4583,            0.,NA,NA,"",       1.38367,       1.31503,   430.398E-03,   15.4631E-09
C:/temp/dataset/4/10_35.odb,Step-1,Increment      1: Step Time =    1.000,"PART-1-1",           555,      -5.93592,       17.5473,            0.,NA,NA,"",       1.42325,       1.34767,   457.620E-03,   15.7850E-09
C:/temp/dataset/4/10_35.odb,Step-1,Increment      1: Step Time =    1.000,"PART-1-1",           556,      -5.96041,       23.6583,            0.,NA,NA,"",       1.59501,       1.52854,   455.668E-03,   16.6850E-09
C:/temp/dataset/4/10_35.odb,Step-1,Increment      1: Step Time =    1.000,"PART-1-1",           557,           -5.,       24.7917,            0.,NA,NA,"",       1.61892,       1.56166,   426.748E-03,   16.7746E-09
C:/temp/dataset/4/10_35.odb,Step-1,Increment      1: Step Time =    1.000,"PART-1-1",           558,      -7.48847,       28.8776,            0.,NA,NA,"",       1.75595,       1.68367,   498.605E-03,   17.2498E-09
C:/temp/dataset/4/10_35.odb,Step-1,Increment      1: Step Time =    1.000,"PART-1-1",           559,           -5.,       28.9583,            0.,NA,NA,"",       1.73772,       1.68497,   424.923E-03,   17.3051E-09
C:/temp/dataset/4/10_35.odb,Step-1,Increment      1: Step Time =    1.000,"PART-1-1",           560,         -6.25,           30.,            0.,NA,NA,"",       1.77730,       1.71635,   461.461E-03,   17.5091E-09
C:/temp/dataset/4/10_35.odb,Step-1,Increment      1: Step Time =    1.000,"PART-1-1",           561,       12.9634,       11.4929,            0.,NA,NA,"",       1.16435,       1.16014,  -98.9679E-03,   119.469E-09
C:/temp/dataset/4/10_35.odb,Step-1,Increment      1: Step Time =    1.000,"PART-1-1",           562,       13.9657,       10.1417,            0.,NA,NA,"",       1.12702,       1.11973,  -128.028E-03,   150.416E-09
C:/temp/dataset/4/10_35.odb,Step-1,Increment      1: Step Time =    1.000,"PART-1-1",           563,           15.,         11.25,            0.,NA,NA,"",       1.16300,       1.15206,  -159.115E-03,   133.782E-09
C:/temp/dataset/4/10_35.odb,Step-1,Increment      1: Step Time =    1.000,"PART-1-1",           564,       13.9978,       12.6011,            0.,NA,NA,"",       1.19955,       1.19248,  -130.054E-03,   52.8530E-09
C:/temp/dataset/4/10_35.odb,Step-1,Increment      1: Step Time =    1.000,"PART-1-1",           565,       9.13480,      -18.5479,            0.,NA,NA,"",   252.454E-03,   251.775E-03,   18.5002E-03,   5.76786E-03
C:/temp/dataset/4/10_35.odb,Step-1,Increment      1: Step Time =    1.000,"PART-1-1",           566,       11.1537,      -18.5886,            0.,NA,NA,"",   250.915E-03,   248.986E-03,  -31.0558E-03,   5.31061E-03
C:/temp/dataset/4/10_35.odb,Step-1,Increment      1: Step Time =    1.000,"PART-1-1",           567,       10.1377,      -17.4381,            0.,NA,NA,"",   287.742E-03,   287.669E-03,  -6.47485E-03,   5.15365E-03
C:/temp/dataset/4/10_35.odb,Step-1,Increment      1: Step Time =    1.000,"PART-1-1",           568,      -8.81573,       27.5627,            0.,NA,NA,"",       1.73121,       1.64534,   538.461E-03,   17.1277E-09
C:/temp/dataset/4/10_35.odb,Step-1,Increment      1: Step Time =    1.000,"PART-1-1",           569,         -8.75,           30.,            0.,NA,NA,"",       1.79897,       1.71744,   535.448E-03,   17.2020E-09
C:/temp/dataset/4/10_35.odb,Step-1,Increment      1: Step Time =    1.000,"PART-1-1",           570,            5.,      -24.7917,            0.,NA,NA,"",   119.186E-03,   87.6168E-03,   80.7999E-03,   13.5675E-03
C:/temp/dataset/4/10_35.odb,Step-1,Increment      1: Step Time =    1.000,"PART-1-1",           571,       6.09200,      -25.8775,            0.,NA,NA,"",   76.8158E-03,   59.3867E-03,   48.7225E-03,   12.0251E-03
C:/temp/dataset/4/10_35.odb,Step-1,Increment      1: Step Time =    1.000,"PART-1-1",           572,       7.15121,      -24.8757,            0.,NA,NA,"",   85.2746E-03,   75.0138E-03,   40.5547E-03,   8.92779E-03
C:/temp/dataset/4/10_35.odb,Step-1,Increment      1: Step Time =    1.000,"PART-1-1",           573,       13.1040,      -21.0477,            0.,NA,NA,"",   187.972E-03,   174.326E-03,  -70.3126E-03,   6.51054E-03
C:/temp/dataset/4/10_35.odb,Step-1,Increment      1: Step Time =    1.000,"PART-1-1",           574,       14.0487,      -22.3697,            0.,NA,NA,"",   163.230E-03,   139.800E-03,  -84.2613E-03,   8.61355E-03
C:/temp/dataset/4/10_35.odb,Step-1,Increment      1: Step Time =    1.000,"PART-1-1",           575,           15.,        -21.25,            0.,NA,NA,"",   210.230E-03,   173.885E-03,  -118.155E-03,   8.74928E-03
C:/temp/dataset/4/10_35.odb,Step-1,Increment      1: Step Time =    1.000,"PART-1-1",           576,            5.,       -26.875,            0.,NA,NA,"",   72.6505E-03,   48.7747E-03,   53.8435E-03,   16.4724E-03
C:/temp/dataset/4/10_35.odb,Step-1,Increment      1: Step Time =    1.000,"PART-1-1",           577,       12.8133,      -6.31290,            0.,NA,NA,"",   639.414E-03,   633.503E-03,  -86.7392E-03,   95.4098E-06
C:/temp/dataset/4/10_35.odb,Step-1,Increment      1: Step Time =    1.000,"PART-1-1",           578,       13.9319,      -7.55671,            0.,NA,NA,"",   607.921E-03,   596.037E-03,  -119.616E-03,   146.550E-06
C:/temp/dataset/4/10_35.odb,Step-1,Increment      1: Step Time =    1.000,"PART-1-1",           579,           15.,         -6.25,            0.,NA,NA,"",   652.226E-03,   634.314E-03,  -151.806E-03,   174.479E-06
C:/temp/dataset/4/10_35.odb,Step-1,Increment      1: Step Time =    1.000,"PART-1-1",           580,            5.,       18.5417,            0.,NA,NA,"",       1.37866,       1.37217,   133.551E-03,   12.3923E-09
C:/temp/dataset/4/10_35.odb,Step-1,Increment      1: Step Time =    1.000,"PART-1-1",           581,       6.00122,       17.5195,            0.,NA,NA,"",       1.34555,       1.34149,   104.377E-03,   10.8897E-09
C:/temp/dataset/4/10_35.odb,Step-1,Increment      1: Step Time =    1.000,"PART-1-1",           582,       6.99656,       18.6041,            0.,NA,NA,"",       1.37516,       1.37315,   74.4541E-03,   10.2504E-09
C:/temp/dataset/4/10_35.odb,Step-1,Increment      1: Step Time =    1.000,"PART-1-1",           583,       12.8545,       23.6160,            0.,NA,NA,"",       1.52222,       1.51886,  -101.051E-03,   10.8848E-09
C:/temp/dataset/4/10_35.odb,Step-1,Increment      1: Step Time =    1.000,"PART-1-1",           584,       13.9683,       22.4382,            0.,NA,NA,"",       1.48952,       1.48353,  -133.489E-03,   10.9581E-09
C:/temp/dataset/4/10_35.odb,Step-1,Increment      1: Step Time =    1.000,"PART-1-1",           585,           15.,         23.75,            0.,NA,NA,"",       1.53076,       1.52189,  -164.587E-03,   11.1091E-09
C:/temp/dataset/4/10_35.odb,Step-1,Increment      1: Step Time =    1.000,"PART-1-1",           586,            5.,       16.4583,            0.,NA,NA,"",       1.31742,       1.31054,   134.463E-03,   10.2843E-09
C:/temp/dataset/4/10_35.odb,Step-1,Increment      1: Step Time =    1.000,"PART-1-1",           587,       7.00480,       16.4638,            0.,NA,NA,"",       1.31197,       1.30982,   75.1474E-03,   14.7818E-09
C:/temp/dataset/4/10_35.odb,Step-1,Increment      1: Step Time =    1.000,"PART-1-1",           588,       12.9734,       21.1620,            0.,NA,NA,"",       1.44991,       1.44621,  -103.495E-03,   10.4323E-09
C:/temp/dataset/4/10_35.odb,Step-1,Increment      1: Step Time =    1.000,"PART-1-1",           589,           15.,         21.25,            0.,NA,NA,"",       1.45712,       1.44792,  -163.493E-03,   11.2078E-09
C:/temp/dataset/4/10_35.odb,Step-1,Increment      1: Step Time =    1.000,"PART-1-1",           590,            5.,       6.04167,            0.,NA,NA,"",       1.01194,       1.00235,   139.025E-03,   694.393E-09
C:/temp/dataset/4/10_35.odb,Step-1,Increment      1: Step Time =    1.000,"PART-1-1",           591,       5.70418,       5.21013,            0.,NA,NA,"",   984.601E-03,   977.438E-03,   118.555E-03,   422.203E-09
C:/temp/dataset/4/10_35.odb,Step-1,Increment      1: Step Time =    1.000,"PART-1-1",           592,       6.54256,       6.20387,            0.,NA,NA,"",       1.01079,       1.00647,   93.3148E-03,   156.442E-09
C:/temp/dataset/4/10_35.odb,Step-1,Increment      1: Step Time =    1.000,"PART-1-1",           593,       7.80464,       8.81181,            0.,NA,NA,"",       1.08447,       1.08308,   54.8326E-03,   192.046E-09
C:/temp/dataset/4/10_35.odb,Step-1,Increment      1: Step Time =    1.000,"PART-1-1",           594,       7.55468,       6.70991,            0.,NA,NA,"",       1.02295,       1.02100,   63.1482E-03,   187.881E-09
C:/temp/dataset/4/10_35.odb,Step-1,Increment      1: Step Time =    1.000,"PART-1-1",           595,           -5.,       12.2917,            0.,NA,NA,"",       1.26768,       1.19172,   432.223E-03,   14.9728E-09
C:/temp/dataset/4/10_35.odb,Step-1,Increment      1: Step Time =    1.000,"PART-1-1",           596,      -13.0551,       11.1433,            0.,NA,NA,"",       1.34124,       1.16126,   671.118E-03,   16.8008E-09
C:/temp/dataset/4/10_35.odb,Step-1,Increment      1: Step Time =    1.000,"PART-1-1",           597,          -15.,       11.4063,            0.,NA,NA,"",       1.37821,       1.16989,   728.562E-03,   17.8267E-09
C:/temp/dataset/4/10_35.odb,Step-1,Increment      1: Step Time =    1.000,"PART-1-1",           598,           -5.,       18.5417,            0.,NA,NA,"",       1.44213,       1.37669,   429.486E-03,   15.8402E-09
C:/temp/dataset/4/10_35.odb,Step-1,Increment      1: Step Time =    1.000,"PART-1-1",           599,      -6.83195,       18.5917,            0.,NA,NA,"",       1.46134,       1.37897,   483.681E-03,   16.0690E-09
C:/temp/dataset/4/10_35.odb,Step-1,Increment      1: Step Time =    1.000,"PART-1-1",           600,      -12.9744,       15.4368,            0.,NA,NA,"",       1.45065,       1.28829,   666.851E-03,   16.8797E-09
C:/temp/dataset/4/10_35.odb,Step-1,Increment      1: Step Time =    1.000,"PART-1-1",           601,      -13.9736,       16.6988,            0.,NA,NA,"",       1.49757,       1.32608,   695.868E-03,   17.1796E-09
C:/temp/dataset/4/10_35.odb,Step-1,Increment      1: Step Time =    1.000,"PART-1-1",           602,          -15.,       15.7813,            0.,NA,NA,"",       1.48875,       1.29937,   726.646E-03,   17.3943E-09
C:/temp/dataset/4/10_35.odb,Step-1,Increment      1: Step Time =    1.000,"PART-1-1",           603,      -6.85389,       22.5676,            0.,NA,NA,"",       1.57253,       1.49665,   482.588E-03,   16.5995E-09
C:/temp/dataset/4/10_35.odb,Step-1,Increment      1: Step Time =    1.000,"PART-1-1",           604,           -5.,       22.7083,            0.,NA,NA,"",       1.55977,       1.50000,   427.661E-03,   16.5053E-09
C:/temp/dataset/4/10_35.odb,Step-1,Increment      1: Step Time =    1.000,"PART-1-1",           605,      -7.62380,       21.5126,            0.,NA,NA,"",       1.55059,       1.46576,   505.836E-03,   16.5518E-09
C:/temp/dataset/4/10_35.odb,Step-1,Increment      1: Step Time =    1.000,"PART-1-1",           606,      -11.2433,       25.0031,            0.,NA,NA,"",       1.68546,       1.57065,   611.428E-03,   17.1333E-09
C:/temp/dataset/4/10_35.odb,Step-1,Increment      1: Step Time =    1.000,"PART-1-1",           607,      -10.1220,       24.6816,            0.,NA,NA,"",       1.66437,       1.56064,   578.382E-03,   17.0464E-09
C:/temp/dataset/4/10_35.odb,Step-1,Increment      1: Step Time =    1.000,"PART-1-1",           608,      -9.68436,       26.2404,            0.,NA,NA,"",       1.70295,       1.60658,   564.748E-03,   17.0712E-09
C:/temp/dataset/4/10_35.odb,Step-1,Increment      1: Step Time =    1.000,"PART-1-1",           609,      -10.8057,       26.5619,            0.,NA,NA,"",       1.72358,       1.61659,   597.794E-03,   17.1458E-09
C:/temp/dataset/4/10_35.odb,Step-1,Increment      1: Step Time =    1.000,"PART-1-1",           610,            5.,      -6.04167,            0.,NA,NA,"",   660.639E-03,   644.749E-03,   144.025E-03,   215.397E-06
C:/temp/dataset/4/10_35.odb,Step-1,Increment      1: Step Time =    1.000,"PART-1-1",           611,       5.81487,      -6.90448,            0.,NA,NA,"",   630.462E-03,   618.880E-03,   120.290E-03,   192.720E-06
C:/temp/dataset/4/10_35.odb,Step-1,Increment      1: Step Time =    1.000,"PART-1-1",           612,       6.44107,      -5.66337,            0.,NA,NA,"",   663.054E-03,   655.248E-03,   101.443E-03,   116.948E-06
C:/temp/dataset/4/10_35.odb,Step-1,Increment      1: Step Time =    1.000,"PART-1-1",           613,       5.62621,      -4.80056,            0.,NA,NA,"",   692.562E-03,   681.163E-03,   125.136E-03,   81.8199E-06
C:/temp/dataset/4/10_35.odb,Step-1,Increment      1: Step Time =    1.000,"PART-1-1",           614,            5.,        -8.125,            0.,NA,NA,"",   601.086E-03,   583.495E-03,   144.353E-03,   393.401E-06
C:/temp/dataset/4/10_35.odb,Step-1,Increment      1: Step Time =    1.000,"PART-1-1",           615,       8.00489,       17.5473,            0.,NA,NA,"",       1.34220,       1.34144,   45.0845E-03,   10.4336E-09
C:/temp/dataset/4/10_35.odb,Step-1,Increment      1: Step Time =    1.000,"PART-1-1",           616,       8.00828,       15.3576,            0.,NA,NA,"",       1.27748,       1.27665,   45.9427E-03,   22.8634E-09
C:/temp/dataset/4/10_35.odb,Step-1,Increment      1: Step Time =    1.000,"PART-1-1",           617,       11.1265,      -16.2686,            0.,NA,NA,"",   327.396E-03,   325.732E-03,  -32.9656E-03,   4.16496E-03
C:/temp/dataset/4/10_35.odb,Step-1,Increment      1: Step Time =    1.000,"PART-1-1",           618,       9.12111,      -16.3141,            0.,NA,NA,"",   327.850E-03,   327.205E-03,   20.5505E-03,   5.00608E-03
C:/temp/dataset/4/10_35.odb,Step-1,Increment      1: Step Time =    1.000,"PART-1-1",           619,      -9.91602,       15.9767,            0.,NA,NA,"",       1.42461,       1.30293,   576.099E-03,   16.2455E-09
C:/temp/dataset/4/10_35.odb,Step-1,Increment      1: Step Time =    1.000,"PART-1-1",           620,      -10.9598,       15.0860,            0.,NA,NA,"",       1.41411,       1.27703,   607.380E-03,   16.3620E-09
C:/temp/dataset/4/10_35.odb,Step-1,Increment      1: Step Time =    1.000,"PART-1-1",           621,      -8.93702,       14.7598,            0.,NA,NA,"",       1.37983,       1.26649,   547.659E-03,   15.8965E-09
C:/temp/dataset/4/10_35.odb,Step-1,Increment      1: Step Time =    1.000,"PART-1-1",           622,      -13.0880,       4.79273,            0.,NA,NA,"",       1.18441,   973.329E-03,   674.872E-03,   16.4502E-09
C:/temp/dataset/4/10_35.odb,Step-1,Increment      1: Step Time =    1.000,"PART-1-1",           623,          -15.,       4.84375,            0.,NA,NA,"",       1.21940,   975.677E-03,   731.437E-03,   23.7253E-09
C:/temp/dataset/4/10_35.odb,Step-1,Increment      1: Step Time =    1.000,"PART-1-1",           624,           -5.,       6.04167,            0.,NA,NA,"",       1.09669,       1.00675,   434.961E-03,   35.8424E-09
C:/temp/dataset/4/10_35.odb,Step-1,Increment      1: Step Time =    1.000,"PART-1-1",           625,      -7.12843,       5.83601,            0.,NA,NA,"",       1.11859,       1.00159,   498.042E-03,   10.4880E-09
C:/temp/dataset/4/10_35.odb,Step-1,Increment      1: Step Time =    1.000,"PART-1-1",           626,       12.9112,      -8.87192,            0.,NA,NA,"",   564.271E-03,   557.275E-03,  -88.5785E-03,   67.3189E-06
C:/temp/dataset/4/10_35.odb,Step-1,Increment      1: Step Time =    1.000,"PART-1-1",           627,           15.,         -8.75,            0.,NA,NA,"",   579.890E-03,   559.816E-03,  -151.256E-03,   281.132E-06
C:/temp/dataset/4/10_35.odb,Step-1,Increment      1: Step Time =    1.000,"PART-1-1",           628,       13.0740,      -16.2399,            0.,NA,NA,"",   337.511E-03,   326.142E-03,  -86.8631E-03,   3.24586E-03
C:/temp/dataset/4/10_35.odb,Step-1,Increment      1: Step Time =    1.000,"PART-1-1",           629,           15.,        -16.25,            0.,NA,NA,"",   357.453E-03,   326.733E-03,  -144.977E-03,   2.61319E-03
C:/temp/dataset/4/10_35.odb,Step-1,Increment      1: Step Time =    1.000,"PART-1-1",           630,       13.0128,       13.9092,            0.,NA,NA,"",       1.23578,       1.23161,  -101.487E-03,   48.3877E-09
C:/temp/dataset/4/10_35.odb,Step-1,Increment      1: Step Time =    1.000,"PART-1-1",           631,           15.,         13.75,            0.,NA,NA,"",       1.23645,       1.22603,  -160.209E-03,   34.6556E-09
C:/temp/dataset/4/10_35.odb,Step-1,Increment      1: Step Time =    1.000,"PART-1-1",           632,       10.9505,       11.7339,            0.,NA,NA,"",       1.16882,       1.16816,  -39.5188E-03,   125.713E-09
C:/temp/dataset/4/10_35.odb,Step-1,Increment      1: Step Time =    1.000,"PART-1-1",           633,       9.98883,       12.9959,            0.,NA,NA,"",       1.20597,       1.20591,  -11.6198E-03,   71.8842E-09
C:/temp/dataset/4/10_35.odb,Step-1,Increment      1: Step Time =    1.000,"PART-1-1",           634,       8.94372,       11.9797,            0.,NA,NA,"",       1.17647,       1.17631,   19.7455E-03,   114.209E-09
C:/temp/dataset/4/10_35.odb,Step-1,Increment      1: Step Time =    1.000,"PART-1-1",           635,      -13.9153,       18.9000,            0.,NA,NA,"",       1.55433,       1.39120,   693.179E-03,   17.2839E-09
C:/temp/dataset/4/10_35.odb,Step-1,Increment      1: Step Time =    1.000,"PART-1-1",           636,      -12.6393,       19.9841,            0.,NA,NA,"",       1.56624,       1.42272,   654.941E-03,   17.0954E-09
C:/temp/dataset/4/10_35.odb,Step-1,Increment      1: Step Time =    1.000,"PART-1-1",           637,          -15.,       20.1563,            0.,NA,NA,"",       1.60214,       1.42885,   724.730E-03,   17.5383E-09
C:/temp/dataset/4/10_35.odb,Step-1,Increment      1: Step Time =    1.000,"PART-1-1",           638,       8.12191,      -21.7795,            0.,NA,NA,"",   156.152E-03,   151.676E-03,   37.1214E-03,   5.94190E-03
C:/temp/dataset/4/10_35.odb,Step-1,Increment      1: Step Time =    1.000,"PART-1-1",           639,       8.12482,      -23.8590,            0.,NA,NA,"",   100.470E-03,   95.8880E-03,   29.9952E-03,   6.65450E-03
C:/temp/dataset/4/10_35.odb,Step-1,Increment      1: Step Time =    1.000,"PART-1-1",           640,       8.11825,      -19.6354,            0.,NA,NA,"",   221.516E-03,   217.470E-03,   42.1441E-03,   5.59765E-03
C:/temp/dataset/4/10_35.odb,Step-1,Increment      1: Step Time =    1.000,"PART-1-1",           641,       8.10952,      -17.4508,            0.,NA,NA,"",   294.437E-03,   290.818E-03,   46.0207E-03,   5.61330E-03
C:/temp/dataset/4/10_35.odb,Step-1,Increment      1: Step Time =    1.000,"PART-1-1",           642,       7.85781,       23.9076,            0.,NA,NA,"",       1.53039,       1.52968,   46.6519E-03,   11.2314E-09
C:/temp/dataset/4/10_35.odb,Step-1,Increment      1: Step Time =    1.000,"PART-1-1",           643,       7.94870,       21.8524,            0.,NA,NA,"",       1.46952,       1.46883,   44.8623E-03,   10.9579E-09
C:/temp/dataset/4/10_35.odb,Step-1,Increment      1: Step Time =    1.000,"PART-1-1",           644,       4.21929,       2.98066,            0.,NA,NA,"",   926.650E-03,   912.118E-03,   163.466E-03,   1.67745E-06
C:/temp/dataset/4/10_35.odb,Step-1,Increment      1: Step Time =    1.000,"PART-1-1",           645,       5.32392,       3.96649,            0.,NA,NA,"",   949.793E-03,   940.806E-03,   130.350E-03,   1.55504E-06
C:/temp/dataset/4/10_35.odb,Step-1,Increment      1: Step Time =    1.000,"PART-1-1",           646,          3.75,            5.,            0.,NA,NA,"",   987.966E-03,   972.078E-03,   176.469E-03,   1.92611E-06
C:/temp/dataset/4/10_35.odb,Step-1,Increment      1: Step Time =    1.000,"PART-1-1",           647,       12.8859,       9.04653,            0.,NA,NA,"",       1.09199,       1.08780,  -95.6042E-03,   196.868E-09
C:/temp/dataset/4/10_35.odb,Step-1,Increment      1: Step Time =    1.000,"PART-1-1",           648,           15.,          8.75,            0.,NA,NA,"",       1.08962,       1.07810,  -158.020E-03,   350.653E-09
C:/temp/dataset/4/10_35.odb,Step-1,Increment      1: Step Time =    1.000,"PART-1-1",           649,      -8.02807,       9.41948,            0.,NA,NA,"",       1.22531,       1.10804,   523.098E-03,   15.0269E-09
C:/temp/dataset/4/10_35.odb,Step-1,Increment      1: Step Time =    1.000,"PART-1-1",           650,      -8.84347,       16.8085,            0.,NA,NA,"",       1.43425,       1.32708,   543.993E-03,   16.1437E-09
C:/temp/dataset/4/10_35.odb,Step-1,Increment      1: Step Time =    1.000,"PART-1-1",           651,      -9.78583,       18.0165,            0.,NA,NA,"",       1.47813,       1.36324,   571.353E-03,   16.4478E-09
C:/temp/dataset/4/10_35.odb,Step-1,Increment      1: Step Time =    1.000,"PART-1-1",           652,          -15.,       17.9688,            0.,NA,NA,"",       1.54513,       1.36411,   725.688E-03,   17.4711E-09
C:/temp/dataset/4/10_35.odb,Step-1,Increment      1: Step Time =    1.000,"PART-1-1",           653,          -15.,       24.5313,            0.,NA,NA,"",       1.71780,       1.55833,   722.813E-03,   17.5518E-09
C:/temp/dataset/4/10_35.odb,Step-1,Increment      1: Step Time =    1.000,"PART-1-1",           654,      -12.9952,       24.7258,            0.,NA,NA,"",       1.69815,       1.56321,   663.395E-03,   17.2989E-09
C:/temp/dataset/4/10_35.odb,Step-1,Increment      1: Step Time =    1.000,"PART-1-1",           655,      -11.4985,       21.8877,            0.,NA,NA,"",       1.60342,       1.47856,   620.345E-03,   17.0419E-09
C:/temp/dataset/4/10_35.odb,Step-1,Increment      1: Step Time =    1.000,"PART-1-1",           656,      -11.4490,       20.6565,            0.,NA,NA,"",       1.56950,       1.44210,   619.418E-03,   16.9434E-09
C:/temp/dataset/4/10_35.odb,Step-1,Increment      1: Step Time =    1.000,"PART-1-1",           657,      -10.1446,       20.7260,            0.,NA,NA,"",       1.55604,       1.44359,   580.785E-03,   16.7654E-09
C:/temp/dataset/4/10_35.odb,Step-1,Increment      1: Step Time =    1.000,"PART-1-1",           658,      -7.69218,       19.6350,            0.,NA,NA,"",       1.49916,       1.41023,   508.682E-03,   16.3279E-09
C:/temp/dataset/4/10_35.odb,Step-1,Increment      1: Step Time =    1.000,"PART-1-1",           659,      -8.68744,       18.7463,            0.,NA,NA,"",       1.48542,       1.38436,   538.526E-03,   16.3533E-09
C:/temp/dataset/4/10_35.odb,Step-1,Increment      1: Step Time =    1.000,"PART-1-1",           660,      -7.82721,       17.7030,            0.,NA,NA,"",       1.44727,       1.35311,   513.525E-03,   16.0881E-09
C:/temp/dataset/4/10_35.odb,Step-1,Increment      1: Step Time =    1.000,"PART-1-1",           661,      -9.52114,       19.8817,            0.,NA,NA,"",       1.52587,       1.41833,   562.702E-03,   16.6020E-09
C:/temp/dataset/4/10_35.odb,Step-1,Increment      1: Step Time =    1.000,"PART-1-1",           662,      -10.6195,       19.1519,            0.,NA,NA,"",       1.51883,       1.39721,   595.529E-03,   16.7005E-09
C:/temp/dataset/4/10_35.odb,Step-1,Increment      1: Step Time =    1.000,"PART-1-1",           663,      -12.1485,       3.78191,            0.,NA,NA,"",       1.14391,   943.002E-03,   647.511E-03,   13.0901E-09
C:/temp/dataset/4/10_35.odb,Step-1,Increment      1: Step Time =    1.000,"PART-1-1",           664,      -10.9850,       2.86362,            0.,NA,NA,"",       1.10189,   915.316E-03,   613.479E-03,   10.8815E-09
C:/temp/dataset/4/10_35.odb,Step-1,Increment      1: Step Time =    1.000,"PART-1-1",           665,      -9.06958,       8.49577,            0.,NA,NA,"",       1.21498,       1.08116,   554.326E-03,   14.5660E-09
C:/temp/dataset/4/10_35.odb,Step-1,Increment      1: Step Time =    1.000,"PART-1-1",           666,      -8.08215,       7.28595,            0.,NA,NA,"",       1.16968,       1.04492,   525.633E-03,   15.2080E-09
C:/temp/dataset/4/10_35.odb,Step-1,Increment      1: Step Time =    1.000,"PART-1-1",           667,      -10.1292,       7.60955,            0.,NA,NA,"",       1.20721,       1.05540,   586.074E-03,   13.8869E-09
C:/temp/dataset/4/10_35.odb,Step-1,Increment      1: Step Time =    1.000,"PART-1-1",           668,      -11.2104,       6.77234,            0.,NA,NA,"",       1.20234,       1.03109,   618.437E-03,   13.7640E-09
C:/temp/dataset/4/10_35.odb,Step-1,Increment      1: Step Time =    1.000,"PART-1-1",           669,      -10.2942,       5.63122,            0.,NA,NA,"",       1.15936,   996.920E-03,   591.825E-03,   10.2861E-09
C:/temp/dataset/4/10_35.odb,Step-1,Increment      1: Step Time =    1.000,"PART-1-1",           670,      -9.21309,       6.46842,            0.,NA,NA,"",       1.16443,       1.02122,   559.461E-03,   10.8499E-09
C:/temp/dataset/4/10_35.odb,Step-1,Increment      1: Step Time =    1.000,"PART-1-1",           671,        -11.25,           -5.,            0.,NA,NA,"",   925.431E-03,   682.707E-03,   624.767E-03,   20.5138E-09
C:/temp/dataset/4/10_35.odb,Step-1,Increment      1: Step Time =    1.000,"PART-1-1",           672,      -10.0273,      -3.93877,            0.,NA,NA,"",   924.703E-03,   713.579E-03,   588.116E-03,   17.1086E-09
C:/temp/dataset/4/10_35.odb,Step-1,Increment      1: Step Time =    1.000,"PART-1-1",           673,         -8.75,           -5.,            0.,NA,NA,"",   876.330E-03,   681.612E-03,   550.779E-03,   19.2729E-09
C:/temp/dataset/4/10_35.odb,Step-1,Increment      1: Step Time =    1.000,"PART-1-1",           674,      -7.59562,      -4.02918,            0.,NA,NA,"",   877.680E-03,   709.838E-03,   516.190E-03,   24.8851E-09
C:/temp/dataset/4/10_35.odb,Step-1,Increment      1: Step Time =    1.000,"PART-1-1",           675,      -8.87289,      -2.96795,            0.,NA,NA,"",   925.562E-03,   741.805E-03,   553.526E-03,   26.6171E-09
C:/temp/dataset/4/10_35.odb,Step-1,Increment      1: Step Time =    1.000,"PART-1-1",           676,         -6.25,           -5.,            0.,NA,NA,"",   830.924E-03,   680.517E-03,   476.792E-03,   96.8160E-09
C:/temp/dataset/4/10_35.odb,Step-1,Increment      1: Step Time =    1.000,"PART-1-1",           677,      -5.03874,      -3.83161,            0.,NA,NA,"",   839.395E-03,   714.565E-03,   440.433E-03,   147.963E-09
C:/temp/dataset/4/10_35.odb,Step-1,Increment      1: Step Time =    1.000,"PART-1-1",           678,      -6.38435,      -2.86079,            0.,NA,NA,"",   885.215E-03,   743.886E-03,   479.831E-03,   133.291E-09
C:/temp/dataset/4/10_35.odb,Step-1,Increment      1: Step Time =    1.000,"PART-1-1",           679,      -8.31216,       1.98044,            0.,NA,NA,"",       1.03659,   888.007E-03,   534.764E-03,   43.6317E-09
C:/temp/dataset/4/10_35.odb,Step-1,Increment      1: Step Time =    1.000,"PART-1-1",           680,      -6.89941,       1.67561,            0.,NA,NA,"",       1.00730,   878.367E-03,   493.087E-03,   98.5937E-09
C:/temp/dataset/4/10_35.odb,Step-1,Increment      1: Step Time =    1.000,"PART-1-1",           681,      -8.02347,       3.70061,            0.,NA,NA,"",       1.07584,   938.789E-03,   525.467E-03,   25.6992E-09
C:/temp/dataset/4/10_35.odb,Step-1,Increment      1: Step Time =    1.000,"PART-1-1",           682,      -9.78636,       2.36681,            0.,NA,NA,"",       1.06981,   900.087E-03,   578.224E-03,   18.2883E-09
C:/temp/dataset/4/10_35.odb,Step-1,Increment      1: Step Time =    1.000,"PART-1-1",           683,      -8.80920,   354.969E-03,            0.,NA,NA,"",       1.00424,   840.119E-03,   550.186E-03,   40.5581E-09
C:/temp/dataset/4/10_35.odb,Step-1,Increment      1: Step Time =    1.000,"PART-1-1",           684,         -3.75,           -5.,            0.,NA,NA,"",   789.852E-03,   679.422E-03,   402.805E-03,   274.668E-09
C:/temp/dataset/4/10_35.odb,Step-1,Increment      1: Step Time =    1.000,"PART-1-1",           685,          3.75,           -5.,            0.,NA,NA,"",   699.875E-03,   676.113E-03,   180.823E-03,   15.1094E-06
C:/temp/dataset/4/10_35.odb,Step-1,Increment      1: Step Time =    1.000,"PART-1-1",           686,       4.46580,      -3.87501,            0.,NA,NA,"",   726.748E-03,   709.113E-03,   159.128E-03,   31.6348E-06
C:/temp/dataset/4/10_35.odb,Step-1,Increment      1: Step Time =    1.000,"PART-1-1",           687,       2.90021,      -2.90757,            0.,NA,NA,"",   766.381E-03,   738.437E-03,   205.064E-03,   5.33569E-06
C:/temp/dataset/4/10_35.odb,Step-1,Increment      1: Step Time =    1.000,"PART-1-1",           688,       11.1618,       2.81075,            0.,NA,NA,"",   905.037E-03,   904.068E-03,  -41.8636E-03,   3.54050E-06
C:/temp/dataset/4/10_35.odb,Step-1,Increment      1: Step Time =    1.000,"PART-1-1",           689,       10.1850,       1.50626,            0.,NA,NA,"",   865.988E-03,   865.899E-03,  -12.3845E-03,   10.4575E-06
C:/temp/dataset/4/10_35.odb,Step-1,Increment      1: Step Time =    1.000,"PART-1-1",           690,       11.6421,   144.368E-03,            0.,NA,NA,"",   826.813E-03,   824.988E-03,  -54.8980E-03,   13.8950E-06
C:/temp/dataset/4/10_35.odb,Step-1,Increment      1: Step Time =    1.000,"PART-1-1",           691,         11.25,           30.,            0.,NA,NA,"",       1.70937,       1.70844,  -56.3760E-03,   11.2861E-09
C:/temp/dataset/4/10_35.odb,Step-1,Increment      1: Step Time =    1.000,"PART-1-1",           692,       9.19768,       26.3844,            0.,NA,NA,"",       1.60238,       1.60237,   5.92638E-03,   11.1961E-09
C:/temp/dataset/4/10_35.odb,Step-1,Increment      1: Step Time =    1.000,"PART-1-1",           693,       7.72138,       25.7435,            0.,NA,NA,"",       1.58484,       1.58405,   49.8844E-03,   11.3018E-09
C:/temp/dataset/4/10_35.odb,Step-1,Increment      1: Step Time =    1.000,"PART-1-1",           694,       9.17897,      -24.8987,            0.,NA,NA,"",   70.4232E-03,   69.5893E-03,   10.8052E-03,   6.09720E-03
C:/temp/dataset/4/10_35.odb,Step-1,Increment      1: Step Time =    1.000,"PART-1-1",           695,       9.00589,       18.6572,            0.,NA,NA,"",       1.37392,       1.37384,   14.9831E-03,   9.87512E-09
C:/temp/dataset/4/10_35.odb,Step-1,Increment      1: Step Time =    1.000,"PART-1-1",           696,       7.99757,       19.7140,            0.,NA,NA,"",       1.40624,       1.40554,   44.3527E-03,   10.2419E-09
C:/temp/dataset/4/10_35.odb,Step-1,Increment      1: Step Time =    1.000,"PART-1-1",           697,      -12.2498,       25.7751,            0.,NA,NA,"",       1.71795,       1.59394,   640.875E-03,   17.2466E-09
C:/temp/dataset/4/10_35.odb,Step-1,Increment      1: Step Time =    1.000,"PART-1-1",           698,      -11.9888,       23.9538,            0.,NA,NA,"",       1.66531,       1.53992,   633.949E-03,   17.1883E-09
C:/temp/dataset/4/10_35.odb,Step-1,Increment      1: Step Time =    1.000,"PART-1-1",           699,      -1.59164,      -1.60220,            0.,NA,NA,"",   848.978E-03,   779.036E-03,   337.440E-03,   907.859E-09
C:/temp/dataset/4/10_35.odb,Step-1,Increment      1: Step Time =    1.000,"PART-1-1",           700,      -1.34014,  -343.401E-03,            0.,NA,NA,"",   880.162E-03,   816.181E-03,   329.444E-03,   815.241E-09
C:/temp/dataset/4/10_35.odb,Step-1,Increment      1: Step Time =    1.000,"PART-1-1",           701,      -2.70787,  -93.9540E-03,            0.,NA,NA,"",   903.329E-03,   824.162E-03,   369.813E-03,   596.232E-09
C:/temp/dataset/4/10_35.odb,Step-1,Increment      1: Step Time =    1.000,"PART-1-1",           702,       8.06015,      -13.0184,            0.,NA,NA,"",   441.016E-03,   437.656E-03,   54.3400E-03,   2.99941E-03
C:/temp/dataset/4/10_35.odb,Step-1,Increment      1: Step Time =    1.000,"PART-1-1",           703,       7.99745,      -10.7906,            0.,NA,NA,"",   507.583E-03,   504.293E-03,   57.6961E-03,   1.14354E-03
C:/temp/dataset/4/10_35.odb,Step-1,Increment      1: Step Time =    1.000,"PART-1-1",           704,           15.,        -26.25,            0.,NA,NA,"",   85.6845E-03,   58.0395E-03,  -63.0337E-03,   15.4432E-03
C:/temp/dataset/4/10_35.odb,Step-1,Increment      1: Step Time =    1.000,"PART-1-1",           705,       13.9776,      -24.8045,            0.,NA,NA,"",   101.149E-03,   80.5717E-03,  -61.1499E-03,   11.0054E-03
C:/temp/dataset/4/10_35.odb,Step-1,Increment      1: Step Time =    1.000,"PART-1-1",           706,       12.6094,      -25.9010,            0.,NA,NA,"",   60.1209E-03,   52.1966E-03,  -29.8333E-03,   8.96839E-03
C:/temp/dataset/4/10_35.odb,Step-1,Increment      1: Step Time =    1.000,"PART-1-1",           707,       12.0224,      -24.3398,            0.,NA,NA,"",   89.6383E-03,   84.1021E-03,  -31.0139E-03,   7.39450E-03
C:/temp/dataset/4/10_35.odb,Step-1,Increment      1: Step Time =    1.000,"PART-1-1",           708,       13.0263,      -23.4242,            0.,NA,NA,"",   121.857E-03,   109.083E-03,  -54.3135E-03,   8.13654E-03
C:/temp/dataset/4/10_35.odb,Step-1,Increment      1: Step Time =    1.000,"PART-1-1",           709,       12.1300,      -22.1112,            0.,NA,NA,"",   148.422E-03,   141.924E-03,  -43.4339E-03,   6.39088E-03
C:/temp/dataset/4/10_35.odb,Step-1,Increment      1: Step Time =    1.000,"PART-1-1",           710,           15.,        -23.75,            0.,NA,NA,"",   144.067E-03,   109.317E-03,  -93.8354E-03,   11.9561E-03
C:/temp/dataset/4/10_35.odb,Step-1,Increment      1: Step Time =    1.000,"PART-1-1",           711,       10.9035,      -9.09896,            0.,NA,NA,"",   552.336E-03,   551.596E-03,  -28.5798E-03,   253.787E-06
C:/temp/dataset/4/10_35.odb,Step-1,Increment      1: Step Time =    1.000,"PART-1-1",           712,       9.82794,      -8.10226,            0.,NA,NA,"",   581.815E-03,   581.808E-03,   2.89107E-03,   145.668E-06
C:/temp/dataset/4/10_35.odb,Step-1,Increment      1: Step Time =    1.000,"PART-1-1",           713,       8.90728,      -9.48784,            0.,NA,NA,"",   542.352E-03,   541.482E-03,   30.7127E-03,   451.771E-06
C:/temp/dataset/4/10_35.odb,Step-1,Increment      1: Step Time =    1.000,"PART-1-1",           714,           15.,         -1.25,            0.,NA,NA,"",   797.234E-03,   782.286E-03,  -153.659E-03,   20.9844E-06
C:/temp/dataset/4/10_35.odb,Step-1,Increment      1: Step Time =    1.000,"PART-1-1",           715,       12.7555,      -1.12336,            0.,NA,NA,"",   791.846E-03,   787.020E-03,  -87.2924E-03,   27.3180E-06
C:/temp/dataset/4/10_35.odb,Step-1,Increment      1: Step Time =    1.000,"PART-1-1",           716,       11.5680,       5.48707,            0.,NA,NA,"",   984.608E-03,   983.067E-03,  -55.0533E-03,   488.865E-09
C:/temp/dataset/4/10_35.odb,Step-1,Increment      1: Step Time =    1.000,"PART-1-1",           717,       10.1222,       4.29256,            0.,NA,NA,"",   948.432E-03,   948.359E-03,  -11.7560E-03,   2.30174E-06
C:/temp/dataset/4/10_35.odb,Step-1,Increment      1: Step Time =    1.000,"PART-1-1",           718,       8.27918,   509.070E-03,            0.,NA,NA,"",   838.390E-03,   837.211E-03,   44.4415E-03,   14.0704E-06
C:/temp/dataset/4/10_35.odb,Step-1,Increment      1: Step Time =    1.000,"PART-1-1",           719,       9.70893,  -124.236E-03,            0.,NA,NA,"",   817.868E-03,   817.864E-03,   2.42896E-03,   17.1679E-06
C:/temp/dataset/4/10_35.odb,Step-1,Increment      1: Step Time =    1.000,"PART-1-1",           720,       8.75521,       2.13956,            0.,NA,NA,"",   885.749E-03,   885.253E-03,   29.6357E-03,   6.10079E-06
C:/temp/dataset/4/10_35.odb,Step-1,Increment      1: Step Time =    1.000,"PART-1-1",           721,       6.99874,       4.90963,            0.,NA,NA,"",   971.312E-03,   967.980E-03,   80.3846E-03,   1.06773E-06
C:/temp/dataset/4/10_35.odb,Step-1,Increment      1: Step Time =    1.000,"PART-1-1",           722,       8.01086,       5.41567,            0.,NA,NA,"",   983.792E-03,   982.510E-03,   50.2182E-03,   953.937E-09
C:/temp/dataset/4/10_35.odb,Step-1,Increment      1: Step Time =    1.000,"PART-1-1",           723,       11.8045,       7.99587,            0.,NA,NA,"",       1.05907,       1.05719,  -63.1505E-03,   219.218E-09
C:/temp/dataset/4/10_35.odb,Step-1,Increment      1: Step Time =    1.000,"PART-1-1",           724,       7.91904,       10.9856,            0.,NA,NA,"",       1.14845,       1.14734,   50.4967E-03,   127.271E-09
C:/temp/dataset/4/10_35.odb,Step-1,Increment      1: Step Time =    1.000,"PART-1-1",           725,       11.0233,       18.7016,            0.,NA,NA,"",       1.37499,       1.37427,  -44.7243E-03,   9.58731E-09
C:/temp/dataset/4/10_35.odb,Step-1,Increment      1: Step Time =    1.000,"PART-1-1",           726,       10.0074,       19.8076,            0.,NA,NA,"",       1.40752,       1.40743,  -15.1521E-03,   9.68694E-09
C:/temp/dataset/4/10_35.odb,Step-1,Increment      1: Step Time =    1.000,"PART-1-1",           727,       10.9673,       21.0105,            0.,NA,NA,"",       1.44328,       1.44260,  -44.0763E-03,   10.0569E-09
C:/temp/dataset/4/10_35.odb,Step-1,Increment      1: Step Time =    1.000,"PART-1-1",           728,       8.97465,       20.8454,            0.,NA,NA,"",       1.43867,       1.43859,   14.9497E-03,   10.2011E-09
C:/temp/dataset/4/10_35.odb,Step-1,Increment      1: Step Time =    1.000,"PART-1-1",           729,       8.66510,       24.8184,            0.,NA,NA,"",       1.55643,       1.55627,   22.3688E-03,   11.1396E-09
C:/temp/dataset/4/10_35.odb,Step-1,Increment      1: Step Time =    1.000,"PART-1-1",           730,       7.98376,       13.1681,            0.,NA,NA,"",       1.21282,       1.21189,   47.6264E-03,   61.1270E-09
C:/temp/dataset/4/10_35.odb,Step-1,Increment      1: Step Time =    1.000,"PART-1-1",           731,      -1.95806,       1.80915,            0.,NA,NA,"",   946.010E-03,   880.155E-03,   346.788E-03,   658.260E-09
C:/temp/dataset/4/10_35.odb,Step-1,Increment      1: Step Time =    1.000,"PART-1-1",           732,  -613.587E-03,   828.335E-03,            0.,NA,NA,"",   904.395E-03,   850.540E-03,   307.428E-03,   890.524E-09
C:/temp/dataset/4/10_35.odb,Step-1,Increment      1: Step Time =    1.000,"PART-1-1",           733,   461.223E-03,       1.99751,            0.,NA,NA,"",   926.458E-03,   884.670E-03,   275.107E-03,   878.553E-09
C:/temp/dataset/4/10_35.odb,Step-1,Increment      1: Step Time =    1.000,"PART-1-1",           734,       1.74006,       1.04512,            0.,NA,NA,"",   888.313E-03,   855.926E-03,   237.677E-03,   782.181E-09
C:/temp/dataset/4/10_35.odb,Step-1,Increment      1: Step Time =    1.000,"PART-1-1",           735,   906.022E-03,  -39.5003E-03,            0.,NA,NA,"",   865.087E-03,   824.193E-03,   262.835E-03,   1.24461E-06
C:/temp/dataset/4/10_35.odb,Step-1,Increment      1: Step Time =    1.000,"PART-1-1",           736,       2.15034,  -968.542E-03,            0.,NA,NA,"",   827.723E-03,   796.154E-03,   226.416E-03,   1.74668E-06
C:/temp/dataset/4/10_35.odb,Step-1,Increment      1: Step Time =    1.000,"PART-1-1",           737,       2.98438,   116.081E-03,            0.,NA,NA,"",   851.999E-03,   827.887E-03,   201.259E-03,   2.35219E-06
C:/temp/dataset/4/10_35.odb,Step-1,Increment      1: Step Time =    1.000,"PART-1-1",           738,      -8.25937,       5.01848,            0.,NA,NA,"",       1.11318,   977.895E-03,   531.871E-03,   9.86677E-09
C:/temp/dataset/4/10_35.odb,Step-1,Increment      1: Step Time =    1.000,"PART-1-1",           739,      -2.78312,       1.01462,            0.,NA,NA,"",   934.080E-03,   857.003E-03,   371.554E-03,   561.079E-09
C:/temp/dataset/4/10_35.odb,Step-1,Increment      1: Step Time =    1.000,"PART-1-1",           740,      -4.31499,   913.536E-03,            0.,NA,NA,"",   950.955E-03,   854.682E-03,   416.934E-03,   338.020E-09
C:/temp/dataset/4/10_35.odb,Step-1,Increment      1: Step Time =    1.000,"PART-1-1",           741,      -4.23975,  -195.042E-03,            0.,NA,NA,"",   920.764E-03,   821.840E-03,   415.193E-03,   395.293E-09
C:/temp/dataset/4/10_35.odb,Step-1,Increment      1: Step Time =    1.000,"PART-1-1",           742,      -8.52646,       20.5688,            0.,NA,NA,"",       1.53380,       1.43823,   532.964E-03,   16.5397E-09
C:/temp/dataset/4/10_35.odb,Step-1,Increment      1: Step Time =    1.000,"PART-1-1",           743,       8.09873,      -15.2435,            0.,NA,NA,"",   369.390E-03,   365.991E-03,   49.9932E-03,   4.63039E-03
C:/temp/dataset/4/10_35.odb,Step-1,Increment      1: Step Time =    1.000,"PART-1-1",           744,       8.99676,       14.2096,            0.,NA,NA,"",       1.24238,       1.24226,   17.2003E-03,   51.9888E-09
C:/temp/dataset/4/10_35.odb,Step-1,Increment      1: Step Time =    1.000,"PART-1-1",           745,       11.0169,       14.0599,            0.,NA,NA,"",       1.23767,       1.23694,  -42.5029E-03,   54.2463E-09
C:/temp/dataset/4/10_35.odb,Step-1,Increment      1: Step Time =    1.000,"PART-1-1",           746,      -7.91902,       15.6847,            0.,NA,NA,"",       1.39296,       1.29341,   517.126E-03,   15.8310E-09
C:/temp/dataset/4/10_35.odb,Step-1,Increment      1: Step Time =    1.000,"PART-1-1",           747,      -11.9968,       14.1876,            0.,NA,NA,"",       1.40441,       1.25089,   638.464E-03,   16.5252E-09
C:/temp/dataset/4/10_35.odb,Step-1,Increment      1: Step Time =    1.000,"PART-1-1",           748,      -11.1175,       8.79310,            0.,NA,NA,"",       1.25218,       1.09086,   614.805E-03,   15.2219E-09
C:/temp/dataset/4/10_35.odb,Step-1,Increment      1: Step Time =    1.000,"PART-1-1",           749,       10.6592,      -6.44981,            0.,NA,NA,"",   630.755E-03,   630.349E-03,  -22.6159E-03,   104.725E-06
C:/temp/dataset/4/10_35.odb,Step-1,Increment      1: Step Time =    1.000,"PART-1-1",           750,      -10.7894,       23.3985,            0.,NA,NA,"",       1.63641,       1.52296,   598.697E-03,   17.0237E-09
C:/temp/dataset/4/10_35.odb,Step-1,Increment      1: Step Time =    1.000,"PART-1-1",           751,       10.0228,      -25.8019,            0.,NA,NA,"",   50.0291E-03,   50.0278E-03,  -359.756E-06,   5.66742E-03
C:/temp/dataset/4/10_35.odb,Step-1,Increment      1: Step Time =    1.000,"PART-1-1",           752,       10.9542,      -24.8826,            0.,NA,NA,"",   71.1329E-03,   69.8995E-03,  -13.1889E-03,   6.19666E-03
C:/temp/dataset/4/10_35.odb,Step-1,Increment      1: Step Time =    1.000,"PART-1-1",           753,       11.8371,      -2.37854,            0.,NA,NA,"",   752.655E-03,   750.297E-03,  -59.5374E-03,   39.7292E-06
C:/temp/dataset/4/10_35.odb,Step-1,Increment      1: Step Time =    1.000,"PART-1-1",           754,       11.6235,      -5.02753,            0.,NA,NA,"",   674.057E-03,   672.051E-03,  -51.9638E-03,   88.7734E-06
C:/temp/dataset/4/10_35.odb,Step-1,Increment      1: Step Time =    1.000,"PART-1-1",           755,      -12.1333,       7.86930,            0.,NA,NA,"",       1.24434,       1.06396,   645.272E-03,   15.8825E-09
C:/temp/dataset/4/10_35.odb,Step-1,Increment      1: Step Time =    1.000,"PART-1-1",           756,      -12.0768,       9.95169,            0.,NA,NA,"",       1.29613,       1.12557,   642.688E-03,   16.1578E-09
C:/temp/dataset/4/10_35.odb,Step-1,Increment      1: Step Time =    1.000,"PART-1-1",           757,       8.68743,       3.64563,            0.,NA,NA,"",   930.359E-03,   929.844E-03,   30.9776E-03,   2.93853E-06
C:/temp/dataset/4/10_35.odb,Step-1,Increment      1: Step Time =    1.000,"PART-1-1",           758,       6.61848,       3.66599,            0.,NA,NA,"",   935.899E-03,   931.348E-03,   92.1799E-03,   2.58077E-06
C:/temp/dataset/4/10_35.odb,Step-1,Increment      1: Step Time =    1.000,"PART-1-1",           759,       4.71579,   65.6079E-03,            0.,NA,NA,"",   839.158E-03,   825.634E-03,   150.047E-03,   5.80136E-06
C:/temp/dataset/4/10_35.odb,Step-1,Increment      1: Step Time =    1.000,"PART-1-1",           760,       3.89104,   957.250E-03,            0.,NA,NA,"",   869.974E-03,   852.384E-03,   174.063E-03,   3.41048E-06
C:/temp/dataset/4/10_35.odb,Step-1,Increment      1: Step Time =    1.000,"PART-1-1",           761,      -12.0363,       12.0623,            0.,NA,NA,"",       1.34970,       1.18801,   640.564E-03,   16.3465E-09
C:/temp/dataset/4/10_35.odb,Step-1,Increment      1: Step Time =    1.000,"PART-1-1",           762,      -12.1964,       5.82098,            0.,NA,NA,"",       1.19445,       1.00337,   648.037E-03,   14.7410E-09
C:/temp/dataset/4/10_35.odb,Step-1,Increment      1: Step Time =    1.000,"PART-1-1",           763,      -11.2570,       4.81016,            0.,NA,NA,"",       1.15415,   973.043E-03,   620.676E-03,   11.4403E-09
C:/temp/dataset/4/10_35.odb,Step-1,Increment      1: Step Time =    1.000,"PART-1-1",           764,      -10.5260,       3.94381,            0.,NA,NA,"",       1.12084,   947.083E-03,   599.422E-03,   9.26608E-09
C:/temp/dataset/4/10_35.odb,Step-1,Increment      1: Step Time =    1.000,"PART-1-1",           765,      -9.56326,       4.76486,            0.,NA,NA,"",       1.12619,   970.960E-03,   570.571E-03,   8.63474E-09
C:/temp/dataset/4/10_35.odb,Step-1,Increment      1: Step Time =    1.000,"PART-1-1",           766,      -9.32737,       3.44699,            0.,NA,NA,"",       1.08933,   931.855E-03,   564.167E-03,   15.2466E-09
C:/temp/dataset/4/10_35.odb,Step-1,Increment      1: Step Time =    1.000,"PART-1-1",           767,       11.5413,      -26.4438,            0.,NA,NA,"",   42.3022E-03,   39.5536E-03,  -14.9994E-03,   6.88734E-03
C:/temp/dataset/4/10_35.odb,Step-1,Increment      1: Step Time =    1.000,"PART-1-1",           768,       5.97241,      -3.36228,            0.,NA,NA,"",   732.580E-03,   723.602E-03,   114.341E-03,   57.6100E-06
C:/temp/dataset/4/10_35.odb,Step-1,Increment      1: Step Time =    1.000,"PART-1-1",           769,       11.9304,       22.2704,            0.,NA,NA,"",       1.48126,       1.47946,  -73.1218E-03,   10.6563E-09
C:/temp/dataset/4/10_35.odb,Step-1,Increment      1: Step Time =    1.000,"PART-1-1",           770,      -3.95064,       2.12654,            0.,NA,NA,"",   978.456E-03,   890.421E-03,   405.620E-03,   329.865E-09
C:/temp/dataset/4/10_35.odb,Step-1,Increment      1: Step Time =    1.000,"PART-1-1",           771,       12.1361,      -19.7979,            0.,NA,NA,"",   217.130E-03,   210.748E-03,  -52.2572E-03,   5.47805E-03
C:/temp/dataset/4/10_35.odb,Step-1,Increment      1: Step Time =    1.000,"PART-1-1",           772,       12.1156,      -17.4436,            0.,NA,NA,"",   292.330E-03,   286.550E-03,  -57.8440E-03,   4.31467E-03
C:/temp/dataset/4/10_35.odb,Step-1,Increment      1: Step Time =    1.000,"PART-1-1",           773,       11.8489,      -7.73518,            0.,NA,NA,"",   594.496E-03,   591.722E-03,  -57.3541E-03,   93.0617E-06
C:/temp/dataset/4/10_35.odb,Step-1,Increment      1: Step Time =    1.000,"PART-1-1",           774,       11.9658,      -10.2357,            0.,NA,NA,"",   520.166E-03,   516.724E-03,  -59.7365E-03,   363.538E-06
C:/temp/dataset/4/10_35.odb,Step-1,Increment      1: Step Time =    1.000,"PART-1-1",           775,       10.7237,      -1.11081,            0.,NA,NA,"",   788.720E-03,   788.252E-03,  -27.1515E-03,   30.7261E-06
C:/temp/dataset/4/10_35.odb,Step-1,Increment      1: Step Time =    1.000,"PART-1-1",           776,       11.9194,       10.4262,            0.,NA,NA,"",       1.13106,       1.12904,  -67.6118E-03,   155.329E-09
C:/temp/dataset/4/10_35.odb,Step-1,Increment      1: Step Time =    1.000,"PART-1-1",           777,       11.9945,       12.8006,            0.,NA,NA,"",       1.20135,       1.19926,  -70.8749E-03,   69.9994E-09
C:/temp/dataset/4/10_35.odb,Step-1,Increment      1: Step Time =    1.000,"PART-1-1",           778,       12.0317,      -12.6649,            0.,NA,NA,"",   445.917E-03,   441.771E-03,  -60.6629E-03,   1.36361E-03
C:/temp/dataset/4/10_35.odb,Step-1,Increment      1: Step Time =    1.000,"PART-1-1",           779,       12.0352,       15.1685,            0.,NA,NA,"",       1.27140,       1.26929,  -73.1145E-03,   24.2886E-09
C:/temp/dataset/4/10_35.odb,Step-1,Increment      1: Step Time =    1.000,"PART-1-1",           780,      -7.80161,      -2.23284,            0.,NA,NA,"",   924.268E-03,   763.091E-03,   521.500E-03,   50.5481E-09
C:/temp/dataset/4/10_35.odb,Step-1,Increment      1: Step Time =    1.000,"PART-1-1",           781,      -8.87876,  -905.543E-03,            0.,NA,NA,"",   974.753E-03,   802.844E-03,   552.797E-03,   38.6043E-09
C:/temp/dataset/4/10_35.odb,Step-1,Increment      1: Step Time =    1.000,"PART-1-1",           782,      -7.16649,      -1.00336,            0.,NA,NA,"",   943.869E-03,   799.200E-03,   502.165E-03,   93.3531E-09
C:/temp/dataset/4/10_35.odb,Step-1,Increment      1: Step Time =    1.000,"PART-1-1",           783,      -7.09692,   257.153E-03,            0.,NA,NA,"",   974.291E-03,   836.474E-03,   499.554E-03,   98.3566E-09
C:/temp/dataset/4/10_35.odb,Step-1,Increment      1: Step Time =    1.000,"PART-1-1",           784,      -5.74923,      -1.63131,            0.,NA,NA,"",   905.786E-03,   779.995E-03,   460.496E-03,   164.577E-09
C:/temp/dataset/4/10_35.odb,Step-1,Increment      1: Step Time =    1.000,"PART-1-1",           785,      -5.66693,  -67.3201E-03,            0.,NA,NA,"",   944.390E-03,   826.245E-03,   457.375E-03,   207.910E-09
C:/temp/dataset/4/10_35.odb,Step-1,Increment      1: Step Time =    1.000,"PART-1-1",           786,      -5.46941,       1.35113,            0.,NA,NA,"",   978.254E-03,   868.138E-03,   450.908E-03,   195.209E-09
C:/temp/dataset/4/10_35.odb,Step-1,Increment      1: Step Time =    1.000,"PART-1-1",           787,       12.0849,      -15.0650,            0.,NA,NA,"",   369.713E-03,   364.726E-03,  -60.5168E-03,   2.84168E-03
C:/temp/dataset/4/10_35.odb,Step-1,Increment      1: Step Time =    1.000,"PART-1-1",           788,       7.01212,      -4.44648,            0.,NA,NA,"",   696.131E-03,   691.032E-03,   84.1021E-03,   82.5523E-06
C:/temp/dataset/4/10_35.odb,Step-1,Increment      1: Step Time =    1.000,"PART-1-1",           789,       7.64174,      -3.33281,            0.,NA,NA,"",   726.667E-03,   723.752E-03,   65.0208E-03,   63.3175E-06
C:/temp/dataset/4/10_35.odb,Step-1,Increment      1: Step Time =    1.000,"PART-1-1",           790,       6.60203,      -2.24861,            0.,NA,NA,"",   762.279E-03,   756.303E-03,   95.2587E-03,   29.7057E-06
C:/temp/dataset/4/10_35.odb,Step-1,Increment      1: Step Time =    1.000,"PART-1-1",           791,       6.68626,       2.15992,            0.,NA,NA,"",   891.393E-03,   886.753E-03,   90.8355E-03,   5.81105E-06
C:/temp/dataset/4/10_35.odb,Step-1,Increment      1: Step Time =    1.000,"PART-1-1",           792,       12.0103,       19.9021,            0.,NA,NA,"",       1.41132,       1.40935,  -74.4496E-03,   9.86315E-09
C:/temp/dataset/4/10_35.odb,Step-1,Increment      1: Step Time =    1.000,"PART-1-1",           793,       12.0305,       17.5416,            0.,NA,NA,"",       1.34155,       1.33951,  -74.0151E-03,   9.75291E-09
C:/temp/dataset/4/10_35.odb,Step-1,Increment      1: Step Time =    1.000,"PART-1-1",           794,       6.09271,      -1.14349,            0.,NA,NA,"",   796.850E-03,   789.243E-03,   109.839E-03,   17.4837E-06
C:/temp/dataset/4/10_35.odb,Step-1,Increment      1: Step Time =    1.000,"PART-1-1",           795,       7.56053,      -1.65505,            0.,NA,NA,"",   776.332E-03,   773.465E-03,   66.6632E-03,   31.5276E-06
C:/temp/dataset/4/10_35.odb,Step-1,Increment      1: Step Time =    1.000,"PART-1-1",           796,       7.05122,  -549.935E-03,            0.,NA,NA,"",   810.478E-03,   806.396E-03,   81.2325E-03,   17.8415E-06
C:/temp/dataset/4/10_35.odb,Step-1,Increment      1: Step Time =    1.000,"PART-1-1",           797,       5.28588,       1.87348,            0.,NA,NA,"",   888.803E-03,   878.887E-03,   132.392E-03,   4.21499E-06
C:/temp/dataset/4/10_35.odb,Step-1,Increment      1: Step Time =    1.000,"PART-1-1",           798,       5.70847,   325.226E-03,            0.,NA,NA,"",   841.564E-03,   832.883E-03,   120.566E-03,   8.81609E-06
C:/temp/dataset/4/10_35.odb,Step-1,Increment      1: Step Time =    1.000,"PART-1-1",           799,       7.10885,   611.668E-03,            0.,NA,NA,"",   844.456E-03,   840.751E-03,   79.0152E-03,   10.4077E-06
C:/temp/dataset/4/10_35.odb,Step-1,Increment      1: Step Time =    1.000,"PART-1-1",           800,       9.00326,      -1.31280,            0.,NA,NA,"",   783.353E-03,   782.990E-03,   23.8456E-03,   32.0873E-06
C:/temp/dataset/4/10_35.odb,Step-1,Increment      1: Step Time =    1.000,"PART-1-1",           801,       8.22155,  -652.532E-03,            0.,NA,NA,"",   804.214E-03,   802.859E-03,   46.6658E-03,   20.7304E-06
C:/temp/dataset/4/10_35.odb,Step-1,Increment      1: Step Time =    1.000,"PART-1-1",           802,       8.34224,      -2.31533,            0.,NA,NA,"",   754.865E-03,   753.590E-03,   43.8543E-03,   40.1524E-06
C:/temp/dataset/4/10_35.odb,Step-1,Increment      1: Step Time =    1.000,"PART-1-1",           803,       2.82445,       2.06443,            0.,NA,NA,"",   909.064E-03,   885.616E-03,   205.141E-03,   1.01544E-06
