ODB Name,Step,Frame,Part Instance Name,    êﬂì_ÉâÉxÉã,X,Y,Z,Section Name,Material Name,Section Point,   U-Magnitude,          U-U1,          U-U2,       S-Mises
C:/temp/dataset/4/11_35.odb,Step-1,Increment      1: Step Time =    1.000,"PART-1-1",             1,           -5.,           30.,            0.,NA,NA,"",   724.814E-03,   704.000E-03,   172.451E-03,   5.79645E-12
C:/temp/dataset/4/11_35.odb,Step-1,Increment      1: Step Time =    1.000,"PART-1-1",             2,          -15.,           30.,            0.,NA,NA,"",   760.764E-03,   704.654E-03,   286.749E-03,   5.76581E-12
C:/temp/dataset/4/11_35.odb,Step-1,Increment      1: Step Time =    1.000,"PART-1-1",             3,          -15.,         21.25,            0.,NA,NA,"",   669.437E-03,   604.643E-03,   287.321E-03,   5.31785E-12
C:/temp/dataset/4/11_35.odb,Step-1,Increment      1: Step Time =    1.000,"PART-1-1",             4,          -15.,          12.5,            0.,NA,NA,"",   580.978E-03,   504.633E-03,   287.892E-03,   30.7273E-12
C:/temp/dataset/4/11_35.odb,Step-1,Increment      1: Step Time =    1.000,"PART-1-1",             5,          -15.,          3.75,            0.,NA,NA,"",   496.921E-03,   404.622E-03,   288.464E-03,   946.474E-12
C:/temp/dataset/4/11_35.odb,Step-1,Increment      1: Step Time =    1.000,"PART-1-1",             6,          -15.,           -5.,            0.,NA,NA,"",   419.916E-03,   304.612E-03,   289.035E-03,   106.632E-12
C:/temp/dataset/4/11_35.odb,Step-1,Increment      1: Step Time =    1.000,"PART-1-1",             7,          -10.,           -5.,            0.,NA,NA,"",   382.571E-03,   304.285E-03,   231.887E-03,   2.10782E-09
C:/temp/dataset/4/11_35.odb,Step-1,Increment      1: Step Time =    1.000,"PART-1-1",             8,           -5.,           -5.,            0.,NA,NA,"",   350.605E-03,   303.959E-03,   174.738E-03,   8.95779E-09
C:/temp/dataset/4/11_35.odb,Step-1,Increment      1: Step Time =    1.000,"PART-1-1",             9,            0.,           -5.,            0.,NA,NA,"",   325.606E-03,   303.632E-03,   117.589E-03,   84.2213E-09
C:/temp/dataset/4/11_35.odb,Step-1,Increment      1: Step Time =    1.000,"PART-1-1",            10,            5.,           -5.,            0.,NA,NA,"",   309.265E-03,   303.302E-03,   60.4404E-03,   1.98492E-06
C:/temp/dataset/4/11_35.odb,Step-1,Increment      1: Step Time =    1.000,"PART-1-1",            11,            5.,        -11.25,            0.,NA,NA,"",   239.597E-03,   231.791E-03,   60.6607E-03,   119.343E-06
C:/temp/dataset/4/11_35.odb,Step-1,Increment      1: Step Time =    1.000,"PART-1-1",            12,            5.,         -17.5,            0.,NA,NA,"",   176.124E-03,   166.284E-03,   58.0461E-03,   1.88778E-03
C:/temp/dataset/4/11_35.odb,Step-1,Increment      1: Step Time =    1.000,"PART-1-1",            13,            5.,        -23.75,            0.,NA,NA,"",   97.0964E-03,   82.4644E-03,   51.2574E-03,   5.00205E-03
C:/temp/dataset/4/11_35.odb,Step-1,Increment      1: Step Time =    1.000,"PART-1-1",            14,            5.,          -30.,            0.,NA,NA,"",            0.,   4.59408E-39,   8.33448E-39,   16.3267E-03
C:/temp/dataset/4/11_35.odb,Step-1,Increment      1: Step Time =    1.000,"PART-1-1",            15,           15.,          -30.,            0.,NA,NA,"",            0.,   4.71890E-39,  -8.19573E-39,   15.6934E-03
C:/temp/dataset/4/11_35.odb,Step-1,Increment      1: Step Time =    1.000,"PART-1-1",            16,           15.,         -22.5,            0.,NA,NA,"",   104.247E-03,   91.0245E-03,  -50.8128E-03,   2.51256E-03
C:/temp/dataset/4/11_35.odb,Step-1,Increment      1: Step Time =    1.000,"PART-1-1",            17,           15.,          -15.,            0.,NA,NA,"",   195.529E-03,   187.906E-03,  -54.0647E-03,   315.323E-06
C:/temp/dataset/4/11_35.odb,Step-1,Increment      1: Step Time =    1.000,"PART-1-1",            18,           15.,          -7.5,            0.,NA,NA,"",   279.347E-03,   274.138E-03,  -53.6906E-03,   14.6881E-06
C:/temp/dataset/4/11_35.odb,Step-1,Increment      1: Step Time =    1.000,"PART-1-1",            19,           15.,            0.,            0.,NA,NA,"",   363.860E-03,   359.804E-03,  -54.1713E-03,   1.13304E-06
C:/temp/dataset/4/11_35.odb,Step-1,Increment      1: Step Time =    1.000,"PART-1-1",            20,           15.,           7.5,            0.,NA,NA,"",   448.860E-03,   445.518E-03,  -54.6640E-03,   32.4883E-09
C:/temp/dataset/4/11_35.odb,Step-1,Increment      1: Step Time =    1.000,"PART-1-1",            21,           15.,           15.,            0.,NA,NA,"",   534.089E-03,   531.233E-03,  -55.1538E-03,   4.41004E-09
C:/temp/dataset/4/11_35.odb,Step-1,Increment      1: Step Time =    1.000,"PART-1-1",            22,           15.,          22.5,            0.,NA,NA,"",   619.452E-03,   616.948E-03,  -55.6436E-03,   22.3985E-12
C:/temp/dataset/4/11_35.odb,Step-1,Increment      1: Step Time =    1.000,"PART-1-1",            23,           15.,           30.,            0.,NA,NA,"",   704.902E-03,   702.663E-03,  -56.1334E-03,   3.15845E-12
C:/temp/dataset/4/11_35.odb,Step-1,Increment      1: Step Time =    1.000,"PART-1-1",            24,            5.,           30.,            0.,NA,NA,"",   705.716E-03,   703.316E-03,   58.1529E-03,   3.21412E-12
C:/temp/dataset/4/11_35.odb,Step-1,Increment      1: Step Time =    1.000,"PART-1-1",            25,            5.,         23.75,            0.,NA,NA,"",   634.595E-03,   631.887E-03,   58.5611E-03,   21.6576E-12
C:/temp/dataset/4/11_35.odb,Step-1,Increment      1: Step Time =    1.000,"PART-1-1",            26,            5.,          17.5,            0.,NA,NA,"",   563.552E-03,   560.458E-03,   58.9693E-03,   1.51902E-09
C:/temp/dataset/4/11_35.odb,Step-1,Increment      1: Step Time =    1.000,"PART-1-1",            27,            5.,         11.25,            0.,NA,NA,"",   492.621E-03,   489.029E-03,   59.3774E-03,   11.5346E-09
C:/temp/dataset/4/11_35.odb,Step-1,Increment      1: Step Time =    1.000,"PART-1-1",            28,            5.,            5.,            0.,NA,NA,"",   421.859E-03,   417.601E-03,   59.7861E-03,   797.909E-09
C:/temp/dataset/4/11_35.odb,Step-1,Increment      1: Step Time =    1.000,"PART-1-1",            29,            0.,            5.,            0.,NA,NA,"",   433.980E-03,   417.930E-03,   116.935E-03,   52.6375E-09
C:/temp/dataset/4/11_35.odb,Step-1,Increment      1: Step Time =    1.000,"PART-1-1",            30,           -5.,            5.,            0.,NA,NA,"",   453.038E-03,   418.256E-03,   174.084E-03,   7.47189E-09
C:/temp/dataset/4/11_35.odb,Step-1,Increment      1: Step Time =    1.000,"PART-1-1",            31,           -5.,         11.25,            0.,NA,NA,"",   519.579E-03,   489.692E-03,   173.676E-03,   67.4202E-12
C:/temp/dataset/4/11_35.odb,Step-1,Increment      1: Step Time =    1.000,"PART-1-1",            32,           -5.,          17.5,            0.,NA,NA,"",   587.270E-03,   561.128E-03,   173.268E-03,   7.12590E-12
C:/temp/dataset/4/11_35.odb,Step-1,Increment      1: Step Time =    1.000,"PART-1-1",            33,           -5.,         23.75,            0.,NA,NA,"",   655.758E-03,   632.564E-03,   172.860E-03,   5.32029E-12
C:/temp/dataset/4/11_35.odb,Step-1,Increment      1: Step Time =    1.000,"PART-1-1",            34,          -7.5,           30.,            0.,NA,NA,"",   732.296E-03,   704.164E-03,   201.026E-03,   5.58676E-12
C:/temp/dataset/4/11_35.odb,Step-1,Increment      1: Step Time =    1.000,"PART-1-1",            35,          -10.,           30.,            0.,NA,NA,"",   740.805E-03,   704.327E-03,   229.600E-03,   5.48129E-12
C:/temp/dataset/4/11_35.odb,Step-1,Increment      1: Step Time =    1.000,"PART-1-1",            36,         -12.5,           30.,            0.,NA,NA,"",   750.307E-03,   704.490E-03,   258.175E-03,   5.44638E-12
C:/temp/dataset/4/11_35.odb,Step-1,Increment      1: Step Time =    1.000,"PART-1-1",            37,          -15.,       27.8125,            0.,NA,NA,"",   737.721E-03,   679.651E-03,   286.892E-03,   5.67653E-12
C:/temp/dataset/4/11_35.odb,Step-1,Increment      1: Step Time =    1.000,"PART-1-1",            38,          -15.,        25.625,            0.,NA,NA,"",   714.810E-03,   654.648E-03,   287.035E-03,   5.71129E-12
C:/temp/dataset/4/11_35.odb,Step-1,Increment      1: Step Time =    1.000,"PART-1-1",            39,          -15.,       23.4375,            0.,NA,NA,"",   692.044E-03,   629.646E-03,   287.178E-03,   5.66465E-12
C:/temp/dataset/4/11_35.odb,Step-1,Increment      1: Step Time =    1.000,"PART-1-1",            40,          -15.,       19.0625,            0.,NA,NA,"",   647.007E-03,   579.640E-03,   287.464E-03,   4.76255E-12
C:/temp/dataset/4/11_35.odb,Step-1,Increment      1: Step Time =    1.000,"PART-1-1",            41,          -15.,        16.875,            0.,NA,NA,"",   624.772E-03,   554.638E-03,   287.606E-03,   7.23577E-12
C:/temp/dataset/4/11_35.odb,Step-1,Increment      1: Step Time =    1.000,"PART-1-1",            42,          -15.,       14.6875,            0.,NA,NA,"",   602.755E-03,   529.635E-03,   287.749E-03,   17.6040E-12
C:/temp/dataset/4/11_35.odb,Step-1,Increment      1: Step Time =    1.000,"PART-1-1",            43,          -15.,       10.3125,            0.,NA,NA,"",   559.472E-03,   479.630E-03,   288.035E-03,   19.3224E-12
C:/temp/dataset/4/11_35.odb,Step-1,Increment      1: Step Time =    1.000,"PART-1-1",            44,          -15.,         8.125,            0.,NA,NA,"",   538.268E-03,   454.627E-03,   288.178E-03,   96.5199E-12
C:/temp/dataset/4/11_35.odb,Step-1,Increment      1: Step Time =    1.000,"PART-1-1",            45,          -15.,        5.9375,            0.,NA,NA,"",   517.403E-03,   429.625E-03,   288.321E-03,   428.281E-12
C:/temp/dataset/4/11_35.odb,Step-1,Increment      1: Step Time =    1.000,"PART-1-1",            46,          -15.,        1.5625,            0.,NA,NA,"",   476.870E-03,   379.620E-03,   288.607E-03,   1.26778E-09
C:/temp/dataset/4/11_35.odb,Step-1,Increment      1: Step Time =    1.000,"PART-1-1",            47,          -15.,     -625.E-03,            0.,NA,NA,"",   457.307E-03,   354.617E-03,   288.750E-03,   998.732E-12
C:/temp/dataset/4/11_35.odb,Step-1,Increment      1: Step Time =    1.000,"PART-1-1",            48,          -15.,       -2.8125,            0.,NA,NA,"",   438.297E-03,   329.614E-03,   288.892E-03,   295.343E-12
C:/temp/dataset/4/11_35.odb,Step-1,Increment      1: Step Time =    1.000,"PART-1-1",            49,         -12.5,           -5.,            0.,NA,NA,"",   400.660E-03,   304.448E-03,   260.461E-03,   411.968E-12
C:/temp/dataset/4/11_35.odb,Step-1,Increment      1: Step Time =    1.000,"PART-1-1",            50,          -7.5,           -5.,            0.,NA,NA,"",   365.822E-03,   304.122E-03,   203.312E-03,   4.96369E-09
C:/temp/dataset/4/11_35.odb,Step-1,Increment      1: Step Time =    1.000,"PART-1-1",            51,          -2.5,           -5.,            0.,NA,NA,"",   337.128E-03,   303.795E-03,   146.163E-03,   18.4570E-09
C:/temp/dataset/4/11_35.odb,Step-1,Increment      1: Step Time =    1.000,"PART-1-1",            52,           2.5,           -5.,            0.,NA,NA,"",   316.254E-03,   303.468E-03,   89.0152E-03,   374.528E-09
C:/temp/dataset/4/11_35.odb,Step-1,Increment      1: Step Time =    1.000,"PART-1-1",            53,            5.,      -7.08333,            0.,NA,NA,"",   285.956E-03,   279.468E-03,   60.5693E-03,   9.53130E-06
C:/temp/dataset/4/11_35.odb,Step-1,Increment      1: Step Time =    1.000,"PART-1-1",            54,            5.,      -9.16667,            0.,NA,NA,"",   262.722E-03,   255.623E-03,   60.6596E-03,   41.1721E-06
C:/temp/dataset/4/11_35.odb,Step-1,Increment      1: Step Time =    1.000,"PART-1-1",            55,            5.,      -13.3333,            0.,NA,NA,"",   216.733E-03,   208.150E-03,   60.3882E-03,   303.710E-06
C:/temp/dataset/4/11_35.odb,Step-1,Increment      1: Step Time =    1.000,"PART-1-1",            56,            5.,      -15.4167,            0.,NA,NA,"",   194.632E-03,   185.221E-03,   59.7901E-03,   779.933E-06
C:/temp/dataset/4/11_35.odb,Step-1,Increment      1: Step Time =    1.000,"PART-1-1",            57,            5.,      -19.5833,            0.,NA,NA,"",   156.786E-03,   145.567E-03,   58.2421E-03,   3.45954E-03
C:/temp/dataset/4/11_35.odb,Step-1,Increment      1: Step Time =    1.000,"PART-1-1",            58,            5.,      -21.6667,            0.,NA,NA,"",   129.953E-03,   117.266E-03,   56.0052E-03,   3.96835E-03
C:/temp/dataset/4/11_35.odb,Step-1,Increment      1: Step Time =    1.000,"PART-1-1",            59,            5.,      -25.8333,            0.,NA,NA,"",   62.7312E-03,   48.7036E-03,   39.5368E-03,   7.19826E-03
C:/temp/dataset/4/11_35.odb,Step-1,Increment      1: Step Time =    1.000,"PART-1-1",            60,            5.,      -27.9167,            0.,NA,NA,"",   33.6094E-03,   23.6202E-03,   23.9098E-03,   10.8590E-03
C:/temp/dataset/4/11_35.odb,Step-1,Increment      1: Step Time =    1.000,"PART-1-1",            61,           7.5,          -30.,            0.,NA,NA,"",            0.,   4.33103E-39,   5.25167E-39,   3.66894E-03
C:/temp/dataset/4/11_35.odb,Step-1,Increment      1: Step Time =    1.000,"PART-1-1",            62,           10.,          -30.,            0.,NA,NA,"",            0.,   2.34256E-39,   1.29466E-39,   2.65523E-03
C:/temp/dataset/4/11_35.odb,Step-1,Increment      1: Step Time =    1.000,"PART-1-1",            63,          12.5,          -30.,            0.,NA,NA,"",            0.,   5.67715E-39,  -7.71835E-39,   4.01440E-03
C:/temp/dataset/4/11_35.odb,Step-1,Increment      1: Step Time =    1.000,"PART-1-1",            64,           15.,         -27.5,            0.,NA,NA,"",   38.0340E-03,   27.4534E-03,  -26.3229E-03,   9.33080E-03
C:/temp/dataset/4/11_35.odb,Step-1,Increment      1: Step Time =    1.000,"PART-1-1",            65,           15.,          -25.,            0.,NA,NA,"",   70.9832E-03,   57.1422E-03,  -42.1116E-03,   5.07433E-03
C:/temp/dataset/4/11_35.odb,Step-1,Increment      1: Step Time =    1.000,"PART-1-1",            66,           15.,          -20.,            0.,NA,NA,"",   136.433E-03,   125.189E-03,  -54.2357E-03,   551.343E-06
C:/temp/dataset/4/11_35.odb,Step-1,Increment      1: Step Time =    1.000,"PART-1-1",            67,           15.,         -17.5,            0.,NA,NA,"",   166.778E-03,   157.592E-03,  -54.5879E-03,   233.251E-06
C:/temp/dataset/4/11_35.odb,Step-1,Increment      1: Step Time =    1.000,"PART-1-1",            68,           15.,         -12.5,            0.,NA,NA,"",   223.526E-03,   216.983E-03,  -53.6846E-03,   172.317E-06
C:/temp/dataset/4/11_35.odb,Step-1,Increment      1: Step Time =    1.000,"PART-1-1",            69,           15.,          -10.,            0.,NA,NA,"",   251.387E-03,   245.606E-03,  -53.6030E-03,   62.1654E-06
C:/temp/dataset/4/11_35.odb,Step-1,Increment      1: Step Time =    1.000,"PART-1-1",            70,           15.,           -5.,            0.,NA,NA,"",   307.431E-03,   302.680E-03,  -53.8402E-03,   1.14217E-06
C:/temp/dataset/4/11_35.odb,Step-1,Increment      1: Step Time =    1.000,"PART-1-1",            71,           15.,          -2.5,            0.,NA,NA,"",   335.611E-03,   331.237E-03,  -54.0050E-03,   1.58338E-06
C:/temp/dataset/4/11_35.odb,Step-1,Increment      1: Step Time =    1.000,"PART-1-1",            72,           15.,           2.5,            0.,NA,NA,"",   392.158E-03,   388.375E-03,  -54.3364E-03,   548.316E-09
C:/temp/dataset/4/11_35.odb,Step-1,Increment      1: Step Time =    1.000,"PART-1-1",            73,           15.,            5.,            0.,NA,NA,"",   420.494E-03,   416.947E-03,  -54.5005E-03,   184.218E-09
C:/temp/dataset/4/11_35.odb,Step-1,Increment      1: Step Time =    1.000,"PART-1-1",            74,           15.,           10.,            0.,NA,NA,"",   477.250E-03,   474.090E-03,  -54.8273E-03,   9.00227E-09
C:/temp/dataset/4/11_35.odb,Step-1,Increment      1: Step Time =    1.000,"PART-1-1",            75,           15.,          12.5,            0.,NA,NA,"",   505.661E-03,   502.662E-03,  -54.9905E-03,   9.27720E-09
C:/temp/dataset/4/11_35.odb,Step-1,Increment      1: Step Time =    1.000,"PART-1-1",            76,           15.,          17.5,            0.,NA,NA,"",   562.531E-03,   559.805E-03,  -55.3170E-03,   1.44357E-09
C:/temp/dataset/4/11_35.odb,Step-1,Increment      1: Step Time =    1.000,"PART-1-1",            77,           15.,           20.,            0.,NA,NA,"",   590.987E-03,   588.377E-03,  -55.4803E-03,   318.048E-12
C:/temp/dataset/4/11_35.odb,Step-1,Increment      1: Step Time =    1.000,"PART-1-1",            78,           15.,           25.,            0.,NA,NA,"",   647.928E-03,   645.520E-03,  -55.8068E-03,   27.6196E-12
C:/temp/dataset/4/11_35.odb,Step-1,Increment      1: Step Time =    1.000,"PART-1-1",            79,           15.,          27.5,            0.,NA,NA,"",   676.411E-03,   674.091E-03,  -55.9701E-03,   11.1951E-12
C:/temp/dataset/4/11_35.odb,Step-1,Increment      1: Step Time =    1.000,"PART-1-1",            80,          12.5,           30.,            0.,NA,NA,"",   703.366E-03,   702.826E-03,  -27.5618E-03,   9.55540E-12
C:/temp/dataset/4/11_35.odb,Step-1,Increment      1: Step Time =    1.000,"PART-1-1",            81,           10.,           30.,            0.,NA,NA,"",   702.990E-03,   702.989E-03,   1.00977E-03,   17.8959E-12
C:/temp/dataset/4/11_35.odb,Step-1,Increment      1: Step Time =    1.000,"PART-1-1",            82,           7.5,           30.,            0.,NA,NA,"",   703.775E-03,   703.153E-03,   29.5814E-03,   9.06240E-12
C:/temp/dataset/4/11_35.odb,Step-1,Increment      1: Step Time =    1.000,"PART-1-1",            83,            5.,       27.9167,            0.,NA,NA,"",   682.002E-03,   679.506E-03,   58.2890E-03,   7.89498E-12
C:/temp/dataset/4/11_35.odb,Step-1,Increment      1: Step Time =    1.000,"PART-1-1",            84,            5.,       25.8333,            0.,NA,NA,"",   658.295E-03,   655.697E-03,   58.4251E-03,   23.7363E-12
C:/temp/dataset/4/11_35.odb,Step-1,Increment      1: Step Time =    1.000,"PART-1-1",            85,            5.,       21.6667,            0.,NA,NA,"",   610.904E-03,   608.077E-03,   58.6972E-03,   74.7202E-12
C:/temp/dataset/4/11_35.odb,Step-1,Increment      1: Step Time =    1.000,"PART-1-1",            86,            5.,       19.5833,            0.,NA,NA,"",   587.222E-03,   584.268E-03,   58.8332E-03,   436.486E-12
C:/temp/dataset/4/11_35.odb,Step-1,Increment      1: Step Time =    1.000,"PART-1-1",            87,            5.,       15.4167,            0.,NA,NA,"",   539.894E-03,   536.648E-03,   59.1053E-03,   3.76437E-09
C:/temp/dataset/4/11_35.odb,Step-1,Increment      1: Step Time =    1.000,"PART-1-1",            88,            5.,       13.3333,            0.,NA,NA,"",   516.249E-03,   512.839E-03,   59.2414E-03,   8.53578E-09
C:/temp/dataset/4/11_35.odb,Step-1,Increment      1: Step Time =    1.000,"PART-1-1",            89,            5.,       9.16667,            0.,NA,NA,"",   469.011E-03,   465.220E-03,   59.5135E-03,   23.9155E-09
C:/temp/dataset/4/11_35.odb,Step-1,Increment      1: Step Time =    1.000,"PART-1-1",            90,            5.,       7.08333,            0.,NA,NA,"",   445.422E-03,   441.410E-03,   59.6495E-03,   176.901E-09
C:/temp/dataset/4/11_35.odb,Step-1,Increment      1: Step Time =    1.000,"PART-1-1",            91,           2.5,            5.,            0.,NA,NA,"",   427.008E-03,   417.766E-03,   88.3607E-03,   310.958E-09
C:/temp/dataset/4/11_35.odb,Step-1,Increment      1: Step Time =    1.000,"PART-1-1",            92,          -2.5,            5.,            0.,NA,NA,"",   442.690E-03,   418.093E-03,   145.510E-03,   8.08745E-09
C:/temp/dataset/4/11_35.odb,Step-1,Increment      1: Step Time =    1.000,"PART-1-1",            93,           -5.,       7.08333,            0.,NA,NA,"",   475.060E-03,   442.068E-03,   173.948E-03,   1.45883E-09
C:/temp/dataset/4/11_35.odb,Step-1,Increment      1: Step Time =    1.000,"PART-1-1",            94,           -5.,       9.16667,            0.,NA,NA,"",   497.247E-03,   465.880E-03,   173.812E-03,   288.453E-12
C:/temp/dataset/4/11_35.odb,Step-1,Increment      1: Step Time =    1.000,"PART-1-1",            95,           -5.,       13.3333,            0.,NA,NA,"",   542.036E-03,   513.504E-03,   173.540E-03,   41.2912E-12
C:/temp/dataset/4/11_35.odb,Step-1,Increment      1: Step Time =    1.000,"PART-1-1",            96,           -5.,       15.4167,            0.,NA,NA,"",   564.604E-03,   537.316E-03,   173.404E-03,   13.3250E-12
C:/temp/dataset/4/11_35.odb,Step-1,Increment      1: Step Time =    1.000,"PART-1-1",            97,           -5.,       19.5833,            0.,NA,NA,"",   610.024E-03,   584.940E-03,   173.132E-03,   4.47361E-12
C:/temp/dataset/4/11_35.odb,Step-1,Increment      1: Step Time =    1.000,"PART-1-1",            98,           -5.,       21.6667,            0.,NA,NA,"",   632.856E-03,   608.752E-03,   172.996E-03,   5.06488E-12
C:/temp/dataset/4/11_35.odb,Step-1,Increment      1: Step Time =    1.000,"PART-1-1",            99,           -5.,       25.8333,            0.,NA,NA,"",   678.722E-03,   656.376E-03,   172.724E-03,   5.45262E-12
C:/temp/dataset/4/11_35.odb,Step-1,Increment      1: Step Time =    1.000,"PART-1-1",           100,           -5.,       27.9167,            0.,NA,NA,"",   701.743E-03,   680.188E-03,   172.587E-03,   5.50222E-12
C:/temp/dataset/4/11_35.odb,Step-1,Increment      1: Step Time =    1.000,"PART-1-1",           101,       6.93475,       11.1046,            0.,NA,NA,"",   488.664E-03,   487.241E-03,   37.2755E-03,   5.71474E-09
C:/temp/dataset/4/11_35.odb,Step-1,Increment      1: Step Time =    1.000,"PART-1-1",           102,       7.10183,      -21.7370,            0.,NA,NA,"",   112.764E-03,   108.952E-03,   29.0715E-03,   5.13860E-03
C:/temp/dataset/4/11_35.odb,Step-1,Increment      1: Step Time =    1.000,"PART-1-1",           103,      -7.18606,       25.6133,            0.,NA,NA,"",   683.240E-03,   654.005E-03,   197.724E-03,   5.35558E-12
C:/temp/dataset/4/11_35.odb,Step-1,Increment      1: Step Time =    1.000,"PART-1-1",           104,       7.08931,      -17.4629,            0.,NA,NA,"",   167.586E-03,   163.484E-03,   36.8526E-03,   1.92013E-03
C:/temp/dataset/4/11_35.odb,Step-1,Increment      1: Step Time =    1.000,"PART-1-1",           105,       7.11844,      -23.8299,            0.,NA,NA,"",   78.2683E-03,   74.7342E-03,   23.2534E-03,   6.03023E-03
C:/temp/dataset/4/11_35.odb,Step-1,Increment      1: Step Time =    1.000,"PART-1-1",           106,       7.34845,      -27.9642,            0.,NA,NA,"",   18.3361E-03,   16.4858E-03,   8.02689E-03,   6.77184E-03
C:/temp/dataset/4/11_35.odb,Step-1,Increment      1: Step Time =    1.000,"PART-1-1",           107,       7.18399,      -25.9216,            0.,NA,NA,"",   44.8099E-03,   41.8302E-03,   16.0675E-03,   5.84874E-03
C:/temp/dataset/4/11_35.odb,Step-1,Increment      1: Step Time =    1.000,"PART-1-1",           108,       7.00226,      -10.9532,            0.,NA,NA,"",   238.059E-03,   235.015E-03,   37.9457E-03,   103.117E-06
C:/temp/dataset/4/11_35.odb,Step-1,Increment      1: Step Time =    1.000,"PART-1-1",           109,       6.93148,       25.8450,            0.,NA,NA,"",   656.711E-03,   655.704E-03,   36.3501E-03,   8.69528E-12
C:/temp/dataset/4/11_35.odb,Step-1,Increment      1: Step Time =    1.000,"PART-1-1",           110,       6.95256,       21.7727,            0.,NA,NA,"",   610.247E-03,   609.162E-03,   36.3751E-03,   228.795E-12
C:/temp/dataset/4/11_35.odb,Step-1,Increment      1: Step Time =    1.000,"PART-1-1",           111,       6.99069,       19.6693,            0.,NA,NA,"",   586.231E-03,   585.120E-03,   36.0768E-03,   691.094E-12
C:/temp/dataset/4/11_35.odb,Step-1,Increment      1: Step Time =    1.000,"PART-1-1",           112,       6.98342,       13.2435,            0.,NA,NA,"",   512.988E-03,   511.682E-03,   36.5795E-03,   3.28000E-09
C:/temp/dataset/4/11_35.odb,Step-1,Increment      1: Step Time =    1.000,"PART-1-1",           113,       6.84904,       8.98858,            0.,NA,NA,"",   464.652E-03,   463.064E-03,   38.3932E-03,   48.8891E-09
C:/temp/dataset/4/11_35.odb,Step-1,Increment      1: Step Time =    1.000,"PART-1-1",           114,      -7.00061,       11.3966,            0.,NA,NA,"",   529.336E-03,   491.499E-03,   196.533E-03,   40.0209E-12
C:/temp/dataset/4/11_35.odb,Step-1,Increment      1: Step Time =    1.000,"PART-1-1",           115,      -6.87185,       17.5946,            0.,NA,NA,"",   595.069E-03,   562.331E-03,   194.657E-03,   7.33346E-12
C:/temp/dataset/4/11_35.odb,Step-1,Increment      1: Step Time =    1.000,"PART-1-1",           116,      -6.78696,       21.5686,            0.,NA,NA,"",   637.787E-03,   607.749E-03,   193.427E-03,   4.95777E-12
C:/temp/dataset/4/11_35.odb,Step-1,Increment      1: Step Time =    1.000,"PART-1-1",           117,      -6.92081,       23.5666,            0.,NA,NA,"",   660.004E-03,   630.594E-03,   194.826E-03,   5.18360E-12
C:/temp/dataset/4/11_35.odb,Step-1,Increment      1: Step Time =    1.000,"PART-1-1",           118,      -7.47694,       27.7553,            0.,NA,NA,"",   707.626E-03,   678.505E-03,   200.909E-03,   5.48772E-12
C:/temp/dataset/4/11_35.odb,Step-1,Increment      1: Step Time =    1.000,"PART-1-1",           119,       6.62973,      -6.72562,            0.,NA,NA,"",   286.534E-03,   283.451E-03,   41.9205E-03,   16.2393E-06
C:/temp/dataset/4/11_35.odb,Step-1,Increment      1: Step Time =    1.000,"PART-1-1",           120,       7.00244,       17.5390,            0.,NA,NA,"",   561.932E-03,   560.773E-03,   36.0816E-03,   1.62711E-09
C:/temp/dataset/4/11_35.odb,Step-1,Increment      1: Step Time =    1.000,"PART-1-1",           121,       7.05765,      -13.1226,            0.,NA,NA,"",   213.591E-03,   210.278E-03,   37.4736E-03,   147.012E-06
C:/temp/dataset/4/11_35.odb,Step-1,Increment      1: Step Time =    1.000,"PART-1-1",           122,      -6.97858,       13.4860,            0.,NA,NA,"",   551.441E-03,   515.378E-03,   196.145E-03,   16.9136E-12
C:/temp/dataset/4/11_35.odb,Step-1,Increment      1: Step Time =    1.000,"PART-1-1",           123,      -7.06135,       7.11796,            0.,NA,NA,"",   484.667E-03,   442.599E-03,   197.507E-03,   1.51428E-09
C:/temp/dataset/4/11_35.odb,Step-1,Increment      1: Step Time =    1.000,"PART-1-1",           124,       6.87626,      -8.81940,            0.,NA,NA,"",   262.412E-03,   259.462E-03,   39.2370E-03,   44.9310E-06
C:/temp/dataset/4/11_35.odb,Step-1,Increment      1: Step Time =    1.000,"PART-1-1",           125,       7.08495,      -15.2974,            0.,NA,NA,"",   189.719E-03,   185.991E-03,   37.4248E-03,   349.804E-06
C:/temp/dataset/4/11_35.odb,Step-1,Increment      1: Step Time =    1.000,"PART-1-1",           126,       7.00715,       15.3887,            0.,NA,NA,"",   537.416E-03,   536.197E-03,   36.1682E-03,   3.06385E-09
C:/temp/dataset/4/11_35.odb,Step-1,Increment      1: Step Time =    1.000,"PART-1-1",           127,      -7.01992,       9.30136,            0.,NA,NA,"",   507.317E-03,   467.552E-03,   196.891E-03,   326.730E-12
C:/temp/dataset/4/11_35.odb,Step-1,Increment      1: Step Time =    1.000,"PART-1-1",           128,      -6.93369,       15.5639,            0.,NA,NA,"",   573.476E-03,   539.126E-03,   195.496E-03,   12.6457E-12
C:/temp/dataset/4/11_35.odb,Step-1,Increment      1: Step Time =    1.000,"PART-1-1",           129,      -6.79206,       19.5889,            0.,NA,NA,"",   616.322E-03,   585.121E-03,   193.614E-03,   5.16872E-12
C:/temp/dataset/4/11_35.odb,Step-1,Increment      1: Step Time =    1.000,"PART-1-1",           130,       7.09662,      -19.6136,            0.,NA,NA,"",   143.084E-03,   139.011E-03,   33.8962E-03,   3.80575E-03
C:/temp/dataset/4/11_35.odb,Step-1,Increment      1: Step Time =    1.000,"PART-1-1",           131,       6.89670,       23.8203,            0.,NA,NA,"",   633.641E-03,   632.567E-03,   36.8799E-03,   53.4987E-12
C:/temp/dataset/4/11_35.odb,Step-1,Increment      1: Step Time =    1.000,"PART-1-1",           132,       6.67676,       6.98748,            0.,NA,NA,"",   442.064E-03,   440.205E-03,   40.4928E-03,   227.884E-09
C:/temp/dataset/4/11_35.odb,Step-1,Increment      1: Step Time =    1.000,"PART-1-1",           133,      -13.0361,       12.2042,            0.,NA,NA,"",   567.094E-03,   501.123E-03,   265.465E-03,   12.3120E-12
C:/temp/dataset/4/11_35.odb,Step-1,Increment      1: Step Time =    1.000,"PART-1-1",           134,      -13.0483,       3.72302,            0.,NA,NA,"",   483.949E-03,   404.186E-03,   266.158E-03,   773.225E-12
C:/temp/dataset/4/11_35.odb,Step-1,Increment      1: Step Time =    1.000,"PART-1-1",           135,      -13.0740,       10.0823,            0.,NA,NA,"",   546.062E-03,   476.873E-03,   266.037E-03,   79.7137E-12
C:/temp/dataset/4/11_35.odb,Step-1,Increment      1: Step Time =    1.000,"PART-1-1",           136,      -13.0017,       14.3509,            0.,NA,NA,"",   588.646E-03,   525.657E-03,   264.931E-03,   12.4047E-12
C:/temp/dataset/4/11_35.odb,Step-1,Increment      1: Step Time =    1.000,"PART-1-1",           137,      -12.4480,       21.2307,            0.,NA,NA,"",   657.091E-03,   604.256E-03,   258.153E-03,   5.26627E-12
C:/temp/dataset/4/11_35.odb,Step-1,Increment      1: Step Time =    1.000,"PART-1-1",           138,      -13.0426,       25.7965,            0.,NA,NA,"",   707.819E-03,   656.481E-03,   264.651E-03,   5.51267E-12
C:/temp/dataset/4/11_35.odb,Step-1,Increment      1: Step Time =    1.000,"PART-1-1",           139,      -12.9478,       23.6552,            0.,NA,NA,"",   684.810E-03,   632.000E-03,   263.707E-03,   5.38948E-12
C:/temp/dataset/4/11_35.odb,Step-1,Increment      1: Step Time =    1.000,"PART-1-1",           140,      -12.8307,       18.7376,            0.,NA,NA,"",   632.878E-03,   575.785E-03,   262.690E-03,   6.14462E-12
C:/temp/dataset/4/11_35.odb,Step-1,Increment      1: Step Time =    1.000,"PART-1-1",           141,      -12.9472,       16.5227,            0.,NA,NA,"",   610.581E-03,   550.477E-03,   264.167E-03,   9.66294E-12
C:/temp/dataset/4/11_35.odb,Step-1,Increment      1: Step Time =    1.000,"PART-1-1",           142,      -13.1112,       7.97345,            0.,NA,NA,"",   525.431E-03,   452.772E-03,   266.599E-03,   267.931E-12
C:/temp/dataset/4/11_35.odb,Step-1,Increment      1: Step Time =    1.000,"PART-1-1",           143,      -13.1276,       5.86243,            0.,NA,NA,"",   504.960E-03,   428.644E-03,   266.925E-03,   556.421E-12
C:/temp/dataset/4/11_35.odb,Step-1,Increment      1: Step Time =    1.000,"PART-1-1",           144,      -12.8109,       1.56310,            0.,NA,NA,"",   462.045E-03,   379.483E-03,   263.586E-03,   778.067E-12
C:/temp/dataset/4/11_35.odb,Step-1,Increment      1: Step Time =    1.000,"PART-1-1",           145,      -12.5511,  -622.366E-03,            0.,NA,NA,"",   440.064E-03,   354.487E-03,   260.760E-03,   1.01906E-09
C:/temp/dataset/4/11_35.odb,Step-1,Increment      1: Step Time =    1.000,"PART-1-1",           146,      -7.69124,      -3.05836,            0.,NA,NA,"",   385.573E-03,   326.327E-03,   205.371E-03,   2.52110E-09
C:/temp/dataset/4/11_35.odb,Step-1,Increment      1: Step Time =    1.000,"PART-1-1",           147,      -2.59391,      -3.27074,            0.,NA,NA,"",   355.444E-03,   323.566E-03,   147.124E-03,   31.5309E-09
C:/temp/dataset/4/11_35.odb,Step-1,Increment      1: Step Time =    1.000,"PART-1-1",           148,      -2.06699,       2.95135,            0.,NA,NA,"",   418.978E-03,   394.649E-03,   140.695E-03,   38.4091E-09
C:/temp/dataset/4/11_35.odb,Step-1,Increment      1: Step Time =    1.000,"PART-1-1",           149,       1.86882,      -3.06513,            0.,NA,NA,"",   339.511E-03,   325.625E-03,   96.1028E-03,   508.507E-09
C:/temp/dataset/4/11_35.odb,Step-1,Increment      1: Step Time =    1.000,"PART-1-1",           150,       2.79073,       3.02834,            0.,NA,NA,"",   404.284E-03,   395.212E-03,   85.1665E-03,   366.448E-09
C:/temp/dataset/4/11_35.odb,Step-1,Increment      1: Step Time =    1.000,"PART-1-1",           151,       12.5379,       2.72923,            0.,NA,NA,"",   392.033E-03,   391.155E-03,  -26.2138E-03,   436.777E-09
C:/temp/dataset/4/11_35.odb,Step-1,Increment      1: Step Time =    1.000,"PART-1-1",           152,       12.9313,       10.2835,            0.,NA,NA,"",   478.483E-03,   477.465E-03,  -31.2038E-03,   14.3636E-09
C:/temp/dataset/4/11_35.odb,Step-1,Increment      1: Step Time =    1.000,"PART-1-1",           153,       12.7723,       24.8557,            0.,NA,NA,"",   644.730E-03,   644.016E-03,  -30.3383E-03,   21.5750E-12
C:/temp/dataset/4/11_35.odb,Step-1,Increment      1: Step Time =    1.000,"PART-1-1",           154,       12.5268,       27.4001,            0.,NA,NA,"",   673.680E-03,   673.111E-03,  -27.6983E-03,   14.3136E-12
C:/temp/dataset/4/11_35.odb,Step-1,Increment      1: Step Time =    1.000,"PART-1-1",           155,       12.7627,      -5.01238,            0.,NA,NA,"",   304.002E-03,   302.684E-03,  -28.2766E-03,   6.99178E-06
C:/temp/dataset/4/11_35.odb,Step-1,Increment      1: Step Time =    1.000,"PART-1-1",           156,       13.0118,      -12.5921,            0.,NA,NA,"",   218.303E-03,   216.138E-03,  -30.6637E-03,   115.219E-06
C:/temp/dataset/4/11_35.odb,Step-1,Increment      1: Step Time =    1.000,"PART-1-1",           157,       9.69976,      -27.8547,            0.,NA,NA,"",   15.3838E-03,   15.3757E-03,   499.027E-06,   5.37992E-03
C:/temp/dataset/4/11_35.odb,Step-1,Increment      1: Step Time =    1.000,"PART-1-1",           158,       13.0855,      -17.4497,            0.,NA,NA,"",   161.534E-03,   158.473E-03,  -31.2936E-03,   475.231E-06
C:/temp/dataset/4/11_35.odb,Step-1,Increment      1: Step Time =    1.000,"PART-1-1",           159,       12.9366,       22.3763,            0.,NA,NA,"",   616.504E-03,   615.670E-03,  -32.0539E-03,   158.416E-12
C:/temp/dataset/4/11_35.odb,Step-1,Increment      1: Step Time =    1.000,"PART-1-1",           160,       13.0248,       17.5365,            0.,NA,NA,"",   561.307E-03,   560.351E-03,  -32.7458E-03,   1.61715E-09
C:/temp/dataset/4/11_35.odb,Step-1,Increment      1: Step Time =    1.000,"PART-1-1",           161,      -10.1545,       27.3700,            0.,NA,NA,"",   712.923E-03,   674.277E-03,   231.538E-03,   5.44731E-12
C:/temp/dataset/4/11_35.odb,Step-1,Increment      1: Step Time =    1.000,"PART-1-1",           162,      -10.0546,      -2.87755,            0.,NA,NA,"",   402.418E-03,   328.548E-03,   232.371E-03,   1.97178E-09
C:/temp/dataset/4/11_35.odb,Step-1,Increment      1: Step Time =    1.000,"PART-1-1",           163,      -5.07747,      -2.66322,            0.,NA,NA,"",   374.345E-03,   330.672E-03,   175.471E-03,   4.43141E-09
C:/temp/dataset/4/11_35.odb,Step-1,Increment      1: Step Time =    1.000,"PART-1-1",           164,  -330.659E-03,      -3.26262,            0.,NA,NA,"",   345.489E-03,   323.511E-03,   121.255E-03,   113.442E-09
C:/temp/dataset/4/11_35.odb,Step-1,Increment      1: Step Time =    1.000,"PART-1-1",           165,       3.93161,      -2.75002,            0.,NA,NA,"",   336.985E-03,   329.092E-03,   72.5051E-03,   830.030E-09
C:/temp/dataset/4/11_35.odb,Step-1,Increment      1: Step Time =    1.000,"PART-1-1",           166,       12.9585,      -10.1304,            0.,NA,NA,"",   246.136E-03,   244.278E-03,  -30.1861E-03,   69.4265E-06
C:/temp/dataset/4/11_35.odb,Step-1,Increment      1: Step Time =    1.000,"PART-1-1",           167,       13.1106,      -19.8561,            0.,NA,NA,"",   130.584E-03,   126.884E-03,  -30.8670E-03,   1.55173E-03
C:/temp/dataset/4/11_35.odb,Step-1,Increment      1: Step Time =    1.000,"PART-1-1",           168,       12.2637,      -27.1930,            0.,NA,NA,"",   26.1640E-03,   24.4949E-03,  -9.19537E-03,   6.47498E-03
C:/temp/dataset/4/11_35.odb,Step-1,Increment      1: Step Time =    1.000,"PART-1-1",           169,       13.0974,      -22.2394,            0.,NA,NA,"",   97.3906E-03,   93.1644E-03,  -28.3783E-03,   3.05055E-03
C:/temp/dataset/4/11_35.odb,Step-1,Increment      1: Step Time =    1.000,"PART-1-1",           170,       13.0625,      -15.0302,            0.,NA,NA,"",   190.410E-03,   187.843E-03,  -31.1605E-03,   64.1482E-06
C:/temp/dataset/4/11_35.odb,Step-1,Increment      1: Step Time =    1.000,"PART-1-1",           171,       12.8638,      -7.61343,            0.,NA,NA,"",   274.553E-03,   272.989E-03,  -29.2620E-03,   26.7135E-06
C:/temp/dataset/4/11_35.odb,Step-1,Increment      1: Step Time =    1.000,"PART-1-1",           172,       12.8109,      -2.41519,            0.,NA,NA,"",   333.611E-03,   332.349E-03,  -28.9968E-03,   890.316E-09
C:/temp/dataset/4/11_35.odb,Step-1,Increment      1: Step Time =    1.000,"PART-1-1",           173,       12.7001,   168.481E-03,            0.,NA,NA,"",   362.953E-03,   361.879E-03,  -27.8997E-03,   471.325E-09
C:/temp/dataset/4/11_35.odb,Step-1,Increment      1: Step Time =    1.000,"PART-1-1",           174,       12.6773,       5.28127,            0.,NA,NA,"",   421.243E-03,   420.313E-03,  -27.9732E-03,   235.723E-09
C:/temp/dataset/4/11_35.odb,Step-1,Increment      1: Step Time =    1.000,"PART-1-1",           175,       12.8405,       7.80961,            0.,NA,NA,"",   450.199E-03,   449.198E-03,  -30.0043E-03,   78.3437E-09
C:/temp/dataset/4/11_35.odb,Step-1,Increment      1: Step Time =    1.000,"PART-1-1",           176,       12.9955,       12.7023,            0.,NA,NA,"",   506.123E-03,   505.104E-03,  -32.0953E-03,   2.66844E-09
C:/temp/dataset/4/11_35.odb,Step-1,Increment      1: Step Time =    1.000,"PART-1-1",           177,       13.0102,       19.9477,            0.,NA,NA,"",   588.819E-03,   587.908E-03,  -32.7357E-03,   597.812E-12
C:/temp/dataset/4/11_35.odb,Step-1,Increment      1: Step Time =    1.000,"PART-1-1",           178,       9.88408,       27.1269,            0.,NA,NA,"",   670.166E-03,   670.162E-03,   2.52227E-03,   8.92598E-12
C:/temp/dataset/4/11_35.odb,Step-1,Increment      1: Step Time =    1.000,"PART-1-1",           179,       13.0301,       15.1161,            0.,NA,NA,"",   533.689E-03,   532.689E-03,  -32.6481E-03,   3.14160E-09
C:/temp/dataset/4/11_35.odb,Step-1,Increment      1: Step Time =    1.000,"PART-1-1",           180,   300.490E-03,       3.00528,            0.,NA,NA,"",   411.126E-03,   395.111E-03,   113.631E-03,   132.487E-09
C:/temp/dataset/4/11_35.odb,Step-1,Increment      1: Step Time =    1.000,"PART-1-1",           181,      -4.18418,       2.89078,            0.,NA,NA,"",   427.203E-03,   394.095E-03,   164.898E-03,   8.06357E-09
C:/temp/dataset/4/11_35.odb,Step-1,Increment      1: Step Time =    1.000,"PART-1-1",           182,      -8.75093,       23.2164,            0.,NA,NA,"",   662.813E-03,   626.710E-03,   215.767E-03,   5.16131E-12
C:/temp/dataset/4/11_35.odb,Step-1,Increment      1: Step Time =    1.000,"PART-1-1",           183,       9.13120,      -23.8882,            0.,NA,NA,"",   70.0864E-03,   69.8160E-03,   6.15096E-03,   5.70985E-03
C:/temp/dataset/4/11_35.odb,Step-1,Increment      1: Step Time =    1.000,"PART-1-1",           184,       8.76025,       8.63504,            0.,NA,NA,"",   459.197E-03,   458.898E-03,   16.5738E-03,   68.1812E-09
C:/temp/dataset/4/11_35.odb,Step-1,Increment      1: Step Time =    1.000,"PART-1-1",           185,       8.81891,       23.9948,            0.,NA,NA,"",   634.611E-03,   634.436E-03,   14.9002E-03,   78.3871E-12
C:/temp/dataset/4/11_35.odb,Step-1,Increment      1: Step Time =    1.000,"PART-1-1",           186,       9.00734,       17.5557,            0.,NA,NA,"",   560.988E-03,   560.833E-03,   13.1673E-03,   1.82076E-09
C:/temp/dataset/4/11_35.odb,Step-1,Increment      1: Step Time =    1.000,"PART-1-1",           187,      -8.59230,       19.6811,            0.,NA,NA,"",   624.191E-03,   586.293E-03,   214.185E-03,   5.84687E-12
C:/temp/dataset/4/11_35.odb,Step-1,Increment      1: Step Time =    1.000,"PART-1-1",           188,       9.06266,      -12.9142,            0.,NA,NA,"",   213.123E-03,   212.602E-03,   14.8880E-03,   149.598E-06
C:/temp/dataset/4/11_35.odb,Step-1,Increment      1: Step Time =    1.000,"PART-1-1",           189,       9.13987,      -19.6571,            0.,NA,NA,"",   133.699E-03,   133.181E-03,   11.7565E-03,   2.96032E-03
C:/temp/dataset/4/11_35.odb,Step-1,Increment      1: Step Time =    1.000,"PART-1-1",           190,       9.00941,       15.3265,            0.,NA,NA,"",   535.521E-03,   535.356E-03,   13.2892E-03,   3.21384E-09
C:/temp/dataset/4/11_35.odb,Step-1,Increment      1: Step Time =    1.000,"PART-1-1",           191,      -8.96967,       13.7142,            0.,NA,NA,"",   562.455E-03,   518.116E-03,   218.888E-03,   16.5070E-12
C:/temp/dataset/4/11_35.odb,Step-1,Increment      1: Step Time =    1.000,"PART-1-1",           192,       9.12973,      -17.4386,            0.,NA,NA,"",   161.616E-03,   161.015E-03,   13.9327E-03,   1.24020E-03
C:/temp/dataset/4/11_35.odb,Step-1,Increment      1: Step Time =    1.000,"PART-1-1",           193,       8.94484,       21.9321,            0.,NA,NA,"",   611.005E-03,   610.853E-03,   13.5957E-03,   273.191E-12
C:/temp/dataset/4/11_35.odb,Step-1,Increment      1: Step Time =    1.000,"PART-1-1",           194,      -8.78258,       17.8115,            0.,NA,NA,"",   604.993E-03,   564.935E-03,   216.482E-03,   8.41927E-12
C:/temp/dataset/4/11_35.odb,Step-1,Increment      1: Step Time =    1.000,"PART-1-1",           195,       8.90333,       10.8666,            0.,NA,NA,"",   484.619E-03,   484.393E-03,   14.7928E-03,   15.2668E-09
C:/temp/dataset/4/11_35.odb,Step-1,Increment      1: Step Time =    1.000,"PART-1-1",           196,      -9.00437,       11.6266,            0.,NA,NA,"",   540.774E-03,   494.258E-03,   219.421E-03,   47.7055E-12
C:/temp/dataset/4/11_35.odb,Step-1,Increment      1: Step Time =    1.000,"PART-1-1",           197,      -9.03622,       9.53759,            0.,NA,NA,"",   519.255E-03,   470.383E-03,   219.921E-03,   224.145E-12
C:/temp/dataset/4/11_35.odb,Step-1,Increment      1: Step Time =    1.000,"PART-1-1",           198,       8.99264,      -10.6281,            0.,NA,NA,"",   239.181E-03,   238.689E-03,   15.3333E-03,   95.5508E-06
C:/temp/dataset/4/11_35.odb,Step-1,Increment      1: Step Time =    1.000,"PART-1-1",           199,       8.82192,      -8.34759,            0.,NA,NA,"",   265.322E-03,   264.775E-03,   17.0277E-03,   43.4917E-06
C:/temp/dataset/4/11_35.odb,Step-1,Increment      1: Step Time =    1.000,"PART-1-1",           200,       8.98411,       13.0928,            0.,NA,NA,"",   510.014E-03,   509.830E-03,   13.7243E-03,   3.63742E-09
C:/temp/dataset/4/11_35.odb,Step-1,Increment      1: Step Time =    1.000,"PART-1-1",           201,       7.30685,       27.8134,            0.,NA,NA,"",   678.926E-03,   678.175E-03,   31.9316E-03,   13.1760E-12
C:/temp/dataset/4/11_35.odb,Step-1,Increment      1: Step Time =    1.000,"PART-1-1",           202,      -8.46063,       21.4565,            0.,NA,NA,"",   642.743E-03,   606.577E-03,   212.564E-03,   5.10550E-12
C:/temp/dataset/4/11_35.odb,Step-1,Increment      1: Step Time =    1.000,"PART-1-1",           203,       9.11250,      -15.1896,            0.,NA,NA,"",   187.358E-03,   186.787E-03,   14.6241E-03,   261.921E-06
C:/temp/dataset/4/11_35.odb,Step-1,Increment      1: Step Time =    1.000,"PART-1-1",           204,       9.14200,      -21.8221,            0.,NA,NA,"",   102.368E-03,   101.992E-03,   8.76397E-03,   4.69277E-03
C:/temp/dataset/4/11_35.odb,Step-1,Increment      1: Step Time =    1.000,"PART-1-1",           205,      -8.90436,       15.8055,            0.,NA,NA,"",   584.215E-03,   542.016E-03,   218.005E-03,   13.8424E-12
C:/temp/dataset/4/11_35.odb,Step-1,Increment      1: Step Time =    1.000,"PART-1-1",           206,       9.00445,       19.7587,            0.,NA,NA,"",   586.156E-03,   586.010E-03,   13.0564E-03,   791.912E-12
C:/temp/dataset/4/11_35.odb,Step-1,Increment      1: Step Time =    1.000,"PART-1-1",           207,       8.39742,      -6.16188,            0.,NA,NA,"",   290.608E-03,   289.797E-03,   21.6962E-03,   15.3743E-06
C:/temp/dataset/4/11_35.odb,Step-1,Increment      1: Step Time =    1.000,"PART-1-1",           208,      -9.10294,       7.45394,            0.,NA,NA,"",   498.185E-03,   446.572E-03,   220.820E-03,   653.255E-12
C:/temp/dataset/4/11_35.odb,Step-1,Increment      1: Step Time =    1.000,"PART-1-1",           209,       8.43260,       6.43235,            0.,NA,NA,"",   434.228E-03,   433.746E-03,   20.4620E-03,   238.768E-09
C:/temp/dataset/4/11_35.odb,Step-1,Increment      1: Step Time =    1.000,"PART-1-1",           210,       5.64784,       2.93298,            0.,NA,NA,"",   397.420E-03,   393.935E-03,   52.5168E-03,   155.065E-09
C:/temp/dataset/4/11_35.odb,Step-1,Increment      1: Step Time =    1.000,"PART-1-1",           211,      -10.7213,       1.88644,            0.,NA,NA,"",   451.850E-03,   383.043E-03,   239.681E-03,   1.11366E-09
C:/temp/dataset/4/11_35.odb,Step-1,Increment      1: Step Time =    1.000,"PART-1-1",           212,      -12.7178,       27.8380,            0.,NA,NA,"",   728.106E-03,   679.793E-03,   260.806E-03,   5.54278E-12
C:/temp/dataset/4/11_35.odb,Step-1,Increment      1: Step Time =    1.000,"PART-1-1",           213,      -11.0298,       24.2524,            0.,NA,NA,"",   682.920E-03,   638.701E-03,   241.746E-03,   5.30162E-12
C:/temp/dataset/4/11_35.odb,Step-1,Increment      1: Step Time =    1.000,"PART-1-1",           214,      -10.4500,       20.0822,            0.,NA,NA,"",   636.151E-03,   590.998E-03,   235.391E-03,   5.77409E-12
C:/temp/dataset/4/11_35.odb,Step-1,Increment      1: Step Time =    1.000,"PART-1-1",           215,      -10.9919,       14.0243,            0.,NA,NA,"",   575.172E-03,   521.793E-03,   241.981E-03,   16.0576E-12
C:/temp/dataset/4/11_35.odb,Step-1,Increment      1: Step Time =    1.000,"PART-1-1",           216,      -11.0796,       9.82104,            0.,NA,NA,"",   532.560E-03,   473.757E-03,   243.258E-03,   144.854E-12
C:/temp/dataset/4/11_35.odb,Step-1,Increment      1: Step Time =    1.000,"PART-1-1",           217,      -11.0365,       11.9204,            0.,NA,NA,"",   553.735E-03,   497.750E-03,   242.628E-03,   32.9770E-12
C:/temp/dataset/4/11_35.odb,Step-1,Increment      1: Step Time =    1.000,"PART-1-1",           218,      -10.5491,       22.5446,            0.,NA,NA,"",   662.732E-03,   619.149E-03,   236.363E-03,   5.23514E-12
C:/temp/dataset/4/11_35.odb,Step-1,Increment      1: Step Time =    1.000,"PART-1-1",           219,      -10.9277,       16.1478,            0.,NA,NA,"",   596.921E-03,   546.060E-03,   241.108E-03,   12.6352E-12
C:/temp/dataset/4/11_35.odb,Step-1,Increment      1: Step Time =    1.000,"PART-1-1",           220,      -10.7891,       18.2216,            0.,NA,NA,"",   618.002E-03,   569.754E-03,   239.389E-03,   8.02208E-12
C:/temp/dataset/4/11_35.odb,Step-1,Increment      1: Step Time =    1.000,"PART-1-1",           221,      -11.1555,       7.76515,            0.,NA,NA,"",   512.250E-03,   450.263E-03,   244.259E-03,   437.955E-12
C:/temp/dataset/4/11_35.odb,Step-1,Increment      1: Step Time =    1.000,"PART-1-1",           222,      -9.80329,       4.04682,            0.,NA,NA,"",   467.613E-03,   407.675E-03,   229.047E-03,   1.32997E-09
C:/temp/dataset/4/11_35.odb,Step-1,Increment      1: Step Time =    1.000,"PART-1-1",           223,       9.22674,      -25.9093,            0.,NA,NA,"",   39.6085E-03,   39.4544E-03,   3.48965E-03,   5.75004E-03
C:/temp/dataset/4/11_35.odb,Step-1,Increment      1: Step Time =    1.000,"PART-1-1",           224,      -9.21421,       25.1107,            0.,NA,NA,"",   685.001E-03,   648.393E-03,   220.938E-03,   5.31511E-12
C:/temp/dataset/4/11_35.odb,Step-1,Increment      1: Step Time =    1.000,"PART-1-1",           225,       6.25241,      -4.60112,            0.,NA,NA,"",   311.212E-03,   307.779E-03,   46.0978E-03,   3.31941E-06
C:/temp/dataset/4/11_35.odb,Step-1,Increment      1: Step Time =    1.000,"PART-1-1",           226,      -7.19550,       4.55405,            0.,NA,NA,"",   458.806E-03,   413.302E-03,   199.208E-03,   2.91670E-09
C:/temp/dataset/4/11_35.odb,Step-1,Increment      1: Step Time =    1.000,"PART-1-1",           227,       12.9551,      -24.6090,            0.,NA,NA,"",   62.7967E-03,   58.9486E-03,  -21.6446E-03,   4.95183E-03
C:/temp/dataset/4/11_35.odb,Step-1,Increment      1: Step Time =    1.000,"PART-1-1",           228,       10.9241,       22.1645,            0.,NA,NA,"",   613.447E-03,   613.380E-03,  -9.03998E-03,   240.397E-12
C:/temp/dataset/4/11_35.odb,Step-1,Increment      1: Step Time =    1.000,"PART-1-1",           229,      -4.91288,   464.762E-03,            0.,NA,NA,"",   405.366E-03,   366.414E-03,   173.385E-03,   7.78270E-09
C:/temp/dataset/4/11_35.odb,Step-1,Increment      1: Step Time =    1.000,"PART-1-1",           230,  -831.143E-03,      -1.35374,            0.,NA,NA,"",   367.921E-03,   345.362E-03,   126.851E-03,   96.8912E-09
C:/temp/dataset/4/11_35.odb,Step-1,Increment      1: Step Time =    1.000,"PART-1-1",           231,       11.1616,      -19.7398,            0.,NA,NA,"",   129.580E-03,   129.233E-03,  -9.46930E-03,   2.25545E-03
C:/temp/dataset/4/11_35.odb,Step-1,Increment      1: Step Time =    1.000,"PART-1-1",           232,       10.9730,      -10.3410,            0.,NA,NA,"",   242.060E-03,   241.949E-03,  -7.34582E-03,   84.7302E-06
C:/temp/dataset/4/11_35.odb,Step-1,Increment      1: Step Time =    1.000,"PART-1-1",           233,       10.4844,      -5.04269,            0.,NA,NA,"",   302.482E-03,   302.474E-03,  -2.23126E-03,   9.03702E-06
C:/temp/dataset/4/11_35.odb,Step-1,Increment      1: Step Time =    1.000,"PART-1-1",           234,       10.9074,       10.5689,            0.,NA,NA,"",   480.927E-03,   480.859E-03,  -8.09165E-03,   18.3177E-09
C:/temp/dataset/4/11_35.odb,Step-1,Increment      1: Step Time =    1.000,"PART-1-1",           235,       11.0515,      -12.7377,            0.,NA,NA,"",   214.715E-03,   214.568E-03,  -7.93176E-03,   124.522E-06
C:/temp/dataset/4/11_35.odb,Step-1,Increment      1: Step Time =    1.000,"PART-1-1",           236,       10.9936,       12.8990,            0.,NA,NA,"",   507.568E-03,   507.484E-03,  -9.22837E-03,   3.61139E-09
C:/temp/dataset/4/11_35.odb,Step-1,Increment      1: Step Time =    1.000,"PART-1-1",           237,      -9.84553,  -403.770E-03,            0.,NA,NA,"",   424.417E-03,   356.809E-03,   229.821E-03,   1.64897E-09
C:/temp/dataset/4/11_35.odb,Step-1,Increment      1: Step Time =    1.000,"PART-1-1",           238,      -6.42098,  -599.403E-03,            0.,NA,NA,"",   402.401E-03,   354.349E-03,   190.692E-03,   2.90254E-09
C:/temp/dataset/4/11_35.odb,Step-1,Increment      1: Step Time =    1.000,"PART-1-1",           239,      -2.35214,      -1.85066,            0.,NA,NA,"",   369.141E-03,   339.782E-03,   144.268E-03,   47.0282E-09
C:/temp/dataset/4/11_35.odb,Step-1,Increment      1: Step Time =    1.000,"PART-1-1",           240,       11.1625,      -21.9830,            0.,NA,NA,"",   97.4225E-03,   96.9455E-03,  -9.62886E-03,   3.88507E-03
C:/temp/dataset/4/11_35.odb,Step-1,Increment      1: Step Time =    1.000,"PART-1-1",           241,       11.1073,      -15.0998,            0.,NA,NA,"",   187.512E-03,   187.328E-03,  -8.30475E-03,   164.242E-06
C:/temp/dataset/4/11_35.odb,Step-1,Increment      1: Step Time =    1.000,"PART-1-1",           242,       11.1457,      -17.4375,            0.,NA,NA,"",   159.550E-03,   159.306E-03,  -8.82501E-03,   864.212E-06
C:/temp/dataset/4/11_35.odb,Step-1,Increment      1: Step Time =    1.000,"PART-1-1",           243,       10.8340,      -7.85693,            0.,NA,NA,"",   270.377E-03,   270.310E-03,  -6.00748E-03,   35.0083E-06
C:/temp/dataset/4/11_35.odb,Step-1,Increment      1: Step Time =    1.000,"PART-1-1",           244,       10.5842,   120.255E-03,            0.,NA,NA,"",   361.485E-03,   361.466E-03,  -3.71640E-03,   415.701E-09
C:/temp/dataset/4/11_35.odb,Step-1,Increment      1: Step Time =    1.000,"PART-1-1",           245,       10.8633,      -2.34188,            0.,NA,NA,"",   333.379E-03,   333.311E-03,  -6.74491E-03,   1.43001E-06
C:/temp/dataset/4/11_35.odb,Step-1,Increment      1: Step Time =    1.000,"PART-1-1",           246,       9.78574,       2.89226,            0.,NA,NA,"",   393.233E-03,   393.199E-03,   5.22782E-03,   427.350E-09
C:/temp/dataset/4/11_35.odb,Step-1,Increment      1: Step Time =    1.000,"PART-1-1",           247,       10.7685,       8.18214,            0.,NA,NA,"",   453.635E-03,   453.591E-03,  -6.34878E-03,   84.7688E-09
C:/temp/dataset/4/11_35.odb,Step-1,Increment      1: Step Time =    1.000,"PART-1-1",           248,       10.4587,       5.69287,            0.,NA,NA,"",   425.170E-03,   425.162E-03,  -2.64498E-03,   254.066E-09
C:/temp/dataset/4/11_35.odb,Step-1,Increment      1: Step Time =    1.000,"PART-1-1",           249,       11.0104,       19.8565,            0.,NA,NA,"",   587.081E-03,   586.998E-03,  -9.87563E-03,   748.050E-12
C:/temp/dataset/4/11_35.odb,Step-1,Increment      1: Step Time =    1.000,"PART-1-1",           250,       11.0363,       17.5467,            0.,NA,NA,"",   560.687E-03,   560.597E-03,  -10.0199E-03,   1.82279E-09
C:/temp/dataset/4/11_35.odb,Step-1,Increment      1: Step Time =    1.000,"PART-1-1",           251,       11.0403,       15.2208,            0.,NA,NA,"",   534.108E-03,   534.016E-03,  -9.91439E-03,   3.21312E-09
C:/temp/dataset/4/11_35.odb,Step-1,Increment      1: Step Time =    1.000,"PART-1-1",           252,       1.19009,      -1.06873,            0.,NA,NA,"",   363.598E-03,   348.488E-03,   103.730E-03,   294.633E-09
C:/temp/dataset/4/11_35.odb,Step-1,Increment      1: Step Time =    1.000,"PART-1-1",           253,       10.6932,       24.5073,            0.,NA,NA,"",   640.204E-03,   640.170E-03,  -6.55385E-03,   53.9959E-12
C:/temp/dataset/4/11_35.odb,Step-1,Increment      1: Step Time =    1.000,"PART-1-1",           254,       8.51128,       25.6419,            0.,NA,NA,"",   653.536E-03,   653.280E-03,   18.3084E-03,   20.0642E-12
C:/temp/dataset/4/11_35.odb,Step-1,Increment      1: Step Time =    1.000,"PART-1-1",           255,      -9.32324,       5.48290,            0.,NA,NA,"",   479.335E-03,   424.058E-03,   223.467E-03,   1.19196E-09
C:/temp/dataset/4/11_35.odb,Step-1,Increment      1: Step Time =    1.000,"PART-1-1",           256,      -11.4569,       25.7537,            0.,NA,NA,"",   700.690E-03,   655.888E-03,   246.530E-03,   5.41544E-12
C:/temp/dataset/4/11_35.odb,Step-1,Increment      1: Step Time =    1.000,"PART-1-1",           257,      -8.85145,       2.84717,            0.,NA,NA,"",   450.322E-03,   393.901E-03,   218.246E-03,   1.84835E-09
C:/temp/dataset/4/11_35.odb,Step-1,Increment      1: Step Time =    1.000,"PART-1-1",           258,       11.0896,      -24.0706,            0.,NA,NA,"",   66.0305E-03,   65.5413E-03,  -8.02315E-03,   5.13233E-03
C:/temp/dataset/4/11_35.odb,Step-1,Increment      1: Step Time =    1.000,"PART-1-1",           259,       5.69240,      -2.12345,            0.,NA,NA,"",   340.190E-03,   336.140E-03,   52.3380E-03,   719.532E-09
C:/temp/dataset/4/11_35.odb,Step-1,Increment      1: Step Time =    1.000,"PART-1-1",           260,       7.72467,       1.38687,            0.,NA,NA,"",   377.236E-03,   376.129E-03,   28.8811E-03,   289.412E-09
C:/temp/dataset/4/11_35.odb,Step-1,Increment      1: Step Time =    1.000,"PART-1-1",           261,       8.83369,  -368.727E-03,            0.,NA,NA,"",   356.366E-03,   355.992E-03,   16.3205E-03,   456.861E-09
C:/temp/dataset/4/11_35.odb,Step-1,Increment      1: Step Time =    1.000,"PART-1-1",           262,       7.58912,       4.39900,            0.,NA,NA,"",   411.675E-03,   410.563E-03,   30.2343E-03,   381.067E-09
C:/temp/dataset/4/11_35.odb,Step-1,Increment      1: Step Time =    1.000,"PART-1-1",           263,      -6.02595,       2.23751,            0.,NA,NA,"",   429.147E-03,   386.748E-03,   185.991E-03,   2.52503E-09
C:/temp/dataset/4/11_35.odb,Step-1,Increment      1: Step Time =    1.000,"PART-1-1",           264,       4.92391,   813.983E-03,            0.,NA,NA,"",   374.750E-03,   369.764E-03,   60.9295E-03,   356.292E-09
C:/temp/dataset/4/11_35.odb,Step-1,Increment      1: Step Time =    1.000,"PART-1-1",           265,      -7.77287,       1.11371,            0.,NA,NA,"",   427.011E-03,   374.018E-03,   206.032E-03,   2.26396E-09
C:/temp/dataset/4/11_35.odb,Step-1,Increment      1: Step Time =    1.000,"PART-1-1",           266,      -3.71710,       1.36231,            0.,NA,NA,"",   409.041E-03,   376.594E-03,   159.659E-03,   15.6417E-09
C:/temp/dataset/4/11_35.odb,Step-1,Increment      1: Step Time =    1.000,"PART-1-1",           267,       2.85817,       1.10052,            0.,NA,NA,"",   382.625E-03,   373.173E-03,   84.5218E-03,   371.805E-09
C:/temp/dataset/4/11_35.odb,Step-1,Increment      1: Step Time =    1.000,"PART-1-1",           268,       7.51165,      -2.37377,            0.,NA,NA,"",   334.653E-03,   333.161E-03,   31.5610E-03,   1.16021E-06
C:/temp/dataset/4/11_35.odb,Step-1,Increment      1: Step Time =    1.000,"PART-1-1",           269,      -1.84913,   666.939E-03,            0.,NA,NA,"",   393.640E-03,   368.524E-03,   138.354E-03,   57.4545E-09
C:/temp/dataset/4/11_35.odb,Step-1,Increment      1: Step Time =    1.000,"PART-1-1",           270,   621.955E-03,   989.730E-03,            0.,NA,NA,"",   387.998E-03,   372.053E-03,   110.089E-03,   179.260E-09
C:/temp/dataset/4/11_35.odb,Step-1,Increment      1: Step Time =    1.000,"PART-1-1",           271,       7.77182,      -4.29185,            0.,NA,NA,"",   312.540E-03,   311.218E-03,   28.7140E-03,   4.57755E-06
C:/temp/dataset/4/11_35.odb,Step-1,Increment      1: Step Time =    1.000,"PART-1-1",           272,       6.40836,       5.42027,            0.,NA,NA,"",   424.563E-03,   422.312E-03,   43.6625E-03,   380.064E-09
C:/temp/dataset/4/11_35.odb,Step-1,Increment      1: Step Time =    1.000,"PART-1-1",           273,      -12.5139,      -2.82358,            0.,NA,NA,"",   419.885E-03,   329.325E-03,   260.478E-03,   1.09956E-09
C:/temp/dataset/4/11_35.odb,Step-1,Increment      1: Step Time =    1.000,"PART-1-1",           274,       10.8188,      -25.6946,            0.,NA,NA,"",   42.4300E-03,   42.1540E-03,  -4.83181E-03,   5.48439E-03
C:/temp/dataset/4/11_35.odb,Step-1,Increment      1: Step Time =    1.000,"PART-1-1",           275,       6.49302,  -163.532E-03,            0.,NA,NA,"",   361.066E-03,   358.489E-03,   43.0590E-03,   367.788E-09
C:/temp/dataset/4/11_35.odb,Step-1,Increment      1: Step Time =    1.000,"PART-1-1",           276,       7.60941,  -936.337E-03,            0.,NA,NA,"",   350.899E-03,   349.584E-03,   30.3499E-03,   587.117E-09
C:/temp/dataset/4/11_35.odb,Step-1,Increment      1: Step Time =    1.000,"PART-1-1",           277,       9.17282,      -2.25688,            0.,NA,NA,"",   334.626E-03,   334.390E-03,   12.5684E-03,   1.60452E-06
C:/temp/dataset/4/11_35.odb,Step-1,Increment      1: Step Time =    1.000,"PART-1-1",           278,       9.10690,      -3.89703,            0.,NA,NA,"",   315.934E-03,   315.649E-03,   13.4310E-03,   4.86587E-06
C:/temp/dataset/4/11_35.odb,Step-1,Increment      1: Step Time =    1.000,"PART-1-1",           279,      -7.91199,      -1.40732,            0.,NA,NA,"",   402.923E-03,   345.212E-03,   207.786E-03,   2.18794E-09
C:/temp/dataset/4/11_35.odb,Step-1,Increment      1: Step Time =    1.000,"PART-1-1",           280,      -9.83927,       21.3699,            0.,NA,NA,"",   647.284E-03,   605.676E-03,   228.327E-03,   5.27678E-12
C:/temp/dataset/4/11_35.odb,Step-1,Increment      1: Step Time =    1.000,"PART-1-1",           281,      -11.2653,       5.77953,            0.,NA,NA,"",   493.114E-03,   427.575E-03,   245.644E-03,   771.706E-12
C:/temp/dataset/4/11_35.odb,Step-1,Increment      1: Step Time =    1.000,"PART-1-1",           282,      -11.2487,       3.84080,            0.,NA,NA,"",   473.995E-03,   405.415E-03,   245.581E-03,   1.02143E-09
C:/temp/dataset/4/11_35.odb,Step-1,Increment      1: Step Time =    1.000,"PART-1-1",           283,       3.11059,  -868.354E-03,            0.,NA,NA,"",   360.060E-03,   350.653E-03,   81.7657E-03,   394.356E-09
C:/temp/dataset/4/11_35.odb,Step-1,Increment      1: Step Time =    1.000,"PART-1-1",           284,       4.50766,  -682.768E-03,            0.,NA,NA,"",   358.767E-03,   352.684E-03,   65.7852E-03,   526.166E-09
C:/temp/dataset/4/11_35.odb,Step-1,Increment      1: Step Time =    1.000,"PART-1-1",           285,      -3.56662,  -854.847E-03,            0.,NA,NA,"",   385.178E-03,   351.243E-03,   158.084E-03,   20.3738E-09
C:/temp/dataset/4/11_35.odb,Step-1,Increment      1: Step Time =    1.000,"PART-1-1",           286,      -7.33150,       26.6843,            0.,NA,NA,"",   695.430E-03,   666.255E-03,   199.316E-03,   5.41586E-12
C:/temp/dataset/4/11_35.odb,Step-1,Increment      1: Step Time =    1.000,"PART-1-1",           287,      -6.09303,       25.7233,            0.,NA,NA,"",   680.869E-03,   655.190E-03,   185.224E-03,   5.40228E-12
C:/temp/dataset/4/11_35.odb,Step-1,Increment      1: Step Time =    1.000,"PART-1-1",           288,           -5.,        26.875,            0.,NA,NA,"",   690.225E-03,   668.282E-03,   172.656E-03,   5.49124E-12
C:/temp/dataset/4/11_35.odb,Step-1,Increment      1: Step Time =    1.000,"PART-1-1",           289,      -6.23847,       27.8360,            0.,NA,NA,"",   704.547E-03,   679.347E-03,   186.748E-03,   5.49898E-12
C:/temp/dataset/4/11_35.odb,Step-1,Increment      1: Step Time =    1.000,"PART-1-1",           290,      -8.20013,       25.3620,            0.,NA,NA,"",   684.017E-03,   651.199E-03,   209.331E-03,   5.33485E-12
C:/temp/dataset/4/11_35.odb,Step-1,Increment      1: Step Time =    1.000,"PART-1-1",           291,      -8.98257,       24.1636,            0.,NA,NA,"",   673.906E-03,   637.551E-03,   218.353E-03,   5.24080E-12
C:/temp/dataset/4/11_35.odb,Step-1,Increment      1: Step Time =    1.000,"PART-1-1",           292,      -7.83587,       23.3915,            0.,NA,NA,"",   661.324E-03,   628.652E-03,   205.296E-03,   5.16739E-12
C:/temp/dataset/4/11_35.odb,Step-1,Increment      1: Step Time =    1.000,"PART-1-1",           293,      -7.05344,       24.5900,            0.,NA,NA,"",   671.619E-03,   642.299E-03,   196.275E-03,   5.26811E-12
C:/temp/dataset/4/11_35.odb,Step-1,Increment      1: Step Time =    1.000,"PART-1-1",           294,      -6.78951,       20.5788,            0.,NA,NA,"",   627.044E-03,   596.435E-03,   193.521E-03,   4.98947E-12
C:/temp/dataset/4/11_35.odb,Step-1,Increment      1: Step Time =    1.000,"PART-1-1",           295,      -5.89603,       19.5861,            0.,NA,NA,"",   613.096E-03,   585.031E-03,   183.373E-03,   4.62447E-12
C:/temp/dataset/4/11_35.odb,Step-1,Increment      1: Step Time =    1.000,"PART-1-1",           296,           -5.,        20.625,            0.,NA,NA,"",   621.431E-03,   596.846E-03,   173.064E-03,   4.68502E-12
C:/temp/dataset/4/11_35.odb,Step-1,Increment      1: Step Time =    1.000,"PART-1-1",           297,      -5.89348,       21.6177,            0.,NA,NA,"",   635.244E-03,   608.250E-03,   183.211E-03,   4.95090E-12
C:/temp/dataset/4/11_35.odb,Step-1,Increment      1: Step Time =    1.000,"PART-1-1",           298,      -7.97413,       13.6001,            0.,NA,NA,"",   556.858E-03,   516.747E-03,   207.516E-03,   14.4586E-12
C:/temp/dataset/4/11_35.odb,Step-1,Increment      1: Step Time =    1.000,"PART-1-1",           299,      -8.98702,       12.6704,            0.,NA,NA,"",   551.592E-03,   506.187E-03,   219.154E-03,   26.2052E-12
C:/temp/dataset/4/11_35.odb,Step-1,Increment      1: Step Time =    1.000,"PART-1-1",           300,      -8.00249,       11.5116,            0.,NA,NA,"",   534.961E-03,   492.878E-03,   207.977E-03,   27.4188E-12
C:/temp/dataset/4/11_35.odb,Step-1,Increment      1: Step Time =    1.000,"PART-1-1",           301,      -6.98959,       12.4413,            0.,NA,NA,"",   540.370E-03,   503.439E-03,   196.339E-03,   20.5151E-12
C:/temp/dataset/4/11_35.odb,Step-1,Increment      1: Step Time =    1.000,"PART-1-1",           302,      -9.95004,      -1.64066,            0.,NA,NA,"",   413.320E-03,   342.678E-03,   231.096E-03,   1.52864E-09
C:/temp/dataset/4/11_35.odb,Step-1,Increment      1: Step Time =    1.000,"PART-1-1",           303,      -11.1983,  -513.068E-03,            0.,NA,NA,"",   432.033E-03,   355.648E-03,   245.290E-03,   1.28097E-09
C:/temp/dataset/4/11_35.odb,Step-1,Increment      1: Step Time =    1.000,"PART-1-1",           304,      -12.5325,      -1.72297,            0.,NA,NA,"",   429.909E-03,   341.906E-03,   260.619E-03,   1.03487E-09
C:/temp/dataset/4/11_35.odb,Step-1,Increment      1: Step Time =    1.000,"PART-1-1",           305,      -11.2842,      -2.85056,            0.,NA,NA,"",   411.004E-03,   328.937E-03,   246.424E-03,   1.50585E-09
C:/temp/dataset/4/11_35.odb,Step-1,Increment      1: Step Time =    1.000,"PART-1-1",           306,      -10.2834,   741.336E-03,            0.,NA,NA,"",   438.124E-03,   369.926E-03,   234.751E-03,   1.18367E-09
C:/temp/dataset/4/11_35.odb,Step-1,Increment      1: Step Time =    1.000,"PART-1-1",           307,      -11.7661,       1.72477,            0.,NA,NA,"",   456.816E-03,   381.263E-03,   251.633E-03,   890.497E-12
C:/temp/dataset/4/11_35.odb,Step-1,Increment      1: Step Time =    1.000,"PART-1-1",           308,      -12.6810,   470.366E-03,            0.,NA,NA,"",   451.013E-03,   366.985E-03,   262.173E-03,   797.166E-12
C:/temp/dataset/4/11_35.odb,Step-1,Increment      1: Step Time =    1.000,"PART-1-1",           309,         -1.25,           -5.,            0.,NA,NA,"",   331.109E-03,   303.714E-03,   131.876E-03,   50.0537E-09
C:/temp/dataset/4/11_35.odb,Step-1,Increment      1: Step Time =    1.000,"PART-1-1",           310,  -165.329E-03,      -4.13131,            0.,NA,NA,"",   335.543E-03,   313.572E-03,   119.422E-03,   75.9809E-09
C:/temp/dataset/4/11_35.odb,Step-1,Increment      1: Step Time =    1.000,"PART-1-1",           311,      -1.46228,      -3.26668,            0.,NA,NA,"",   350.263E-03,   323.539E-03,   134.189E-03,   55.6423E-09
C:/temp/dataset/4/11_35.odb,Step-1,Increment      1: Step Time =    1.000,"PART-1-1",           312,      -2.54695,      -4.13537,            0.,NA,NA,"",   346.266E-03,   313.681E-03,   146.644E-03,   13.1114E-09
C:/temp/dataset/4/11_35.odb,Step-1,Increment      1: Step Time =    1.000,"PART-1-1",           313,   769.081E-03,      -3.16387,            0.,NA,NA,"",   342.280E-03,   324.568E-03,   108.679E-03,   274.185E-09
C:/temp/dataset/4/11_35.odb,Step-1,Increment      1: Step Time =    1.000,"PART-1-1",           314,          1.25,           -5.,            0.,NA,NA,"",   320.646E-03,   303.550E-03,   103.302E-03,   193.697E-09
C:/temp/dataset/4/11_35.odb,Step-1,Increment      1: Step Time =    1.000,"PART-1-1",           315,       2.18441,      -4.03256,            0.,NA,NA,"",   327.882E-03,   314.546E-03,   92.5591E-03,   296.136E-09
C:/temp/dataset/4/11_35.odb,Step-1,Increment      1: Step Time =    1.000,"PART-1-1",           316,       1.54561,       3.01681,            0.,NA,NA,"",   407.471E-03,   395.161E-03,   99.3988E-03,   224.718E-09
C:/temp/dataset/4/11_35.odb,Step-1,Increment      1: Step Time =    1.000,"PART-1-1",           317,       2.64536,       4.01417,            0.,NA,NA,"",   415.645E-03,   406.489E-03,   86.7636E-03,   243.271E-09
C:/temp/dataset/4/11_35.odb,Step-1,Increment      1: Step Time =    1.000,"PART-1-1",           318,          1.25,            5.,            0.,NA,NA,"",   430.271E-03,   417.848E-03,   102.648E-03,   156.659E-09
C:/temp/dataset/4/11_35.odb,Step-1,Increment      1: Step Time =    1.000,"PART-1-1",           319,   150.245E-03,       4.00264,            0.,NA,NA,"",   422.550E-03,   406.520E-03,   115.283E-03,   71.8430E-09
C:/temp/dataset/4/11_35.odb,Step-1,Increment      1: Step Time =    1.000,"PART-1-1",           320,   179.474E-03,      -1.21124,            0.,NA,NA,"",   365.580E-03,   346.925E-03,   115.290E-03,   174.714E-09
C:/temp/dataset/4/11_35.odb,Step-1,Increment      1: Step Time =    1.000,"PART-1-1",           321,  -580.901E-03,      -2.30818,            0.,NA,NA,"",   356.703E-03,   334.437E-03,   124.053E-03,   107.338E-09
C:/temp/dataset/4/11_35.odb,Step-1,Increment      1: Step Time =    1.000,"PART-1-1",           322,       1.52946,      -2.06693,            0.,NA,NA,"",   351.554E-03,   337.057E-03,   99.9163E-03,   262.607E-09
C:/temp/dataset/4/11_35.odb,Step-1,Increment      1: Step Time =    1.000,"PART-1-1",           323,       12.7868,      -3.71378,            0.,NA,NA,"",   318.803E-03,   317.514E-03,  -28.6368E-03,   3.89937E-06
C:/temp/dataset/4/11_35.odb,Step-1,Increment      1: Step Time =    1.000,"PART-1-1",           324,       13.8814,      -5.00619,            0.,NA,NA,"",   305.455E-03,   302.683E-03,  -41.0607E-03,   3.52973E-06
C:/temp/dataset/4/11_35.odb,Step-1,Increment      1: Step Time =    1.000,"PART-1-1",           325,           15.,         -3.75,            0.,NA,NA,"",   321.511E-03,   316.957E-03,  -53.9216E-03,   354.637E-09
C:/temp/dataset/4/11_35.odb,Step-1,Increment      1: Step Time =    1.000,"PART-1-1",           326,       13.9054,      -2.45760,            0.,NA,NA,"",   334.378E-03,   331.793E-03,  -41.5013E-03,   745.131E-09
C:/temp/dataset/4/11_35.odb,Step-1,Increment      1: Step Time =    1.000,"PART-1-1",           327,       5.10003,      -1.40311,            0.,NA,NA,"",   349.439E-03,   344.412E-03,   59.0617E-03,   500.338E-09
C:/temp/dataset/4/11_35.odb,Step-1,Increment      1: Step Time =    1.000,"PART-1-1",           328,       3.80913,  -775.561E-03,            0.,NA,NA,"",   359.324E-03,   351.668E-03,   73.7754E-03,   462.735E-09
C:/temp/dataset/4/11_35.odb,Step-1,Increment      1: Step Time =    1.000,"PART-1-1",           329,       3.52110,      -1.80919,            0.,NA,NA,"",   348.516E-03,   339.873E-03,   77.1354E-03,   518.144E-09
C:/temp/dataset/4/11_35.odb,Step-1,Increment      1: Step Time =    1.000,"PART-1-1",           330,       4.81200,      -2.43673,            0.,NA,NA,"",   338.423E-03,   332.616E-03,   62.4216E-03,   646.157E-09
C:/temp/dataset/4/11_35.odb,Step-1,Increment      1: Step Time =    1.000,"PART-1-1",           331,           15.,          3.75,            0.,NA,NA,"",   406.321E-03,   402.661E-03,  -54.4186E-03,   360.678E-09
C:/temp/dataset/4/11_35.odb,Step-1,Increment      1: Step Time =    1.000,"PART-1-1",           332,       13.8386,       5.14064,            0.,NA,NA,"",   420.656E-03,   418.630E-03,  -41.2368E-03,   168.273E-09
C:/temp/dataset/4/11_35.odb,Step-1,Increment      1: Step Time =    1.000,"PART-1-1",           333,       12.6076,       4.00525,            0.,NA,NA,"",   406.638E-03,   405.734E-03,  -27.0935E-03,   327.746E-09
C:/temp/dataset/4/11_35.odb,Step-1,Increment      1: Step Time =    1.000,"PART-1-1",           334,       13.7689,       2.61462,            0.,NA,NA,"",   391.840E-03,   389.765E-03,  -40.2750E-03,   380.264E-09
C:/temp/dataset/4/11_35.odb,Step-1,Increment      1: Step Time =    1.000,"PART-1-1",           335,       9.76439,       8.40859,            0.,NA,NA,"",   456.273E-03,   456.245E-03,   5.11248E-03,   72.0440E-09
C:/temp/dataset/4/11_35.odb,Step-1,Increment      1: Step Time =    1.000,"PART-1-1",           336,       8.59642,       7.53369,            0.,NA,NA,"",   446.706E-03,   446.322E-03,   18.5179E-03,   145.097E-09
C:/temp/dataset/4/11_35.odb,Step-1,Increment      1: Step Time =    1.000,"PART-1-1",           337,       9.44563,       6.06261,            0.,NA,NA,"",   429.546E-03,   429.454E-03,   8.90846E-03,   223.119E-09
C:/temp/dataset/4/11_35.odb,Step-1,Increment      1: Step Time =    1.000,"PART-1-1",           338,       10.6136,       6.93751,            0.,NA,NA,"",   439.400E-03,   439.377E-03,  -4.49684E-03,   164.315E-09
C:/temp/dataset/4/11_35.odb,Step-1,Increment      1: Step Time =    1.000,"PART-1-1",           339,       5.92452,       9.07762,            0.,NA,NA,"",   466.716E-03,   464.142E-03,   48.9533E-03,   17.3753E-09
C:/temp/dataset/4/11_35.odb,Step-1,Increment      1: Step Time =    1.000,"PART-1-1",           340,            5.,         8.125,            0.,NA,NA,"",   457.214E-03,   453.315E-03,   59.5815E-03,   37.6625E-09
C:/temp/dataset/4/11_35.odb,Step-1,Increment      1: Step Time =    1.000,"PART-1-1",           341,       5.83838,       7.03541,            0.,NA,NA,"",   443.642E-03,   440.808E-03,   50.0713E-03,   90.6504E-09
C:/temp/dataset/4/11_35.odb,Step-1,Increment      1: Step Time =    1.000,"PART-1-1",           342,       6.76290,       7.98803,            0.,NA,NA,"",   453.353E-03,   451.634E-03,   39.4430E-03,   115.823E-09
C:/temp/dataset/4/11_35.odb,Step-1,Increment      1: Step Time =    1.000,"PART-1-1",           343,       6.00358,       15.4027,            0.,NA,NA,"",   538.534E-03,   536.423E-03,   47.6368E-03,   2.65577E-09
C:/temp/dataset/4/11_35.odb,Step-1,Increment      1: Step Time =    1.000,"PART-1-1",           344,            5.,        14.375,            0.,NA,NA,"",   528.069E-03,   524.744E-03,   59.1734E-03,   6.01413E-09
C:/temp/dataset/4/11_35.odb,Step-1,Increment      1: Step Time =    1.000,"PART-1-1",           345,       5.99171,       13.2884,            0.,NA,NA,"",   514.496E-03,   512.260E-03,   47.9104E-03,   4.73782E-09
C:/temp/dataset/4/11_35.odb,Step-1,Increment      1: Step Time =    1.000,"PART-1-1",           346,       6.99529,       14.3161,            0.,NA,NA,"",   525.201E-03,   523.940E-03,   36.3738E-03,   3.02348E-09
C:/temp/dataset/4/11_35.odb,Step-1,Increment      1: Step Time =    1.000,"PART-1-1",           347,       11.7328,       24.6815,            0.,NA,NA,"",   642.358E-03,   642.093E-03,  -18.4461E-03,   36.4204E-12
C:/temp/dataset/4/11_35.odb,Step-1,Increment      1: Step Time =    1.000,"PART-1-1",           348,       12.6496,       26.1279,            0.,NA,NA,"",   659.202E-03,   658.563E-03,  -29.0183E-03,   10.4857E-12
C:/temp/dataset/4/11_35.odb,Step-1,Increment      1: Step Time =    1.000,"PART-1-1",           349,       11.2054,       27.2635,            0.,NA,NA,"",   671.754E-03,   671.636E-03,  -12.5880E-03,   9.45455E-12
C:/temp/dataset/4/11_35.odb,Step-1,Increment      1: Step Time =    1.000,"PART-1-1",           350,       10.2886,       25.8171,            0.,NA,NA,"",   655.169E-03,   655.166E-03,  -2.01579E-03,   28.8053E-12
C:/temp/dataset/4/11_35.odb,Step-1,Increment      1: Step Time =    1.000,"PART-1-1",           351,       12.5134,       28.7000,            0.,NA,NA,"",   688.523E-03,   687.968E-03,  -27.6301E-03,   9.43637E-12
C:/temp/dataset/4/11_35.odb,Step-1,Increment      1: Step Time =    1.000,"PART-1-1",           352,       13.7634,       27.4500,            0.,NA,NA,"",   674.899E-03,   673.601E-03,  -41.8342E-03,   10.6136E-12
C:/temp/dataset/4/11_35.odb,Step-1,Increment      1: Step Time =    1.000,"PART-1-1",           353,           15.,         28.75,            0.,NA,NA,"",   690.655E-03,   688.377E-03,  -56.0518E-03,   4.38237E-12
C:/temp/dataset/4/11_35.odb,Step-1,Increment      1: Step Time =    1.000,"PART-1-1",           354,         13.75,           30.,            0.,NA,NA,"",   703.989E-03,   702.745E-03,  -41.8476E-03,   3.92326E-12
C:/temp/dataset/4/11_35.odb,Step-1,Increment      1: Step Time =    1.000,"PART-1-1",           355,      -3.83569,      -2.96698,            0.,NA,NA,"",   364.724E-03,   327.119E-03,   161.297E-03,   16.2141E-09
C:/temp/dataset/4/11_35.odb,Step-1,Increment      1: Step Time =    1.000,"PART-1-1",           356,      -2.47303,      -2.56070,            0.,NA,NA,"",   362.264E-03,   331.674E-03,   145.696E-03,   32.5047E-09
C:/temp/dataset/4/11_35.odb,Step-1,Increment      1: Step Time =    1.000,"PART-1-1",           357,      -2.95938,      -1.35275,            0.,NA,NA,"",   377.138E-03,   345.512E-03,   151.176E-03,   31.7017E-09
C:/temp/dataset/4/11_35.odb,Step-1,Increment      1: Step Time =    1.000,"PART-1-1",           358,      -4.32205,      -1.75903,            0.,NA,NA,"",   379.561E-03,   340.958E-03,   166.777E-03,   11.8724E-09
C:/temp/dataset/4/11_35.odb,Step-1,Increment      1: Step Time =    1.000,"PART-1-1",           359,       8.60967,      -7.25473,            0.,NA,NA,"",   277.960E-03,   277.286E-03,   19.3550E-03,   28.6809E-06
C:/temp/dataset/4/11_35.odb,Step-1,Increment      1: Step Time =    1.000,"PART-1-1",           360,       7.51358,      -6.44375,            0.,NA,NA,"",   288.382E-03,   286.623E-03,   31.8084E-03,   14.5980E-06
C:/temp/dataset/4/11_35.odb,Step-1,Increment      1: Step Time =    1.000,"PART-1-1",           361,       6.75300,      -7.77251,            0.,NA,NA,"",   274.475E-03,   271.459E-03,   40.5777E-03,   29.9952E-06
C:/temp/dataset/4/11_35.odb,Step-1,Increment      1: Step Time =    1.000,"PART-1-1",           362,       7.84909,      -8.58350,            0.,NA,NA,"",   263.620E-03,   262.114E-03,   28.1380E-03,   39.9303E-06
C:/temp/dataset/4/11_35.odb,Step-1,Increment      1: Step Time =    1.000,"PART-1-1",           363,       7.07130,      -14.2100,            0.,NA,NA,"",   201.533E-03,   198.025E-03,   37.4400E-03,   135.770E-06
C:/temp/dataset/4/11_35.odb,Step-1,Increment      1: Step Time =    1.000,"PART-1-1",           364,       6.02882,      -13.2279,            0.,NA,NA,"",   214.815E-03,   209.167E-03,   48.9342E-03,   171.537E-06
C:/temp/dataset/4/11_35.odb,Step-1,Increment      1: Step Time =    1.000,"PART-1-1",           365,            5.,       -14.375,            0.,NA,NA,"",   205.503E-03,   196.505E-03,   60.1412E-03,   397.615E-06
C:/temp/dataset/4/11_35.odb,Step-1,Increment      1: Step Time =    1.000,"PART-1-1",           366,       6.04247,      -15.3570,            0.,NA,NA,"",   191.819E-03,   185.567E-03,   48.5709E-03,   336.236E-06
C:/temp/dataset/4/11_35.odb,Step-1,Increment      1: Step Time =    1.000,"PART-1-1",           367,       7.02995,      -12.0379,            0.,NA,NA,"",   225.787E-03,   222.617E-03,   37.7018E-03,   121.493E-06
C:/temp/dataset/4/11_35.odb,Step-1,Increment      1: Step Time =    1.000,"PART-1-1",           368,       6.00113,      -11.1016,            0.,NA,NA,"",   238.531E-03,   233.387E-03,   49.2732E-03,   87.0104E-06
C:/temp/dataset/4/11_35.odb,Step-1,Increment      1: Step Time =    1.000,"PART-1-1",           369,            5.,      -12.2917,            0.,NA,NA,"",   228.107E-03,   219.919E-03,   60.5652E-03,   206.984E-06
C:/temp/dataset/4/11_35.odb,Step-1,Increment      1: Step Time =    1.000,"PART-1-1",           370,            5.,      -22.7083,            0.,NA,NA,"",   115.007E-03,   101.448E-03,   54.1756E-03,   4.40325E-03
C:/temp/dataset/4/11_35.odb,Step-1,Increment      1: Step Time =    1.000,"PART-1-1",           371,       6.05922,      -23.7899,            0.,NA,NA,"",   85.6626E-03,   78.3083E-03,   34.7260E-03,   5.29797E-03
C:/temp/dataset/4/11_35.odb,Step-1,Increment      1: Step Time =    1.000,"PART-1-1",           372,       7.11013,      -22.7834,            0.,NA,NA,"",   95.7271E-03,   92.0729E-03,   26.1964E-03,   5.68862E-03
C:/temp/dataset/4/11_35.odb,Step-1,Increment      1: Step Time =    1.000,"PART-1-1",           373,       6.05091,      -21.7018,            0.,NA,NA,"",   120.593E-03,   113.140E-03,   41.7364E-03,   4.31430E-03
C:/temp/dataset/4/11_35.odb,Step-1,Increment      1: Step Time =    1.000,"PART-1-1",           374,          8.75,          -30.,            0.,NA,NA,"",            0.,   2.36884E-39,   3.57610E-39,   3.01709E-03
C:/temp/dataset/4/11_35.odb,Step-1,Increment      1: Step Time =    1.000,"PART-1-1",           375,       9.84988,      -28.9274,            0.,NA,NA,"",   6.06940E-03,   6.06929E-03,   35.7838E-06,   3.90576E-03
C:/temp/dataset/4/11_35.odb,Step-1,Increment      1: Step Time =    1.000,"PART-1-1",           376,       8.52411,      -27.9095,            0.,NA,NA,"",   15.9204E-03,   15.5014E-03,   3.62865E-03,   5.41299E-03
C:/temp/dataset/4/11_35.odb,Step-1,Increment      1: Step Time =    1.000,"PART-1-1",           377,       7.42422,      -28.9821,            0.,NA,NA,"",   6.92833E-03,   5.98096E-03,   3.49714E-03,   5.41122E-03
C:/temp/dataset/4/11_35.odb,Step-1,Increment      1: Step Time =    1.000,"PART-1-1",           378,       10.1104,      -23.9794,            0.,NA,NA,"",   67.3378E-03,   67.3299E-03,  -1.03124E-03,   5.27812E-03
C:/temp/dataset/4/11_35.odb,Step-1,Increment      1: Step Time =    1.000,"PART-1-1",           379,       11.1261,      -23.0268,            0.,NA,NA,"",   81.7531E-03,   81.2614E-03,  -8.95279E-03,   4.50383E-03
C:/temp/dataset/4/11_35.odb,Step-1,Increment      1: Step Time =    1.000,"PART-1-1",           380,       10.1523,      -21.9025,            0.,NA,NA,"",   99.0946E-03,   99.0936E-03,  -452.249E-06,   4.16644E-03
C:/temp/dataset/4/11_35.odb,Step-1,Increment      1: Step Time =    1.000,"PART-1-1",           381,       9.13660,      -22.8552,            0.,NA,NA,"",   86.3116E-03,   85.9940E-03,   7.39760E-03,   5.17894E-03
C:/temp/dataset/4/11_35.odb,Step-1,Increment      1: Step Time =    1.000,"PART-1-1",           382,       7.09296,      -18.5383,            0.,NA,NA,"",   155.970E-03,   151.828E-03,   35.7048E-03,   2.83937E-03
C:/temp/dataset/4/11_35.odb,Step-1,Increment      1: Step Time =    1.000,"PART-1-1",           383,       6.04465,      -17.4814,            0.,NA,NA,"",   171.914E-03,   164.896E-03,   48.6173E-03,   1.96806E-03
C:/temp/dataset/4/11_35.odb,Step-1,Increment      1: Step Time =    1.000,"PART-1-1",           384,            5.,      -18.5417,            0.,NA,NA,"",   168.170E-03,   157.779E-03,   58.1975E-03,   2.94188E-03
C:/temp/dataset/4/11_35.odb,Step-1,Increment      1: Step Time =    1.000,"PART-1-1",           385,       6.04831,      -19.5985,            0.,NA,NA,"",   149.503E-03,   142.377E-03,   45.6055E-03,   3.53539E-03
C:/temp/dataset/4/11_35.odb,Step-1,Increment      1: Step Time =    1.000,"PART-1-1",           386,       8.88188,       22.9635,            0.,NA,NA,"",   622.807E-03,   622.644E-03,   14.2479E-03,   175.598E-12
C:/temp/dataset/4/11_35.odb,Step-1,Increment      1: Step Time =    1.000,"PART-1-1",           387,       9.93448,       22.0483,            0.,NA,NA,"",   612.121E-03,   612.117E-03,   2.27786E-03,   237.157E-12
C:/temp/dataset/4/11_35.odb,Step-1,Increment      1: Step Time =    1.000,"PART-1-1",           388,       10.8087,       23.3359,            0.,NA,NA,"",   626.824E-03,   626.775E-03,  -7.79691E-03,   146.856E-12
C:/temp/dataset/4/11_35.odb,Step-1,Increment      1: Step Time =    1.000,"PART-1-1",           389,       9.75606,       24.2511,            0.,NA,NA,"",   637.317E-03,   637.303E-03,   4.17315E-03,   62.7742E-12
C:/temp/dataset/4/11_35.odb,Step-1,Increment      1: Step Time =    1.000,"PART-1-1",           390,       10.0218,       17.5512,            0.,NA,NA,"",   560.717E-03,   560.715E-03,   1.57370E-03,   1.64926E-09
C:/temp/dataset/4/11_35.odb,Step-1,Increment      1: Step Time =    1.000,"PART-1-1",           391,       9.00837,       16.4411,            0.,NA,NA,"",   548.254E-03,   548.094E-03,   13.2282E-03,   2.39692E-09
C:/temp/dataset/4/11_35.odb,Step-1,Increment      1: Step Time =    1.000,"PART-1-1",           392,       10.0249,       15.2736,            0.,NA,NA,"",   534.688E-03,   534.686E-03,   1.68742E-03,   2.90566E-09
C:/temp/dataset/4/11_35.odb,Step-1,Increment      1: Step Time =    1.000,"PART-1-1",           393,       11.0383,       16.3837,            0.,NA,NA,"",   547.397E-03,   547.307E-03,  -9.96713E-03,   2.38202E-09
C:/temp/dataset/4/11_35.odb,Step-1,Increment      1: Step Time =    1.000,"PART-1-1",           394,      -14.0638,       5.89996,            0.,NA,NA,"",   511.108E-03,   429.135E-03,   277.623E-03,   420.778E-12
C:/temp/dataset/4/11_35.odb,Step-1,Increment      1: Step Time =    1.000,"PART-1-1",           395,      -13.1194,       6.91794,            0.,NA,NA,"",   515.156E-03,   440.708E-03,   266.762E-03,   405.849E-12
C:/temp/dataset/4/11_35.odb,Step-1,Increment      1: Step Time =    1.000,"PART-1-1",           396,      -14.0556,       8.04923,            0.,NA,NA,"",   531.778E-03,   453.700E-03,   277.388E-03,   154.938E-12
C:/temp/dataset/4/11_35.odb,Step-1,Increment      1: Step Time =    1.000,"PART-1-1",           397,          -15.,       7.03125,            0.,NA,NA,"",   527.791E-03,   442.126E-03,   288.249E-03,   258.399E-12
C:/temp/dataset/4/11_35.odb,Step-1,Increment      1: Step Time =    1.000,"PART-1-1",           398,      -14.0181,       12.3521,            0.,NA,NA,"",   573.966E-03,   502.878E-03,   276.679E-03,   16.0776E-12
C:/temp/dataset/4/11_35.odb,Step-1,Increment      1: Step Time =    1.000,"PART-1-1",           399,      -13.0189,       13.2775,            0.,NA,NA,"",   577.840E-03,   513.390E-03,   265.198E-03,   8.50548E-12
C:/temp/dataset/4/11_35.odb,Step-1,Increment      1: Step Time =    1.000,"PART-1-1",           400,      -14.0008,       14.5192,            0.,NA,NA,"",   595.629E-03,   527.646E-03,   276.340E-03,   11.4994E-12
C:/temp/dataset/4/11_35.odb,Step-1,Increment      1: Step Time =    1.000,"PART-1-1",           401,          -15.,       13.5938,            0.,NA,NA,"",   591.835E-03,   517.134E-03,   287.821E-03,   24.1528E-12
C:/temp/dataset/4/11_35.odb,Step-1,Increment      1: Step Time =    1.000,"PART-1-1",           402,      -10.1942,       21.9572,            0.,NA,NA,"",   655.006E-03,   612.413E-03,   232.345E-03,   5.21921E-12
C:/temp/dataset/4/11_35.odb,Step-1,Increment      1: Step Time =    1.000,"PART-1-1",           403,      -9.14995,       21.4132,            0.,NA,NA,"",   644.969E-03,   606.126E-03,   220.445E-03,   5.18574E-12
C:/temp/dataset/4/11_35.odb,Step-1,Increment      1: Step Time =    1.000,"PART-1-1",           404,      -8.60578,       22.3365,            0.,NA,NA,"",   652.775E-03,   616.643E-03,   214.165E-03,   5.13175E-12
C:/temp/dataset/4/11_35.odb,Step-1,Increment      1: Step Time =    1.000,"PART-1-1",           405,      -9.65000,       22.8805,            0.,NA,NA,"",   662.682E-03,   622.930E-03,   226.065E-03,   5.18420E-12
C:/temp/dataset/4/11_35.odb,Step-1,Increment      1: Step Time =    1.000,"PART-1-1",           406,      -14.0213,       25.7108,            0.,NA,NA,"",   711.234E-03,   655.564E-03,   275.843E-03,   5.60642E-12
C:/temp/dataset/4/11_35.odb,Step-1,Increment      1: Step Time =    1.000,"PART-1-1",           407,      -12.8802,       26.8172,            0.,NA,NA,"",   717.936E-03,   668.137E-03,   262.728E-03,   5.52270E-12
C:/temp/dataset/4/11_35.odb,Step-1,Increment      1: Step Time =    1.000,"PART-1-1",           408,      -13.8589,       27.8252,            0.,NA,NA,"",   732.813E-03,   679.722E-03,   273.849E-03,   5.61379E-12
C:/temp/dataset/4/11_35.odb,Step-1,Increment      1: Step Time =    1.000,"PART-1-1",           409,          -15.,       26.7188,            0.,NA,NA,"",   726.248E-03,   667.150E-03,   286.963E-03,   5.68548E-12
C:/temp/dataset/4/11_35.odb,Step-1,Increment      1: Step Time =    1.000,"PART-1-1",           410,        -13.75,           30.,            0.,NA,NA,"",   755.418E-03,   704.572E-03,   272.462E-03,   5.58997E-12
C:/temp/dataset/4/11_35.odb,Step-1,Increment      1: Step Time =    1.000,"PART-1-1",           411,          -15.,       28.9063,            0.,NA,NA,"",   749.227E-03,   692.152E-03,   286.821E-03,   5.72262E-12
C:/temp/dataset/4/11_35.odb,Step-1,Increment      1: Step Time =    1.000,"PART-1-1",           412,      -12.6089,       28.9190,            0.,NA,NA,"",   739.185E-03,   692.141E-03,   259.490E-03,   5.49837E-12
C:/temp/dataset/4/11_35.odb,Step-1,Increment      1: Step Time =    1.000,"PART-1-1",           413,      -11.4362,       27.6040,            0.,NA,NA,"",   720.400E-03,   677.035E-03,   246.172E-03,   5.48746E-12
C:/temp/dataset/4/11_35.odb,Step-1,Increment      1: Step Time =    1.000,"PART-1-1",           414,      -10.0773,       28.6850,            0.,NA,NA,"",   726.842E-03,   689.302E-03,   230.569E-03,   5.46284E-12
C:/temp/dataset/4/11_35.odb,Step-1,Increment      1: Step Time =    1.000,"PART-1-1",           415,        -11.25,           30.,            0.,NA,NA,"",   745.434E-03,   704.409E-03,   243.887E-03,   5.47743E-12
C:/temp/dataset/4/11_35.odb,Step-1,Increment      1: Step Time =    1.000,"PART-1-1",           416,      -13.7240,       21.2404,            0.,NA,NA,"",   663.132E-03,   604.449E-03,   272.737E-03,   5.23079E-12
C:/temp/dataset/4/11_35.odb,Step-1,Increment      1: Step Time =    1.000,"PART-1-1",           417,      -12.6979,       22.4429,            0.,NA,NA,"",   670.945E-03,   618.128E-03,   260.930E-03,   5.25567E-12
C:/temp/dataset/4/11_35.odb,Step-1,Increment      1: Step Time =    1.000,"PART-1-1",           418,      -13.9739,       23.5463,            0.,NA,NA,"",   688.336E-03,   630.823E-03,   275.442E-03,   5.51693E-12
C:/temp/dataset/4/11_35.odb,Step-1,Increment      1: Step Time =    1.000,"PART-1-1",           419,          -15.,       22.3438,            0.,NA,NA,"",   680.720E-03,   617.144E-03,   287.249E-03,   5.49095E-12
C:/temp/dataset/4/11_35.odb,Step-1,Increment      1: Step Time =    1.000,"PART-1-1",           420,      -11.9375,       16.3352,            0.,NA,NA,"",   603.675E-03,   548.268E-03,   252.637E-03,   10.1136E-12
C:/temp/dataset/4/11_35.odb,Step-1,Increment      1: Step Time =    1.000,"PART-1-1",           421,      -10.8584,       17.1847,            0.,NA,NA,"",   607.437E-03,   557.907E-03,   240.248E-03,   10.1028E-12
C:/temp/dataset/4/11_35.odb,Step-1,Increment      1: Step Time =    1.000,"PART-1-1",           422,      -11.8099,       18.4796,            0.,NA,NA,"",   625.368E-03,   572.770E-03,   251.039E-03,   6.75743E-12
C:/temp/dataset/4/11_35.odb,Step-1,Increment      1: Step Time =    1.000,"PART-1-1",           423,      -12.8889,       17.6301,            0.,NA,NA,"",   621.700E-03,   563.131E-03,   263.428E-03,   7.67326E-12
C:/temp/dataset/4/11_35.odb,Step-1,Increment      1: Step Time =    1.000,"PART-1-1",           424,      -9.98079,       13.8692,            0.,NA,NA,"",   568.729E-03,   519.955E-03,   230.434E-03,   14.9882E-12
C:/temp/dataset/4/11_35.odb,Step-1,Increment      1: Step Time =    1.000,"PART-1-1",           425,      -11.0142,       12.9724,            0.,NA,NA,"",   564.427E-03,   509.771E-03,   242.304E-03,   20.7089E-12
C:/temp/dataset/4/11_35.odb,Step-1,Increment      1: Step Time =    1.000,"PART-1-1",           426,      -10.0204,       11.7735,            0.,NA,NA,"",   547.167E-03,   496.004E-03,   231.024E-03,   34.1627E-12
C:/temp/dataset/4/11_35.odb,Step-1,Increment      1: Step Time =    1.000,"PART-1-1",           427,      -6.95613,       14.5250,            0.,NA,NA,"",   562.441E-03,   527.252E-03,   195.820E-03,   13.1510E-12
C:/temp/dataset/4/11_35.odb,Step-1,Increment      1: Step Time =    1.000,"PART-1-1",           428,      -5.98929,       13.4097,            0.,NA,NA,"",   546.641E-03,   514.441E-03,   184.842E-03,   19.4118E-12
C:/temp/dataset/4/11_35.odb,Step-1,Increment      1: Step Time =    1.000,"PART-1-1",           429,           -5.,        14.375,            0.,NA,NA,"",   553.307E-03,   525.410E-03,   173.472E-03,   26.3893E-12
C:/temp/dataset/4/11_35.odb,Step-1,Increment      1: Step Time =    1.000,"PART-1-1",           430,      -5.96684,       15.4903,            0.,NA,NA,"",   568.950E-03,   538.221E-03,   184.450E-03,   9.98675E-12
C:/temp/dataset/4/11_35.odb,Step-1,Increment      1: Step Time =    1.000,"PART-1-1",           431,      -11.0581,       10.8707,            0.,NA,NA,"",   543.118E-03,   485.753E-03,   242.943E-03,   90.4854E-12
C:/temp/dataset/4/11_35.odb,Step-1,Increment      1: Step Time =    1.000,"PART-1-1",           432,      -10.0579,       9.67932,            0.,NA,NA,"",   525.817E-03,   472.070E-03,   231.590E-03,   166.025E-12
C:/temp/dataset/4/11_35.odb,Step-1,Increment      1: Step Time =    1.000,"PART-1-1",           433,      -9.02030,       10.5821,            0.,NA,NA,"",   529.989E-03,   482.321E-03,   219.671E-03,   115.388E-12
C:/temp/dataset/4/11_35.odb,Step-1,Increment      1: Step Time =    1.000,"PART-1-1",           434,      -7.04064,       8.20966,            0.,NA,NA,"",   495.964E-03,   455.075E-03,   197.199E-03,   640.030E-12
C:/temp/dataset/4/11_35.odb,Step-1,Increment      1: Step Time =    1.000,"PART-1-1",           435,      -6.03068,       7.10065,            0.,NA,NA,"",   479.743E-03,   442.333E-03,   185.728E-03,   693.768E-12
C:/temp/dataset/4/11_35.odb,Step-1,Increment      1: Step Time =    1.000,"PART-1-1",           436,           -5.,         8.125,            0.,NA,NA,"",   486.135E-03,   453.974E-03,   173.880E-03,   339.629E-12
C:/temp/dataset/4/11_35.odb,Step-1,Increment      1: Step Time =    1.000,"PART-1-1",           437,      -6.00996,       9.23401,            0.,NA,NA,"",   502.174E-03,   466.716E-03,   185.351E-03,   113.484E-12
C:/temp/dataset/4/11_35.odb,Step-1,Increment      1: Step Time =    1.000,"PART-1-1",           438,      -13.0926,       9.02789,            0.,NA,NA,"",   535.710E-03,   464.823E-03,   266.318E-03,   169.780E-12
C:/temp/dataset/4/11_35.odb,Step-1,Increment      1: Step Time =    1.000,"PART-1-1",           439,      -14.0370,       10.1974,            0.,NA,NA,"",   552.697E-03,   478.252E-03,   277.036E-03,   37.2910E-12
C:/temp/dataset/4/11_35.odb,Step-1,Increment      1: Step Time =    1.000,"PART-1-1",           440,          -15.,       9.21875,            0.,NA,NA,"",   548.830E-03,   467.129E-03,   288.107E-03,   38.3994E-12
C:/temp/dataset/4/11_35.odb,Step-1,Increment      1: Step Time =    1.000,"PART-1-1",           441,      -13.9055,       1.56280,            0.,NA,NA,"",   469.349E-03,   379.551E-03,   276.096E-03,   985.398E-12
C:/temp/dataset/4/11_35.odb,Step-1,Increment      1: Step Time =    1.000,"PART-1-1",           442,      -12.9296,       2.64306,            0.,NA,NA,"",   472.961E-03,   391.835E-03,   264.872E-03,   733.159E-12
C:/temp/dataset/4/11_35.odb,Step-1,Increment      1: Step Time =    1.000,"PART-1-1",           443,      -14.0241,       3.73651,            0.,NA,NA,"",   490.351E-03,   404.404E-03,   277.311E-03,   777.541E-12
C:/temp/dataset/4/11_35.odb,Step-1,Increment      1: Step Time =    1.000,"PART-1-1",           444,          -15.,       2.65625,            0.,NA,NA,"",   486.838E-03,   392.121E-03,   288.535E-03,   1.11028E-09
C:/temp/dataset/4/11_35.odb,Step-1,Increment      1: Step Time =    1.000,"PART-1-1",           445,      -13.7570,      -2.81804,            0.,NA,NA,"",   428.955E-03,   329.470E-03,   274.685E-03,   623.766E-12
C:/temp/dataset/4/11_35.odb,Step-1,Increment      1: Step Time =    1.000,"PART-1-1",           446,      -13.7756,  -623.683E-03,            0.,NA,NA,"",   448.550E-03,   354.552E-03,   274.755E-03,   921.443E-12
C:/temp/dataset/4/11_35.odb,Step-1,Increment      1: Step Time =    1.000,"PART-1-1",           447,          -15.,      -1.71875,            0.,NA,NA,"",   447.728E-03,   342.116E-03,   288.821E-03,   653.621E-12
C:/temp/dataset/4/11_35.odb,Step-1,Increment      1: Step Time =    1.000,"PART-1-1",           448,        -13.75,           -5.,            0.,NA,NA,"",   410.152E-03,   304.530E-03,   274.748E-03,   163.595E-12
C:/temp/dataset/4/11_35.odb,Step-1,Increment      1: Step Time =    1.000,"PART-1-1",           449,      -12.5070,      -3.91179,            0.,NA,NA,"",   410.197E-03,   316.887E-03,   260.469E-03,   645.968E-12
C:/temp/dataset/4/11_35.odb,Step-1,Increment      1: Step Time =    1.000,"PART-1-1",           450,          -15.,      -3.90625,            0.,NA,NA,"",   429.023E-03,   317.113E-03,   288.964E-03,   119.288E-12
C:/temp/dataset/4/11_35.odb,Step-1,Increment      1: Step Time =    1.000,"PART-1-1",           451,          -15.,    468.75E-03,            0.,NA,NA,"",   467.023E-03,   367.118E-03,   288.678E-03,   1.14978E-09
C:/temp/dataset/4/11_35.odb,Step-1,Increment      1: Step Time =    1.000,"PART-1-1",           452,      -5.10506,       2.56414,            0.,NA,NA,"",   428.030E-03,   390.422E-03,   175.444E-03,   3.89631E-09
C:/temp/dataset/4/11_35.odb,Step-1,Increment      1: Step Time =    1.000,"PART-1-1",           453,      -4.59209,       3.94539,            0.,NA,NA,"",   440.120E-03,   406.176E-03,   169.491E-03,   3.18028E-09
C:/temp/dataset/4/11_35.odb,Step-1,Increment      1: Step Time =    1.000,"PART-1-1",           454,      -6.09775,       4.77703,            0.,NA,NA,"",   455.751E-03,   415.779E-03,   186.646E-03,   3.58107E-09
C:/temp/dataset/4/11_35.odb,Step-1,Increment      1: Step Time =    1.000,"PART-1-1",           455,      -6.61072,       3.39578,            0.,NA,NA,"",   443.976E-03,   400.025E-03,   192.599E-03,   2.49379E-09
C:/temp/dataset/4/11_35.odb,Step-1,Increment      1: Step Time =    1.000,"PART-1-1",           456,       9.44090,      -5.60228,            0.,NA,NA,"",   296.297E-03,   296.138E-03,   9.73403E-03,   11.0891E-06
C:/temp/dataset/4/11_35.odb,Step-1,Increment      1: Step Time =    1.000,"PART-1-1",           457,       9.79564,      -4.46986,            0.,NA,NA,"",   309.111E-03,   309.060E-03,   5.59984E-03,   6.72050E-06
C:/temp/dataset/4/11_35.odb,Step-1,Increment      1: Step Time =    1.000,"PART-1-1",           458,       8.43936,      -4.09444,            0.,NA,NA,"",   314.141E-03,   313.433E-03,   21.0725E-03,   4.44506E-06
C:/temp/dataset/4/11_35.odb,Step-1,Increment      1: Step Time =    1.000,"PART-1-1",           459,       8.08462,      -5.22686,            0.,NA,NA,"",   301.562E-03,   300.507E-03,   25.2027E-03,   10.0684E-06
C:/temp/dataset/4/11_35.odb,Step-1,Increment      1: Step Time =    1.000,"PART-1-1",           460,       6.93926,      -9.88629,            0.,NA,NA,"",   250.229E-03,   247.236E-03,   38.5880E-03,   72.5125E-06
C:/temp/dataset/4/11_35.odb,Step-1,Increment      1: Step Time =    1.000,"PART-1-1",           461,       5.93813,      -8.99303,            0.,NA,NA,"",   262.334E-03,   257.537E-03,   49.9393E-03,   34.9925E-06
C:/temp/dataset/4/11_35.odb,Step-1,Increment      1: Step Time =    1.000,"PART-1-1",           462,            5.,      -10.2083,            0.,NA,NA,"",   251.144E-03,   243.704E-03,   60.6793E-03,   78.8750E-06
C:/temp/dataset/4/11_35.odb,Step-1,Increment      1: Step Time =    1.000,"PART-1-1",           463,       12.9852,      -11.3613,            0.,NA,NA,"",   232.232E-03,   230.231E-03,  -30.4213E-03,   89.0651E-06
C:/temp/dataset/4/11_35.odb,Step-1,Increment      1: Step Time =    1.000,"PART-1-1",           464,       14.0059,      -12.5461,            0.,NA,NA,"",   220.652E-03,   216.578E-03,  -42.2083E-03,   117.286E-06
C:/temp/dataset/4/11_35.odb,Step-1,Increment      1: Step Time =    1.000,"PART-1-1",           465,           15.,        -11.25,            0.,NA,NA,"",   237.450E-03,   231.318E-03,  -53.6148E-03,   114.213E-06
C:/temp/dataset/4/11_35.odb,Step-1,Increment      1: Step Time =    1.000,"PART-1-1",           466,       13.9793,      -10.0652,            0.,NA,NA,"",   248.511E-03,   244.950E-03,  -41.9161E-03,   51.7602E-06
C:/temp/dataset/4/11_35.odb,Step-1,Increment      1: Step Time =    1.000,"PART-1-1",           467,       7.08713,      -16.3801,            0.,NA,NA,"",   178.653E-03,   174.696E-03,   37.3908E-03,   859.036E-06
C:/temp/dataset/4/11_35.odb,Step-1,Increment      1: Step Time =    1.000,"PART-1-1",           468,            5.,      -16.4583,            0.,NA,NA,"",   184.024E-03,   174.341E-03,   58.9063E-03,   590.687E-06
C:/temp/dataset/4/11_35.odb,Step-1,Increment      1: Step Time =    1.000,"PART-1-1",           469,       13.0372,      -13.8111,            0.,NA,NA,"",   204.440E-03,   202.090E-03,  -30.9112E-03,   76.5211E-06
C:/temp/dataset/4/11_35.odb,Step-1,Increment      1: Step Time =    1.000,"PART-1-1",           470,       14.0313,      -15.0151,            0.,NA,NA,"",   192.670E-03,   187.897E-03,  -42.6175E-03,   174.276E-06
C:/temp/dataset/4/11_35.odb,Step-1,Increment      1: Step Time =    1.000,"PART-1-1",           471,           15.,        -13.75,            0.,NA,NA,"",   209.574E-03,   202.539E-03,  -53.8421E-03,   237.658E-06
C:/temp/dataset/4/11_35.odb,Step-1,Increment      1: Step Time =    1.000,"PART-1-1",           472,       13.0981,      -18.6529,            0.,NA,NA,"",   146.384E-03,   143.016E-03,  -31.2204E-03,   996.978E-06
C:/temp/dataset/4/11_35.odb,Step-1,Increment      1: Step Time =    1.000,"PART-1-1",           473,       14.0553,      -19.9280,            0.,NA,NA,"",   132.858E-03,   126.006E-03,  -42.1150E-03,   934.029E-06
C:/temp/dataset/4/11_35.odb,Step-1,Increment      1: Step Time =    1.000,"PART-1-1",           474,           15.,        -18.75,            0.,NA,NA,"",   151.854E-03,   141.683E-03,  -54.6409E-03,   154.925E-06
C:/temp/dataset/4/11_35.odb,Step-1,Increment      1: Step Time =    1.000,"PART-1-1",           475,       14.0427,      -17.4749,            0.,NA,NA,"",   163.728E-03,   158.037E-03,  -42.7945E-03,   237.594E-06
C:/temp/dataset/4/11_35.odb,Step-1,Increment      1: Step Time =    1.000,"PART-1-1",           476,       6.17422,      -27.9405,            0.,NA,NA,"",   22.8910E-03,   18.5967E-03,   13.3478E-03,   7.98174E-03
C:/temp/dataset/4/11_35.odb,Step-1,Increment      1: Step Time =    1.000,"PART-1-1",           477,            5.,      -28.9583,            0.,NA,NA,"",   17.7514E-03,   12.7609E-03,   12.3398E-03,   12.5348E-03
C:/temp/dataset/4/11_35.odb,Step-1,Increment      1: Step Time =    1.000,"PART-1-1",           478,          6.25,          -30.,            0.,NA,NA,"",            0.,   932.074E-42,   13.0655E-39,   9.59080E-03
C:/temp/dataset/4/11_35.odb,Step-1,Increment      1: Step Time =    1.000,"PART-1-1",           479,       9.46325,      -26.8820,            0.,NA,NA,"",   26.7146E-03,   26.6604E-03,   1.70211E-03,   5.64547E-03
C:/temp/dataset/4/11_35.odb,Step-1,Increment      1: Step Time =    1.000,"PART-1-1",           480,       8.20536,      -25.9154,            0.,NA,NA,"",   41.4262E-03,   40.3769E-03,   9.26479E-03,   5.71698E-03
C:/temp/dataset/4/11_35.odb,Step-1,Increment      1: Step Time =    1.000,"PART-1-1",           481,       7.26622,      -26.9429,            0.,NA,NA,"",   30.5139E-03,   28.0544E-03,   12.0020E-03,   6.06249E-03
C:/temp/dataset/4/11_35.odb,Step-1,Increment      1: Step Time =    1.000,"PART-1-1",           482,       13.6319,      -27.3465,            0.,NA,NA,"",   28.9579E-03,   24.5353E-03,  -15.3812E-03,   6.91657E-03
C:/temp/dataset/4/11_35.odb,Step-1,Increment      1: Step Time =    1.000,"PART-1-1",           483,       12.3819,      -28.5965,            0.,NA,NA,"",   10.2364E-03,   9.25400E-03,  -4.37579E-03,   5.47507E-03
C:/temp/dataset/4/11_35.odb,Step-1,Increment      1: Step Time =    1.000,"PART-1-1",           484,         13.75,          -30.,            0.,NA,NA,"",            0.,   612.969E-42,  -12.7477E-39,   9.48908E-03
C:/temp/dataset/4/11_35.odb,Step-1,Increment      1: Step Time =    1.000,"PART-1-1",           485,           15.,        -28.75,            0.,NA,NA,"",   20.5785E-03,   14.9766E-03,  -14.1130E-03,   11.4907E-03
C:/temp/dataset/4/11_35.odb,Step-1,Increment      1: Step Time =    1.000,"PART-1-1",           486,         11.25,          -30.,            0.,NA,NA,"",            0.,   2.55678E-39,  -3.90940E-39,   3.24208E-03
C:/temp/dataset/4/11_35.odb,Step-1,Increment      1: Step Time =    1.000,"PART-1-1",           487,       10.9817,      -27.5238,            0.,NA,NA,"",   19.4791E-03,   19.2093E-03,  -3.23064E-03,   5.49895E-03
C:/temp/dataset/4/11_35.odb,Step-1,Increment      1: Step Time =    1.000,"PART-1-1",           488,       10.1507,      -19.6985,            0.,NA,NA,"",   130.920E-03,   130.915E-03,   1.15171E-03,   2.52629E-03
C:/temp/dataset/4/11_35.odb,Step-1,Increment      1: Step Time =    1.000,"PART-1-1",           489,       9.14094,      -20.7396,            0.,NA,NA,"",   118.536E-03,   118.087E-03,   10.3067E-03,   3.78056E-03
C:/temp/dataset/4/11_35.odb,Step-1,Increment      1: Step Time =    1.000,"PART-1-1",           490,       11.1621,      -20.8614,            0.,NA,NA,"",   113.822E-03,   113.411E-03,  -9.65806E-03,   3.05678E-03
C:/temp/dataset/4/11_35.odb,Step-1,Increment      1: Step Time =    1.000,"PART-1-1",           491,       7.09922,      -20.6753,            0.,NA,NA,"",   128.578E-03,   124.615E-03,   31.6773E-03,   4.28421E-03
C:/temp/dataset/4/11_35.odb,Step-1,Increment      1: Step Time =    1.000,"PART-1-1",           492,            5.,       -20.625,            0.,NA,NA,"",   144.036E-03,   132.091E-03,   57.4320E-03,   3.37633E-03
C:/temp/dataset/4/11_35.odb,Step-1,Increment      1: Step Time =    1.000,"PART-1-1",           493,       9.08758,      -14.0519,            0.,NA,NA,"",   200.217E-03,   199.669E-03,   14.7948E-03,   139.745E-06
C:/temp/dataset/4/11_35.odb,Step-1,Increment      1: Step Time =    1.000,"PART-1-1",           494,       10.1099,      -15.1447,            0.,NA,NA,"",   187.072E-03,   187.044E-03,   3.21313E-03,   204.840E-06
C:/temp/dataset/4/11_35.odb,Step-1,Increment      1: Step Time =    1.000,"PART-1-1",           495,       11.0794,      -13.9187,            0.,NA,NA,"",   201.181E-03,   201.019E-03,  -8.09478E-03,   99.0510E-06
C:/temp/dataset/4/11_35.odb,Step-1,Increment      1: Step Time =    1.000,"PART-1-1",           496,       10.0571,      -12.8260,            0.,NA,NA,"",   213.619E-03,   213.590E-03,   3.52117E-03,   124.643E-06
C:/temp/dataset/4/11_35.odb,Step-1,Increment      1: Step Time =    1.000,"PART-1-1",           497,       9.02765,      -11.7712,            0.,NA,NA,"",   226.134E-03,   225.630E-03,   15.0974E-03,   114.894E-06
C:/temp/dataset/4/11_35.odb,Step-1,Increment      1: Step Time =    1.000,"PART-1-1",           498,       11.0123,      -11.5393,            0.,NA,NA,"",   228.398E-03,   228.270E-03,  -7.64389E-03,   98.8857E-06
C:/temp/dataset/4/11_35.odb,Step-1,Increment      1: Step Time =    1.000,"PART-1-1",           499,       9.98284,      -10.4845,            0.,NA,NA,"",   240.356E-03,   240.322E-03,   4.01476E-03,   81.5539E-06
C:/temp/dataset/4/11_35.odb,Step-1,Increment      1: Step Time =    1.000,"PART-1-1",           500,       12.6190,       1.44886,            0.,NA,NA,"",   377.488E-03,   376.517E-03,  -27.0568E-03,   398.929E-09
C:/temp/dataset/4/11_35.odb,Step-1,Increment      1: Step Time =    1.000,"PART-1-1",           501,       13.8500,   84.2405E-03,            0.,NA,NA,"",   363.168E-03,   360.842E-03,  -41.0355E-03,   643.108E-09
C:/temp/dataset/4/11_35.odb,Step-1,Increment      1: Step Time =    1.000,"PART-1-1",           502,           15.,          1.25,            0.,NA,NA,"",   378.003E-03,   374.090E-03,  -54.2540E-03,   805.072E-09
C:/temp/dataset/4/11_35.odb,Step-1,Increment      1: Step Time =    1.000,"PART-1-1",           503,       10.0180,      -2.29938,            0.,NA,NA,"",   333.864E-03,   333.851E-03,   2.91169E-03,   1.45258E-06
C:/temp/dataset/4/11_35.odb,Step-1,Increment      1: Step Time =    1.000,"PART-1-1",           504,       9.13986,      -3.07696,            0.,NA,NA,"",   325.280E-03,   325.020E-03,   12.9994E-03,   3.08809E-06
C:/temp/dataset/4/11_35.odb,Step-1,Increment      1: Step Time =    1.000,"PART-1-1",           505,       10.6738,      -3.69229,            0.,NA,NA,"",   317.924E-03,   317.893E-03,  -4.48998E-03,   4.98754E-06
C:/temp/dataset/4/11_35.odb,Step-1,Increment      1: Step Time =    1.000,"PART-1-1",           506,       12.7589,       6.54544,            0.,NA,NA,"",   435.721E-03,   434.755E-03,  -28.9888E-03,   151.317E-09
C:/temp/dataset/4/11_35.odb,Step-1,Increment      1: Step Time =    1.000,"PART-1-1",           507,           15.,          6.25,            0.,NA,NA,"",   434.673E-03,   431.233E-03,  -54.5823E-03,   107.873E-09
C:/temp/dataset/4/11_35.odb,Step-1,Increment      1: Step Time =    1.000,"PART-1-1",           508,       13.9203,       7.65480,            0.,NA,NA,"",   449.357E-03,   447.358E-03,  -42.3341E-03,   46.2356E-09
C:/temp/dataset/4/11_35.odb,Step-1,Increment      1: Step Time =    1.000,"PART-1-1",           509,       13.0275,       16.3263,            0.,NA,NA,"",   547.497E-03,   546.520E-03,  -32.6969E-03,   2.25246E-09
C:/temp/dataset/4/11_35.odb,Step-1,Increment      1: Step Time =    1.000,"PART-1-1",           510,       14.0150,       15.0581,            0.,NA,NA,"",   533.770E-03,   531.961E-03,  -43.9009E-03,   2.97880E-09
C:/temp/dataset/4/11_35.odb,Step-1,Increment      1: Step Time =    1.000,"PART-1-1",           511,           15.,         16.25,            0.,NA,NA,"",   548.308E-03,   545.519E-03,  -55.2354E-03,   2.83616E-09
C:/temp/dataset/4/11_35.odb,Step-1,Increment      1: Step Time =    1.000,"PART-1-1",           512,       14.0124,       17.5182,            0.,NA,NA,"",   561.806E-03,   560.078E-03,  -44.0314E-03,   1.21426E-09
C:/temp/dataset/4/11_35.odb,Step-1,Increment      1: Step Time =    1.000,"PART-1-1",           513,       13.0175,       18.7421,            0.,NA,NA,"",   575.062E-03,   574.130E-03,  -32.7407E-03,   1.07429E-09
C:/temp/dataset/4/11_35.odb,Step-1,Increment      1: Step Time =    1.000,"PART-1-1",           514,           15.,         18.75,            0.,NA,NA,"",   576.758E-03,   574.091E-03,  -55.3987E-03,   878.950E-12
C:/temp/dataset/4/11_35.odb,Step-1,Increment      1: Step Time =    1.000,"PART-1-1",           515,       14.0051,       19.9738,            0.,NA,NA,"",   589.794E-03,   588.142E-03,  -44.1080E-03,   367.714E-12
C:/temp/dataset/4/11_35.odb,Step-1,Increment      1: Step Time =    1.000,"PART-1-1",           516,       5.97628,       21.7197,            0.,NA,NA,"",   610.473E-03,   608.620E-03,   47.5362E-03,   130.034E-12
C:/temp/dataset/4/11_35.odb,Step-1,Increment      1: Step Time =    1.000,"PART-1-1",           517,       6.92463,       22.7965,            0.,NA,NA,"",   621.944E-03,   620.864E-03,   36.6275E-03,   141.682E-12
C:/temp/dataset/4/11_35.odb,Step-1,Increment      1: Step Time =    1.000,"PART-1-1",           518,       5.94835,       23.7852,            0.,NA,NA,"",   634.025E-03,   632.227E-03,   47.7205E-03,   23.8296E-12
C:/temp/dataset/4/11_35.odb,Step-1,Increment      1: Step Time =    1.000,"PART-1-1",           519,            5.,       22.7083,            0.,NA,NA,"",   622.748E-03,   619.982E-03,   58.6291E-03,   30.8989E-12
C:/temp/dataset/4/11_35.odb,Step-1,Increment      1: Step Time =    1.000,"PART-1-1",           520,       13.8862,       24.9278,            0.,NA,NA,"",   646.205E-03,   644.768E-03,  -43.0726E-03,   13.1743E-12
C:/temp/dataset/4/11_35.odb,Step-1,Increment      1: Step Time =    1.000,"PART-1-1",           521,           15.,         26.25,            0.,NA,NA,"",   662.168E-03,   659.806E-03,  -55.8885E-03,   17.3425E-12
C:/temp/dataset/4/11_35.odb,Step-1,Increment      1: Step Time =    1.000,"PART-1-1",           522,       6.15342,       27.8650,            0.,NA,NA,"",   680.338E-03,   678.841E-03,   45.1103E-03,   9.12572E-12
C:/temp/dataset/4/11_35.odb,Step-1,Increment      1: Step Time =    1.000,"PART-1-1",           523,       7.40342,       28.9067,            0.,NA,NA,"",   691.348E-03,   690.664E-03,   30.7565E-03,   9.38007E-12
C:/temp/dataset/4/11_35.odb,Step-1,Increment      1: Step Time =    1.000,"PART-1-1",           524,          6.25,           30.,            0.,NA,NA,"",   704.601E-03,   703.234E-03,   43.8671E-03,   3.70928E-12
C:/temp/dataset/4/11_35.odb,Step-1,Increment      1: Step Time =    1.000,"PART-1-1",           525,            5.,       28.9583,            0.,NA,NA,"",   693.858E-03,   691.411E-03,   58.2210E-03,   3.52142E-12
C:/temp/dataset/4/11_35.odb,Step-1,Increment      1: Step Time =    1.000,"PART-1-1",           526,       7.11917,       26.8292,            0.,NA,NA,"",   667.813E-03,   666.940E-03,   34.1409E-03,   8.95268E-12
C:/temp/dataset/4/11_35.odb,Step-1,Increment      1: Step Time =    1.000,"PART-1-1",           527,            5.,        26.875,            0.,NA,NA,"",   670.147E-03,   667.602E-03,   58.3570E-03,   14.8922E-12
C:/temp/dataset/4/11_35.odb,Step-1,Increment      1: Step Time =    1.000,"PART-1-1",           528,       5.96574,       25.8392,            0.,NA,NA,"",   657.411E-03,   655.701E-03,   47.3876E-03,   11.2680E-12
C:/temp/dataset/4/11_35.odb,Step-1,Increment      1: Step Time =    1.000,"PART-1-1",           529,       8.59546,       27.4701,            0.,NA,NA,"",   674.388E-03,   674.168E-03,   17.2270E-03,   8.21529E-12
C:/temp/dataset/4/11_35.odb,Step-1,Increment      1: Step Time =    1.000,"PART-1-1",           530,       9.94204,       28.5635,            0.,NA,NA,"",   686.578E-03,   686.576E-03,   1.76602E-03,   7.20873E-12
C:/temp/dataset/4/11_35.odb,Step-1,Increment      1: Step Time =    1.000,"PART-1-1",           531,          8.75,           30.,            0.,NA,NA,"",   703.237E-03,   703.071E-03,   15.2956E-03,   14.1671E-12
C:/temp/dataset/4/11_35.odb,Step-1,Increment      1: Step Time =    1.000,"PART-1-1",           532,            5.,       24.7917,            0.,NA,NA,"",   646.444E-03,   643.792E-03,   58.4931E-03,   20.1959E-12
C:/temp/dataset/4/11_35.odb,Step-1,Increment      1: Step Time =    1.000,"PART-1-1",           533,       6.91409,       24.8327,            0.,NA,NA,"",   645.175E-03,   644.136E-03,   36.6150E-03,   27.8561E-12
C:/temp/dataset/4/11_35.odb,Step-1,Increment      1: Step Time =    1.000,"PART-1-1",           534,            5.,        20.625,            0.,NA,NA,"",   599.062E-03,   596.173E-03,   58.7652E-03,   260.947E-12
C:/temp/dataset/4/11_35.odb,Step-1,Increment      1: Step Time =    1.000,"PART-1-1",           535,       5.99534,       19.6263,            0.,NA,NA,"",   586.616E-03,   584.694E-03,   47.4550E-03,   453.617E-12
C:/temp/dataset/4/11_35.odb,Step-1,Increment      1: Step Time =    1.000,"PART-1-1",           536,       6.97162,       20.7210,            0.,NA,NA,"",   598.239E-03,   597.141E-03,   36.2260E-03,   457.037E-12
C:/temp/dataset/4/11_35.odb,Step-1,Increment      1: Step Time =    1.000,"PART-1-1",           537,       9.90537,       10.7177,            0.,NA,NA,"",   482.637E-03,   482.626E-03,   3.35058E-03,   14.9178E-09
C:/temp/dataset/4/11_35.odb,Step-1,Increment      1: Step Time =    1.000,"PART-1-1",           538,       8.83179,       9.75083,            0.,NA,NA,"",   471.906E-03,   471.645E-03,   15.6833E-03,   41.3055E-09
C:/temp/dataset/4/11_35.odb,Step-1,Increment      1: Step Time =    1.000,"PART-1-1",           539,       10.8380,       9.37550,            0.,NA,NA,"",   467.281E-03,   467.225E-03,  -7.22020E-03,   50.6033E-09
C:/temp/dataset/4/11_35.odb,Step-1,Increment      1: Step Time =    1.000,"PART-1-1",           540,       5.96737,       11.1773,            0.,NA,NA,"",   490.521E-03,   488.135E-03,   48.3265E-03,   5.33748E-09
C:/temp/dataset/4/11_35.odb,Step-1,Increment      1: Step Time =    1.000,"PART-1-1",           541,       6.95908,       12.1740,            0.,NA,NA,"",   500.825E-03,   499.461E-03,   36.9275E-03,   2.29860E-09
C:/temp/dataset/4/11_35.odb,Step-1,Increment      1: Step Time =    1.000,"PART-1-1",           542,            5.,       12.2917,            0.,NA,NA,"",   504.433E-03,   500.934E-03,   59.3094E-03,   9.62442E-09
C:/temp/dataset/4/11_35.odb,Step-1,Increment      1: Step Time =    1.000,"PART-1-1",           543,       6.89189,       10.0466,            0.,NA,NA,"",   476.656E-03,   475.152E-03,   37.8343E-03,   21.1727E-09
C:/temp/dataset/4/11_35.odb,Step-1,Increment      1: Step Time =    1.000,"PART-1-1",           544,            5.,       10.2083,            0.,NA,NA,"",   480.813E-03,   477.124E-03,   59.4455E-03,   12.7165E-09
C:/temp/dataset/4/11_35.odb,Step-1,Increment      1: Step Time =    1.000,"PART-1-1",           545,  -883.251E-03,       2.97832,            0.,NA,NA,"",   414.850E-03,   394.880E-03,   127.163E-03,   75.5579E-09
C:/temp/dataset/4/11_35.odb,Step-1,Increment      1: Step Time =    1.000,"PART-1-1",           546,         -1.25,            5.,            0.,NA,NA,"",   438.124E-03,   418.011E-03,   131.223E-03,   26.5857E-09
C:/temp/dataset/4/11_35.odb,Step-1,Increment      1: Step Time =    1.000,"PART-1-1",           547,      -2.28350,       3.97568,            0.,NA,NA,"",   430.831E-03,   406.371E-03,   143.102E-03,   17.7559E-09
C:/temp/dataset/4/11_35.odb,Step-1,Increment      1: Step Time =    1.000,"PART-1-1",           548,      -3.12559,       2.92107,            0.,NA,NA,"",   422.937E-03,   394.372E-03,   152.796E-03,   22.2865E-09
C:/temp/dataset/4/11_35.odb,Step-1,Increment      1: Step Time =    1.000,"PART-1-1",           549,         -3.75,            5.,            0.,NA,NA,"",   447.666E-03,   418.175E-03,   159.797E-03,   5.42103E-09
C:/temp/dataset/4/11_35.odb,Step-1,Increment      1: Step Time =    1.000,"PART-1-1",           550,      -7.01026,       10.3490,            0.,NA,NA,"",   518.305E-03,   479.525E-03,   196.712E-03,   93.8279E-12
C:/temp/dataset/4/11_35.odb,Step-1,Increment      1: Step Time =    1.000,"PART-1-1",           551,           -5.,       10.2083,            0.,NA,NA,"",   508.396E-03,   477.786E-03,   173.744E-03,   119.322E-12
C:/temp/dataset/4/11_35.odb,Step-1,Increment      1: Step Time =    1.000,"PART-1-1",           552,      -6.00030,       11.3233,            0.,NA,NA,"",   524.355E-03,   490.596E-03,   185.105E-03,   15.4721E-12
C:/temp/dataset/4/11_35.odb,Step-1,Increment      1: Step Time =    1.000,"PART-1-1",           553,      -6.90277,       16.5792,            0.,NA,NA,"",   584.257E-03,   550.728E-03,   195.076E-03,   9.73842E-12
C:/temp/dataset/4/11_35.odb,Step-1,Increment      1: Step Time =    1.000,"PART-1-1",           554,           -5.,       16.4583,            0.,NA,NA,"",   575.926E-03,   549.222E-03,   173.336E-03,   9.59044E-12
C:/temp/dataset/4/11_35.odb,Step-1,Increment      1: Step Time =    1.000,"PART-1-1",           555,      -5.93592,       17.5473,            0.,NA,NA,"",   591.086E-03,   561.730E-03,   183.962E-03,   5.79411E-12
C:/temp/dataset/4/11_35.odb,Step-1,Increment      1: Step Time =    1.000,"PART-1-1",           556,      -5.96041,       23.6583,            0.,NA,NA,"",   657.792E-03,   631.579E-03,   183.843E-03,   5.24526E-12
C:/temp/dataset/4/11_35.odb,Step-1,Increment      1: Step Time =    1.000,"PART-1-1",           557,           -5.,       24.7917,            0.,NA,NA,"",   667.232E-03,   644.470E-03,   172.792E-03,   5.38324E-12
C:/temp/dataset/4/11_35.odb,Step-1,Increment      1: Step Time =    1.000,"PART-1-1",           558,      -7.48847,       28.8776,            0.,NA,NA,"",   719.952E-03,   691.335E-03,   200.967E-03,   5.54052E-12
C:/temp/dataset/4/11_35.odb,Step-1,Increment      1: Step Time =    1.000,"PART-1-1",           559,           -5.,       28.9583,            0.,NA,NA,"",   713.272E-03,   692.094E-03,   172.519E-03,   5.63082E-12
C:/temp/dataset/4/11_35.odb,Step-1,Increment      1: Step Time =    1.000,"PART-1-1",           560,         -6.25,           30.,            0.,NA,NA,"",   728.425E-03,   704.082E-03,   186.739E-03,   5.69521E-12
C:/temp/dataset/4/11_35.odb,Step-1,Increment      1: Step Time =    1.000,"PART-1-1",           561,       12.9634,       11.4929,            0.,NA,NA,"",   492.303E-03,   491.285E-03,  -31.6496E-03,   6.42861E-09
C:/temp/dataset/4/11_35.odb,Step-1,Increment      1: Step Time =    1.000,"PART-1-1",           562,       13.9657,       10.1417,            0.,NA,NA,"",   477.718E-03,   475.778E-03,  -43.0155E-03,   7.39257E-09
C:/temp/dataset/4/11_35.odb,Step-1,Increment      1: Step Time =    1.000,"PART-1-1",           563,           15.,         11.25,            0.,NA,NA,"",   491.453E-03,   488.376E-03,  -54.9089E-03,   8.18826E-09
C:/temp/dataset/4/11_35.odb,Step-1,Increment      1: Step Time =    1.000,"PART-1-1",           564,       13.9978,       12.6011,            0.,NA,NA,"",   505.761E-03,   503.883E-03,  -43.5429E-03,   4.83216E-09
C:/temp/dataset/4/11_35.odb,Step-1,Increment      1: Step Time =    1.000,"PART-1-1",           565,       9.13480,      -18.5479,            0.,NA,NA,"",   148.139E-03,   147.564E-03,   13.0405E-03,   2.05756E-03
C:/temp/dataset/4/11_35.odb,Step-1,Increment      1: Step Time =    1.000,"PART-1-1",           566,       11.1537,      -18.5886,            0.,NA,NA,"",   144.943E-03,   144.655E-03,  -9.13241E-03,   1.53581E-03
C:/temp/dataset/4/11_35.odb,Step-1,Increment      1: Step Time =    1.000,"PART-1-1",           567,       10.1377,      -17.4381,            0.,NA,NA,"",   160.045E-03,   160.024E-03,   2.58307E-03,   1.00445E-03
C:/temp/dataset/4/11_35.odb,Step-1,Increment      1: Step Time =    1.000,"PART-1-1",           568,      -8.81573,       27.5627,            0.,NA,NA,"",   710.111E-03,   676.391E-03,   216.223E-03,   5.46177E-12
C:/temp/dataset/4/11_35.odb,Step-1,Increment      1: Step Time =    1.000,"PART-1-1",           569,         -8.75,           30.,            0.,NA,NA,"",   736.425E-03,   704.245E-03,   215.313E-03,   5.53160E-12
C:/temp/dataset/4/11_35.odb,Step-1,Increment      1: Step Time =    1.000,"PART-1-1",           570,            5.,      -24.7917,            0.,NA,NA,"",   78.6006E-03,   63.7225E-03,   46.0163E-03,   5.93739E-03
C:/temp/dataset/4/11_35.odb,Step-1,Increment      1: Step Time =    1.000,"PART-1-1",           571,       6.09200,      -25.8775,            0.,NA,NA,"",   52.2748E-03,   45.0650E-03,   26.4916E-03,   5.85295E-03
C:/temp/dataset/4/11_35.odb,Step-1,Increment      1: Step Time =    1.000,"PART-1-1",           572,       7.15121,      -24.8757,            0.,NA,NA,"",   61.0209E-03,   57.7171E-03,   19.8062E-03,   5.72084E-03
C:/temp/dataset/4/11_35.odb,Step-1,Increment      1: Step Time =    1.000,"PART-1-1",           573,       13.1040,      -21.0477,            0.,NA,NA,"",   114.229E-03,   110.247E-03,  -29.8977E-03,   2.28397E-03
C:/temp/dataset/4/11_35.odb,Step-1,Increment      1: Step Time =    1.000,"PART-1-1",           574,       14.0487,      -22.3697,            0.,NA,NA,"",   99.7807E-03,   91.9110E-03,  -38.8401E-03,   2.47114E-03
C:/temp/dataset/4/11_35.odb,Step-1,Increment      1: Step Time =    1.000,"PART-1-1",           575,           15.,        -21.25,            0.,NA,NA,"",   120.543E-03,   108.231E-03,  -53.0707E-03,   1.51924E-03
C:/temp/dataset/4/11_35.odb,Step-1,Increment      1: Step Time =    1.000,"PART-1-1",           576,            5.,       -26.875,            0.,NA,NA,"",   48.3310E-03,   35.7448E-03,   32.5299E-03,   8.82367E-03
C:/temp/dataset/4/11_35.odb,Step-1,Increment      1: Step Time =    1.000,"PART-1-1",           577,       12.8133,      -6.31290,            0.,NA,NA,"",   289.267E-03,   287.832E-03,  -28.7687E-03,   16.5421E-06
C:/temp/dataset/4/11_35.odb,Step-1,Increment      1: Step Time =    1.000,"PART-1-1",           578,       13.9319,      -7.55671,            0.,NA,NA,"",   276.694E-03,   273.567E-03,  -41.4849E-03,   16.3812E-06
C:/temp/dataset/4/11_35.odb,Step-1,Increment      1: Step Time =    1.000,"PART-1-1",           579,           15.,         -6.25,            0.,NA,NA,"",   293.375E-03,   288.407E-03,  -53.7610E-03,   8.03252E-06
C:/temp/dataset/4/11_35.odb,Step-1,Increment      1: Step Time =    1.000,"PART-1-1",           580,            5.,       18.5417,            0.,NA,NA,"",   575.386E-03,   572.363E-03,   58.9013E-03,   979.942E-12
C:/temp/dataset/4/11_35.odb,Step-1,Increment      1: Step Time =    1.000,"PART-1-1",           581,       6.00122,       17.5195,            0.,NA,NA,"",   562.626E-03,   560.615E-03,   47.5255E-03,   1.24827E-09
C:/temp/dataset/4/11_35.odb,Step-1,Increment      1: Step Time =    1.000,"PART-1-1",           582,       6.99656,       18.6041,            0.,NA,NA,"",   574.081E-03,   572.946E-03,   36.0792E-03,   1.14128E-09
C:/temp/dataset/4/11_35.odb,Step-1,Increment      1: Step Time =    1.000,"PART-1-1",           583,       12.8545,       23.6160,            0.,NA,NA,"",   630.615E-03,   629.843E-03,  -31.1961E-03,   89.6844E-12
C:/temp/dataset/4/11_35.odb,Step-1,Increment      1: Step Time =    1.000,"PART-1-1",           584,       13.9683,       22.4382,            0.,NA,NA,"",   617.867E-03,   616.309E-03,  -43.8487E-03,   77.8156E-12
C:/temp/dataset/4/11_35.odb,Step-1,Increment      1: Step Time =    1.000,"PART-1-1",           585,           15.,         23.75,            0.,NA,NA,"",   633.689E-03,   631.234E-03,  -55.7252E-03,   3.46026E-12
C:/temp/dataset/4/11_35.odb,Step-1,Increment      1: Step Time =    1.000,"PART-1-1",           586,            5.,       16.4583,            0.,NA,NA,"",   551.721E-03,   548.553E-03,   59.0373E-03,   2.61626E-09
C:/temp/dataset/4/11_35.odb,Step-1,Increment      1: Step Time =    1.000,"PART-1-1",           587,       7.00480,       16.4638,            0.,NA,NA,"",   549.673E-03,   548.485E-03,   36.1249E-03,   2.27053E-09
C:/temp/dataset/4/11_35.odb,Step-1,Increment      1: Step Time =    1.000,"PART-1-1",           588,       12.9734,       21.1620,            0.,NA,NA,"",   602.660E-03,   601.789E-03,  -32.3948E-03,   372.263E-12
C:/temp/dataset/4/11_35.odb,Step-1,Increment      1: Step Time =    1.000,"PART-1-1",           589,           15.,         21.25,            0.,NA,NA,"",   605.218E-03,   602.662E-03,  -55.5619E-03,   173.859E-12
C:/temp/dataset/4/11_35.odb,Step-1,Increment      1: Step Time =    1.000,"PART-1-1",           590,            5.,       6.04167,            0.,NA,NA,"",   433.637E-03,   429.506E-03,   59.7177E-03,   399.901E-09
C:/temp/dataset/4/11_35.odb,Step-1,Increment      1: Step Time =    1.000,"PART-1-1",           591,       5.70418,       5.21013,            0.,NA,NA,"",   423.130E-03,   419.957E-03,   51.7243E-03,   524.106E-09
C:/temp/dataset/4/11_35.odb,Step-1,Increment      1: Step Time =    1.000,"PART-1-1",           592,       6.54256,       6.20387,            0.,NA,NA,"",   433.307E-03,   431.259E-03,   42.0777E-03,   273.707E-09
C:/temp/dataset/4/11_35.odb,Step-1,Increment      1: Step Time =    1.000,"PART-1-1",           593,       7.80464,       8.81181,            0.,NA,NA,"",   461.799E-03,   460.981E-03,   27.4835E-03,   56.7734E-09
C:/temp/dataset/4/11_35.odb,Step-1,Increment      1: Step Time =    1.000,"PART-1-1",           594,       7.55468,       6.70991,            0.,NA,NA,"",   438.037E-03,   436.976E-03,   30.4774E-03,   194.639E-09
C:/temp/dataset/4/11_35.odb,Step-1,Increment      1: Step Time =    1.000,"PART-1-1",           595,           -5.,       12.2917,            0.,NA,NA,"",   530.792E-03,   501.598E-03,   173.608E-03,   34.5300E-12
C:/temp/dataset/4/11_35.odb,Step-1,Increment      1: Step Time =    1.000,"PART-1-1",           596,      -13.0551,       11.1433,            0.,NA,NA,"",   556.546E-03,   488.998E-03,   265.751E-03,   42.5153E-12
C:/temp/dataset/4/11_35.odb,Step-1,Increment      1: Step Time =    1.000,"PART-1-1",           597,          -15.,       11.4063,            0.,NA,NA,"",   570.190E-03,   492.131E-03,   287.964E-03,   24.4585E-12
C:/temp/dataset/4/11_35.odb,Step-1,Increment      1: Step Time =    1.000,"PART-1-1",           598,           -5.,       18.5417,            0.,NA,NA,"",   598.637E-03,   573.034E-03,   173.200E-03,   5.35506E-12
C:/temp/dataset/4/11_35.odb,Step-1,Increment      1: Step Time =    1.000,"PART-1-1",           599,      -6.83195,       18.5917,            0.,NA,NA,"",   605.682E-03,   573.726E-03,   194.135E-03,   6.01921E-12
C:/temp/dataset/4/11_35.odb,Step-1,Increment      1: Step Time =    1.000,"PART-1-1",           600,      -12.9744,       15.4368,            0.,NA,NA,"",   599.585E-03,   538.067E-03,   264.549E-03,   10.9149E-12
C:/temp/dataset/4/11_35.odb,Step-1,Increment      1: Step Time =    1.000,"PART-1-1",           601,      -13.9736,       16.6988,            0.,NA,NA,"",   617.603E-03,   552.557E-03,   275.887E-03,   6.58294E-12
C:/temp/dataset/4/11_35.odb,Step-1,Increment      1: Step Time =    1.000,"PART-1-1",           602,          -15.,       15.7813,            0.,NA,NA,"",   613.735E-03,   542.137E-03,   287.678E-03,   12.0222E-12
C:/temp/dataset/4/11_35.odb,Step-1,Increment      1: Step Time =    1.000,"PART-1-1",           603,      -6.85389,       22.5676,            0.,NA,NA,"",   648.890E-03,   619.171E-03,   194.126E-03,   5.05198E-12
C:/temp/dataset/4/11_35.odb,Step-1,Increment      1: Step Time =    1.000,"PART-1-1",           604,           -5.,       22.7083,            0.,NA,NA,"",   644.299E-03,   620.658E-03,   172.928E-03,   5.16734E-12
C:/temp/dataset/4/11_35.odb,Step-1,Increment      1: Step Time =    1.000,"PART-1-1",           605,      -7.62380,       21.5126,            0.,NA,NA,"",   640.198E-03,   607.163E-03,   202.995E-03,   5.01472E-12
C:/temp/dataset/4/11_35.odb,Step-1,Increment      1: Step Time =    1.000,"PART-1-1",           606,      -11.2433,       25.0031,            0.,NA,NA,"",   691.805E-03,   647.295E-03,   244.138E-03,   5.36103E-12
C:/temp/dataset/4/11_35.odb,Step-1,Increment      1: Step Time =    1.000,"PART-1-1",           607,      -10.1220,       24.6816,            0.,NA,NA,"",   683.865E-03,   643.547E-03,   231.342E-03,   5.31311E-12
C:/temp/dataset/4/11_35.odb,Step-1,Increment      1: Step Time =    1.000,"PART-1-1",           608,      -9.68436,       26.2404,            0.,NA,NA,"",   698.962E-03,   661.335E-03,   226.238E-03,   5.38213E-12
C:/temp/dataset/4/11_35.odb,Step-1,Increment      1: Step Time =    1.000,"PART-1-1",           609,      -10.8057,       26.5619,            0.,NA,NA,"",   706.734E-03,   665.083E-03,   239.034E-03,   5.42904E-12
C:/temp/dataset/4/11_35.odb,Step-1,Increment      1: Step Time =    1.000,"PART-1-1",           610,            5.,      -6.04167,            0.,NA,NA,"",   297.602E-03,   291.386E-03,   60.5077E-03,   5.04640E-06
C:/temp/dataset/4/11_35.odb,Step-1,Increment      1: Step Time =    1.000,"PART-1-1",           611,       5.81487,      -6.90448,            0.,NA,NA,"",   286.085E-03,   281.459E-03,   51.2406E-03,   11.0779E-06
C:/temp/dataset/4/11_35.odb,Step-1,Increment      1: Step Time =    1.000,"PART-1-1",           612,       6.44107,      -5.66337,            0.,NA,NA,"",   298.876E-03,   295.618E-03,   44.0091E-03,   9.81976E-06
C:/temp/dataset/4/11_35.odb,Step-1,Increment      1: Step Time =    1.000,"PART-1-1",           613,       5.62621,      -4.80056,            0.,NA,NA,"",   310.149E-03,   305.541E-03,   53.2686E-03,   1.99181E-06
C:/temp/dataset/4/11_35.odb,Step-1,Increment      1: Step Time =    1.000,"PART-1-1",           614,            5.,        -8.125,            0.,NA,NA,"",   274.328E-03,   267.546E-03,   60.6226E-03,   25.9725E-06
C:/temp/dataset/4/11_35.odb,Step-1,Increment      1: Step Time =    1.000,"PART-1-1",           615,       8.00489,       17.5473,            0.,NA,NA,"",   561.343E-03,   560.803E-03,   24.6244E-03,   1.52582E-09
C:/temp/dataset/4/11_35.odb,Step-1,Increment      1: Step Time =    1.000,"PART-1-1",           616,       8.00828,       15.3576,            0.,NA,NA,"",   536.347E-03,   535.776E-03,   24.7287E-03,   2.64692E-09
C:/temp/dataset/4/11_35.odb,Step-1,Increment      1: Step Time =    1.000,"PART-1-1",           617,       11.1265,      -16.2686,            0.,NA,NA,"",   173.752E-03,   173.544E-03,  -8.50749E-03,   473.690E-06
C:/temp/dataset/4/11_35.odb,Step-1,Increment      1: Step Time =    1.000,"PART-1-1",           618,       9.12111,      -16.3141,            0.,NA,NA,"",   174.640E-03,   174.041E-03,   14.4573E-03,   679.559E-06
C:/temp/dataset/4/11_35.odb,Step-1,Increment      1: Step Time =    1.000,"PART-1-1",           619,      -9.91602,       15.9767,            0.,NA,NA,"",   590.486E-03,   544.038E-03,   229.556E-03,   12.2559E-12
C:/temp/dataset/4/11_35.odb,Step-1,Increment      1: Step Time =    1.000,"PART-1-1",           620,      -10.9598,       15.0860,            0.,NA,NA,"",   586.022E-03,   533.926E-03,   241.545E-03,   13.2749E-12
C:/temp/dataset/4/11_35.odb,Step-1,Increment      1: Step Time =    1.000,"PART-1-1",           621,      -8.93702,       14.7598,            0.,NA,NA,"",   573.314E-03,   530.066E-03,   218.446E-03,   14.4770E-12
C:/temp/dataset/4/11_35.odb,Step-1,Increment      1: Step Time =    1.000,"PART-1-1",           622,      -13.0880,       4.79273,            0.,NA,NA,"",   494.415E-03,   416.415E-03,   266.541E-03,   657.178E-12
C:/temp/dataset/4/11_35.odb,Step-1,Increment      1: Step Time =    1.000,"PART-1-1",           623,          -15.,       4.84375,            0.,NA,NA,"",   507.112E-03,   417.123E-03,   288.392E-03,   679.249E-12
C:/temp/dataset/4/11_35.odb,Step-1,Increment      1: Step Time =    1.000,"PART-1-1",           624,           -5.,       6.04167,            0.,NA,NA,"",   464.027E-03,   430.162E-03,   174.016E-03,   2.69800E-09
C:/temp/dataset/4/11_35.odb,Step-1,Increment      1: Step Time =    1.000,"PART-1-1",           625,      -7.12843,       5.83601,            0.,NA,NA,"",   471.686E-03,   427.951E-03,   198.357E-03,   1.56544E-09
C:/temp/dataset/4/11_35.odb,Step-1,Increment      1: Step Time =    1.000,"PART-1-1",           626,       12.9112,      -8.87192,            0.,NA,NA,"",   260.335E-03,   258.632E-03,  -29.7221E-03,   46.6809E-06
C:/temp/dataset/4/11_35.odb,Step-1,Increment      1: Step Time =    1.000,"PART-1-1",           627,           15.,         -8.75,            0.,NA,NA,"",   265.350E-03,   259.873E-03,  -53.6331E-03,   38.0008E-06
C:/temp/dataset/4/11_35.odb,Step-1,Increment      1: Step Time =    1.000,"PART-1-1",           628,       13.0740,      -16.2399,            0.,NA,NA,"",   176.191E-03,   173.396E-03,  -31.2598E-03,   221.866E-06
C:/temp/dataset/4/11_35.odb,Step-1,Increment      1: Step Time =    1.000,"PART-1-1",           629,           15.,        -16.25,            0.,NA,NA,"",   181.307E-03,   172.965E-03,  -54.3630E-03,   271.759E-06
C:/temp/dataset/4/11_35.odb,Step-1,Increment      1: Step Time =    1.000,"PART-1-1",           630,       13.0128,       13.9092,            0.,NA,NA,"",   519.905E-03,   518.897E-03,  -32.3717E-03,   2.49811E-09
C:/temp/dataset/4/11_35.odb,Step-1,Increment      1: Step Time =    1.000,"PART-1-1",           631,           15.,         13.75,            0.,NA,NA,"",   519.873E-03,   516.948E-03,  -55.0721E-03,   6.46050E-09
C:/temp/dataset/4/11_35.odb,Step-1,Increment      1: Step Time =    1.000,"PART-1-1",           632,       10.9505,       11.7339,            0.,NA,NA,"",   494.247E-03,   494.171E-03,  -8.66001E-03,   9.71856E-09
C:/temp/dataset/4/11_35.odb,Step-1,Increment      1: Step Time =    1.000,"PART-1-1",           633,       9.98883,       12.9959,            0.,NA,NA,"",   508.662E-03,   508.657E-03,   2.24795E-03,   3.44427E-09
C:/temp/dataset/4/11_35.odb,Step-1,Increment      1: Step Time =    1.000,"PART-1-1",           634,       8.94372,       11.9797,            0.,NA,NA,"",   497.316E-03,   497.111E-03,   14.2585E-03,   8.22528E-09
C:/temp/dataset/4/11_35.odb,Step-1,Increment      1: Step Time =    1.000,"PART-1-1",           635,      -13.9153,       18.9000,            0.,NA,NA,"",   639.859E-03,   577.713E-03,   275.077E-03,   4.95636E-12
C:/temp/dataset/4/11_35.odb,Step-1,Increment      1: Step Time =    1.000,"PART-1-1",           636,      -12.6393,       19.9841,            0.,NA,NA,"",   644.937E-03,   590.020E-03,   260.422E-03,   5.53147E-12
C:/temp/dataset/4/11_35.odb,Step-1,Increment      1: Step Time =    1.000,"PART-1-1",           637,          -15.,       20.1563,            0.,NA,NA,"",   658.199E-03,   592.142E-03,   287.392E-03,   4.87580E-12
C:/temp/dataset/4/11_35.odb,Step-1,Increment      1: Step Time =    1.000,"PART-1-1",           638,       8.12191,      -21.7795,            0.,NA,NA,"",   106.731E-03,   105.120E-03,   18.4735E-03,   4.82511E-03
C:/temp/dataset/4/11_35.odb,Step-1,Increment      1: Step Time =    1.000,"PART-1-1",           639,       8.12482,      -23.8590,            0.,NA,NA,"",   73.3267E-03,   71.9711E-03,   14.0349E-03,   5.61043E-03
C:/temp/dataset/4/11_35.odb,Step-1,Increment      1: Step Time =    1.000,"PART-1-1",           640,       8.11825,      -19.6354,            0.,NA,NA,"",   137.701E-03,   135.823E-03,   22.6612E-03,   3.24714E-03
C:/temp/dataset/4/11_35.odb,Step-1,Increment      1: Step Time =    1.000,"PART-1-1",           641,       8.10952,      -17.4508,            0.,NA,NA,"",   164.137E-03,   162.154E-03,   25.4378E-03,   1.43164E-03
C:/temp/dataset/4/11_35.odb,Step-1,Increment      1: Step Time =    1.000,"PART-1-1",           642,       7.85781,       23.9076,            0.,NA,NA,"",   634.030E-03,   633.501E-03,   25.8900E-03,   63.3230E-12
C:/temp/dataset/4/11_35.odb,Step-1,Increment      1: Step Time =    1.000,"PART-1-1",           643,       7.94870,       21.8524,            0.,NA,NA,"",   610.519E-03,   610.008E-03,   24.9854E-03,   232.504E-12
C:/temp/dataset/4/11_35.odb,Step-1,Increment      1: Step Time =    1.000,"PART-1-1",           644,       4.21929,       2.98066,            0.,NA,NA,"",   400.534E-03,   394.573E-03,   68.8414E-03,   284.876E-09
C:/temp/dataset/4/11_35.odb,Step-1,Increment      1: Step Time =    1.000,"PART-1-1",           645,       5.32392,       3.96649,            0.,NA,NA,"",   409.635E-03,   405.768E-03,   56.1514E-03,   374.056E-09
C:/temp/dataset/4/11_35.odb,Step-1,Increment      1: Step Time =    1.000,"PART-1-1",           646,          3.75,            5.,            0.,NA,NA,"",   424.201E-03,   417.684E-03,   74.0734E-03,   536.552E-09
C:/temp/dataset/4/11_35.odb,Step-1,Increment      1: Step Time =    1.000,"PART-1-1",           647,       12.8859,       9.04653,            0.,NA,NA,"",   464.341E-03,   463.331E-03,  -30.6041E-03,   45.2045E-09
C:/temp/dataset/4/11_35.odb,Step-1,Increment      1: Step Time =    1.000,"PART-1-1",           648,           15.,          8.75,            0.,NA,NA,"",   463.052E-03,   459.804E-03,  -54.7456E-03,   13.0821E-09
C:/temp/dataset/4/11_35.odb,Step-1,Increment      1: Step Time =    1.000,"PART-1-1",           649,      -8.02807,       9.41948,            0.,NA,NA,"",   513.190E-03,   468.968E-03,   208.406E-03,   229.788E-12
C:/temp/dataset/4/11_35.odb,Step-1,Increment      1: Step Time =    1.000,"PART-1-1",           650,      -8.84347,       16.8085,            0.,NA,NA,"",   594.584E-03,   553.476E-03,   217.243E-03,   10.6955E-12
C:/temp/dataset/4/11_35.odb,Step-1,Increment      1: Step Time =    1.000,"PART-1-1",           651,      -9.78583,       18.0165,            0.,NA,NA,"",   611.420E-03,   567.345E-03,   227.935E-03,   7.78135E-12
C:/temp/dataset/4/11_35.odb,Step-1,Increment      1: Step Time =    1.000,"PART-1-1",           652,          -15.,       17.9688,            0.,NA,NA,"",   635.864E-03,   567.139E-03,   287.535E-03,   5.33374E-12
C:/temp/dataset/4/11_35.odb,Step-1,Increment      1: Step Time =    1.000,"PART-1-1",           653,          -15.,       24.5313,            0.,NA,NA,"",   703.408E-03,   642.147E-03,   287.106E-03,   5.66373E-12
C:/temp/dataset/4/11_35.odb,Step-1,Increment      1: Step Time =    1.000,"PART-1-1",           654,      -12.9952,       24.7258,            0.,NA,NA,"",   696.302E-03,   644.240E-03,   264.179E-03,   5.45994E-12
C:/temp/dataset/4/11_35.odb,Step-1,Increment      1: Step Time =    1.000,"PART-1-1",           655,      -11.4985,       21.8877,            0.,NA,NA,"",   659.785E-03,   611.703E-03,   247.258E-03,   5.22077E-12
C:/temp/dataset/4/11_35.odb,Step-1,Increment      1: Step Time =    1.000,"PART-1-1",           656,      -11.4490,       20.6565,            0.,NA,NA,"",   646.572E-03,   597.627E-03,   246.772E-03,   5.41626E-12
C:/temp/dataset/4/11_35.odb,Step-1,Increment      1: Step Time =    1.000,"PART-1-1",           657,      -10.1446,       20.7260,            0.,NA,NA,"",   641.690E-03,   598.337E-03,   231.859E-03,   5.49206E-12
C:/temp/dataset/4/11_35.odb,Step-1,Increment      1: Step Time =    1.000,"PART-1-1",           658,      -7.69218,       19.6350,            0.,NA,NA,"",   620.183E-03,   585.707E-03,   203.899E-03,   5.32727E-12
C:/temp/dataset/4/11_35.odb,Step-1,Increment      1: Step Time =    1.000,"PART-1-1",           659,      -8.68744,       18.7463,            0.,NA,NA,"",   614.573E-03,   575.614E-03,   215.333E-03,   7.03745E-12
C:/temp/dataset/4/11_35.odb,Step-1,Increment      1: Step Time =    1.000,"PART-1-1",           660,      -7.82721,       17.7030,            0.,NA,NA,"",   599.951E-03,   563.633E-03,   205.569E-03,   7.33838E-12
C:/temp/dataset/4/11_35.odb,Step-1,Increment      1: Step Time =    1.000,"PART-1-1",           661,      -9.52114,       19.8817,            0.,NA,NA,"",   630.106E-03,   588.646E-03,   224.788E-03,   5.67082E-12
C:/temp/dataset/4/11_35.odb,Step-1,Increment      1: Step Time =    1.000,"PART-1-1",           662,      -10.6195,       19.1519,            0.,NA,NA,"",   627.049E-03,   580.376E-03,   237.390E-03,   6.75575E-12
C:/temp/dataset/4/11_35.odb,Step-1,Increment      1: Step Time =    1.000,"PART-1-1",           663,      -12.1485,       3.78191,            0.,NA,NA,"",   478.887E-03,   404.801E-03,   255.870E-03,   845.836E-12
C:/temp/dataset/4/11_35.odb,Step-1,Increment      1: Step Time =    1.000,"PART-1-1",           664,      -10.9850,       2.86362,            0.,NA,NA,"",   462.911E-03,   394.229E-03,   242.631E-03,   989.792E-12
C:/temp/dataset/4/11_35.odb,Step-1,Increment      1: Step Time =    1.000,"PART-1-1",           665,      -9.06958,       8.49577,            0.,NA,NA,"",   508.690E-03,   458.478E-03,   220.370E-03,   349.435E-12
C:/temp/dataset/4/11_35.odb,Step-1,Increment      1: Step Time =    1.000,"PART-1-1",           666,      -8.08215,       7.28595,            0.,NA,NA,"",   491.330E-03,   444.585E-03,   209.163E-03,   756.913E-12
C:/temp/dataset/4/11_35.odb,Step-1,Increment      1: Step Time =    1.000,"PART-1-1",           667,      -10.1292,       7.60955,            0.,NA,NA,"",   505.127E-03,   448.418E-03,   232.540E-03,   509.725E-12
C:/temp/dataset/4/11_35.odb,Step-1,Increment      1: Step Time =    1.000,"PART-1-1",           668,      -11.2104,       6.77234,            0.,NA,NA,"",   502.644E-03,   438.919E-03,   244.952E-03,   577.459E-12
C:/temp/dataset/4/11_35.odb,Step-1,Increment      1: Step Time =    1.000,"PART-1-1",           669,      -10.2942,       5.63122,            0.,NA,NA,"",   486.144E-03,   425.817E-03,   234.555E-03,   931.497E-12
C:/temp/dataset/4/11_35.odb,Step-1,Increment      1: Step Time =    1.000,"PART-1-1",           670,      -9.21309,       6.46842,            0.,NA,NA,"",   488.720E-03,   435.315E-03,   222.143E-03,   937.212E-12
C:/temp/dataset/4/11_35.odb,Step-1,Increment      1: Step Time =    1.000,"PART-1-1",           671,        -11.25,           -5.,            0.,NA,NA,"",   391.460E-03,   304.367E-03,   246.174E-03,   1.23712E-09
C:/temp/dataset/4/11_35.odb,Step-1,Increment      1: Step Time =    1.000,"PART-1-1",           672,      -10.0273,      -3.93877,            0.,NA,NA,"",   392.432E-03,   316.416E-03,   232.129E-03,   1.60918E-09
C:/temp/dataset/4/11_35.odb,Step-1,Increment      1: Step Time =    1.000,"PART-1-1",           673,         -8.75,           -5.,            0.,NA,NA,"",   374.018E-03,   304.203E-03,   217.599E-03,   3.44812E-09
C:/temp/dataset/4/11_35.odb,Step-1,Increment      1: Step Time =    1.000,"PART-1-1",           674,      -7.59562,      -4.02918,            0.,NA,NA,"",   375.662E-03,   315.224E-03,   204.342E-03,   3.11019E-09
C:/temp/dataset/4/11_35.odb,Step-1,Increment      1: Step Time =    1.000,"PART-1-1",           675,      -8.87289,      -2.96795,            0.,NA,NA,"",   393.853E-03,   327.437E-03,   218.871E-03,   1.97985E-09
C:/temp/dataset/4/11_35.odb,Step-1,Increment      1: Step Time =    1.000,"PART-1-1",           676,         -6.25,           -5.,            0.,NA,NA,"",   358.010E-03,   304.040E-03,   189.025E-03,   6.14495E-09
C:/temp/dataset/4/11_35.odb,Step-1,Increment      1: Step Time =    1.000,"PART-1-1",           677,      -5.03874,      -3.83161,            0.,NA,NA,"",   362.423E-03,   317.315E-03,   175.104E-03,   3.21695E-09
C:/temp/dataset/4/11_35.odb,Step-1,Increment      1: Step Time =    1.000,"PART-1-1",           678,      -6.38435,      -2.86079,            0.,NA,NA,"",   379.700E-03,   328.500E-03,   190.421E-03,   1.71350E-09
C:/temp/dataset/4/11_35.odb,Step-1,Increment      1: Step Time =    1.000,"PART-1-1",           679,      -8.31216,       1.98044,            0.,NA,NA,"",   438.666E-03,   383.960E-03,   212.139E-03,   1.94591E-09
C:/temp/dataset/4/11_35.odb,Step-1,Increment      1: Step Time =    1.000,"PART-1-1",           680,      -6.89941,       1.67561,            0.,NA,NA,"",   427.916E-03,   380.383E-03,   196.011E-03,   2.05484E-09
C:/temp/dataset/4/11_35.odb,Step-1,Increment      1: Step Time =    1.000,"PART-1-1",           681,      -8.02347,       3.70061,            0.,NA,NA,"",   454.380E-03,   403.602E-03,   208.727E-03,   1.84194E-09
C:/temp/dataset/4/11_35.odb,Step-1,Increment      1: Step Time =    1.000,"PART-1-1",           682,      -9.78636,       2.36681,            0.,NA,NA,"",   450.927E-03,   388.472E-03,   228.963E-03,   1.38037E-09
C:/temp/dataset/4/11_35.odb,Step-1,Increment      1: Step Time =    1.000,"PART-1-1",           683,      -8.80920,   354.969E-03,            0.,NA,NA,"",   425.463E-03,   365.413E-03,   217.926E-03,   1.63838E-09
C:/temp/dataset/4/11_35.odb,Step-1,Increment      1: Step Time =    1.000,"PART-1-1",           684,         -3.75,           -5.,            0.,NA,NA,"",   343.636E-03,   303.877E-03,   160.451E-03,   7.26377E-09
C:/temp/dataset/4/11_35.odb,Step-1,Increment      1: Step Time =    1.000,"PART-1-1",           685,          3.75,           -5.,            0.,NA,NA,"",   312.453E-03,   303.385E-03,   74.7280E-03,   1.33169E-06
C:/temp/dataset/4/11_35.odb,Step-1,Increment      1: Step Time =    1.000,"PART-1-1",           686,       4.46580,      -3.87501,            0.,NA,NA,"",   323.110E-03,   316.198E-03,   66.4733E-03,   752.093E-09
C:/temp/dataset/4/11_35.odb,Step-1,Increment      1: Step Time =    1.000,"PART-1-1",           687,       2.90021,      -2.90757,            0.,NA,NA,"",   338.040E-03,   327.359E-03,   84.3041E-03,   621.302E-09
C:/temp/dataset/4/11_35.odb,Step-1,Increment      1: Step Time =    1.000,"PART-1-1",           688,       11.1618,       2.81075,            0.,NA,NA,"",   392.317E-03,   392.177E-03,  -10.4931E-03,   381.205E-09
C:/temp/dataset/4/11_35.odb,Step-1,Increment      1: Step Time =    1.000,"PART-1-1",           689,       10.1850,       1.50626,            0.,NA,NA,"",   377.333E-03,   377.332E-03,   755.629E-06,   363.757E-09
C:/temp/dataset/4/11_35.odb,Step-1,Increment      1: Step Time =    1.000,"PART-1-1",           690,       11.6421,   144.368E-03,            0.,NA,NA,"",   362.018E-03,   361.673E-03,  -15.8082E-03,   327.875E-09
C:/temp/dataset/4/11_35.odb,Step-1,Increment      1: Step Time =    1.000,"PART-1-1",           691,         11.25,           30.,            0.,NA,NA,"",   703.033E-03,   702.908E-03,  -13.2760E-03,   14.2016E-12
C:/temp/dataset/4/11_35.odb,Step-1,Increment      1: Step Time =    1.000,"PART-1-1",           692,       9.19768,       26.3844,            0.,NA,NA,"",   661.803E-03,   661.721E-03,   10.4153E-03,   12.7904E-12
C:/temp/dataset/4/11_35.odb,Step-1,Increment      1: Step Time =    1.000,"PART-1-1",           693,       7.72138,       25.7435,            0.,NA,NA,"",   655.062E-03,   654.492E-03,   27.3292E-03,   13.1803E-12
C:/temp/dataset/4/11_35.odb,Step-1,Increment      1: Step Time =    1.000,"PART-1-1",           694,       9.17897,      -24.8987,            0.,NA,NA,"",   54.4195E-03,   54.2158E-03,   4.70417E-03,   5.72617E-03
C:/temp/dataset/4/11_35.odb,Step-1,Increment      1: Step Time =    1.000,"PART-1-1",           695,       9.00589,       18.6572,            0.,NA,NA,"",   573.572E-03,   573.422E-03,   13.1118E-03,   1.27950E-09
C:/temp/dataset/4/11_35.odb,Step-1,Increment      1: Step Time =    1.000,"PART-1-1",           696,       7.99757,       19.7140,            0.,NA,NA,"",   586.080E-03,   585.565E-03,   24.5666E-03,   664.627E-12
C:/temp/dataset/4/11_35.odb,Step-1,Increment      1: Step Time =    1.000,"PART-1-1",           697,      -12.2498,       25.7751,            0.,NA,NA,"",   704.205E-03,   656.185E-03,   255.590E-03,   5.47122E-12
C:/temp/dataset/4/11_35.odb,Step-1,Increment      1: Step Time =    1.000,"PART-1-1",           698,      -11.9888,       23.9538,            0.,NA,NA,"",   683.769E-03,   635.350E-03,   252.726E-03,   5.34739E-12
C:/temp/dataset/4/11_35.odb,Step-1,Increment      1: Step Time =    1.000,"PART-1-1",           699,      -1.59164,      -1.60220,            0.,NA,NA,"",   368.418E-03,   342.572E-03,   135.559E-03,   67.8761E-09
C:/temp/dataset/4/11_35.odb,Step-1,Increment      1: Step Time =    1.000,"PART-1-1",           700,      -1.34014,  -343.401E-03,            0.,NA,NA,"",   380.778E-03,   356.943E-03,   132.602E-03,   72.2504E-09
C:/temp/dataset/4/11_35.odb,Step-1,Increment      1: Step Time =    1.000,"PART-1-1",           701,      -2.70787,  -93.9540E-03,            0.,NA,NA,"",   389.211E-03,   359.884E-03,   148.219E-03,   39.1010E-09
C:/temp/dataset/4/11_35.odb,Step-1,Increment      1: Step Time =    1.000,"PART-1-1",           702,       8.06015,      -13.0184,            0.,NA,NA,"",   213.046E-03,   211.424E-03,   26.2395E-03,   127.768E-06
C:/temp/dataset/4/11_35.odb,Step-1,Increment      1: Step Time =    1.000,"PART-1-1",           703,       7.99745,      -10.7906,            0.,NA,NA,"",   238.338E-03,   236.843E-03,   26.6572E-03,   84.4375E-06
C:/temp/dataset/4/11_35.odb,Step-1,Increment      1: Step Time =    1.000,"PART-1-1",           704,           15.,        -26.25,            0.,NA,NA,"",   54.8624E-03,   41.9161E-03,  -35.3966E-03,   7.07609E-03
C:/temp/dataset/4/11_35.odb,Step-1,Increment      1: Step Time =    1.000,"PART-1-1",           705,       13.9776,      -24.8045,            0.,NA,NA,"",   65.6832E-03,   57.9255E-03,  -30.9664E-03,   4.59951E-03
C:/temp/dataset/4/11_35.odb,Step-1,Increment      1: Step Time =    1.000,"PART-1-1",           706,       12.6094,      -25.9010,            0.,NA,NA,"",   43.3975E-03,   40.7395E-03,  -14.9543E-03,   5.60790E-03
C:/temp/dataset/4/11_35.odb,Step-1,Increment      1: Step Time =    1.000,"PART-1-1",           707,       12.0224,      -24.3398,            0.,NA,NA,"",   63.5910E-03,   61.8732E-03,  -14.6807E-03,   4.85844E-03
C:/temp/dataset/4/11_35.odb,Step-1,Increment      1: Step Time =    1.000,"PART-1-1",           708,       13.0263,      -23.4242,            0.,NA,NA,"",   80.0479E-03,   75.9127E-03,  -25.3954E-03,   3.89442E-03
C:/temp/dataset/4/11_35.odb,Step-1,Increment      1: Step Time =    1.000,"PART-1-1",           709,       12.1300,      -22.1112,            0.,NA,NA,"",   96.5917E-03,   94.7746E-03,  -18.6479E-03,   3.32417E-03
C:/temp/dataset/4/11_35.odb,Step-1,Increment      1: Step Time =    1.000,"PART-1-1",           710,           15.,        -23.75,            0.,NA,NA,"",   87.6860E-03,   73.9173E-03,  -47.1705E-03,   3.80064E-03
C:/temp/dataset/4/11_35.odb,Step-1,Increment      1: Step Time =    1.000,"PART-1-1",           711,       10.9035,      -9.09896,            0.,NA,NA,"",   256.215E-03,   256.128E-03,  -6.68602E-03,   57.5458E-06
C:/temp/dataset/4/11_35.odb,Step-1,Increment      1: Step Time =    1.000,"PART-1-1",           712,       9.82794,      -8.10226,            0.,NA,NA,"",   267.602E-03,   267.545E-03,   5.51733E-03,   35.6349E-06
C:/temp/dataset/4/11_35.odb,Step-1,Increment      1: Step Time =    1.000,"PART-1-1",           713,       8.90728,      -9.48784,            0.,NA,NA,"",   252.247E-03,   251.729E-03,   16.1677E-03,   67.0229E-06
C:/temp/dataset/4/11_35.odb,Step-1,Increment      1: Step Time =    1.000,"PART-1-1",           714,           15.,         -1.25,            0.,NA,NA,"",   349.728E-03,   345.520E-03,  -54.0882E-03,   1.23154E-06
C:/temp/dataset/4/11_35.odb,Step-1,Increment      1: Step Time =    1.000,"PART-1-1",           715,       12.7555,      -1.12336,            0.,NA,NA,"",   348.277E-03,   347.113E-03,  -28.4483E-03,   346.263E-09
C:/temp/dataset/4/11_35.odb,Step-1,Increment      1: Step Time =    1.000,"PART-1-1",           716,       11.5680,       5.48707,            0.,NA,NA,"",   423.015E-03,   422.737E-03,  -15.3091E-03,   221.542E-09
C:/temp/dataset/4/11_35.odb,Step-1,Increment      1: Step Time =    1.000,"PART-1-1",           717,       10.1222,       4.29256,            0.,NA,NA,"",   409.182E-03,   409.180E-03,   1.29147E-03,   331.613E-09
C:/temp/dataset/4/11_35.odb,Step-1,Increment      1: Step Time =    1.000,"PART-1-1",           718,       8.27918,   509.070E-03,            0.,NA,NA,"",   366.757E-03,   366.060E-03,   22.6008E-03,   344.291E-09
C:/temp/dataset/4/11_35.odb,Step-1,Increment      1: Step Time =    1.000,"PART-1-1",           719,       9.70893,  -124.236E-03,            0.,NA,NA,"",   358.784E-03,   358.729E-03,   6.30193E-03,   413.600E-09
C:/temp/dataset/4/11_35.odb,Step-1,Increment      1: Step Time =    1.000,"PART-1-1",           720,       8.75521,       2.13956,            0.,NA,NA,"",   385.042E-03,   384.664E-03,   17.0543E-03,   330.902E-09
C:/temp/dataset/4/11_35.odb,Step-1,Increment      1: Step Time =    1.000,"PART-1-1",           721,       6.99874,       4.90963,            0.,NA,NA,"",   418.073E-03,   416.437E-03,   36.9484E-03,   364.325E-09
C:/temp/dataset/4/11_35.odb,Step-1,Increment      1: Step Time =    1.000,"PART-1-1",           722,       8.01086,       5.41567,            0.,NA,NA,"",   422.915E-03,   422.154E-03,   25.3482E-03,   307.515E-09
C:/temp/dataset/4/11_35.odb,Step-1,Increment      1: Step Time =    1.000,"PART-1-1",           723,       11.8045,       7.99587,            0.,NA,NA,"",   451.760E-03,   451.394E-03,  -18.1766E-03,   74.9361E-09
C:/temp/dataset/4/11_35.odb,Step-1,Increment      1: Step Time =    1.000,"PART-1-1",           724,       7.91904,       10.9856,            0.,NA,NA,"",   486.514E-03,   485.817E-03,   26.0341E-03,   9.21891E-09
C:/temp/dataset/4/11_35.odb,Step-1,Increment      1: Step Time =    1.000,"PART-1-1",           725,       11.0233,       18.7016,            0.,NA,NA,"",   573.884E-03,   573.797E-03,  -9.94774E-03,   1.25369E-09
C:/temp/dataset/4/11_35.odb,Step-1,Increment      1: Step Time =    1.000,"PART-1-1",           726,       10.0074,       19.8076,            0.,NA,NA,"",   586.506E-03,   586.504E-03,   1.59039E-03,   704.403E-12
C:/temp/dataset/4/11_35.odb,Step-1,Increment      1: Step Time =    1.000,"PART-1-1",           727,       10.9673,       21.0105,            0.,NA,NA,"",   600.263E-03,   600.189E-03,  -9.45781E-03,   489.175E-12
C:/temp/dataset/4/11_35.odb,Step-1,Increment      1: Step Time =    1.000,"PART-1-1",           728,       8.97465,       20.8454,            0.,NA,NA,"",   598.580E-03,   598.432E-03,   13.3260E-03,   527.213E-12
C:/temp/dataset/4/11_35.odb,Step-1,Increment      1: Step Time =    1.000,"PART-1-1",           729,       8.66510,       24.8184,            0.,NA,NA,"",   644.072E-03,   643.858E-03,   16.6043E-03,   49.1464E-12
C:/temp/dataset/4/11_35.odb,Step-1,Increment      1: Step Time =    1.000,"PART-1-1",           730,       7.98376,       13.1681,            0.,NA,NA,"",   511.375E-03,   510.756E-03,   25.1519E-03,   2.66311E-09
C:/temp/dataset/4/11_35.odb,Step-1,Increment      1: Step Time =    1.000,"PART-1-1",           731,      -1.95806,       1.80915,            0.,NA,NA,"",   406.295E-03,   381.587E-03,   139.524E-03,   41.8479E-09
C:/temp/dataset/4/11_35.odb,Step-1,Increment      1: Step Time =    1.000,"PART-1-1",           732,  -613.587E-03,   828.335E-03,            0.,NA,NA,"",   390.569E-03,   370.289E-03,   124.221E-03,   117.887E-09
C:/temp/dataset/4/11_35.odb,Step-1,Increment      1: Step Time =    1.000,"PART-1-1",           733,   461.223E-03,       1.99751,            0.,NA,NA,"",   399.559E-03,   383.582E-03,   111.860E-03,   147.477E-09
C:/temp/dataset/4/11_35.odb,Step-1,Increment      1: Step Time =    1.000,"PART-1-1",           734,       1.74006,       1.04512,            0.,NA,NA,"",   385.109E-03,   372.613E-03,   97.3052E-03,   266.708E-09
C:/temp/dataset/4/11_35.odb,Step-1,Increment      1: Step Time =    1.000,"PART-1-1",           735,   906.022E-03,  -39.5003E-03,            0.,NA,NA,"",   375.798E-03,   360.270E-03,   106.909E-03,   214.949E-09
C:/temp/dataset/4/11_35.odb,Step-1,Increment      1: Step Time =    1.000,"PART-1-1",           736,       2.15034,  -968.542E-03,            0.,NA,NA,"",   361.665E-03,   349.571E-03,   92.7478E-03,   348.816E-09
C:/temp/dataset/4/11_35.odb,Step-1,Increment      1: Step Time =    1.000,"PART-1-1",           737,       2.98438,   116.081E-03,            0.,NA,NA,"",   371.341E-03,   361.913E-03,   83.1437E-03,   359.064E-09
C:/temp/dataset/4/11_35.odb,Step-1,Increment      1: Step Time =    1.000,"PART-1-1",           738,      -8.25937,       5.01848,            0.,NA,NA,"",   468.995E-03,   418.680E-03,   211.337E-03,   1.88654E-09
C:/temp/dataset/4/11_35.odb,Step-1,Increment      1: Step Time =    1.000,"PART-1-1",           739,      -2.78312,       1.01462,            0.,NA,NA,"",   401.252E-03,   372.559E-03,   149.006E-03,   36.3485E-09
C:/temp/dataset/4/11_35.odb,Step-1,Increment      1: Step Time =    1.000,"PART-1-1",           740,      -4.31499,   913.536E-03,            0.,NA,NA,"",   407.118E-03,   371.504E-03,   166.522E-03,   11.4200E-09
C:/temp/dataset/4/11_35.odb,Step-1,Increment      1: Step Time =    1.000,"PART-1-1",           741,      -4.23975,  -195.042E-03,            0.,NA,NA,"",   395.254E-03,   358.828E-03,   165.734E-03,   13.3533E-09
C:/temp/dataset/4/11_35.odb,Step-1,Increment      1: Step Time =    1.000,"PART-1-1",           742,      -8.52646,       20.5688,            0.,NA,NA,"",   633.453E-03,   596.435E-03,   213.374E-03,   5.39195E-12
C:/temp/dataset/4/11_35.odb,Step-1,Increment      1: Step Time =    1.000,"PART-1-1",           743,       8.09873,      -15.2435,            0.,NA,NA,"",   188.255E-03,   186.434E-03,   26.1214E-03,   243.088E-06
C:/temp/dataset/4/11_35.odb,Step-1,Increment      1: Step Time =    1.000,"PART-1-1",           744,       8.99676,       14.2096,            0.,NA,NA,"",   522.767E-03,   522.593E-03,   13.5067E-03,   2.98655E-09
C:/temp/dataset/4/11_35.odb,Step-1,Increment      1: Step Time =    1.000,"PART-1-1",           745,       11.0169,       14.0599,            0.,NA,NA,"",   520.838E-03,   520.750E-03,  -9.57137E-03,   2.71725E-09
C:/temp/dataset/4/11_35.odb,Step-1,Increment      1: Step Time =    1.000,"PART-1-1",           746,      -7.91902,       15.6847,            0.,NA,NA,"",   578.759E-03,   540.571E-03,   206.750E-03,   10.9846E-12
C:/temp/dataset/4/11_35.odb,Step-1,Increment      1: Step Time =    1.000,"PART-1-1",           747,      -11.9968,       14.1876,            0.,NA,NA,"",   581.831E-03,   523.725E-03,   253.456E-03,   12.5563E-12
C:/temp/dataset/4/11_35.odb,Step-1,Increment      1: Step Time =    1.000,"PART-1-1",           748,      -11.1175,       8.79310,            0.,NA,NA,"",   522.371E-03,   462.010E-03,   243.759E-03,   280.520E-12
C:/temp/dataset/4/11_35.odb,Step-1,Increment      1: Step Time =    1.000,"PART-1-1",           749,       10.6592,      -6.44981,            0.,NA,NA,"",   286.419E-03,   286.389E-03,  -4.12506E-03,   21.3507E-06
C:/temp/dataset/4/11_35.odb,Step-1,Increment      1: Step Time =    1.000,"PART-1-1",           750,      -10.7894,       23.3985,            0.,NA,NA,"",   672.825E-03,   628.925E-03,   239.054E-03,   5.26167E-12
C:/temp/dataset/4/11_35.odb,Step-1,Increment      1: Step Time =    1.000,"PART-1-1",           751,       10.0228,      -25.8019,            0.,NA,NA,"",   40.6953E-03,   40.6905E-03,  -625.267E-06,   5.57155E-03
C:/temp/dataset/4/11_35.odb,Step-1,Increment      1: Step Time =    1.000,"PART-1-1",           752,       10.9542,      -24.8826,            0.,NA,NA,"",   54.0316E-03,   53.6451E-03,  -6.45135E-03,   5.31054E-03
C:/temp/dataset/4/11_35.odb,Step-1,Increment      1: Step Time =    1.000,"PART-1-1",           753,       11.8371,      -2.37854,            0.,NA,NA,"",   333.309E-03,   332.830E-03,  -17.8712E-03,   1.15424E-06
C:/temp/dataset/4/11_35.odb,Step-1,Increment      1: Step Time =    1.000,"PART-1-1",           754,       11.6235,      -5.02753,            0.,NA,NA,"",   302.965E-03,   302.580E-03,  -15.2537E-03,   7.15514E-06
C:/temp/dataset/4/11_35.odb,Step-1,Increment      1: Step Time =    1.000,"PART-1-1",           755,      -12.1333,       7.86930,            0.,NA,NA,"",   518.760E-03,   451.518E-03,   255.429E-03,   317.435E-12
C:/temp/dataset/4/11_35.odb,Step-1,Increment      1: Step Time =    1.000,"PART-1-1",           756,      -12.0768,       9.95169,            0.,NA,NA,"",   539.231E-03,   475.315E-03,   254.648E-03,   104.410E-12
C:/temp/dataset/4/11_35.odb,Step-1,Increment      1: Step Time =    1.000,"PART-1-1",           757,       8.68743,       3.64563,            0.,NA,NA,"",   402.272E-03,   401.881E-03,   17.7310E-03,   364.526E-09
C:/temp/dataset/4/11_35.odb,Step-1,Increment      1: Step Time =    1.000,"PART-1-1",           758,       6.61848,       3.66599,            0.,NA,NA,"",   404.371E-03,   402.249E-03,   41.3754E-03,   213.446E-09
C:/temp/dataset/4/11_35.odb,Step-1,Increment      1: Step Time =    1.000,"PART-1-1",           759,       4.71579,   65.6079E-03,            0.,NA,NA,"",   366.738E-03,   361.224E-03,   63.3573E-03,   430.379E-09
C:/temp/dataset/4/11_35.odb,Step-1,Increment      1: Step Time =    1.000,"PART-1-1",           760,       3.89104,   957.250E-03,            0.,NA,NA,"",   378.521E-03,   371.468E-03,   72.7256E-03,   360.631E-09
C:/temp/dataset/4/11_35.odb,Step-1,Increment      1: Step Time =    1.000,"PART-1-1",           761,      -12.0363,       12.0623,            0.,NA,NA,"",   560.336E-03,   499.436E-03,   254.046E-03,   23.8325E-12
C:/temp/dataset/4/11_35.odb,Step-1,Increment      1: Step Time =    1.000,"PART-1-1",           762,      -12.1964,       5.82098,            0.,NA,NA,"",   498.959E-03,   428.110E-03,   256.284E-03,   631.037E-12
C:/temp/dataset/4/11_35.odb,Step-1,Increment      1: Step Time =    1.000,"PART-1-1",           763,      -11.2570,       4.81016,            0.,NA,NA,"",   483.522E-03,   416.495E-03,   245.613E-03,   852.937E-12
C:/temp/dataset/4/11_35.odb,Step-1,Increment      1: Step Time =    1.000,"PART-1-1",           764,      -10.5260,       3.94381,            0.,NA,NA,"",   470.741E-03,   406.545E-03,   237.314E-03,   1.13562E-09
C:/temp/dataset/4/11_35.odb,Step-1,Increment      1: Step Time =    1.000,"PART-1-1",           765,      -9.56326,       4.76486,            0.,NA,NA,"",   473.431E-03,   415.867E-03,   226.257E-03,   1.29224E-09
C:/temp/dataset/4/11_35.odb,Step-1,Increment      1: Step Time =    1.000,"PART-1-1",           766,      -9.32737,       3.44699,            0.,NA,NA,"",   458.965E-03,   400.788E-03,   223.647E-03,   1.50041E-09
C:/temp/dataset/4/11_35.odb,Step-1,Increment      1: Step Time =    1.000,"PART-1-1",           767,       11.5413,      -26.4438,            0.,NA,NA,"",   33.6374E-03,   32.7525E-03,  -7.66459E-03,   5.43324E-03
C:/temp/dataset/4/11_35.odb,Step-1,Increment      1: Step Time =    1.000,"PART-1-1",           768,       5.97241,      -3.36228,            0.,NA,NA,"",   325.702E-03,   321.961E-03,   49.2184E-03,   1.32001E-06
C:/temp/dataset/4/11_35.odb,Step-1,Increment      1: Step Time =    1.000,"PART-1-1",           769,       11.9304,       22.2704,            0.,NA,NA,"",   614.868E-03,   614.525E-03,  -20.5469E-03,   183.515E-12
C:/temp/dataset/4/11_35.odb,Step-1,Increment      1: Step Time =    1.000,"PART-1-1",           770,      -3.95064,       2.12654,            0.,NA,NA,"",   418.120E-03,   385.345E-03,   162.278E-03,   12.5574E-09
C:/temp/dataset/4/11_35.odb,Step-1,Increment      1: Step Time =    1.000,"PART-1-1",           771,       12.1361,      -19.7979,            0.,NA,NA,"",   129.404E-03,   127.857E-03,  -19.9495E-03,   1.83499E-03
C:/temp/dataset/4/11_35.odb,Step-1,Increment      1: Step Time =    1.000,"PART-1-1",           772,       12.1156,      -17.4436,            0.,NA,NA,"",   160.041E-03,   158.793E-03,  -19.9491E-03,   649.959E-06
C:/temp/dataset/4/11_35.odb,Step-1,Increment      1: Step Time =    1.000,"PART-1-1",           773,       11.8489,      -7.73518,            0.,NA,NA,"",   272.226E-03,   271.654E-03,  -17.6340E-03,   27.7344E-06
C:/temp/dataset/4/11_35.odb,Step-1,Increment      1: Step Time =    1.000,"PART-1-1",           774,       11.9658,      -10.2357,            0.,NA,NA,"",   243.847E-03,   243.124E-03,  -18.7619E-03,   67.9315E-06
C:/temp/dataset/4/11_35.odb,Step-1,Increment      1: Step Time =    1.000,"PART-1-1",           775,       10.7237,      -1.11081,            0.,NA,NA,"",   347.428E-03,   347.388E-03,  -5.23092E-03,   758.151E-09
C:/temp/dataset/4/11_35.odb,Step-1,Increment      1: Step Time =    1.000,"PART-1-1",           776,       11.9194,       10.4262,            0.,NA,NA,"",   479.564E-03,   479.162E-03,  -19.6477E-03,   15.6198E-09
C:/temp/dataset/4/11_35.odb,Step-1,Increment      1: Step Time =    1.000,"PART-1-1",           777,       11.9945,       12.8006,            0.,NA,NA,"",   506.715E-03,   506.294E-03,  -20.6618E-03,   2.43387E-09
C:/temp/dataset/4/11_35.odb,Step-1,Increment      1: Step Time =    1.000,"PART-1-1",           778,       12.0317,      -12.6649,            0.,NA,NA,"",   216.227E-03,   215.365E-03,  -19.2820E-03,   102.203E-06
C:/temp/dataset/4/11_35.odb,Step-1,Increment      1: Step Time =    1.000,"PART-1-1",           779,       12.0352,       15.1685,            0.,NA,NA,"",   533.777E-03,   533.352E-03,  -21.2812E-03,   2.68952E-09
C:/temp/dataset/4/11_35.odb,Step-1,Increment      1: Step Time =    1.000,"PART-1-1",           780,      -7.80161,      -2.23284,            0.,NA,NA,"",   394.228E-03,   335.770E-03,   206.579E-03,   1.99662E-09
C:/temp/dataset/4/11_35.odb,Step-1,Increment      1: Step Time =    1.000,"PART-1-1",           781,      -8.87876,  -905.543E-03,            0.,NA,NA,"",   413.622E-03,   351.011E-03,   218.804E-03,   1.84757E-09
C:/temp/dataset/4/11_35.odb,Step-1,Increment      1: Step Time =    1.000,"PART-1-1",           782,      -7.16649,      -1.00336,            0.,NA,NA,"",   402.545E-03,   349.781E-03,   199.239E-03,   1.85459E-09
C:/temp/dataset/4/11_35.odb,Step-1,Increment      1: Step Time =    1.000,"PART-1-1",           783,      -7.09692,   257.153E-03,            0.,NA,NA,"",   414.701E-03,   364.183E-03,   198.362E-03,   2.18781E-09
C:/temp/dataset/4/11_35.odb,Step-1,Increment      1: Step Time =    1.000,"PART-1-1",           784,      -5.74923,      -1.63131,            0.,NA,NA,"",   388.371E-03,   342.511E-03,   183.081E-03,   3.67080E-09
C:/temp/dataset/4/11_35.odb,Step-1,Increment      1: Step Time =    1.000,"PART-1-1",           785,      -5.66693,  -67.3201E-03,            0.,NA,NA,"",   403.748E-03,   360.381E-03,   182.038E-03,   4.64411E-09
C:/temp/dataset/4/11_35.odb,Step-1,Increment      1: Step Time =    1.000,"PART-1-1",           786,      -5.46941,       1.35113,            0.,NA,NA,"",   417.254E-03,   376.581E-03,   179.688E-03,   4.24611E-09
C:/temp/dataset/4/11_35.odb,Step-1,Increment      1: Step Time =    1.000,"PART-1-1",           787,       12.0849,      -15.0650,            0.,NA,NA,"",   188.602E-03,   187.571E-03,  -19.6898E-03,   100.852E-06
C:/temp/dataset/4/11_35.odb,Step-1,Increment      1: Step Time =    1.000,"PART-1-1",           788,       7.01212,      -4.44648,            0.,NA,NA,"",   311.751E-03,   309.498E-03,   37.4054E-03,   3.70648E-06
C:/temp/dataset/4/11_35.odb,Step-1,Increment      1: Step Time =    1.000,"PART-1-1",           789,       7.64174,      -3.33281,            0.,NA,NA,"",   323.597E-03,   322.190E-03,   30.1371E-03,   2.65432E-06
C:/temp/dataset/4/11_35.odb,Step-1,Increment      1: Step Time =    1.000,"PART-1-1",           790,       6.60203,      -2.24861,            0.,NA,NA,"",   337.270E-03,   334.651E-03,   41.9493E-03,   654.688E-09
C:/temp/dataset/4/11_35.odb,Step-1,Increment      1: Step Time =    1.000,"PART-1-1",           791,       6.68626,       2.15992,            0.,NA,NA,"",   387.177E-03,   385.032E-03,   40.6989E-03,   173.423E-09
C:/temp/dataset/4/11_35.odb,Step-1,Increment      1: Step Time =    1.000,"PART-1-1",           792,       12.0103,       19.9021,            0.,NA,NA,"",   587.839E-03,   587.453E-03,  -21.3057E-03,   608.635E-12
C:/temp/dataset/4/11_35.odb,Step-1,Increment      1: Step Time =    1.000,"PART-1-1",           793,       12.0305,       17.5416,            0.,NA,NA,"",   560.882E-03,   560.474E-03,  -21.3828E-03,   1.52111E-09
C:/temp/dataset/4/11_35.odb,Step-1,Increment      1: Step Time =    1.000,"PART-1-1",           794,       6.09271,      -1.14349,            0.,NA,NA,"",   350.575E-03,   347.315E-03,   47.6984E-03,   472.588E-09
C:/temp/dataset/4/11_35.odb,Step-1,Increment      1: Step Time =    1.000,"PART-1-1",           795,       7.56053,      -1.65505,            0.,NA,NA,"",   342.773E-03,   341.373E-03,   30.9555E-03,   801.167E-09
C:/temp/dataset/4/11_35.odb,Step-1,Increment      1: Step Time =    1.000,"PART-1-1",           796,       7.05122,  -549.935E-03,            0.,NA,NA,"",   355.934E-03,   354.037E-03,   36.7044E-03,   455.829E-09
C:/temp/dataset/4/11_35.odb,Step-1,Increment      1: Step Time =    1.000,"PART-1-1",           797,       5.28588,       1.87348,            0.,NA,NA,"",   386.039E-03,   381.849E-03,   56.7231E-03,   243.876E-09
C:/temp/dataset/4/11_35.odb,Step-1,Increment      1: Step Time =    1.000,"PART-1-1",           798,       5.70847,   325.226E-03,            0.,NA,NA,"",   367.820E-03,   364.126E-03,   51.9942E-03,   355.978E-09
C:/temp/dataset/4/11_35.odb,Step-1,Increment      1: Step Time =    1.000,"PART-1-1",           799,       7.10885,   611.668E-03,            0.,NA,NA,"",   369.066E-03,   367.309E-03,   35.9700E-03,   278.556E-09
C:/temp/dataset/4/11_35.odb,Step-1,Increment      1: Step Time =    1.000,"PART-1-1",           800,       9.00326,      -1.31280,            0.,NA,NA,"",   345.493E-03,   345.191E-03,   14.4443E-03,   1.00341E-06
C:/temp/dataset/4/11_35.odb,Step-1,Increment      1: Step Time =    1.000,"PART-1-1",           801,       8.22155,  -652.532E-03,            0.,NA,NA,"",   353.559E-03,   352.788E-03,   23.3352E-03,   536.381E-09
C:/temp/dataset/4/11_35.odb,Step-1,Increment      1: Step Time =    1.000,"PART-1-1",           802,       8.34224,      -2.31533,            0.,NA,NA,"",   334.504E-03,   333.776E-03,   22.0646E-03,   1.34444E-06
C:/temp/dataset/4/11_35.odb,Step-1,Increment      1: Step Time =    1.000,"PART-1-1",           803,       2.82445,       2.06443,            0.,NA,NA,"",   393.449E-03,   384.192E-03,   84.8441E-03,   313.404E-09
