ODB Name,Step,Frame,Part Instance Name,    êﬂì_ÉâÉxÉã,X,Y,Z,Section Name,Material Name,Section Point,   U-Magnitude,          U-U1,          U-U2,       S-Mises
C:/temp/dataset/4/12_15.odb,Step-1,Increment      1: Step Time =    1.000,"PART-1-1",             1,           -5.,           30.,            0.,NA,NA,"",   68.4186E-03,   66.3694E-03,   16.6195E-03,   1.67227E-12
C:/temp/dataset/4/12_15.odb,Step-1,Increment      1: Step Time =    1.000,"PART-1-1",             2,          -15.,           30.,            0.,NA,NA,"",   71.5223E-03,   66.3744E-03,   26.6435E-03,   1.76002E-12
C:/temp/dataset/4/12_15.odb,Step-1,Increment      1: Step Time =    1.000,"PART-1-1",             3,          -15.,         21.25,            0.,NA,NA,"",   63.4686E-03,   57.6034E-03,   26.6479E-03,   11.4275E-12
C:/temp/dataset/4/12_15.odb,Step-1,Increment      1: Step Time =    1.000,"PART-1-1",             4,          -15.,          12.5,            0.,NA,NA,"",   55.6323E-03,   48.8324E-03,   26.6523E-03,   22.0084E-12
C:/temp/dataset/4/12_15.odb,Step-1,Increment      1: Step Time =    1.000,"PART-1-1",             5,          -15.,          3.75,            0.,NA,NA,"",   48.1196E-03,   40.0615E-03,   26.6567E-03,   11.9856E-12
C:/temp/dataset/4/12_15.odb,Step-1,Increment      1: Step Time =    1.000,"PART-1-1",             6,          -15.,           -5.,            0.,NA,NA,"",   41.1085E-03,   31.2905E-03,   26.6611E-03,   3.49644E-12
C:/temp/dataset/4/12_15.odb,Step-1,Increment      1: Step Time =    1.000,"PART-1-1",             7,          -10.,           -5.,            0.,NA,NA,"",   38.0476E-03,   31.2880E-03,   21.6491E-03,   31.2820E-12
C:/temp/dataset/4/12_15.odb,Step-1,Increment      1: Step Time =    1.000,"PART-1-1",             8,           -5.,           -5.,            0.,NA,NA,"",   35.4341E-03,   31.2855E-03,   16.6371E-03,   570.814E-12
C:/temp/dataset/4/12_15.odb,Step-1,Increment      1: Step Time =    1.000,"PART-1-1",             9,            0.,           -5.,            0.,NA,NA,"",   33.3731E-03,   31.2830E-03,   11.6251E-03,   6.81740E-09
C:/temp/dataset/4/12_15.odb,Step-1,Increment      1: Step Time =    1.000,"PART-1-1",            10,            5.,           -5.,            0.,NA,NA,"",   31.9719E-03,   31.2805E-03,   6.61332E-03,   177.964E-09
C:/temp/dataset/4/12_15.odb,Step-1,Increment      1: Step Time =    1.000,"PART-1-1",            11,            5.,        -11.25,            0.,NA,NA,"",   25.8695E-03,   25.0086E-03,   6.61817E-03,   573.557E-09
C:/temp/dataset/4/12_15.odb,Step-1,Increment      1: Step Time =    1.000,"PART-1-1",            12,            5.,         -17.5,            0.,NA,NA,"",   19.8253E-03,   18.7150E-03,   6.54162E-03,   49.9735E-06
C:/temp/dataset/4/12_15.odb,Step-1,Increment      1: Step Time =    1.000,"PART-1-1",            13,            5.,        -23.75,            0.,NA,NA,"",   15.8981E-03,   14.9667E-03,   5.36170E-03,   858.018E-06
C:/temp/dataset/4/12_15.odb,Step-1,Increment      1: Step Time =    1.000,"PART-1-1",            14,            5.,          -30.,            0.,NA,NA,"",            0.,   1.49201E-39,   2.18680E-39,   4.96922E-03
C:/temp/dataset/4/12_15.odb,Step-1,Increment      1: Step Time =    1.000,"PART-1-1",            15,           15.,          -30.,            0.,NA,NA,"",            0.,   782.226E-42,  -1.26583E-39,   2.41646E-03
C:/temp/dataset/4/12_15.odb,Step-1,Increment      1: Step Time =    1.000,"PART-1-1",            16,           15.,         -22.5,            0.,NA,NA,"",   13.8130E-03,   13.2544E-03,  -3.88840E-03,   114.991E-06
C:/temp/dataset/4/12_15.odb,Step-1,Increment      1: Step Time =    1.000,"PART-1-1",            17,           15.,          -15.,            0.,NA,NA,"",   21.5506E-03,   21.2774E-03,  -3.42058E-03,   13.4497E-06
C:/temp/dataset/4/12_15.odb,Step-1,Increment      1: Step Time =    1.000,"PART-1-1",            18,           15.,          -7.5,            0.,NA,NA,"",   28.9714E-03,   28.7702E-03,  -3.40847E-03,   447.764E-09
C:/temp/dataset/4/12_15.odb,Step-1,Increment      1: Step Time =    1.000,"PART-1-1",            19,           15.,            0.,            0.,NA,NA,"",   36.4475E-03,   36.2873E-03,  -3.41344E-03,   27.3997E-09
C:/temp/dataset/4/12_15.odb,Step-1,Increment      1: Step Time =    1.000,"PART-1-1",            20,           15.,           7.5,            0.,NA,NA,"",   43.9385E-03,   43.8054E-03,  -3.41725E-03,   745.239E-12
C:/temp/dataset/4/12_15.odb,Step-1,Increment      1: Step Time =    1.000,"PART-1-1",            21,           15.,           15.,            0.,NA,NA,"",   51.4373E-03,   51.3234E-03,  -3.42102E-03,   51.6316E-12
C:/temp/dataset/4/12_15.odb,Step-1,Increment      1: Step Time =    1.000,"PART-1-1",            22,           15.,          22.5,            0.,NA,NA,"",   58.9410E-03,   58.8414E-03,  -3.42478E-03,   12.2030E-12
C:/temp/dataset/4/12_15.odb,Step-1,Increment      1: Step Time =    1.000,"PART-1-1",            23,           15.,           30.,            0.,NA,NA,"",   66.4480E-03,   66.3595E-03,  -3.42855E-03,   1.59719E-12
C:/temp/dataset/4/12_15.odb,Step-1,Increment      1: Step Time =    1.000,"PART-1-1",            24,            5.,           30.,            0.,NA,NA,"",   66.6914E-03,   66.3645E-03,   6.59549E-03,   1.77081E-12
C:/temp/dataset/4/12_15.odb,Step-1,Increment      1: Step Time =    1.000,"PART-1-1",            25,            5.,         23.75,            0.,NA,NA,"",   60.4606E-03,   60.0995E-03,   6.59863E-03,   6.71823E-12
C:/temp/dataset/4/12_15.odb,Step-1,Increment      1: Step Time =    1.000,"PART-1-1",            26,            5.,          17.5,            0.,NA,NA,"",   54.2377E-03,   53.8345E-03,   6.60177E-03,   30.7314E-12
C:/temp/dataset/4/12_15.odb,Step-1,Increment      1: Step Time =    1.000,"PART-1-1",            27,            5.,         11.25,            0.,NA,NA,"",   48.0258E-03,   47.5694E-03,   6.60491E-03,   420.832E-12
C:/temp/dataset/4/12_15.odb,Step-1,Increment      1: Step Time =    1.000,"PART-1-1",            28,            5.,            5.,            0.,NA,NA,"",   41.8297E-03,   41.3044E-03,   6.60805E-03,   7.09410E-09
C:/temp/dataset/4/12_15.odb,Step-1,Increment      1: Step Time =    1.000,"PART-1-1",            29,            0.,            5.,            0.,NA,NA,"",   42.9102E-03,   41.3069E-03,   11.6201E-03,   2.23640E-09
C:/temp/dataset/4/12_15.odb,Step-1,Increment      1: Step Time =    1.000,"PART-1-1",            30,           -5.,            5.,            0.,NA,NA,"",   44.5320E-03,   41.3094E-03,   16.6321E-03,   255.604E-12
C:/temp/dataset/4/12_15.odb,Step-1,Increment      1: Step Time =    1.000,"PART-1-1",            31,           -5.,         11.25,            0.,NA,NA,"",   50.3969E-03,   47.5744E-03,   16.6289E-03,   26.6103E-12
C:/temp/dataset/4/12_15.odb,Step-1,Increment      1: Step Time =    1.000,"PART-1-1",            32,           -5.,          17.5,            0.,NA,NA,"",   56.3480E-03,   53.8394E-03,   16.6258E-03,   16.4812E-12
C:/temp/dataset/4/12_15.odb,Step-1,Increment      1: Step Time =    1.000,"PART-1-1",            33,           -5.,         23.75,            0.,NA,NA,"",   62.3607E-03,   60.1044E-03,   16.6226E-03,   8.57496E-12
C:/temp/dataset/4/12_15.odb,Step-1,Increment      1: Step Time =    1.000,"PART-1-1",            34,          -7.5,           30.,            0.,NA,NA,"",   69.0713E-03,   66.3707E-03,   19.1255E-03,   3.62747E-12
C:/temp/dataset/4/12_15.odb,Step-1,Increment      1: Step Time =    1.000,"PART-1-1",            35,          -10.,           30.,            0.,NA,NA,"",   69.8080E-03,   66.3719E-03,   21.6315E-03,   2.55850E-12
C:/temp/dataset/4/12_15.odb,Step-1,Increment      1: Step Time =    1.000,"PART-1-1",            36,         -12.5,           30.,            0.,NA,NA,"",   70.6259E-03,   66.3732E-03,   24.1375E-03,   3.96300E-12
C:/temp/dataset/4/12_15.odb,Step-1,Increment      1: Step Time =    1.000,"PART-1-1",            37,          -15.,       27.8125,            0.,NA,NA,"",   69.4926E-03,   64.1817E-03,   26.6446E-03,   4.30179E-12
C:/temp/dataset/4/12_15.odb,Step-1,Increment      1: Step Time =    1.000,"PART-1-1",            38,          -15.,        25.625,            0.,NA,NA,"",   67.4731E-03,   61.9889E-03,   26.6457E-03,   5.99514E-12
C:/temp/dataset/4/12_15.odb,Step-1,Increment      1: Step Time =    1.000,"PART-1-1",            39,          -15.,       23.4375,            0.,NA,NA,"",   65.4648E-03,   59.7962E-03,   26.6468E-03,   8.60213E-12
C:/temp/dataset/4/12_15.odb,Step-1,Increment      1: Step Time =    1.000,"PART-1-1",            40,          -15.,       19.0625,            0.,NA,NA,"",   61.4859E-03,   55.4107E-03,   26.6490E-03,   14.3699E-12
C:/temp/dataset/4/12_15.odb,Step-1,Increment      1: Step Time =    1.000,"PART-1-1",            41,          -15.,        16.875,            0.,NA,NA,"",   59.5179E-03,   53.2179E-03,   26.6501E-03,   17.2243E-12
C:/temp/dataset/4/12_15.odb,Step-1,Increment      1: Step Time =    1.000,"PART-1-1",            42,          -15.,       14.6875,            0.,NA,NA,"",   57.5661E-03,   51.0252E-03,   26.6512E-03,   19.9386E-12
C:/temp/dataset/4/12_15.odb,Step-1,Increment      1: Step Time =    1.000,"PART-1-1",            43,          -15.,       10.3125,            0.,NA,NA,"",   53.7184E-03,   46.6397E-03,   26.6534E-03,   22.5891E-12
C:/temp/dataset/4/12_15.odb,Step-1,Increment      1: Step Time =    1.000,"PART-1-1",            44,          -15.,         8.125,            0.,NA,NA,"",   51.8266E-03,   44.4470E-03,   26.6545E-03,   20.6555E-12
C:/temp/dataset/4/12_15.odb,Step-1,Increment      1: Step Time =    1.000,"PART-1-1",            45,          -15.,        5.9375,            0.,NA,NA,"",   49.9594E-03,   42.2542E-03,   26.6556E-03,   16.6227E-12
C:/temp/dataset/4/12_15.odb,Step-1,Increment      1: Step Time =    1.000,"PART-1-1",            46,          -15.,        1.5625,            0.,NA,NA,"",   46.3107E-03,   37.8687E-03,   26.6578E-03,   6.46583E-12
C:/temp/dataset/4/12_15.odb,Step-1,Increment      1: Step Time =    1.000,"PART-1-1",            47,          -15.,     -625.E-03,            0.,NA,NA,"",   44.5362E-03,   35.6760E-03,   26.6589E-03,   3.10322E-12
C:/temp/dataset/4/12_15.odb,Step-1,Increment      1: Step Time =    1.000,"PART-1-1",            48,          -15.,       -2.8125,            0.,NA,NA,"",   42.8005E-03,   33.4832E-03,   26.6600E-03,   5.27327E-12
C:/temp/dataset/4/12_15.odb,Step-1,Increment      1: Step Time =    1.000,"PART-1-1",            49,         -12.5,           -5.,            0.,NA,NA,"",   39.5283E-03,   31.2892E-03,   24.1551E-03,   6.91663E-12
C:/temp/dataset/4/12_15.odb,Step-1,Increment      1: Step Time =    1.000,"PART-1-1",            50,          -7.5,           -5.,            0.,NA,NA,"",   36.6786E-03,   31.2867E-03,   19.1431E-03,   74.3410E-12
C:/temp/dataset/4/12_15.odb,Step-1,Increment      1: Step Time =    1.000,"PART-1-1",            51,          -2.5,           -5.,            0.,NA,NA,"",   34.3277E-03,   31.2842E-03,   14.1311E-03,   1.37900E-09
C:/temp/dataset/4/12_15.odb,Step-1,Increment      1: Step Time =    1.000,"PART-1-1",            52,           2.5,           -5.,            0.,NA,NA,"",   32.5838E-03,   31.2817E-03,   9.11913E-03,   28.7813E-09
C:/temp/dataset/4/12_15.odb,Step-1,Increment      1: Step Time =    1.000,"PART-1-1",            53,            5.,      -7.08333,            0.,NA,NA,"",   29.9317E-03,   29.1916E-03,   6.61503E-03,   428.873E-09
C:/temp/dataset/4/12_15.odb,Step-1,Increment      1: Step Time =    1.000,"PART-1-1",            54,            5.,      -9.16667,            0.,NA,NA,"",   27.8976E-03,   27.1015E-03,   6.61694E-03,   452.469E-09
C:/temp/dataset/4/12_15.odb,Step-1,Increment      1: Step Time =    1.000,"PART-1-1",            55,            5.,      -13.3333,            0.,NA,NA,"",   23.8468E-03,   22.9109E-03,   6.61541E-03,   4.73156E-06
C:/temp/dataset/4/12_15.odb,Step-1,Increment      1: Step Time =    1.000,"PART-1-1",            56,            5.,      -15.4167,            0.,NA,NA,"",   21.8299E-03,   20.8093E-03,   6.59669E-03,   18.0129E-06
C:/temp/dataset/4/12_15.odb,Step-1,Increment      1: Step Time =    1.000,"PART-1-1",            57,            5.,      -19.5833,            0.,NA,NA,"",   17.8799E-03,   16.7037E-03,   6.37781E-03,   122.994E-06
C:/temp/dataset/4/12_15.odb,Step-1,Increment      1: Step Time =    1.000,"PART-1-1",            58,            5.,      -21.6667,            0.,NA,NA,"",   16.1811E-03,   14.9930E-03,   6.08595E-03,   319.667E-06
C:/temp/dataset/4/12_15.odb,Step-1,Increment      1: Step Time =    1.000,"PART-1-1",            59,            5.,      -25.8333,            0.,NA,NA,"",   15.0334E-03,   13.9911E-03,   5.50014E-03,   1.40656E-03
C:/temp/dataset/4/12_15.odb,Step-1,Increment      1: Step Time =    1.000,"PART-1-1",            60,            5.,      -27.9167,            0.,NA,NA,"",   10.3707E-03,   9.25563E-03,   4.67813E-03,   2.31427E-03
C:/temp/dataset/4/12_15.odb,Step-1,Increment      1: Step Time =    1.000,"PART-1-1",            61,           7.5,          -30.,            0.,NA,NA,"",            0.,   2.13000E-39,  -264.101E-42,   1.64764E-03
C:/temp/dataset/4/12_15.odb,Step-1,Increment      1: Step Time =    1.000,"PART-1-1",            62,           10.,          -30.,            0.,NA,NA,"",            0.,   878.428E-42,   207.440E-42,   1.36133E-03
C:/temp/dataset/4/12_15.odb,Step-1,Increment      1: Step Time =    1.000,"PART-1-1",            63,          12.5,          -30.,            0.,NA,NA,"",            0.,   954.413E-42,  -684.893E-42,   995.907E-06
C:/temp/dataset/4/12_15.odb,Step-1,Increment      1: Step Time =    1.000,"PART-1-1",            64,           15.,         -27.5,            0.,NA,NA,"",   6.12233E-03,   5.14262E-03,  -3.32211E-03,   826.330E-06
C:/temp/dataset/4/12_15.odb,Step-1,Increment      1: Step Time =    1.000,"PART-1-1",            65,           15.,          -25.,            0.,NA,NA,"",   10.4200E-03,   9.61002E-03,  -4.02777E-03,   64.0725E-06
C:/temp/dataset/4/12_15.odb,Step-1,Increment      1: Step Time =    1.000,"PART-1-1",            66,           15.,          -20.,            0.,NA,NA,"",   16.5787E-03,   16.1757E-03,  -3.63319E-03,   100.634E-06
C:/temp/dataset/4/12_15.odb,Step-1,Increment      1: Step Time =    1.000,"PART-1-1",            67,           15.,         -17.5,            0.,NA,NA,"",   19.0949E-03,   18.7755E-03,  -3.47795E-03,   43.1945E-06
C:/temp/dataset/4/12_15.odb,Step-1,Increment      1: Step Time =    1.000,"PART-1-1",            68,           15.,         -12.5,            0.,NA,NA,"",   24.0120E-03,   23.7692E-03,  -3.40659E-03,   2.29444E-06
C:/temp/dataset/4/12_15.odb,Step-1,Increment      1: Step Time =    1.000,"PART-1-1",            69,           15.,          -10.,            0.,NA,NA,"",   26.4871E-03,   26.2672E-03,  -3.40629E-03,   289.216E-09
C:/temp/dataset/4/12_15.odb,Step-1,Increment      1: Step Time =    1.000,"PART-1-1",            70,           15.,           -5.,            0.,NA,NA,"",   31.4608E-03,   31.2754E-03,  -3.41047E-03,   234.816E-09
C:/temp/dataset/4/12_15.odb,Step-1,Increment      1: Step Time =    1.000,"PART-1-1",            71,           15.,          -2.5,            0.,NA,NA,"",   33.9532E-03,   33.7813E-03,  -3.41207E-03,   88.4946E-09
C:/temp/dataset/4/12_15.odb,Step-1,Increment      1: Step Time =    1.000,"PART-1-1",            72,           15.,           2.5,            0.,NA,NA,"",   38.9433E-03,   38.7933E-03,  -3.41473E-03,   6.57487E-09
C:/temp/dataset/4/12_15.odb,Step-1,Increment      1: Step Time =    1.000,"PART-1-1",            73,           15.,            5.,            0.,NA,NA,"",   41.4404E-03,   41.2994E-03,  -3.41600E-03,   622.830E-12
C:/temp/dataset/4/12_15.odb,Step-1,Increment      1: Step Time =    1.000,"PART-1-1",            74,           15.,           10.,            0.,NA,NA,"",   46.4374E-03,   46.3114E-03,  -3.41850E-03,   520.017E-12
C:/temp/dataset/4/12_15.odb,Step-1,Increment      1: Step Time =    1.000,"PART-1-1",            75,           15.,          12.5,            0.,NA,NA,"",   48.9370E-03,   48.8174E-03,  -3.41976E-03,   208.745E-12
C:/temp/dataset/4/12_15.odb,Step-1,Increment      1: Step Time =    1.000,"PART-1-1",            76,           15.,          17.5,            0.,NA,NA,"",   53.9381E-03,   53.8294E-03,  -3.42227E-03,   5.53214E-12
C:/temp/dataset/4/12_15.odb,Step-1,Increment      1: Step Time =    1.000,"PART-1-1",            77,           15.,           20.,            0.,NA,NA,"",   56.4394E-03,   56.3354E-03,  -3.42353E-03,   14.2879E-12
C:/temp/dataset/4/12_15.odb,Step-1,Increment      1: Step Time =    1.000,"PART-1-1",            78,           15.,           25.,            0.,NA,NA,"",   61.4430E-03,   61.3475E-03,  -3.42604E-03,   8.04352E-12
C:/temp/dataset/4/12_15.odb,Step-1,Increment      1: Step Time =    1.000,"PART-1-1",            79,           15.,          27.5,            0.,NA,NA,"",   63.9454E-03,   63.8535E-03,  -3.42730E-03,   5.01812E-12
C:/temp/dataset/4/12_15.odb,Step-1,Increment      1: Step Time =    1.000,"PART-1-1",            80,          12.5,           30.,            0.,NA,NA,"",   66.3671E-03,   66.3607E-03,  -922.542E-06,   3.43757E-12
C:/temp/dataset/4/12_15.odb,Step-1,Increment      1: Step Time =    1.000,"PART-1-1",            81,           10.,           30.,            0.,NA,NA,"",   66.3809E-03,   66.3620E-03,   1.58347E-03,   2.68782E-12
C:/temp/dataset/4/12_15.odb,Step-1,Increment      1: Step Time =    1.000,"PART-1-1",            82,           7.5,           30.,            0.,NA,NA,"",   66.4891E-03,   66.3632E-03,   4.08948E-03,   4.11459E-12
C:/temp/dataset/4/12_15.odb,Step-1,Increment      1: Step Time =    1.000,"PART-1-1",            83,            5.,       27.9167,            0.,NA,NA,"",   64.6138E-03,   64.2762E-03,   6.59654E-03,   4.12844E-12
C:/temp/dataset/4/12_15.odb,Step-1,Increment      1: Step Time =    1.000,"PART-1-1",            84,            5.,       25.8333,            0.,NA,NA,"",   62.5368E-03,   62.1878E-03,   6.59758E-03,   5.12138E-12
C:/temp/dataset/4/12_15.odb,Step-1,Increment      1: Step Time =    1.000,"PART-1-1",            85,            5.,       21.6667,            0.,NA,NA,"",   58.3853E-03,   58.0111E-03,   6.59968E-03,   8.83391E-12
C:/temp/dataset/4/12_15.odb,Step-1,Increment      1: Step Time =    1.000,"PART-1-1",            86,            5.,       19.5833,            0.,NA,NA,"",   56.3110E-03,   55.9228E-03,   6.60072E-03,   13.9555E-12
C:/temp/dataset/4/12_15.odb,Step-1,Increment      1: Step Time =    1.000,"PART-1-1",            87,            5.,       15.4167,            0.,NA,NA,"",   52.1657E-03,   51.7461E-03,   6.60282E-03,   78.0139E-12
C:/temp/dataset/4/12_15.odb,Step-1,Increment      1: Step Time =    1.000,"PART-1-1",            88,            5.,       13.3333,            0.,NA,NA,"",   50.0950E-03,   49.6578E-03,   6.60386E-03,   198.938E-12
C:/temp/dataset/4/12_15.odb,Step-1,Increment      1: Step Time =    1.000,"PART-1-1",            89,            5.,       9.16667,            0.,NA,NA,"",   45.9583E-03,   45.4811E-03,   6.60595E-03,   811.796E-12
C:/temp/dataset/4/12_15.odb,Step-1,Increment      1: Step Time =    1.000,"PART-1-1",            90,            5.,       7.08333,            0.,NA,NA,"",   43.8929E-03,   43.3927E-03,   6.60700E-03,   1.68924E-09
C:/temp/dataset/4/12_15.odb,Step-1,Increment      1: Step Time =    1.000,"PART-1-1",            91,           2.5,            5.,            0.,NA,NA,"",   42.2992E-03,   41.3057E-03,   9.11407E-03,   1.73457E-09
C:/temp/dataset/4/12_15.odb,Step-1,Increment      1: Step Time =    1.000,"PART-1-1",            92,          -2.5,            5.,            0.,NA,NA,"",   43.6568E-03,   41.3082E-03,   14.1261E-03,   977.187E-12
C:/temp/dataset/4/12_15.odb,Step-1,Increment      1: Step Time =    1.000,"PART-1-1",            93,           -5.,       7.08333,            0.,NA,NA,"",   46.4753E-03,   43.3978E-03,   16.6310E-03,   60.3217E-12
C:/temp/dataset/4/12_15.odb,Step-1,Increment      1: Step Time =    1.000,"PART-1-1",            94,           -5.,       9.16667,            0.,NA,NA,"",   48.4308E-03,   45.4861E-03,   16.6300E-03,   37.0918E-12
C:/temp/dataset/4/12_15.odb,Step-1,Increment      1: Step Time =    1.000,"PART-1-1",            95,           -5.,       13.3333,            0.,NA,NA,"",   52.3725E-03,   49.6628E-03,   16.6279E-03,   22.4185E-12
C:/temp/dataset/4/12_15.odb,Step-1,Increment      1: Step Time =    1.000,"PART-1-1",            96,           -5.,       15.4167,            0.,NA,NA,"",   54.3565E-03,   51.7511E-03,   16.6268E-03,   19.2092E-12
C:/temp/dataset/4/12_15.odb,Step-1,Increment      1: Step Time =    1.000,"PART-1-1",            97,           -5.,       19.5833,            0.,NA,NA,"",   58.3463E-03,   55.9277E-03,   16.6247E-03,   13.8302E-12
C:/temp/dataset/4/12_15.odb,Step-1,Increment      1: Step Time =    1.000,"PART-1-1",            98,           -5.,       21.6667,            0.,NA,NA,"",   60.3507E-03,   58.0161E-03,   16.6237E-03,   11.1908E-12
C:/temp/dataset/4/12_15.odb,Step-1,Increment      1: Step Time =    1.000,"PART-1-1",            99,           -5.,       25.8333,            0.,NA,NA,"",   64.3756E-03,   62.1927E-03,   16.6216E-03,   6.12270E-12
C:/temp/dataset/4/12_15.odb,Step-1,Increment      1: Step Time =    1.000,"PART-1-1",           100,           -5.,       27.9167,            0.,NA,NA,"",   66.3950E-03,   64.2811E-03,   16.6206E-03,   4.50524E-12
C:/temp/dataset/4/12_15.odb,Step-1,Increment      1: Step Time =    1.000,"PART-1-1",           101,       6.93475,       11.1046,            0.,NA,NA,"",   47.6516E-03,   47.4227E-03,   4.66558E-03,   244.955E-12
C:/temp/dataset/4/12_15.odb,Step-1,Increment      1: Step Time =    1.000,"PART-1-1",           102,       7.10183,      -21.7370,            0.,NA,NA,"",   15.4686E-03,   14.7739E-03,   4.58352E-03,   170.290E-06
C:/temp/dataset/4/12_15.odb,Step-1,Increment      1: Step Time =    1.000,"PART-1-1",           103,      -7.18606,       25.6133,            0.,NA,NA,"",   64.7659E-03,   61.9733E-03,   18.8130E-03,   3.85905E-12
C:/temp/dataset/4/12_15.odb,Step-1,Increment      1: Step Time =    1.000,"PART-1-1",           104,       7.08931,      -17.4629,            0.,NA,NA,"",   19.2740E-03,   18.7339E-03,   4.53068E-03,   44.0731E-06
C:/temp/dataset/4/12_15.odb,Step-1,Increment      1: Step Time =    1.000,"PART-1-1",           105,       7.11844,      -23.8299,            0.,NA,NA,"",   14.2598E-03,   13.6086E-03,   4.25989E-03,   868.644E-06
C:/temp/dataset/4/12_15.odb,Step-1,Increment      1: Step Time =    1.000,"PART-1-1",           106,       7.34845,      -27.9642,            0.,NA,NA,"",   6.44219E-03,   6.31422E-03,   1.27764E-03,   2.17268E-03
C:/temp/dataset/4/12_15.odb,Step-1,Increment      1: Step Time =    1.000,"PART-1-1",           107,       7.18399,      -25.9216,            0.,NA,NA,"",   11.5627E-03,   11.2137E-03,   2.81915E-03,   1.72158E-03
C:/temp/dataset/4/12_15.odb,Step-1,Increment      1: Step Time =    1.000,"PART-1-1",           108,       7.00226,      -10.9532,            0.,NA,NA,"",   25.7223E-03,   25.3060E-03,   4.60889E-03,   2.31848E-06
C:/temp/dataset/4/12_15.odb,Step-1,Increment      1: Step Time =    1.000,"PART-1-1",           109,       6.93148,       25.8450,            0.,NA,NA,"",   62.3730E-03,   62.1986E-03,   4.66145E-03,   3.15227E-12
C:/temp/dataset/4/12_15.odb,Step-1,Increment      1: Step Time =    1.000,"PART-1-1",           110,       6.95256,       21.7727,            0.,NA,NA,"",   58.3016E-03,   58.1165E-03,   4.64237E-03,   7.17992E-12
C:/temp/dataset/4/12_15.odb,Step-1,Increment      1: Step Time =    1.000,"PART-1-1",           111,       6.99069,       19.6693,            0.,NA,NA,"",   56.1970E-03,   56.0079E-03,   4.60521E-03,   13.4169E-12
C:/temp/dataset/4/12_15.odb,Step-1,Increment      1: Step Time =    1.000,"PART-1-1",           112,       6.98342,       13.2435,            0.,NA,NA,"",   49.7811E-03,   49.5667E-03,   4.61572E-03,   165.015E-12
C:/temp/dataset/4/12_15.odb,Step-1,Increment      1: Step Time =    1.000,"PART-1-1",           113,       6.84904,       8.98858,            0.,NA,NA,"",   45.5502E-03,   45.3016E-03,   4.75256E-03,   255.039E-12
C:/temp/dataset/4/12_15.odb,Step-1,Increment      1: Step Time =    1.000,"PART-1-1",           114,      -7.00061,       11.3966,            0.,NA,NA,"",   51.2315E-03,   47.7224E-03,   18.6343E-03,   15.6343E-12
C:/temp/dataset/4/12_15.odb,Step-1,Increment      1: Step Time =    1.000,"PART-1-1",           115,      -6.87185,       17.5946,            0.,NA,NA,"",   57.0204E-03,   53.9351E-03,   18.5021E-03,   10.4589E-12
C:/temp/dataset/4/12_15.odb,Step-1,Increment      1: Step Time =    1.000,"PART-1-1",           116,      -6.78696,       21.5686,            0.,NA,NA,"",   60.7757E-03,   57.9187E-03,   18.4150E-03,   7.40877E-12
C:/temp/dataset/4/12_15.odb,Step-1,Increment      1: Step Time =    1.000,"PART-1-1",           117,      -6.92081,       23.5666,            0.,NA,NA,"",   62.7266E-03,   59.9216E-03,   18.5482E-03,   5.60382E-12
C:/temp/dataset/4/12_15.odb,Step-1,Increment      1: Step Time =    1.000,"PART-1-1",           118,      -7.47694,       27.7553,            0.,NA,NA,"",   66.9058E-03,   64.1205E-03,   19.1035E-03,   2.88562E-12
C:/temp/dataset/4/12_15.odb,Step-1,Increment      1: Step Time =    1.000,"PART-1-1",           119,       6.62973,      -6.72562,            0.,NA,NA,"",   29.9664E-03,   29.5496E-03,   4.98039E-03,   111.340E-09
C:/temp/dataset/4/12_15.odb,Step-1,Increment      1: Step Time =    1.000,"PART-1-1",           120,       7.00244,       17.5390,            0.,NA,NA,"",   54.0681E-03,   53.8725E-03,   4.59450E-03,   33.2794E-12
C:/temp/dataset/4/12_15.odb,Step-1,Increment      1: Step Time =    1.000,"PART-1-1",           121,       7.05765,      -13.1226,            0.,NA,NA,"",   23.5654E-03,   23.1210E-03,   4.55460E-03,   8.01221E-06
C:/temp/dataset/4/12_15.odb,Step-1,Increment      1: Step Time =    1.000,"PART-1-1",           122,      -6.97858,       13.4860,            0.,NA,NA,"",   53.1797E-03,   49.8168E-03,   18.6111E-03,   13.5720E-12
C:/temp/dataset/4/12_15.odb,Step-1,Increment      1: Step Time =    1.000,"PART-1-1",           123,      -7.06135,       7.11796,            0.,NA,NA,"",   47.2870E-03,   43.4335E-03,   18.6973E-03,   22.5171E-12
C:/temp/dataset/4/12_15.odb,Step-1,Increment      1: Step Time =    1.000,"PART-1-1",           124,       6.87626,      -8.81940,            0.,NA,NA,"",   27.8545E-03,   27.4493E-03,   4.73423E-03,   396.521E-09
C:/temp/dataset/4/12_15.odb,Step-1,Increment      1: Step Time =    1.000,"PART-1-1",           125,       7.08495,      -15.2974,            0.,NA,NA,"",   21.4070E-03,   20.9225E-03,   4.52885E-03,   20.6328E-06
C:/temp/dataset/4/12_15.odb,Step-1,Increment      1: Step Time =    1.000,"PART-1-1",           126,       7.00715,       15.3887,            0.,NA,NA,"",   51.9204E-03,   51.7170E-03,   4.59085E-03,   82.3665E-12
C:/temp/dataset/4/12_15.odb,Step-1,Increment      1: Step Time =    1.000,"PART-1-1",           127,      -7.01992,       9.30136,            0.,NA,NA,"",   49.2887E-03,   45.6221E-03,   18.6547E-03,   16.8964E-12
C:/temp/dataset/4/12_15.odb,Step-1,Increment      1: Step Time =    1.000,"PART-1-1",           128,      -6.93369,       15.5639,            0.,NA,NA,"",   55.1202E-03,   51.8997E-03,   18.5651E-03,   11.9464E-12
C:/temp/dataset/4/12_15.odb,Step-1,Increment      1: Step Time =    1.000,"PART-1-1",           129,      -6.79206,       19.5889,            0.,NA,NA,"",   58.8895E-03,   55.9342E-03,   18.4211E-03,   9.03317E-12
C:/temp/dataset/4/12_15.odb,Step-1,Increment      1: Step Time =    1.000,"PART-1-1",           130,       7.09662,      -19.6136,            0.,NA,NA,"",   17.2304E-03,   16.6231E-03,   4.53457E-03,   55.1707E-06
C:/temp/dataset/4/12_15.odb,Step-1,Increment      1: Step Time =    1.000,"PART-1-1",           131,       6.89670,       23.8203,            0.,NA,NA,"",   60.3521E-03,   60.1690E-03,   4.69734E-03,   4.89739E-12
C:/temp/dataset/4/12_15.odb,Step-1,Increment      1: Step Time =    1.000,"PART-1-1",           132,       6.67676,       6.98748,            0.,NA,NA,"",   43.5752E-03,   43.2958E-03,   4.92626E-03,   2.20025E-09
C:/temp/dataset/4/12_15.odb,Step-1,Increment      1: Step Time =    1.000,"PART-1-1",           133,      -13.0361,       12.2042,            0.,NA,NA,"",   54.4512E-03,   48.5349E-03,   24.6839E-03,   13.7466E-12
C:/temp/dataset/4/12_15.odb,Step-1,Increment      1: Step Time =    1.000,"PART-1-1",           134,      -13.0483,       3.72302,            0.,NA,NA,"",   47.0402E-03,   40.0334E-03,   24.7003E-03,   16.2602E-12
C:/temp/dataset/4/12_15.odb,Step-1,Increment      1: Step Time =    1.000,"PART-1-1",           135,      -13.0740,       10.0823,            0.,NA,NA,"",   52.5826E-03,   46.4080E-03,   24.7229E-03,   15.1071E-12
C:/temp/dataset/4/12_15.odb,Step-1,Increment      1: Step Time =    1.000,"PART-1-1",           136,      -13.0017,       14.3509,            0.,NA,NA,"",   56.3621E-03,   50.6868E-03,   24.6482E-03,   12.1509E-12
C:/temp/dataset/4/12_15.odb,Step-1,Increment      1: Step Time =    1.000,"PART-1-1",           137,      -12.4480,       21.2307,            0.,NA,NA,"",   62.4187E-03,   57.5828E-03,   24.0898E-03,   6.04639E-12
C:/temp/dataset/4/12_15.odb,Step-1,Increment      1: Step Time =    1.000,"PART-1-1",           138,      -13.0426,       25.7965,            0.,NA,NA,"",   66.8814E-03,   62.1599E-03,   24.6835E-03,   3.47275E-12
C:/temp/dataset/4/12_15.odb,Step-1,Increment      1: Step Time =    1.000,"PART-1-1",           139,      -12.9478,       23.6552,            0.,NA,NA,"",   64.8556E-03,   60.0134E-03,   24.5895E-03,   5.07979E-12
C:/temp/dataset/4/12_15.odb,Step-1,Increment      1: Step Time =    1.000,"PART-1-1",           140,      -12.8307,       18.7376,            0.,NA,NA,"",   60.2764E-03,   55.0839E-03,   24.4746E-03,   8.44611E-12
C:/temp/dataset/4/12_15.odb,Step-1,Increment      1: Step Time =    1.000,"PART-1-1",           141,      -12.9472,       16.5227,            0.,NA,NA,"",   58.3041E-03,   52.8637E-03,   24.5926E-03,   10.4051E-12
C:/temp/dataset/4/12_15.odb,Step-1,Increment      1: Step Time =    1.000,"PART-1-1",           142,      -13.1112,       7.97345,            0.,NA,NA,"",   50.7453E-03,   44.2941E-03,   24.7612E-03,   16.1545E-12
C:/temp/dataset/4/12_15.odb,Step-1,Increment      1: Step Time =    1.000,"PART-1-1",           143,      -13.1276,       5.86243,            0.,NA,NA,"",   48.9180E-03,   42.1780E-03,   24.7788E-03,   15.9271E-12
C:/temp/dataset/4/12_15.odb,Step-1,Increment      1: Step Time =    1.000,"PART-1-1",           144,      -12.8109,       1.56310,            0.,NA,NA,"",   45.0828E-03,   37.8682E-03,   24.4635E-03,   19.2169E-12
C:/temp/dataset/4/12_15.odb,Step-1,Increment      1: Step Time =    1.000,"PART-1-1",           145,      -12.5511,  -622.366E-03,            0.,NA,NA,"",   43.1128E-03,   35.6774E-03,   24.2041E-03,   19.0749E-12
C:/temp/dataset/4/12_15.odb,Step-1,Increment      1: Step Time =    1.000,"PART-1-1",           146,      -7.69124,      -3.05836,            0.,NA,NA,"",   38.4478E-03,   33.2331E-03,   19.3338E-03,   153.043E-12
C:/temp/dataset/4/12_15.odb,Step-1,Increment      1: Step Time =    1.000,"PART-1-1",           147,      -2.59391,      -3.27074,            0.,NA,NA,"",   35.9513E-03,   33.0177E-03,   14.2244E-03,   1.17237E-09
C:/temp/dataset/4/12_15.odb,Step-1,Increment      1: Step Time =    1.000,"PART-1-1",           148,      -2.06699,       2.95135,            0.,NA,NA,"",   41.5741E-03,   39.2544E-03,   13.6931E-03,   894.090E-12
C:/temp/dataset/4/12_15.odb,Step-1,Increment      1: Step Time =    1.000,"PART-1-1",           149,       1.86882,      -3.06513,            0.,NA,NA,"",   34.6229E-03,   33.2215E-03,   9.75083E-03,   15.5366E-09
C:/temp/dataset/4/12_15.odb,Step-1,Increment      1: Step Time =    1.000,"PART-1-1",           150,       2.79073,       3.02834,            0.,NA,NA,"",   40.3068E-03,   39.3291E-03,   8.82364E-03,   4.49069E-09
C:/temp/dataset/4/12_15.odb,Step-1,Increment      1: Step Time =    1.000,"PART-1-1",           151,       12.5379,       2.72923,            0.,NA,NA,"",   39.0358E-03,   39.0244E-03,  -946.817E-06,   12.2676E-09
C:/temp/dataset/4/12_15.odb,Step-1,Increment      1: Step Time =    1.000,"PART-1-1",           152,       12.9313,       10.2835,            0.,NA,NA,"",   46.6160E-03,   46.5966E-03,  -1.34502E-03,   234.332E-12
C:/temp/dataset/4/12_15.odb,Step-1,Increment      1: Step Time =    1.000,"PART-1-1",           153,       12.7723,       24.8557,            0.,NA,NA,"",   61.2155E-03,   61.2039E-03,  -1.19295E-03,   4.75412E-12
C:/temp/dataset/4/12_15.odb,Step-1,Increment      1: Step Time =    1.000,"PART-1-1",           154,       12.5268,       27.4001,            0.,NA,NA,"",   63.7616E-03,   63.7545E-03,  -948.101E-06,   3.39048E-12
C:/temp/dataset/4/12_15.odb,Step-1,Increment      1: Step Time =    1.000,"PART-1-1",           155,       12.7627,      -5.01238,            0.,NA,NA,"",   31.2858E-03,   31.2640E-03,  -1.16831E-03,   145.071E-09
C:/temp/dataset/4/12_15.odb,Step-1,Increment      1: Step Time =    1.000,"PART-1-1",           156,       13.0118,      -12.5921,            0.,NA,NA,"",   23.7214E-03,   23.6792E-03,  -1.41443E-03,   5.78854E-06
C:/temp/dataset/4/12_15.odb,Step-1,Increment      1: Step Time =    1.000,"PART-1-1",           157,       9.69976,      -27.8547,            0.,NA,NA,"",   4.78162E-03,   4.77042E-03,   327.102E-06,   1.54084E-03
C:/temp/dataset/4/12_15.odb,Step-1,Increment      1: Step Time =    1.000,"PART-1-1",           158,       13.0855,      -17.4497,            0.,NA,NA,"",   18.9056E-03,   18.8464E-03,  -1.49584E-03,   36.3238E-06
C:/temp/dataset/4/12_15.odb,Step-1,Increment      1: Step Time =    1.000,"PART-1-1",           159,       12.9366,       22.3763,            0.,NA,NA,"",   58.7342E-03,   58.7185E-03,  -1.35638E-03,   6.15788E-12
C:/temp/dataset/4/12_15.odb,Step-1,Increment      1: Step Time =    1.000,"PART-1-1",           160,       13.0248,       17.5365,            0.,NA,NA,"",   53.8863E-03,   53.8670E-03,  -1.44236E-03,   27.9780E-12
C:/temp/dataset/4/12_15.odb,Step-1,Increment      1: Step Time =    1.000,"PART-1-1",           161,      -10.1545,       27.3700,            0.,NA,NA,"",   67.3568E-03,   63.7357E-03,   21.7877E-03,   4.51995E-12
C:/temp/dataset/4/12_15.odb,Step-1,Increment      1: Step Time =    1.000,"PART-1-1",           162,      -10.0546,      -2.87755,            0.,NA,NA,"",   39.8448E-03,   33.4155E-03,   21.7027E-03,   43.6466E-12
C:/temp/dataset/4/12_15.odb,Step-1,Increment      1: Step Time =    1.000,"PART-1-1",           163,      -5.07747,      -2.66322,            0.,NA,NA,"",   37.5523E-03,   33.6279E-03,   16.7136E-03,   441.583E-12
C:/temp/dataset/4/12_15.odb,Step-1,Increment      1: Step Time =    1.000,"PART-1-1",           164,  -330.659E-03,      -3.26262,            0.,NA,NA,"",   35.1222E-03,   33.0247E-03,   11.9557E-03,   3.60932E-09
C:/temp/dataset/4/12_15.odb,Step-1,Increment      1: Step Time =    1.000,"PART-1-1",           165,       3.93161,      -2.75002,            0.,NA,NA,"",   34.4052E-03,   33.5364E-03,   7.68296E-03,   25.0924E-09
C:/temp/dataset/4/12_15.odb,Step-1,Increment      1: Step Time =    1.000,"PART-1-1",           166,       12.9585,      -10.1304,            0.,NA,NA,"",   26.1730E-03,   26.1376E-03,  -1.36195E-03,   1.28303E-06
C:/temp/dataset/4/12_15.odb,Step-1,Increment      1: Step Time =    1.000,"PART-1-1",           167,       13.1106,      -19.8561,            0.,NA,NA,"",   16.4505E-03,   16.3782E-03,  -1.54015E-03,   39.1405E-06
C:/temp/dataset/4/12_15.odb,Step-1,Increment      1: Step Time =    1.000,"PART-1-1",           168,       12.2637,      -27.1930,            0.,NA,NA,"",   5.55524E-03,   5.52193E-03,  -607.448E-06,   1.14468E-03
C:/temp/dataset/4/12_15.odb,Step-1,Increment      1: Step Time =    1.000,"PART-1-1",           169,       13.0974,      -22.2394,            0.,NA,NA,"",   13.7368E-03,   13.6472E-03,  -1.56596E-03,   70.0660E-06
C:/temp/dataset/4/12_15.odb,Step-1,Increment      1: Step Time =    1.000,"PART-1-1",           170,       13.0625,      -15.0302,            0.,NA,NA,"",   21.3045E-03,   21.2540E-03,  -1.46585E-03,   17.1380E-06
C:/temp/dataset/4/12_15.odb,Step-1,Increment      1: Step Time =    1.000,"PART-1-1",           171,       12.8638,      -7.61343,            0.,NA,NA,"",   28.6855E-03,   28.6574E-03,  -1.26835E-03,   113.208E-09
C:/temp/dataset/4/12_15.odb,Step-1,Increment      1: Step Time =    1.000,"PART-1-1",           172,       12.8109,      -2.41519,            0.,NA,NA,"",   33.8892E-03,   33.8673E-03,  -1.21785E-03,   82.5453E-09
C:/temp/dataset/4/12_15.odb,Step-1,Increment      1: Step Time =    1.000,"PART-1-1",           173,       12.7001,   168.481E-03,            0.,NA,NA,"",   36.4742E-03,   36.4573E-03,  -1.10809E-03,   33.7762E-09
C:/temp/dataset/4/12_15.odb,Step-1,Increment      1: Step Time =    1.000,"PART-1-1",           174,       12.6773,       5.28127,            0.,NA,NA,"",   41.5967E-03,   41.5825E-03,  -1.08780E-03,   3.25303E-09
C:/temp/dataset/4/12_15.odb,Step-1,Increment      1: Step Time =    1.000,"PART-1-1",           175,       12.8405,       7.80961,            0.,NA,NA,"",   44.1346E-03,   44.1168E-03,  -1.25274E-03,   413.608E-12
C:/temp/dataset/4/12_15.odb,Step-1,Increment      1: Step Time =    1.000,"PART-1-1",           176,       12.9955,       12.7023,            0.,NA,NA,"",   49.0414E-03,   49.0212E-03,  -1.41057E-03,   185.494E-12
C:/temp/dataset/4/12_15.odb,Step-1,Increment      1: Step Time =    1.000,"PART-1-1",           177,       13.0102,       19.9477,            0.,NA,NA,"",   56.3021E-03,   56.2840E-03,  -1.42887E-03,   8.89681E-12
C:/temp/dataset/4/12_15.odb,Step-1,Increment      1: Step Time =    1.000,"PART-1-1",           178,       9.88408,       27.1269,            0.,NA,NA,"",   63.5048E-03,   63.4821E-03,   1.70112E-03,   4.54387E-12
C:/temp/dataset/4/12_15.odb,Step-1,Increment      1: Step Time =    1.000,"PART-1-1",           179,       13.0301,       15.1161,            0.,NA,NA,"",   51.4611E-03,   51.4408E-03,  -1.44644E-03,   83.7702E-12
C:/temp/dataset/4/12_15.odb,Step-1,Increment      1: Step Time =    1.000,"PART-1-1",           180,   300.490E-03,       3.00528,            0.,NA,NA,"",   40.9048E-03,   39.3073E-03,   11.3199E-03,   633.749E-12
C:/temp/dataset/4/12_15.odb,Step-1,Increment      1: Step Time =    1.000,"PART-1-1",           181,      -4.18418,       2.89078,            0.,NA,NA,"",   42.2653E-03,   39.1947E-03,   15.8154E-03,   522.659E-12
C:/temp/dataset/4/12_15.odb,Step-1,Increment      1: Step Time =    1.000,"PART-1-1",           182,      -8.75093,       23.2164,            0.,NA,NA,"",   62.9620E-03,   59.5714E-03,   20.3828E-03,   4.27914E-12
C:/temp/dataset/4/12_15.odb,Step-1,Increment      1: Step Time =    1.000,"PART-1-1",           183,       9.13120,      -23.8882,            0.,NA,NA,"",   12.5868E-03,   12.3704E-03,   2.32408E-03,   596.178E-06
C:/temp/dataset/4/12_15.odb,Step-1,Increment      1: Step Time =    1.000,"PART-1-1",           184,       8.76025,       8.63504,            0.,NA,NA,"",   45.0357E-03,   44.9463E-03,   2.83694E-03,   442.997E-12
C:/temp/dataset/4/12_15.odb,Step-1,Increment      1: Step Time =    1.000,"PART-1-1",           185,       8.81891,       23.9948,            0.,NA,NA,"",   60.4065E-03,   60.3430E-03,   2.77041E-03,   4.08309E-12
C:/temp/dataset/4/12_15.odb,Step-1,Increment      1: Step Time =    1.000,"PART-1-1",           186,       9.00734,       17.5557,            0.,NA,NA,"",   53.9502E-03,   53.8883E-03,   2.58477E-03,   35.7222E-12
C:/temp/dataset/4/12_15.odb,Step-1,Increment      1: Step Time =    1.000,"PART-1-1",           187,      -8.59230,       19.6811,            0.,NA,NA,"",   59.5665E-03,   56.0276E-03,   20.2256E-03,   5.27555E-12
C:/temp/dataset/4/12_15.odb,Step-1,Increment      1: Step Time =    1.000,"PART-1-1",           188,       9.06266,      -12.9142,            0.,NA,NA,"",   23.4782E-03,   23.3390E-03,   2.55323E-03,   8.59877E-06
C:/temp/dataset/4/12_15.odb,Step-1,Increment      1: Step Time =    1.000,"PART-1-1",           189,       9.13987,      -19.6571,            0.,NA,NA,"",   16.8081E-03,   16.6000E-03,   2.63629E-03,   58.3041E-06
C:/temp/dataset/4/12_15.odb,Step-1,Increment      1: Step Time =    1.000,"PART-1-1",           190,       9.00941,       15.3265,            0.,NA,NA,"",   51.7182E-03,   51.6537E-03,   2.58382E-03,   90.5011E-12
C:/temp/dataset/4/12_15.odb,Step-1,Increment      1: Step Time =    1.000,"PART-1-1",           191,      -8.96967,       13.7142,            0.,NA,NA,"",   54.1230E-03,   50.0465E-03,   20.6069E-03,   5.76001E-12
C:/temp/dataset/4/12_15.odb,Step-1,Increment      1: Step Time =    1.000,"PART-1-1",           192,       9.12973,      -17.4386,            0.,NA,NA,"",   18.9687E-03,   18.7948E-03,   2.56226E-03,   43.1385E-06
C:/temp/dataset/4/12_15.odb,Step-1,Increment      1: Step Time =    1.000,"PART-1-1",           193,       8.94484,       21.9321,            0.,NA,NA,"",   58.3352E-03,   58.2752E-03,   2.64522E-03,   5.15028E-12
C:/temp/dataset/4/12_15.odb,Step-1,Increment      1: Step Time =    1.000,"PART-1-1",           194,      -8.78258,       17.8115,            0.,NA,NA,"",   57.8746E-03,   54.1535E-03,   20.4173E-03,   5.43659E-12
C:/temp/dataset/4/12_15.odb,Step-1,Increment      1: Step Time =    1.000,"PART-1-1",           195,       8.90333,       10.8666,            0.,NA,NA,"",   47.2599E-03,   47.1832E-03,   2.69239E-03,   226.872E-12
C:/temp/dataset/4/12_15.odb,Step-1,Increment      1: Step Time =    1.000,"PART-1-1",           196,      -9.00437,       11.6266,            0.,NA,NA,"",   52.2082E-03,   47.9539E-03,   20.6427E-03,   5.85079E-12
C:/temp/dataset/4/12_15.odb,Step-1,Increment      1: Step Time =    1.000,"PART-1-1",           197,      -9.03622,       9.53759,            0.,NA,NA,"",   50.3052E-03,   45.8599E-03,   20.6757E-03,   6.19527E-12
C:/temp/dataset/4/12_15.odb,Step-1,Increment      1: Step Time =    1.000,"PART-1-1",           198,       8.99264,      -10.6281,            0.,NA,NA,"",   25.7676E-03,   25.6346E-03,   2.61487E-03,   2.53668E-06
C:/temp/dataset/4/12_15.odb,Step-1,Increment      1: Step Time =    1.000,"PART-1-1",           199,       8.82192,      -8.34759,            0.,NA,NA,"",   28.0607E-03,   27.9223E-03,   2.78323E-03,   496.525E-09
C:/temp/dataset/4/12_15.odb,Step-1,Increment      1: Step Time =    1.000,"PART-1-1",           200,       8.98411,       13.0928,            0.,NA,NA,"",   49.4836E-03,   49.4147E-03,   2.61030E-03,   181.970E-12
C:/temp/dataset/4/12_15.odb,Step-1,Increment      1: Step Time =    1.000,"PART-1-1",           201,       7.30685,       27.8134,            0.,NA,NA,"",   64.3143E-03,   64.1715E-03,   4.28420E-03,   2.09371E-12
C:/temp/dataset/4/12_15.odb,Step-1,Increment      1: Step Time =    1.000,"PART-1-1",           202,      -8.46063,       21.4565,            0.,NA,NA,"",   61.1996E-03,   57.8072E-03,   20.0927E-03,   4.92432E-12
C:/temp/dataset/4/12_15.odb,Step-1,Increment      1: Step Time =    1.000,"PART-1-1",           203,       9.11250,      -15.1896,            0.,NA,NA,"",   21.2030E-03,   21.0518E-03,   2.52709E-03,   22.2350E-06
C:/temp/dataset/4/12_15.odb,Step-1,Increment      1: Step Time =    1.000,"PART-1-1",           204,       9.14200,      -21.8221,            0.,NA,NA,"",   14.7531E-03,   14.5135E-03,   2.64799E-03,   163.091E-06
C:/temp/dataset/4/12_15.odb,Step-1,Increment      1: Step Time =    1.000,"PART-1-1",           205,      -8.90436,       15.8055,            0.,NA,NA,"",   56.0427E-03,   52.1428E-03,   20.5404E-03,   5.59756E-12
C:/temp/dataset/4/12_15.odb,Step-1,Increment      1: Step Time =    1.000,"PART-1-1",           206,       9.00445,       19.7587,            0.,NA,NA,"",   56.1561E-03,   56.0965E-03,   2.58656E-03,   11.8860E-12
C:/temp/dataset/4/12_15.odb,Step-1,Increment      1: Step Time =    1.000,"PART-1-1",           207,       8.39742,      -6.16188,            0.,NA,NA,"",   30.2844E-03,   30.1140E-03,   3.20767E-03,   149.065E-09
C:/temp/dataset/4/12_15.odb,Step-1,Increment      1: Step Time =    1.000,"PART-1-1",           208,      -9.10294,       7.45394,            0.,NA,NA,"",   48.4379E-03,   43.7713E-03,   20.7436E-03,   8.00214E-12
C:/temp/dataset/4/12_15.odb,Step-1,Increment      1: Step Time =    1.000,"PART-1-1",           209,       8.43260,       6.43235,            0.,NA,NA,"",   42.8556E-03,   42.7385E-03,   3.16648E-03,   3.09839E-09
C:/temp/dataset/4/12_15.odb,Step-1,Increment      1: Step Time =    1.000,"PART-1-1",           210,       5.64784,       2.93298,            0.,NA,NA,"",   39.6822E-03,   39.2321E-03,   5.95968E-03,   8.13904E-09
C:/temp/dataset/4/12_15.odb,Step-1,Increment      1: Step Time =    1.000,"PART-1-1",           211,      -10.7213,       1.88644,            0.,NA,NA,"",   44.2598E-03,   38.1913E-03,   22.3686E-03,   36.4621E-12
C:/temp/dataset/4/12_15.odb,Step-1,Increment      1: Step Time =    1.000,"PART-1-1",           212,      -12.7178,       27.8380,            0.,NA,NA,"",   68.6708E-03,   64.2060E-03,   24.3569E-03,   2.47460E-12
C:/temp/dataset/4/12_15.odb,Step-1,Increment      1: Step Time =    1.000,"PART-1-1",           213,      -11.0298,       24.2524,            0.,NA,NA,"",   64.7107E-03,   60.6111E-03,   22.6666E-03,   3.98090E-12
C:/temp/dataset/4/12_15.odb,Step-1,Increment      1: Step Time =    1.000,"PART-1-1",           214,      -10.4500,       20.0822,            0.,NA,NA,"",   60.5992E-03,   56.4306E-03,   22.0875E-03,   4.03742E-12
C:/temp/dataset/4/12_15.odb,Step-1,Increment      1: Step Time =    1.000,"PART-1-1",           215,      -10.9919,       14.0243,            0.,NA,NA,"",   55.2110E-03,   50.3584E-03,   22.6338E-03,   5.68983E-12
C:/temp/dataset/4/12_15.odb,Step-1,Increment      1: Step Time =    1.000,"PART-1-1",           216,      -11.0796,       9.82104,            0.,NA,NA,"",   51.4368E-03,   46.1451E-03,   22.7239E-03,   9.61191E-12
C:/temp/dataset/4/12_15.odb,Step-1,Increment      1: Step Time =    1.000,"PART-1-1",           217,      -11.0365,       11.9204,            0.,NA,NA,"",   53.3139E-03,   48.2495E-03,   22.6795E-03,   6.98290E-12
C:/temp/dataset/4/12_15.odb,Step-1,Increment      1: Step Time =    1.000,"PART-1-1",           218,      -10.5491,       22.5446,            0.,NA,NA,"",   62.9387E-03,   58.8989E-03,   22.1856E-03,   3.97412E-12
C:/temp/dataset/4/12_15.odb,Step-1,Increment      1: Step Time =    1.000,"PART-1-1",           219,      -10.9277,       16.1478,            0.,NA,NA,"",   57.1333E-03,   52.4869E-03,   22.5684E-03,   4.94772E-12
C:/temp/dataset/4/12_15.odb,Step-1,Increment      1: Step Time =    1.000,"PART-1-1",           220,      -10.7891,       18.2216,            0.,NA,NA,"",   58.9953E-03,   54.5656E-03,   22.4284E-03,   4.42833E-12
C:/temp/dataset/4/12_15.odb,Step-1,Increment      1: Step Time =    1.000,"PART-1-1",           221,      -11.1555,       7.76515,            0.,NA,NA,"",   49.6317E-03,   44.0843E-03,   22.8009E-03,   11.5566E-12
C:/temp/dataset/4/12_15.odb,Step-1,Increment      1: Step Time =    1.000,"PART-1-1",           222,      -9.80329,       4.04682,            0.,NA,NA,"",   45.7015E-03,   40.3564E-03,   21.4474E-03,   19.2209E-12
C:/temp/dataset/4/12_15.odb,Step-1,Increment      1: Step Time =    1.000,"PART-1-1",           223,       9.22674,      -25.9093,            0.,NA,NA,"",   9.34338E-03,   9.24304E-03,   1.36561E-03,   1.12492E-03
C:/temp/dataset/4/12_15.odb,Step-1,Increment      1: Step Time =    1.000,"PART-1-1",           224,      -9.21421,       25.1107,            0.,NA,NA,"",   64.9091E-03,   61.4705E-03,   20.8463E-03,   4.10032E-12
C:/temp/dataset/4/12_15.odb,Step-1,Increment      1: Step Time =    1.000,"PART-1-1",           225,       6.25241,      -4.60112,            0.,NA,NA,"",   32.1296E-03,   31.6797E-03,   5.35754E-03,   152.672E-09
C:/temp/dataset/4/12_15.odb,Step-1,Increment      1: Step Time =    1.000,"PART-1-1",           226,      -7.19550,       4.55405,            0.,NA,NA,"",   44.9946E-03,   40.8635E-03,   18.8331E-03,   67.5262E-12
C:/temp/dataset/4/12_15.odb,Step-1,Increment      1: Step Time =    1.000,"PART-1-1",           227,       12.9551,      -24.6090,            0.,NA,NA,"",   10.3390E-03,   10.2527E-03,  -1.33373E-03,   390.720E-06
C:/temp/dataset/4/12_15.odb,Step-1,Increment      1: Step Time =    1.000,"PART-1-1",           228,       10.9241,       22.1645,            0.,NA,NA,"",   58.5110E-03,   58.5072E-03,   661.059E-06,   4.25292E-12
C:/temp/dataset/4/12_15.odb,Step-1,Increment      1: Step Time =    1.000,"PART-1-1",           229,      -4.91288,   464.762E-03,            0.,NA,NA,"",   40.3155E-03,   36.7633E-03,   16.5470E-03,   495.182E-12
C:/temp/dataset/4/12_15.odb,Step-1,Increment      1: Step Time =    1.000,"PART-1-1",           230,  -831.143E-03,      -1.35374,            0.,NA,NA,"",   37.0925E-03,   34.9384E-03,   12.4564E-03,   1.48873E-09
C:/temp/dataset/4/12_15.odb,Step-1,Increment      1: Step Time =    1.000,"PART-1-1",           231,       11.1616,      -19.7398,            0.,NA,NA,"",   16.5232E-03,   16.5133E-03,   570.735E-06,   43.3892E-06
C:/temp/dataset/4/12_15.odb,Step-1,Increment      1: Step Time =    1.000,"PART-1-1",           232,       10.9730,      -10.3410,            0.,NA,NA,"",   25.9332E-03,   25.9256E-03,   629.220E-06,   2.09144E-06
C:/temp/dataset/4/12_15.odb,Step-1,Increment      1: Step Time =    1.000,"PART-1-1",           233,       10.4844,      -5.04269,            0.,NA,NA,"",   31.2547E-03,   31.2348E-03,   1.11514E-03,   151.881E-09
C:/temp/dataset/4/12_15.odb,Step-1,Increment      1: Step Time =    1.000,"PART-1-1",           234,       10.9074,       10.5689,            0.,NA,NA,"",   46.8887E-03,   46.8837E-03,   683.640E-06,   253.538E-12
C:/temp/dataset/4/12_15.odb,Step-1,Increment      1: Step Time =    1.000,"PART-1-1",           235,       11.0515,      -12.7377,            0.,NA,NA,"",   23.5346E-03,   23.5280E-03,   558.173E-06,   7.78236E-06
C:/temp/dataset/4/12_15.odb,Step-1,Increment      1: Step Time =    1.000,"PART-1-1",           236,       10.9936,       12.8990,            0.,NA,NA,"",   49.2230E-03,   49.2194E-03,   596.115E-06,   188.622E-12
C:/temp/dataset/4/12_15.odb,Step-1,Increment      1: Step Time =    1.000,"PART-1-1",           237,      -9.84553,  -403.770E-03,            0.,NA,NA,"",   41.8374E-03,   35.8951E-03,   21.4919E-03,   64.0717E-12
C:/temp/dataset/4/12_15.odb,Step-1,Increment      1: Step Time =    1.000,"PART-1-1",           238,      -6.42098,  -599.403E-03,            0.,NA,NA,"",   40.0054E-03,   35.6973E-03,   18.0593E-03,   279.528E-12
C:/temp/dataset/4/12_15.odb,Step-1,Increment      1: Step Time =    1.000,"PART-1-1",           239,      -2.35214,      -1.85066,            0.,NA,NA,"",   37.1707E-03,   34.4410E-03,   13.9813E-03,   886.578E-12
C:/temp/dataset/4/12_15.odb,Step-1,Increment      1: Step Time =    1.000,"PART-1-1",           240,       11.1625,      -21.9830,            0.,NA,NA,"",   14.0945E-03,   14.0831E-03,   568.054E-06,   128.237E-06
C:/temp/dataset/4/12_15.odb,Step-1,Increment      1: Step Time =    1.000,"PART-1-1",           241,       11.1073,      -15.0998,            0.,NA,NA,"",   21.1770E-03,   21.1706E-03,   522.850E-06,   20.6669E-06
C:/temp/dataset/4/12_15.odb,Step-1,Increment      1: Step Time =    1.000,"PART-1-1",           242,       11.1457,      -17.4375,            0.,NA,NA,"",   18.8474E-03,   18.8400E-03,   527.090E-06,   40.5040E-06
C:/temp/dataset/4/12_15.odb,Step-1,Increment      1: Step Time =    1.000,"PART-1-1",           243,       10.8340,      -7.85693,            0.,NA,NA,"",   28.4244E-03,   28.4140E-03,   766.036E-06,   322.890E-09
C:/temp/dataset/4/12_15.odb,Step-1,Increment      1: Step Time =    1.000,"PART-1-1",           244,       10.5842,   120.255E-03,            0.,NA,NA,"",   36.4242E-03,   36.4101E-03,   1.01286E-03,   36.0555E-09
C:/temp/dataset/4/12_15.odb,Step-1,Increment      1: Step Time =    1.000,"PART-1-1",           245,       10.8633,      -2.34188,            0.,NA,NA,"",   33.9498E-03,   33.9419E-03,   734.233E-06,   83.7930E-09
C:/temp/dataset/4/12_15.odb,Step-1,Increment      1: Step Time =    1.000,"PART-1-1",           246,       9.78574,       2.89226,            0.,NA,NA,"",   39.2310E-03,   39.1892E-03,   1.81184E-03,   13.1789E-09
C:/temp/dataset/4/12_15.odb,Step-1,Increment      1: Step Time =    1.000,"PART-1-1",           247,       10.7685,       8.18214,            0.,NA,NA,"",   44.4989E-03,   44.4913E-03,   824.040E-06,   737.689E-12
C:/temp/dataset/4/12_15.odb,Step-1,Increment      1: Step Time =    1.000,"PART-1-1",           248,       10.4587,       5.69287,            0.,NA,NA,"",   42.0116E-03,   41.9962E-03,   1.13591E-03,   3.58566E-09
C:/temp/dataset/4/12_15.odb,Step-1,Increment      1: Step Time =    1.000,"PART-1-1",           249,       11.0104,       19.8565,            0.,NA,NA,"",   56.1966E-03,   56.1936E-03,   575.703E-06,   10.9857E-12
C:/temp/dataset/4/12_15.odb,Step-1,Increment      1: Step Time =    1.000,"PART-1-1",           250,       11.0363,       17.5467,            0.,NA,NA,"",   53.8810E-03,   53.8782E-03,   550.981E-06,   36.4735E-12
C:/temp/dataset/4/12_15.odb,Step-1,Increment      1: Step Time =    1.000,"PART-1-1",           251,       11.0403,       15.2208,            0.,NA,NA,"",   51.5497E-03,   51.5468E-03,   548.078E-06,   96.4002E-12
C:/temp/dataset/4/12_15.odb,Step-1,Increment      1: Step Time =    1.000,"PART-1-1",           252,       1.19009,      -1.06873,            0.,NA,NA,"",   36.7349E-03,   35.2230E-03,   10.4302E-03,   4.05534E-09
C:/temp/dataset/4/12_15.odb,Step-1,Increment      1: Step Time =    1.000,"PART-1-1",           253,       10.6932,       24.5073,            0.,NA,NA,"",   60.8623E-03,   60.8558E-03,   891.361E-06,   4.13953E-12
C:/temp/dataset/4/12_15.odb,Step-1,Increment      1: Step Time =    1.000,"PART-1-1",           254,       8.51128,       25.6419,            0.,NA,NA,"",   62.0705E-03,   61.9942E-03,   3.07796E-03,   3.51596E-12
C:/temp/dataset/4/12_15.odb,Step-1,Increment      1: Step Time =    1.000,"PART-1-1",           255,      -9.32324,       5.48290,            0.,NA,NA,"",   46.7593E-03,   41.7957E-03,   20.9654E-03,   9.52477E-12
C:/temp/dataset/4/12_15.odb,Step-1,Increment      1: Step Time =    1.000,"PART-1-1",           256,      -11.4569,       25.7537,            0.,NA,NA,"",   66.2703E-03,   62.1162E-03,   23.0941E-03,   3.72546E-12
C:/temp/dataset/4/12_15.odb,Step-1,Increment      1: Step Time =    1.000,"PART-1-1",           257,      -8.85145,       2.84717,            0.,NA,NA,"",   44.1926E-03,   39.1534E-03,   20.4938E-03,   60.5398E-12
C:/temp/dataset/4/12_15.odb,Step-1,Increment      1: Step Time =    1.000,"PART-1-1",           258,       11.0896,      -24.0706,            0.,NA,NA,"",   11.3770E-03,   11.3666E-03,   486.023E-06,   474.855E-06
C:/temp/dataset/4/12_15.odb,Step-1,Increment      1: Step Time =    1.000,"PART-1-1",           259,       5.69240,      -2.12345,            0.,NA,NA,"",   34.6723E-03,   34.1636E-03,   5.91759E-03,   52.2154E-09
C:/temp/dataset/4/12_15.odb,Step-1,Increment      1: Step Time =    1.000,"PART-1-1",           260,       7.72467,       1.38687,            0.,NA,NA,"",   37.8803E-03,   37.6812E-03,   3.87862E-03,   19.2973E-09
C:/temp/dataset/4/12_15.odb,Step-1,Increment      1: Step Time =    1.000,"PART-1-1",           261,       8.83369,  -368.727E-03,            0.,NA,NA,"",   36.0273E-03,   35.9209E-03,   2.76776E-03,   40.2790E-09
C:/temp/dataset/4/12_15.odb,Step-1,Increment      1: Step Time =    1.000,"PART-1-1",           262,       7.58912,       4.39900,            0.,NA,NA,"",   40.8980E-03,   40.7007E-03,   4.01300E-03,   7.36273E-09
C:/temp/dataset/4/12_15.odb,Step-1,Increment      1: Step Time =    1.000,"PART-1-1",           263,      -6.02595,       2.23751,            0.,NA,NA,"",   42.3950E-03,   38.5408E-03,   17.6619E-03,   272.176E-12
C:/temp/dataset/4/12_15.odb,Step-1,Increment      1: Step Time =    1.000,"PART-1-1",           264,       4.92391,   813.983E-03,            0.,NA,NA,"",   37.7060E-03,   37.1084E-03,   6.68643E-03,   14.6138E-09
C:/temp/dataset/4/12_15.odb,Step-1,Increment      1: Step Time =    1.000,"PART-1-1",           265,      -7.77287,       1.11371,            0.,NA,NA,"",   42.1519E-03,   37.4152E-03,   19.4135E-03,   145.058E-12
C:/temp/dataset/4/12_15.odb,Step-1,Increment      1: Step Time =    1.000,"PART-1-1",           266,      -3.71710,       1.36231,            0.,NA,NA,"",   40.6696E-03,   37.6624E-03,   15.3479E-03,   633.085E-12
C:/temp/dataset/4/12_15.odb,Step-1,Increment      1: Step Time =    1.000,"PART-1-1",           267,       2.85817,       1.10052,            0.,NA,NA,"",   38.4083E-03,   37.3967E-03,   8.75700E-03,   6.26192E-09
C:/temp/dataset/4/12_15.odb,Step-1,Increment      1: Step Time =    1.000,"PART-1-1",           268,       7.51165,      -2.37377,            0.,NA,NA,"",   34.1580E-03,   33.9117E-03,   4.09398E-03,   75.4128E-09
C:/temp/dataset/4/12_15.odb,Step-1,Increment      1: Step Time =    1.000,"PART-1-1",           269,      -1.84913,   666.939E-03,            0.,NA,NA,"",   39.3442E-03,   36.9644E-03,   13.4758E-03,   1.19767E-09
C:/temp/dataset/4/12_15.odb,Step-1,Increment      1: Step Time =    1.000,"PART-1-1",           270,   621.955E-03,   989.730E-03,            0.,NA,NA,"",   38.8751E-03,   37.2867E-03,   10.9986E-03,   1.57633E-09
C:/temp/dataset/4/12_15.odb,Step-1,Increment      1: Step Time =    1.000,"PART-1-1",           271,       7.77182,      -4.29185,            0.,NA,NA,"",   32.2179E-03,   31.9890E-03,   3.83407E-03,   129.533E-09
C:/temp/dataset/4/12_15.odb,Step-1,Increment      1: Step Time =    1.000,"PART-1-1",           272,       6.40836,       5.42027,            0.,NA,NA,"",   42.0473E-03,   41.7250E-03,   5.19609E-03,   4.97144E-09
C:/temp/dataset/4/12_15.odb,Step-1,Increment      1: Step Time =    1.000,"PART-1-1",           273,      -12.5139,      -2.82358,            0.,NA,NA,"",   41.2842E-03,   33.4709E-03,   24.1679E-03,   9.56228E-12
C:/temp/dataset/4/12_15.odb,Step-1,Increment      1: Step Time =    1.000,"PART-1-1",           274,       10.8188,      -25.6946,            0.,NA,NA,"",   8.80313E-03,   8.79263E-03,   429.820E-06,   850.909E-06
C:/temp/dataset/4/12_15.odb,Step-1,Increment      1: Step Time =    1.000,"PART-1-1",           275,       6.49302,  -163.532E-03,            0.,NA,NA,"",   36.4879E-03,   36.1278E-03,   5.11401E-03,   28.4424E-09
C:/temp/dataset/4/12_15.odb,Step-1,Increment      1: Step Time =    1.000,"PART-1-1",           276,       7.60941,  -936.337E-03,            0.,NA,NA,"",   35.5776E-03,   35.3525E-03,   3.99530E-03,   44.1655E-09
C:/temp/dataset/4/12_15.odb,Step-1,Increment      1: Step Time =    1.000,"PART-1-1",           277,       9.17282,      -2.25688,            0.,NA,NA,"",   34.1146E-03,   34.0280E-03,   2.42869E-03,   81.0171E-09
C:/temp/dataset/4/12_15.odb,Step-1,Increment      1: Step Time =    1.000,"PART-1-1",           278,       9.10690,      -3.89703,            0.,NA,NA,"",   32.4800E-03,   32.3840E-03,   2.49547E-03,   119.430E-09
C:/temp/dataset/4/12_15.odb,Step-1,Increment      1: Step Time =    1.000,"PART-1-1",           279,      -7.91199,      -1.40732,            0.,NA,NA,"",   39.9945E-03,   34.8882E-03,   19.5543E-03,   156.371E-12
C:/temp/dataset/4/12_15.odb,Step-1,Increment      1: Step Time =    1.000,"PART-1-1",           280,      -9.83927,       21.3699,            0.,NA,NA,"",   61.5863E-03,   57.7210E-03,   21.4747E-03,   3.90625E-12
C:/temp/dataset/4/12_15.odb,Step-1,Increment      1: Step Time =    1.000,"PART-1-1",           281,      -11.2653,       5.77953,            0.,NA,NA,"",   47.9256E-03,   42.0940E-03,   22.9120E-03,   13.5744E-12
C:/temp/dataset/4/12_15.odb,Step-1,Increment      1: Step Time =    1.000,"PART-1-1",           282,      -11.2487,       3.84080,            0.,NA,NA,"",   46.2203E-03,   40.1506E-03,   22.8963E-03,   17.7609E-12
C:/temp/dataset/4/12_15.odb,Step-1,Increment      1: Step Time =    1.000,"PART-1-1",           283,       3.11059,  -868.354E-03,            0.,NA,NA,"",   36.4296E-03,   35.4229E-03,   8.50498E-03,   10.4279E-09
C:/temp/dataset/4/12_15.odb,Step-1,Increment      1: Step Time =    1.000,"PART-1-1",           284,       4.50766,  -682.768E-03,            0.,NA,NA,"",   36.3101E-03,   35.6083E-03,   7.10445E-03,   16.2263E-09
C:/temp/dataset/4/12_15.odb,Step-1,Increment      1: Step Time =    1.000,"PART-1-1",           285,      -3.56662,  -854.847E-03,            0.,NA,NA,"",   38.5612E-03,   35.4398E-03,   15.1982E-03,   900.691E-12
C:/temp/dataset/4/12_15.odb,Step-1,Increment      1: Step Time =    1.000,"PART-1-1",           286,      -7.33150,       26.6843,            0.,NA,NA,"",   65.8356E-03,   63.0469E-03,   18.9583E-03,   3.12008E-12
C:/temp/dataset/4/12_15.odb,Step-1,Increment      1: Step Time =    1.000,"PART-1-1",           287,      -6.09303,       25.7233,            0.,NA,NA,"",   64.5616E-03,   62.0830E-03,   17.7173E-03,   4.54158E-12
C:/temp/dataset/4/12_15.odb,Step-1,Increment      1: Step Time =    1.000,"PART-1-1",           288,           -5.,        26.875,            0.,NA,NA,"",   65.3848E-03,   63.2369E-03,   16.6211E-03,   5.07585E-12
C:/temp/dataset/4/12_15.odb,Step-1,Increment      1: Step Time =    1.000,"PART-1-1",           289,      -6.23847,       27.8360,            0.,NA,NA,"",   66.6393E-03,   64.2008E-03,   17.8620E-03,   2.31033E-12
C:/temp/dataset/4/12_15.odb,Step-1,Increment      1: Step Time =    1.000,"PART-1-1",           290,      -8.20013,       25.3620,            0.,NA,NA,"",   64.8291E-03,   61.7219E-03,   19.8296E-03,   3.70742E-12
C:/temp/dataset/4/12_15.odb,Step-1,Increment      1: Step Time =    1.000,"PART-1-1",           291,      -8.98257,       24.1636,            0.,NA,NA,"",   63.9355E-03,   60.5210E-03,   20.6146E-03,   4.13473E-12
C:/temp/dataset/4/12_15.odb,Step-1,Increment      1: Step Time =    1.000,"PART-1-1",           292,      -7.83587,       23.3915,            0.,NA,NA,"",   62.8375E-03,   59.7465E-03,   19.4655E-03,   4.66111E-12
C:/temp/dataset/4/12_15.odb,Step-1,Increment      1: Step Time =    1.000,"PART-1-1",           293,      -7.05344,       24.5900,            0.,NA,NA,"",   63.7460E-03,   60.9474E-03,   18.6806E-03,   4.70284E-12
C:/temp/dataset/4/12_15.odb,Step-1,Increment      1: Step Time =    1.000,"PART-1-1",           294,      -6.78951,       20.5788,            0.,NA,NA,"",   59.8318E-03,   56.9265E-03,   18.4180E-03,   8.22165E-12
C:/temp/dataset/4/12_15.odb,Step-1,Increment      1: Step Time =    1.000,"PART-1-1",           295,      -5.89603,       19.5861,            0.,NA,NA,"",   58.6117E-03,   55.9310E-03,   17.5229E-03,   11.3128E-12
C:/temp/dataset/4/12_15.odb,Step-1,Increment      1: Step Time =    1.000,"PART-1-1",           296,           -5.,        20.625,            0.,NA,NA,"",   59.3478E-03,   56.9719E-03,   16.6242E-03,   12.5112E-12
C:/temp/dataset/4/12_15.odb,Step-1,Increment      1: Step Time =    1.000,"PART-1-1",           297,      -5.89348,       21.6177,            0.,NA,NA,"",   60.5570E-03,   57.9674E-03,   17.5193E-03,   9.15133E-12
C:/temp/dataset/4/12_15.odb,Step-1,Increment      1: Step Time =    1.000,"PART-1-1",           298,      -7.97413,       13.6001,            0.,NA,NA,"",   53.6440E-03,   49.9316E-03,   19.6090E-03,   9.22763E-12
C:/temp/dataset/4/12_15.odb,Step-1,Increment      1: Step Time =    1.000,"PART-1-1",           299,      -8.98702,       12.6704,            0.,NA,NA,"",   53.1639E-03,   49.0002E-03,   20.6248E-03,   5.65485E-12
C:/temp/dataset/4/12_15.odb,Step-1,Increment      1: Step Time =    1.000,"PART-1-1",           300,      -8.00249,       11.5116,            0.,NA,NA,"",   51.7123E-03,   47.8382E-03,   19.6385E-03,   9.91918E-12
C:/temp/dataset/4/12_15.odb,Step-1,Increment      1: Step Time =    1.000,"PART-1-1",           301,      -6.98959,       12.4413,            0.,NA,NA,"",   52.2042E-03,   48.7696E-03,   18.6227E-03,   14.6819E-12
C:/temp/dataset/4/12_15.odb,Step-1,Increment      1: Step Time =    1.000,"PART-1-1",           302,      -9.95004,      -1.64066,            0.,NA,NA,"",   40.8343E-03,   34.6553E-03,   21.5973E-03,   49.5671E-12
C:/temp/dataset/4/12_15.odb,Step-1,Increment      1: Step Time =    1.000,"PART-1-1",           303,      -11.1983,  -513.068E-03,            0.,NA,NA,"",   42.4581E-03,   35.7863E-03,   22.8480E-03,   39.7274E-12
C:/temp/dataset/4/12_15.odb,Step-1,Increment      1: Step Time =    1.000,"PART-1-1",           304,      -12.5325,      -1.72297,            0.,NA,NA,"",   42.1940E-03,   34.5741E-03,   24.1860E-03,   14.3952E-12
C:/temp/dataset/4/12_15.odb,Step-1,Increment      1: Step Time =    1.000,"PART-1-1",           305,      -11.2842,      -2.85056,            0.,NA,NA,"",   40.5521E-03,   33.4432E-03,   22.9353E-03,   26.2037E-12
C:/temp/dataset/4/12_15.odb,Step-1,Increment      1: Step Time =    1.000,"PART-1-1",           306,      -10.2834,   741.336E-03,            0.,NA,NA,"",   43.0481E-03,   37.0432E-03,   21.9303E-03,   48.6385E-12
C:/temp/dataset/4/12_15.odb,Step-1,Increment      1: Step Time =    1.000,"PART-1-1",           307,      -11.7661,       1.72477,            0.,NA,NA,"",   44.6607E-03,   38.0298E-03,   23.4160E-03,   25.2251E-12
C:/temp/dataset/4/12_15.odb,Step-1,Increment      1: Step Time =    1.000,"PART-1-1",           308,      -12.6810,   470.366E-03,            0.,NA,NA,"",   44.0950E-03,   36.7728E-03,   24.3338E-03,   19.5711E-12
C:/temp/dataset/4/12_15.odb,Step-1,Increment      1: Step Time =    1.000,"PART-1-1",           309,         -1.25,           -5.,            0.,NA,NA,"",   33.8306E-03,   31.2836E-03,   12.8781E-03,   3.20947E-09
C:/temp/dataset/4/12_15.odb,Step-1,Increment      1: Step Time =    1.000,"PART-1-1",           310,  -165.329E-03,      -4.13131,            0.,NA,NA,"",   34.2473E-03,   32.1538E-03,   11.7904E-03,   2.62717E-09
C:/temp/dataset/4/12_15.odb,Step-1,Increment      1: Step Time =    1.000,"PART-1-1",           311,      -1.46228,      -3.26668,            0.,NA,NA,"",   35.5211E-03,   33.0212E-03,   13.0900E-03,   1.56450E-09
C:/temp/dataset/4/12_15.odb,Step-1,Increment      1: Step Time =    1.000,"PART-1-1",           312,      -2.54695,      -4.13537,            0.,NA,NA,"",   35.1382E-03,   32.1509E-03,   14.1777E-03,   853.795E-12
C:/temp/dataset/4/12_15.odb,Step-1,Increment      1: Step Time =    1.000,"PART-1-1",           313,   769.081E-03,      -3.16387,            0.,NA,NA,"",   34.8559E-03,   33.1231E-03,   10.8533E-03,   4.43091E-09
C:/temp/dataset/4/12_15.odb,Step-1,Increment      1: Step Time =    1.000,"PART-1-1",           314,          1.25,           -5.,            0.,NA,NA,"",   32.9570E-03,   31.2823E-03,   10.3721E-03,   5.36385E-09
C:/temp/dataset/4/12_15.odb,Step-1,Increment      1: Step Time =    1.000,"PART-1-1",           315,       2.18441,      -4.03256,            0.,NA,NA,"",   33.6034E-03,   32.2516E-03,   9.43498E-03,   12.7047E-09
C:/temp/dataset/4/12_15.odb,Step-1,Increment      1: Step Time =    1.000,"PART-1-1",           316,       1.54561,       3.01681,            0.,NA,NA,"",   40.5877E-03,   39.3182E-03,   10.0718E-03,   1.80621E-09
C:/temp/dataset/4/12_15.odb,Step-1,Increment      1: Step Time =    1.000,"PART-1-1",           317,       2.64536,       4.01417,            0.,NA,NA,"",   41.3029E-03,   40.3174E-03,   8.96885E-03,   2.10530E-09
C:/temp/dataset/4/12_15.odb,Step-1,Increment      1: Step Time =    1.000,"PART-1-1",           318,          1.25,            5.,            0.,NA,NA,"",   42.5874E-03,   41.3063E-03,   10.3671E-03,   1.91511E-09
C:/temp/dataset/4/12_15.odb,Step-1,Increment      1: Step Time =    1.000,"PART-1-1",           319,   150.245E-03,       4.00264,            0.,NA,NA,"",   41.9073E-03,   40.3071E-03,   11.4700E-03,   1.21683E-09
C:/temp/dataset/4/12_15.odb,Step-1,Increment      1: Step Time =    1.000,"PART-1-1",           320,   179.474E-03,      -1.21124,            0.,NA,NA,"",   36.8999E-03,   35.0807E-03,   11.4433E-03,   1.87680E-09
C:/temp/dataset/4/12_15.odb,Step-1,Increment      1: Step Time =    1.000,"PART-1-1",           321,  -580.901E-03,      -2.30818,            0.,NA,NA,"",   36.1072E-03,   33.9815E-03,   12.2060E-03,   1.40616E-09
C:/temp/dataset/4/12_15.odb,Step-1,Increment      1: Step Time =    1.000,"PART-1-1",           322,       1.52946,      -2.06693,            0.,NA,NA,"",   35.6789E-03,   34.2223E-03,   10.0905E-03,   5.02017E-09
C:/temp/dataset/4/12_15.odb,Step-1,Increment      1: Step Time =    1.000,"PART-1-1",           323,       12.7868,      -3.71378,            0.,NA,NA,"",   32.5875E-03,   32.5656E-03,  -1.19307E-03,   104.345E-09
C:/temp/dataset/4/12_15.odb,Step-1,Increment      1: Step Time =    1.000,"PART-1-1",           324,       13.8814,      -5.00619,            0.,NA,NA,"",   31.3534E-03,   31.2697E-03,  -2.28935E-03,   142.857E-09
C:/temp/dataset/4/12_15.odb,Step-1,Increment      1: Step Time =    1.000,"PART-1-1",           325,           15.,         -3.75,            0.,NA,NA,"",   32.7067E-03,   32.5283E-03,  -3.41131E-03,   155.978E-09
C:/temp/dataset/4/12_15.odb,Step-1,Increment      1: Step Time =    1.000,"PART-1-1",           326,       13.9054,      -2.45760,            0.,NA,NA,"",   33.9034E-03,   33.8243E-03,  -2.31494E-03,   66.4083E-09
C:/temp/dataset/4/12_15.odb,Step-1,Increment      1: Step Time =    1.000,"PART-1-1",           327,       5.10003,      -1.40311,            0.,NA,NA,"",   35.4883E-03,   34.8859E-03,   6.51102E-03,   31.5124E-09
C:/temp/dataset/4/12_15.odb,Step-1,Increment      1: Step Time =    1.000,"PART-1-1",           328,       3.80913,  -775.561E-03,            0.,NA,NA,"",   36.3631E-03,   35.5156E-03,   7.80472E-03,   13.6772E-09
C:/temp/dataset/4/12_15.odb,Step-1,Increment      1: Step Time =    1.000,"PART-1-1",           329,       3.52110,      -1.80919,            0.,NA,NA,"",   35.4169E-03,   34.4796E-03,   8.09397E-03,   16.4298E-09
C:/temp/dataset/4/12_15.odb,Step-1,Increment      1: Step Time =    1.000,"PART-1-1",           330,       4.81200,      -2.43673,            0.,NA,NA,"",   34.5263E-03,   33.8500E-03,   6.80029E-03,   31.0924E-09
C:/temp/dataset/4/12_15.odb,Step-1,Increment      1: Step Time =    1.000,"PART-1-1",           331,           15.,          3.75,            0.,NA,NA,"",   40.1917E-03,   40.0464E-03,  -3.41537E-03,   3.57786E-09
C:/temp/dataset/4/12_15.odb,Step-1,Increment      1: Step Time =    1.000,"PART-1-1",           332,       13.8386,       5.14064,            0.,NA,NA,"",   41.5021E-03,   41.4409E-03,  -2.25190E-03,   1.67484E-09
C:/temp/dataset/4/12_15.odb,Step-1,Increment      1: Step Time =    1.000,"PART-1-1",           333,       12.6076,       4.00525,            0.,NA,NA,"",   40.3163E-03,   40.3034E-03,  -1.01731E-03,   7.67783E-09
C:/temp/dataset/4/12_15.odb,Step-1,Increment      1: Step Time =    1.000,"PART-1-1",           334,       13.7689,       2.61462,            0.,NA,NA,"",   38.9699E-03,   38.9089E-03,  -2.18077E-03,   7.50007E-09
C:/temp/dataset/4/12_15.odb,Step-1,Increment      1: Step Time =    1.000,"PART-1-1",           335,       9.76439,       8.40859,            0.,NA,NA,"",   44.7562E-03,   44.7188E-03,   1.83049E-03,   590.964E-12
C:/temp/dataset/4/12_15.odb,Step-1,Increment      1: Step Time =    1.000,"PART-1-1",           336,       8.59642,       7.53369,            0.,NA,NA,"",   43.9450E-03,   43.8424E-03,   3.00171E-03,   1.68752E-09
C:/temp/dataset/4/12_15.odb,Step-1,Increment      1: Step Time =    1.000,"PART-1-1",           337,       9.44563,       6.06261,            0.,NA,NA,"",   42.4219E-03,   42.3673E-03,   2.15119E-03,   3.03128E-09
C:/temp/dataset/4/12_15.odb,Step-1,Increment      1: Step Time =    1.000,"PART-1-1",           338,       10.6136,       6.93751,            0.,NA,NA,"",   43.2548E-03,   43.2437E-03,   979.977E-06,   2.06378E-09
C:/temp/dataset/4/12_15.odb,Step-1,Increment      1: Step Time =    1.000,"PART-1-1",           339,       5.92452,       9.07762,            0.,NA,NA,"",   45.7453E-03,   45.3914E-03,   5.67926E-03,   374.792E-12
C:/temp/dataset/4/12_15.odb,Step-1,Increment      1: Step Time =    1.000,"PART-1-1",           340,            5.,         8.125,            0.,NA,NA,"",   44.9253E-03,   44.4369E-03,   6.60648E-03,   724.157E-12
C:/temp/dataset/4/12_15.odb,Step-1,Increment      1: Step Time =    1.000,"PART-1-1",           341,       5.83838,       7.03541,            0.,NA,NA,"",   43.7262E-03,   43.3443E-03,   5.76663E-03,   766.733E-12
C:/temp/dataset/4/12_15.odb,Step-1,Increment      1: Step Time =    1.000,"PART-1-1",           342,       6.76290,       7.98803,            0.,NA,NA,"",   44.5623E-03,   44.2987E-03,   4.83941E-03,   936.199E-12
C:/temp/dataset/4/12_15.odb,Step-1,Increment      1: Step Time =    1.000,"PART-1-1",           343,       6.00358,       15.4027,            0.,NA,NA,"",   52.0334E-03,   51.7316E-03,   5.59683E-03,   64.9897E-12
C:/temp/dataset/4/12_15.odb,Step-1,Increment      1: Step Time =    1.000,"PART-1-1",           344,            5.,        14.375,            0.,NA,NA,"",   51.1301E-03,   50.7019E-03,   6.60334E-03,   137.825E-12
C:/temp/dataset/4/12_15.odb,Step-1,Increment      1: Step Time =    1.000,"PART-1-1",           345,       5.99171,       13.2884,            0.,NA,NA,"",   49.9284E-03,   49.6122E-03,   5.60979E-03,   147.537E-12
C:/temp/dataset/4/12_15.odb,Step-1,Increment      1: Step Time =    1.000,"PART-1-1",           346,       6.99529,       14.3161,            0.,NA,NA,"",   50.8506E-03,   50.6419E-03,   4.60328E-03,   121.261E-12
C:/temp/dataset/4/12_15.odb,Step-1,Increment      1: Step Time =    1.000,"PART-1-1",           347,       11.7328,       24.6815,            0.,NA,NA,"",   61.0300E-03,   61.0298E-03,  -150.794E-06,   4.04946E-12
C:/temp/dataset/4/12_15.odb,Step-1,Increment      1: Step Time =    1.000,"PART-1-1",           348,       12.6496,       26.1279,            0.,NA,NA,"",   62.4884E-03,   62.4792E-03,  -1.07053E-03,   3.79660E-12
C:/temp/dataset/4/12_15.odb,Step-1,Increment      1: Step Time =    1.000,"PART-1-1",           349,       11.2054,       27.2635,            0.,NA,NA,"",   63.6194E-03,   63.6183E-03,   376.507E-06,   4.08406E-12
C:/temp/dataset/4/12_15.odb,Step-1,Increment      1: Step Time =    1.000,"PART-1-1",           350,       10.2886,       25.8171,            0.,NA,NA,"",   62.1824E-03,   62.1689E-03,   1.29624E-03,   4.25265E-12
C:/temp/dataset/4/12_15.odb,Step-1,Increment      1: Step Time =    1.000,"PART-1-1",           351,       12.5134,       28.7000,            0.,NA,NA,"",   65.0644E-03,   65.0576E-03,  -935.322E-06,   3.21098E-12
C:/temp/dataset/4/12_15.odb,Step-1,Increment      1: Step Time =    1.000,"PART-1-1",           352,       13.7634,       27.4500,            0.,NA,NA,"",   63.8415E-03,   63.8040E-03,  -2.18770E-03,   2.79127E-12
C:/temp/dataset/4/12_15.odb,Step-1,Increment      1: Step Time =    1.000,"PART-1-1",           353,           15.,         28.75,            0.,NA,NA,"",   65.1966E-03,   65.1065E-03,  -3.42792E-03,   3.29665E-12
C:/temp/dataset/4/12_15.odb,Step-1,Increment      1: Step Time =    1.000,"PART-1-1",           354,         13.75,           30.,            0.,NA,NA,"",   66.3958E-03,   66.3601E-03,  -2.17555E-03,   2.42095E-12
C:/temp/dataset/4/12_15.odb,Step-1,Increment      1: Step Time =    1.000,"PART-1-1",           355,      -3.83569,      -2.96698,            0.,NA,NA,"",   36.7382E-03,   33.3228E-03,   15.4690E-03,   820.446E-12
C:/temp/dataset/4/12_15.odb,Step-1,Increment      1: Step Time =    1.000,"PART-1-1",           356,      -2.47303,      -2.56070,            0.,NA,NA,"",   36.5590E-03,   33.7293E-03,   14.1028E-03,   893.143E-12
C:/temp/dataset/4/12_15.odb,Step-1,Increment      1: Step Time =    1.000,"PART-1-1",           357,      -2.95938,      -1.35275,            0.,NA,NA,"",   37.8641E-03,   34.9404E-03,   14.5897E-03,   930.456E-12
C:/temp/dataset/4/12_15.odb,Step-1,Increment      1: Step Time =    1.000,"PART-1-1",           358,      -4.32205,      -1.75903,            0.,NA,NA,"",   38.0418E-03,   34.5339E-03,   15.9559E-03,   532.303E-12
C:/temp/dataset/4/12_15.odb,Step-1,Increment      1: Step Time =    1.000,"PART-1-1",           359,       8.60967,      -7.25473,            0.,NA,NA,"",   29.1724E-03,   29.0182E-03,   2.99536E-03,   246.517E-09
C:/temp/dataset/4/12_15.odb,Step-1,Increment      1: Step Time =    1.000,"PART-1-1",           360,       7.51358,      -6.44375,            0.,NA,NA,"",   30.1115E-03,   29.8319E-03,   4.09397E-03,   94.0372E-09
C:/temp/dataset/4/12_15.odb,Step-1,Increment      1: Step Time =    1.000,"PART-1-1",           361,       6.75300,      -7.77251,            0.,NA,NA,"",   28.9107E-03,   28.4997E-03,   4.85734E-03,   166.282E-09
C:/temp/dataset/4/12_15.odb,Step-1,Increment      1: Step Time =    1.000,"PART-1-1",           362,       7.84909,      -8.58350,            0.,NA,NA,"",   27.9397E-03,   27.6858E-03,   3.75862E-03,   431.351E-09
C:/temp/dataset/4/12_15.odb,Step-1,Increment      1: Step Time =    1.000,"PART-1-1",           363,       7.07130,      -14.2100,            0.,NA,NA,"",   22.4862E-03,   22.0228E-03,   4.54153E-03,   14.0785E-06
C:/temp/dataset/4/12_15.odb,Step-1,Increment      1: Step Time =    1.000,"PART-1-1",           364,       6.02882,      -13.2279,            0.,NA,NA,"",   23.6824E-03,   23.0151E-03,   5.58238E-03,   5.20575E-06
C:/temp/dataset/4/12_15.odb,Step-1,Increment      1: Step Time =    1.000,"PART-1-1",           365,            5.,       -14.375,            0.,NA,NA,"",   22.8374E-03,   21.8601E-03,   6.60941E-03,   11.5836E-06
C:/temp/dataset/4/12_15.odb,Step-1,Increment      1: Step Time =    1.000,"PART-1-1",           366,       6.04247,      -15.3570,            0.,NA,NA,"",   21.5903E-03,   20.8628E-03,   5.55755E-03,   15.1390E-06
C:/temp/dataset/4/12_15.odb,Step-1,Increment      1: Step Time =    1.000,"PART-1-1",           367,       7.02995,      -12.0379,            0.,NA,NA,"",   24.6442E-03,   24.2146E-03,   4.58173E-03,   5.16372E-06
C:/temp/dataset/4/12_15.odb,Step-1,Increment      1: Step Time =    1.000,"PART-1-1",           368,       6.00113,      -11.1016,            0.,NA,NA,"",   25.7757E-03,   25.1572E-03,   5.61279E-03,   1.27893E-06
C:/temp/dataset/4/12_15.odb,Step-1,Increment      1: Step Time =    1.000,"PART-1-1",           369,            5.,      -12.2917,            0.,NA,NA,"",   24.8577E-03,   23.9605E-03,   6.61793E-03,   2.71160E-06
C:/temp/dataset/4/12_15.odb,Step-1,Increment      1: Step Time =    1.000,"PART-1-1",           370,            5.,      -22.7083,            0.,NA,NA,"",   15.4878E-03,   14.3914E-03,   5.72357E-03,   237.573E-06
C:/temp/dataset/4/12_15.odb,Step-1,Increment      1: Step Time =    1.000,"PART-1-1",           371,       6.05922,      -23.7899,            0.,NA,NA,"",   15.2666E-03,   14.3129E-03,   5.31132E-03,   872.967E-06
C:/temp/dataset/4/12_15.odb,Step-1,Increment      1: Step Time =    1.000,"PART-1-1",           372,       7.11013,      -22.7834,            0.,NA,NA,"",   14.9143E-03,   14.2087E-03,   4.53310E-03,   422.422E-06
C:/temp/dataset/4/12_15.odb,Step-1,Increment      1: Step Time =    1.000,"PART-1-1",           373,       6.05091,      -21.7018,            0.,NA,NA,"",   15.7982E-03,   14.8749E-03,   5.32164E-03,   129.165E-06
C:/temp/dataset/4/12_15.odb,Step-1,Increment      1: Step Time =    1.000,"PART-1-1",           374,          8.75,          -30.,            0.,NA,NA,"",            0.,   1.47926E-39,   192.655E-42,   1.52638E-03
C:/temp/dataset/4/12_15.odb,Step-1,Increment      1: Step Time =    1.000,"PART-1-1",           375,       9.84988,      -28.9274,            0.,NA,NA,"",   2.33311E-03,   2.33237E-03,   58.5207E-06,   1.38605E-03
C:/temp/dataset/4/12_15.odb,Step-1,Increment      1: Step Time =    1.000,"PART-1-1",           376,       8.52411,      -27.9095,            0.,NA,NA,"",   5.44421E-03,   5.41013E-03,   608.176E-06,   1.72319E-03
C:/temp/dataset/4/12_15.odb,Step-1,Increment      1: Step Time =    1.000,"PART-1-1",           377,       7.42422,      -28.9821,            0.,NA,NA,"",   2.91688E-03,   2.89466E-03,   359.342E-06,   1.92793E-03
C:/temp/dataset/4/12_15.odb,Step-1,Increment      1: Step Time =    1.000,"PART-1-1",           378,       10.1104,      -23.9794,            0.,NA,NA,"",   11.8937E-03,   11.8124E-03,   1.38825E-03,   507.848E-06
C:/temp/dataset/4/12_15.odb,Step-1,Increment      1: Step Time =    1.000,"PART-1-1",           379,       11.1261,      -23.0268,            0.,NA,NA,"",   12.8226E-03,   12.8105E-03,   556.683E-06,   289.627E-06
C:/temp/dataset/4/12_15.odb,Step-1,Increment      1: Step Time =    1.000,"PART-1-1",           380,       10.1523,      -21.9025,            0.,NA,NA,"",   14.3890E-03,   14.2966E-03,   1.62815E-03,   133.431E-06
C:/temp/dataset/4/12_15.odb,Step-1,Increment      1: Step Time =    1.000,"PART-1-1",           381,       9.13660,      -22.8552,            0.,NA,NA,"",   13.7416E-03,   13.5018E-03,   2.55593E-03,   356.122E-06
C:/temp/dataset/4/12_15.odb,Step-1,Increment      1: Step Time =    1.000,"PART-1-1",           382,       7.09296,      -18.5383,            0.,NA,NA,"",   18.2344E-03,   17.6629E-03,   4.52952E-03,   48.0268E-06
C:/temp/dataset/4/12_15.odb,Step-1,Increment      1: Step Time =    1.000,"PART-1-1",           383,       6.04465,      -17.4814,            0.,NA,NA,"",   19.5147E-03,   18.7174E-03,   5.52098E-03,   35.8442E-06
C:/temp/dataset/4/12_15.odb,Step-1,Increment      1: Step Time =    1.000,"PART-1-1",           384,            5.,      -18.5417,            0.,NA,NA,"",   18.8364E-03,   17.6882E-03,   6.47579E-03,   84.8836E-06
C:/temp/dataset/4/12_15.odb,Step-1,Increment      1: Step Time =    1.000,"PART-1-1",           385,       6.04831,      -19.5985,            0.,NA,NA,"",   17.5149E-03,   16.6445E-03,   5.45252E-03,   67.1395E-06
C:/temp/dataset/4/12_15.odb,Step-1,Increment      1: Step Time =    1.000,"PART-1-1",           386,       8.88188,       22.9635,            0.,NA,NA,"",   59.3709E-03,   59.3091E-03,   2.70781E-03,   4.51313E-12
C:/temp/dataset/4/12_15.odb,Step-1,Increment      1: Step Time =    1.000,"PART-1-1",           387,       9.93448,       22.0483,            0.,NA,NA,"",   58.4146E-03,   58.3912E-03,   1.65314E-03,   4.22526E-12
C:/temp/dataset/4/12_15.odb,Step-1,Increment      1: Step Time =    1.000,"PART-1-1",           388,       10.8087,       23.3359,            0.,NA,NA,"",   59.6865E-03,   59.6815E-03,   776.210E-06,   3.95058E-12
C:/temp/dataset/4/12_15.odb,Step-1,Increment      1: Step Time =    1.000,"PART-1-1",           389,       9.75606,       24.2511,            0.,NA,NA,"",   60.6270E-03,   60.5994E-03,   1.83089E-03,   3.88146E-12
C:/temp/dataset/4/12_15.odb,Step-1,Increment      1: Step Time =    1.000,"PART-1-1",           390,       10.0218,       17.5512,            0.,NA,NA,"",   53.9060E-03,   53.8832E-03,   1.56788E-03,   32.8784E-12
C:/temp/dataset/4/12_15.odb,Step-1,Increment      1: Step Time =    1.000,"PART-1-1",           391,       9.00837,       16.4411,            0.,NA,NA,"",   52.8342E-03,   52.7710E-03,   2.58429E-03,   61.9071E-12
C:/temp/dataset/4/12_15.odb,Step-1,Increment      1: Step Time =    1.000,"PART-1-1",           392,       10.0249,       15.2736,            0.,NA,NA,"",   51.6240E-03,   51.6002E-03,   1.56595E-03,   84.9395E-12
C:/temp/dataset/4/12_15.odb,Step-1,Increment      1: Step Time =    1.000,"PART-1-1",           393,       11.0383,       16.3837,            0.,NA,NA,"",   52.7153E-03,   52.7125E-03,   549.529E-06,   65.1562E-12
C:/temp/dataset/4/12_15.odb,Step-1,Increment      1: Step Time =    1.000,"PART-1-1",           394,      -14.0638,       5.89996,            0.,NA,NA,"",   49.4325E-03,   42.2161E-03,   25.7172E-03,   16.0886E-12
C:/temp/dataset/4/12_15.odb,Step-1,Increment      1: Step Time =    1.000,"PART-1-1",           395,      -13.1194,       6.91794,            0.,NA,NA,"",   49.8288E-03,   43.2361E-03,   24.7700E-03,   15.9936E-12
C:/temp/dataset/4/12_15.odb,Step-1,Increment      1: Step Time =    1.000,"PART-1-1",           396,      -14.0556,       8.04923,            0.,NA,NA,"",   51.2800E-03,   44.3705E-03,   25.7078E-03,   18.2588E-12
C:/temp/dataset/4/12_15.odb,Step-1,Increment      1: Step Time =    1.000,"PART-1-1",           397,          -15.,       7.03125,            0.,NA,NA,"",   50.8897E-03,   43.3506E-03,   26.6550E-03,   18.6820E-12
C:/temp/dataset/4/12_15.odb,Step-1,Increment      1: Step Time =    1.000,"PART-1-1",           398,      -14.0181,       12.3521,            0.,NA,NA,"",   55.0359E-03,   48.6837E-03,   25.6681E-03,   17.8065E-12
C:/temp/dataset/4/12_15.odb,Step-1,Increment      1: Step Time =    1.000,"PART-1-1",           399,      -13.0189,       13.2775,            0.,NA,NA,"",   55.4044E-03,   49.6109E-03,   24.6660E-03,   12.9392E-12
C:/temp/dataset/4/12_15.odb,Step-1,Increment      1: Step Time =    1.000,"PART-1-1",           400,      -14.0008,       14.5192,            0.,NA,NA,"",   56.9582E-03,   50.8560E-03,   25.6497E-03,   15.9496E-12
C:/temp/dataset/4/12_15.odb,Step-1,Increment      1: Step Time =    1.000,"PART-1-1",           401,          -15.,       13.5938,            0.,NA,NA,"",   56.5968E-03,   49.9288E-03,   26.6517E-03,   20.9537E-12
C:/temp/dataset/4/12_15.odb,Step-1,Increment      1: Step Time =    1.000,"PART-1-1",           402,      -10.1942,       21.9572,            0.,NA,NA,"",   62.2624E-03,   58.3099E-03,   21.8302E-03,   3.90789E-12
C:/temp/dataset/4/12_15.odb,Step-1,Increment      1: Step Time =    1.000,"PART-1-1",           403,      -9.14995,       21.4132,            0.,NA,NA,"",   61.3893E-03,   57.7641E-03,   20.7837E-03,   4.13790E-12
C:/temp/dataset/4/12_15.odb,Step-1,Increment      1: Step Time =    1.000,"PART-1-1",           404,      -8.60578,       22.3365,            0.,NA,NA,"",   62.0806E-03,   58.6893E-03,   20.2378E-03,   4.56483E-12
C:/temp/dataset/4/12_15.odb,Step-1,Increment      1: Step Time =    1.000,"PART-1-1",           405,      -9.65000,       22.8805,            0.,NA,NA,"",   62.9430E-03,   59.2351E-03,   21.2842E-03,   3.83468E-12
C:/temp/dataset/4/12_15.odb,Step-1,Increment      1: Step Time =    1.000,"PART-1-1",           406,      -14.0213,       25.7108,            0.,NA,NA,"",   67.1707E-03,   62.0744E-03,   25.6646E-03,   4.37470E-12
C:/temp/dataset/4/12_15.odb,Step-1,Increment      1: Step Time =    1.000,"PART-1-1",           407,      -12.8802,       26.8172,            0.,NA,NA,"",   67.7741E-03,   63.1830E-03,   24.5202E-03,   2.66731E-12
C:/temp/dataset/4/12_15.odb,Step-1,Increment      1: Step Time =    1.000,"PART-1-1",           408,      -13.8589,       27.8252,            0.,NA,NA,"",   69.0734E-03,   64.1939E-03,   25.5008E-03,   1.99941E-12
C:/temp/dataset/4/12_15.odb,Step-1,Increment      1: Step Time =    1.000,"PART-1-1",           409,          -15.,       26.7188,            0.,NA,NA,"",   68.4815E-03,   63.0853E-03,   26.6451E-03,   4.94504E-12
C:/temp/dataset/4/12_15.odb,Step-1,Increment      1: Step Time =    1.000,"PART-1-1",           410,        -13.75,           30.,            0.,NA,NA,"",   71.0645E-03,   66.3738E-03,   25.3905E-03,   2.90893E-12
C:/temp/dataset/4/12_15.odb,Step-1,Increment      1: Step Time =    1.000,"PART-1-1",           411,          -15.,       28.9063,            0.,NA,NA,"",   70.5062E-03,   65.2780E-03,   26.6440E-03,   2.79248E-12
C:/temp/dataset/4/12_15.odb,Step-1,Increment      1: Step Time =    1.000,"PART-1-1",           412,      -12.6089,       28.9190,            0.,NA,NA,"",   69.6467E-03,   65.2896E-03,   24.2472E-03,   3.05514E-12
C:/temp/dataset/4/12_15.odb,Step-1,Increment      1: Step Time =    1.000,"PART-1-1",           413,      -11.4362,       27.6040,            0.,NA,NA,"",   68.0044E-03,   63.9709E-03,   23.0723E-03,   3.65315E-12
C:/temp/dataset/4/12_15.odb,Step-1,Increment      1: Step Time =    1.000,"PART-1-1",           414,      -10.0773,       28.6850,            0.,NA,NA,"",   68.5806E-03,   65.0538E-03,   21.7096E-03,   3.61733E-12
C:/temp/dataset/4/12_15.odb,Step-1,Increment      1: Step Time =    1.000,"PART-1-1",           415,        -11.25,           30.,            0.,NA,NA,"",   70.2069E-03,   66.3725E-03,   22.8845E-03,   2.72118E-12
C:/temp/dataset/4/12_15.odb,Step-1,Increment      1: Step Time =    1.000,"PART-1-1",           416,      -13.7240,       21.2404,            0.,NA,NA,"",   62.9329E-03,   57.5931E-03,   25.3688E-03,   8.39486E-12
C:/temp/dataset/4/12_15.odb,Step-1,Increment      1: Step Time =    1.000,"PART-1-1",           417,      -12.6979,       22.4429,            0.,NA,NA,"",   63.6367E-03,   58.7981E-03,   24.3397E-03,   5.57833E-12
C:/temp/dataset/4/12_15.odb,Step-1,Increment      1: Step Time =    1.000,"PART-1-1",           418,      -13.9739,       23.5463,            0.,NA,NA,"",   65.1527E-03,   59.9048E-03,   25.6182E-03,   6.58051E-12
C:/temp/dataset/4/12_15.odb,Step-1,Increment      1: Step Time =    1.000,"PART-1-1",           419,          -15.,       22.3438,            0.,NA,NA,"",   64.4651E-03,   58.6998E-03,   26.6473E-03,   10.0092E-12
C:/temp/dataset/4/12_15.odb,Step-1,Increment      1: Step Time =    1.000,"PART-1-1",           420,      -11.9375,       16.3352,            0.,NA,NA,"",   57.7125E-03,   52.6753E-03,   23.5805E-03,   7.31919E-12
C:/temp/dataset/4/12_15.odb,Step-1,Increment      1: Step Time =    1.000,"PART-1-1",           421,      -10.8584,       17.1847,            0.,NA,NA,"",   58.0624E-03,   53.5263E-03,   22.4984E-03,   4.67018E-12
C:/temp/dataset/4/12_15.odb,Step-1,Increment      1: Step Time =    1.000,"PART-1-1",           422,      -11.8099,       18.4796,            0.,NA,NA,"",   59.6299E-03,   54.8248E-03,   23.4515E-03,   6.02924E-12
C:/temp/dataset/4/12_15.odb,Step-1,Increment      1: Step Time =    1.000,"PART-1-1",           423,      -12.8889,       17.6301,            0.,NA,NA,"",   59.2880E-03,   53.9738E-03,   24.5336E-03,   9.42177E-12
C:/temp/dataset/4/12_15.odb,Step-1,Increment      1: Step Time =    1.000,"PART-1-1",           424,      -9.98079,       13.8692,            0.,NA,NA,"",   54.6601E-03,   50.2024E-03,   21.6203E-03,   3.85187E-12
C:/temp/dataset/4/12_15.odb,Step-1,Increment      1: Step Time =    1.000,"PART-1-1",           425,      -11.0142,       12.9724,            0.,NA,NA,"",   54.2605E-03,   49.3039E-03,   22.6567E-03,   6.24694E-12
C:/temp/dataset/4/12_15.odb,Step-1,Increment      1: Step Time =    1.000,"PART-1-1",           426,      -10.0204,       11.7735,            0.,NA,NA,"",   52.7539E-03,   48.1017E-03,   21.6611E-03,   4.45173E-12
C:/temp/dataset/4/12_15.odb,Step-1,Increment      1: Step Time =    1.000,"PART-1-1",           427,      -6.95613,       14.5250,            0.,NA,NA,"",   54.1487E-03,   50.8582E-03,   18.5881E-03,   12.7288E-12
C:/temp/dataset/4/12_15.odb,Step-1,Increment      1: Step Time =    1.000,"PART-1-1",           428,      -5.98929,       13.4097,            0.,NA,NA,"",   52.7683E-03,   49.7398E-03,   17.6195E-03,   17.9119E-12
C:/temp/dataset/4/12_15.odb,Step-1,Increment      1: Step Time =    1.000,"PART-1-1",           429,           -5.,        14.375,            0.,NA,NA,"",   53.3635E-03,   50.7069E-03,   16.6274E-03,   20.8549E-12
C:/temp/dataset/4/12_15.odb,Step-1,Increment      1: Step Time =    1.000,"PART-1-1",           430,      -5.96684,       15.4903,            0.,NA,NA,"",   54.7310E-03,   51.8254E-03,   17.5960E-03,   15.4636E-12
C:/temp/dataset/4/12_15.odb,Step-1,Increment      1: Step Time =    1.000,"PART-1-1",           431,      -11.0581,       10.8707,            0.,NA,NA,"",   52.3732E-03,   47.1973E-03,   22.7017E-03,   8.03938E-12
C:/temp/dataset/4/12_15.odb,Step-1,Increment      1: Step Time =    1.000,"PART-1-1",           432,      -10.0579,       9.67932,            0.,NA,NA,"",   50.8637E-03,   46.0025E-03,   21.6998E-03,   6.10946E-12
C:/temp/dataset/4/12_15.odb,Step-1,Increment      1: Step Time =    1.000,"PART-1-1",           433,      -9.02030,       10.5821,            0.,NA,NA,"",   51.2549E-03,   46.9069E-03,   20.6592E-03,   5.50929E-12
C:/temp/dataset/4/12_15.odb,Step-1,Increment      1: Step Time =    1.000,"PART-1-1",           434,      -7.04064,       8.20966,            0.,NA,NA,"",   48.2858E-03,   44.5278E-03,   18.6760E-03,   22.1198E-12
C:/temp/dataset/4/12_15.odb,Step-1,Increment      1: Step Time =    1.000,"PART-1-1",           435,      -6.03068,       7.10065,            0.,NA,NA,"",   46.8715E-03,   43.4156E-03,   17.6642E-03,   36.5790E-12
C:/temp/dataset/4/12_15.odb,Step-1,Increment      1: Step Time =    1.000,"PART-1-1",           436,           -5.,         8.125,            0.,NA,NA,"",   47.4516E-03,   44.4419E-03,   16.6305E-03,   43.2784E-12
C:/temp/dataset/4/12_15.odb,Step-1,Increment      1: Step Time =    1.000,"PART-1-1",           437,      -6.00996,       9.23401,            0.,NA,NA,"",   48.8511E-03,   45.5541E-03,   17.6423E-03,   26.7074E-12
C:/temp/dataset/4/12_15.odb,Step-1,Increment      1: Step Time =    1.000,"PART-1-1",           438,      -13.0926,       9.02789,            0.,NA,NA,"",   51.6613E-03,   45.3511E-03,   24.7421E-03,   15.5359E-12
C:/temp/dataset/4/12_15.odb,Step-1,Increment      1: Step Time =    1.000,"PART-1-1",           439,      -14.0370,       10.1974,            0.,NA,NA,"",   53.1446E-03,   46.5239E-03,   25.6881E-03,   18.7617E-12
C:/temp/dataset/4/12_15.odb,Step-1,Increment      1: Step Time =    1.000,"PART-1-1",           440,          -15.,       9.21875,            0.,NA,NA,"",   52.7696E-03,   45.5433E-03,   26.6539E-03,   21.6786E-12
C:/temp/dataset/4/12_15.odb,Step-1,Increment      1: Step Time =    1.000,"PART-1-1",           441,      -13.9055,       1.56280,            0.,NA,NA,"",   45.6877E-03,   37.8685E-03,   25.5606E-03,   12.8681E-12
C:/temp/dataset/4/12_15.odb,Step-1,Increment      1: Step Time =    1.000,"PART-1-1",           442,      -12.9296,       2.64306,            0.,NA,NA,"",   46.0590E-03,   38.9508E-03,   24.5819E-03,   17.3131E-12
C:/temp/dataset/4/12_15.odb,Step-1,Increment      1: Step Time =    1.000,"PART-1-1",           443,      -14.0241,       3.73651,            0.,NA,NA,"",   47.5729E-03,   40.0475E-03,   25.6785E-03,   13.9211E-12
C:/temp/dataset/4/12_15.odb,Step-1,Increment      1: Step Time =    1.000,"PART-1-1",           444,          -15.,       2.65625,            0.,NA,NA,"",   47.2111E-03,   38.9651E-03,   26.6572E-03,   9.25502E-12
C:/temp/dataset/4/12_15.odb,Step-1,Increment      1: Step Time =    1.000,"PART-1-1",           445,      -13.7570,      -2.81804,            0.,NA,NA,"",   42.0307E-03,   33.4770E-03,   25.4139E-03,   5.32918E-12
C:/temp/dataset/4/12_15.odb,Step-1,Increment      1: Step Time =    1.000,"PART-1-1",           446,      -13.7756,  -623.683E-03,            0.,NA,NA,"",   43.8131E-03,   35.6767E-03,   25.4315E-03,   10.3285E-12
C:/temp/dataset/4/12_15.odb,Step-1,Increment      1: Step Time =    1.000,"PART-1-1",           447,          -15.,      -1.71875,            0.,NA,NA,"",   43.6632E-03,   34.5796E-03,   26.6594E-03,   4.51788E-12
C:/temp/dataset/4/12_15.odb,Step-1,Increment      1: Step Time =    1.000,"PART-1-1",           448,        -13.75,           -5.,            0.,NA,NA,"",   40.3066E-03,   31.2899E-03,   25.4081E-03,   3.31189E-12
C:/temp/dataset/4/12_15.odb,Step-1,Increment      1: Step Time =    1.000,"PART-1-1",           449,      -12.5070,      -3.91179,            0.,NA,NA,"",   40.4011E-03,   32.3800E-03,   24.1615E-03,   2.46278E-12
C:/temp/dataset/4/12_15.odb,Step-1,Increment      1: Step Time =    1.000,"PART-1-1",           450,          -15.,      -3.90625,            0.,NA,NA,"",   41.9487E-03,   32.3869E-03,   26.6605E-03,   3.69356E-12
C:/temp/dataset/4/12_15.odb,Step-1,Increment      1: Step Time =    1.000,"PART-1-1",           451,          -15.,    468.75E-03,            0.,NA,NA,"",   45.4188E-03,   36.7723E-03,   26.6583E-03,   3.16408E-12
C:/temp/dataset/4/12_15.odb,Step-1,Increment      1: Step Time =    1.000,"PART-1-1",           452,      -5.10506,       2.56414,            0.,NA,NA,"",   42.3189E-03,   38.8678E-03,   16.7386E-03,   396.626E-12
C:/temp/dataset/4/12_15.odb,Step-1,Increment      1: Step Time =    1.000,"PART-1-1",           453,      -4.59209,       3.94539,            0.,NA,NA,"",   43.3986E-03,   40.2521E-03,   16.2237E-03,   333.123E-12
C:/temp/dataset/4/12_15.odb,Step-1,Increment      1: Step Time =    1.000,"PART-1-1",           454,      -6.09775,       4.77703,            0.,NA,NA,"",   44.7498E-03,   41.0865E-03,   17.7326E-03,   144.599E-12
C:/temp/dataset/4/12_15.odb,Step-1,Increment      1: Step Time =    1.000,"PART-1-1",           455,      -6.61072,       3.39578,            0.,NA,NA,"",   43.6948E-03,   39.7022E-03,   18.2475E-03,   149.266E-12
C:/temp/dataset/4/12_15.odb,Step-1,Increment      1: Step Time =    1.000,"PART-1-1",           456,       9.44090,      -5.60228,            0.,NA,NA,"",   30.7505E-03,   30.6745E-03,   2.16134E-03,   139.696E-09
C:/temp/dataset/4/12_15.odb,Step-1,Increment      1: Step Time =    1.000,"PART-1-1",           457,       9.79564,      -4.46986,            0.,NA,NA,"",   31.8606E-03,   31.8094E-03,   1.80528E-03,   121.781E-09
C:/temp/dataset/4/12_15.odb,Step-1,Increment      1: Step Time =    1.000,"PART-1-1",           458,       8.43936,      -4.09444,            0.,NA,NA,"",   32.3417E-03,   32.1865E-03,   3.16475E-03,   117.369E-09
C:/temp/dataset/4/12_15.odb,Step-1,Increment      1: Step Time =    1.000,"PART-1-1",           459,       8.08462,      -5.22686,            0.,NA,NA,"",   31.2505E-03,   31.0515E-03,   3.52088E-03,   117.094E-09
C:/temp/dataset/4/12_15.odb,Step-1,Increment      1: Step Time =    1.000,"PART-1-1",           460,       6.93926,      -9.88629,            0.,NA,NA,"",   26.7887E-03,   26.3782E-03,   4.67158E-03,   1.36815E-06
C:/temp/dataset/4/12_15.odb,Step-1,Increment      1: Step Time =    1.000,"PART-1-1",           461,       5.93813,      -8.99303,            0.,NA,NA,"",   27.8596E-03,   27.2754E-03,   5.67540E-03,   240.692E-09
C:/temp/dataset/4/12_15.odb,Step-1,Increment      1: Step Time =    1.000,"PART-1-1",           462,            5.,      -10.2083,            0.,NA,NA,"",   26.8828E-03,   26.0555E-03,   6.61785E-03,   155.782E-09
C:/temp/dataset/4/12_15.odb,Step-1,Increment      1: Step Time =    1.000,"PART-1-1",           463,       12.9852,      -11.3613,            0.,NA,NA,"",   24.9459E-03,   24.9073E-03,  -1.38804E-03,   3.50849E-06
C:/temp/dataset/4/12_15.odb,Step-1,Increment      1: Step Time =    1.000,"PART-1-1",           464,       14.0059,      -12.5461,            0.,NA,NA,"",   23.8470E-03,   23.7246E-03,  -2.41225E-03,   3.31916E-06
C:/temp/dataset/4/12_15.odb,Step-1,Increment      1: Step Time =    1.000,"PART-1-1",           465,           15.,        -11.25,            0.,NA,NA,"",   25.2481E-03,   25.0174E-03,  -3.40557E-03,   1.12871E-06
C:/temp/dataset/4/12_15.odb,Step-1,Increment      1: Step Time =    1.000,"PART-1-1",           466,       13.9793,      -10.0652,            0.,NA,NA,"",   26.3107E-03,   26.2024E-03,  -2.38451E-03,   582.039E-09
C:/temp/dataset/4/12_15.odb,Step-1,Increment      1: Step Time =    1.000,"PART-1-1",           467,       7.08713,      -16.3801,            0.,NA,NA,"",   20.3368E-03,   19.8261E-03,   4.52873E-03,   31.6602E-06
C:/temp/dataset/4/12_15.odb,Step-1,Increment      1: Step Time =    1.000,"PART-1-1",           468,            5.,      -16.4583,            0.,NA,NA,"",   20.8260E-03,   19.7602E-03,   6.57693E-03,   33.5326E-06
C:/temp/dataset/4/12_15.odb,Step-1,Increment      1: Step Time =    1.000,"PART-1-1",           469,       13.0372,      -13.8111,            0.,NA,NA,"",   22.5115E-03,   22.4654E-03,  -1.43971E-03,   11.2162E-06
C:/temp/dataset/4/12_15.odb,Step-1,Increment      1: Step Time =    1.000,"PART-1-1",           470,       14.0313,      -15.0151,            0.,NA,NA,"",   21.4081E-03,   21.2676E-03,  -2.44819E-03,   12.2493E-06
C:/temp/dataset/4/12_15.odb,Step-1,Increment      1: Step Time =    1.000,"PART-1-1",           471,           15.,        -13.75,            0.,NA,NA,"",   22.7795E-03,   22.5228E-03,  -3.41026E-03,   7.88501E-06
C:/temp/dataset/4/12_15.odb,Step-1,Increment      1: Step Time =    1.000,"PART-1-1",           472,       13.0981,      -18.6529,            0.,NA,NA,"",   17.6967E-03,   17.6315E-03,  -1.51700E-03,   36.3811E-06
C:/temp/dataset/4/12_15.odb,Step-1,Increment      1: Step Time =    1.000,"PART-1-1",           473,       14.0553,      -19.9280,            0.,NA,NA,"",   16.4930E-03,   16.2877E-03,  -2.59379E-03,   60.3412E-06
C:/temp/dataset/4/12_15.odb,Step-1,Increment      1: Step Time =    1.000,"PART-1-1",           474,           15.,        -18.75,            0.,NA,NA,"",   17.8528E-03,   17.4981E-03,  -3.54113E-03,   69.7147E-06
C:/temp/dataset/4/12_15.odb,Step-1,Increment      1: Step Time =    1.000,"PART-1-1",           475,       14.0427,      -17.4749,            0.,NA,NA,"",   18.9800E-03,   18.8151E-03,  -2.49625E-03,   32.1072E-06
C:/temp/dataset/4/12_15.odb,Step-1,Increment      1: Step Time =    1.000,"PART-1-1",           476,       6.17422,      -27.9405,            0.,NA,NA,"",   7.66314E-03,   7.41731E-03,   1.92542E-03,   1.89406E-03
C:/temp/dataset/4/12_15.odb,Step-1,Increment      1: Step Time =    1.000,"PART-1-1",           477,            5.,      -28.9583,            0.,NA,NA,"",   6.20731E-03,   5.62001E-03,   2.63555E-03,   2.71442E-03
C:/temp/dataset/4/12_15.odb,Step-1,Increment      1: Step Time =    1.000,"PART-1-1",           478,          6.25,          -30.,            0.,NA,NA,"",            0.,   1.09525E-39,   1.20863E-39,   2.99335E-03
C:/temp/dataset/4/12_15.odb,Step-1,Increment      1: Step Time =    1.000,"PART-1-1",           479,       9.46325,      -26.8820,            0.,NA,NA,"",   7.19017E-03,   7.14621E-03,   793.846E-06,   1.33684E-03
C:/temp/dataset/4/12_15.odb,Step-1,Increment      1: Step Time =    1.000,"PART-1-1",           480,       8.20536,      -25.9154,            0.,NA,NA,"",   10.3160E-03,   10.1003E-03,   2.09862E-03,   1.33820E-03
C:/temp/dataset/4/12_15.odb,Step-1,Increment      1: Step Time =    1.000,"PART-1-1",           481,       7.26622,      -26.9429,            0.,NA,NA,"",   9.16224E-03,   8.94394E-03,   1.98810E-03,   1.75741E-03
C:/temp/dataset/4/12_15.odb,Step-1,Increment      1: Step Time =    1.000,"PART-1-1",           482,       13.6319,      -27.3465,            0.,NA,NA,"",   5.28457E-03,   5.08776E-03,  -1.42877E-03,   761.815E-06
C:/temp/dataset/4/12_15.odb,Step-1,Increment      1: Step Time =    1.000,"PART-1-1",           483,       12.3819,      -28.5965,            0.,NA,NA,"",   2.51750E-03,   2.49479E-03,  -337.386E-06,   1.11989E-03
C:/temp/dataset/4/12_15.odb,Step-1,Increment      1: Step Time =    1.000,"PART-1-1",           484,         13.75,          -30.,            0.,NA,NA,"",            0.,   364.869E-42,  -1.54397E-39,   1.55283E-03
C:/temp/dataset/4/12_15.odb,Step-1,Increment      1: Step Time =    1.000,"PART-1-1",           485,           15.,        -28.75,            0.,NA,NA,"",   3.34960E-03,   2.72387E-03,  -1.94946E-03,   1.48355E-03
C:/temp/dataset/4/12_15.odb,Step-1,Increment      1: Step Time =    1.000,"PART-1-1",           486,         11.25,          -30.,            0.,NA,NA,"",            0.,   1.12573E-39,  -453.508E-42,   1.18426E-03
C:/temp/dataset/4/12_15.odb,Step-1,Increment      1: Step Time =    1.000,"PART-1-1",           487,       10.9817,      -27.5238,            0.,NA,NA,"",   5.02975E-03,   5.02967E-03,   28.4690E-06,   1.26362E-03
C:/temp/dataset/4/12_15.odb,Step-1,Increment      1: Step Time =    1.000,"PART-1-1",           488,       10.1507,      -19.6985,            0.,NA,NA,"",   16.6397E-03,   16.5605E-03,   1.62205E-03,   46.8041E-06
C:/temp/dataset/4/12_15.odb,Step-1,Increment      1: Step Time =    1.000,"PART-1-1",           489,       9.14094,      -20.7396,            0.,NA,NA,"",   15.7766E-03,   15.5493E-03,   2.66844E-03,   79.5988E-06
C:/temp/dataset/4/12_15.odb,Step-1,Increment      1: Step Time =    1.000,"PART-1-1",           490,       11.1621,      -20.8614,            0.,NA,NA,"",   15.3490E-03,   15.3378E-03,   584.742E-06,   61.5019E-06
C:/temp/dataset/4/12_15.odb,Step-1,Increment      1: Step Time =    1.000,"PART-1-1",           491,       7.09922,      -20.6753,            0.,NA,NA,"",   16.2983E-03,   15.6489E-03,   4.55474E-03,   51.5380E-06
C:/temp/dataset/4/12_15.odb,Step-1,Increment      1: Step Time =    1.000,"PART-1-1",           492,            5.,       -20.625,            0.,NA,NA,"",   16.9656E-03,   15.7717E-03,   6.25177E-03,   159.080E-06
C:/temp/dataset/4/12_15.odb,Step-1,Increment      1: Step Time =    1.000,"PART-1-1",           493,       9.08758,      -14.0519,            0.,NA,NA,"",   22.3400E-03,   22.1955E-03,   2.53707E-03,   15.1128E-06
C:/temp/dataset/4/12_15.odb,Step-1,Increment      1: Step Time =    1.000,"PART-1-1",           494,       10.1099,      -15.1447,            0.,NA,NA,"",   21.1672E-03,   21.1119E-03,   1.52918E-03,   19.5387E-06
C:/temp/dataset/4/12_15.odb,Step-1,Increment      1: Step Time =    1.000,"PART-1-1",           495,       11.0794,      -13.9187,            0.,NA,NA,"",   22.3550E-03,   22.3485E-03,   538.048E-06,   13.8849E-06
C:/temp/dataset/4/12_15.odb,Step-1,Increment      1: Step Time =    1.000,"PART-1-1",           496,       10.0571,      -12.8260,            0.,NA,NA,"",   23.4854E-03,   23.4338E-03,   1.55695E-03,   7.48995E-06
C:/temp/dataset/4/12_15.odb,Step-1,Increment      1: Step Time =    1.000,"PART-1-1",           497,       9.02765,      -11.7712,            0.,NA,NA,"",   24.6230E-03,   24.4871E-03,   2.58275E-03,   5.52624E-06
C:/temp/dataset/4/12_15.odb,Step-1,Increment      1: Step Time =    1.000,"PART-1-1",           498,       11.0123,      -11.5393,            0.,NA,NA,"",   24.7333E-03,   24.7262E-03,   592.573E-06,   4.88426E-06
C:/temp/dataset/4/12_15.odb,Step-1,Increment      1: Step Time =    1.000,"PART-1-1",           499,       9.98284,      -10.4845,            0.,NA,NA,"",   25.8312E-03,   25.7803E-03,   1.62221E-03,   2.13874E-06
C:/temp/dataset/4/12_15.odb,Step-1,Increment      1: Step Time =    1.000,"PART-1-1",           500,       12.6190,       1.44886,            0.,NA,NA,"",   37.7548E-03,   37.7409E-03,  -1.02745E-03,   22.6397E-09
C:/temp/dataset/4/12_15.odb,Step-1,Increment      1: Step Time =    1.000,"PART-1-1",           501,       13.8500,   84.2405E-03,            0.,NA,NA,"",   36.4425E-03,   36.3723E-03,  -2.26076E-03,   23.8950E-09
C:/temp/dataset/4/12_15.odb,Step-1,Increment      1: Step Time =    1.000,"PART-1-1",           502,           15.,          1.25,            0.,NA,NA,"",   37.6952E-03,   37.5403E-03,  -3.41409E-03,   17.2785E-09
C:/temp/dataset/4/12_15.odb,Step-1,Increment      1: Step Time =    1.000,"PART-1-1",           503,       10.0180,      -2.29938,            0.,NA,NA,"",   34.0217E-03,   33.9850E-03,   1.58144E-03,   74.8591E-09
C:/temp/dataset/4/12_15.odb,Step-1,Increment      1: Step Time =    1.000,"PART-1-1",           504,       9.13986,      -3.07696,            0.,NA,NA,"",   33.2972E-03,   33.2060E-03,   2.46208E-03,   98.8963E-09
C:/temp/dataset/4/12_15.odb,Step-1,Increment      1: Step Time =    1.000,"PART-1-1",           505,       10.6738,      -3.69229,            0.,NA,NA,"",   32.6015E-03,   32.5883E-03,   924.704E-06,   105.724E-09
C:/temp/dataset/4/12_15.odb,Step-1,Increment      1: Step Time =    1.000,"PART-1-1",           506,       12.7589,       6.54544,            0.,NA,NA,"",   42.8656E-03,   42.8497E-03,  -1.17027E-03,   1.79739E-09
C:/temp/dataset/4/12_15.odb,Step-1,Increment      1: Step Time =    1.000,"PART-1-1",           507,           15.,          6.25,            0.,NA,NA,"",   42.6893E-03,   42.5524E-03,  -3.41662E-03,   145.461E-12
C:/temp/dataset/4/12_15.odb,Step-1,Increment      1: Step Time =    1.000,"PART-1-1",           508,       13.9203,       7.65480,            0.,NA,NA,"",   44.0231E-03,   43.9611E-03,  -2.33499E-03,   307.622E-12
C:/temp/dataset/4/12_15.odb,Step-1,Increment      1: Step Time =    1.000,"PART-1-1",           509,       13.0275,       16.3263,            0.,NA,NA,"",   52.6737E-03,   52.6539E-03,  -1.44440E-03,   53.9465E-12
C:/temp/dataset/4/12_15.odb,Step-1,Increment      1: Step Time =    1.000,"PART-1-1",           510,       14.0150,       15.0581,            0.,NA,NA,"",   51.4397E-03,   51.3821E-03,  -2.43373E-03,   53.0503E-12
C:/temp/dataset/4/12_15.odb,Step-1,Increment      1: Step Time =    1.000,"PART-1-1",           511,           15.,         16.25,            0.,NA,NA,"",   52.6876E-03,   52.5764E-03,  -3.42164E-03,   24.9722E-12
C:/temp/dataset/4/12_15.odb,Step-1,Increment      1: Step Time =    1.000,"PART-1-1",           512,       14.0124,       17.5182,            0.,NA,NA,"",   53.9031E-03,   53.8482E-03,  -2.43232E-03,   15.4028E-12
C:/temp/dataset/4/12_15.odb,Step-1,Increment      1: Step Time =    1.000,"PART-1-1",           513,       13.0175,       18.7421,            0.,NA,NA,"",   55.0942E-03,   55.0755E-03,  -1.43562E-03,   17.4224E-12
C:/temp/dataset/4/12_15.odb,Step-1,Increment      1: Step Time =    1.000,"PART-1-1",           514,           15.,         18.75,            0.,NA,NA,"",   55.1887E-03,   55.0824E-03,  -3.42290E-03,   8.74392E-12
C:/temp/dataset/4/12_15.odb,Step-1,Increment      1: Step Time =    1.000,"PART-1-1",           515,       14.0051,       19.9738,            0.,NA,NA,"",   56.3619E-03,   56.3097E-03,  -2.42620E-03,   10.8495E-12
C:/temp/dataset/4/12_15.odb,Step-1,Increment      1: Step Time =    1.000,"PART-1-1",           516,       5.97628,       21.7197,            0.,NA,NA,"",   58.3352E-03,   58.0638E-03,   5.62102E-03,   7.72145E-12
C:/temp/dataset/4/12_15.odb,Step-1,Increment      1: Step Time =    1.000,"PART-1-1",           517,       6.92463,       22.7965,            0.,NA,NA,"",   59.3268E-03,   59.1427E-03,   4.66985E-03,   6.04293E-12
C:/temp/dataset/4/12_15.odb,Step-1,Increment      1: Step Time =    1.000,"PART-1-1",           518,       5.94835,       23.7852,            0.,NA,NA,"",   60.3989E-03,   60.1342E-03,   5.64798E-03,   5.64519E-12
C:/temp/dataset/4/12_15.odb,Step-1,Increment      1: Step Time =    1.000,"PART-1-1",           519,            5.,       22.7083,            0.,NA,NA,"",   59.4229E-03,   59.0553E-03,   6.59915E-03,   7.86509E-12
C:/temp/dataset/4/12_15.odb,Step-1,Increment      1: Step Time =    1.000,"PART-1-1",           520,       13.8862,       24.9278,            0.,NA,NA,"",   61.3192E-03,   61.2757E-03,  -2.30950E-03,   5.85464E-12
C:/temp/dataset/4/12_15.odb,Step-1,Increment      1: Step Time =    1.000,"PART-1-1",           521,           15.,         26.25,            0.,NA,NA,"",   62.6942E-03,   62.6005E-03,  -3.42667E-03,   6.27936E-12
C:/temp/dataset/4/12_15.odb,Step-1,Increment      1: Step Time =    1.000,"PART-1-1",           522,       6.15342,       27.8650,            0.,NA,NA,"",   64.4538E-03,   64.2238E-03,   5.44037E-03,   1.92285E-12
C:/temp/dataset/4/12_15.odb,Step-1,Increment      1: Step Time =    1.000,"PART-1-1",           523,       7.40342,       28.9067,            0.,NA,NA,"",   65.4015E-03,   65.2674E-03,   4.18684E-03,   2.91924E-12
C:/temp/dataset/4/12_15.odb,Step-1,Increment      1: Step Time =    1.000,"PART-1-1",           524,          6.25,           30.,            0.,NA,NA,"",   66.5786E-03,   66.3639E-03,   5.34248E-03,   2.99982E-12
C:/temp/dataset/4/12_15.odb,Step-1,Increment      1: Step Time =    1.000,"PART-1-1",           525,            5.,       28.9583,            0.,NA,NA,"",   65.6525E-03,   65.3203E-03,   6.59601E-03,   2.70287E-12
C:/temp/dataset/4/12_15.odb,Step-1,Increment      1: Step Time =    1.000,"PART-1-1",           526,       7.11917,       26.8292,            0.,NA,NA,"",   63.3431E-03,   63.1850E-03,   4.47282E-03,   2.35639E-12
C:/temp/dataset/4/12_15.odb,Step-1,Increment      1: Step Time =    1.000,"PART-1-1",           527,            5.,        26.875,            0.,NA,NA,"",   63.5752E-03,   63.2320E-03,   6.59706E-03,   4.40072E-12
C:/temp/dataset/4/12_15.odb,Step-1,Increment      1: Step Time =    1.000,"PART-1-1",           528,       5.96574,       25.8392,            0.,NA,NA,"",   62.4475E-03,   62.1932E-03,   5.62952E-03,   3.88571E-12
C:/temp/dataset/4/12_15.odb,Step-1,Increment      1: Step Time =    1.000,"PART-1-1",           529,       8.59546,       27.4701,            0.,NA,NA,"",   63.8969E-03,   63.8268E-03,   2.99266E-03,   3.45133E-12
C:/temp/dataset/4/12_15.odb,Step-1,Increment      1: Step Time =    1.000,"PART-1-1",           530,       9.94204,       28.5635,            0.,NA,NA,"",   64.9428E-03,   64.9220E-03,   1.64229E-03,   3.70202E-12
C:/temp/dataset/4/12_15.odb,Step-1,Increment      1: Step Time =    1.000,"PART-1-1",           531,          8.75,           30.,            0.,NA,NA,"",   66.4232E-03,   66.3626E-03,   2.83647E-03,   2.93869E-12
C:/temp/dataset/4/12_15.odb,Step-1,Increment      1: Step Time =    1.000,"PART-1-1",           532,            5.,       24.7917,            0.,NA,NA,"",   61.4986E-03,   61.1437E-03,   6.59811E-03,   5.92788E-12
C:/temp/dataset/4/12_15.odb,Step-1,Increment      1: Step Time =    1.000,"PART-1-1",           533,       6.91409,       24.8327,            0.,NA,NA,"",   61.3625E-03,   61.1838E-03,   4.67939E-03,   4.03909E-12
C:/temp/dataset/4/12_15.odb,Step-1,Increment      1: Step Time =    1.000,"PART-1-1",           534,            5.,        20.625,            0.,NA,NA,"",   57.3480E-03,   56.9670E-03,   6.60020E-03,   11.5850E-12
C:/temp/dataset/4/12_15.odb,Step-1,Increment      1: Step Time =    1.000,"PART-1-1",           535,       5.99534,       19.6263,            0.,NA,NA,"",   56.2451E-03,   55.9654E-03,   5.60297E-03,   12.4105E-12
C:/temp/dataset/4/12_15.odb,Step-1,Increment      1: Step Time =    1.000,"PART-1-1",           536,       6.97162,       20.7210,            0.,NA,NA,"",   57.2492E-03,   57.0622E-03,   4.62379E-03,   10.1380E-12
C:/temp/dataset/4/12_15.odb,Step-1,Increment      1: Step Time =    1.000,"PART-1-1",           537,       9.90537,       10.7177,            0.,NA,NA,"",   47.0637E-03,   47.0334E-03,   1.68801E-03,   219.880E-12
C:/temp/dataset/4/12_15.odb,Step-1,Increment      1: Step Time =    1.000,"PART-1-1",           538,       8.83179,       9.75083,            0.,NA,NA,"",   46.1476E-03,   46.0647E-03,   2.76466E-03,   238.680E-12
C:/temp/dataset/4/12_15.odb,Step-1,Increment      1: Step Time =    1.000,"PART-1-1",           539,       10.8380,       9.37550,            0.,NA,NA,"",   45.6937E-03,   45.6875E-03,   753.840E-06,   356.306E-12
C:/temp/dataset/4/12_15.odb,Step-1,Increment      1: Step Time =    1.000,"PART-1-1",           540,       5.96737,       11.1773,            0.,NA,NA,"",   47.8292E-03,   47.4960E-03,   5.63525E-03,   269.347E-12
C:/temp/dataset/4/12_15.odb,Step-1,Increment      1: Step Time =    1.000,"PART-1-1",           541,       6.95908,       12.1740,            0.,NA,NA,"",   48.7162E-03,   48.4947E-03,   4.64065E-03,   192.281E-12
C:/temp/dataset/4/12_15.odb,Step-1,Increment      1: Step Time =    1.000,"PART-1-1",           542,            5.,       12.2917,            0.,NA,NA,"",   49.0602E-03,   48.6136E-03,   6.60439E-03,   304.333E-12
C:/temp/dataset/4/12_15.odb,Step-1,Increment      1: Step Time =    1.000,"PART-1-1",           543,       6.89189,       10.0466,            0.,NA,NA,"",   46.6007E-03,   46.3622E-03,   4.70907E-03,   168.513E-12
C:/temp/dataset/4/12_15.odb,Step-1,Increment      1: Step Time =    1.000,"PART-1-1",           544,            5.,       10.2083,            0.,NA,NA,"",   46.9918E-03,   46.5253E-03,   6.60543E-03,   586.192E-12
C:/temp/dataset/4/12_15.odb,Step-1,Increment      1: Step Time =    1.000,"PART-1-1",           545,  -883.251E-03,       2.97832,            0.,NA,NA,"",   41.2237E-03,   39.2808E-03,   12.5065E-03,   704.237E-12
C:/temp/dataset/4/12_15.odb,Step-1,Increment      1: Step Time =    1.000,"PART-1-1",           546,         -1.25,            5.,            0.,NA,NA,"",   43.2670E-03,   41.3076E-03,   12.8731E-03,   1.56255E-09
C:/temp/dataset/4/12_15.odb,Step-1,Increment      1: Step Time =    1.000,"PART-1-1",           547,      -2.28350,       3.97568,            0.,NA,NA,"",   42.6152E-03,   40.2813E-03,   13.9096E-03,   763.348E-12
C:/temp/dataset/4/12_15.odb,Step-1,Increment      1: Step Time =    1.000,"PART-1-1",           548,      -3.12559,       2.92107,            0.,NA,NA,"",   41.9077E-03,   39.2246E-03,   14.7542E-03,   695.935E-12
C:/temp/dataset/4/12_15.odb,Step-1,Increment      1: Step Time =    1.000,"PART-1-1",           549,         -3.75,            5.,            0.,NA,NA,"",   44.0787E-03,   41.3088E-03,   15.3791E-03,   655.012E-12
C:/temp/dataset/4/12_15.odb,Step-1,Increment      1: Step Time =    1.000,"PART-1-1",           550,      -7.01026,       10.3490,            0.,NA,NA,"",   50.2585E-03,   46.6723E-03,   18.6445E-03,   16.0476E-12
C:/temp/dataset/4/12_15.odb,Step-1,Increment      1: Step Time =    1.000,"PART-1-1",           551,           -5.,       10.2083,            0.,NA,NA,"",   49.4126E-03,   46.5303E-03,   16.6295E-03,   32.1651E-12
C:/temp/dataset/4/12_15.odb,Step-1,Increment      1: Step Time =    1.000,"PART-1-1",           552,      -6.00030,       11.3233,            0.,NA,NA,"",   50.8060E-03,   47.6484E-03,   17.6316E-03,   20.7927E-12
C:/temp/dataset/4/12_15.odb,Step-1,Increment      1: Step Time =    1.000,"PART-1-1",           553,      -6.90277,       16.5792,            0.,NA,NA,"",   56.0691E-03,   52.9174E-03,   18.5336E-03,   11.2097E-12
C:/temp/dataset/4/12_15.odb,Step-1,Increment      1: Step Time =    1.000,"PART-1-1",           554,           -5.,       16.4583,            0.,NA,NA,"",   55.3514E-03,   52.7952E-03,   16.6263E-03,   17.8556E-12
C:/temp/dataset/4/12_15.odb,Step-1,Increment      1: Step Time =    1.000,"PART-1-1",           555,      -5.93592,       17.5473,            0.,NA,NA,"",   56.6774E-03,   53.8873E-03,   17.5639E-03,   13.3620E-12
C:/temp/dataset/4/12_15.odb,Step-1,Increment      1: Step Time =    1.000,"PART-1-1",           556,      -5.96041,       23.6583,            0.,NA,NA,"",   62.5364E-03,   60.0130E-03,   17.5854E-03,   6.86297E-12
C:/temp/dataset/4/12_15.odb,Step-1,Increment      1: Step Time =    1.000,"PART-1-1",           557,           -5.,       24.7917,            0.,NA,NA,"",   63.3675E-03,   61.1486E-03,   16.6221E-03,   7.33102E-12
C:/temp/dataset/4/12_15.odb,Step-1,Increment      1: Step Time =    1.000,"PART-1-1",           558,      -7.48847,       28.8776,            0.,NA,NA,"",   67.9879E-03,   65.2456E-03,   19.1145E-03,   3.02167E-12
C:/temp/dataset/4/12_15.odb,Step-1,Increment      1: Step Time =    1.000,"PART-1-1",           559,           -5.,       28.9583,            0.,NA,NA,"",   67.4063E-03,   65.3252E-03,   16.6200E-03,   3.00593E-12
C:/temp/dataset/4/12_15.odb,Step-1,Increment      1: Step Time =    1.000,"PART-1-1",           560,         -6.25,           30.,            0.,NA,NA,"",   68.7343E-03,   66.3700E-03,   17.8725E-03,   2.64533E-12
C:/temp/dataset/4/12_15.odb,Step-1,Increment      1: Step Time =    1.000,"PART-1-1",           561,       12.9634,       11.4929,            0.,NA,NA,"",   47.8287E-03,   47.8089E-03,  -1.37779E-03,   186.695E-12
C:/temp/dataset/4/12_15.odb,Step-1,Increment      1: Step Time =    1.000,"PART-1-1",           562,       13.9657,       10.1417,            0.,NA,NA,"",   46.5150E-03,   46.4540E-03,  -2.38176E-03,   287.989E-12
C:/temp/dataset/4/12_15.odb,Step-1,Increment      1: Step Time =    1.000,"PART-1-1",           563,           15.,         11.25,            0.,NA,NA,"",   47.6871E-03,   47.5644E-03,  -3.41913E-03,   350.013E-12
C:/temp/dataset/4/12_15.odb,Step-1,Increment      1: Step Time =    1.000,"PART-1-1",           564,       13.9978,       12.6011,            0.,NA,NA,"",   48.9789E-03,   48.9193E-03,  -2.41516E-03,   150.439E-12
C:/temp/dataset/4/12_15.odb,Step-1,Increment      1: Step Time =    1.000,"PART-1-1",           565,       9.13480,      -18.5479,            0.,NA,NA,"",   17.8791E-03,   17.6895E-03,   2.59672E-03,   46.1013E-06
C:/temp/dataset/4/12_15.odb,Step-1,Increment      1: Step Time =    1.000,"PART-1-1",           566,       11.1537,      -18.5886,            0.,NA,NA,"",   17.6952E-03,   17.6866E-03,   550.441E-06,   38.4730E-06
C:/temp/dataset/4/12_15.odb,Step-1,Increment      1: Step Time =    1.000,"PART-1-1",           567,       10.1377,      -17.4381,            0.,NA,NA,"",   18.8829E-03,   18.8186E-03,   1.55671E-03,   37.6863E-06
C:/temp/dataset/4/12_15.odb,Step-1,Increment      1: Step Time =    1.000,"PART-1-1",           568,      -8.81573,       27.5627,            0.,NA,NA,"",   67.1180E-03,   63.9281E-03,   20.4456E-03,   3.83776E-12
C:/temp/dataset/4/12_15.odb,Step-1,Increment      1: Step Time =    1.000,"PART-1-1",           569,         -8.75,           30.,            0.,NA,NA,"",   69.4293E-03,   66.3713E-03,   20.3785E-03,   2.50835E-12
C:/temp/dataset/4/12_15.odb,Step-1,Increment      1: Step Time =    1.000,"PART-1-1",           570,            5.,      -24.7917,            0.,NA,NA,"",   16.2332E-03,   15.2930E-03,   5.44451E-03,   1.18682E-03
C:/temp/dataset/4/12_15.odb,Step-1,Increment      1: Step Time =    1.000,"PART-1-1",           571,       6.09200,      -25.8775,            0.,NA,NA,"",   13.3323E-03,   12.7116E-03,   4.02063E-03,   1.53083E-03
C:/temp/dataset/4/12_15.odb,Step-1,Increment      1: Step Time =    1.000,"PART-1-1",           572,       7.15121,      -24.8757,            0.,NA,NA,"",   13.2019E-03,   12.6795E-03,   3.67714E-03,   1.25655E-03
C:/temp/dataset/4/12_15.odb,Step-1,Increment      1: Step Time =    1.000,"PART-1-1",           573,       13.1040,      -21.0477,            0.,NA,NA,"",   15.1515E-03,   15.0716E-03,  -1.55416E-03,   25.5906E-06
C:/temp/dataset/4/12_15.odb,Step-1,Increment      1: Step Time =    1.000,"PART-1-1",           574,       14.0487,      -22.3697,            0.,NA,NA,"",   13.7164E-03,   13.4491E-03,  -2.69470E-03,   63.1607E-06
C:/temp/dataset/4/12_15.odb,Step-1,Increment      1: Step Time =    1.000,"PART-1-1",           575,           15.,        -21.25,            0.,NA,NA,"",   15.2472E-03,   14.7759E-03,  -3.76198E-03,   104.015E-06
C:/temp/dataset/4/12_15.odb,Step-1,Increment      1: Step Time =    1.000,"PART-1-1",           576,            5.,       -26.875,            0.,NA,NA,"",   13.3039E-03,   12.1797E-03,   5.35241E-03,   1.70050E-03
C:/temp/dataset/4/12_15.odb,Step-1,Increment      1: Step Time =    1.000,"PART-1-1",           577,       12.8133,      -6.31290,            0.,NA,NA,"",   29.9853E-03,   29.9605E-03,  -1.21832E-03,   70.8352E-09
C:/temp/dataset/4/12_15.odb,Step-1,Increment      1: Step Time =    1.000,"PART-1-1",           578,       13.9319,      -7.55671,            0.,NA,NA,"",   28.8088E-03,   28.7138E-03,  -2.33842E-03,   206.568E-09
C:/temp/dataset/4/12_15.odb,Step-1,Increment      1: Step Time =    1.000,"PART-1-1",           579,           15.,         -6.25,            0.,NA,NA,"",   30.2156E-03,   30.0226E-03,  -3.40951E-03,   318.579E-09
C:/temp/dataset/4/12_15.odb,Step-1,Increment      1: Step Time =    1.000,"PART-1-1",           580,            5.,       18.5417,            0.,NA,NA,"",   55.2742E-03,   54.8786E-03,   6.60125E-03,   22.7048E-12
C:/temp/dataset/4/12_15.odb,Step-1,Increment      1: Step Time =    1.000,"PART-1-1",           581,       6.00122,       17.5195,            0.,NA,NA,"",   54.1437E-03,   53.8535E-03,   5.59813E-03,   27.1964E-12
C:/temp/dataset/4/12_15.odb,Step-1,Increment      1: Step Time =    1.000,"PART-1-1",           582,       6.99656,       18.6041,            0.,NA,NA,"",   55.1324E-03,   54.9402E-03,   4.59985E-03,   23.0309E-12
C:/temp/dataset/4/12_15.odb,Step-1,Increment      1: Step Time =    1.000,"PART-1-1",           583,       12.8545,       23.6160,            0.,NA,NA,"",   59.9748E-03,   59.9612E-03,  -1.27467E-03,   5.30321E-12
C:/temp/dataset/4/12_15.odb,Step-1,Increment      1: Step Time =    1.000,"PART-1-1",           584,       13.9683,       22.4382,            0.,NA,NA,"",   58.8286E-03,   58.7800E-03,  -2.39058E-03,   8.93046E-12
C:/temp/dataset/4/12_15.odb,Step-1,Increment      1: Step Time =    1.000,"PART-1-1",           585,           15.,         23.75,            0.,NA,NA,"",   60.1920E-03,   60.0945E-03,  -3.42541E-03,   10.0076E-12
C:/temp/dataset/4/12_15.odb,Step-1,Increment      1: Step Time =    1.000,"PART-1-1",           586,            5.,       16.4583,            0.,NA,NA,"",   53.2015E-03,   52.7903E-03,   6.60229E-03,   54.6374E-12
C:/temp/dataset/4/12_15.odb,Step-1,Increment      1: Step Time =    1.000,"PART-1-1",           587,       7.00480,       16.4638,            0.,NA,NA,"",   52.9941E-03,   52.7948E-03,   4.59268E-03,   56.8401E-12
C:/temp/dataset/4/12_15.odb,Step-1,Increment      1: Step Time =    1.000,"PART-1-1",           588,       12.9734,       21.1620,            0.,NA,NA,"",   57.5181E-03,   57.5012E-03,  -1.39263E-03,   6.91272E-12
C:/temp/dataset/4/12_15.odb,Step-1,Increment      1: Step Time =    1.000,"PART-1-1",           589,           15.,         21.25,            0.,NA,NA,"",   57.6902E-03,   57.5884E-03,  -3.42416E-03,   12.9333E-12
C:/temp/dataset/4/12_15.odb,Step-1,Increment      1: Step Time =    1.000,"PART-1-1",           590,            5.,       6.04167,            0.,NA,NA,"",   42.8610E-03,   42.3486E-03,   6.60752E-03,   3.17421E-09
C:/temp/dataset/4/12_15.odb,Step-1,Increment      1: Step Time =    1.000,"PART-1-1",           591,       5.70418,       5.21013,            0.,NA,NA,"",   41.9321E-03,   41.5147E-03,   5.90207E-03,   5.58193E-09
C:/temp/dataset/4/12_15.odb,Step-1,Increment      1: Step Time =    1.000,"PART-1-1",           592,       6.54256,       6.20387,            0.,NA,NA,"",   42.8106E-03,   42.5104E-03,   5.06117E-03,   3.36056E-09
C:/temp/dataset/4/12_15.odb,Step-1,Increment      1: Step Time =    1.000,"PART-1-1",           593,       7.80464,       8.81181,            0.,NA,NA,"",   45.2832E-03,   45.1240E-03,   3.79475E-03,   337.684E-12
C:/temp/dataset/4/12_15.odb,Step-1,Increment      1: Step Time =    1.000,"PART-1-1",           594,       7.55468,       6.70991,            0.,NA,NA,"",   43.2070E-03,   43.0171E-03,   4.04637E-03,   2.23907E-09
C:/temp/dataset/4/12_15.odb,Step-1,Increment      1: Step Time =    1.000,"PART-1-1",           595,           -5.,       12.2917,            0.,NA,NA,"",   51.3836E-03,   48.6186E-03,   16.6284E-03,   24.5692E-12
C:/temp/dataset/4/12_15.odb,Step-1,Increment      1: Step Time =    1.000,"PART-1-1",           596,      -13.0551,       11.1433,            0.,NA,NA,"",   53.5145E-03,   47.4715E-03,   24.7034E-03,   14.4205E-12
C:/temp/dataset/4/12_15.odb,Step-1,Increment      1: Step Time =    1.000,"PART-1-1",           597,          -15.,       11.4063,            0.,NA,NA,"",   54.6727E-03,   47.7361E-03,   26.6528E-03,   22.3121E-12
C:/temp/dataset/4/12_15.odb,Step-1,Increment      1: Step Time =    1.000,"PART-1-1",           598,           -5.,       18.5417,            0.,NA,NA,"",   57.3464E-03,   54.8836E-03,   16.6253E-03,   15.1585E-12
C:/temp/dataset/4/12_15.odb,Step-1,Increment      1: Step Time =    1.000,"PART-1-1",           599,      -6.83195,       18.5917,            0.,NA,NA,"",   57.9539E-03,   54.9347E-03,   18.4616E-03,   9.74498E-12
C:/temp/dataset/4/12_15.odb,Step-1,Increment      1: Step Time =    1.000,"PART-1-1",           600,      -12.9744,       15.4368,            0.,NA,NA,"",   57.3310E-03,   51.7753E-03,   24.6204E-03,   11.2726E-12
C:/temp/dataset/4/12_15.odb,Step-1,Increment      1: Step Time =    1.000,"PART-1-1",           601,      -13.9736,       16.6988,            0.,NA,NA,"",   58.9049E-03,   53.0408E-03,   25.6213E-03,   13.6801E-12
C:/temp/dataset/4/12_15.odb,Step-1,Increment      1: Step Time =    1.000,"PART-1-1",           602,          -15.,       15.7813,            0.,NA,NA,"",   58.5398E-03,   52.1216E-03,   26.6506E-03,   18.5676E-12
C:/temp/dataset/4/12_15.odb,Step-1,Increment      1: Step Time =    1.000,"PART-1-1",           603,      -6.85389,       22.5676,            0.,NA,NA,"",   61.7507E-03,   58.9201E-03,   18.4816E-03,   6.49803E-12
C:/temp/dataset/4/12_15.odb,Step-1,Increment      1: Step Time =    1.000,"PART-1-1",           604,           -5.,       22.7083,            0.,NA,NA,"",   61.3550E-03,   59.0602E-03,   16.6232E-03,   9.88146E-12
C:/temp/dataset/4/12_15.odb,Step-1,Increment      1: Step Time =    1.000,"PART-1-1",           605,      -7.62380,       21.5126,            0.,NA,NA,"",   60.9822E-03,   57.8629E-03,   19.2539E-03,   5.96364E-12
C:/temp/dataset/4/12_15.odb,Step-1,Increment      1: Step Time =    1.000,"PART-1-1",           606,      -11.2433,       25.0031,            0.,NA,NA,"",   65.4905E-03,   61.3636E-03,   22.8803E-03,   3.83422E-12
C:/temp/dataset/4/12_15.odb,Step-1,Increment      1: Step Time =    1.000,"PART-1-1",           607,      -10.1220,       24.6816,            0.,NA,NA,"",   64.8022E-03,   61.0408E-03,   21.7564E-03,   3.85654E-12
C:/temp/dataset/4/12_15.odb,Step-1,Increment      1: Step Time =    1.000,"PART-1-1",           608,      -9.68436,       26.2404,            0.,NA,NA,"",   66.1329E-03,   62.6031E-03,   21.3170E-03,   4.22263E-12
C:/temp/dataset/4/12_15.odb,Step-1,Increment      1: Step Time =    1.000,"PART-1-1",           609,      -10.8057,       26.5619,            0.,NA,NA,"",   66.8077E-03,   62.9259E-03,   22.4409E-03,   3.99127E-12
C:/temp/dataset/4/12_15.odb,Step-1,Increment      1: Step Time =    1.000,"PART-1-1",           610,            5.,      -6.04167,            0.,NA,NA,"",   30.9511E-03,   30.2361E-03,   6.61414E-03,   330.848E-09
C:/temp/dataset/4/12_15.odb,Step-1,Increment      1: Step Time =    1.000,"PART-1-1",           611,       5.81487,      -6.90448,            0.,NA,NA,"",   29.9374E-03,   29.3707E-03,   5.79769E-03,   236.643E-09
C:/temp/dataset/4/12_15.odb,Step-1,Increment      1: Step Time =    1.000,"PART-1-1",           612,       6.44107,      -5.66337,            0.,NA,NA,"",   31.0481E-03,   30.6148E-03,   5.16898E-03,   119.149E-09
C:/temp/dataset/4/12_15.odb,Step-1,Increment      1: Step Time =    1.000,"PART-1-1",           613,       5.62621,      -4.80056,            0.,NA,NA,"",   32.0441E-03,   31.4801E-03,   5.98547E-03,   143.300E-09
C:/temp/dataset/4/12_15.odb,Step-1,Increment      1: Step Time =    1.000,"PART-1-1",           614,            5.,        -8.125,            0.,NA,NA,"",   28.9139E-03,   28.1468E-03,   6.61601E-03,   409.907E-09
C:/temp/dataset/4/12_15.odb,Step-1,Increment      1: Step Time =    1.000,"PART-1-1",           615,       8.00489,       17.5473,            0.,NA,NA,"",   53.9998E-03,   53.8804E-03,   3.58963E-03,   30.0318E-12
C:/temp/dataset/4/12_15.odb,Step-1,Increment      1: Step Time =    1.000,"PART-1-1",           616,       8.00828,       15.3576,            0.,NA,NA,"",   51.8097E-03,   51.6853E-03,   3.58733E-03,   75.0510E-12
C:/temp/dataset/4/12_15.odb,Step-1,Increment      1: Step Time =    1.000,"PART-1-1",           617,       11.1265,      -16.2686,            0.,NA,NA,"",   20.0129E-03,   20.0061E-03,   521.491E-06,   29.2231E-06
C:/temp/dataset/4/12_15.odb,Step-1,Increment      1: Step Time =    1.000,"PART-1-1",           618,       9.12111,      -16.3141,            0.,NA,NA,"",   20.0825E-03,   19.9213E-03,   2.53971E-03,   31.4261E-06
C:/temp/dataset/4/12_15.odb,Step-1,Increment      1: Step Time =    1.000,"PART-1-1",           619,      -9.91602,       15.9767,            0.,NA,NA,"",   56.5813E-03,   52.3149E-03,   21.5544E-03,   3.76861E-12
C:/temp/dataset/4/12_15.odb,Step-1,Increment      1: Step Time =    1.000,"PART-1-1",           620,      -10.9598,       15.0860,            0.,NA,NA,"",   56.1703E-03,   51.4226E-03,   22.6011E-03,   5.28307E-12
C:/temp/dataset/4/12_15.odb,Step-1,Increment      1: Step Time =    1.000,"PART-1-1",           621,      -8.93702,       14.7598,            0.,NA,NA,"",   55.0812E-03,   51.0947E-03,   20.5736E-03,   5.63651E-12
C:/temp/dataset/4/12_15.odb,Step-1,Increment      1: Step Time =    1.000,"PART-1-1",           622,      -13.0880,       4.79273,            0.,NA,NA,"",   47.9763E-03,   41.1057E-03,   24.7395E-03,   15.9144E-12
C:/temp/dataset/4/12_15.odb,Step-1,Increment      1: Step Time =    1.000,"PART-1-1",           623,          -15.,       4.84375,            0.,NA,NA,"",   49.0359E-03,   41.1578E-03,   26.6561E-03,   14.2890E-12
C:/temp/dataset/4/12_15.odb,Step-1,Increment      1: Step Time =    1.000,"PART-1-1",           624,           -5.,       6.04167,            0.,NA,NA,"",   45.5020E-03,   42.3536E-03,   16.6315E-03,   95.4707E-12
C:/temp/dataset/4/12_15.odb,Step-1,Increment      1: Step Time =    1.000,"PART-1-1",           625,      -7.12843,       5.83601,            0.,NA,NA,"",   46.1371E-03,   42.1485E-03,   18.7652E-03,   17.7529E-12
C:/temp/dataset/4/12_15.odb,Step-1,Increment      1: Step Time =    1.000,"PART-1-1",           626,       12.9112,      -8.87192,            0.,NA,NA,"",   27.4285E-03,   27.3970E-03,  -1.31512E-03,   680.661E-09
C:/temp/dataset/4/12_15.odb,Step-1,Increment      1: Step Time =    1.000,"PART-1-1",           627,           15.,         -8.75,            0.,NA,NA,"",   27.7284E-03,   27.5183E-03,  -3.40726E-03,   297.592E-09
C:/temp/dataset/4/12_15.odb,Step-1,Increment      1: Step Time =    1.000,"PART-1-1",           628,       13.0740,      -16.2399,            0.,NA,NA,"",   20.1073E-03,   20.0528E-03,  -1.47971E-03,   25.9082E-06
C:/temp/dataset/4/12_15.odb,Step-1,Increment      1: Step Time =    1.000,"PART-1-1",           629,           15.,        -16.25,            0.,NA,NA,"",   20.3236E-03,   20.0302E-03,  -3.44107E-03,   27.7145E-06
C:/temp/dataset/4/12_15.odb,Step-1,Increment      1: Step Time =    1.000,"PART-1-1",           630,       13.0128,       13.9092,            0.,NA,NA,"",   50.2513E-03,   50.2310E-03,  -1.42850E-03,   127.697E-12
C:/temp/dataset/4/12_15.odb,Step-1,Increment      1: Step Time =    1.000,"PART-1-1",           631,           15.,         13.75,            0.,NA,NA,"",   50.1871E-03,   50.0704E-03,  -3.42039E-03,   126.602E-12
C:/temp/dataset/4/12_15.odb,Step-1,Increment      1: Step Time =    1.000,"PART-1-1",           632,       10.9505,       11.7339,            0.,NA,NA,"",   48.0558E-03,   48.0515E-03,   639.878E-06,   198.121E-12
C:/temp/dataset/4/12_15.odb,Step-1,Increment      1: Step Time =    1.000,"PART-1-1",           633,       9.98883,       12.9959,            0.,NA,NA,"",   49.3431E-03,   49.3170E-03,   1.60321E-03,   167.296E-12
C:/temp/dataset/4/12_15.odb,Step-1,Increment      1: Step Time =    1.000,"PART-1-1",           634,       8.94372,       11.9797,            0.,NA,NA,"",   48.3716E-03,   48.2989E-03,   2.65134E-03,   187.167E-12
C:/temp/dataset/4/12_15.odb,Step-1,Increment      1: Step Time =    1.000,"PART-1-1",           635,      -13.9153,       18.9000,            0.,NA,NA,"",   60.8742E-03,   55.2473E-03,   25.5618E-03,   11.2065E-12
C:/temp/dataset/4/12_15.odb,Step-1,Increment      1: Step Time =    1.000,"PART-1-1",           636,      -12.6393,       19.9841,            0.,NA,NA,"",   61.3439E-03,   56.3334E-03,   24.2822E-03,   7.21018E-12
C:/temp/dataset/4/12_15.odb,Step-1,Increment      1: Step Time =    1.000,"PART-1-1",           637,          -15.,       20.1563,            0.,NA,NA,"",   62.4755E-03,   56.5071E-03,   26.6484E-03,   12.8942E-12
C:/temp/dataset/4/12_15.odb,Step-1,Increment      1: Step Time =    1.000,"PART-1-1",           638,       8.12191,      -21.7795,            0.,NA,NA,"",   15.1298E-03,   14.6807E-03,   3.65901E-03,   143.569E-06
C:/temp/dataset/4/12_15.odb,Step-1,Increment      1: Step Time =    1.000,"PART-1-1",           639,       8.12482,      -23.8590,            0.,NA,NA,"",   13.3548E-03,   12.9472E-03,   3.27421E-03,   668.635E-06
C:/temp/dataset/4/12_15.odb,Step-1,Increment      1: Step Time =    1.000,"PART-1-1",           640,       8.11825,      -19.6354,            0.,NA,NA,"",   16.9950E-03,   16.6069E-03,   3.61144E-03,   46.9440E-06
C:/temp/dataset/4/12_15.odb,Step-1,Increment      1: Step Time =    1.000,"PART-1-1",           641,       8.10952,      -17.4508,            0.,NA,NA,"",   19.0940E-03,   18.7602E-03,   3.55455E-03,   36.7780E-06
C:/temp/dataset/4/12_15.odb,Step-1,Increment      1: Step Time =    1.000,"PART-1-1",           642,       7.85781,       23.9076,            0.,NA,NA,"",   60.3716E-03,   60.2560E-03,   3.73387E-03,   4.15546E-12
C:/temp/dataset/4/12_15.odb,Step-1,Increment      1: Step Time =    1.000,"PART-1-1",           643,       7.94870,       21.8524,            0.,NA,NA,"",   58.3098E-03,   58.1958E-03,   3.64379E-03,   5.64514E-12
C:/temp/dataset/4/12_15.odb,Step-1,Increment      1: Step Time =    1.000,"PART-1-1",           644,       4.21929,       2.98066,            0.,NA,NA,"",   39.9700E-03,   39.2806E-03,   7.39166E-03,   6.58558E-09
C:/temp/dataset/4/12_15.odb,Step-1,Increment      1: Step Time =    1.000,"PART-1-1",           645,       5.32392,       3.96649,            0.,NA,NA,"",   40.7556E-03,   40.2683E-03,   6.28387E-03,   6.44907E-09
C:/temp/dataset/4/12_15.odb,Step-1,Increment      1: Step Time =    1.000,"PART-1-1",           646,          3.75,            5.,            0.,NA,NA,"",   42.0464E-03,   41.3051E-03,   7.86106E-03,   2.93297E-09
C:/temp/dataset/4/12_15.odb,Step-1,Increment      1: Step Time =    1.000,"PART-1-1",           647,       12.8859,       9.04653,            0.,NA,NA,"",   45.3753E-03,   45.3567E-03,  -1.29888E-03,   165.899E-12
C:/temp/dataset/4/12_15.odb,Step-1,Increment      1: Step Time =    1.000,"PART-1-1",           648,           15.,          8.75,            0.,NA,NA,"",   45.1878E-03,   45.0584E-03,  -3.41788E-03,   571.859E-12
C:/temp/dataset/4/12_15.odb,Step-1,Increment      1: Step Time =    1.000,"PART-1-1",           649,      -8.02807,       9.41948,            0.,NA,NA,"",   49.7892E-03,   45.7410E-03,   19.6652E-03,   9.77632E-12
C:/temp/dataset/4/12_15.odb,Step-1,Increment      1: Step Time =    1.000,"PART-1-1",           650,      -8.84347,       16.8085,            0.,NA,NA,"",   56.9571E-03,   53.1482E-03,   20.4788E-03,   5.51024E-12
C:/temp/dataset/4/12_15.odb,Step-1,Increment      1: Step Time =    1.000,"PART-1-1",           651,      -9.78583,       18.0165,            0.,NA,NA,"",   58.4286E-03,   54.3596E-03,   21.4228E-03,   3.81539E-12
C:/temp/dataset/4/12_15.odb,Step-1,Increment      1: Step Time =    1.000,"PART-1-1",           652,          -15.,       17.9688,            0.,NA,NA,"",   60.4999E-03,   54.3143E-03,   26.6495E-03,   15.7871E-12
C:/temp/dataset/4/12_15.odb,Step-1,Increment      1: Step Time =    1.000,"PART-1-1",           653,          -15.,       24.5313,            0.,NA,NA,"",   66.4675E-03,   60.8926E-03,   26.6462E-03,   7.28109E-12
C:/temp/dataset/4/12_15.odb,Step-1,Increment      1: Step Time =    1.000,"PART-1-1",           654,      -12.9952,       24.7258,            0.,NA,NA,"",   65.8675E-03,   61.0866E-03,   24.6365E-03,   4.26874E-12
C:/temp/dataset/4/12_15.odb,Step-1,Increment      1: Step Time =    1.000,"PART-1-1",           655,      -11.4985,       21.8877,            0.,NA,NA,"",   62.6686E-03,   58.2409E-03,   23.1377E-03,   4.49249E-12
C:/temp/dataset/4/12_15.odb,Step-1,Increment      1: Step Time =    1.000,"PART-1-1",           656,      -11.4490,       20.6565,            0.,NA,NA,"",   61.5049E-03,   57.0067E-03,   23.0887E-03,   4.59081E-12
C:/temp/dataset/4/12_15.odb,Step-1,Increment      1: Step Time =    1.000,"PART-1-1",           657,      -10.1446,       20.7260,            0.,NA,NA,"",   61.0906E-03,   57.0758E-03,   21.7811E-03,   3.89274E-12
C:/temp/dataset/4/12_15.odb,Step-1,Increment      1: Step Time =    1.000,"PART-1-1",           658,      -7.69218,       19.6350,            0.,NA,NA,"",   59.2221E-03,   55.9809E-03,   19.3234E-03,   6.91785E-12
C:/temp/dataset/4/12_15.odb,Step-1,Increment      1: Step Time =    1.000,"PART-1-1",           659,      -8.68744,       18.7463,            0.,NA,NA,"",   58.7191E-03,   55.0906E-03,   20.3214E-03,   5.34639E-12
C:/temp/dataset/4/12_15.odb,Step-1,Increment      1: Step Time =    1.000,"PART-1-1",           660,      -7.82721,       17.7030,            0.,NA,NA,"",   57.4410E-03,   54.0443E-03,   19.4597E-03,   7.66370E-12
C:/temp/dataset/4/12_15.odb,Step-1,Increment      1: Step Time =    1.000,"PART-1-1",           661,      -9.52114,       19.8817,            0.,NA,NA,"",   60.0775E-03,   56.2291E-03,   21.1566E-03,   3.97163E-12
C:/temp/dataset/4/12_15.odb,Step-1,Increment      1: Step Time =    1.000,"PART-1-1",           662,      -10.6195,       19.1519,            0.,NA,NA,"",   59.7951E-03,   55.4981E-03,   22.2580E-03,   4.17218E-12
C:/temp/dataset/4/12_15.odb,Step-1,Increment      1: Step Time =    1.000,"PART-1-1",           663,      -12.1485,       3.78191,            0.,NA,NA,"",   46.6233E-03,   40.0920E-03,   23.7983E-03,   16.6059E-12
C:/temp/dataset/4/12_15.odb,Step-1,Increment      1: Step Time =    1.000,"PART-1-1",           664,      -10.9850,       2.86362,            0.,NA,NA,"",   45.2393E-03,   39.1709E-03,   22.6325E-03,   26.0768E-12
C:/temp/dataset/4/12_15.odb,Step-1,Increment      1: Step Time =    1.000,"PART-1-1",           665,      -9.06958,       8.49577,            0.,NA,NA,"",   49.3693E-03,   44.8156E-03,   20.7097E-03,   6.52816E-12
C:/temp/dataset/4/12_15.odb,Step-1,Increment      1: Step Time =    1.000,"PART-1-1",           666,      -8.08215,       7.28595,            0.,NA,NA,"",   47.8547E-03,   43.6024E-03,   19.7205E-03,   8.49207E-12
C:/temp/dataset/4/12_15.odb,Step-1,Increment      1: Step Time =    1.000,"PART-1-1",           667,      -10.1292,       7.60955,            0.,NA,NA,"",   49.0274E-03,   43.9278E-03,   21.7723E-03,   9.00279E-12
C:/temp/dataset/4/12_15.odb,Step-1,Increment      1: Step Time =    1.000,"PART-1-1",           668,      -11.2104,       6.77234,            0.,NA,NA,"",   48.7759E-03,   43.0891E-03,   22.8564E-03,   13.1176E-12
C:/temp/dataset/4/12_15.odb,Step-1,Increment      1: Step Time =    1.000,"PART-1-1",           669,      -10.2942,       5.63122,            0.,NA,NA,"",   47.3358E-03,   41.9448E-03,   21.9387E-03,   9.79504E-12
C:/temp/dataset/4/12_15.odb,Step-1,Increment      1: Step Time =    1.000,"PART-1-1",           670,      -9.21309,       6.46842,            0.,NA,NA,"",   47.5956E-03,   42.7835E-03,   20.8545E-03,   6.36208E-12
C:/temp/dataset/4/12_15.odb,Step-1,Increment      1: Step Time =    1.000,"PART-1-1",           671,        -11.25,           -5.,            0.,NA,NA,"",   38.7748E-03,   31.2886E-03,   22.9021E-03,   12.5383E-12
C:/temp/dataset/4/12_15.odb,Step-1,Increment      1: Step Time =    1.000,"PART-1-1",           672,      -10.0273,      -3.93877,            0.,NA,NA,"",   38.9420E-03,   32.3518E-03,   21.6759E-03,   25.4742E-12
C:/temp/dataset/4/12_15.odb,Step-1,Increment      1: Step Time =    1.000,"PART-1-1",           673,         -8.75,           -5.,            0.,NA,NA,"",   37.3483E-03,   31.2873E-03,   20.3961E-03,   46.1070E-12
C:/temp/dataset/4/12_15.odb,Step-1,Increment      1: Step Time =    1.000,"PART-1-1",           674,      -7.59562,      -4.02918,            0.,NA,NA,"",   37.5609E-03,   32.2599E-03,   19.2384E-03,   92.1903E-12
C:/temp/dataset/4/12_15.odb,Step-1,Increment      1: Step Time =    1.000,"PART-1-1",           675,      -8.87289,      -2.96795,            0.,NA,NA,"",   39.1345E-03,   33.3243E-03,   20.5183E-03,   93.0241E-12
C:/temp/dataset/4/12_15.odb,Step-1,Increment      1: Step Time =    1.000,"PART-1-1",           676,         -6.25,           -5.,            0.,NA,NA,"",   36.0399E-03,   31.2861E-03,   17.8901E-03,   296.199E-12
C:/temp/dataset/4/12_15.odb,Step-1,Increment      1: Step Time =    1.000,"PART-1-1",           677,      -5.03874,      -3.83161,            0.,NA,NA,"",   36.4898E-03,   32.4567E-03,   16.6753E-03,   349.269E-12
C:/temp/dataset/4/12_15.odb,Step-1,Increment      1: Step Time =    1.000,"PART-1-1",           678,      -6.38435,      -2.86079,            0.,NA,NA,"",   37.9796E-03,   33.4305E-03,   18.0237E-03,   289.423E-12
C:/temp/dataset/4/12_15.odb,Step-1,Increment      1: Step Time =    1.000,"PART-1-1",           679,      -8.31216,       1.98044,            0.,NA,NA,"",   43.1722E-03,   38.2843E-03,   19.9537E-03,   94.7755E-12
C:/temp/dataset/4/12_15.odb,Step-1,Increment      1: Step Time =    1.000,"PART-1-1",           680,      -6.89941,       1.67561,            0.,NA,NA,"",   42.2608E-03,   37.9780E-03,   18.5377E-03,   192.226E-12
C:/temp/dataset/4/12_15.odb,Step-1,Increment      1: Step Time =    1.000,"PART-1-1",           681,      -8.02347,       3.70061,            0.,NA,NA,"",   44.5795E-03,   40.0085E-03,   19.6634E-03,   57.7797E-12
C:/temp/dataset/4/12_15.odb,Step-1,Increment      1: Step Time =    1.000,"PART-1-1",           682,      -9.78636,       2.36681,            0.,NA,NA,"",   44.2136E-03,   38.6723E-03,   21.4312E-03,   42.2164E-12
C:/temp/dataset/4/12_15.odb,Step-1,Increment      1: Step Time =    1.000,"PART-1-1",           683,      -8.80920,   354.969E-03,            0.,NA,NA,"",   41.9752E-03,   36.6552E-03,   20.4527E-03,   93.5180E-12
C:/temp/dataset/4/12_15.odb,Step-1,Increment      1: Step Time =    1.000,"PART-1-1",           684,         -3.75,           -5.,            0.,NA,NA,"",   34.8627E-03,   31.2848E-03,   15.3841E-03,   670.648E-12
C:/temp/dataset/4/12_15.odb,Step-1,Increment      1: Step Time =    1.000,"PART-1-1",           685,          3.75,           -5.,            0.,NA,NA,"",   32.2550E-03,   31.2811E-03,   7.86616E-03,   31.1730E-09
C:/temp/dataset/4/12_15.odb,Step-1,Increment      1: Step Time =    1.000,"PART-1-1",           686,       4.46580,      -3.87501,            0.,NA,NA,"",   33.1873E-03,   32.4084E-03,   7.14811E-03,   71.1254E-09
C:/temp/dataset/4/12_15.odb,Step-1,Increment      1: Step Time =    1.000,"PART-1-1",           687,       2.90021,      -2.90757,            0.,NA,NA,"",   34.4984E-03,   33.3789E-03,   8.71691E-03,   8.83158E-09
C:/temp/dataset/4/12_15.odb,Step-1,Increment      1: Step Time =    1.000,"PART-1-1",           688,       11.1618,       2.81075,            0.,NA,NA,"",   39.1092E-03,   39.1068E-03,   432.512E-06,   11.0867E-09
C:/temp/dataset/4/12_15.odb,Step-1,Increment      1: Step Time =    1.000,"PART-1-1",           689,       10.1850,       1.50626,            0.,NA,NA,"",   37.8260E-03,   37.7996E-03,   1.41236E-03,   24.3379E-09
C:/temp/dataset/4/12_15.odb,Step-1,Increment      1: Step Time =    1.000,"PART-1-1",           690,       11.6421,   144.368E-03,            0.,NA,NA,"",   36.4337E-03,   36.4337E-03,  -47.6180E-06,   31.1692E-09
C:/temp/dataset/4/12_15.odb,Step-1,Increment      1: Step Time =    1.000,"PART-1-1",           691,         11.25,           30.,            0.,NA,NA,"",   66.3622E-03,   66.3614E-03,   330.463E-06,   2.47276E-12
C:/temp/dataset/4/12_15.odb,Step-1,Increment      1: Step Time =    1.000,"PART-1-1",           692,       9.19768,       26.3844,            0.,NA,NA,"",   62.7836E-03,   62.7381E-03,   2.38954E-03,   3.83997E-12
C:/temp/dataset/4/12_15.odb,Step-1,Increment      1: Step Time =    1.000,"PART-1-1",           693,       7.72138,       25.7435,            0.,NA,NA,"",   62.2168E-03,   62.0964E-03,   3.86970E-03,   3.12338E-12
C:/temp/dataset/4/12_15.odb,Step-1,Increment      1: Step Time =    1.000,"PART-1-1",           694,       9.17897,      -24.8987,            0.,NA,NA,"",   11.1329E-03,   10.9724E-03,   1.88318E-03,   851.650E-06
C:/temp/dataset/4/12_15.odb,Step-1,Increment      1: Step Time =    1.000,"PART-1-1",           695,       9.00589,       18.6572,            0.,NA,NA,"",   55.0532E-03,   54.9924E-03,   2.58566E-03,   23.4711E-12
C:/temp/dataset/4/12_15.odb,Step-1,Increment      1: Step Time =    1.000,"PART-1-1",           696,       7.99757,       19.7140,            0.,NA,NA,"",   56.1675E-03,   56.0522E-03,   3.59588E-03,   10.9956E-12
C:/temp/dataset/4/12_15.odb,Step-1,Increment      1: Step Time =    1.000,"PART-1-1",           697,      -12.2498,       25.7751,            0.,NA,NA,"",   66.5718E-03,   62.1380E-03,   23.8888E-03,   3.34037E-12
C:/temp/dataset/4/12_15.odb,Step-1,Increment      1: Step Time =    1.000,"PART-1-1",           698,      -11.9888,       23.9538,            0.,NA,NA,"",   64.7754E-03,   60.3122E-03,   23.6281E-03,   4.11800E-12
C:/temp/dataset/4/12_15.odb,Step-1,Increment      1: Step Time =    1.000,"PART-1-1",           699,      -1.59164,      -1.60220,            0.,NA,NA,"",   37.1229E-03,   34.6897E-03,   13.2189E-03,   1.10879E-09
C:/temp/dataset/4/12_15.odb,Step-1,Increment      1: Step Time =    1.000,"PART-1-1",           700,      -1.34014,  -343.401E-03,            0.,NA,NA,"",   38.2181E-03,   35.9514E-03,   12.9661E-03,   958.093E-12
C:/temp/dataset/4/12_15.odb,Step-1,Increment      1: Step Time =    1.000,"PART-1-1",           701,      -2.70787,  -93.9540E-03,            0.,NA,NA,"",   38.9377E-03,   36.2021E-03,   14.3370E-03,   784.125E-12
C:/temp/dataset/4/12_15.odb,Step-1,Increment      1: Step Time =    1.000,"PART-1-1",           702,       8.06015,      -13.0184,            0.,NA,NA,"",   23.4994E-03,   23.2290E-03,   3.55440E-03,   7.47127E-06
C:/temp/dataset/4/12_15.odb,Step-1,Increment      1: Step Time =    1.000,"PART-1-1",           703,       7.99745,      -10.7906,            0.,NA,NA,"",   25.7249E-03,   25.4701E-03,   3.61187E-03,   2.26362E-06
C:/temp/dataset/4/12_15.odb,Step-1,Increment      1: Step Time =    1.000,"PART-1-1",           704,           15.,        -26.25,            0.,NA,NA,"",   8.48644E-03,   7.53149E-03,  -3.91105E-03,   396.507E-06
C:/temp/dataset/4/12_15.odb,Step-1,Increment      1: Step Time =    1.000,"PART-1-1",           705,       13.9776,      -24.8045,            0.,NA,NA,"",   10.2818E-03,   9.95416E-03,  -2.57483E-03,   196.762E-06
C:/temp/dataset/4/12_15.odb,Step-1,Increment      1: Step Time =    1.000,"PART-1-1",           706,       12.6094,      -25.9010,            0.,NA,NA,"",   8.03290E-03,   7.98250E-03,  -898.379E-06,   763.636E-06
C:/temp/dataset/4/12_15.odb,Step-1,Increment      1: Step Time =    1.000,"PART-1-1",           707,       12.0224,      -24.3398,            0.,NA,NA,"",   10.7747E-03,   10.7670E-03,  -407.279E-06,   422.839E-06
C:/temp/dataset/4/12_15.odb,Step-1,Increment      1: Step Time =    1.000,"PART-1-1",           708,       13.0263,      -23.4242,            0.,NA,NA,"",   12.1497E-03,   12.0596E-03,  -1.47691E-03,   206.855E-06
C:/temp/dataset/4/12_15.odb,Step-1,Increment      1: Step Time =    1.000,"PART-1-1",           709,       12.1300,      -22.1112,            0.,NA,NA,"",   13.8623E-03,   13.8543E-03,  -468.410E-06,   92.6616E-06
C:/temp/dataset/4/12_15.odb,Step-1,Increment      1: Step Time =    1.000,"PART-1-1",           710,           15.,        -23.75,            0.,NA,NA,"",   12.2286E-03,   11.5553E-03,  -4.00167E-03,   56.5228E-06
C:/temp/dataset/4/12_15.odb,Step-1,Increment      1: Step Time =    1.000,"PART-1-1",           711,       10.9035,      -9.09896,            0.,NA,NA,"",   27.1785E-03,   27.1695E-03,   697.265E-06,   1.19227E-06
C:/temp/dataset/4/12_15.odb,Step-1,Increment      1: Step Time =    1.000,"PART-1-1",           712,       9.82794,      -8.10226,            0.,NA,NA,"",   28.2241E-03,   28.1682E-03,   1.77457E-03,   379.508E-09
C:/temp/dataset/4/12_15.odb,Step-1,Increment      1: Step Time =    1.000,"PART-1-1",           713,       8.90728,      -9.48784,            0.,NA,NA,"",   26.9143E-03,   26.7786E-03,   2.69862E-03,   1.51176E-06
C:/temp/dataset/4/12_15.odb,Step-1,Increment      1: Step Time =    1.000,"PART-1-1",           714,           15.,         -1.25,            0.,NA,NA,"",   35.2001E-03,   35.0343E-03,  -3.41277E-03,   57.6345E-09
C:/temp/dataset/4/12_15.odb,Step-1,Increment      1: Step Time =    1.000,"PART-1-1",           715,       12.7555,      -1.12336,            0.,NA,NA,"",   35.1816E-03,   35.1623E-03,  -1.16297E-03,   54.8894E-09
C:/temp/dataset/4/12_15.odb,Step-1,Increment      1: Step Time =    1.000,"PART-1-1",           716,       11.5680,       5.48707,            0.,NA,NA,"",   41.7893E-03,   41.7893E-03,   24.0554E-06,   3.27942E-09
C:/temp/dataset/4/12_15.odb,Step-1,Increment      1: Step Time =    1.000,"PART-1-1",           717,       10.1222,       4.29256,            0.,NA,NA,"",   40.6194E-03,   40.5927E-03,   1.47388E-03,   8.08190E-09
C:/temp/dataset/4/12_15.odb,Step-1,Increment      1: Step Time =    1.000,"PART-1-1",           718,       8.27918,   509.070E-03,            0.,NA,NA,"",   36.9508E-03,   36.8011E-03,   3.32319E-03,   29.4182E-09
C:/temp/dataset/4/12_15.odb,Step-1,Increment      1: Step Time =    1.000,"PART-1-1",           719,       9.70893,  -124.236E-03,            0.,NA,NA,"",   36.2148E-03,   36.1655E-03,   1.89031E-03,   35.6847E-09
C:/temp/dataset/4/12_15.odb,Step-1,Increment      1: Step Time =    1.000,"PART-1-1",           720,       8.75521,       2.13956,            0.,NA,NA,"",   38.5404E-03,   38.4352E-03,   2.84523E-03,   14.6913E-09
C:/temp/dataset/4/12_15.odb,Step-1,Increment      1: Step Time =    1.000,"PART-1-1",           721,       6.99874,       4.90963,            0.,NA,NA,"",   41.4692E-03,   41.2128E-03,   4.60454E-03,   5.89685E-09
C:/temp/dataset/4/12_15.odb,Step-1,Increment      1: Step Time =    1.000,"PART-1-1",           722,       8.01086,       5.41567,            0.,NA,NA,"",   41.8737E-03,   41.7196E-03,   3.58974E-03,   5.03618E-09
C:/temp/dataset/4/12_15.odb,Step-1,Increment      1: Step Time =    1.000,"PART-1-1",           723,       11.8045,       7.99587,            0.,NA,NA,"",   44.3046E-03,   44.3041E-03,  -214.349E-06,   501.457E-12
C:/temp/dataset/4/12_15.odb,Step-1,Increment      1: Step Time =    1.000,"PART-1-1",           724,       7.91904,       10.9856,            0.,NA,NA,"",   47.4458E-03,   47.3029E-03,   3.67899E-03,   189.525E-12
C:/temp/dataset/4/12_15.odb,Step-1,Increment      1: Step Time =    1.000,"PART-1-1",           725,       11.0233,       18.7016,            0.,NA,NA,"",   55.0388E-03,   55.0359E-03,   563.343E-06,   23.5135E-12
C:/temp/dataset/4/12_15.odb,Step-1,Increment      1: Step Time =    1.000,"PART-1-1",           726,       10.0074,       19.8076,            0.,NA,NA,"",   56.1673E-03,   56.1451E-03,   1.58113E-03,   10.4307E-12
C:/temp/dataset/4/12_15.odb,Step-1,Increment      1: Step Time =    1.000,"PART-1-1",           727,       10.9673,       21.0105,            0.,NA,NA,"",   57.3538E-03,   57.3504E-03,   618.381E-06,   7.08383E-12
C:/temp/dataset/4/12_15.odb,Step-1,Increment      1: Step Time =    1.000,"PART-1-1",           728,       8.97465,       20.8454,            0.,NA,NA,"",   57.2457E-03,   57.1859E-03,   2.61589E-03,   8.12232E-12
C:/temp/dataset/4/12_15.odb,Step-1,Increment      1: Step Time =    1.000,"PART-1-1",           729,       8.66510,       24.8184,            0.,NA,NA,"",   61.2384E-03,   61.1686E-03,   2.92419E-03,   3.76994E-12
C:/temp/dataset/4/12_15.odb,Step-1,Increment      1: Step Time =    1.000,"PART-1-1",           730,       7.98376,       13.1681,            0.,NA,NA,"",   49.6224E-03,   49.4907E-03,   3.61301E-03,   147.316E-12
C:/temp/dataset/4/12_15.odb,Step-1,Increment      1: Step Time =    1.000,"PART-1-1",           731,      -1.95806,       1.80915,            0.,NA,NA,"",   40.4582E-03,   38.1094E-03,   13.5844E-03,   907.112E-12
C:/temp/dataset/4/12_15.odb,Step-1,Increment      1: Step Time =    1.000,"PART-1-1",           732,  -613.587E-03,   828.335E-03,            0.,NA,NA,"",   39.0904E-03,   37.1256E-03,   12.2372E-03,   770.305E-12
C:/temp/dataset/4/12_15.odb,Step-1,Increment      1: Step Time =    1.000,"PART-1-1",           733,   461.223E-03,       1.99751,            0.,NA,NA,"",   39.8897E-03,   38.2970E-03,   11.1593E-03,   894.369E-12
C:/temp/dataset/4/12_15.odb,Step-1,Increment      1: Step Time =    1.000,"PART-1-1",           734,       1.74006,       1.04512,            0.,NA,NA,"",   38.6261E-03,   37.3417E-03,   9.87783E-03,   3.35686E-09
C:/temp/dataset/4/12_15.odb,Step-1,Increment      1: Step Time =    1.000,"PART-1-1",           735,   906.022E-03,  -39.5003E-03,            0.,NA,NA,"",   37.8050E-03,   36.2549E-03,   10.7144E-03,   1.95301E-09
C:/temp/dataset/4/12_15.odb,Step-1,Increment      1: Step Time =    1.000,"PART-1-1",           736,       2.15034,  -968.542E-03,            0.,NA,NA,"",   36.5698E-03,   35.3230E-03,   9.46758E-03,   6.07998E-09
C:/temp/dataset/4/12_15.odb,Step-1,Increment      1: Step Time =    1.000,"PART-1-1",           737,       2.98438,   116.081E-03,            0.,NA,NA,"",   37.4188E-03,   36.4098E-03,   8.63099E-03,   7.92454E-09
C:/temp/dataset/4/12_15.odb,Step-1,Increment      1: Step Time =    1.000,"PART-1-1",           738,      -8.25937,       5.01848,            0.,NA,NA,"",   45.8706E-03,   41.3296E-03,   19.8992E-03,   29.7436E-12
C:/temp/dataset/4/12_15.odb,Step-1,Increment      1: Step Time =    1.000,"PART-1-1",           739,      -2.78312,       1.01462,            0.,NA,NA,"",   39.9999E-03,   37.3134E-03,   14.4119E-03,   741.532E-12
C:/temp/dataset/4/12_15.odb,Step-1,Increment      1: Step Time =    1.000,"PART-1-1",           740,      -4.31499,   913.536E-03,            0.,NA,NA,"",   40.4860E-03,   37.2128E-03,   15.9475E-03,   565.743E-12
C:/temp/dataset/4/12_15.odb,Step-1,Increment      1: Step Time =    1.000,"PART-1-1",           741,      -4.23975,  -195.042E-03,            0.,NA,NA,"",   39.4368E-03,   36.1016E-03,   15.8726E-03,   663.578E-12
C:/temp/dataset/4/12_15.odb,Step-1,Increment      1: Step Time =    1.000,"PART-1-1",           742,      -8.52646,       20.5688,            0.,NA,NA,"",   60.3820E-03,   56.9174E-03,   20.1592E-03,   5.10522E-12
C:/temp/dataset/4/12_15.odb,Step-1,Increment      1: Step Time =    1.000,"PART-1-1",           743,       8.09873,      -15.2435,            0.,NA,NA,"",   21.2794E-03,   20.9845E-03,   3.53061E-03,   19.1650E-06
C:/temp/dataset/4/12_15.odb,Step-1,Increment      1: Step Time =    1.000,"PART-1-1",           744,       8.99676,       14.2096,            0.,NA,NA,"",   50.6009E-03,   50.5342E-03,   2.59706E-03,   132.370E-12
C:/temp/dataset/4/12_15.odb,Step-1,Increment      1: Step Time =    1.000,"PART-1-1",           745,       11.0169,       14.0599,            0.,NA,NA,"",   50.3863E-03,   50.3831E-03,   572.097E-06,   137.056E-12
C:/temp/dataset/4/12_15.odb,Step-1,Increment      1: Step Time =    1.000,"PART-1-1",           746,      -7.91902,       15.6847,            0.,NA,NA,"",   55.5745E-03,   52.0213E-03,   19.5527E-03,   8.44484E-12
C:/temp/dataset/4/12_15.odb,Step-1,Increment      1: Step Time =    1.000,"PART-1-1",           747,      -11.9968,       14.1876,            0.,NA,NA,"",   55.7802E-03,   50.5226E-03,   23.6410E-03,   8.65735E-12
C:/temp/dataset/4/12_15.odb,Step-1,Increment      1: Step Time =    1.000,"PART-1-1",           748,      -11.1175,       8.79310,            0.,NA,NA,"",   50.5318E-03,   45.1147E-03,   22.7624E-03,   10.5964E-12
C:/temp/dataset/4/12_15.odb,Step-1,Increment      1: Step Time =    1.000,"PART-1-1",           749,       10.6592,      -6.44981,            0.,NA,NA,"",   29.8392E-03,   29.8243E-03,   940.510E-06,   162.614E-09
C:/temp/dataset/4/12_15.odb,Step-1,Increment      1: Step Time =    1.000,"PART-1-1",           750,      -10.7894,       23.3985,            0.,NA,NA,"",   63.8247E-03,   59.7550E-03,   22.4261E-03,   3.96518E-12
C:/temp/dataset/4/12_15.odb,Step-1,Increment      1: Step Time =    1.000,"PART-1-1",           751,       10.0228,      -25.8019,            0.,NA,NA,"",   8.99163E-03,   8.94515E-03,   913.041E-06,   983.363E-06
C:/temp/dataset/4/12_15.odb,Step-1,Increment      1: Step Time =    1.000,"PART-1-1",           752,       10.9542,      -24.8826,            0.,NA,NA,"",   10.1568E-03,   10.1457E-03,   474.956E-06,   666.381E-06
C:/temp/dataset/4/12_15.odb,Step-1,Increment      1: Step Time =    1.000,"PART-1-1",           753,       11.8371,      -2.37854,            0.,NA,NA,"",   33.9055E-03,   33.9046E-03,  -241.818E-06,   72.9218E-09
C:/temp/dataset/4/12_15.odb,Step-1,Increment      1: Step Time =    1.000,"PART-1-1",           754,       11.6235,      -5.02753,            0.,NA,NA,"",   31.2494E-03,   31.2494E-03,  -26.6354E-06,   123.417E-09
C:/temp/dataset/4/12_15.odb,Step-1,Increment      1: Step Time =    1.000,"PART-1-1",           755,      -12.1333,       7.86930,            0.,NA,NA,"",   50.1819E-03,   44.1892E-03,   23.7810E-03,   13.8212E-12
C:/temp/dataset/4/12_15.odb,Step-1,Increment      1: Step Time =    1.000,"PART-1-1",           756,      -12.0768,       9.95169,            0.,NA,NA,"",   52.0031E-03,   46.2766E-03,   23.7234E-03,   12.2952E-12
C:/temp/dataset/4/12_15.odb,Step-1,Increment      1: Step Time =    1.000,"PART-1-1",           757,       8.68743,       3.64563,            0.,NA,NA,"",   40.0510E-03,   39.9449E-03,   2.91242E-03,   9.73567E-09
C:/temp/dataset/4/12_15.odb,Step-1,Increment      1: Step Time =    1.000,"PART-1-1",           758,       6.61848,       3.66599,            0.,NA,NA,"",   40.2762E-03,   39.9664E-03,   4.98634E-03,   6.87101E-09
C:/temp/dataset/4/12_15.odb,Step-1,Increment      1: Step Time =    1.000,"PART-1-1",           759,       4.71579,   65.6079E-03,            0.,NA,NA,"",   37.0064E-03,   36.3583E-03,   6.89544E-03,   15.6435E-09
C:/temp/dataset/4/12_15.odb,Step-1,Increment      1: Step Time =    1.000,"PART-1-1",           760,       3.89104,   957.250E-03,            0.,NA,NA,"",   38.0444E-03,   37.2525E-03,   7.72172E-03,   10.1927E-09
C:/temp/dataset/4/12_15.odb,Step-1,Increment      1: Step Time =    1.000,"PART-1-1",           761,      -12.0363,       12.0623,            0.,NA,NA,"",   53.8761E-03,   48.3922E-03,   23.6817E-03,   10.2024E-12
C:/temp/dataset/4/12_15.odb,Step-1,Increment      1: Step Time =    1.000,"PART-1-1",           762,      -12.1964,       5.82098,            0.,NA,NA,"",   48.4153E-03,   42.1360E-03,   23.8454E-03,   14.5492E-12
C:/temp/dataset/4/12_15.odb,Step-1,Increment      1: Step Time =    1.000,"PART-1-1",           763,      -11.2570,       4.81016,            0.,NA,NA,"",   47.0706E-03,   41.1223E-03,   22.9041E-03,   14.9603E-12
C:/temp/dataset/4/12_15.odb,Step-1,Increment      1: Step Time =    1.000,"PART-1-1",           764,      -10.5260,       3.94381,            0.,NA,NA,"",   45.9558E-03,   40.2535E-03,   22.1718E-03,   17.9177E-12
C:/temp/dataset/4/12_15.odb,Step-1,Increment      1: Step Time =    1.000,"PART-1-1",           765,      -9.56326,       4.76486,            0.,NA,NA,"",   46.2272E-03,   41.0760E-03,   21.2064E-03,   14.9522E-12
C:/temp/dataset/4/12_15.odb,Step-1,Increment      1: Step Time =    1.000,"PART-1-1",           766,      -9.32737,       3.44699,            0.,NA,NA,"",   44.9468E-03,   39.7549E-03,   20.9706E-03,   36.4506E-12
C:/temp/dataset/4/12_15.odb,Step-1,Increment      1: Step Time =    1.000,"PART-1-1",           767,       11.5413,      -26.4438,            0.,NA,NA,"",   7.14965E-03,   7.14753E-03,  -174.080E-06,   891.794E-06
C:/temp/dataset/4/12_15.odb,Step-1,Increment      1: Step Time =    1.000,"PART-1-1",           768,       5.97241,      -3.36228,            0.,NA,NA,"",   33.4009E-03,   32.9217E-03,   5.63757E-03,   95.2353E-09
C:/temp/dataset/4/12_15.odb,Step-1,Increment      1: Step Time =    1.000,"PART-1-1",           769,       11.9304,       22.2704,            0.,NA,NA,"",   58.6139E-03,   58.6129E-03,  -347.661E-06,   4.84886E-12
C:/temp/dataset/4/12_15.odb,Step-1,Increment      1: Step Time =    1.000,"PART-1-1",           770,      -3.95064,       2.12654,            0.,NA,NA,"",   41.4674E-03,   38.4286E-03,   15.5816E-03,   533.747E-12
C:/temp/dataset/4/12_15.odb,Step-1,Increment      1: Step Time =    1.000,"PART-1-1",           771,       12.1361,      -19.7979,            0.,NA,NA,"",   16.4562E-03,   16.4494E-03,  -475.721E-06,   33.6111E-06
C:/temp/dataset/4/12_15.odb,Step-1,Increment      1: Step Time =    1.000,"PART-1-1",           772,       12.1156,      -17.4436,            0.,NA,NA,"",   18.8540E-03,   18.8479E-03,  -479.963E-06,   33.1336E-06
C:/temp/dataset/4/12_15.odb,Step-1,Increment      1: Step Time =    1.000,"PART-1-1",           773,       11.8489,      -7.73518,            0.,NA,NA,"",   28.5369E-03,   28.5358E-03,  -251.243E-06,   204.665E-09
C:/temp/dataset/4/12_15.odb,Step-1,Increment      1: Step Time =    1.000,"PART-1-1",           774,       11.9658,      -10.2357,            0.,NA,NA,"",   26.0345E-03,   26.0319E-03,  -366.542E-06,   1.57586E-06
C:/temp/dataset/4/12_15.odb,Step-1,Increment      1: Step Time =    1.000,"PART-1-1",           775,       10.7237,      -1.11081,            0.,NA,NA,"",   35.1868E-03,   35.1760E-03,   873.556E-06,   58.4985E-09
C:/temp/dataset/4/12_15.odb,Step-1,Increment      1: Step Time =    1.000,"PART-1-1",           776,       11.9194,       10.4262,            0.,NA,NA,"",   46.7413E-03,   46.7401E-03,  -330.690E-06,   197.480E-12
C:/temp/dataset/4/12_15.odb,Step-1,Increment      1: Step Time =    1.000,"PART-1-1",           777,       11.9945,       12.8006,            0.,NA,NA,"",   49.1220E-03,   49.1203E-03,  -407.226E-06,   162.983E-12
C:/temp/dataset/4/12_15.odb,Step-1,Increment      1: Step Time =    1.000,"PART-1-1",           778,       12.0317,      -12.6649,            0.,NA,NA,"",   23.6086E-03,   23.6047E-03,  -428.214E-06,   6.17096E-06
C:/temp/dataset/4/12_15.odb,Step-1,Increment      1: Step Time =    1.000,"PART-1-1",           779,       12.0352,       15.1685,            0.,NA,NA,"",   51.4957E-03,   51.4938E-03,  -449.180E-06,   82.0295E-12
C:/temp/dataset/4/12_15.odb,Step-1,Increment      1: Step Time =    1.000,"PART-1-1",           780,      -7.80161,      -2.23284,            0.,NA,NA,"",   39.2199E-03,   34.0607E-03,   19.4440E-03,   139.862E-12
C:/temp/dataset/4/12_15.odb,Step-1,Increment      1: Step Time =    1.000,"PART-1-1",           781,      -8.87876,  -905.543E-03,            0.,NA,NA,"",   40.9117E-03,   35.3917E-03,   20.5231E-03,   107.854E-12
C:/temp/dataset/4/12_15.odb,Step-1,Increment      1: Step Time =    1.000,"PART-1-1",           782,      -7.16649,      -1.00336,            0.,NA,NA,"",   39.9909E-03,   35.2928E-03,   18.8068E-03,   196.664E-12
C:/temp/dataset/4/12_15.odb,Step-1,Increment      1: Step Time =    1.000,"PART-1-1",           783,      -7.09692,   257.153E-03,            0.,NA,NA,"",   41.0781E-03,   36.5563E-03,   18.7364E-03,   200.567E-12
C:/temp/dataset/4/12_15.odb,Step-1,Increment      1: Step Time =    1.000,"PART-1-1",           784,      -5.74923,      -1.63131,            0.,NA,NA,"",   38.7786E-03,   34.6626E-03,   17.3864E-03,   308.913E-12
C:/temp/dataset/4/12_15.odb,Step-1,Increment      1: Step Time =    1.000,"PART-1-1",           785,      -5.66693,  -67.3201E-03,            0.,NA,NA,"",   40.1501E-03,   36.2303E-03,   17.3031E-03,   378.425E-12
C:/temp/dataset/4/12_15.odb,Step-1,Increment      1: Step Time =    1.000,"PART-1-1",           786,      -5.46941,       1.35113,            0.,NA,NA,"",   41.3550E-03,   37.6521E-03,   17.1044E-03,   352.250E-12
C:/temp/dataset/4/12_15.odb,Step-1,Increment      1: Step Time =    1.000,"PART-1-1",           787,       12.0849,      -15.0650,            0.,NA,NA,"",   21.2202E-03,   21.2150E-03,  -470.981E-06,   16.9414E-06
C:/temp/dataset/4/12_15.odb,Step-1,Increment      1: Step Time =    1.000,"PART-1-1",           788,       7.01212,      -4.44648,            0.,NA,NA,"",   32.1644E-03,   31.8344E-03,   4.59580E-03,   124.296E-09
C:/temp/dataset/4/12_15.odb,Step-1,Increment      1: Step Time =    1.000,"PART-1-1",           789,       7.64174,      -3.33281,            0.,NA,NA,"",   33.1880E-03,   32.9504E-03,   3.96403E-03,   99.7349E-09
C:/temp/dataset/4/12_15.odb,Step-1,Increment      1: Step Time =    1.000,"PART-1-1",           790,       6.60203,      -2.24861,            0.,NA,NA,"",   34.4038E-03,   34.0377E-03,   5.00580E-03,   57.5883E-09
C:/temp/dataset/4/12_15.odb,Step-1,Increment      1: Step Time =    1.000,"PART-1-1",           791,       6.68626,       2.15992,            0.,NA,NA,"",   38.7700E-03,   38.4567E-03,   4.91915E-03,   13.2988E-09
C:/temp/dataset/4/12_15.odb,Step-1,Increment      1: Step Time =    1.000,"PART-1-1",           792,       12.0103,       19.9021,            0.,NA,NA,"",   56.2404E-03,   56.2388E-03,  -426.585E-06,   9.76831E-12
C:/temp/dataset/4/12_15.odb,Step-1,Increment      1: Step Time =    1.000,"PART-1-1",           793,       12.0305,       17.5416,            0.,NA,NA,"",   53.8744E-03,   53.8726E-03,  -445.689E-06,   30.5743E-12
C:/temp/dataset/4/12_15.odb,Step-1,Increment      1: Step Time =    1.000,"PART-1-1",           794,       6.09271,      -1.14349,            0.,NA,NA,"",   35.5759E-03,   35.1457E-03,   5.51579E-03,   35.4751E-09
C:/temp/dataset/4/12_15.odb,Step-1,Increment      1: Step Time =    1.000,"PART-1-1",           795,       7.56053,      -1.65505,            0.,NA,NA,"",   34.8675E-03,   34.6321E-03,   4.04464E-03,   59.1842E-09
C:/temp/dataset/4/12_15.odb,Step-1,Increment      1: Step Time =    1.000,"PART-1-1",           796,       7.05122,  -549.935E-03,            0.,NA,NA,"",   36.0292E-03,   35.7402E-03,   4.55466E-03,   35.7587E-09
C:/temp/dataset/4/12_15.odb,Step-1,Increment      1: Step Time =    1.000,"PART-1-1",           797,       5.28588,       1.87348,            0.,NA,NA,"",   38.6904E-03,   38.1703E-03,   6.32305E-03,   11.0019E-09
C:/temp/dataset/4/12_15.odb,Step-1,Increment      1: Step Time =    1.000,"PART-1-1",           798,       5.70847,   325.226E-03,            0.,NA,NA,"",   37.0904E-03,   36.6181E-03,   5.90023E-03,   19.9515E-09
C:/temp/dataset/4/12_15.odb,Step-1,Increment      1: Step Time =    1.000,"PART-1-1",           799,       7.10885,   611.668E-03,            0.,NA,NA,"",   37.1774E-03,   36.9045E-03,   4.49631E-03,   21.8926E-09
C:/temp/dataset/4/12_15.odb,Step-1,Increment      1: Step Time =    1.000,"PART-1-1",           800,       9.00326,      -1.31280,            0.,NA,NA,"",   35.0708E-03,   34.9744E-03,   2.59823E-03,   58.8967E-09
C:/temp/dataset/4/12_15.odb,Step-1,Increment      1: Step Time =    1.000,"PART-1-1",           801,       8.22155,  -652.532E-03,            0.,NA,NA,"",   35.7968E-03,   35.6367E-03,   3.38153E-03,   40.7307E-09
C:/temp/dataset/4/12_15.odb,Step-1,Increment      1: Step Time =    1.000,"PART-1-1",           802,       8.34224,      -2.31533,            0.,NA,NA,"",   34.1261E-03,   33.9699E-03,   3.26132E-03,   71.3340E-09
C:/temp/dataset/4/12_15.odb,Step-1,Increment      1: Step Time =    1.000,"PART-1-1",           803,       2.82445,       2.06443,            0.,NA,NA,"",   39.3571E-03,   38.3629E-03,   8.79032E-03,   5.02542E-09
