ODB Name,Step,Frame,Part Instance Name,    êﬂì_ÉâÉxÉã,X,Y,Z,Section Name,Material Name,Section Point,   U-Magnitude,          U-U1,          U-U2,       S-Mises
C:/temp/dataset/4/16_2.odb,Step-1,Increment      1: Step Time =    1.000,"PART-1-1",             1,           -5.,           30.,            0.,NA,NA,"",       7.31149,      -6.91814,      -2.36586,   1.31443E-06
C:/temp/dataset/4/16_2.odb,Step-1,Increment      1: Step Time =    1.000,"PART-1-1",             2,          -15.,           30.,            0.,NA,NA,"",       7.86867,      -6.78674,      -3.98198,   988.519E-09
C:/temp/dataset/4/16_2.odb,Step-1,Increment      1: Step Time =    1.000,"PART-1-1",             3,          -15.,         21.25,            0.,NA,NA,"",       6.61961,      -5.37249,      -3.86725,   136.560E-06
C:/temp/dataset/4/16_2.odb,Step-1,Increment      1: Step Time =    1.000,"PART-1-1",             4,          -15.,          12.5,            0.,NA,NA,"",       5.44775,      -3.95212,      -3.74949,   1.63208E-03
C:/temp/dataset/4/16_2.odb,Step-1,Increment      1: Step Time =    1.000,"PART-1-1",             5,          -15.,          3.75,            0.,NA,NA,"",       4.42006,      -2.56075,      -3.60271,   5.73467E-03
C:/temp/dataset/4/16_2.odb,Step-1,Increment      1: Step Time =    1.000,"PART-1-1",             6,          -15.,           -5.,            0.,NA,NA,"",       3.69930,      -1.24377,      -3.48395,   177.924E-06
C:/temp/dataset/4/16_2.odb,Step-1,Increment      1: Step Time =    1.000,"PART-1-1",             7,          -10.,           -5.,            0.,NA,NA,"",       3.02191,      -1.30537,      -2.72542,   2.90793E-03
C:/temp/dataset/4/16_2.odb,Step-1,Increment      1: Step Time =    1.000,"PART-1-1",             8,           -5.,           -5.,            0.,NA,NA,"",       2.41784,      -1.38733,      -1.98021,   8.07564E-03
C:/temp/dataset/4/16_2.odb,Step-1,Increment      1: Step Time =    1.000,"PART-1-1",             9,            0.,           -5.,            0.,NA,NA,"",       1.95567,      -1.47755,      -1.28121,   9.00754E-03
C:/temp/dataset/4/16_2.odb,Step-1,Increment      1: Step Time =    1.000,"PART-1-1",            10,            5.,           -5.,            0.,NA,NA,"",       1.68318,      -1.56946,  -608.185E-03,   21.2248E-03
C:/temp/dataset/4/16_2.odb,Step-1,Increment      1: Step Time =    1.000,"PART-1-1",            11,            5.,        -11.25,            0.,NA,NA,"",       1.07321,  -962.555E-03,  -474.615E-03,   19.4402E-03
C:/temp/dataset/4/16_2.odb,Step-1,Increment      1: Step Time =    1.000,"PART-1-1",            12,            5.,         -17.5,            0.,NA,NA,"",   577.113E-03,  -471.942E-03,  -332.159E-03,   24.2415E-03
C:/temp/dataset/4/16_2.odb,Step-1,Increment      1: Step Time =    1.000,"PART-1-1",            13,            5.,        -23.75,            0.,NA,NA,"",   229.543E-03,  -149.432E-03,  -174.241E-03,   28.9271E-03
C:/temp/dataset/4/16_2.odb,Step-1,Increment      1: Step Time =    1.000,"PART-1-1",            14,            5.,          -30.,            0.,NA,NA,"",            0.,  -9.91900E-39,  -18.9513E-39,   37.4808E-03
C:/temp/dataset/4/16_2.odb,Step-1,Increment      1: Step Time =    1.000,"PART-1-1",            15,           15.,          -30.,            0.,NA,NA,"",            0.,  -10.6484E-39,   19.9880E-39,   37.4720E-03
C:/temp/dataset/4/16_2.odb,Step-1,Increment      1: Step Time =    1.000,"PART-1-1",            16,           15.,         -22.5,            0.,NA,NA,"",   291.106E-03,  -209.060E-03,   202.575E-03,   28.1634E-03
C:/temp/dataset/4/16_2.odb,Step-1,Increment      1: Step Time =    1.000,"PART-1-1",            17,           15.,          -15.,            0.,NA,NA,"",   767.731E-03,  -678.908E-03,   358.463E-03,   22.5532E-03
C:/temp/dataset/4/16_2.odb,Step-1,Increment      1: Step Time =    1.000,"PART-1-1",            18,           15.,          -7.5,            0.,NA,NA,"",       1.45383,      -1.37933,   459.434E-03,   16.7765E-03
C:/temp/dataset/4/16_2.odb,Step-1,Increment      1: Step Time =    1.000,"PART-1-1",            19,           15.,            0.,            0.,NA,NA,"",       2.30129,      -2.24913,   487.150E-03,   5.34413E-03
C:/temp/dataset/4/16_2.odb,Step-1,Increment      1: Step Time =    1.000,"PART-1-1",            20,           15.,           7.5,            0.,NA,NA,"",       3.18575,      -3.15509,   440.900E-03,   479.647E-06
C:/temp/dataset/4/16_2.odb,Step-1,Increment      1: Step Time =    1.000,"PART-1-1",            21,           15.,           15.,            0.,NA,NA,"",       4.06114,      -4.04271,   386.520E-03,   38.4736E-06
C:/temp/dataset/4/16_2.odb,Step-1,Increment      1: Step Time =    1.000,"PART-1-1",            22,           15.,          22.5,            0.,NA,NA,"",       4.94024,      -4.92894,   333.934E-03,   1.56562E-06
C:/temp/dataset/4/16_2.odb,Step-1,Increment      1: Step Time =    1.000,"PART-1-1",            23,           15.,           30.,            0.,NA,NA,"",       5.82206,      -5.81526,   281.382E-03,   24.5523E-09
C:/temp/dataset/4/16_2.odb,Step-1,Increment      1: Step Time =    1.000,"PART-1-1",            24,            5.,           30.,            0.,NA,NA,"",       5.81531,      -5.74518,  -900.380E-03,   11.6577E-09
C:/temp/dataset/4/16_2.odb,Step-1,Increment      1: Step Time =    1.000,"PART-1-1",            25,            5.,         23.75,            0.,NA,NA,"",       5.07933,      -5.00658,  -856.586E-03,   1.11745E-06
C:/temp/dataset/4/16_2.odb,Step-1,Increment      1: Step Time =    1.000,"PART-1-1",            26,            5.,          17.5,            0.,NA,NA,"",       4.34465,      -4.26794,  -812.788E-03,   6.59538E-06
C:/temp/dataset/4/16_2.odb,Step-1,Increment      1: Step Time =    1.000,"PART-1-1",            27,            5.,         11.25,            0.,NA,NA,"",       3.61205,      -3.52934,  -768.516E-03,   253.621E-06
C:/temp/dataset/4/16_2.odb,Step-1,Increment      1: Step Time =    1.000,"PART-1-1",            28,            5.,            5.,            0.,NA,NA,"",       2.90130,      -2.80937,  -724.555E-03,   11.1684E-03
C:/temp/dataset/4/16_2.odb,Step-1,Increment      1: Step Time =    1.000,"PART-1-1",            29,            0.,            5.,            0.,NA,NA,"",       3.14482,      -2.82688,      -1.37791,   12.1375E-03
C:/temp/dataset/4/16_2.odb,Step-1,Increment      1: Step Time =    1.000,"PART-1-1",            30,           -5.,            5.,            0.,NA,NA,"",       3.51637,      -2.84385,      -2.06818,   18.0041E-03
C:/temp/dataset/4/16_2.odb,Step-1,Increment      1: Step Time =    1.000,"PART-1-1",            31,           -5.,         11.25,            0.,NA,NA,"",       4.42625,      -3.88332,      -2.12403,   2.63464E-03
C:/temp/dataset/4/16_2.odb,Step-1,Increment      1: Step Time =    1.000,"PART-1-1",            32,           -5.,          17.5,            0.,NA,NA,"",       5.37380,      -4.90110,      -2.20384,   1.04815E-03
C:/temp/dataset/4/16_2.odb,Step-1,Increment      1: Step Time =    1.000,"PART-1-1",            33,           -5.,         23.75,            0.,NA,NA,"",       6.33408,      -5.90803,      -2.28380,   71.9688E-06
C:/temp/dataset/4/16_2.odb,Step-1,Increment      1: Step Time =    1.000,"PART-1-1",            34,          -7.5,           30.,            0.,NA,NA,"",       7.42154,      -6.88528,      -2.76988,   4.97121E-06
C:/temp/dataset/4/16_2.odb,Step-1,Increment      1: Step Time =    1.000,"PART-1-1",            35,          -10.,           30.,            0.,NA,NA,"",       7.55179,      -6.85244,      -3.17390,   11.1260E-06
C:/temp/dataset/4/16_2.odb,Step-1,Increment      1: Step Time =    1.000,"PART-1-1",            36,         -12.5,           30.,            0.,NA,NA,"",       7.70121,      -6.81960,      -3.57794,   5.22080E-06
C:/temp/dataset/4/16_2.odb,Step-1,Increment      1: Step Time =    1.000,"PART-1-1",            37,          -15.,       27.8125,            0.,NA,NA,"",       7.55077,      -6.43321,      -3.95322,   4.49380E-06
C:/temp/dataset/4/16_2.odb,Step-1,Increment      1: Step Time =    1.000,"PART-1-1",            38,          -15.,        25.625,            0.,NA,NA,"",       7.23632,      -6.07970,      -3.92449,   23.8057E-06
C:/temp/dataset/4/16_2.odb,Step-1,Increment      1: Step Time =    1.000,"PART-1-1",            39,          -15.,       23.4375,            0.,NA,NA,"",       6.92577,      -5.72616,      -3.89582,   69.9694E-06
C:/temp/dataset/4/16_2.odb,Step-1,Increment      1: Step Time =    1.000,"PART-1-1",            40,          -15.,       19.0625,            0.,NA,NA,"",       6.31829,      -5.01844,      -3.83875,   174.163E-06
C:/temp/dataset/4/16_2.odb,Step-1,Increment      1: Step Time =    1.000,"PART-1-1",            41,          -15.,        16.875,            0.,NA,NA,"",       6.02219,      -4.66370,      -3.81008,   33.8081E-06
C:/temp/dataset/4/16_2.odb,Step-1,Increment      1: Step Time =    1.000,"PART-1-1",            42,          -15.,       14.6875,            0.,NA,NA,"",       5.73175,      -4.30810,      -3.78064,   530.643E-06
C:/temp/dataset/4/16_2.odb,Step-1,Increment      1: Step Time =    1.000,"PART-1-1",            43,          -15.,       10.3125,            0.,NA,NA,"",       5.17173,      -3.59716,      -3.71581,   3.18799E-03
C:/temp/dataset/4/16_2.odb,Step-1,Increment      1: Step Time =    1.000,"PART-1-1",            44,          -15.,         8.125,            0.,NA,NA,"",       4.90617,      -3.24544,      -3.67935,   4.81694E-03
C:/temp/dataset/4/16_2.odb,Step-1,Increment      1: Step Time =    1.000,"PART-1-1",            45,          -15.,        5.9375,            0.,NA,NA,"",       4.65441,      -2.89945,      -3.64097,   5.87667E-03
C:/temp/dataset/4/16_2.odb,Step-1,Increment      1: Step Time =    1.000,"PART-1-1",            46,          -15.,        1.5625,            0.,NA,NA,"",       4.20618,      -2.22886,      -3.56710,   4.30795E-03
C:/temp/dataset/4/16_2.odb,Step-1,Increment      1: Step Time =    1.000,"PART-1-1",            47,          -15.,     -625.E-03,            0.,NA,NA,"",       4.01451,      -1.90101,      -3.53588,   2.18097E-03
C:/temp/dataset/4/16_2.odb,Step-1,Increment      1: Step Time =    1.000,"PART-1-1",            48,          -15.,       -2.8125,            0.,NA,NA,"",       3.84558,      -1.57346,      -3.50895,   414.332E-06
C:/temp/dataset/4/16_2.odb,Step-1,Increment      1: Step Time =    1.000,"PART-1-1",            49,         -12.5,           -5.,            0.,NA,NA,"",       3.35616,      -1.27268,      -3.10549,   545.930E-06
C:/temp/dataset/4/16_2.odb,Step-1,Increment      1: Step Time =    1.000,"PART-1-1",            50,          -7.5,           -5.,            0.,NA,NA,"",       2.70577,      -1.34388,      -2.34844,   5.83013E-03
C:/temp/dataset/4/16_2.odb,Step-1,Increment      1: Step Time =    1.000,"PART-1-1",            51,          -2.5,           -5.,            0.,NA,NA,"",       2.16592,      -1.43280,      -1.62428,   9.34533E-03
C:/temp/dataset/4/16_2.odb,Step-1,Increment      1: Step Time =    1.000,"PART-1-1",            52,           2.5,           -5.,            0.,NA,NA,"",       1.79142,      -1.51993,  -948.155E-03,   9.49221E-03
C:/temp/dataset/4/16_2.odb,Step-1,Increment      1: Step Time =    1.000,"PART-1-1",            53,            5.,      -7.08333,            0.,NA,NA,"",       1.47324,      -1.36270,  -559.893E-03,   18.6241E-03
C:/temp/dataset/4/16_2.odb,Step-1,Increment      1: Step Time =    1.000,"PART-1-1",            54,            5.,      -9.16667,            0.,NA,NA,"",       1.26807,      -1.15714,  -518.667E-03,   17.6726E-03
C:/temp/dataset/4/16_2.odb,Step-1,Increment      1: Step Time =    1.000,"PART-1-1",            55,            5.,      -13.3333,            0.,NA,NA,"",   892.192E-03,  -782.377E-03,  -428.829E-03,   21.0265E-03
C:/temp/dataset/4/16_2.odb,Step-1,Increment      1: Step Time =    1.000,"PART-1-1",            56,            5.,      -15.4167,            0.,NA,NA,"",   726.529E-03,  -618.414E-03,  -381.325E-03,   22.6614E-03
C:/temp/dataset/4/16_2.odb,Step-1,Increment      1: Step Time =    1.000,"PART-1-1",            57,            5.,      -19.5833,            0.,NA,NA,"",   444.516E-03,  -344.181E-03,  -281.308E-03,   25.8114E-03
C:/temp/dataset/4/16_2.odb,Step-1,Increment      1: Step Time =    1.000,"PART-1-1",            58,            5.,      -21.6667,            0.,NA,NA,"",   328.831E-03,  -236.259E-03,  -228.717E-03,   27.3343E-03
C:/temp/dataset/4/16_2.odb,Step-1,Increment      1: Step Time =    1.000,"PART-1-1",            59,            5.,      -25.8333,            0.,NA,NA,"",   145.141E-03,  -84.2025E-03,  -118.220E-03,   29.7351E-03
C:/temp/dataset/4/16_2.odb,Step-1,Increment      1: Step Time =    1.000,"PART-1-1",            60,            5.,      -27.9167,            0.,NA,NA,"",   73.3661E-03,  -40.4856E-03,  -61.1842E-03,   32.8660E-03
C:/temp/dataset/4/16_2.odb,Step-1,Increment      1: Step Time =    1.000,"PART-1-1",            61,           7.5,          -30.,            0.,NA,NA,"",            0.,  -1.04049E-39,  -40.7706E-39,   11.7269E-03
C:/temp/dataset/4/16_2.odb,Step-1,Increment      1: Step Time =    1.000,"PART-1-1",            62,           10.,          -30.,            0.,NA,NA,"",            0.,   6.69075E-39,   1.02333E-39,   3.77112E-03
C:/temp/dataset/4/16_2.odb,Step-1,Increment      1: Step Time =    1.000,"PART-1-1",            63,          12.5,          -30.,            0.,NA,NA,"",            0.,  -16.3415E-39,   36.9176E-39,   12.0867E-03
C:/temp/dataset/4/16_2.odb,Step-1,Increment      1: Step Time =    1.000,"PART-1-1",            64,           15.,         -27.5,            0.,NA,NA,"",   87.9604E-03,  -49.8376E-03,   72.4792E-03,   32.2534E-03
C:/temp/dataset/4/16_2.odb,Step-1,Increment      1: Step Time =    1.000,"PART-1-1",            65,           15.,          -25.,            0.,NA,NA,"",   179.678E-03,  -113.132E-03,   139.590E-03,   29.3455E-03
C:/temp/dataset/4/16_2.odb,Step-1,Increment      1: Step Time =    1.000,"PART-1-1",            66,           15.,          -20.,            0.,NA,NA,"",   425.555E-03,  -336.539E-03,   260.458E-03,   26.2266E-03
C:/temp/dataset/4/16_2.odb,Step-1,Increment      1: Step Time =    1.000,"PART-1-1",            67,           15.,         -17.5,            0.,NA,NA,"",   584.462E-03,  -493.927E-03,   312.461E-03,   24.3999E-03
C:/temp/dataset/4/16_2.odb,Step-1,Increment      1: Step Time =    1.000,"PART-1-1",            68,           15.,         -12.5,            0.,NA,NA,"",   974.505E-03,  -889.360E-03,   398.371E-03,   20.7544E-03
C:/temp/dataset/4/16_2.odb,Step-1,Increment      1: Step Time =    1.000,"PART-1-1",            69,           15.,          -10.,            0.,NA,NA,"",       1.20363,      -1.12338,   432.157E-03,   18.9365E-03
C:/temp/dataset/4/16_2.odb,Step-1,Increment      1: Step Time =    1.000,"PART-1-1",            70,           15.,           -5.,            0.,NA,NA,"",       1.72314,      -1.65525,   478.907E-03,   13.7341E-03
C:/temp/dataset/4/16_2.odb,Step-1,Increment      1: Step Time =    1.000,"PART-1-1",            71,           15.,          -2.5,            0.,NA,NA,"",       2.00765,      -1.94731,   488.521E-03,   9.67002E-03
C:/temp/dataset/4/16_2.odb,Step-1,Increment      1: Step Time =    1.000,"PART-1-1",            72,           15.,           2.5,            0.,NA,NA,"",       2.59770,      -2.55366,   476.294E-03,   1.91474E-03
C:/temp/dataset/4/16_2.odb,Step-1,Increment      1: Step Time =    1.000,"PART-1-1",            73,           15.,            5.,            0.,NA,NA,"",       2.89283,      -2.85608,   459.624E-03,   108.255E-06
C:/temp/dataset/4/16_2.odb,Step-1,Increment      1: Step Time =    1.000,"PART-1-1",            74,           15.,           10.,            0.,NA,NA,"",       3.47744,      -3.45170,   422.272E-03,   334.548E-06
C:/temp/dataset/4/16_2.odb,Step-1,Increment      1: Step Time =    1.000,"PART-1-1",            75,           15.,          12.5,            0.,NA,NA,"",       3.76906,      -3.74732,   404.215E-03,   137.892E-06
C:/temp/dataset/4/16_2.odb,Step-1,Increment      1: Step Time =    1.000,"PART-1-1",            76,           15.,          17.5,            0.,NA,NA,"",       4.35375,      -4.33809,   368.965E-03,   5.58704E-06
C:/temp/dataset/4/16_2.odb,Step-1,Increment      1: Step Time =    1.000,"PART-1-1",            77,           15.,           20.,            0.,NA,NA,"",       4.64681,      -4.63350,   351.447E-03,   1.56892E-06
C:/temp/dataset/4/16_2.odb,Step-1,Increment      1: Step Time =    1.000,"PART-1-1",            78,           15.,           25.,            0.,NA,NA,"",       5.23395,      -5.22437,   316.418E-03,   711.636E-09
C:/temp/dataset/4/16_2.odb,Step-1,Increment      1: Step Time =    1.000,"PART-1-1",            79,           15.,          27.5,            0.,NA,NA,"",       5.52790,      -5.51981,   298.900E-03,   168.314E-09
C:/temp/dataset/4/16_2.odb,Step-1,Increment      1: Step Time =    1.000,"PART-1-1",            80,          12.5,           30.,            0.,NA,NA,"",       5.79775,      -5.79774,  -14.0579E-03,   137.487E-09
C:/temp/dataset/4/16_2.odb,Step-1,Increment      1: Step Time =    1.000,"PART-1-1",            81,           10.,           30.,            0.,NA,NA,"",       5.78850,      -5.78022,  -309.498E-03,   273.776E-09
C:/temp/dataset/4/16_2.odb,Step-1,Increment      1: Step Time =    1.000,"PART-1-1",            82,           7.5,           30.,            0.,NA,NA,"",       5.79437,      -5.76270,  -604.939E-03,   140.457E-09
C:/temp/dataset/4/16_2.odb,Step-1,Increment      1: Step Time =    1.000,"PART-1-1",            83,            5.,       27.9167,            0.,NA,NA,"",       5.56987,      -5.49898,  -885.781E-03,   115.468E-09
C:/temp/dataset/4/16_2.odb,Step-1,Increment      1: Step Time =    1.000,"PART-1-1",            84,            5.,       25.8333,            0.,NA,NA,"",       5.32454,      -5.25278,  -871.183E-03,   483.582E-09
C:/temp/dataset/4/16_2.odb,Step-1,Increment      1: Step Time =    1.000,"PART-1-1",            85,            5.,       21.6667,            0.,NA,NA,"",       4.83427,      -4.76038,  -841.989E-03,   1.73698E-06
C:/temp/dataset/4/16_2.odb,Step-1,Increment      1: Step Time =    1.000,"PART-1-1",            86,            5.,       19.5833,            0.,NA,NA,"",       4.58937,      -4.51417,  -827.393E-03,   1.04810E-06
C:/temp/dataset/4/16_2.odb,Step-1,Increment      1: Step Time =    1.000,"PART-1-1",            87,            5.,       15.4167,            0.,NA,NA,"",       4.10014,      -4.02170,  -798.155E-03,   30.9601E-06
C:/temp/dataset/4/16_2.odb,Step-1,Increment      1: Step Time =    1.000,"PART-1-1",            88,            5.,       13.3333,            0.,NA,NA,"",       3.85590,      -3.77547,  -783.433E-03,   110.648E-06
C:/temp/dataset/4/16_2.odb,Step-1,Increment      1: Step Time =    1.000,"PART-1-1",            89,            5.,       9.16667,            0.,NA,NA,"",       3.36911,      -3.28384,  -753.177E-03,   723.636E-06
C:/temp/dataset/4/16_2.odb,Step-1,Increment      1: Step Time =    1.000,"PART-1-1",            90,            5.,       7.08333,            0.,NA,NA,"",       3.12870,      -3.04062,  -737.134E-03,   2.55612E-03
C:/temp/dataset/4/16_2.odb,Step-1,Increment      1: Step Time =    1.000,"PART-1-1",            91,           2.5,            5.,            0.,NA,NA,"",       3.00816,      -2.82100,      -1.04450,   13.3718E-03
C:/temp/dataset/4/16_2.odb,Step-1,Increment      1: Step Time =    1.000,"PART-1-1",            92,          -2.5,            5.,            0.,NA,NA,"",       3.31277,      -2.83028,      -1.72162,   12.7313E-03
C:/temp/dataset/4/16_2.odb,Step-1,Increment      1: Step Time =    1.000,"PART-1-1",            93,           -5.,       7.08333,            0.,NA,NA,"",       3.81401,      -3.19648,      -2.08067,   7.52424E-03
C:/temp/dataset/4/16_2.odb,Step-1,Increment      1: Step Time =    1.000,"PART-1-1",            94,           -5.,       9.16667,            0.,NA,NA,"",       4.11600,      -3.53905,      -2.10156,   3.50288E-03
C:/temp/dataset/4/16_2.odb,Step-1,Increment      1: Step Time =    1.000,"PART-1-1",            95,           -5.,       13.3333,            0.,NA,NA,"",       4.74220,      -4.22679,      -2.15004,   2.15097E-03
C:/temp/dataset/4/16_2.odb,Step-1,Increment      1: Step Time =    1.000,"PART-1-1",            96,           -5.,       15.4167,            0.,NA,NA,"",       5.05845,      -4.56620,      -2.17665,   1.96220E-03
C:/temp/dataset/4/16_2.odb,Step-1,Increment      1: Step Time =    1.000,"PART-1-1",            97,           -5.,       19.5833,            0.,NA,NA,"",       5.69024,      -5.23516,      -2.22977,   472.188E-06
C:/temp/dataset/4/16_2.odb,Step-1,Increment      1: Step Time =    1.000,"PART-1-1",            98,           -5.,       21.6667,            0.,NA,NA,"",       6.01108,      -5.57140,      -2.25666,   175.750E-06
C:/temp/dataset/4/16_2.odb,Step-1,Increment      1: Step Time =    1.000,"PART-1-1",            99,           -5.,       25.8333,            0.,NA,NA,"",       6.65868,      -6.24474,      -2.31111,   24.4040E-06
C:/temp/dataset/4/16_2.odb,Step-1,Increment      1: Step Time =    1.000,"PART-1-1",           100,           -5.,       27.9167,            0.,NA,NA,"",       6.98455,      -6.58145,      -2.33847,   4.55157E-06
C:/temp/dataset/4/16_2.odb,Step-1,Increment      1: Step Time =    1.000,"PART-1-1",           101,       6.93475,       11.1046,            0.,NA,NA,"",       3.56656,      -3.52556,  -539.282E-03,   206.383E-06
C:/temp/dataset/4/16_2.odb,Step-1,Increment      1: Step Time =    1.000,"PART-1-1",           102,       7.10183,      -21.7370,            0.,NA,NA,"",   250.493E-03,  -214.745E-03,  -128.962E-03,   15.9209E-03
C:/temp/dataset/4/16_2.odb,Step-1,Increment      1: Step Time =    1.000,"PART-1-1",           103,      -7.18606,       25.6133,            0.,NA,NA,"",       6.72914,      -6.18044,      -2.66147,   35.6197E-06
C:/temp/dataset/4/16_2.odb,Step-1,Increment      1: Step Time =    1.000,"PART-1-1",           104,       7.08931,      -17.4629,            0.,NA,NA,"",   500.116E-03,  -460.955E-03,  -194.001E-03,   14.1741E-03
C:/temp/dataset/4/16_2.odb,Step-1,Increment      1: Step Time =    1.000,"PART-1-1",           105,       7.11844,      -23.8299,            0.,NA,NA,"",   158.500E-03,  -126.072E-03,  -96.0644E-03,   16.6966E-03
C:/temp/dataset/4/16_2.odb,Step-1,Increment      1: Step Time =    1.000,"PART-1-1",           106,       7.34845,      -27.9642,            0.,NA,NA,"",   32.2891E-03,  -16.9073E-03,  -27.5088E-03,   17.3542E-03
C:/temp/dataset/4/16_2.odb,Step-1,Increment      1: Step Time =    1.000,"PART-1-1",           107,       7.18399,      -25.9216,            0.,NA,NA,"",   85.1164E-03,  -59.4356E-03,  -60.9280E-03,   17.8133E-03
C:/temp/dataset/4/16_2.odb,Step-1,Increment      1: Step Time =    1.000,"PART-1-1",           108,       7.00226,      -10.9532,            0.,NA,NA,"",       1.02786,  -983.997E-03,  -297.056E-03,   11.7613E-03
C:/temp/dataset/4/16_2.odb,Step-1,Increment      1: Step Time =    1.000,"PART-1-1",           109,       6.93148,       25.8450,            0.,NA,NA,"",       5.30680,      -5.26770,  -643.009E-03,   475.049E-09
C:/temp/dataset/4/16_2.odb,Step-1,Increment      1: Step Time =    1.000,"PART-1-1",           110,       6.95256,       21.7727,            0.,NA,NA,"",       4.82556,      -4.78659,  -611.982E-03,   436.318E-09
C:/temp/dataset/4/16_2.odb,Step-1,Increment      1: Step Time =    1.000,"PART-1-1",           111,       6.99069,       19.6693,            0.,NA,NA,"",       4.57682,      -4.53827,  -592.735E-03,   4.20743E-06
C:/temp/dataset/4/16_2.odb,Step-1,Increment      1: Step Time =    1.000,"PART-1-1",           112,       6.98342,       13.2435,            0.,NA,NA,"",       3.81829,      -3.77869,  -548.544E-03,   109.840E-06
C:/temp/dataset/4/16_2.odb,Step-1,Increment      1: Step Time =    1.000,"PART-1-1",           113,       6.84904,       8.98858,            0.,NA,NA,"",       3.31873,      -3.27538,  -534.696E-03,   289.307E-06
C:/temp/dataset/4/16_2.odb,Step-1,Increment      1: Step Time =    1.000,"PART-1-1",           114,      -7.00061,       11.3966,            0.,NA,NA,"",       4.58746,      -3.87760,      -2.45133,   3.34250E-03
C:/temp/dataset/4/16_2.odb,Step-1,Increment      1: Step Time =    1.000,"PART-1-1",           115,      -6.87185,       17.5946,            0.,NA,NA,"",       5.49501,      -4.89039,      -2.50584,   1.11481E-03
C:/temp/dataset/4/16_2.odb,Step-1,Increment      1: Step Time =    1.000,"PART-1-1",           116,      -6.78696,       21.5686,            0.,NA,NA,"",       6.08890,      -5.53205,      -2.54384,   79.5522E-06
C:/temp/dataset/4/16_2.odb,Step-1,Increment      1: Step Time =    1.000,"PART-1-1",           117,      -6.92081,       23.5666,            0.,NA,NA,"",       6.40126,      -5.85314,      -2.59170,   65.8515E-06
C:/temp/dataset/4/16_2.odb,Step-1,Increment      1: Step Time =    1.000,"PART-1-1",           118,      -7.47694,       27.7553,            0.,NA,NA,"",       7.07363,      -6.52281,      -2.73664,   16.6971E-06
C:/temp/dataset/4/16_2.odb,Step-1,Increment      1: Step Time =    1.000,"PART-1-1",           119,       6.62973,      -6.72562,            0.,NA,NA,"",       1.45543,      -1.40037,  -396.518E-03,   11.3189E-03
C:/temp/dataset/4/16_2.odb,Step-1,Increment      1: Step Time =    1.000,"PART-1-1",           120,       7.00244,       17.5390,            0.,NA,NA,"",       4.32516,      -4.28658,  -576.415E-03,   16.6066E-06
C:/temp/dataset/4/16_2.odb,Step-1,Increment      1: Step Time =    1.000,"PART-1-1",           121,       7.05765,      -13.1226,            0.,NA,NA,"",   833.454E-03,  -791.724E-03,  -260.420E-03,   12.4982E-03
C:/temp/dataset/4/16_2.odb,Step-1,Increment      1: Step Time =    1.000,"PART-1-1",           122,      -6.97858,       13.4860,            0.,NA,NA,"",       4.89273,      -4.22182,      -2.47286,   2.76900E-03
C:/temp/dataset/4/16_2.odb,Step-1,Increment      1: Step Time =    1.000,"PART-1-1",           123,      -7.06135,       7.11796,            0.,NA,NA,"",       3.98624,      -3.17421,      -2.41132,   5.99951E-03
C:/temp/dataset/4/16_2.odb,Step-1,Increment      1: Step Time =    1.000,"PART-1-1",           124,       6.87626,      -8.81940,            0.,NA,NA,"",       1.23596,      -1.18805,  -340.781E-03,   11.4145E-03
C:/temp/dataset/4/16_2.odb,Step-1,Increment      1: Step Time =    1.000,"PART-1-1",           125,       7.08495,      -15.2974,            0.,NA,NA,"",   656.707E-03,  -616.479E-03,  -226.314E-03,   13.2865E-03
C:/temp/dataset/4/16_2.odb,Step-1,Increment      1: Step Time =    1.000,"PART-1-1",           126,       7.00715,       15.3887,            0.,NA,NA,"",       4.07125,      -4.03244,  -560.781E-03,   49.1951E-06
C:/temp/dataset/4/16_2.odb,Step-1,Increment      1: Step Time =    1.000,"PART-1-1",           127,      -7.01992,       9.30136,            0.,NA,NA,"",       4.28715,      -3.53197,      -2.43000,   3.57393E-03
C:/temp/dataset/4/16_2.odb,Step-1,Increment      1: Step Time =    1.000,"PART-1-1",           128,      -6.93369,       15.5639,            0.,NA,NA,"",       5.19726,      -4.56155,      -2.49074,   2.12715E-03
C:/temp/dataset/4/16_2.odb,Step-1,Increment      1: Step Time =    1.000,"PART-1-1",           129,      -6.79206,       19.5889,            0.,NA,NA,"",       5.78904,      -5.21241,      -2.51866,   198.476E-06
C:/temp/dataset/4/16_2.odb,Step-1,Increment      1: Step Time =    1.000,"PART-1-1",           130,       7.09662,      -19.6136,            0.,NA,NA,"",   364.264E-03,  -326.545E-03,  -161.421E-03,   15.0377E-03
C:/temp/dataset/4/16_2.odb,Step-1,Increment      1: Step Time =    1.000,"PART-1-1",           131,       6.89670,       23.8203,            0.,NA,NA,"",       5.06786,      -5.02818,  -632.932E-03,   555.579E-09
C:/temp/dataset/4/16_2.odb,Step-1,Increment      1: Step Time =    1.000,"PART-1-1",           132,       6.67676,       6.98748,            0.,NA,NA,"",       3.08745,      -3.03970,  -540.919E-03,   1.53769E-03
C:/temp/dataset/4/16_2.odb,Step-1,Increment      1: Step Time =    1.000,"PART-1-1",           133,      -13.0361,       12.2042,            0.,NA,NA,"",       5.21355,      -3.92861,      -3.42740,   2.09369E-03
C:/temp/dataset/4/16_2.odb,Step-1,Increment      1: Step Time =    1.000,"PART-1-1",           134,      -13.0483,       3.72302,            0.,NA,NA,"",       4.18631,      -2.57597,      -3.29994,   3.61030E-03
C:/temp/dataset/4/16_2.odb,Step-1,Increment      1: Step Time =    1.000,"PART-1-1",           135,      -13.0740,       10.0823,            0.,NA,NA,"",       4.94072,      -3.58269,      -3.40221,   2.86068E-03
C:/temp/dataset/4/16_2.odb,Step-1,Increment      1: Step Time =    1.000,"PART-1-1",           136,      -13.0017,       14.3509,            0.,NA,NA,"",       5.49810,      -4.27929,      -3.45207,   1.25799E-03
C:/temp/dataset/4/16_2.odb,Step-1,Increment      1: Step Time =    1.000,"PART-1-1",           137,      -12.4480,       21.2307,            0.,NA,NA,"",       6.41284,      -5.40305,      -3.45421,   53.4661E-06
C:/temp/dataset/4/16_2.odb,Step-1,Increment      1: Step Time =    1.000,"PART-1-1",           138,      -13.0426,       25.7965,            0.,NA,NA,"",       7.11692,      -6.13316,      -3.61038,   30.1078E-06
C:/temp/dataset/4/16_2.odb,Step-1,Increment      1: Step Time =    1.000,"PART-1-1",           139,      -12.9478,       23.6552,            0.,NA,NA,"",       6.79913,      -5.78837,      -3.56691,   56.2225E-06
C:/temp/dataset/4/16_2.odb,Step-1,Increment      1: Step Time =    1.000,"PART-1-1",           140,      -12.8307,       18.7376,            0.,NA,NA,"",       6.08922,      -4.99454,      -3.48327,   129.491E-06
C:/temp/dataset/4/16_2.odb,Step-1,Increment      1: Step Time =    1.000,"PART-1-1",           141,      -12.9472,       16.5227,            0.,NA,NA,"",       5.79052,      -4.63360,      -3.47273,   554.660E-06
C:/temp/dataset/4/16_2.odb,Step-1,Increment      1: Step Time =    1.000,"PART-1-1",           142,      -13.1112,       7.97345,            0.,NA,NA,"",       4.68039,      -3.24198,      -3.37574,   3.37217E-03
C:/temp/dataset/4/16_2.odb,Step-1,Increment      1: Step Time =    1.000,"PART-1-1",           143,      -13.1276,       5.86243,            0.,NA,NA,"",       4.43176,      -2.90687,      -3.34524,   3.60096E-03
C:/temp/dataset/4/16_2.odb,Step-1,Increment      1: Step Time =    1.000,"PART-1-1",           144,      -12.8109,       1.56310,            0.,NA,NA,"",       3.93888,      -2.25118,      -3.23218,   3.56541E-03
C:/temp/dataset/4/16_2.odb,Step-1,Increment      1: Step Time =    1.000,"PART-1-1",           145,      -12.5511,  -622.366E-03,            0.,NA,NA,"",       3.70494,      -1.92790,      -3.16383,   3.36753E-03
C:/temp/dataset/4/16_2.odb,Step-1,Increment      1: Step Time =    1.000,"PART-1-1",           146,      -7.69124,      -3.05836,            0.,NA,NA,"",       2.89650,      -1.62955,      -2.39463,   4.44138E-03
C:/temp/dataset/4/16_2.odb,Step-1,Increment      1: Step Time =    1.000,"PART-1-1",           147,      -2.59391,      -3.27074,            0.,NA,NA,"",       2.35044,      -1.67507,      -1.64884,   5.59552E-03
C:/temp/dataset/4/16_2.odb,Step-1,Increment      1: Step Time =    1.000,"PART-1-1",           148,      -2.06699,       2.95135,            0.,NA,NA,"",       3.02651,      -2.54745,      -1.63410,   8.33379E-03
C:/temp/dataset/4/16_2.odb,Step-1,Increment      1: Step Time =    1.000,"PART-1-1",           149,       1.86882,      -3.06513,            0.,NA,NA,"",       2.05182,      -1.76653,      -1.04371,   6.33963E-03
C:/temp/dataset/4/16_2.odb,Step-1,Increment      1: Step Time =    1.000,"PART-1-1",           150,       2.79073,       3.02834,            0.,NA,NA,"",       2.74958,      -2.56825,  -981.992E-03,   7.51216E-03
C:/temp/dataset/4/16_2.odb,Step-1,Increment      1: Step Time =    1.000,"PART-1-1",           151,       12.5379,       2.72923,            0.,NA,NA,"",       2.56924,      -2.56279,   182.006E-03,   3.61735E-03
C:/temp/dataset/4/16_2.odb,Step-1,Increment      1: Step Time =    1.000,"PART-1-1",           152,       12.9313,       10.2835,            0.,NA,NA,"",       3.47525,      -3.47083,   175.101E-03,   169.265E-06
C:/temp/dataset/4/16_2.odb,Step-1,Increment      1: Step Time =    1.000,"PART-1-1",           153,       12.7723,       24.8557,            0.,NA,NA,"",       5.19199,      -5.19171,   54.1742E-03,   572.830E-09
C:/temp/dataset/4/16_2.odb,Step-1,Increment      1: Step Time =    1.000,"PART-1-1",           154,       12.5268,       27.4001,            0.,NA,NA,"",       5.49068,      -5.49067,   7.32820E-03,   356.987E-09
C:/temp/dataset/4/16_2.odb,Step-1,Increment      1: Step Time =    1.000,"PART-1-1",           155,       12.7627,      -5.01238,            0.,NA,NA,"",       1.64636,      -1.62953,   234.813E-03,   8.91011E-03
C:/temp/dataset/4/16_2.odb,Step-1,Increment      1: Step Time =    1.000,"PART-1-1",           156,       13.0118,      -12.5921,            0.,NA,NA,"",   888.843E-03,  -859.106E-03,   227.987E-03,   12.7138E-03
C:/temp/dataset/4/16_2.odb,Step-1,Increment      1: Step Time =    1.000,"PART-1-1",           157,       9.69976,      -27.8547,            0.,NA,NA,"",   10.1715E-03,  -9.79078E-03,  -2.75690E-03,   3.86932E-03
C:/temp/dataset/4/16_2.odb,Step-1,Increment      1: Step Time =    1.000,"PART-1-1",           158,       13.0855,      -17.4497,            0.,NA,NA,"",   512.202E-03,  -476.380E-03,   188.184E-03,   15.2563E-03
C:/temp/dataset/4/16_2.odb,Step-1,Increment      1: Step Time =    1.000,"PART-1-1",           159,       12.9366,       22.3763,            0.,NA,NA,"",       4.90071,      -4.89986,   90.9614E-03,   397.446E-09
C:/temp/dataset/4/16_2.odb,Step-1,Increment      1: Step Time =    1.000,"PART-1-1",           160,       13.0248,       17.5365,            0.,NA,NA,"",       4.33068,      -4.32856,   135.295E-03,   16.1100E-06
C:/temp/dataset/4/16_2.odb,Step-1,Increment      1: Step Time =    1.000,"PART-1-1",           161,      -10.1545,       27.3700,            0.,NA,NA,"",       7.16228,      -6.42538,      -3.16428,   18.0534E-06
C:/temp/dataset/4/16_2.odb,Step-1,Increment      1: Step Time =    1.000,"PART-1-1",           162,      -10.0546,      -2.87755,            0.,NA,NA,"",       3.19832,      -1.62354,      -2.75560,   3.64184E-03
C:/temp/dataset/4/16_2.odb,Step-1,Increment      1: Step Time =    1.000,"PART-1-1",           163,      -5.07747,      -2.66322,            0.,NA,NA,"",       2.64843,      -1.72503,      -2.00959,   4.58349E-03
C:/temp/dataset/4/16_2.odb,Step-1,Increment      1: Step Time =    1.000,"PART-1-1",           164,  -330.659E-03,      -3.26262,            0.,NA,NA,"",       2.17021,      -1.70981,      -1.33654,   6.05569E-03
C:/temp/dataset/4/16_2.odb,Step-1,Increment      1: Step Time =    1.000,"PART-1-1",           165,       3.93161,      -2.75002,            0.,NA,NA,"",       1.99081,      -1.83331,  -776.076E-03,   3.85852E-03
C:/temp/dataset/4/16_2.odb,Step-1,Increment      1: Step Time =    1.000,"PART-1-1",           166,       12.9585,      -10.1304,            0.,NA,NA,"",       1.11365,      -1.08771,   238.967E-03,   11.4459E-03
C:/temp/dataset/4/16_2.odb,Step-1,Increment      1: Step Time =    1.000,"PART-1-1",           167,       13.1106,      -19.8561,            0.,NA,NA,"",   361.566E-03,  -324.054E-03,   160.371E-03,   16.5220E-03
C:/temp/dataset/4/16_2.odb,Step-1,Increment      1: Step Time =    1.000,"PART-1-1",           168,       12.2637,      -27.1930,            0.,NA,NA,"",   44.7718E-03,  -29.7317E-03,   33.4744E-03,   15.6798E-03
C:/temp/dataset/4/16_2.odb,Step-1,Increment      1: Step Time =    1.000,"PART-1-1",           169,       13.0974,      -22.2394,            0.,NA,NA,"",   236.675E-03,  -199.867E-03,   126.760E-03,   17.5361E-03
C:/temp/dataset/4/16_2.odb,Step-1,Increment      1: Step Time =    1.000,"PART-1-1",           170,       13.0625,      -15.0302,            0.,NA,NA,"",   688.476E-03,  -655.167E-03,   211.555E-03,   14.0357E-03
C:/temp/dataset/4/16_2.odb,Step-1,Increment      1: Step Time =    1.000,"PART-1-1",           171,       12.8638,      -7.61343,            0.,NA,NA,"",       1.36464,      -1.34328,   240.507E-03,   10.1412E-03
C:/temp/dataset/4/16_2.odb,Step-1,Increment      1: Step Time =    1.000,"PART-1-1",           172,       12.8109,      -2.41519,            0.,NA,NA,"",       1.95011,      -1.93554,   237.968E-03,   7.64272E-03
C:/temp/dataset/4/16_2.odb,Step-1,Increment      1: Step Time =    1.000,"PART-1-1",           173,       12.7001,   168.481E-03,            0.,NA,NA,"",       2.25996,      -2.24961,   216.009E-03,   5.80099E-03
C:/temp/dataset/4/16_2.odb,Step-1,Increment      1: Step Time =    1.000,"PART-1-1",           174,       12.6773,       5.28127,            0.,NA,NA,"",       2.87911,      -2.87345,   180.589E-03,   1.33997E-03
C:/temp/dataset/4/16_2.odb,Step-1,Increment      1: Step Time =    1.000,"PART-1-1",           175,       12.8405,       7.80961,            0.,NA,NA,"",       3.18209,      -3.17689,   181.852E-03,   160.995E-06
C:/temp/dataset/4/16_2.odb,Step-1,Increment      1: Step Time =    1.000,"PART-1-1",           176,       12.9955,       12.7023,            0.,NA,NA,"",       3.76086,      -3.75721,   165.706E-03,   120.297E-06
C:/temp/dataset/4/16_2.odb,Step-1,Increment      1: Step Time =    1.000,"PART-1-1",           177,       13.0102,       19.9477,            0.,NA,NA,"",       4.61485,      -4.61338,   116.669E-03,   3.20753E-06
C:/temp/dataset/4/16_2.odb,Step-1,Increment      1: Step Time =    1.000,"PART-1-1",           178,       9.88408,       27.1269,            0.,NA,NA,"",       5.44831,      -5.43988,  -303.064E-03,   298.704E-09
C:/temp/dataset/4/16_2.odb,Step-1,Increment      1: Step Time =    1.000,"PART-1-1",           179,       13.0301,       15.1161,            0.,NA,NA,"",       4.04552,      -4.04263,   152.876E-03,   52.4140E-06
C:/temp/dataset/4/16_2.odb,Step-1,Increment      1: Step Time =    1.000,"PART-1-1",           180,   300.490E-03,       3.00528,            0.,NA,NA,"",       2.87669,      -2.56085,      -1.31049,   8.26336E-03
C:/temp/dataset/4/16_2.odb,Step-1,Increment      1: Step Time =    1.000,"PART-1-1",           181,      -4.18418,       2.89078,            0.,NA,NA,"",       3.18318,      -2.53054,      -1.93107,   4.97956E-03
C:/temp/dataset/4/16_2.odb,Step-1,Increment      1: Step Time =    1.000,"PART-1-1",           182,      -8.75093,       23.2164,            0.,NA,NA,"",       6.45232,      -5.77254,      -2.88273,   67.0753E-06
C:/temp/dataset/4/16_2.odb,Step-1,Increment      1: Step Time =    1.000,"PART-1-1",           183,       9.13120,      -23.8882,            0.,NA,NA,"",   118.976E-03,  -115.599E-03,  -28.1426E-03,   5.91633E-03
C:/temp/dataset/4/16_2.odb,Step-1,Increment      1: Step Time =    1.000,"PART-1-1",           184,       8.76025,       8.63504,            0.,NA,NA,"",       3.26144,      -3.24695,  -307.056E-03,   251.911E-06
C:/temp/dataset/4/16_2.odb,Step-1,Increment      1: Step Time =    1.000,"PART-1-1",           185,       8.81891,       23.9948,            0.,NA,NA,"",       5.07861,      -5.06227,  -406.993E-03,   511.601E-09
C:/temp/dataset/4/16_2.odb,Step-1,Increment      1: Step Time =    1.000,"PART-1-1",           186,       9.00734,       17.5557,            0.,NA,NA,"",       4.31601,      -4.30263,  -339.621E-03,   20.9128E-06
C:/temp/dataset/4/16_2.odb,Step-1,Increment      1: Step Time =    1.000,"PART-1-1",           187,      -8.59230,       19.6811,            0.,NA,NA,"",       5.91404,      -5.20354,      -2.81053,   181.354E-06
C:/temp/dataset/4/16_2.odb,Step-1,Increment      1: Step Time =    1.000,"PART-1-1",           188,       9.06266,      -12.9142,            0.,NA,NA,"",   815.111E-03,  -809.206E-03,  -97.9409E-03,   5.03503E-03
C:/temp/dataset/4/16_2.odb,Step-1,Increment      1: Step Time =    1.000,"PART-1-1",           189,       9.13987,      -19.6571,            0.,NA,NA,"",   322.427E-03,  -318.538E-03,  -49.9272E-03,   5.34956E-03
C:/temp/dataset/4/16_2.odb,Step-1,Increment      1: Step Time =    1.000,"PART-1-1",           190,       9.00941,       15.3265,            0.,NA,NA,"",       4.05212,      -4.03917,  -323.804E-03,   58.6639E-06
C:/temp/dataset/4/16_2.odb,Step-1,Increment      1: Step Time =    1.000,"PART-1-1",           191,      -8.96967,       13.7142,            0.,NA,NA,"",       5.07037,      -4.22994,      -2.79576,   2.50539E-03
C:/temp/dataset/4/16_2.odb,Step-1,Increment      1: Step Time =    1.000,"PART-1-1",           192,       9.12973,      -17.4386,            0.,NA,NA,"",   463.092E-03,  -458.753E-03,  -63.2432E-03,   5.19813E-03
C:/temp/dataset/4/16_2.odb,Step-1,Increment      1: Step Time =    1.000,"PART-1-1",           193,       8.94484,       21.9321,            0.,NA,NA,"",       4.83416,      -4.81939,  -377.656E-03,   1.05162E-06
C:/temp/dataset/4/16_2.odb,Step-1,Increment      1: Step Time =    1.000,"PART-1-1",           194,      -8.78258,       17.8115,            0.,NA,NA,"",       5.65115,      -4.89897,      -2.81702,   672.809E-06
C:/temp/dataset/4/16_2.odb,Step-1,Increment      1: Step Time =    1.000,"PART-1-1",           195,       8.90333,       10.8666,            0.,NA,NA,"",       3.52459,      -3.51133,  -305.463E-03,   208.884E-06
C:/temp/dataset/4/16_2.odb,Step-1,Increment      1: Step Time =    1.000,"PART-1-1",           196,      -9.00437,       11.6266,            0.,NA,NA,"",       4.77596,      -3.88696,      -2.77513,   3.21196E-03
C:/temp/dataset/4/16_2.odb,Step-1,Increment      1: Step Time =    1.000,"PART-1-1",           197,      -9.03622,       9.53759,            0.,NA,NA,"",       4.48782,      -3.54373,      -2.75364,   3.35042E-03
C:/temp/dataset/4/16_2.odb,Step-1,Increment      1: Step Time =    1.000,"PART-1-1",           198,       8.99264,      -10.6281,            0.,NA,NA,"",       1.02305,      -1.01585,  -121.160E-03,   4.92830E-03
C:/temp/dataset/4/16_2.odb,Step-1,Increment      1: Step Time =    1.000,"PART-1-1",           199,       8.82192,      -8.34759,            0.,NA,NA,"",       1.24873,      -1.23896,  -155.848E-03,   4.64722E-03
C:/temp/dataset/4/16_2.odb,Step-1,Increment      1: Step Time =    1.000,"PART-1-1",           200,       8.98411,       13.0928,            0.,NA,NA,"",       3.78779,      -3.77498,  -311.277E-03,   129.098E-06
C:/temp/dataset/4/16_2.odb,Step-1,Increment      1: Step Time =    1.000,"PART-1-1",           201,       7.30685,       27.8134,            0.,NA,NA,"",       5.53692,      -5.50294,  -612.442E-03,   313.030E-09
C:/temp/dataset/4/16_2.odb,Step-1,Increment      1: Step Time =    1.000,"PART-1-1",           202,      -8.46063,       21.4565,            0.,NA,NA,"",       6.17033,      -5.49200,      -2.81261,   78.7785E-06
C:/temp/dataset/4/16_2.odb,Step-1,Increment      1: Step Time =    1.000,"PART-1-1",           203,       9.11250,      -15.1896,            0.,NA,NA,"",   627.612E-03,  -622.689E-03,  -78.4568E-03,   5.07420E-03
C:/temp/dataset/4/16_2.odb,Step-1,Increment      1: Step Time =    1.000,"PART-1-1",           204,       9.14200,      -21.8221,            0.,NA,NA,"",   207.231E-03,  -203.669E-03,  -38.2538E-03,   5.56845E-03
C:/temp/dataset/4/16_2.odb,Step-1,Increment      1: Step Time =    1.000,"PART-1-1",           205,      -8.90436,       15.8055,            0.,NA,NA,"",       5.36729,      -4.57212,      -2.81132,   1.54440E-03
C:/temp/dataset/4/16_2.odb,Step-1,Increment      1: Step Time =    1.000,"PART-1-1",           206,       9.00445,       19.7587,            0.,NA,NA,"",       4.57678,      -4.56296,  -355.385E-03,   5.80909E-06
C:/temp/dataset/4/16_2.odb,Step-1,Increment      1: Step Time =    1.000,"PART-1-1",           207,       8.39742,      -6.16188,            0.,NA,NA,"",       1.48293,      -1.46692,  -217.300E-03,   4.45370E-03
C:/temp/dataset/4/16_2.odb,Step-1,Increment      1: Step Time =    1.000,"PART-1-1",           208,      -9.10294,       7.45394,            0.,NA,NA,"",       4.21358,      -3.20345,      -2.73718,   3.69713E-03
C:/temp/dataset/4/16_2.odb,Step-1,Increment      1: Step Time =    1.000,"PART-1-1",           209,       8.43260,       6.43235,            0.,NA,NA,"",       3.00371,      -2.98556,  -329.764E-03,   1.73987E-03
C:/temp/dataset/4/16_2.odb,Step-1,Increment      1: Step Time =    1.000,"PART-1-1",           210,       5.64784,       2.93298,            0.,NA,NA,"",       2.63624,      -2.56096,  -625.482E-03,   7.26511E-03
C:/temp/dataset/4/16_2.odb,Step-1,Increment      1: Step Time =    1.000,"PART-1-1",           211,      -10.7213,       1.88644,            0.,NA,NA,"",       3.72523,      -2.32184,      -2.91314,   3.89558E-03
C:/temp/dataset/4/16_2.odb,Step-1,Increment      1: Step Time =    1.000,"PART-1-1",           212,      -12.7178,       27.8380,            0.,NA,NA,"",       7.39436,      -6.46733,      -3.58472,   15.4693E-06
C:/temp/dataset/4/16_2.odb,Step-1,Increment      1: Step Time =    1.000,"PART-1-1",           213,      -11.0298,       24.2524,            0.,NA,NA,"",       6.75184,      -5.91009,      -3.26469,   51.8508E-06
C:/temp/dataset/4/16_2.odb,Step-1,Increment      1: Step Time =    1.000,"PART-1-1",           214,      -10.4500,       20.0822,            0.,NA,NA,"",       6.09966,      -5.24372,      -3.11598,   106.896E-06
C:/temp/dataset/4/16_2.odb,Step-1,Increment      1: Step Time =    1.000,"PART-1-1",           215,      -10.9919,       14.0243,            0.,NA,NA,"",       5.27686,      -4.25260,      -3.12420,   1.90529E-03
C:/temp/dataset/4/16_2.odb,Step-1,Increment      1: Step Time =    1.000,"PART-1-1",           216,      -11.0796,       9.82104,            0.,NA,NA,"",       4.71152,      -3.56441,      -3.08113,   3.12977E-03
C:/temp/dataset/4/16_2.odb,Step-1,Increment      1: Step Time =    1.000,"PART-1-1",           217,      -11.0365,       11.9204,            0.,NA,NA,"",       4.99012,      -3.90787,      -3.10320,   2.71264E-03
C:/temp/dataset/4/16_2.odb,Step-1,Increment      1: Step Time =    1.000,"PART-1-1",           218,      -10.5491,       22.5446,            0.,NA,NA,"",       6.46746,      -5.64041,      -3.16447,   66.8293E-06
C:/temp/dataset/4/16_2.odb,Step-1,Increment      1: Step Time =    1.000,"PART-1-1",           219,      -10.9277,       16.1478,            0.,NA,NA,"",       5.57022,      -4.59968,      -3.14170,   1.02102E-03
C:/temp/dataset/4/16_2.odb,Step-1,Increment      1: Step Time =    1.000,"PART-1-1",           220,      -10.7891,       18.2216,            0.,NA,NA,"",       5.85532,      -4.93812,      -3.14639,   381.529E-06
C:/temp/dataset/4/16_2.odb,Step-1,Increment      1: Step Time =    1.000,"PART-1-1",           221,      -11.1555,       7.76515,            0.,NA,NA,"",       4.45245,      -3.23059,      -3.06392,   3.03404E-03
C:/temp/dataset/4/16_2.odb,Step-1,Increment      1: Step Time =    1.000,"PART-1-1",           222,      -9.80329,       4.04682,            0.,NA,NA,"",       3.86060,      -2.65843,      -2.79946,   3.19813E-03
C:/temp/dataset/4/16_2.odb,Step-1,Increment      1: Step Time =    1.000,"PART-1-1",           223,       9.22674,      -25.9093,            0.,NA,NA,"",   52.9478E-03,  -50.4824E-03,  -15.9687E-03,   5.59781E-03
C:/temp/dataset/4/16_2.odb,Step-1,Increment      1: Step Time =    1.000,"PART-1-1",           224,      -9.21421,       25.1107,            0.,NA,NA,"",       6.76552,      -6.07261,      -2.98257,   42.6536E-06
C:/temp/dataset/4/16_2.odb,Step-1,Increment      1: Step Time =    1.000,"PART-1-1",           225,       6.25241,      -4.60112,            0.,NA,NA,"",       1.69247,      -1.62705,  -465.982E-03,   7.57097E-03
C:/temp/dataset/4/16_2.odb,Step-1,Increment      1: Step Time =    1.000,"PART-1-1",           226,      -7.19550,       4.55405,            0.,NA,NA,"",       3.65812,      -2.75980,      -2.40111,   5.80180E-03
C:/temp/dataset/4/16_2.odb,Step-1,Increment      1: Step Time =    1.000,"PART-1-1",           227,       12.9551,      -24.6090,            0.,NA,NA,"",   134.455E-03,  -103.659E-03,   85.6334E-03,   18.3853E-03
C:/temp/dataset/4/16_2.odb,Step-1,Increment      1: Step Time =    1.000,"PART-1-1",           228,       10.9241,       22.1645,            0.,NA,NA,"",       4.86290,      -4.86073,  -145.381E-03,   883.112E-09
C:/temp/dataset/4/16_2.odb,Step-1,Increment      1: Step Time =    1.000,"PART-1-1",           229,      -4.91288,   464.762E-03,            0.,NA,NA,"",       2.96376,      -2.17542,      -2.01281,   2.66960E-03
C:/temp/dataset/4/16_2.odb,Step-1,Increment      1: Step Time =    1.000,"PART-1-1",           230,  -831.143E-03,      -1.35374,            0.,NA,NA,"",       2.42339,      -1.96444,      -1.41907,   1.97285E-03
C:/temp/dataset/4/16_2.odb,Step-1,Increment      1: Step Time =    1.000,"PART-1-1",           231,       11.1616,      -19.7398,            0.,NA,NA,"",   323.056E-03,  -317.871E-03,   57.6484E-03,   6.98717E-03
C:/temp/dataset/4/16_2.odb,Step-1,Increment      1: Step Time =    1.000,"PART-1-1",           232,       10.9730,      -10.3410,            0.,NA,NA,"",       1.05341,      -1.05189,   56.5383E-03,   4.98371E-03
C:/temp/dataset/4/16_2.odb,Step-1,Increment      1: Step Time =    1.000,"PART-1-1",           233,       10.4844,      -5.04269,            0.,NA,NA,"",       1.60672,      -1.60671,  -5.99263E-03,   6.66780E-03
C:/temp/dataset/4/16_2.odb,Step-1,Increment      1: Step Time =    1.000,"PART-1-1",           234,       10.9074,       10.5689,            0.,NA,NA,"",       3.49094,      -3.49031,  -66.5650E-03,   197.569E-06
C:/temp/dataset/4/16_2.odb,Step-1,Increment      1: Step Time =    1.000,"PART-1-1",           235,       11.0515,      -12.7377,            0.,NA,NA,"",   834.325E-03,  -831.822E-03,   64.5798E-03,   5.43484E-03
C:/temp/dataset/4/16_2.odb,Step-1,Increment      1: Step Time =    1.000,"PART-1-1",           236,       10.9936,       12.8990,            0.,NA,NA,"",       3.76702,      -3.76632,  -72.4707E-03,   129.978E-06
C:/temp/dataset/4/16_2.odb,Step-1,Increment      1: Step Time =    1.000,"PART-1-1",           237,      -9.84553,  -403.770E-03,            0.,NA,NA,"",       3.39570,      -1.99173,      -2.75023,   4.45145E-03
C:/temp/dataset/4/16_2.odb,Step-1,Increment      1: Step Time =    1.000,"PART-1-1",           238,      -6.42098,  -599.403E-03,            0.,NA,NA,"",       2.99613,      -2.00470,      -2.22666,   3.94418E-03
C:/temp/dataset/4/16_2.odb,Step-1,Increment      1: Step Time =    1.000,"PART-1-1",           239,      -2.35214,      -1.85066,            0.,NA,NA,"",       2.48349,      -1.87738,      -1.62578,   3.20273E-03
C:/temp/dataset/4/16_2.odb,Step-1,Increment      1: Step Time =    1.000,"PART-1-1",           240,       11.1625,      -21.9830,            0.,NA,NA,"",   204.944E-03,  -199.298E-03,   47.7728E-03,   7.44012E-03
C:/temp/dataset/4/16_2.odb,Step-1,Increment      1: Step Time =    1.000,"PART-1-1",           241,       11.1073,      -15.0998,            0.,NA,NA,"",   639.345E-03,  -635.831E-03,   66.9404E-03,   5.98420E-03
C:/temp/dataset/4/16_2.odb,Step-1,Increment      1: Step Time =    1.000,"PART-1-1",           242,       11.1457,      -17.4375,            0.,NA,NA,"",   468.432E-03,  -463.969E-03,   64.5088E-03,   6.52901E-03
C:/temp/dataset/4/16_2.odb,Step-1,Increment      1: Step Time =    1.000,"PART-1-1",           243,       10.8340,      -7.85693,            0.,NA,NA,"",       1.30143,      -1.30085,   38.8373E-03,   5.16280E-03
C:/temp/dataset/4/16_2.odb,Step-1,Increment      1: Step Time =    1.000,"PART-1-1",           244,       10.5842,   120.255E-03,            0.,NA,NA,"",       2.22938,      -2.22924,  -24.8315E-03,   7.13445E-03
C:/temp/dataset/4/16_2.odb,Step-1,Increment      1: Step Time =    1.000,"PART-1-1",           245,       10.8633,      -2.34188,            0.,NA,NA,"",       1.92898,      -1.92885,   22.1851E-03,   7.78181E-03
C:/temp/dataset/4/16_2.odb,Step-1,Increment      1: Step Time =    1.000,"PART-1-1",           246,       9.78574,       2.89226,            0.,NA,NA,"",       2.57092,      -2.56712,  -139.648E-03,   5.34694E-03
C:/temp/dataset/4/16_2.odb,Step-1,Increment      1: Step Time =    1.000,"PART-1-1",           247,       10.7685,       8.18214,            0.,NA,NA,"",       3.20759,      -3.20690,  -66.3826E-03,   321.906E-06
C:/temp/dataset/4/16_2.odb,Step-1,Increment      1: Step Time =    1.000,"PART-1-1",           248,       10.4587,       5.69287,            0.,NA,NA,"",       2.91010,      -2.90887,  -84.5661E-03,   1.80405E-03
C:/temp/dataset/4/16_2.odb,Step-1,Increment      1: Step Time =    1.000,"PART-1-1",           249,       11.0104,       19.8565,            0.,NA,NA,"",       4.59013,      -4.58859,  -119.012E-03,   5.29067E-06
C:/temp/dataset/4/16_2.odb,Step-1,Increment      1: Step Time =    1.000,"PART-1-1",           250,       11.0363,       17.5467,            0.,NA,NA,"",       4.31696,      -4.31581,  -99.7921E-03,   20.8028E-06
C:/temp/dataset/4/16_2.odb,Step-1,Increment      1: Step Time =    1.000,"PART-1-1",           251,       11.0403,       15.2208,            0.,NA,NA,"",       4.04186,      -4.04100,  -83.0709E-03,   59.5453E-06
C:/temp/dataset/4/16_2.odb,Step-1,Increment      1: Step Time =    1.000,"PART-1-1",           252,       1.19009,      -1.06873,            0.,NA,NA,"",       2.32739,      -2.02419,      -1.14865,   1.09810E-03
C:/temp/dataset/4/16_2.odb,Step-1,Increment      1: Step Time =    1.000,"PART-1-1",           253,       10.6932,       24.5073,            0.,NA,NA,"",       5.13945,      -5.13597,  -189.088E-03,   531.072E-09
C:/temp/dataset/4/16_2.odb,Step-1,Increment      1: Step Time =    1.000,"PART-1-1",           254,       8.51128,       25.6419,            0.,NA,NA,"",       5.27442,      -5.25477,  -454.890E-03,   450.202E-09
C:/temp/dataset/4/16_2.odb,Step-1,Increment      1: Step Time =    1.000,"PART-1-1",           255,      -9.32324,       5.48290,            0.,NA,NA,"",       3.98278,      -2.88612,      -2.74460,   3.19119E-03
C:/temp/dataset/4/16_2.odb,Step-1,Increment      1: Step Time =    1.000,"PART-1-1",           256,      -11.4569,       25.7537,            0.,NA,NA,"",       7.00234,      -6.14709,      -3.35351,   32.7655E-06
C:/temp/dataset/4/16_2.odb,Step-1,Increment      1: Step Time =    1.000,"PART-1-1",           257,      -8.85145,       2.84717,            0.,NA,NA,"",       3.62208,      -2.48484,      -2.63535,   4.05139E-03
C:/temp/dataset/4/16_2.odb,Step-1,Increment      1: Step Time =    1.000,"PART-1-1",           258,       11.0896,      -24.0706,            0.,NA,NA,"",   116.158E-03,  -111.008E-03,   34.2056E-03,   7.48183E-03
C:/temp/dataset/4/16_2.odb,Step-1,Increment      1: Step Time =    1.000,"PART-1-1",           259,       5.69240,      -2.12345,            0.,NA,NA,"",       2.00605,      -1.92553,  -562.643E-03,   6.76838E-03
C:/temp/dataset/4/16_2.odb,Step-1,Increment      1: Step Time =    1.000,"PART-1-1",           260,       7.72467,       1.38687,            0.,NA,NA,"",       2.40153,      -2.37385,  -363.623E-03,   7.54558E-03
C:/temp/dataset/4/16_2.odb,Step-1,Increment      1: Step Time =    1.000,"PART-1-1",           261,       8.83369,  -368.727E-03,            0.,NA,NA,"",       2.17049,      -2.15945,  -218.637E-03,   7.97358E-03
C:/temp/dataset/4/16_2.odb,Step-1,Increment      1: Step Time =    1.000,"PART-1-1",           262,       7.58912,       4.39900,            0.,NA,NA,"",       2.77252,      -2.74181,  -411.537E-03,   5.54461E-03
C:/temp/dataset/4/16_2.odb,Step-1,Increment      1: Step Time =    1.000,"PART-1-1",           263,      -6.02595,       2.23751,            0.,NA,NA,"",       3.26766,      -2.42055,      -2.19510,   4.60560E-03
C:/temp/dataset/4/16_2.odb,Step-1,Increment      1: Step Time =    1.000,"PART-1-1",           264,       4.92391,   813.983E-03,            0.,NA,NA,"",       2.39405,      -2.29256,  -689.687E-03,   5.62293E-03
C:/temp/dataset/4/16_2.odb,Step-1,Increment      1: Step Time =    1.000,"PART-1-1",           265,      -7.77287,       1.11371,            0.,NA,NA,"",       3.31745,      -2.23835,      -2.44851,   4.50348E-03
C:/temp/dataset/4/16_2.odb,Step-1,Increment      1: Step Time =    1.000,"PART-1-1",           266,      -3.71710,       1.36231,            0.,NA,NA,"",       2.96246,      -2.31524,      -1.84820,   2.92037E-03
C:/temp/dataset/4/16_2.odb,Step-1,Increment      1: Step Time =    1.000,"PART-1-1",           267,       2.85817,       1.10052,            0.,NA,NA,"",       2.50767,      -2.32005,  -951.720E-03,   3.95718E-03
C:/temp/dataset/4/16_2.odb,Step-1,Increment      1: Step Time =    1.000,"PART-1-1",           268,       7.51165,      -2.37377,            0.,NA,NA,"",       1.93567,      -1.90411,  -348.092E-03,   8.07482E-03
C:/temp/dataset/4/16_2.odb,Step-1,Increment      1: Step Time =    1.000,"PART-1-1",           269,      -1.84913,   666.939E-03,            0.,NA,NA,"",       2.73399,      -2.23268,      -1.57791,   1.86950E-03
C:/temp/dataset/4/16_2.odb,Step-1,Increment      1: Step Time =    1.000,"PART-1-1",           270,   621.955E-03,   989.730E-03,            0.,NA,NA,"",       2.60932,      -2.29357,      -1.24423,   3.25078E-03
C:/temp/dataset/4/16_2.odb,Step-1,Increment      1: Step Time =    1.000,"PART-1-1",           271,       7.77182,      -4.29185,            0.,NA,NA,"",       1.70107,      -1.67431,  -300.541E-03,   6.77988E-03
C:/temp/dataset/4/16_2.odb,Step-1,Increment      1: Step Time =    1.000,"PART-1-1",           272,       6.40836,       5.42027,            0.,NA,NA,"",       2.91247,      -2.85792,  -561.063E-03,   4.58317E-03
C:/temp/dataset/4/16_2.odb,Step-1,Increment      1: Step Time =    1.000,"PART-1-1",           273,      -12.5139,      -2.82358,            0.,NA,NA,"",       3.51732,      -1.60043,      -3.13212,   2.18689E-03
C:/temp/dataset/4/16_2.odb,Step-1,Increment      1: Step Time =    1.000,"PART-1-1",           274,       10.8188,      -25.6946,            0.,NA,NA,"",   60.6289E-03,  -57.6277E-03,   18.8392E-03,   6.33046E-03
C:/temp/dataset/4/16_2.odb,Step-1,Increment      1: Step Time =    1.000,"PART-1-1",           275,       6.49302,  -163.532E-03,            0.,NA,NA,"",       2.22991,      -2.17532,  -490.384E-03,   7.15805E-03
C:/temp/dataset/4/16_2.odb,Step-1,Increment      1: Step Time =    1.000,"PART-1-1",           276,       7.60941,  -936.337E-03,            0.,NA,NA,"",       2.11259,      -2.08304,  -352.105E-03,   7.97488E-03
C:/temp/dataset/4/16_2.odb,Step-1,Increment      1: Step Time =    1.000,"PART-1-1",           277,       9.17282,      -2.25688,            0.,NA,NA,"",       1.93496,      -1.92798,  -164.217E-03,   8.01479E-03
C:/temp/dataset/4/16_2.odb,Step-1,Increment      1: Step Time =    1.000,"PART-1-1",           278,       9.10690,      -3.89703,            0.,NA,NA,"",       1.73724,      -1.72995,  -159.031E-03,   7.09995E-03
C:/temp/dataset/4/16_2.odb,Step-1,Increment      1: Step Time =    1.000,"PART-1-1",           279,      -7.91199,      -1.40732,            0.,NA,NA,"",       3.07627,      -1.86841,      -2.44387,   4.38748E-03
C:/temp/dataset/4/16_2.odb,Step-1,Increment      1: Step Time =    1.000,"PART-1-1",           280,      -9.83927,       21.3699,            0.,NA,NA,"",       6.24636,      -5.45989,      -3.03424,   70.3349E-06
C:/temp/dataset/4/16_2.odb,Step-1,Increment      1: Step Time =    1.000,"PART-1-1",           281,      -11.2653,       5.77953,            0.,NA,NA,"",       4.21947,      -2.91338,      -3.05224,   2.84079E-03
C:/temp/dataset/4/16_2.odb,Step-1,Increment      1: Step Time =    1.000,"PART-1-1",           282,      -11.2487,       3.84080,            0.,NA,NA,"",       3.99442,      -2.61244,      -3.02167,   3.07536E-03
C:/temp/dataset/4/16_2.odb,Step-1,Increment      1: Step Time =    1.000,"PART-1-1",           283,       3.11059,  -868.354E-03,            0.,NA,NA,"",       2.25446,      -2.06742,  -899.079E-03,   1.85961E-03
C:/temp/dataset/4/16_2.odb,Step-1,Increment      1: Step Time =    1.000,"PART-1-1",           284,       4.50766,  -682.768E-03,            0.,NA,NA,"",       2.22176,      -2.10042,  -724.204E-03,   3.89124E-03
C:/temp/dataset/4/16_2.odb,Step-1,Increment      1: Step Time =    1.000,"PART-1-1",           285,      -3.56662,  -854.847E-03,            0.,NA,NA,"",       2.69678,      -2.00258,      -1.80618,   2.31672E-03
C:/temp/dataset/4/16_2.odb,Step-1,Increment      1: Step Time =    1.000,"PART-1-1",           286,      -7.33150,       26.6843,            0.,NA,NA,"",       6.90131,      -6.35163,      -2.69905,   25.5810E-06
C:/temp/dataset/4/16_2.odb,Step-1,Increment      1: Step Time =    1.000,"PART-1-1",           287,      -6.09303,       25.7233,            0.,NA,NA,"",       6.69163,      -6.21259,      -2.48630,   23.3120E-06
C:/temp/dataset/4/16_2.odb,Step-1,Increment      1: Step Time =    1.000,"PART-1-1",           288,           -5.,        26.875,            0.,NA,NA,"",       6.82147,      -6.41310,      -2.32479,   14.8772E-06
C:/temp/dataset/4/16_2.odb,Step-1,Increment      1: Step Time =    1.000,"PART-1-1",           289,      -6.23847,       27.8360,            0.,NA,NA,"",       7.02635,      -6.55213,      -2.53756,   8.86047E-06
C:/temp/dataset/4/16_2.odb,Step-1,Increment      1: Step Time =    1.000,"PART-1-1",           290,      -8.20013,       25.3620,            0.,NA,NA,"",       6.74522,      -6.12652,      -2.82201,   34.6012E-06
C:/temp/dataset/4/16_2.odb,Step-1,Increment      1: Step Time =    1.000,"PART-1-1",           291,      -8.98257,       24.1636,            0.,NA,NA,"",       6.60888,      -5.92257,      -2.93265,   54.1628E-06
C:/temp/dataset/4/16_2.odb,Step-1,Increment      1: Step Time =    1.000,"PART-1-1",           292,      -7.83587,       23.3915,            0.,NA,NA,"",       6.42506,      -5.81283,      -2.73721,   56.0454E-06
C:/temp/dataset/4/16_2.odb,Step-1,Increment      1: Step Time =    1.000,"PART-1-1",           293,      -7.05344,       24.5900,            0.,NA,NA,"",       6.56511,      -6.01679,      -2.62658,   50.6201E-06
C:/temp/dataset/4/16_2.odb,Step-1,Increment      1: Step Time =    1.000,"PART-1-1",           294,      -6.78951,       20.5788,            0.,NA,NA,"",       5.93864,      -5.37217,      -2.53125,   74.7072E-06
C:/temp/dataset/4/16_2.odb,Step-1,Increment      1: Step Time =    1.000,"PART-1-1",           295,      -5.89603,       19.5861,            0.,NA,NA,"",       5.73801,      -5.22376,      -2.37426,   210.602E-06
C:/temp/dataset/4/16_2.odb,Step-1,Increment      1: Step Time =    1.000,"PART-1-1",           296,           -5.,        20.625,            0.,NA,NA,"",       5.85031,      -5.40318,      -2.24316,   239.612E-06
C:/temp/dataset/4/16_2.odb,Step-1,Increment      1: Step Time =    1.000,"PART-1-1",           297,      -5.89348,       21.6177,            0.,NA,NA,"",       6.04836,      -5.55171,      -2.40025,   106.957E-06
C:/temp/dataset/4/16_2.odb,Step-1,Increment      1: Step Time =    1.000,"PART-1-1",           298,      -7.97413,       13.6001,            0.,NA,NA,"",       4.97967,      -4.22570,      -2.63450,   2.61097E-03
C:/temp/dataset/4/16_2.odb,Step-1,Increment      1: Step Time =    1.000,"PART-1-1",           299,      -8.98702,       12.6704,            0.,NA,NA,"",       4.92252,      -4.05860,      -2.78550,   2.83761E-03
C:/temp/dataset/4/16_2.odb,Step-1,Increment      1: Step Time =    1.000,"PART-1-1",           300,      -8.00249,       11.5116,            0.,NA,NA,"",       4.67991,      -3.88209,      -2.61361,   3.15063E-03
C:/temp/dataset/4/16_2.odb,Step-1,Increment      1: Step Time =    1.000,"PART-1-1",           301,      -6.98959,       12.4413,            0.,NA,NA,"",       4.73961,      -4.04994,      -2.46209,   3.09223E-03
C:/temp/dataset/4/16_2.odb,Step-1,Increment      1: Step Time =    1.000,"PART-1-1",           302,      -9.95004,      -1.64066,            0.,NA,NA,"",       3.29337,      -1.80804,      -2.75268,   3.91570E-03
C:/temp/dataset/4/16_2.odb,Step-1,Increment      1: Step Time =    1.000,"PART-1-1",           303,      -11.1983,  -513.068E-03,            0.,NA,NA,"",       3.54762,      -1.95967,      -2.95725,   3.83043E-03
C:/temp/dataset/4/16_2.odb,Step-1,Increment      1: Step Time =    1.000,"PART-1-1",           304,      -12.5325,      -1.72297,            0.,NA,NA,"",       3.60850,      -1.76438,      -3.14774,   2.73488E-03
C:/temp/dataset/4/16_2.odb,Step-1,Increment      1: Step Time =    1.000,"PART-1-1",           305,      -11.2842,      -2.85056,            0.,NA,NA,"",       3.35621,      -1.61160,      -2.94396,   2.88409E-03
C:/temp/dataset/4/16_2.odb,Step-1,Increment      1: Step Time =    1.000,"PART-1-1",           306,      -10.2834,   741.336E-03,            0.,NA,NA,"",       3.55852,      -2.15595,      -2.83107,   4.04780E-03
C:/temp/dataset/4/16_2.odb,Step-1,Increment      1: Step Time =    1.000,"PART-1-1",           307,      -11.7661,       1.72477,            0.,NA,NA,"",       3.83031,      -2.28654,      -3.07295,   3.66403E-03
C:/temp/dataset/4/16_2.odb,Step-1,Increment      1: Step Time =    1.000,"PART-1-1",           308,      -12.6810,   470.366E-03,            0.,NA,NA,"",       3.81963,      -2.08918,      -3.19764,   3.42200E-03
C:/temp/dataset/4/16_2.odb,Step-1,Increment      1: Step Time =    1.000,"PART-1-1",           309,         -1.25,           -5.,            0.,NA,NA,"",       2.05539,      -1.45543,      -1.45133,   9.20653E-03
C:/temp/dataset/4/16_2.odb,Step-1,Increment      1: Step Time =    1.000,"PART-1-1",           310,  -165.329E-03,      -4.13131,            0.,NA,NA,"",       2.06183,      -1.59328,      -1.30866,   7.52459E-03
C:/temp/dataset/4/16_2.odb,Step-1,Increment      1: Step Time =    1.000,"PART-1-1",           311,      -1.46228,      -3.26668,            0.,NA,NA,"",       2.25584,      -1.69257,      -1.49132,   5.74324E-03
C:/temp/dataset/4/16_2.odb,Step-1,Increment      1: Step Time =    1.000,"PART-1-1",           312,      -2.54695,      -4.13537,            0.,NA,NA,"",       2.25661,      -1.55409,      -1.63618,   7.43437E-03
C:/temp/dataset/4/16_2.odb,Step-1,Increment      1: Step Time =    1.000,"PART-1-1",           313,   769.081E-03,      -3.16387,            0.,NA,NA,"",       2.10637,      -1.73878,      -1.18889,   5.55774E-03
C:/temp/dataset/4/16_2.odb,Step-1,Increment      1: Step Time =    1.000,"PART-1-1",           314,          1.25,           -5.,            0.,NA,NA,"",       1.86742,      -1.49858,      -1.11424,   9.28044E-03
C:/temp/dataset/4/16_2.odb,Step-1,Increment      1: Step Time =    1.000,"PART-1-1",           315,       2.18441,      -4.03256,            0.,NA,NA,"",       1.92169,      -1.64408,  -994.939E-03,   7.48659E-03
C:/temp/dataset/4/16_2.odb,Step-1,Increment      1: Step Time =    1.000,"PART-1-1",           316,       1.54561,       3.01681,            0.,NA,NA,"",       2.80829,      -2.56461,      -1.14425,   7.80231E-03
C:/temp/dataset/4/16_2.odb,Step-1,Increment      1: Step Time =    1.000,"PART-1-1",           317,       2.64536,       4.01417,            0.,NA,NA,"",       2.87756,      -2.69368,      -1.01215,   10.3206E-03
C:/temp/dataset/4/16_2.odb,Step-1,Increment      1: Step Time =    1.000,"PART-1-1",           318,          1.25,            5.,            0.,NA,NA,"",       3.07263,      -2.82434,      -1.21004,   12.6722E-03
C:/temp/dataset/4/16_2.odb,Step-1,Increment      1: Step Time =    1.000,"PART-1-1",           319,   150.245E-03,       4.00264,            0.,NA,NA,"",       3.01018,      -2.69353,      -1.34390,   10.2809E-03
C:/temp/dataset/4/16_2.odb,Step-1,Increment      1: Step Time =    1.000,"PART-1-1",           320,   179.474E-03,      -1.21124,            0.,NA,NA,"",       2.37167,      -1.99471,      -1.28294,   1.64046E-03
C:/temp/dataset/4/16_2.odb,Step-1,Increment      1: Step Time =    1.000,"PART-1-1",           321,  -580.901E-03,      -2.30818,            0.,NA,NA,"",       2.29580,      -1.83674,      -1.37734,   3.98155E-03
C:/temp/dataset/4/16_2.odb,Step-1,Increment      1: Step Time =    1.000,"PART-1-1",           322,       1.52946,      -2.06693,            0.,NA,NA,"",       2.18912,      -1.89523,      -1.09562,   3.58658E-03
C:/temp/dataset/4/16_2.odb,Step-1,Increment      1: Step Time =    1.000,"PART-1-1",           323,       12.7868,      -3.71378,            0.,NA,NA,"",       1.79634,      -1.78061,   237.216E-03,   8.23929E-03
C:/temp/dataset/4/16_2.odb,Step-1,Increment      1: Step Time =    1.000,"PART-1-1",           324,       13.8814,      -5.00619,            0.,NA,NA,"",       1.67961,      -1.64157,   355.465E-03,   10.9754E-03
C:/temp/dataset/4/16_2.odb,Step-1,Increment      1: Step Time =    1.000,"PART-1-1",           325,           15.,         -3.75,            0.,NA,NA,"",       1.86383,      -1.79961,   485.042E-03,   11.7165E-03
C:/temp/dataset/4/16_2.odb,Step-1,Increment      1: Step Time =    1.000,"PART-1-1",           326,       13.9054,      -2.45760,            0.,NA,NA,"",       1.97415,      -1.94074,   361.654E-03,   8.11172E-03
C:/temp/dataset/4/16_2.odb,Step-1,Increment      1: Step Time =    1.000,"PART-1-1",           327,       5.10003,      -1.40311,            0.,NA,NA,"",       2.11287,      -2.01261,  -643.134E-03,   5.18373E-03
C:/temp/dataset/4/16_2.odb,Step-1,Increment      1: Step Time =    1.000,"PART-1-1",           328,       3.80913,  -775.561E-03,            0.,NA,NA,"",       2.23653,      -2.08424,  -811.173E-03,   2.85951E-03
C:/temp/dataset/4/16_2.odb,Step-1,Increment      1: Step Time =    1.000,"PART-1-1",           329,       3.52110,      -1.80919,            0.,NA,NA,"",       2.12168,      -1.94936,  -837.554E-03,   2.35174E-03
C:/temp/dataset/4/16_2.odb,Step-1,Increment      1: Step Time =    1.000,"PART-1-1",           330,       4.81200,      -2.43673,            0.,NA,NA,"",       1.99566,      -1.88101,  -666.683E-03,   3.99135E-03
C:/temp/dataset/4/16_2.odb,Step-1,Increment      1: Step Time =    1.000,"PART-1-1",           331,           15.,          3.75,            0.,NA,NA,"",       2.74557,      -2.70531,   468.444E-03,   957.711E-06
C:/temp/dataset/4/16_2.odb,Step-1,Increment      1: Step Time =    1.000,"PART-1-1",           332,       13.8386,       5.14064,            0.,NA,NA,"",       2.88241,      -2.86464,   319.612E-03,   696.292E-06
C:/temp/dataset/4/16_2.odb,Step-1,Increment      1: Step Time =    1.000,"PART-1-1",           333,       12.6076,       4.00525,            0.,NA,NA,"",       2.72477,      -2.71872,   181.471E-03,   2.45516E-03
C:/temp/dataset/4/16_2.odb,Step-1,Increment      1: Step Time =    1.000,"PART-1-1",           334,       13.7689,       2.61462,            0.,NA,NA,"",       2.57873,      -2.55779,   327.917E-03,   2.36872E-03
C:/temp/dataset/4/16_2.odb,Step-1,Increment      1: Step Time =    1.000,"PART-1-1",           335,       9.76439,       8.40859,            0.,NA,NA,"",       3.23237,      -3.22697,  -186.813E-03,   268.015E-06
C:/temp/dataset/4/16_2.odb,Step-1,Increment      1: Step Time =    1.000,"PART-1-1",           336,       8.59642,       7.53369,            0.,NA,NA,"",       3.13225,      -3.11600,  -318.646E-03,   891.062E-06
C:/temp/dataset/4/16_2.odb,Step-1,Increment      1: Step Time =    1.000,"PART-1-1",           337,       9.44563,       6.06261,            0.,NA,NA,"",       2.95462,      -2.94735,  -207.156E-03,   1.64630E-03
C:/temp/dataset/4/16_2.odb,Step-1,Increment      1: Step Time =    1.000,"PART-1-1",           338,       10.6136,       6.93751,            0.,NA,NA,"",       3.05919,      -3.05825,  -75.7585E-03,   969.617E-06
C:/temp/dataset/4/16_2.odb,Step-1,Increment      1: Step Time =    1.000,"PART-1-1",           339,       5.92452,       9.07762,            0.,NA,NA,"",       3.34207,      -3.27948,  -643.810E-03,   355.570E-06
C:/temp/dataset/4/16_2.odb,Step-1,Increment      1: Step Time =    1.000,"PART-1-1",           340,            5.,         8.125,            0.,NA,NA,"",       3.24806,      -3.16144,  -745.103E-03,   765.837E-06
C:/temp/dataset/4/16_2.odb,Step-1,Increment      1: Step Time =    1.000,"PART-1-1",           341,       5.83838,       7.03541,            0.,NA,NA,"",       3.10690,      -3.04035,  -639.618E-03,   1.13307E-03
C:/temp/dataset/4/16_2.odb,Step-1,Increment      1: Step Time =    1.000,"PART-1-1",           342,       6.76290,       7.98803,            0.,NA,NA,"",       3.20280,      -3.15732,  -537.821E-03,   438.028E-06
C:/temp/dataset/4/16_2.odb,Step-1,Increment      1: Step Time =    1.000,"PART-1-1",           343,       6.00358,       15.4027,            0.,NA,NA,"",       4.08399,      -4.02707,  -679.453E-03,   31.8860E-06
C:/temp/dataset/4/16_2.odb,Step-1,Increment      1: Step Time =    1.000,"PART-1-1",           344,            5.,        14.375,            0.,NA,NA,"",       3.97798,      -3.89858,  -790.813E-03,   71.4308E-06
C:/temp/dataset/4/16_2.odb,Step-1,Increment      1: Step Time =    1.000,"PART-1-1",           345,       5.99171,       13.2884,            0.,NA,NA,"",       3.83532,      -3.77706,  -665.952E-03,   87.7192E-06
C:/temp/dataset/4/16_2.odb,Step-1,Increment      1: Step Time =    1.000,"PART-1-1",           346,       6.99529,       14.3161,            0.,NA,NA,"",       3.94476,      -3.90557,  -554.663E-03,   79.1699E-06
C:/temp/dataset/4/16_2.odb,Step-1,Increment      1: Step Time =    1.000,"PART-1-1",           347,       11.7328,       24.6815,            0.,NA,NA,"",       5.16428,      -5.16384,  -67.4568E-03,   465.739E-09
C:/temp/dataset/4/16_2.odb,Step-1,Increment      1: Step Time =    1.000,"PART-1-1",           348,       12.6496,       26.1279,            0.,NA,NA,"",       5.34128,      -5.34119,   30.7512E-03,   431.856E-09
C:/temp/dataset/4/16_2.odb,Step-1,Increment      1: Step Time =    1.000,"PART-1-1",           349,       11.2054,       27.2635,            0.,NA,NA,"",       5.46728,      -5.46528,  -147.868E-03,   267.449E-09
C:/temp/dataset/4/16_2.odb,Step-1,Increment      1: Step Time =    1.000,"PART-1-1",           350,       10.2886,       25.8171,            0.,NA,NA,"",       5.29365,      -5.28793,  -246.076E-03,   379.438E-09
C:/temp/dataset/4/16_2.odb,Step-1,Increment      1: Step Time =    1.000,"PART-1-1",           351,       12.5134,       28.7000,            0.,NA,NA,"",       5.64421,      -5.64421,  -3.36479E-03,   217.977E-09
C:/temp/dataset/4/16_2.odb,Step-1,Increment      1: Step Time =    1.000,"PART-1-1",           352,       13.7634,       27.4500,            0.,NA,NA,"",       5.50737,      -5.50524,   153.114E-03,   217.438E-09
C:/temp/dataset/4/16_2.odb,Step-1,Increment      1: Step Time =    1.000,"PART-1-1",           353,           15.,         28.75,            0.,NA,NA,"",       5.67496,      -5.66754,   290.141E-03,   67.8782E-09
C:/temp/dataset/4/16_2.odb,Step-1,Increment      1: Step Time =    1.000,"PART-1-1",           354,         13.75,           30.,            0.,NA,NA,"",       5.80803,      -5.80650,   133.662E-03,   52.9934E-09
C:/temp/dataset/4/16_2.odb,Step-1,Increment      1: Step Time =    1.000,"PART-1-1",           355,      -3.83569,      -2.96698,            0.,NA,NA,"",       2.49561,      -1.69962,      -1.82739,   4.98652E-03
C:/temp/dataset/4/16_2.odb,Step-1,Increment      1: Step Time =    1.000,"PART-1-1",           356,      -2.47303,      -2.56070,            0.,NA,NA,"",       2.41590,      -1.77654,      -1.63722,   4.38335E-03
C:/temp/dataset/4/16_2.odb,Step-1,Increment      1: Step Time =    1.000,"PART-1-1",           357,      -2.95938,      -1.35275,            0.,NA,NA,"",       2.58942,      -1.93962,      -1.71551,   2.64869E-03
C:/temp/dataset/4/16_2.odb,Step-1,Increment      1: Step Time =    1.000,"PART-1-1",           358,      -4.32205,      -1.75903,            0.,NA,NA,"",       2.66746,      -1.86488,      -1.90724,   3.40170E-03
C:/temp/dataset/4/16_2.odb,Step-1,Increment      1: Step Time =    1.000,"PART-1-1",           359,       8.60967,      -7.25473,            0.,NA,NA,"",       1.36406,      -1.35128,  -186.304E-03,   4.50193E-03
C:/temp/dataset/4/16_2.odb,Step-1,Increment      1: Step Time =    1.000,"PART-1-1",           360,       7.51358,      -6.44375,            0.,NA,NA,"",       1.46477,      -1.43218,  -307.298E-03,   6.85595E-03
C:/temp/dataset/4/16_2.odb,Step-1,Increment      1: Step Time =    1.000,"PART-1-1",           361,       6.75300,      -7.77251,            0.,NA,NA,"",       1.34396,      -1.29248,  -368.418E-03,   10.9411E-03
C:/temp/dataset/4/16_2.odb,Step-1,Increment      1: Step Time =    1.000,"PART-1-1",           362,       7.84909,      -8.58350,            0.,NA,NA,"",       1.23774,      -1.21252,  -248.601E-03,   7.66740E-03
C:/temp/dataset/4/16_2.odb,Step-1,Increment      1: Step Time =    1.000,"PART-1-1",           363,       7.07130,      -14.2100,            0.,NA,NA,"",   742.810E-03,  -701.818E-03,  -243.348E-03,   12.8930E-03
C:/temp/dataset/4/16_2.odb,Step-1,Increment      1: Step Time =    1.000,"PART-1-1",           364,       6.02882,      -13.2279,            0.,NA,NA,"",   858.068E-03,  -786.007E-03,  -344.199E-03,   16.6994E-03
C:/temp/dataset/4/16_2.odb,Step-1,Increment      1: Step Time =    1.000,"PART-1-1",           365,            5.,       -14.375,            0.,NA,NA,"",   807.381E-03,  -698.285E-03,  -405.292E-03,   21.8430E-03
C:/temp/dataset/4/16_2.odb,Step-1,Increment      1: Step Time =    1.000,"PART-1-1",           366,       6.04247,      -15.3570,            0.,NA,NA,"",   686.858E-03,  -616.297E-03,  -303.235E-03,   17.9121E-03
C:/temp/dataset/4/16_2.odb,Step-1,Increment      1: Step Time =    1.000,"PART-1-1",           367,       7.02995,      -12.0379,            0.,NA,NA,"",   928.598E-03,  -885.796E-03,  -278.675E-03,   12.1359E-03
C:/temp/dataset/4/16_2.odb,Step-1,Increment      1: Step Time =    1.000,"PART-1-1",           368,       6.00113,      -11.1016,            0.,NA,NA,"",       1.04594,  -972.262E-03,  -385.624E-03,   15.5324E-03
C:/temp/dataset/4/16_2.odb,Step-1,Increment      1: Step Time =    1.000,"PART-1-1",           369,            5.,      -12.2917,            0.,NA,NA,"",   980.870E-03,  -870.555E-03,  -451.930E-03,   20.2275E-03
C:/temp/dataset/4/16_2.odb,Step-1,Increment      1: Step Time =    1.000,"PART-1-1",           370,            5.,      -22.7083,            0.,NA,NA,"",   277.214E-03,  -190.138E-03,  -201.730E-03,   28.1211E-03
C:/temp/dataset/4/16_2.odb,Step-1,Increment      1: Step Time =    1.000,"PART-1-1",           371,       6.05922,      -23.7899,            0.,NA,NA,"",   191.119E-03,  -136.168E-03,  -134.107E-03,   22.7626E-03
C:/temp/dataset/4/16_2.odb,Step-1,Increment      1: Step Time =    1.000,"PART-1-1",           372,       7.11013,      -22.7834,            0.,NA,NA,"",   201.941E-03,  -167.663E-03,  -112.558E-03,   16.3072E-03
C:/temp/dataset/4/16_2.odb,Step-1,Increment      1: Step Time =    1.000,"PART-1-1",           373,       6.05091,      -21.7018,            0.,NA,NA,"",   286.108E-03,  -224.122E-03,  -177.840E-03,   21.5718E-03
C:/temp/dataset/4/16_2.odb,Step-1,Increment      1: Step Time =    1.000,"PART-1-1",           374,          8.75,          -30.,            0.,NA,NA,"",            0.,   3.51902E-39,  -12.4532E-39,   6.72877E-03
C:/temp/dataset/4/16_2.odb,Step-1,Increment      1: Step Time =    1.000,"PART-1-1",           375,       9.84988,      -28.9274,            0.,NA,NA,"",   743.434E-06,   568.643E-06,  -478.893E-06,   841.966E-06
C:/temp/dataset/4/16_2.odb,Step-1,Increment      1: Step Time =    1.000,"PART-1-1",           376,       8.52411,      -27.9095,            0.,NA,NA,"",   18.4902E-03,  -11.4387E-03,  -14.5273E-03,   9.75972E-03
C:/temp/dataset/4/16_2.odb,Step-1,Increment      1: Step Time =    1.000,"PART-1-1",           377,       7.42422,      -28.9821,            0.,NA,NA,"",   12.1271E-03,  -2.48337E-03,  -11.8701E-03,   14.2871E-03
C:/temp/dataset/4/16_2.odb,Step-1,Increment      1: Step Time =    1.000,"PART-1-1",           378,       10.1104,      -23.9794,            0.,NA,NA,"",   112.046E-03,  -111.989E-03,   3.56168E-03,   3.42709E-03
C:/temp/dataset/4/16_2.odb,Step-1,Increment      1: Step Time =    1.000,"PART-1-1",           379,       11.1261,      -23.0268,            0.,NA,NA,"",   157.821E-03,  -152.398E-03,   41.0137E-03,   7.47467E-03
C:/temp/dataset/4/16_2.odb,Step-1,Increment      1: Step Time =    1.000,"PART-1-1",           380,       10.1523,      -21.9025,            0.,NA,NA,"",   200.278E-03,  -200.211E-03,   5.16626E-03,   3.41824E-03
C:/temp/dataset/4/16_2.odb,Step-1,Increment      1: Step Time =    1.000,"PART-1-1",           381,       9.13660,      -22.8552,            0.,NA,NA,"",   160.385E-03,  -156.913E-03,  -33.1929E-03,   5.74711E-03
C:/temp/dataset/4/16_2.odb,Step-1,Increment      1: Step Time =    1.000,"PART-1-1",           382,       7.09296,      -18.5383,            0.,NA,NA,"",   429.661E-03,  -391.169E-03,  -177.751E-03,   14.6064E-03
C:/temp/dataset/4/16_2.odb,Step-1,Increment      1: Step Time =    1.000,"PART-1-1",           383,       6.04465,      -17.4814,            0.,NA,NA,"",   534.096E-03,  -465.232E-03,  -262.331E-03,   19.1501E-03
C:/temp/dataset/4/16_2.odb,Step-1,Increment      1: Step Time =    1.000,"PART-1-1",           384,            5.,      -18.5417,            0.,NA,NA,"",   508.695E-03,  -405.651E-03,  -306.950E-03,   25.0254E-03
C:/temp/dataset/4/16_2.odb,Step-1,Increment      1: Step Time =    1.000,"PART-1-1",           385,       6.04831,      -19.5985,            0.,NA,NA,"",   400.243E-03,  -334.052E-03,  -220.462E-03,   20.3708E-03
C:/temp/dataset/4/16_2.odb,Step-1,Increment      1: Step Time =    1.000,"PART-1-1",           386,       8.88188,       22.9635,            0.,NA,NA,"",       4.95638,      -4.94083,  -392.324E-03,   569.489E-09
C:/temp/dataset/4/16_2.odb,Step-1,Increment      1: Step Time =    1.000,"PART-1-1",           387,       9.93448,       22.0483,            0.,NA,NA,"",       4.84712,      -4.84006,  -261.519E-03,   925.948E-09
C:/temp/dataset/4/16_2.odb,Step-1,Increment      1: Step Time =    1.000,"PART-1-1",           388,       10.8087,       23.3359,            0.,NA,NA,"",       5.00115,      -4.99835,  -167.234E-03,   491.851E-09
C:/temp/dataset/4/16_2.odb,Step-1,Increment      1: Step Time =    1.000,"PART-1-1",           389,       9.75606,       24.2511,            0.,NA,NA,"",       5.10783,      -5.09912,  -298.040E-03,   468.350E-09
C:/temp/dataset/4/16_2.odb,Step-1,Increment      1: Step Time =    1.000,"PART-1-1",           390,       10.0218,       17.5512,            0.,NA,NA,"",       4.31481,      -4.30922,  -219.709E-03,   19.0782E-06
C:/temp/dataset/4/16_2.odb,Step-1,Increment      1: Step Time =    1.000,"PART-1-1",           391,       9.00837,       16.4411,            0.,NA,NA,"",       4.18407,      -4.17090,  -331.705E-03,   39.0606E-06
C:/temp/dataset/4/16_2.odb,Step-1,Increment      1: Step Time =    1.000,"PART-1-1",           392,       10.0249,       15.2736,            0.,NA,NA,"",       4.04520,      -4.04008,  -203.450E-03,   53.8825E-06
C:/temp/dataset/4/16_2.odb,Step-1,Increment      1: Step Time =    1.000,"PART-1-1",           393,       11.0383,       16.3837,            0.,NA,NA,"",       4.17940,      -4.17840,  -91.4233E-03,   39.4136E-06
C:/temp/dataset/4/16_2.odb,Step-1,Increment      1: Step Time =    1.000,"PART-1-1",           394,      -14.0638,       5.89996,            0.,NA,NA,"",       4.54175,      -2.90301,      -3.49285,   4.69896E-03
C:/temp/dataset/4/16_2.odb,Step-1,Increment      1: Step Time =    1.000,"PART-1-1",           395,      -13.1194,       6.91794,            0.,NA,NA,"",       4.55410,      -3.07357,      -3.36050,   3.44482E-03
C:/temp/dataset/4/16_2.odb,Step-1,Increment      1: Step Time =    1.000,"PART-1-1",           396,      -14.0556,       8.04923,            0.,NA,NA,"",       4.79172,      -3.24363,      -3.52696,   3.96040E-03
C:/temp/dataset/4/16_2.odb,Step-1,Increment      1: Step Time =    1.000,"PART-1-1",           397,          -15.,       7.03125,            0.,NA,NA,"",       4.77832,      -3.07160,      -3.66028,   5.34692E-03
C:/temp/dataset/4/16_2.odb,Step-1,Increment      1: Step Time =    1.000,"PART-1-1",           398,      -14.0181,       12.3521,            0.,NA,NA,"",       5.32913,      -3.94039,      -3.58788,   1.66960E-03
C:/temp/dataset/4/16_2.odb,Step-1,Increment      1: Step Time =    1.000,"PART-1-1",           399,      -13.0189,       13.2775,            0.,NA,NA,"",       5.35495,      -4.10397,      -3.43990,   1.66876E-03
C:/temp/dataset/4/16_2.odb,Step-1,Increment      1: Step Time =    1.000,"PART-1-1",           400,      -14.0008,       14.5192,            0.,NA,NA,"",       5.61352,      -4.29373,      -3.61600,   785.173E-06
C:/temp/dataset/4/16_2.odb,Step-1,Increment      1: Step Time =    1.000,"PART-1-1",           401,          -15.,       13.5938,            0.,NA,NA,"",       5.58887,      -4.13010,      -3.76533,   1.07690E-03
C:/temp/dataset/4/16_2.odb,Step-1,Increment      1: Step Time =    1.000,"PART-1-1",           402,      -10.1942,       21.9572,            0.,NA,NA,"",       6.35689,      -5.55015,      -3.09935,   64.9967E-06
C:/temp/dataset/4/16_2.odb,Step-1,Increment      1: Step Time =    1.000,"PART-1-1",           403,      -9.14995,       21.4132,            0.,NA,NA,"",       6.20745,      -5.47596,      -2.92341,   70.5000E-06
C:/temp/dataset/4/16_2.odb,Step-1,Increment      1: Step Time =    1.000,"PART-1-1",           404,      -8.60578,       22.3365,            0.,NA,NA,"",       6.31123,      -5.63226,      -2.84767,   69.6588E-06
C:/temp/dataset/4/16_2.odb,Step-1,Increment      1: Step Time =    1.000,"PART-1-1",           405,      -9.65000,       22.8805,            0.,NA,NA,"",       6.45802,      -5.70648,      -3.02358,   60.2035E-06
C:/temp/dataset/4/16_2.odb,Step-1,Increment      1: Step Time =    1.000,"PART-1-1",           406,      -14.0213,       25.7108,            0.,NA,NA,"",       7.17511,      -6.10643,      -3.76744,   21.9737E-06
C:/temp/dataset/4/16_2.odb,Step-1,Increment      1: Step Time =    1.000,"PART-1-1",           407,      -12.8802,       26.8172,            0.,NA,NA,"",       7.25503,      -6.30024,      -3.59755,   22.1063E-06
C:/temp/dataset/4/16_2.odb,Step-1,Increment      1: Step Time =    1.000,"PART-1-1",           408,      -13.8589,       27.8252,            0.,NA,NA,"",       7.47069,      -6.45027,      -3.76898,   8.30974E-06
C:/temp/dataset/4/16_2.odb,Step-1,Increment      1: Step Time =    1.000,"PART-1-1",           409,          -15.,       26.7188,            0.,NA,NA,"",       7.39309,      -6.25646,      -3.93885,   14.5257E-06
C:/temp/dataset/4/16_2.odb,Step-1,Increment      1: Step Time =    1.000,"PART-1-1",           410,        -13.75,           30.,            0.,NA,NA,"",       7.78275,      -6.80317,      -3.77996,   1.75721E-06
C:/temp/dataset/4/16_2.odb,Step-1,Increment      1: Step Time =    1.000,"PART-1-1",           411,          -15.,       28.9063,            0.,NA,NA,"",       7.70932,      -6.60997,      -3.96760,   1.86543E-06
C:/temp/dataset/4/16_2.odb,Step-1,Increment      1: Step Time =    1.000,"PART-1-1",           412,      -12.6089,       28.9190,            0.,NA,NA,"",       7.54728,      -6.64346,      -3.58133,   9.23464E-06
C:/temp/dataset/4/16_2.odb,Step-1,Increment      1: Step Time =    1.000,"PART-1-1",           413,      -11.4362,       27.6040,            0.,NA,NA,"",       7.27618,      -6.44636,      -3.37450,   14.7824E-06
C:/temp/dataset/4/16_2.odb,Step-1,Increment      1: Step Time =    1.000,"PART-1-1",           414,      -10.0773,       28.6850,            0.,NA,NA,"",       7.35651,      -6.63891,      -3.16909,   13.8040E-06
C:/temp/dataset/4/16_2.odb,Step-1,Increment      1: Step Time =    1.000,"PART-1-1",           415,        -11.25,           30.,            0.,NA,NA,"",       7.62417,      -6.83602,      -3.37592,   8.80844E-06
C:/temp/dataset/4/16_2.odb,Step-1,Increment      1: Step Time =    1.000,"PART-1-1",           416,      -13.7240,       21.2404,            0.,NA,NA,"",       6.51377,      -5.38778,      -3.66074,   73.4508E-06
C:/temp/dataset/4/16_2.odb,Step-1,Increment      1: Step Time =    1.000,"PART-1-1",           417,      -12.6979,       22.4429,            0.,NA,NA,"",       6.60578,      -5.59573,      -3.51057,   54.0803E-06
C:/temp/dataset/4/16_2.odb,Step-1,Increment      1: Step Time =    1.000,"PART-1-1",           418,      -13.9739,       23.5463,            0.,NA,NA,"",       6.86071,      -5.75727,      -3.73138,   49.5700E-06
C:/temp/dataset/4/16_2.odb,Step-1,Increment      1: Step Time =    1.000,"PART-1-1",           419,          -15.,       22.3438,            0.,NA,NA,"",       6.77212,      -5.54935,      -3.88153,   100.653E-06
C:/temp/dataset/4/16_2.odb,Step-1,Increment      1: Step Time =    1.000,"PART-1-1",           420,      -11.9375,       16.3352,            0.,NA,NA,"",       5.67885,      -4.61655,      -3.30707,   764.251E-06
C:/temp/dataset/4/16_2.odb,Step-1,Increment      1: Step Time =    1.000,"PART-1-1",           421,      -10.8584,       17.1847,            0.,NA,NA,"",       5.71218,      -4.76907,      -3.14405,   685.617E-06
C:/temp/dataset/4/16_2.odb,Step-1,Increment      1: Step Time =    1.000,"PART-1-1",           422,      -11.8099,       18.4796,            0.,NA,NA,"",       5.97090,      -4.96628,      -3.31477,   249.990E-06
C:/temp/dataset/4/16_2.odb,Step-1,Increment      1: Step Time =    1.000,"PART-1-1",           423,      -12.8889,       17.6301,            0.,NA,NA,"",       5.93915,      -4.81421,      -3.47805,   336.422E-06
C:/temp/dataset/4/16_2.odb,Step-1,Increment      1: Step Time =    1.000,"PART-1-1",           424,      -9.98079,       13.8692,            0.,NA,NA,"",       5.17185,      -4.24109,      -2.95992,   2.15839E-03
C:/temp/dataset/4/16_2.odb,Step-1,Increment      1: Step Time =    1.000,"PART-1-1",           425,      -11.0142,       12.9724,            0.,NA,NA,"",       5.13269,      -4.08029,      -3.11380,   2.29095E-03
C:/temp/dataset/4/16_2.odb,Step-1,Increment      1: Step Time =    1.000,"PART-1-1",           426,      -10.0204,       11.7735,            0.,NA,NA,"",       4.88129,      -3.89725,      -2.93913,   2.88742E-03
C:/temp/dataset/4/16_2.odb,Step-1,Increment      1: Step Time =    1.000,"PART-1-1",           427,      -6.95613,       14.5250,            0.,NA,NA,"",       5.04473,      -4.39206,      -2.48175,   2.34480E-03
C:/temp/dataset/4/16_2.odb,Step-1,Increment      1: Step Time =    1.000,"PART-1-1",           428,      -5.98929,       13.4097,            0.,NA,NA,"",       4.81551,      -4.22428,      -2.31183,   2.34811E-03
C:/temp/dataset/4/16_2.odb,Step-1,Increment      1: Step Time =    1.000,"PART-1-1",           429,           -5.,        14.375,            0.,NA,NA,"",       4.90025,      -4.39691,      -2.16324,   1.86943E-03
C:/temp/dataset/4/16_2.odb,Step-1,Increment      1: Step Time =    1.000,"PART-1-1",           430,      -5.96684,       15.4903,            0.,NA,NA,"",       5.12605,      -4.56389,      -2.33395,   1.98929E-03
C:/temp/dataset/4/16_2.odb,Step-1,Increment      1: Step Time =    1.000,"PART-1-1",           431,      -11.0581,       10.8707,            0.,NA,NA,"",       4.84966,      -3.73591,      -3.09229,   2.88967E-03
C:/temp/dataset/4/16_2.odb,Step-1,Increment      1: Step Time =    1.000,"PART-1-1",           432,      -10.0579,       9.67932,            0.,NA,NA,"",       4.59797,      -3.55393,      -2.91735,   3.19078E-03
C:/temp/dataset/4/16_2.odb,Step-1,Increment      1: Step Time =    1.000,"PART-1-1",           433,      -9.02030,       10.5821,            0.,NA,NA,"",       4.63088,      -3.71521,      -2.76447,   3.30069E-03
C:/temp/dataset/4/16_2.odb,Step-1,Increment      1: Step Time =    1.000,"PART-1-1",           434,      -7.04064,       8.20966,            0.,NA,NA,"",       4.13501,      -3.35240,      -2.42069,   4.03925E-03
C:/temp/dataset/4/16_2.odb,Step-1,Increment      1: Step Time =    1.000,"PART-1-1",           435,      -6.03068,       7.10065,            0.,NA,NA,"",       3.89768,      -3.18376,      -2.24846,   5.29137E-03
C:/temp/dataset/4/16_2.odb,Step-1,Increment      1: Step Time =    1.000,"PART-1-1",           436,           -5.,         8.125,            0.,NA,NA,"",       3.96481,      -3.36881,      -2.09065,   4.73774E-03
C:/temp/dataset/4/16_2.odb,Step-1,Increment      1: Step Time =    1.000,"PART-1-1",           437,      -6.00996,       9.23401,            0.,NA,NA,"",       4.19946,      -3.53549,      -2.26622,   3.17384E-03
C:/temp/dataset/4/16_2.odb,Step-1,Increment      1: Step Time =    1.000,"PART-1-1",           438,      -13.0926,       9.02789,            0.,NA,NA,"",       4.80899,      -3.41180,      -3.38910,   3.09127E-03
C:/temp/dataset/4/16_2.odb,Step-1,Increment      1: Step Time =    1.000,"PART-1-1",           439,      -14.0370,       10.1974,            0.,NA,NA,"",       5.05463,      -3.58992,      -3.55833,   2.81566E-03
C:/temp/dataset/4/16_2.odb,Step-1,Increment      1: Step Time =    1.000,"PART-1-1",           440,          -15.,       9.21875,            0.,NA,NA,"",       5.03743,      -3.42073,      -3.69788,   3.99796E-03
C:/temp/dataset/4/16_2.odb,Step-1,Increment      1: Step Time =    1.000,"PART-1-1",           441,      -13.9055,       1.56280,            0.,NA,NA,"",       4.07175,      -2.23973,      -3.40040,   3.66087E-03
C:/temp/dataset/4/16_2.odb,Step-1,Increment      1: Step Time =    1.000,"PART-1-1",           442,      -12.9296,       2.64306,            0.,NA,NA,"",       4.06029,      -2.41274,      -3.26568,   3.47715E-03
C:/temp/dataset/4/16_2.odb,Step-1,Increment      1: Step Time =    1.000,"PART-1-1",           443,      -14.0241,       3.73651,            0.,NA,NA,"",       4.30215,      -2.56814,      -3.45155,   4.60153E-03
C:/temp/dataset/4/16_2.odb,Step-1,Increment      1: Step Time =    1.000,"PART-1-1",           444,          -15.,       2.65625,            0.,NA,NA,"",       4.31042,      -2.39407,      -3.58443,   5.03618E-03
C:/temp/dataset/4/16_2.odb,Step-1,Increment      1: Step Time =    1.000,"PART-1-1",           445,      -13.7570,      -2.81804,            0.,NA,NA,"",       3.68077,      -1.58667,      -3.32123,   1.15270E-03
C:/temp/dataset/4/16_2.odb,Step-1,Increment      1: Step Time =    1.000,"PART-1-1",           446,      -13.7756,  -623.683E-03,            0.,NA,NA,"",       3.85911,      -1.91416,      -3.35093,   2.43508E-03
C:/temp/dataset/4/16_2.odb,Step-1,Increment      1: Step Time =    1.000,"PART-1-1",           447,          -15.,      -1.71875,            0.,NA,NA,"",       3.92725,      -1.73742,      -3.52203,   1.29484E-03
C:/temp/dataset/4/16_2.odb,Step-1,Increment      1: Step Time =    1.000,"PART-1-1",           448,        -13.75,           -5.,            0.,NA,NA,"",       3.52697,      -1.25802,      -3.29498,   196.255E-06
C:/temp/dataset/4/16_2.odb,Step-1,Increment      1: Step Time =    1.000,"PART-1-1",           449,      -12.5070,      -3.91179,            0.,NA,NA,"",       3.43402,      -1.43722,      -3.11880,   1.20647E-03
C:/temp/dataset/4/16_2.odb,Step-1,Increment      1: Step Time =    1.000,"PART-1-1",           450,          -15.,      -3.90625,            0.,NA,NA,"",       3.76953,      -1.40881,      -3.49638,   179.912E-06
C:/temp/dataset/4/16_2.odb,Step-1,Increment      1: Step Time =    1.000,"PART-1-1",           451,          -15.,    468.75E-03,            0.,NA,NA,"",       4.10754,      -2.06464,      -3.55093,   3.24958E-03
C:/temp/dataset/4/16_2.odb,Step-1,Increment      1: Step Time =    1.000,"PART-1-1",           452,      -5.10506,       2.56414,            0.,NA,NA,"",       3.22199,      -2.47684,      -2.06070,   4.38594E-03
C:/temp/dataset/4/16_2.odb,Step-1,Increment      1: Step Time =    1.000,"PART-1-1",           453,      -4.59209,       3.94539,            0.,NA,NA,"",       3.34597,      -2.68338,      -1.99876,   10.4495E-03
C:/temp/dataset/4/16_2.odb,Step-1,Increment      1: Step Time =    1.000,"PART-1-1",           454,      -6.09775,       4.77703,            0.,NA,NA,"",       3.58287,      -2.80101,      -2.23413,   9.29632E-03
C:/temp/dataset/4/16_2.odb,Step-1,Increment      1: Step Time =    1.000,"PART-1-1",           455,      -6.61072,       3.39578,            0.,NA,NA,"",       3.45911,      -2.58723,      -2.29601,   4.87144E-03
C:/temp/dataset/4/16_2.odb,Step-1,Increment      1: Step Time =    1.000,"PART-1-1",           456,       9.44090,      -5.60228,            0.,NA,NA,"",       1.53977,      -1.53566,  -112.428E-03,   4.93789E-03
C:/temp/dataset/4/16_2.odb,Step-1,Increment      1: Step Time =    1.000,"PART-1-1",           457,       9.79564,      -4.46986,            0.,NA,NA,"",       1.66975,      -1.66775,  -81.5854E-03,   6.69959E-03
C:/temp/dataset/4/16_2.odb,Step-1,Increment      1: Step Time =    1.000,"PART-1-1",           458,       8.43936,      -4.09444,            0.,NA,NA,"",       1.71755,      -1.70214,  -229.552E-03,   6.64908E-03
C:/temp/dataset/4/16_2.odb,Step-1,Increment      1: Step Time =    1.000,"PART-1-1",           459,       8.08462,      -5.22686,            0.,NA,NA,"",       1.59003,      -1.56894,  -258.129E-03,   5.55432E-03
C:/temp/dataset/4/16_2.odb,Step-1,Increment      1: Step Time =    1.000,"PART-1-1",           460,       6.93926,      -9.88629,            0.,NA,NA,"",       1.13018,      -1.08432,  -318.703E-03,   11.5776E-03
C:/temp/dataset/4/16_2.odb,Step-1,Increment      1: Step Time =    1.000,"PART-1-1",           461,       5.93813,      -8.99303,            0.,NA,NA,"",       1.24821,      -1.17201,  -429.424E-03,   14.6336E-03
C:/temp/dataset/4/16_2.odb,Step-1,Increment      1: Step Time =    1.000,"PART-1-1",           462,            5.,      -10.2083,            0.,NA,NA,"",       1.16902,      -1.05815,  -496.927E-03,   18.4959E-03
C:/temp/dataset/4/16_2.odb,Step-1,Increment      1: Step Time =    1.000,"PART-1-1",           463,       12.9852,      -11.3613,            0.,NA,NA,"",   998.499E-03,  -970.653E-03,   234.161E-03,   12.0685E-03
C:/temp/dataset/4/16_2.odb,Step-1,Increment      1: Step Time =    1.000,"PART-1-1",           464,       14.0059,      -12.5461,            0.,NA,NA,"",   927.505E-03,  -873.292E-03,   312.452E-03,   16.6829E-03
C:/temp/dataset/4/16_2.odb,Step-1,Increment      1: Step Time =    1.000,"PART-1-1",           465,           15.,        -11.25,            0.,NA,NA,"",       1.08635,      -1.00352,   416.046E-03,   19.8392E-03
C:/temp/dataset/4/16_2.odb,Step-1,Increment      1: Step Time =    1.000,"PART-1-1",           466,       13.9793,      -10.0652,            0.,NA,NA,"",       1.15421,      -1.10462,   334.709E-03,   15.1162E-03
C:/temp/dataset/4/16_2.odb,Step-1,Increment      1: Step Time =    1.000,"PART-1-1",           467,       7.08713,      -16.3801,            0.,NA,NA,"",   575.991E-03,  -536.268E-03,  -210.195E-03,   13.7302E-03
C:/temp/dataset/4/16_2.odb,Step-1,Increment      1: Step Time =    1.000,"PART-1-1",           468,            5.,      -16.4583,            0.,NA,NA,"",   649.747E-03,  -542.915E-03,  -356.951E-03,   23.4506E-03
C:/temp/dataset/4/16_2.odb,Step-1,Increment      1: Step Time =    1.000,"PART-1-1",           469,       13.0372,      -13.8111,            0.,NA,NA,"",   785.791E-03,  -754.237E-03,   220.441E-03,   13.3726E-03
C:/temp/dataset/4/16_2.odb,Step-1,Increment      1: Step Time =    1.000,"PART-1-1",           470,       14.0313,      -15.0151,            0.,NA,NA,"",   724.272E-03,  -666.093E-03,   284.413E-03,   18.2510E-03
C:/temp/dataset/4/16_2.odb,Step-1,Increment      1: Step Time =    1.000,"PART-1-1",           471,           15.,        -13.75,            0.,NA,NA,"",   868.250E-03,  -781.078E-03,   379.179E-03,   21.6501E-03
C:/temp/dataset/4/16_2.odb,Step-1,Increment      1: Step Time =    1.000,"PART-1-1",           472,       13.0981,      -18.6529,            0.,NA,NA,"",   433.729E-03,  -396.918E-03,   174.863E-03,   15.8866E-03
C:/temp/dataset/4/16_2.odb,Step-1,Increment      1: Step Time =    1.000,"PART-1-1",           473,       14.0553,      -19.9280,            0.,NA,NA,"",   390.668E-03,  -329.295E-03,   210.205E-03,   21.3345E-03
C:/temp/dataset/4/16_2.odb,Step-1,Increment      1: Step Time =    1.000,"PART-1-1",           474,           15.,        -18.75,            0.,NA,NA,"",   501.933E-03,  -411.652E-03,   287.192E-03,   25.3111E-03
C:/temp/dataset/4/16_2.odb,Step-1,Increment      1: Step Time =    1.000,"PART-1-1",           475,       14.0427,      -17.4749,            0.,NA,NA,"",   544.853E-03,  -484.169E-03,   249.891E-03,   19.7889E-03
C:/temp/dataset/4/16_2.odb,Step-1,Increment      1: Step Time =    1.000,"PART-1-1",           476,       6.17422,      -27.9405,            0.,NA,NA,"",   48.5482E-03,  -25.2521E-03,  -41.4639E-03,   24.7032E-03
C:/temp/dataset/4/16_2.odb,Step-1,Increment      1: Step Time =    1.000,"PART-1-1",           477,            5.,      -28.9583,            0.,NA,NA,"",   38.4326E-03,  -24.1658E-03,  -29.8844E-03,   32.5342E-03
C:/temp/dataset/4/16_2.odb,Step-1,Increment      1: Step Time =    1.000,"PART-1-1",           478,          6.25,          -30.,            0.,NA,NA,"",            0.,   1.55863E-39,  -36.5921E-39,   22.8707E-03
C:/temp/dataset/4/16_2.odb,Step-1,Increment      1: Step Time =    1.000,"PART-1-1",           479,       9.46325,      -26.8820,            0.,NA,NA,"",   28.5433E-03,  -27.3841E-03,  -8.05176E-03,   4.72724E-03
C:/temp/dataset/4/16_2.odb,Step-1,Increment      1: Step Time =    1.000,"PART-1-1",           480,       8.20536,      -25.9154,            0.,NA,NA,"",   65.7455E-03,  -53.4890E-03,  -38.2281E-03,   11.4572E-03
C:/temp/dataset/4/16_2.odb,Step-1,Increment      1: Step Time =    1.000,"PART-1-1",           481,       7.26622,      -26.9429,            0.,NA,NA,"",   55.7429E-03,  -34.8297E-03,  -43.5220E-03,   17.1178E-03
C:/temp/dataset/4/16_2.odb,Step-1,Increment      1: Step Time =    1.000,"PART-1-1",           482,       13.6319,      -27.3465,            0.,NA,NA,"",   63.3242E-03,  -36.2568E-03,   51.9172E-03,   23.6204E-03
C:/temp/dataset/4/16_2.odb,Step-1,Increment      1: Step Time =    1.000,"PART-1-1",           483,       12.3819,      -28.5965,            0.,NA,NA,"",   17.0184E-03,  -6.52694E-03,   15.7170E-03,   13.9320E-03
C:/temp/dataset/4/16_2.odb,Step-1,Increment      1: Step Time =    1.000,"PART-1-1",           484,         13.75,          -30.,            0.,NA,NA,"",            0.,   1.95365E-39,   36.7265E-39,   23.5660E-03
C:/temp/dataset/4/16_2.odb,Step-1,Increment      1: Step Time =    1.000,"PART-1-1",           485,           15.,        -28.75,            0.,NA,NA,"",   46.6208E-03,  -29.5217E-03,   36.0828E-03,   32.5191E-03
C:/temp/dataset/4/16_2.odb,Step-1,Increment      1: Step Time =    1.000,"PART-1-1",           486,         11.25,          -30.,            0.,NA,NA,"",            0.,   3.45368E-39,   12.4942E-39,   6.65351E-03
C:/temp/dataset/4/16_2.odb,Step-1,Increment      1: Step Time =    1.000,"PART-1-1",           487,       10.9817,      -27.5238,            0.,NA,NA,"",   20.6218E-03,  -16.6139E-03,   12.2163E-03,   7.78729E-03
C:/temp/dataset/4/16_2.odb,Step-1,Increment      1: Step Time =    1.000,"PART-1-1",           488,       10.1507,      -19.6985,            0.,NA,NA,"",   317.049E-03,  -317.023E-03,   4.10303E-03,   3.34930E-03
C:/temp/dataset/4/16_2.odb,Step-1,Increment      1: Step Time =    1.000,"PART-1-1",           489,       9.14094,      -20.7396,            0.,NA,NA,"",   262.027E-03,  -258.306E-03,  -44.0000E-03,   5.45853E-03
C:/temp/dataset/4/16_2.odb,Step-1,Increment      1: Step Time =    1.000,"PART-1-1",           490,       11.1621,      -20.8614,            0.,NA,NA,"",   260.996E-03,  -255.559E-03,   52.9954E-03,   7.21222E-03
C:/temp/dataset/4/16_2.odb,Step-1,Increment      1: Step Time =    1.000,"PART-1-1",           491,       7.09922,      -20.6753,            0.,NA,NA,"",   304.807E-03,  -267.971E-03,  -145.255E-03,   15.4778E-03
C:/temp/dataset/4/16_2.odb,Step-1,Increment      1: Step Time =    1.000,"PART-1-1",           492,            5.,       -20.625,            0.,NA,NA,"",   384.573E-03,  -287.667E-03,  -255.233E-03,   26.5708E-03
C:/temp/dataset/4/16_2.odb,Step-1,Increment      1: Step Time =    1.000,"PART-1-1",           493,       9.08758,      -14.0519,            0.,NA,NA,"",   718.855E-03,  -713.454E-03,  -87.9515E-03,   5.05042E-03
C:/temp/dataset/4/16_2.odb,Step-1,Increment      1: Step Time =    1.000,"PART-1-1",           494,       10.1099,      -15.1447,            0.,NA,NA,"",   628.265E-03,  -628.237E-03,  -5.89605E-03,   3.24978E-03
C:/temp/dataset/4/16_2.odb,Step-1,Increment      1: Step Time =    1.000,"PART-1-1",           495,       11.0794,      -13.9187,            0.,NA,NA,"",   734.108E-03,  -731.115E-03,   66.2226E-03,   5.71007E-03
C:/temp/dataset/4/16_2.odb,Step-1,Increment      1: Step Time =    1.000,"PART-1-1",           496,       10.0571,      -12.8260,            0.,NA,NA,"",   819.726E-03,  -819.551E-03,  -16.9576E-03,   3.20106E-03
C:/temp/dataset/4/16_2.odb,Step-1,Increment      1: Step Time =    1.000,"PART-1-1",           497,       9.02765,      -11.7712,            0.,NA,NA,"",   916.781E-03,  -910.242E-03,  -109.301E-03,   4.96095E-03
C:/temp/dataset/4/16_2.odb,Step-1,Increment      1: Step Time =    1.000,"PART-1-1",           498,       11.0123,      -11.5393,            0.,NA,NA,"",   941.242E-03,  -939.260E-03,   61.0409E-03,   5.21880E-03
C:/temp/dataset/4/16_2.odb,Step-1,Increment      1: Step Time =    1.000,"PART-1-1",           499,       9.98284,      -10.4845,            0.,NA,NA,"",       1.03345,      -1.03293,  -32.7630E-03,   3.18937E-03
C:/temp/dataset/4/16_2.odb,Step-1,Increment      1: Step Time =    1.000,"PART-1-1",           500,       12.6190,       1.44886,            0.,NA,NA,"",       2.41463,      -2.40636,   199.570E-03,   4.67819E-03
C:/temp/dataset/4/16_2.odb,Step-1,Increment      1: Step Time =    1.000,"PART-1-1",           501,       13.8500,   84.2405E-03,            0.,NA,NA,"",       2.27582,      -2.24876,   349.963E-03,   4.93078E-03
C:/temp/dataset/4/16_2.odb,Step-1,Increment      1: Step Time =    1.000,"PART-1-1",           502,           15.,          1.25,            0.,NA,NA,"",       2.44945,      -2.40143,   482.669E-03,   3.61235E-03
C:/temp/dataset/4/16_2.odb,Step-1,Increment      1: Step Time =    1.000,"PART-1-1",           503,       10.0180,      -2.29938,            0.,NA,NA,"",       1.92950,      -1.92819,  -70.9095E-03,   7.77451E-03
C:/temp/dataset/4/16_2.odb,Step-1,Increment      1: Step Time =    1.000,"PART-1-1",           504,       9.13986,      -3.07696,            0.,NA,NA,"",       1.83531,      -1.82820,  -161.446E-03,   7.50849E-03
C:/temp/dataset/4/16_2.odb,Step-1,Increment      1: Step Time =    1.000,"PART-1-1",           505,       10.6738,      -3.69229,            0.,NA,NA,"",       1.76553,      -1.76551,   8.29604E-03,   7.21774E-03
C:/temp/dataset/4/16_2.odb,Step-1,Increment      1: Step Time =    1.000,"PART-1-1",           506,       12.7589,       6.54544,            0.,NA,NA,"",       3.03104,      -3.02562,   181.226E-03,   712.453E-06
C:/temp/dataset/4/16_2.odb,Step-1,Increment      1: Step Time =    1.000,"PART-1-1",           507,           15.,          6.25,            0.,NA,NA,"",       3.03956,      -3.00601,   450.377E-03,   238.485E-06
C:/temp/dataset/4/16_2.odb,Step-1,Increment      1: Step Time =    1.000,"PART-1-1",           508,       13.9203,       7.65480,            0.,NA,NA,"",       3.18129,      -3.16602,   311.280E-03,   239.745E-06
C:/temp/dataset/4/16_2.odb,Step-1,Increment      1: Step Time =    1.000,"PART-1-1",           509,       13.0275,       16.3263,            0.,NA,NA,"",       4.18807,      -4.18559,   144.086E-03,   33.6027E-06
C:/temp/dataset/4/16_2.odb,Step-1,Increment      1: Step Time =    1.000,"PART-1-1",           510,       14.0150,       15.0581,            0.,NA,NA,"",       4.05166,      -4.04268,   269.712E-03,   36.4258E-06
C:/temp/dataset/4/16_2.odb,Step-1,Increment      1: Step Time =    1.000,"PART-1-1",           511,           15.,         16.25,            0.,NA,NA,"",       4.20738,      -4.19039,   377.733E-03,   22.2382E-06
C:/temp/dataset/4/16_2.odb,Step-1,Increment      1: Step Time =    1.000,"PART-1-1",           512,       14.0124,       17.5182,            0.,NA,NA,"",       4.34066,      -4.33333,   252.135E-03,   9.13455E-06
C:/temp/dataset/4/16_2.odb,Step-1,Increment      1: Step Time =    1.000,"PART-1-1",           513,       13.0175,       18.7421,            0.,NA,NA,"",       4.47274,      -4.47096,   125.982E-03,   9.65423E-06
C:/temp/dataset/4/16_2.odb,Step-1,Increment      1: Step Time =    1.000,"PART-1-1",           514,           15.,         18.75,            0.,NA,NA,"",       4.50023,      -4.48579,   360.204E-03,   2.43736E-06
C:/temp/dataset/4/16_2.odb,Step-1,Increment      1: Step Time =    1.000,"PART-1-1",           515,       14.0051,       19.9738,            0.,NA,NA,"",       4.62936,      -4.62344,   234.059E-03,   1.44545E-06
C:/temp/dataset/4/16_2.odb,Step-1,Increment      1: Step Time =    1.000,"PART-1-1",           516,       5.97628,       21.7197,            0.,NA,NA,"",       4.82853,      -4.77349,  -726.985E-03,   790.764E-09
C:/temp/dataset/4/16_2.odb,Step-1,Increment      1: Step Time =    1.000,"PART-1-1",           517,       6.92463,       22.7965,            0.,NA,NA,"",       4.94671,      -4.90739,  -622.457E-03,   246.617E-09
C:/temp/dataset/4/16_2.odb,Step-1,Increment      1: Step Time =    1.000,"PART-1-1",           518,       5.94835,       23.7852,            0.,NA,NA,"",       5.07235,      -5.01738,  -744.759E-03,   677.139E-09
C:/temp/dataset/4/16_2.odb,Step-1,Increment      1: Step Time =    1.000,"PART-1-1",           519,            5.,       22.7083,            0.,NA,NA,"",       4.95678,      -4.88348,  -849.287E-03,   1.36192E-06
C:/temp/dataset/4/16_2.odb,Step-1,Increment      1: Step Time =    1.000,"PART-1-1",           520,       13.8862,       24.9278,            0.,NA,NA,"",       5.21134,      -5.20804,   185.296E-03,   486.181E-09
C:/temp/dataset/4/16_2.odb,Step-1,Increment      1: Step Time =    1.000,"PART-1-1",           521,           15.,         26.25,            0.,NA,NA,"",       5.38090,      -5.37209,   307.659E-03,   428.548E-09
C:/temp/dataset/4/16_2.odb,Step-1,Increment      1: Step Time =    1.000,"PART-1-1",           522,       6.15342,       27.8650,            0.,NA,NA,"",       5.55173,      -5.50096,  -749.112E-03,   180.438E-09
C:/temp/dataset/4/16_2.odb,Step-1,Increment      1: Step Time =    1.000,"PART-1-1",           523,       7.40342,       28.9067,            0.,NA,NA,"",       5.66561,      -5.63282,  -608.691E-03,   200.319E-09
C:/temp/dataset/4/16_2.odb,Step-1,Increment      1: Step Time =    1.000,"PART-1-1",           524,          6.25,           30.,            0.,NA,NA,"",       5.80296,      -5.75394,  -752.659E-03,   51.2028E-09
C:/temp/dataset/4/16_2.odb,Step-1,Increment      1: Step Time =    1.000,"PART-1-1",           525,            5.,       28.9583,            0.,NA,NA,"",       5.69257,      -5.62208,  -893.080E-03,   50.3727E-09
C:/temp/dataset/4/16_2.odb,Step-1,Increment      1: Step Time =    1.000,"PART-1-1",           526,       7.11917,       26.8292,            0.,NA,NA,"",       5.42178,      -5.38532,  -627.725E-03,   377.739E-09
C:/temp/dataset/4/16_2.odb,Step-1,Increment      1: Step Time =    1.000,"PART-1-1",           527,            5.,        26.875,            0.,NA,NA,"",       5.44719,      -5.37588,  -878.482E-03,   301.337E-09
C:/temp/dataset/4/16_2.odb,Step-1,Increment      1: Step Time =    1.000,"PART-1-1",           528,       5.96574,       25.8392,            0.,NA,NA,"",       5.31445,      -5.26024,  -757.096E-03,   381.208E-09
C:/temp/dataset/4/16_2.odb,Step-1,Increment      1: Step Time =    1.000,"PART-1-1",           529,       8.59546,       27.4701,            0.,NA,NA,"",       5.49052,      -5.47141,  -457.753E-03,   256.081E-09
C:/temp/dataset/4/16_2.odb,Step-1,Increment      1: Step Time =    1.000,"PART-1-1",           530,       9.94204,       28.5635,            0.,NA,NA,"",       5.61840,      -5.61005,  -306.281E-03,   257.791E-09
C:/temp/dataset/4/16_2.odb,Step-1,Increment      1: Step Time =    1.000,"PART-1-1",           531,          8.75,           30.,            0.,NA,NA,"",       5.78954,      -5.77146,  -457.218E-03,   220.919E-09
C:/temp/dataset/4/16_2.odb,Step-1,Increment      1: Step Time =    1.000,"PART-1-1",           532,            5.,       24.7917,            0.,NA,NA,"",       5.20192,      -5.12968,  -863.884E-03,   780.844E-09
C:/temp/dataset/4/16_2.odb,Step-1,Increment      1: Step Time =    1.000,"PART-1-1",           533,       6.91409,       24.8327,            0.,NA,NA,"",       5.18732,      -5.14794,  -637.970E-03,   489.164E-09
C:/temp/dataset/4/16_2.odb,Step-1,Increment      1: Step Time =    1.000,"PART-1-1",           534,            5.,        20.625,            0.,NA,NA,"",       4.71179,      -4.63727,  -834.691E-03,   1.23720E-06
C:/temp/dataset/4/16_2.odb,Step-1,Increment      1: Step Time =    1.000,"PART-1-1",           535,       5.99534,       19.6263,            0.,NA,NA,"",       4.58158,      -4.52622,  -710.063E-03,   1.96403E-06
C:/temp/dataset/4/16_2.odb,Step-1,Increment      1: Step Time =    1.000,"PART-1-1",           536,       6.97162,       20.7210,            0.,NA,NA,"",       4.70119,      -4.66244,  -602.359E-03,   2.32250E-06
C:/temp/dataset/4/16_2.odb,Step-1,Increment      1: Step Time =    1.000,"PART-1-1",           537,       9.90537,       10.7177,            0.,NA,NA,"",       3.50576,      -3.50082,  -186.095E-03,   182.220E-06
C:/temp/dataset/4/16_2.odb,Step-1,Increment      1: Step Time =    1.000,"PART-1-1",           538,       8.83179,       9.75083,            0.,NA,NA,"",       3.39289,      -3.37903,  -306.279E-03,   175.796E-06
C:/temp/dataset/4/16_2.odb,Step-1,Increment      1: Step Time =    1.000,"PART-1-1",           539,       10.8380,       9.37550,            0.,NA,NA,"",       3.34937,      -3.34871,  -66.5400E-03,   163.593E-06
C:/temp/dataset/4/16_2.odb,Step-1,Increment      1: Step Time =    1.000,"PART-1-1",           540,       5.96737,       11.1773,            0.,NA,NA,"",       3.58753,      -3.52745,  -653.846E-03,   177.780E-06
C:/temp/dataset/4/16_2.odb,Step-1,Increment      1: Step Time =    1.000,"PART-1-1",           541,       6.95908,       12.1740,            0.,NA,NA,"",       3.69238,      -3.65210,  -543.911E-03,   153.652E-06
C:/temp/dataset/4/16_2.odb,Step-1,Increment      1: Step Time =    1.000,"PART-1-1",           542,            5.,       12.2917,            0.,NA,NA,"",       3.73390,      -3.65238,  -776.006E-03,   181.971E-06
C:/temp/dataset/4/16_2.odb,Step-1,Increment      1: Step Time =    1.000,"PART-1-1",           543,       6.89189,       10.0466,            0.,NA,NA,"",       3.44250,      -3.40037,  -536.952E-03,   207.155E-06
C:/temp/dataset/4/16_2.odb,Step-1,Increment      1: Step Time =    1.000,"PART-1-1",           544,            5.,       10.2083,            0.,NA,NA,"",       3.49041,      -3.40645,  -760.936E-03,   465.994E-06
C:/temp/dataset/4/16_2.odb,Step-1,Increment      1: Step Time =    1.000,"PART-1-1",           545,  -883.251E-03,       2.97832,            0.,NA,NA,"",       2.94782,      -2.55464,      -1.47087,   7.85380E-03
C:/temp/dataset/4/16_2.odb,Step-1,Increment      1: Step Time =    1.000,"PART-1-1",           546,         -1.25,            5.,            0.,NA,NA,"",       3.22492,      -2.82841,      -1.54927,   12.4401E-03
C:/temp/dataset/4/16_2.odb,Step-1,Increment      1: Step Time =    1.000,"PART-1-1",           547,      -2.28350,       3.97568,            0.,NA,NA,"",       3.16996,      -2.69008,      -1.67694,   10.1289E-03
C:/temp/dataset/4/16_2.odb,Step-1,Increment      1: Step Time =    1.000,"PART-1-1",           548,      -3.12559,       2.92107,            0.,NA,NA,"",       3.10260,      -2.54076,      -1.78064,   6.07634E-03
C:/temp/dataset/4/16_2.odb,Step-1,Increment      1: Step Time =    1.000,"PART-1-1",           549,         -3.75,            5.,            0.,NA,NA,"",       3.41128,      -2.83478,      -1.89759,   16.2217E-03
C:/temp/dataset/4/16_2.odb,Step-1,Increment      1: Step Time =    1.000,"PART-1-1",           550,      -7.01026,       10.3490,            0.,NA,NA,"",       4.43625,      -3.70461,      -2.44053,   3.21957E-03
C:/temp/dataset/4/16_2.odb,Step-1,Increment      1: Step Time =    1.000,"PART-1-1",           551,           -5.,       10.2083,            0.,NA,NA,"",       4.26955,      -3.71037,      -2.11240,   2.94655E-03
C:/temp/dataset/4/16_2.odb,Step-1,Increment      1: Step Time =    1.000,"PART-1-1",           552,      -6.00030,       11.3233,            0.,NA,NA,"",       4.50502,      -3.88019,      -2.28897,   2.87919E-03
C:/temp/dataset/4/16_2.odb,Step-1,Increment      1: Step Time =    1.000,"PART-1-1",           553,      -6.90277,       16.5792,            0.,NA,NA,"",       5.34591,      -4.72630,      -2.49816,   1.60331E-03
C:/temp/dataset/4/16_2.odb,Step-1,Increment      1: Step Time =    1.000,"PART-1-1",           554,           -5.,       16.4583,            0.,NA,NA,"",       5.21681,      -4.73470,      -2.19037,   1.67568E-03
C:/temp/dataset/4/16_2.odb,Step-1,Increment      1: Step Time =    1.000,"PART-1-1",           555,      -5.93592,       17.5473,            0.,NA,NA,"",       5.43245,      -4.89582,      -2.35424,   1.11769E-03
C:/temp/dataset/4/16_2.odb,Step-1,Increment      1: Step Time =    1.000,"PART-1-1",           556,      -5.96041,       23.6583,            0.,NA,NA,"",       6.36583,      -5.88057,      -2.43777,   53.4752E-06
C:/temp/dataset/4/16_2.odb,Step-1,Increment      1: Step Time =    1.000,"PART-1-1",           557,           -5.,       24.7917,            0.,NA,NA,"",       6.49620,      -6.07638,      -2.29744,   48.0393E-06
C:/temp/dataset/4/16_2.odb,Step-1,Increment      1: Step Time =    1.000,"PART-1-1",           558,      -7.48847,       28.8776,            0.,NA,NA,"",       7.24739,      -6.70405,      -2.75326,   9.94633E-06
C:/temp/dataset/4/16_2.odb,Step-1,Increment      1: Step Time =    1.000,"PART-1-1",           559,           -5.,       28.9583,            0.,NA,NA,"",       7.14790,      -6.74980,      -2.35217,   1.82465E-06
C:/temp/dataset/4/16_2.odb,Step-1,Increment      1: Step Time =    1.000,"PART-1-1",           560,         -6.25,           30.,            0.,NA,NA,"",       7.36394,      -6.90171,      -2.56787,   1.61659E-06
C:/temp/dataset/4/16_2.odb,Step-1,Increment      1: Step Time =    1.000,"PART-1-1",           561,       12.9634,       11.4929,            0.,NA,NA,"",       3.61808,      -3.61407,   170.398E-03,   140.156E-06
C:/temp/dataset/4/16_2.odb,Step-1,Increment      1: Step Time =    1.000,"PART-1-1",           562,       13.9657,       10.1417,            0.,NA,NA,"",       3.47417,      -3.46131,   298.708E-03,   203.088E-06
C:/temp/dataset/4/16_2.odb,Step-1,Increment      1: Step Time =    1.000,"PART-1-1",           563,           15.,         11.25,            0.,NA,NA,"",       3.62321,      -3.59957,   413.186E-03,   228.873E-06
C:/temp/dataset/4/16_2.odb,Step-1,Increment      1: Step Time =    1.000,"PART-1-1",           564,       13.9978,       12.6011,            0.,NA,NA,"",       3.76309,      -3.75229,   284.989E-03,   102.708E-06
C:/temp/dataset/4/16_2.odb,Step-1,Increment      1: Step Time =    1.000,"PART-1-1",           565,       9.13480,      -18.5479,            0.,NA,NA,"",   389.991E-03,  -385.884E-03,  -56.4463E-03,   5.27467E-03
C:/temp/dataset/4/16_2.odb,Step-1,Increment      1: Step Time =    1.000,"PART-1-1",           566,       11.1537,      -18.5886,            0.,NA,NA,"",   392.763E-03,  -387.930E-03,   61.4229E-03,   6.75973E-03
C:/temp/dataset/4/16_2.odb,Step-1,Increment      1: Step Time =    1.000,"PART-1-1",           567,       10.1377,      -17.4381,            0.,NA,NA,"",   460.257E-03,  -460.257E-03,   672.551E-06,   3.30118E-03
C:/temp/dataset/4/16_2.odb,Step-1,Increment      1: Step Time =    1.000,"PART-1-1",           568,      -8.81573,       27.5627,            0.,NA,NA,"",       7.11471,      -6.47409,      -2.95045,   14.5713E-06
C:/temp/dataset/4/16_2.odb,Step-1,Increment      1: Step Time =    1.000,"PART-1-1",           569,         -8.75,           30.,            0.,NA,NA,"",       7.48421,      -6.86886,      -2.97188,   8.86058E-06
C:/temp/dataset/4/16_2.odb,Step-1,Increment      1: Step Time =    1.000,"PART-1-1",           570,            5.,      -24.7917,            0.,NA,NA,"",   185.544E-03,  -114.105E-03,  -146.310E-03,   29.3035E-03
C:/temp/dataset/4/16_2.odb,Step-1,Increment      1: Step Time =    1.000,"PART-1-1",           571,       6.09200,      -25.8775,            0.,NA,NA,"",   113.337E-03,  -70.5672E-03,  -88.6878E-03,   23.7308E-03
C:/temp/dataset/4/16_2.odb,Step-1,Increment      1: Step Time =    1.000,"PART-1-1",           572,       7.15121,      -24.8757,            0.,NA,NA,"",   119.353E-03,  -89.8698E-03,  -78.5399E-03,   17.1844E-03
C:/temp/dataset/4/16_2.odb,Step-1,Increment      1: Step Time =    1.000,"PART-1-1",           573,       13.1040,      -21.0477,            0.,NA,NA,"",   295.876E-03,  -258.472E-03,   143.996E-03,   17.0200E-03
C:/temp/dataset/4/16_2.odb,Step-1,Increment      1: Step Time =    1.000,"PART-1-1",           574,       14.0487,      -22.3697,            0.,NA,NA,"",   261.632E-03,  -203.262E-03,   164.730E-03,   22.8120E-03
C:/temp/dataset/4/16_2.odb,Step-1,Increment      1: Step Time =    1.000,"PART-1-1",           575,           15.,        -21.25,            0.,NA,NA,"",   355.329E-03,  -268.923E-03,   232.247E-03,   27.1875E-03
C:/temp/dataset/4/16_2.odb,Step-1,Increment      1: Step Time =    1.000,"PART-1-1",           576,            5.,       -26.875,            0.,NA,NA,"",   108.682E-03,  -60.6321E-03,  -90.1970E-03,   30.9030E-03
C:/temp/dataset/4/16_2.odb,Step-1,Increment      1: Step Time =    1.000,"PART-1-1",           577,       12.8133,      -6.31290,            0.,NA,NA,"",       1.50281,      -1.48375,   238.617E-03,   9.47606E-03
C:/temp/dataset/4/16_2.odb,Step-1,Increment      1: Step Time =    1.000,"PART-1-1",           578,       13.9319,      -7.55671,            0.,NA,NA,"",       1.40444,      -1.36041,   348.908E-03,   13.3103E-03
C:/temp/dataset/4/16_2.odb,Step-1,Increment      1: Step Time =    1.000,"PART-1-1",           579,           15.,         -6.25,            0.,NA,NA,"",       1.58628,      -1.51497,   470.289E-03,   15.2713E-03
C:/temp/dataset/4/16_2.odb,Step-1,Increment      1: Step Time =    1.000,"PART-1-1",           580,            5.,       18.5417,            0.,NA,NA,"",       4.46698,      -4.39106,  -820.093E-03,   3.09724E-06
C:/temp/dataset/4/16_2.odb,Step-1,Increment      1: Step Time =    1.000,"PART-1-1",           581,       6.00122,       17.5195,            0.,NA,NA,"",       4.33329,      -4.27726,  -694.596E-03,   9.70809E-06
C:/temp/dataset/4/16_2.odb,Step-1,Increment      1: Step Time =    1.000,"PART-1-1",           582,       6.99656,       18.6041,            0.,NA,NA,"",       4.45098,      -4.41243,  -584.576E-03,   10.4724E-06
C:/temp/dataset/4/16_2.odb,Step-1,Increment      1: Step Time =    1.000,"PART-1-1",           583,       12.8545,       23.6160,            0.,NA,NA,"",       5.04631,      -5.04579,   72.5679E-03,   369.469E-09
C:/temp/dataset/4/16_2.odb,Step-1,Increment      1: Step Time =    1.000,"PART-1-1",           584,       13.9683,       22.4382,            0.,NA,NA,"",       4.91899,      -4.91440,   212.447E-03,   770.678E-09
C:/temp/dataset/4/16_2.odb,Step-1,Increment      1: Step Time =    1.000,"PART-1-1",           585,           15.,         23.75,            0.,NA,NA,"",       5.08706,      -5.07665,   325.176E-03,   1.06996E-06
C:/temp/dataset/4/16_2.odb,Step-1,Increment      1: Step Time =    1.000,"PART-1-1",           586,            5.,       16.4583,            0.,NA,NA,"",       4.22236,      -4.14482,  -805.478E-03,   19.1796E-06
C:/temp/dataset/4/16_2.odb,Step-1,Increment      1: Step Time =    1.000,"PART-1-1",           587,       7.00480,       16.4638,            0.,NA,NA,"",       4.19820,      -4.15951,  -568.599E-03,   32.8225E-06
C:/temp/dataset/4/16_2.odb,Step-1,Increment      1: Step Time =    1.000,"PART-1-1",           588,       12.9734,       21.1620,            0.,NA,NA,"",       4.75775,      -4.75662,   103.815E-03,   1.61111E-06
C:/temp/dataset/4/16_2.odb,Step-1,Increment      1: Step Time =    1.000,"PART-1-1",           589,           15.,         21.25,            0.,NA,NA,"",       4.79348,      -4.78122,   342.690E-03,   1.35266E-06
C:/temp/dataset/4/16_2.odb,Step-1,Increment      1: Step Time =    1.000,"PART-1-1",           590,            5.,       6.04167,            0.,NA,NA,"",       3.01031,      -2.92051,  -729.785E-03,   3.02899E-03
C:/temp/dataset/4/16_2.odb,Step-1,Increment      1: Step Time =    1.000,"PART-1-1",           591,       5.70418,       5.21013,            0.,NA,NA,"",       2.90504,      -2.83295,  -643.149E-03,   6.97965E-03
C:/temp/dataset/4/16_2.odb,Step-1,Increment      1: Step Time =    1.000,"PART-1-1",           592,       6.54256,       6.20387,            0.,NA,NA,"",       3.00002,      -2.94888,  -551.586E-03,   2.41517E-03
C:/temp/dataset/4/16_2.odb,Step-1,Increment      1: Step Time =    1.000,"PART-1-1",           593,       7.80464,       8.81181,            0.,NA,NA,"",       3.28820,      -3.26115,  -420.935E-03,   190.108E-06
C:/temp/dataset/4/16_2.odb,Step-1,Increment      1: Step Time =    1.000,"PART-1-1",           594,       7.55468,       6.70991,            0.,NA,NA,"",       3.04430,      -3.01297,  -435.671E-03,   1.40549E-03
C:/temp/dataset/4/16_2.odb,Step-1,Increment      1: Step Time =    1.000,"PART-1-1",           595,           -5.,       12.2917,            0.,NA,NA,"",       4.58452,      -4.05606,      -2.13688,   2.35866E-03
C:/temp/dataset/4/16_2.odb,Step-1,Increment      1: Step Time =    1.000,"PART-1-1",           596,      -13.0551,       11.1433,            0.,NA,NA,"",       5.07596,      -3.75543,      -3.41498,   2.46108E-03
C:/temp/dataset/4/16_2.odb,Step-1,Increment      1: Step Time =    1.000,"PART-1-1",           597,          -15.,       11.4063,            0.,NA,NA,"",       5.30860,      -3.77439,      -3.73299,   2.40541E-03
C:/temp/dataset/4/16_2.odb,Step-1,Increment      1: Step Time =    1.000,"PART-1-1",           598,           -5.,       18.5417,            0.,NA,NA,"",       5.53097,      -5.06733,      -2.21670,   339.747E-06
C:/temp/dataset/4/16_2.odb,Step-1,Increment      1: Step Time =    1.000,"PART-1-1",           599,      -6.83195,       18.5917,            0.,NA,NA,"",       5.64157,      -5.05139,      -2.51213,   504.980E-06
C:/temp/dataset/4/16_2.odb,Step-1,Increment      1: Step Time =    1.000,"PART-1-1",           600,      -12.9744,       15.4368,            0.,NA,NA,"",       5.64359,      -4.45659,      -3.46251,   900.125E-06
C:/temp/dataset/4/16_2.odb,Step-1,Increment      1: Step Time =    1.000,"PART-1-1",           601,      -13.9736,       16.6988,            0.,NA,NA,"",       5.90499,      -4.64867,      -3.64126,   267.288E-06
C:/temp/dataset/4/16_2.odb,Step-1,Increment      1: Step Time =    1.000,"PART-1-1",           602,          -15.,       15.7813,            0.,NA,NA,"",       5.87623,      -4.48600,      -3.79552,   249.780E-06
C:/temp/dataset/4/16_2.odb,Step-1,Increment      1: Step Time =    1.000,"PART-1-1",           603,      -6.85389,       22.5676,            0.,NA,NA,"",       6.24491,      -5.69258,      -2.56777,   72.4451E-06
C:/temp/dataset/4/16_2.odb,Step-1,Increment      1: Step Time =    1.000,"PART-1-1",           604,           -5.,       22.7083,            0.,NA,NA,"",       6.17234,      -5.73969,      -2.27020,   122.285E-06
C:/temp/dataset/4/16_2.odb,Step-1,Increment      1: Step Time =    1.000,"PART-1-1",           605,      -7.62380,       21.5126,            0.,NA,NA,"",       6.12823,      -5.51203,      -2.67821,   66.6033E-06
C:/temp/dataset/4/16_2.odb,Step-1,Increment      1: Step Time =    1.000,"PART-1-1",           606,      -11.2433,       25.0031,            0.,NA,NA,"",       6.87707,      -6.02859,      -3.30910,   40.4841E-06
C:/temp/dataset/4/16_2.odb,Step-1,Increment      1: Step Time =    1.000,"PART-1-1",           607,      -10.1220,       24.6816,            0.,NA,NA,"",       6.75672,      -5.99135,      -3.12362,   43.1072E-06
C:/temp/dataset/4/16_2.odb,Step-1,Increment      1: Step Time =    1.000,"PART-1-1",           608,      -9.68436,       26.2404,            0.,NA,NA,"",       6.96390,      -6.24900,      -3.07343,   29.5480E-06
C:/temp/dataset/4/16_2.odb,Step-1,Increment      1: Step Time =    1.000,"PART-1-1",           609,      -10.8057,       26.5619,            0.,NA,NA,"",       7.08076,      -6.28623,      -3.25889,   24.6175E-06
C:/temp/dataset/4/16_2.odb,Step-1,Increment      1: Step Time =    1.000,"PART-1-1",           610,            5.,      -6.04167,            0.,NA,NA,"",       1.58087,      -1.46896,  -584.198E-03,   20.3184E-03
C:/temp/dataset/4/16_2.odb,Step-1,Increment      1: Step Time =    1.000,"PART-1-1",           611,       5.81487,      -6.90448,            0.,NA,NA,"",       1.46099,      -1.37989,  -480.017E-03,   14.3641E-03
C:/temp/dataset/4/16_2.odb,Step-1,Increment      1: Step Time =    1.000,"PART-1-1",           612,       6.44107,      -5.66337,            0.,NA,NA,"",       1.57019,      -1.50956,  -432.131E-03,   8.12504E-03
C:/temp/dataset/4/16_2.odb,Step-1,Increment      1: Step Time =    1.000,"PART-1-1",           613,       5.62621,      -4.80056,            0.,NA,NA,"",       1.68481,      -1.59745,  -535.501E-03,   13.0471E-03
C:/temp/dataset/4/16_2.odb,Step-1,Increment      1: Step Time =    1.000,"PART-1-1",           614,            5.,        -8.125,            0.,NA,NA,"",       1.37051,      -1.25985,  -539.521E-03,   17.3791E-03
C:/temp/dataset/4/16_2.odb,Step-1,Increment      1: Step Time =    1.000,"PART-1-1",           615,       8.00489,       17.5473,            0.,NA,NA,"",       4.31895,      -4.29460,  -458.017E-03,   17.2408E-06
C:/temp/dataset/4/16_2.odb,Step-1,Increment      1: Step Time =    1.000,"PART-1-1",           616,       8.00828,       15.3576,            0.,NA,NA,"",       4.05996,      -4.03580,  -442.296E-03,   47.8434E-06
C:/temp/dataset/4/16_2.odb,Step-1,Increment      1: Step Time =    1.000,"PART-1-1",           617,       11.1265,      -16.2686,            0.,NA,NA,"",   551.018E-03,  -547.033E-03,   66.1461E-03,   6.25479E-03
C:/temp/dataset/4/16_2.odb,Step-1,Increment      1: Step Time =    1.000,"PART-1-1",           618,       9.12111,      -16.3141,            0.,NA,NA,"",   542.699E-03,  -538.077E-03,  -70.6779E-03,   5.13400E-03
C:/temp/dataset/4/16_2.odb,Step-1,Increment      1: Step Time =    1.000,"PART-1-1",           619,      -9.91602,       15.9767,            0.,NA,NA,"",       5.46701,      -4.58573,      -2.97645,   1.24643E-03
C:/temp/dataset/4/16_2.odb,Step-1,Increment      1: Step Time =    1.000,"PART-1-1",           620,      -10.9598,       15.0860,            0.,NA,NA,"",       5.42292,      -4.42633,      -3.13300,   1.44952E-03
C:/temp/dataset/4/16_2.odb,Step-1,Increment      1: Step Time =    1.000,"PART-1-1",           621,      -8.93702,       14.7598,            0.,NA,NA,"",       5.21839,      -4.40134,      -2.80354,   1.99508E-03
C:/temp/dataset/4/16_2.odb,Step-1,Increment      1: Step Time =    1.000,"PART-1-1",           622,      -13.0880,       4.79273,            0.,NA,NA,"",       4.30676,      -2.74042,      -3.32240,   3.52855E-03
C:/temp/dataset/4/16_2.odb,Step-1,Increment      1: Step Time =    1.000,"PART-1-1",           623,          -15.,       4.84375,            0.,NA,NA,"",       4.53483,      -2.72916,      -3.62165,   5.82034E-03
C:/temp/dataset/4/16_2.odb,Step-1,Increment      1: Step Time =    1.000,"PART-1-1",           624,           -5.,       6.04167,            0.,NA,NA,"",       3.66765,      -3.02433,      -2.07486,   10.3001E-03
C:/temp/dataset/4/16_2.odb,Step-1,Increment      1: Step Time =    1.000,"PART-1-1",           625,      -7.12843,       5.83601,            0.,NA,NA,"",       3.81771,      -2.96297,      -2.40743,   4.51070E-03
C:/temp/dataset/4/16_2.odb,Step-1,Increment      1: Step Time =    1.000,"PART-1-1",           626,       12.9112,      -8.87192,            0.,NA,NA,"",       1.23640,      -1.21278,   240.552E-03,   10.7623E-03
C:/temp/dataset/4/16_2.odb,Step-1,Increment      1: Step Time =    1.000,"PART-1-1",           627,           15.,         -8.75,            0.,NA,NA,"",       1.32619,      -1.24870,   446.685E-03,   17.8562E-03
C:/temp/dataset/4/16_2.odb,Step-1,Increment      1: Step Time =    1.000,"PART-1-1",           628,       13.0740,      -16.2399,            0.,NA,NA,"",   597.327E-03,  -562.686E-03,   200.460E-03,   14.6446E-03
C:/temp/dataset/4/16_2.odb,Step-1,Increment      1: Step Time =    1.000,"PART-1-1",           629,           15.,        -16.25,            0.,NA,NA,"",   673.093E-03,  -583.104E-03,   336.222E-03,   23.4743E-03
C:/temp/dataset/4/16_2.odb,Step-1,Increment      1: Step Time =    1.000,"PART-1-1",           630,       13.0128,       13.9092,            0.,NA,NA,"",       3.90317,      -3.89992,   159.290E-03,   84.0995E-06
C:/temp/dataset/4/16_2.odb,Step-1,Increment      1: Step Time =    1.000,"PART-1-1",           631,           15.,         13.75,            0.,NA,NA,"",       3.91503,      -3.89502,   395.339E-03,   86.5979E-06
C:/temp/dataset/4/16_2.odb,Step-1,Increment      1: Step Time =    1.000,"PART-1-1",           632,       10.9505,       11.7339,            0.,NA,NA,"",       3.62900,      -3.62833,  -69.5096E-03,   149.221E-06
C:/temp/dataset/4/16_2.odb,Step-1,Increment      1: Step Time =    1.000,"PART-1-1",           633,       9.98883,       12.9959,            0.,NA,NA,"",       3.77553,      -3.77065,  -191.902E-03,   116.538E-06
C:/temp/dataset/4/16_2.odb,Step-1,Increment      1: Step Time =    1.000,"PART-1-1",           634,       8.94372,       11.9797,            0.,NA,NA,"",       3.65616,      -3.64313,  -308.351E-03,   153.240E-06
C:/temp/dataset/4/16_2.odb,Step-1,Increment      1: Step Time =    1.000,"PART-1-1",           635,      -13.9153,       18.9000,            0.,NA,NA,"",       6.20225,      -5.00650,      -3.66098,   96.1743E-06
C:/temp/dataset/4/16_2.odb,Step-1,Increment      1: Step Time =    1.000,"PART-1-1",           636,      -12.6393,       19.9841,            0.,NA,NA,"",       6.24986,      -5.19890,      -3.46875,   47.0464E-06
C:/temp/dataset/4/16_2.odb,Step-1,Increment      1: Step Time =    1.000,"PART-1-1",           637,          -15.,       20.1563,            0.,NA,NA,"",       6.46832,      -5.19553,      -3.85300,   153.415E-06
C:/temp/dataset/4/16_2.odb,Step-1,Increment      1: Step Time =    1.000,"PART-1-1",           638,       8.12191,      -21.7795,            0.,NA,NA,"",   223.872E-03,  -207.916E-03,  -83.0045E-03,   10.5007E-03
C:/temp/dataset/4/16_2.odb,Step-1,Increment      1: Step Time =    1.000,"PART-1-1",           639,       8.12482,      -23.8590,            0.,NA,NA,"",   134.345E-03,  -119.459E-03,  -61.4667E-03,   11.0487E-03
C:/temp/dataset/4/16_2.odb,Step-1,Increment      1: Step Time =    1.000,"PART-1-1",           640,       8.11825,      -19.6354,            0.,NA,NA,"",   338.087E-03,  -321.317E-03,  -105.160E-03,   9.94654E-03
C:/temp/dataset/4/16_2.odb,Step-1,Increment      1: Step Time =    1.000,"PART-1-1",           641,       8.10952,      -17.4508,            0.,NA,NA,"",   476.307E-03,  -458.711E-03,  -128.268E-03,   9.43589E-03
C:/temp/dataset/4/16_2.odb,Step-1,Increment      1: Step Time =    1.000,"PART-1-1",           642,       7.85781,       23.9076,            0.,NA,NA,"",       5.07195,      -5.04523,  -519.962E-03,   426.233E-09
C:/temp/dataset/4/16_2.odb,Step-1,Increment      1: Step Time =    1.000,"PART-1-1",           643,       7.94870,       21.8524,            0.,NA,NA,"",       4.82841,      -4.80299,  -494.819E-03,   734.945E-09
C:/temp/dataset/4/16_2.odb,Step-1,Increment      1: Step Time =    1.000,"PART-1-1",           644,       4.21929,       2.98066,            0.,NA,NA,"",       2.68611,      -2.56426,  -799.852E-03,   6.50974E-03
C:/temp/dataset/4/16_2.odb,Step-1,Increment      1: Step Time =    1.000,"PART-1-1",           645,       5.32392,       3.96649,            0.,NA,NA,"",       2.77078,      -2.68734,  -674.863E-03,   8.37713E-03
C:/temp/dataset/4/16_2.odb,Step-1,Increment      1: Step Time =    1.000,"PART-1-1",           646,          3.75,            5.,            0.,NA,NA,"",       2.95023,      -2.81514,  -882.550E-03,   13.3650E-03
C:/temp/dataset/4/16_2.odb,Step-1,Increment      1: Step Time =    1.000,"PART-1-1",           647,       12.8859,       9.04653,            0.,NA,NA,"",       3.32884,      -3.32405,   178.463E-03,   76.8383E-06
C:/temp/dataset/4/16_2.odb,Step-1,Increment      1: Step Time =    1.000,"PART-1-1",           648,           15.,          8.75,            0.,NA,NA,"",       3.33167,      -3.30361,   431.535E-03,   395.856E-06
C:/temp/dataset/4/16_2.odb,Step-1,Increment      1: Step Time =    1.000,"PART-1-1",           649,      -8.02807,       9.41948,            0.,NA,NA,"",       4.38563,      -3.53765,      -2.59206,   3.45773E-03
C:/temp/dataset/4/16_2.odb,Step-1,Increment      1: Step Time =    1.000,"PART-1-1",           650,      -8.84347,       16.8085,            0.,NA,NA,"",       5.50878,      -4.73577,      -2.81410,   1.08525E-03
C:/temp/dataset/4/16_2.odb,Step-1,Increment      1: Step Time =    1.000,"PART-1-1",           651,      -9.78583,       18.0165,            0.,NA,NA,"",       5.75165,      -4.91845,      -2.98167,   506.570E-06
C:/temp/dataset/4/16_2.odb,Step-1,Increment      1: Step Time =    1.000,"PART-1-1",           652,          -15.,       17.9688,            0.,NA,NA,"",       6.16957,      -4.84117,      -3.82447,   101.307E-06
C:/temp/dataset/4/16_2.odb,Step-1,Increment      1: Step Time =    1.000,"PART-1-1",           653,          -15.,       24.5313,            0.,NA,NA,"",       7.08053,      -5.90294,      -3.91015,   45.9806E-06
C:/temp/dataset/4/16_2.odb,Step-1,Increment      1: Step Time =    1.000,"PART-1-1",           654,      -12.9952,       24.7258,            0.,NA,NA,"",       6.95767,      -5.96077,      -3.58865,   41.8964E-06
C:/temp/dataset/4/16_2.odb,Step-1,Increment      1: Step Time =    1.000,"PART-1-1",           655,      -11.4985,       21.8877,            0.,NA,NA,"",       6.43749,      -5.52176,      -3.30931,   51.6842E-06
C:/temp/dataset/4/16_2.odb,Step-1,Increment      1: Step Time =    1.000,"PART-1-1",           656,      -11.4490,       20.6565,            0.,NA,NA,"",       6.25540,      -5.32337,      -3.28508,   60.1645E-06
C:/temp/dataset/4/16_2.odb,Step-1,Increment      1: Step Time =    1.000,"PART-1-1",           657,      -10.1446,       20.7260,            0.,NA,NA,"",       6.17238,      -5.35183,      -3.07510,   74.7164E-06
C:/temp/dataset/4/16_2.odb,Step-1,Increment      1: Step Time =    1.000,"PART-1-1",           658,      -7.69218,       19.6350,            0.,NA,NA,"",       5.85006,      -5.20802,      -2.66455,   150.715E-06
C:/temp/dataset/4/16_2.odb,Step-1,Increment      1: Step Time =    1.000,"PART-1-1",           659,      -8.68744,       18.7463,            0.,NA,NA,"",       5.78211,      -5.05132,      -2.81370,   390.395E-06
C:/temp/dataset/4/16_2.odb,Step-1,Increment      1: Step Time =    1.000,"PART-1-1",           660,      -7.82721,       17.7030,            0.,NA,NA,"",       5.57138,      -4.89462,      -2.66138,   812.843E-06
C:/temp/dataset/4/16_2.odb,Step-1,Increment      1: Step Time =    1.000,"PART-1-1",           661,      -9.52114,       19.8817,            0.,NA,NA,"",       6.00557,      -5.22361,      -2.96323,   137.352E-06
C:/temp/dataset/4/16_2.odb,Step-1,Increment      1: Step Time =    1.000,"PART-1-1",           662,      -10.6195,       19.1519,            0.,NA,NA,"",       5.97683,      -5.09100,      -3.13117,   226.039E-06
C:/temp/dataset/4/16_2.odb,Step-1,Increment      1: Step Time =    1.000,"PART-1-1",           663,      -12.1485,       3.78191,            0.,NA,NA,"",       4.08918,      -2.59424,      -3.16090,   3.30775E-03
C:/temp/dataset/4/16_2.odb,Step-1,Increment      1: Step Time =    1.000,"PART-1-1",           664,      -10.9850,       2.86362,            0.,NA,NA,"",       3.85822,      -2.46624,      -2.96707,   3.33680E-03
C:/temp/dataset/4/16_2.odb,Step-1,Increment      1: Step Time =    1.000,"PART-1-1",           665,      -9.06958,       8.49577,            0.,NA,NA,"",       4.34932,      -3.37327,      -2.74547,   3.47545E-03
C:/temp/dataset/4/16_2.odb,Step-1,Increment      1: Step Time =    1.000,"PART-1-1",           666,      -8.08215,       7.28595,            0.,NA,NA,"",       4.09826,      -3.18859,      -2.57460,   4.15326E-03
C:/temp/dataset/4/16_2.odb,Step-1,Increment      1: Step Time =    1.000,"PART-1-1",           667,      -10.1292,       7.60955,            0.,NA,NA,"",       4.33144,      -3.21704,      -2.90036,   3.18971E-03
C:/temp/dataset/4/16_2.odb,Step-1,Increment      1: Step Time =    1.000,"PART-1-1",           668,      -11.2104,       6.77234,            0.,NA,NA,"",       4.33404,      -3.07108,      -3.05816,   2.78869E-03
C:/temp/dataset/4/16_2.odb,Step-1,Increment      1: Step Time =    1.000,"PART-1-1",           669,      -10.2942,       5.63122,            0.,NA,NA,"",       4.09999,      -2.89994,      -2.89833,   2.92256E-03
C:/temp/dataset/4/16_2.odb,Step-1,Increment      1: Step Time =    1.000,"PART-1-1",           670,      -9.21309,       6.46842,            0.,NA,NA,"",       4.09619,      -3.04400,      -2.74096,   3.33004E-03
C:/temp/dataset/4/16_2.odb,Step-1,Increment      1: Step Time =    1.000,"PART-1-1",           671,        -11.25,           -5.,            0.,NA,NA,"",       3.18743,      -1.28839,      -2.91544,   1.72790E-03
C:/temp/dataset/4/16_2.odb,Step-1,Increment      1: Step Time =    1.000,"PART-1-1",           672,      -10.0273,      -3.93877,            0.,NA,NA,"",       3.10772,      -1.46548,      -2.74050,   2.88442E-03
C:/temp/dataset/4/16_2.odb,Step-1,Increment      1: Step Time =    1.000,"PART-1-1",           673,         -8.75,           -5.,            0.,NA,NA,"",       2.86093,      -1.32394,      -2.53616,   4.37842E-03
C:/temp/dataset/4/16_2.odb,Step-1,Increment      1: Step Time =    1.000,"PART-1-1",           674,      -7.59562,      -4.02918,            0.,NA,NA,"",       2.79933,      -1.48755,      -2.37137,   4.81566E-03
C:/temp/dataset/4/16_2.odb,Step-1,Increment      1: Step Time =    1.000,"PART-1-1",           675,      -8.87289,      -2.96795,            0.,NA,NA,"",       3.04511,      -1.62621,      -2.57452,   3.97308E-03
C:/temp/dataset/4/16_2.odb,Step-1,Increment      1: Step Time =    1.000,"PART-1-1",           676,         -6.25,           -5.,            0.,NA,NA,"",       2.55772,      -1.36520,      -2.16291,   6.97345E-03
C:/temp/dataset/4/16_2.odb,Step-1,Increment      1: Step Time =    1.000,"PART-1-1",           677,      -5.03874,      -3.83161,            0.,NA,NA,"",       2.53024,      -1.55690,      -1.99454,   6.12226E-03
C:/temp/dataset/4/16_2.odb,Step-1,Increment      1: Step Time =    1.000,"PART-1-1",           678,      -6.38435,      -2.86079,            0.,NA,NA,"",       2.76715,      -1.67748,      -2.20073,   4.50746E-03
C:/temp/dataset/4/16_2.odb,Step-1,Increment      1: Step Time =    1.000,"PART-1-1",           679,      -8.31216,       1.98044,            0.,NA,NA,"",       3.46866,      -2.36071,      -2.54139,   4.27294E-03
C:/temp/dataset/4/16_2.odb,Step-1,Increment      1: Step Time =    1.000,"PART-1-1",           680,      -6.89941,       1.67561,            0.,NA,NA,"",       3.28896,      -2.33000,      -2.32129,   4.29688E-03
C:/temp/dataset/4/16_2.odb,Step-1,Increment      1: Step Time =    1.000,"PART-1-1",           681,      -8.02347,       3.70061,            0.,NA,NA,"",       3.63514,      -2.62163,      -2.51820,   4.18023E-03
C:/temp/dataset/4/16_2.odb,Step-1,Increment      1: Step Time =    1.000,"PART-1-1",           682,      -9.78636,       2.36681,            0.,NA,NA,"",       3.67061,      -2.40346,      -2.77430,   3.89592E-03
C:/temp/dataset/4/16_2.odb,Step-1,Increment      1: Step Time =    1.000,"PART-1-1",           683,      -8.80920,   354.969E-03,            0.,NA,NA,"",       3.35128,      -2.11545,      -2.59922,   4.38927E-03
C:/temp/dataset/4/16_2.odb,Step-1,Increment      1: Step Time =    1.000,"PART-1-1",           684,         -3.75,           -5.,            0.,NA,NA,"",       2.28690,      -1.40992,      -1.80057,   8.72110E-03
C:/temp/dataset/4/16_2.odb,Step-1,Increment      1: Step Time =    1.000,"PART-1-1",           685,          3.75,           -5.,            0.,NA,NA,"",       1.72998,      -1.54208,  -784.085E-03,   12.1392E-03
C:/temp/dataset/4/16_2.odb,Step-1,Increment      1: Step Time =    1.000,"PART-1-1",           686,       4.46580,      -3.87501,            0.,NA,NA,"",       1.83521,      -1.69913,  -693.493E-03,   10.0036E-03
C:/temp/dataset/4/16_2.odb,Step-1,Increment      1: Step Time =    1.000,"PART-1-1",           687,       2.90021,      -2.90757,            0.,NA,NA,"",       2.01778,      -1.80208,  -907.718E-03,   4.20607E-03
C:/temp/dataset/4/16_2.odb,Step-1,Increment      1: Step Time =    1.000,"PART-1-1",           688,       11.1618,       2.81075,            0.,NA,NA,"",       2.56417,      -2.56409,   20.8742E-03,   4.22123E-03
C:/temp/dataset/4/16_2.odb,Step-1,Increment      1: Step Time =    1.000,"PART-1-1",           689,       10.1850,       1.50626,            0.,NA,NA,"",       2.39987,      -2.39849,  -81.4045E-03,   6.11944E-03
C:/temp/dataset/4/16_2.odb,Step-1,Increment      1: Step Time =    1.000,"PART-1-1",           690,       11.6421,   144.368E-03,            0.,NA,NA,"",       2.24094,      -2.23892,   95.0343E-03,   6.24166E-03
C:/temp/dataset/4/16_2.odb,Step-1,Increment      1: Step Time =    1.000,"PART-1-1",           691,         11.25,           30.,            0.,NA,NA,"",       5.79124,      -5.78898,  -161.778E-03,   222.061E-09
C:/temp/dataset/4/16_2.odb,Step-1,Increment      1: Step Time =    1.000,"PART-1-1",           692,       9.19768,       26.3844,            0.,NA,NA,"",       5.36073,      -5.34732,  -378.977E-03,   361.019E-09
C:/temp/dataset/4/16_2.odb,Step-1,Increment      1: Step Time =    1.000,"PART-1-1",           693,       7.72138,       25.7435,            0.,NA,NA,"",       5.28979,      -5.26123,  -548.949E-03,   414.226E-09
C:/temp/dataset/4/16_2.odb,Step-1,Increment      1: Step Time =    1.000,"PART-1-1",           694,       9.17897,      -24.8987,            0.,NA,NA,"",   83.2475E-03,  -80.3527E-03,  -21.7620E-03,   5.77437E-03
C:/temp/dataset/4/16_2.odb,Step-1,Increment      1: Step Time =    1.000,"PART-1-1",           695,       9.00589,       18.6572,            0.,NA,NA,"",       4.44639,      -4.43279,  -347.500E-03,   13.3152E-06
C:/temp/dataset/4/16_2.odb,Step-1,Increment      1: Step Time =    1.000,"PART-1-1",           696,       7.99757,       19.7140,            0.,NA,NA,"",       4.57524,      -4.55061,  -474.059E-03,   4.68708E-06
C:/temp/dataset/4/16_2.odb,Step-1,Increment      1: Step Time =    1.000,"PART-1-1",           697,      -12.2498,       25.7751,            0.,NA,NA,"",       7.05869,      -6.14013,      -3.48194,   28.9893E-06
C:/temp/dataset/4/16_2.odb,Step-1,Increment      1: Step Time =    1.000,"PART-1-1",           698,      -11.9888,       23.9538,            0.,NA,NA,"",       6.77357,      -5.84924,      -3.41579,   47.1787E-06
C:/temp/dataset/4/16_2.odb,Step-1,Increment      1: Step Time =    1.000,"PART-1-1",           699,      -1.59164,      -1.60220,            0.,NA,NA,"",       2.45106,      -1.92138,      -1.52183,   2.62737E-03
C:/temp/dataset/4/16_2.odb,Step-1,Increment      1: Step Time =    1.000,"PART-1-1",           700,      -1.34014,  -343.401E-03,            0.,NA,NA,"",       2.57760,      -2.09772,      -1.49785,   554.372E-06
C:/temp/dataset/4/16_2.odb,Step-1,Increment      1: Step Time =    1.000,"PART-1-1",           701,      -2.70787,  -93.9540E-03,            0.,NA,NA,"",       2.71094,      -2.11895,      -1.69093,   1.19012E-03
C:/temp/dataset/4/16_2.odb,Step-1,Increment      1: Step Time =    1.000,"PART-1-1",           702,       8.06015,      -13.0184,            0.,NA,NA,"",   819.305E-03,  -799.474E-03,  -179.167E-03,   8.53263E-03
C:/temp/dataset/4/16_2.odb,Step-1,Increment      1: Step Time =    1.000,"PART-1-1",           703,       7.99745,      -10.7906,            0.,NA,NA,"",       1.02061,  -998.907E-03,  -209.343E-03,   8.13282E-03
C:/temp/dataset/4/16_2.odb,Step-1,Increment      1: Step Time =    1.000,"PART-1-1",           704,           15.,        -26.25,            0.,NA,NA,"",   132.496E-03,  -78.2964E-03,   106.887E-03,   30.5260E-03
C:/temp/dataset/4/16_2.odb,Step-1,Increment      1: Step Time =    1.000,"PART-1-1",           705,       13.9776,      -24.8045,            0.,NA,NA,"",   156.010E-03,  -107.356E-03,   113.198E-03,   23.8139E-03
C:/temp/dataset/4/16_2.odb,Step-1,Increment      1: Step Time =    1.000,"PART-1-1",           706,       12.6094,      -25.9010,            0.,NA,NA,"",   83.9324E-03,  -61.4810E-03,   57.1379E-03,   16.5181E-03
C:/temp/dataset/4/16_2.odb,Step-1,Increment      1: Step Time =    1.000,"PART-1-1",           707,       12.0224,      -24.3398,            0.,NA,NA,"",   122.380E-03,  -106.060E-03,   61.0595E-03,   12.8141E-03
C:/temp/dataset/4/16_2.odb,Step-1,Increment      1: Step Time =    1.000,"PART-1-1",           708,       13.0263,      -23.4242,            0.,NA,NA,"",   182.262E-03,  -148.067E-03,   106.282E-03,   17.8327E-03
C:/temp/dataset/4/16_2.odb,Step-1,Increment      1: Step Time =    1.000,"PART-1-1",           709,       12.1300,      -22.1112,            0.,NA,NA,"",   216.858E-03,  -198.405E-03,   87.5383E-03,   12.3474E-03
C:/temp/dataset/4/16_2.odb,Step-1,Increment      1: Step Time =    1.000,"PART-1-1",           710,           15.,        -23.75,            0.,NA,NA,"",   232.673E-03,  -157.175E-03,   171.561E-03,   28.7798E-03
C:/temp/dataset/4/16_2.odb,Step-1,Increment      1: Step Time =    1.000,"PART-1-1",           711,       10.9035,      -9.09896,            0.,NA,NA,"",       1.17465,      -1.17366,   48.1903E-03,   5.06066E-03
C:/temp/dataset/4/16_2.odb,Step-1,Increment      1: Step Time =    1.000,"PART-1-1",           712,       9.82794,      -8.10226,            0.,NA,NA,"",       1.27028,      -1.26891,  -59.0931E-03,   3.39682E-03
C:/temp/dataset/4/16_2.odb,Step-1,Increment      1: Step Time =    1.000,"PART-1-1",           713,       8.90728,      -9.48784,            0.,NA,NA,"",       1.13388,      -1.12542,  -138.231E-03,   4.75271E-03
C:/temp/dataset/4/16_2.odb,Step-1,Increment      1: Step Time =    1.000,"PART-1-1",           714,           15.,         -1.25,            0.,NA,NA,"",       2.15373,      -2.09745,   489.129E-03,   7.50607E-03
C:/temp/dataset/4/16_2.odb,Step-1,Increment      1: Step Time =    1.000,"PART-1-1",           715,       12.7555,      -1.12336,            0.,NA,NA,"",       2.10413,      -2.09176,   227.882E-03,   6.65989E-03
C:/temp/dataset/4/16_2.odb,Step-1,Increment      1: Step Time =    1.000,"PART-1-1",           716,       11.5680,       5.48707,            0.,NA,NA,"",       2.89134,      -2.89094,   47.9293E-03,   1.47084E-03
C:/temp/dataset/4/16_2.odb,Step-1,Increment      1: Step Time =    1.000,"PART-1-1",           717,       10.1222,       4.29256,            0.,NA,NA,"",       2.74124,      -2.73892,  -112.723E-03,   3.45585E-03
C:/temp/dataset/4/16_2.odb,Step-1,Increment      1: Step Time =    1.000,"PART-1-1",           718,       8.27918,   509.070E-03,            0.,NA,NA,"",       2.28488,      -2.26635,  -290.407E-03,   7.62210E-03
C:/temp/dataset/4/16_2.odb,Step-1,Increment      1: Step Time =    1.000,"PART-1-1",           719,       9.70893,  -124.236E-03,            0.,NA,NA,"",       2.19750,      -2.19412,  -121.871E-03,   7.48694E-03
C:/temp/dataset/4/16_2.odb,Step-1,Increment      1: Step Time =    1.000,"PART-1-1",           720,       8.75521,       2.13956,            0.,NA,NA,"",       2.48330,      -2.47048,  -251.976E-03,   6.51074E-03
C:/temp/dataset/4/16_2.odb,Step-1,Increment      1: Step Time =    1.000,"PART-1-1",           721,       6.99874,       4.90963,            0.,NA,NA,"",       2.84245,      -2.80053,  -486.413E-03,   4.97194E-03
C:/temp/dataset/4/16_2.odb,Step-1,Increment      1: Step Time =    1.000,"PART-1-1",           722,       8.01086,       5.41567,            0.,NA,NA,"",       2.88767,      -2.86371,  -371.241E-03,   3.39951E-03
C:/temp/dataset/4/16_2.odb,Step-1,Increment      1: Step Time =    1.000,"PART-1-1",           723,       11.8045,       7.99587,            0.,NA,NA,"",       3.19240,      -3.19188,   57.6488E-03,   239.022E-06
C:/temp/dataset/4/16_2.odb,Step-1,Increment      1: Step Time =    1.000,"PART-1-1",           724,       7.91904,       10.9856,            0.,NA,NA,"",       3.54369,      -3.51843,  -422.426E-03,   170.105E-06
C:/temp/dataset/4/16_2.odb,Step-1,Increment      1: Step Time =    1.000,"PART-1-1",           725,       11.0233,       18.7016,            0.,NA,NA,"",       4.45354,      -4.45220,  -109.399E-03,   12.9942E-06
C:/temp/dataset/4/16_2.odb,Step-1,Increment      1: Step Time =    1.000,"PART-1-1",           726,       10.0074,       19.8076,            0.,NA,NA,"",       4.58192,      -4.57577,  -237.199E-03,   5.15894E-06
C:/temp/dataset/4/16_2.odb,Step-1,Increment      1: Step Time =    1.000,"PART-1-1",           727,       10.9673,       21.0105,            0.,NA,NA,"",       4.72651,      -4.72466,  -132.196E-03,   3.01703E-06
C:/temp/dataset/4/16_2.odb,Step-1,Increment      1: Step Time =    1.000,"PART-1-1",           728,       8.97465,       20.8454,            0.,NA,NA,"",       4.70547,      -4.69117,  -366.520E-03,   3.39056E-06
C:/temp/dataset/4/16_2.odb,Step-1,Increment      1: Step Time =    1.000,"PART-1-1",           729,       8.66510,       24.8184,            0.,NA,NA,"",       5.17649,      -5.15852,  -430.942E-03,   431.478E-09
C:/temp/dataset/4/16_2.odb,Step-1,Increment      1: Step Time =    1.000,"PART-1-1",           730,       7.98376,       13.1681,            0.,NA,NA,"",       3.80120,      -3.77681,  -429.915E-03,   104.953E-06
C:/temp/dataset/4/16_2.odb,Step-1,Increment      1: Step Time =    1.000,"PART-1-1",           731,      -1.95806,       1.80915,            0.,NA,NA,"",       2.87901,      -2.39001,      -1.60517,   5.06053E-03
C:/temp/dataset/4/16_2.odb,Step-1,Increment      1: Step Time =    1.000,"PART-1-1",           732,  -613.587E-03,   828.335E-03,            0.,NA,NA,"",       2.66686,      -2.26389,      -1.40960,   2.71684E-03
C:/temp/dataset/4/16_2.odb,Step-1,Increment      1: Step Time =    1.000,"PART-1-1",           733,   461.223E-03,       1.99751,            0.,NA,NA,"",       2.74239,      -2.42702,      -1.27683,   5.64807E-03
C:/temp/dataset/4/16_2.odb,Step-1,Increment      1: Step Time =    1.000,"PART-1-1",           734,       1.74006,       1.04512,            0.,NA,NA,"",       2.55459,      -2.30729,      -1.09651,   3.65701E-03
C:/temp/dataset/4/16_2.odb,Step-1,Increment      1: Step Time =    1.000,"PART-1-1",           735,   906.022E-03,  -39.5003E-03,            0.,NA,NA,"",       2.46766,      -2.15851,      -1.19590,   1.18376E-03
C:/temp/dataset/4/16_2.odb,Step-1,Increment      1: Step Time =    1.000,"PART-1-1",           736,       2.15034,  -968.542E-03,            0.,NA,NA,"",       2.28761,      -2.04618,      -1.02288,   959.027E-06
C:/temp/dataset/4/16_2.odb,Step-1,Increment      1: Step Time =    1.000,"PART-1-1",           737,       2.98438,   116.081E-03,            0.,NA,NA,"",       2.38078,      -2.19363,  -925.252E-03,   2.55143E-03
C:/temp/dataset/4/16_2.odb,Step-1,Increment      1: Step Time =    1.000,"PART-1-1",           738,      -8.25937,       5.01848,            0.,NA,NA,"",       3.81944,      -2.82332,      -2.57234,   4.12803E-03
C:/temp/dataset/4/16_2.odb,Step-1,Increment      1: Step Time =    1.000,"PART-1-1",           739,      -2.78312,       1.01462,            0.,NA,NA,"",       2.84599,      -2.27345,      -1.71204,   2.34624E-03
C:/temp/dataset/4/16_2.odb,Step-1,Increment      1: Step Time =    1.000,"PART-1-1",           740,      -4.31499,   913.536E-03,            0.,NA,NA,"",       2.96116,      -2.24577,      -1.93003,   2.31987E-03
C:/temp/dataset/4/16_2.odb,Step-1,Increment      1: Step Time =    1.000,"PART-1-1",           741,      -4.23975,  -195.042E-03,            0.,NA,NA,"",       2.82940,      -2.08849,      -1.90885,   2.30684E-03
C:/temp/dataset/4/16_2.odb,Step-1,Increment      1: Step Time =    1.000,"PART-1-1",           742,      -8.52646,       20.5688,            0.,NA,NA,"",       6.04180,      -5.34776,      -2.81155,   95.5072E-06
C:/temp/dataset/4/16_2.odb,Step-1,Increment      1: Step Time =    1.000,"PART-1-1",           743,       8.09873,      -15.2435,            0.,NA,NA,"",   636.968E-03,  -618.516E-03,  -152.206E-03,   8.93244E-03
C:/temp/dataset/4/16_2.odb,Step-1,Increment      1: Step Time =    1.000,"PART-1-1",           744,       8.99676,       14.2096,            0.,NA,NA,"",       3.91995,      -3.90707,  -317.526E-03,   90.9984E-06
C:/temp/dataset/4/16_2.odb,Step-1,Increment      1: Step Time =    1.000,"PART-1-1",           745,       11.0169,       14.0599,            0.,NA,NA,"",       3.90444,      -3.90366,  -77.7565E-03,   91.3573E-06
C:/temp/dataset/4/16_2.odb,Step-1,Increment      1: Step Time =    1.000,"PART-1-1",           746,      -7.91902,       15.6847,            0.,NA,NA,"",       5.28040,      -4.56667,      -2.65106,   1.77706E-03
C:/temp/dataset/4/16_2.odb,Step-1,Increment      1: Step Time =    1.000,"PART-1-1",           747,      -11.9968,       14.1876,            0.,NA,NA,"",       5.38588,      -4.26584,      -3.28790,   1.52735E-03
C:/temp/dataset/4/16_2.odb,Step-1,Increment      1: Step Time =    1.000,"PART-1-1",           748,      -11.1175,       8.79310,            0.,NA,NA,"",       4.58041,      -3.39688,      -3.07267,   3.02585E-03
C:/temp/dataset/4/16_2.odb,Step-1,Increment      1: Step Time =    1.000,"PART-1-1",           749,       10.6592,      -6.44981,            0.,NA,NA,"",       1.45048,      -1.45038,   17.2805E-03,   5.76977E-03
C:/temp/dataset/4/16_2.odb,Step-1,Increment      1: Step Time =    1.000,"PART-1-1",           750,      -10.7894,       23.3985,            0.,NA,NA,"",       6.60962,      -5.77525,      -3.21458,   59.7213E-06
C:/temp/dataset/4/16_2.odb,Step-1,Increment      1: Step Time =    1.000,"PART-1-1",           751,       10.0228,      -25.8019,            0.,NA,NA,"",   53.2842E-03,  -53.2752E-03,   982.336E-06,   3.52829E-03
C:/temp/dataset/4/16_2.odb,Step-1,Increment      1: Step Time =    1.000,"PART-1-1",           752,       10.9542,      -24.8826,            0.,NA,NA,"",   86.5877E-03,  -82.5548E-03,   26.1178E-03,   6.89307E-03
C:/temp/dataset/4/16_2.odb,Step-1,Increment      1: Step Time =    1.000,"PART-1-1",           753,       11.8371,      -2.37854,            0.,NA,NA,"",       1.93613,      -1.93179,   129.593E-03,   7.43050E-03
C:/temp/dataset/4/16_2.odb,Step-1,Increment      1: Step Time =    1.000,"PART-1-1",           754,       11.6235,      -5.02753,            0.,NA,NA,"",       1.62162,      -1.61762,   113.921E-03,   7.42240E-03
C:/temp/dataset/4/16_2.odb,Step-1,Increment      1: Step Time =    1.000,"PART-1-1",           755,      -12.1333,       7.86930,            0.,NA,NA,"",       4.56495,      -3.23627,      -3.21953,   3.09613E-03
C:/temp/dataset/4/16_2.odb,Step-1,Increment      1: Step Time =    1.000,"PART-1-1",           756,      -12.0768,       9.95169,            0.,NA,NA,"",       4.82451,      -3.57347,      -3.24133,   2.85558E-03
C:/temp/dataset/4/16_2.odb,Step-1,Increment      1: Step Time =    1.000,"PART-1-1",           757,       8.68743,       3.64563,            0.,NA,NA,"",       2.66882,      -2.65462,  -274.900E-03,   5.01223E-03
C:/temp/dataset/4/16_2.odb,Step-1,Increment      1: Step Time =    1.000,"PART-1-1",           758,       6.61848,       3.66599,            0.,NA,NA,"",       2.70232,      -2.65217,  -518.243E-03,   6.69971E-03
C:/temp/dataset/4/16_2.odb,Step-1,Increment      1: Step Time =    1.000,"PART-1-1",           759,       4.71579,   65.6079E-03,            0.,NA,NA,"",       2.30758,      -2.19666,  -706.852E-03,   4.73371E-03
C:/temp/dataset/4/16_2.odb,Step-1,Increment      1: Step Time =    1.000,"PART-1-1",           760,       3.89104,   957.250E-03,            0.,NA,NA,"",       2.44771,      -2.30656,  -819.212E-03,   4.51257E-03
C:/temp/dataset/4/16_2.odb,Step-1,Increment      1: Step Time =    1.000,"PART-1-1",           761,      -12.0363,       12.0623,            0.,NA,NA,"",       5.10019,      -3.91814,      -3.26498,   2.30784E-03
C:/temp/dataset/4/16_2.odb,Step-1,Increment      1: Step Time =    1.000,"PART-1-1",           762,      -12.1964,       5.82098,            0.,NA,NA,"",       4.32438,      -2.91017,      -3.19862,   3.17150E-03
C:/temp/dataset/4/16_2.odb,Step-1,Increment      1: Step Time =    1.000,"PART-1-1",           763,      -11.2570,       4.81016,            0.,NA,NA,"",       4.10496,      -2.76195,      -3.03683,   2.75179E-03
C:/temp/dataset/4/16_2.odb,Step-1,Increment      1: Step Time =    1.000,"PART-1-1",           764,      -10.5260,       3.94381,            0.,NA,NA,"",       3.92648,      -2.63552,      -2.91055,   3.07579E-03
C:/temp/dataset/4/16_2.odb,Step-1,Increment      1: Step Time =    1.000,"PART-1-1",           765,      -9.56326,       4.76486,            0.,NA,NA,"",       3.91992,      -2.77157,      -2.77203,   2.91468E-03
C:/temp/dataset/4/16_2.odb,Step-1,Increment      1: Step Time =    1.000,"PART-1-1",           766,      -9.32737,       3.44699,            0.,NA,NA,"",       3.74081,      -2.57107,      -2.71721,   3.45624E-03
C:/temp/dataset/4/16_2.odb,Step-1,Increment      1: Step Time =    1.000,"PART-1-1",           767,       11.5413,      -26.4438,            0.,NA,NA,"",   50.8071E-03,  -41.5235E-03,   29.2772E-03,   10.3329E-03
C:/temp/dataset/4/16_2.odb,Step-1,Increment      1: Step Time =    1.000,"PART-1-1",           768,       5.97241,      -3.36228,            0.,NA,NA,"",       1.84659,      -1.77380,  -513.359E-03,   7.32022E-03
C:/temp/dataset/4/16_2.odb,Step-1,Increment      1: Step Time =    1.000,"PART-1-1",           769,       11.9304,       22.2704,            0.,NA,NA,"",       4.88037,      -4.88030,  -27.2095E-03,   519.099E-09
C:/temp/dataset/4/16_2.odb,Step-1,Increment      1: Step Time =    1.000,"PART-1-1",           770,      -3.95064,       2.12654,            0.,NA,NA,"",       3.07201,      -2.42213,      -1.88958,   3.79019E-03
C:/temp/dataset/4/16_2.odb,Step-1,Increment      1: Step Time =    1.000,"PART-1-1",           771,       12.1361,      -19.7979,            0.,NA,NA,"",   337.942E-03,  -319.876E-03,   109.015E-03,   11.6161E-03
C:/temp/dataset/4/16_2.odb,Step-1,Increment      1: Step Time =    1.000,"PART-1-1",           772,       12.1156,      -17.4436,            0.,NA,NA,"",   485.812E-03,  -469.160E-03,   126.104E-03,   10.7398E-03
C:/temp/dataset/4/16_2.odb,Step-1,Increment      1: Step Time =    1.000,"PART-1-1",           773,       11.8489,      -7.73518,            0.,NA,NA,"",       1.32862,      -1.32132,   139.022E-03,   7.40090E-03
C:/temp/dataset/4/16_2.odb,Step-1,Increment      1: Step Time =    1.000,"PART-1-1",           774,       11.9658,      -10.2357,            0.,NA,NA,"",       1.07901,      -1.06893,   147.127E-03,   8.01108E-03
C:/temp/dataset/4/16_2.odb,Step-1,Increment      1: Step Time =    1.000,"PART-1-1",           775,       10.7237,      -1.11081,            0.,NA,NA,"",       2.07828,      -2.07828,  -575.259E-06,   7.33366E-03
C:/temp/dataset/4/16_2.odb,Step-1,Increment      1: Step Time =    1.000,"PART-1-1",           776,       11.9194,       10.4262,            0.,NA,NA,"",       3.48101,      -3.48059,   54.2162E-03,   150.843E-06
C:/temp/dataset/4/16_2.odb,Step-1,Increment      1: Step Time =    1.000,"PART-1-1",           777,       11.9945,       12.8006,            0.,NA,NA,"",       3.76207,      -3.76178,   46.5999E-03,   109.283E-06
C:/temp/dataset/4/16_2.odb,Step-1,Increment      1: Step Time =    1.000,"PART-1-1",           778,       12.0317,      -12.6649,            0.,NA,NA,"",   857.026E-03,  -844.540E-03,   145.756E-03,   8.88418E-03
C:/temp/dataset/4/16_2.odb,Step-1,Increment      1: Step Time =    1.000,"PART-1-1",           779,       12.0352,       15.1685,            0.,NA,NA,"",       4.04197,      -4.04182,   34.8982E-03,   50.1655E-06
C:/temp/dataset/4/16_2.odb,Step-1,Increment      1: Step Time =    1.000,"PART-1-1",           780,      -7.80161,      -2.23284,            0.,NA,NA,"",       2.98530,      -1.74921,      -2.41914,   4.26377E-03
C:/temp/dataset/4/16_2.odb,Step-1,Increment      1: Step Time =    1.000,"PART-1-1",           781,      -8.87876,  -905.543E-03,            0.,NA,NA,"",       3.23488,      -1.92965,      -2.59633,   4.31437E-03
C:/temp/dataset/4/16_2.odb,Step-1,Increment      1: Step Time =    1.000,"PART-1-1",           782,      -7.16649,      -1.00336,            0.,NA,NA,"",       3.03370,      -1.93687,      -2.33492,   4.14786E-03
C:/temp/dataset/4/16_2.odb,Step-1,Increment      1: Step Time =    1.000,"PART-1-1",           783,      -7.09692,   257.153E-03,            0.,NA,NA,"",       3.15568,      -2.12085,      -2.33673,   4.06599E-03
C:/temp/dataset/4/16_2.odb,Step-1,Increment      1: Step Time =    1.000,"PART-1-1",           784,      -5.74923,      -1.63131,            0.,NA,NA,"",       2.82111,      -1.86433,      -2.11730,   3.92660E-03
C:/temp/dataset/4/16_2.odb,Step-1,Increment      1: Step Time =    1.000,"PART-1-1",           785,      -5.66693,  -67.3201E-03,            0.,NA,NA,"",       2.97672,      -2.09044,      -2.11918,   3.31435E-03
C:/temp/dataset/4/16_2.odb,Step-1,Increment      1: Step Time =    1.000,"PART-1-1",           786,      -5.46941,       1.35113,            0.,NA,NA,"",       3.11454,      -2.29716,      -2.10319,   3.50169E-03
C:/temp/dataset/4/16_2.odb,Step-1,Increment      1: Step Time =    1.000,"PART-1-1",           787,       12.0849,      -15.0650,            0.,NA,NA,"",   659.312E-03,  -644.525E-03,   138.849E-03,   9.84122E-03
C:/temp/dataset/4/16_2.odb,Step-1,Increment      1: Step Time =    1.000,"PART-1-1",           788,       7.01212,      -4.44648,            0.,NA,NA,"",       1.69471,      -1.65103,  -382.255E-03,   6.67563E-03
C:/temp/dataset/4/16_2.odb,Step-1,Increment      1: Step Time =    1.000,"PART-1-1",           789,       7.64174,      -3.33281,            0.,NA,NA,"",       1.81684,      -1.78773,  -323.969E-03,   7.35118E-03
C:/temp/dataset/4/16_2.odb,Step-1,Increment      1: Step Time =    1.000,"PART-1-1",           790,       6.60203,      -2.24861,            0.,NA,NA,"",       1.96764,      -1.91465,  -453.545E-03,   7.21085E-03
C:/temp/dataset/4/16_2.odb,Step-1,Increment      1: Step Time =    1.000,"PART-1-1",           791,       6.68626,       2.15992,            0.,NA,NA,"",       2.51596,      -2.46707,  -493.555E-03,   7.25796E-03
C:/temp/dataset/4/16_2.odb,Step-1,Increment      1: Step Time =    1.000,"PART-1-1",           792,       12.0103,       19.9021,            0.,NA,NA,"",       4.60098,      -4.60098,  -1.17098E-03,   4.01343E-06
C:/temp/dataset/4/16_2.odb,Step-1,Increment      1: Step Time =    1.000,"PART-1-1",           793,       12.0305,       17.5416,            0.,NA,NA,"",       4.32222,      -4.32219,   17.7517E-03,   16.9115E-06
C:/temp/dataset/4/16_2.odb,Step-1,Increment      1: Step Time =    1.000,"PART-1-1",           794,       6.09271,      -1.14349,            0.,NA,NA,"",       2.11690,      -2.05038,  -526.508E-03,   6.45134E-03
C:/temp/dataset/4/16_2.odb,Step-1,Increment      1: Step Time =    1.000,"PART-1-1",           795,       7.56053,      -1.65505,            0.,NA,NA,"",       2.02383,      -1.99331,  -350.162E-03,   7.95374E-03
C:/temp/dataset/4/16_2.odb,Step-1,Increment      1: Step Time =    1.000,"PART-1-1",           796,       7.05122,  -549.935E-03,            0.,NA,NA,"",       2.17022,      -2.12904,  -420.796E-03,   7.55709E-03
C:/temp/dataset/4/16_2.odb,Step-1,Increment      1: Step Time =    1.000,"PART-1-1",           797,       5.28588,       1.87348,            0.,NA,NA,"",       2.51522,      -2.42778,  -657.445E-03,   6.23231E-03
C:/temp/dataset/4/16_2.odb,Step-1,Increment      1: Step Time =    1.000,"PART-1-1",           798,       5.70847,   325.226E-03,            0.,NA,NA,"",       2.31018,      -2.23380,  -589.132E-03,   6.36146E-03
C:/temp/dataset/4/16_2.odb,Step-1,Increment      1: Step Time =    1.000,"PART-1-1",           799,       7.10885,   611.668E-03,            0.,NA,NA,"",       2.31456,      -2.27485,  -426.869E-03,   7.33158E-03
C:/temp/dataset/4/16_2.odb,Step-1,Increment      1: Step Time =    1.000,"PART-1-1",           800,       9.00326,      -1.31280,            0.,NA,NA,"",       2.05206,      -2.04316,  -190.962E-03,   7.93842E-03
C:/temp/dataset/4/16_2.odb,Step-1,Increment      1: Step Time =    1.000,"PART-1-1",           801,       8.22155,  -652.532E-03,            0.,NA,NA,"",       2.14033,      -2.12124,  -285.289E-03,   7.92946E-03
C:/temp/dataset/4/16_2.odb,Step-1,Increment      1: Step Time =    1.000,"PART-1-1",           802,       8.34224,      -2.31533,            0.,NA,NA,"",       1.93294,      -1.91596,  -255.705E-03,   7.86153E-03
C:/temp/dataset/4/16_2.odb,Step-1,Increment      1: Step Time =    1.000,"PART-1-1",           803,       2.82445,       2.06443,            0.,NA,NA,"",       2.62857,      -2.44437,  -966.654E-03,   5.72601E-03
