ODB Name,Step,Frame,Part Instance Name,    êﬂì_ÉâÉxÉã,X,Y,Z,Section Name,Material Name,Section Point,   U-Magnitude,          U-U1,          U-U2,       S-Mises
C:/temp/dataset/4/17_05.odb,Step-1,Increment      1: Step Time =    1.000,"PART-1-1",             1,           -5.,           30.,            0.,NA,NA,"",       1.35527,      -1.30024,  -382.255E-03,   43.8657E-09
C:/temp/dataset/4/17_05.odb,Step-1,Increment      1: Step Time =    1.000,"PART-1-1",             2,          -15.,           30.,            0.,NA,NA,"",       1.45698,      -1.29624,  -665.247E-03,   43.7049E-09
C:/temp/dataset/4/17_05.odb,Step-1,Increment      1: Step Time =    1.000,"PART-1-1",             3,          -15.,         21.25,            0.,NA,NA,"",       1.23997,      -1.04862,  -661.746E-03,   2.49550E-06
C:/temp/dataset/4/17_05.odb,Step-1,Increment      1: Step Time =    1.000,"PART-1-1",             4,          -15.,          12.5,            0.,NA,NA,"",       1.03671,  -800.826E-03,  -658.361E-03,   17.3988E-06
C:/temp/dataset/4/17_05.odb,Step-1,Increment      1: Step Time =    1.000,"PART-1-1",             5,          -15.,          3.75,            0.,NA,NA,"",   855.601E-03,  -552.615E-03,  -653.199E-03,   468.172E-06
C:/temp/dataset/4/17_05.odb,Step-1,Increment      1: Step Time =    1.000,"PART-1-1",             6,          -15.,           -5.,            0.,NA,NA,"",   718.452E-03,  -310.206E-03,  -648.032E-03,   19.0452E-06
C:/temp/dataset/4/17_05.odb,Step-1,Increment      1: Step Time =    1.000,"PART-1-1",             7,          -10.,           -5.,            0.,NA,NA,"",   597.413E-03,  -312.553E-03,  -509.129E-03,   324.455E-06
C:/temp/dataset/4/17_05.odb,Step-1,Increment      1: Step Time =    1.000,"PART-1-1",             8,           -5.,           -5.,            0.,NA,NA,"",   488.726E-03,  -317.424E-03,  -371.611E-03,   961.687E-06
C:/temp/dataset/4/17_05.odb,Step-1,Increment      1: Step Time =    1.000,"PART-1-1",             9,            0.,           -5.,            0.,NA,NA,"",   403.251E-03,  -324.116E-03,  -239.917E-03,   1.09922E-03
C:/temp/dataset/4/17_05.odb,Step-1,Increment      1: Step Time =    1.000,"PART-1-1",            10,            5.,           -5.,            0.,NA,NA,"",   349.567E-03,  -331.348E-03,  -111.378E-03,   3.11506E-03
C:/temp/dataset/4/17_05.odb,Step-1,Increment      1: Step Time =    1.000,"PART-1-1",            11,            5.,        -11.25,            0.,NA,NA,"",   224.860E-03,  -205.287E-03,  -91.7575E-03,   3.62657E-03
C:/temp/dataset/4/17_05.odb,Step-1,Increment      1: Step Time =    1.000,"PART-1-1",            12,            5.,         -17.5,            0.,NA,NA,"",   122.409E-03,  -102.310E-03,  -67.2060E-03,   4.81352E-03
C:/temp/dataset/4/17_05.odb,Step-1,Increment      1: Step Time =    1.000,"PART-1-1",            13,            5.,        -23.75,            0.,NA,NA,"",   49.2476E-03,  -33.0638E-03,  -36.4982E-03,   5.98881E-03
C:/temp/dataset/4/17_05.odb,Step-1,Increment      1: Step Time =    1.000,"PART-1-1",            14,            5.,          -30.,            0.,NA,NA,"",            0.,  -2.18154E-39,  -4.14263E-39,   8.10171E-03
C:/temp/dataset/4/17_05.odb,Step-1,Increment      1: Step Time =    1.000,"PART-1-1",            15,           15.,          -30.,            0.,NA,NA,"",            0.,  -2.24610E-39,   4.22667E-39,   7.99247E-03
C:/temp/dataset/4/17_05.odb,Step-1,Increment      1: Step Time =    1.000,"PART-1-1",            16,           15.,         -22.5,            0.,NA,NA,"",   61.6426E-03,  -44.2594E-03,   42.9058E-03,   5.76931E-03
C:/temp/dataset/4/17_05.odb,Step-1,Increment      1: Step Time =    1.000,"PART-1-1",            17,           15.,          -15.,            0.,NA,NA,"",   160.468E-03,  -141.140E-03,   76.3493E-03,   4.35911E-03
C:/temp/dataset/4/17_05.odb,Step-1,Increment      1: Step Time =    1.000,"PART-1-1",            18,           15.,          -7.5,            0.,NA,NA,"",   299.410E-03,  -282.335E-03,   99.6655E-03,   2.91517E-03
C:/temp/dataset/4/17_05.odb,Step-1,Increment      1: Step Time =    1.000,"PART-1-1",            19,           15.,            0.,            0.,NA,NA,"",   466.284E-03,  -452.994E-03,   110.532E-03,   817.877E-06
C:/temp/dataset/4/17_05.odb,Step-1,Increment      1: Step Time =    1.000,"PART-1-1",            20,           15.,           7.5,            0.,NA,NA,"",   639.006E-03,  -629.522E-03,   109.682E-03,   79.8350E-06
C:/temp/dataset/4/17_05.odb,Step-1,Increment      1: Step Time =    1.000,"PART-1-1",            21,           15.,           15.,            0.,NA,NA,"",   810.307E-03,  -803.157E-03,   107.406E-03,   5.83544E-06
C:/temp/dataset/4/17_05.odb,Step-1,Increment      1: Step Time =    1.000,"PART-1-1",            22,           15.,          22.5,            0.,NA,NA,"",   982.229E-03,  -976.558E-03,   105.395E-03,   261.523E-09
C:/temp/dataset/4/17_05.odb,Step-1,Increment      1: Step Time =    1.000,"PART-1-1",            23,           15.,           30.,            0.,NA,NA,"",       1.15461,      -1.14997,   103.391E-03,   14.6793E-09
C:/temp/dataset/4/17_05.odb,Step-1,Increment      1: Step Time =    1.000,"PART-1-1",            24,            5.,           30.,            0.,NA,NA,"",       1.15440,      -1.14730,  -127.830E-03,   15.5895E-09
C:/temp/dataset/4/17_05.odb,Step-1,Increment      1: Step Time =    1.000,"PART-1-1",            25,            5.,         23.75,            0.,NA,NA,"",       1.01069,      -1.00279,  -126.159E-03,   186.689E-09
C:/temp/dataset/4/17_05.odb,Step-1,Increment      1: Step Time =    1.000,"PART-1-1",            26,            5.,          17.5,            0.,NA,NA,"",   867.250E-03,  -858.268E-03,  -124.489E-03,   939.792E-09
C:/temp/dataset/4/17_05.odb,Step-1,Increment      1: Step Time =    1.000,"PART-1-1",            27,            5.,         11.25,            0.,NA,NA,"",   724.224E-03,  -713.746E-03,  -122.744E-03,   39.8775E-06
C:/temp/dataset/4/17_05.odb,Step-1,Increment      1: Step Time =    1.000,"PART-1-1",            28,            5.,            5.,            0.,NA,NA,"",   584.682E-03,  -572.084E-03,  -120.717E-03,   1.69059E-03
C:/temp/dataset/4/17_05.odb,Step-1,Increment      1: Step Time =    1.000,"PART-1-1",            29,            0.,            5.,            0.,NA,NA,"",   629.084E-03,  -579.653E-03,  -244.437E-03,   1.85285E-03
C:/temp/dataset/4/17_05.odb,Step-1,Increment      1: Step Time =    1.000,"PART-1-1",            30,           -5.,            5.,            0.,NA,NA,"",   696.762E-03,  -588.062E-03,  -373.712E-03,   2.62415E-03
C:/temp/dataset/4/17_05.odb,Step-1,Increment      1: Step Time =    1.000,"PART-1-1",            31,           -5.,         11.25,            0.,NA,NA,"",   856.910E-03,  -770.443E-03,  -375.116E-03,   278.174E-06
C:/temp/dataset/4/17_05.odb,Step-1,Increment      1: Step Time =    1.000,"PART-1-1",            32,           -5.,          17.5,            0.,NA,NA,"",       1.01891,  -946.492E-03,  -377.274E-03,   15.0584E-06
C:/temp/dataset/4/17_05.odb,Step-1,Increment      1: Step Time =    1.000,"PART-1-1",            33,           -5.,         23.75,            0.,NA,NA,"",       1.18582,      -1.12337,  -379.751E-03,   363.832E-09
C:/temp/dataset/4/17_05.odb,Step-1,Increment      1: Step Time =    1.000,"PART-1-1",            34,          -7.5,           30.,            0.,NA,NA,"",       1.37595,      -1.29924,  -453.003E-03,   47.1365E-09
C:/temp/dataset/4/17_05.odb,Step-1,Increment      1: Step Time =    1.000,"PART-1-1",            35,          -10.,           30.,            0.,NA,NA,"",       1.39991,      -1.29824,  -523.752E-03,   72.2387E-09
C:/temp/dataset/4/17_05.odb,Step-1,Increment      1: Step Time =    1.000,"PART-1-1",            36,         -12.5,           30.,            0.,NA,NA,"",       1.42697,      -1.29724,  -594.500E-03,   43.4370E-09
C:/temp/dataset/4/17_05.odb,Step-1,Increment      1: Step Time =    1.000,"PART-1-1",            37,          -15.,       27.8125,            0.,NA,NA,"",       1.40177,      -1.23433,  -664.371E-03,   48.3980E-09
C:/temp/dataset/4/17_05.odb,Step-1,Increment      1: Step Time =    1.000,"PART-1-1",            38,          -15.,        25.625,            0.,NA,NA,"",       1.34715,      -1.17243,  -663.495E-03,   38.0861E-09
C:/temp/dataset/4/17_05.odb,Step-1,Increment      1: Step Time =    1.000,"PART-1-1",            39,          -15.,       23.4375,            0.,NA,NA,"",       1.29318,      -1.11052,  -662.620E-03,   421.671E-09
C:/temp/dataset/4/17_05.odb,Step-1,Increment      1: Step Time =    1.000,"PART-1-1",            40,          -15.,       19.0625,            0.,NA,NA,"",       1.18759,  -986.719E-03,  -660.878E-03,   7.40299E-06
C:/temp/dataset/4/17_05.odb,Step-1,Increment      1: Step Time =    1.000,"PART-1-1",            41,          -15.,        16.875,            0.,NA,NA,"",       1.13618,  -924.807E-03,  -660.024E-03,   16.5825E-06
C:/temp/dataset/4/17_05.odb,Step-1,Increment      1: Step Time =    1.000,"PART-1-1",            42,          -15.,       14.6875,            0.,NA,NA,"",       1.08584,  -862.859E-03,  -659.190E-03,   26.3816E-06
C:/temp/dataset/4/17_05.odb,Step-1,Increment      1: Step Time =    1.000,"PART-1-1",            43,          -15.,       10.3125,            0.,NA,NA,"",   988.880E-03,  -738.661E-03,  -657.467E-03,   48.6584E-06
C:/temp/dataset/4/17_05.odb,Step-1,Increment      1: Step Time =    1.000,"PART-1-1",            44,          -15.,         8.125,            0.,NA,NA,"",   942.518E-03,  -676.406E-03,  -656.364E-03,   193.552E-06
C:/temp/dataset/4/17_05.odb,Step-1,Increment      1: Step Time =    1.000,"PART-1-1",            45,          -15.,        5.9375,            0.,NA,NA,"",   897.926E-03,  -614.283E-03,  -654.926E-03,   371.190E-06
C:/temp/dataset/4/17_05.odb,Step-1,Increment      1: Step Time =    1.000,"PART-1-1",            46,          -15.,        1.5625,            0.,NA,NA,"",   816.111E-03,  -491.592E-03,  -651.441E-03,   409.356E-06
C:/temp/dataset/4/17_05.odb,Step-1,Increment      1: Step Time =    1.000,"PART-1-1",            47,          -15.,     -625.E-03,            0.,NA,NA,"",   779.921E-03,  -431.086E-03,  -649.955E-03,   227.559E-06
C:/temp/dataset/4/17_05.odb,Step-1,Increment      1: Step Time =    1.000,"PART-1-1",            48,          -15.,       -2.8125,            0.,NA,NA,"",   747.315E-03,  -370.733E-03,  -648.874E-03,   47.2297E-06
C:/temp/dataset/4/17_05.odb,Step-1,Increment      1: Step Time =    1.000,"PART-1-1",            49,         -12.5,           -5.,            0.,NA,NA,"",   657.043E-03,  -311.183E-03,  -578.680E-03,   63.0622E-06
C:/temp/dataset/4/17_05.odb,Step-1,Increment      1: Step Time =    1.000,"PART-1-1",            50,          -7.5,           -5.,            0.,NA,NA,"",   540.810E-03,  -314.621E-03,  -439.875E-03,   668.167E-06
C:/temp/dataset/4/17_05.odb,Step-1,Increment      1: Step Time =    1.000,"PART-1-1",            51,          -2.5,           -5.,            0.,NA,NA,"",   442.511E-03,  -320.709E-03,  -304.896E-03,   1.14492E-03
C:/temp/dataset/4/17_05.odb,Step-1,Increment      1: Step Time =    1.000,"PART-1-1",            52,           2.5,           -5.,            0.,NA,NA,"",   371.824E-03,  -327.348E-03,  -176.342E-03,   1.18553E-03
C:/temp/dataset/4/17_05.odb,Step-1,Increment      1: Step Time =    1.000,"PART-1-1",            53,            5.,      -7.08333,            0.,NA,NA,"",   306.395E-03,  -287.998E-03,  -104.571E-03,   3.17370E-03
C:/temp/dataset/4/17_05.odb,Step-1,Increment      1: Step Time =    1.000,"PART-1-1",            54,            5.,      -9.16667,            0.,NA,NA,"",   264.618E-03,  -245.576E-03,  -98.5652E-03,   3.21138E-03
C:/temp/dataset/4/17_05.odb,Step-1,Increment      1: Step Time =    1.000,"PART-1-1",            55,            5.,      -13.3333,            0.,NA,NA,"",   187.711E-03,  -167.734E-03,  -84.2671E-03,   4.01745E-03
C:/temp/dataset/4/17_05.odb,Step-1,Increment      1: Step Time =    1.000,"PART-1-1",            56,            5.,      -15.4167,            0.,NA,NA,"",   153.485E-03,  -133.302E-03,  -76.0800E-03,   4.41895E-03
C:/temp/dataset/4/17_05.odb,Step-1,Increment      1: Step Time =    1.000,"PART-1-1",            57,            5.,      -19.5833,            0.,NA,NA,"",   94.6515E-03,  -75.0704E-03,  -57.6484E-03,   5.20724E-03
C:/temp/dataset/4/17_05.odb,Step-1,Increment      1: Step Time =    1.000,"PART-1-1",            58,            5.,      -21.6667,            0.,NA,NA,"",   70.2833E-03,  -51.8816E-03,  -47.4134E-03,   5.59070E-03
C:/temp/dataset/4/17_05.odb,Step-1,Increment      1: Step Time =    1.000,"PART-1-1",            59,            5.,      -25.8333,            0.,NA,NA,"",   31.2680E-03,  -18.7783E-03,  -25.0012E-03,   6.21892E-03
C:/temp/dataset/4/17_05.odb,Step-1,Increment      1: Step Time =    1.000,"PART-1-1",            60,            5.,      -27.9167,            0.,NA,NA,"",   15.9038E-03,  -9.03745E-03,  -13.0864E-03,   6.95422E-03
C:/temp/dataset/4/17_05.odb,Step-1,Increment      1: Step Time =    1.000,"PART-1-1",            61,           7.5,          -30.,            0.,NA,NA,"",            0.,  -443.455E-42,  -4.86325E-39,   2.45293E-03
C:/temp/dataset/4/17_05.odb,Step-1,Increment      1: Step Time =    1.000,"PART-1-1",            62,           10.,          -30.,            0.,NA,NA,"",            0.,   714.015E-42,   14.0999E-42,   691.202E-06
C:/temp/dataset/4/17_05.odb,Step-1,Increment      1: Step Time =    1.000,"PART-1-1",            63,          12.5,          -30.,            0.,NA,NA,"",            0.,  -1.75107E-39,   4.61732E-39,   2.51659E-03
C:/temp/dataset/4/17_05.odb,Step-1,Increment      1: Step Time =    1.000,"PART-1-1",            64,           15.,         -27.5,            0.,NA,NA,"",   18.7723E-03,  -10.6829E-03,   15.4362E-03,   6.81547E-03
C:/temp/dataset/4/17_05.odb,Step-1,Increment      1: Step Time =    1.000,"PART-1-1",            65,           15.,          -25.,            0.,NA,NA,"",   38.2049E-03,  -24.1234E-03,   29.6257E-03,   6.09168E-03
C:/temp/dataset/4/17_05.odb,Step-1,Increment      1: Step Time =    1.000,"PART-1-1",            66,           15.,          -20.,            0.,NA,NA,"",   89.7357E-03,  -70.7653E-03,   55.1793E-03,   5.28371E-03
C:/temp/dataset/4/17_05.odb,Step-1,Increment      1: Step Time =    1.000,"PART-1-1",            67,           15.,         -17.5,            0.,NA,NA,"",   122.710E-03,  -103.243E-03,   66.3228E-03,   4.82444E-03
C:/temp/dataset/4/17_05.odb,Step-1,Increment      1: Step Time =    1.000,"PART-1-1",            68,           15.,         -12.5,            0.,NA,NA,"",   202.741E-03,  -183.944E-03,   85.2560E-03,   3.89956E-03
C:/temp/dataset/4/17_05.odb,Step-1,Increment      1: Step Time =    1.000,"PART-1-1",            69,           15.,          -10.,            0.,NA,NA,"",   249.187E-03,  -231.163E-03,   93.0459E-03,   3.43305E-03
C:/temp/dataset/4/17_05.odb,Step-1,Increment      1: Step Time =    1.000,"PART-1-1",            70,           15.,           -5.,            0.,NA,NA,"",   352.899E-03,  -336.935E-03,   104.939E-03,   2.28241E-03
C:/temp/dataset/4/17_05.odb,Step-1,Increment      1: Step Time =    1.000,"PART-1-1",            71,           15.,          -2.5,            0.,NA,NA,"",   408.873E-03,  -394.186E-03,   108.602E-03,   1.54056E-03
C:/temp/dataset/4/17_05.odb,Step-1,Increment      1: Step Time =    1.000,"PART-1-1",            72,           15.,           2.5,            0.,NA,NA,"",   524.115E-03,  -512.230E-03,   110.979E-03,   276.502E-06
C:/temp/dataset/4/17_05.odb,Step-1,Increment      1: Step Time =    1.000,"PART-1-1",            73,           15.,            5.,            0.,NA,NA,"",   581.735E-03,  -571.143E-03,   110.504E-03,   17.8790E-06
C:/temp/dataset/4/17_05.odb,Step-1,Increment      1: Step Time =    1.000,"PART-1-1",            74,           15.,           10.,            0.,NA,NA,"",   696.085E-03,  -687.521E-03,   108.852E-03,   53.1679E-06
C:/temp/dataset/4/17_05.odb,Step-1,Increment      1: Step Time =    1.000,"PART-1-1",            75,           15.,          12.5,            0.,NA,NA,"",   753.157E-03,  -745.359E-03,   108.102E-03,   21.4455E-06
C:/temp/dataset/4/17_05.odb,Step-1,Increment      1: Step Time =    1.000,"PART-1-1",            76,           15.,          17.5,            0.,NA,NA,"",   867.544E-03,  -860.954E-03,   106.731E-03,   784.709E-09
C:/temp/dataset/4/17_05.odb,Step-1,Increment      1: Step Time =    1.000,"PART-1-1",            77,           15.,           20.,            0.,NA,NA,"",   924.856E-03,  -918.755E-03,   106.063E-03,   286.047E-09
C:/temp/dataset/4/17_05.odb,Step-1,Increment      1: Step Time =    1.000,"PART-1-1",            78,           15.,           25.,            0.,NA,NA,"",       1.03965,      -1.03436,   104.727E-03,   121.349E-09
C:/temp/dataset/4/17_05.odb,Step-1,Increment      1: Step Time =    1.000,"PART-1-1",            79,           15.,          27.5,            0.,NA,NA,"",       1.09711,      -1.09217,   104.059E-03,   37.0077E-09
C:/temp/dataset/4/17_05.odb,Step-1,Increment      1: Step Time =    1.000,"PART-1-1",            80,          12.5,           30.,            0.,NA,NA,"",       1.15021,      -1.14930,   45.5857E-03,   34.0772E-09
C:/temp/dataset/4/17_05.odb,Step-1,Increment      1: Step Time =    1.000,"PART-1-1",            81,           10.,           30.,            0.,NA,NA,"",       1.14870,      -1.14864,  -12.2194E-03,   54.0397E-09
C:/temp/dataset/4/17_05.odb,Step-1,Increment      1: Step Time =    1.000,"PART-1-1",            82,           7.5,           30.,            0.,NA,NA,"",       1.15010,      -1.14797,  -70.0245E-03,   33.9475E-09
C:/temp/dataset/4/17_05.odb,Step-1,Increment      1: Step Time =    1.000,"PART-1-1",            83,            5.,       27.9167,            0.,NA,NA,"",       1.10647,      -1.09913,  -127.273E-03,   29.6704E-09
C:/temp/dataset/4/17_05.odb,Step-1,Increment      1: Step Time =    1.000,"PART-1-1",            84,            5.,       25.8333,            0.,NA,NA,"",       1.05857,      -1.05096,  -126.716E-03,   85.2798E-09
C:/temp/dataset/4/17_05.odb,Step-1,Increment      1: Step Time =    1.000,"PART-1-1",            85,            5.,       21.6667,            0.,NA,NA,"",   962.843E-03,  -954.616E-03,  -125.603E-03,   293.769E-09
C:/temp/dataset/4/17_05.odb,Step-1,Increment      1: Step Time =    1.000,"PART-1-1",            86,            5.,       19.5833,            0.,NA,NA,"",   915.028E-03,  -906.443E-03,  -125.046E-03,   209.882E-09
C:/temp/dataset/4/17_05.odb,Step-1,Increment      1: Step Time =    1.000,"PART-1-1",            87,            5.,       15.4167,            0.,NA,NA,"",   819.515E-03,  -810.091E-03,  -123.927E-03,   4.68076E-06
C:/temp/dataset/4/17_05.odb,Step-1,Increment      1: Step Time =    1.000,"PART-1-1",            88,            5.,       13.3333,            0.,NA,NA,"",   771.833E-03,  -761.912E-03,  -123.352E-03,   17.0668E-06
C:/temp/dataset/4/17_05.odb,Step-1,Increment      1: Step Time =    1.000,"PART-1-1",            89,            5.,       9.16667,            0.,NA,NA,"",   676.767E-03,  -665.668E-03,  -122.060E-03,   113.776E-06
C:/temp/dataset/4/17_05.odb,Step-1,Increment      1: Step Time =    1.000,"PART-1-1",            90,            5.,       7.08333,            0.,NA,NA,"",   629.709E-03,  -617.930E-03,  -121.229E-03,   396.165E-06
C:/temp/dataset/4/17_05.odb,Step-1,Increment      1: Step Time =    1.000,"PART-1-1",            91,           2.5,            5.,            0.,NA,NA,"",   604.118E-03,  -576.183E-03,  -181.579E-03,   2.02800E-03
C:/temp/dataset/4/17_05.odb,Step-1,Increment      1: Step Time =    1.000,"PART-1-1",            92,          -2.5,            5.,            0.,NA,NA,"",   659.653E-03,  -582.932E-03,  -308.759E-03,   1.96642E-03
C:/temp/dataset/4/17_05.odb,Step-1,Increment      1: Step Time =    1.000,"PART-1-1",            93,           -5.,       7.08333,            0.,NA,NA,"",   750.809E-03,  -651.429E-03,  -373.302E-03,   1.01766E-03
C:/temp/dataset/4/17_05.odb,Step-1,Increment      1: Step Time =    1.000,"PART-1-1",            94,           -5.,       9.16667,            0.,NA,NA,"",   804.093E-03,  -711.746E-03,  -374.142E-03,   477.828E-06
C:/temp/dataset/4/17_05.odb,Step-1,Increment      1: Step Time =    1.000,"PART-1-1",            95,           -5.,       13.3333,            0.,NA,NA,"",   909.930E-03,  -828.731E-03,  -375.736E-03,   94.8391E-06
C:/temp/dataset/4/17_05.odb,Step-1,Increment      1: Step Time =    1.000,"PART-1-1",            96,           -5.,       15.4167,            0.,NA,NA,"",   964.114E-03,  -887.564E-03,  -376.490E-03,   36.5664E-06
C:/temp/dataset/4/17_05.odb,Step-1,Increment      1: Step Time =    1.000,"PART-1-1",            97,           -5.,       19.5833,            0.,NA,NA,"",       1.07419,      -1.00545,  -378.091E-03,   5.86123E-06
C:/temp/dataset/4/17_05.odb,Step-1,Increment      1: Step Time =    1.000,"PART-1-1",            98,           -5.,       21.6667,            0.,NA,NA,"",       1.12984,      -1.06441,  -378.919E-03,   1.75619E-06
C:/temp/dataset/4/17_05.odb,Step-1,Increment      1: Step Time =    1.000,"PART-1-1",            99,           -5.,       25.8333,            0.,NA,NA,"",       1.24207,      -1.18233,  -380.586E-03,   27.0026E-09
C:/temp/dataset/4/17_05.odb,Step-1,Increment      1: Step Time =    1.000,"PART-1-1",           100,           -5.,       27.9167,            0.,NA,NA,"",       1.29856,      -1.24128,  -381.420E-03,   39.8129E-09
C:/temp/dataset/4/17_05.odb,Step-1,Increment      1: Step Time =    1.000,"PART-1-1",           101,       6.93475,       11.1046,            0.,NA,NA,"",   715.153E-03,  -710.883E-03,  -78.0378E-03,   33.2964E-06
C:/temp/dataset/4/17_05.odb,Step-1,Increment      1: Step Time =    1.000,"PART-1-1",           102,       7.10183,      -21.7370,            0.,NA,NA,"",   54.0805E-03,  -47.0857E-03,  -26.6015E-03,   3.30050E-03
C:/temp/dataset/4/17_05.odb,Step-1,Increment      1: Step Time =    1.000,"PART-1-1",           103,      -7.18606,       25.6133,            0.,NA,NA,"",       1.25572,      -1.17522,  -442.362E-03,   320.727E-09
C:/temp/dataset/4/17_05.odb,Step-1,Increment      1: Step Time =    1.000,"PART-1-1",           104,       7.08931,      -17.4629,            0.,NA,NA,"",   106.710E-03,  -99.4549E-03,  -38.6752E-03,   2.85151E-03
C:/temp/dataset/4/17_05.odb,Step-1,Increment      1: Step Time =    1.000,"PART-1-1",           105,       7.11844,      -23.8299,            0.,NA,NA,"",   34.4393E-03,  -27.9823E-03,  -20.0762E-03,   3.50335E-03
C:/temp/dataset/4/17_05.odb,Step-1,Increment      1: Step Time =    1.000,"PART-1-1",           106,       7.34845,      -27.9642,            0.,NA,NA,"",   7.09981E-03,  -4.02965E-03,  -5.84544E-03,   3.71987E-03
C:/temp/dataset/4/17_05.odb,Step-1,Increment      1: Step Time =    1.000,"PART-1-1",           107,       7.18399,      -25.9216,            0.,NA,NA,"",   18.6201E-03,  -13.4658E-03,  -12.8600E-03,   3.78246E-03
C:/temp/dataset/4/17_05.odb,Step-1,Increment      1: Step Time =    1.000,"PART-1-1",           108,       7.00226,      -10.9532,            0.,NA,NA,"",   215.896E-03,  -208.648E-03,  -55.4699E-03,   2.21363E-03
C:/temp/dataset/4/17_05.odb,Step-1,Increment      1: Step Time =    1.000,"PART-1-1",           109,       6.93148,       25.8450,            0.,NA,NA,"",       1.05494,      -1.05174,  -82.0590E-03,   80.4796E-09
C:/temp/dataset/4/17_05.odb,Step-1,Increment      1: Step Time =    1.000,"PART-1-1",           110,       6.95256,       21.7727,            0.,NA,NA,"",   960.966E-03,  -957.590E-03,  -80.4829E-03,   52.8739E-09
C:/temp/dataset/4/17_05.odb,Step-1,Increment      1: Step Time =    1.000,"PART-1-1",           111,       6.99069,       19.6693,            0.,NA,NA,"",   912.393E-03,  -908.963E-03,  -79.0390E-03,   617.473E-09
C:/temp/dataset/4/17_05.odb,Step-1,Increment      1: Step Time =    1.000,"PART-1-1",           112,       6.98342,       13.2435,            0.,NA,NA,"",   764.295E-03,  -760.357E-03,  -77.4881E-03,   17.4018E-06
C:/temp/dataset/4/17_05.odb,Step-1,Increment      1: Step Time =    1.000,"PART-1-1",           113,       6.84904,       8.98858,            0.,NA,NA,"",   666.757E-03,  -662.005E-03,  -79.4633E-03,   44.5979E-06
C:/temp/dataset/4/17_05.odb,Step-1,Increment      1: Step Time =    1.000,"PART-1-1",           114,      -7.00061,       11.3966,            0.,NA,NA,"",   885.602E-03,  -773.377E-03,  -431.484E-03,   272.673E-06
C:/temp/dataset/4/17_05.odb,Step-1,Increment      1: Step Time =    1.000,"PART-1-1",           115,      -6.87185,       17.5946,            0.,NA,NA,"",       1.04145,  -948.413E-03,  -430.260E-03,   11.7205E-06
C:/temp/dataset/4/17_05.odb,Step-1,Increment      1: Step Time =    1.000,"PART-1-1",           116,      -6.78696,       21.5686,            0.,NA,NA,"",       1.14454,      -1.06092,  -429.448E-03,   2.74956E-06
C:/temp/dataset/4/17_05.odb,Step-1,Increment      1: Step Time =    1.000,"PART-1-1",           117,      -6.92081,       23.5666,            0.,NA,NA,"",       1.19875,      -1.11741,  -434.036E-03,   1.05814E-06
C:/temp/dataset/4/17_05.odb,Step-1,Increment      1: Step Time =    1.000,"PART-1-1",           118,      -7.47694,       27.7553,            0.,NA,NA,"",       1.31561,      -1.23572,  -451.452E-03,   79.5922E-09
C:/temp/dataset/4/17_05.odb,Step-1,Increment      1: Step Time =    1.000,"PART-1-1",           119,       6.62973,      -6.72562,            0.,NA,NA,"",   302.946E-03,  -294.443E-03,  -71.2713E-03,   1.89012E-03
C:/temp/dataset/4/17_05.odb,Step-1,Increment      1: Step Time =    1.000,"PART-1-1",           120,       7.00244,       17.5390,            0.,NA,NA,"",   863.253E-03,  -859.704E-03,  -78.1977E-03,   2.53886E-06
C:/temp/dataset/4/17_05.odb,Step-1,Increment      1: Step Time =    1.000,"PART-1-1",           121,       7.05765,      -13.1226,            0.,NA,NA,"",   175.950E-03,  -168.770E-03,  -49.7486E-03,   2.41484E-03
C:/temp/dataset/4/17_05.odb,Step-1,Increment      1: Step Time =    1.000,"PART-1-1",           122,      -6.97858,       13.4860,            0.,NA,NA,"",   937.478E-03,  -832.205E-03,  -431.624E-03,   50.9984E-06
C:/temp/dataset/4/17_05.odb,Step-1,Increment      1: Step Time =    1.000,"PART-1-1",           123,      -7.06135,       7.11796,            0.,NA,NA,"",   781.588E-03,  -651.056E-03,  -432.442E-03,   937.018E-06
C:/temp/dataset/4/17_05.odb,Step-1,Increment      1: Step Time =    1.000,"PART-1-1",           124,       6.87626,      -8.81940,            0.,NA,NA,"",   258.377E-03,  -250.756E-03,  -62.2916E-03,   2.06776E-03
C:/temp/dataset/4/17_05.odb,Step-1,Increment      1: Step Time =    1.000,"PART-1-1",           125,       7.08495,      -15.2974,            0.,NA,NA,"",   139.365E-03,  -132.170E-03,  -44.1990E-03,   2.62429E-03
C:/temp/dataset/4/17_05.odb,Step-1,Increment      1: Step Time =    1.000,"PART-1-1",           126,       7.00715,       15.3887,            0.,NA,NA,"",   813.678E-03,  -809.978E-03,  -77.5132E-03,   7.65962E-06
C:/temp/dataset/4/17_05.odb,Step-1,Increment      1: Step Time =    1.000,"PART-1-1",           127,      -7.01992,       9.30136,            0.,NA,NA,"",   834.358E-03,  -714.036E-03,  -431.632E-03,   592.729E-06
C:/temp/dataset/4/17_05.odb,Step-1,Increment      1: Step Time =    1.000,"PART-1-1",           128,      -6.93369,       15.5639,            0.,NA,NA,"",   989.800E-03,  -890.940E-03,  -431.196E-03,   12.4745E-06
C:/temp/dataset/4/17_05.odb,Step-1,Increment      1: Step Time =    1.000,"PART-1-1",           129,      -6.79206,       19.5889,            0.,NA,NA,"",       1.09255,      -1.00489,  -428.801E-03,   6.06770E-06
C:/temp/dataset/4/17_05.odb,Step-1,Increment      1: Step Time =    1.000,"PART-1-1",           130,       7.09662,      -19.6136,            0.,NA,NA,"",   78.1689E-03,  -70.9661E-03,  -32.7747E-03,   3.07395E-03
C:/temp/dataset/4/17_05.odb,Step-1,Increment      1: Step Time =    1.000,"PART-1-1",           131,       6.89670,       23.8203,            0.,NA,NA,"",       1.00829,      -1.00492,  -82.3220E-03,   95.4076E-09
C:/temp/dataset/4/17_05.odb,Step-1,Increment      1: Step Time =    1.000,"PART-1-1",           132,       6.67676,       6.98748,            0.,NA,NA,"",   621.541E-03,  -615.992E-03,  -82.8647E-03,   226.678E-06
C:/temp/dataset/4/17_05.odb,Step-1,Increment      1: Step Time =    1.000,"PART-1-1",           133,      -13.0361,       12.2042,            0.,NA,NA,"",   996.133E-03,  -793.226E-03,  -602.556E-03,   52.4253E-06
C:/temp/dataset/4/17_05.odb,Step-1,Increment      1: Step Time =    1.000,"PART-1-1",           134,      -13.0483,       3.72302,            0.,NA,NA,"",   814.339E-03,  -552.275E-03,  -598.448E-03,   299.734E-06
C:/temp/dataset/4/17_05.odb,Step-1,Increment      1: Step Time =    1.000,"PART-1-1",           135,      -13.0740,       10.0823,            0.,NA,NA,"",   948.877E-03,  -732.850E-03,  -602.742E-03,   145.509E-06
C:/temp/dataset/4/17_05.odb,Step-1,Increment      1: Step Time =    1.000,"PART-1-1",           136,      -13.0017,       14.3509,            0.,NA,NA,"",       1.04522,  -854.138E-03,  -602.437E-03,   6.89806E-06
C:/temp/dataset/4/17_05.odb,Step-1,Increment      1: Step Time =    1.000,"PART-1-1",           137,      -12.4480,       21.2307,            0.,NA,NA,"",       1.20338,      -1.04910,  -589.515E-03,   3.47527E-06
C:/temp/dataset/4/17_05.odb,Step-1,Increment      1: Step Time =    1.000,"PART-1-1",           138,      -13.0426,       25.7965,            0.,NA,NA,"",       1.32579,      -1.17806,  -608.171E-03,   255.139E-09
C:/temp/dataset/4/17_05.odb,Step-1,Increment      1: Step Time =    1.000,"PART-1-1",           139,      -12.9478,       23.6552,            0.,NA,NA,"",       1.27059,      -1.11751,  -604.630E-03,   998.431E-09
C:/temp/dataset/4/17_05.odb,Step-1,Increment      1: Step Time =    1.000,"PART-1-1",           140,      -12.8307,       18.7376,            0.,NA,NA,"",       1.14738,  -978.397E-03,  -599.347E-03,   7.56182E-06
C:/temp/dataset/4/17_05.odb,Step-1,Increment      1: Step Time =    1.000,"PART-1-1",           141,      -12.9472,       16.5227,            0.,NA,NA,"",       1.09570,  -915.665E-03,  -601.761E-03,   9.65304E-06
C:/temp/dataset/4/17_05.odb,Step-1,Increment      1: Step Time =    1.000,"PART-1-1",           142,      -13.1112,       7.97345,            0.,NA,NA,"",   903.273E-03,  -672.714E-03,  -602.791E-03,   244.958E-06
C:/temp/dataset/4/17_05.odb,Step-1,Increment      1: Step Time =    1.000,"PART-1-1",           143,      -13.1276,       5.86243,            0.,NA,NA,"",   858.952E-03,  -612.639E-03,  -602.057E-03,   297.036E-06
C:/temp/dataset/4/17_05.odb,Step-1,Increment      1: Step Time =    1.000,"PART-1-1",           144,      -12.8109,       1.56310,            0.,NA,NA,"",   768.603E-03,  -492.112E-03,  -590.403E-03,   307.626E-06
C:/temp/dataset/4/17_05.odb,Step-1,Increment      1: Step Time =    1.000,"PART-1-1",           145,      -12.5511,  -622.366E-03,            0.,NA,NA,"",   724.665E-03,  -431.894E-03,  -581.899E-03,   326.960E-06
C:/temp/dataset/4/17_05.odb,Step-1,Increment      1: Step Time =    1.000,"PART-1-1",           146,      -7.69124,      -3.05836,            0.,NA,NA,"",   577.509E-03,  -367.562E-03,  -445.438E-03,   495.942E-06
C:/temp/dataset/4/17_05.odb,Step-1,Increment      1: Step Time =    1.000,"PART-1-1",           147,      -2.59391,      -3.27074,            0.,NA,NA,"",   477.970E-03,  -366.110E-03,  -307.276E-03,   645.442E-06
C:/temp/dataset/4/17_05.odb,Step-1,Increment      1: Step Time =    1.000,"PART-1-1",           148,      -2.06699,       2.95135,            0.,NA,NA,"",   606.015E-03,  -529.021E-03,  -295.619E-03,   1.29170E-03
C:/temp/dataset/4/17_05.odb,Step-1,Increment      1: Step Time =    1.000,"PART-1-1",           149,       1.86882,      -3.06513,            0.,NA,NA,"",   421.790E-03,  -375.374E-03,  -192.358E-03,   763.076E-06
C:/temp/dataset/4/17_05.odb,Step-1,Increment      1: Step Time =    1.000,"PART-1-1",           150,       2.79073,       3.02834,            0.,NA,NA,"",   554.835E-03,  -527.335E-03,  -172.509E-03,   1.17220E-03
C:/temp/dataset/4/17_05.odb,Step-1,Increment      1: Step Time =    1.000,"PART-1-1",           151,       12.5379,       2.72923,            0.,NA,NA,"",   519.583E-03,  -516.807E-03,   53.6433E-03,   563.245E-06
C:/temp/dataset/4/17_05.odb,Step-1,Increment      1: Step Time =    1.000,"PART-1-1",           152,       12.9313,       10.2835,            0.,NA,NA,"",   696.216E-03,  -693.553E-03,   60.8353E-03,   28.2225E-06
C:/temp/dataset/4/17_05.odb,Step-1,Increment      1: Step Time =    1.000,"PART-1-1",           153,       12.7723,       24.8557,            0.,NA,NA,"",       1.03181,      -1.03043,   53.2580E-03,   95.6470E-09
C:/temp/dataset/4/17_05.odb,Step-1,Increment      1: Step Time =    1.000,"PART-1-1",           154,       12.5268,       27.4001,            0.,NA,NA,"",       1.09021,      -1.08920,   46.9005E-03,   61.2297E-09
C:/temp/dataset/4/17_05.odb,Step-1,Increment      1: Step Time =    1.000,"PART-1-1",           155,       12.7627,      -5.01238,            0.,NA,NA,"",   339.000E-03,  -334.314E-03,   56.1690E-03,   1.55068E-03
C:/temp/dataset/4/17_05.odb,Step-1,Increment      1: Step Time =    1.000,"PART-1-1",           156,       13.0118,      -12.5921,            0.,NA,NA,"",   186.058E-03,  -179.184E-03,   50.1075E-03,   2.41234E-03
C:/temp/dataset/4/17_05.odb,Step-1,Increment      1: Step Time =    1.000,"PART-1-1",           157,       9.69976,      -27.8547,            0.,NA,NA,"",   2.51366E-03,  -2.43385E-03,  -628.348E-06,   947.832E-06
C:/temp/dataset/4/17_05.odb,Step-1,Increment      1: Step Time =    1.000,"PART-1-1",           158,       13.0855,      -17.4497,            0.,NA,NA,"",   108.202E-03,  -100.429E-03,   40.2701E-03,   3.01709E-03
C:/temp/dataset/4/17_05.odb,Step-1,Increment      1: Step Time =    1.000,"PART-1-1",           159,       12.9366,       22.3763,            0.,NA,NA,"",   974.858E-03,  -973.147E-03,   57.7193E-03,   63.3840E-09
C:/temp/dataset/4/17_05.odb,Step-1,Increment      1: Step Time =    1.000,"PART-1-1",           160,       13.0248,       17.5365,            0.,NA,NA,"",   863.430E-03,  -861.269E-03,   61.0525E-03,   2.46050E-06
C:/temp/dataset/4/17_05.odb,Step-1,Increment      1: Step Time =    1.000,"PART-1-1",           161,      -10.1545,       27.3700,            0.,NA,NA,"",       1.33243,      -1.22375,  -527.071E-03,   166.278E-09
C:/temp/dataset/4/17_05.odb,Step-1,Increment      1: Step Time =    1.000,"PART-1-1",           162,      -10.0546,      -2.87755,            0.,NA,NA,"",   631.692E-03,  -371.059E-03,  -511.224E-03,   392.356E-06
C:/temp/dataset/4/17_05.odb,Step-1,Increment      1: Step Time =    1.000,"PART-1-1",           163,      -5.07747,      -2.66322,            0.,NA,NA,"",   533.127E-03,  -380.128E-03,  -373.801E-03,   520.357E-06
C:/temp/dataset/4/17_05.odb,Step-1,Increment      1: Step Time =    1.000,"PART-1-1",           164,  -330.659E-03,      -3.26262,            0.,NA,NA,"",   444.329E-03,  -368.466E-03,  -248.316E-03,   711.383E-06
C:/temp/dataset/4/17_05.odb,Step-1,Increment      1: Step Time =    1.000,"PART-1-1",           165,       3.93161,      -2.75002,            0.,NA,NA,"",   409.663E-03,  -384.727E-03,  -140.743E-03,   520.363E-06
C:/temp/dataset/4/17_05.odb,Step-1,Increment      1: Step Time =    1.000,"PART-1-1",           166,       12.9585,      -10.1304,            0.,NA,NA,"",   231.970E-03,  -225.702E-03,   53.5579E-03,   2.11495E-03
C:/temp/dataset/4/17_05.odb,Step-1,Increment      1: Step Time =    1.000,"PART-1-1",           167,       13.1106,      -19.8561,            0.,NA,NA,"",   76.6960E-03,  -68.7348E-03,   34.0264E-03,   3.32155E-03
C:/temp/dataset/4/17_05.odb,Step-1,Increment      1: Step Time =    1.000,"PART-1-1",           168,       12.2637,      -27.1930,            0.,NA,NA,"",   9.59257E-03,  -6.56691E-03,   6.99236E-03,   3.26993E-03
C:/temp/dataset/4/17_05.odb,Step-1,Increment      1: Step Time =    1.000,"PART-1-1",           169,       13.0974,      -22.2394,            0.,NA,NA,"",   50.3824E-03,  -42.7008E-03,   26.7399E-03,   3.57436E-03
C:/temp/dataset/4/17_05.odb,Step-1,Increment      1: Step Time =    1.000,"PART-1-1",           170,       13.0625,      -15.0302,            0.,NA,NA,"",   144.787E-03,  -137.355E-03,   45.7918E-03,   2.72332E-03
C:/temp/dataset/4/17_05.odb,Step-1,Increment      1: Step Time =    1.000,"PART-1-1",           171,       12.8638,      -7.61343,            0.,NA,NA,"",   282.730E-03,  -277.250E-03,   55.3940E-03,   1.81929E-03
C:/temp/dataset/4/17_05.odb,Step-1,Increment      1: Step Time =    1.000,"PART-1-1",           172,       12.8109,      -2.41519,            0.,NA,NA,"",   398.819E-03,  -394.416E-03,   59.1013E-03,   1.27753E-03
C:/temp/dataset/4/17_05.odb,Step-1,Increment      1: Step Time =    1.000,"PART-1-1",           173,       12.7001,   168.481E-03,            0.,NA,NA,"",   459.358E-03,  -455.753E-03,   57.4348E-03,   934.808E-06
C:/temp/dataset/4/17_05.odb,Step-1,Increment      1: Step Time =    1.000,"PART-1-1",           174,       12.6773,       5.28127,            0.,NA,NA,"",   579.873E-03,  -577.133E-03,   56.3021E-03,   199.991E-06
C:/temp/dataset/4/17_05.odb,Step-1,Increment      1: Step Time =    1.000,"PART-1-1",           175,       12.8405,       7.80961,            0.,NA,NA,"",   638.951E-03,  -636.184E-03,   59.4053E-03,   21.4660E-06
C:/temp/dataset/4/17_05.odb,Step-1,Increment      1: Step Time =    1.000,"PART-1-1",           176,       12.9955,       12.7023,            0.,NA,NA,"",   752.040E-03,  -749.508E-03,   61.6692E-03,   19.1838E-06
C:/temp/dataset/4/17_05.odb,Step-1,Increment      1: Step Time =    1.000,"PART-1-1",           177,       13.0102,       19.9477,            0.,NA,NA,"",   918.977E-03,  -917.012E-03,   60.0688E-03,   464.029E-09
C:/temp/dataset/4/17_05.odb,Step-1,Increment      1: Step Time =    1.000,"PART-1-1",           178,       9.88408,       27.1269,            0.,NA,NA,"",       1.08227,      -1.08217,  -14.1316E-03,   51.2077E-09
C:/temp/dataset/4/17_05.odb,Step-1,Increment      1: Step Time =    1.000,"PART-1-1",           179,       13.0301,       15.1161,            0.,NA,NA,"",   807.686E-03,  -805.316E-03,   61.8221E-03,   8.17829E-06
C:/temp/dataset/4/17_05.odb,Step-1,Increment      1: Step Time =    1.000,"PART-1-1",           180,   300.490E-03,       3.00528,            0.,NA,NA,"",   578.463E-03,  -528.677E-03,  -234.776E-03,   1.28801E-03
C:/temp/dataset/4/17_05.odb,Step-1,Increment      1: Step Time =    1.000,"PART-1-1",           181,      -4.18418,       2.89078,            0.,NA,NA,"",   634.713E-03,  -528.665E-03,  -351.246E-03,   774.309E-06
C:/temp/dataset/4/17_05.odb,Step-1,Increment      1: Step Time =    1.000,"PART-1-1",           182,      -8.75093,       23.2164,            0.,NA,NA,"",       1.20864,      -1.10676,  -485.686E-03,   1.62478E-06
C:/temp/dataset/4/17_05.odb,Step-1,Increment      1: Step Time =    1.000,"PART-1-1",           183,       9.13120,      -23.8882,            0.,NA,NA,"",   26.1859E-03,  -25.5166E-03,  -5.88277E-03,   1.34756E-03
C:/temp/dataset/4/17_05.odb,Step-1,Increment      1: Step Time =    1.000,"PART-1-1",           184,       8.76025,       8.63504,            0.,NA,NA,"",   655.300E-03,  -654.349E-03,  -35.2932E-03,   39.9712E-06
C:/temp/dataset/4/17_05.odb,Step-1,Increment      1: Step Time =    1.000,"PART-1-1",           185,       8.81891,       23.9948,            0.,NA,NA,"",       1.01018,      -1.00947,  -37.9228E-03,   78.1797E-09
C:/temp/dataset/4/17_05.odb,Step-1,Increment      1: Step Time =    1.000,"PART-1-1",           186,       9.00734,       17.5557,            0.,NA,NA,"",   861.220E-03,  -860.631E-03,  -31.8474E-03,   3.21949E-06
C:/temp/dataset/4/17_05.odb,Step-1,Increment      1: Step Time =    1.000,"PART-1-1",           187,      -8.59230,       19.6811,            0.,NA,NA,"",       1.11525,      -1.00678,  -479.773E-03,   6.51176E-06
C:/temp/dataset/4/17_05.odb,Step-1,Increment      1: Step Time =    1.000,"PART-1-1",           188,       9.06266,      -12.9142,            0.,NA,NA,"",   172.160E-03,  -171.363E-03,  -16.5483E-03,   1.09713E-03
C:/temp/dataset/4/17_05.odb,Step-1,Increment      1: Step Time =    1.000,"PART-1-1",           189,       9.13987,      -19.6571,            0.,NA,NA,"",   69.4555E-03,  -68.7738E-03,  -9.70752E-03,   1.20600E-03
C:/temp/dataset/4/17_05.odb,Step-1,Increment      1: Step Time =    1.000,"PART-1-1",           190,       9.00941,       15.3265,            0.,NA,NA,"",   809.685E-03,  -809.083E-03,  -31.2116E-03,   9.18123E-06
C:/temp/dataset/4/17_05.odb,Step-1,Increment      1: Step Time =    1.000,"PART-1-1",           191,      -8.96967,       13.7142,            0.,NA,NA,"",   969.587E-03,  -837.809E-03,  -488.031E-03,   42.7702E-06
C:/temp/dataset/4/17_05.odb,Step-1,Increment      1: Step Time =    1.000,"PART-1-1",           192,       9.12973,      -17.4386,            0.,NA,NA,"",   99.0226E-03,  -98.3238E-03,  -11.7432E-03,   1.16236E-03
C:/temp/dataset/4/17_05.odb,Step-1,Increment      1: Step Time =    1.000,"PART-1-1",           193,       8.94484,       21.9321,            0.,NA,NA,"",   962.425E-03,  -961.808E-03,  -34.4596E-03,   140.817E-09
C:/temp/dataset/4/17_05.odb,Step-1,Increment      1: Step Time =    1.000,"PART-1-1",           194,      -8.78258,       17.8115,            0.,NA,NA,"",       1.06975,  -953.794E-03,  -484.397E-03,   10.7857E-06
C:/temp/dataset/4/17_05.odb,Step-1,Increment      1: Step Time =    1.000,"PART-1-1",           195,       8.90333,       10.8666,            0.,NA,NA,"",   706.679E-03,  -705.930E-03,  -32.5324E-03,   34.0196E-06
C:/temp/dataset/4/17_05.odb,Step-1,Increment      1: Step Time =    1.000,"PART-1-1",           196,      -9.00437,       11.6266,            0.,NA,NA,"",   919.146E-03,  -778.729E-03,  -488.273E-03,   165.868E-06
C:/temp/dataset/4/17_05.odb,Step-1,Increment      1: Step Time =    1.000,"PART-1-1",           197,      -9.03622,       9.53759,            0.,NA,NA,"",   869.576E-03,  -719.304E-03,  -488.634E-03,   346.866E-06
C:/temp/dataset/4/17_05.odb,Step-1,Increment      1: Step Time =    1.000,"PART-1-1",           198,       8.99264,      -10.6281,            0.,NA,NA,"",   214.883E-03,  -213.983E-03,  -19.6482E-03,   1.05870E-03
C:/temp/dataset/4/17_05.odb,Step-1,Increment      1: Step Time =    1.000,"PART-1-1",           199,       8.82192,      -8.34759,            0.,NA,NA,"",   260.918E-03,  -259.742E-03,  -24.7403E-03,   1.00063E-03
C:/temp/dataset/4/17_05.odb,Step-1,Increment      1: Step Time =    1.000,"PART-1-1",           200,       8.98411,       13.0928,            0.,NA,NA,"",   758.067E-03,  -757.424E-03,  -31.2212E-03,   20.5550E-06
C:/temp/dataset/4/17_05.odb,Step-1,Increment      1: Step Time =    1.000,"PART-1-1",           201,       7.30685,       27.8134,            0.,NA,NA,"",       1.09984,      -1.09736,  -73.9060E-03,   55.0962E-09
C:/temp/dataset/4/17_05.odb,Step-1,Increment      1: Step Time =    1.000,"PART-1-1",           202,      -8.46063,       21.4565,            0.,NA,NA,"",       1.15962,      -1.05708,  -476.763E-03,   3.35296E-06
C:/temp/dataset/4/17_05.odb,Step-1,Increment      1: Step Time =    1.000,"PART-1-1",           203,       9.11250,      -15.1896,            0.,NA,NA,"",   133.341E-03,  -132.618E-03,  -13.8727E-03,   1.12314E-03
C:/temp/dataset/4/17_05.odb,Step-1,Increment      1: Step Time =    1.000,"PART-1-1",           204,       9.14200,      -21.8221,            0.,NA,NA,"",   45.0490E-03,  -44.3783E-03,  -7.74510E-03,   1.26428E-03
C:/temp/dataset/4/17_05.odb,Step-1,Increment      1: Step Time =    1.000,"PART-1-1",           205,      -8.90436,       15.8055,            0.,NA,NA,"",       1.02068,  -896.989E-03,  -487.022E-03,   13.4772E-06
C:/temp/dataset/4/17_05.odb,Step-1,Increment      1: Step Time =    1.000,"PART-1-1",           206,       9.00445,       19.7587,            0.,NA,NA,"",   912.148E-03,  -911.569E-03,  -32.5007E-03,   868.412E-09
C:/temp/dataset/4/17_05.odb,Step-1,Increment      1: Step Time =    1.000,"PART-1-1",           207,       8.39742,      -6.16188,            0.,NA,NA,"",   308.334E-03,  -306.339E-03,  -35.0212E-03,   947.559E-06
C:/temp/dataset/4/17_05.odb,Step-1,Increment      1: Step Time =    1.000,"PART-1-1",           208,      -9.10294,       7.45394,            0.,NA,NA,"",   821.562E-03,  -659.447E-03,  -489.994E-03,   558.926E-06
C:/temp/dataset/4/17_05.odb,Step-1,Increment      1: Step Time =    1.000,"PART-1-1",           209,       8.43260,       6.43235,            0.,NA,NA,"",   604.980E-03,  -603.508E-03,  -42.1831E-03,   260.649E-06
C:/temp/dataset/4/17_05.odb,Step-1,Increment      1: Step Time =    1.000,"PART-1-1",           210,       5.64784,       2.93298,            0.,NA,NA,"",   533.363E-03,  -523.105E-03,  -104.101E-03,   1.13681E-03
C:/temp/dataset/4/17_05.odb,Step-1,Increment      1: Step Time =    1.000,"PART-1-1",           211,      -10.7213,       1.88644,            0.,NA,NA,"",   731.185E-03,  -501.501E-03,  -532.097E-03,   375.309E-06
C:/temp/dataset/4/17_05.odb,Step-1,Increment      1: Step Time =    1.000,"PART-1-1",           212,      -12.7178,       27.8380,            0.,NA,NA,"",       1.37381,      -1.23597,  -599.798E-03,   72.8850E-09
C:/temp/dataset/4/17_05.odb,Step-1,Increment      1: Step Time =    1.000,"PART-1-1",           213,      -11.0298,       24.2524,            0.,NA,NA,"",       1.26165,      -1.13517,  -550.591E-03,   1.01351E-06
C:/temp/dataset/4/17_05.odb,Step-1,Increment      1: Step Time =    1.000,"PART-1-1",           214,      -10.4500,       20.0822,            0.,NA,NA,"",       1.14833,      -1.01739,  -532.504E-03,   5.77733E-06
C:/temp/dataset/4/17_05.odb,Step-1,Increment      1: Step Time =    1.000,"PART-1-1",           215,      -10.9919,       14.0243,            0.,NA,NA,"",       1.00632,  -845.717E-03,  -545.391E-03,   25.5062E-06
C:/temp/dataset/4/17_05.odb,Step-1,Increment      1: Step Time =    1.000,"PART-1-1",           216,      -11.0796,       9.82104,            0.,NA,NA,"",   908.820E-03,  -726.284E-03,  -546.320E-03,   237.710E-06
C:/temp/dataset/4/17_05.odb,Step-1,Increment      1: Step Time =    1.000,"PART-1-1",           217,      -11.0365,       11.9204,            0.,NA,NA,"",   956.984E-03,  -786.043E-03,  -545.852E-03,   105.199E-06
C:/temp/dataset/4/17_05.odb,Step-1,Increment      1: Step Time =    1.000,"PART-1-1",           218,      -10.5491,       22.5446,            0.,NA,NA,"",       1.21213,      -1.08704,  -536.301E-03,   2.32469E-06
C:/temp/dataset/4/17_05.odb,Step-1,Increment      1: Step Time =    1.000,"PART-1-1",           219,      -10.9277,       16.1478,            0.,NA,NA,"",       1.05688,  -905.863E-03,  -544.426E-03,   10.3404E-06
C:/temp/dataset/4/17_05.odb,Step-1,Increment      1: Step Time =    1.000,"PART-1-1",           220,      -10.7891,       18.2216,            0.,NA,NA,"",       1.10613,  -964.607E-03,  -541.347E-03,   9.42411E-06
C:/temp/dataset/4/17_05.odb,Step-1,Increment      1: Step Time =    1.000,"PART-1-1",           221,      -11.1555,       7.76515,            0.,NA,NA,"",   863.423E-03,  -667.507E-03,  -547.662E-03,   343.696E-06
C:/temp/dataset/4/17_05.odb,Step-1,Increment      1: Step Time =    1.000,"PART-1-1",           222,      -9.80329,       4.04682,            0.,NA,NA,"",   757.366E-03,  -561.913E-03,  -507.796E-03,   441.426E-06
C:/temp/dataset/4/17_05.odb,Step-1,Increment      1: Step Time =    1.000,"PART-1-1",           223,       9.22674,      -25.9093,            0.,NA,NA,"",   11.9174E-03,  -11.4154E-03,  -3.42262E-03,   1.29377E-03
C:/temp/dataset/4/17_05.odb,Step-1,Increment      1: Step Time =    1.000,"PART-1-1",           224,      -9.21421,       25.1107,            0.,NA,NA,"",       1.26317,      -1.16019,  -499.556E-03,   615.063E-09
C:/temp/dataset/4/17_05.odb,Step-1,Increment      1: Step Time =    1.000,"PART-1-1",           225,       6.25241,      -4.60112,            0.,NA,NA,"",   350.903E-03,  -340.988E-03,  -82.8237E-03,   1.29233E-03
C:/temp/dataset/4/17_05.odb,Step-1,Increment      1: Step Time =    1.000,"PART-1-1",           226,      -7.19550,       4.55405,            0.,NA,NA,"",   722.061E-03,  -576.151E-03,  -435.226E-03,   968.692E-06
C:/temp/dataset/4/17_05.odb,Step-1,Increment      1: Step Time =    1.000,"PART-1-1",           227,       12.9551,      -24.6090,            0.,NA,NA,"",   28.6984E-03,  -22.3621E-03,   17.9871E-03,   3.80230E-03
C:/temp/dataset/4/17_05.odb,Step-1,Increment      1: Step Time =    1.000,"PART-1-1",           228,       10.9241,       22.1645,            0.,NA,NA,"",   967.777E-03,  -967.712E-03,   11.2433E-03,   116.588E-09
C:/temp/dataset/4/17_05.odb,Step-1,Increment      1: Step Time =    1.000,"PART-1-1",           229,      -4.91288,   464.762E-03,            0.,NA,NA,"",   593.183E-03,  -463.651E-03,  -369.992E-03,   369.889E-06
C:/temp/dataset/4/17_05.odb,Step-1,Increment      1: Step Time =    1.000,"PART-1-1",           230,  -831.143E-03,      -1.35374,            0.,NA,NA,"",   492.435E-03,  -417.297E-03,  -261.450E-03,   167.417E-06
C:/temp/dataset/4/17_05.odb,Step-1,Increment      1: Step Time =    1.000,"PART-1-1",           231,       11.1616,      -19.7398,            0.,NA,NA,"",   69.1988E-03,  -68.0447E-03,   12.5856E-03,   1.45509E-03
C:/temp/dataset/4/17_05.odb,Step-1,Increment      1: Step Time =    1.000,"PART-1-1",           232,       10.9730,      -10.3410,            0.,NA,NA,"",   220.580E-03,  -219.965E-03,   16.4595E-03,   1.06154E-03
C:/temp/dataset/4/17_05.odb,Step-1,Increment      1: Step Time =    1.000,"PART-1-1",           233,       10.4844,      -5.04269,            0.,NA,NA,"",   332.230E-03,  -332.130E-03,   8.11452E-03,   1.24953E-03
C:/temp/dataset/4/17_05.odb,Step-1,Increment      1: Step Time =    1.000,"PART-1-1",           234,       10.9074,       10.5689,            0.,NA,NA,"",   699.742E-03,  -699.604E-03,   13.8833E-03,   32.4676E-06
C:/temp/dataset/4/17_05.odb,Step-1,Increment      1: Step Time =    1.000,"PART-1-1",           235,       11.0515,      -12.7377,            0.,NA,NA,"",   175.652E-03,  -174.863E-03,   16.6362E-03,   1.14536E-03
C:/temp/dataset/4/17_05.odb,Step-1,Increment      1: Step Time =    1.000,"PART-1-1",           236,       10.9936,       12.8990,            0.,NA,NA,"",   753.662E-03,  -753.507E-03,   15.2922E-03,   20.7462E-06
C:/temp/dataset/4/17_05.odb,Step-1,Increment      1: Step Time =    1.000,"PART-1-1",           237,      -9.84553,  -403.770E-03,            0.,NA,NA,"",   669.990E-03,  -438.757E-03,  -506.339E-03,   460.566E-06
C:/temp/dataset/4/17_05.odb,Step-1,Increment      1: Step Time =    1.000,"PART-1-1",           238,      -6.42098,  -599.403E-03,            0.,NA,NA,"",   598.181E-03,  -434.647E-03,  -410.978E-03,   469.755E-06
C:/temp/dataset/4/17_05.odb,Step-1,Increment      1: Step Time =    1.000,"PART-1-1",           239,      -2.35214,      -1.85066,            0.,NA,NA,"",   503.443E-03,  -403.523E-03,  -301.038E-03,   335.768E-06
C:/temp/dataset/4/17_05.odb,Step-1,Increment      1: Step Time =    1.000,"PART-1-1",           240,       11.1625,      -21.9830,            0.,NA,NA,"",   44.1991E-03,  -43.0150E-03,   10.1624E-03,   1.55463E-03
C:/temp/dataset/4/17_05.odb,Step-1,Increment      1: Step Time =    1.000,"PART-1-1",           241,       11.1073,      -15.0998,            0.,NA,NA,"",   135.338E-03,  -134.392E-03,   15.9697E-03,   1.24944E-03
C:/temp/dataset/4/17_05.odb,Step-1,Increment      1: Step Time =    1.000,"PART-1-1",           242,       11.1457,      -17.4375,            0.,NA,NA,"",   99.7240E-03,  -98.6486E-03,   14.6062E-03,   1.35849E-03
C:/temp/dataset/4/17_05.odb,Step-1,Increment      1: Step Time =    1.000,"PART-1-1",           243,       10.8340,      -7.85693,            0.,NA,NA,"",   270.966E-03,  -270.567E-03,   14.6959E-03,   1.06939E-03
C:/temp/dataset/4/17_05.odb,Step-1,Increment      1: Step Time =    1.000,"PART-1-1",           244,       10.5842,   120.255E-03,            0.,NA,NA,"",   454.116E-03,  -454.008E-03,   9.88949E-03,   1.15831E-03
C:/temp/dataset/4/17_05.odb,Step-1,Increment      1: Step Time =    1.000,"PART-1-1",           245,       10.8633,      -2.34188,            0.,NA,NA,"",   395.510E-03,  -395.170E-03,   16.3939E-03,   1.32639E-03
C:/temp/dataset/4/17_05.odb,Step-1,Increment      1: Step Time =    1.000,"PART-1-1",           246,       9.78574,       2.89226,            0.,NA,NA,"",   520.551E-03,  -520.469E-03,  -9.27259E-03,   836.324E-06
C:/temp/dataset/4/17_05.odb,Step-1,Increment      1: Step Time =    1.000,"PART-1-1",           247,       10.7685,       8.18214,            0.,NA,NA,"",   644.426E-03,  -644.327E-03,   11.2789E-03,   47.8181E-06
C:/temp/dataset/4/17_05.odb,Step-1,Increment      1: Step Time =    1.000,"PART-1-1",           248,       10.4587,       5.69287,            0.,NA,NA,"",   586.435E-03,  -586.415E-03,   4.89437E-03,   271.821E-06
C:/temp/dataset/4/17_05.odb,Step-1,Increment      1: Step Time =    1.000,"PART-1-1",           249,       11.0104,       19.8565,            0.,NA,NA,"",   914.475E-03,  -914.370E-03,   13.8555E-03,   788.679E-09
C:/temp/dataset/4/17_05.odb,Step-1,Increment      1: Step Time =    1.000,"PART-1-1",           250,       11.0363,       17.5467,            0.,NA,NA,"",   861.102E-03,  -860.970E-03,   15.0676E-03,   3.20082E-06
C:/temp/dataset/4/17_05.odb,Step-1,Increment      1: Step Time =    1.000,"PART-1-1",           251,       11.0403,       15.2208,            0.,NA,NA,"",   807.352E-03,  -807.198E-03,   15.7748E-03,   9.33004E-06
C:/temp/dataset/4/17_05.odb,Step-1,Increment      1: Step Time =    1.000,"PART-1-1",           252,       1.19009,      -1.06873,            0.,NA,NA,"",   474.356E-03,  -425.415E-03,  -209.847E-03,   77.2839E-06
C:/temp/dataset/4/17_05.odb,Step-1,Increment      1: Step Time =    1.000,"PART-1-1",           253,       10.6932,       24.5073,            0.,NA,NA,"",       1.02183,      -1.02182,   5.27747E-03,   82.7407E-09
C:/temp/dataset/4/17_05.odb,Step-1,Increment      1: Step Time =    1.000,"PART-1-1",           254,       8.51128,       25.6419,            0.,NA,NA,"",       1.04846,      -1.04747,  -45.4764E-03,   73.0650E-09
C:/temp/dataset/4/17_05.odb,Step-1,Increment      1: Step Time =    1.000,"PART-1-1",           255,      -9.32324,       5.48290,            0.,NA,NA,"",   780.094E-03,  -602.708E-03,  -495.267E-03,   525.122E-06
C:/temp/dataset/4/17_05.odb,Step-1,Increment      1: Step Time =    1.000,"PART-1-1",           256,      -11.4569,       25.7537,            0.,NA,NA,"",       1.30528,      -1.17749,  -563.281E-03,   379.294E-09
C:/temp/dataset/4/17_05.odb,Step-1,Increment      1: Step Time =    1.000,"PART-1-1",           257,      -8.85145,       2.84717,            0.,NA,NA,"",   714.003E-03,  -528.282E-03,  -480.332E-03,   513.733E-06
C:/temp/dataset/4/17_05.odb,Step-1,Increment      1: Step Time =    1.000,"PART-1-1",           258,       11.0896,      -24.0706,            0.,NA,NA,"",   25.2601E-03,  -24.2279E-03,   7.14716E-03,   1.57253E-03
C:/temp/dataset/4/17_05.odb,Step-1,Increment      1: Step Time =    1.000,"PART-1-1",           259,       5.69240,      -2.12345,            0.,NA,NA,"",   412.149E-03,  -400.160E-03,  -98.6834E-03,   1.11439E-03
C:/temp/dataset/4/17_05.odb,Step-1,Increment      1: Step Time =    1.000,"PART-1-1",           260,       7.72467,       1.38687,            0.,NA,NA,"",   488.008E-03,  -484.886E-03,  -55.1146E-03,   1.19872E-03
C:/temp/dataset/4/17_05.odb,Step-1,Increment      1: Step Time =    1.000,"PART-1-1",           261,       8.83369,  -368.727E-03,            0.,NA,NA,"",   443.142E-03,  -442.197E-03,  -28.9194E-03,   1.30122E-03
C:/temp/dataset/4/17_05.odb,Step-1,Increment      1: Step Time =    1.000,"PART-1-1",           262,       7.58912,       4.39900,            0.,NA,NA,"",   559.891E-03,  -556.607E-03,  -60.5495E-03,   855.173E-06
C:/temp/dataset/4/17_05.odb,Step-1,Increment      1: Step Time =    1.000,"PART-1-1",           263,      -6.02595,       2.23751,            0.,NA,NA,"",   649.833E-03,  -511.225E-03,  -401.163E-03,   693.667E-06
C:/temp/dataset/4/17_05.odb,Step-1,Increment      1: Step Time =    1.000,"PART-1-1",           264,       4.92391,   813.983E-03,            0.,NA,NA,"",   486.851E-03,  -471.983E-03,  -119.397E-03,   913.747E-06
C:/temp/dataset/4/17_05.odb,Step-1,Increment      1: Step Time =    1.000,"PART-1-1",           265,      -7.77287,       1.11371,            0.,NA,NA,"",   657.806E-03,  -480.611E-03,  -449.134E-03,   533.642E-06
C:/temp/dataset/4/17_05.odb,Step-1,Increment      1: Step Time =    1.000,"PART-1-1",           266,      -3.71710,       1.36231,            0.,NA,NA,"",   593.454E-03,  -487.732E-03,  -338.090E-03,   500.138E-06
C:/temp/dataset/4/17_05.odb,Step-1,Increment      1: Step Time =    1.000,"PART-1-1",           267,       2.85817,       1.10052,            0.,NA,NA,"",   508.681E-03,  -479.646E-03,  -169.400E-03,   665.959E-06
C:/temp/dataset/4/17_05.odb,Step-1,Increment      1: Step Time =    1.000,"PART-1-1",           268,       7.51165,      -2.37377,            0.,NA,NA,"",   397.996E-03,  -393.901E-03,  -56.9409E-03,   1.36169E-03
C:/temp/dataset/4/17_05.odb,Step-1,Increment      1: Step Time =    1.000,"PART-1-1",           269,      -1.84913,   666.939E-03,            0.,NA,NA,"",   550.987E-03,  -469.400E-03,  -288.531E-03,   356.807E-06
C:/temp/dataset/4/17_05.odb,Step-1,Increment      1: Step Time =    1.000,"PART-1-1",           270,   621.955E-03,   989.730E-03,            0.,NA,NA,"",   527.867E-03,  -477.432E-03,  -225.172E-03,   563.115E-06
C:/temp/dataset/4/17_05.odb,Step-1,Increment      1: Step Time =    1.000,"PART-1-1",           271,       7.77182,      -4.29185,            0.,NA,NA,"",   352.000E-03,  -348.472E-03,  -49.7112E-03,   1.24745E-03
C:/temp/dataset/4/17_05.odb,Step-1,Increment      1: Step Time =    1.000,"PART-1-1",           272,       6.40836,       5.42027,            0.,NA,NA,"",   587.200E-03,  -580.496E-03,  -88.4805E-03,   698.605E-06
C:/temp/dataset/4/17_05.odb,Step-1,Increment      1: Step Time =    1.000,"PART-1-1",           273,      -12.5139,      -2.82358,            0.,NA,NA,"",   688.593E-03,  -371.372E-03,  -579.865E-03,   231.665E-06
C:/temp/dataset/4/17_05.odb,Step-1,Increment      1: Step Time =    1.000,"PART-1-1",           274,       10.8188,      -25.6946,            0.,NA,NA,"",   13.3656E-03,  -12.7903E-03,   3.87908E-03,   1.34717E-03
C:/temp/dataset/4/17_05.odb,Step-1,Increment      1: Step Time =    1.000,"PART-1-1",           275,       6.49302,  -163.532E-03,            0.,NA,NA,"",   455.101E-03,  -447.657E-03,  -81.9782E-03,   1.16334E-03
C:/temp/dataset/4/17_05.odb,Step-1,Increment      1: Step Time =    1.000,"PART-1-1",           276,       7.60941,  -936.337E-03,            0.,NA,NA,"",   432.237E-03,  -428.605E-03,  -55.9169E-03,   1.30990E-03
C:/temp/dataset/4/17_05.odb,Step-1,Increment      1: Step Time =    1.000,"PART-1-1",           277,       9.17282,      -2.25688,            0.,NA,NA,"",   397.295E-03,  -396.768E-03,  -20.4510E-03,   1.36894E-03
C:/temp/dataset/4/17_05.odb,Step-1,Increment      1: Step Time =    1.000,"PART-1-1",           278,       9.10690,      -3.89703,            0.,NA,NA,"",   358.604E-03,  -357.976E-03,  -21.2137E-03,   1.28767E-03
C:/temp/dataset/4/17_05.odb,Step-1,Increment      1: Step Time =    1.000,"PART-1-1",           279,      -7.91199,      -1.40732,            0.,NA,NA,"",   611.734E-03,  -412.204E-03,  -452.002E-03,   484.194E-06
C:/temp/dataset/4/17_05.odb,Step-1,Increment      1: Step Time =    1.000,"PART-1-1",           280,      -9.83927,       21.3699,            0.,NA,NA,"",       1.17348,      -1.05408,  -515.741E-03,   3.67923E-06
C:/temp/dataset/4/17_05.odb,Step-1,Increment      1: Step Time =    1.000,"PART-1-1",           281,      -11.2653,       5.77953,            0.,NA,NA,"",   821.755E-03,  -610.780E-03,  -549.753E-03,   361.669E-06
C:/temp/dataset/4/17_05.odb,Step-1,Increment      1: Step Time =    1.000,"PART-1-1",           282,      -11.2487,       3.84080,            0.,NA,NA,"",   780.701E-03,  -555.938E-03,  -548.113E-03,   321.808E-06
C:/temp/dataset/4/17_05.odb,Step-1,Increment      1: Step Time =    1.000,"PART-1-1",           283,       3.11059,  -868.354E-03,            0.,NA,NA,"",   460.318E-03,  -430.883E-03,  -161.963E-03,   328.351E-06
C:/temp/dataset/4/17_05.odb,Step-1,Increment      1: Step Time =    1.000,"PART-1-1",           284,       4.50766,  -682.768E-03,            0.,NA,NA,"",   453.873E-03,  -435.421E-03,  -128.097E-03,   656.559E-06
C:/temp/dataset/4/17_05.odb,Step-1,Increment      1: Step Time =    1.000,"PART-1-1",           285,      -3.56662,  -854.847E-03,            0.,NA,NA,"",   543.380E-03,  -429.057E-03,  -333.424E-03,   259.995E-06
C:/temp/dataset/4/17_05.odb,Step-1,Increment      1: Step Time =    1.000,"PART-1-1",           286,      -7.33150,       26.6843,            0.,NA,NA,"",       1.28565,      -1.20547,  -446.907E-03,   190.039E-09
C:/temp/dataset/4/17_05.odb,Step-1,Increment      1: Step Time =    1.000,"PART-1-1",           287,      -6.09303,       25.7233,            0.,NA,NA,"",       1.24853,      -1.17877,  -411.474E-03,   153.564E-09
C:/temp/dataset/4/17_05.odb,Step-1,Increment      1: Step Time =    1.000,"PART-1-1",           288,           -5.,        26.875,            0.,NA,NA,"",       1.27029,      -1.21180,  -381.003E-03,   25.1138E-09
C:/temp/dataset/4/17_05.odb,Step-1,Increment      1: Step Time =    1.000,"PART-1-1",           289,      -6.23847,       27.8360,            0.,NA,NA,"",       1.30664,      -1.23850,  -416.436E-03,   52.4027E-09
C:/temp/dataset/4/17_05.odb,Step-1,Increment      1: Step Time =    1.000,"PART-1-1",           290,      -8.20013,       25.3620,            0.,NA,NA,"",       1.25910,      -1.16771,  -470.959E-03,   435.159E-09
C:/temp/dataset/4/17_05.odb,Step-1,Increment      1: Step Time =    1.000,"PART-1-1",           291,      -8.98257,       24.1636,            0.,NA,NA,"",       1.23590,      -1.13348,  -492.621E-03,   1.11620E-06
C:/temp/dataset/4/17_05.odb,Step-1,Increment      1: Step Time =    1.000,"PART-1-1",           292,      -7.83587,       23.3915,            0.,NA,NA,"",       1.20342,      -1.11209,  -459.861E-03,   1.21936E-06
C:/temp/dataset/4/17_05.odb,Step-1,Increment      1: Step Time =    1.000,"PART-1-1",           293,      -7.05344,       24.5900,            0.,NA,NA,"",       1.22722,      -1.14632,  -438.199E-03,   686.210E-09
C:/temp/dataset/4/17_05.odb,Step-1,Increment      1: Step Time =    1.000,"PART-1-1",           294,      -6.78951,       20.5788,            0.,NA,NA,"",       1.11850,      -1.03290,  -429.125E-03,   4.32299E-06
C:/temp/dataset/4/17_05.odb,Step-1,Increment      1: Step Time =    1.000,"PART-1-1",           295,      -5.89603,       19.5861,            0.,NA,NA,"",       1.08311,      -1.00517,  -403.447E-03,   4.89320E-06
C:/temp/dataset/4/17_05.odb,Step-1,Increment      1: Step Time =    1.000,"PART-1-1",           296,           -5.,        20.625,            0.,NA,NA,"",       1.10197,      -1.03493,  -378.504E-03,   3.85605E-06
C:/temp/dataset/4/17_05.odb,Step-1,Increment      1: Step Time =    1.000,"PART-1-1",           297,      -5.89348,       21.6177,            0.,NA,NA,"",       1.13693,      -1.06266,  -404.184E-03,   1.85857E-06
C:/temp/dataset/4/17_05.odb,Step-1,Increment      1: Step Time =    1.000,"PART-1-1",           298,      -7.97413,       13.6001,            0.,NA,NA,"",   953.246E-03,  -835.015E-03,  -459.815E-03,   39.9400E-06
C:/temp/dataset/4/17_05.odb,Step-1,Increment      1: Step Time =    1.000,"PART-1-1",           299,      -8.98702,       12.6704,            0.,NA,NA,"",   944.243E-03,  -808.285E-03,  -488.130E-03,   94.9633E-06
C:/temp/dataset/4/17_05.odb,Step-1,Increment      1: Step Time =    1.000,"PART-1-1",           300,      -8.00249,       11.5116,            0.,NA,NA,"",   902.067E-03,  -776.035E-03,  -459.885E-03,   197.581E-06
C:/temp/dataset/4/17_05.odb,Step-1,Increment      1: Step Time =    1.000,"PART-1-1",           301,      -6.98959,       12.4413,            0.,NA,NA,"",   911.416E-03,  -802.787E-03,  -431.523E-03,   129.665E-06
C:/temp/dataset/4/17_05.odb,Step-1,Increment      1: Step Time =    1.000,"PART-1-1",           302,      -9.95004,      -1.64066,            0.,NA,NA,"",   650.222E-03,  -404.939E-03,  -508.737E-03,   406.657E-06
C:/temp/dataset/4/17_05.odb,Step-1,Increment      1: Step Time =    1.000,"PART-1-1",           303,      -11.1983,  -513.068E-03,            0.,NA,NA,"",   696.852E-03,  -435.333E-03,  -544.139E-03,   385.891E-06
C:/temp/dataset/4/17_05.odb,Step-1,Increment      1: Step Time =    1.000,"PART-1-1",           304,      -12.5325,      -1.72297,            0.,NA,NA,"",   706.193E-03,  -401.644E-03,  -580.854E-03,   274.336E-06
C:/temp/dataset/4/17_05.odb,Step-1,Increment      1: Step Time =    1.000,"PART-1-1",           305,      -11.2842,      -2.85056,            0.,NA,NA,"",   659.853E-03,  -371.177E-03,  -545.557E-03,   308.323E-06
C:/temp/dataset/4/17_05.odb,Step-1,Increment      1: Step Time =    1.000,"PART-1-1",           306,      -10.2834,   741.336E-03,            0.,NA,NA,"",   700.316E-03,  -470.006E-03,  -519.170E-03,   391.573E-06
C:/temp/dataset/4/17_05.odb,Step-1,Increment      1: Step Time =    1.000,"PART-1-1",           307,      -11.7661,       1.72477,            0.,NA,NA,"",   749.575E-03,  -496.831E-03,  -561.267E-03,   336.794E-06
C:/temp/dataset/4/17_05.odb,Step-1,Increment      1: Step Time =    1.000,"PART-1-1",           308,      -12.6810,   470.366E-03,            0.,NA,NA,"",   746.283E-03,  -461.948E-03,  -586.124E-03,   309.926E-06
C:/temp/dataset/4/17_05.odb,Step-1,Increment      1: Step Time =    1.000,"PART-1-1",           309,         -1.25,           -5.,            0.,NA,NA,"",   421.969E-03,  -322.426E-03,  -272.211E-03,   1.12671E-03
C:/temp/dataset/4/17_05.odb,Step-1,Increment      1: Step Time =    1.000,"PART-1-1",           310,  -165.329E-03,      -4.13131,            0.,NA,NA,"",   423.629E-03,  -346.234E-03,  -244.097E-03,   902.912E-06
C:/temp/dataset/4/17_05.odb,Step-1,Increment      1: Step Time =    1.000,"PART-1-1",           311,      -1.46228,      -3.26668,            0.,NA,NA,"",   460.393E-03,  -367.283E-03,  -277.605E-03,   666.089E-06
C:/temp/dataset/4/17_05.odb,Step-1,Increment      1: Step Time =    1.000,"PART-1-1",           312,      -2.54695,      -4.13537,            0.,NA,NA,"",   459.998E-03,  -343.426E-03,  -306.034E-03,   889.725E-06
C:/temp/dataset/4/17_05.odb,Step-1,Increment      1: Step Time =    1.000,"PART-1-1",           313,   769.081E-03,      -3.16387,            0.,NA,NA,"",   432.253E-03,  -371.985E-03,  -220.158E-03,   639.230E-06
C:/temp/dataset/4/17_05.odb,Step-1,Increment      1: Step Time =    1.000,"PART-1-1",           314,          1.25,           -5.,            0.,NA,NA,"",   386.495E-03,  -325.705E-03,  -208.073E-03,   1.13437E-03
C:/temp/dataset/4/17_05.odb,Step-1,Increment      1: Step Time =    1.000,"PART-1-1",           315,       2.18441,      -4.03256,            0.,NA,NA,"",   396.801E-03,  -351.457E-03,  -184.198E-03,   904.466E-06
C:/temp/dataset/4/17_05.odb,Step-1,Increment      1: Step Time =    1.000,"PART-1-1",           316,       1.54561,       3.01681,            0.,NA,NA,"",   565.791E-03,  -527.982E-03,  -203.359E-03,   1.21736E-03
C:/temp/dataset/4/17_05.odb,Step-1,Increment      1: Step Time =    1.000,"PART-1-1",           317,       2.64536,       4.01417,            0.,NA,NA,"",   579.274E-03,  -551.604E-03,  -176.895E-03,   1.58168E-03
C:/temp/dataset/4/17_05.odb,Step-1,Increment      1: Step Time =    1.000,"PART-1-1",           318,          1.25,            5.,            0.,NA,NA,"",   615.900E-03,  -577.954E-03,  -212.840E-03,   1.92842E-03
C:/temp/dataset/4/17_05.odb,Step-1,Increment      1: Step Time =    1.000,"PART-1-1",           319,   150.245E-03,       4.00264,            0.,NA,NA,"",   603.680E-03,  -554.111E-03,  -239.565E-03,   1.58426E-03
C:/temp/dataset/4/17_05.odb,Step-1,Increment      1: Step Time =    1.000,"PART-1-1",           320,   179.474E-03,      -1.21124,            0.,NA,NA,"",   482.744E-03,  -421.395E-03,  -235.515E-03,   118.377E-06
C:/temp/dataset/4/17_05.odb,Step-1,Increment      1: Step Time =    1.000,"PART-1-1",           321,  -580.901E-03,      -2.30818,            0.,NA,NA,"",   468.237E-03,  -392.821E-03,  -254.828E-03,   432.268E-06
C:/temp/dataset/4/17_05.odb,Step-1,Increment      1: Step Time =    1.000,"PART-1-1",           322,       1.52946,      -2.06693,            0.,NA,NA,"",   448.010E-03,  -400.375E-03,  -201.031E-03,   380.803E-06
C:/temp/dataset/4/17_05.odb,Step-1,Increment      1: Step Time =    1.000,"PART-1-1",           323,       12.7868,      -3.71378,            0.,NA,NA,"",   368.623E-03,  -364.070E-03,   57.7517E-03,   1.41002E-03
C:/temp/dataset/4/17_05.odb,Step-1,Increment      1: Step Time =    1.000,"PART-1-1",           324,       13.8814,      -5.00619,            0.,NA,NA,"",   344.970E-03,  -335.502E-03,   80.2646E-03,   1.84154E-03
C:/temp/dataset/4/17_05.odb,Step-1,Increment      1: Step Time =    1.000,"PART-1-1",           325,           15.,         -3.75,            0.,NA,NA,"",   380.636E-03,  -365.292E-03,   106.982E-03,   1.91320E-03
C:/temp/dataset/4/17_05.odb,Step-1,Increment      1: Step Time =    1.000,"PART-1-1",           326,       13.9054,      -2.45760,            0.,NA,NA,"",   402.970E-03,  -394.212E-03,   83.5597E-03,   1.31046E-03
C:/temp/dataset/4/17_05.odb,Step-1,Increment      1: Step Time =    1.000,"PART-1-1",           327,       5.10003,      -1.40311,            0.,NA,NA,"",   432.862E-03,  -417.752E-03,  -113.372E-03,   859.912E-06
C:/temp/dataset/4/17_05.odb,Step-1,Increment      1: Step Time =    1.000,"PART-1-1",           328,       3.80913,  -775.561E-03,            0.,NA,NA,"",   456.802E-03,  -433.192E-03,  -144.957E-03,   499.171E-06
C:/temp/dataset/4/17_05.odb,Step-1,Increment      1: Step Time =    1.000,"PART-1-1",           329,       3.52110,      -1.80919,            0.,NA,NA,"",   434.867E-03,  -407.671E-03,  -151.373E-03,   334.304E-06
C:/temp/dataset/4/17_05.odb,Step-1,Increment      1: Step Time =    1.000,"PART-1-1",           330,       4.81200,      -2.43673,            0.,NA,NA,"",   410.362E-03,  -392.636E-03,  -119.306E-03,   642.507E-06
C:/temp/dataset/4/17_05.odb,Step-1,Increment      1: Step Time =    1.000,"PART-1-1",           331,           15.,          3.75,            0.,NA,NA,"",   552.974E-03,  -541.755E-03,   110.822E-03,   131.676E-06
C:/temp/dataset/4/17_05.odb,Step-1,Increment      1: Step Time =    1.000,"PART-1-1",           332,       13.8386,       5.14064,            0.,NA,NA,"",   580.143E-03,  -574.128E-03,   83.3265E-03,   102.010E-06
C:/temp/dataset/4/17_05.odb,Step-1,Increment      1: Step Time =    1.000,"PART-1-1",           333,       12.6076,       4.00525,            0.,NA,NA,"",   549.827E-03,  -547.068E-03,   55.0086E-03,   377.695E-06
C:/temp/dataset/4/17_05.odb,Step-1,Increment      1: Step Time =    1.000,"PART-1-1",           334,       13.7689,       2.61462,            0.,NA,NA,"",   520.984E-03,  -514.473E-03,   82.1116E-03,   360.946E-06
C:/temp/dataset/4/17_05.odb,Step-1,Increment      1: Step Time =    1.000,"PART-1-1",           335,       9.76439,       8.40859,            0.,NA,NA,"",   649.457E-03,  -649.346E-03,  -12.0222E-03,   40.4232E-06
C:/temp/dataset/4/17_05.odb,Step-1,Increment      1: Step Time =    1.000,"PART-1-1",           336,       8.59642,       7.53369,            0.,NA,NA,"",   630.087E-03,  -628.892E-03,  -38.7775E-03,   132.401E-06
C:/temp/dataset/4/17_05.odb,Step-1,Increment      1: Step Time =    1.000,"PART-1-1",           337,       9.44563,       6.06261,            0.,NA,NA,"",   595.275E-03,  -594.983E-03,  -18.6439E-03,   247.881E-06
C:/temp/dataset/4/17_05.odb,Step-1,Increment      1: Step Time =    1.000,"PART-1-1",           338,       10.6136,       6.93751,            0.,NA,NA,"",   615.484E-03,  -615.432E-03,   8.04906E-03,   144.449E-06
C:/temp/dataset/4/17_05.odb,Step-1,Increment      1: Step Time =    1.000,"PART-1-1",           339,       5.92452,       9.07762,            0.,NA,NA,"",   671.416E-03,  -663.814E-03,  -100.744E-03,   57.2892E-06
C:/temp/dataset/4/17_05.odb,Step-1,Increment      1: Step Time =    1.000,"PART-1-1",           340,            5.,         8.125,            0.,NA,NA,"",   653.108E-03,  -641.678E-03,  -121.650E-03,   123.669E-06
C:/temp/dataset/4/17_05.odb,Step-1,Increment      1: Step Time =    1.000,"PART-1-1",           341,       5.83838,       7.03541,            0.,NA,NA,"",   625.392E-03,  -616.996E-03,  -102.130E-03,   175.011E-06
C:/temp/dataset/4/17_05.odb,Step-1,Increment      1: Step Time =    1.000,"PART-1-1",           342,       6.76290,       7.98803,            0.,NA,NA,"",   644.099E-03,  -638.964E-03,  -81.1690E-03,   61.1882E-06
C:/temp/dataset/4/17_05.odb,Step-1,Increment      1: Step Time =    1.000,"PART-1-1",           343,       6.00358,       15.4027,            0.,NA,NA,"",   816.271E-03,  -810.033E-03,  -100.718E-03,   4.91778E-06
C:/temp/dataset/4/17_05.odb,Step-1,Increment      1: Step Time =    1.000,"PART-1-1",           344,            5.,        14.375,            0.,NA,NA,"",   795.666E-03,  -786.001E-03,  -123.643E-03,   10.9849E-06
C:/temp/dataset/4/17_05.odb,Step-1,Increment      1: Step Time =    1.000,"PART-1-1",           345,       5.99171,       13.2884,            0.,NA,NA,"",   767.727E-03,  -761.132E-03,  -100.414E-03,   13.7168E-06
C:/temp/dataset/4/17_05.odb,Step-1,Increment      1: Step Time =    1.000,"PART-1-1",           346,       6.99529,       14.3161,            0.,NA,NA,"",   788.983E-03,  -785.168E-03,  -77.5006E-03,   12.4803E-06
C:/temp/dataset/4/17_05.odb,Step-1,Increment      1: Step Time =    1.000,"PART-1-1",           347,       11.7328,       24.6815,            0.,NA,NA,"",       1.02654,      -1.02613,   29.2677E-03,   75.2252E-09
C:/temp/dataset/4/17_05.odb,Step-1,Increment      1: Step Time =    1.000,"PART-1-1",           348,       12.6496,       26.1279,            0.,NA,NA,"",       1.06100,      -1.05981,   50.0792E-03,   72.9957E-09
C:/temp/dataset/4/17_05.odb,Step-1,Increment      1: Step Time =    1.000,"PART-1-1",           349,       11.2054,       27.2635,            0.,NA,NA,"",       1.08581,      -1.08568,   16.3845E-03,   47.4367E-09
C:/temp/dataset/4/17_05.odb,Step-1,Increment      1: Step Time =    1.000,"PART-1-1",           350,       10.2886,       25.8171,            0.,NA,NA,"",       1.05201,      -1.05200,  -4.42707E-03,   60.3332E-09
C:/temp/dataset/4/17_05.odb,Step-1,Increment      1: Step Time =    1.000,"PART-1-1",           351,       12.5134,       28.7000,            0.,NA,NA,"",       1.12021,      -1.11925,   46.2431E-03,   42.5109E-09
C:/temp/dataset/4/17_05.odb,Step-1,Increment      1: Step Time =    1.000,"PART-1-1",           352,       13.7634,       27.4500,            0.,NA,NA,"",       1.09329,      -1.09068,   75.4798E-03,   42.4991E-09
C:/temp/dataset/4/17_05.odb,Step-1,Increment      1: Step Time =    1.000,"PART-1-1",           353,           15.,         28.75,            0.,NA,NA,"",       1.12586,      -1.12107,   103.725E-03,   23.5037E-09
C:/temp/dataset/4/17_05.odb,Step-1,Increment      1: Step Time =    1.000,"PART-1-1",           354,         13.75,           30.,            0.,NA,NA,"",       1.15205,      -1.14964,   74.4882E-03,   22.0025E-09
C:/temp/dataset/4/17_05.odb,Step-1,Increment      1: Step Time =    1.000,"PART-1-1",           355,      -3.83569,      -2.96698,            0.,NA,NA,"",   504.936E-03,  -373.032E-03,  -340.304E-03,   566.242E-06
C:/temp/dataset/4/17_05.odb,Step-1,Increment      1: Step Time =    1.000,"PART-1-1",           356,      -2.47303,      -2.56070,            0.,NA,NA,"",   490.526E-03,  -384.857E-03,  -304.141E-03,   486.585E-06
C:/temp/dataset/4/17_05.odb,Step-1,Increment      1: Step Time =    1.000,"PART-1-1",           357,      -2.95938,      -1.35275,            0.,NA,NA,"",   523.303E-03,  -416.232E-03,  -317.170E-03,   273.971E-06
C:/temp/dataset/4/17_05.odb,Step-1,Increment      1: Step Time =    1.000,"PART-1-1",           358,      -4.32205,      -1.75903,            0.,NA,NA,"",   537.377E-03,  -404.724E-03,  -353.515E-03,   373.597E-06
C:/temp/dataset/4/17_05.odb,Step-1,Increment      1: Step Time =    1.000,"PART-1-1",           359,       8.60967,      -7.25473,            0.,NA,NA,"",   284.310E-03,  -282.740E-03,  -29.8458E-03,   969.417E-06
C:/temp/dataset/4/17_05.odb,Step-1,Increment      1: Step Time =    1.000,"PART-1-1",           360,       7.51358,      -6.44375,            0.,NA,NA,"",   304.854E-03,  -300.177E-03,  -53.1975E-03,   1.25193E-03
C:/temp/dataset/4/17_05.odb,Step-1,Increment      1: Step Time =    1.000,"PART-1-1",           361,       6.75300,      -7.77251,            0.,NA,NA,"",   280.359E-03,  -272.289E-03,  -66.7814E-03,   1.93968E-03
C:/temp/dataset/4/17_05.odb,Step-1,Increment      1: Step Time =    1.000,"PART-1-1",           362,       7.84909,      -8.58350,            0.,NA,NA,"",   258.771E-03,  -255.079E-03,  -43.5535E-03,   1.44327E-03
C:/temp/dataset/4/17_05.odb,Step-1,Increment      1: Step Time =    1.000,"PART-1-1",           363,       7.07130,      -14.2100,            0.,NA,NA,"",   157.221E-03,  -150.027E-03,  -47.0132E-03,   2.51956E-03
C:/temp/dataset/4/17_05.odb,Step-1,Increment      1: Step Time =    1.000,"PART-1-1",           364,       6.02882,      -13.2279,            0.,NA,NA,"",   180.881E-03,  -168.054E-03,  -66.9026E-03,   3.19685E-03
C:/temp/dataset/4/17_05.odb,Step-1,Increment      1: Step Time =    1.000,"PART-1-1",           365,            5.,       -14.375,            0.,NA,NA,"",   170.218E-03,  -150.107E-03,  -80.2610E-03,   4.21821E-03
C:/temp/dataset/4/17_05.odb,Step-1,Increment      1: Step Time =    1.000,"PART-1-1",           366,       6.04247,      -15.3570,            0.,NA,NA,"",   145.467E-03,  -132.515E-03,  -60.0031E-03,   3.50309E-03
C:/temp/dataset/4/17_05.odb,Step-1,Increment      1: Step Time =    1.000,"PART-1-1",           367,       7.02995,      -12.0379,            0.,NA,NA,"",   195.535E-03,  -188.316E-03,  -52.6408E-03,   2.31498E-03
C:/temp/dataset/4/17_05.odb,Step-1,Increment      1: Step Time =    1.000,"PART-1-1",           368,       6.00113,      -11.1016,            0.,NA,NA,"",   219.472E-03,  -206.782E-03,  -73.5482E-03,   2.89962E-03
C:/temp/dataset/4/17_05.odb,Step-1,Increment      1: Step Time =    1.000,"PART-1-1",           369,            5.,      -12.2917,            0.,NA,NA,"",   205.940E-03,  -186.145E-03,  -88.0979E-03,   3.82130E-03
C:/temp/dataset/4/17_05.odb,Step-1,Increment      1: Step Time =    1.000,"PART-1-1",           370,            5.,      -22.7083,            0.,NA,NA,"",   59.3625E-03,  -41.9084E-03,  -42.0427E-03,   5.78788E-03
C:/temp/dataset/4/17_05.odb,Step-1,Increment      1: Step Time =    1.000,"PART-1-1",           371,       6.05922,      -23.7899,            0.,NA,NA,"",   41.2236E-03,  -30.2080E-03,  -28.0510E-03,   4.73238E-03
C:/temp/dataset/4/17_05.odb,Step-1,Increment      1: Step Time =    1.000,"PART-1-1",           372,       7.11013,      -22.7834,            0.,NA,NA,"",   43.7367E-03,  -36.9647E-03,  -23.3776E-03,   3.40169E-03
C:/temp/dataset/4/17_05.odb,Step-1,Increment      1: Step Time =    1.000,"PART-1-1",           373,       6.05091,      -21.7018,            0.,NA,NA,"",   61.4401E-03,  -49.2112E-03,  -36.7851E-03,   4.43001E-03
C:/temp/dataset/4/17_05.odb,Step-1,Increment      1: Step Time =    1.000,"PART-1-1",           374,          8.75,          -30.,            0.,NA,NA,"",            0.,   633.989E-42,  -2.63011E-39,   1.37414E-03
C:/temp/dataset/4/17_05.odb,Step-1,Increment      1: Step Time =    1.000,"PART-1-1",           375,       9.84988,      -28.9274,            0.,NA,NA,"",   131.864E-06,  -60.5653E-06,  -117.132E-06,   192.984E-06
C:/temp/dataset/4/17_05.odb,Step-1,Increment      1: Step Time =    1.000,"PART-1-1",           376,       8.52411,      -27.9095,            0.,NA,NA,"",   4.20378E-03,  -2.83864E-03,  -3.10064E-03,   2.13749E-03
C:/temp/dataset/4/17_05.odb,Step-1,Increment      1: Step Time =    1.000,"PART-1-1",           377,       7.42422,      -28.9821,            0.,NA,NA,"",   2.63416E-03,  -753.257E-06,  -2.52416E-03,   3.04214E-03
C:/temp/dataset/4/17_05.odb,Step-1,Increment      1: Step Time =    1.000,"PART-1-1",           378,       10.1104,      -23.9794,            0.,NA,NA,"",   24.6079E-03,  -24.5969E-03,   735.842E-06,   837.158E-06
C:/temp/dataset/4/17_05.odb,Step-1,Increment      1: Step Time =    1.000,"PART-1-1",           379,       11.1261,      -23.0268,            0.,NA,NA,"",   34.1688E-03,  -33.0577E-03,   8.64263E-03,   1.56643E-03
C:/temp/dataset/4/17_05.odb,Step-1,Increment      1: Step Time =    1.000,"PART-1-1",           380,       10.1523,      -21.9025,            0.,NA,NA,"",   43.4517E-03,  -43.4328E-03,   1.28092E-03,   829.295E-06
C:/temp/dataset/4/17_05.odb,Step-1,Increment      1: Step Time =    1.000,"PART-1-1",           381,       9.13660,      -22.8552,            0.,NA,NA,"",   35.0591E-03,  -34.3862E-03,  -6.83609E-03,   1.30656E-03
C:/temp/dataset/4/17_05.odb,Step-1,Increment      1: Step Time =    1.000,"PART-1-1",           382,       7.09296,      -18.5383,            0.,NA,NA,"",   91.9350E-03,  -84.6904E-03,  -35.7713E-03,   2.96280E-03
C:/temp/dataset/4/17_05.odb,Step-1,Increment      1: Step Time =    1.000,"PART-1-1",           383,       6.04465,      -17.4814,            0.,NA,NA,"",   113.641E-03,  -100.645E-03,  -52.7710E-03,   3.81545E-03
C:/temp/dataset/4/17_05.odb,Step-1,Increment      1: Step Time =    1.000,"PART-1-1",           384,            5.,      -18.5417,            0.,NA,NA,"",   108.109E-03,  -88.2021E-03,  -62.5130E-03,   5.01034E-03
C:/temp/dataset/4/17_05.odb,Step-1,Increment      1: Step Time =    1.000,"PART-1-1",           385,       6.04831,      -19.5985,            0.,NA,NA,"",   85.5568E-03,  -72.7604E-03,  -45.0101E-03,   4.12488E-03
C:/temp/dataset/4/17_05.odb,Step-1,Increment      1: Step Time =    1.000,"PART-1-1",           386,       8.88188,       22.9635,            0.,NA,NA,"",   986.303E-03,  -985.638E-03,  -36.1912E-03,   69.7991E-09
C:/temp/dataset/4/17_05.odb,Step-1,Increment      1: Step Time =    1.000,"PART-1-1",           387,       9.93448,       22.0483,            0.,NA,NA,"",   964.830E-03,  -964.760E-03,  -11.6081E-03,   122.503E-09
C:/temp/dataset/4/17_05.odb,Step-1,Increment      1: Step Time =    1.000,"PART-1-1",           388,       10.8087,       23.3359,            0.,NA,NA,"",   994.800E-03,  -994.766E-03,   8.26040E-03,   61.1037E-09
C:/temp/dataset/4/17_05.odb,Step-1,Increment      1: Step Time =    1.000,"PART-1-1",           389,       9.75606,       24.2511,            0.,NA,NA,"",       1.01578,      -1.01564,  -16.3227E-03,   71.2808E-09
C:/temp/dataset/4/17_05.odb,Step-1,Increment      1: Step Time =    1.000,"PART-1-1",           390,       10.0218,       17.5512,            0.,NA,NA,"",   860.841E-03,  -860.800E-03,  -8.39029E-03,   2.93759E-06
C:/temp/dataset/4/17_05.odb,Step-1,Increment      1: Step Time =    1.000,"PART-1-1",           391,       9.00837,       16.4411,            0.,NA,NA,"",   835.452E-03,  -834.857E-03,  -31.5283E-03,   6.09306E-06
C:/temp/dataset/4/17_05.odb,Step-1,Increment      1: Step Time =    1.000,"PART-1-1",           392,       10.0249,       15.2736,            0.,NA,NA,"",   808.177E-03,  -808.140E-03,  -7.72032E-03,   8.43992E-06
C:/temp/dataset/4/17_05.odb,Step-1,Increment      1: Step Time =    1.000,"PART-1-1",           393,       11.0383,       16.3837,            0.,NA,NA,"",   834.226E-03,  -834.083E-03,   15.4225E-03,   6.15349E-06
C:/temp/dataset/4/17_05.odb,Step-1,Increment      1: Step Time =    1.000,"PART-1-1",           394,      -14.0638,       5.89996,            0.,NA,NA,"",   878.212E-03,  -613.452E-03,  -628.436E-03,   316.628E-06
C:/temp/dataset/4/17_05.odb,Step-1,Increment      1: Step Time =    1.000,"PART-1-1",           395,      -13.1194,       6.91794,            0.,NA,NA,"",   880.868E-03,  -642.641E-03,  -602.447E-03,   267.756E-06
C:/temp/dataset/4/17_05.odb,Step-1,Increment      1: Step Time =    1.000,"PART-1-1",           396,      -14.0556,       8.04923,            0.,NA,NA,"",   922.666E-03,  -674.554E-03,  -629.514E-03,   195.147E-06
C:/temp/dataset/4/17_05.odb,Step-1,Increment      1: Step Time =    1.000,"PART-1-1",           397,          -15.,       7.03125,            0.,NA,NA,"",   919.971E-03,  -645.308E-03,  -655.686E-03,   280.972E-06
C:/temp/dataset/4/17_05.odb,Step-1,Increment      1: Step Time =    1.000,"PART-1-1",           398,      -14.0181,       12.3521,            0.,NA,NA,"",       1.01622,  -797.026E-03,  -630.445E-03,   25.0185E-06
C:/temp/dataset/4/17_05.odb,Step-1,Increment      1: Step Time =    1.000,"PART-1-1",           399,      -13.0189,       13.2775,            0.,NA,NA,"",       1.02053,  -823.700E-03,  -602.499E-03,   27.6068E-06
C:/temp/dataset/4/17_05.odb,Step-1,Increment      1: Step Time =    1.000,"PART-1-1",           400,      -14.0008,       14.5192,            0.,NA,NA,"",       1.06534,  -858.500E-03,  -630.814E-03,   14.2966E-06
C:/temp/dataset/4/17_05.odb,Step-1,Increment      1: Step Time =    1.000,"PART-1-1",           401,          -15.,       13.5938,            0.,NA,NA,"",       1.06112,  -831.857E-03,  -658.779E-03,   21.3867E-06
C:/temp/dataset/4/17_05.odb,Step-1,Increment      1: Step Time =    1.000,"PART-1-1",           402,      -10.1942,       21.9572,            0.,NA,NA,"",       1.19281,      -1.07056,  -526.021E-03,   2.95343E-06
C:/temp/dataset/4/17_05.odb,Step-1,Increment      1: Step Time =    1.000,"PART-1-1",           403,      -9.14995,       21.4132,            0.,NA,NA,"",       1.16641,      -1.05558,  -496.252E-03,   3.37252E-06
C:/temp/dataset/4/17_05.odb,Step-1,Increment      1: Step Time =    1.000,"PART-1-1",           404,      -8.60578,       22.3365,            0.,NA,NA,"",       1.18412,      -1.08192,  -481.225E-03,   2.47949E-06
C:/temp/dataset/4/17_05.odb,Step-1,Increment      1: Step Time =    1.000,"PART-1-1",           405,      -9.65000,       22.8805,            0.,NA,NA,"",       1.21008,      -1.09690,  -510.993E-03,   1.79198E-06
C:/temp/dataset/4/17_05.odb,Step-1,Increment      1: Step Time =    1.000,"PART-1-1",           406,      -14.0213,       25.7108,            0.,NA,NA,"",       1.33622,      -1.17525,  -635.833E-03,   127.832E-09
C:/temp/dataset/4/17_05.odb,Step-1,Increment      1: Step Time =    1.000,"PART-1-1",           407,      -12.8802,       26.8172,            0.,NA,NA,"",       1.34970,      -1.20701,  -603.985E-03,   157.992E-09
C:/temp/dataset/4/17_05.odb,Step-1,Increment      1: Step Time =    1.000,"PART-1-1",           408,      -13.8589,       27.8252,            0.,NA,NA,"",       1.38749,      -1.23515,  -632.085E-03,   52.4362E-09
C:/temp/dataset/4/17_05.odb,Step-1,Increment      1: Step Time =    1.000,"PART-1-1",           409,          -15.,       26.7188,            0.,NA,NA,"",       1.37438,      -1.20338,  -663.933E-03,   23.0071E-09
C:/temp/dataset/4/17_05.odb,Step-1,Increment      1: Step Time =    1.000,"PART-1-1",           410,        -13.75,           30.,            0.,NA,NA,"",       1.44162,      -1.29674,  -629.874E-03,   38.3171E-09
C:/temp/dataset/4/17_05.odb,Step-1,Increment      1: Step Time =    1.000,"PART-1-1",           411,          -15.,       28.9063,            0.,NA,NA,"",       1.42930,      -1.26528,  -664.809E-03,   40.0162E-09
C:/temp/dataset/4/17_05.odb,Step-1,Increment      1: Step Time =    1.000,"PART-1-1",           412,      -12.6089,       28.9190,            0.,NA,NA,"",       1.40031,      -1.26660,  -597.149E-03,   46.7263E-09
C:/temp/dataset/4/17_05.odb,Step-1,Increment      1: Step Time =    1.000,"PART-1-1",           413,      -11.4362,       27.6040,            0.,NA,NA,"",       1.35278,      -1.22986,  -563.435E-03,   115.667E-09
C:/temp/dataset/4/17_05.odb,Step-1,Increment      1: Step Time =    1.000,"PART-1-1",           414,      -10.0773,       28.6850,            0.,NA,NA,"",       1.36608,      -1.26099,  -525.411E-03,   64.7392E-09
C:/temp/dataset/4/17_05.odb,Step-1,Increment      1: Step Time =    1.000,"PART-1-1",           415,        -11.25,           30.,            0.,NA,NA,"",       1.41306,      -1.29774,  -559.126E-03,   55.9444E-09
C:/temp/dataset/4/17_05.odb,Step-1,Increment      1: Step Time =    1.000,"PART-1-1",           416,      -13.7240,       21.2404,            0.,NA,NA,"",       1.22128,      -1.04886,  -625.632E-03,   2.24010E-06
C:/temp/dataset/4/17_05.odb,Step-1,Increment      1: Step Time =    1.000,"PART-1-1",           417,      -12.6979,       22.4429,            0.,NA,NA,"",       1.23695,      -1.08330,  -597.073E-03,   2.16273E-06
C:/temp/dataset/4/17_05.odb,Step-1,Increment      1: Step Time =    1.000,"PART-1-1",           418,      -13.9739,       23.5463,            0.,NA,NA,"",       1.28160,      -1.11401,  -633.625E-03,   623.318E-09
C:/temp/dataset/4/17_05.odb,Step-1,Increment      1: Step Time =    1.000,"PART-1-1",           419,          -15.,       22.3438,            0.,NA,NA,"",       1.26648,      -1.07957,  -662.182E-03,   1.47182E-06
C:/temp/dataset/4/17_05.odb,Step-1,Increment      1: Step Time =    1.000,"PART-1-1",           420,      -11.9375,       16.3352,            0.,NA,NA,"",       1.07607,  -910.765E-03,  -573.092E-03,   8.42076E-06
C:/temp/dataset/4/17_05.odb,Step-1,Increment      1: Step Time =    1.000,"PART-1-1",           421,      -10.8584,       17.1847,            0.,NA,NA,"",       1.08138,  -935.236E-03,  -542.886E-03,   9.18258E-06
C:/temp/dataset/4/17_05.odb,Step-1,Increment      1: Step Time =    1.000,"PART-1-1",           422,      -11.8099,       18.4796,            0.,NA,NA,"",       1.12655,  -971.503E-03,  -570.346E-03,   7.40523E-06
C:/temp/dataset/4/17_05.odb,Step-1,Increment      1: Step Time =    1.000,"PART-1-1",           423,      -12.8889,       17.6301,            0.,NA,NA,"",       1.12140,  -947.033E-03,  -600.553E-03,   8.29376E-06
C:/temp/dataset/4/17_05.odb,Step-1,Increment      1: Step Time =    1.000,"PART-1-1",           424,      -9.98079,       13.8692,            0.,NA,NA,"",   987.697E-03,  -841.760E-03,  -516.707E-03,   31.2050E-06
C:/temp/dataset/4/17_05.odb,Step-1,Increment      1: Step Time =    1.000,"PART-1-1",           425,      -11.0142,       12.9724,            0.,NA,NA,"",   981.523E-03,  -815.899E-03,  -545.615E-03,   60.5682E-06
C:/temp/dataset/4/17_05.odb,Step-1,Increment      1: Step Time =    1.000,"PART-1-1",           426,      -10.0204,       11.7735,            0.,NA,NA,"",   937.790E-03,  -782.364E-03,  -517.066E-03,   128.819E-06
C:/temp/dataset/4/17_05.odb,Step-1,Increment      1: Step Time =    1.000,"PART-1-1",           427,      -6.95613,       14.5250,            0.,NA,NA,"",   963.535E-03,  -861.559E-03,  -431.410E-03,   13.1538E-06
C:/temp/dataset/4/17_05.odb,Step-1,Increment      1: Step Time =    1.000,"PART-1-1",           428,      -5.98929,       13.4097,            0.,NA,NA,"",   923.383E-03,  -830.468E-03,  -403.680E-03,   40.6822E-06
C:/temp/dataset/4/17_05.odb,Step-1,Increment      1: Step Time =    1.000,"PART-1-1",           429,           -5.,        14.375,            0.,NA,NA,"",   936.929E-03,  -858.124E-03,  -376.110E-03,   41.8516E-06
C:/temp/dataset/4/17_05.odb,Step-1,Increment      1: Step Time =    1.000,"PART-1-1",           430,      -5.96684,       15.4903,            0.,NA,NA,"",   976.651E-03,  -889.247E-03,  -403.841E-03,   19.0459E-06
C:/temp/dataset/4/17_05.odb,Step-1,Increment      1: Step Time =    1.000,"PART-1-1",           431,      -11.0581,       10.8707,            0.,NA,NA,"",   932.757E-03,  -756.192E-03,  -546.086E-03,   163.649E-06
C:/temp/dataset/4/17_05.odb,Step-1,Increment      1: Step Time =    1.000,"PART-1-1",           432,      -10.0579,       9.67932,            0.,NA,NA,"",   888.906E-03,  -722.754E-03,  -517.476E-03,   285.600E-06
C:/temp/dataset/4/17_05.odb,Step-1,Increment      1: Step Time =    1.000,"PART-1-1",           433,      -9.02030,       10.5821,            0.,NA,NA,"",   894.254E-03,  -749.080E-03,  -488.434E-03,   254.446E-06
C:/temp/dataset/4/17_05.odb,Step-1,Increment      1: Step Time =    1.000,"PART-1-1",           434,      -7.04064,       8.20966,            0.,NA,NA,"",   807.871E-03,  -682.624E-03,  -432.064E-03,   586.691E-06
C:/temp/dataset/4/17_05.odb,Step-1,Increment      1: Step Time =    1.000,"PART-1-1",           435,      -6.03068,       7.10065,            0.,NA,NA,"",   765.880E-03,  -651.115E-03,  -403.265E-03,   724.785E-06
C:/temp/dataset/4/17_05.odb,Step-1,Increment      1: Step Time =    1.000,"PART-1-1",           436,           -5.,         8.125,            0.,NA,NA,"",   777.582E-03,  -681.925E-03,  -373.647E-03,   535.404E-06
C:/temp/dataset/4/17_05.odb,Step-1,Increment      1: Step Time =    1.000,"PART-1-1",           437,      -6.00996,       9.23401,            0.,NA,NA,"",   818.928E-03,  -712.943E-03,  -402.933E-03,   507.491E-06
C:/temp/dataset/4/17_05.odb,Step-1,Increment      1: Step Time =    1.000,"PART-1-1",           438,      -13.0926,       9.02789,            0.,NA,NA,"",   925.885E-03,  -702.789E-03,  -602.785E-03,   193.560E-06
C:/temp/dataset/4/17_05.odb,Step-1,Increment      1: Step Time =    1.000,"PART-1-1",           439,      -14.0370,       10.1974,            0.,NA,NA,"",   968.666E-03,  -735.753E-03,  -630.064E-03,   85.1458E-06
C:/temp/dataset/4/17_05.odb,Step-1,Increment      1: Step Time =    1.000,"PART-1-1",           440,          -15.,       9.21875,            0.,NA,NA,"",   965.500E-03,  -707.535E-03,  -656.951E-03,   119.071E-06
C:/temp/dataset/4/17_05.odb,Step-1,Increment      1: Step Time =    1.000,"PART-1-1",           441,      -13.9055,       1.56280,            0.,NA,NA,"",   792.159E-03,  -491.840E-03,  -620.974E-03,   341.368E-06
C:/temp/dataset/4/17_05.odb,Step-1,Increment      1: Step Time =    1.000,"PART-1-1",           442,      -12.9296,       2.64306,            0.,NA,NA,"",   791.148E-03,  -522.102E-03,  -594.411E-03,   286.046E-06
C:/temp/dataset/4/17_05.odb,Step-1,Increment      1: Step Time =    1.000,"PART-1-1",           443,      -14.0241,       3.73651,            0.,NA,NA,"",   834.760E-03,  -552.435E-03,  -625.811E-03,   379.555E-06
C:/temp/dataset/4/17_05.odb,Step-1,Increment      1: Step Time =    1.000,"PART-1-1",           444,          -15.,       2.65625,            0.,NA,NA,"",   835.467E-03,  -522.022E-03,  -652.303E-03,   441.358E-06
C:/temp/dataset/4/17_05.odb,Step-1,Increment      1: Step Time =    1.000,"PART-1-1",           445,      -13.7570,      -2.81804,            0.,NA,NA,"",   717.780E-03,  -371.033E-03,  -614.445E-03,   124.443E-06
C:/temp/dataset/4/17_05.odb,Step-1,Increment      1: Step Time =    1.000,"PART-1-1",           446,      -13.7756,  -623.683E-03,            0.,NA,NA,"",   752.108E-03,  -431.478E-03,  -616.030E-03,   245.763E-06
C:/temp/dataset/4/17_05.odb,Step-1,Increment      1: Step Time =    1.000,"PART-1-1",           447,          -15.,      -1.71875,            0.,NA,NA,"",   763.164E-03,  -400.917E-03,  -649.373E-03,   137.533E-06
C:/temp/dataset/4/17_05.odb,Step-1,Increment      1: Step Time =    1.000,"PART-1-1",           448,        -13.75,           -5.,            0.,NA,NA,"",   687.577E-03,  -310.675E-03,  -613.386E-03,   22.7533E-06
C:/temp/dataset/4/17_05.odb,Step-1,Increment      1: Step Time =    1.000,"PART-1-1",           449,      -12.5070,      -3.91179,            0.,NA,NA,"",   672.355E-03,  -341.347E-03,  -579.262E-03,   129.060E-06
C:/temp/dataset/4/17_05.odb,Step-1,Increment      1: Step Time =    1.000,"PART-1-1",           450,          -15.,      -3.90625,            0.,NA,NA,"",   732.401E-03,  -340.489E-03,  -648.443E-03,   20.0702E-06
C:/temp/dataset/4/17_05.odb,Step-1,Increment      1: Step Time =    1.000,"PART-1-1",           451,          -15.,    468.75E-03,            0.,NA,NA,"",   797.584E-03,  -461.292E-03,  -650.653E-03,   319.382E-06
C:/temp/dataset/4/17_05.odb,Step-1,Increment      1: Step Time =    1.000,"PART-1-1",           452,      -5.10506,       2.56414,            0.,NA,NA,"",   641.678E-03,  -520.074E-03,  -375.863E-03,   722.544E-06
C:/temp/dataset/4/17_05.odb,Step-1,Increment      1: Step Time =    1.000,"PART-1-1",           453,      -4.59209,       3.94539,            0.,NA,NA,"",   665.005E-03,  -557.631E-03,  -362.325E-03,   1.55503E-03
C:/temp/dataset/4/17_05.odb,Step-1,Increment      1: Step Time =    1.000,"PART-1-1",           454,      -6.09775,       4.77703,            0.,NA,NA,"",   708.828E-03,  -581.951E-03,  -404.685E-03,   1.44675E-03
C:/temp/dataset/4/17_05.odb,Step-1,Increment      1: Step Time =    1.000,"PART-1-1",           455,      -6.61072,       3.39578,            0.,NA,NA,"",   685.436E-03,  -543.230E-03,  -418.000E-03,   780.317E-06
C:/temp/dataset/4/17_05.odb,Step-1,Increment      1: Step Time =    1.000,"PART-1-1",           456,       9.44090,      -5.60228,            0.,NA,NA,"",   319.347E-03,  -319.057E-03,  -13.6067E-03,   1.01155E-03
C:/temp/dataset/4/17_05.odb,Step-1,Increment      1: Step Time =    1.000,"PART-1-1",           457,       9.79564,      -4.46986,            0.,NA,NA,"",   345.004E-03,  -344.944E-03,  -6.39290E-03,   1.23573E-03
C:/temp/dataset/4/17_05.odb,Step-1,Increment      1: Step Time =    1.000,"PART-1-1",           458,       8.43936,      -4.09444,            0.,NA,NA,"",   354.987E-03,  -353.215E-03,  -35.4225E-03,   1.22221E-03
C:/temp/dataset/4/17_05.odb,Step-1,Increment      1: Step Time =    1.000,"PART-1-1",           459,       8.08462,      -5.22686,            0.,NA,NA,"",   329.856E-03,  -327.139E-03,  -42.2512E-03,   1.09777E-03
C:/temp/dataset/4/17_05.odb,Step-1,Increment      1: Step Time =    1.000,"PART-1-1",           460,       6.93926,      -9.88629,            0.,NA,NA,"",   236.816E-03,  -229.379E-03,  -58.8841E-03,   2.14100E-03
C:/temp/dataset/4/17_05.odb,Step-1,Increment      1: Step Time =    1.000,"PART-1-1",           461,       5.93813,      -8.99303,            0.,NA,NA,"",   260.738E-03,  -248.050E-03,  -80.3484E-03,   2.64602E-03
C:/temp/dataset/4/17_05.odb,Step-1,Increment      1: Step Time =    1.000,"PART-1-1",           462,            5.,      -10.2083,            0.,NA,NA,"",   244.435E-03,  -225.110E-03,  -95.2562E-03,   3.41192E-03
C:/temp/dataset/4/17_05.odb,Step-1,Increment      1: Step Time =    1.000,"PART-1-1",           463,       12.9852,      -11.3613,            0.,NA,NA,"",   208.505E-03,  -201.932E-03,   51.9406E-03,   2.26188E-03
C:/temp/dataset/4/17_05.odb,Step-1,Increment      1: Step Time =    1.000,"PART-1-1",           464,       14.0059,      -12.5461,            0.,NA,NA,"",   193.538E-03,  -181.390E-03,   67.4875E-03,   3.13796E-03
C:/temp/dataset/4/17_05.odb,Step-1,Increment      1: Step Time =    1.000,"PART-1-1",           465,           15.,        -11.25,            0.,NA,NA,"",   225.465E-03,  -207.030E-03,   89.2927E-03,   3.66574E-03
C:/temp/dataset/4/17_05.odb,Step-1,Increment      1: Step Time =    1.000,"PART-1-1",           466,       13.9793,      -10.0652,            0.,NA,NA,"",   239.686E-03,  -228.272E-03,   73.0836E-03,   2.74961E-03
C:/temp/dataset/4/17_05.odb,Step-1,Increment      1: Step Time =    1.000,"PART-1-1",           467,       7.08713,      -16.3801,            0.,NA,NA,"",   122.563E-03,  -115.328E-03,  -41.4855E-03,   2.73777E-03
C:/temp/dataset/4/17_05.odb,Step-1,Increment      1: Step Time =    1.000,"PART-1-1",           468,            5.,      -16.4583,            0.,NA,NA,"",   137.541E-03,  -117.356E-03,  -71.7288E-03,   4.61621E-03
C:/temp/dataset/4/17_05.odb,Step-1,Increment      1: Step Time =    1.000,"PART-1-1",           469,       13.0372,      -13.8111,            0.,NA,NA,"",   164.873E-03,  -157.713E-03,   48.0581E-03,   2.56745E-03
C:/temp/dataset/4/17_05.odb,Step-1,Increment      1: Step Time =    1.000,"PART-1-1",           470,       14.0313,      -15.0151,            0.,NA,NA,"",   151.816E-03,  -139.064E-03,   60.9043E-03,   3.52623E-03
C:/temp/dataset/4/17_05.odb,Step-1,Increment      1: Step Time =    1.000,"PART-1-1",           471,           15.,        -13.75,            0.,NA,NA,"",   181.061E-03,  -161.961E-03,   80.9419E-03,   4.12892E-03
C:/temp/dataset/4/17_05.odb,Step-1,Increment      1: Step Time =    1.000,"PART-1-1",           472,       13.0981,      -18.6529,            0.,NA,NA,"",   91.8189E-03,  -83.9248E-03,   37.2470E-03,   3.16899E-03
C:/temp/dataset/4/17_05.odb,Step-1,Increment      1: Step Time =    1.000,"PART-1-1",           473,       14.0553,      -19.9280,            0.,NA,NA,"",   82.5680E-03,  -69.5383E-03,   44.5185E-03,   4.29007E-03
C:/temp/dataset/4/17_05.odb,Step-1,Increment      1: Step Time =    1.000,"PART-1-1",           474,           15.,        -18.75,            0.,NA,NA,"",   105.614E-03,  -86.2952E-03,   60.8888E-03,   5.05383E-03
C:/temp/dataset/4/17_05.odb,Step-1,Increment      1: Step Time =    1.000,"PART-1-1",           475,       14.0427,      -17.4749,            0.,NA,NA,"",   114.700E-03,  -101.635E-03,   53.1651E-03,   3.90768E-03
C:/temp/dataset/4/17_05.odb,Step-1,Increment      1: Step Time =    1.000,"PART-1-1",           476,       6.17422,      -27.9405,            0.,NA,NA,"",   10.5633E-03,  -5.81831E-03,  -8.81653E-03,   5.24402E-03
C:/temp/dataset/4/17_05.odb,Step-1,Increment      1: Step Time =    1.000,"PART-1-1",           477,            5.,      -28.9583,            0.,NA,NA,"",   8.35478E-03,  -5.34047E-03,  -6.42509E-03,   6.97238E-03
C:/temp/dataset/4/17_05.odb,Step-1,Increment      1: Step Time =    1.000,"PART-1-1",           478,          6.25,          -30.,            0.,NA,NA,"",            0.,   272.142E-42,  -7.83407E-39,   4.93273E-03
C:/temp/dataset/4/17_05.odb,Step-1,Increment      1: Step Time =    1.000,"PART-1-1",           479,       9.46325,      -26.8820,            0.,NA,NA,"",   6.58174E-03,  -6.34218E-03,  -1.75956E-03,   1.12464E-03
C:/temp/dataset/4/17_05.odb,Step-1,Increment      1: Step Time =    1.000,"PART-1-1",           480,       8.20536,      -25.9154,            0.,NA,NA,"",   14.5888E-03,  -12.1408E-03,  -8.08915E-03,   2.47389E-03
C:/temp/dataset/4/17_05.odb,Step-1,Increment      1: Step Time =    1.000,"PART-1-1",           481,       7.26622,      -26.9429,            0.,NA,NA,"",   12.2360E-03,  -8.04169E-03,  -9.22235E-03,   3.64864E-03
C:/temp/dataset/4/17_05.odb,Step-1,Increment      1: Step Time =    1.000,"PART-1-1",           482,       13.6319,      -27.3465,            0.,NA,NA,"",   13.4473E-03,  -7.83566E-03,   10.9285E-03,   4.95133E-03
C:/temp/dataset/4/17_05.odb,Step-1,Increment      1: Step Time =    1.000,"PART-1-1",           483,       12.3819,      -28.5965,            0.,NA,NA,"",   3.60461E-03,  -1.48767E-03,   3.28330E-03,   2.90768E-03
C:/temp/dataset/4/17_05.odb,Step-1,Increment      1: Step Time =    1.000,"PART-1-1",           484,         13.75,          -30.,            0.,NA,NA,"",            0.,   384.448E-42,   7.77968E-39,   5.00408E-03
C:/temp/dataset/4/17_05.odb,Step-1,Increment      1: Step Time =    1.000,"PART-1-1",           485,           15.,        -28.75,            0.,NA,NA,"",   9.95590E-03,  -6.31673E-03,   7.69538E-03,   6.88970E-03
C:/temp/dataset/4/17_05.odb,Step-1,Increment      1: Step Time =    1.000,"PART-1-1",           486,         11.25,          -30.,            0.,NA,NA,"",            0.,   639.191E-42,   2.64934E-39,   1.36806E-03
C:/temp/dataset/4/17_05.odb,Step-1,Increment      1: Step Time =    1.000,"PART-1-1",           487,       10.9817,      -27.5238,            0.,NA,NA,"",   4.58835E-03,  -3.84363E-03,   2.50589E-03,   1.64420E-03
C:/temp/dataset/4/17_05.odb,Step-1,Increment      1: Step Time =    1.000,"PART-1-1",           488,       10.1507,      -19.6985,            0.,NA,NA,"",   68.1847E-03,  -68.1687E-03,   1.47577E-03,   817.949E-06
C:/temp/dataset/4/17_05.odb,Step-1,Increment      1: Step Time =    1.000,"PART-1-1",           489,       9.14094,      -20.7396,            0.,NA,NA,"",   56.6838E-03,  -56.0064E-03,  -8.73686E-03,   1.23473E-03
C:/temp/dataset/4/17_05.odb,Step-1,Increment      1: Step Time =    1.000,"PART-1-1",           490,       11.1621,      -20.8614,            0.,NA,NA,"",   56.0895E-03,  -54.9168E-03,   11.4095E-03,   1.50457E-03
C:/temp/dataset/4/17_05.odb,Step-1,Increment      1: Step Time =    1.000,"PART-1-1",           491,       7.09922,      -20.6753,            0.,NA,NA,"",   65.6044E-03,  -58.4785E-03,  -29.7355E-03,   3.18681E-03
C:/temp/dataset/4/17_05.odb,Step-1,Increment      1: Step Time =    1.000,"PART-1-1",           492,            5.,       -20.625,            0.,NA,NA,"",   82.0431E-03,  -62.9505E-03,  -52.6147E-03,   5.39882E-03
C:/temp/dataset/4/17_05.odb,Step-1,Increment      1: Step Time =    1.000,"PART-1-1",           493,       9.08758,      -14.0519,            0.,NA,NA,"",   152.269E-03,  -151.508E-03,  -15.2010E-03,   1.10958E-03
C:/temp/dataset/4/17_05.odb,Step-1,Increment      1: Step Time =    1.000,"PART-1-1",           494,       10.1099,      -15.1447,            0.,NA,NA,"",   133.312E-03,  -133.308E-03,   1.00920E-03,   806.048E-06
C:/temp/dataset/4/17_05.odb,Step-1,Increment      1: Step Time =    1.000,"PART-1-1",           495,       11.0794,      -13.9187,            0.,NA,NA,"",   154.972E-03,  -154.106E-03,   16.3615E-03,   1.19703E-03
C:/temp/dataset/4/17_05.odb,Step-1,Increment      1: Step Time =    1.000,"PART-1-1",           496,       10.0571,      -12.8260,            0.,NA,NA,"",   172.934E-03,  -172.934E-03,  -20.2555E-06,   800.966E-06
C:/temp/dataset/4/17_05.odb,Step-1,Increment      1: Step Time =    1.000,"PART-1-1",           497,       9.02765,      -11.7712,            0.,NA,NA,"",   193.089E-03,  -192.240E-03,  -18.0890E-03,   1.07531E-03
C:/temp/dataset/4/17_05.odb,Step-1,Increment      1: Step Time =    1.000,"PART-1-1",           498,       11.0123,      -11.5393,            0.,NA,NA,"",   197.628E-03,  -196.929E-03,   16.6078E-03,   1.10435E-03
C:/temp/dataset/4/17_05.odb,Step-1,Increment      1: Step Time =    1.000,"PART-1-1",           499,       9.98284,      -10.4845,            0.,NA,NA,"",   216.816E-03,  -216.809E-03,  -1.68608E-03,   800.574E-06
C:/temp/dataset/4/17_05.odb,Step-1,Increment      1: Step Time =    1.000,"PART-1-1",           500,       12.6190,       1.44886,            0.,NA,NA,"",   489.485E-03,  -486.314E-03,   55.6296E-03,   744.537E-06
C:/temp/dataset/4/17_05.odb,Step-1,Increment      1: Step Time =    1.000,"PART-1-1",           501,       13.8500,   84.2405E-03,            0.,NA,NA,"",   461.949E-03,  -454.302E-03,   83.7081E-03,   772.693E-06
C:/temp/dataset/4/17_05.odb,Step-1,Increment      1: Step Time =    1.000,"PART-1-1",           502,           15.,          1.25,            0.,NA,NA,"",   495.197E-03,  -482.618E-03,   110.905E-03,   544.646E-06
C:/temp/dataset/4/17_05.odb,Step-1,Increment      1: Step Time =    1.000,"PART-1-1",           503,       10.0180,      -2.29938,            0.,NA,NA,"",   395.928E-03,  -395.923E-03,  -2.01514E-03,   1.32557E-03
C:/temp/dataset/4/17_05.odb,Step-1,Increment      1: Step Time =    1.000,"PART-1-1",           504,       9.13986,      -3.07696,            0.,NA,NA,"",   377.839E-03,  -377.265E-03,  -20.8219E-03,   1.32212E-03
C:/temp/dataset/4/17_05.odb,Step-1,Increment      1: Step Time =    1.000,"PART-1-1",           505,       10.6738,      -3.69229,            0.,NA,NA,"",   363.526E-03,  -363.320E-03,   12.2467E-03,   1.28943E-03
C:/temp/dataset/4/17_05.odb,Step-1,Increment      1: Step Time =    1.000,"PART-1-1",           506,       12.7589,       6.54544,            0.,NA,NA,"",   609.483E-03,  -606.730E-03,   57.8613E-03,   104.275E-06
C:/temp/dataset/4/17_05.odb,Step-1,Increment      1: Step Time =    1.000,"PART-1-1",           507,           15.,          6.25,            0.,NA,NA,"",   610.412E-03,  -600.398E-03,   110.115E-03,   45.8963E-06
C:/temp/dataset/4/17_05.odb,Step-1,Increment      1: Step Time =    1.000,"PART-1-1",           508,       13.9203,       7.65480,            0.,NA,NA,"",   638.480E-03,  -632.860E-03,   84.5306E-03,   39.6778E-06
C:/temp/dataset/4/17_05.odb,Step-1,Increment      1: Step Time =    1.000,"PART-1-1",           509,       13.0275,       16.3263,            0.,NA,NA,"",   835.554E-03,  -833.292E-03,   61.4372E-03,   5.22171E-06
C:/temp/dataset/4/17_05.odb,Step-1,Increment      1: Step Time =    1.000,"PART-1-1",           510,       14.0150,       15.0581,            0.,NA,NA,"",   808.677E-03,  -804.238E-03,   84.6163E-03,   5.62301E-06
C:/temp/dataset/4/17_05.odb,Step-1,Increment      1: Step Time =    1.000,"PART-1-1",           511,           15.,         16.25,            0.,NA,NA,"",   838.915E-03,  -832.055E-03,   107.067E-03,   3.34822E-06
C:/temp/dataset/4/17_05.odb,Step-1,Increment      1: Step Time =    1.000,"PART-1-1",           512,       14.0124,       17.5182,            0.,NA,NA,"",   865.188E-03,  -861.112E-03,   83.8927E-03,   1.37218E-06
C:/temp/dataset/4/17_05.odb,Step-1,Increment      1: Step Time =    1.000,"PART-1-1",           513,       13.0175,       18.7421,            0.,NA,NA,"",   891.200E-03,  -889.140E-03,   60.5606E-03,   1.46397E-06
C:/temp/dataset/4/17_05.odb,Step-1,Increment      1: Step Time =    1.000,"PART-1-1",           514,           15.,         18.75,            0.,NA,NA,"",   896.192E-03,  -889.854E-03,   106.397E-03,   319.731E-09
C:/temp/dataset/4/17_05.odb,Step-1,Increment      1: Step Time =    1.000,"PART-1-1",           515,       14.0051,       19.9738,            0.,NA,NA,"",   921.634E-03,  -917.883E-03,   83.0660E-03,   215.237E-09
C:/temp/dataset/4/17_05.odb,Step-1,Increment      1: Step Time =    1.000,"PART-1-1",           516,       5.97628,       21.7197,            0.,NA,NA,"",   961.640E-03,  -956.103E-03,  -103.043E-03,   138.783E-09
C:/temp/dataset/4/17_05.odb,Step-1,Increment      1: Step Time =    1.000,"PART-1-1",           517,       6.92463,       22.7965,            0.,NA,NA,"",   984.626E-03,  -981.255E-03,  -81.4025E-03,   38.4703E-09
C:/temp/dataset/4/17_05.odb,Step-1,Increment      1: Step Time =    1.000,"PART-1-1",           518,       5.94835,       23.7852,            0.,NA,NA,"",       1.00925,      -1.00385,  -104.241E-03,   117.459E-09
C:/temp/dataset/4/17_05.odb,Step-1,Increment      1: Step Time =    1.000,"PART-1-1",           519,            5.,       22.7083,            0.,NA,NA,"",   986.764E-03,  -978.701E-03,  -125.881E-03,   229.982E-09
C:/temp/dataset/4/17_05.odb,Step-1,Increment      1: Step Time =    1.000,"PART-1-1",           520,       13.8862,       24.9278,            0.,NA,NA,"",       1.03541,      -1.03240,   78.9926E-03,   85.6270E-09
C:/temp/dataset/4/17_05.odb,Step-1,Increment      1: Step Time =    1.000,"PART-1-1",           521,           15.,         26.25,            0.,NA,NA,"",       1.06838,      -1.06327,   104.393E-03,   77.0743E-09
C:/temp/dataset/4/17_05.odb,Step-1,Increment      1: Step Time =    1.000,"PART-1-1",           522,       6.15342,       27.8650,            0.,NA,NA,"",       1.10284,      -1.09824,  -100.589E-03,   37.3821E-09
C:/temp/dataset/4/17_05.odb,Step-1,Increment      1: Step Time =    1.000,"PART-1-1",           523,       7.40342,       28.9067,            0.,NA,NA,"",       1.12497,      -1.12266,  -71.9653E-03,   40.3490E-09
C:/temp/dataset/4/17_05.odb,Step-1,Increment      1: Step Time =    1.000,"PART-1-1",           524,          6.25,           30.,            0.,NA,NA,"",       1.15189,      -1.14763,  -98.9271E-03,   21.7597E-09
C:/temp/dataset/4/17_05.odb,Step-1,Increment      1: Step Time =    1.000,"PART-1-1",           525,            5.,       28.9583,            0.,NA,NA,"",       1.13043,      -1.12321,  -127.551E-03,   21.3775E-09
C:/temp/dataset/4/17_05.odb,Step-1,Increment      1: Step Time =    1.000,"PART-1-1",           526,       7.11917,       26.8292,            0.,NA,NA,"",       1.07738,      -1.07455,  -77.9825E-03,   65.1777E-09
C:/temp/dataset/4/17_05.odb,Step-1,Increment      1: Step Time =    1.000,"PART-1-1",           527,            5.,        26.875,            0.,NA,NA,"",       1.08252,      -1.07504,  -126.994E-03,   57.3087E-09
C:/temp/dataset/4/17_05.odb,Step-1,Increment      1: Step Time =    1.000,"PART-1-1",           528,       5.96574,       25.8392,            0.,NA,NA,"",       1.05652,      -1.05135,  -104.387E-03,   69.0009E-09
C:/temp/dataset/4/17_05.odb,Step-1,Increment      1: Step Time =    1.000,"PART-1-1",           529,       8.59546,       27.4701,            0.,NA,NA,"",       1.09065,      -1.08977,  -44.0188E-03,   45.7634E-09
C:/temp/dataset/4/17_05.odb,Step-1,Increment      1: Step Time =    1.000,"PART-1-1",           530,       9.94204,       28.5635,            0.,NA,NA,"",       1.11548,      -1.11541,  -13.1755E-03,   48.8479E-09
C:/temp/dataset/4/17_05.odb,Step-1,Increment      1: Step Time =    1.000,"PART-1-1",           531,          8.75,           30.,            0.,NA,NA,"",       1.14904,      -1.14830,  -41.1219E-03,   46.1088E-09
C:/temp/dataset/4/17_05.odb,Step-1,Increment      1: Step Time =    1.000,"PART-1-1",           532,            5.,       24.7917,            0.,NA,NA,"",       1.03463,      -1.02687,  -126.437E-03,   132.844E-09
C:/temp/dataset/4/17_05.odb,Step-1,Increment      1: Step Time =    1.000,"PART-1-1",           533,       6.91409,       24.8327,            0.,NA,NA,"",       1.03161,      -1.02833,  -82.1905E-03,   83.7672E-09
C:/temp/dataset/4/17_05.odb,Step-1,Increment      1: Step Time =    1.000,"PART-1-1",           534,            5.,        20.625,            0.,NA,NA,"",   938.931E-03,  -930.530E-03,  -125.324E-03,   227.733E-09
C:/temp/dataset/4/17_05.odb,Step-1,Increment      1: Step Time =    1.000,"PART-1-1",           535,       5.99534,       19.6263,            0.,NA,NA,"",   913.421E-03,  -907.703E-03,  -102.042E-03,   286.299E-09
C:/temp/dataset/4/17_05.odb,Step-1,Increment      1: Step Time =    1.000,"PART-1-1",           536,       6.97162,       20.7210,            0.,NA,NA,"",   936.679E-03,  -933.277E-03,  -79.7610E-03,   331.871E-09
C:/temp/dataset/4/17_05.odb,Step-1,Increment      1: Step Time =    1.000,"PART-1-1",           537,       9.90537,       10.7177,            0.,NA,NA,"",   702.831E-03,  -702.769E-03,  -9.33724E-03,   29.8737E-06
C:/temp/dataset/4/17_05.odb,Step-1,Increment      1: Step Time =    1.000,"PART-1-1",           538,       8.83179,       9.75083,            0.,NA,NA,"",   680.969E-03,  -680.124E-03,  -33.9167E-03,   28.8821E-06
C:/temp/dataset/4/17_05.odb,Step-1,Increment      1: Step Time =    1.000,"PART-1-1",           539,       10.8380,       9.37550,            0.,NA,NA,"",   672.100E-03,  -671.982E-03,   12.5731E-03,   25.7017E-06
C:/temp/dataset/4/17_05.odb,Step-1,Increment      1: Step Time =    1.000,"PART-1-1",           540,       5.96737,       11.1773,            0.,NA,NA,"",   719.351E-03,  -712.313E-03,  -100.383E-03,   28.3334E-06
C:/temp/dataset/4/17_05.odb,Step-1,Increment      1: Step Time =    1.000,"PART-1-1",           541,       6.95908,       12.1740,            0.,NA,NA,"",   739.716E-03,  -735.617E-03,  -77.7629E-03,   24.7058E-06
C:/temp/dataset/4/17_05.odb,Step-1,Increment      1: Step Time =    1.000,"PART-1-1",           542,            5.,       12.2917,            0.,NA,NA,"",   748.016E-03,  -737.825E-03,  -123.054E-03,   28.4835E-06
C:/temp/dataset/4/17_05.odb,Step-1,Increment      1: Step Time =    1.000,"PART-1-1",           543,       6.89189,       10.0466,            0.,NA,NA,"",   690.930E-03,  -686.428E-03,  -78.7465E-03,   34.3209E-06
C:/temp/dataset/4/17_05.odb,Step-1,Increment      1: Step Time =    1.000,"PART-1-1",           544,            5.,       10.2083,            0.,NA,NA,"",   700.468E-03,  -689.688E-03,  -122.418E-03,   73.5863E-06
C:/temp/dataset/4/17_05.odb,Step-1,Increment      1: Step Time =    1.000,"PART-1-1",           545,  -883.251E-03,       2.97832,            0.,NA,NA,"",   591.567E-03,  -528.898E-03,  -264.987E-03,   1.23065E-03
C:/temp/dataset/4/17_05.odb,Step-1,Increment      1: Step Time =    1.000,"PART-1-1",           546,         -1.25,            5.,            0.,NA,NA,"",   643.685E-03,  -581.252E-03,  -276.543E-03,   1.90770E-03
C:/temp/dataset/4/17_05.odb,Step-1,Increment      1: Step Time =    1.000,"PART-1-1",           547,      -2.28350,       3.97568,            0.,NA,NA,"",   632.895E-03,  -556.174E-03,  -302.038E-03,   1.56390E-03
C:/temp/dataset/4/17_05.odb,Step-1,Increment      1: Step Time =    1.000,"PART-1-1",           548,      -3.12559,       2.92107,            0.,NA,NA,"",   619.938E-03,  -529.070E-03,  -323.121E-03,   930.932E-06
C:/temp/dataset/4/17_05.odb,Step-1,Increment      1: Step Time =    1.000,"PART-1-1",           549,         -3.75,            5.,            0.,NA,NA,"",   677.551E-03,  -585.192E-03,  -341.505E-03,   2.54586E-03
C:/temp/dataset/4/17_05.odb,Step-1,Increment      1: Step Time =    1.000,"PART-1-1",           550,      -7.01026,       10.3490,            0.,NA,NA,"",   859.904E-03,  -743.799E-03,  -431.505E-03,   405.940E-06
C:/temp/dataset/4/17_05.odb,Step-1,Increment      1: Step Time =    1.000,"PART-1-1",           551,           -5.,       10.2083,            0.,NA,NA,"",   830.679E-03,  -741.397E-03,  -374.644E-03,   386.833E-06
C:/temp/dataset/4/17_05.odb,Step-1,Increment      1: Step Time =    1.000,"PART-1-1",           552,      -6.00030,       11.3233,            0.,NA,NA,"",   870.837E-03,  -771.902E-03,  -403.142E-03,   278.074E-06
C:/temp/dataset/4/17_05.odb,Step-1,Increment      1: Step Time =    1.000,"PART-1-1",           553,      -6.90277,       16.5792,            0.,NA,NA,"",       1.01554,  -919.672E-03,  -430.729E-03,   11.4887E-06
C:/temp/dataset/4/17_05.odb,Step-1,Increment      1: Step Time =    1.000,"PART-1-1",           554,           -5.,       16.4583,            0.,NA,NA,"",   991.445E-03,  -917.020E-03,  -376.878E-03,   25.0958E-06
C:/temp/dataset/4/17_05.odb,Step-1,Increment      1: Step Time =    1.000,"PART-1-1",           555,      -5.93592,       17.5473,            0.,NA,NA,"",       1.02990,  -947.451E-03,  -403.771E-03,   10.6103E-06
C:/temp/dataset/4/17_05.odb,Step-1,Increment      1: Step Time =    1.000,"PART-1-1",           556,      -5.96041,       23.6583,            0.,NA,NA,"",       1.19199,      -1.12039,  -406.894E-03,   593.261E-09
C:/temp/dataset/4/17_05.odb,Step-1,Increment      1: Step Time =    1.000,"PART-1-1",           557,           -5.,       24.7917,            0.,NA,NA,"",       1.21391,      -1.15285,  -380.168E-03,   195.283E-09
C:/temp/dataset/4/17_05.odb,Step-1,Increment      1: Step Time =    1.000,"PART-1-1",           558,      -7.48847,       28.8776,            0.,NA,NA,"",       1.34574,      -1.26748,  -452.227E-03,   48.1279E-09
C:/temp/dataset/4/17_05.odb,Step-1,Increment      1: Step Time =    1.000,"PART-1-1",           559,           -5.,       28.9583,            0.,NA,NA,"",       1.32689,      -1.27076,  -381.837E-03,   38.5470E-09
C:/temp/dataset/4/17_05.odb,Step-1,Increment      1: Step Time =    1.000,"PART-1-1",           560,         -6.25,           30.,            0.,NA,NA,"",       1.36519,      -1.29974,  -417.629E-03,   38.8522E-09
C:/temp/dataset/4/17_05.odb,Step-1,Increment      1: Step Time =    1.000,"PART-1-1",           561,       12.9634,       11.4929,            0.,NA,NA,"",   724.132E-03,  -721.537E-03,   61.2522E-03,   22.9613E-06
C:/temp/dataset/4/17_05.odb,Step-1,Increment      1: Step Time =    1.000,"PART-1-1",           562,       13.9657,       10.1417,            0.,NA,NA,"",   695.736E-03,  -690.543E-03,   84.8484E-03,   32.7229E-06
C:/temp/dataset/4/17_05.odb,Step-1,Increment      1: Step Time =    1.000,"PART-1-1",           563,           15.,         11.25,            0.,NA,NA,"",   724.615E-03,  -716.450E-03,   108.469E-03,   36.1878E-06
C:/temp/dataset/4/17_05.odb,Step-1,Increment      1: Step Time =    1.000,"PART-1-1",           564,       13.9978,       12.6011,            0.,NA,NA,"",   752.241E-03,  -747.436E-03,   84.8906E-03,   16.1586E-06
C:/temp/dataset/4/17_05.odb,Step-1,Increment      1: Step Time =    1.000,"PART-1-1",           565,       9.13480,      -18.5479,            0.,NA,NA,"",   83.6857E-03,  -82.9949E-03,  -10.7307E-03,   1.18422E-03
C:/temp/dataset/4/17_05.odb,Step-1,Increment      1: Step Time =    1.000,"PART-1-1",           566,       11.1537,      -18.5886,            0.,NA,NA,"",   83.8657E-03,  -82.7494E-03,   13.6383E-03,   1.40728E-03
C:/temp/dataset/4/17_05.odb,Step-1,Increment      1: Step Time =    1.000,"PART-1-1",           567,       10.1377,      -17.4381,            0.,NA,NA,"",   98.2772E-03,  -98.2668E-03,   1.42617E-03,   811.805E-06
C:/temp/dataset/4/17_05.odb,Step-1,Increment      1: Step Time =    1.000,"PART-1-1",           568,      -8.81573,       27.5627,            0.,NA,NA,"",       1.32349,      -1.22974,  -489.261E-03,   119.528E-09
C:/temp/dataset/4/17_05.odb,Step-1,Increment      1: Step Time =    1.000,"PART-1-1",           569,         -8.75,           30.,            0.,NA,NA,"",       1.38753,      -1.29874,  -488.378E-03,   55.6697E-09
C:/temp/dataset/4/17_05.odb,Step-1,Increment      1: Step Time =    1.000,"PART-1-1",           570,            5.,      -24.7917,            0.,NA,NA,"",   39.8857E-03,  -25.3480E-03,  -30.7953E-03,   6.09945E-03
C:/temp/dataset/4/17_05.odb,Step-1,Increment      1: Step Time =    1.000,"PART-1-1",           571,       6.09200,      -25.8775,            0.,NA,NA,"",   24.5521E-03,  -15.8785E-03,  -18.7264E-03,   4.98807E-03
C:/temp/dataset/4/17_05.odb,Step-1,Increment      1: Step Time =    1.000,"PART-1-1",           572,       7.15121,      -24.8757,            0.,NA,NA,"",   26.0225E-03,  -20.1204E-03,  -16.5027E-03,   3.62654E-03
C:/temp/dataset/4/17_05.odb,Step-1,Increment      1: Step Time =    1.000,"PART-1-1",           573,       13.1040,      -21.0477,            0.,NA,NA,"",   62.8810E-03,  -55.0140E-03,   30.4545E-03,   3.44603E-03
C:/temp/dataset/4/17_05.odb,Step-1,Increment      1: Step Time =    1.000,"PART-1-1",           574,       14.0487,      -22.3697,            0.,NA,NA,"",   55.4850E-03,  -43.2172E-03,   34.7974E-03,   4.66044E-03
C:/temp/dataset/4/17_05.odb,Step-1,Increment      1: Step Time =    1.000,"PART-1-1",           575,           15.,        -21.25,            0.,NA,NA,"",   75.0853E-03,  -56.7324E-03,   49.1856E-03,   5.52527E-03
C:/temp/dataset/4/17_05.odb,Step-1,Increment      1: Step Time =    1.000,"PART-1-1",           576,            5.,       -26.875,            0.,NA,NA,"",   23.4777E-03,  -13.5489E-03,  -19.1737E-03,   6.50357E-03
C:/temp/dataset/4/17_05.odb,Step-1,Increment      1: Step Time =    1.000,"PART-1-1",           577,       12.8133,      -6.31290,            0.,NA,NA,"",   310.421E-03,  -305.342E-03,   55.9230E-03,   1.67787E-03
C:/temp/dataset/4/17_05.odb,Step-1,Increment      1: Step Time =    1.000,"PART-1-1",           578,       13.9319,      -7.55671,            0.,NA,NA,"",   290.129E-03,  -279.648E-03,   77.2790E-03,   2.32672E-03
C:/temp/dataset/4/17_05.odb,Step-1,Increment      1: Step Time =    1.000,"PART-1-1",           579,           15.,         -6.25,            0.,NA,NA,"",   325.787E-03,  -309.246E-03,   102.488E-03,   2.60127E-03
C:/temp/dataset/4/17_05.odb,Step-1,Increment      1: Step Time =    1.000,"PART-1-1",           580,            5.,       18.5417,            0.,NA,NA,"",   891.134E-03,  -882.356E-03,  -124.768E-03,   418.619E-09
C:/temp/dataset/4/17_05.odb,Step-1,Increment      1: Step Time =    1.000,"PART-1-1",           581,       6.00122,       17.5195,            0.,NA,NA,"",   864.944E-03,  -858.986E-03,  -101.342E-03,   1.46066E-06
C:/temp/dataset/4/17_05.odb,Step-1,Increment      1: Step Time =    1.000,"PART-1-1",           582,       6.99656,       18.6041,            0.,NA,NA,"",   887.822E-03,  -884.334E-03,  -78.6184E-03,   1.59006E-06
C:/temp/dataset/4/17_05.odb,Step-1,Increment      1: Step Time =    1.000,"PART-1-1",           583,       12.8545,       23.6160,            0.,NA,NA,"",       1.00332,      -1.00179,   55.4887E-03,   63.2419E-09
C:/temp/dataset/4/17_05.odb,Step-1,Increment      1: Step Time =    1.000,"PART-1-1",           584,       13.9683,       22.4382,            0.,NA,NA,"",   978.258E-03,  -974.853E-03,   81.5573E-03,   134.357E-09
C:/temp/dataset/4/17_05.odb,Step-1,Increment      1: Step Time =    1.000,"PART-1-1",           585,           15.,         23.75,            0.,NA,NA,"",       1.01093,      -1.00546,   105.061E-03,   180.753E-09
C:/temp/dataset/4/17_05.odb,Step-1,Increment      1: Step Time =    1.000,"PART-1-1",           586,            5.,       16.4583,            0.,NA,NA,"",   843.377E-03,  -834.180E-03,  -124.209E-03,   2.87392E-06
C:/temp/dataset/4/17_05.odb,Step-1,Increment      1: Step Time =    1.000,"PART-1-1",           587,       7.00480,       16.4638,            0.,NA,NA,"",   838.464E-03,  -834.842E-03,  -77.8555E-03,   5.09143E-06
C:/temp/dataset/4/17_05.odb,Step-1,Increment      1: Step Time =    1.000,"PART-1-1",           588,       12.9734,       21.1620,            0.,NA,NA,"",   946.913E-03,  -945.079E-03,   58.8941E-03,   223.550E-09
C:/temp/dataset/4/17_05.odb,Step-1,Increment      1: Step Time =    1.000,"PART-1-1",           589,           15.,         21.25,            0.,NA,NA,"",   953.536E-03,  -947.656E-03,   105.729E-03,   240.014E-09
C:/temp/dataset/4/17_05.odb,Step-1,Increment      1: Step Time =    1.000,"PART-1-1",           590,            5.,       6.04167,            0.,NA,NA,"",   606.472E-03,  -594.304E-03,  -120.880E-03,   449.703E-06
C:/temp/dataset/4/17_05.odb,Step-1,Increment      1: Step Time =    1.000,"PART-1-1",           591,       5.70418,       5.21013,            0.,NA,NA,"",   585.617E-03,  -576.186E-03,  -104.670E-03,   1.06044E-03
C:/temp/dataset/4/17_05.odb,Step-1,Increment      1: Step Time =    1.000,"PART-1-1",           592,       6.54256,       6.20387,            0.,NA,NA,"",   604.375E-03,  -598.260E-03,  -85.7616E-03,   363.443E-06
C:/temp/dataset/4/17_05.odb,Step-1,Increment      1: Step Time =    1.000,"PART-1-1",           593,       7.80464,       8.81181,            0.,NA,NA,"",   660.672E-03,  -658.175E-03,  -57.3877E-03,   29.4526E-06
C:/temp/dataset/4/17_05.odb,Step-1,Increment      1: Step Time =    1.000,"PART-1-1",           594,       7.55468,       6.70991,            0.,NA,NA,"",   613.008E-03,  -609.806E-03,  -62.5705E-03,   209.214E-06
C:/temp/dataset/4/17_05.odb,Step-1,Increment      1: Step Time =    1.000,"PART-1-1",           595,           -5.,       12.2917,            0.,NA,NA,"",   883.164E-03,  -799.394E-03,  -375.430E-03,   62.4506E-06
C:/temp/dataset/4/17_05.odb,Step-1,Increment      1: Step Time =    1.000,"PART-1-1",           596,      -13.0551,       11.1433,            0.,NA,NA,"",   972.347E-03,  -763.062E-03,  -602.658E-03,   97.4140E-06
C:/temp/dataset/4/17_05.odb,Step-1,Increment      1: Step Time =    1.000,"PART-1-1",           597,          -15.,       11.4063,            0.,NA,NA,"",       1.01262,  -769.760E-03,  -657.931E-03,   15.3284E-06
C:/temp/dataset/4/17_05.odb,Step-1,Increment      1: Step Time =    1.000,"PART-1-1",           598,           -5.,       18.5417,            0.,NA,NA,"",       1.04650,  -975.969E-03,  -377.680E-03,   10.2554E-06
C:/temp/dataset/4/17_05.odb,Step-1,Increment      1: Step Time =    1.000,"PART-1-1",           599,      -6.83195,       18.5917,            0.,NA,NA,"",       1.06693,  -976.648E-03,  -429.531E-03,   8.76549E-06
C:/temp/dataset/4/17_05.odb,Step-1,Increment      1: Step Time =    1.000,"PART-1-1",           600,      -12.9744,       15.4368,            0.,NA,NA,"",       1.07032,  -884.910E-03,  -602.099E-03,   4.90423E-06
C:/temp/dataset/4/17_05.odb,Step-1,Increment      1: Step Time =    1.000,"PART-1-1",           601,      -13.9736,       16.6988,            0.,NA,NA,"",       1.11574,  -920.237E-03,  -630.896E-03,   10.8397E-06
C:/temp/dataset/4/17_05.odb,Step-1,Increment      1: Step Time =    1.000,"PART-1-1",           602,          -15.,       15.7813,            0.,NA,NA,"",       1.11087,  -893.840E-03,  -659.605E-03,   20.9660E-06
C:/temp/dataset/4/17_05.odb,Step-1,Increment      1: Step Time =    1.000,"PART-1-1",           603,      -6.85389,       22.5676,            0.,NA,NA,"",       1.17161,      -1.08916,  -431.742E-03,   1.90671E-06
C:/temp/dataset/4/17_05.odb,Step-1,Increment      1: Step Time =    1.000,"PART-1-1",           604,           -5.,       22.7083,            0.,NA,NA,"",       1.15779,      -1.09389,  -379.335E-03,   1.09055E-06
C:/temp/dataset/4/17_05.odb,Step-1,Increment      1: Step Time =    1.000,"PART-1-1",           605,      -7.62380,       21.5126,            0.,NA,NA,"",       1.15186,      -1.05900,  -453.106E-03,   2.80301E-06
C:/temp/dataset/4/17_05.odb,Step-1,Increment      1: Step Time =    1.000,"PART-1-1",           606,      -11.2433,       25.0031,            0.,NA,NA,"",       1.28346,      -1.15633,  -556.936E-03,   695.229E-09
C:/temp/dataset/4/17_05.odb,Step-1,Increment      1: Step Time =    1.000,"PART-1-1",           607,      -10.1220,       24.6816,            0.,NA,NA,"",       1.26209,      -1.14768,  -525.073E-03,   741.412E-09
C:/temp/dataset/4/17_05.odb,Step-1,Increment      1: Step Time =    1.000,"PART-1-1",           608,      -9.68436,       26.2404,            0.,NA,NA,"",       1.29780,      -1.19197,  -513.313E-03,   373.439E-09
C:/temp/dataset/4/17_05.odb,Step-1,Increment      1: Step Time =    1.000,"PART-1-1",           609,      -10.8057,       26.5619,            0.,NA,NA,"",       1.31860,      -1.20062,  -545.176E-03,   264.468E-09
C:/temp/dataset/4/17_05.odb,Step-1,Increment      1: Step Time =    1.000,"PART-1-1",           610,            5.,      -6.04167,            0.,NA,NA,"",   328.203E-03,  -309.932E-03,  -107.978E-03,   3.35006E-03
C:/temp/dataset/4/17_05.odb,Step-1,Increment      1: Step Time =    1.000,"PART-1-1",           611,       5.81487,      -6.90448,            0.,NA,NA,"",   304.049E-03,  -290.984E-03,  -88.1714E-03,   2.46957E-03
C:/temp/dataset/4/17_05.odb,Step-1,Increment      1: Step Time =    1.000,"PART-1-1",           612,       6.44107,      -5.66337,            0.,NA,NA,"",   326.360E-03,  -317.094E-03,  -77.2187E-03,   1.41392E-03
C:/temp/dataset/4/17_05.odb,Step-1,Increment      1: Step Time =    1.000,"PART-1-1",           613,       5.62621,      -4.80056,            0.,NA,NA,"",   349.713E-03,  -336.047E-03,  -96.8054E-03,   2.01542E-03
C:/temp/dataset/4/17_05.odb,Step-1,Increment      1: Step Time =    1.000,"PART-1-1",           614,            5.,        -8.125,            0.,NA,NA,"",   285.412E-03,  -266.704E-03,  -101.632E-03,   3.10156E-03
C:/temp/dataset/4/17_05.odb,Step-1,Increment      1: Step Time =    1.000,"PART-1-1",           615,       8.00489,       17.5473,            0.,NA,NA,"",   861.925E-03,  -860.167E-03,  -55.0224E-03,   2.64925E-06
C:/temp/dataset/4/17_05.odb,Step-1,Increment      1: Step Time =    1.000,"PART-1-1",           616,       8.00828,       15.3576,            0.,NA,NA,"",   811.352E-03,  -809.529E-03,  -54.3629E-03,   7.48193E-06
C:/temp/dataset/4/17_05.odb,Step-1,Increment      1: Step Time =    1.000,"PART-1-1",           617,       11.1265,      -16.2686,            0.,NA,NA,"",   116.967E-03,  -115.957E-03,   15.3417E-03,   1.30347E-03
C:/temp/dataset/4/17_05.odb,Step-1,Increment      1: Step Time =    1.000,"PART-1-1",           618,       9.12111,      -16.3141,            0.,NA,NA,"",   115.661E-03,  -114.949E-03,  -12.8102E-03,   1.14230E-03
C:/temp/dataset/4/17_05.odb,Step-1,Increment      1: Step Time =    1.000,"PART-1-1",           619,      -9.91602,       15.9767,            0.,NA,NA,"",       1.03853,  -901.426E-03,  -515.720E-03,   11.1762E-06
C:/temp/dataset/4/17_05.odb,Step-1,Increment      1: Step Time =    1.000,"PART-1-1",           620,      -10.9598,       15.0860,            0.,NA,NA,"",       1.03148,  -875.797E-03,  -544.905E-03,   12.7262E-06
C:/temp/dataset/4/17_05.odb,Step-1,Increment      1: Step Time =    1.000,"PART-1-1",           621,      -8.93702,       14.7598,            0.,NA,NA,"",   995.014E-03,  -867.396E-03,  -487.521E-03,   20.9842E-06
C:/temp/dataset/4/17_05.odb,Step-1,Increment      1: Step Time =    1.000,"PART-1-1",           622,      -13.0880,       4.79273,            0.,NA,NA,"",   836.348E-03,  -582.375E-03,  -600.263E-03,   288.528E-06
C:/temp/dataset/4/17_05.odb,Step-1,Increment      1: Step Time =    1.000,"PART-1-1",           623,          -15.,       4.84375,            0.,NA,NA,"",   876.441E-03,  -583.374E-03,  -654.083E-03,   421.465E-06
C:/temp/dataset/4/17_05.odb,Step-1,Increment      1: Step Time =    1.000,"PART-1-1",           624,           -5.,       6.04167,            0.,NA,NA,"",   724.463E-03,  -620.772E-03,  -373.483E-03,   1.07713E-03
C:/temp/dataset/4/17_05.odb,Step-1,Increment      1: Step Time =    1.000,"PART-1-1",           625,      -7.12843,       5.83601,            0.,NA,NA,"",   751.322E-03,  -613.198E-03,  -434.135E-03,   781.825E-06
C:/temp/dataset/4/17_05.odb,Step-1,Increment      1: Step Time =    1.000,"PART-1-1",           626,       12.9112,      -8.87192,            0.,NA,NA,"",   256.866E-03,  -250.995E-03,   54.6022E-03,   1.96212E-03
C:/temp/dataset/4/17_05.odb,Step-1,Increment      1: Step Time =    1.000,"PART-1-1",           627,           15.,         -8.75,            0.,NA,NA,"",   273.852E-03,  -256.282E-03,   96.5120E-03,   3.17457E-03
C:/temp/dataset/4/17_05.odb,Step-1,Increment      1: Step Time =    1.000,"PART-1-1",           628,       13.0740,      -16.2399,            0.,NA,NA,"",   125.904E-03,  -118.287E-03,   43.1270E-03,   2.87006E-03
C:/temp/dataset/4/17_05.odb,Step-1,Increment      1: Step Time =    1.000,"PART-1-1",           629,           15.,        -16.25,            0.,NA,NA,"",   141.005E-03,  -121.546E-03,   71.4763E-03,   4.59154E-03
C:/temp/dataset/4/17_05.odb,Step-1,Increment      1: Step Time =    1.000,"PART-1-1",           630,       13.0128,       13.9092,            0.,NA,NA,"",   779.861E-03,  -777.412E-03,   61.7455E-03,   13.3317E-06
C:/temp/dataset/4/17_05.odb,Step-1,Increment      1: Step Time =    1.000,"PART-1-1",           631,           15.,         13.75,            0.,NA,NA,"",   781.721E-03,  -774.259E-03,   107.750E-03,   13.4129E-06
C:/temp/dataset/4/17_05.odb,Step-1,Increment      1: Step Time =    1.000,"PART-1-1",           632,       10.9505,       11.7339,            0.,NA,NA,"",   726.704E-03,  -726.558E-03,   14.5896E-03,   24.4070E-06
C:/temp/dataset/4/17_05.odb,Step-1,Increment      1: Step Time =    1.000,"PART-1-1",           633,       9.98883,       12.9959,            0.,NA,NA,"",   755.507E-03,  -755.465E-03,  -7.96905E-03,   18.5922E-06
C:/temp/dataset/4/17_05.odb,Step-1,Increment      1: Step Time =    1.000,"PART-1-1",           634,       8.94372,       11.9797,            0.,NA,NA,"",   732.368E-03,  -731.674E-03,  -31.8739E-03,   24.8994E-06
C:/temp/dataset/4/17_05.odb,Step-1,Increment      1: Step Time =    1.000,"PART-1-1",           635,      -13.9153,       18.9000,            0.,NA,NA,"",       1.16725,  -982.559E-03,  -630.115E-03,   5.72855E-06
C:/temp/dataset/4/17_05.odb,Step-1,Increment      1: Step Time =    1.000,"PART-1-1",           636,      -12.6393,       19.9841,            0.,NA,NA,"",       1.17517,      -1.01375,  -594.431E-03,   5.38021E-06
C:/temp/dataset/4/17_05.odb,Step-1,Increment      1: Step Time =    1.000,"PART-1-1",           637,          -15.,       20.1563,            0.,NA,NA,"",       1.21367,      -1.01767,  -661.311E-03,   4.85707E-06
C:/temp/dataset/4/17_05.odb,Step-1,Increment      1: Step Time =    1.000,"PART-1-1",           638,       8.12191,      -21.7795,            0.,NA,NA,"",   48.5613E-03,  -45.4713E-03,  -17.0458E-03,   2.21793E-03
C:/temp/dataset/4/17_05.odb,Step-1,Increment      1: Step Time =    1.000,"PART-1-1",           639,       8.12482,      -23.8590,            0.,NA,NA,"",   29.4196E-03,  -26.4692E-03,  -12.8412E-03,   2.35944E-03
C:/temp/dataset/4/17_05.odb,Step-1,Increment      1: Step Time =    1.000,"PART-1-1",           640,       8.11825,      -19.6354,            0.,NA,NA,"",   72.7618E-03,  -69.6251E-03,  -21.1336E-03,   2.07418E-03
C:/temp/dataset/4/17_05.odb,Step-1,Increment      1: Step Time =    1.000,"PART-1-1",           641,       8.10952,      -17.4508,            0.,NA,NA,"",   101.816E-03,  -98.6645E-03,  -25.1348E-03,   1.93955E-03
C:/temp/dataset/4/17_05.odb,Step-1,Increment      1: Step Time =    1.000,"PART-1-1",           642,       7.85781,       23.9076,            0.,NA,NA,"",       1.00899,      -1.00719,  -60.1224E-03,   69.6414E-09
C:/temp/dataset/4/17_05.odb,Step-1,Increment      1: Step Time =    1.000,"PART-1-1",           643,       7.94870,       21.8524,            0.,NA,NA,"",   961.418E-03,  -959.699E-03,  -57.4712E-03,   91.3187E-09
C:/temp/dataset/4/17_05.odb,Step-1,Increment      1: Step Time =    1.000,"PART-1-1",           644,       4.21929,       2.98066,            0.,NA,NA,"",   542.877E-03,  -525.112E-03,  -137.745E-03,   1.02548E-03
C:/temp/dataset/4/17_05.odb,Step-1,Increment      1: Step Time =    1.000,"PART-1-1",           645,       5.32392,       3.96649,            0.,NA,NA,"",   559.329E-03,  -547.927E-03,  -112.358E-03,   1.29451E-03
C:/temp/dataset/4/17_05.odb,Step-1,Increment      1: Step Time =    1.000,"PART-1-1",           646,          3.75,            5.,            0.,NA,NA,"",   593.586E-03,  -574.095E-03,  -150.861E-03,   2.02456E-03
C:/temp/dataset/4/17_05.odb,Step-1,Increment      1: Step Time =    1.000,"PART-1-1",           647,       12.8859,       9.04653,            0.,NA,NA,"",   667.610E-03,  -664.897E-03,   60.1210E-03,   13.5979E-06
C:/temp/dataset/4/17_05.odb,Step-1,Increment      1: Step Time =    1.000,"PART-1-1",           648,           15.,          8.75,            0.,NA,NA,"",   667.557E-03,  -658.555E-03,   109.261E-03,   64.6594E-06
C:/temp/dataset/4/17_05.odb,Step-1,Increment      1: Step Time =    1.000,"PART-1-1",           649,      -8.02807,       9.41948,            0.,NA,NA,"",   851.632E-03,  -716.623E-03,  -460.141E-03,   434.587E-06
C:/temp/dataset/4/17_05.odb,Step-1,Increment      1: Step Time =    1.000,"PART-1-1",           650,      -8.84347,       16.8085,            0.,NA,NA,"",       1.04511,  -925.389E-03,  -485.710E-03,   11.0085E-06
C:/temp/dataset/4/17_05.odb,Step-1,Increment      1: Step Time =    1.000,"PART-1-1",           651,      -9.78583,       18.0165,            0.,NA,NA,"",       1.08770,  -959.201E-03,  -512.869E-03,   9.11670E-06
C:/temp/dataset/4/17_05.odb,Step-1,Increment      1: Step Time =    1.000,"PART-1-1",           652,          -15.,       17.9688,            0.,NA,NA,"",       1.16176,  -955.765E-03,  -660.449E-03,   11.7439E-06
C:/temp/dataset/4/17_05.odb,Step-1,Increment      1: Step Time =    1.000,"PART-1-1",           653,          -15.,       24.5313,            0.,NA,NA,"",       1.32008,      -1.14148,  -663.057E-03,   239.400E-09
C:/temp/dataset/4/17_05.odb,Step-1,Increment      1: Step Time =    1.000,"PART-1-1",           654,      -12.9952,       24.7258,            0.,NA,NA,"",       1.29813,      -1.14778,  -606.401E-03,   607.299E-09
C:/temp/dataset/4/17_05.odb,Step-1,Increment      1: Step Time =    1.000,"PART-1-1",           655,      -11.4985,       21.8877,            0.,NA,NA,"",       1.20732,      -1.06807,  -562.908E-03,   2.60485E-06
C:/temp/dataset/4/17_05.odb,Step-1,Increment      1: Step Time =    1.000,"PART-1-1",           656,      -11.4490,       20.6565,            0.,NA,NA,"",       1.17573,      -1.03325,  -561.010E-03,   4.22761E-06
C:/temp/dataset/4/17_05.odb,Step-1,Increment      1: Step Time =    1.000,"PART-1-1",           657,      -10.1446,       20.7260,            0.,NA,NA,"",       1.16080,      -1.03573,  -524.123E-03,   4.58780E-06
C:/temp/dataset/4/17_05.odb,Step-1,Increment      1: Step Time =    1.000,"PART-1-1",           658,      -7.69218,       19.6350,            0.,NA,NA,"",       1.10366,      -1.00583,  -454.287E-03,   5.70733E-06
C:/temp/dataset/4/17_05.odb,Step-1,Increment      1: Step Time =    1.000,"PART-1-1",           659,      -8.68744,       18.7463,            0.,NA,NA,"",       1.09241,  -980.286E-03,  -482.086E-03,   8.30816E-06
C:/temp/dataset/4/17_05.odb,Step-1,Increment      1: Step Time =    1.000,"PART-1-1",           660,      -7.82721,       17.7030,            0.,NA,NA,"",       1.05534,  -951.102E-03,  -457.327E-03,   9.27114E-06
C:/temp/dataset/4/17_05.odb,Step-1,Increment      1: Step Time =    1.000,"PART-1-1",           661,      -9.52114,       19.8817,            0.,NA,NA,"",       1.13159,      -1.01209,  -506.138E-03,   5.65233E-06
C:/temp/dataset/4/17_05.odb,Step-1,Increment      1: Step Time =    1.000,"PART-1-1",           662,      -10.6195,       19.1519,            0.,NA,NA,"",       1.12711,  -991.000E-03,  -536.926E-03,   7.29901E-06
C:/temp/dataset/4/17_05.odb,Step-1,Increment      1: Step Time =    1.000,"PART-1-1",           663,      -12.1485,       3.78191,            0.,NA,NA,"",   797.303E-03,  -554.121E-03,  -573.274E-03,   307.061E-06
C:/temp/dataset/4/17_05.odb,Step-1,Increment      1: Step Time =    1.000,"PART-1-1",           664,      -10.9850,       2.86362,            0.,NA,NA,"",   755.740E-03,  -528.616E-03,  -540.100E-03,   318.418E-06
C:/temp/dataset/4/17_05.odb,Step-1,Increment      1: Step Time =    1.000,"PART-1-1",           665,      -9.06958,       8.49577,            0.,NA,NA,"",   845.462E-03,  -689.469E-03,  -489.324E-03,   443.513E-06
C:/temp/dataset/4/17_05.odb,Step-1,Increment      1: Step Time =    1.000,"PART-1-1",           666,      -8.08215,       7.28595,            0.,NA,NA,"",   801.316E-03,  -655.220E-03,  -461.295E-03,   694.507E-06
C:/temp/dataset/4/17_05.odb,Step-1,Increment      1: Step Time =    1.000,"PART-1-1",           667,      -10.1292,       7.60955,            0.,NA,NA,"",   842.224E-03,  -663.463E-03,  -518.805E-03,   431.226E-06
C:/temp/dataset/4/17_05.odb,Step-1,Increment      1: Step Time =    1.000,"PART-1-1",           668,      -11.2104,       6.77234,            0.,NA,NA,"",   842.359E-03,  -639.099E-03,  -548.745E-03,   343.336E-06
C:/temp/dataset/4/17_05.odb,Step-1,Increment      1: Step Time =    1.000,"PART-1-1",           669,      -10.2942,       5.63122,            0.,NA,NA,"",   800.739E-03,  -606.775E-03,  -522.501E-03,   440.298E-06
C:/temp/dataset/4/17_05.odb,Step-1,Increment      1: Step Time =    1.000,"PART-1-1",           670,      -9.21309,       6.46842,            0.,NA,NA,"",   800.603E-03,  -631.064E-03,  -492.669E-03,   521.282E-06
C:/temp/dataset/4/17_05.odb,Step-1,Increment      1: Step Time =    1.000,"PART-1-1",           671,        -11.25,           -5.,            0.,NA,NA,"",   626.939E-03,  -311.798E-03,  -543.907E-03,   194.089E-06
C:/temp/dataset/4/17_05.odb,Step-1,Increment      1: Step Time =    1.000,"PART-1-1",           672,      -10.0273,      -3.93877,            0.,NA,NA,"",   614.139E-03,  -341.917E-03,  -510.157E-03,   311.407E-06
C:/temp/dataset/4/17_05.odb,Step-1,Increment      1: Step Time =    1.000,"PART-1-1",           673,         -8.75,           -5.,            0.,NA,NA,"",   568.642E-03,  -313.496E-03,  -474.420E-03,   496.862E-06
C:/temp/dataset/4/17_05.odb,Step-1,Increment      1: Step Time =    1.000,"PART-1-1",           674,      -7.59562,      -4.02918,            0.,NA,NA,"",   558.858E-03,  -341.188E-03,  -442.621E-03,   539.267E-06
C:/temp/dataset/4/17_05.odb,Step-1,Increment      1: Step Time =    1.000,"PART-1-1",           675,      -8.87289,      -2.96795,            0.,NA,NA,"",   604.231E-03,  -369.264E-03,  -478.267E-03,   436.370E-06
C:/temp/dataset/4/17_05.odb,Step-1,Increment      1: Step Time =    1.000,"PART-1-1",           676,         -6.25,           -5.,            0.,NA,NA,"",   514.113E-03,  -315.946E-03,  -405.573E-03,   816.683E-06
C:/temp/dataset/4/17_05.odb,Step-1,Increment      1: Step Time =    1.000,"PART-1-1",           677,      -5.03874,      -3.83161,            0.,NA,NA,"",   510.463E-03,  -348.865E-03,  -372.647E-03,   707.958E-06
C:/temp/dataset/4/17_05.odb,Step-1,Increment      1: Step Time =    1.000,"PART-1-1",           678,      -6.38435,      -2.86079,            0.,NA,NA,"",   554.449E-03,  -373.851E-03,  -409.449E-03,   508.666E-06
C:/temp/dataset/4/17_05.odb,Step-1,Increment      1: Step Time =    1.000,"PART-1-1",           679,      -8.31216,       1.98044,            0.,NA,NA,"",   685.774E-03,  -504.320E-03,  -464.701E-03,   512.608E-06
C:/temp/dataset/4/17_05.odb,Step-1,Increment      1: Step Time =    1.000,"PART-1-1",           680,      -6.89941,       1.67561,            0.,NA,NA,"",   653.237E-03,  -495.997E-03,  -425.095E-03,   587.824E-06
C:/temp/dataset/4/17_05.odb,Step-1,Increment      1: Step Time =    1.000,"PART-1-1",           681,      -8.02347,       3.70061,            0.,NA,NA,"",   717.188E-03,  -552.088E-03,  -457.775E-03,   646.851E-06
C:/temp/dataset/4/17_05.odb,Step-1,Increment      1: Step Time =    1.000,"PART-1-1",           682,      -9.78636,       2.36681,            0.,NA,NA,"",   722.071E-03,  -514.917E-03,  -506.207E-03,   427.434E-06
C:/temp/dataset/4/17_05.odb,Step-1,Increment      1: Step Time =    1.000,"PART-1-1",           683,      -8.80920,   354.969E-03,            0.,NA,NA,"",   663.003E-03,  -459.749E-03,  -477.707E-03,   484.087E-06
C:/temp/dataset/4/17_05.odb,Step-1,Increment      1: Step Time =    1.000,"PART-1-1",           684,         -3.75,           -5.,            0.,NA,NA,"",   464.801E-03,  -319.017E-03,  -338.035E-03,   1.05471E-03
C:/temp/dataset/4/17_05.odb,Step-1,Increment      1: Step Time =    1.000,"PART-1-1",           685,          3.75,           -5.,            0.,NA,NA,"",   359.534E-03,  -329.072E-03,  -144.831E-03,   1.52351E-03
C:/temp/dataset/4/17_05.odb,Step-1,Increment      1: Step Time =    1.000,"PART-1-1",           686,       4.46580,      -3.87501,            0.,NA,NA,"",   379.465E-03,  -357.811E-03,  -126.353E-03,   1.41084E-03
C:/temp/dataset/4/17_05.odb,Step-1,Increment      1: Step Time =    1.000,"PART-1-1",           687,       2.90021,      -2.90757,            0.,NA,NA,"",   415.055E-03,  -380.320E-03,  -166.213E-03,   475.235E-06
C:/temp/dataset/4/17_05.odb,Step-1,Increment      1: Step Time =    1.000,"PART-1-1",           688,       11.1618,       2.81075,            0.,NA,NA,"",   518.978E-03,  -518.506E-03,   22.1200E-03,   659.569E-06
C:/temp/dataset/4/17_05.odb,Step-1,Increment      1: Step Time =    1.000,"PART-1-1",           689,       10.1850,       1.50626,            0.,NA,NA,"",   487.297E-03,  -487.296E-03,   437.004E-06,   979.750E-06
C:/temp/dataset/4/17_05.odb,Step-1,Increment      1: Step Time =    1.000,"PART-1-1",           690,       11.6421,   144.368E-03,            0.,NA,NA,"",   456.040E-03,  -454.803E-03,   33.5615E-03,   1.00961E-03
C:/temp/dataset/4/17_05.odb,Step-1,Increment      1: Step Time =    1.000,"PART-1-1",           691,         11.25,           30.,            0.,NA,NA,"",       1.14909,      -1.14897,   16.6832E-03,   46.0977E-09
C:/temp/dataset/4/17_05.odb,Step-1,Increment      1: Step Time =    1.000,"PART-1-1",           692,       9.19768,       26.3844,            0.,NA,NA,"",       1.06524,      -1.06482,  -29.8040E-03,   59.6862E-09
C:/temp/dataset/4/17_05.odb,Step-1,Increment      1: Step Time =    1.000,"PART-1-1",           693,       7.72138,       25.7435,            0.,NA,NA,"",       1.05154,      -1.04961,  -63.7677E-03,   69.3845E-09
C:/temp/dataset/4/17_05.odb,Step-1,Increment      1: Step Time =    1.000,"PART-1-1",           694,       9.17897,      -24.8987,            0.,NA,NA,"",   18.4879E-03,  -17.9043E-03,  -4.60846E-03,   1.32420E-03
C:/temp/dataset/4/17_05.odb,Step-1,Increment      1: Step Time =    1.000,"PART-1-1",           695,       9.00589,       18.6572,            0.,NA,NA,"",   886.684E-03,  -886.100E-03,  -32.1736E-03,   2.03910E-06
C:/temp/dataset/4/17_05.odb,Step-1,Increment      1: Step Time =    1.000,"PART-1-1",           696,       7.99757,       19.7140,            0.,NA,NA,"",   911.973E-03,  -910.266E-03,  -55.7698E-03,   696.763E-09
C:/temp/dataset/4/17_05.odb,Step-1,Increment      1: Step Time =    1.000,"PART-1-1",           697,      -12.2498,       25.7751,            0.,NA,NA,"",       1.31538,      -1.17778,  -585.726E-03,   306.104E-09
C:/temp/dataset/4/17_05.odb,Step-1,Increment      1: Step Time =    1.000,"PART-1-1",           698,      -11.9888,       23.9538,            0.,NA,NA,"",       1.26581,      -1.12634,  -577.610E-03,   944.898E-09
C:/temp/dataset/4/17_05.odb,Step-1,Increment      1: Step Time =    1.000,"PART-1-1",           699,      -1.59164,      -1.60220,            0.,NA,NA,"",   497.522E-03,  -410.464E-03,  -281.155E-03,   256.482E-06
C:/temp/dataset/4/17_05.odb,Step-1,Increment      1: Step Time =    1.000,"PART-1-1",           700,      -1.34014,  -343.401E-03,            0.,NA,NA,"",   521.558E-03,  -443.220E-03,  -274.915E-03,   136.609E-06
C:/temp/dataset/4/17_05.odb,Step-1,Increment      1: Step Time =    1.000,"PART-1-1",           701,      -2.70787,  -93.9540E-03,            0.,NA,NA,"",   546.398E-03,  -449.386E-03,  -310.809E-03,   207.413E-06
C:/temp/dataset/4/17_05.odb,Step-1,Increment      1: Step Time =    1.000,"PART-1-1",           702,       8.06015,      -13.0184,            0.,NA,NA,"",   173.083E-03,  -169.881E-03,  -33.1391E-03,   1.69042E-03
C:/temp/dataset/4/17_05.odb,Step-1,Increment      1: Step Time =    1.000,"PART-1-1",           703,       7.99745,      -10.7906,            0.,NA,NA,"",   214.455E-03,  -211.135E-03,  -37.5906E-03,   1.57396E-03
C:/temp/dataset/4/17_05.odb,Step-1,Increment      1: Step Time =    1.000,"PART-1-1",           704,           15.,        -26.25,            0.,NA,NA,"",   28.2308E-03,  -16.7496E-03,   22.7250E-03,   6.39132E-03
C:/temp/dataset/4/17_05.odb,Step-1,Increment      1: Step Time =    1.000,"PART-1-1",           705,       13.9776,      -24.8045,            0.,NA,NA,"",   33.1680E-03,  -23.0111E-03,   23.8873E-03,   4.93178E-03
C:/temp/dataset/4/17_05.odb,Step-1,Increment      1: Step Time =    1.000,"PART-1-1",           706,       12.6094,      -25.9010,            0.,NA,NA,"",   17.9488E-03,  -13.3845E-03,   11.9588E-03,   3.42569E-03
C:/temp/dataset/4/17_05.odb,Step-1,Increment      1: Step Time =    1.000,"PART-1-1",           707,       12.0224,      -24.3398,            0.,NA,NA,"",   26.3285E-03,  -23.0153E-03,   12.7862E-03,   2.64966E-03
C:/temp/dataset/4/17_05.odb,Step-1,Increment      1: Step Time =    1.000,"PART-1-1",           708,       13.0263,      -23.4242,            0.,NA,NA,"",   38.8611E-03,  -31.7771E-03,   22.3697E-03,   3.66026E-03
C:/temp/dataset/4/17_05.odb,Step-1,Increment      1: Step Time =    1.000,"PART-1-1",           709,       12.1300,      -22.1112,            0.,NA,NA,"",   46.4426E-03,  -42.6070E-03,   18.4813E-03,   2.52153E-03
C:/temp/dataset/4/17_05.odb,Step-1,Increment      1: Step Time =    1.000,"PART-1-1",           710,           15.,        -23.75,            0.,NA,NA,"",   49.3732E-03,  -33.3996E-03,   36.3618E-03,   5.93464E-03
C:/temp/dataset/4/17_05.odb,Step-1,Increment      1: Step Time =    1.000,"PART-1-1",           711,       10.9035,      -9.09896,            0.,NA,NA,"",   245.284E-03,  -244.785E-03,   15.6401E-03,   1.06352E-03
C:/temp/dataset/4/17_05.odb,Step-1,Increment      1: Step Time =    1.000,"PART-1-1",           712,       9.82794,      -8.10226,            0.,NA,NA,"",   265.038E-03,  -264.989E-03,  -5.13863E-03,   826.300E-06
C:/temp/dataset/4/17_05.odb,Step-1,Increment      1: Step Time =    1.000,"PART-1-1",           713,       8.90728,      -9.48784,            0.,NA,NA,"",   237.530E-03,  -236.492E-03,  -22.1753E-03,   1.02512E-03
C:/temp/dataset/4/17_05.odb,Step-1,Increment      1: Step Time =    1.000,"PART-1-1",           714,           15.,         -1.25,            0.,NA,NA,"",   437.466E-03,  -423.470E-03,   109.770E-03,   1.17860E-03
C:/temp/dataset/4/17_05.odb,Step-1,Increment      1: Step Time =    1.000,"PART-1-1",           715,       12.7555,      -1.12336,            0.,NA,NA,"",   428.962E-03,  -424.968E-03,   58.4011E-03,   1.09792E-03
C:/temp/dataset/4/17_05.odb,Step-1,Increment      1: Step Time =    1.000,"PART-1-1",           716,       11.5680,       5.48707,            0.,NA,NA,"",   582.547E-03,  -581.744E-03,   30.5802E-03,   221.434E-06
C:/temp/dataset/4/17_05.odb,Step-1,Increment      1: Step Time =    1.000,"PART-1-1",           717,       10.1222,       4.29256,            0.,NA,NA,"",   553.600E-03,  -553.596E-03,  -2.27384E-03,   535.764E-06
C:/temp/dataset/4/17_05.odb,Step-1,Increment      1: Step Time =    1.000,"PART-1-1",           718,       8.27918,   509.070E-03,            0.,NA,NA,"",   465.393E-03,  -463.502E-03,  -41.9150E-03,   1.23051E-03
C:/temp/dataset/4/17_05.odb,Step-1,Increment      1: Step Time =    1.000,"PART-1-1",           719,       9.70893,  -124.236E-03,            0.,NA,NA,"",   448.163E-03,  -448.061E-03,  -9.54324E-03,   1.21826E-03
C:/temp/dataset/4/17_05.odb,Step-1,Increment      1: Step Time =    1.000,"PART-1-1",           720,       8.75521,       2.13956,            0.,NA,NA,"",   503.705E-03,  -502.671E-03,  -32.2537E-03,   1.02724E-03
C:/temp/dataset/4/17_05.odb,Step-1,Increment      1: Step Time =    1.000,"PART-1-1",           721,       6.99874,       4.90963,            0.,NA,NA,"",   573.518E-03,  -568.655E-03,  -74.5232E-03,   762.351E-06
C:/temp/dataset/4/17_05.odb,Step-1,Increment      1: Step Time =    1.000,"PART-1-1",           722,       8.01086,       5.41567,            0.,NA,NA,"",   582.343E-03,  -580.065E-03,  -51.4586E-03,   519.960E-06
C:/temp/dataset/4/17_05.odb,Step-1,Increment      1: Step Time =    1.000,"PART-1-1",           723,       11.8045,       7.99587,            0.,NA,NA,"",   641.229E-03,  -640.255E-03,   35.3278E-03,   34.2971E-06
C:/temp/dataset/4/17_05.odb,Step-1,Increment      1: Step Time =    1.000,"PART-1-1",           724,       7.91904,       10.9856,            0.,NA,NA,"",   710.559E-03,  -708.405E-03,  -55.2934E-03,   27.7947E-06
C:/temp/dataset/4/17_05.odb,Step-1,Increment      1: Step Time =    1.000,"PART-1-1",           725,       11.0233,       18.7016,            0.,NA,NA,"",   887.787E-03,  -887.670E-03,   14.4620E-03,   1.98918E-06
C:/temp/dataset/4/17_05.odb,Step-1,Increment      1: Step Time =    1.000,"PART-1-1",           726,       10.0074,       19.8076,            0.,NA,NA,"",   913.017E-03,  -912.970E-03,  -9.32264E-03,   770.372E-09
C:/temp/dataset/4/17_05.odb,Step-1,Increment      1: Step Time =    1.000,"PART-1-1",           727,       10.9673,       21.0105,            0.,NA,NA,"",   941.124E-03,  -941.041E-03,   12.5496E-03,   441.835E-09
C:/temp/dataset/4/17_05.odb,Step-1,Increment      1: Step Time =    1.000,"PART-1-1",           728,       8.97465,       20.8454,            0.,NA,NA,"",   937.287E-03,  -936.689E-03,  -33.4800E-03,   499.013E-09
C:/temp/dataset/4/17_05.odb,Step-1,Increment      1: Step Time =    1.000,"PART-1-1",           729,       8.66510,       24.8184,            0.,NA,NA,"",       1.02931,      -1.02847,  -41.6997E-03,   67.8550E-09
C:/temp/dataset/4/17_05.odb,Step-1,Increment      1: Step Time =    1.000,"PART-1-1",           730,       7.98376,       13.1681,            0.,NA,NA,"",   760.832E-03,  -758.888E-03,  -54.3555E-03,   16.6993E-06
C:/temp/dataset/4/17_05.odb,Step-1,Increment      1: Step Time =    1.000,"PART-1-1",           731,      -1.95806,       1.80915,            0.,NA,NA,"",   578.288E-03,  -499.178E-03,  -291.956E-03,   821.846E-06
C:/temp/dataset/4/17_05.odb,Step-1,Increment      1: Step Time =    1.000,"PART-1-1",           732,  -613.587E-03,   828.335E-03,            0.,NA,NA,"",   538.576E-03,  -473.501E-03,  -256.633E-03,   486.256E-06
C:/temp/dataset/4/17_05.odb,Step-1,Increment      1: Step Time =    1.000,"PART-1-1",           733,   461.223E-03,       1.99751,            0.,NA,NA,"",   553.066E-03,  -503.020E-03,  -229.900E-03,   907.881E-06
C:/temp/dataset/4/17_05.odb,Step-1,Increment      1: Step Time =    1.000,"PART-1-1",           734,       1.74006,       1.04512,            0.,NA,NA,"",   517.573E-03,  -478.586E-03,  -197.071E-03,   623.438E-06
C:/temp/dataset/4/17_05.odb,Step-1,Increment      1: Step Time =    1.000,"PART-1-1",           735,   906.022E-03,  -39.5003E-03,            0.,NA,NA,"",   501.010E-03,  -451.365E-03,  -217.442E-03,   272.803E-06
C:/temp/dataset/4/17_05.odb,Step-1,Increment      1: Step Time =    1.000,"PART-1-1",           736,       2.15034,  -968.542E-03,            0.,NA,NA,"",   466.749E-03,  -428.189E-03,  -185.763E-03,   162.483E-06
C:/temp/dataset/4/17_05.odb,Step-1,Increment      1: Step Time =    1.000,"PART-1-1",           737,       2.98438,   116.081E-03,            0.,NA,NA,"",   484.458E-03,  -455.252E-03,  -165.667E-03,   466.735E-06
C:/temp/dataset/4/17_05.odb,Step-1,Increment      1: Step Time =    1.000,"PART-1-1",           738,      -8.25937,       5.01848,            0.,NA,NA,"",   751.014E-03,  -589.546E-03,  -465.249E-03,   675.021E-06
C:/temp/dataset/4/17_05.odb,Step-1,Increment      1: Step Time =    1.000,"PART-1-1",           739,      -2.78312,       1.01462,            0.,NA,NA,"",   571.848E-03,  -478.471E-03,  -313.170E-03,   421.203E-06
C:/temp/dataset/4/17_05.odb,Step-1,Increment      1: Step Time =    1.000,"PART-1-1",           740,      -4.31499,   913.536E-03,            0.,NA,NA,"",   592.983E-03,  -475.739E-03,  -353.979E-03,   383.571E-06
C:/temp/dataset/4/17_05.odb,Step-1,Increment      1: Step Time =    1.000,"PART-1-1",           741,      -4.23975,  -195.042E-03,            0.,NA,NA,"",   568.150E-03,  -446.268E-03,  -351.623E-03,   290.905E-06
C:/temp/dataset/4/17_05.odb,Step-1,Increment      1: Step Time =    1.000,"PART-1-1",           742,      -8.52646,       20.5688,            0.,NA,NA,"",       1.13737,      -1.03193,  -478.269E-03,   4.85747E-06
C:/temp/dataset/4/17_05.odb,Step-1,Increment      1: Step Time =    1.000,"PART-1-1",           743,       8.09873,      -15.2435,            0.,NA,NA,"",   135.331E-03,  -132.188E-03,  -28.9955E-03,   1.80612E-03
C:/temp/dataset/4/17_05.odb,Step-1,Increment      1: Step Time =    1.000,"PART-1-1",           744,       8.99676,       14.2096,            0.,NA,NA,"",   783.875E-03,  -783.253E-03,  -31.2140E-03,   14.4283E-06
C:/temp/dataset/4/17_05.odb,Step-1,Increment      1: Step Time =    1.000,"PART-1-1",           745,       11.0169,       14.0599,            0.,NA,NA,"",   780.507E-03,  -780.352E-03,   15.5359E-03,   14.5207E-06
C:/temp/dataset/4/17_05.odb,Step-1,Increment      1: Step Time =    1.000,"PART-1-1",           746,      -7.91902,       15.6847,            0.,NA,NA,"",       1.00496,  -893.963E-03,  -459.102E-03,   10.9357E-06
C:/temp/dataset/4/17_05.odb,Step-1,Increment      1: Step Time =    1.000,"PART-1-1",           747,      -11.9968,       14.1876,            0.,NA,NA,"",       1.02555,  -849.923E-03,  -573.910E-03,   15.5873E-06
C:/temp/dataset/4/17_05.odb,Step-1,Increment      1: Step Time =    1.000,"PART-1-1",           748,      -11.1175,       8.79310,            0.,NA,NA,"",   885.945E-03,  -696.902E-03,  -547.016E-03,   284.193E-06
C:/temp/dataset/4/17_05.odb,Step-1,Increment      1: Step Time =    1.000,"PART-1-1",           749,       10.6592,      -6.44981,            0.,NA,NA,"",   301.008E-03,  -300.788E-03,   11.5217E-03,   1.14188E-03
C:/temp/dataset/4/17_05.odb,Step-1,Increment      1: Step Time =    1.000,"PART-1-1",           750,      -10.7894,       23.3985,            0.,NA,NA,"",       1.23689,      -1.11111,  -543.446E-03,   1.59986E-06
C:/temp/dataset/4/17_05.odb,Step-1,Increment      1: Step Time =    1.000,"PART-1-1",           751,       10.0228,      -25.8019,            0.,NA,NA,"",   11.9439E-03,  -11.9432E-03,   131.696E-06,   857.381E-06
C:/temp/dataset/4/17_05.odb,Step-1,Increment      1: Step Time =    1.000,"PART-1-1",           752,       10.9542,      -24.8826,            0.,NA,NA,"",   18.9381E-03,  -18.1454E-03,   5.42187E-03,   1.45808E-03
C:/temp/dataset/4/17_05.odb,Step-1,Increment      1: Step Time =    1.000,"PART-1-1",           753,       11.8371,      -2.37854,            0.,NA,NA,"",   396.517E-03,  -394.725E-03,   37.6552E-03,   1.25332E-03
C:/temp/dataset/4/17_05.odb,Step-1,Increment      1: Step Time =    1.000,"PART-1-1",           754,       11.6235,      -5.02753,            0.,NA,NA,"",   334.665E-03,  -333.128E-03,   32.0342E-03,   1.32738E-03
C:/temp/dataset/4/17_05.odb,Step-1,Increment      1: Step Time =    1.000,"PART-1-1",           755,      -12.1333,       7.86930,            0.,NA,NA,"",   883.107E-03,  -670.099E-03,  -575.191E-03,   286.904E-06
C:/temp/dataset/4/17_05.odb,Step-1,Increment      1: Step Time =    1.000,"PART-1-1",           756,      -12.0768,       9.95169,            0.,NA,NA,"",   928.599E-03,  -729.546E-03,  -574.508E-03,   183.622E-06
C:/temp/dataset/4/17_05.odb,Step-1,Increment      1: Step Time =    1.000,"PART-1-1",           757,       8.68743,       3.64563,            0.,NA,NA,"",   539.684E-03,  -538.560E-03,  -34.8068E-03,   779.766E-06
C:/temp/dataset/4/17_05.odb,Step-1,Increment      1: Step Time =    1.000,"PART-1-1",           758,       6.61848,       3.66599,            0.,NA,NA,"",   546.195E-03,  -539.961E-03,  -82.2821E-03,   1.04249E-03
C:/temp/dataset/4/17_05.odb,Step-1,Increment      1: Step Time =    1.000,"PART-1-1",           759,       4.71579,   65.6079E-03,            0.,NA,NA,"",   470.294E-03,  -453.725E-03,  -123.731E-03,   785.509E-06
C:/temp/dataset/4/17_05.odb,Step-1,Increment      1: Step Time =    1.000,"PART-1-1",           760,       3.89104,   957.250E-03,            0.,NA,NA,"",   497.198E-03,  -475.833E-03,  -144.181E-03,   749.916E-06
C:/temp/dataset/4/17_05.odb,Step-1,Increment      1: Step Time =    1.000,"PART-1-1",           761,      -12.0363,       12.0623,            0.,NA,NA,"",   976.319E-03,  -789.621E-03,  -574.193E-03,   75.0651E-06
C:/temp/dataset/4/17_05.odb,Step-1,Increment      1: Step Time =    1.000,"PART-1-1",           762,      -12.1964,       5.82098,            0.,NA,NA,"",   840.139E-03,  -611.716E-03,  -575.879E-03,   321.453E-06
C:/temp/dataset/4/17_05.odb,Step-1,Increment      1: Step Time =    1.000,"PART-1-1",           763,      -11.2570,       4.81016,            0.,NA,NA,"",   800.971E-03,  -583.274E-03,  -548.950E-03,   320.364E-06
C:/temp/dataset/4/17_05.odb,Step-1,Increment      1: Step Time =    1.000,"PART-1-1",           764,      -10.5260,       3.94381,            0.,NA,NA,"",   768.857E-03,  -558.939E-03,  -527.947E-03,   374.461E-06
C:/temp/dataset/4/17_05.odb,Step-1,Increment      1: Step Time =    1.000,"PART-1-1",           765,      -9.56326,       4.76486,            0.,NA,NA,"",   768.469E-03,  -582.233E-03,  -501.547E-03,   434.130E-06
C:/temp/dataset/4/17_05.odb,Step-1,Increment      1: Step Time =    1.000,"PART-1-1",           766,      -9.32737,       3.44699,            0.,NA,NA,"",   735.645E-03,  -545.037E-03,  -494.073E-03,   455.893E-06
C:/temp/dataset/4/17_05.odb,Step-1,Increment      1: Step Time =    1.000,"PART-1-1",           767,       11.5413,      -26.4438,            0.,NA,NA,"",   11.0390E-03,  -9.21214E-03,   6.08251E-03,   2.14873E-03
C:/temp/dataset/4/17_05.odb,Step-1,Increment      1: Step Time =    1.000,"PART-1-1",           768,       5.97241,      -3.36228,            0.,NA,NA,"",   381.199E-03,  -370.252E-03,  -90.6980E-03,   1.23911E-03
C:/temp/dataset/4/17_05.odb,Step-1,Increment      1: Step Time =    1.000,"PART-1-1",           769,       11.9304,       22.2704,            0.,NA,NA,"",   971.042E-03,  -970.429E-03,   34.4814E-03,   63.7346E-09
C:/temp/dataset/4/17_05.odb,Step-1,Increment      1: Step Time =    1.000,"PART-1-1",           770,      -3.95064,       2.12654,            0.,NA,NA,"",   613.957E-03,  -508.080E-03,  -344.671E-03,   614.378E-06
C:/temp/dataset/4/17_05.odb,Step-1,Increment      1: Step Time =    1.000,"PART-1-1",           771,       12.1361,      -19.7979,            0.,NA,NA,"",   72.0297E-03,  -68.1640E-03,   23.2798E-03,   2.34566E-03
C:/temp/dataset/4/17_05.odb,Step-1,Increment      1: Step Time =    1.000,"PART-1-1",           772,       12.1156,      -17.4436,            0.,NA,NA,"",   103.034E-03,  -99.3350E-03,   27.3607E-03,   2.14123E-03
C:/temp/dataset/4/17_05.odb,Step-1,Increment      1: Step Time =    1.000,"PART-1-1",           773,       11.8489,      -7.73518,            0.,NA,NA,"",   275.999E-03,  -273.783E-03,   34.8991E-03,   1.38067E-03
C:/temp/dataset/4/17_05.odb,Step-1,Increment      1: Step Time =    1.000,"PART-1-1",           774,       11.9658,      -10.2357,            0.,NA,NA,"",   225.393E-03,  -222.681E-03,   34.8621E-03,   1.52844E-03
C:/temp/dataset/4/17_05.odb,Step-1,Increment      1: Step Time =    1.000,"PART-1-1",           775,       10.7237,      -1.11081,            0.,NA,NA,"",   424.691E-03,  -424.485E-03,   13.2449E-03,   1.22537E-03
C:/temp/dataset/4/17_05.odb,Step-1,Increment      1: Step Time =    1.000,"PART-1-1",           776,       11.9194,       10.4262,            0.,NA,NA,"",   697.583E-03,  -696.582E-03,   37.3514E-03,   25.1085E-06
C:/temp/dataset/4/17_05.odb,Step-1,Increment      1: Step Time =    1.000,"PART-1-1",           777,       11.9945,       12.8006,            0.,NA,NA,"",   752.494E-03,  -751.510E-03,   38.4782E-03,   17.4699E-06
C:/temp/dataset/4/17_05.odb,Step-1,Increment      1: Step Time =    1.000,"PART-1-1",           778,       12.0317,      -12.6649,            0.,NA,NA,"",   179.950E-03,  -176.853E-03,   33.2401E-03,   1.72233E-03
C:/temp/dataset/4/17_05.odb,Step-1,Increment      1: Step Time =    1.000,"PART-1-1",           779,       12.0352,       15.1685,            0.,NA,NA,"",   807.191E-03,  -806.258E-03,   38.7979E-03,   7.85602E-06
C:/temp/dataset/4/17_05.odb,Step-1,Increment      1: Step Time =    1.000,"PART-1-1",           780,      -7.80161,      -2.23284,            0.,NA,NA,"",   594.437E-03,  -389.903E-03,  -448.699E-03,   467.663E-06
C:/temp/dataset/4/17_05.odb,Step-1,Increment      1: Step Time =    1.000,"PART-1-1",           781,      -8.87876,  -905.543E-03,            0.,NA,NA,"",   640.716E-03,  -425.416E-03,  -479.101E-03,   462.082E-06
C:/temp/dataset/4/17_05.odb,Step-1,Increment      1: Step Time =    1.000,"PART-1-1",           782,      -7.16649,      -1.00336,            0.,NA,NA,"",   604.543E-03,  -423.465E-03,  -431.450E-03,   472.498E-06
C:/temp/dataset/4/17_05.odb,Step-1,Increment      1: Step Time =    1.000,"PART-1-1",           783,      -7.09692,   257.153E-03,            0.,NA,NA,"",   627.839E-03,  -457.508E-03,  -429.963E-03,   472.125E-06
C:/temp/dataset/4/17_05.odb,Step-1,Increment      1: Step Time =    1.000,"PART-1-1",           784,      -5.74923,      -1.63131,            0.,NA,NA,"",   565.484E-03,  -407.291E-03,  -392.283E-03,   438.801E-06
C:/temp/dataset/4/17_05.odb,Step-1,Increment      1: Step Time =    1.000,"PART-1-1",           785,      -5.66693,  -67.3201E-03,            0.,NA,NA,"",   595.144E-03,  -449.188E-03,  -390.419E-03,   417.813E-06
C:/temp/dataset/4/17_05.odb,Step-1,Increment      1: Step Time =    1.000,"PART-1-1",           786,      -5.46941,       1.35113,            0.,NA,NA,"",   621.319E-03,  -487.294E-03,  -385.462E-03,   506.970E-06
C:/temp/dataset/4/17_05.odb,Step-1,Increment      1: Step Time =    1.000,"PART-1-1",           787,       12.0849,      -15.0650,            0.,NA,NA,"",   139.131E-03,  -135.686E-03,   30.7722E-03,   1.93533E-03
C:/temp/dataset/4/17_05.odb,Step-1,Increment      1: Step Time =    1.000,"PART-1-1",           788,       7.01212,      -4.44648,            0.,NA,NA,"",   351.033E-03,  -344.756E-03,  -66.0846E-03,   1.19532E-03
C:/temp/dataset/4/17_05.odb,Step-1,Increment      1: Step Time =    1.000,"PART-1-1",           789,       7.64174,      -3.33281,            0.,NA,NA,"",   374.789E-03,  -370.980E-03,  -53.2976E-03,   1.29829E-03
C:/temp/dataset/4/17_05.odb,Step-1,Increment      1: Step Time =    1.000,"PART-1-1",           790,       6.60203,      -2.24861,            0.,NA,NA,"",   404.482E-03,  -396.982E-03,  -77.5312E-03,   1.20320E-03
C:/temp/dataset/4/17_05.odb,Step-1,Increment      1: Step Time =    1.000,"PART-1-1",           791,       6.68626,       2.15992,            0.,NA,NA,"",   510.173E-03,  -503.946E-03,  -79.4701E-03,   1.14744E-03
C:/temp/dataset/4/17_05.odb,Step-1,Increment      1: Step Time =    1.000,"PART-1-1",           792,       12.0103,       19.9021,            0.,NA,NA,"",   916.437E-03,  -915.691E-03,   36.9623E-03,   592.638E-09
C:/temp/dataset/4/17_05.odb,Step-1,Increment      1: Step Time =    1.000,"PART-1-1",           793,       12.0305,       17.5416,            0.,NA,NA,"",   861.960E-03,  -861.120E-03,   38.0601E-03,   2.59703E-06
C:/temp/dataset/4/17_05.odb,Step-1,Increment      1: Step Time =    1.000,"PART-1-1",           794,       6.09271,      -1.14349,            0.,NA,NA,"",   433.420E-03,  -423.901E-03,  -90.3375E-03,   1.06905E-03
C:/temp/dataset/4/17_05.odb,Step-1,Increment      1: Step Time =    1.000,"PART-1-1",           795,       7.56053,      -1.65505,            0.,NA,NA,"",   415.077E-03,  -411.220E-03,  -56.4520E-03,   1.32438E-03
C:/temp/dataset/4/17_05.odb,Step-1,Increment      1: Step Time =    1.000,"PART-1-1",           796,       7.05122,  -549.935E-03,            0.,NA,NA,"",   443.491E-03,  -438.109E-03,  -68.8829E-03,   1.23666E-03
C:/temp/dataset/4/17_05.odb,Step-1,Increment      1: Step Time =    1.000,"PART-1-1",           797,       5.28588,       1.87348,            0.,NA,NA,"",   510.078E-03,  -497.693E-03,  -111.717E-03,   994.844E-06
C:/temp/dataset/4/17_05.odb,Step-1,Increment      1: Step Time =    1.000,"PART-1-1",           798,       5.70847,   325.226E-03,            0.,NA,NA,"",   470.664E-03,  -459.796E-03,  -100.560E-03,   1.03220E-03
C:/temp/dataset/4/17_05.odb,Step-1,Increment      1: Step Time =    1.000,"PART-1-1",           799,       7.10885,   611.668E-03,            0.,NA,NA,"",   471.313E-03,  -466.304E-03,  -68.5273E-03,   1.17842E-03
C:/temp/dataset/4/17_05.odb,Step-1,Increment      1: Step Time =    1.000,"PART-1-1",           800,       9.00326,      -1.31280,            0.,NA,NA,"",   420.132E-03,  -419.409E-03,  -24.6280E-03,   1.32865E-03
C:/temp/dataset/4/17_05.odb,Step-1,Increment      1: Step Time =    1.000,"PART-1-1",           801,       8.22155,  -652.532E-03,            0.,NA,NA,"",   437.454E-03,  -435.394E-03,  -42.4069E-03,   1.29757E-03
C:/temp/dataset/4/17_05.odb,Step-1,Increment      1: Step Time =    1.000,"PART-1-1",           802,       8.34224,      -2.31533,            0.,NA,NA,"",   397.185E-03,  -395.302E-03,  -38.6204E-03,   1.33661E-03
C:/temp/dataset/4/17_05.odb,Step-1,Increment      1: Step Time =    1.000,"PART-1-1",           803,       2.82445,       2.06443,            0.,NA,NA,"",   531.742E-03,  -503.522E-03,  -170.923E-03,   919.246E-06
