ODB Name,Step,Frame,Part Instance Name,    êﬂì_ÉâÉxÉã,X,Y,Z,Section Name,Material Name,Section Point,   U-Magnitude,          U-U1,          U-U2,       S-Mises
C:/temp/dataset/4/18_4.odb,Step-1,Increment      1: Step Time =    1.000,"PART-1-1",             1,           -5.,           30.,            0.,NA,NA,"",       3.84922,      -3.58790,      -1.39408,   1.37793E-09
C:/temp/dataset/4/18_4.odb,Step-1,Increment      1: Step Time =    1.000,"PART-1-1",             2,          -15.,           30.,            0.,NA,NA,"",       4.19258,      -3.55330,      -2.22526,   1.33276E-09
C:/temp/dataset/4/18_4.odb,Step-1,Increment      1: Step Time =    1.000,"PART-1-1",             3,          -15.,         21.25,            0.,NA,NA,"",       3.57831,      -2.82602,      -2.19498,   348.201E-09
C:/temp/dataset/4/18_4.odb,Step-1,Increment      1: Step Time =    1.000,"PART-1-1",             4,          -15.,          12.5,            0.,NA,NA,"",       3.01508,      -2.09877,      -2.16470,   692.751E-09
C:/temp/dataset/4/18_4.odb,Step-1,Increment      1: Step Time =    1.000,"PART-1-1",             5,          -15.,          3.75,            0.,NA,NA,"",       2.53754,      -1.37142,      -2.13503,   219.528E-06
C:/temp/dataset/4/18_4.odb,Step-1,Increment      1: Step Time =    1.000,"PART-1-1",             6,          -15.,           -5.,            0.,NA,NA,"",       2.20076,  -640.276E-03,      -2.10556,   13.7703E-06
C:/temp/dataset/4/18_4.odb,Step-1,Increment      1: Step Time =    1.000,"PART-1-1",             7,          -10.,           -5.,            0.,NA,NA,"",       1.81108,  -657.388E-03,      -1.68755,   262.416E-06
C:/temp/dataset/4/18_4.odb,Step-1,Increment      1: Step Time =    1.000,"PART-1-1",             8,           -5.,           -5.,            0.,NA,NA,"",       1.43445,  -673.317E-03,      -1.26661,   317.087E-06
C:/temp/dataset/4/18_4.odb,Step-1,Increment      1: Step Time =    1.000,"PART-1-1",             9,            0.,           -5.,            0.,NA,NA,"",       1.08786,  -694.398E-03,  -837.411E-03,   1.87302E-03
C:/temp/dataset/4/18_4.odb,Step-1,Increment      1: Step Time =    1.000,"PART-1-1",            10,            5.,           -5.,            0.,NA,NA,"",   836.605E-03,  -743.606E-03,  -383.351E-03,   25.1623E-03
C:/temp/dataset/4/18_4.odb,Step-1,Increment      1: Step Time =    1.000,"PART-1-1",            11,            5.,        -11.25,            0.,NA,NA,"",   508.634E-03,  -429.875E-03,  -271.875E-03,   16.4243E-03
C:/temp/dataset/4/18_4.odb,Step-1,Increment      1: Step Time =    1.000,"PART-1-1",            12,            5.,         -17.5,            0.,NA,NA,"",   261.592E-03,  -193.826E-03,  -175.677E-03,   16.2178E-03
C:/temp/dataset/4/18_4.odb,Step-1,Increment      1: Step Time =    1.000,"PART-1-1",            13,            5.,        -23.75,            0.,NA,NA,"",   101.587E-03,  -56.5445E-03,  -84.3954E-03,   15.6691E-03
C:/temp/dataset/4/18_4.odb,Step-1,Increment      1: Step Time =    1.000,"PART-1-1",            14,            5.,          -30.,            0.,NA,NA,"",            0.,  -4.51832E-39,  -8.65762E-39,   16.9027E-03
C:/temp/dataset/4/18_4.odb,Step-1,Increment      1: Step Time =    1.000,"PART-1-1",            15,           15.,          -30.,            0.,NA,NA,"",            0.,  -2.88011E-39,   5.83306E-39,   11.0552E-03
C:/temp/dataset/4/18_4.odb,Step-1,Increment      1: Step Time =    1.000,"PART-1-1",            16,           15.,         -22.5,            0.,NA,NA,"",   103.131E-03,  -69.3322E-03,   76.3478E-03,   12.0738E-03
C:/temp/dataset/4/18_4.odb,Step-1,Increment      1: Step Time =    1.000,"PART-1-1",            17,           15.,          -15.,            0.,NA,NA,"",   316.164E-03,  -274.759E-03,   156.420E-03,   12.5957E-03
C:/temp/dataset/4/18_4.odb,Step-1,Increment      1: Step Time =    1.000,"PART-1-1",            18,           15.,          -7.5,            0.,NA,NA,"",   673.470E-03,  -631.349E-03,   234.437E-03,   12.6675E-03
C:/temp/dataset/4/18_4.odb,Step-1,Increment      1: Step Time =    1.000,"PART-1-1",            19,           15.,            0.,            0.,NA,NA,"",       1.17469,      -1.14045,   281.572E-03,   4.92019E-03
C:/temp/dataset/4/18_4.odb,Step-1,Increment      1: Step Time =    1.000,"PART-1-1",            20,           15.,           7.5,            0.,NA,NA,"",       1.72146,      -1.70010,   270.348E-03,   243.950E-06
C:/temp/dataset/4/18_4.odb,Step-1,Increment      1: Step Time =    1.000,"PART-1-1",            21,           15.,           15.,            0.,NA,NA,"",       2.26249,      -2.24873,   249.168E-03,   32.6830E-06
C:/temp/dataset/4/18_4.odb,Step-1,Increment      1: Step Time =    1.000,"PART-1-1",            22,           15.,          22.5,            0.,NA,NA,"",       2.80542,      -2.79605,   229.128E-03,   949.604E-09
C:/temp/dataset/4/18_4.odb,Step-1,Increment      1: Step Time =    1.000,"PART-1-1",            23,           15.,           30.,            0.,NA,NA,"",       3.34996,      -3.34342,   209.129E-03,   22.0362E-09
C:/temp/dataset/4/18_4.odb,Step-1,Increment      1: Step Time =    1.000,"PART-1-1",            24,            5.,           30.,            0.,NA,NA,"",       3.35738,      -3.31675,  -520.706E-03,   14.8354E-09
C:/temp/dataset/4/18_4.odb,Step-1,Increment      1: Step Time =    1.000,"PART-1-1",            25,            5.,         23.75,            0.,NA,NA,"",       2.90467,      -2.86061,  -504.040E-03,   735.905E-09
C:/temp/dataset/4/18_4.odb,Step-1,Increment      1: Step Time =    1.000,"PART-1-1",            26,            5.,          17.5,            0.,NA,NA,"",       2.45333,      -2.40443,  -487.367E-03,   7.11993E-06
C:/temp/dataset/4/18_4.odb,Step-1,Increment      1: Step Time =    1.000,"PART-1-1",            27,            5.,         11.25,            0.,NA,NA,"",       2.00431,      -1.94834,  -470.335E-03,   180.651E-06
C:/temp/dataset/4/18_4.odb,Step-1,Increment      1: Step Time =    1.000,"PART-1-1",            28,            5.,            5.,            0.,NA,NA,"",       1.57321,      -1.50609,  -454.640E-03,   8.56657E-03
C:/temp/dataset/4/18_4.odb,Step-1,Increment      1: Step Time =    1.000,"PART-1-1",            29,            0.,            5.,            0.,NA,NA,"",       1.75930,      -1.52224,  -881.989E-03,   4.29077E-03
C:/temp/dataset/4/18_4.odb,Step-1,Increment      1: Step Time =    1.000,"PART-1-1",            30,           -5.,            5.,            0.,NA,NA,"",       1.99820,      -1.50942,      -1.30937,   2.13512E-03
C:/temp/dataset/4/18_4.odb,Step-1,Increment      1: Step Time =    1.000,"PART-1-1",            31,           -5.,         11.25,            0.,NA,NA,"",       2.42593,      -2.02939,      -1.32918,   22.6268E-06
C:/temp/dataset/4/18_4.odb,Step-1,Increment      1: Step Time =    1.000,"PART-1-1",            32,           -5.,          17.5,            0.,NA,NA,"",       2.88475,      -2.54893,      -1.35083,   1.78212E-06
C:/temp/dataset/4/18_4.odb,Step-1,Increment      1: Step Time =    1.000,"PART-1-1",            33,           -5.,         23.75,            0.,NA,NA,"",       3.36137,      -3.06842,      -1.37246,   66.2200E-09
C:/temp/dataset/4/18_4.odb,Step-1,Increment      1: Step Time =    1.000,"PART-1-1",            34,          -7.5,           30.,            0.,NA,NA,"",       3.92136,      -3.57925,      -1.60188,   3.90066E-09
C:/temp/dataset/4/18_4.odb,Step-1,Increment      1: Step Time =    1.000,"PART-1-1",            35,          -10.,           30.,            0.,NA,NA,"",       4.00301,      -3.57060,      -1.80967,   4.27944E-09
C:/temp/dataset/4/18_4.odb,Step-1,Increment      1: Step Time =    1.000,"PART-1-1",            36,         -12.5,           30.,            0.,NA,NA,"",       4.09361,      -3.56195,      -2.01747,   3.41580E-09
C:/temp/dataset/4/18_4.odb,Step-1,Increment      1: Step Time =    1.000,"PART-1-1",            37,          -15.,       27.8125,            0.,NA,NA,"",       4.03547,      -3.37148,      -2.21769,   4.25710E-09
C:/temp/dataset/4/18_4.odb,Step-1,Increment      1: Step Time =    1.000,"PART-1-1",            38,          -15.,        25.625,            0.,NA,NA,"",       3.88054,      -3.18966,      -2.21012,   11.1541E-09
C:/temp/dataset/4/18_4.odb,Step-1,Increment      1: Step Time =    1.000,"PART-1-1",            39,          -15.,       23.4375,            0.,NA,NA,"",       3.72805,      -3.00784,      -2.20255,   74.2575E-09
C:/temp/dataset/4/18_4.odb,Step-1,Increment      1: Step Time =    1.000,"PART-1-1",            40,          -15.,       19.0625,            0.,NA,NA,"",       3.43170,      -2.64420,      -2.18741,   933.378E-09
C:/temp/dataset/4/18_4.odb,Step-1,Increment      1: Step Time =    1.000,"PART-1-1",            41,          -15.,        16.875,            0.,NA,NA,"",       3.28862,      -2.46238,      -2.17984,   2.00685E-06
C:/temp/dataset/4/18_4.odb,Step-1,Increment      1: Step Time =    1.000,"PART-1-1",            42,          -15.,       14.6875,            0.,NA,NA,"",       3.14956,      -2.28057,      -2.17227,   2.83684E-06
C:/temp/dataset/4/18_4.odb,Step-1,Increment      1: Step Time =    1.000,"PART-1-1",            43,          -15.,       10.3125,            0.,NA,NA,"",       2.88584,      -1.91699,      -2.15714,   15.1051E-06
C:/temp/dataset/4/18_4.odb,Step-1,Increment      1: Step Time =    1.000,"PART-1-1",            44,          -15.,         8.125,            0.,NA,NA,"",       2.76260,      -1.73523,      -2.14964,   58.6230E-06
C:/temp/dataset/4/18_4.odb,Step-1,Increment      1: Step Time =    1.000,"PART-1-1",            45,          -15.,        5.9375,            0.,NA,NA,"",       2.64620,      -1.55342,      -2.14225,   137.309E-06
C:/temp/dataset/4/18_4.odb,Step-1,Increment      1: Step Time =    1.000,"PART-1-1",            46,          -15.,        1.5625,            0.,NA,NA,"",       2.43757,      -1.18905,      -2.12789,   240.388E-06
C:/temp/dataset/4/18_4.odb,Step-1,Increment      1: Step Time =    1.000,"PART-1-1",            47,          -15.,     -625.E-03,            0.,NA,NA,"",       2.34729,      -1.00627,      -2.12066,   166.435E-06
C:/temp/dataset/4/18_4.odb,Step-1,Increment      1: Step Time =    1.000,"PART-1-1",            48,          -15.,       -2.8125,            0.,NA,NA,"",       2.26790,  -823.248E-03,      -2.11321,   49.0719E-06
C:/temp/dataset/4/18_4.odb,Step-1,Increment      1: Step Time =    1.000,"PART-1-1",            49,         -12.5,           -5.,            0.,NA,NA,"",       2.00454,  -648.996E-03,      -1.89657,   66.3773E-06
C:/temp/dataset/4/18_4.odb,Step-1,Increment      1: Step Time =    1.000,"PART-1-1",            50,          -7.5,           -5.,            0.,NA,NA,"",       1.62076,  -665.388E-03,      -1.47788,   455.029E-06
C:/temp/dataset/4/18_4.odb,Step-1,Increment      1: Step Time =    1.000,"PART-1-1",            51,          -2.5,           -5.,            0.,NA,NA,"",       1.25487,  -682.343E-03,      -1.05315,   557.128E-06
C:/temp/dataset/4/18_4.odb,Step-1,Increment      1: Step Time =    1.000,"PART-1-1",            52,           2.5,           -5.,            0.,NA,NA,"",   942.791E-03,  -710.708E-03,  -619.476E-03,   6.28829E-03
C:/temp/dataset/4/18_4.odb,Step-1,Increment      1: Step Time =    1.000,"PART-1-1",            53,            5.,      -7.08333,            0.,NA,NA,"",   721.129E-03,  -637.218E-03,  -337.610E-03,   19.6182E-03
C:/temp/dataset/4/18_4.odb,Step-1,Increment      1: Step Time =    1.000,"PART-1-1",            54,            5.,      -9.16667,            0.,NA,NA,"",   611.294E-03,  -529.782E-03,  -304.979E-03,   16.3033E-03
C:/temp/dataset/4/18_4.odb,Step-1,Increment      1: Step Time =    1.000,"PART-1-1",            55,            5.,      -13.3333,            0.,NA,NA,"",   415.963E-03,  -340.210E-03,  -239.336E-03,   16.3397E-03
C:/temp/dataset/4/18_4.odb,Step-1,Increment      1: Step Time =    1.000,"PART-1-1",            56,            5.,      -15.4167,            0.,NA,NA,"",   333.665E-03,  -261.497E-03,  -207.248E-03,   16.3180E-03
C:/temp/dataset/4/18_4.odb,Step-1,Increment      1: Step Time =    1.000,"PART-1-1",            57,            5.,      -19.5833,            0.,NA,NA,"",   199.365E-03,  -137.185E-03,  -144.660E-03,   16.0811E-03
C:/temp/dataset/4/18_4.odb,Step-1,Increment      1: Step Time =    1.000,"PART-1-1",            58,            5.,      -21.6667,            0.,NA,NA,"",   146.331E-03,  -91.4639E-03,  -114.224E-03,   15.8850E-03
C:/temp/dataset/4/18_4.odb,Step-1,Increment      1: Step Time =    1.000,"PART-1-1",            59,            5.,      -25.8333,            0.,NA,NA,"",   63.9500E-03,  -31.8837E-03,  -55.4350E-03,   15.0634E-03
C:/temp/dataset/4/18_4.odb,Step-1,Increment      1: Step Time =    1.000,"PART-1-1",            60,            5.,      -27.9167,            0.,NA,NA,"",   32.2356E-03,  -16.3528E-03,  -27.7798E-03,   15.4300E-03
C:/temp/dataset/4/18_4.odb,Step-1,Increment      1: Step Time =    1.000,"PART-1-1",            61,           7.5,          -30.,            0.,NA,NA,"",            0.,   1.22924E-39,  -19.3468E-39,   6.62660E-03
C:/temp/dataset/4/18_4.odb,Step-1,Increment      1: Step Time =    1.000,"PART-1-1",            62,           10.,          -30.,            0.,NA,NA,"",            0.,   3.06683E-39,  -3.27214E-39,   3.33161E-03
C:/temp/dataset/4/18_4.odb,Step-1,Increment      1: Step Time =    1.000,"PART-1-1",            63,          12.5,          -30.,            0.,NA,NA,"",            0.,  -1.32953E-39,   7.51943E-39,   4.35157E-03
C:/temp/dataset/4/18_4.odb,Step-1,Increment      1: Step Time =    1.000,"PART-1-1",            64,           15.,         -27.5,            0.,NA,NA,"",   26.7894E-03,  -12.1719E-03,   23.8645E-03,   11.7145E-03
C:/temp/dataset/4/18_4.odb,Step-1,Increment      1: Step Time =    1.000,"PART-1-1",            65,           15.,          -25.,            0.,NA,NA,"",   59.7274E-03,  -32.9250E-03,   49.8328E-03,   11.7622E-03
C:/temp/dataset/4/18_4.odb,Step-1,Increment      1: Step Time =    1.000,"PART-1-1",            66,           15.,          -20.,            0.,NA,NA,"",   159.417E-03,  -121.612E-03,   103.073E-03,   12.2138E-03
C:/temp/dataset/4/18_4.odb,Step-1,Increment      1: Step Time =    1.000,"PART-1-1",            67,           15.,         -17.5,            0.,NA,NA,"",   230.117E-03,  -190.030E-03,   129.779E-03,   12.3976E-03
C:/temp/dataset/4/18_4.odb,Step-1,Increment      1: Step Time =    1.000,"PART-1-1",            68,           15.,         -12.5,            0.,NA,NA,"",   418.249E-03,  -376.125E-03,   182.927E-03,   12.8229E-03
C:/temp/dataset/4/18_4.odb,Step-1,Increment      1: Step Time =    1.000,"PART-1-1",            69,           15.,          -10.,            0.,NA,NA,"",   537.103E-03,  -494.704E-03,   209.160E-03,   12.9864E-03
C:/temp/dataset/4/18_4.odb,Step-1,Increment      1: Step Time =    1.000,"PART-1-1",            70,           15.,           -5.,            0.,NA,NA,"",   827.288E-03,  -786.411E-03,   256.834E-03,   11.1870E-03
C:/temp/dataset/4/18_4.odb,Step-1,Increment      1: Step Time =    1.000,"PART-1-1",            71,           15.,          -2.5,            0.,NA,NA,"",   996.084E-03,  -957.859E-03,   273.292E-03,   8.35201E-03
C:/temp/dataset/4/18_4.odb,Step-1,Increment      1: Step Time =    1.000,"PART-1-1",            72,           15.,           2.5,            0.,NA,NA,"",       1.35735,      -1.32772,   282.063E-03,   2.03899E-03
C:/temp/dataset/4/18_4.odb,Step-1,Increment      1: Step Time =    1.000,"PART-1-1",            73,           15.,            5.,            0.,NA,NA,"",       1.54008,      -1.51490,   277.336E-03,   344.272E-06
C:/temp/dataset/4/18_4.odb,Step-1,Increment      1: Step Time =    1.000,"PART-1-1",            74,           15.,           10.,            0.,NA,NA,"",       1.90187,      -1.88359,   263.026E-03,   225.497E-06
C:/temp/dataset/4/18_4.odb,Step-1,Increment      1: Step Time =    1.000,"PART-1-1",            75,           15.,          12.5,            0.,NA,NA,"",       2.08207,      -2.06628,   255.978E-03,   104.174E-06
C:/temp/dataset/4/18_4.odb,Step-1,Increment      1: Step Time =    1.000,"PART-1-1",            76,           15.,          17.5,            0.,NA,NA,"",       2.44322,      -2.43116,   242.464E-03,   6.33128E-06
C:/temp/dataset/4/18_4.odb,Step-1,Increment      1: Step Time =    1.000,"PART-1-1",            77,           15.,           20.,            0.,NA,NA,"",       2.62421,      -2.61360,   235.793E-03,   500.868E-09
C:/temp/dataset/4/18_4.odb,Step-1,Increment      1: Step Time =    1.000,"PART-1-1",            78,           15.,           25.,            0.,NA,NA,"",       2.98680,      -2.97851,   222.463E-03,   497.634E-09
C:/temp/dataset/4/18_4.odb,Step-1,Increment      1: Step Time =    1.000,"PART-1-1",            79,           15.,          27.5,            0.,NA,NA,"",       3.16832,      -3.16096,   215.797E-03,   126.245E-09
C:/temp/dataset/4/18_4.odb,Step-1,Increment      1: Step Time =    1.000,"PART-1-1",            80,          12.5,           30.,            0.,NA,NA,"",       3.33686,      -3.33676,   26.6710E-03,   102.151E-09
C:/temp/dataset/4/18_4.odb,Step-1,Increment      1: Step Time =    1.000,"PART-1-1",            81,           10.,           30.,            0.,NA,NA,"",       3.33373,      -3.33009,  -155.788E-03,   204.303E-09
C:/temp/dataset/4/18_4.odb,Step-1,Increment      1: Step Time =    1.000,"PART-1-1",            82,           7.5,           30.,            0.,NA,NA,"",       3.34059,      -3.32342,  -338.247E-03,   104.209E-09
C:/temp/dataset/4/18_4.odb,Step-1,Increment      1: Step Time =    1.000,"PART-1-1",            83,            5.,       27.9167,            0.,NA,NA,"",       3.20636,      -3.16471,  -515.150E-03,   85.8929E-09
C:/temp/dataset/4/18_4.odb,Step-1,Increment      1: Step Time =    1.000,"PART-1-1",            84,            5.,       25.8333,            0.,NA,NA,"",       3.05545,      -3.01266,  -509.595E-03,   346.436E-09
C:/temp/dataset/4/18_4.odb,Step-1,Increment      1: Step Time =    1.000,"PART-1-1",            85,            5.,       21.6667,            0.,NA,NA,"",       2.75404,      -2.70855,  -498.485E-03,   935.453E-09
C:/temp/dataset/4/18_4.odb,Step-1,Increment      1: Step Time =    1.000,"PART-1-1",            86,            5.,       19.5833,            0.,NA,NA,"",       2.60359,      -2.55650,  -492.930E-03,   455.886E-09
C:/temp/dataset/4/18_4.odb,Step-1,Increment      1: Step Time =    1.000,"PART-1-1",            87,            5.,       15.4167,            0.,NA,NA,"",       2.30331,      -2.25236,  -481.782E-03,   26.8319E-06
C:/temp/dataset/4/18_4.odb,Step-1,Increment      1: Step Time =    1.000,"PART-1-1",            88,            5.,       13.3333,            0.,NA,NA,"",       2.15359,      -2.10030,  -476.129E-03,   86.1014E-06
C:/temp/dataset/4/18_4.odb,Step-1,Increment      1: Step Time =    1.000,"PART-1-1",            89,            5.,       9.16667,            0.,NA,NA,"",       1.85589,      -1.79688,  -464.282E-03,   487.786E-06
C:/temp/dataset/4/18_4.odb,Step-1,Increment      1: Step Time =    1.000,"PART-1-1",            90,            5.,       7.08333,            0.,NA,NA,"",       1.70960,      -1.64718,  -457.733E-03,   1.81778E-03
C:/temp/dataset/4/18_4.odb,Step-1,Increment      1: Step Time =    1.000,"PART-1-1",            91,           2.5,            5.,            0.,NA,NA,"",       1.65646,      -1.51872,  -661.329E-03,   7.74882E-03
C:/temp/dataset/4/18_4.odb,Step-1,Increment      1: Step Time =    1.000,"PART-1-1",            92,          -2.5,            5.,            0.,NA,NA,"",       1.87552,      -1.51680,      -1.10313,   4.47139E-03
C:/temp/dataset/4/18_4.odb,Step-1,Increment      1: Step Time =    1.000,"PART-1-1",            93,           -5.,       7.08333,            0.,NA,NA,"",       2.13551,      -1.68275,      -1.31483,   364.269E-06
C:/temp/dataset/4/18_4.odb,Step-1,Increment      1: Step Time =    1.000,"PART-1-1",            94,           -5.,       9.16667,            0.,NA,NA,"",       2.27881,      -1.85613,      -1.32203,   57.5126E-06
C:/temp/dataset/4/18_4.odb,Step-1,Increment      1: Step Time =    1.000,"PART-1-1",            95,           -5.,       13.3333,            0.,NA,NA,"",       2.57631,      -2.20259,      -1.33640,   6.51908E-06
C:/temp/dataset/4/18_4.odb,Step-1,Increment      1: Step Time =    1.000,"PART-1-1",            96,           -5.,       15.4167,            0.,NA,NA,"",       2.72939,      -2.37576,      -1.34361,   2.78290E-06
C:/temp/dataset/4/18_4.odb,Step-1,Increment      1: Step Time =    1.000,"PART-1-1",            97,           -5.,       19.5833,            0.,NA,NA,"",       3.04205,      -2.72209,      -1.35804,   708.028E-09
C:/temp/dataset/4/18_4.odb,Step-1,Increment      1: Step Time =    1.000,"PART-1-1",            98,           -5.,       21.6667,            0.,NA,NA,"",       3.20100,      -2.89525,      -1.36525,   265.522E-09
C:/temp/dataset/4/18_4.odb,Step-1,Increment      1: Step Time =    1.000,"PART-1-1",            99,           -5.,       25.8333,            0.,NA,NA,"",       3.52297,      -3.24158,      -1.37967,   9.58607E-09
C:/temp/dataset/4/18_4.odb,Step-1,Increment      1: Step Time =    1.000,"PART-1-1",           100,           -5.,       27.9167,            0.,NA,NA,"",       3.68563,      -3.41474,      -1.38688,   3.34842E-09
C:/temp/dataset/4/18_4.odb,Step-1,Increment      1: Step Time =    1.000,"PART-1-1",           101,       6.93475,       11.1046,            0.,NA,NA,"",       1.97047,      -1.94279,  -329.083E-03,   121.885E-06
C:/temp/dataset/4/18_4.odb,Step-1,Increment      1: Step Time =    1.000,"PART-1-1",           102,       7.10183,      -21.7370,            0.,NA,NA,"",   106.084E-03,  -78.2290E-03,  -71.6528E-03,   10.0224E-03
C:/temp/dataset/4/18_4.odb,Step-1,Increment      1: Step Time =    1.000,"PART-1-1",           103,      -7.18606,       25.6133,            0.,NA,NA,"",       3.57441,      -3.21573,      -1.56061,   48.2498E-09
C:/temp/dataset/4/18_4.odb,Step-1,Increment      1: Step Time =    1.000,"PART-1-1",           104,       7.08931,      -17.4629,            0.,NA,NA,"",   215.015E-03,  -183.443E-03,  -112.161E-03,   10.2215E-03
C:/temp/dataset/4/18_4.odb,Step-1,Increment      1: Step Time =    1.000,"PART-1-1",           105,       7.11844,      -23.8299,            0.,NA,NA,"",   68.0287E-03,  -43.4138E-03,  -52.3751E-03,   9.89456E-03
C:/temp/dataset/4/18_4.odb,Step-1,Increment      1: Step Time =    1.000,"PART-1-1",           106,       7.34845,      -27.9642,            0.,NA,NA,"",   15.4376E-03,  -4.61776E-03,  -14.7308E-03,   9.30345E-03
C:/temp/dataset/4/18_4.odb,Step-1,Increment      1: Step Time =    1.000,"PART-1-1",           107,       7.18399,      -25.9216,            0.,NA,NA,"",   37.9050E-03,  -18.9597E-03,  -32.8225E-03,   9.90950E-03
C:/temp/dataset/4/18_4.odb,Step-1,Increment      1: Step Time =    1.000,"PART-1-1",           108,       7.00226,      -10.9532,            0.,NA,NA,"",   470.064E-03,  -433.559E-03,  -181.623E-03,   10.6831E-03
C:/temp/dataset/4/18_4.odb,Step-1,Increment      1: Step Time =    1.000,"PART-1-1",           109,       6.93148,       25.8450,            0.,NA,NA,"",       3.04109,      -3.01866,  -368.659E-03,   301.376E-09
C:/temp/dataset/4/18_4.odb,Step-1,Increment      1: Step Time =    1.000,"PART-1-1",           110,       6.95256,       21.7727,            0.,NA,NA,"",       2.74472,      -2.72150,  -356.260E-03,   653.325E-09
C:/temp/dataset/4/18_4.odb,Step-1,Increment      1: Step Time =    1.000,"PART-1-1",           111,       6.99069,       19.6693,            0.,NA,NA,"",       2.59153,      -2.56808,  -347.867E-03,   3.99365E-06
C:/temp/dataset/4/18_4.odb,Step-1,Increment      1: Step Time =    1.000,"PART-1-1",           112,       6.98342,       13.2435,            0.,NA,NA,"",       2.12497,      -2.09899,  -331.252E-03,   74.6169E-06
C:/temp/dataset/4/18_4.odb,Step-1,Increment      1: Step Time =    1.000,"PART-1-1",           113,       6.84904,       8.98858,            0.,NA,NA,"",       1.81876,      -1.78861,  -329.785E-03,   234.525E-06
C:/temp/dataset/4/18_4.odb,Step-1,Increment      1: Step Time =    1.000,"PART-1-1",           114,      -7.00061,       11.3966,            0.,NA,NA,"",       2.52543,      -2.03466,      -1.49598,   25.5161E-06
C:/temp/dataset/4/18_4.odb,Step-1,Increment      1: Step Time =    1.000,"PART-1-1",           115,      -6.87185,       17.5946,            0.,NA,NA,"",       2.96216,      -2.55031,      -1.50674,   969.952E-09
C:/temp/dataset/4/18_4.odb,Step-1,Increment      1: Step Time =    1.000,"PART-1-1",           116,      -6.78696,       21.5686,            0.,NA,NA,"",       3.25426,      -2.88092,      -1.51344,   326.998E-09
C:/temp/dataset/4/18_4.odb,Step-1,Increment      1: Step Time =    1.000,"PART-1-1",           117,      -6.92081,       23.5666,            0.,NA,NA,"",       3.40980,      -3.04653,      -1.53148,   142.446E-09
C:/temp/dataset/4/18_4.odb,Step-1,Increment      1: Step Time =    1.000,"PART-1-1",           118,      -7.47694,       27.7553,            0.,NA,NA,"",       3.74778,      -3.39276,      -1.59219,   10.0277E-09
C:/temp/dataset/4/18_4.odb,Step-1,Increment      1: Step Time =    1.000,"PART-1-1",           119,       6.62973,      -6.72562,            0.,NA,NA,"",   697.447E-03,  -651.392E-03,  -249.240E-03,   13.0697E-03
C:/temp/dataset/4/18_4.odb,Step-1,Increment      1: Step Time =    1.000,"PART-1-1",           120,       7.00244,       17.5390,            0.,NA,NA,"",       2.43664,      -2.41261,  -341.327E-03,   13.5899E-06
C:/temp/dataset/4/18_4.odb,Step-1,Increment      1: Step Time =    1.000,"PART-1-1",           121,       7.05765,      -13.1226,            0.,NA,NA,"",   372.572E-03,  -338.123E-03,  -156.470E-03,   10.4789E-03
C:/temp/dataset/4/18_4.odb,Step-1,Increment      1: Step Time =    1.000,"PART-1-1",           122,      -6.97858,       13.4860,            0.,NA,NA,"",       2.67046,      -2.20843,      -1.50140,   6.43310E-06
C:/temp/dataset/4/18_4.odb,Step-1,Increment      1: Step Time =    1.000,"PART-1-1",           123,      -7.06135,       7.11796,            0.,NA,NA,"",       2.24188,      -1.67864,      -1.48600,   442.112E-06
C:/temp/dataset/4/18_4.odb,Step-1,Increment      1: Step Time =    1.000,"PART-1-1",           124,       6.87626,      -8.81940,            0.,NA,NA,"",   578.688E-03,  -538.541E-03,  -211.787E-03,   11.4634E-03
C:/temp/dataset/4/18_4.odb,Step-1,Increment      1: Step Time =    1.000,"PART-1-1",           125,       7.08495,      -15.2974,            0.,NA,NA,"",   287.402E-03,  -254.535E-03,  -133.461E-03,   10.3107E-03
C:/temp/dataset/4/18_4.odb,Step-1,Increment      1: Step Time =    1.000,"PART-1-1",           126,       7.00715,       15.3887,            0.,NA,NA,"",       2.28043,      -2.25565,  -335.243E-03,   36.7287E-06
C:/temp/dataset/4/18_4.odb,Step-1,Increment      1: Step Time =    1.000,"PART-1-1",           127,      -7.01992,       9.30136,            0.,NA,NA,"",       2.38372,      -1.86035,      -1.49037,   110.046E-06
C:/temp/dataset/4/18_4.odb,Step-1,Increment      1: Step Time =    1.000,"PART-1-1",           128,      -6.93369,       15.5639,            0.,NA,NA,"",       2.81696,      -2.38131,      -1.50485,   1.41568E-06
C:/temp/dataset/4/18_4.odb,Step-1,Increment      1: Step Time =    1.000,"PART-1-1",           129,      -6.79206,       19.5889,            0.,NA,NA,"",       3.10639,      -2.71636,      -1.50701,   663.954E-09
C:/temp/dataset/4/18_4.odb,Step-1,Increment      1: Step Time =    1.000,"PART-1-1",           130,       7.09662,      -19.6136,            0.,NA,NA,"",   154.671E-03,  -124.706E-03,  -91.4954E-03,   10.1154E-03
C:/temp/dataset/4/18_4.odb,Step-1,Increment      1: Step Time =    1.000,"PART-1-1",           131,       6.89670,       23.8203,            0.,NA,NA,"",       2.89401,      -2.87080,  -365.798E-03,   257.961E-09
C:/temp/dataset/4/18_4.odb,Step-1,Increment      1: Step Time =    1.000,"PART-1-1",           132,       6.67676,       6.98748,            0.,NA,NA,"",       1.67796,      -1.64379,  -336.867E-03,   1.43715E-03
C:/temp/dataset/4/18_4.odb,Step-1,Increment      1: Step Time =    1.000,"PART-1-1",           133,      -13.0361,       12.2042,            0.,NA,NA,"",       2.88657,      -2.08098,      -2.00045,   11.4239E-06
C:/temp/dataset/4/18_4.odb,Step-1,Increment      1: Step Time =    1.000,"PART-1-1",           134,      -13.0483,       3.72302,            0.,NA,NA,"",       2.40497,      -1.37610,      -1.97236,   123.663E-06
C:/temp/dataset/4/18_4.odb,Step-1,Increment      1: Step Time =    1.000,"PART-1-1",           135,      -13.0740,       10.0823,            0.,NA,NA,"",       2.75905,      -1.90453,      -1.99627,   35.0116E-06
C:/temp/dataset/4/18_4.odb,Step-1,Increment      1: Step Time =    1.000,"PART-1-1",           136,      -13.0017,       14.3509,            0.,NA,NA,"",       3.02083,      -2.25950,      -2.00502,   1.90016E-06
C:/temp/dataset/4/18_4.odb,Step-1,Increment      1: Step Time =    1.000,"PART-1-1",           137,      -12.4480,       21.2307,            0.,NA,NA,"",       3.45815,      -2.83325,      -1.98280,   418.582E-09
C:/temp/dataset/4/18_4.odb,Step-1,Increment      1: Step Time =    1.000,"PART-1-1",           138,      -13.0426,       25.7965,            0.,NA,NA,"",       3.80827,      -3.21069,      -2.04802,   38.7833E-09
C:/temp/dataset/4/18_4.odb,Step-1,Increment      1: Step Time =    1.000,"PART-1-1",           139,      -12.9478,       23.6552,            0.,NA,NA,"",       3.65120,      -3.03303,      -2.03273,   135.115E-09
C:/temp/dataset/4/18_4.odb,Step-1,Increment      1: Step Time =    1.000,"PART-1-1",           140,      -12.8307,       18.7376,            0.,NA,NA,"",       3.30348,      -2.62470,      -2.00598,   783.954E-09
C:/temp/dataset/4/18_4.odb,Step-1,Increment      1: Step Time =    1.000,"PART-1-1",           141,      -12.9472,       16.5227,            0.,NA,NA,"",       3.16017,      -2.44020,      -2.00801,   866.768E-09
C:/temp/dataset/4/18_4.odb,Step-1,Increment      1: Step Time =    1.000,"PART-1-1",           142,      -13.1112,       7.97345,            0.,NA,NA,"",       2.63791,      -1.72920,      -1.99209,   75.0820E-06
C:/temp/dataset/4/18_4.odb,Step-1,Increment      1: Step Time =    1.000,"PART-1-1",           143,      -13.1276,       5.86243,            0.,NA,NA,"",       2.52176,      -1.55375,      -1.98623,   115.324E-06
C:/temp/dataset/4/18_4.odb,Step-1,Increment      1: Step Time =    1.000,"PART-1-1",           144,      -12.8109,       1.56310,            0.,NA,NA,"",       2.28400,      -1.19691,      -1.94527,   113.830E-06
C:/temp/dataset/4/18_4.odb,Step-1,Increment      1: Step Time =    1.000,"PART-1-1",           145,      -12.5511,  -622.366E-03,            0.,NA,NA,"",       2.16845,      -1.01519,      -1.91614,   160.097E-06
C:/temp/dataset/4/18_4.odb,Step-1,Increment      1: Step Time =    1.000,"PART-1-1",           146,      -7.69124,      -3.05836,            0.,NA,NA,"",       1.71428,  -827.986E-03,      -1.50107,   127.291E-06
C:/temp/dataset/4/18_4.odb,Step-1,Increment      1: Step Time =    1.000,"PART-1-1",           147,      -2.59391,      -3.27074,            0.,NA,NA,"",       1.35122,  -828.884E-03,      -1.06712,   1.49944E-03
C:/temp/dataset/4/18_4.odb,Step-1,Increment      1: Step Time =    1.000,"PART-1-1",           148,      -2.06699,       2.95135,            0.,NA,NA,"",       1.70718,      -1.34484,      -1.05160,   5.07652E-03
C:/temp/dataset/4/18_4.odb,Step-1,Increment      1: Step Time =    1.000,"PART-1-1",           149,       1.86882,      -3.06513,            0.,NA,NA,"",       1.10376,  -869.266E-03,  -680.199E-03,   6.33189E-03
C:/temp/dataset/4/18_4.odb,Step-1,Increment      1: Step Time =    1.000,"PART-1-1",           150,       2.79073,       3.02834,            0.,NA,NA,"",       1.49443,      -1.35717,  -625.630E-03,   4.59644E-03
C:/temp/dataset/4/18_4.odb,Step-1,Increment      1: Step Time =    1.000,"PART-1-1",           151,       12.5379,       2.72923,            0.,NA,NA,"",       1.34099,      -1.33710,   102.062E-03,   3.00260E-03
C:/temp/dataset/4/18_4.odb,Step-1,Increment      1: Step Time =    1.000,"PART-1-1",           152,       12.9313,       10.2835,            0.,NA,NA,"",       1.90212,      -1.89889,   110.760E-03,   82.8795E-06
C:/temp/dataset/4/18_4.odb,Step-1,Increment      1: Step Time =    1.000,"PART-1-1",           153,       12.7723,       24.8557,            0.,NA,NA,"",       2.96264,      -2.96203,   60.2664E-03,   329.134E-09
C:/temp/dataset/4/18_4.odb,Step-1,Increment      1: Step Time =    1.000,"PART-1-1",           154,       12.5268,       27.4001,            0.,NA,NA,"",       3.14727,      -3.14707,   35.5607E-03,   248.427E-09
C:/temp/dataset/4/18_4.odb,Step-1,Increment      1: Step Time =    1.000,"PART-1-1",           155,       12.7627,      -5.01238,            0.,NA,NA,"",   781.233E-03,  -772.568E-03,   116.033E-03,   6.17315E-03
C:/temp/dataset/4/18_4.odb,Step-1,Increment      1: Step Time =    1.000,"PART-1-1",           156,       13.0118,      -12.5921,            0.,NA,NA,"",   374.034E-03,  -361.451E-03,   96.2022E-03,   6.89017E-03
C:/temp/dataset/4/18_4.odb,Step-1,Increment      1: Step Time =    1.000,"PART-1-1",           157,       9.69976,      -27.8547,            0.,NA,NA,"",   4.30214E-03,   371.047E-06,  -4.28611E-03,   2.68012E-03
C:/temp/dataset/4/18_4.odb,Step-1,Increment      1: Step Time =    1.000,"PART-1-1",           158,       13.0855,      -17.4497,            0.,NA,NA,"",   196.131E-03,  -182.398E-03,   72.0997E-03,   6.92067E-03
C:/temp/dataset/4/18_4.odb,Step-1,Increment      1: Step Time =    1.000,"PART-1-1",           159,       12.9366,       22.3763,            0.,NA,NA,"",       2.78264,      -2.78152,   78.8679E-03,   309.789E-09
C:/temp/dataset/4/18_4.odb,Step-1,Increment      1: Step Time =    1.000,"PART-1-1",           160,       13.0248,       17.5365,            0.,NA,NA,"",       2.43054,      -2.42855,   98.2108E-03,   13.2317E-06
C:/temp/dataset/4/18_4.odb,Step-1,Increment      1: Step Time =    1.000,"PART-1-1",           161,      -10.1545,       27.3700,            0.,NA,NA,"",       3.81062,      -3.35147,      -1.81342,   23.6995E-09
C:/temp/dataset/4/18_4.odb,Step-1,Increment      1: Step Time =    1.000,"PART-1-1",           162,      -10.0546,      -2.87755,            0.,NA,NA,"",       1.89377,  -835.038E-03,      -1.69973,   195.171E-06
C:/temp/dataset/4/18_4.odb,Step-1,Increment      1: Step Time =    1.000,"PART-1-1",           163,      -5.07747,      -2.66322,            0.,NA,NA,"",       1.54939,  -870.393E-03,      -1.28180,   632.688E-06
C:/temp/dataset/4/18_4.odb,Step-1,Increment      1: Step Time =    1.000,"PART-1-1",           164,  -330.659E-03,      -3.26262,            0.,NA,NA,"",       1.21068,  -840.660E-03,  -871.223E-03,   3.12134E-03
C:/temp/dataset/4/18_4.odb,Step-1,Increment      1: Step Time =    1.000,"PART-1-1",           165,       3.93161,      -2.75002,            0.,NA,NA,"",       1.03640,  -907.519E-03,  -500.538E-03,   7.36502E-03
C:/temp/dataset/4/18_4.odb,Step-1,Increment      1: Step Time =    1.000,"PART-1-1",           166,       12.9585,      -10.1304,            0.,NA,NA,"",   488.137E-03,  -476.448E-03,   106.186E-03,   6.80832E-03
C:/temp/dataset/4/18_4.odb,Step-1,Increment      1: Step Time =    1.000,"PART-1-1",           167,       13.1106,      -19.8561,            0.,NA,NA,"",   130.456E-03,  -116.468E-03,   58.7710E-03,   6.88974E-03
C:/temp/dataset/4/18_4.odb,Step-1,Increment      1: Step Time =    1.000,"PART-1-1",           168,       12.2637,      -27.1930,            0.,NA,NA,"",   10.9949E-03,  -4.63513E-03,   9.97014E-03,   4.65329E-03
C:/temp/dataset/4/18_4.odb,Step-1,Increment      1: Step Time =    1.000,"PART-1-1",           169,       13.0974,      -22.2394,            0.,NA,NA,"",   79.3236E-03,  -65.6976E-03,   44.4529E-03,   6.73845E-03
C:/temp/dataset/4/18_4.odb,Step-1,Increment      1: Step Time =    1.000,"PART-1-1",           170,       13.0625,      -15.0302,            0.,NA,NA,"",   277.209E-03,  -263.847E-03,   85.0275E-03,   6.95256E-03
C:/temp/dataset/4/18_4.odb,Step-1,Increment      1: Step Time =    1.000,"PART-1-1",           171,       12.8638,      -7.61343,            0.,NA,NA,"",   622.295E-03,  -612.025E-03,   112.592E-03,   6.54843E-03
C:/temp/dataset/4/18_4.odb,Step-1,Increment      1: Step Time =    1.000,"PART-1-1",           172,       12.8109,      -2.41519,            0.,NA,NA,"",   960.745E-03,  -952.624E-03,   124.653E-03,   5.73195E-03
C:/temp/dataset/4/18_4.odb,Step-1,Increment      1: Step Time =    1.000,"PART-1-1",           173,       12.7001,   168.481E-03,            0.,NA,NA,"",       1.14960,      -1.14358,   117.584E-03,   4.57690E-03
C:/temp/dataset/4/18_4.odb,Step-1,Increment      1: Step Time =    1.000,"PART-1-1",           174,       12.6773,       5.28127,            0.,NA,NA,"",       1.53314,      -1.52949,   105.756E-03,   1.24481E-03
C:/temp/dataset/4/18_4.odb,Step-1,Increment      1: Step Time =    1.000,"PART-1-1",           175,       12.8405,       7.80961,            0.,NA,NA,"",       1.72080,      -1.71723,   110.811E-03,   231.512E-06
C:/temp/dataset/4/18_4.odb,Step-1,Increment      1: Step Time =    1.000,"PART-1-1",           176,       12.9955,       12.7023,            0.,NA,NA,"",       2.07859,      -2.07573,   108.970E-03,   79.2656E-06
C:/temp/dataset/4/18_4.odb,Step-1,Increment      1: Step Time =    1.000,"PART-1-1",           177,       13.0102,       19.9477,            0.,NA,NA,"",       2.60605,      -2.60447,   90.7113E-03,   3.17739E-06
C:/temp/dataset/4/18_4.odb,Step-1,Increment      1: Step Time =    1.000,"PART-1-1",           178,       9.88408,       27.1269,            0.,NA,NA,"",       3.12402,      -3.12009,  -156.586E-03,   188.582E-09
C:/temp/dataset/4/18_4.odb,Step-1,Increment      1: Step Time =    1.000,"PART-1-1",           179,       13.0301,       15.1161,            0.,NA,NA,"",       2.25441,      -2.25196,   105.051E-03,   38.8175E-06
C:/temp/dataset/4/18_4.odb,Step-1,Increment      1: Step Time =    1.000,"PART-1-1",           180,   300.490E-03,       3.00528,            0.,NA,NA,"",       1.59318,      -1.35237,  -842.211E-03,   5.83731E-03
C:/temp/dataset/4/18_4.odb,Step-1,Increment      1: Step Time =    1.000,"PART-1-1",           181,      -4.18418,       2.89078,            0.,NA,NA,"",       1.81755,      -1.33646,      -1.23182,   2.86000E-03
C:/temp/dataset/4/18_4.odb,Step-1,Increment      1: Step Time =    1.000,"PART-1-1",           182,      -8.75093,       23.2164,            0.,NA,NA,"",       3.44921,      -3.01108,      -1.68238,   204.484E-09
C:/temp/dataset/4/18_4.odb,Step-1,Increment      1: Step Time =    1.000,"PART-1-1",           183,       9.13120,      -23.8882,            0.,NA,NA,"",   42.7389E-03,  -36.3671E-03,  -22.4510E-03,   4.42058E-03
C:/temp/dataset/4/18_4.odb,Step-1,Increment      1: Step Time =    1.000,"PART-1-1",           184,       8.76025,       8.63504,            0.,NA,NA,"",       1.77795,      -1.76780,  -189.697E-03,   223.839E-06
C:/temp/dataset/4/18_4.odb,Step-1,Increment      1: Step Time =    1.000,"PART-1-1",           185,       8.81891,       23.9948,            0.,NA,NA,"",       2.89748,      -2.88866,  -225.972E-03,   281.372E-09
C:/temp/dataset/4/18_4.odb,Step-1,Increment      1: Step Time =    1.000,"PART-1-1",           186,       9.00734,       17.5557,            0.,NA,NA,"",       2.42705,      -2.41920,  -195.064E-03,   16.5968E-06
C:/temp/dataset/4/18_4.odb,Step-1,Increment      1: Step Time =    1.000,"PART-1-1",           187,      -8.59230,       19.6811,            0.,NA,NA,"",       3.18307,      -2.71779,      -1.65696,   688.496E-09
C:/temp/dataset/4/18_4.odb,Step-1,Increment      1: Step Time =    1.000,"PART-1-1",           188,       9.06266,      -12.9142,            0.,NA,NA,"",   349.612E-03,  -341.817E-03,  -73.4145E-03,   4.69431E-03
C:/temp/dataset/4/18_4.odb,Step-1,Increment      1: Step Time =    1.000,"PART-1-1",           189,       9.13987,      -19.6571,            0.,NA,NA,"",   124.202E-03,  -117.701E-03,  -39.6583E-03,   4.35923E-03
C:/temp/dataset/4/18_4.odb,Step-1,Increment      1: Step Time =    1.000,"PART-1-1",           190,       9.00941,       15.3265,            0.,NA,NA,"",       2.26439,      -2.25649,  -189.007E-03,   42.6735E-06
C:/temp/dataset/4/18_4.odb,Step-1,Increment      1: Step Time =    1.000,"PART-1-1",           191,      -8.96967,       13.7142,            0.,NA,NA,"",       2.77702,      -2.22052,      -1.66768,   5.95114E-06
C:/temp/dataset/4/18_4.odb,Step-1,Increment      1: Step Time =    1.000,"PART-1-1",           192,       9.12973,      -17.4386,            0.,NA,NA,"",   185.226E-03,  -178.489E-03,  -49.4996E-03,   4.41221E-03
C:/temp/dataset/4/18_4.odb,Step-1,Increment      1: Step Time =    1.000,"PART-1-1",           193,       8.94484,       21.9321,            0.,NA,NA,"",       2.74659,      -2.73845,  -211.280E-03,   1.11071E-06
C:/temp/dataset/4/18_4.odb,Step-1,Increment      1: Step Time =    1.000,"PART-1-1",           194,      -8.78258,       17.8115,            0.,NA,NA,"",       3.05599,      -2.56173,      -1.66631,   944.210E-09
C:/temp/dataset/4/18_4.odb,Step-1,Increment      1: Step Time =    1.000,"PART-1-1",           195,       8.90333,       10.8666,            0.,NA,NA,"",       1.93958,      -1.93072,  -185.094E-03,   119.170E-06
C:/temp/dataset/4/18_4.odb,Step-1,Increment      1: Step Time =    1.000,"PART-1-1",           196,      -9.00437,       11.6266,            0.,NA,NA,"",       2.63749,      -2.04687,      -1.66332,   24.9983E-06
C:/temp/dataset/4/18_4.odb,Step-1,Increment      1: Step Time =    1.000,"PART-1-1",           197,      -9.03622,       9.53759,            0.,NA,NA,"",       2.50196,      -1.87311,      -1.65869,   80.3597E-06
C:/temp/dataset/4/18_4.odb,Step-1,Increment      1: Step Time =    1.000,"PART-1-1",           198,       8.99264,      -10.6281,            0.,NA,NA,"",   453.258E-03,  -444.512E-03,  -88.6091E-03,   4.85186E-03
C:/temp/dataset/4/18_4.odb,Step-1,Increment      1: Step Time =    1.000,"PART-1-1",           199,       8.82192,      -8.34759,            0.,NA,NA,"",   570.879E-03,  -560.146E-03,  -110.182E-03,   4.77912E-03
C:/temp/dataset/4/18_4.odb,Step-1,Increment      1: Step Time =    1.000,"PART-1-1",           200,       8.98411,       13.0928,            0.,NA,NA,"",       2.10154,      -2.09338,  -184.993E-03,   85.1141E-06
C:/temp/dataset/4/18_4.odb,Step-1,Increment      1: Step Time =    1.000,"PART-1-1",           201,       7.30685,       27.8134,            0.,NA,NA,"",       3.18224,      -3.16332,  -346.513E-03,   218.981E-09
C:/temp/dataset/4/18_4.odb,Step-1,Increment      1: Step Time =    1.000,"PART-1-1",           202,      -8.46063,       21.4565,            0.,NA,NA,"",       3.30795,      -2.86581,      -1.65216,   380.700E-09
C:/temp/dataset/4/18_4.odb,Step-1,Increment      1: Step Time =    1.000,"PART-1-1",           203,       9.11250,      -15.1896,            0.,NA,NA,"",   260.136E-03,  -253.048E-03,  -60.3110E-03,   4.50767E-03
C:/temp/dataset/4/18_4.odb,Step-1,Increment      1: Step Time =    1.000,"PART-1-1",           204,       9.14200,      -21.8221,            0.,NA,NA,"",   76.8292E-03,  -70.4564E-03,  -30.6369E-03,   4.34909E-03
C:/temp/dataset/4/18_4.odb,Step-1,Increment      1: Step Time =    1.000,"PART-1-1",           205,      -8.90436,       15.8055,            0.,NA,NA,"",       2.91911,      -2.39458,      -1.66949,   1.49917E-06
C:/temp/dataset/4/18_4.odb,Step-1,Increment      1: Step Time =    1.000,"PART-1-1",           206,       9.00445,       19.7587,            0.,NA,NA,"",       2.58781,      -2.57998,  -201.137E-03,   5.15596E-06
C:/temp/dataset/4/18_4.odb,Step-1,Increment      1: Step Time =    1.000,"PART-1-1",           207,       8.39742,      -6.16188,            0.,NA,NA,"",   699.421E-03,  -683.903E-03,  -146.512E-03,   4.23836E-03
C:/temp/dataset/4/18_4.odb,Step-1,Increment      1: Step Time =    1.000,"PART-1-1",           208,      -9.10294,       7.45394,            0.,NA,NA,"",       2.37366,      -1.69973,      -1.65686,   159.122E-06
C:/temp/dataset/4/18_4.odb,Step-1,Increment      1: Step Time =    1.000,"PART-1-1",           209,       8.43260,       6.43235,            0.,NA,NA,"",       1.62040,      -1.60713,  -206.989E-03,   1.56946E-03
C:/temp/dataset/4/18_4.odb,Step-1,Increment      1: Step Time =    1.000,"PART-1-1",           210,       5.64784,       2.93298,            0.,NA,NA,"",       1.40639,      -1.34954,  -395.800E-03,   3.96750E-03
C:/temp/dataset/4/18_4.odb,Step-1,Increment      1: Step Time =    1.000,"PART-1-1",           211,      -10.7213,       1.88644,            0.,NA,NA,"",       2.15789,      -1.23134,      -1.77208,   105.777E-06
C:/temp/dataset/4/18_4.odb,Step-1,Increment      1: Step Time =    1.000,"PART-1-1",           212,      -12.7178,       27.8380,            0.,NA,NA,"",       3.94305,      -3.38149,      -2.02809,   8.52092E-09
C:/temp/dataset/4/18_4.odb,Step-1,Increment      1: Step Time =    1.000,"PART-1-1",           213,      -11.0298,       24.2524,            0.,NA,NA,"",       3.61399,      -3.08931,      -1.87538,   134.729E-09
C:/temp/dataset/4/18_4.odb,Step-1,Increment      1: Step Time =    1.000,"PART-1-1",           214,      -10.4500,       20.0822,            0.,NA,NA,"",       3.28930,      -2.74470,      -1.81276,   616.625E-09
C:/temp/dataset/4/18_4.odb,Step-1,Increment      1: Step Time =    1.000,"PART-1-1",           215,      -10.9919,       14.0243,            0.,NA,NA,"",       2.89629,      -2.23931,      -1.83684,   4.54390E-06
C:/temp/dataset/4/18_4.odb,Step-1,Increment      1: Step Time =    1.000,"PART-1-1",           216,      -11.0796,       9.82104,            0.,NA,NA,"",       2.63024,      -1.88970,      -1.82954,   52.2564E-06
C:/temp/dataset/4/18_4.odb,Step-1,Increment      1: Step Time =    1.000,"PART-1-1",           217,      -11.0365,       11.9204,            0.,NA,NA,"",       2.76083,      -2.06430,      -1.83325,   18.4150E-06
C:/temp/dataset/4/18_4.odb,Step-1,Increment      1: Step Time =    1.000,"PART-1-1",           218,      -10.5491,       22.5446,            0.,NA,NA,"",       3.47043,      -2.94903,      -1.82951,   279.165E-09
C:/temp/dataset/4/18_4.odb,Step-1,Increment      1: Step Time =    1.000,"PART-1-1",           219,      -10.9277,       16.1478,            0.,NA,NA,"",       3.03621,      -2.41603,      -1.83885,   1.14962E-06
C:/temp/dataset/4/18_4.odb,Step-1,Increment      1: Step Time =    1.000,"PART-1-1",           220,      -10.7891,       18.2216,            0.,NA,NA,"",       3.17296,      -2.58887,      -1.83451,   921.715E-09
C:/temp/dataset/4/18_4.odb,Step-1,Increment      1: Step Time =    1.000,"PART-1-1",           221,      -11.1555,       7.76515,            0.,NA,NA,"",       2.50954,      -1.71864,      -1.82867,   107.467E-06
C:/temp/dataset/4/18_4.odb,Step-1,Increment      1: Step Time =    1.000,"PART-1-1",           222,      -9.80329,       4.04682,            0.,NA,NA,"",       2.21383,      -1.41447,      -1.70303,   175.368E-06
C:/temp/dataset/4/18_4.odb,Step-1,Increment      1: Step Time =    1.000,"PART-1-1",           223,       9.22674,      -25.9093,            0.,NA,NA,"",   18.5968E-03,  -12.8825E-03,  -13.4120E-03,   4.09499E-03
C:/temp/dataset/4/18_4.odb,Step-1,Increment      1: Step Time =    1.000,"PART-1-1",           224,      -9.21421,       25.1107,            0.,NA,NA,"",       3.60743,      -3.16694,      -1.72744,   83.8730E-09
C:/temp/dataset/4/18_4.odb,Step-1,Increment      1: Step Time =    1.000,"PART-1-1",           225,       6.25241,      -4.60112,            0.,NA,NA,"",   831.240E-03,  -777.067E-03,  -295.174E-03,   8.25161E-03
C:/temp/dataset/4/18_4.odb,Step-1,Increment      1: Step Time =    1.000,"PART-1-1",           226,      -7.19550,       4.55405,            0.,NA,NA,"",       2.08850,      -1.46561,      -1.48790,   476.018E-06
C:/temp/dataset/4/18_4.odb,Step-1,Increment      1: Step Time =    1.000,"PART-1-1",           227,       12.9551,      -24.6090,            0.,NA,NA,"",   40.8627E-03,  -29.1547E-03,   28.6315E-03,   6.36056E-03
C:/temp/dataset/4/18_4.odb,Step-1,Increment      1: Step Time =    1.000,"PART-1-1",           228,       10.9241,       22.1645,            0.,NA,NA,"",       2.76152,      -2.76069,  -67.4452E-03,   920.397E-09
C:/temp/dataset/4/18_4.odb,Step-1,Increment      1: Step Time =    1.000,"PART-1-1",           229,      -4.91288,   464.762E-03,            0.,NA,NA,"",       1.70948,      -1.13247,      -1.28056,   1.43731E-03
C:/temp/dataset/4/18_4.odb,Step-1,Increment      1: Step Time =    1.000,"PART-1-1",           230,  -831.143E-03,      -1.35374,            0.,NA,NA,"",       1.35643,  -995.958E-03,  -920.852E-03,   3.59672E-03
C:/temp/dataset/4/18_4.odb,Step-1,Increment      1: Step Time =    1.000,"PART-1-1",           231,       11.1616,      -19.7398,            0.,NA,NA,"",   115.572E-03,  -115.036E-03,   11.1152E-03,   1.40017E-03
C:/temp/dataset/4/18_4.odb,Step-1,Increment      1: Step Time =    1.000,"PART-1-1",           232,       10.9730,      -10.3410,            0.,NA,NA,"",   459.754E-03,  -459.695E-03,   7.41555E-03,   1.09912E-03
C:/temp/dataset/4/18_4.odb,Step-1,Increment      1: Step Time =    1.000,"PART-1-1",           233,       10.4844,      -5.04269,            0.,NA,NA,"",   761.648E-03,  -761.293E-03,  -23.2467E-03,   3.76621E-03
C:/temp/dataset/4/18_4.odb,Step-1,Increment      1: Step Time =    1.000,"PART-1-1",           234,       10.9074,       10.5689,            0.,NA,NA,"",       1.91473,      -1.91435,  -38.0365E-03,   109.694E-06
C:/temp/dataset/4/18_4.odb,Step-1,Increment      1: Step Time =    1.000,"PART-1-1",           235,       11.0515,      -12.7377,            0.,NA,NA,"",   349.888E-03,  -349.708E-03,   11.2301E-03,   1.14832E-03
C:/temp/dataset/4/18_4.odb,Step-1,Increment      1: Step Time =    1.000,"PART-1-1",           236,       10.9936,       12.8990,            0.,NA,NA,"",       2.08503,      -2.08469,  -37.8255E-03,   84.4419E-06
C:/temp/dataset/4/18_4.odb,Step-1,Increment      1: Step Time =    1.000,"PART-1-1",           237,      -9.84553,  -403.770E-03,            0.,NA,NA,"",       1.98684,      -1.04308,      -1.69101,   151.549E-06
C:/temp/dataset/4/18_4.odb,Step-1,Increment      1: Step Time =    1.000,"PART-1-1",           238,      -6.42098,  -599.403E-03,            0.,NA,NA,"",       1.74596,      -1.03870,      -1.40338,   516.638E-06
C:/temp/dataset/4/18_4.odb,Step-1,Increment      1: Step Time =    1.000,"PART-1-1",           239,      -2.35214,      -1.85066,            0.,NA,NA,"",       1.41597,  -948.623E-03,      -1.05123,   2.41019E-03
C:/temp/dataset/4/18_4.odb,Step-1,Increment      1: Step Time =    1.000,"PART-1-1",           240,       11.1625,      -21.9830,            0.,NA,NA,"",   67.1120E-03,  -66.5113E-03,   8.95901E-03,   1.35935E-03
C:/temp/dataset/4/18_4.odb,Step-1,Increment      1: Step Time =    1.000,"PART-1-1",           241,       11.1073,      -15.0998,            0.,NA,NA,"",   256.613E-03,  -256.295E-03,   12.7770E-03,   1.29135E-03
C:/temp/dataset/4/18_4.odb,Step-1,Increment      1: Step Time =    1.000,"PART-1-1",           242,       11.1457,      -17.4375,            0.,NA,NA,"",   178.638E-03,  -178.191E-03,   12.6300E-03,   1.38833E-03
C:/temp/dataset/4/18_4.odb,Step-1,Increment      1: Step Time =    1.000,"PART-1-1",           243,       10.8340,      -7.85693,            0.,NA,NA,"",   590.584E-03,  -590.583E-03,  -791.738E-06,   1.71047E-03
C:/temp/dataset/4/18_4.odb,Step-1,Increment      1: Step Time =    1.000,"PART-1-1",           244,       10.5842,   120.255E-03,            0.,NA,NA,"",       1.13489,      -1.13455,  -27.6672E-03,   5.29274E-03
C:/temp/dataset/4/18_4.odb,Step-1,Increment      1: Step Time =    1.000,"PART-1-1",           245,       10.8633,      -2.34188,            0.,NA,NA,"",   951.038E-03,  -951.033E-03,  -2.88708E-03,   5.43464E-03
C:/temp/dataset/4/18_4.odb,Step-1,Increment      1: Step Time =    1.000,"PART-1-1",           246,       9.78574,       2.89226,            0.,NA,NA,"",       1.34832,      -1.34503,  -94.1484E-03,   4.15489E-03
C:/temp/dataset/4/18_4.odb,Step-1,Increment      1: Step Time =    1.000,"PART-1-1",           247,       10.7685,       8.18214,            0.,NA,NA,"",       1.73995,      -1.73945,  -41.7721E-03,   331.085E-06
C:/temp/dataset/4/18_4.odb,Step-1,Increment      1: Step Time =    1.000,"PART-1-1",           248,       10.4587,       5.69287,            0.,NA,NA,"",       1.55662,      -1.55559,  -56.6982E-03,   1.59457E-03
C:/temp/dataset/4/18_4.odb,Step-1,Increment      1: Step Time =    1.000,"PART-1-1",           249,       11.0104,       19.8565,            0.,NA,NA,"",       2.59307,      -2.59248,  -54.9943E-03,   4.74383E-06
C:/temp/dataset/4/18_4.odb,Step-1,Increment      1: Step Time =    1.000,"PART-1-1",           250,       11.0363,       17.5467,            0.,NA,NA,"",       2.42443,      -2.42398,  -46.9642E-03,   16.5198E-06
C:/temp/dataset/4/18_4.odb,Step-1,Increment      1: Step Time =    1.000,"PART-1-1",           251,       11.0403,       15.2208,            0.,NA,NA,"",       2.25462,      -2.25426,  -40.5072E-03,   43.2228E-06
C:/temp/dataset/4/18_4.odb,Step-1,Increment      1: Step Time =    1.000,"PART-1-1",           252,       1.19009,      -1.06873,            0.,NA,NA,"",       1.26947,      -1.02784,  -745.058E-03,   5.27147E-03
C:/temp/dataset/4/18_4.odb,Step-1,Increment      1: Step Time =    1.000,"PART-1-1",           253,       10.6932,       24.5073,            0.,NA,NA,"",       2.93246,      -2.93106,  -90.5466E-03,   289.359E-09
C:/temp/dataset/4/18_4.odb,Step-1,Increment      1: Step Time =    1.000,"PART-1-1",           254,       8.51128,       25.6419,            0.,NA,NA,"",       3.01866,      -3.00805,  -252.817E-03,   266.164E-09
C:/temp/dataset/4/18_4.odb,Step-1,Increment      1: Step Time =    1.000,"PART-1-1",           255,      -9.32324,       5.48290,            0.,NA,NA,"",       2.26716,      -1.53536,      -1.66813,   219.509E-06
C:/temp/dataset/4/18_4.odb,Step-1,Increment      1: Step Time =    1.000,"PART-1-1",           256,      -11.4569,       25.7537,            0.,NA,NA,"",       3.74063,      -3.21262,      -1.91608,   53.6101E-09
C:/temp/dataset/4/18_4.odb,Step-1,Increment      1: Step Time =    1.000,"PART-1-1",           257,      -8.85145,       2.84717,            0.,NA,NA,"",       2.08809,      -1.31808,      -1.61950,   190.314E-06
C:/temp/dataset/4/18_4.odb,Step-1,Increment      1: Step Time =    1.000,"PART-1-1",           258,       11.0896,      -24.0706,            0.,NA,NA,"",   33.1722E-03,  -32.6756E-03,   5.71865E-03,   1.13326E-03
C:/temp/dataset/4/18_4.odb,Step-1,Increment      1: Step Time =    1.000,"PART-1-1",           259,       5.69240,      -2.12345,            0.,NA,NA,"",       1.02484,  -959.651E-03,  -359.669E-03,   7.35887E-03
C:/temp/dataset/4/18_4.odb,Step-1,Increment      1: Step Time =    1.000,"PART-1-1",           260,       7.72467,       1.38687,            0.,NA,NA,"",       1.25162,      -1.22964,  -233.524E-03,   5.20841E-03
C:/temp/dataset/4/18_4.odb,Step-1,Increment      1: Step Time =    1.000,"PART-1-1",           261,       8.83369,  -368.727E-03,            0.,NA,NA,"",       1.10471,      -1.09508,  -145.563E-03,   5.72281E-03
C:/temp/dataset/4/18_4.odb,Step-1,Increment      1: Step Time =    1.000,"PART-1-1",           262,       7.58912,       4.39900,            0.,NA,NA,"",       1.48115,      -1.45813,  -260.067E-03,   4.28894E-03
C:/temp/dataset/4/18_4.odb,Step-1,Increment      1: Step Time =    1.000,"PART-1-1",           263,      -6.02595,       2.23751,            0.,NA,NA,"",       1.88169,      -1.27713,      -1.38192,   823.452E-06
C:/temp/dataset/4/18_4.odb,Step-1,Increment      1: Step Time =    1.000,"PART-1-1",           264,       4.92391,   813.983E-03,            0.,NA,NA,"",       1.26415,      -1.18498,  -440.335E-03,   3.35677E-03
C:/temp/dataset/4/18_4.odb,Step-1,Increment      1: Step Time =    1.000,"PART-1-1",           265,      -7.77287,       1.11371,            0.,NA,NA,"",       1.92522,      -1.17734,      -1.52327,   270.102E-06
C:/temp/dataset/4/18_4.odb,Step-1,Increment      1: Step Time =    1.000,"PART-1-1",           266,      -3.71710,       1.36231,            0.,NA,NA,"",       1.69278,      -1.21032,      -1.18349,   2.70168E-03
C:/temp/dataset/4/18_4.odb,Step-1,Increment      1: Step Time =    1.000,"PART-1-1",           267,       2.85817,       1.10052,            0.,NA,NA,"",       1.35034,      -1.20435,  -610.708E-03,   4.32553E-03
C:/temp/dataset/4/18_4.odb,Step-1,Increment      1: Step Time =    1.000,"PART-1-1",           268,       7.51165,      -2.37377,            0.,NA,NA,"",   968.347E-03,  -941.843E-03,  -225.004E-03,   6.35972E-03
C:/temp/dataset/4/18_4.odb,Step-1,Increment      1: Step Time =    1.000,"PART-1-1",           269,      -1.84913,   666.939E-03,            0.,NA,NA,"",       1.54186,      -1.15747,      -1.01862,   4.04103E-03
C:/temp/dataset/4/18_4.odb,Step-1,Increment      1: Step Time =    1.000,"PART-1-1",           270,   621.955E-03,   989.730E-03,            0.,NA,NA,"",       1.43596,      -1.19012,  -803.486E-03,   5.32077E-03
C:/temp/dataset/4/18_4.odb,Step-1,Increment      1: Step Time =    1.000,"PART-1-1",           271,       7.77182,      -4.29185,            0.,NA,NA,"",   826.835E-03,  -803.330E-03,  -195.748E-03,   5.77258E-03
C:/temp/dataset/4/18_4.odb,Step-1,Increment      1: Step Time =    1.000,"PART-1-1",           272,       6.40836,       5.42027,            0.,NA,NA,"",       1.57247,      -1.53264,  -351.685E-03,   3.73483E-03
C:/temp/dataset/4/18_4.odb,Step-1,Increment      1: Step Time =    1.000,"PART-1-1",           273,      -12.5139,      -2.82358,            0.,NA,NA,"",       2.07874,  -831.044E-03,      -1.90539,   159.387E-06
C:/temp/dataset/4/18_4.odb,Step-1,Increment      1: Step Time =    1.000,"PART-1-1",           274,       10.8188,      -25.6946,            0.,NA,NA,"",   13.9349E-03,  -13.8504E-03,   1.53227E-03,   533.063E-06
C:/temp/dataset/4/18_4.odb,Step-1,Increment      1: Step Time =    1.000,"PART-1-1",           275,       6.49302,  -163.532E-03,            0.,NA,NA,"",       1.15360,      -1.11009,  -313.840E-03,   4.79476E-03
C:/temp/dataset/4/18_4.odb,Step-1,Increment      1: Step Time =    1.000,"PART-1-1",           276,       7.60941,  -936.337E-03,            0.,NA,NA,"",       1.07520,      -1.05084,  -227.584E-03,   5.81874E-03
C:/temp/dataset/4/18_4.odb,Step-1,Increment      1: Step Time =    1.000,"PART-1-1",           277,       9.17282,      -2.25688,            0.,NA,NA,"",   959.874E-03,  -953.104E-03,  -113.796E-03,   5.68969E-03
C:/temp/dataset/4/18_4.odb,Step-1,Increment      1: Step Time =    1.000,"PART-1-1",           278,       9.10690,      -3.89703,            0.,NA,NA,"",   841.986E-03,  -834.546E-03,  -111.683E-03,   4.79154E-03
C:/temp/dataset/4/18_4.odb,Step-1,Increment      1: Step Time =    1.000,"PART-1-1",           279,      -7.91199,      -1.40732,            0.,NA,NA,"",       1.80563,  -965.806E-03,      -1.52562,   144.446E-06
C:/temp/dataset/4/18_4.odb,Step-1,Increment      1: Step Time =    1.000,"PART-1-1",           280,      -9.83927,       21.3699,            0.,NA,NA,"",       3.35630,      -2.85384,      -1.76645,   434.538E-09
C:/temp/dataset/4/18_4.odb,Step-1,Increment      1: Step Time =    1.000,"PART-1-1",           281,      -11.2653,       5.77953,            0.,NA,NA,"",       2.40103,      -1.55334,      -1.83087,   142.765E-06
C:/temp/dataset/4/18_4.odb,Step-1,Increment      1: Step Time =    1.000,"PART-1-1",           282,      -11.2487,       3.84080,            0.,NA,NA,"",       2.29367,      -1.39226,      -1.82278,   130.342E-06
C:/temp/dataset/4/18_4.odb,Step-1,Increment      1: Step Time =    1.000,"PART-1-1",           283,       3.11059,  -868.354E-03,            0.,NA,NA,"",       1.20054,      -1.05126,  -579.787E-03,   4.86920E-03
C:/temp/dataset/4/18_4.odb,Step-1,Increment      1: Step Time =    1.000,"PART-1-1",           284,       4.50766,  -682.768E-03,            0.,NA,NA,"",       1.16526,      -1.06875,  -464.332E-03,   4.72149E-03
C:/temp/dataset/4/18_4.odb,Step-1,Increment      1: Step Time =    1.000,"PART-1-1",           285,      -3.56662,  -854.847E-03,            0.,NA,NA,"",       1.54918,      -1.02690,      -1.15993,   1.89280E-03
C:/temp/dataset/4/18_4.odb,Step-1,Increment      1: Step Time =    1.000,"PART-1-1",           286,      -7.33150,       26.6843,            0.,NA,NA,"",       3.66102,      -3.30424,      -1.57640,   28.9856E-09
C:/temp/dataset/4/18_4.odb,Step-1,Increment      1: Step Time =    1.000,"PART-1-1",           287,      -6.09303,       25.7233,            0.,NA,NA,"",       3.54761,      -3.22865,      -1.47014,   23.9089E-09
C:/temp/dataset/4/18_4.odb,Step-1,Increment      1: Step Time =    1.000,"PART-1-1",           288,           -5.,        26.875,            0.,NA,NA,"",       3.60418,      -3.32816,      -1.38327,   4.61726E-09
C:/temp/dataset/4/18_4.odb,Step-1,Increment      1: Step Time =    1.000,"PART-1-1",           289,      -6.23847,       27.8360,            0.,NA,NA,"",       3.71540,      -3.40375,      -1.48953,   3.21330E-09
C:/temp/dataset/4/18_4.odb,Step-1,Increment      1: Step Time =    1.000,"PART-1-1",           290,      -8.20013,       25.3620,            0.,NA,NA,"",       3.58990,      -3.19133,      -1.64402,   60.6789E-09
C:/temp/dataset/4/18_4.odb,Step-1,Increment      1: Step Time =    1.000,"PART-1-1",           291,      -8.98257,       24.1636,            0.,NA,NA,"",       3.52827,      -3.08901,      -1.70491,   143.673E-09
C:/temp/dataset/4/18_4.odb,Step-1,Increment      1: Step Time =    1.000,"PART-1-1",           292,      -7.83587,       23.3915,            0.,NA,NA,"",       3.42869,      -3.02881,      -1.60693,   155.451E-09
C:/temp/dataset/4/18_4.odb,Step-1,Increment      1: Step Time =    1.000,"PART-1-1",           293,      -7.05344,       24.5900,            0.,NA,NA,"",       3.49202,      -3.13113,      -1.54604,   94.4257E-09
C:/temp/dataset/4/18_4.odb,Step-1,Increment      1: Step Time =    1.000,"PART-1-1",           294,      -6.78951,       20.5788,            0.,NA,NA,"",       3.18012,      -2.79864,      -1.51022,   482.054E-09
C:/temp/dataset/4/18_4.odb,Step-1,Increment      1: Step Time =    1.000,"PART-1-1",           295,      -5.89603,       19.5861,            0.,NA,NA,"",       3.07348,      -2.71922,      -1.43252,   552.493E-09
C:/temp/dataset/4/18_4.odb,Step-1,Increment      1: Step Time =    1.000,"PART-1-1",           296,           -5.,        20.625,            0.,NA,NA,"",       3.12133,      -2.80867,      -1.36164,   483.576E-09
C:/temp/dataset/4/18_4.odb,Step-1,Increment      1: Step Time =    1.000,"PART-1-1",           297,      -5.89348,       21.6177,            0.,NA,NA,"",       3.22688,      -2.88809,      -1.43934,   243.459E-09
C:/temp/dataset/4/18_4.odb,Step-1,Increment      1: Step Time =    1.000,"PART-1-1",           298,      -7.97413,       13.6001,            0.,NA,NA,"",       2.72299,      -2.21447,      -1.58454,   5.45443E-06
C:/temp/dataset/4/18_4.odb,Step-1,Increment      1: Step Time =    1.000,"PART-1-1",           299,      -8.98702,       12.6704,            0.,NA,NA,"",       2.70676,      -2.13369,      -1.66551,   15.4608E-06
C:/temp/dataset/4/18_4.odb,Step-1,Increment      1: Step Time =    1.000,"PART-1-1",           300,      -8.00249,       11.5116,            0.,NA,NA,"",       2.58071,      -2.04076,      -1.57966,   19.2219E-06
C:/temp/dataset/4/18_4.odb,Step-1,Increment      1: Step Time =    1.000,"PART-1-1",           301,      -6.98959,       12.4413,            0.,NA,NA,"",       2.59751,      -2.12155,      -1.49869,   14.9777E-06
C:/temp/dataset/4/18_4.odb,Step-1,Increment      1: Step Time =    1.000,"PART-1-1",           302,      -9.95004,      -1.64066,            0.,NA,NA,"",       1.93810,  -939.097E-03,      -1.69538,   159.930E-06
C:/temp/dataset/4/18_4.odb,Step-1,Increment      1: Step Time =    1.000,"PART-1-1",           303,      -11.1983,  -513.068E-03,            0.,NA,NA,"",       2.07655,      -1.02913,      -1.80359,   149.416E-06
C:/temp/dataset/4/18_4.odb,Step-1,Increment      1: Step Time =    1.000,"PART-1-1",           304,      -12.5325,      -1.72297,            0.,NA,NA,"",       2.12209,  -923.132E-03,      -1.91078,   155.045E-06
C:/temp/dataset/4/18_4.odb,Step-1,Increment      1: Step Time =    1.000,"PART-1-1",           305,      -11.2842,      -2.85056,            0.,NA,NA,"",       1.98578,  -833.051E-03,      -1.80259,   172.641E-06
C:/temp/dataset/4/18_4.odb,Step-1,Increment      1: Step Time =    1.000,"PART-1-1",           306,      -10.2834,   741.336E-03,            0.,NA,NA,"",       2.07166,      -1.13730,      -1.73157,   113.984E-06
C:/temp/dataset/4/18_4.odb,Step-1,Increment      1: Step Time =    1.000,"PART-1-1",           307,      -11.7661,       1.72477,            0.,NA,NA,"",       2.22008,      -1.21413,      -1.85867,   102.388E-06
C:/temp/dataset/4/18_4.odb,Step-1,Increment      1: Step Time =    1.000,"PART-1-1",           308,      -12.6810,   470.366E-03,            0.,NA,NA,"",       2.22512,      -1.10611,      -1.93072,   126.838E-06
C:/temp/dataset/4/18_4.odb,Step-1,Increment      1: Step Time =    1.000,"PART-1-1",           309,         -1.25,           -5.,            0.,NA,NA,"",       1.16939,  -687.967E-03,  -945.613E-03,   1.22352E-03
C:/temp/dataset/4/18_4.odb,Step-1,Increment      1: Step Time =    1.000,"PART-1-1",           310,  -165.329E-03,      -4.13131,            0.,NA,NA,"",       1.14886,  -767.917E-03,  -854.506E-03,   2.20781E-03
C:/temp/dataset/4/18_4.odb,Step-1,Increment      1: Step Time =    1.000,"PART-1-1",           311,      -1.46228,      -3.26668,            0.,NA,NA,"",       1.27903,  -834.441E-03,  -969.337E-03,   2.15359E-03
C:/temp/dataset/4/18_4.odb,Step-1,Increment      1: Step Time =    1.000,"PART-1-1",           312,      -2.54695,      -4.13537,            0.,NA,NA,"",       1.30209,  -756.071E-03,      -1.06010,   893.985E-06
C:/temp/dataset/4/18_4.odb,Step-1,Increment      1: Step Time =    1.000,"PART-1-1",           313,   769.081E-03,      -3.16387,            0.,NA,NA,"",       1.15432,  -854.979E-03,  -775.540E-03,   4.05975E-03
C:/temp/dataset/4/18_4.odb,Step-1,Increment      1: Step Time =    1.000,"PART-1-1",           314,          1.25,           -5.,            0.,NA,NA,"",       1.01197,  -701.404E-03,  -729.456E-03,   3.61291E-03
C:/temp/dataset/4/18_4.odb,Step-1,Increment      1: Step Time =    1.000,"PART-1-1",           315,       2.18441,      -4.03256,            0.,NA,NA,"",       1.02433,  -792.440E-03,  -649.065E-03,   4.53463E-03
C:/temp/dataset/4/18_4.odb,Step-1,Increment      1: Step Time =    1.000,"PART-1-1",           316,       1.54561,       3.01681,            0.,NA,NA,"",       1.54025,      -1.35495,  -732.451E-03,   4.84911E-03
C:/temp/dataset/4/18_4.odb,Step-1,Increment      1: Step Time =    1.000,"PART-1-1",           317,       2.64536,       4.01417,            0.,NA,NA,"",       1.57354,      -1.43630,  -642.709E-03,   5.56707E-03
C:/temp/dataset/4/18_4.odb,Step-1,Increment      1: Step Time =    1.000,"PART-1-1",           318,          1.25,            5.,            0.,NA,NA,"",       1.70512,      -1.52172,  -769.302E-03,   5.75656E-03
C:/temp/dataset/4/18_4.odb,Step-1,Increment      1: Step Time =    1.000,"PART-1-1",           319,   150.245E-03,       4.00264,            0.,NA,NA,"",       1.67393,      -1.43510,  -861.713E-03,   4.90487E-03
C:/temp/dataset/4/18_4.odb,Step-1,Increment      1: Step Time =    1.000,"PART-1-1",           320,   179.474E-03,      -1.21124,            0.,NA,NA,"",       1.31066,      -1.01180,  -833.120E-03,   4.45858E-03
C:/temp/dataset/4/18_4.odb,Step-1,Increment      1: Step Time =    1.000,"PART-1-1",           321,  -580.901E-03,      -2.30818,            0.,NA,NA,"",       1.28303,  -918.517E-03,  -895.826E-03,   3.29340E-03
C:/temp/dataset/4/18_4.odb,Step-1,Increment      1: Step Time =    1.000,"PART-1-1",           322,       1.52946,      -2.06693,            0.,NA,NA,"",       1.18681,  -949.258E-03,  -712.331E-03,   5.22403E-03
C:/temp/dataset/4/18_4.odb,Step-1,Increment      1: Step Time =    1.000,"PART-1-1",           323,       12.7868,      -3.71378,            0.,NA,NA,"",   868.992E-03,  -860.549E-03,   120.840E-03,   5.90473E-03
C:/temp/dataset/4/18_4.odb,Step-1,Increment      1: Step Time =    1.000,"PART-1-1",           324,       13.8814,      -5.00619,            0.,NA,NA,"",   800.649E-03,  -778.838E-03,   185.609E-03,   8.47990E-03
C:/temp/dataset/4/18_4.odb,Step-1,Increment      1: Step Time =    1.000,"PART-1-1",           325,           15.,         -3.75,            0.,NA,NA,"",   910.076E-03,  -870.345E-03,   265.967E-03,   9.78616E-03
C:/temp/dataset/4/18_4.odb,Step-1,Increment      1: Step Time =    1.000,"PART-1-1",           326,       13.9054,      -2.45760,            0.,NA,NA,"",   974.962E-03,  -954.682E-03,   197.821E-03,   6.61480E-03
C:/temp/dataset/4/18_4.odb,Step-1,Increment      1: Step Time =    1.000,"PART-1-1",           327,       5.10003,      -1.40311,            0.,NA,NA,"",       1.09458,      -1.01412,  -411.893E-03,   5.60665E-03
C:/temp/dataset/4/18_4.odb,Step-1,Increment      1: Step Time =    1.000,"PART-1-1",           328,       3.80913,  -775.561E-03,            0.,NA,NA,"",       1.18166,      -1.06025,  -521.731E-03,   4.66671E-03
C:/temp/dataset/4/18_4.odb,Step-1,Increment      1: Step Time =    1.000,"PART-1-1",           329,       3.52110,      -1.80919,            0.,NA,NA,"",       1.11822,  -978.904E-03,  -540.518E-03,   5.89621E-03
C:/temp/dataset/4/18_4.odb,Step-1,Increment      1: Step Time =    1.000,"PART-1-1",           330,       4.81200,      -2.43673,            0.,NA,NA,"",       1.02793,  -934.977E-03,  -427.145E-03,   6.66631E-03
C:/temp/dataset/4/18_4.odb,Step-1,Increment      1: Step Time =    1.000,"PART-1-1",           331,           15.,          3.75,            0.,NA,NA,"",       1.44886,      -1.42152,   280.168E-03,   1.17033E-03
C:/temp/dataset/4/18_4.odb,Step-1,Increment      1: Step Time =    1.000,"PART-1-1",           332,       13.8386,       5.14064,            0.,NA,NA,"",       1.53402,      -1.52207,   191.107E-03,   703.703E-06
C:/temp/dataset/4/18_4.odb,Step-1,Increment      1: Step Time =    1.000,"PART-1-1",           333,       12.6076,       4.00525,            0.,NA,NA,"",       1.43741,      -1.43364,   104.054E-03,   2.10955E-03
C:/temp/dataset/4/18_4.odb,Step-1,Increment      1: Step Time =    1.000,"PART-1-1",           334,       13.7689,       2.61462,            0.,NA,NA,"",       1.34567,      -1.33204,   191.065E-03,   2.11090E-03
C:/temp/dataset/4/18_4.odb,Step-1,Increment      1: Step Time =    1.000,"PART-1-1",           335,       9.76439,       8.40859,            0.,NA,NA,"",       1.75748,      -1.75367,  -115.776E-03,   270.993E-06
C:/temp/dataset/4/18_4.odb,Step-1,Increment      1: Step Time =    1.000,"PART-1-1",           336,       8.59642,       7.53369,            0.,NA,NA,"",       1.69894,      -1.68730,  -198.556E-03,   836.940E-06
C:/temp/dataset/4/18_4.odb,Step-1,Increment      1: Step Time =    1.000,"PART-1-1",           337,       9.44563,       6.06261,            0.,NA,NA,"",       1.58693,      -1.58146,  -131.752E-03,   1.46054E-03
C:/temp/dataset/4/18_4.odb,Step-1,Increment      1: Step Time =    1.000,"PART-1-1",           338,       10.6136,       6.93751,            0.,NA,NA,"",       1.64853,      -1.64779,  -49.4693E-03,   906.928E-06
C:/temp/dataset/4/18_4.odb,Step-1,Increment      1: Step Time =    1.000,"PART-1-1",           339,       5.92452,       9.07762,            0.,NA,NA,"",       1.83607,      -1.79265,  -396.954E-03,   210.556E-06
C:/temp/dataset/4/18_4.odb,Step-1,Increment      1: Step Time =    1.000,"PART-1-1",           340,            5.,         8.125,            0.,NA,NA,"",       1.78205,      -1.72140,  -460.946E-03,   448.214E-06
C:/temp/dataset/4/18_4.odb,Step-1,Increment      1: Step Time =    1.000,"PART-1-1",           341,       5.83838,       7.03541,            0.,NA,NA,"",       1.69309,      -1.64567,  -397.901E-03,   827.393E-06
C:/temp/dataset/4/18_4.odb,Step-1,Increment      1: Step Time =    1.000,"PART-1-1",           342,       6.76290,       7.98803,            0.,NA,NA,"",       1.74812,      -1.71604,  -333.348E-03,   515.746E-06
C:/temp/dataset/4/18_4.odb,Step-1,Increment      1: Step Time =    1.000,"PART-1-1",           343,       6.00358,       15.4027,            0.,NA,NA,"",       2.29072,      -2.25400,  -408.502E-03,   25.0320E-06
C:/temp/dataset/4/18_4.odb,Step-1,Increment      1: Step Time =    1.000,"PART-1-1",           344,            5.,        14.375,            0.,NA,NA,"",       2.22841,      -2.17632,  -478.970E-03,   56.5380E-06
C:/temp/dataset/4/18_4.odb,Step-1,Increment      1: Step Time =    1.000,"PART-1-1",           345,       5.99171,       13.2884,            0.,NA,NA,"",       2.13808,      -2.09963,  -403.666E-03,   63.8274E-06
C:/temp/dataset/4/18_4.odb,Step-1,Increment      1: Step Time =    1.000,"PART-1-1",           346,       6.99529,       14.3161,            0.,NA,NA,"",       2.20267,      -2.17732,  -333.247E-03,   55.2827E-06
C:/temp/dataset/4/18_4.odb,Step-1,Increment      1: Step Time =    1.000,"PART-1-1",           347,       11.7328,       24.6815,            0.,NA,NA,"",       2.94659,      -2.94655,  -15.1400E-03,   253.556E-09
C:/temp/dataset/4/18_4.odb,Step-1,Increment      1: Step Time =    1.000,"PART-1-1",           348,       12.6496,       26.1279,            0.,NA,NA,"",       3.05493,      -3.05455,   47.9136E-03,   263.545E-09
C:/temp/dataset/4/18_4.odb,Step-1,Increment      1: Step Time =    1.000,"PART-1-1",           349,       11.2054,       27.2635,            0.,NA,NA,"",       3.13417,      -3.13358,  -60.5124E-03,   176.882E-09
C:/temp/dataset/4/18_4.odb,Step-1,Increment      1: Step Time =    1.000,"PART-1-1",           350,       10.2886,       25.8171,            0.,NA,NA,"",       3.02810,      -3.02558,  -123.566E-03,   208.658E-09
C:/temp/dataset/4/18_4.odb,Step-1,Increment      1: Step Time =    1.000,"PART-1-1",           351,       12.5134,       28.7000,            0.,NA,NA,"",       3.24206,      -3.24191,   31.1159E-03,   153.168E-09
C:/temp/dataset/4/18_4.odb,Step-1,Increment      1: Step Time =    1.000,"PART-1-1",           352,       13.7634,       27.4500,            0.,NA,NA,"",       3.15652,      -3.15402,   125.679E-03,   154.717E-09
C:/temp/dataset/4/18_4.odb,Step-1,Increment      1: Step Time =    1.000,"PART-1-1",           353,           15.,         28.75,            0.,NA,NA,"",       3.25913,      -3.25219,   212.463E-03,   49.4785E-09
C:/temp/dataset/4/18_4.odb,Step-1,Increment      1: Step Time =    1.000,"PART-1-1",           354,         13.75,           30.,            0.,NA,NA,"",       3.34217,      -3.34009,   117.900E-03,   38.1301E-09
C:/temp/dataset/4/18_4.odb,Step-1,Increment      1: Step Time =    1.000,"PART-1-1",           355,      -3.83569,      -2.96698,            0.,NA,NA,"",       1.44973,  -849.470E-03,      -1.17479,   1.03601E-03
C:/temp/dataset/4/18_4.odb,Step-1,Increment      1: Step Time =    1.000,"PART-1-1",           356,      -2.47303,      -2.56070,            0.,NA,NA,"",       1.38279,  -889.033E-03,      -1.05912,   1.88605E-03
C:/temp/dataset/4/18_4.odb,Step-1,Increment      1: Step Time =    1.000,"PART-1-1",           357,      -2.95938,      -1.35275,            0.,NA,NA,"",       1.48254,  -987.651E-03,      -1.10565,   2.12774E-03
C:/temp/dataset/4/18_4.odb,Step-1,Increment      1: Step Time =    1.000,"PART-1-1",           358,      -4.32205,      -1.75903,            0.,NA,NA,"",       1.54628,  -948.892E-03,      -1.22089,   1.25226E-03
C:/temp/dataset/4/18_4.odb,Step-1,Increment      1: Step Time =    1.000,"PART-1-1",           359,       8.60967,      -7.25473,            0.,NA,NA,"",   633.650E-03,  -620.532E-03,  -128.264E-03,   4.58260E-03
C:/temp/dataset/4/18_4.odb,Step-1,Increment      1: Step Time =    1.000,"PART-1-1",           360,       7.51358,      -6.44375,            0.,NA,NA,"",   695.111E-03,  -666.133E-03,  -198.610E-03,   8.06469E-03
C:/temp/dataset/4/18_4.odb,Step-1,Increment      1: Step Time =    1.000,"PART-1-1",           361,       6.75300,      -7.77251,            0.,NA,NA,"",   636.498E-03,  -593.403E-03,  -230.223E-03,   11.6243E-03
C:/temp/dataset/4/18_4.odb,Step-1,Increment      1: Step Time =    1.000,"PART-1-1",           362,       7.84909,      -8.58350,            0.,NA,NA,"",   571.771E-03,  -548.478E-03,  -161.538E-03,   8.02476E-03
C:/temp/dataset/4/18_4.odb,Step-1,Increment      1: Step Time =    1.000,"PART-1-1",           363,       7.07130,      -14.2100,            0.,NA,NA,"",   328.478E-03,  -294.818E-03,  -144.846E-03,   10.3949E-03
C:/temp/dataset/4/18_4.odb,Step-1,Increment      1: Step Time =    1.000,"PART-1-1",           364,       6.02882,      -13.2279,            0.,NA,NA,"",   392.205E-03,  -338.456E-03,  -198.172E-03,   13.4080E-03
C:/temp/dataset/4/18_4.odb,Step-1,Increment      1: Step Time =    1.000,"PART-1-1",           365,            5.,       -14.375,            0.,NA,NA,"",   373.521E-03,  -299.474E-03,  -223.234E-03,   16.3287E-03
C:/temp/dataset/4/18_4.odb,Step-1,Increment      1: Step Time =    1.000,"PART-1-1",           366,       6.04247,      -15.3570,            0.,NA,NA,"",   308.663E-03,  -257.277E-03,  -170.534E-03,   13.3122E-03
C:/temp/dataset/4/18_4.odb,Step-1,Increment      1: Step Time =    1.000,"PART-1-1",           367,       7.02995,      -12.0379,            0.,NA,NA,"",   419.839E-03,  -384.371E-03,  -168.888E-03,   10.5899E-03
C:/temp/dataset/4/18_4.odb,Step-1,Increment      1: Step Time =    1.000,"PART-1-1",           368,       6.00113,      -11.1016,            0.,NA,NA,"",   487.167E-03,  -430.935E-03,  -227.215E-03,   13.5442E-03
C:/temp/dataset/4/18_4.odb,Step-1,Increment      1: Step Time =    1.000,"PART-1-1",           369,            5.,      -12.2917,            0.,NA,NA,"",   461.019E-03,  -383.722E-03,  -255.532E-03,   16.3767E-03
C:/temp/dataset/4/18_4.odb,Step-1,Increment      1: Step Time =    1.000,"PART-1-1",           370,            5.,      -22.7083,            0.,NA,NA,"",   122.996E-03,  -72.6666E-03,  -99.2345E-03,   15.7746E-03
C:/temp/dataset/4/18_4.odb,Step-1,Increment      1: Step Time =    1.000,"PART-1-1",           371,       6.05922,      -23.7899,            0.,NA,NA,"",   84.2627E-03,  -49.2414E-03,  -68.3775E-03,   12.7753E-03
C:/temp/dataset/4/18_4.odb,Step-1,Increment      1: Step Time =    1.000,"PART-1-1",           372,       7.11013,      -22.7834,            0.,NA,NA,"",   85.8741E-03,  -59.4695E-03,  -61.9495E-03,   9.95783E-03
C:/temp/dataset/4/18_4.odb,Step-1,Increment      1: Step Time =    1.000,"PART-1-1",           373,       6.05091,      -21.7018,            0.,NA,NA,"",   125.359E-03,  -84.1382E-03,  -92.9276E-03,   12.9484E-03
C:/temp/dataset/4/18_4.odb,Step-1,Increment      1: Step Time =    1.000,"PART-1-1",           374,          8.75,          -30.,            0.,NA,NA,"",            0.,   2.52276E-39,  -8.21290E-39,   4.70055E-03
C:/temp/dataset/4/18_4.odb,Step-1,Increment      1: Step Time =    1.000,"PART-1-1",           375,       9.84988,      -28.9274,            0.,NA,NA,"",   3.01564E-03,   2.52144E-03,  -1.65421E-03,   2.54886E-03
C:/temp/dataset/4/18_4.odb,Step-1,Increment      1: Step Time =    1.000,"PART-1-1",           376,       8.52411,      -27.9095,            0.,NA,NA,"",   9.39777E-03,  -1.24110E-03,  -9.31546E-03,   5.92079E-03
C:/temp/dataset/4/18_4.odb,Step-1,Increment      1: Step Time =    1.000,"PART-1-1",           377,       7.42422,      -28.9821,            0.,NA,NA,"",   6.39995E-03,   77.8779E-06,  -6.39948E-03,   7.85179E-03
C:/temp/dataset/4/18_4.odb,Step-1,Increment      1: Step Time =    1.000,"PART-1-1",           378,       10.1104,      -23.9794,            0.,NA,NA,"",   34.8484E-03,  -33.8955E-03,  -8.09392E-03,   1.70594E-03
C:/temp/dataset/4/18_4.odb,Step-1,Increment      1: Step Time =    1.000,"PART-1-1",           379,       11.1261,      -23.0268,            0.,NA,NA,"",   48.7810E-03,  -48.2367E-03,   7.26646E-03,   1.25423E-03
C:/temp/dataset/4/18_4.odb,Step-1,Increment      1: Step Time =    1.000,"PART-1-1",           380,       10.1523,      -21.9025,            0.,NA,NA,"",   68.6628E-03,  -67.8368E-03,  -10.6183E-03,   1.54010E-03
C:/temp/dataset/4/18_4.odb,Step-1,Increment      1: Step Time =    1.000,"PART-1-1",           381,       9.13660,      -22.8552,            0.,NA,NA,"",   58.4551E-03,  -52.0788E-03,  -26.5480E-03,   4.38618E-03
C:/temp/dataset/4/18_4.odb,Step-1,Increment      1: Step Time =    1.000,"PART-1-1",           382,       7.09296,      -18.5383,            0.,NA,NA,"",   183.416E-03,  -152.600E-03,  -101.757E-03,   10.1687E-03
C:/temp/dataset/4/18_4.odb,Step-1,Increment      1: Step Time =    1.000,"PART-1-1",           383,       6.04465,      -17.4814,            0.,NA,NA,"",   236.741E-03,  -187.906E-03,  -144.006E-03,   13.2173E-03
C:/temp/dataset/4/18_4.odb,Step-1,Increment      1: Step Time =    1.000,"PART-1-1",           384,            5.,      -18.5417,            0.,NA,NA,"",   229.283E-03,  -164.132E-03,  -160.098E-03,   16.1489E-03
C:/temp/dataset/4/18_4.odb,Step-1,Increment      1: Step Time =    1.000,"PART-1-1",           385,       6.04831,      -19.5985,            0.,NA,NA,"",   175.793E-03,  -130.218E-03,  -118.094E-03,   13.0959E-03
C:/temp/dataset/4/18_4.odb,Step-1,Increment      1: Step Time =    1.000,"PART-1-1",           386,       8.88188,       22.9635,            0.,NA,NA,"",       2.82204,      -2.81355,  -218.626E-03,   606.227E-09
C:/temp/dataset/4/18_4.odb,Step-1,Increment      1: Step Time =    1.000,"PART-1-1",           387,       9.93448,       22.0483,            0.,NA,NA,"",       2.75310,      -2.74957,  -139.363E-03,   961.537E-09
C:/temp/dataset/4/18_4.odb,Step-1,Increment      1: Step Time =    1.000,"PART-1-1",           388,       10.8087,       23.3359,            0.,NA,NA,"",       2.84697,      -2.84588,  -78.9957E-03,   475.436E-09
C:/temp/dataset/4/18_4.odb,Step-1,Increment      1: Step Time =    1.000,"PART-1-1",           389,       9.75606,       24.2511,            0.,NA,NA,"",       2.91416,      -2.90986,  -158.259E-03,   259.451E-09
C:/temp/dataset/4/18_4.odb,Step-1,Increment      1: Step Time =    1.000,"PART-1-1",           390,       10.0218,       17.5512,            0.,NA,NA,"",       2.42461,      -2.42159,  -121.016E-03,   15.1018E-06
C:/temp/dataset/4/18_4.odb,Step-1,Increment      1: Step Time =    1.000,"PART-1-1",           391,       9.00837,       16.4411,            0.,NA,NA,"",       2.34572,      -2.33784,  -192.030E-03,   28.9634E-06
C:/temp/dataset/4/18_4.odb,Step-1,Increment      1: Step Time =    1.000,"PART-1-1",           392,       10.0249,       15.2736,            0.,NA,NA,"",       2.25829,      -2.25537,  -114.767E-03,   39.0952E-06
C:/temp/dataset/4/18_4.odb,Step-1,Increment      1: Step Time =    1.000,"PART-1-1",           393,       11.0383,       16.3837,            0.,NA,NA,"",       2.33952,      -2.33911,  -43.7301E-03,   29.1594E-06
C:/temp/dataset/4/18_4.odb,Step-1,Increment      1: Step Time =    1.000,"PART-1-1",           394,      -14.0638,       5.89996,            0.,NA,NA,"",       2.58358,      -1.55359,      -2.06427,   111.876E-06
C:/temp/dataset/4/18_4.odb,Step-1,Increment      1: Step Time =    1.000,"PART-1-1",           395,      -13.1194,       6.91794,            0.,NA,NA,"",       2.57899,      -1.64149,      -1.98915,   94.2885E-06
C:/temp/dataset/4/18_4.odb,Step-1,Increment      1: Step Time =    1.000,"PART-1-1",           396,      -14.0556,       8.04923,            0.,NA,NA,"",       2.69984,      -1.73222,      -2.07089,   55.9620E-06
C:/temp/dataset/4/18_4.odb,Step-1,Increment      1: Step Time =    1.000,"PART-1-1",           397,          -15.,       7.03125,            0.,NA,NA,"",       2.70349,      -1.64434,      -2.14593,   97.2587E-06
C:/temp/dataset/4/18_4.odb,Step-1,Increment      1: Step Time =    1.000,"PART-1-1",           398,      -14.0181,       12.3521,            0.,NA,NA,"",       2.95037,      -2.08987,      -2.08258,   5.21031E-06
C:/temp/dataset/4/18_4.odb,Step-1,Increment      1: Step Time =    1.000,"PART-1-1",           399,      -13.0189,       13.2775,            0.,NA,NA,"",       2.95311,      -2.17024,      -2.00273,   6.39457E-06
C:/temp/dataset/4/18_4.odb,Step-1,Increment      1: Step Time =    1.000,"PART-1-1",           400,      -14.0008,       14.5192,            0.,NA,NA,"",       3.08472,      -2.27004,      -2.08864,   1.39411E-06
C:/temp/dataset/4/18_4.odb,Step-1,Increment      1: Step Time =    1.000,"PART-1-1",           401,          -15.,       13.5938,            0.,NA,NA,"",       3.08171,      -2.18966,      -2.16848,   1.53819E-06
C:/temp/dataset/4/18_4.odb,Step-1,Increment      1: Step Time =    1.000,"PART-1-1",           402,      -10.1942,       21.9572,            0.,NA,NA,"",       3.41336,      -2.90143,      -1.79798,   349.007E-09
C:/temp/dataset/4/18_4.odb,Step-1,Increment      1: Step Time =    1.000,"PART-1-1",           403,      -9.14995,       21.4132,            0.,NA,NA,"",       3.33172,      -2.85983,      -1.70931,   387.044E-09
C:/temp/dataset/4/18_4.odb,Step-1,Increment      1: Step Time =    1.000,"PART-1-1",           404,      -8.60578,       22.3365,            0.,NA,NA,"",       3.37850,      -2.93845,      -1.66727,   291.920E-09
C:/temp/dataset/4/18_4.odb,Step-1,Increment      1: Step Time =    1.000,"PART-1-1",           405,      -9.65000,       22.8805,            0.,NA,NA,"",       3.45891,      -2.98005,      -1.75595,   219.685E-09
C:/temp/dataset/4/18_4.odb,Step-1,Increment      1: Step Time =    1.000,"PART-1-1",           406,      -14.0213,       25.7108,            0.,NA,NA,"",       3.84370,      -3.20017,      -2.12907,   20.4159E-09
C:/temp/dataset/4/18_4.odb,Step-1,Increment      1: Step Time =    1.000,"PART-1-1",           407,      -12.8802,       26.8172,            0.,NA,NA,"",       3.87529,      -3.29609,      -2.03806,   23.9045E-09
C:/temp/dataset/4/18_4.odb,Step-1,Increment      1: Step Time =    1.000,"PART-1-1",           408,      -13.8589,       27.8252,            0.,NA,NA,"",       3.98840,      -3.37649,      -2.12289,   2.88436E-09
C:/temp/dataset/4/18_4.odb,Step-1,Increment      1: Step Time =    1.000,"PART-1-1",           409,          -15.,       26.7188,            0.,NA,NA,"",       3.95772,      -3.28057,      -2.21391,   4.44981E-09
C:/temp/dataset/4/18_4.odb,Step-1,Increment      1: Step Time =    1.000,"PART-1-1",           410,        -13.75,           30.,            0.,NA,NA,"",       4.14209,      -3.55763,      -2.12136,   2.64367E-09
C:/temp/dataset/4/18_4.odb,Step-1,Increment      1: Step Time =    1.000,"PART-1-1",           411,          -15.,       28.9063,            0.,NA,NA,"",       4.11377,      -3.46239,      -2.22148,   2.17636E-09
C:/temp/dataset/4/18_4.odb,Step-1,Increment      1: Step Time =    1.000,"PART-1-1",           412,      -12.6089,       28.9190,            0.,NA,NA,"",       4.01802,      -3.47172,      -2.02278,   3.09321E-09
C:/temp/dataset/4/18_4.odb,Step-1,Increment      1: Step Time =    1.000,"PART-1-1",           413,      -11.4362,       27.6040,            0.,NA,NA,"",       3.87589,      -3.36648,      -1.92075,   15.5550E-09
C:/temp/dataset/4/18_4.odb,Step-1,Increment      1: Step Time =    1.000,"PART-1-1",           414,      -10.0773,       28.6850,            0.,NA,NA,"",       3.90646,      -3.46104,      -1.81154,   9.87662E-09
C:/temp/dataset/4/18_4.odb,Step-1,Increment      1: Step Time =    1.000,"PART-1-1",           415,        -11.25,           30.,            0.,NA,NA,"",       4.04723,      -3.56628,      -1.91357,   3.33930E-09
C:/temp/dataset/4/18_4.odb,Step-1,Increment      1: Step Time =    1.000,"PART-1-1",           416,      -13.7240,       21.2404,            0.,NA,NA,"",       3.51714,      -2.82963,      -2.08889,   278.755E-09
C:/temp/dataset/4/18_4.odb,Step-1,Increment      1: Step Time =    1.000,"PART-1-1",           417,      -12.6979,       22.4429,            0.,NA,NA,"",       3.55450,      -2.93314,      -2.00777,   264.559E-09
C:/temp/dataset/4/18_4.odb,Step-1,Increment      1: Step Time =    1.000,"PART-1-1",           418,      -13.9739,       23.5463,            0.,NA,NA,"",       3.68883,      -3.02044,      -2.11764,   88.5211E-09
C:/temp/dataset/4/18_4.odb,Step-1,Increment      1: Step Time =    1.000,"PART-1-1",           419,          -15.,       22.3438,            0.,NA,NA,"",       3.65282,      -2.91693,      -2.19877,   210.967E-09
C:/temp/dataset/4/18_4.odb,Step-1,Increment      1: Step Time =    1.000,"PART-1-1",           420,      -11.9375,       16.3352,            0.,NA,NA,"",       3.09763,      -2.42811,      -1.92343,   665.759E-09
C:/temp/dataset/4/18_4.odb,Step-1,Increment      1: Step Time =    1.000,"PART-1-1",           421,      -10.8584,       17.1847,            0.,NA,NA,"",       3.10413,      -2.50245,      -1.83668,   833.354E-09
C:/temp/dataset/4/18_4.odb,Step-1,Increment      1: Step Time =    1.000,"PART-1-1",           422,      -11.8099,       18.4796,            0.,NA,NA,"",       3.23770,      -2.60679,      -1.92024,   738.932E-09
C:/temp/dataset/4/18_4.odb,Step-1,Increment      1: Step Time =    1.000,"PART-1-1",           423,      -12.8889,       17.6301,            0.,NA,NA,"",       3.23130,      -2.53245,      -2.00699,   765.168E-09
C:/temp/dataset/4/18_4.odb,Step-1,Increment      1: Step Time =    1.000,"PART-1-1",           424,      -9.98079,       13.8692,            0.,NA,NA,"",       2.83601,      -2.22991,      -1.75226,   5.32734E-06
C:/temp/dataset/4/18_4.odb,Step-1,Increment      1: Step Time =    1.000,"PART-1-1",           425,      -11.0142,       12.9724,            0.,NA,NA,"",       2.82801,      -2.15180,      -1.83505,   11.4848E-06
C:/temp/dataset/4/18_4.odb,Step-1,Increment      1: Step Time =    1.000,"PART-1-1",           426,      -10.0204,       11.7735,            0.,NA,NA,"",       2.69851,      -2.05559,      -1.74829,   17.7659E-06
C:/temp/dataset/4/18_4.odb,Step-1,Increment      1: Step Time =    1.000,"PART-1-1",           427,      -6.95613,       14.5250,            0.,NA,NA,"",       2.74333,      -2.29488,      -1.50313,   2.44472E-06
C:/temp/dataset/4/18_4.odb,Step-1,Increment      1: Step Time =    1.000,"PART-1-1",           428,      -5.98929,       13.4097,            0.,NA,NA,"",       2.62251,      -2.20551,      -1.41890,   1.49991E-06
C:/temp/dataset/4/18_4.odb,Step-1,Increment      1: Step Time =    1.000,"PART-1-1",           429,           -5.,        14.375,            0.,NA,NA,"",       2.65254,      -2.28918,      -1.34001,   3.85807E-06
C:/temp/dataset/4/18_4.odb,Step-1,Increment      1: Step Time =    1.000,"PART-1-1",           430,      -5.96684,       15.4903,            0.,NA,NA,"",       2.77234,      -2.37854,      -1.42423,   1.31479E-06
C:/temp/dataset/4/18_4.odb,Step-1,Increment      1: Step Time =    1.000,"PART-1-1",           431,      -11.0581,       10.8707,            0.,NA,NA,"",       2.69491,      -1.97699,      -1.83140,   36.3121E-06
C:/temp/dataset/4/18_4.odb,Step-1,Increment      1: Step Time =    1.000,"PART-1-1",           432,      -10.0579,       9.67932,            0.,NA,NA,"",       2.56547,      -1.88141,      -1.74411,   60.0432E-06
C:/temp/dataset/4/18_4.odb,Step-1,Increment      1: Step Time =    1.000,"PART-1-1",           433,      -9.02030,       10.5821,            0.,NA,NA,"",       2.56915,      -1.95999,      -1.66102,   47.1503E-06
C:/temp/dataset/4/18_4.odb,Step-1,Increment      1: Step Time =    1.000,"PART-1-1",           434,      -7.04064,       8.20966,            0.,NA,NA,"",       2.31210,      -1.76946,      -1.48824,   232.143E-06
C:/temp/dataset/4/18_4.odb,Step-1,Increment      1: Step Time =    1.000,"PART-1-1",           435,      -6.03068,       7.10065,            0.,NA,NA,"",       2.18774,      -1.68053,      -1.40073,   233.489E-06
C:/temp/dataset/4/18_4.odb,Step-1,Increment      1: Step Time =    1.000,"PART-1-1",           436,           -5.,         8.125,            0.,NA,NA,"",       2.20667,      -1.76955,      -1.31837,   179.547E-06
C:/temp/dataset/4/18_4.odb,Step-1,Increment      1: Step Time =    1.000,"PART-1-1",           437,      -6.00996,       9.23401,            0.,NA,NA,"",       2.33034,      -1.85827,      -1.40617,   49.6470E-06
C:/temp/dataset/4/18_4.odb,Step-1,Increment      1: Step Time =    1.000,"PART-1-1",           438,      -13.0926,       9.02789,            0.,NA,NA,"",       2.69773,      -1.81687,      -1.99418,   54.4299E-06
C:/temp/dataset/4/18_4.odb,Step-1,Increment      1: Step Time =    1.000,"PART-1-1",           439,      -14.0370,       10.1974,            0.,NA,NA,"",       2.82201,      -1.91076,      -2.07672,   20.5745E-06
C:/temp/dataset/4/18_4.odb,Step-1,Increment      1: Step Time =    1.000,"PART-1-1",           440,          -15.,       9.21875,            0.,NA,NA,"",       2.82342,      -1.82611,      -2.15338,   36.3919E-06
C:/temp/dataset/4/18_4.odb,Step-1,Increment      1: Step Time =    1.000,"PART-1-1",           441,      -13.9055,       1.56280,            0.,NA,NA,"",       2.36027,      -1.19299,      -2.03657,   170.904E-06
C:/temp/dataset/4/18_4.odb,Step-1,Increment      1: Step Time =    1.000,"PART-1-1",           442,      -12.9296,       2.64306,            0.,NA,NA,"",       2.34355,      -1.28657,      -1.95882,   108.815E-06
C:/temp/dataset/4/18_4.odb,Step-1,Increment      1: Step Time =    1.000,"PART-1-1",           443,      -14.0241,       3.73651,            0.,NA,NA,"",       2.47083,      -1.37377,      -2.05372,   162.707E-06
C:/temp/dataset/4/18_4.odb,Step-1,Increment      1: Step Time =    1.000,"PART-1-1",           444,          -15.,       2.65625,            0.,NA,NA,"",       2.48641,      -1.28029,      -2.13146,   231.016E-06
C:/temp/dataset/4/18_4.odb,Step-1,Increment      1: Step Time =    1.000,"PART-1-1",           445,      -13.7570,      -2.81804,            0.,NA,NA,"",       2.17286,  -827.160E-03,      -2.00926,   91.5128E-06
C:/temp/dataset/4/18_4.odb,Step-1,Increment      1: Step Time =    1.000,"PART-1-1",           446,      -13.7756,  -623.683E-03,            0.,NA,NA,"",       2.25729,      -1.01074,      -2.01836,   143.132E-06
C:/temp/dataset/4/18_4.odb,Step-1,Increment      1: Step Time =    1.000,"PART-1-1",           447,          -15.,      -1.71875,            0.,NA,NA,"",       2.30615,  -914.768E-03,      -2.11696,   109.692E-06
C:/temp/dataset/4/18_4.odb,Step-1,Increment      1: Step Time =    1.000,"PART-1-1",           448,        -13.75,           -5.,            0.,NA,NA,"",       2.10233,  -644.657E-03,      -2.00105,   24.5621E-06
C:/temp/dataset/4/18_4.odb,Step-1,Increment      1: Step Time =    1.000,"PART-1-1",           449,      -12.5070,      -3.91179,            0.,NA,NA,"",       2.03993,  -739.973E-03,      -1.90099,   97.6954E-06
C:/temp/dataset/4/18_4.odb,Step-1,Increment      1: Step Time =    1.000,"PART-1-1",           450,          -15.,      -3.90625,            0.,NA,NA,"",       2.23271,  -731.749E-03,      -2.10939,   19.4178E-06
C:/temp/dataset/4/18_4.odb,Step-1,Increment      1: Step Time =    1.000,"PART-1-1",           451,          -15.,    468.75E-03,            0.,NA,NA,"",       2.39115,      -1.09770,      -2.12430,   205.700E-06
C:/temp/dataset/4/18_4.odb,Step-1,Increment      1: Step Time =    1.000,"PART-1-1",           452,      -5.10506,       2.56414,            0.,NA,NA,"",       1.84831,      -1.30708,      -1.30683,   1.75894E-03
C:/temp/dataset/4/18_4.odb,Step-1,Increment      1: Step Time =    1.000,"PART-1-1",           453,      -4.59209,       3.94539,            0.,NA,NA,"",       1.90885,      -1.42379,      -1.27144,   2.47597E-03
C:/temp/dataset/4/18_4.odb,Step-1,Increment      1: Step Time =    1.000,"PART-1-1",           454,      -6.09775,       4.77703,            0.,NA,NA,"",       2.04126,      -1.48759,      -1.39778,   480.518E-06
C:/temp/dataset/4/18_4.odb,Step-1,Increment      1: Step Time =    1.000,"PART-1-1",           455,      -6.61072,       3.39578,            0.,NA,NA,"",       1.98508,      -1.37155,      -1.43506,   346.374E-06
C:/temp/dataset/4/18_4.odb,Step-1,Increment      1: Step Time =    1.000,"PART-1-1",           456,       9.44090,      -5.60228,            0.,NA,NA,"",   726.631E-03,  -721.578E-03,  -85.5451E-03,   2.90205E-03
C:/temp/dataset/4/18_4.odb,Step-1,Increment      1: Step Time =    1.000,"PART-1-1",           457,       9.79564,      -4.46986,            0.,NA,NA,"",   800.107E-03,  -797.328E-03,  -66.6244E-03,   4.11398E-03
C:/temp/dataset/4/18_4.odb,Step-1,Increment      1: Step Time =    1.000,"PART-1-1",           458,       8.43936,      -4.09444,            0.,NA,NA,"",   833.211E-03,  -818.948E-03,  -153.508E-03,   4.95071E-03
C:/temp/dataset/4/18_4.odb,Step-1,Increment      1: Step Time =    1.000,"PART-1-1",           459,       8.08462,      -5.22686,            0.,NA,NA,"",   761.159E-03,  -741.840E-03,  -170.403E-03,   4.66385E-03
C:/temp/dataset/4/18_4.odb,Step-1,Increment      1: Step Time =    1.000,"PART-1-1",           460,       6.93926,      -9.88629,            0.,NA,NA,"",   523.034E-03,  -484.766E-03,  -196.384E-03,   11.0157E-03
C:/temp/dataset/4/18_4.odb,Step-1,Increment      1: Step Time =    1.000,"PART-1-1",           461,       5.93813,      -8.99303,            0.,NA,NA,"",   593.122E-03,  -533.756E-03,  -258.647E-03,   13.9925E-03
C:/temp/dataset/4/18_4.odb,Step-1,Increment      1: Step Time =    1.000,"PART-1-1",           462,            5.,      -10.2083,            0.,NA,NA,"",   558.765E-03,  -478.569E-03,  -288.428E-03,   16.3006E-03
C:/temp/dataset/4/18_4.odb,Step-1,Increment      1: Step Time =    1.000,"PART-1-1",           463,       12.9852,      -11.3613,            0.,NA,NA,"",   428.981E-03,  -416.833E-03,   101.364E-03,   6.83841E-03
C:/temp/dataset/4/18_4.odb,Step-1,Increment      1: Step Time =    1.000,"PART-1-1",           464,       14.0059,      -12.5461,            0.,NA,NA,"",   393.694E-03,  -368.139E-03,   139.530E-03,   9.85394E-03
C:/temp/dataset/4/18_4.odb,Step-1,Increment      1: Step Time =    1.000,"PART-1-1",           465,           15.,        -11.25,            0.,NA,NA,"",   475.529E-03,  -433.207E-03,   196.110E-03,   12.8975E-03
C:/temp/dataset/4/18_4.odb,Step-1,Increment      1: Step Time =    1.000,"PART-1-1",           466,       13.9793,      -10.0652,            0.,NA,NA,"",   509.828E-03,  -484.885E-03,   157.516E-03,   9.88567E-03
C:/temp/dataset/4/18_4.odb,Step-1,Increment      1: Step Time =    1.000,"PART-1-1",           467,       7.08713,      -16.3801,            0.,NA,NA,"",   249.727E-03,  -217.484E-03,  -122.736E-03,   10.2667E-03
C:/temp/dataset/4/18_4.odb,Step-1,Increment      1: Step Time =    1.000,"PART-1-1",           468,            5.,      -16.4583,            0.,NA,NA,"",   296.368E-03,  -226.280E-03,  -191.393E-03,   16.2676E-03
C:/temp/dataset/4/18_4.odb,Step-1,Increment      1: Step Time =    1.000,"PART-1-1",           469,       13.0372,      -13.8111,            0.,NA,NA,"",   323.646E-03,  -310.662E-03,   90.7529E-03,   6.92088E-03
C:/temp/dataset/4/18_4.odb,Step-1,Increment      1: Step Time =    1.000,"PART-1-1",           470,       14.0313,      -15.0151,            0.,NA,NA,"",   294.599E-03,  -268.706E-03,   120.772E-03,   9.77377E-03
C:/temp/dataset/4/18_4.odb,Step-1,Increment      1: Step Time =    1.000,"PART-1-1",           471,           15.,        -13.75,            0.,NA,NA,"",   365.162E-03,  -323.336E-03,   169.698E-03,   12.7052E-03
C:/temp/dataset/4/18_4.odb,Step-1,Increment      1: Step Time =    1.000,"PART-1-1",           472,       13.0981,      -18.6529,            0.,NA,NA,"",   161.450E-03,  -147.567E-03,   65.4978E-03,   6.90550E-03
C:/temp/dataset/4/18_4.odb,Step-1,Increment      1: Step Time =    1.000,"PART-1-1",           473,       14.0553,      -19.9280,            0.,NA,NA,"",   143.626E-03,  -118.494E-03,   81.1632E-03,   9.55082E-03
C:/temp/dataset/4/18_4.odb,Step-1,Increment      1: Step Time =    1.000,"PART-1-1",           474,           15.,        -18.75,            0.,NA,NA,"",   192.899E-03,  -153.799E-03,   116.429E-03,   12.3050E-03
C:/temp/dataset/4/18_4.odb,Step-1,Increment      1: Step Time =    1.000,"PART-1-1",           475,       14.0427,      -17.4749,            0.,NA,NA,"",   211.377E-03,  -185.643E-03,   101.079E-03,   9.65933E-03
C:/temp/dataset/4/18_4.odb,Step-1,Increment      1: Step Time =    1.000,"PART-1-1",           476,       6.17422,      -27.9405,            0.,NA,NA,"",   22.3812E-03,  -9.09267E-03,  -20.4509E-03,   12.2834E-03
C:/temp/dataset/4/18_4.odb,Step-1,Increment      1: Step Time =    1.000,"PART-1-1",           477,            5.,      -28.9583,            0.,NA,NA,"",   17.0518E-03,  -10.4767E-03,  -13.4537E-03,   14.9522E-03
C:/temp/dataset/4/18_4.odb,Step-1,Increment      1: Step Time =    1.000,"PART-1-1",           478,          6.25,          -30.,            0.,NA,NA,"",            0.,   818.508E-42,  -17.8203E-39,   10.8701E-03
C:/temp/dataset/4/18_4.odb,Step-1,Increment      1: Step Time =    1.000,"PART-1-1",           479,       9.46325,      -26.8820,            0.,NA,NA,"",   9.64652E-03,  -5.03275E-03,  -8.22963E-03,   3.42247E-03
C:/temp/dataset/4/18_4.odb,Step-1,Increment      1: Step Time =    1.000,"PART-1-1",           480,       8.20536,      -25.9154,            0.,NA,NA,"",   27.7414E-03,  -15.2696E-03,  -23.1608E-03,   7.00381E-03
C:/temp/dataset/4/18_4.odb,Step-1,Increment      1: Step Time =    1.000,"PART-1-1",           481,       7.26622,      -26.9429,            0.,NA,NA,"",   25.6443E-03,  -10.4429E-03,  -23.4217E-03,   9.42703E-03
C:/temp/dataset/4/18_4.odb,Step-1,Increment      1: Step Time =    1.000,"PART-1-1",           482,       13.6319,      -27.3465,            0.,NA,NA,"",   18.8099E-03,  -7.09005E-03,   17.4225E-03,   8.15369E-03
C:/temp/dataset/4/18_4.odb,Step-1,Increment      1: Step Time =    1.000,"PART-1-1",           483,       12.3819,      -28.5965,            0.,NA,NA,"",   4.85182E-03,   1.07942E-03,   4.73023E-03,   4.37797E-03
C:/temp/dataset/4/18_4.odb,Step-1,Increment      1: Step Time =    1.000,"PART-1-1",           484,         13.75,          -30.,            0.,NA,NA,"",            0.,   1.55951E-39,   11.5588E-39,   6.98946E-03
C:/temp/dataset/4/18_4.odb,Step-1,Increment      1: Step Time =    1.000,"PART-1-1",           485,           15.,        -28.75,            0.,NA,NA,"",   13.4862E-03,  -7.30953E-03,   11.3335E-03,   10.7709E-03
C:/temp/dataset/4/18_4.odb,Step-1,Increment      1: Step Time =    1.000,"PART-1-1",           486,         11.25,          -30.,            0.,NA,NA,"",            0.,   2.97790E-39,   2.25939E-39,   2.76754E-03
C:/temp/dataset/4/18_4.odb,Step-1,Increment      1: Step Time =    1.000,"PART-1-1",           487,       10.9817,      -27.5238,            0.,NA,NA,"",   1.91666E-03,  -888.121E-06,   1.69847E-03,   1.14770E-03
C:/temp/dataset/4/18_4.odb,Step-1,Increment      1: Step Time =    1.000,"PART-1-1",           488,       10.1507,      -19.6985,            0.,NA,NA,"",   116.581E-03,  -115.720E-03,  -14.1406E-03,   1.52378E-03
C:/temp/dataset/4/18_4.odb,Step-1,Increment      1: Step Time =    1.000,"PART-1-1",           489,       9.14094,      -20.7396,            0.,NA,NA,"",   99.0319E-03,  -92.5984E-03,  -35.1120E-03,   4.35584E-03
C:/temp/dataset/4/18_4.odb,Step-1,Increment      1: Step Time =    1.000,"PART-1-1",           490,       11.1621,      -20.8614,            0.,NA,NA,"",   89.7471E-03,  -89.1811E-03,   10.0639E-03,   1.38084E-03
C:/temp/dataset/4/18_4.odb,Step-1,Increment      1: Step Time =    1.000,"PART-1-1",           491,       7.09922,      -20.6753,            0.,NA,NA,"",   129.052E-03,  -100.047E-03,  -81.5167E-03,   10.0685E-03
C:/temp/dataset/4/18_4.odb,Step-1,Increment      1: Step Time =    1.000,"PART-1-1",           492,            5.,       -20.625,            0.,NA,NA,"",   171.747E-03,  -112.967E-03,  -129.365E-03,   15.9823E-03
C:/temp/dataset/4/18_4.odb,Step-1,Increment      1: Step Time =    1.000,"PART-1-1",           493,       9.08758,      -14.0519,            0.,NA,NA,"",   303.196E-03,  -295.765E-03,  -66.7160E-03,   4.59802E-03
C:/temp/dataset/4/18_4.odb,Step-1,Increment      1: Step Time =    1.000,"PART-1-1",           494,       10.1099,      -15.1447,            0.,NA,NA,"",   255.137E-03,  -254.017E-03,  -23.8778E-03,   1.64289E-03
C:/temp/dataset/4/18_4.odb,Step-1,Increment      1: Step Time =    1.000,"PART-1-1",           495,       11.0794,      -13.9187,            0.,NA,NA,"",   301.405E-03,  -301.160E-03,   12.1535E-03,   1.22256E-03
C:/temp/dataset/4/18_4.odb,Step-1,Increment      1: Step Time =    1.000,"PART-1-1",           496,       10.0571,      -12.8260,            0.,NA,NA,"",   346.513E-03,  -345.095E-03,  -31.3155E-03,   1.80141E-03
C:/temp/dataset/4/18_4.odb,Step-1,Increment      1: Step Time =    1.000,"PART-1-1",           497,       9.02765,      -11.7712,            0.,NA,NA,"",   399.766E-03,  -391.503E-03,  -80.8622E-03,   4.75058E-03
C:/temp/dataset/4/18_4.odb,Step-1,Increment      1: Step Time =    1.000,"PART-1-1",           498,       11.0123,      -11.5393,            0.,NA,NA,"",   402.853E-03,  -402.742E-03,   9.48776E-03,   1.11097E-03
C:/temp/dataset/4/18_4.odb,Step-1,Increment      1: Step Time =    1.000,"PART-1-1",           499,       9.98284,      -10.4845,            0.,NA,NA,"",   453.244E-03,  -451.386E-03,  -40.9905E-03,   1.91838E-03
C:/temp/dataset/4/18_4.odb,Step-1,Increment      1: Step Time =    1.000,"PART-1-1",           500,       12.6190,       1.44886,            0.,NA,NA,"",       1.24511,      -1.24022,   110.295E-03,   3.76079E-03
C:/temp/dataset/4/18_4.odb,Step-1,Increment      1: Step Time =    1.000,"PART-1-1",           501,       13.8500,   84.2405E-03,            0.,NA,NA,"",       1.15860,      -1.14150,   198.328E-03,   4.18275E-03
C:/temp/dataset/4/18_4.odb,Step-1,Increment      1: Step Time =    1.000,"PART-1-1",           502,           15.,          1.25,            0.,NA,NA,"",       1.26581,      -1.23385,   282.627E-03,   3.46317E-03
C:/temp/dataset/4/18_4.odb,Step-1,Increment      1: Step Time =    1.000,"PART-1-1",           503,       10.0180,      -2.29938,            0.,NA,NA,"",   953.652E-03,  -951.880E-03,  -58.1140E-03,   5.39245E-03
C:/temp/dataset/4/18_4.odb,Step-1,Increment      1: Step Time =    1.000,"PART-1-1",           504,       9.13986,      -3.07696,            0.,NA,NA,"",   900.106E-03,  -893.034E-03,  -112.615E-03,   5.18881E-03
C:/temp/dataset/4/18_4.odb,Step-1,Increment      1: Step Time =    1.000,"PART-1-1",           505,       10.6738,      -3.69229,            0.,NA,NA,"",   853.873E-03,  -853.773E-03,  -13.0425E-03,   4.56601E-03
C:/temp/dataset/4/18_4.odb,Step-1,Increment      1: Step Time =    1.000,"PART-1-1",           506,       12.7589,       6.54544,            0.,NA,NA,"",       1.62729,      -1.62368,   108.304E-03,   716.426E-06
C:/temp/dataset/4/18_4.odb,Step-1,Increment      1: Step Time =    1.000,"PART-1-1",           507,           15.,          6.25,            0.,NA,NA,"",       1.63096,      -1.60778,   274.000E-03,   68.5488E-06
C:/temp/dataset/4/18_4.odb,Step-1,Increment      1: Step Time =    1.000,"PART-1-1",           508,       13.9203,       7.65480,            0.,NA,NA,"",       1.71926,      -1.70867,   190.475E-03,   150.303E-06
C:/temp/dataset/4/18_4.odb,Step-1,Increment      1: Step Time =    1.000,"PART-1-1",           509,       13.0275,       16.3263,            0.,NA,NA,"",       2.34246,      -2.34025,   101.631E-03,   25.3891E-06
C:/temp/dataset/4/18_4.odb,Step-1,Increment      1: Step Time =    1.000,"PART-1-1",           510,       14.0150,       15.0581,            0.,NA,NA,"",       2.25731,      -2.25035,   177.120E-03,   28.4750E-06
C:/temp/dataset/4/18_4.odb,Step-1,Increment      1: Step Time =    1.000,"PART-1-1",           511,           15.,         16.25,            0.,NA,NA,"",       2.35282,      -2.33994,   245.808E-03,   19.4806E-06
C:/temp/dataset/4/18_4.odb,Step-1,Increment      1: Step Time =    1.000,"PART-1-1",           512,       14.0124,       17.5182,            0.,NA,NA,"",       2.43582,      -2.42986,   170.341E-03,   8.03729E-06
C:/temp/dataset/4/18_4.odb,Step-1,Increment      1: Step Time =    1.000,"PART-1-1",           513,       13.0175,       18.7421,            0.,NA,NA,"",       2.51828,      -2.51651,   94.4610E-03,   8.14631E-06
C:/temp/dataset/4/18_4.odb,Step-1,Increment      1: Step Time =    1.000,"PART-1-1",           514,           15.,         18.75,            0.,NA,NA,"",       2.53368,      -2.52237,   239.127E-03,   3.26528E-06
C:/temp/dataset/4/18_4.odb,Step-1,Increment      1: Step Time =    1.000,"PART-1-1",           515,       14.0051,       19.9738,            0.,NA,NA,"",       2.61414,      -2.60903,   163.253E-03,   1.46989E-06
C:/temp/dataset/4/18_4.odb,Step-1,Increment      1: Step Time =    1.000,"PART-1-1",           516,       5.97628,       21.7197,            0.,NA,NA,"",       2.74846,      -2.71503,  -427.372E-03,   441.090E-09
C:/temp/dataset/4/18_4.odb,Step-1,Increment      1: Step Time =    1.000,"PART-1-1",           517,       6.92463,       22.7965,            0.,NA,NA,"",       2.81936,      -2.79615,  -361.029E-03,   268.772E-09
C:/temp/dataset/4/18_4.odb,Step-1,Increment      1: Step Time =    1.000,"PART-1-1",           518,       5.94835,       23.7852,            0.,NA,NA,"",       2.89852,      -2.86570,  -434.919E-03,   405.301E-09
C:/temp/dataset/4/18_4.odb,Step-1,Increment      1: Step Time =    1.000,"PART-1-1",           519,            5.,       22.7083,            0.,NA,NA,"",       2.82934,      -2.78458,  -501.262E-03,   784.793E-09
C:/temp/dataset/4/18_4.odb,Step-1,Increment      1: Step Time =    1.000,"PART-1-1",           520,       13.8862,       24.9278,            0.,NA,NA,"",       2.97363,      -2.97027,   141.365E-03,   311.857E-09
C:/temp/dataset/4/18_4.odb,Step-1,Increment      1: Step Time =    1.000,"PART-1-1",           521,           15.,         26.25,            0.,NA,NA,"",       3.07755,      -3.06973,   219.130E-03,   300.881E-09
C:/temp/dataset/4/18_4.odb,Step-1,Increment      1: Step Time =    1.000,"PART-1-1",           522,       6.15342,       27.8650,            0.,NA,NA,"",       3.19321,      -3.16401,  -430.831E-03,   128.702E-09
C:/temp/dataset/4/18_4.odb,Step-1,Increment      1: Step Time =    1.000,"PART-1-1",           523,       7.40342,       28.9067,            0.,NA,NA,"",       3.26139,      -3.24337,  -342.380E-03,   141.698E-09
C:/temp/dataset/4/18_4.odb,Step-1,Increment      1: Step Time =    1.000,"PART-1-1",           524,          6.25,           30.,            0.,NA,NA,"",       3.34775,      -3.32009,  -429.477E-03,   37.5511E-09
C:/temp/dataset/4/18_4.odb,Step-1,Increment      1: Step Time =    1.000,"PART-1-1",           525,            5.,       28.9583,            0.,NA,NA,"",       3.28186,      -3.24073,  -517.928E-03,   35.9941E-09
C:/temp/dataset/4/18_4.odb,Step-1,Increment      1: Step Time =    1.000,"PART-1-1",           526,       7.11917,       26.8292,            0.,NA,NA,"",       3.11160,      -3.09099,  -357.586E-03,   247.600E-09
C:/temp/dataset/4/18_4.odb,Step-1,Increment      1: Step Time =    1.000,"PART-1-1",           527,            5.,        26.875,            0.,NA,NA,"",       3.13089,      -3.08868,  -512.372E-03,   215.488E-09
C:/temp/dataset/4/18_4.odb,Step-1,Increment      1: Step Time =    1.000,"PART-1-1",           528,       5.96574,       25.8392,            0.,NA,NA,"",       3.04746,      -3.01566,  -439.127E-03,   255.240E-09
C:/temp/dataset/4/18_4.odb,Step-1,Increment      1: Step Time =    1.000,"PART-1-1",           529,       8.59546,       27.4701,            0.,NA,NA,"",       3.15176,      -3.14170,  -251.549E-03,   167.653E-09
C:/temp/dataset/4/18_4.odb,Step-1,Increment      1: Step Time =    1.000,"PART-1-1",           530,       9.94204,       28.5635,            0.,NA,NA,"",       3.22887,      -3.22509,  -156.187E-03,   173.256E-09
C:/temp/dataset/4/18_4.odb,Step-1,Increment      1: Step Time =    1.000,"PART-1-1",           531,          8.75,           30.,            0.,NA,NA,"",       3.33591,      -3.32676,  -247.017E-03,   164.221E-09
C:/temp/dataset/4/18_4.odb,Step-1,Increment      1: Step Time =    1.000,"PART-1-1",           532,            5.,       24.7917,            0.,NA,NA,"",       2.98004,      -2.93663,  -506.817E-03,   524.096E-09
C:/temp/dataset/4/18_4.odb,Step-1,Increment      1: Step Time =    1.000,"PART-1-1",           533,       6.91409,       24.8327,            0.,NA,NA,"",       2.96754,      -2.94473,  -367.228E-03,   257.489E-09
C:/temp/dataset/4/18_4.odb,Step-1,Increment      1: Step Time =    1.000,"PART-1-1",           534,            5.,        20.625,            0.,NA,NA,"",       2.67879,      -2.63253,  -495.708E-03,   269.625E-09
C:/temp/dataset/4/18_4.odb,Step-1,Increment      1: Step Time =    1.000,"PART-1-1",           535,       5.99534,       19.6263,            0.,NA,NA,"",       2.59655,      -2.56229,  -420.397E-03,   2.00842E-06
C:/temp/dataset/4/18_4.odb,Step-1,Increment      1: Step Time =    1.000,"PART-1-1",           536,       6.97162,       20.7210,            0.,NA,NA,"",       2.66812,      -2.64479,  -352.064E-03,   2.35409E-06
C:/temp/dataset/4/18_4.odb,Step-1,Increment      1: Step Time =    1.000,"PART-1-1",           537,       9.90537,       10.7177,            0.,NA,NA,"",       1.92578,      -1.92254,  -111.619E-03,   101.169E-06
C:/temp/dataset/4/18_4.odb,Step-1,Increment      1: Step Time =    1.000,"PART-1-1",           538,       8.83179,       9.75083,            0.,NA,NA,"",       1.85866,      -1.84918,  -187.431E-03,   124.228E-06
C:/temp/dataset/4/18_4.odb,Step-1,Increment      1: Step Time =    1.000,"PART-1-1",           539,       10.8380,       9.37550,            0.,NA,NA,"",       1.82742,      -1.82698,  -39.9698E-03,   158.372E-06
C:/temp/dataset/4/18_4.odb,Step-1,Increment      1: Step Time =    1.000,"PART-1-1",           540,       5.96737,       11.1773,            0.,NA,NA,"",       1.98620,      -1.94557,  -399.685E-03,   116.662E-06
C:/temp/dataset/4/18_4.odb,Step-1,Increment      1: Step Time =    1.000,"PART-1-1",           541,       6.95908,       12.1740,            0.,NA,NA,"",       2.04766,      -2.02087,  -330.166E-03,   93.0765E-06
C:/temp/dataset/4/18_4.odb,Step-1,Increment      1: Step Time =    1.000,"PART-1-1",           542,            5.,       12.2917,            0.,NA,NA,"",       2.07888,      -2.02429,  -473.252E-03,   132.527E-06
C:/temp/dataset/4/18_4.odb,Step-1,Increment      1: Step Time =    1.000,"PART-1-1",           543,       6.89189,       10.0466,            0.,NA,NA,"",       1.89447,      -1.86562,  -329.408E-03,   106.920E-06
C:/temp/dataset/4/18_4.odb,Step-1,Increment      1: Step Time =    1.000,"PART-1-1",           544,            5.,       10.2083,            0.,NA,NA,"",       1.92996,      -1.87251,  -467.365E-03,   311.314E-06
C:/temp/dataset/4/18_4.odb,Step-1,Increment      1: Step Time =    1.000,"PART-1-1",           545,  -883.251E-03,       2.97832,            0.,NA,NA,"",       1.64807,      -1.34858,  -947.349E-03,   5.46545E-03
C:/temp/dataset/4/18_4.odb,Step-1,Increment      1: Step Time =    1.000,"PART-1-1",           546,         -1.25,            5.,            0.,NA,NA,"",       1.81666,      -1.51994,  -994.995E-03,   4.16116E-03
C:/temp/dataset/4/18_4.odb,Step-1,Increment      1: Step Time =    1.000,"PART-1-1",           547,      -2.28350,       3.97568,            0.,NA,NA,"",       1.79077,      -1.43042,      -1.07740,   4.46829E-03
C:/temp/dataset/4/18_4.odb,Step-1,Increment      1: Step Time =    1.000,"PART-1-1",           548,      -3.12559,       2.92107,            0.,NA,NA,"",       1.76159,      -1.34100,      -1.14233,   3.88636E-03
C:/temp/dataset/4/18_4.odb,Step-1,Increment      1: Step Time =    1.000,"PART-1-1",           549,         -3.75,            5.,            0.,NA,NA,"",       1.93668,      -1.51285,      -1.20914,   3.24864E-03
C:/temp/dataset/4/18_4.odb,Step-1,Increment      1: Step Time =    1.000,"PART-1-1",           550,      -7.01026,       10.3490,            0.,NA,NA,"",       2.45405,      -1.94752,      -1.49317,   37.8937E-06
C:/temp/dataset/4/18_4.odb,Step-1,Increment      1: Step Time =    1.000,"PART-1-1",           551,           -5.,       10.2083,            0.,NA,NA,"",       2.35193,      -1.94277,      -1.32560,   43.6606E-06
C:/temp/dataset/4/18_4.odb,Step-1,Increment      1: Step Time =    1.000,"PART-1-1",           552,      -6.00030,       11.3233,            0.,NA,NA,"",       2.47478,      -2.03202,      -1.41260,   14.2841E-06
C:/temp/dataset/4/18_4.odb,Step-1,Increment      1: Step Time =    1.000,"PART-1-1",           553,      -6.90277,       16.5792,            0.,NA,NA,"",       2.88923,      -2.46581,      -1.50580,   725.510E-09
C:/temp/dataset/4/18_4.odb,Step-1,Increment      1: Step Time =    1.000,"PART-1-1",           554,           -5.,       16.4583,            0.,NA,NA,"",       2.80681,      -2.46235,      -1.34722,   2.15441E-06
C:/temp/dataset/4/18_4.odb,Step-1,Increment      1: Step Time =    1.000,"PART-1-1",           555,      -5.93592,       17.5473,            0.,NA,NA,"",       2.92267,      -2.54962,      -1.42878,   1.11375E-06
C:/temp/dataset/4/18_4.odb,Step-1,Increment      1: Step Time =    1.000,"PART-1-1",           556,      -5.96041,       23.6583,            0.,NA,NA,"",       3.38472,      -3.05747,      -1.45197,   83.8112E-09
C:/temp/dataset/4/18_4.odb,Step-1,Increment      1: Step Time =    1.000,"PART-1-1",           557,           -5.,       24.7917,            0.,NA,NA,"",       3.44203,      -3.15500,      -1.37606,   38.7473E-09
C:/temp/dataset/4/18_4.odb,Step-1,Increment      1: Step Time =    1.000,"PART-1-1",           558,      -7.48847,       28.8776,            0.,NA,NA,"",       3.83442,      -3.48600,      -1.59704,   3.54455E-09
C:/temp/dataset/4/18_4.odb,Step-1,Increment      1: Step Time =    1.000,"PART-1-1",           559,           -5.,       28.9583,            0.,NA,NA,"",       3.76732,      -3.50132,      -1.39048,   1.90786E-09
C:/temp/dataset/4/18_4.odb,Step-1,Increment      1: Step Time =    1.000,"PART-1-1",           560,         -6.25,           30.,            0.,NA,NA,"",       3.88407,      -3.58358,      -1.49798,   2.59138E-09
C:/temp/dataset/4/18_4.odb,Step-1,Increment      1: Step Time =    1.000,"PART-1-1",           561,       12.9634,       11.4929,            0.,NA,NA,"",       1.99039,      -1.98735,   109.863E-03,   76.9325E-06
C:/temp/dataset/4/18_4.odb,Step-1,Increment      1: Step Time =    1.000,"PART-1-1",           562,       13.9657,       10.1417,            0.,NA,NA,"",       1.90048,      -1.89127,   186.896E-03,   126.480E-06
C:/temp/dataset/4/18_4.odb,Step-1,Increment      1: Step Time =    1.000,"PART-1-1",           563,           15.,         11.25,            0.,NA,NA,"",       1.99196,      -1.97499,   259.469E-03,   158.843E-06
C:/temp/dataset/4/18_4.odb,Step-1,Increment      1: Step Time =    1.000,"PART-1-1",           564,       13.9978,       12.6011,            0.,NA,NA,"",       2.07904,      -2.07102,   182.492E-03,   72.8984E-06
C:/temp/dataset/4/18_4.odb,Step-1,Increment      1: Step Time =    1.000,"PART-1-1",           565,       9.13480,      -18.5479,            0.,NA,NA,"",   153.133E-03,  -146.521E-03,  -44.5148E-03,   4.38591E-03
C:/temp/dataset/4/18_4.odb,Step-1,Increment      1: Step Time =    1.000,"PART-1-1",           566,       11.1537,      -18.5886,            0.,NA,NA,"",   145.404E-03,  -144.913E-03,   11.9339E-03,   1.39538E-03
C:/temp/dataset/4/18_4.odb,Step-1,Increment      1: Step Time =    1.000,"PART-1-1",           567,       10.1377,      -17.4381,            0.,NA,NA,"",   178.641E-03,  -177.688E-03,  -18.4198E-03,   1.55116E-03
C:/temp/dataset/4/18_4.odb,Step-1,Increment      1: Step Time =    1.000,"PART-1-1",           568,      -8.81573,       27.5627,            0.,NA,NA,"",       3.77766,      -3.37211,      -1.70281,   15.8157E-09
C:/temp/dataset/4/18_4.odb,Step-1,Increment      1: Step Time =    1.000,"PART-1-1",           569,         -8.75,           30.,            0.,NA,NA,"",       3.96103,      -3.57493,      -1.70578,   3.32658E-09
C:/temp/dataset/4/18_4.odb,Step-1,Increment      1: Step Time =    1.000,"PART-1-1",           570,            5.,      -24.7917,            0.,NA,NA,"",   81.9276E-03,  -42.9746E-03,  -69.7518E-03,   15.3587E-03
C:/temp/dataset/4/18_4.odb,Step-1,Increment      1: Step Time =    1.000,"PART-1-1",           571,       6.09200,      -25.8775,            0.,NA,NA,"",   50.7470E-03,  -24.8888E-03,  -44.2244E-03,   12.4988E-03
C:/temp/dataset/4/18_4.odb,Step-1,Increment      1: Step Time =    1.000,"PART-1-1",           572,       7.15121,      -24.8757,            0.,NA,NA,"",   51.9868E-03,  -29.8919E-03,  -42.5335E-03,   9.87817E-03
C:/temp/dataset/4/18_4.odb,Step-1,Increment      1: Step Time =    1.000,"PART-1-1",           573,       13.1040,      -21.0477,            0.,NA,NA,"",   103.106E-03,  -89.2651E-03,   51.6000E-03,   6.81307E-03
C:/temp/dataset/4/18_4.odb,Step-1,Increment      1: Step Time =    1.000,"PART-1-1",           574,       14.0487,      -22.3697,            0.,NA,NA,"",   90.4086E-03,  -66.9298E-03,   60.7792E-03,   9.40482E-03
C:/temp/dataset/4/18_4.odb,Step-1,Increment      1: Step Time =    1.000,"PART-1-1",           575,           15.,        -21.25,            0.,NA,NA,"",   129.552E-03,  -93.4648E-03,   89.7105E-03,   12.1413E-03
C:/temp/dataset/4/18_4.odb,Step-1,Increment      1: Step Time =    1.000,"PART-1-1",           576,            5.,       -26.875,            0.,NA,NA,"",   47.7822E-03,  -23.4918E-03,  -41.6086E-03,   15.0747E-03
C:/temp/dataset/4/18_4.odb,Step-1,Increment      1: Step Time =    1.000,"PART-1-1",           577,       12.8133,      -6.31290,            0.,NA,NA,"",   699.210E-03,  -689.719E-03,   114.815E-03,   6.30404E-03
C:/temp/dataset/4/18_4.odb,Step-1,Increment      1: Step Time =    1.000,"PART-1-1",           578,       13.9319,      -7.55671,            0.,NA,NA,"",   644.670E-03,  -620.992E-03,   173.114E-03,   9.56359E-03
C:/temp/dataset/4/18_4.odb,Step-1,Increment      1: Step Time =    1.000,"PART-1-1",           579,           15.,         -6.25,            0.,NA,NA,"",   748.281E-03,  -706.620E-03,   246.199E-03,   11.9445E-03
C:/temp/dataset/4/18_4.odb,Step-1,Increment      1: Step Time =    1.000,"PART-1-1",           580,            5.,       18.5417,            0.,NA,NA,"",       2.52843,      -2.48047,  -490.151E-03,   3.88090E-06
C:/temp/dataset/4/18_4.odb,Step-1,Increment      1: Step Time =    1.000,"PART-1-1",           581,       6.00122,       17.5195,            0.,NA,NA,"",       2.44390,      -2.40852,  -414.343E-03,   8.49177E-06
C:/temp/dataset/4/18_4.odb,Step-1,Increment      1: Step Time =    1.000,"PART-1-1",           582,       6.99656,       18.6041,            0.,NA,NA,"",       2.51408,      -2.49035,  -344.597E-03,   8.80296E-06
C:/temp/dataset/4/18_4.odb,Step-1,Increment      1: Step Time =    1.000,"PART-1-1",           583,       12.8545,       23.6160,            0.,NA,NA,"",       2.87262,      -2.87177,   69.5672E-03,   153.488E-09
C:/temp/dataset/4/18_4.odb,Step-1,Increment      1: Step Time =    1.000,"PART-1-1",           584,       13.9683,       22.4382,            0.,NA,NA,"",       2.79303,      -2.78878,   153.998E-03,   424.364E-09
C:/temp/dataset/4/18_4.odb,Step-1,Increment      1: Step Time =    1.000,"PART-1-1",           585,           15.,         23.75,            0.,NA,NA,"",       2.89609,      -2.88728,   225.796E-03,   668.941E-09
C:/temp/dataset/4/18_4.odb,Step-1,Increment      1: Step Time =    1.000,"PART-1-1",           586,            5.,       16.4583,            0.,NA,NA,"",       2.37829,      -2.32840,  -484.580E-03,   17.2004E-06
C:/temp/dataset/4/18_4.odb,Step-1,Increment      1: Step Time =    1.000,"PART-1-1",           587,       7.00480,       16.4638,            0.,NA,NA,"",       2.35852,      -2.33414,  -338.286E-03,   24.9466E-06
C:/temp/dataset/4/18_4.odb,Step-1,Increment      1: Step Time =    1.000,"PART-1-1",           588,       12.9734,       21.1620,            0.,NA,NA,"",       2.69433,      -2.69299,   84.7896E-03,   1.73889E-06
C:/temp/dataset/4/18_4.odb,Step-1,Increment      1: Step Time =    1.000,"PART-1-1",           589,           15.,         21.25,            0.,NA,NA,"",       2.71479,      -2.70482,   232.461E-03,   502.488E-09
C:/temp/dataset/4/18_4.odb,Step-1,Increment      1: Step Time =    1.000,"PART-1-1",           590,            5.,       6.04167,            0.,NA,NA,"",       1.63796,      -1.57340,  -455.338E-03,   2.68014E-03
C:/temp/dataset/4/18_4.odb,Step-1,Increment      1: Step Time =    1.000,"PART-1-1",           591,       5.70418,       5.21013,            0.,NA,NA,"",       1.57164,      -1.51903,  -403.208E-03,   5.44537E-03
C:/temp/dataset/4/18_4.odb,Step-1,Increment      1: Step Time =    1.000,"PART-1-1",           592,       6.54256,       6.20387,            0.,NA,NA,"",       1.62532,      -1.58833,  -344.771E-03,   2.12791E-03
C:/temp/dataset/4/18_4.odb,Step-1,Increment      1: Step Time =    1.000,"PART-1-1",           593,       7.80464,       8.81181,            0.,NA,NA,"",       1.79709,      -1.77822,  -259.782E-03,   187.365E-06
C:/temp/dataset/4/18_4.odb,Step-1,Increment      1: Step Time =    1.000,"PART-1-1",           594,       7.55468,       6.70991,            0.,NA,NA,"",       1.64838,      -1.62576,  -272.140E-03,   1.27702E-03
C:/temp/dataset/4/18_4.odb,Step-1,Increment      1: Step Time =    1.000,"PART-1-1",           595,           -5.,       12.2917,            0.,NA,NA,"",       2.50075,      -2.11600,      -1.33279,   9.24767E-06
C:/temp/dataset/4/18_4.odb,Step-1,Increment      1: Step Time =    1.000,"PART-1-1",           596,      -13.0551,       11.1433,            0.,NA,NA,"",       2.82215,      -1.99275,      -1.99836,   22.6248E-06
C:/temp/dataset/4/18_4.odb,Step-1,Increment      1: Step Time =    1.000,"PART-1-1",           597,          -15.,       11.4063,            0.,NA,NA,"",       2.94976,      -2.00787,      -2.16091,   7.33792E-06
C:/temp/dataset/4/18_4.odb,Step-1,Increment      1: Step Time =    1.000,"PART-1-1",           598,           -5.,       18.5417,            0.,NA,NA,"",       2.96318,      -2.63551,      -1.35443,   1.21322E-06
C:/temp/dataset/4/18_4.odb,Step-1,Increment      1: Step Time =    1.000,"PART-1-1",           599,      -6.83195,       18.5917,            0.,NA,NA,"",       3.03400,      -2.63333,      -1.50688,   778.615E-09
C:/temp/dataset/4/18_4.odb,Step-1,Increment      1: Step Time =    1.000,"PART-1-1",           600,      -12.9744,       15.4368,            0.,NA,NA,"",       3.08996,      -2.34985,      -2.00651,   702.114E-09
C:/temp/dataset/4/18_4.odb,Step-1,Increment      1: Step Time =    1.000,"PART-1-1",           601,      -13.9736,       16.6988,            0.,NA,NA,"",       3.22387,      -2.45129,      -2.09392,   1.13670E-06
C:/temp/dataset/4/18_4.odb,Step-1,Increment      1: Step Time =    1.000,"PART-1-1",           602,          -15.,       15.7813,            0.,NA,NA,"",       3.21856,      -2.37147,      -2.17605,   2.33816E-06
C:/temp/dataset/4/18_4.odb,Step-1,Increment      1: Step Time =    1.000,"PART-1-1",           603,      -6.85389,       22.5676,            0.,NA,NA,"",       3.33190,      -2.96373,      -1.52246,   232.441E-09
C:/temp/dataset/4/18_4.odb,Step-1,Increment      1: Step Time =    1.000,"PART-1-1",           604,           -5.,       22.7083,            0.,NA,NA,"",       3.28102,      -2.98184,      -1.36885,   167.391E-09
C:/temp/dataset/4/18_4.odb,Step-1,Increment      1: Step Time =    1.000,"PART-1-1",           605,      -7.62380,       21.5126,            0.,NA,NA,"",       3.28047,      -2.87337,      -1.58280,   327.440E-09
C:/temp/dataset/4/18_4.odb,Step-1,Increment      1: Step Time =    1.000,"PART-1-1",           606,      -11.2433,       25.0031,            0.,NA,NA,"",       3.67728,      -3.15097,      -1.89573,   93.6057E-09
C:/temp/dataset/4/18_4.odb,Step-1,Increment      1: Step Time =    1.000,"PART-1-1",           607,      -10.1220,       24.6816,            0.,NA,NA,"",       3.60974,      -3.12812,      -1.80141,   99.2038E-09
C:/temp/dataset/4/18_4.odb,Step-1,Increment      1: Step Time =    1.000,"PART-1-1",           608,      -9.68436,       26.2404,            0.,NA,NA,"",       3.70902,      -3.25920,      -1.77043,   51.6110E-09
C:/temp/dataset/4/18_4.odb,Step-1,Increment      1: Step Time =    1.000,"PART-1-1",           609,      -10.8057,       26.5619,            0.,NA,NA,"",       3.77480,      -3.28204,      -1.86475,   37.5445E-09
C:/temp/dataset/4/18_4.odb,Step-1,Increment      1: Step Time =    1.000,"PART-1-1",           610,            5.,      -6.04167,            0.,NA,NA,"",   781.453E-03,  -693.701E-03,  -359.789E-03,   23.1496E-03
C:/temp/dataset/4/18_4.odb,Step-1,Increment      1: Step Time =    1.000,"PART-1-1",           611,       5.81487,      -6.90448,            0.,NA,NA,"",   707.592E-03,  -642.557E-03,  -296.322E-03,   15.2496E-03
C:/temp/dataset/4/18_4.odb,Step-1,Increment      1: Step Time =    1.000,"PART-1-1",           612,       6.44107,      -5.66337,            0.,NA,NA,"",   760.372E-03,  -709.586E-03,  -273.226E-03,   9.59703E-03
C:/temp/dataset/4/18_4.odb,Step-1,Increment      1: Step Time =    1.000,"PART-1-1",           613,       5.62621,      -4.80056,            0.,NA,NA,"",   830.945E-03,  -759.291E-03,  -337.561E-03,   15.9610E-03
C:/temp/dataset/4/18_4.odb,Step-1,Increment      1: Step Time =    1.000,"PART-1-1",           614,            5.,        -8.125,            0.,NA,NA,"",   666.450E-03,  -584.001E-03,  -321.090E-03,   17.0642E-03
C:/temp/dataset/4/18_4.odb,Step-1,Increment      1: Step Time =    1.000,"PART-1-1",           615,       8.00489,       17.5473,            0.,NA,NA,"",       2.43074,      -2.41590,  -268.195E-03,   13.7554E-06
C:/temp/dataset/4/18_4.odb,Step-1,Increment      1: Step Time =    1.000,"PART-1-1",           616,       8.00828,       15.3576,            0.,NA,NA,"",       2.27124,      -2.25607,  -262.128E-03,   34.9937E-06
C:/temp/dataset/4/18_4.odb,Step-1,Increment      1: Step Time =    1.000,"PART-1-1",           617,       11.1265,      -16.2686,            0.,NA,NA,"",   215.849E-03,  -215.469E-03,   12.8167E-03,   1.34089E-03
C:/temp/dataset/4/18_4.odb,Step-1,Increment      1: Step Time =    1.000,"PART-1-1",           618,       9.12111,      -16.3141,            0.,NA,NA,"",   221.042E-03,  -214.137E-03,  -54.8149E-03,   4.45864E-03
C:/temp/dataset/4/18_4.odb,Step-1,Increment      1: Step Time =    1.000,"PART-1-1",           619,      -9.91602,       15.9767,            0.,NA,NA,"",       2.97701,      -2.40530,      -1.75417,   1.01088E-06
C:/temp/dataset/4/18_4.odb,Step-1,Increment      1: Step Time =    1.000,"PART-1-1",           620,      -10.9598,       15.0860,            0.,NA,NA,"",       2.96575,      -2.32767,      -1.83785,   2.42216E-06
C:/temp/dataset/4/18_4.odb,Step-1,Increment      1: Step Time =    1.000,"PART-1-1",           621,      -8.93702,       14.7598,            0.,NA,NA,"",       2.84762,      -2.30755,      -1.66859,   3.21735E-06
C:/temp/dataset/4/18_4.odb,Step-1,Increment      1: Step Time =    1.000,"PART-1-1",           622,      -13.0880,       4.79273,            0.,NA,NA,"",       2.46246,      -1.46496,      -1.97929,   117.293E-06
C:/temp/dataset/4/18_4.odb,Step-1,Increment      1: Step Time =    1.000,"PART-1-1",           623,          -15.,       4.84375,            0.,NA,NA,"",       2.59085,      -1.46245,      -2.13862,   178.154E-06
C:/temp/dataset/4/18_4.odb,Step-1,Increment      1: Step Time =    1.000,"PART-1-1",           624,           -5.,       6.04167,            0.,NA,NA,"",       2.06596,      -1.59586,      -1.31203,   916.978E-06
C:/temp/dataset/4/18_4.odb,Step-1,Increment      1: Step Time =    1.000,"PART-1-1",           625,      -7.12843,       5.83601,            0.,NA,NA,"",       2.16383,      -1.57192,      -1.48703,   390.054E-06
C:/temp/dataset/4/18_4.odb,Step-1,Increment      1: Step Time =    1.000,"PART-1-1",           626,       12.9112,      -8.87192,            0.,NA,NA,"",   552.869E-03,  -541.876E-03,   109.700E-03,   6.64747E-03
C:/temp/dataset/4/18_4.odb,Step-1,Increment      1: Step Time =    1.000,"PART-1-1",           627,           15.,         -8.75,            0.,NA,NA,"",   603.062E-03,  -560.702E-03,   222.028E-03,   12.8264E-03
C:/temp/dataset/4/18_4.odb,Step-1,Increment      1: Step Time =    1.000,"PART-1-1",           628,       13.0740,      -16.2399,            0.,NA,NA,"",   234.772E-03,  -221.210E-03,   78.6377E-03,   6.93607E-03
C:/temp/dataset/4/18_4.odb,Step-1,Increment      1: Step Time =    1.000,"PART-1-1",           629,           15.,        -16.25,            0.,NA,NA,"",   271.178E-03,  -230.339E-03,   143.113E-03,   12.4956E-03
C:/temp/dataset/4/18_4.odb,Step-1,Increment      1: Step Time =    1.000,"PART-1-1",           630,       13.0128,       13.9092,            0.,NA,NA,"",       2.16649,      -2.16385,   107.010E-03,   57.1515E-06
C:/temp/dataset/4/18_4.odb,Step-1,Increment      1: Step Time =    1.000,"PART-1-1",           631,           15.,         13.75,            0.,NA,NA,"",       2.17224,      -2.15751,   252.552E-03,   66.7525E-06
C:/temp/dataset/4/18_4.odb,Step-1,Increment      1: Step Time =    1.000,"PART-1-1",           632,       10.9505,       11.7339,            0.,NA,NA,"",       1.99990,      -1.99954,  -37.9323E-03,   84.0317E-06
C:/temp/dataset/4/18_4.odb,Step-1,Increment      1: Step Time =    1.000,"PART-1-1",           633,       9.98883,       12.9959,            0.,NA,NA,"",       2.09200,      -2.08903,  -111.430E-03,   76.0333E-06
C:/temp/dataset/4/18_4.odb,Step-1,Increment      1: Step Time =    1.000,"PART-1-1",           634,       8.94372,       11.9797,            0.,NA,NA,"",       2.02052,      -2.01203,  -185.036E-03,   88.8182E-06
C:/temp/dataset/4/18_4.odb,Step-1,Increment      1: Step Time =    1.000,"PART-1-1",           635,      -13.9153,       18.9000,            0.,NA,NA,"",       3.36697,      -2.63445,      -2.09670,   666.290E-09
C:/temp/dataset/4/18_4.odb,Step-1,Increment      1: Step Time =    1.000,"PART-1-1",           636,      -12.6393,       19.9841,            0.,NA,NA,"",       3.38007,      -2.72897,      -1.99439,   585.613E-09
C:/temp/dataset/4/18_4.odb,Step-1,Increment      1: Step Time =    1.000,"PART-1-1",           637,          -15.,       20.1563,            0.,NA,NA,"",       3.50459,      -2.73511,      -2.19120,   633.009E-09
C:/temp/dataset/4/18_4.odb,Step-1,Increment      1: Step Time =    1.000,"PART-1-1",           638,       8.12191,      -21.7795,            0.,NA,NA,"",   89.6460E-03,  -73.6867E-03,  -51.0555E-03,   7.18946E-03
C:/temp/dataset/4/18_4.odb,Step-1,Increment      1: Step Time =    1.000,"PART-1-1",           639,       8.12482,      -23.8590,            0.,NA,NA,"",   54.1415E-03,  -39.2450E-03,  -37.2979E-03,   7.15556E-03
C:/temp/dataset/4/18_4.odb,Step-1,Increment      1: Step Time =    1.000,"PART-1-1",           640,       8.11825,      -19.6354,            0.,NA,NA,"",   137.195E-03,  -120.532E-03,  -65.5323E-03,   7.23659E-03
C:/temp/dataset/4/18_4.odb,Step-1,Increment      1: Step Time =    1.000,"PART-1-1",           641,       8.10952,      -17.4508,            0.,NA,NA,"",   197.598E-03,  -180.290E-03,  -80.8730E-03,   7.31651E-03
C:/temp/dataset/4/18_4.odb,Step-1,Increment      1: Step Time =    1.000,"PART-1-1",           642,       7.85781,       23.9076,            0.,NA,NA,"",       2.89489,      -2.87973,  -295.885E-03,   202.916E-09
C:/temp/dataset/4/18_4.odb,Step-1,Increment      1: Step Time =    1.000,"PART-1-1",           643,       7.94870,       21.8524,            0.,NA,NA,"",       2.74468,      -2.72998,  -283.770E-03,   870.554E-09
C:/temp/dataset/4/18_4.odb,Step-1,Increment      1: Step Time =    1.000,"PART-1-1",           644,       4.21929,       2.98066,            0.,NA,NA,"",       1.44533,      -1.35341,  -507.200E-03,   3.27364E-03
C:/temp/dataset/4/18_4.odb,Step-1,Increment      1: Step Time =    1.000,"PART-1-1",           645,       5.32392,       3.96649,            0.,NA,NA,"",       1.49077,      -1.42891,  -424.979E-03,   5.63042E-03
C:/temp/dataset/4/18_4.odb,Step-1,Increment      1: Step Time =    1.000,"PART-1-1",           646,          3.75,            5.,            0.,NA,NA,"",       1.61191,      -1.51286,  -556.339E-03,   8.76649E-03
C:/temp/dataset/4/18_4.odb,Step-1,Increment      1: Step Time =    1.000,"PART-1-1",           647,       12.8859,       9.04653,            0.,NA,NA,"",       1.81160,      -1.80821,   110.783E-03,   84.9578E-06
C:/temp/dataset/4/18_4.odb,Step-1,Increment      1: Step Time =    1.000,"PART-1-1",           648,           15.,          8.75,            0.,NA,NA,"",       1.81174,      -1.79201,   266.683E-03,   226.259E-06
C:/temp/dataset/4/18_4.odb,Step-1,Increment      1: Step Time =    1.000,"PART-1-1",           649,      -8.02807,       9.41948,            0.,NA,NA,"",       2.44207,      -1.86673,      -1.57449,   81.0682E-06
C:/temp/dataset/4/18_4.odb,Step-1,Increment      1: Step Time =    1.000,"PART-1-1",           650,      -8.84347,       16.8085,            0.,NA,NA,"",       2.98716,      -2.47815,      -1.66790,   863.873E-09
C:/temp/dataset/4/18_4.odb,Step-1,Increment      1: Step Time =    1.000,"PART-1-1",           651,      -9.78583,       18.0165,            0.,NA,NA,"",       3.11386,      -2.57530,      -1.75041,   823.210E-09
C:/temp/dataset/4/18_4.odb,Step-1,Increment      1: Step Time =    1.000,"PART-1-1",           652,          -15.,       17.9688,            0.,NA,NA,"",       3.35969,      -2.55329,      -2.18363,   1.41715E-06
C:/temp/dataset/4/18_4.odb,Step-1,Increment      1: Step Time =    1.000,"PART-1-1",           653,          -15.,       24.5313,            0.,NA,NA,"",       3.80397,      -3.09875,      -2.20634,   43.6731E-09
C:/temp/dataset/4/18_4.odb,Step-1,Increment      1: Step Time =    1.000,"PART-1-1",           654,      -12.9952,       24.7258,            0.,NA,NA,"",       3.72950,      -3.12186,      -2.04038,   84.9531E-09
C:/temp/dataset/4/18_4.odb,Step-1,Increment      1: Step Time =    1.000,"PART-1-1",           655,      -11.4985,       21.8877,            0.,NA,NA,"",       3.46296,      -2.89114,      -1.90616,   314.136E-09
C:/temp/dataset/4/18_4.odb,Step-1,Increment      1: Step Time =    1.000,"PART-1-1",           656,      -11.4490,       20.6565,            0.,NA,NA,"",       3.37342,      -2.78897,      -1.89778,   470.228E-09
C:/temp/dataset/4/18_4.odb,Step-1,Increment      1: Step Time =    1.000,"PART-1-1",           657,      -10.1446,       20.7260,            0.,NA,NA,"",       3.32244,      -2.79927,      -1.78960,   502.945E-09
C:/temp/dataset/4/18_4.odb,Step-1,Increment      1: Step Time =    1.000,"PART-1-1",           658,      -7.69218,       19.6350,            0.,NA,NA,"",       3.14407,      -2.71707,      -1.58199,   589.004E-09
C:/temp/dataset/4/18_4.odb,Step-1,Increment      1: Step Time =    1.000,"PART-1-1",           659,      -8.68744,       18.7463,            0.,NA,NA,"",       3.11919,      -2.63976,      -1.66164,   776.291E-09
C:/temp/dataset/4/18_4.odb,Step-1,Increment      1: Step Time =    1.000,"PART-1-1",           660,      -7.82721,       17.7030,            0.,NA,NA,"",       3.00837,      -2.55602,      -1.58653,   772.605E-09
C:/temp/dataset/4/18_4.odb,Step-1,Increment      1: Step Time =    1.000,"PART-1-1",           661,      -9.52114,       19.8817,            0.,NA,NA,"",       3.23565,      -2.73125,      -1.73486,   602.506E-09
C:/temp/dataset/4/18_4.odb,Step-1,Increment      1: Step Time =    1.000,"PART-1-1",           662,      -10.6195,       19.1519,            0.,NA,NA,"",       3.23069,      -2.66679,      -1.82363,   741.271E-09
C:/temp/dataset/4/18_4.odb,Step-1,Increment      1: Step Time =    1.000,"PART-1-1",           663,      -12.1485,       3.78191,            0.,NA,NA,"",       2.34878,      -1.38418,      -1.89758,   117.263E-06
C:/temp/dataset/4/18_4.odb,Step-1,Increment      1: Step Time =    1.000,"PART-1-1",           664,      -10.9850,       2.86362,            0.,NA,NA,"",       2.22525,      -1.31185,      -1.79743,   101.364E-06
C:/temp/dataset/4/18_4.odb,Step-1,Increment      1: Step Time =    1.000,"PART-1-1",           665,      -9.06958,       8.49577,            0.,NA,NA,"",       2.43712,      -1.78642,      -1.65778,   102.083E-06
C:/temp/dataset/4/18_4.odb,Step-1,Increment      1: Step Time =    1.000,"PART-1-1",           666,      -8.08215,       7.28595,            0.,NA,NA,"",       2.30712,      -1.68921,      -1.57142,   180.234E-06
C:/temp/dataset/4/18_4.odb,Step-1,Increment      1: Step Time =    1.000,"PART-1-1",           667,      -10.1292,       7.60955,            0.,NA,NA,"",       2.44102,      -1.70921,      -1.74275,   125.890E-06
C:/temp/dataset/4/18_4.odb,Step-1,Increment      1: Step Time =    1.000,"PART-1-1",           668,      -11.2104,       6.77234,            0.,NA,NA,"",       2.45449,      -1.63599,      -1.82977,   121.152E-06
C:/temp/dataset/4/18_4.odb,Step-1,Increment      1: Step Time =    1.000,"PART-1-1",           669,      -10.2942,       5.63122,            0.,NA,NA,"",       2.33362,      -1.54436,      -1.74950,   163.486E-06
C:/temp/dataset/4/18_4.odb,Step-1,Increment      1: Step Time =    1.000,"PART-1-1",           670,      -9.21309,       6.46842,            0.,NA,NA,"",       2.31955,      -1.61755,      -1.66248,   188.018E-06
C:/temp/dataset/4/18_4.odb,Step-1,Increment      1: Step Time =    1.000,"PART-1-1",           671,        -11.25,           -5.,            0.,NA,NA,"",       1.90744,  -653.240E-03,      -1.79210,   164.119E-06
C:/temp/dataset/4/18_4.odb,Step-1,Increment      1: Step Time =    1.000,"PART-1-1",           672,      -10.0273,      -3.93877,            0.,NA,NA,"",       1.85074,  -746.162E-03,      -1.69366,   193.696E-06
C:/temp/dataset/4/18_4.odb,Step-1,Increment      1: Step Time =    1.000,"PART-1-1",           673,         -8.75,           -5.,            0.,NA,NA,"",       1.71548,  -661.423E-03,      -1.58284,   348.792E-06
C:/temp/dataset/4/18_4.odb,Step-1,Increment      1: Step Time =    1.000,"PART-1-1",           674,      -7.59562,      -4.02918,            0.,NA,NA,"",       1.66618,  -746.682E-03,      -1.48951,   267.786E-06
C:/temp/dataset/4/18_4.odb,Step-1,Increment      1: Step Time =    1.000,"PART-1-1",           675,      -8.87289,      -2.96795,            0.,NA,NA,"",       1.80363,  -831.515E-03,      -1.60052,   144.233E-06
C:/temp/dataset/4/18_4.odb,Step-1,Increment      1: Step Time =    1.000,"PART-1-1",           676,         -6.25,           -5.,            0.,NA,NA,"",       1.52699,  -669.271E-03,      -1.37251,   387.904E-06
C:/temp/dataset/4/18_4.odb,Step-1,Increment      1: Step Time =    1.000,"PART-1-1",           677,      -5.03874,      -3.83161,            0.,NA,NA,"",       1.48990,  -772.092E-03,      -1.27424,   335.543E-06
C:/temp/dataset/4/18_4.odb,Step-1,Increment      1: Step Time =    1.000,"PART-1-1",           678,      -6.38435,      -2.86079,            0.,NA,NA,"",       1.63033,  -849.129E-03,      -1.39174,   279.363E-06
C:/temp/dataset/4/18_4.odb,Step-1,Increment      1: Step Time =    1.000,"PART-1-1",           679,      -8.31216,       1.98044,            0.,NA,NA,"",       2.00660,      -1.24779,      -1.57145,   210.217E-06
C:/temp/dataset/4/18_4.odb,Step-1,Increment      1: Step Time =    1.000,"PART-1-1",           680,      -6.89941,       1.67561,            0.,NA,NA,"",       1.90155,      -1.22730,      -1.45245,   503.373E-06
C:/temp/dataset/4/18_4.odb,Step-1,Increment      1: Step Time =    1.000,"PART-1-1",           681,      -8.02347,       3.70061,            0.,NA,NA,"",       2.08596,      -1.39197,      -1.55360,   208.131E-06
C:/temp/dataset/4/18_4.odb,Step-1,Increment      1: Step Time =    1.000,"PART-1-1",           682,      -9.78636,       2.36681,            0.,NA,NA,"",       2.12145,      -1.27473,      -1.69576,   133.567E-06
C:/temp/dataset/4/18_4.odb,Step-1,Increment      1: Step Time =    1.000,"PART-1-1",           683,      -8.80920,   354.969E-03,            0.,NA,NA,"",       1.95332,      -1.11026,      -1.60710,   173.895E-06
C:/temp/dataset/4/18_4.odb,Step-1,Increment      1: Step Time =    1.000,"PART-1-1",           684,         -3.75,           -5.,            0.,NA,NA,"",       1.34357,  -677.583E-03,      -1.16020,   110.819E-06
C:/temp/dataset/4/18_4.odb,Step-1,Increment      1: Step Time =    1.000,"PART-1-1",           685,          3.75,           -5.,            0.,NA,NA,"",   884.731E-03,  -723.252E-03,  -509.563E-03,   10.8880E-03
C:/temp/dataset/4/18_4.odb,Step-1,Increment      1: Step Time =    1.000,"PART-1-1",           686,       4.46580,      -3.87501,            0.,NA,NA,"",   936.745E-03,  -824.875E-03,  -443.930E-03,   12.9951E-03
C:/temp/dataset/4/18_4.odb,Step-1,Increment      1: Step Time =    1.000,"PART-1-1",           687,       2.90021,      -2.90757,            0.,NA,NA,"",       1.06726,  -890.349E-03,  -588.483E-03,   5.70594E-03
C:/temp/dataset/4/18_4.odb,Step-1,Increment      1: Step Time =    1.000,"PART-1-1",           688,       11.1618,       2.81075,            0.,NA,NA,"",       1.34039,      -1.34039,   3.86416E-03,   3.34224E-03
C:/temp/dataset/4/18_4.odb,Step-1,Increment      1: Step Time =    1.000,"PART-1-1",           689,       10.1850,       1.50626,            0.,NA,NA,"",       1.24118,      -1.23972,  -60.2426E-03,   4.63619E-03
C:/temp/dataset/4/18_4.odb,Step-1,Increment      1: Step Time =    1.000,"PART-1-1",           690,       11.6421,   144.368E-03,            0.,NA,NA,"",       1.13953,      -1.13865,   44.6384E-03,   4.69959E-03
C:/temp/dataset/4/18_4.odb,Step-1,Increment      1: Step Time =    1.000,"PART-1-1",           691,         11.25,           30.,            0.,NA,NA,"",       3.33405,      -3.33342,  -64.5583E-03,   164.811E-09
C:/temp/dataset/4/18_4.odb,Step-1,Increment      1: Step Time =    1.000,"PART-1-1",           692,       9.19768,       26.3844,            0.,NA,NA,"",       3.07090,      -3.06407,  -204.701E-03,   217.546E-09
C:/temp/dataset/4/18_4.odb,Step-1,Increment      1: Step Time =    1.000,"PART-1-1",           693,       7.72138,       25.7435,            0.,NA,NA,"",       3.02933,      -3.01336,  -310.738E-03,   250.021E-09
C:/temp/dataset/4/18_4.odb,Step-1,Increment      1: Step Time =    1.000,"PART-1-1",           694,       9.17897,      -24.8987,            0.,NA,NA,"",   29.3924E-03,  -23.3918E-03,  -17.7970E-03,   4.26462E-03
C:/temp/dataset/4/18_4.odb,Step-1,Increment      1: Step Time =    1.000,"PART-1-1",           695,       9.00589,       18.6572,            0.,NA,NA,"",       2.50743,      -2.49959,  -198.098E-03,   10.8070E-06
C:/temp/dataset/4/18_4.odb,Step-1,Increment      1: Step Time =    1.000,"PART-1-1",           696,       7.99757,       19.7140,            0.,NA,NA,"",       2.58862,      -2.57403,  -274.502E-03,   4.22878E-06
C:/temp/dataset/4/18_4.odb,Step-1,Increment      1: Step Time =    1.000,"PART-1-1",           697,      -12.2498,       25.7751,            0.,NA,NA,"",       3.77402,      -3.21165,      -1.98205,   44.4323E-09
C:/temp/dataset/4/18_4.odb,Step-1,Increment      1: Step Time =    1.000,"PART-1-1",           698,      -11.9888,       23.9538,            0.,NA,NA,"",       3.63168,      -3.06117,      -1.95405,   124.196E-09
C:/temp/dataset/4/18_4.odb,Step-1,Increment      1: Step Time =    1.000,"PART-1-1",           699,      -1.59164,      -1.60220,            0.,NA,NA,"",       1.38494,  -972.321E-03,  -986.233E-03,   2.98890E-03
C:/temp/dataset/4/18_4.odb,Step-1,Increment      1: Step Time =    1.000,"PART-1-1",           700,      -1.34014,  -343.401E-03,            0.,NA,NA,"",       1.44861,      -1.07649,  -969.348E-03,   3.74231E-03
C:/temp/dataset/4/18_4.odb,Step-1,Increment      1: Step Time =    1.000,"PART-1-1",           701,      -2.70787,  -93.9540E-03,            0.,NA,NA,"",       1.54291,      -1.09260,      -1.08940,   2.94916E-03
C:/temp/dataset/4/18_4.odb,Step-1,Increment      1: Step Time =    1.000,"PART-1-1",           702,       8.06015,      -13.0184,            0.,NA,NA,"",   358.316E-03,  -339.287E-03,  -115.216E-03,   7.58992E-03
C:/temp/dataset/4/18_4.odb,Step-1,Increment      1: Step Time =    1.000,"PART-1-1",           703,       7.99745,      -10.7906,            0.,NA,NA,"",   458.759E-03,  -438.246E-03,  -135.648E-03,   7.77228E-03
C:/temp/dataset/4/18_4.odb,Step-1,Increment      1: Step Time =    1.000,"PART-1-1",           704,           15.,        -26.25,            0.,NA,NA,"",   42.2998E-03,  -20.8482E-03,   36.8052E-03,   11.6463E-03
C:/temp/dataset/4/18_4.odb,Step-1,Increment      1: Step Time =    1.000,"PART-1-1",           705,       13.9776,      -24.8045,            0.,NA,NA,"",   50.1450E-03,  -30.4662E-03,   39.8288E-03,   9.05535E-03
C:/temp/dataset/4/18_4.odb,Step-1,Increment      1: Step Time =    1.000,"PART-1-1",           706,       12.6094,      -25.9010,            0.,NA,NA,"",   23.2813E-03,  -14.5602E-03,   18.1664E-03,   5.33734E-03
C:/temp/dataset/4/18_4.odb,Step-1,Increment      1: Step Time =    1.000,"PART-1-1",           707,       12.0224,      -24.3398,            0.,NA,NA,"",   35.1983E-03,  -30.3251E-03,   17.8693E-03,   3.75314E-03
C:/temp/dataset/4/18_4.odb,Step-1,Increment      1: Step Time =    1.000,"PART-1-1",           708,       13.0263,      -23.4242,            0.,NA,NA,"",   58.3362E-03,  -45.6260E-03,   36.3507E-03,   6.52582E-03
C:/temp/dataset/4/18_4.odb,Step-1,Increment      1: Step Time =    1.000,"PART-1-1",           709,       12.1300,      -22.1112,            0.,NA,NA,"",   70.8715E-03,  -65.5045E-03,   27.0540E-03,   4.03975E-03
C:/temp/dataset/4/18_4.odb,Step-1,Increment      1: Step Time =    1.000,"PART-1-1",           710,           15.,        -23.75,            0.,NA,NA,"",   79.9460E-03,  -49.1860E-03,   63.0247E-03,   11.9163E-03
C:/temp/dataset/4/18_4.odb,Step-1,Increment      1: Step Time =    1.000,"PART-1-1",           711,       10.9035,      -9.09896,            0.,NA,NA,"",   522.817E-03,  -522.805E-03,   3.46262E-03,   1.32209E-03
C:/temp/dataset/4/18_4.odb,Step-1,Increment      1: Step Time =    1.000,"PART-1-1",           712,       9.82794,      -8.10226,            0.,NA,NA,"",   577.233E-03,  -574.512E-03,  -55.9821E-03,   1.85829E-03
C:/temp/dataset/4/18_4.odb,Step-1,Increment      1: Step Time =    1.000,"PART-1-1",           713,       8.90728,      -9.48784,            0.,NA,NA,"",   510.498E-03,  -500.755E-03,  -99.2599E-03,   4.78486E-03
C:/temp/dataset/4/18_4.odb,Step-1,Increment      1: Step Time =    1.000,"PART-1-1",           714,           15.,         -1.25,            0.,NA,NA,"",       1.08452,      -1.04816,   278.447E-03,   6.63533E-03
C:/temp/dataset/4/18_4.odb,Step-1,Increment      1: Step Time =    1.000,"PART-1-1",           715,       12.7555,      -1.12336,            0.,NA,NA,"",       1.05412,      -1.04706,   121.792E-03,   5.09357E-03
C:/temp/dataset/4/18_4.odb,Step-1,Increment      1: Step Time =    1.000,"PART-1-1",           716,       11.5680,       5.48707,            0.,NA,NA,"",       1.54254,      -1.54234,   24.5050E-03,   1.31713E-03
C:/temp/dataset/4/18_4.odb,Step-1,Increment      1: Step Time =    1.000,"PART-1-1",           717,       10.1222,       4.29256,            0.,NA,NA,"",       1.45288,      -1.45089,  -75.9111E-03,   2.79206E-03
C:/temp/dataset/4/18_4.odb,Step-1,Increment      1: Step Time =    1.000,"PART-1-1",           718,       8.27918,   509.070E-03,            0.,NA,NA,"",       1.17733,      -1.16207,  -188.960E-03,   5.34599E-03
C:/temp/dataset/4/18_4.odb,Step-1,Increment      1: Step Time =    1.000,"PART-1-1",           719,       9.70893,  -124.236E-03,            0.,NA,NA,"",       1.11797,      -1.11461,  -86.6147E-03,   5.41913E-03
C:/temp/dataset/4/18_4.odb,Step-1,Increment      1: Step Time =    1.000,"PART-1-1",           720,       8.75521,       2.13956,            0.,NA,NA,"",       1.29763,      -1.28723,  -163.910E-03,   4.72780E-03
C:/temp/dataset/4/18_4.odb,Step-1,Increment      1: Step Time =    1.000,"PART-1-1",           721,       6.99874,       4.90963,            0.,NA,NA,"",       1.52687,      -1.49591,  -305.931E-03,   3.88680E-03
C:/temp/dataset/4/18_4.odb,Step-1,Increment      1: Step Time =    1.000,"PART-1-1",           722,       8.01086,       5.41567,            0.,NA,NA,"",       1.55049,      -1.53274,  -233.920E-03,   2.75731E-03
C:/temp/dataset/4/18_4.odb,Step-1,Increment      1: Step Time =    1.000,"PART-1-1",           723,       11.8045,       7.99587,            0.,NA,NA,"",       1.72866,      -1.72831,   34.4700E-03,   271.098E-06
C:/temp/dataset/4/18_4.odb,Step-1,Increment      1: Step Time =    1.000,"PART-1-1",           724,       7.91904,       10.9856,            0.,NA,NA,"",       1.95375,      -1.93676,  -257.133E-03,   93.6413E-06
C:/temp/dataset/4/18_4.odb,Step-1,Increment      1: Step Time =    1.000,"PART-1-1",           725,       11.0233,       18.7016,            0.,NA,NA,"",       2.50875,      -2.50823,  -50.9769E-03,   10.5511E-06
C:/temp/dataset/4/18_4.odb,Step-1,Increment      1: Step Time =    1.000,"PART-1-1",           726,       10.0074,       19.8076,            0.,NA,NA,"",       2.58940,      -2.58623,  -128.066E-03,   4.57863E-06
C:/temp/dataset/4/18_4.odb,Step-1,Increment      1: Step Time =    1.000,"PART-1-1",           727,       10.9673,       21.0105,            0.,NA,NA,"",       2.67729,      -2.67659,  -61.2190E-03,   2.82180E-06
C:/temp/dataset/4/18_4.odb,Step-1,Increment      1: Step Time =    1.000,"PART-1-1",           728,       8.97465,       20.8454,            0.,NA,NA,"",       2.66720,      -2.65921,  -206.208E-03,   3.13078E-06
C:/temp/dataset/4/18_4.odb,Step-1,Increment      1: Step Time =    1.000,"PART-1-1",           729,       8.66510,       24.8184,            0.,NA,NA,"",       2.95806,      -2.94835,  -239.395E-03,   223.920E-09
C:/temp/dataset/4/18_4.odb,Step-1,Increment      1: Step Time =    1.000,"PART-1-1",           730,       7.98376,       13.1681,            0.,NA,NA,"",       2.11201,      -2.09617,  -258.127E-03,   69.2206E-06
C:/temp/dataset/4/18_4.odb,Step-1,Increment      1: Step Time =    1.000,"PART-1-1",           731,      -1.95806,       1.80915,            0.,NA,NA,"",       1.62321,      -1.25080,      -1.03455,   4.39164E-03
C:/temp/dataset/4/18_4.odb,Step-1,Increment      1: Step Time =    1.000,"PART-1-1",           732,  -613.587E-03,   828.335E-03,            0.,NA,NA,"",       1.48600,      -1.17384,  -911.209E-03,   4.70667E-03
C:/temp/dataset/4/18_4.odb,Step-1,Increment      1: Step Time =    1.000,"PART-1-1",           733,   461.223E-03,       1.99751,            0.,NA,NA,"",       1.51367,      -1.27068,  -822.541E-03,   5.35982E-03
C:/temp/dataset/4/18_4.odb,Step-1,Increment      1: Step Time =    1.000,"PART-1-1",           734,       1.74006,       1.04512,            0.,NA,NA,"",       1.39026,      -1.19752,  -706.245E-03,   4.83516E-03
C:/temp/dataset/4/18_4.odb,Step-1,Increment      1: Step Time =    1.000,"PART-1-1",           735,   906.022E-03,  -39.5003E-03,            0.,NA,NA,"",       1.35227,      -1.10887,  -773.981E-03,   5.08709E-03
C:/temp/dataset/4/18_4.odb,Step-1,Increment      1: Step Time =    1.000,"PART-1-1",           736,       2.15034,  -968.542E-03,            0.,NA,NA,"",       1.23250,      -1.03962,  -662.000E-03,   5.11238E-03
C:/temp/dataset/4/18_4.odb,Step-1,Increment      1: Step Time =    1.000,"PART-1-1",           737,       2.98438,   116.081E-03,            0.,NA,NA,"",       1.27510,      -1.12758,  -595.347E-03,   4.52480E-03
C:/temp/dataset/4/18_4.odb,Step-1,Increment      1: Step Time =    1.000,"PART-1-1",           738,      -8.25937,       5.01848,            0.,NA,NA,"",       2.17744,      -1.50046,      -1.57793,   268.890E-06
C:/temp/dataset/4/18_4.odb,Step-1,Increment      1: Step Time =    1.000,"PART-1-1",           739,      -2.78312,       1.01462,            0.,NA,NA,"",       1.61691,      -1.18369,      -1.10148,   3.23586E-03
C:/temp/dataset/4/18_4.odb,Step-1,Increment      1: Step Time =    1.000,"PART-1-1",           740,      -4.31499,   913.536E-03,            0.,NA,NA,"",       1.70010,      -1.17153,      -1.23202,   2.04564E-03
C:/temp/dataset/4/18_4.odb,Step-1,Increment      1: Step Time =    1.000,"PART-1-1",           741,      -4.23975,  -195.042E-03,            0.,NA,NA,"",       1.62935,      -1.07956,      -1.22038,   1.60568E-03
C:/temp/dataset/4/18_4.odb,Step-1,Increment      1: Step Time =    1.000,"PART-1-1",           742,      -8.52646,       20.5688,            0.,NA,NA,"",       3.24526,      -2.79180,      -1.65456,   521.395E-09
C:/temp/dataset/4/18_4.odb,Step-1,Increment      1: Step Time =    1.000,"PART-1-1",           743,       8.09873,      -15.2435,            0.,NA,NA,"",   271.075E-03,  -253.109E-03,  -97.0435E-03,   7.40891E-03
C:/temp/dataset/4/18_4.odb,Step-1,Increment      1: Step Time =    1.000,"PART-1-1",           744,       8.99676,       14.2096,            0.,NA,NA,"",       2.18295,      -2.17493,  -186.990E-03,   61.5605E-06
C:/temp/dataset/4/18_4.odb,Step-1,Increment      1: Step Time =    1.000,"PART-1-1",           745,       11.0169,       14.0599,            0.,NA,NA,"",       2.16983,      -2.16948,  -39.1581E-03,   60.9957E-06
C:/temp/dataset/4/18_4.odb,Step-1,Increment      1: Step Time =    1.000,"PART-1-1",           746,      -7.91902,       15.6847,            0.,NA,NA,"",       2.86730,      -2.38795,      -1.58717,   673.738E-09
C:/temp/dataset/4/18_4.odb,Step-1,Increment      1: Step Time =    1.000,"PART-1-1",           747,      -11.9968,       14.1876,            0.,NA,NA,"",       2.95800,      -2.24941,      -1.92093,   3.15404E-06
C:/temp/dataset/4/18_4.odb,Step-1,Increment      1: Step Time =    1.000,"PART-1-1",           748,      -11.1175,       8.79310,            0.,NA,NA,"",       2.56917,      -1.80416,      -1.82911,   78.4800E-06
C:/temp/dataset/4/18_4.odb,Step-1,Increment      1: Step Time =    1.000,"PART-1-1",           749,       10.6592,      -6.44981,            0.,NA,NA,"",   672.706E-03,  -672.607E-03,  -11.5823E-03,   2.51711E-03
C:/temp/dataset/4/18_4.odb,Step-1,Increment      1: Step Time =    1.000,"PART-1-1",           750,      -10.7894,       23.3985,            0.,NA,NA,"",       3.54217,      -3.01917,      -1.85244,   201.351E-09
C:/temp/dataset/4/18_4.odb,Step-1,Increment      1: Step Time =    1.000,"PART-1-1",           751,       10.0228,      -25.8019,            0.,NA,NA,"",   14.3748E-03,  -12.9953E-03,  -6.14476E-03,   1.81303E-03
C:/temp/dataset/4/18_4.odb,Step-1,Increment      1: Step Time =    1.000,"PART-1-1",           752,       10.9542,      -24.8826,            0.,NA,NA,"",   22.7108E-03,  -22.4565E-03,   3.38912E-03,   781.716E-06
C:/temp/dataset/4/18_4.odb,Step-1,Increment      1: Step Time =    1.000,"PART-1-1",           753,       11.8371,      -2.37854,            0.,NA,NA,"",   953.439E-03,  -951.509E-03,   60.6233E-03,   5.28887E-03
C:/temp/dataset/4/18_4.odb,Step-1,Increment      1: Step Time =    1.000,"PART-1-1",           754,       11.6235,      -5.02753,            0.,NA,NA,"",   767.990E-03,  -766.598E-03,   46.2146E-03,   4.60273E-03
C:/temp/dataset/4/18_4.odb,Step-1,Increment      1: Step Time =    1.000,"PART-1-1",           755,      -12.1333,       7.86930,            0.,NA,NA,"",       2.57323,      -1.72394,      -1.91039,   82.7672E-06
C:/temp/dataset/4/18_4.odb,Step-1,Increment      1: Step Time =    1.000,"PART-1-1",           756,      -12.0768,       9.95169,            0.,NA,NA,"",       2.69412,      -1.89712,      -1.91291,   39.6717E-06
C:/temp/dataset/4/18_4.odb,Step-1,Increment      1: Step Time =    1.000,"PART-1-1",           757,       8.68743,       3.64563,            0.,NA,NA,"",       1.41270,      -1.40164,  -176.441E-03,   3.87119E-03
C:/temp/dataset/4/18_4.odb,Step-1,Increment      1: Step Time =    1.000,"PART-1-1",           758,       6.61848,       3.66599,            0.,NA,NA,"",       1.44222,      -1.40460,  -327.252E-03,   4.41418E-03
C:/temp/dataset/4/18_4.odb,Step-1,Increment      1: Step Time =    1.000,"PART-1-1",           759,       4.71579,   65.6079E-03,            0.,NA,NA,"",       1.21423,      -1.12684,  -452.330E-03,   3.90441E-03
C:/temp/dataset/4/18_4.odb,Step-1,Increment      1: Step Time =    1.000,"PART-1-1",           760,       3.89104,   957.250E-03,            0.,NA,NA,"",       1.30497,      -1.19506,  -524.196E-03,   3.32071E-03
C:/temp/dataset/4/18_4.odb,Step-1,Increment      1: Step Time =    1.000,"PART-1-1",           761,      -12.0363,       12.0623,            0.,NA,NA,"",       2.82315,      -2.07264,      -1.91686,   13.8555E-06
C:/temp/dataset/4/18_4.odb,Step-1,Increment      1: Step Time =    1.000,"PART-1-1",           762,      -12.1964,       5.82098,            0.,NA,NA,"",       2.46092,      -1.55355,      -1.90856,   119.185E-06
C:/temp/dataset/4/18_4.odb,Step-1,Increment      1: Step Time =    1.000,"PART-1-1",           763,      -11.2570,       4.81016,            0.,NA,NA,"",       2.34659,      -1.47283,      -1.82681,   130.630E-06
C:/temp/dataset/4/18_4.odb,Step-1,Increment      1: Step Time =    1.000,"PART-1-1",           764,      -10.5260,       3.94381,            0.,NA,NA,"",       2.25328,      -1.40337,      -1.76290,   144.379E-06
C:/temp/dataset/4/18_4.odb,Step-1,Increment      1: Step Time =    1.000,"PART-1-1",           765,      -9.56326,       4.76486,            0.,NA,NA,"",       2.23978,      -1.47495,      -1.68557,   203.456E-06
C:/temp/dataset/4/18_4.odb,Step-1,Increment      1: Step Time =    1.000,"PART-1-1",           766,      -9.32737,       3.44699,            0.,NA,NA,"",       2.15096,      -1.36629,      -1.66128,   175.309E-06
C:/temp/dataset/4/18_4.odb,Step-1,Increment      1: Step Time =    1.000,"PART-1-1",           767,       11.5413,      -26.4438,            0.,NA,NA,"",   10.9144E-03,  -8.21474E-03,   7.18620E-03,   2.45691E-03
C:/temp/dataset/4/18_4.odb,Step-1,Increment      1: Step Time =    1.000,"PART-1-1",           768,       5.97241,      -3.36228,            0.,NA,NA,"",   925.708E-03,  -866.250E-03,  -326.414E-03,   8.00325E-03
C:/temp/dataset/4/18_4.odb,Step-1,Increment      1: Step Time =    1.000,"PART-1-1",           769,       11.9304,       22.2704,            0.,NA,NA,"",       2.77111,      -2.77111,   5.71161E-03,   585.850E-09
C:/temp/dataset/4/18_4.odb,Step-1,Increment      1: Step Time =    1.000,"PART-1-1",           770,      -3.95064,       2.12654,            0.,NA,NA,"",       1.75494,      -1.27330,      -1.20769,   2.64573E-03
C:/temp/dataset/4/18_4.odb,Step-1,Increment      1: Step Time =    1.000,"PART-1-1",           771,       12.1361,      -19.7979,            0.,NA,NA,"",   120.400E-03,  -115.158E-03,   35.1402E-03,   4.13501E-03
C:/temp/dataset/4/18_4.odb,Step-1,Increment      1: Step Time =    1.000,"PART-1-1",           772,       12.1156,      -17.4436,            0.,NA,NA,"",   184.638E-03,  -179.698E-03,   42.4256E-03,   4.14390E-03
C:/temp/dataset/4/18_4.odb,Step-1,Increment      1: Step Time =    1.000,"PART-1-1",           773,       11.8489,      -7.73518,            0.,NA,NA,"",   603.313E-03,  -600.747E-03,   55.5853E-03,   4.00620E-03
C:/temp/dataset/4/18_4.odb,Step-1,Increment      1: Step Time =    1.000,"PART-1-1",           774,       11.9658,      -10.2357,            0.,NA,NA,"",   470.831E-03,  -467.423E-03,   56.5393E-03,   3.93640E-03
C:/temp/dataset/4/18_4.odb,Step-1,Increment      1: Step Time =    1.000,"PART-1-1",           775,       10.7237,      -1.11081,            0.,NA,NA,"",       1.04193,      -1.04183,  -14.7072E-03,   5.25956E-03
C:/temp/dataset/4/18_4.odb,Step-1,Increment      1: Step Time =    1.000,"PART-1-1",           776,       11.9194,       10.4262,            0.,NA,NA,"",       1.90697,      -1.90663,   36.3261E-03,   76.6846E-06
C:/temp/dataset/4/18_4.odb,Step-1,Increment      1: Step Time =    1.000,"PART-1-1",           777,       11.9945,       12.8006,            0.,NA,NA,"",       2.08052,      -2.08022,   35.5588E-03,   70.5441E-06
C:/temp/dataset/4/18_4.odb,Step-1,Increment      1: Step Time =    1.000,"PART-1-1",           778,       12.0317,      -12.6649,            0.,NA,NA,"",   358.959E-03,  -354.941E-03,   53.5583E-03,   4.01047E-03
C:/temp/dataset/4/18_4.odb,Step-1,Increment      1: Step Time =    1.000,"PART-1-1",           779,       12.0352,       15.1685,            0.,NA,NA,"",       2.25334,      -2.25311,   32.2682E-03,   36.4659E-06
C:/temp/dataset/4/18_4.odb,Step-1,Increment      1: Step Time =    1.000,"PART-1-1",           780,      -7.80161,      -2.23284,            0.,NA,NA,"",       1.75917,  -896.944E-03,      -1.51334,   117.869E-06
C:/temp/dataset/4/18_4.odb,Step-1,Increment      1: Step Time =    1.000,"PART-1-1",           781,      -8.87876,  -905.543E-03,            0.,NA,NA,"",       1.89630,      -1.00448,      -1.60840,   125.198E-06
C:/temp/dataset/4/18_4.odb,Step-1,Increment      1: Step Time =    1.000,"PART-1-1",           782,      -7.16649,      -1.00336,            0.,NA,NA,"",       1.77467,      -1.00230,      -1.46452,   299.418E-06
C:/temp/dataset/4/18_4.odb,Step-1,Increment      1: Step Time =    1.000,"PART-1-1",           783,      -7.09692,   257.153E-03,            0.,NA,NA,"",       1.83564,      -1.10808,      -1.46347,   359.956E-06
C:/temp/dataset/4/18_4.odb,Step-1,Increment      1: Step Time =    1.000,"PART-1-1",           784,      -5.74923,      -1.63131,            0.,NA,NA,"",       1.64740,  -954.581E-03,      -1.34265,   562.733E-06
C:/temp/dataset/4/18_4.odb,Step-1,Increment      1: Step Time =    1.000,"PART-1-1",           785,      -5.66693,  -67.3201E-03,            0.,NA,NA,"",       1.72617,      -1.08572,      -1.34196,   972.021E-06
C:/temp/dataset/4/18_4.odb,Step-1,Increment      1: Step Time =    1.000,"PART-1-1",           786,      -5.46941,       1.35113,            0.,NA,NA,"",       1.79569,      -1.20480,      -1.33153,   1.06588E-03
C:/temp/dataset/4/18_4.odb,Step-1,Increment      1: Step Time =    1.000,"PART-1-1",           787,       12.0849,      -15.0650,            0.,NA,NA,"",   264.009E-03,  -259.450E-03,   48.8548E-03,   4.11091E-03
C:/temp/dataset/4/18_4.odb,Step-1,Increment      1: Step Time =    1.000,"PART-1-1",           788,       7.01212,      -4.44648,            0.,NA,NA,"",   827.445E-03,  -790.507E-03,  -244.465E-03,   6.64117E-03
C:/temp/dataset/4/18_4.odb,Step-1,Increment      1: Step Time =    1.000,"PART-1-1",           789,       7.64174,      -3.33281,            0.,NA,NA,"",   896.052E-03,  -871.076E-03,  -210.085E-03,   5.88328E-03
C:/temp/dataset/4/18_4.odb,Step-1,Increment      1: Step Time =    1.000,"PART-1-1",           790,       6.60203,      -2.24861,            0.,NA,NA,"",   993.721E-03,  -950.386E-03,  -290.256E-03,   6.32683E-03
C:/temp/dataset/4/18_4.odb,Step-1,Increment      1: Step Time =    1.000,"PART-1-1",           791,       6.68626,       2.15992,            0.,NA,NA,"",       1.32707,      -1.28944,  -313.780E-03,   4.56132E-03
C:/temp/dataset/4/18_4.odb,Step-1,Increment      1: Step Time =    1.000,"PART-1-1",           792,       12.0103,       19.9021,            0.,NA,NA,"",       2.59854,      -2.59848,   17.8587E-03,   3.69395E-06
C:/temp/dataset/4/18_4.odb,Step-1,Increment      1: Step Time =    1.000,"PART-1-1",           793,       12.0305,       17.5416,            0.,NA,NA,"",       2.42640,      -2.42627,   25.6232E-03,   13.5324E-06
C:/temp/dataset/4/18_4.odb,Step-1,Increment      1: Step Time =    1.000,"PART-1-1",           794,       6.09271,      -1.14349,            0.,NA,NA,"",       1.08814,      -1.03466,  -336.946E-03,   5.36513E-03
C:/temp/dataset/4/18_4.odb,Step-1,Increment      1: Step Time =    1.000,"PART-1-1",           795,       7.56053,      -1.65505,            0.,NA,NA,"",       1.02151,  -996.101E-03,  -226.438E-03,   5.99884E-03
C:/temp/dataset/4/18_4.odb,Step-1,Increment      1: Step Time =    1.000,"PART-1-1",           796,       7.05122,  -549.935E-03,            0.,NA,NA,"",       1.11374,      -1.08045,  -270.269E-03,   5.32246E-03
C:/temp/dataset/4/18_4.odb,Step-1,Increment      1: Step Time =    1.000,"PART-1-1",           797,       5.28588,       1.87348,            0.,NA,NA,"",       1.33471,      -1.26758,  -417.976E-03,   3.31658E-03
C:/temp/dataset/4/18_4.odb,Step-1,Increment      1: Step Time =    1.000,"PART-1-1",           798,       5.70847,   325.226E-03,            0.,NA,NA,"",       1.20770,      -1.14760,  -376.252E-03,   3.90189E-03
C:/temp/dataset/4/18_4.odb,Step-1,Increment      1: Step Time =    1.000,"PART-1-1",           799,       7.10885,   611.668E-03,            0.,NA,NA,"",       1.20142,      -1.16987,  -273.516E-03,   4.88856E-03
C:/temp/dataset/4/18_4.odb,Step-1,Increment      1: Step Time =    1.000,"PART-1-1",           800,       9.00326,      -1.31280,            0.,NA,NA,"",       1.03163,      -1.02349,  -129.334E-03,   5.65713E-03
C:/temp/dataset/4/18_4.odb,Step-1,Increment      1: Step Time =    1.000,"PART-1-1",           801,       8.22155,  -652.532E-03,            0.,NA,NA,"",       1.08900,      -1.07292,  -186.435E-03,   5.66687E-03
C:/temp/dataset/4/18_4.odb,Step-1,Increment      1: Step Time =    1.000,"PART-1-1",           802,       8.34224,      -2.31533,            0.,NA,NA,"",   962.271E-03,  -947.342E-03,  -168.847E-03,   5.75867E-03
C:/temp/dataset/4/18_4.odb,Step-1,Increment      1: Step Time =    1.000,"PART-1-1",           803,       2.82445,       2.06443,            0.,NA,NA,"",       1.42174,      -1.28031,  -618.201E-03,   4.24804E-03
