ODB Name,Step,Frame,Part Instance Name,    êﬂì_ÉâÉxÉã,X,Y,Z,Section Name,Material Name,Section Point,   U-Magnitude,          U-U1,          U-U2,       S-Mises
C:/temp/dataset/4/1_15.odb,Step-1,Increment      1: Step Time =    1.000,"PART-1-1",             1,           -5.,           30.,            0.,NA,NA,"",       10.6217,       10.5328,       1.37131,   55.2379E-06
C:/temp/dataset/4/1_15.odb,Step-1,Increment      1: Step Time =    1.000,"PART-1-1",             2,          -15.,           30.,            0.,NA,NA,"",       11.5796,       10.8812,       3.96080,   1.54254E-03
C:/temp/dataset/4/1_15.odb,Step-1,Increment      1: Step Time =    1.000,"PART-1-1",             3,          -15.,         21.25,            0.,NA,NA,"",       9.59372,       8.60055,       4.25089,   3.83252E-03
C:/temp/dataset/4/1_15.odb,Step-1,Increment      1: Step Time =    1.000,"PART-1-1",             4,          -15.,          12.5,            0.,NA,NA,"",       7.77343,       6.34707,       4.48786,   10.7184E-03
C:/temp/dataset/4/1_15.odb,Step-1,Increment      1: Step Time =    1.000,"PART-1-1",             5,          -15.,          3.75,            0.,NA,NA,"",       6.28266,       4.24050,       4.63573,   13.1619E-03
C:/temp/dataset/4/1_15.odb,Step-1,Increment      1: Step Time =    1.000,"PART-1-1",             6,          -15.,           -5.,            0.,NA,NA,"",       5.33832,       2.32310,       4.80633,   372.172E-06
C:/temp/dataset/4/1_15.odb,Step-1,Increment      1: Step Time =    1.000,"PART-1-1",             7,          -10.,           -5.,            0.,NA,NA,"",       4.31073,       2.20758,       3.70257,   6.03915E-03
C:/temp/dataset/4/1_15.odb,Step-1,Increment      1: Step Time =    1.000,"PART-1-1",             8,           -5.,           -5.,            0.,NA,NA,"",       3.37451,       2.14064,       2.60864,   16.2965E-03
C:/temp/dataset/4/1_15.odb,Step-1,Increment      1: Step Time =    1.000,"PART-1-1",             9,            0.,           -5.,            0.,NA,NA,"",       2.65240,       2.11924,       1.59500,   17.7782E-03
C:/temp/dataset/4/1_15.odb,Step-1,Increment      1: Step Time =    1.000,"PART-1-1",            10,            5.,           -5.,            0.,NA,NA,"",       2.21213,       2.11872,   636.030E-03,   35.6387E-03
C:/temp/dataset/4/1_15.odb,Step-1,Increment      1: Step Time =    1.000,"PART-1-1",            11,            5.,        -11.25,            0.,NA,NA,"",       1.39866,       1.29193,   535.860E-03,   27.5851E-03
C:/temp/dataset/4/1_15.odb,Step-1,Increment      1: Step Time =    1.000,"PART-1-1",            12,            5.,         -17.5,            0.,NA,NA,"",   744.747E-03,   627.534E-03,   401.060E-03,   32.7934E-03
C:/temp/dataset/4/1_15.odb,Step-1,Increment      1: Step Time =    1.000,"PART-1-1",            13,            5.,        -23.75,            0.,NA,NA,"",   293.353E-03,   196.130E-03,   218.149E-03,   37.6500E-03
C:/temp/dataset/4/1_15.odb,Step-1,Increment      1: Step Time =    1.000,"PART-1-1",            14,            5.,          -30.,            0.,NA,NA,"",            0.,   13.0010E-39,   24.5363E-39,   47.7303E-03
C:/temp/dataset/4/1_15.odb,Step-1,Increment      1: Step Time =    1.000,"PART-1-1",            15,           15.,          -30.,            0.,NA,NA,"",            0.,   12.4402E-39,  -24.0088E-39,   45.9651E-03
C:/temp/dataset/4/1_15.odb,Step-1,Increment      1: Step Time =    1.000,"PART-1-1",            16,           15.,         -22.5,            0.,NA,NA,"",   361.304E-03,   245.341E-03,  -265.232E-03,   36.5789E-03
C:/temp/dataset/4/1_15.odb,Step-1,Increment      1: Step Time =    1.000,"PART-1-1",            17,           15.,          -15.,            0.,NA,NA,"",   966.398E-03,   817.777E-03,  -514.941E-03,   30.8076E-03
C:/temp/dataset/4/1_15.odb,Step-1,Increment      1: Step Time =    1.000,"PART-1-1",            18,           15.,          -7.5,            0.,NA,NA,"",       1.86026,       1.69900,  -757.595E-03,   24.8084E-03
C:/temp/dataset/4/1_15.odb,Step-1,Increment      1: Step Time =    1.000,"PART-1-1",            19,           15.,            0.,            0.,NA,NA,"",       3.00197,       2.84247,  -965.516E-03,   8.35620E-03
C:/temp/dataset/4/1_15.odb,Step-1,Increment      1: Step Time =    1.000,"PART-1-1",            20,           15.,           7.5,            0.,NA,NA,"",       4.21123,       4.07035,      -1.08014,   789.813E-06
C:/temp/dataset/4/1_15.odb,Step-1,Increment      1: Step Time =    1.000,"PART-1-1",            21,           15.,           15.,            0.,NA,NA,"",       5.40260,       5.27338,      -1.17452,   61.2904E-06
C:/temp/dataset/4/1_15.odb,Step-1,Increment      1: Step Time =    1.000,"PART-1-1",            22,           15.,          22.5,            0.,NA,NA,"",       6.59711,       6.47350,      -1.27110,   2.54311E-06
C:/temp/dataset/4/1_15.odb,Step-1,Increment      1: Step Time =    1.000,"PART-1-1",            23,           15.,           30.,            0.,NA,NA,"",       7.79469,       7.67375,      -1.36776,   53.1427E-09
C:/temp/dataset/4/1_15.odb,Step-1,Increment      1: Step Time =    1.000,"PART-1-1",            24,            5.,           30.,            0.,NA,NA,"",       7.80610,       7.80263,   232.567E-03,   34.1207E-09
C:/temp/dataset/4/1_15.odb,Step-1,Increment      1: Step Time =    1.000,"PART-1-1",            25,            5.,         23.75,            0.,NA,NA,"",       6.80963,       6.80242,   313.123E-03,   1.81998E-06
C:/temp/dataset/4/1_15.odb,Step-1,Increment      1: Step Time =    1.000,"PART-1-1",            26,            5.,          17.5,            0.,NA,NA,"",       5.81550,       5.80216,   393.690E-03,   10.2004E-06
C:/temp/dataset/4/1_15.odb,Step-1,Increment      1: Step Time =    1.000,"PART-1-1",            27,            5.,         11.25,            0.,NA,NA,"",       4.82502,       4.80173,   473.509E-03,   410.580E-06
C:/temp/dataset/4/1_15.odb,Step-1,Increment      1: Step Time =    1.000,"PART-1-1",            28,            5.,            5.,            0.,NA,NA,"",       3.86918,       3.83059,   545.087E-03,   18.1541E-03
C:/temp/dataset/4/1_15.odb,Step-1,Increment      1: Step Time =    1.000,"PART-1-1",            29,            0.,            5.,            0.,NA,NA,"",       4.25210,       4.00853,       1.41844,   20.4448E-03
C:/temp/dataset/4/1_15.odb,Step-1,Increment      1: Step Time =    1.000,"PART-1-1",            30,           -5.,            5.,            0.,NA,NA,"",       4.81573,       4.20613,       2.34515,   33.8156E-03
C:/temp/dataset/4/1_15.odb,Step-1,Increment      1: Step Time =    1.000,"PART-1-1",            31,           -5.,         11.25,            0.,NA,NA,"",       6.09295,       5.72999,       2.07155,   10.8668E-03
C:/temp/dataset/4/1_15.odb,Step-1,Increment      1: Step Time =    1.000,"PART-1-1",            32,           -5.,          17.5,            0.,NA,NA,"",       7.52026,       7.29613,       1.82228,   6.24038E-03
C:/temp/dataset/4/1_15.odb,Step-1,Increment      1: Step Time =    1.000,"PART-1-1",            33,           -5.,         23.75,            0.,NA,NA,"",       9.04981,       8.90933,       1.58832,   1.63095E-03
C:/temp/dataset/4/1_15.odb,Step-1,Increment      1: Step Time =    1.000,"PART-1-1",            34,          -7.5,           30.,            0.,NA,NA,"",       10.8086,       10.6183,       2.01954,   124.790E-06
C:/temp/dataset/4/1_15.odb,Step-1,Increment      1: Step Time =    1.000,"PART-1-1",            35,          -10.,           30.,            0.,NA,NA,"",       11.0316,       10.7044,       2.66653,   802.687E-06
C:/temp/dataset/4/1_15.odb,Step-1,Increment      1: Step Time =    1.000,"PART-1-1",            36,         -12.5,           30.,            0.,NA,NA,"",       11.2894,       10.7923,       3.31321,   1.44015E-03
C:/temp/dataset/4/1_15.odb,Step-1,Increment      1: Step Time =    1.000,"PART-1-1",            37,          -15.,       27.8125,            0.,NA,NA,"",       11.0740,       10.3130,       4.03437,   1.53207E-03
C:/temp/dataset/4/1_15.odb,Step-1,Increment      1: Step Time =    1.000,"PART-1-1",            38,          -15.,        25.625,            0.,NA,NA,"",       10.5743,       9.74379,       4.10783,   1.81057E-03
C:/temp/dataset/4/1_15.odb,Step-1,Increment      1: Step Time =    1.000,"PART-1-1",            39,          -15.,       23.4375,            0.,NA,NA,"",       10.0807,       9.17320,       4.18013,   2.60181E-03
C:/temp/dataset/4/1_15.odb,Step-1,Increment      1: Step Time =    1.000,"PART-1-1",            40,          -15.,       19.0625,            0.,NA,NA,"",       9.11613,       8.02902,       4.31726,   5.46356E-03
C:/temp/dataset/4/1_15.odb,Step-1,Increment      1: Step Time =    1.000,"PART-1-1",            41,          -15.,        16.875,            0.,NA,NA,"",       8.65267,       7.46269,       4.37916,   7.09349E-03
C:/temp/dataset/4/1_15.odb,Step-1,Increment      1: Step Time =    1.000,"PART-1-1",            42,          -15.,       14.6875,            0.,NA,NA,"",       8.20438,       6.90159,       4.43621,   8.83720E-03
C:/temp/dataset/4/1_15.odb,Step-1,Increment      1: Step Time =    1.000,"PART-1-1",            43,          -15.,       10.3125,            0.,NA,NA,"",       7.36228,       5.80098,       4.53341,   12.6625E-03
C:/temp/dataset/4/1_15.odb,Step-1,Increment      1: Step Time =    1.000,"PART-1-1",            44,          -15.,         8.125,            0.,NA,NA,"",       6.97399,       5.26587,       4.57243,   14.3072E-03
C:/temp/dataset/4/1_15.odb,Step-1,Increment      1: Step Time =    1.000,"PART-1-1",            45,          -15.,        5.9375,            0.,NA,NA,"",       6.61252,       4.74491,       4.60557,   14.7927E-03
C:/temp/dataset/4/1_15.odb,Step-1,Increment      1: Step Time =    1.000,"PART-1-1",            46,          -15.,        1.5625,            0.,NA,NA,"",       5.98877,       3.75196,       4.66778,   9.38853E-03
C:/temp/dataset/4/1_15.odb,Step-1,Increment      1: Step Time =    1.000,"PART-1-1",            47,          -15.,     -625.E-03,            0.,NA,NA,"",       5.73344,       3.27438,       4.70646,   4.60696E-03
C:/temp/dataset/4/1_15.odb,Step-1,Increment      1: Step Time =    1.000,"PART-1-1",            48,          -15.,       -2.8125,            0.,NA,NA,"",       5.51711,       2.80020,       4.75367,   850.106E-06
C:/temp/dataset/4/1_15.odb,Step-1,Increment      1: Step Time =    1.000,"PART-1-1",            49,         -12.5,           -5.,            0.,NA,NA,"",       4.82127,       2.26229,       4.25754,   1.11867E-03
C:/temp/dataset/4/1_15.odb,Step-1,Increment      1: Step Time =    1.000,"PART-1-1",            50,          -7.5,           -5.,            0.,NA,NA,"",       3.82227,       2.16637,       3.14906,   11.9906E-03
C:/temp/dataset/4/1_15.odb,Step-1,Increment      1: Step Time =    1.000,"PART-1-1",            51,          -2.5,           -5.,            0.,NA,NA,"",       2.98155,       2.12661,       2.08977,   18.5023E-03
C:/temp/dataset/4/1_15.odb,Step-1,Increment      1: Step Time =    1.000,"PART-1-1",            52,           2.5,           -5.,            0.,NA,NA,"",       2.39203,       2.11349,       1.12024,   18.1566E-03
C:/temp/dataset/4/1_15.odb,Step-1,Increment      1: Step Time =    1.000,"PART-1-1",            53,            5.,      -7.08333,            0.,NA,NA,"",       1.93095,       1.83675,   595.744E-03,   27.8664E-03
C:/temp/dataset/4/1_15.odb,Step-1,Increment      1: Step Time =    1.000,"PART-1-1",            54,            5.,      -9.16667,            0.,NA,NA,"",       1.65777,       1.55700,   569.174E-03,   25.5722E-03
C:/temp/dataset/4/1_15.odb,Step-1,Increment      1: Step Time =    1.000,"PART-1-1",            55,            5.,      -13.3333,            0.,NA,NA,"",       1.15901,       1.04715,   496.759E-03,   29.3194E-03
C:/temp/dataset/4/1_15.odb,Step-1,Increment      1: Step Time =    1.000,"PART-1-1",            56,            5.,      -15.4167,            0.,NA,NA,"",   940.690E-03,   825.129E-03,   451.730E-03,   31.1060E-03
C:/temp/dataset/4/1_15.odb,Step-1,Increment      1: Step Time =    1.000,"PART-1-1",            57,            5.,      -19.5833,            0.,NA,NA,"",   571.731E-03,   455.895E-03,   345.016E-03,   34.4500E-03
C:/temp/dataset/4/1_15.odb,Step-1,Increment      1: Step Time =    1.000,"PART-1-1",            58,            5.,      -21.6667,            0.,NA,NA,"",   421.557E-03,   311.605E-03,   283.924E-03,   36.0230E-03
C:/temp/dataset/4/1_15.odb,Step-1,Increment      1: Step Time =    1.000,"PART-1-1",            59,            5.,      -25.8333,            0.,NA,NA,"",   184.959E-03,   110.031E-03,   148.671E-03,   38.2710E-03
C:/temp/dataset/4/1_15.odb,Step-1,Increment      1: Step Time =    1.000,"PART-1-1",            60,            5.,      -27.9167,            0.,NA,NA,"",   93.4268E-03,   52.6477E-03,   77.1802E-03,   41.5738E-03
C:/temp/dataset/4/1_15.odb,Step-1,Increment      1: Step Time =    1.000,"PART-1-1",            61,           7.5,          -30.,            0.,NA,NA,"",            0.,   1.17973E-39,   60.7732E-39,   15.1594E-03
C:/temp/dataset/4/1_15.odb,Step-1,Increment      1: Step Time =    1.000,"PART-1-1",            62,           10.,          -30.,            0.,NA,NA,"",            0.,  -10.7970E-39,  -1.29083E-39,   5.39537E-03
C:/temp/dataset/4/1_15.odb,Step-1,Increment      1: Step Time =    1.000,"PART-1-1",            63,          12.5,          -30.,            0.,NA,NA,"",            0.,   23.6462E-39,  -53.3279E-39,   15.3579E-03
C:/temp/dataset/4/1_15.odb,Step-1,Increment      1: Step Time =    1.000,"PART-1-1",            64,           15.,         -27.5,            0.,NA,NA,"",   107.601E-03,   57.4550E-03,  -90.9777E-03,   41.1293E-03
C:/temp/dataset/4/1_15.odb,Step-1,Increment      1: Step Time =    1.000,"PART-1-1",            65,           15.,          -25.,            0.,NA,NA,"",   221.934E-03,   131.160E-03,  -179.030E-03,   37.6822E-03
C:/temp/dataset/4/1_15.odb,Step-1,Increment      1: Step Time =    1.000,"PART-1-1",            66,           15.,          -20.,            0.,NA,NA,"",   530.594E-03,   398.816E-03,  -349.964E-03,   34.5396E-03
C:/temp/dataset/4/1_15.odb,Step-1,Increment      1: Step Time =    1.000,"PART-1-1",            67,           15.,         -17.5,            0.,NA,NA,"",   732.127E-03,   590.355E-03,  -433.002E-03,   32.6749E-03
C:/temp/dataset/4/1_15.odb,Step-1,Increment      1: Step Time =    1.000,"PART-1-1",            68,           15.,         -12.5,            0.,NA,NA,"",       1.23297,       1.07924,  -596.187E-03,   29.0217E-03
C:/temp/dataset/4/1_15.odb,Step-1,Increment      1: Step Time =    1.000,"PART-1-1",            69,           15.,          -10.,            0.,NA,NA,"",       1.53114,       1.37326,  -677.147E-03,   27.2102E-03
C:/temp/dataset/4/1_15.odb,Step-1,Increment      1: Step Time =    1.000,"PART-1-1",            70,           15.,           -5.,            0.,NA,NA,"",       2.21886,       2.05555,  -835.488E-03,   20.8429E-03
C:/temp/dataset/4/1_15.odb,Step-1,Increment      1: Step Time =    1.000,"PART-1-1",            71,           15.,          -2.5,            0.,NA,NA,"",       2.60237,       2.43943,  -906.357E-03,   14.9624E-03
C:/temp/dataset/4/1_15.odb,Step-1,Increment      1: Step Time =    1.000,"PART-1-1",            72,           15.,           2.5,            0.,NA,NA,"",       3.40737,       3.25369,      -1.01175,   2.98048E-03
C:/temp/dataset/4/1_15.odb,Step-1,Increment      1: Step Time =    1.000,"PART-1-1",            73,           15.,            5.,            0.,NA,NA,"",       3.81122,       3.66422,      -1.04826,   169.422E-06
C:/temp/dataset/4/1_15.odb,Step-1,Increment      1: Step Time =    1.000,"PART-1-1",            74,           15.,           10.,            0.,NA,NA,"",       4.60868,       4.47273,      -1.11114,   543.210E-06
C:/temp/dataset/4/1_15.odb,Step-1,Increment      1: Step Time =    1.000,"PART-1-1",            75,           15.,          12.5,            0.,NA,NA,"",       5.00547,       4.87331,      -1.14260,   221.896E-06
C:/temp/dataset/4/1_15.odb,Step-1,Increment      1: Step Time =    1.000,"PART-1-1",            76,           15.,          17.5,            0.,NA,NA,"",       5.80029,       5.67339,      -1.20666,   8.62412E-06
C:/temp/dataset/4/1_15.odb,Step-1,Increment      1: Step Time =    1.000,"PART-1-1",            77,           15.,           20.,            0.,NA,NA,"",       6.19850,       6.07343,      -1.23887,   2.65269E-06
C:/temp/dataset/4/1_15.odb,Step-1,Increment      1: Step Time =    1.000,"PART-1-1",            78,           15.,           25.,            0.,NA,NA,"",       6.99605,       6.87358,      -1.30332,   1.13631E-06
C:/temp/dataset/4/1_15.odb,Step-1,Increment      1: Step Time =    1.000,"PART-1-1",            79,           15.,          27.5,            0.,NA,NA,"",       7.39526,       7.27366,      -1.33554,   259.771E-09
C:/temp/dataset/4/1_15.odb,Step-1,Increment      1: Step Time =    1.000,"PART-1-1",            80,          12.5,           30.,            0.,NA,NA,"",       7.76649,       7.70597,  -967.682E-03,   214.001E-09
C:/temp/dataset/4/1_15.odb,Step-1,Increment      1: Step Time =    1.000,"PART-1-1",            81,           10.,           30.,            0.,NA,NA,"",       7.75898,       7.73819,  -567.600E-03,   430.897E-09
C:/temp/dataset/4/1_15.odb,Step-1,Increment      1: Step Time =    1.000,"PART-1-1",            82,           7.5,           30.,            0.,NA,NA,"",       7.77221,       7.77041,  -167.516E-03,   214.369E-09
C:/temp/dataset/4/1_15.odb,Step-1,Increment      1: Step Time =    1.000,"PART-1-1",            83,            5.,       27.9167,            0.,NA,NA,"",       7.47373,       7.46923,   259.418E-03,   181.471E-09
C:/temp/dataset/4/1_15.odb,Step-1,Increment      1: Step Time =    1.000,"PART-1-1",            84,            5.,       25.8333,            0.,NA,NA,"",       7.14157,       7.13583,   286.269E-03,   779.848E-09
C:/temp/dataset/4/1_15.odb,Step-1,Increment      1: Step Time =    1.000,"PART-1-1",            85,            5.,       21.6667,            0.,NA,NA,"",       6.47794,       6.46902,   339.979E-03,   2.87075E-06
C:/temp/dataset/4/1_15.odb,Step-1,Increment      1: Step Time =    1.000,"PART-1-1",            86,            5.,       19.5833,            0.,NA,NA,"",       6.14655,       6.13560,   366.837E-03,   1.88044E-06
C:/temp/dataset/4/1_15.odb,Step-1,Increment      1: Step Time =    1.000,"PART-1-1",            87,            5.,       15.4167,            0.,NA,NA,"",       5.48482,       5.46868,   420.507E-03,   49.1463E-06
C:/temp/dataset/4/1_15.odb,Step-1,Increment      1: Step Time =    1.000,"PART-1-1",            88,            5.,       13.3333,            0.,NA,NA,"",       5.15460,       5.13517,   447.181E-03,   177.536E-06
C:/temp/dataset/4/1_15.odb,Step-1,Increment      1: Step Time =    1.000,"PART-1-1",            89,            5.,       9.16667,            0.,NA,NA,"",       4.49682,       4.46906,   498.889E-03,   1.18032E-03
C:/temp/dataset/4/1_15.odb,Step-1,Increment      1: Step Time =    1.000,"PART-1-1",            90,            5.,       7.08333,            0.,NA,NA,"",       4.17240,       4.13960,   522.142E-03,   4.23880E-03
C:/temp/dataset/4/1_15.odb,Step-1,Increment      1: Step Time =    1.000,"PART-1-1",            91,           2.5,            5.,            0.,NA,NA,"",       4.03830,       3.92016,   969.640E-03,   22.3338E-03
C:/temp/dataset/4/1_15.odb,Step-1,Increment      1: Step Time =    1.000,"PART-1-1",            92,          -2.5,            5.,            0.,NA,NA,"",       4.51139,       4.09875,       1.88492,   22.0138E-03
C:/temp/dataset/4/1_15.odb,Step-1,Increment      1: Step Time =    1.000,"PART-1-1",            93,           -5.,       7.08333,            0.,NA,NA,"",       5.22374,       4.71855,       2.24114,   18.0918E-03
C:/temp/dataset/4/1_15.odb,Step-1,Increment      1: Step Time =    1.000,"PART-1-1",            94,           -5.,       9.16667,            0.,NA,NA,"",       5.65000,       5.22236,       2.15627,   11.5481E-03
C:/temp/dataset/4/1_15.odb,Step-1,Increment      1: Step Time =    1.000,"PART-1-1",            95,           -5.,       13.3333,            0.,NA,NA,"",       6.55345,       6.24480,       1.98750,   9.34999E-03
C:/temp/dataset/4/1_15.odb,Step-1,Increment      1: Step Time =    1.000,"PART-1-1",            96,           -5.,       15.4167,            0.,NA,NA,"",       7.02999,       6.76717,       1.90424,   7.87205E-03
C:/temp/dataset/4/1_15.odb,Step-1,Increment      1: Step Time =    1.000,"PART-1-1",            97,           -5.,       19.5833,            0.,NA,NA,"",       8.02192,       7.83047,       1.74211,   4.58108E-03
C:/temp/dataset/4/1_15.odb,Step-1,Increment      1: Step Time =    1.000,"PART-1-1",            98,           -5.,       21.6667,            0.,NA,NA,"",       8.53257,       8.36872,       1.66408,   2.99495E-03
C:/temp/dataset/4/1_15.odb,Step-1,Increment      1: Step Time =    1.000,"PART-1-1",            99,           -5.,       25.8333,            0.,NA,NA,"",       9.57147,       9.45087,       1.51467,   619.566E-06
C:/temp/dataset/4/1_15.odb,Step-1,Increment      1: Step Time =    1.000,"PART-1-1",           100,           -5.,       27.9167,            0.,NA,NA,"",       10.0958,       9.99221,       1.44264,   80.9299E-06
C:/temp/dataset/4/1_15.odb,Step-1,Increment      1: Step Time =    1.000,"PART-1-1",           101,       6.93475,       11.1046,            0.,NA,NA,"",       4.75638,       4.75346,   166.485E-03,   339.127E-06
C:/temp/dataset/4/1_15.odb,Step-1,Increment      1: Step Time =    1.000,"PART-1-1",           102,       7.10183,      -21.7370,            0.,NA,NA,"",   319.851E-03,   276.834E-03,   160.210E-03,   21.3491E-03
C:/temp/dataset/4/1_15.odb,Step-1,Increment      1: Step Time =    1.000,"PART-1-1",           103,      -7.18606,       25.6133,            0.,NA,NA,"",       9.69572,       9.46793,       2.08935,   1.38694E-03
C:/temp/dataset/4/1_15.odb,Step-1,Increment      1: Step Time =    1.000,"PART-1-1",           104,       7.08931,      -17.4629,            0.,NA,NA,"",   640.621E-03,   599.144E-03,   226.762E-03,   19.4228E-03
C:/temp/dataset/4/1_15.odb,Step-1,Increment      1: Step Time =    1.000,"PART-1-1",           105,       7.11844,      -23.8299,            0.,NA,NA,"",   202.685E-03,   161.985E-03,   121.829E-03,   22.1915E-03
C:/temp/dataset/4/1_15.odb,Step-1,Increment      1: Step Time =    1.000,"PART-1-1",           106,       7.34845,      -27.9642,            0.,NA,NA,"",   41.9566E-03,   22.0998E-03,   35.6645E-03,   22.7568E-03
C:/temp/dataset/4/1_15.odb,Step-1,Increment      1: Step Time =    1.000,"PART-1-1",           107,       7.18399,      -25.9216,            0.,NA,NA,"",   109.485E-03,   76.3412E-03,   78.4795E-03,   23.4379E-03
C:/temp/dataset/4/1_15.odb,Step-1,Increment      1: Step Time =    1.000,"PART-1-1",           108,       7.00226,      -10.9532,            0.,NA,NA,"",       1.32994,       1.29474,   303.930E-03,   16.8459E-03
C:/temp/dataset/4/1_15.odb,Step-1,Increment      1: Step Time =    1.000,"PART-1-1",           109,       6.93148,       25.8450,            0.,NA,NA,"",       7.11284,       7.11280,  -22.9843E-03,   775.121E-09
C:/temp/dataset/4/1_15.odb,Step-1,Increment      1: Step Time =    1.000,"PART-1-1",           110,       6.95256,       21.7727,            0.,NA,NA,"",       6.46088,       6.46082,   26.1290E-03,   679.462E-09
C:/temp/dataset/4/1_15.odb,Step-1,Increment      1: Step Time =    1.000,"PART-1-1",           111,       6.99069,       19.6693,            0.,NA,NA,"",       6.12388,       6.12370,   47.1404E-03,   6.62081E-06
C:/temp/dataset/4/1_15.odb,Step-1,Increment      1: Step Time =    1.000,"PART-1-1",           112,       6.98342,       13.2435,            0.,NA,NA,"",       5.09687,       5.09519,   131.159E-03,   178.353E-06
C:/temp/dataset/4/1_15.odb,Step-1,Increment      1: Step Time =    1.000,"PART-1-1",           113,       6.84904,       8.98858,            0.,NA,NA,"",       4.42157,       4.41671,   207.440E-03,   471.159E-06
C:/temp/dataset/4/1_15.odb,Step-1,Increment      1: Step Time =    1.000,"PART-1-1",           114,      -7.00061,       11.3966,            0.,NA,NA,"",       6.35855,       5.82012,       2.56073,   6.98207E-03
C:/temp/dataset/4/1_15.odb,Step-1,Increment      1: Step Time =    1.000,"PART-1-1",           115,      -6.87185,       17.5946,            0.,NA,NA,"",       7.72779,       7.37826,       2.29782,   4.48188E-03
C:/temp/dataset/4/1_15.odb,Step-1,Increment      1: Step Time =    1.000,"PART-1-1",           116,      -6.78696,       21.5686,            0.,NA,NA,"",       8.66790,       8.40208,       2.13014,   2.80766E-03
C:/temp/dataset/4/1_15.odb,Step-1,Increment      1: Step Time =    1.000,"PART-1-1",           117,      -6.92081,       23.5666,            0.,NA,NA,"",       9.16819,       8.92610,       2.09294,   2.03878E-03
C:/temp/dataset/4/1_15.odb,Step-1,Increment      1: Step Time =    1.000,"PART-1-1",           118,      -7.47694,       27.7553,            0.,NA,NA,"",       10.2504,       10.0350,       2.09039,   748.481E-06
C:/temp/dataset/4/1_15.odb,Step-1,Increment      1: Step Time =    1.000,"PART-1-1",           119,       6.62973,      -6.72562,            0.,NA,NA,"",       1.89784,       1.86002,   377.002E-03,   17.5915E-03
C:/temp/dataset/4/1_15.odb,Step-1,Increment      1: Step Time =    1.000,"PART-1-1",           120,       7.00244,       17.5390,            0.,NA,NA,"",       5.78304,       5.78258,   72.7226E-03,   26.5250E-06
C:/temp/dataset/4/1_15.odb,Step-1,Increment      1: Step Time =    1.000,"PART-1-1",           121,       7.05765,      -13.1226,            0.,NA,NA,"",       1.07444,       1.03745,   279.502E-03,   17.6076E-03
C:/temp/dataset/4/1_15.odb,Step-1,Increment      1: Step Time =    1.000,"PART-1-1",           122,      -6.97858,       13.4860,            0.,NA,NA,"",       6.80617,       6.33917,       2.47768,   6.13172E-03
C:/temp/dataset/4/1_15.odb,Step-1,Increment      1: Step Time =    1.000,"PART-1-1",           123,      -7.06135,       7.11796,            0.,NA,NA,"",       5.50659,       4.78094,       2.73224,   11.7308E-03
C:/temp/dataset/4/1_15.odb,Step-1,Increment      1: Step Time =    1.000,"PART-1-1",           124,       6.87626,      -8.81940,            0.,NA,NA,"",       1.60547,       1.57032,   334.085E-03,   16.7197E-03
C:/temp/dataset/4/1_15.odb,Step-1,Increment      1: Step Time =    1.000,"PART-1-1",           125,       7.08495,      -15.2974,            0.,NA,NA,"",   843.687E-03,   804.515E-03,   254.095E-03,   18.4442E-03
C:/temp/dataset/4/1_15.odb,Step-1,Increment      1: Step Time =    1.000,"PART-1-1",           126,       7.00715,       15.3887,            0.,NA,NA,"",       5.43922,       5.43831,   99.6927E-03,   79.2528E-06
C:/temp/dataset/4/1_15.odb,Step-1,Increment      1: Step Time =    1.000,"PART-1-1",           127,      -7.01992,       9.30136,            0.,NA,NA,"",       5.92942,       5.30737,       2.64382,   8.88349E-03
C:/temp/dataset/4/1_15.odb,Step-1,Increment      1: Step Time =    1.000,"PART-1-1",           128,      -6.93369,       15.5639,            0.,NA,NA,"",       7.26592,       6.86195,       2.38899,   5.28124E-03
C:/temp/dataset/4/1_15.odb,Step-1,Increment      1: Step Time =    1.000,"PART-1-1",           129,      -6.79206,       19.5889,            0.,NA,NA,"",       8.19129,       7.88928,       2.20374,   3.65869E-03
C:/temp/dataset/4/1_15.odb,Step-1,Increment      1: Step Time =    1.000,"PART-1-1",           130,       7.09662,      -19.6136,            0.,NA,NA,"",   465.550E-03,   422.671E-03,   195.156E-03,   20.3704E-03
C:/temp/dataset/4/1_15.odb,Step-1,Increment      1: Step Time =    1.000,"PART-1-1",           131,       6.89670,       23.8203,            0.,NA,NA,"",       6.78924,       6.78923,   8.67844E-03,   927.814E-09
C:/temp/dataset/4/1_15.odb,Step-1,Increment      1: Step Time =    1.000,"PART-1-1",           132,       6.67676,       6.98748,            0.,NA,NA,"",       4.10992,       4.10170,   259.759E-03,   2.44808E-03
C:/temp/dataset/4/1_15.odb,Step-1,Increment      1: Step Time =    1.000,"PART-1-1",           133,      -13.0361,       12.2042,            0.,NA,NA,"",       7.38784,       6.20430,       4.01085,   6.94232E-03
C:/temp/dataset/4/1_15.odb,Step-1,Increment      1: Step Time =    1.000,"PART-1-1",           134,      -13.0483,       3.72302,            0.,NA,NA,"",       5.91945,       4.17458,       4.19676,   8.73706E-03
C:/temp/dataset/4/1_15.odb,Step-1,Increment      1: Step Time =    1.000,"PART-1-1",           135,      -13.0740,       10.0823,            0.,NA,NA,"",       6.98763,       5.67797,       4.07279,   7.96811E-03
C:/temp/dataset/4/1_15.odb,Step-1,Increment      1: Step Time =    1.000,"PART-1-1",           136,      -13.0017,       14.3509,            0.,NA,NA,"",       7.81417,       6.74554,       3.94449,   5.88441E-03
C:/temp/dataset/4/1_15.odb,Step-1,Increment      1: Step Time =    1.000,"PART-1-1",           137,      -12.4480,       21.2307,            0.,NA,NA,"",       9.23198,       8.50425,       3.59264,   3.63569E-03
C:/temp/dataset/4/1_15.odb,Step-1,Increment      1: Step Time =    1.000,"PART-1-1",           138,      -13.0426,       25.7965,            0.,NA,NA,"",       10.3620,       9.71846,       3.59478,   2.00206E-03
C:/temp/dataset/4/1_15.odb,Step-1,Increment      1: Step Time =    1.000,"PART-1-1",           139,      -12.9478,       23.6552,            0.,NA,NA,"",       9.85362,       9.15609,       3.64142,   2.83871E-03
C:/temp/dataset/4/1_15.odb,Step-1,Increment      1: Step Time =    1.000,"PART-1-1",           140,      -12.8307,       18.7376,            0.,NA,NA,"",       8.72472,       7.86771,       3.77092,   3.84452E-03
C:/temp/dataset/4/1_15.odb,Step-1,Increment      1: Step Time =    1.000,"PART-1-1",           141,      -12.9472,       16.5227,            0.,NA,NA,"",       8.26098,       7.29935,       3.86824,   4.83950E-03
C:/temp/dataset/4/1_15.odb,Step-1,Increment      1: Step Time =    1.000,"PART-1-1",           142,      -13.1112,       7.97345,            0.,NA,NA,"",       6.61322,       5.16580,       4.12908,   8.74445E-03
C:/temp/dataset/4/1_15.odb,Step-1,Increment      1: Step Time =    1.000,"PART-1-1",           143,      -13.1276,       5.86243,            0.,NA,NA,"",       6.26184,       4.66656,       4.17539,   9.05446E-03
C:/temp/dataset/4/1_15.odb,Step-1,Increment      1: Step Time =    1.000,"PART-1-1",           144,      -12.8109,       1.56310,            0.,NA,NA,"",       5.57775,       3.68996,       4.18276,   8.16909E-03
C:/temp/dataset/4/1_15.odb,Step-1,Increment      1: Step Time =    1.000,"PART-1-1",           145,      -12.5511,  -622.366E-03,            0.,NA,NA,"",       5.26104,       3.21088,       4.16759,   7.31869E-03
C:/temp/dataset/4/1_15.odb,Step-1,Increment      1: Step Time =    1.000,"PART-1-1",           146,      -7.69124,      -3.05836,            0.,NA,NA,"",       4.06406,       2.58241,       3.13811,   9.23577E-03
C:/temp/dataset/4/1_15.odb,Step-1,Increment      1: Step Time =    1.000,"PART-1-1",           147,      -2.59391,      -3.27074,            0.,NA,NA,"",       3.21725,       2.46887,       2.06286,   11.5120E-03
C:/temp/dataset/4/1_15.odb,Step-1,Increment      1: Step Time =    1.000,"PART-1-1",           148,      -2.06699,       2.95135,            0.,NA,NA,"",       4.11176,       3.68224,       1.82966,   14.2945E-03
C:/temp/dataset/4/1_15.odb,Step-1,Increment      1: Step Time =    1.000,"PART-1-1",           149,       1.86882,      -3.06513,            0.,NA,NA,"",       2.74318,       2.46890,       1.19566,   12.1353E-03
C:/temp/dataset/4/1_15.odb,Step-1,Increment      1: Step Time =    1.000,"PART-1-1",           150,       2.79073,       3.02834,            0.,NA,NA,"",       3.67961,       3.55847,   936.376E-03,   12.0642E-03
C:/temp/dataset/4/1_15.odb,Step-1,Increment      1: Step Time =    1.000,"PART-1-1",           151,       12.5379,       2.72923,            0.,NA,NA,"",       3.37875,       3.32184,  -617.522E-03,   5.73647E-03
C:/temp/dataset/4/1_15.odb,Step-1,Increment      1: Step Time =    1.000,"PART-1-1",           152,       12.9313,       10.2835,            0.,NA,NA,"",       4.61216,       4.54527,  -782.682E-03,   280.600E-06
C:/temp/dataset/4/1_15.odb,Step-1,Increment      1: Step Time =    1.000,"PART-1-1",           153,       12.7723,       24.8557,            0.,NA,NA,"",       6.94379,       6.87919,  -944.963E-03,   938.983E-09
C:/temp/dataset/4/1_15.odb,Step-1,Increment      1: Step Time =    1.000,"PART-1-1",           154,       12.5268,       27.4001,            0.,NA,NA,"",       7.34971,       7.28954,  -938.462E-03,   573.143E-09
C:/temp/dataset/4/1_15.odb,Step-1,Increment      1: Step Time =    1.000,"PART-1-1",           155,       12.7627,      -5.01238,            0.,NA,NA,"",       2.12219,       2.06159,  -503.533E-03,   13.1798E-03
C:/temp/dataset/4/1_15.odb,Step-1,Increment      1: Step Time =    1.000,"PART-1-1",           156,       13.0118,      -12.5921,            0.,NA,NA,"",       1.12283,       1.06088,  -367.792E-03,   17.3714E-03
C:/temp/dataset/4/1_15.odb,Step-1,Increment      1: Step Time =    1.000,"PART-1-1",           157,       9.69976,      -27.8547,            0.,NA,NA,"",   11.5717E-03,   10.7142E-03,   4.37151E-03,   4.91906E-03
C:/temp/dataset/4/1_15.odb,Step-1,Increment      1: Step Time =    1.000,"PART-1-1",           158,       13.0855,      -17.4497,            0.,NA,NA,"",   638.490E-03,   578.848E-03,  -269.452E-03,   20.0375E-03
C:/temp/dataset/4/1_15.odb,Step-1,Increment      1: Step Time =    1.000,"PART-1-1",           159,       12.9366,       22.3763,            0.,NA,NA,"",       6.54802,       6.48030,  -939.299E-03,   680.426E-09
C:/temp/dataset/4/1_15.odb,Step-1,Increment      1: Step Time =    1.000,"PART-1-1",           160,       13.0248,       17.5365,            0.,NA,NA,"",       5.77386,       5.70469,  -891.046E-03,   25.7342E-06
C:/temp/dataset/4/1_15.odb,Step-1,Increment      1: Step Time =    1.000,"PART-1-1",           161,      -10.1545,       27.3700,            0.,NA,NA,"",       10.4094,       10.0270,       2.79563,   1.42944E-03
C:/temp/dataset/4/1_15.odb,Step-1,Increment      1: Step Time =    1.000,"PART-1-1",           162,      -10.0546,      -2.87755,            0.,NA,NA,"",       4.52908,       2.66828,       3.65963,   7.63823E-03
C:/temp/dataset/4/1_15.odb,Step-1,Increment      1: Step Time =    1.000,"PART-1-1",           163,      -5.07747,      -2.66322,            0.,NA,NA,"",       3.66520,       2.62155,       2.56148,   9.56980E-03
C:/temp/dataset/4/1_15.odb,Step-1,Increment      1: Step Time =    1.000,"PART-1-1",           164,  -330.659E-03,      -3.26262,            0.,NA,NA,"",       2.93527,       2.45045,       1.61589,   12.1389E-03
C:/temp/dataset/4/1_15.odb,Step-1,Increment      1: Step Time =    1.000,"PART-1-1",           165,       3.93161,      -2.75002,            0.,NA,NA,"",       2.63560,       2.50727,   812.407E-03,   6.73367E-03
C:/temp/dataset/4/1_15.odb,Step-1,Increment      1: Step Time =    1.000,"PART-1-1",           166,       12.9585,      -10.1304,            0.,NA,NA,"",       1.41573,       1.35330,  -415.764E-03,   16.0052E-03
C:/temp/dataset/4/1_15.odb,Step-1,Increment      1: Step Time =    1.000,"PART-1-1",           167,       13.1106,      -19.8561,            0.,NA,NA,"",   447.268E-03,   389.811E-03,  -219.309E-03,   21.3376E-03
C:/temp/dataset/4/1_15.odb,Step-1,Increment      1: Step Time =    1.000,"PART-1-1",           168,       12.2637,      -27.1930,            0.,NA,NA,"",   52.7842E-03,   32.3599E-03,  -41.7015E-03,   19.0495E-03
C:/temp/dataset/4/1_15.odb,Step-1,Increment      1: Step Time =    1.000,"PART-1-1",           169,       13.0974,      -22.2394,            0.,NA,NA,"",   290.139E-03,   237.235E-03,  -167.034E-03,   22.2972E-03
C:/temp/dataset/4/1_15.odb,Step-1,Increment      1: Step Time =    1.000,"PART-1-1",           170,       13.0625,      -15.0302,            0.,NA,NA,"",   864.143E-03,   802.765E-03,  -319.862E-03,   18.7847E-03
C:/temp/dataset/4/1_15.odb,Step-1,Increment      1: Step Time =    1.000,"PART-1-1",           171,       12.8638,      -7.61343,            0.,NA,NA,"",       1.74634,       1.68478,  -459.567E-03,   14.5504E-03
C:/temp/dataset/4/1_15.odb,Step-1,Increment      1: Step Time =    1.000,"PART-1-1",           172,       12.8109,      -2.41519,            0.,NA,NA,"",       2.53218,       2.46787,  -567.070E-03,   11.7195E-03
C:/temp/dataset/4/1_15.odb,Step-1,Increment      1: Step Time =    1.000,"PART-1-1",           173,       12.7001,   168.481E-03,            0.,NA,NA,"",       2.95496,       2.89329,  -600.581E-03,   9.11095E-03
C:/temp/dataset/4/1_15.odb,Step-1,Increment      1: Step Time =    1.000,"PART-1-1",           174,       12.6773,       5.28127,            0.,NA,NA,"",       3.80161,       3.74097,  -676.302E-03,   2.11500E-03
C:/temp/dataset/4/1_15.odb,Step-1,Increment      1: Step Time =    1.000,"PART-1-1",           175,       12.8405,       7.80961,            0.,NA,NA,"",       4.21382,       4.14903,  -736.080E-03,   247.082E-06
C:/temp/dataset/4/1_15.odb,Step-1,Increment      1: Step Time =    1.000,"PART-1-1",           176,       12.9955,       12.7023,            0.,NA,NA,"",       5.00004,       4.93166,  -824.113E-03,   195.582E-06
C:/temp/dataset/4/1_15.odb,Step-1,Increment      1: Step Time =    1.000,"PART-1-1",           177,       13.0102,       19.9477,            0.,NA,NA,"",       6.15976,       6.09070,  -919.768E-03,   5.03200E-06
C:/temp/dataset/4/1_15.odb,Step-1,Increment      1: Step Time =    1.000,"PART-1-1",           178,       9.88408,       27.1269,            0.,NA,NA,"",       7.29788,       7.27989,  -512.019E-03,   488.187E-09
C:/temp/dataset/4/1_15.odb,Step-1,Increment      1: Step Time =    1.000,"PART-1-1",           179,       13.0301,       15.1161,            0.,NA,NA,"",       5.38659,       5.31738,  -860.720E-03,   84.5082E-06
C:/temp/dataset/4/1_15.odb,Step-1,Increment      1: Step Time =    1.000,"PART-1-1",           180,   300.490E-03,       3.00528,            0.,NA,NA,"",       3.87858,       3.62338,       1.38364,   13.6784E-03
C:/temp/dataset/4/1_15.odb,Step-1,Increment      1: Step Time =    1.000,"PART-1-1",           181,      -4.18418,       2.89078,            0.,NA,NA,"",       4.35371,       3.73141,       2.24307,   8.59326E-03
C:/temp/dataset/4/1_15.odb,Step-1,Increment      1: Step Time =    1.000,"PART-1-1",           182,      -8.75093,       23.2164,            0.,NA,NA,"",       9.26196,       8.89627,       2.57687,   2.55984E-03
C:/temp/dataset/4/1_15.odb,Step-1,Increment      1: Step Time =    1.000,"PART-1-1",           183,       9.13120,      -23.8882,            0.,NA,NA,"",   147.940E-03,   143.485E-03,   36.0325E-03,   7.99910E-03
C:/temp/dataset/4/1_15.odb,Step-1,Increment      1: Step Time =    1.000,"PART-1-1",           184,       8.76025,       8.63504,            0.,NA,NA,"",       4.33677,       4.33578,  -92.7340E-03,   412.840E-06
C:/temp/dataset/4/1_15.odb,Step-1,Increment      1: Step Time =    1.000,"PART-1-1",           185,       8.81891,       23.9948,            0.,NA,NA,"",       6.79906,       6.79238,  -301.192E-03,   860.729E-09
C:/temp/dataset/4/1_15.odb,Step-1,Increment      1: Step Time =    1.000,"PART-1-1",           186,       9.00734,       17.5557,            0.,NA,NA,"",       5.76481,       5.75946,  -248.323E-03,   33.5134E-06
C:/temp/dataset/4/1_15.odb,Step-1,Increment      1: Step Time =    1.000,"PART-1-1",           187,      -8.59230,       19.6811,            0.,NA,NA,"",       8.40355,       7.97123,       2.66067,   3.41177E-03
C:/temp/dataset/4/1_15.odb,Step-1,Increment      1: Step Time =    1.000,"PART-1-1",           188,       9.06266,      -12.9142,            0.,NA,NA,"",       1.04075,       1.03864,   66.3365E-03,   6.75716E-03
C:/temp/dataset/4/1_15.odb,Step-1,Increment      1: Step Time =    1.000,"PART-1-1",           189,       9.13987,      -19.6571,            0.,NA,NA,"",   405.251E-03,   401.760E-03,   53.0763E-03,   7.15892E-03
C:/temp/dataset/4/1_15.odb,Step-1,Increment      1: Step Time =    1.000,"PART-1-1",           190,       9.00941,       15.3265,            0.,NA,NA,"",       5.40712,       5.40265,  -219.833E-03,   94.7545E-06
C:/temp/dataset/4/1_15.odb,Step-1,Increment      1: Step Time =    1.000,"PART-1-1",           191,      -8.96967,       13.7142,            0.,NA,NA,"",       7.10340,       6.45530,       2.96436,   3.90444E-03
C:/temp/dataset/4/1_15.odb,Step-1,Increment      1: Step Time =    1.000,"PART-1-1",           192,       9.12973,      -17.4386,            0.,NA,NA,"",   585.193E-03,   582.228E-03,   58.8304E-03,   6.93619E-03
C:/temp/dataset/4/1_15.odb,Step-1,Increment      1: Step Time =    1.000,"PART-1-1",           193,       8.94484,       21.9321,            0.,NA,NA,"",       6.46737,       6.46065,  -294.759E-03,   1.66103E-06
C:/temp/dataset/4/1_15.odb,Step-1,Increment      1: Step Time =    1.000,"PART-1-1",           194,      -8.78258,       17.8115,            0.,NA,NA,"",       7.99148,       7.49418,       2.77505,   3.65366E-03
C:/temp/dataset/4/1_15.odb,Step-1,Increment      1: Step Time =    1.000,"PART-1-1",           195,       8.90333,       10.8666,            0.,NA,NA,"",       4.69262,       4.69038,  -144.766E-03,   345.268E-06
C:/temp/dataset/4/1_15.odb,Step-1,Increment      1: Step Time =    1.000,"PART-1-1",           196,      -9.00437,       11.6266,            0.,NA,NA,"",       6.66898,       5.93398,       3.04356,   4.15966E-03
C:/temp/dataset/4/1_15.odb,Step-1,Increment      1: Step Time =    1.000,"PART-1-1",           197,      -9.03622,       9.53759,            0.,NA,NA,"",       6.25413,       5.42011,       3.12034,   4.08169E-03
C:/temp/dataset/4/1_15.odb,Step-1,Increment      1: Step Time =    1.000,"PART-1-1",           198,       8.99264,      -10.6281,            0.,NA,NA,"",       1.31284,       1.31097,   69.9317E-03,   6.64187E-03
C:/temp/dataset/4/1_15.odb,Step-1,Increment      1: Step Time =    1.000,"PART-1-1",           199,       8.82192,      -8.34759,            0.,NA,NA,"",       1.61059,       1.60842,   83.5575E-03,   6.20638E-03
C:/temp/dataset/4/1_15.odb,Step-1,Increment      1: Step Time =    1.000,"PART-1-1",           200,       8.98411,       13.0928,            0.,NA,NA,"",       5.04897,       5.04551,  -186.767E-03,   210.260E-06
C:/temp/dataset/4/1_15.odb,Step-1,Increment      1: Step Time =    1.000,"PART-1-1",           201,       7.30685,       27.8134,            0.,NA,NA,"",       7.42376,       7.42297,  -108.423E-03,   506.792E-09
C:/temp/dataset/4/1_15.odb,Step-1,Increment      1: Step Time =    1.000,"PART-1-1",           202,      -8.46063,       21.4565,            0.,NA,NA,"",       8.80952,       8.42808,       2.56418,   3.01362E-03
C:/temp/dataset/4/1_15.odb,Step-1,Increment      1: Step Time =    1.000,"PART-1-1",           203,       9.11250,      -15.1896,            0.,NA,NA,"",   797.219E-03,   794.777E-03,   62.3565E-03,   6.77116E-03
C:/temp/dataset/4/1_15.odb,Step-1,Increment      1: Step Time =    1.000,"PART-1-1",           204,       9.14200,      -21.8221,            0.,NA,NA,"",   259.026E-03,   255.038E-03,   45.2793E-03,   7.48738E-03
C:/temp/dataset/4/1_15.odb,Step-1,Increment      1: Step Time =    1.000,"PART-1-1",           205,      -8.90436,       15.8055,            0.,NA,NA,"",       7.55269,       6.98371,       2.87592,   3.77974E-03
C:/temp/dataset/4/1_15.odb,Step-1,Increment      1: Step Time =    1.000,"PART-1-1",           206,       9.00445,       19.7587,            0.,NA,NA,"",       6.11830,       6.11206,  -276.281E-03,   9.21467E-06
C:/temp/dataset/4/1_15.odb,Step-1,Increment      1: Step Time =    1.000,"PART-1-1",           207,       8.39742,      -6.16188,            0.,NA,NA,"",       1.92270,       1.91838,   128.761E-03,   5.74367E-03
C:/temp/dataset/4/1_15.odb,Step-1,Increment      1: Step Time =    1.000,"PART-1-1",           208,      -9.10294,       7.45394,            0.,NA,NA,"",       5.86780,       4.91748,       3.20147,   4.59197E-03
C:/temp/dataset/4/1_15.odb,Step-1,Increment      1: Step Time =    1.000,"PART-1-1",           209,       8.43260,       6.43235,            0.,NA,NA,"",       3.98914,       3.98912,  -13.2772E-03,   2.77047E-03
C:/temp/dataset/4/1_15.odb,Step-1,Increment      1: Step Time =    1.000,"PART-1-1",           210,       5.64784,       2.93298,            0.,NA,NA,"",       3.50367,       3.47337,   459.776E-03,   11.9925E-03
C:/temp/dataset/4/1_15.odb,Step-1,Increment      1: Step Time =    1.000,"PART-1-1",           211,      -10.7213,       1.88644,            0.,NA,NA,"",       5.23572,       3.70045,       3.70398,   8.89131E-03
C:/temp/dataset/4/1_15.odb,Step-1,Increment      1: Step Time =    1.000,"PART-1-1",           212,      -12.7178,       27.8380,            0.,NA,NA,"",       10.8017,       10.2385,       3.44227,   1.49807E-03
C:/temp/dataset/4/1_15.odb,Step-1,Increment      1: Step Time =    1.000,"PART-1-1",           213,      -11.0298,       24.2524,            0.,NA,NA,"",       9.75926,       9.24463,       3.12730,   2.53564E-03
C:/temp/dataset/4/1_15.odb,Step-1,Increment      1: Step Time =    1.000,"PART-1-1",           214,      -10.4500,       20.0822,            0.,NA,NA,"",       8.71434,       8.13659,       3.12020,   3.46815E-03
C:/temp/dataset/4/1_15.odb,Step-1,Increment      1: Step Time =    1.000,"PART-1-1",           215,      -10.9919,       14.0243,            0.,NA,NA,"",       7.44650,       6.59643,       3.45506,   3.82710E-03
C:/temp/dataset/4/1_15.odb,Step-1,Increment      1: Step Time =    1.000,"PART-1-1",           216,      -11.0796,       9.82104,            0.,NA,NA,"",       6.61608,       5.55032,       3.60090,   4.31884E-03
C:/temp/dataset/4/1_15.odb,Step-1,Increment      1: Step Time =    1.000,"PART-1-1",           217,      -11.0365,       11.9204,            0.,NA,NA,"",       7.02057,       6.06859,       3.52996,   4.08844E-03
C:/temp/dataset/4/1_15.odb,Step-1,Increment      1: Step Time =    1.000,"PART-1-1",           218,      -10.5491,       22.5446,            0.,NA,NA,"",       9.30040,       8.78198,       3.06171,   3.05004E-03
C:/temp/dataset/4/1_15.odb,Step-1,Increment      1: Step Time =    1.000,"PART-1-1",           219,      -10.9277,       16.1478,            0.,NA,NA,"",       7.89215,       7.13560,       3.37184,   3.65279E-03
C:/temp/dataset/4/1_15.odb,Step-1,Increment      1: Step Time =    1.000,"PART-1-1",           220,      -10.7891,       18.2216,            0.,NA,NA,"",       8.33311,       7.66514,       3.26901,   3.56387E-03
C:/temp/dataset/4/1_15.odb,Step-1,Increment      1: Step Time =    1.000,"PART-1-1",           221,      -11.1555,       7.76515,            0.,NA,NA,"",       6.24828,       5.05413,       3.67379,   4.73553E-03
C:/temp/dataset/4/1_15.odb,Step-1,Increment      1: Step Time =    1.000,"PART-1-1",           222,      -9.80329,       4.04682,            0.,NA,NA,"",       5.39495,       4.14816,       3.44938,   6.70524E-03
C:/temp/dataset/4/1_15.odb,Step-1,Increment      1: Step Time =    1.000,"PART-1-1",           223,       9.22674,      -25.9093,            0.,NA,NA,"",   65.3143E-03,   61.6027E-03,   21.7041E-03,   7.56678E-03
C:/temp/dataset/4/1_15.odb,Step-1,Increment      1: Step Time =    1.000,"PART-1-1",           224,      -9.21421,       25.1107,            0.,NA,NA,"",       9.76689,       9.40602,       2.63039,   2.02686E-03
C:/temp/dataset/4/1_15.odb,Step-1,Increment      1: Step Time =    1.000,"PART-1-1",           225,       6.25241,      -4.60112,            0.,NA,NA,"",       2.21389,       2.17106,   433.381E-03,   11.4228E-03
C:/temp/dataset/4/1_15.odb,Step-1,Increment      1: Step Time =    1.000,"PART-1-1",           226,      -7.19550,       4.55405,            0.,NA,NA,"",       5.05602,       4.17980,       2.84476,   10.1193E-03
C:/temp/dataset/4/1_15.odb,Step-1,Increment      1: Step Time =    1.000,"PART-1-1",           227,       12.9551,      -24.6090,            0.,NA,NA,"",   162.851E-03,   120.443E-03,  -109.608E-03,   23.0204E-03
C:/temp/dataset/4/1_15.odb,Step-1,Increment      1: Step Time =    1.000,"PART-1-1",           228,       10.9241,       22.1645,            0.,NA,NA,"",       6.50145,       6.47234,  -614.507E-03,   1.40875E-06
C:/temp/dataset/4/1_15.odb,Step-1,Increment      1: Step Time =    1.000,"PART-1-1",           229,      -4.91288,   464.762E-03,            0.,NA,NA,"",       4.07244,       3.25338,       2.44954,   5.55207E-03
C:/temp/dataset/4/1_15.odb,Step-1,Increment      1: Step Time =    1.000,"PART-1-1",           230,  -831.143E-03,      -1.35374,            0.,NA,NA,"",       3.27764,       2.82049,       1.66967,   4.68276E-03
C:/temp/dataset/4/1_15.odb,Step-1,Increment      1: Step Time =    1.000,"PART-1-1",           231,       11.1616,      -19.7398,            0.,NA,NA,"",   400.008E-03,   390.710E-03,  -85.7450E-03,   8.29096E-03
C:/temp/dataset/4/1_15.odb,Step-1,Increment      1: Step Time =    1.000,"PART-1-1",           232,       10.9730,      -10.3410,            0.,NA,NA,"",       1.34313,       1.33244,  -169.174E-03,   6.10310E-03
C:/temp/dataset/4/1_15.odb,Step-1,Increment      1: Step Time =    1.000,"PART-1-1",           233,       10.4844,      -5.04269,            0.,NA,NA,"",       2.07765,       2.07003,  -177.835E-03,   9.44480E-03
C:/temp/dataset/4/1_15.odb,Step-1,Increment      1: Step Time =    1.000,"PART-1-1",           234,       10.9074,       10.5689,            0.,NA,NA,"",       4.64015,       4.61712,  -461.670E-03,   326.642E-06
C:/temp/dataset/4/1_15.odb,Step-1,Increment      1: Step Time =    1.000,"PART-1-1",           235,       11.0515,      -12.7377,            0.,NA,NA,"",       1.05713,       1.04653,  -149.325E-03,   6.62169E-03
C:/temp/dataset/4/1_15.odb,Step-1,Increment      1: Step Time =    1.000,"PART-1-1",           236,       10.9936,       12.8990,            0.,NA,NA,"",       5.01445,       4.98886,  -505.886E-03,   211.886E-06
C:/temp/dataset/4/1_15.odb,Step-1,Increment      1: Step Time =    1.000,"PART-1-1",           237,      -9.84553,  -403.770E-03,            0.,NA,NA,"",       4.77485,       3.18767,       3.55499,   9.61342E-03
C:/temp/dataset/4/1_15.odb,Step-1,Increment      1: Step Time =    1.000,"PART-1-1",           238,      -6.42098,  -599.403E-03,            0.,NA,NA,"",       4.15230,       3.06757,       2.79850,   8.27541E-03
C:/temp/dataset/4/1_15.odb,Step-1,Increment      1: Step Time =    1.000,"PART-1-1",           239,      -2.35214,      -1.85066,            0.,NA,NA,"",       3.38478,       2.74540,       1.97977,   6.98085E-03
C:/temp/dataset/4/1_15.odb,Step-1,Increment      1: Step Time =    1.000,"PART-1-1",           240,       11.1625,      -21.9830,            0.,NA,NA,"",   250.781E-03,   242.181E-03,  -65.1092E-03,   8.70223E-03
C:/temp/dataset/4/1_15.odb,Step-1,Increment      1: Step Time =    1.000,"PART-1-1",           241,       11.1073,      -15.0998,            0.,NA,NA,"",   804.718E-03,   794.392E-03,  -128.501E-03,   7.25839E-03
C:/temp/dataset/4/1_15.odb,Step-1,Increment      1: Step Time =    1.000,"PART-1-1",           242,       11.1457,      -17.4375,            0.,NA,NA,"",   585.221E-03,   575.302E-03,  -107.292E-03,   7.85127E-03
C:/temp/dataset/4/1_15.odb,Step-1,Increment      1: Step Time =    1.000,"PART-1-1",           243,       10.8340,      -7.85693,            0.,NA,NA,"",       1.67003,       1.65983,  -184.304E-03,   6.59927E-03
C:/temp/dataset/4/1_15.odb,Step-1,Increment      1: Step Time =    1.000,"PART-1-1",           244,       10.5842,   120.255E-03,            0.,NA,NA,"",       2.92188,       2.90896,  -274.476E-03,   11.2404E-03
C:/temp/dataset/4/1_15.odb,Step-1,Increment      1: Step Time =    1.000,"PART-1-1",           245,       10.8633,      -2.34188,            0.,NA,NA,"",       2.51103,       2.49567,  -277.286E-03,   11.8791E-03
C:/temp/dataset/4/1_15.odb,Step-1,Increment      1: Step Time =    1.000,"PART-1-1",           246,       9.78574,       2.89226,            0.,NA,NA,"",       3.39307,       3.38785,  -188.150E-03,   8.57310E-03
C:/temp/dataset/4/1_15.odb,Step-1,Increment      1: Step Time =    1.000,"PART-1-1",           247,       10.7685,       8.18214,            0.,NA,NA,"",       4.25608,       4.23646,  -408.295E-03,   508.358E-06
C:/temp/dataset/4/1_15.odb,Step-1,Increment      1: Step Time =    1.000,"PART-1-1",           248,       10.4587,       5.69287,            0.,NA,NA,"",       3.85297,       3.83904,  -327.359E-03,   2.87682E-03
C:/temp/dataset/4/1_15.odb,Step-1,Increment      1: Step Time =    1.000,"PART-1-1",           249,       11.0104,       19.8565,            0.,NA,NA,"",       6.13117,       6.10188,  -598.570E-03,   8.38503E-06
C:/temp/dataset/4/1_15.odb,Step-1,Increment      1: Step Time =    1.000,"PART-1-1",           250,       11.0363,       17.5467,            0.,NA,NA,"",       5.76048,       5.73192,  -572.909E-03,   33.3388E-06
C:/temp/dataset/4/1_15.odb,Step-1,Increment      1: Step Time =    1.000,"PART-1-1",           251,       11.0403,       15.2208,            0.,NA,NA,"",       5.38721,       5.35972,  -543.506E-03,   96.1624E-06
C:/temp/dataset/4/1_15.odb,Step-1,Increment      1: Step Time =    1.000,"PART-1-1",           252,       1.19009,      -1.06873,            0.,NA,NA,"",       3.11997,       2.84470,       1.28137,   2.79139E-03
C:/temp/dataset/4/1_15.odb,Step-1,Increment      1: Step Time =    1.000,"PART-1-1",           253,       10.6932,       24.5073,            0.,NA,NA,"",       6.87715,       6.85024,  -607.745E-03,   885.829E-09
C:/temp/dataset/4/1_15.odb,Step-1,Increment      1: Step Time =    1.000,"PART-1-1",           254,       8.51128,       25.6419,            0.,NA,NA,"",       7.06522,       7.05994,  -273.187E-03,   743.252E-09
C:/temp/dataset/4/1_15.odb,Step-1,Increment      1: Step Time =    1.000,"PART-1-1",           255,      -9.32324,       5.48290,            0.,NA,NA,"",       5.55128,       4.45947,       3.30603,   4.95784E-03
C:/temp/dataset/4/1_15.odb,Step-1,Increment      1: Step Time =    1.000,"PART-1-1",           256,      -11.4569,       25.7537,            0.,NA,NA,"",       10.1638,       9.65134,       3.18664,   2.01203E-03
C:/temp/dataset/4/1_15.odb,Step-1,Increment      1: Step Time =    1.000,"PART-1-1",           257,      -8.85145,       2.84717,            0.,NA,NA,"",       5.04700,       3.85376,       3.25895,   8.69313E-03
C:/temp/dataset/4/1_15.odb,Step-1,Increment      1: Step Time =    1.000,"PART-1-1",           258,       11.0896,      -24.0706,            0.,NA,NA,"",   139.749E-03,   132.730E-03,  -43.7300E-03,   8.54086E-03
C:/temp/dataset/4/1_15.odb,Step-1,Increment      1: Step Time =    1.000,"PART-1-1",           259,       5.69240,      -2.12345,            0.,NA,NA,"",       2.64036,       2.59178,   504.204E-03,   10.0384E-03
C:/temp/dataset/4/1_15.odb,Step-1,Increment      1: Step Time =    1.000,"PART-1-1",           260,       7.72467,       1.38687,            0.,NA,NA,"",       3.17065,       3.16720,   147.918E-03,   12.1138E-03
C:/temp/dataset/4/1_15.odb,Step-1,Increment      1: Step Time =    1.000,"PART-1-1",           261,       8.83369,  -368.727E-03,            0.,NA,NA,"",       2.84878,       2.84878,  -2.28791E-03,   12.5268E-03
C:/temp/dataset/4/1_15.odb,Step-1,Increment      1: Step Time =    1.000,"PART-1-1",           262,       7.58912,       4.39900,            0.,NA,NA,"",       3.67939,       3.67668,   141.177E-03,   9.01663E-03
C:/temp/dataset/4/1_15.odb,Step-1,Increment      1: Step Time =    1.000,"PART-1-1",           263,      -6.02595,       2.23751,            0.,NA,NA,"",       4.50169,       3.64345,       2.64396,   9.32526E-03
C:/temp/dataset/4/1_15.odb,Step-1,Increment      1: Step Time =    1.000,"PART-1-1",           264,       4.92391,   813.983E-03,            0.,NA,NA,"",       3.17584,       3.11873,   599.544E-03,   9.03190E-03
C:/temp/dataset/4/1_15.odb,Step-1,Increment      1: Step Time =    1.000,"PART-1-1",           265,      -7.77287,       1.11371,            0.,NA,NA,"",       4.61131,       3.45387,       3.05531,   9.61094E-03
C:/temp/dataset/4/1_15.odb,Step-1,Increment      1: Step Time =    1.000,"PART-1-1",           266,      -3.71710,       1.36231,            0.,NA,NA,"",       4.04767,       3.40914,       2.18206,   4.78456E-03
C:/temp/dataset/4/1_15.odb,Step-1,Increment      1: Step Time =    1.000,"PART-1-1",           267,       2.85817,       1.10052,            0.,NA,NA,"",       3.34723,       3.21036,   947.375E-03,   6.12797E-03
C:/temp/dataset/4/1_15.odb,Step-1,Increment      1: Step Time =    1.000,"PART-1-1",           268,       7.51165,      -2.37377,            0.,NA,NA,"",       2.53436,       2.52466,   221.434E-03,   12.1618E-03
C:/temp/dataset/4/1_15.odb,Step-1,Increment      1: Step Time =    1.000,"PART-1-1",           269,      -1.84913,   666.939E-03,            0.,NA,NA,"",       3.70998,       3.22949,       1.82602,   2.61369E-03
C:/temp/dataset/4/1_15.odb,Step-1,Increment      1: Step Time =    1.000,"PART-1-1",           270,   621.955E-03,   989.730E-03,            0.,NA,NA,"",       3.50873,       3.23782,       1.35193,   4.77957E-03
C:/temp/dataset/4/1_15.odb,Step-1,Increment      1: Step Time =    1.000,"PART-1-1",           271,       7.77182,      -4.29185,            0.,NA,NA,"",       2.21658,       2.20728,   202.887E-03,   9.54145E-03
C:/temp/dataset/4/1_15.odb,Step-1,Increment      1: Step Time =    1.000,"PART-1-1",           272,       6.40836,       5.42027,            0.,NA,NA,"",       3.87559,       3.86239,   319.623E-03,   7.42967E-03
C:/temp/dataset/4/1_15.odb,Step-1,Increment      1: Step Time =    1.000,"PART-1-1",           273,      -12.5139,      -2.82358,            0.,NA,NA,"",       5.01944,       2.73691,       4.20763,   4.61093E-03
C:/temp/dataset/4/1_15.odb,Step-1,Increment      1: Step Time =    1.000,"PART-1-1",           274,       10.8188,      -25.6946,            0.,NA,NA,"",   71.3119E-03,   67.5286E-03,  -22.9187E-03,   6.93431E-03
C:/temp/dataset/4/1_15.odb,Step-1,Increment      1: Step Time =    1.000,"PART-1-1",           275,       6.49302,  -163.532E-03,            0.,NA,NA,"",       2.94145,       2.91975,   356.641E-03,   11.3739E-03
C:/temp/dataset/4/1_15.odb,Step-1,Increment      1: Step Time =    1.000,"PART-1-1",           276,       7.60941,  -936.337E-03,            0.,NA,NA,"",       2.77513,       2.76856,   190.836E-03,   12.4195E-03
C:/temp/dataset/4/1_15.odb,Step-1,Increment      1: Step Time =    1.000,"PART-1-1",           277,       9.17282,      -2.25688,            0.,NA,NA,"",       2.52602,       2.52586,  -28.5206E-03,   12.1711E-03
C:/temp/dataset/4/1_15.odb,Step-1,Increment      1: Step Time =    1.000,"PART-1-1",           278,       9.10690,      -3.89703,            0.,NA,NA,"",       2.25883,       2.25883,   3.25574E-03,   10.2782E-03
C:/temp/dataset/4/1_15.odb,Step-1,Increment      1: Step Time =    1.000,"PART-1-1",           279,      -7.91199,      -1.40732,            0.,NA,NA,"",       4.30031,       2.93193,       3.14587,   9.25321E-03
C:/temp/dataset/4/1_15.odb,Step-1,Increment      1: Step Time =    1.000,"PART-1-1",           280,      -9.83927,       21.3699,            0.,NA,NA,"",       8.94172,       8.45145,       2.92017,   3.21540E-03
C:/temp/dataset/4/1_15.odb,Step-1,Increment      1: Step Time =    1.000,"PART-1-1",           281,      -11.2653,       5.77953,            0.,NA,NA,"",       5.92419,       4.58891,       3.74672,   5.83213E-03
C:/temp/dataset/4/1_15.odb,Step-1,Increment      1: Step Time =    1.000,"PART-1-1",           282,      -11.2487,       3.84080,            0.,NA,NA,"",       5.61358,       4.14629,       3.78425,   7.29019E-03
C:/temp/dataset/4/1_15.odb,Step-1,Increment      1: Step Time =    1.000,"PART-1-1",           283,       3.11059,  -868.354E-03,            0.,NA,NA,"",       2.99983,       2.85208,   929.855E-03,   3.05581E-03
C:/temp/dataset/4/1_15.odb,Step-1,Increment      1: Step Time =    1.000,"PART-1-1",           284,       4.50766,  -682.768E-03,            0.,NA,NA,"",       2.94306,       2.86205,   685.759E-03,   5.97222E-03
C:/temp/dataset/4/1_15.odb,Step-1,Increment      1: Step Time =    1.000,"PART-1-1",           285,      -3.56662,  -854.847E-03,            0.,NA,NA,"",       3.69063,       2.96169,       2.20208,   5.18114E-03
C:/temp/dataset/4/1_15.odb,Step-1,Increment      1: Step Time =    1.000,"PART-1-1",           286,      -7.33150,       26.6843,            0.,NA,NA,"",       9.97298,       9.75159,       2.08972,   1.05466E-03
C:/temp/dataset/4/1_15.odb,Step-1,Increment      1: Step Time =    1.000,"PART-1-1",           287,      -6.09303,       25.7233,            0.,NA,NA,"",       9.62967,       9.45948,       1.80243,   883.632E-06
C:/temp/dataset/4/1_15.odb,Step-1,Increment      1: Step Time =    1.000,"PART-1-1",           288,           -5.,        26.875,            0.,NA,NA,"",       9.83341,       9.72162,       1.47850,   343.520E-06
C:/temp/dataset/4/1_15.odb,Step-1,Increment      1: Step Time =    1.000,"PART-1-1",           289,      -6.23847,       27.8360,            0.,NA,NA,"",       10.1683,       10.0136,       1.76676,   351.706E-06
C:/temp/dataset/4/1_15.odb,Step-1,Increment      1: Step Time =    1.000,"PART-1-1",           290,      -8.20013,       25.3620,            0.,NA,NA,"",       9.72758,       9.43692,       2.36014,   1.65575E-03
C:/temp/dataset/4/1_15.odb,Step-1,Increment      1: Step Time =    1.000,"PART-1-1",           291,      -8.98257,       24.1636,            0.,NA,NA,"",       9.51426,       9.15112,       2.60349,   2.27766E-03
C:/temp/dataset/4/1_15.odb,Step-1,Increment      1: Step Time =    1.000,"PART-1-1",           292,      -7.83587,       23.3915,            0.,NA,NA,"",       9.21205,       8.91115,       2.33522,   2.22799E-03
C:/temp/dataset/4/1_15.odb,Step-1,Increment      1: Step Time =    1.000,"PART-1-1",           293,      -7.05344,       24.5900,            0.,NA,NA,"",       9.43170,       9.19700,       2.09098,   1.70142E-03
C:/temp/dataset/4/1_15.odb,Step-1,Increment      1: Step Time =    1.000,"PART-1-1",           294,      -6.78951,       20.5788,            0.,NA,NA,"",       8.42865,       8.14537,       2.16681,   3.22673E-03
C:/temp/dataset/4/1_15.odb,Step-1,Increment      1: Step Time =    1.000,"PART-1-1",           295,      -5.89603,       19.5861,            0.,NA,NA,"",       8.10385,       7.85987,       1.97353,   3.95257E-03
C:/temp/dataset/4/1_15.odb,Step-1,Increment      1: Step Time =    1.000,"PART-1-1",           296,           -5.,        20.625,            0.,NA,NA,"",       8.27628,       8.09921,       1.70282,   3.78860E-03
C:/temp/dataset/4/1_15.odb,Step-1,Increment      1: Step Time =    1.000,"PART-1-1",           297,      -5.89348,       21.6177,            0.,NA,NA,"",       8.59749,       8.38545,       1.89766,   2.72537E-03
C:/temp/dataset/4/1_15.odb,Step-1,Increment      1: Step Time =    1.000,"PART-1-1",           298,      -7.97413,       13.6001,            0.,NA,NA,"",       6.95164,       6.39687,       2.72129,   4.77318E-03
C:/temp/dataset/4/1_15.odb,Step-1,Increment      1: Step Time =    1.000,"PART-1-1",           299,      -8.98702,       12.6704,            0.,NA,NA,"",       6.88380,       6.19369,       3.00415,   4.02702E-03
C:/temp/dataset/4/1_15.odb,Step-1,Increment      1: Step Time =    1.000,"PART-1-1",           300,      -8.00249,       11.5116,            0.,NA,NA,"",       6.51070,       5.87662,       2.80260,   5.28105E-03
C:/temp/dataset/4/1_15.odb,Step-1,Increment      1: Step Time =    1.000,"PART-1-1",           301,      -6.98959,       12.4413,            0.,NA,NA,"",       6.58004,       6.07868,       2.51924,   6.55088E-03
C:/temp/dataset/4/1_15.odb,Step-1,Increment      1: Step Time =    1.000,"PART-1-1",           302,      -9.95004,      -1.64066,            0.,NA,NA,"",       4.64597,       2.92869,       3.60663,   8.38132E-03
C:/temp/dataset/4/1_15.odb,Step-1,Increment      1: Step Time =    1.000,"PART-1-1",           303,      -11.1983,  -513.068E-03,            0.,NA,NA,"",       5.01481,       3.19900,       3.86195,   8.28005E-03
C:/temp/dataset/4/1_15.odb,Step-1,Increment      1: Step Time =    1.000,"PART-1-1",           304,      -12.5325,      -1.72297,            0.,NA,NA,"",       5.13580,       2.97421,       4.18694,   5.87533E-03
C:/temp/dataset/4/1_15.odb,Step-1,Increment      1: Step Time =    1.000,"PART-1-1",           305,      -11.2842,      -2.85056,            0.,NA,NA,"",       4.77259,       2.70189,       3.93413,   6.05940E-03
C:/temp/dataset/4/1_15.odb,Step-1,Increment      1: Step Time =    1.000,"PART-1-1",           306,      -10.2834,   741.336E-03,            0.,NA,NA,"",       5.00166,       3.44216,       3.62879,   9.04057E-03
C:/temp/dataset/4/1_15.odb,Step-1,Increment      1: Step Time =    1.000,"PART-1-1",           307,      -11.7661,       1.72477,            0.,NA,NA,"",       5.40480,       3.69537,       3.94412,   8.35839E-03
C:/temp/dataset/4/1_15.odb,Step-1,Increment      1: Step Time =    1.000,"PART-1-1",           308,      -12.6810,   470.366E-03,            0.,NA,NA,"",       5.41545,       3.44953,       4.17466,   7.65442E-03
C:/temp/dataset/4/1_15.odb,Step-1,Increment      1: Step Time =    1.000,"PART-1-1",           309,         -1.25,           -5.,            0.,NA,NA,"",       2.80877,       2.12250,       1.83961,   18.1924E-03
C:/temp/dataset/4/1_15.odb,Step-1,Increment      1: Step Time =    1.000,"PART-1-1",           310,  -165.329E-03,      -4.13131,            0.,NA,NA,"",       2.79165,       2.28394,       1.60529,   14.9590E-03
C:/temp/dataset/4/1_15.odb,Step-1,Increment      1: Step Time =    1.000,"PART-1-1",           311,      -1.46228,      -3.26668,            0.,NA,NA,"",       3.06937,       2.45909,       1.83683,   11.6814E-03
C:/temp/dataset/4/1_15.odb,Step-1,Increment      1: Step Time =    1.000,"PART-1-1",           312,      -2.54695,      -4.13537,            0.,NA,NA,"",       3.09641,       2.29772,       2.07563,   14.9462E-03
C:/temp/dataset/4/1_15.odb,Step-1,Increment      1: Step Time =    1.000,"PART-1-1",           313,   769.081E-03,      -3.16387,            0.,NA,NA,"",       2.83210,       2.46001,       1.40326,   11.1818E-03
C:/temp/dataset/4/1_15.odb,Step-1,Increment      1: Step Time =    1.000,"PART-1-1",           314,          1.25,           -5.,            0.,NA,NA,"",       2.51346,       2.11586,       1.35668,   18.1185E-03
C:/temp/dataset/4/1_15.odb,Step-1,Increment      1: Step Time =    1.000,"PART-1-1",           315,       2.18441,      -4.03256,            0.,NA,NA,"",       2.56700,       2.29201,       1.15594,   14.5325E-03
C:/temp/dataset/4/1_15.odb,Step-1,Increment      1: Step Time =    1.000,"PART-1-1",           316,       1.54561,       3.01681,            0.,NA,NA,"",       3.77165,       3.58990,       1.15672,   12.7268E-03
C:/temp/dataset/4/1_15.odb,Step-1,Increment      1: Step Time =    1.000,"PART-1-1",           317,       2.64536,       4.01417,            0.,NA,NA,"",       3.85661,       3.73737,   951.566E-03,   16.9908E-03
C:/temp/dataset/4/1_15.odb,Step-1,Increment      1: Step Time =    1.000,"PART-1-1",           318,          1.25,            5.,            0.,NA,NA,"",       4.13963,       3.96431,       1.19197,   21.2531E-03
C:/temp/dataset/4/1_15.odb,Step-1,Increment      1: Step Time =    1.000,"PART-1-1",           319,   150.245E-03,       4.00264,            0.,NA,NA,"",       4.06430,       3.81531,       1.40069,   17.1945E-03
C:/temp/dataset/4/1_15.odb,Step-1,Increment      1: Step Time =    1.000,"PART-1-1",           320,   179.474E-03,      -1.21124,            0.,NA,NA,"",       3.19315,       2.83277,       1.47363,   3.96870E-03
C:/temp/dataset/4/1_15.odb,Step-1,Increment      1: Step Time =    1.000,"PART-1-1",           321,  -580.901E-03,      -2.30818,            0.,NA,NA,"",       3.10442,       2.63448,       1.64224,   8.34806E-03
C:/temp/dataset/4/1_15.odb,Step-1,Increment      1: Step Time =    1.000,"PART-1-1",           322,       1.52946,      -2.06693,            0.,NA,NA,"",       2.93030,       2.65609,       1.23767,   7.37337E-03
C:/temp/dataset/4/1_15.odb,Step-1,Increment      1: Step Time =    1.000,"PART-1-1",           323,       12.7868,      -3.71378,            0.,NA,NA,"",       2.32404,       2.26148,  -535.615E-03,   12.4041E-03
C:/temp/dataset/4/1_15.odb,Step-1,Increment      1: Step Time =    1.000,"PART-1-1",           324,       13.8814,      -5.00619,            0.,NA,NA,"",       2.16330,       2.05783,  -667.236E-03,   16.5230E-03
C:/temp/dataset/4/1_15.odb,Step-1,Increment      1: Step Time =    1.000,"PART-1-1",           325,           15.,         -3.75,            0.,NA,NA,"",       2.40795,       2.24448,  -872.092E-03,   17.9293E-03
C:/temp/dataset/4/1_15.odb,Step-1,Increment      1: Step Time =    1.000,"PART-1-1",           326,       13.9054,      -2.45760,            0.,NA,NA,"",       2.56076,       2.45329,  -734.059E-03,   12.5025E-03
C:/temp/dataset/4/1_15.odb,Step-1,Increment      1: Step Time =    1.000,"PART-1-1",           327,       5.10003,      -1.40311,            0.,NA,NA,"",       2.79015,       2.72604,   594.669E-03,   7.86349E-03
C:/temp/dataset/4/1_15.odb,Step-1,Increment      1: Step Time =    1.000,"PART-1-1",           328,       3.80913,  -775.561E-03,            0.,NA,NA,"",       2.96906,       2.85733,   806.838E-03,   4.36553E-03
C:/temp/dataset/4/1_15.odb,Step-1,Increment      1: Step Time =    1.000,"PART-1-1",           329,       3.52110,      -1.80919,            0.,NA,NA,"",       2.81605,       2.67780,   871.518E-03,   4.14425E-03
C:/temp/dataset/4/1_15.odb,Step-1,Increment      1: Step Time =    1.000,"PART-1-1",           330,       4.81200,      -2.43673,            0.,NA,NA,"",       2.63317,       2.55079,   653.468E-03,   6.28731E-03
C:/temp/dataset/4/1_15.odb,Step-1,Increment      1: Step Time =    1.000,"PART-1-1",           331,           15.,          3.75,            0.,NA,NA,"",       3.60977,       3.45943,      -1.03094,   1.46899E-03
C:/temp/dataset/4/1_15.odb,Step-1,Increment      1: Step Time =    1.000,"PART-1-1",           332,       13.8386,       5.14064,            0.,NA,NA,"",       3.80152,       3.70262,  -861.475E-03,   1.09468E-03
C:/temp/dataset/4/1_15.odb,Step-1,Increment      1: Step Time =    1.000,"PART-1-1",           333,       12.6076,       4.00525,            0.,NA,NA,"",       3.59111,       3.53226,  -647.450E-03,   3.88814E-03
C:/temp/dataset/4/1_15.odb,Step-1,Increment      1: Step Time =    1.000,"PART-1-1",           334,       13.7689,       2.61462,            0.,NA,NA,"",       3.38661,       3.28768,  -812.562E-03,   3.73523E-03
C:/temp/dataset/4/1_15.odb,Step-1,Increment      1: Step Time =    1.000,"PART-1-1",           335,       9.76439,       8.40859,            0.,NA,NA,"",       4.29353,       4.28622,  -250.382E-03,   425.989E-06
C:/temp/dataset/4/1_15.odb,Step-1,Increment      1: Step Time =    1.000,"PART-1-1",           336,       8.59642,       7.53369,            0.,NA,NA,"",       4.16249,       4.16216,  -52.5330E-03,   1.40587E-03
C:/temp/dataset/4/1_15.odb,Step-1,Increment      1: Step Time =    1.000,"PART-1-1",           337,       9.44563,       6.06261,            0.,NA,NA,"",       3.91801,       3.91430,  -170.384E-03,   2.62049E-03
C:/temp/dataset/4/1_15.odb,Step-1,Increment      1: Step Time =    1.000,"PART-1-1",           338,       10.6136,       6.93751,            0.,NA,NA,"",       4.05514,       4.03845,  -367.555E-03,   1.53337E-03
C:/temp/dataset/4/1_15.odb,Step-1,Increment      1: Step Time =    1.000,"PART-1-1",           339,       5.92452,       9.07762,            0.,NA,NA,"",       4.45662,       4.44262,   353.025E-03,   587.900E-06
C:/temp/dataset/4/1_15.odb,Step-1,Increment      1: Step Time =    1.000,"PART-1-1",           340,            5.,         8.125,            0.,NA,NA,"",       4.33329,       4.30308,   510.796E-03,   1.27117E-03
C:/temp/dataset/4/1_15.odb,Step-1,Increment      1: Step Time =    1.000,"PART-1-1",           341,       5.83838,       7.03541,            0.,NA,NA,"",       4.13976,       4.12119,   391.749E-03,   1.87820E-03
C:/temp/dataset/4/1_15.odb,Step-1,Increment      1: Step Time =    1.000,"PART-1-1",           342,       6.76290,       7.98803,            0.,NA,NA,"",       4.26528,       4.25887,   233.713E-03,   663.966E-06
C:/temp/dataset/4/1_15.odb,Step-1,Increment      1: Step Time =    1.000,"PART-1-1",           343,       6.00358,       15.4027,            0.,NA,NA,"",       5.45968,       5.45348,   260.077E-03,   51.1408E-06
C:/temp/dataset/4/1_15.odb,Step-1,Increment      1: Step Time =    1.000,"PART-1-1",           344,            5.,        14.375,            0.,NA,NA,"",       5.31965,       5.30192,   433.876E-03,   114.478E-06
C:/temp/dataset/4/1_15.odb,Step-1,Increment      1: Step Time =    1.000,"PART-1-1",           345,       5.99171,       13.2884,            0.,NA,NA,"",       5.12330,       5.11514,   289.121E-03,   141.680E-06
C:/temp/dataset/4/1_15.odb,Step-1,Increment      1: Step Time =    1.000,"PART-1-1",           346,       6.99529,       14.3161,            0.,NA,NA,"",       5.26802,       5.26675,   115.425E-03,   128.326E-06
C:/temp/dataset/4/1_15.odb,Step-1,Increment      1: Step Time =    1.000,"PART-1-1",           347,       11.7328,       24.6815,            0.,NA,NA,"",       6.90848,       6.86472,  -776.354E-03,   772.484E-09
C:/temp/dataset/4/1_15.odb,Step-1,Increment      1: Step Time =    1.000,"PART-1-1",           348,       12.6496,       26.1279,            0.,NA,NA,"",       7.14669,       7.08437,  -941.713E-03,   703.568E-09
C:/temp/dataset/4/1_15.odb,Step-1,Increment      1: Step Time =    1.000,"PART-1-1",           349,       11.2054,       27.2635,            0.,NA,NA,"",       7.32073,       7.28472,  -725.241E-03,   431.101E-09
C:/temp/dataset/4/1_15.odb,Step-1,Increment      1: Step Time =    1.000,"PART-1-1",           350,       10.2886,       25.8171,            0.,NA,NA,"",       7.08722,       7.06507,  -559.882E-03,   631.007E-09
C:/temp/dataset/4/1_15.odb,Step-1,Increment      1: Step Time =    1.000,"PART-1-1",           351,       12.5134,       28.7000,            0.,NA,NA,"",       7.55809,       7.49776,  -953.072E-03,   345.760E-09
C:/temp/dataset/4/1_15.odb,Step-1,Increment      1: Step Time =    1.000,"PART-1-1",           352,       13.7634,       27.4500,            0.,NA,NA,"",       7.36984,       7.28160,      -1.13700,   345.739E-09
C:/temp/dataset/4/1_15.odb,Step-1,Increment      1: Step Time =    1.000,"PART-1-1",           353,           15.,         28.75,            0.,NA,NA,"",       7.59495,       7.47370,      -1.35165,   100.509E-09
C:/temp/dataset/4/1_15.odb,Step-1,Increment      1: Step Time =    1.000,"PART-1-1",           354,         13.75,           30.,            0.,NA,NA,"",       7.77801,       7.68986,      -1.16772,   80.9048E-09
C:/temp/dataset/4/1_15.odb,Step-1,Increment      1: Step Time =    1.000,"PART-1-1",           355,      -3.83569,      -2.96698,            0.,NA,NA,"",       3.43515,       2.54328,       2.30912,   10.3482E-03
C:/temp/dataset/4/1_15.odb,Step-1,Increment      1: Step Time =    1.000,"PART-1-1",           356,      -2.47303,      -2.56070,            0.,NA,NA,"",       3.29910,       2.60761,       2.02099,   9.23292E-03
C:/temp/dataset/4/1_15.odb,Step-1,Increment      1: Step Time =    1.000,"PART-1-1",           357,      -2.95938,      -1.35275,            0.,NA,NA,"",       3.53653,       2.85265,       2.09033,   5.91735E-03
C:/temp/dataset/4/1_15.odb,Step-1,Increment      1: Step Time =    1.000,"PART-1-1",           358,      -4.32205,      -1.75903,            0.,NA,NA,"",       3.66952,       2.79307,       2.37994,   7.31894E-03
C:/temp/dataset/4/1_15.odb,Step-1,Increment      1: Step Time =    1.000,"PART-1-1",           359,       8.60967,      -7.25473,            0.,NA,NA,"",       1.76420,       1.76098,   106.472E-03,   5.83495E-03
C:/temp/dataset/4/1_15.odb,Step-1,Increment      1: Step Time =    1.000,"PART-1-1",           360,       7.51358,      -6.44375,            0.,NA,NA,"",       1.90415,       1.88710,   254.218E-03,   10.2085E-03
C:/temp/dataset/4/1_15.odb,Step-1,Increment      1: Step Time =    1.000,"PART-1-1",           361,       6.75300,      -7.77251,            0.,NA,NA,"",       1.74916,       1.71261,   355.715E-03,   16.3071E-03
C:/temp/dataset/4/1_15.odb,Step-1,Increment      1: Step Time =    1.000,"PART-1-1",           362,       7.84909,      -8.58350,            0.,NA,NA,"",       1.60193,       1.58814,   209.711E-03,   11.1096E-03
C:/temp/dataset/4/1_15.odb,Step-1,Increment      1: Step Time =    1.000,"PART-1-1",           363,       7.07130,      -14.2100,            0.,NA,NA,"",   955.914E-03,   917.780E-03,   267.307E-03,   18.0251E-03
C:/temp/dataset/4/1_15.odb,Step-1,Increment      1: Step Time =    1.000,"PART-1-1",           364,       6.02882,      -13.2279,            0.,NA,NA,"",       1.11096,       1.04097,   388.076E-03,   23.4138E-03
C:/temp/dataset/4/1_15.odb,Step-1,Increment      1: Step Time =    1.000,"PART-1-1",           365,            5.,       -14.375,            0.,NA,NA,"",       1.04711,   933.184E-03,   474.976E-03,   30.2103E-03
C:/temp/dataset/4/1_15.odb,Step-1,Increment      1: Step Time =    1.000,"PART-1-1",           366,       6.04247,      -15.3570,            0.,NA,NA,"",   886.526E-03,   813.366E-03,   352.654E-03,   24.7267E-03
C:/temp/dataset/4/1_15.odb,Step-1,Increment      1: Step Time =    1.000,"PART-1-1",           367,       7.02995,      -12.0379,            0.,NA,NA,"",       1.19928,       1.16315,   292.165E-03,   17.2390E-03
C:/temp/dataset/4/1_15.odb,Step-1,Increment      1: Step Time =    1.000,"PART-1-1",           368,       6.00113,      -11.1016,            0.,NA,NA,"",       1.35865,       1.29205,   420.171E-03,   22.1552E-03
C:/temp/dataset/4/1_15.odb,Step-1,Increment      1: Step Time =    1.000,"PART-1-1",           369,            5.,      -12.2917,            0.,NA,NA,"",       1.27628,       1.16686,   517.037E-03,   28.4411E-03
C:/temp/dataset/4/1_15.odb,Step-1,Increment      1: Step Time =    1.000,"PART-1-1",           370,            5.,      -22.7083,            0.,NA,NA,"",   354.828E-03,   250.192E-03,   251.608E-03,   36.8207E-03
C:/temp/dataset/4/1_15.odb,Step-1,Increment      1: Step Time =    1.000,"PART-1-1",           371,       6.05922,      -23.7899,            0.,NA,NA,"",   244.935E-03,   177.237E-03,   169.057E-03,   29.8830E-03
C:/temp/dataset/4/1_15.odb,Step-1,Increment      1: Step Time =    1.000,"PART-1-1",           372,       7.11013,      -22.7834,            0.,NA,NA,"",   257.940E-03,   215.736E-03,   141.389E-03,   21.7682E-03
C:/temp/dataset/4/1_15.odb,Step-1,Increment      1: Step Time =    1.000,"PART-1-1",           373,       6.05091,      -21.7018,            0.,NA,NA,"",   366.800E-03,   292.576E-03,   221.227E-03,   28.6443E-03
C:/temp/dataset/4/1_15.odb,Step-1,Increment      1: Step Time =    1.000,"PART-1-1",           374,          8.75,          -30.,            0.,NA,NA,"",            0.,  -4.80045E-39,   15.7527E-39,   8.69596E-03
C:/temp/dataset/4/1_15.odb,Step-1,Increment      1: Step Time =    1.000,"PART-1-1",           375,       9.84988,      -28.9274,            0.,NA,NA,"",   1.87266E-03,  -1.65039E-03,   884.911E-06,   1.74586E-03
C:/temp/dataset/4/1_15.odb,Step-1,Increment      1: Step Time =    1.000,"PART-1-1",           376,       8.52411,      -27.9095,            0.,NA,NA,"",   23.9350E-03,   14.0719E-03,   19.3614E-03,   13.1034E-03
C:/temp/dataset/4/1_15.odb,Step-1,Increment      1: Step Time =    1.000,"PART-1-1",           377,       7.42422,      -28.9821,            0.,NA,NA,"",   15.8574E-03,   3.72591E-03,   15.4135E-03,   18.6418E-03
C:/temp/dataset/4/1_15.odb,Step-1,Increment      1: Step Time =    1.000,"PART-1-1",           378,       10.1104,      -23.9794,            0.,NA,NA,"",   136.434E-03,   136.362E-03,  -4.42844E-03,   3.51927E-03
C:/temp/dataset/4/1_15.odb,Step-1,Increment      1: Step Time =    1.000,"PART-1-1",           379,       11.1261,      -23.0268,            0.,NA,NA,"",   191.707E-03,   183.926E-03,  -54.0643E-03,   8.64342E-03
C:/temp/dataset/4/1_15.odb,Step-1,Increment      1: Step Time =    1.000,"PART-1-1",           380,       10.1523,      -21.9025,            0.,NA,NA,"",   247.106E-03,   246.892E-03,  -10.2836E-03,   3.45348E-03
C:/temp/dataset/4/1_15.odb,Step-1,Increment      1: Step Time =    1.000,"PART-1-1",           381,       9.13660,      -22.8552,            0.,NA,NA,"",   199.948E-03,   195.699E-03,   41.0005E-03,   7.74815E-03
C:/temp/dataset/4/1_15.odb,Step-1,Increment      1: Step Time =    1.000,"PART-1-1",           382,       7.09296,      -18.5383,            0.,NA,NA,"",   549.686E-03,   507.383E-03,   211.465E-03,   19.8951E-03
C:/temp/dataset/4/1_15.odb,Step-1,Increment      1: Step Time =    1.000,"PART-1-1",           383,       6.04465,      -17.4814,            0.,NA,NA,"",   687.423E-03,   611.815E-03,   313.420E-03,   26.0645E-03
C:/temp/dataset/4/1_15.odb,Step-1,Increment      1: Step Time =    1.000,"PART-1-1",           384,            5.,      -18.5417,            0.,NA,NA,"",   655.364E-03,   538.381E-03,   373.695E-03,   33.6189E-03
C:/temp/dataset/4/1_15.odb,Step-1,Increment      1: Step Time =    1.000,"PART-1-1",           385,       6.04831,      -19.5985,            0.,NA,NA,"",   513.930E-03,   437.673E-03,   269.381E-03,   27.3707E-03
C:/temp/dataset/4/1_15.odb,Step-1,Increment      1: Step Time =    1.000,"PART-1-1",           386,       8.88188,       22.9635,            0.,NA,NA,"",       6.63321,       6.62652,  -297.976E-03,   917.500E-09
C:/temp/dataset/4/1_15.odb,Step-1,Increment      1: Step Time =    1.000,"PART-1-1",           387,       9.93448,       22.0483,            0.,NA,NA,"",       6.48246,       6.46650,  -454.633E-03,   1.47077E-06
C:/temp/dataset/4/1_15.odb,Step-1,Increment      1: Step Time =    1.000,"PART-1-1",           388,       10.8087,       23.3359,            0.,NA,NA,"",       6.68927,       6.66129,  -611.126E-03,   810.264E-09
C:/temp/dataset/4/1_15.odb,Step-1,Increment      1: Step Time =    1.000,"PART-1-1",           389,       9.75606,       24.2511,            0.,NA,NA,"",       6.83644,       6.82131,  -454.469E-03,   785.867E-09
C:/temp/dataset/4/1_15.odb,Step-1,Increment      1: Step Time =    1.000,"PART-1-1",           390,       10.0218,       17.5512,            0.,NA,NA,"",       5.76034,       5.74569,  -410.612E-03,   30.5836E-06
C:/temp/dataset/4/1_15.odb,Step-1,Increment      1: Step Time =    1.000,"PART-1-1",           391,       9.00837,       16.4411,            0.,NA,NA,"",       5.58597,       5.58106,  -234.091E-03,   62.9801E-06
C:/temp/dataset/4/1_15.odb,Step-1,Increment      1: Step Time =    1.000,"PART-1-1",           392,       10.0249,       15.2736,            0.,NA,NA,"",       5.39471,       5.38119,  -381.649E-03,   87.0336E-06
C:/temp/dataset/4/1_15.odb,Step-1,Increment      1: Step Time =    1.000,"PART-1-1",           393,       11.0383,       16.3837,            0.,NA,NA,"",       5.57384,       5.54581,  -558.219E-03,   63.5462E-06
C:/temp/dataset/4/1_15.odb,Step-1,Increment      1: Step Time =    1.000,"PART-1-1",           394,      -14.0638,       5.89996,            0.,NA,NA,"",       6.43564,       4.70527,       4.39066,   11.8756E-03
C:/temp/dataset/4/1_15.odb,Step-1,Increment      1: Step Time =    1.000,"PART-1-1",           395,      -13.1194,       6.91794,            0.,NA,NA,"",       6.43392,       4.91422,       4.15280,   8.86060E-03
C:/temp/dataset/4/1_15.odb,Step-1,Increment      1: Step Time =    1.000,"PART-1-1",           396,      -14.0556,       8.04923,            0.,NA,NA,"",       6.79141,       5.21518,       4.35031,   11.4760E-03
C:/temp/dataset/4/1_15.odb,Step-1,Increment      1: Step Time =    1.000,"PART-1-1",           397,          -15.,       7.03125,            0.,NA,NA,"",       6.78959,       5.00342,       4.58958,   14.5458E-03
C:/temp/dataset/4/1_15.odb,Step-1,Increment      1: Step Time =    1.000,"PART-1-1",           398,      -14.0181,       12.3521,            0.,NA,NA,"",       7.57794,       6.27499,       4.24849,   8.71310E-03
C:/temp/dataset/4/1_15.odb,Step-1,Increment      1: Step Time =    1.000,"PART-1-1",           399,      -13.0189,       13.2775,            0.,NA,NA,"",       7.59858,       6.47396,       3.97821,   6.40438E-03
C:/temp/dataset/4/1_15.odb,Step-1,Increment      1: Step Time =    1.000,"PART-1-1",           400,      -14.0008,       14.5192,            0.,NA,NA,"",       8.00652,       6.82294,       4.18949,   7.22334E-03
C:/temp/dataset/4/1_15.odb,Step-1,Increment      1: Step Time =    1.000,"PART-1-1",           401,          -15.,       13.5938,            0.,NA,NA,"",       7.98659,       6.62341,       4.46275,   9.77742E-03
C:/temp/dataset/4/1_15.odb,Step-1,Increment      1: Step Time =    1.000,"PART-1-1",           402,      -10.1942,       21.9572,            0.,NA,NA,"",       9.12090,       8.61660,       2.99084,   3.12649E-03
C:/temp/dataset/4/1_15.odb,Step-1,Increment      1: Step Time =    1.000,"PART-1-1",           403,      -9.14995,       21.4132,            0.,NA,NA,"",       8.87404,       8.43970,       2.74227,   3.04951E-03
C:/temp/dataset/4/1_15.odb,Step-1,Increment      1: Step Time =    1.000,"PART-1-1",           404,      -8.60578,       22.3365,            0.,NA,NA,"",       9.03537,       8.66204,       2.57041,   2.77481E-03
C:/temp/dataset/4/1_15.odb,Step-1,Increment      1: Step Time =    1.000,"PART-1-1",           405,      -9.65000,       22.8805,            0.,NA,NA,"",       9.27785,       8.83905,       2.81952,   2.75439E-03
C:/temp/dataset/4/1_15.odb,Step-1,Increment      1: Step Time =    1.000,"PART-1-1",           406,      -14.0213,       25.7108,            0.,NA,NA,"",       10.4653,       9.73102,       3.85099,   1.85545E-03
C:/temp/dataset/4/1_15.odb,Step-1,Increment      1: Step Time =    1.000,"PART-1-1",           407,      -12.8802,       26.8172,            0.,NA,NA,"",       10.5808,       9.97865,       3.51858,   1.74893E-03
C:/temp/dataset/4/1_15.odb,Step-1,Increment      1: Step Time =    1.000,"PART-1-1",           408,      -13.8589,       27.8252,            0.,NA,NA,"",       10.9345,       10.2757,       3.73816,   1.48978E-03
C:/temp/dataset/4/1_15.odb,Step-1,Increment      1: Step Time =    1.000,"PART-1-1",           409,          -15.,       26.7188,            0.,NA,NA,"",       10.8234,       10.0286,       4.07117,   1.66831E-03
C:/temp/dataset/4/1_15.odb,Step-1,Increment      1: Step Time =    1.000,"PART-1-1",           410,        -13.75,           30.,            0.,NA,NA,"",       11.4307,       10.8367,       3.63690,   1.49326E-03
C:/temp/dataset/4/1_15.odb,Step-1,Increment      1: Step Time =    1.000,"PART-1-1",           411,          -15.,       28.9063,            0.,NA,NA,"",       11.3261,       10.5971,       3.99758,   1.52744E-03
C:/temp/dataset/4/1_15.odb,Step-1,Increment      1: Step Time =    1.000,"PART-1-1",           412,      -12.6089,       28.9190,            0.,NA,NA,"",       11.0447,       10.5156,       3.37773,   1.43054E-03
C:/temp/dataset/4/1_15.odb,Step-1,Increment      1: Step Time =    1.000,"PART-1-1",           413,      -11.4362,       27.6040,            0.,NA,NA,"",       10.6017,       10.1326,       3.11877,   1.40647E-03
C:/temp/dataset/4/1_15.odb,Step-1,Increment      1: Step Time =    1.000,"PART-1-1",           414,      -10.0773,       28.6850,            0.,NA,NA,"",       10.7199,       10.3662,       2.73098,   1.02262E-03
C:/temp/dataset/4/1_15.odb,Step-1,Increment      1: Step Time =    1.000,"PART-1-1",           415,        -11.25,           30.,            0.,NA,NA,"",       11.1562,       10.7482,       2.98980,   1.13636E-03
C:/temp/dataset/4/1_15.odb,Step-1,Increment      1: Step Time =    1.000,"PART-1-1",           416,      -13.7240,       21.2404,            0.,NA,NA,"",       9.40752,       8.55175,       3.92033,   3.51234E-03
C:/temp/dataset/4/1_15.odb,Step-1,Increment      1: Step Time =    1.000,"PART-1-1",           417,      -12.6979,       22.4429,            0.,NA,NA,"",       9.54216,       8.83008,       3.61697,   3.30519E-03
C:/temp/dataset/4/1_15.odb,Step-1,Increment      1: Step Time =    1.000,"PART-1-1",           418,      -13.9739,       23.5463,            0.,NA,NA,"",       9.96383,       9.16445,       3.91034,   2.60024E-03
C:/temp/dataset/4/1_15.odb,Step-1,Increment      1: Step Time =    1.000,"PART-1-1",           419,          -15.,       22.3438,            0.,NA,NA,"",       9.83670,       8.88751,       4.21578,   3.18279E-03
C:/temp/dataset/4/1_15.odb,Step-1,Increment      1: Step Time =    1.000,"PART-1-1",           420,      -11.9375,       16.3352,            0.,NA,NA,"",       8.07377,       7.21698,       3.61954,   3.98495E-03
C:/temp/dataset/4/1_15.odb,Step-1,Increment      1: Step Time =    1.000,"PART-1-1",           421,      -10.8584,       17.1847,            0.,NA,NA,"",       8.11072,       7.39977,       3.32073,   3.60012E-03
C:/temp/dataset/4/1_15.odb,Step-1,Increment      1: Step Time =    1.000,"PART-1-1",           422,      -11.8099,       18.4796,            0.,NA,NA,"",       8.52625,       7.76600,       3.51940,   3.55549E-03
C:/temp/dataset/4/1_15.odb,Step-1,Increment      1: Step Time =    1.000,"PART-1-1",           423,      -12.8889,       17.6301,            0.,NA,NA,"",       8.49079,       7.58290,       3.82009,   4.33710E-03
C:/temp/dataset/4/1_15.odb,Step-1,Increment      1: Step Time =    1.000,"PART-1-1",           424,      -9.98079,       13.8692,            0.,NA,NA,"",       7.27201,       6.52538,       3.20961,   3.38930E-03
C:/temp/dataset/4/1_15.odb,Step-1,Increment      1: Step Time =    1.000,"PART-1-1",           425,      -11.0142,       12.9724,            0.,NA,NA,"",       7.23110,       6.33155,       3.49289,   3.93950E-03
C:/temp/dataset/4/1_15.odb,Step-1,Increment      1: Step Time =    1.000,"PART-1-1",           426,      -10.0204,       11.7735,            0.,NA,NA,"",       6.84187,       6.00072,       3.28672,   3.41500E-03
C:/temp/dataset/4/1_15.odb,Step-1,Increment      1: Step Time =    1.000,"PART-1-1",           427,      -6.95613,       14.5250,            0.,NA,NA,"",       7.03401,       6.59971,       2.43334,   5.70284E-03
C:/temp/dataset/4/1_15.odb,Step-1,Increment      1: Step Time =    1.000,"PART-1-1",           428,      -5.98929,       13.4097,            0.,NA,NA,"",       6.67629,       6.29173,       2.23318,   7.62450E-03
C:/temp/dataset/4/1_15.odb,Step-1,Increment      1: Step Time =    1.000,"PART-1-1",           429,           -5.,        14.375,            0.,NA,NA,"",       6.78986,       6.50510,       1.94574,   8.61319E-03
C:/temp/dataset/4/1_15.odb,Step-1,Increment      1: Step Time =    1.000,"PART-1-1",           430,      -5.96684,       15.4903,            0.,NA,NA,"",       7.14466,       6.81436,       2.14724,   6.44004E-03
C:/temp/dataset/4/1_15.odb,Step-1,Increment      1: Step Time =    1.000,"PART-1-1",           431,      -11.0581,       10.8707,            0.,NA,NA,"",       6.81553,       5.80823,       3.56595,   4.17410E-03
C:/temp/dataset/4/1_15.odb,Step-1,Increment      1: Step Time =    1.000,"PART-1-1",           432,      -10.0579,       9.67932,            0.,NA,NA,"",       6.43227,       5.48461,       3.36053,   3.45730E-03
C:/temp/dataset/4/1_15.odb,Step-1,Increment      1: Step Time =    1.000,"PART-1-1",           433,      -9.02030,       10.5821,            0.,NA,NA,"",       6.45895,       5.67605,       3.08228,   4.19340E-03
C:/temp/dataset/4/1_15.odb,Step-1,Increment      1: Step Time =    1.000,"PART-1-1",           434,      -7.04064,       8.20966,            0.,NA,NA,"",       5.71477,       5.04262,       2.68897,   8.88296E-03
C:/temp/dataset/4/1_15.odb,Step-1,Increment      1: Step Time =    1.000,"PART-1-1",           435,      -6.03068,       7.10065,            0.,NA,NA,"",       5.36258,       4.74848,       2.49182,   12.7908E-03
C:/temp/dataset/4/1_15.odb,Step-1,Increment      1: Step Time =    1.000,"PART-1-1",           436,           -5.,         8.125,            0.,NA,NA,"",       5.43569,       4.97175,       2.19737,   13.4967E-03
C:/temp/dataset/4/1_15.odb,Step-1,Increment      1: Step Time =    1.000,"PART-1-1",           437,      -6.00996,       9.23401,            0.,NA,NA,"",       5.78619,       5.26483,       2.40033,   10.1368E-03
C:/temp/dataset/4/1_15.odb,Step-1,Increment      1: Step Time =    1.000,"PART-1-1",           438,      -13.0926,       9.02789,            0.,NA,NA,"",       6.79726,       5.42034,       4.10155,   8.33499E-03
C:/temp/dataset/4/1_15.odb,Step-1,Increment      1: Step Time =    1.000,"PART-1-1",           439,      -14.0370,       10.1974,            0.,NA,NA,"",       7.17241,       5.73876,       4.30234,   10.2222E-03
C:/temp/dataset/4/1_15.odb,Step-1,Increment      1: Step Time =    1.000,"PART-1-1",           440,          -15.,       9.21875,            0.,NA,NA,"",       7.16503,       5.53185,       4.55372,   13.4731E-03
C:/temp/dataset/4/1_15.odb,Step-1,Increment      1: Step Time =    1.000,"PART-1-1",           441,      -13.9055,       1.56280,            0.,NA,NA,"",       5.78327,       3.72100,       4.42724,   8.11336E-03
C:/temp/dataset/4/1_15.odb,Step-1,Increment      1: Step Time =    1.000,"PART-1-1",           442,      -12.9296,       2.64306,            0.,NA,NA,"",       5.74457,       3.93041,       4.18951,   8.25704E-03
C:/temp/dataset/4/1_15.odb,Step-1,Increment      1: Step Time =    1.000,"PART-1-1",           443,      -14.0241,       3.73651,            0.,NA,NA,"",       6.10031,       4.20732,       4.41726,   10.7089E-03
C:/temp/dataset/4/1_15.odb,Step-1,Increment      1: Step Time =    1.000,"PART-1-1",           444,          -15.,       2.65625,            0.,NA,NA,"",       6.13102,       3.99444,       4.65121,   11.3008E-03
C:/temp/dataset/4/1_15.odb,Step-1,Increment      1: Step Time =    1.000,"PART-1-1",           445,      -13.7570,      -2.81804,            0.,NA,NA,"",       5.26832,       2.76855,       4.48223,   2.41593E-03
C:/temp/dataset/4/1_15.odb,Step-1,Increment      1: Step Time =    1.000,"PART-1-1",           446,      -13.7756,  -623.683E-03,            0.,NA,NA,"",       5.49771,       3.24286,       4.43944,   5.22740E-03
C:/temp/dataset/4/1_15.odb,Step-1,Increment      1: Step Time =    1.000,"PART-1-1",           447,          -15.,      -1.71875,            0.,NA,NA,"",       5.62055,       3.03741,       4.72914,   2.72236E-03
C:/temp/dataset/4/1_15.odb,Step-1,Increment      1: Step Time =    1.000,"PART-1-1",           448,        -13.75,           -5.,            0.,NA,NA,"",       5.07938,       2.29250,       4.53261,   401.868E-06
C:/temp/dataset/4/1_15.odb,Step-1,Increment      1: Step Time =    1.000,"PART-1-1",           449,      -12.5070,      -3.91179,            0.,NA,NA,"",       4.91577,       2.50091,       4.23206,   2.54071E-03
C:/temp/dataset/4/1_15.odb,Step-1,Increment      1: Step Time =    1.000,"PART-1-1",           450,          -15.,      -3.90625,            0.,NA,NA,"",       5.42305,       2.56198,       4.77972,   372.688E-06
C:/temp/dataset/4/1_15.odb,Step-1,Increment      1: Step Time =    1.000,"PART-1-1",           451,          -15.,    468.75E-03,            0.,NA,NA,"",       5.85627,       3.51224,       4.68615,   7.00902E-03
C:/temp/dataset/4/1_15.odb,Step-1,Increment      1: Step Time =    1.000,"PART-1-1",           452,      -5.10506,       2.56414,            0.,NA,NA,"",       4.42104,       3.68802,       2.43804,   7.65575E-03
C:/temp/dataset/4/1_15.odb,Step-1,Increment      1: Step Time =    1.000,"PART-1-1",           453,      -4.59209,       3.94539,            0.,NA,NA,"",       4.57942,       3.96270,       2.29523,   19.0363E-03
C:/temp/dataset/4/1_15.odb,Step-1,Increment      1: Step Time =    1.000,"PART-1-1",           454,      -6.09775,       4.77703,            0.,NA,NA,"",       4.92861,       4.19082,       2.59388,   17.0191E-03
C:/temp/dataset/4/1_15.odb,Step-1,Increment      1: Step Time =    1.000,"PART-1-1",           455,      -6.61072,       3.39578,            0.,NA,NA,"",       4.77154,       3.90478,       2.74232,   8.95586E-03
C:/temp/dataset/4/1_15.odb,Step-1,Increment      1: Step Time =    1.000,"PART-1-1",           456,       9.44090,      -5.60228,            0.,NA,NA,"",       1.99283,       1.99270,  -22.9751E-03,   6.43478E-03
C:/temp/dataset/4/1_15.odb,Step-1,Increment      1: Step Time =    1.000,"PART-1-1",           457,       9.79564,      -4.46986,            0.,NA,NA,"",       2.16510,       2.16330,  -88.3413E-03,   9.62019E-03
C:/temp/dataset/4/1_15.odb,Step-1,Increment      1: Step Time =    1.000,"PART-1-1",           458,       8.43936,      -4.09444,            0.,NA,NA,"",       2.23538,       2.23302,   102.684E-03,   9.44997E-03
C:/temp/dataset/4/1_15.odb,Step-1,Increment      1: Step Time =    1.000,"PART-1-1",           459,       8.08462,      -5.22686,            0.,NA,NA,"",       2.06666,       2.06003,   165.450E-03,   7.43375E-03
C:/temp/dataset/4/1_15.odb,Step-1,Increment      1: Step Time =    1.000,"PART-1-1",           460,       6.93926,      -9.88629,            0.,NA,NA,"",       1.46521,       1.43003,   319.178E-03,   16.7564E-03
C:/temp/dataset/4/1_15.odb,Step-1,Increment      1: Step Time =    1.000,"PART-1-1",           461,       5.93813,      -8.99303,            0.,NA,NA,"",       1.62683,       1.56289,   451.587E-03,   21.3077E-03
C:/temp/dataset/4/1_15.odb,Step-1,Increment      1: Step Time =    1.000,"PART-1-1",           462,            5.,      -10.2083,            0.,NA,NA,"",       1.52595,       1.42209,   553.343E-03,   26.4866E-03
C:/temp/dataset/4/1_15.odb,Step-1,Increment      1: Step Time =    1.000,"PART-1-1",           463,       12.9852,      -11.3613,            0.,NA,NA,"",       1.26534,       1.20316,  -391.785E-03,   16.6768E-03
C:/temp/dataset/4/1_15.odb,Step-1,Increment      1: Step Time =    1.000,"PART-1-1",           464,       14.0059,      -12.5461,            0.,NA,NA,"",       1.17199,       1.06878,  -480.905E-03,   23.1516E-03
C:/temp/dataset/4/1_15.odb,Step-1,Increment      1: Step Time =    1.000,"PART-1-1",           465,           15.,        -11.25,            0.,NA,NA,"",       1.37814,       1.22224,  -636.703E-03,   28.1043E-03
C:/temp/dataset/4/1_15.odb,Step-1,Increment      1: Step Time =    1.000,"PART-1-1",           466,       13.9793,      -10.0652,            0.,NA,NA,"",       1.46711,       1.36207,  -545.156E-03,   21.5323E-03
C:/temp/dataset/4/1_15.odb,Step-1,Increment      1: Step Time =    1.000,"PART-1-1",           467,       7.08713,      -16.3801,            0.,NA,NA,"",   738.854E-03,   698.450E-03,   240.981E-03,   18.9316E-03
C:/temp/dataset/4/1_15.odb,Step-1,Increment      1: Step Time =    1.000,"PART-1-1",           468,            5.,      -16.4583,            0.,NA,NA,"",   839.876E-03,   723.180E-03,   427.085E-03,   31.9473E-03
C:/temp/dataset/4/1_15.odb,Step-1,Increment      1: Step Time =    1.000,"PART-1-1",           469,       13.0372,      -13.8111,            0.,NA,NA,"",   989.501E-03,   927.828E-03,  -343.871E-03,   18.0779E-03
C:/temp/dataset/4/1_15.odb,Step-1,Increment      1: Step Time =    1.000,"PART-1-1",           470,       14.0313,      -15.0151,            0.,NA,NA,"",   909.877E-03,   808.943E-03,  -416.516E-03,   24.7582E-03
C:/temp/dataset/4/1_15.odb,Step-1,Increment      1: Step Time =    1.000,"PART-1-1",           471,           15.,        -13.75,            0.,NA,NA,"",       1.09569,   944.364E-03,  -555.623E-03,   29.9076E-03
C:/temp/dataset/4/1_15.odb,Step-1,Increment      1: Step Time =    1.000,"PART-1-1",           472,       13.0981,      -18.6529,            0.,NA,NA,"",   538.667E-03,   480.015E-03,  -244.433E-03,   20.6868E-03
C:/temp/dataset/4/1_15.odb,Step-1,Increment      1: Step Time =    1.000,"PART-1-1",           473,       14.0553,      -19.9280,            0.,NA,NA,"",   484.896E-03,   392.812E-03,  -284.294E-03,   27.9008E-03
C:/temp/dataset/4/1_15.odb,Step-1,Increment      1: Step Time =    1.000,"PART-1-1",           474,           15.,        -18.75,            0.,NA,NA,"",   627.271E-03,   489.987E-03,  -391.640E-03,   33.6025E-03
C:/temp/dataset/4/1_15.odb,Step-1,Increment      1: Step Time =    1.000,"PART-1-1",           475,       14.0427,      -17.4749,            0.,NA,NA,"",   680.440E-03,   583.172E-03,  -350.582E-03,   26.3218E-03
C:/temp/dataset/4/1_15.odb,Step-1,Increment      1: Step Time =    1.000,"PART-1-1",           476,       6.17422,      -27.9405,            0.,NA,NA,"",   62.8754E-03,   33.4530E-03,   53.2373E-03,   31.7823E-03
C:/temp/dataset/4/1_15.odb,Step-1,Increment      1: Step Time =    1.000,"PART-1-1",           477,            5.,      -28.9583,            0.,NA,NA,"",   49.1102E-03,   31.3014E-03,   37.8423E-03,   41.5377E-03
C:/temp/dataset/4/1_15.odb,Step-1,Increment      1: Step Time =    1.000,"PART-1-1",           478,          6.25,          -30.,            0.,NA,NA,"",            0.,  -1.77158E-39,   46.8121E-39,   29.3186E-03
C:/temp/dataset/4/1_15.odb,Step-1,Increment      1: Step Time =    1.000,"PART-1-1",           479,       9.46325,      -26.8820,            0.,NA,NA,"",   34.5273E-03,   32.5597E-03,   11.4890E-03,   6.27742E-03
C:/temp/dataset/4/1_15.odb,Step-1,Increment      1: Step Time =    1.000,"PART-1-1",           480,       8.20536,      -25.9154,            0.,NA,NA,"",   83.7478E-03,   67.2253E-03,   49.9445E-03,   15.3268E-03
C:/temp/dataset/4/1_15.odb,Step-1,Increment      1: Step Time =    1.000,"PART-1-1",           481,       7.26622,      -26.9429,            0.,NA,NA,"",   72.1171E-03,   44.9525E-03,   56.3928E-03,   22.5180E-03
C:/temp/dataset/4/1_15.odb,Step-1,Increment      1: Step Time =    1.000,"PART-1-1",           482,       13.6319,      -27.3465,            0.,NA,NA,"",   76.4403E-03,   39.8736E-03,  -65.2167E-03,   29.6383E-03
C:/temp/dataset/4/1_15.odb,Step-1,Increment      1: Step Time =    1.000,"PART-1-1",           483,       12.3819,      -28.5965,            0.,NA,NA,"",   20.2532E-03,   5.33829E-03,  -19.5370E-03,   17.2156E-03
C:/temp/dataset/4/1_15.odb,Step-1,Increment      1: Step Time =    1.000,"PART-1-1",           484,         13.75,          -30.,            0.,NA,NA,"",            0.,  -2.82808E-39,  -45.9891E-39,   28.9604E-03
C:/temp/dataset/4/1_15.odb,Step-1,Increment      1: Step Time =    1.000,"PART-1-1",           485,           15.,        -28.75,            0.,NA,NA,"",   56.7038E-03,   34.7386E-03,  -44.8168E-03,   40.4589E-03
C:/temp/dataset/4/1_15.odb,Step-1,Increment      1: Step Time =    1.000,"PART-1-1",           486,         11.25,          -30.,            0.,NA,NA,"",            0.,  -5.17338E-39,  -16.0934E-39,   8.72540E-03
C:/temp/dataset/4/1_15.odb,Step-1,Increment      1: Step Time =    1.000,"PART-1-1",           487,       10.9817,      -27.5238,            0.,NA,NA,"",   22.8539E-03,   17.5731E-03,  -14.6112E-03,   8.81418E-03
C:/temp/dataset/4/1_15.odb,Step-1,Increment      1: Step Time =    1.000,"PART-1-1",           488,       10.1507,      -19.6985,            0.,NA,NA,"",   394.978E-03,   394.635E-03,  -16.4541E-03,   3.40822E-03
C:/temp/dataset/4/1_15.odb,Step-1,Increment      1: Step Time =    1.000,"PART-1-1",           489,       9.14094,      -20.7396,            0.,NA,NA,"",   328.438E-03,   324.685E-03,   49.5136E-03,   7.32133E-03
C:/temp/dataset/4/1_15.odb,Step-1,Increment      1: Step Time =    1.000,"PART-1-1",           490,       11.1621,      -20.8614,            0.,NA,NA,"",   321.436E-03,   312.498E-03,  -75.2737E-03,   8.49510E-03
C:/temp/dataset/4/1_15.odb,Step-1,Increment      1: Step Time =    1.000,"PART-1-1",           491,       7.09922,      -20.6753,            0.,NA,NA,"",   389.296E-03,   346.140E-03,   178.154E-03,   20.8546E-03
C:/temp/dataset/4/1_15.odb,Step-1,Increment      1: Step Time =    1.000,"PART-1-1",           492,            5.,       -20.625,            0.,NA,NA,"",   493.817E-03,   380.241E-03,   315.075E-03,   35.2332E-03
C:/temp/dataset/4/1_15.odb,Step-1,Increment      1: Step Time =    1.000,"PART-1-1",           493,       9.08758,      -14.0519,            0.,NA,NA,"",   915.513E-03,   913.227E-03,   64.6527E-03,   6.75628E-03
C:/temp/dataset/4/1_15.odb,Step-1,Increment      1: Step Time =    1.000,"PART-1-1",           494,       10.1099,      -15.1447,            0.,NA,NA,"",   793.902E-03,   793.231E-03,  -32.6321E-03,   3.35889E-03
C:/temp/dataset/4/1_15.odb,Step-1,Increment      1: Step Time =    1.000,"PART-1-1",           495,       11.0794,      -13.9187,            0.,NA,NA,"",   927.145E-03,   916.699E-03,  -138.783E-03,   6.94819E-03
C:/temp/dataset/4/1_15.odb,Step-1,Increment      1: Step Time =    1.000,"PART-1-1",           496,       10.0571,      -12.8260,            0.,NA,NA,"",       1.04213,       1.04133,  -40.8362E-03,   3.33549E-03
C:/temp/dataset/4/1_15.odb,Step-1,Increment      1: Step Time =    1.000,"PART-1-1",           497,       9.02765,      -11.7712,            0.,NA,NA,"",       1.17356,       1.17156,   68.4565E-03,   6.66160E-03
C:/temp/dataset/4/1_15.odb,Step-1,Increment      1: Step Time =    1.000,"PART-1-1",           498,       11.0123,      -11.5393,            0.,NA,NA,"",       1.19640,       1.18578,  -159.085E-03,   6.38495E-03
C:/temp/dataset/4/1_15.odb,Step-1,Increment      1: Step Time =    1.000,"PART-1-1",           499,       9.98284,      -10.4845,            0.,NA,NA,"",       1.32142,       1.32053,  -48.6700E-03,   3.34434E-03
C:/temp/dataset/4/1_15.odb,Step-1,Increment      1: Step Time =    1.000,"PART-1-1",           500,       12.6190,       1.44886,            0.,NA,NA,"",       3.16686,       3.10757,  -609.963E-03,   7.37929E-03
C:/temp/dataset/4/1_15.odb,Step-1,Increment      1: Step Time =    1.000,"PART-1-1",           501,       13.8500,   84.2405E-03,            0.,NA,NA,"",       2.97195,       2.86768,  -780.326E-03,   7.72040E-03
C:/temp/dataset/4/1_15.odb,Step-1,Increment      1: Step Time =    1.000,"PART-1-1",           502,           15.,          1.25,            0.,NA,NA,"",       3.20450,       3.04772,  -990.069E-03,   5.63989E-03
C:/temp/dataset/4/1_15.odb,Step-1,Increment      1: Step Time =    1.000,"PART-1-1",           503,       10.0180,      -2.29938,            0.,NA,NA,"",       2.51512,       2.51046,  -152.972E-03,   11.8597E-03
C:/temp/dataset/4/1_15.odb,Step-1,Increment      1: Step Time =    1.000,"PART-1-1",           504,       9.13986,      -3.07696,            0.,NA,NA,"",       2.39103,       2.39100,  -12.5553E-03,   11.1406E-03
C:/temp/dataset/4/1_15.odb,Step-1,Increment      1: Step Time =    1.000,"PART-1-1",           505,       10.6738,      -3.69229,            0.,NA,NA,"",       2.29043,       2.27916,  -226.856E-03,   10.6553E-03
C:/temp/dataset/4/1_15.odb,Step-1,Increment      1: Step Time =    1.000,"PART-1-1",           506,       12.7589,       6.54544,            0.,NA,NA,"",       4.00843,       3.94569,  -706.402E-03,   1.11443E-03
C:/temp/dataset/4/1_15.odb,Step-1,Increment      1: Step Time =    1.000,"PART-1-1",           507,           15.,          6.25,            0.,NA,NA,"",       4.01171,       3.86789,      -1.06456,   414.683E-06
C:/temp/dataset/4/1_15.odb,Step-1,Increment      1: Step Time =    1.000,"PART-1-1",           508,       13.9203,       7.65480,            0.,NA,NA,"",       4.20889,       4.10978,  -907.981E-03,   397.165E-06
C:/temp/dataset/4/1_15.odb,Step-1,Increment      1: Step Time =    1.000,"PART-1-1",           509,       13.0275,       16.3263,            0.,NA,NA,"",       5.58019,       5.51102,  -875.880E-03,   54.0898E-06
C:/temp/dataset/4/1_15.odb,Step-1,Increment      1: Step Time =    1.000,"PART-1-1",           510,       14.0150,       15.0581,            0.,NA,NA,"",       5.39228,       5.29539,      -1.01765,   58.4731E-06
C:/temp/dataset/4/1_15.odb,Step-1,Increment      1: Step Time =    1.000,"PART-1-1",           511,           15.,         16.25,            0.,NA,NA,"",       5.60138,       5.47338,      -1.19057,   35.3169E-06
C:/temp/dataset/4/1_15.odb,Step-1,Increment      1: Step Time =    1.000,"PART-1-1",           512,       14.0124,       17.5182,            0.,NA,NA,"",       5.78492,       5.68904,      -1.04886,   14.5084E-06
C:/temp/dataset/4/1_15.odb,Step-1,Increment      1: Step Time =    1.000,"PART-1-1",           513,       13.0175,       18.7421,            0.,NA,NA,"",       5.96678,       5.89769,  -905.406E-03,   15.3849E-06
C:/temp/dataset/4/1_15.odb,Step-1,Increment      1: Step Time =    1.000,"PART-1-1",           514,           15.,         18.75,            0.,NA,NA,"",       5.99934,       5.87341,      -1.22276,   3.67951E-06
C:/temp/dataset/4/1_15.odb,Step-1,Increment      1: Step Time =    1.000,"PART-1-1",           515,       14.0051,       19.9738,            0.,NA,NA,"",       6.17709,       6.08207,      -1.07932,   2.27881E-06
C:/temp/dataset/4/1_15.odb,Step-1,Increment      1: Step Time =    1.000,"PART-1-1",           516,       5.97628,       21.7197,            0.,NA,NA,"",       6.46751,       6.46492,   183.054E-03,   1.31993E-06
C:/temp/dataset/4/1_15.odb,Step-1,Increment      1: Step Time =    1.000,"PART-1-1",           517,       6.92463,       22.7965,            0.,NA,NA,"",       6.62505,       6.62503,   17.4037E-03,   434.989E-09
C:/temp/dataset/4/1_15.odb,Step-1,Increment      1: Step Time =    1.000,"PART-1-1",           518,       5.94835,       23.7852,            0.,NA,NA,"",       6.79773,       6.79583,   160.901E-03,   1.10978E-06
C:/temp/dataset/4/1_15.odb,Step-1,Increment      1: Step Time =    1.000,"PART-1-1",           519,            5.,       22.7083,            0.,NA,NA,"",       6.64375,       6.63572,   326.550E-03,   2.24066E-06
C:/temp/dataset/4/1_15.odb,Step-1,Increment      1: Step Time =    1.000,"PART-1-1",           520,       13.8862,       24.9278,            0.,NA,NA,"",       6.96767,       6.87639,      -1.12414,   781.963E-09
C:/temp/dataset/4/1_15.odb,Step-1,Increment      1: Step Time =    1.000,"PART-1-1",           521,           15.,         26.25,            0.,NA,NA,"",       7.19563,       7.07362,      -1.31943,   679.414E-09
C:/temp/dataset/4/1_15.odb,Step-1,Increment      1: Step Time =    1.000,"PART-1-1",           522,       6.15342,       27.8650,            0.,NA,NA,"",       7.44648,       7.44610,   75.4973E-03,   286.874E-09
C:/temp/dataset/4/1_15.odb,Step-1,Increment      1: Step Time =    1.000,"PART-1-1",           523,       7.40342,       28.9067,            0.,NA,NA,"",       7.59794,       7.59669,  -137.970E-03,   320.475E-09
C:/temp/dataset/4/1_15.odb,Step-1,Increment      1: Step Time =    1.000,"PART-1-1",           524,          6.25,           30.,            0.,NA,NA,"",       7.78659,       7.78652,   32.5253E-03,   72.9617E-09
C:/temp/dataset/4/1_15.odb,Step-1,Increment      1: Step Time =    1.000,"PART-1-1",           525,            5.,       28.9583,            0.,NA,NA,"",       7.63989,       7.63593,   245.992E-03,   77.9357E-09
C:/temp/dataset/4/1_15.odb,Step-1,Increment      1: Step Time =    1.000,"PART-1-1",           526,       7.11917,       26.8292,            0.,NA,NA,"",       7.26818,       7.26788,  -65.7039E-03,   614.564E-09
C:/temp/dataset/4/1_15.odb,Step-1,Increment      1: Step Time =    1.000,"PART-1-1",           527,            5.,        26.875,            0.,NA,NA,"",       7.30762,       7.30253,   272.844E-03,   483.933E-09
C:/temp/dataset/4/1_15.odb,Step-1,Increment      1: Step Time =    1.000,"PART-1-1",           528,       5.96574,       25.8392,            0.,NA,NA,"",       7.12553,       7.12432,   131.643E-03,   616.280E-09
C:/temp/dataset/4/1_15.odb,Step-1,Increment      1: Step Time =    1.000,"PART-1-1",           529,       8.59546,       27.4701,            0.,NA,NA,"",       7.35797,       7.35143,  -310.221E-03,   418.497E-09
C:/temp/dataset/4/1_15.odb,Step-1,Increment      1: Step Time =    1.000,"PART-1-1",           530,       9.94204,       28.5635,            0.,NA,NA,"",       7.52842,       7.50904,  -539.809E-03,   413.722E-09
C:/temp/dataset/4/1_15.odb,Step-1,Increment      1: Step Time =    1.000,"PART-1-1",           531,          8.75,           30.,            0.,NA,NA,"",       7.76300,       7.75430,  -367.558E-03,   344.498E-09
C:/temp/dataset/4/1_15.odb,Step-1,Increment      1: Step Time =    1.000,"PART-1-1",           532,            5.,       24.7917,            0.,NA,NA,"",       6.97557,       6.96912,   299.696E-03,   1.26872E-06
C:/temp/dataset/4/1_15.odb,Step-1,Increment      1: Step Time =    1.000,"PART-1-1",           533,       6.91409,       24.8327,            0.,NA,NA,"",       6.95102,       6.95102,  -7.15299E-03,   809.742E-09
C:/temp/dataset/4/1_15.odb,Step-1,Increment      1: Step Time =    1.000,"PART-1-1",           534,            5.,        20.625,            0.,NA,NA,"",       6.31221,       6.30231,   353.408E-03,   2.12651E-06
C:/temp/dataset/4/1_15.odb,Step-1,Increment      1: Step Time =    1.000,"PART-1-1",           535,       5.99534,       19.6263,            0.,NA,NA,"",       6.13314,       6.12965,   206.987E-03,   3.08480E-06
C:/temp/dataset/4/1_15.odb,Step-1,Increment      1: Step Time =    1.000,"PART-1-1",           536,       6.97162,       20.7210,            0.,NA,NA,"",       6.29237,       6.29226,   36.6345E-03,   3.62926E-06
C:/temp/dataset/4/1_15.odb,Step-1,Increment      1: Step Time =    1.000,"PART-1-1",           537,       9.90537,       10.7177,            0.,NA,NA,"",       4.66365,       4.65379,  -303.092E-03,   301.140E-06
C:/temp/dataset/4/1_15.odb,Step-1,Increment      1: Step Time =    1.000,"PART-1-1",           538,       8.83179,       9.75083,            0.,NA,NA,"",       4.51449,       4.51293,  -118.677E-03,   292.500E-06
C:/temp/dataset/4/1_15.odb,Step-1,Increment      1: Step Time =    1.000,"PART-1-1",           539,       10.8380,       9.37550,            0.,NA,NA,"",       4.44829,       4.42698,  -434.929E-03,   263.061E-06
C:/temp/dataset/4/1_15.odb,Step-1,Increment      1: Step Time =    1.000,"PART-1-1",           540,       5.96737,       11.1773,            0.,NA,NA,"",       4.78826,       4.77756,   319.915E-03,   289.882E-06
C:/temp/dataset/4/1_15.odb,Step-1,Increment      1: Step Time =    1.000,"PART-1-1",           541,       6.95908,       12.1740,            0.,NA,NA,"",       4.92654,       4.92430,   148.827E-03,   252.153E-06
C:/temp/dataset/4/1_15.odb,Step-1,Increment      1: Step Time =    1.000,"PART-1-1",           542,            5.,       12.2917,            0.,NA,NA,"",       4.98970,       4.96841,   460.409E-03,   294.133E-06
C:/temp/dataset/4/1_15.odb,Step-1,Increment      1: Step Time =    1.000,"PART-1-1",           543,       6.89189,       10.0466,            0.,NA,NA,"",       4.58873,       4.58492,   186.949E-03,   347.204E-06
C:/temp/dataset/4/1_15.odb,Step-1,Increment      1: Step Time =    1.000,"PART-1-1",           544,            5.,       10.2083,            0.,NA,NA,"",       4.66067,       4.63522,   486.402E-03,   759.962E-06
C:/temp/dataset/4/1_15.odb,Step-1,Increment      1: Step Time =    1.000,"PART-1-1",           545,  -883.251E-03,       2.97832,            0.,NA,NA,"",       3.98946,       3.65282,       1.60397,   13.0374E-03
C:/temp/dataset/4/1_15.odb,Step-1,Increment      1: Step Time =    1.000,"PART-1-1",           546,         -1.25,            5.,            0.,NA,NA,"",       4.37651,       4.05304,       1.65127,   21.1420E-03
C:/temp/dataset/4/1_15.odb,Step-1,Increment      1: Step Time =    1.000,"PART-1-1",           547,      -2.28350,       3.97568,            0.,NA,NA,"",       4.31156,       3.89220,       1.85480,   17.2711E-03
C:/temp/dataset/4/1_15.odb,Step-1,Increment      1: Step Time =    1.000,"PART-1-1",           548,      -3.12559,       2.92107,            0.,NA,NA,"",       4.22879,       3.70877,       2.03167,   10.1638E-03
C:/temp/dataset/4/1_15.odb,Step-1,Increment      1: Step Time =    1.000,"PART-1-1",           549,         -3.75,            5.,            0.,NA,NA,"",       4.66203,       4.15065,       2.12290,   28.0468E-03
C:/temp/dataset/4/1_15.odb,Step-1,Increment      1: Step Time =    1.000,"PART-1-1",           550,      -7.01026,       10.3490,            0.,NA,NA,"",       6.14129,       5.56273,       2.60221,   7.67739E-03
C:/temp/dataset/4/1_15.odb,Step-1,Increment      1: Step Time =    1.000,"PART-1-1",           551,           -5.,       10.2083,            0.,NA,NA,"",       5.86933,       5.47542,       2.11393,   11.2294E-03
C:/temp/dataset/4/1_15.odb,Step-1,Increment      1: Step Time =    1.000,"PART-1-1",           552,      -6.00030,       11.3233,            0.,NA,NA,"",       6.22211,       5.77465,       2.31690,   8.82025E-03
C:/temp/dataset/4/1_15.odb,Step-1,Increment      1: Step Time =    1.000,"PART-1-1",           553,      -6.90277,       16.5792,            0.,NA,NA,"",       7.49520,       7.11945,       2.34339,   4.87867E-03
C:/temp/dataset/4/1_15.odb,Step-1,Increment      1: Step Time =    1.000,"PART-1-1",           554,           -5.,       16.4583,            0.,NA,NA,"",       7.27355,       7.03090,       1.86307,   7.05631E-03
C:/temp/dataset/4/1_15.odb,Step-1,Increment      1: Step Time =    1.000,"PART-1-1",           555,      -5.93592,       17.5473,            0.,NA,NA,"",       7.62099,       7.33711,       2.06069,   5.20319E-03
C:/temp/dataset/4/1_15.odb,Step-1,Increment      1: Step Time =    1.000,"PART-1-1",           556,      -5.96041,       23.6583,            0.,NA,NA,"",       9.10587,       8.91780,       1.84113,   1.66206E-03
C:/temp/dataset/4/1_15.odb,Step-1,Increment      1: Step Time =    1.000,"PART-1-1",           557,           -5.,       24.7917,            0.,NA,NA,"",       9.31021,       9.18007,       1.55126,   1.12482E-03
C:/temp/dataset/4/1_15.odb,Step-1,Increment      1: Step Time =    1.000,"PART-1-1",           558,      -7.48847,       28.8776,            0.,NA,NA,"",       10.5293,       10.3269,       2.05487,   388.876E-06
C:/temp/dataset/4/1_15.odb,Step-1,Increment      1: Step Time =    1.000,"PART-1-1",           559,           -5.,       28.9583,            0.,NA,NA,"",       10.3586,       10.2626,       1.40694,   52.4196E-06
C:/temp/dataset/4/1_15.odb,Step-1,Increment      1: Step Time =    1.000,"PART-1-1",           560,         -6.25,           30.,            0.,NA,NA,"",       10.7106,       10.5756,       1.69554,   46.6956E-06
C:/temp/dataset/4/1_15.odb,Step-1,Increment      1: Step Time =    1.000,"PART-1-1",           561,       12.9634,       11.4929,            0.,NA,NA,"",       4.80616,       4.73854,  -803.411E-03,   230.789E-06
C:/temp/dataset/4/1_15.odb,Step-1,Increment      1: Step Time =    1.000,"PART-1-1",           562,       13.9657,       10.1417,            0.,NA,NA,"",       4.60742,       4.50905,  -946.964E-03,   331.864E-06
C:/temp/dataset/4/1_15.odb,Step-1,Increment      1: Step Time =    1.000,"PART-1-1",           563,           15.,         11.25,            0.,NA,NA,"",       4.80707,       4.67314,      -1.12680,   370.711E-06
C:/temp/dataset/4/1_15.odb,Step-1,Increment      1: Step Time =    1.000,"PART-1-1",           564,       13.9978,       12.6011,            0.,NA,NA,"",       5.00016,       4.90250,  -983.410E-03,   166.186E-06
C:/temp/dataset/4/1_15.odb,Step-1,Increment      1: Step Time =    1.000,"PART-1-1",           565,       9.13480,      -18.5479,            0.,NA,NA,"",   491.513E-03,   488.278E-03,   56.3059E-03,   7.04702E-03
C:/temp/dataset/4/1_15.odb,Step-1,Increment      1: Step Time =    1.000,"PART-1-1",           566,       11.1537,      -18.5886,            0.,NA,NA,"",   488.634E-03,   479.041E-03,  -96.3494E-03,   8.07695E-03
C:/temp/dataset/4/1_15.odb,Step-1,Increment      1: Step Time =    1.000,"PART-1-1",           567,       10.1377,      -17.4381,            0.,NA,NA,"",   577.781E-03,   577.281E-03,  -24.0548E-03,   3.38473E-03
C:/temp/dataset/4/1_15.odb,Step-1,Increment      1: Step Time =    1.000,"PART-1-1",           568,      -8.81573,       27.5627,            0.,NA,NA,"",       10.3241,       10.0309,       2.44321,   1.08819E-03
C:/temp/dataset/4/1_15.odb,Step-1,Increment      1: Step Time =    1.000,"PART-1-1",           569,         -8.75,           30.,            0.,NA,NA,"",       10.9157,       10.6612,       2.34316,   452.813E-06
C:/temp/dataset/4/1_15.odb,Step-1,Increment      1: Step Time =    1.000,"PART-1-1",           570,            5.,      -24.7917,            0.,NA,NA,"",   236.762E-03,   149.393E-03,   183.679E-03,   37.9426E-03
C:/temp/dataset/4/1_15.odb,Step-1,Increment      1: Step Time =    1.000,"PART-1-1",           571,       6.09200,      -25.8775,            0.,NA,NA,"",   145.480E-03,   91.8269E-03,   112.837E-03,   30.8347E-03
C:/temp/dataset/4/1_15.odb,Step-1,Increment      1: Step Time =    1.000,"PART-1-1",           572,       7.15121,      -24.8757,            0.,NA,NA,"",   152.958E-03,   115.359E-03,   100.441E-03,   22.7263E-03
C:/temp/dataset/4/1_15.odb,Step-1,Increment      1: Step Time =    1.000,"PART-1-1",           573,       13.1040,      -21.0477,            0.,NA,NA,"",   364.427E-03,   309.058E-03,  -193.107E-03,   21.8063E-03
C:/temp/dataset/4/1_15.odb,Step-1,Increment      1: Step Time =    1.000,"PART-1-1",           574,       14.0487,      -22.3697,            0.,NA,NA,"",   322.621E-03,   239.468E-03,  -216.194E-03,   29.4052E-03
C:/temp/dataset/4/1_15.odb,Step-1,Increment      1: Step Time =    1.000,"PART-1-1",           575,           15.,        -21.25,            0.,NA,NA,"",   442.014E-03,   317.182E-03,  -307.850E-03,   35.5494E-03
C:/temp/dataset/4/1_15.odb,Step-1,Increment      1: Step Time =    1.000,"PART-1-1",           576,            5.,       -26.875,            0.,NA,NA,"",   138.329E-03,   79.0037E-03,   113.549E-03,   39.4701E-03
C:/temp/dataset/4/1_15.odb,Step-1,Increment      1: Step Time =    1.000,"PART-1-1",           577,       12.8133,      -6.31290,            0.,NA,NA,"",       1.93004,       1.86894,  -481.791E-03,   13.8003E-03
C:/temp/dataset/4/1_15.odb,Step-1,Increment      1: Step Time =    1.000,"PART-1-1",           578,       13.9319,      -7.55671,            0.,NA,NA,"",       1.79646,       1.69083,  -606.911E-03,   19.5016E-03
C:/temp/dataset/4/1_15.odb,Step-1,Increment      1: Step Time =    1.000,"PART-1-1",           579,           15.,         -6.25,            0.,NA,NA,"",       2.03604,       1.87352,  -797.124E-03,   22.8536E-03
C:/temp/dataset/4/1_15.odb,Step-1,Increment      1: Step Time =    1.000,"PART-1-1",           580,            5.,       18.5417,            0.,NA,NA,"",       5.98098,       5.96888,   380.266E-03,   4.68350E-06
C:/temp/dataset/4/1_15.odb,Step-1,Increment      1: Step Time =    1.000,"PART-1-1",           581,       6.00122,       17.5195,            0.,NA,NA,"",       5.79706,       5.79236,   233.199E-03,   15.4077E-06
C:/temp/dataset/4/1_15.odb,Step-1,Increment      1: Step Time =    1.000,"PART-1-1",           582,       6.99656,       18.6041,            0.,NA,NA,"",       5.95344,       5.95314,   59.9309E-03,   16.6868E-06
C:/temp/dataset/4/1_15.odb,Step-1,Increment      1: Step Time =    1.000,"PART-1-1",           583,       12.8545,       23.6160,            0.,NA,NA,"",       6.74586,       6.67975,  -942.131E-03,   633.619E-09
C:/temp/dataset/4/1_15.odb,Step-1,Increment      1: Step Time =    1.000,"PART-1-1",           584,       13.9683,       22.4382,            0.,NA,NA,"",       6.57052,       6.47690,      -1.10520,   1.25914E-06
C:/temp/dataset/4/1_15.odb,Step-1,Increment      1: Step Time =    1.000,"PART-1-1",           585,           15.,         23.75,            0.,NA,NA,"",       6.79655,       6.67354,      -1.28721,   1.72968E-06
C:/temp/dataset/4/1_15.odb,Step-1,Increment      1: Step Time =    1.000,"PART-1-1",           586,            5.,       16.4583,            0.,NA,NA,"",       5.65011,       5.63542,   407.108E-03,   30.3373E-06
C:/temp/dataset/4/1_15.odb,Step-1,Increment      1: Step Time =    1.000,"PART-1-1",           587,       7.00480,       16.4638,            0.,NA,NA,"",       5.61111,       5.61045,   86.2071E-03,   52.8055E-06
C:/temp/dataset/4/1_15.odb,Step-1,Increment      1: Step Time =    1.000,"PART-1-1",           588,       12.9734,       21.1620,            0.,NA,NA,"",       6.35386,       6.28550,  -929.533E-03,   2.50746E-06
C:/temp/dataset/4/1_15.odb,Step-1,Increment      1: Step Time =    1.000,"PART-1-1",           589,           15.,         21.25,            0.,NA,NA,"",       6.39776,       6.27347,      -1.25498,   2.25216E-06
C:/temp/dataset/4/1_15.odb,Step-1,Increment      1: Step Time =    1.000,"PART-1-1",           590,            5.,       6.04167,            0.,NA,NA,"",       4.01315,       3.97747,   533.991E-03,   4.76956E-03
C:/temp/dataset/4/1_15.odb,Step-1,Increment      1: Step Time =    1.000,"PART-1-1",           591,       5.70418,       5.21013,            0.,NA,NA,"",       3.86986,       3.84552,   433.351E-03,   11.3488E-03
C:/temp/dataset/4/1_15.odb,Step-1,Increment      1: Step Time =    1.000,"PART-1-1",           592,       6.54256,       6.20387,            0.,NA,NA,"",       3.99301,       3.98242,   290.599E-03,   3.85661E-03
C:/temp/dataset/4/1_15.odb,Step-1,Increment      1: Step Time =    1.000,"PART-1-1",           593,       7.80464,       8.81181,            0.,NA,NA,"",       4.37662,       4.37624,   57.4531E-03,   308.115E-06
C:/temp/dataset/4/1_15.odb,Step-1,Increment      1: Step Time =    1.000,"PART-1-1",           594,       7.55468,       6.70991,            0.,NA,NA,"",       4.04798,       4.04609,   123.617E-03,   2.23230E-03
C:/temp/dataset/4/1_15.odb,Step-1,Increment      1: Step Time =    1.000,"PART-1-1",           595,           -5.,       12.2917,            0.,NA,NA,"",       6.32105,       5.98642,       2.02941,   10.1029E-03
C:/temp/dataset/4/1_15.odb,Step-1,Increment      1: Step Time =    1.000,"PART-1-1",           596,      -13.0551,       11.1433,            0.,NA,NA,"",       7.18498,       5.93994,       4.04241,   7.43259E-03
C:/temp/dataset/4/1_15.odb,Step-1,Increment      1: Step Time =    1.000,"PART-1-1",           597,          -15.,       11.4063,            0.,NA,NA,"",       7.56520,       6.07282,       4.51143,   11.6849E-03
C:/temp/dataset/4/1_15.odb,Step-1,Increment      1: Step Time =    1.000,"PART-1-1",           598,           -5.,       18.5417,            0.,NA,NA,"",       7.76982,       7.56272,       1.78195,   5.41139E-03
C:/temp/dataset/4/1_15.odb,Step-1,Increment      1: Step Time =    1.000,"PART-1-1",           599,      -6.83195,       18.5917,            0.,NA,NA,"",       7.95820,       7.63330,       2.25072,   4.06705E-03
C:/temp/dataset/4/1_15.odb,Step-1,Increment      1: Step Time =    1.000,"PART-1-1",           600,      -12.9744,       15.4368,            0.,NA,NA,"",       8.03540,       7.02168,       3.90688,   5.35719E-03
C:/temp/dataset/4/1_15.odb,Step-1,Increment      1: Step Time =    1.000,"PART-1-1",           601,      -13.9736,       16.6988,            0.,NA,NA,"",       8.45393,       7.38046,       4.12284,   5.79801E-03
C:/temp/dataset/4/1_15.odb,Step-1,Increment      1: Step Time =    1.000,"PART-1-1",           602,          -15.,       15.7813,            0.,NA,NA,"",       8.42650,       7.18141,       4.40832,   7.96459E-03
C:/temp/dataset/4/1_15.odb,Step-1,Increment      1: Step Time =    1.000,"PART-1-1",           603,      -6.85389,       22.5676,            0.,NA,NA,"",       8.91749,       8.66393,       2.11137,   2.41134E-03
C:/temp/dataset/4/1_15.odb,Step-1,Increment      1: Step Time =    1.000,"PART-1-1",           604,           -5.,       22.7083,            0.,NA,NA,"",       8.79051,       8.63883,       1.62593,   2.31278E-03
C:/temp/dataset/4/1_15.odb,Step-1,Increment      1: Step Time =    1.000,"PART-1-1",           605,      -7.62380,       21.5126,            0.,NA,NA,"",       8.73633,       8.41504,       2.34746,   2.81515E-03
C:/temp/dataset/4/1_15.odb,Step-1,Increment      1: Step Time =    1.000,"PART-1-1",           606,      -11.2433,       25.0031,            0.,NA,NA,"",       9.96150,       9.44803,       3.15691,   2.25735E-03
C:/temp/dataset/4/1_15.odb,Step-1,Increment      1: Step Time =    1.000,"PART-1-1",           607,      -10.1220,       24.6816,            0.,NA,NA,"",       9.75955,       9.32525,       2.87899,   2.23968E-03
C:/temp/dataset/4/1_15.odb,Step-1,Increment      1: Step Time =    1.000,"PART-1-1",           608,      -9.68436,       26.2404,            0.,NA,NA,"",       10.0882,       9.71662,       2.71282,   1.68515E-03
C:/temp/dataset/4/1_15.odb,Step-1,Increment      1: Step Time =    1.000,"PART-1-1",           609,      -10.8057,       26.5619,            0.,NA,NA,"",       10.2839,       9.83924,       2.99123,   1.70635E-03
C:/temp/dataset/4/1_15.odb,Step-1,Increment      1: Step Time =    1.000,"PART-1-1",           610,            5.,      -6.04167,            0.,NA,NA,"",       2.07589,       1.98294,   614.231E-03,   31.9690E-03
C:/temp/dataset/4/1_15.odb,Step-1,Increment      1: Step Time =    1.000,"PART-1-1",           611,       5.81487,      -6.90448,            0.,NA,NA,"",       1.91066,       1.84675,   490.023E-03,   21.5882E-03
C:/temp/dataset/4/1_15.odb,Step-1,Increment      1: Step Time =    1.000,"PART-1-1",           612,       6.44107,      -5.66337,            0.,NA,NA,"",       2.05080,       2.00973,   408.394E-03,   12.3623E-03
C:/temp/dataset/4/1_15.odb,Step-1,Increment      1: Step Time =    1.000,"PART-1-1",           613,       5.62621,      -4.80056,            0.,NA,NA,"",       2.20828,       2.14302,   532.868E-03,   21.0941E-03
C:/temp/dataset/4/1_15.odb,Step-1,Increment      1: Step Time =    1.000,"PART-1-1",           614,            5.,        -8.125,            0.,NA,NA,"",       1.79424,       1.69700,   582.667E-03,   25.4676E-03
C:/temp/dataset/4/1_15.odb,Step-1,Increment      1: Step Time =    1.000,"PART-1-1",           615,       8.00489,       17.5473,            0.,NA,NA,"",       5.77168,       5.77102,  -87.8000E-03,   27.6139E-06
C:/temp/dataset/4/1_15.odb,Step-1,Increment      1: Step Time =    1.000,"PART-1-1",           616,       8.00828,       15.3576,            0.,NA,NA,"",       5.42080,       5.42047,  -60.0627E-03,   77.2209E-06
C:/temp/dataset/4/1_15.odb,Step-1,Increment      1: Step Time =    1.000,"PART-1-1",           617,       11.1265,      -16.2686,            0.,NA,NA,"",   691.070E-03,   680.962E-03,  -117.763E-03,   7.55709E-03
C:/temp/dataset/4/1_15.odb,Step-1,Increment      1: Step Time =    1.000,"PART-1-1",           618,       9.12111,      -16.3141,            0.,NA,NA,"",   687.595E-03,   684.887E-03,   60.9607E-03,   6.84930E-03
C:/temp/dataset/4/1_15.odb,Step-1,Increment      1: Step Time =    1.000,"PART-1-1",           619,      -9.91602,       15.9767,            0.,NA,NA,"",       7.71951,       7.05924,       3.12377,   3.38477E-03
C:/temp/dataset/4/1_15.odb,Step-1,Increment      1: Step Time =    1.000,"PART-1-1",           620,      -10.9598,       15.0860,            0.,NA,NA,"",       7.66715,       6.86522,       3.41379,   3.73564E-03
C:/temp/dataset/4/1_15.odb,Step-1,Increment      1: Step Time =    1.000,"PART-1-1",           621,      -8.93702,       14.7598,            0.,NA,NA,"",       7.32592,       6.71869,       2.92031,   3.84156E-03
C:/temp/dataset/4/1_15.odb,Step-1,Increment      1: Step Time =    1.000,"PART-1-1",           622,      -13.0880,       4.79273,            0.,NA,NA,"",       6.08665,       4.41839,       4.18631,   8.78571E-03
C:/temp/dataset/4/1_15.odb,Step-1,Increment      1: Step Time =    1.000,"PART-1-1",           623,          -15.,       4.84375,            0.,NA,NA,"",       6.44332,       4.49057,       4.62073,   14.0019E-03
C:/temp/dataset/4/1_15.odb,Step-1,Increment      1: Step Time =    1.000,"PART-1-1",           624,           -5.,       6.04167,            0.,NA,NA,"",       5.02270,       4.46951,       2.29150,   21.9947E-03
C:/temp/dataset/4/1_15.odb,Step-1,Increment      1: Step Time =    1.000,"PART-1-1",           625,      -7.12843,       5.83601,            0.,NA,NA,"",       5.27435,       4.47354,       2.79396,   7.46649E-03
C:/temp/dataset/4/1_15.odb,Step-1,Increment      1: Step Time =    1.000,"PART-1-1",           626,       12.9112,      -8.87192,            0.,NA,NA,"",       1.57694,       1.51496,  -437.768E-03,   15.2417E-03
C:/temp/dataset/4/1_15.odb,Step-1,Increment      1: Step Time =    1.000,"PART-1-1",           627,           15.,         -8.75,            0.,NA,NA,"",       1.69186,       1.53217,  -717.539E-03,   26.0080E-03
C:/temp/dataset/4/1_15.odb,Step-1,Increment      1: Step Time =    1.000,"PART-1-1",           628,       13.0740,      -16.2399,            0.,NA,NA,"",   747.227E-03,   686.681E-03,  -294.649E-03,   19.4103E-03
C:/temp/dataset/4/1_15.odb,Step-1,Increment      1: Step Time =    1.000,"PART-1-1",           629,           15.,        -16.25,            0.,NA,NA,"",   845.183E-03,   699.698E-03,  -474.086E-03,   31.7372E-03
C:/temp/dataset/4/1_15.odb,Step-1,Increment      1: Step Time =    1.000,"PART-1-1",           630,       13.0128,       13.9092,            0.,NA,NA,"",       5.19330,       5.12452,  -842.416E-03,   136.488E-06
C:/temp/dataset/4/1_15.odb,Step-1,Increment      1: Step Time =    1.000,"PART-1-1",           631,           15.,         13.75,            0.,NA,NA,"",       5.20396,       5.07337,      -1.15852,   139.130E-06
C:/temp/dataset/4/1_15.odb,Step-1,Increment      1: Step Time =    1.000,"PART-1-1",           632,       10.9505,       11.7339,            0.,NA,NA,"",       4.82732,       4.80302,  -483.800E-03,   245.721E-06
C:/temp/dataset/4/1_15.odb,Step-1,Increment      1: Step Time =    1.000,"PART-1-1",           633,       9.98883,       12.9959,            0.,NA,NA,"",       5.02913,       5.01719,  -346.280E-03,   189.932E-06
C:/temp/dataset/4/1_15.odb,Step-1,Increment      1: Step Time =    1.000,"PART-1-1",           634,       8.94372,       11.9797,            0.,NA,NA,"",       4.87073,       4.86791,  -165.788E-03,   252.275E-06
C:/temp/dataset/4/1_15.odb,Step-1,Increment      1: Step Time =    1.000,"PART-1-1",           635,      -13.9153,       18.9000,            0.,NA,NA,"",       8.91718,       7.94785,       4.04323,   4.36515E-03
C:/temp/dataset/4/1_15.odb,Step-1,Increment      1: Step Time =    1.000,"PART-1-1",           636,      -12.6393,       19.9841,            0.,NA,NA,"",       8.97557,       8.18547,       3.68225,   3.66322E-03
C:/temp/dataset/4/1_15.odb,Step-1,Increment      1: Step Time =    1.000,"PART-1-1",           637,          -15.,       20.1563,            0.,NA,NA,"",       9.35305,       8.31384,       4.28480,   4.60522E-03
C:/temp/dataset/4/1_15.odb,Step-1,Increment      1: Step Time =    1.000,"PART-1-1",           638,       8.12191,      -21.7795,            0.,NA,NA,"",   283.394E-03,   264.309E-03,   102.237E-03,   14.2407E-03
C:/temp/dataset/4/1_15.odb,Step-1,Increment      1: Step Time =    1.000,"PART-1-1",           639,       8.12482,      -23.8590,            0.,NA,NA,"",   170.153E-03,   151.045E-03,   78.3427E-03,   14.9031E-03
C:/temp/dataset/4/1_15.odb,Step-1,Increment      1: Step Time =    1.000,"PART-1-1",           640,       8.11825,      -19.6354,            0.,NA,NA,"",   428.885E-03,   410.642E-03,   123.755E-03,   13.5810E-03
C:/temp/dataset/4/1_15.odb,Step-1,Increment      1: Step Time =    1.000,"PART-1-1",           641,       8.10952,      -17.4508,            0.,NA,NA,"",   606.234E-03,   589.207E-03,   142.668E-03,   12.9885E-03
C:/temp/dataset/4/1_15.odb,Step-1,Increment      1: Step Time =    1.000,"PART-1-1",           642,       7.85781,       23.9076,            0.,NA,NA,"",       6.79238,       6.79081,  -146.257E-03,   719.518E-09
C:/temp/dataset/4/1_15.odb,Step-1,Increment      1: Step Time =    1.000,"PART-1-1",           643,       7.94870,       21.8524,            0.,NA,NA,"",       6.46213,       6.46074,  -134.316E-03,   1.14786E-06
C:/temp/dataset/4/1_15.odb,Step-1,Increment      1: Step Time =    1.000,"PART-1-1",           644,       4.21929,       2.98066,            0.,NA,NA,"",       3.58102,       3.51351,   692.087E-03,   10.6259E-03
C:/temp/dataset/4/1_15.odb,Step-1,Increment      1: Step Time =    1.000,"PART-1-1",           645,       5.32392,       3.96649,            0.,NA,NA,"",       3.68960,       3.65541,   501.087E-03,   13.6396E-03
C:/temp/dataset/4/1_15.odb,Step-1,Increment      1: Step Time =    1.000,"PART-1-1",           646,          3.75,            5.,            0.,NA,NA,"",       3.94687,       3.87414,   754.205E-03,   21.9167E-03
C:/temp/dataset/4/1_15.odb,Step-1,Increment      1: Step Time =    1.000,"PART-1-1",           647,       12.8859,       9.04653,            0.,NA,NA,"",       4.41328,       4.34745,  -759.443E-03,   130.908E-06
C:/temp/dataset/4/1_15.odb,Step-1,Increment      1: Step Time =    1.000,"PART-1-1",           648,           15.,          8.75,            0.,NA,NA,"",       4.41015,       4.27189,      -1.09565,   648.648E-06
C:/temp/dataset/4/1_15.odb,Step-1,Increment      1: Step Time =    1.000,"PART-1-1",           649,      -8.02807,       9.41948,            0.,NA,NA,"",       6.08848,       5.36306,       2.88222,   6.17277E-03
C:/temp/dataset/4/1_15.odb,Step-1,Increment      1: Step Time =    1.000,"PART-1-1",           650,      -8.84347,       16.8085,            0.,NA,NA,"",       7.77032,       7.23835,       2.82562,   3.71530E-03
C:/temp/dataset/4/1_15.odb,Step-1,Increment      1: Step Time =    1.000,"PART-1-1",           651,      -9.78583,       18.0165,            0.,NA,NA,"",       8.15953,       7.57932,       3.02190,   3.39640E-03
C:/temp/dataset/4/1_15.odb,Step-1,Increment      1: Step Time =    1.000,"PART-1-1",           652,          -15.,       17.9688,            0.,NA,NA,"",       8.88261,       7.74524,       4.34880,   6.26540E-03
C:/temp/dataset/4/1_15.odb,Step-1,Increment      1: Step Time =    1.000,"PART-1-1",           653,          -15.,       24.5313,            0.,NA,NA,"",       10.3267,       9.45868,       4.14418,   2.15413E-03
C:/temp/dataset/4/1_15.odb,Step-1,Increment      1: Step Time =    1.000,"PART-1-1",           654,      -12.9952,       24.7258,            0.,NA,NA,"",       10.1073,       9.43744,       3.61820,   2.34641E-03
C:/temp/dataset/4/1_15.odb,Step-1,Increment      1: Step Time =    1.000,"PART-1-1",           655,      -11.4985,       21.8877,            0.,NA,NA,"",       9.26140,       8.64303,       3.32739,   3.22660E-03
C:/temp/dataset/4/1_15.odb,Step-1,Increment      1: Step Time =    1.000,"PART-1-1",           656,      -11.4490,       20.6565,            0.,NA,NA,"",       8.97120,       8.31989,       3.35587,   3.38110E-03
C:/temp/dataset/4/1_15.odb,Step-1,Increment      1: Step Time =    1.000,"PART-1-1",           657,      -10.1446,       20.7260,            0.,NA,NA,"",       8.82681,       8.29397,       3.02037,   3.33854E-03
C:/temp/dataset/4/1_15.odb,Step-1,Increment      1: Step Time =    1.000,"PART-1-1",           658,      -7.69218,       19.6350,            0.,NA,NA,"",       8.29484,       7.93015,       2.43252,   3.39200E-03
C:/temp/dataset/4/1_15.odb,Step-1,Increment      1: Step Time =    1.000,"PART-1-1",           659,      -8.68744,       18.7463,            0.,NA,NA,"",       8.19612,       7.73234,       2.71795,   3.53108E-03
C:/temp/dataset/4/1_15.odb,Step-1,Increment      1: Step Time =    1.000,"PART-1-1",           660,      -7.82721,       17.7030,            0.,NA,NA,"",       7.85681,       7.43602,       2.53673,   3.86910E-03
C:/temp/dataset/4/1_15.odb,Step-1,Increment      1: Step Time =    1.000,"PART-1-1",           661,      -9.52114,       19.8817,            0.,NA,NA,"",       8.55664,       8.05367,       2.89041,   3.31948E-03
C:/temp/dataset/4/1_15.odb,Step-1,Increment      1: Step Time =    1.000,"PART-1-1",           662,      -10.6195,       19.1519,            0.,NA,NA,"",       8.52206,       7.90053,       3.19485,   3.50521E-03
C:/temp/dataset/4/1_15.odb,Step-1,Increment      1: Step Time =    1.000,"PART-1-1",           663,      -12.1485,       3.78191,            0.,NA,NA,"",       5.76515,       4.16049,       3.99090,   7.90007E-03
C:/temp/dataset/4/1_15.odb,Step-1,Increment      1: Step Time =    1.000,"PART-1-1",           664,      -10.9850,       2.86362,            0.,NA,NA,"",       5.42173,       3.92143,       3.74400,   7.87332E-03
C:/temp/dataset/4/1_15.odb,Step-1,Increment      1: Step Time =    1.000,"PART-1-1",           665,      -9.06958,       8.49577,            0.,NA,NA,"",       6.05811,       5.16783,       3.16137,   4.29833E-03
C:/temp/dataset/4/1_15.odb,Step-1,Increment      1: Step Time =    1.000,"PART-1-1",           666,      -8.08215,       7.28595,            0.,NA,NA,"",       5.68463,       4.84878,       2.96720,   6.87101E-03
C:/temp/dataset/4/1_15.odb,Step-1,Increment      1: Step Time =    1.000,"PART-1-1",           667,      -10.1292,       7.60955,            0.,NA,NA,"",       6.05543,       4.98540,       3.43715,   3.80959E-03
C:/temp/dataset/4/1_15.odb,Step-1,Increment      1: Step Time =    1.000,"PART-1-1",           668,      -11.2104,       6.77234,            0.,NA,NA,"",       6.08286,       4.81963,       3.71111,   5.00236E-03
C:/temp/dataset/4/1_15.odb,Step-1,Increment      1: Step Time =    1.000,"PART-1-1",           669,      -10.2942,       5.63122,            0.,NA,NA,"",       5.73601,       4.52425,       3.52605,   5.00960E-03
C:/temp/dataset/4/1_15.odb,Step-1,Increment      1: Step Time =    1.000,"PART-1-1",           670,      -9.21309,       6.46842,            0.,NA,NA,"",       5.70607,       4.68688,       3.25459,   4.27328E-03
C:/temp/dataset/4/1_15.odb,Step-1,Increment      1: Step Time =    1.000,"PART-1-1",           671,        -11.25,           -5.,            0.,NA,NA,"",       4.56442,       2.23369,       3.98052,   3.57902E-03
C:/temp/dataset/4/1_15.odb,Step-1,Increment      1: Step Time =    1.000,"PART-1-1",           672,      -10.0273,      -3.93877,            0.,NA,NA,"",       4.41564,       2.43989,       3.68033,   6.06565E-03
C:/temp/dataset/4/1_15.odb,Step-1,Increment      1: Step Time =    1.000,"PART-1-1",           673,         -8.75,           -5.,            0.,NA,NA,"",       4.06254,       2.18510,       3.42485,   9.03502E-03
C:/temp/dataset/4/1_15.odb,Step-1,Increment      1: Step Time =    1.000,"PART-1-1",           674,      -7.59562,      -4.02918,            0.,NA,NA,"",       3.93970,       2.37581,       3.14273,   10.0167E-03
C:/temp/dataset/4/1_15.odb,Step-1,Increment      1: Step Time =    1.000,"PART-1-1",           675,      -8.87289,      -2.96795,            0.,NA,NA,"",       4.29333,       2.62422,       3.39796,   8.28001E-03
C:/temp/dataset/4/1_15.odb,Step-1,Increment      1: Step Time =    1.000,"PART-1-1",           676,         -6.25,           -5.,            0.,NA,NA,"",       3.59224,       2.15177,       2.87647,   14.1902E-03
C:/temp/dataset/4/1_15.odb,Step-1,Increment      1: Step Time =    1.000,"PART-1-1",           677,      -5.03874,      -3.83161,            0.,NA,NA,"",       3.51447,       2.38208,       2.58403,   12.5923E-03
C:/temp/dataset/4/1_15.odb,Step-1,Increment      1: Step Time =    1.000,"PART-1-1",           678,      -6.38435,      -2.86079,            0.,NA,NA,"",       3.85648,       2.60128,       2.84706,   9.36090E-03
C:/temp/dataset/4/1_15.odb,Step-1,Increment      1: Step Time =    1.000,"PART-1-1",           679,      -8.31216,       1.98044,            0.,NA,NA,"",       4.82704,       3.65187,       3.15661,   9.18795E-03
C:/temp/dataset/4/1_15.odb,Step-1,Increment      1: Step Time =    1.000,"PART-1-1",           680,      -6.89941,       1.67561,            0.,NA,NA,"",       4.55069,       3.54913,       2.84824,   8.83033E-03
C:/temp/dataset/4/1_15.odb,Step-1,Increment      1: Step Time =    1.000,"PART-1-1",           681,      -8.02347,       3.70061,            0.,NA,NA,"",       5.04403,       4.01554,       3.05249,   7.86971E-03
C:/temp/dataset/4/1_15.odb,Step-1,Increment      1: Step Time =    1.000,"PART-1-1",           682,      -9.78636,       2.36681,            0.,NA,NA,"",       5.13711,       3.77728,       3.48167,   8.68293E-03
C:/temp/dataset/4/1_15.odb,Step-1,Increment      1: Step Time =    1.000,"PART-1-1",           683,      -8.80920,   354.969E-03,            0.,NA,NA,"",       4.68533,       3.32129,       3.30475,   9.44255E-03
C:/temp/dataset/4/1_15.odb,Step-1,Increment      1: Step Time =    1.000,"PART-1-1",           684,         -3.75,           -5.,            0.,NA,NA,"",       3.17039,       2.13229,       2.34621,   17.4244E-03
C:/temp/dataset/4/1_15.odb,Step-1,Increment      1: Step Time =    1.000,"PART-1-1",           685,          3.75,           -5.,            0.,NA,NA,"",       2.29318,       2.11457,   887.296E-03,   23.1805E-03
C:/temp/dataset/4/1_15.odb,Step-1,Increment      1: Step Time =    1.000,"PART-1-1",           686,       4.46580,      -3.87501,            0.,NA,NA,"",       2.42011,       2.30829,   727.121E-03,   17.0129E-03
C:/temp/dataset/4/1_15.odb,Step-1,Increment      1: Step Time =    1.000,"PART-1-1",           687,       2.90021,      -2.90757,            0.,NA,NA,"",       2.68349,       2.49043,   999.440E-03,   8.26098E-03
C:/temp/dataset/4/1_15.odb,Step-1,Increment      1: Step Time =    1.000,"PART-1-1",           688,       11.1618,       2.81075,            0.,NA,NA,"",       3.37768,       3.35368,  -401.958E-03,   6.73921E-03
C:/temp/dataset/4/1_15.odb,Step-1,Increment      1: Step Time =    1.000,"PART-1-1",           689,       10.1850,       1.50626,            0.,NA,NA,"",       3.15703,       3.14844,  -232.730E-03,   9.71331E-03
C:/temp/dataset/4/1_15.odb,Step-1,Increment      1: Step Time =    1.000,"PART-1-1",           690,       11.6421,   144.368E-03,            0.,NA,NA,"",       2.93331,       2.90066,  -436.470E-03,   9.83247E-03
C:/temp/dataset/4/1_15.odb,Step-1,Increment      1: Step Time =    1.000,"PART-1-1",           691,         11.25,           30.,            0.,NA,NA,"",       7.76014,       7.72208,  -767.641E-03,   349.405E-09
C:/temp/dataset/4/1_15.odb,Step-1,Increment      1: Step Time =    1.000,"PART-1-1",           692,       9.19768,       26.3844,            0.,NA,NA,"",       7.18066,       7.16991,  -392.603E-03,   594.875E-09
C:/temp/dataset/4/1_15.odb,Step-1,Increment      1: Step Time =    1.000,"PART-1-1",           693,       7.72138,       25.7435,            0.,NA,NA,"",       7.08792,       7.08637,  -148.086E-03,   680.588E-09
C:/temp/dataset/4/1_15.odb,Step-1,Increment      1: Step Time =    1.000,"PART-1-1",           694,       9.17897,      -24.8987,            0.,NA,NA,"",   103.127E-03,   99.0385E-03,   28.7511E-03,   7.79378E-03
C:/temp/dataset/4/1_15.odb,Step-1,Increment      1: Step Time =    1.000,"PART-1-1",           695,       9.00589,       18.6572,            0.,NA,NA,"",       5.94155,       5.93576,  -262.307E-03,   21.2943E-06
C:/temp/dataset/4/1_15.odb,Step-1,Increment      1: Step Time =    1.000,"PART-1-1",           696,       7.99757,       19.7140,            0.,NA,NA,"",       6.11895,       6.11788,  -114.571E-03,   7.42072E-06
C:/temp/dataset/4/1_15.odb,Step-1,Increment      1: Step Time =    1.000,"PART-1-1",           697,      -12.2498,       25.7751,            0.,NA,NA,"",       10.2612,       9.68479,       3.39058,   1.96603E-03
C:/temp/dataset/4/1_15.odb,Step-1,Increment      1: Step Time =    1.000,"PART-1-1",           698,      -11.9888,       23.9538,            0.,NA,NA,"",       9.80285,       9.20016,       3.38424,   2.63017E-03
C:/temp/dataset/4/1_15.odb,Step-1,Increment      1: Step Time =    1.000,"PART-1-1",           699,      -1.59164,      -1.60220,            0.,NA,NA,"",       3.32746,       2.78341,       1.82335,   5.88905E-03
C:/temp/dataset/4/1_15.odb,Step-1,Increment      1: Step Time =    1.000,"PART-1-1",           700,      -1.34014,  -343.401E-03,            0.,NA,NA,"",       3.49178,       3.02317,       1.74728,   1.63386E-03
C:/temp/dataset/4/1_15.odb,Step-1,Increment      1: Step Time =    1.000,"PART-1-1",           701,      -2.70787,  -93.9540E-03,            0.,NA,NA,"",       3.69288,       3.09716,       2.01121,   2.49130E-03
C:/temp/dataset/4/1_15.odb,Step-1,Increment      1: Step Time =    1.000,"PART-1-1",           702,       8.06015,      -13.0184,            0.,NA,NA,"",       1.05116,       1.03678,   173.287E-03,   11.9990E-03
C:/temp/dataset/4/1_15.odb,Step-1,Increment      1: Step Time =    1.000,"PART-1-1",           703,       7.99745,      -10.7906,            0.,NA,NA,"",       1.31506,       1.30159,   187.712E-03,   11.5894E-03
C:/temp/dataset/4/1_15.odb,Step-1,Increment      1: Step Time =    1.000,"PART-1-1",           704,           15.,        -26.25,            0.,NA,NA,"",   163.033E-03,   90.3262E-03,  -135.724E-03,   39.0020E-03
C:/temp/dataset/4/1_15.odb,Step-1,Increment      1: Step Time =    1.000,"PART-1-1",           705,       13.9776,      -24.8045,            0.,NA,NA,"",   190.894E-03,   124.135E-03,  -145.021E-03,   30.2975E-03
C:/temp/dataset/4/1_15.odb,Step-1,Increment      1: Step Time =    1.000,"PART-1-1",           706,       12.6094,      -25.9010,            0.,NA,NA,"",   100.387E-03,   69.9212E-03,  -72.0318E-03,   20.3860E-03
C:/temp/dataset/4/1_15.odb,Step-1,Increment      1: Step Time =    1.000,"PART-1-1",           707,       12.0224,      -24.3398,            0.,NA,NA,"",   147.150E-03,   124.712E-03,  -78.1034E-03,   15.6760E-03
C:/temp/dataset/4/1_15.odb,Step-1,Increment      1: Step Time =    1.000,"PART-1-1",           708,       13.0263,      -23.4242,            0.,NA,NA,"",   222.173E-03,   174.188E-03,  -137.911E-03,   22.5110E-03
C:/temp/dataset/4/1_15.odb,Step-1,Increment      1: Step Time =    1.000,"PART-1-1",           709,       12.1300,      -22.1112,            0.,NA,NA,"",   264.929E-03,   238.011E-03,  -116.353E-03,   15.3567E-03
C:/temp/dataset/4/1_15.odb,Step-1,Increment      1: Step Time =    1.000,"PART-1-1",           710,           15.,        -23.75,            0.,NA,NA,"",   288.142E-03,   183.446E-03,  -222.201E-03,   37.1312E-03
C:/temp/dataset/4/1_15.odb,Step-1,Increment      1: Step Time =    1.000,"PART-1-1",           711,       10.9035,      -9.09896,            0.,NA,NA,"",       1.50252,       1.49213,  -176.440E-03,   6.33581E-03
C:/temp/dataset/4/1_15.odb,Step-1,Increment      1: Step Time =    1.000,"PART-1-1",           712,       9.82794,      -8.10226,            0.,NA,NA,"",       1.63361,       1.63287,  -49.1735E-03,   3.65224E-03
C:/temp/dataset/4/1_15.odb,Step-1,Increment      1: Step Time =    1.000,"PART-1-1",           713,       8.90728,      -9.48784,            0.,NA,NA,"",       1.45887,       1.45684,   77.0216E-03,   6.35710E-03
C:/temp/dataset/4/1_15.odb,Step-1,Increment      1: Step Time =    1.000,"PART-1-1",           714,           15.,         -1.25,            0.,NA,NA,"",       2.80080,       2.63924,  -937.494E-03,   11.6597E-03
C:/temp/dataset/4/1_15.odb,Step-1,Increment      1: Step Time =    1.000,"PART-1-1",           715,       12.7555,      -1.12336,            0.,NA,NA,"",       2.74200,       2.67893,  -584.754E-03,   10.3284E-03
C:/temp/dataset/4/1_15.odb,Step-1,Increment      1: Step Time =    1.000,"PART-1-1",           716,       11.5680,       5.48707,            0.,NA,NA,"",       3.82277,       3.78971,  -501.605E-03,   2.33289E-03
C:/temp/dataset/4/1_15.odb,Step-1,Increment      1: Step Time =    1.000,"PART-1-1",           717,       10.1222,       4.29256,            0.,NA,NA,"",       3.62434,       3.61520,  -257.249E-03,   5.51882E-03
C:/temp/dataset/4/1_15.odb,Step-1,Increment      1: Step Time =    1.000,"PART-1-1",           718,       8.27918,   509.070E-03,            0.,NA,NA,"",       3.00796,       3.00710,   71.8650E-03,   12.1096E-03
C:/temp/dataset/4/1_15.odb,Step-1,Increment      1: Step Time =    1.000,"PART-1-1",           719,       9.70893,  -124.236E-03,            0.,NA,NA,"",       2.88197,       2.87866,  -138.094E-03,   11.7901E-03
C:/temp/dataset/4/1_15.odb,Step-1,Increment      1: Step Time =    1.000,"PART-1-1",           720,       8.75521,       2.13956,            0.,NA,NA,"",       3.27785,       3.27779,  -19.6205E-03,   10.4579E-03
C:/temp/dataset/4/1_15.odb,Step-1,Increment      1: Step Time =    1.000,"PART-1-1",           721,       6.99874,       4.90963,            0.,NA,NA,"",       3.77766,       3.77063,   230.284E-03,   8.05572E-03
C:/temp/dataset/4/1_15.odb,Step-1,Increment      1: Step Time =    1.000,"PART-1-1",           722,       8.01086,       5.41567,            0.,NA,NA,"",       3.83380,       3.83325,   64.8672E-03,   5.46718E-03
C:/temp/dataset/4/1_15.odb,Step-1,Increment      1: Step Time =    1.000,"PART-1-1",           723,       11.8045,       7.99587,            0.,NA,NA,"",       4.23161,       4.19276,  -572.048E-03,   374.013E-06
C:/temp/dataset/4/1_15.odb,Step-1,Increment      1: Step Time =    1.000,"PART-1-1",           724,       7.91904,       10.9856,            0.,NA,NA,"",       4.72194,       4.72192,   10.9488E-03,   281.068E-06
C:/temp/dataset/4/1_15.odb,Step-1,Increment      1: Step Time =    1.000,"PART-1-1",           725,       11.0233,       18.7016,            0.,NA,NA,"",       5.94582,       5.91690,  -585.744E-03,   20.7814E-06
C:/temp/dataset/4/1_15.odb,Step-1,Increment      1: Step Time =    1.000,"PART-1-1",           726,       10.0074,       19.8076,            0.,NA,NA,"",       6.12262,       6.10697,  -437.425E-03,   8.18481E-06
C:/temp/dataset/4/1_15.odb,Step-1,Increment      1: Step Time =    1.000,"PART-1-1",           727,       10.9673,       21.0105,            0.,NA,NA,"",       6.31630,       6.28711,  -606.539E-03,   4.76530E-06
C:/temp/dataset/4/1_15.odb,Step-1,Increment      1: Step Time =    1.000,"PART-1-1",           728,       8.97465,       20.8454,            0.,NA,NA,"",       6.29284,       6.28636,  -285.522E-03,   5.35985E-06
C:/temp/dataset/4/1_15.odb,Step-1,Increment      1: Step Time =    1.000,"PART-1-1",           729,       8.66510,       24.8184,            0.,NA,NA,"",       6.93211,       6.92616,  -287.189E-03,   724.262E-09
C:/temp/dataset/4/1_15.odb,Step-1,Increment      1: Step Time =    1.000,"PART-1-1",           730,       7.98376,       13.1681,            0.,NA,NA,"",       5.07040,       5.07032,  -27.7889E-03,   170.881E-06
C:/temp/dataset/4/1_15.odb,Step-1,Increment      1: Step Time =    1.000,"PART-1-1",           731,      -1.95806,       1.80915,            0.,NA,NA,"",       3.90838,       3.45541,       1.82637,   8.20848E-03
C:/temp/dataset/4/1_15.odb,Step-1,Increment      1: Step Time =    1.000,"PART-1-1",           732,  -613.587E-03,   828.335E-03,            0.,NA,NA,"",       3.60206,       3.23408,       1.58605,   3.90467E-03
C:/temp/dataset/4/1_15.odb,Step-1,Increment      1: Step Time =    1.000,"PART-1-1",           733,   461.223E-03,       1.99751,            0.,NA,NA,"",       3.69237,       3.43001,       1.36697,   9.03870E-03
C:/temp/dataset/4/1_15.odb,Step-1,Increment      1: Step Time =    1.000,"PART-1-1",           734,       1.74006,       1.04512,            0.,NA,NA,"",       3.42202,       3.22408,       1.14697,   5.54079E-03
C:/temp/dataset/4/1_15.odb,Step-1,Increment      1: Step Time =    1.000,"PART-1-1",           735,   906.022E-03,  -39.5003E-03,            0.,NA,NA,"",       3.31287,       3.04029,       1.31595,   1.10231E-03
C:/temp/dataset/4/1_15.odb,Step-1,Increment      1: Step Time =    1.000,"PART-1-1",           736,       2.15034,  -968.542E-03,            0.,NA,NA,"",       3.05484,       2.84849,       1.10371,   2.04228E-03
C:/temp/dataset/4/1_15.odb,Step-1,Increment      1: Step Time =    1.000,"PART-1-1",           737,       2.98438,   116.081E-03,            0.,NA,NA,"",       3.17285,       3.03091,   938.381E-03,   3.71164E-03
C:/temp/dataset/4/1_15.odb,Step-1,Increment      1: Step Time =    1.000,"PART-1-1",           738,      -8.25937,       5.01848,            0.,NA,NA,"",       5.30150,       4.31946,       3.07378,   6.78190E-03
C:/temp/dataset/4/1_15.odb,Step-1,Increment      1: Step Time =    1.000,"PART-1-1",           739,      -2.78312,       1.01462,            0.,NA,NA,"",       3.87536,       3.31784,       2.00260,   3.58350E-03
C:/temp/dataset/4/1_15.odb,Step-1,Increment      1: Step Time =    1.000,"PART-1-1",           740,      -4.31499,   913.536E-03,            0.,NA,NA,"",       4.05684,       3.33173,       2.31463,   4.23373E-03
C:/temp/dataset/4/1_15.odb,Step-1,Increment      1: Step Time =    1.000,"PART-1-1",           741,      -4.23975,  -195.042E-03,            0.,NA,NA,"",       3.88006,       3.10632,       2.32501,   5.02683E-03
C:/temp/dataset/4/1_15.odb,Step-1,Increment      1: Step Time =    1.000,"PART-1-1",           742,      -8.52646,       20.5688,            0.,NA,NA,"",       8.60557,       8.19945,       2.61243,   3.21422E-03
C:/temp/dataset/4/1_15.odb,Step-1,Increment      1: Step Time =    1.000,"PART-1-1",           743,       8.09873,      -15.2435,            0.,NA,NA,"",   813.822E-03,   798.267E-03,   158.354E-03,   12.4147E-03
C:/temp/dataset/4/1_15.odb,Step-1,Increment      1: Step Time =    1.000,"PART-1-1",           744,       8.99676,       14.2096,            0.,NA,NA,"",       5.22803,       5.22407,  -203.323E-03,   147.875E-06
C:/temp/dataset/4/1_15.odb,Step-1,Increment      1: Step Time =    1.000,"PART-1-1",           745,       11.0169,       14.0599,            0.,NA,NA,"",       5.20082,       5.17429,  -524.719E-03,   148.573E-06
C:/temp/dataset/4/1_15.odb,Step-1,Increment      1: Step Time =    1.000,"PART-1-1",           746,      -7.91902,       15.6847,            0.,NA,NA,"",       7.40628,       6.92254,       2.63275,   4.29693E-03
C:/temp/dataset/4/1_15.odb,Step-1,Increment      1: Step Time =    1.000,"PART-1-1",           747,      -11.9968,       14.1876,            0.,NA,NA,"",       7.62753,       6.67041,       3.69929,   4.57785E-03
C:/temp/dataset/4/1_15.odb,Step-1,Increment      1: Step Time =    1.000,"PART-1-1",           748,      -11.1175,       8.79310,            0.,NA,NA,"",       6.42908,       5.30065,       3.63815,   4.41675E-03
C:/temp/dataset/4/1_15.odb,Step-1,Increment      1: Step Time =    1.000,"PART-1-1",           749,       10.6592,      -6.44981,            0.,NA,NA,"",       1.86837,       1.85960,  -180.841E-03,   7.78595E-03
C:/temp/dataset/4/1_15.odb,Step-1,Increment      1: Step Time =    1.000,"PART-1-1",           750,      -10.7894,       23.3985,            0.,NA,NA,"",       9.52966,       9.01328,       3.09440,   2.77759E-03
C:/temp/dataset/4/1_15.odb,Step-1,Increment      1: Step Time =    1.000,"PART-1-1",           751,       10.0228,      -25.8019,            0.,NA,NA,"",   63.6047E-03,   63.6047E-03,   26.4213E-06,   3.63833E-03
C:/temp/dataset/4/1_15.odb,Step-1,Increment      1: Step Time =    1.000,"PART-1-1",           752,       10.9542,      -24.8826,            0.,NA,NA,"",   103.205E-03,   97.9140E-03,  -32.6202E-03,   7.72030E-03
C:/temp/dataset/4/1_15.odb,Step-1,Increment      1: Step Time =    1.000,"PART-1-1",           753,       11.8371,      -2.37854,            0.,NA,NA,"",       2.51694,       2.48143,  -421.311E-03,   11.3847E-03
C:/temp/dataset/4/1_15.odb,Step-1,Increment      1: Step Time =    1.000,"PART-1-1",           754,       11.6235,      -5.02753,            0.,NA,NA,"",       2.09309,       2.06532,  -339.859E-03,   10.8250E-03
C:/temp/dataset/4/1_15.odb,Step-1,Increment      1: Step Time =    1.000,"PART-1-1",           755,      -12.1333,       7.86930,            0.,NA,NA,"",       6.42854,       5.10953,       3.90112,   6.62501E-03
C:/temp/dataset/4/1_15.odb,Step-1,Increment      1: Step Time =    1.000,"PART-1-1",           756,      -12.0768,       9.95169,            0.,NA,NA,"",       6.79926,       5.61353,       3.83643,   5.87039E-03
C:/temp/dataset/4/1_15.odb,Step-1,Increment      1: Step Time =    1.000,"PART-1-1",           757,       8.68743,       3.64563,            0.,NA,NA,"",       3.53226,       3.53217,  -24.6097E-03,   8.07732E-03
C:/temp/dataset/4/1_15.odb,Step-1,Increment      1: Step Time =    1.000,"PART-1-1",           758,       6.61848,       3.66599,            0.,NA,NA,"",       3.58883,       3.57630,   299.698E-03,   10.9401E-03
C:/temp/dataset/4/1_15.odb,Step-1,Increment      1: Step Time =    1.000,"PART-1-1",           759,       4.71579,   65.6079E-03,            0.,NA,NA,"",       3.05882,       2.99061,   642.391E-03,   7.43316E-03
C:/temp/dataset/4/1_15.odb,Step-1,Increment      1: Step Time =    1.000,"PART-1-1",           760,       3.89104,   957.250E-03,            0.,NA,NA,"",       3.25673,       3.16416,   770.970E-03,   7.18328E-03
C:/temp/dataset/4/1_15.odb,Step-1,Increment      1: Step Time =    1.000,"PART-1-1",           761,      -12.0363,       12.0623,            0.,NA,NA,"",       7.20144,       6.13582,       3.76995,   5.21810E-03
C:/temp/dataset/4/1_15.odb,Step-1,Increment      1: Step Time =    1.000,"PART-1-1",           762,      -12.1964,       5.82098,            0.,NA,NA,"",       6.09138,       4.62761,       3.96107,   7.39200E-03
C:/temp/dataset/4/1_15.odb,Step-1,Increment      1: Step Time =    1.000,"PART-1-1",           763,      -11.2570,       4.81016,            0.,NA,NA,"",       5.76549,       4.36563,       3.76592,   6.30174E-03
C:/temp/dataset/4/1_15.odb,Step-1,Increment      1: Step Time =    1.000,"PART-1-1",           764,      -10.5260,       3.94381,            0.,NA,NA,"",       5.50286,       4.14730,       3.61682,   6.86971E-03
C:/temp/dataset/4/1_15.odb,Step-1,Increment      1: Step Time =    1.000,"PART-1-1",           765,      -9.56326,       4.76486,            0.,NA,NA,"",       5.47036,       4.30253,       3.37833,   5.56147E-03
C:/temp/dataset/4/1_15.odb,Step-1,Increment      1: Step Time =    1.000,"PART-1-1",           766,      -9.32737,       3.44699,            0.,NA,NA,"",       5.21993,       3.99972,       3.35409,   7.38692E-03
C:/temp/dataset/4/1_15.odb,Step-1,Increment      1: Step Time =    1.000,"PART-1-1",           767,       11.5413,      -26.4438,            0.,NA,NA,"",   59.3060E-03,   46.9402E-03,  -36.2467E-03,   12.2186E-03
C:/temp/dataset/4/1_15.odb,Step-1,Increment      1: Step Time =    1.000,"PART-1-1",           768,       5.97241,      -3.36228,            0.,NA,NA,"",       2.42233,       2.37657,   468.601E-03,   10.8486E-03
C:/temp/dataset/4/1_15.odb,Step-1,Increment      1: Step Time =    1.000,"PART-1-1",           769,       11.9304,       22.2704,            0.,NA,NA,"",       6.52276,       6.47632,  -776.904E-03,   837.804E-09
C:/temp/dataset/4/1_15.odb,Step-1,Increment      1: Step Time =    1.000,"PART-1-1",           770,      -3.95064,       2.12654,            0.,NA,NA,"",       4.19944,       3.56900,       2.21303,   6.23176E-03
C:/temp/dataset/4/1_15.odb,Step-1,Increment      1: Step Time =    1.000,"PART-1-1",           771,       12.1361,      -19.7979,            0.,NA,NA,"",   417.524E-03,   388.707E-03,  -152.422E-03,   14.6796E-03
C:/temp/dataset/4/1_15.odb,Step-1,Increment      1: Step Time =    1.000,"PART-1-1",           772,       12.1156,      -17.4436,            0.,NA,NA,"",   605.557E-03,   575.662E-03,  -187.916E-03,   13.7933E-03
C:/temp/dataset/4/1_15.odb,Step-1,Increment      1: Step Time =    1.000,"PART-1-1",           773,       11.8489,      -7.73518,            0.,NA,NA,"",       1.70193,       1.67142,  -320.832E-03,   10.3043E-03
C:/temp/dataset/4/1_15.odb,Step-1,Increment      1: Step Time =    1.000,"PART-1-1",           774,       11.9658,      -10.2357,            0.,NA,NA,"",       1.37304,       1.34176,  -291.397E-03,   10.8609E-03
C:/temp/dataset/4/1_15.odb,Step-1,Increment      1: Step Time =    1.000,"PART-1-1",           775,       10.7237,      -1.11081,            0.,NA,NA,"",       2.71486,       2.70073,  -276.636E-03,   11.3666E-03
C:/temp/dataset/4/1_15.odb,Step-1,Increment      1: Step Time =    1.000,"PART-1-1",           776,       11.9194,       10.4262,            0.,NA,NA,"",       4.62329,       4.58124,  -622.103E-03,   250.309E-06
C:/temp/dataset/4/1_15.odb,Step-1,Increment      1: Step Time =    1.000,"PART-1-1",           777,       11.9945,       12.8006,            0.,NA,NA,"",       5.00466,       4.96029,  -664.979E-03,   178.103E-06
C:/temp/dataset/4/1_15.odb,Step-1,Increment      1: Step Time =    1.000,"PART-1-1",           778,       12.0317,      -12.6649,            0.,NA,NA,"",       1.08357,       1.05249,  -257.657E-03,   11.8103E-03
C:/temp/dataset/4/1_15.odb,Step-1,Increment      1: Step Time =    1.000,"PART-1-1",           779,       12.0352,       15.1685,            0.,NA,NA,"",       5.38453,       5.33856,  -702.109E-03,   81.0018E-06
C:/temp/dataset/4/1_15.odb,Step-1,Increment      1: Step Time =    1.000,"PART-1-1",           780,      -7.80161,      -2.23284,            0.,NA,NA,"",       4.18022,       2.75756,       3.14167,   8.97517E-03
C:/temp/dataset/4/1_15.odb,Step-1,Increment      1: Step Time =    1.000,"PART-1-1",           781,      -8.87876,  -905.543E-03,            0.,NA,NA,"",       4.53562,       3.05848,       3.34926,   9.18521E-03
C:/temp/dataset/4/1_15.odb,Step-1,Increment      1: Step Time =    1.000,"PART-1-1",           782,      -7.16649,      -1.00336,            0.,NA,NA,"",       4.22241,       2.99999,       2.97134,   8.74032E-03
C:/temp/dataset/4/1_15.odb,Step-1,Increment      1: Step Time =    1.000,"PART-1-1",           783,      -7.09692,   257.153E-03,            0.,NA,NA,"",       4.37964,       3.25905,       2.92571,   8.67008E-03
C:/temp/dataset/4/1_15.odb,Step-1,Increment      1: Step Time =    1.000,"PART-1-1",           784,      -5.74923,      -1.63131,            0.,NA,NA,"",       3.90638,       2.84316,       2.67886,   8.32583E-03
C:/temp/dataset/4/1_15.odb,Step-1,Increment      1: Step Time =    1.000,"PART-1-1",           785,      -5.66693,  -67.3201E-03,            0.,NA,NA,"",       4.10717,       3.16071,       2.62274,   6.95979E-03
C:/temp/dataset/4/1_15.odb,Step-1,Increment      1: Step Time =    1.000,"PART-1-1",           786,      -5.46941,       1.35113,            0.,NA,NA,"",       4.28497,       3.44661,       2.54596,   7.11457E-03
C:/temp/dataset/4/1_15.odb,Step-1,Increment      1: Step Time =    1.000,"PART-1-1",           787,       12.0849,      -15.0650,            0.,NA,NA,"",   827.985E-03,   797.254E-03,  -223.485E-03,   12.8558E-03
C:/temp/dataset/4/1_15.odb,Step-1,Increment      1: Step Time =    1.000,"PART-1-1",           788,       7.01212,      -4.44648,            0.,NA,NA,"",       2.21214,       2.18938,   316.513E-03,   9.62902E-03
C:/temp/dataset/4/1_15.odb,Step-1,Increment      1: Step Time =    1.000,"PART-1-1",           789,       7.64174,      -3.33281,            0.,NA,NA,"",       2.37291,       2.36339,   212.318E-03,   10.7054E-03
C:/temp/dataset/4/1_15.odb,Step-1,Increment      1: Step Time =    1.000,"PART-1-1",           790,       6.60203,      -2.24861,            0.,NA,NA,"",       2.58253,       2.55728,   360.255E-03,   10.8829E-03
C:/temp/dataset/4/1_15.odb,Step-1,Increment      1: Step Time =    1.000,"PART-1-1",           791,       6.68626,       2.15992,            0.,NA,NA,"",       3.33293,       3.31918,   302.490E-03,   11.7879E-03
C:/temp/dataset/4/1_15.odb,Step-1,Increment      1: Step Time =    1.000,"PART-1-1",           792,       12.0103,       19.9021,            0.,NA,NA,"",       6.14338,       6.09629,  -759.170E-03,   6.34374E-06
C:/temp/dataset/4/1_15.odb,Step-1,Increment      1: Step Time =    1.000,"PART-1-1",           793,       12.0305,       17.5416,            0.,NA,NA,"",       5.76497,       5.71831,  -731.979E-03,   27.0817E-06
C:/temp/dataset/4/1_15.odb,Step-1,Increment      1: Step Time =    1.000,"PART-1-1",           794,       6.09271,      -1.14349,            0.,NA,NA,"",       2.78907,       2.75567,   430.320E-03,   9.95902E-03
C:/temp/dataset/4/1_15.odb,Step-1,Increment      1: Step Time =    1.000,"PART-1-1",           795,       7.56053,      -1.65505,            0.,NA,NA,"",       2.65414,       2.64611,   206.316E-03,   12.1899E-03
C:/temp/dataset/4/1_15.odb,Step-1,Increment      1: Step Time =    1.000,"PART-1-1",           796,       7.05122,  -549.935E-03,            0.,NA,NA,"",       2.85674,       2.84365,   273.141E-03,   11.8674E-03
C:/temp/dataset/4/1_15.odb,Step-1,Increment      1: Step Time =    1.000,"PART-1-1",           797,       5.28588,       1.87348,            0.,NA,NA,"",       3.33979,       3.29766,   528.846E-03,   10.1374E-03
C:/temp/dataset/4/1_15.odb,Step-1,Increment      1: Step Time =    1.000,"PART-1-1",           798,       5.70847,   325.226E-03,            0.,NA,NA,"",       3.05593,       3.01851,   476.773E-03,   10.1863E-03
C:/temp/dataset/4/1_15.odb,Step-1,Increment      1: Step Time =    1.000,"PART-1-1",           799,       7.10885,   611.668E-03,            0.,NA,NA,"",       3.05431,       3.04391,   251.880E-03,   11.7099E-03
C:/temp/dataset/4/1_15.odb,Step-1,Increment      1: Step Time =    1.000,"PART-1-1",           800,       9.00326,      -1.31280,            0.,NA,NA,"",       2.68619,       2.68615,  -15.8536E-03,   12.2590E-03
C:/temp/dataset/4/1_15.odb,Step-1,Increment      1: Step Time =    1.000,"PART-1-1",           801,       8.22155,  -652.532E-03,            0.,NA,NA,"",       2.81024,       2.80866,   94.1344E-03,   12.4164E-03
C:/temp/dataset/4/1_15.odb,Step-1,Increment      1: Step Time =    1.000,"PART-1-1",           802,       8.34224,      -2.31533,            0.,NA,NA,"",       2.52685,       2.52504,   95.8375E-03,   11.9171E-03
C:/temp/dataset/4/1_15.odb,Step-1,Increment      1: Step Time =    1.000,"PART-1-1",           803,       2.82445,       2.06443,            0.,NA,NA,"",       3.51318,       3.38471,   941.382E-03,   9.04835E-03
