ODB Name,Step,Frame,Part Instance Name,    êﬂì_ÉâÉxÉã,X,Y,Z,Section Name,Material Name,Section Point,   U-Magnitude,          U-U1,          U-U2,       S-Mises
C:/temp/dataset/4/22_3.odb,Step-1,Increment      1: Step Time =    1.000,"PART-1-1",             1,           -5.,           30.,            0.,NA,NA,"",       10.6907,       10.4690,       2.16568,   80.7106E-09
C:/temp/dataset/4/22_3.odb,Step-1,Increment      1: Step Time =    1.000,"PART-1-1",             2,          -15.,           30.,            0.,NA,NA,"",       11.5146,       10.6932,       4.27119,   80.8633E-09
C:/temp/dataset/4/22_3.odb,Step-1,Increment      1: Step Time =    1.000,"PART-1-1",             3,          -15.,         21.25,            0.,NA,NA,"",       9.91437,       8.85085,       4.46735,   64.2034E-09
C:/temp/dataset/4/22_3.odb,Step-1,Increment      1: Step Time =    1.000,"PART-1-1",             4,          -15.,          12.5,            0.,NA,NA,"",       8.41829,       7.00852,       4.66350,   962.902E-09
C:/temp/dataset/4/22_3.odb,Step-1,Increment      1: Step Time =    1.000,"PART-1-1",             5,          -15.,          3.75,            0.,NA,NA,"",       7.09265,       5.16623,       4.85960,   6.03325E-06
C:/temp/dataset/4/22_3.odb,Step-1,Increment      1: Step Time =    1.000,"PART-1-1",             6,          -15.,           -5.,            0.,NA,NA,"",       6.05061,       3.32415,       5.05568,   777.583E-09
C:/temp/dataset/4/22_3.odb,Step-1,Increment      1: Step Time =    1.000,"PART-1-1",             7,          -10.,           -5.,            0.,NA,NA,"",       5.13251,       3.21211,       4.00312,   8.81315E-06
C:/temp/dataset/4/22_3.odb,Step-1,Increment      1: Step Time =    1.000,"PART-1-1",             8,           -5.,           -5.,            0.,NA,NA,"",       4.27971,       3.09979,       2.95081,   250.217E-06
C:/temp/dataset/4/22_3.odb,Step-1,Increment      1: Step Time =    1.000,"PART-1-1",             9,            0.,           -5.,            0.,NA,NA,"",       3.53575,       2.98398,       1.89667,   2.08073E-03
C:/temp/dataset/4/22_3.odb,Step-1,Increment      1: Step Time =    1.000,"PART-1-1",            10,            5.,           -5.,            0.,NA,NA,"",       2.96609,       2.85964,   787.510E-03,   32.3593E-03
C:/temp/dataset/4/22_3.odb,Step-1,Increment      1: Step Time =    1.000,"PART-1-1",            11,            5.,        -11.25,            0.,NA,NA,"",       1.86468,       1.73378,   686.327E-03,   36.0878E-03
C:/temp/dataset/4/22_3.odb,Step-1,Increment      1: Step Time =    1.000,"PART-1-1",            12,            5.,         -17.5,            0.,NA,NA,"",   997.245E-03,   847.423E-03,   525.710E-03,   43.1470E-03
C:/temp/dataset/4/22_3.odb,Step-1,Increment      1: Step Time =    1.000,"PART-1-1",            13,            5.,        -23.75,            0.,NA,NA,"",   394.621E-03,   266.996E-03,   290.584E-03,   50.1115E-03
C:/temp/dataset/4/22_3.odb,Step-1,Increment      1: Step Time =    1.000,"PART-1-1",            14,            5.,          -30.,            0.,NA,NA,"",            0.,   17.6662E-39,   33.1959E-39,   64.4937E-03
C:/temp/dataset/4/22_3.odb,Step-1,Increment      1: Step Time =    1.000,"PART-1-1",            15,           15.,          -30.,            0.,NA,NA,"",            0.,   16.4156E-39,  -31.7178E-39,   61.2591E-03
C:/temp/dataset/4/22_3.odb,Step-1,Increment      1: Step Time =    1.000,"PART-1-1",            16,           15.,         -22.5,            0.,NA,NA,"",   481.112E-03,   325.893E-03,  -353.925E-03,   48.2296E-03
C:/temp/dataset/4/22_3.odb,Step-1,Increment      1: Step Time =    1.000,"PART-1-1",            17,           15.,          -15.,            0.,NA,NA,"",       1.28296,       1.08110,  -690.801E-03,   39.8518E-03
C:/temp/dataset/4/22_3.odb,Step-1,Increment      1: Step Time =    1.000,"PART-1-1",            18,           15.,          -7.5,            0.,NA,NA,"",       2.45617,       2.23302,      -1.02293,   30.7340E-03
C:/temp/dataset/4/22_3.odb,Step-1,Increment      1: Step Time =    1.000,"PART-1-1",            19,           15.,            0.,            0.,NA,NA,"",       3.92528,       3.69195,      -1.33319,   18.4662E-03
C:/temp/dataset/4/22_3.odb,Step-1,Increment      1: Step Time =    1.000,"PART-1-1",            20,           15.,           7.5,            0.,NA,NA,"",       5.56748,       5.32516,      -1.62466,   14.1025E-03
C:/temp/dataset/4/22_3.odb,Step-1,Increment      1: Step Time =    1.000,"PART-1-1",            21,           15.,           15.,            0.,NA,NA,"",       7.35289,       7.10054,      -1.90979,   6.07492E-03
C:/temp/dataset/4/22_3.odb,Step-1,Increment      1: Step Time =    1.000,"PART-1-1",            22,           15.,          22.5,            0.,NA,NA,"",       9.19968,       8.94330,      -2.15674,   76.4044E-06
C:/temp/dataset/4/22_3.odb,Step-1,Increment      1: Step Time =    1.000,"PART-1-1",            23,           15.,           30.,            0.,NA,NA,"",       11.0429,       10.7824,      -2.38482,   11.7140E-06
C:/temp/dataset/4/22_3.odb,Step-1,Increment      1: Step Time =    1.000,"PART-1-1",            24,            5.,           30.,            0.,NA,NA,"",       11.0855,       11.0853,   62.2452E-03,   13.5232E-06
C:/temp/dataset/4/22_3.odb,Step-1,Increment      1: Step Time =    1.000,"PART-1-1",            25,            5.,         23.75,            0.,NA,NA,"",       9.56419,       9.56095,   248.897E-03,   1.57088E-03
C:/temp/dataset/4/22_3.odb,Step-1,Increment      1: Step Time =    1.000,"PART-1-1",            26,            5.,          17.5,            0.,NA,NA,"",       8.03168,       8.01988,   435.371E-03,   4.24165E-03
C:/temp/dataset/4/22_3.odb,Step-1,Increment      1: Step Time =    1.000,"PART-1-1",            27,            5.,         11.25,            0.,NA,NA,"",       6.50504,       6.47865,   585.335E-03,   10.6561E-03
C:/temp/dataset/4/22_3.odb,Step-1,Increment      1: Step Time =    1.000,"PART-1-1",            28,            5.,            5.,            0.,NA,NA,"",       5.03212,       4.98764,   667.532E-03,   23.8310E-03
C:/temp/dataset/4/22_3.odb,Step-1,Increment      1: Step Time =    1.000,"PART-1-1",            29,            0.,            5.,            0.,NA,NA,"",       5.35911,       5.09022,       1.67621,   1.75562E-03
C:/temp/dataset/4/22_3.odb,Step-1,Increment      1: Step Time =    1.000,"PART-1-1",            30,           -5.,            5.,            0.,NA,NA,"",       5.87568,       5.20503,       2.72604,   188.578E-06
C:/temp/dataset/4/22_3.odb,Step-1,Increment      1: Step Time =    1.000,"PART-1-1",            31,           -5.,         11.25,            0.,NA,NA,"",       7.01520,       6.52116,       2.58600,   2.07267E-06
C:/temp/dataset/4/22_3.odb,Step-1,Increment      1: Step Time =    1.000,"PART-1-1",            32,           -5.,          17.5,            0.,NA,NA,"",       8.20991,       7.83711,       2.44589,   53.0477E-09
C:/temp/dataset/4/22_3.odb,Step-1,Increment      1: Step Time =    1.000,"PART-1-1",            33,           -5.,         23.75,            0.,NA,NA,"",       9.43902,       9.15306,       2.30579,   73.5566E-09
C:/temp/dataset/4/22_3.odb,Step-1,Increment      1: Step Time =    1.000,"PART-1-1",            34,          -7.5,           30.,            0.,NA,NA,"",       10.8639,       10.5250,       2.69206,   74.9300E-09
C:/temp/dataset/4/22_3.odb,Step-1,Increment      1: Step Time =    1.000,"PART-1-1",            35,          -10.,           30.,            0.,NA,NA,"",       11.0597,       10.5811,       3.21844,   74.6659E-09
C:/temp/dataset/4/22_3.odb,Step-1,Increment      1: Step Time =    1.000,"PART-1-1",            36,         -12.5,           30.,            0.,NA,NA,"",       11.2771,       10.6371,       3.74482,   77.1277E-09
C:/temp/dataset/4/22_3.odb,Step-1,Increment      1: Step Time =    1.000,"PART-1-1",            37,          -15.,       27.8125,            0.,NA,NA,"",       11.1072,       10.2326,       4.32023,   75.9234E-09
C:/temp/dataset/4/22_3.odb,Step-1,Increment      1: Step Time =    1.000,"PART-1-1",            38,          -15.,        25.625,            0.,NA,NA,"",       10.7043,       9.77201,       4.36927,   73.3424E-09
C:/temp/dataset/4/22_3.odb,Step-1,Increment      1: Step Time =    1.000,"PART-1-1",            39,          -15.,       23.4375,            0.,NA,NA,"",       10.3065,       9.31143,       4.41831,   68.7768E-09
C:/temp/dataset/4/22_3.odb,Step-1,Increment      1: Step Time =    1.000,"PART-1-1",            40,          -15.,       19.0625,            0.,NA,NA,"",       9.52860,       8.39027,       4.51638,   59.6486E-09
C:/temp/dataset/4/22_3.odb,Step-1,Increment      1: Step Time =    1.000,"PART-1-1",            41,          -15.,        16.875,            0.,NA,NA,"",       9.15003,       7.92969,       4.56542,   60.8518E-09
C:/temp/dataset/4/22_3.odb,Step-1,Increment      1: Step Time =    1.000,"PART-1-1",            42,          -15.,       14.6875,            0.,NA,NA,"",       8.77956,       7.46910,       4.61446,   249.470E-09
C:/temp/dataset/4/22_3.odb,Step-1,Increment      1: Step Time =    1.000,"PART-1-1",            43,          -15.,       10.3125,            0.,NA,NA,"",       8.06743,       6.54794,       4.71253,   2.56731E-06
C:/temp/dataset/4/22_3.odb,Step-1,Increment      1: Step Time =    1.000,"PART-1-1",            44,          -15.,         8.125,            0.,NA,NA,"",       7.72842,       6.08736,       4.76156,   5.06168E-06
C:/temp/dataset/4/22_3.odb,Step-1,Increment      1: Step Time =    1.000,"PART-1-1",            45,          -15.,        5.9375,            0.,NA,NA,"",       7.40287,       5.62679,       4.81058,   6.89567E-06
C:/temp/dataset/4/22_3.odb,Step-1,Increment      1: Step Time =    1.000,"PART-1-1",            46,          -15.,        1.5625,            0.,NA,NA,"",       6.79986,       4.70569,       4.90862,   3.83944E-06
C:/temp/dataset/4/22_3.odb,Step-1,Increment      1: Step Time =    1.000,"PART-1-1",            47,          -15.,     -625.E-03,            0.,NA,NA,"",       6.52684,       4.24517,       4.95764,   2.35664E-06
C:/temp/dataset/4/22_3.odb,Step-1,Increment      1: Step Time =    1.000,"PART-1-1",            48,          -15.,       -2.8125,            0.,NA,NA,"",       6.27617,       3.78466,       5.00666,   2.28267E-06
C:/temp/dataset/4/22_3.odb,Step-1,Increment      1: Step Time =    1.000,"PART-1-1",            49,         -12.5,           -5.,            0.,NA,NA,"",       5.58534,       3.26813,       4.52939,   3.31358E-06
C:/temp/dataset/4/22_3.odb,Step-1,Increment      1: Step Time =    1.000,"PART-1-1",            50,          -7.5,           -5.,            0.,NA,NA,"",       4.69572,       3.15607,       3.47692,   37.3242E-06
C:/temp/dataset/4/22_3.odb,Step-1,Increment      1: Step Time =    1.000,"PART-1-1",            51,          -2.5,           -5.,            0.,NA,NA,"",       3.89071,       3.04288,       2.42457,   620.219E-06
C:/temp/dataset/4/22_3.odb,Step-1,Increment      1: Step Time =    1.000,"PART-1-1",            52,           2.5,           -5.,            0.,NA,NA,"",       3.22365,       2.92170,       1.36220,   5.74901E-03
C:/temp/dataset/4/22_3.odb,Step-1,Increment      1: Step Time =    1.000,"PART-1-1",            53,            5.,      -7.08333,            0.,NA,NA,"",       2.57414,       2.46242,   750.109E-03,   34.8681E-03
C:/temp/dataset/4/22_3.odb,Step-1,Increment      1: Step Time =    1.000,"PART-1-1",            54,            5.,      -9.16667,            0.,NA,NA,"",       2.20828,       2.08668,   722.687E-03,   33.6731E-03
C:/temp/dataset/4/22_3.odb,Step-1,Increment      1: Step Time =    1.000,"PART-1-1",            55,            5.,      -13.3333,            0.,NA,NA,"",       1.54726,       1.40797,   641.598E-03,   38.3345E-03
C:/temp/dataset/4/22_3.odb,Step-1,Increment      1: Step Time =    1.000,"PART-1-1",            56,            5.,      -15.4167,            0.,NA,NA,"",       1.25768,       1.11177,   587.990E-03,   40.7648E-03
C:/temp/dataset/4/22_3.odb,Step-1,Increment      1: Step Time =    1.000,"PART-1-1",            57,            5.,      -19.5833,            0.,NA,NA,"",   766.741E-03,   617.109E-03,   455.048E-03,   45.5174E-03
C:/temp/dataset/4/22_3.odb,Step-1,Increment      1: Step Time =    1.000,"PART-1-1",            58,            5.,      -21.6667,            0.,NA,NA,"",   566.204E-03,   422.911E-03,   376.475E-03,   47.7815E-03
C:/temp/dataset/4/22_3.odb,Step-1,Increment      1: Step Time =    1.000,"PART-1-1",            59,            5.,      -25.8333,            0.,NA,NA,"",   249.234E-03,   150.300E-03,   198.816E-03,   51.0842E-03
C:/temp/dataset/4/22_3.odb,Step-1,Increment      1: Step Time =    1.000,"PART-1-1",            60,            5.,      -27.9167,            0.,NA,NA,"",   126.233E-03,   72.0078E-03,   103.681E-03,   55.6580E-03
C:/temp/dataset/4/22_3.odb,Step-1,Increment      1: Step Time =    1.000,"PART-1-1",            61,           7.5,          -30.,            0.,NA,NA,"",            0.,   2.18843E-39,   67.4589E-39,   20.2873E-03
C:/temp/dataset/4/22_3.odb,Step-1,Increment      1: Step Time =    1.000,"PART-1-1",            62,           10.,          -30.,            0.,NA,NA,"",            0.,  -11.8193E-39,  -787.894E-42,   6.94042E-03
C:/temp/dataset/4/22_3.odb,Step-1,Increment      1: Step Time =    1.000,"PART-1-1",            63,          12.5,          -30.,            0.,NA,NA,"",            0.,   24.8387E-39,  -58.7408E-39,   20.2902E-03
C:/temp/dataset/4/22_3.odb,Step-1,Increment      1: Step Time =    1.000,"PART-1-1",            64,           15.,         -27.5,            0.,NA,NA,"",   143.379E-03,   76.3920E-03,  -121.334E-03,   54.7991E-03
C:/temp/dataset/4/22_3.odb,Step-1,Increment      1: Step Time =    1.000,"PART-1-1",            65,           15.,          -25.,            0.,NA,NA,"",   295.731E-03,   174.406E-03,  -238.829E-03,   49.9082E-03
C:/temp/dataset/4/22_3.odb,Step-1,Increment      1: Step Time =    1.000,"PART-1-1",            66,           15.,          -20.,            0.,NA,NA,"",   705.932E-03,   528.899E-03,  -467.553E-03,   45.2989E-03
C:/temp/dataset/4/22_3.odb,Step-1,Increment      1: Step Time =    1.000,"PART-1-1",            67,           15.,         -17.5,            0.,NA,NA,"",   973.075E-03,   781.662E-03,  -579.551E-03,   42.5983E-03
C:/temp/dataset/4/22_3.odb,Step-1,Increment      1: Step Time =    1.000,"PART-1-1",            68,           15.,         -12.5,            0.,NA,NA,"",       1.63465,       1.42453,  -801.746E-03,   37.1080E-03
C:/temp/dataset/4/22_3.odb,Step-1,Increment      1: Step Time =    1.000,"PART-1-1",            69,           15.,          -10.,            0.,NA,NA,"",       2.02649,       1.80936,  -912.630E-03,   34.1943E-03
C:/temp/dataset/4/22_3.odb,Step-1,Increment      1: Step Time =    1.000,"PART-1-1",            70,           15.,           -5.,            0.,NA,NA,"",       2.91998,       2.69207,      -1.13095,   26.4389E-03
C:/temp/dataset/4/22_3.odb,Step-1,Increment      1: Step Time =    1.000,"PART-1-1",            71,           15.,          -2.5,            0.,NA,NA,"",       3.41196,       3.18080,      -1.23449,   21.9203E-03
C:/temp/dataset/4/22_3.odb,Step-1,Increment      1: Step Time =    1.000,"PART-1-1",            72,           15.,           2.5,            0.,NA,NA,"",       4.45565,       4.22012,      -1.42949,   16.6088E-03
C:/temp/dataset/4/22_3.odb,Step-1,Increment      1: Step Time =    1.000,"PART-1-1",            73,           15.,            5.,            0.,NA,NA,"",       5.00271,       4.76414,      -1.52644,   15.5562E-03
C:/temp/dataset/4/22_3.odb,Step-1,Increment      1: Step Time =    1.000,"PART-1-1",            74,           15.,           10.,            0.,NA,NA,"",       6.14940,       5.90320,      -1.72258,   11.8306E-03
C:/temp/dataset/4/22_3.odb,Step-1,Increment      1: Step Time =    1.000,"PART-1-1",            75,           15.,          12.5,            0.,NA,NA,"",       6.74577,       6.49614,      -1.81813,   9.02386E-03
C:/temp/dataset/4/22_3.odb,Step-1,Increment      1: Step Time =    1.000,"PART-1-1",            76,           15.,          17.5,            0.,NA,NA,"",       7.96671,       7.71245,      -1.99663,   3.32032E-03
C:/temp/dataset/4/22_3.odb,Step-1,Increment      1: Step Time =    1.000,"PART-1-1",            77,           15.,           20.,            0.,NA,NA,"",       8.58329,       8.32781,      -2.07858,   1.20856E-03
C:/temp/dataset/4/22_3.odb,Step-1,Increment      1: Step Time =    1.000,"PART-1-1",            78,           15.,           25.,            0.,NA,NA,"",       9.81473,       9.55735,      -2.23296,   230.127E-06
C:/temp/dataset/4/22_3.odb,Step-1,Increment      1: Step Time =    1.000,"PART-1-1",            79,           15.,          27.5,            0.,NA,NA,"",       10.4288,       10.1701,      -2.30876,   108.966E-06
C:/temp/dataset/4/22_3.odb,Step-1,Increment      1: Step Time =    1.000,"PART-1-1",            80,          12.5,           30.,            0.,NA,NA,"",       11.0021,       10.8584,      -1.77244,   107.347E-06
C:/temp/dataset/4/22_3.odb,Step-1,Increment      1: Step Time =    1.000,"PART-1-1",            81,           10.,           30.,            0.,NA,NA,"",       10.9955,       10.9342,      -1.16024,   227.964E-06
C:/temp/dataset/4/22_3.odb,Step-1,Increment      1: Step Time =    1.000,"PART-1-1",            82,           7.5,           30.,            0.,NA,NA,"",       11.0233,       11.0096,  -548.746E-03,   142.355E-06
C:/temp/dataset/4/22_3.odb,Step-1,Increment      1: Step Time =    1.000,"PART-1-1",            83,            5.,       27.9167,            0.,NA,NA,"",       10.5768,       10.5760,   125.338E-03,   155.238E-06
C:/temp/dataset/4/22_3.odb,Step-1,Increment      1: Step Time =    1.000,"PART-1-1",            84,            5.,       25.8333,            0.,NA,NA,"",       10.0688,       10.0670,   188.021E-03,   648.239E-06
C:/temp/dataset/4/22_3.odb,Step-1,Increment      1: Step Time =    1.000,"PART-1-1",            85,            5.,       21.6667,            0.,NA,NA,"",       9.05913,       9.05376,   311.659E-03,   2.95308E-03
C:/temp/dataset/4/22_3.odb,Step-1,Increment      1: Step Time =    1.000,"PART-1-1",            86,            5.,       19.5833,            0.,NA,NA,"",       8.54797,       8.53979,   373.920E-03,   3.38130E-03
C:/temp/dataset/4/22_3.odb,Step-1,Increment      1: Step Time =    1.000,"PART-1-1",            87,            5.,       15.4167,            0.,NA,NA,"",       7.51571,       7.49968,   490.736E-03,   6.33708E-03
C:/temp/dataset/4/22_3.odb,Step-1,Increment      1: Step Time =    1.000,"PART-1-1",            88,            5.,       13.3333,            0.,NA,NA,"",       7.00723,       6.98633,   540.814E-03,   8.39218E-03
C:/temp/dataset/4/22_3.odb,Step-1,Increment      1: Step Time =    1.000,"PART-1-1",            89,            5.,       9.16667,            0.,NA,NA,"",       6.00991,       5.97748,   623.570E-03,   12.9677E-03
C:/temp/dataset/4/22_3.odb,Step-1,Increment      1: Step Time =    1.000,"PART-1-1",            90,            5.,       7.08333,            0.,NA,NA,"",       5.52190,       5.48276,   656.342E-03,   17.0151E-03
C:/temp/dataset/4/22_3.odb,Step-1,Increment      1: Step Time =    1.000,"PART-1-1",            91,           2.5,            5.,            0.,NA,NA,"",       5.16373,       5.03162,       1.16056,   4.68086E-03
C:/temp/dataset/4/22_3.odb,Step-1,Increment      1: Step Time =    1.000,"PART-1-1",            92,          -2.5,            5.,            0.,NA,NA,"",       5.59845,       5.14804,       2.20006,   629.773E-06
C:/temp/dataset/4/22_3.odb,Step-1,Increment      1: Step Time =    1.000,"PART-1-1",            93,           -5.,       7.08333,            0.,NA,NA,"",       6.24756,       5.64384,       2.67938,   32.1853E-06
C:/temp/dataset/4/22_3.odb,Step-1,Increment      1: Step Time =    1.000,"PART-1-1",            94,           -5.,       9.16667,            0.,NA,NA,"",       6.62782,       6.08251,       2.63269,   9.27572E-06
C:/temp/dataset/4/22_3.odb,Step-1,Increment      1: Step Time =    1.000,"PART-1-1",            95,           -5.,       13.3333,            0.,NA,NA,"",       7.40858,       6.95981,       2.53930,   769.639E-09
C:/temp/dataset/4/22_3.odb,Step-1,Increment      1: Step Time =    1.000,"PART-1-1",            96,           -5.,       15.4167,            0.,NA,NA,"",       7.80707,       7.39846,       2.49260,   157.420E-09
C:/temp/dataset/4/22_3.odb,Step-1,Increment      1: Step Time =    1.000,"PART-1-1",            97,           -5.,       19.5833,            0.,NA,NA,"",       8.61651,       8.27576,       2.39919,   64.0433E-09
C:/temp/dataset/4/22_3.odb,Step-1,Increment      1: Step Time =    1.000,"PART-1-1",            98,           -5.,       21.6667,            0.,NA,NA,"",       9.02636,       8.71441,       2.35249,   67.5559E-09
C:/temp/dataset/4/22_3.odb,Step-1,Increment      1: Step Time =    1.000,"PART-1-1",            99,           -5.,       25.8333,            0.,NA,NA,"",       9.85415,       9.59171,       2.25908,   76.9194E-09
C:/temp/dataset/4/22_3.odb,Step-1,Increment      1: Step Time =    1.000,"PART-1-1",           100,           -5.,       27.9167,            0.,NA,NA,"",       10.2714,       10.0304,       2.21238,   78.5495E-09
C:/temp/dataset/4/22_3.odb,Step-1,Increment      1: Step Time =    1.000,"PART-1-1",           101,       6.93475,       11.1046,            0.,NA,NA,"",       6.38212,       6.38079,   130.413E-03,   7.33908E-03
C:/temp/dataset/4/22_3.odb,Step-1,Increment      1: Step Time =    1.000,"PART-1-1",           102,       7.10183,      -21.7370,            0.,NA,NA,"",   431.097E-03,   375.142E-03,   212.398E-03,   28.5157E-03
C:/temp/dataset/4/22_3.odb,Step-1,Increment      1: Step Time =    1.000,"PART-1-1",           103,      -7.18606,       25.6133,            0.,NA,NA,"",       9.97367,       9.59439,       2.72429,   76.2422E-09
C:/temp/dataset/4/22_3.odb,Step-1,Increment      1: Step Time =    1.000,"PART-1-1",           104,       7.08931,      -17.4629,            0.,NA,NA,"",   859.241E-03,   806.905E-03,   295.296E-03,   25.7091E-03
C:/temp/dataset/4/22_3.odb,Step-1,Increment      1: Step Time =    1.000,"PART-1-1",           105,       7.11844,      -23.8299,            0.,NA,NA,"",   273.974E-03,   220.557E-03,   162.531E-03,   29.7503E-03
C:/temp/dataset/4/22_3.odb,Step-1,Increment      1: Step Time =    1.000,"PART-1-1",           106,       7.34845,      -27.9642,            0.,NA,NA,"",   57.1010E-03,   30.9940E-03,   47.9572E-03,   30.7125E-03
C:/temp/dataset/4/22_3.odb,Step-1,Increment      1: Step Time =    1.000,"PART-1-1",           107,       7.18399,      -25.9216,            0.,NA,NA,"",   148.498E-03,   104.814E-03,   105.194E-03,   31.5301E-03
C:/temp/dataset/4/22_3.odb,Step-1,Increment      1: Step Time =    1.000,"PART-1-1",           108,       7.00226,      -10.9532,            0.,NA,NA,"",       1.77330,       1.73215,   379.819E-03,   21.8502E-03
C:/temp/dataset/4/22_3.odb,Step-1,Increment      1: Step Time =    1.000,"PART-1-1",           109,       6.93148,       25.8450,            0.,NA,NA,"",       10.0152,       10.0112,  -283.609E-03,   298.222E-06
C:/temp/dataset/4/22_3.odb,Step-1,Increment      1: Step Time =    1.000,"PART-1-1",           110,       6.95256,       21.7727,            0.,NA,NA,"",       9.01735,       9.01578,  -168.362E-03,   3.22239E-03
C:/temp/dataset/4/22_3.odb,Step-1,Increment      1: Step Time =    1.000,"PART-1-1",           111,       6.99069,       19.6693,            0.,NA,NA,"",       8.49527,       8.49447,  -116.605E-03,   4.25701E-03
C:/temp/dataset/4/22_3.odb,Step-1,Increment      1: Step Time =    1.000,"PART-1-1",           112,       6.98342,       13.2435,            0.,NA,NA,"",       6.90026,       6.89994,   66.0114E-03,   5.90420E-03
C:/temp/dataset/4/22_3.odb,Step-1,Increment      1: Step Time =    1.000,"PART-1-1",           113,       6.84904,       8.98858,            0.,NA,NA,"",       5.87872,       5.87541,   197.422E-03,   9.32807E-03
C:/temp/dataset/4/22_3.odb,Step-1,Increment      1: Step Time =    1.000,"PART-1-1",           114,      -7.00061,       11.3966,            0.,NA,NA,"",       7.24863,       6.59689,       3.00394,   2.21457E-06
C:/temp/dataset/4/22_3.odb,Step-1,Increment      1: Step Time =    1.000,"PART-1-1",           115,      -6.87185,       17.5946,            0.,NA,NA,"",       8.39330,       7.89898,       2.83790,   121.548E-09
C:/temp/dataset/4/22_3.odb,Step-1,Increment      1: Step Time =    1.000,"PART-1-1",           116,      -6.78696,       21.5686,            0.,NA,NA,"",       9.15083,       8.73383,       2.73093,   75.4811E-09
C:/temp/dataset/4/22_3.odb,Step-1,Increment      1: Step Time =    1.000,"PART-1-1",           117,      -6.92081,       23.5666,            0.,NA,NA,"",       9.55131,       9.15751,       2.71433,   75.5627E-09
C:/temp/dataset/4/22_3.odb,Step-1,Increment      1: Step Time =    1.000,"PART-1-1",           118,      -7.47694,       27.7553,            0.,NA,NA,"",       10.4180,       10.0519,       2.73752,   76.4711E-09
C:/temp/dataset/4/22_3.odb,Step-1,Increment      1: Step Time =    1.000,"PART-1-1",           119,       6.62973,      -6.72562,            0.,NA,NA,"",       2.52701,       2.48518,   457.876E-03,   20.6969E-03
C:/temp/dataset/4/22_3.odb,Step-1,Increment      1: Step Time =    1.000,"PART-1-1",           120,       7.00244,       17.5390,            0.,NA,NA,"",       7.96325,       7.96304,  -57.6638E-03,   5.16390E-03
C:/temp/dataset/4/22_3.odb,Step-1,Increment      1: Step Time =    1.000,"PART-1-1",           121,       7.05765,      -13.1226,            0.,NA,NA,"",       1.43519,       1.39066,   354.736E-03,   23.0257E-03
C:/temp/dataset/4/22_3.odb,Step-1,Increment      1: Step Time =    1.000,"PART-1-1",           122,      -6.97858,       13.4860,            0.,NA,NA,"",       7.63064,       7.03631,       2.95247,   887.058E-09
C:/temp/dataset/4/22_3.odb,Step-1,Increment      1: Step Time =    1.000,"PART-1-1",           123,      -7.06135,       7.11796,            0.,NA,NA,"",       6.49220,       5.69737,       3.11265,   16.1953E-06
C:/temp/dataset/4/22_3.odb,Step-1,Increment      1: Step Time =    1.000,"PART-1-1",           124,       6.87626,      -8.81940,            0.,NA,NA,"",       2.13800,       2.09812,   410.997E-03,   21.4169E-03
C:/temp/dataset/4/22_3.odb,Step-1,Increment      1: Step Time =    1.000,"PART-1-1",           125,       7.08495,      -15.2974,            0.,NA,NA,"",       1.12920,       1.08083,   326.976E-03,   24.2796E-03
C:/temp/dataset/4/22_3.odb,Step-1,Increment      1: Step Time =    1.000,"PART-1-1",           126,       7.00715,       15.3887,            0.,NA,NA,"",       7.42759,       7.42759,   2.66426E-03,   4.69745E-03
C:/temp/dataset/4/22_3.odb,Step-1,Increment      1: Step Time =    1.000,"PART-1-1",           127,      -7.01992,       9.30136,            0.,NA,NA,"",       6.87250,       6.15616,       3.05498,   4.84892E-06
C:/temp/dataset/4/22_3.odb,Step-1,Increment      1: Step Time =    1.000,"PART-1-1",           128,      -6.93369,       15.5639,            0.,NA,NA,"",       8.01451,       7.47282,       2.89644,   328.437E-09
C:/temp/dataset/4/22_3.odb,Step-1,Increment      1: Step Time =    1.000,"PART-1-1",           129,      -6.79206,       19.5889,            0.,NA,NA,"",       8.76827,       8.31711,       2.77639,   79.6340E-09
C:/temp/dataset/4/22_3.odb,Step-1,Increment      1: Step Time =    1.000,"PART-1-1",           130,       7.09662,      -19.6136,            0.,NA,NA,"",   625.867E-03,   570.819E-03,   256.662E-03,   27.0932E-03
C:/temp/dataset/4/22_3.odb,Step-1,Increment      1: Step Time =    1.000,"PART-1-1",           131,       6.89670,       23.8203,            0.,NA,NA,"",       9.52109,       9.51867,  -214.516E-03,   1.64986E-03
C:/temp/dataset/4/22_3.odb,Step-1,Increment      1: Step Time =    1.000,"PART-1-1",           132,       6.67676,       6.98748,            0.,NA,NA,"",       5.41501,       5.40792,   276.971E-03,   12.4017E-03
C:/temp/dataset/4/22_3.odb,Step-1,Increment      1: Step Time =    1.000,"PART-1-1",           133,      -13.0361,       12.2042,            0.,NA,NA,"",       8.10922,       6.90221,       4.25663,   1.28205E-06
C:/temp/dataset/4/22_3.odb,Step-1,Increment      1: Step Time =    1.000,"PART-1-1",           134,      -13.0483,       3.72302,            0.,NA,NA,"",       6.78070,       5.11681,       4.44930,   3.60006E-06
C:/temp/dataset/4/22_3.odb,Step-1,Increment      1: Step Time =    1.000,"PART-1-1",           135,      -13.0740,       10.0823,            0.,NA,NA,"",       7.76394,       6.45630,       4.31218,   2.36640E-06
C:/temp/dataset/4/22_3.odb,Step-1,Increment      1: Step Time =    1.000,"PART-1-1",           136,      -13.0017,       14.3509,            0.,NA,NA,"",       8.46897,       7.35343,       4.20125,   553.001E-09
C:/temp/dataset/4/22_3.odb,Step-1,Increment      1: Step Time =    1.000,"PART-1-1",           137,      -12.4480,       21.2307,            0.,NA,NA,"",       9.62835,       8.78958,       3.93045,   75.4083E-09
C:/temp/dataset/4/22_3.odb,Step-1,Increment      1: Step Time =    1.000,"PART-1-1",           138,      -13.0426,       25.7965,            0.,NA,NA,"",       10.5342,       9.76425,       3.95329,   74.3493E-09
C:/temp/dataset/4/22_3.odb,Step-1,Increment      1: Step Time =    1.000,"PART-1-1",           139,      -12.9478,       23.6552,            0.,NA,NA,"",       10.1267,       9.31126,       3.98133,   72.8247E-09
C:/temp/dataset/4/22_3.odb,Step-1,Increment      1: Step Time =    1.000,"PART-1-1",           140,      -12.8307,       18.7376,            0.,NA,NA,"",       9.21879,       8.27323,       4.06691,   86.5576E-09
C:/temp/dataset/4/22_3.odb,Step-1,Increment      1: Step Time =    1.000,"PART-1-1",           141,      -12.9472,       16.5227,            0.,NA,NA,"",       8.83951,       7.80949,       4.14110,   195.253E-09
C:/temp/dataset/4/22_3.odb,Step-1,Increment      1: Step Time =    1.000,"PART-1-1",           142,      -13.1112,       7.97345,            0.,NA,NA,"",       7.43172,       6.01311,       4.36727,   2.61125E-06
C:/temp/dataset/4/22_3.odb,Step-1,Increment      1: Step Time =    1.000,"PART-1-1",           143,      -13.1276,       5.86243,            0.,NA,NA,"",       7.10866,       5.56901,       4.41805,   1.65291E-06
C:/temp/dataset/4/22_3.odb,Step-1,Increment      1: Step Time =    1.000,"PART-1-1",           144,      -12.8109,       1.56310,            0.,NA,NA,"",       6.43955,       4.65676,       4.44774,   6.54958E-06
C:/temp/dataset/4/22_3.odb,Step-1,Increment      1: Step Time =    1.000,"PART-1-1",           145,      -12.5511,  -622.366E-03,            0.,NA,NA,"",       6.10696,       4.19085,       4.44204,   5.65655E-06
C:/temp/dataset/4/22_3.odb,Step-1,Increment      1: Step Time =    1.000,"PART-1-1",           146,      -7.69124,      -3.05836,            0.,NA,NA,"",       4.98047,       3.56913,       3.47367,   78.4529E-06
C:/temp/dataset/4/22_3.odb,Step-1,Increment      1: Step Time =    1.000,"PART-1-1",           147,      -2.59391,      -3.27074,            0.,NA,NA,"",       4.17317,       3.40996,       2.40573,   472.020E-06
C:/temp/dataset/4/22_3.odb,Step-1,Increment      1: Step Time =    1.000,"PART-1-1",           148,      -2.06699,       2.95135,            0.,NA,NA,"",       5.17757,       4.70811,       2.15429,   484.935E-06
C:/temp/dataset/4/22_3.odb,Step-1,Increment      1: Step Time =    1.000,"PART-1-1",           149,       1.86882,      -3.06513,            0.,NA,NA,"",       3.65403,       3.35126,       1.45635,   3.57998E-03
C:/temp/dataset/4/22_3.odb,Step-1,Increment      1: Step Time =    1.000,"PART-1-1",           150,       2.79073,       3.02834,            0.,NA,NA,"",       4.75505,       4.61650,       1.13947,   5.38390E-03
C:/temp/dataset/4/22_3.odb,Step-1,Increment      1: Step Time =    1.000,"PART-1-1",           151,       12.5379,       2.72923,            0.,NA,NA,"",       4.40741,       4.31429,  -901.203E-03,   9.08750E-03
C:/temp/dataset/4/22_3.odb,Step-1,Increment      1: Step Time =    1.000,"PART-1-1",           152,       12.9313,       10.2835,            0.,NA,NA,"",       6.14687,       6.01958,      -1.24447,   7.45872E-03
C:/temp/dataset/4/22_3.odb,Step-1,Increment      1: Step Time =    1.000,"PART-1-1",           153,       12.7723,       24.8557,            0.,NA,NA,"",       9.73655,       9.59009,      -1.68243,   179.165E-06
C:/temp/dataset/4/22_3.odb,Step-1,Increment      1: Step Time =    1.000,"PART-1-1",           154,       12.5268,       27.4001,            0.,NA,NA,"",       10.3614,       10.2210,      -1.69980,   141.777E-06
C:/temp/dataset/4/22_3.odb,Step-1,Increment      1: Step Time =    1.000,"PART-1-1",           155,       12.7627,      -5.01238,            0.,NA,NA,"",       2.79905,       2.71024,  -699.459E-03,   15.9708E-03
C:/temp/dataset/4/22_3.odb,Step-1,Increment      1: Step Time =    1.000,"PART-1-1",           156,       13.0118,      -12.5921,            0.,NA,NA,"",       1.49267,       1.40660,  -499.533E-03,   22.3017E-03
C:/temp/dataset/4/22_3.odb,Step-1,Increment      1: Step Time =    1.000,"PART-1-1",           157,       9.69976,      -27.8547,            0.,NA,NA,"",   16.4970E-03,   15.2655E-03,   6.25419E-03,   7.04864E-03
C:/temp/dataset/4/22_3.odb,Step-1,Increment      1: Step Time =    1.000,"PART-1-1",           158,       13.0855,      -17.4497,            0.,NA,NA,"",   850.706E-03,   770.018E-03,  -361.623E-03,   26.0265E-03
C:/temp/dataset/4/22_3.odb,Step-1,Increment      1: Step Time =    1.000,"PART-1-1",           159,       12.9366,       22.3763,            0.,NA,NA,"",       9.12567,       8.97590,      -1.64655,   930.542E-06
C:/temp/dataset/4/22_3.odb,Step-1,Increment      1: Step Time =    1.000,"PART-1-1",           160,       13.0248,       17.5365,            0.,NA,NA,"",       7.92510,       7.77912,      -1.51408,   3.54399E-03
C:/temp/dataset/4/22_3.odb,Step-1,Increment      1: Step Time =    1.000,"PART-1-1",           161,      -10.1545,       27.3700,            0.,NA,NA,"",       10.5628,       10.0308,       3.30993,   75.7169E-09
C:/temp/dataset/4/22_3.odb,Step-1,Increment      1: Step Time =    1.000,"PART-1-1",           162,      -10.0546,      -2.87755,            0.,NA,NA,"",       5.39760,       3.66014,       3.96704,   23.0751E-06
C:/temp/dataset/4/22_3.odb,Step-1,Increment      1: Step Time =    1.000,"PART-1-1",           163,      -5.07747,      -2.66322,            0.,NA,NA,"",       4.62726,       3.59386,       2.91474,   248.502E-06
C:/temp/dataset/4/22_3.odb,Step-1,Increment      1: Step Time =    1.000,"PART-1-1",           164,  -330.659E-03,      -3.26262,            0.,NA,NA,"",       3.87456,       3.36078,       1.92805,   789.275E-06
C:/temp/dataset/4/22_3.odb,Step-1,Increment      1: Step Time =    1.000,"PART-1-1",           165,       3.93161,      -2.75002,            0.,NA,NA,"",       3.51353,       3.36725,       1.00324,   9.62846E-03
C:/temp/dataset/4/22_3.odb,Step-1,Increment      1: Step Time =    1.000,"PART-1-1",           166,       12.9585,      -10.1304,            0.,NA,NA,"",       1.87907,       1.79098,  -568.595E-03,   20.4069E-03
C:/temp/dataset/4/22_3.odb,Step-1,Increment      1: Step Time =    1.000,"PART-1-1",           167,       13.1106,      -19.8561,            0.,NA,NA,"",   596.340E-03,   519.440E-03,  -292.921E-03,   27.8551E-03
C:/temp/dataset/4/22_3.odb,Step-1,Increment      1: Step Time =    1.000,"PART-1-1",           168,       12.2637,      -27.1930,            0.,NA,NA,"",   70.1321E-03,   43.4888E-03,  -55.0203E-03,   25.0693E-03
C:/temp/dataset/4/22_3.odb,Step-1,Increment      1: Step Time =    1.000,"PART-1-1",           169,       13.0974,      -22.2394,            0.,NA,NA,"",   386.896E-03,   316.699E-03,  -222.238E-03,   29.2311E-03
C:/temp/dataset/4/22_3.odb,Step-1,Increment      1: Step Time =    1.000,"PART-1-1",           170,       13.0625,      -15.0302,            0.,NA,NA,"",       1.15018,       1.06610,  -431.672E-03,   24.2635E-03
C:/temp/dataset/4/22_3.odb,Step-1,Increment      1: Step Time =    1.000,"PART-1-1",           171,       12.8638,      -7.61343,            0.,NA,NA,"",       2.31237,       2.22395,  -633.316E-03,   18.2939E-03
C:/temp/dataset/4/22_3.odb,Step-1,Increment      1: Step Time =    1.000,"PART-1-1",           172,       12.8109,      -2.41519,            0.,NA,NA,"",       3.32227,       3.22609,  -793.602E-03,   13.6668E-03
C:/temp/dataset/4/22_3.odb,Step-1,Increment      1: Step Time =    1.000,"PART-1-1",           173,       12.7001,   168.481E-03,            0.,NA,NA,"",       3.85962,       3.76391,  -854.231E-03,   10.8801E-03
C:/temp/dataset/4/22_3.odb,Step-1,Increment      1: Step Time =    1.000,"PART-1-1",           174,       12.6773,       5.28127,            0.,NA,NA,"",       4.97743,       4.87280,      -1.01517,   8.83376E-03
C:/temp/dataset/4/22_3.odb,Step-1,Increment      1: Step Time =    1.000,"PART-1-1",           175,       12.8405,       7.80961,            0.,NA,NA,"",       5.56090,       5.44325,      -1.13781,   8.44125E-03
C:/temp/dataset/4/22_3.odb,Step-1,Increment      1: Step Time =    1.000,"PART-1-1",           176,       12.9955,       12.7023,            0.,NA,NA,"",       6.73238,       6.59696,      -1.34350,   6.25890E-03
C:/temp/dataset/4/22_3.odb,Step-1,Increment      1: Step Time =    1.000,"PART-1-1",           177,       13.0102,       19.9477,            0.,NA,NA,"",       8.52417,       8.37486,      -1.58845,   2.13807E-03
C:/temp/dataset/4/22_3.odb,Step-1,Increment      1: Step Time =    1.000,"PART-1-1",           178,       9.88408,       27.1269,            0.,NA,NA,"",       10.2879,       10.2347,      -1.04439,   90.4953E-06
C:/temp/dataset/4/22_3.odb,Step-1,Increment      1: Step Time =    1.000,"PART-1-1",           179,       13.0301,       15.1161,            0.,NA,NA,"",       7.32547,       7.18365,      -1.43449,   4.93944E-03
C:/temp/dataset/4/22_3.odb,Step-1,Increment      1: Step Time =    1.000,"PART-1-1",           180,   300.490E-03,       3.00528,            0.,NA,NA,"",       4.95208,       4.66687,       1.65631,   717.496E-06
C:/temp/dataset/4/22_3.odb,Step-1,Increment      1: Step Time =    1.000,"PART-1-1",           181,      -4.18418,       2.89078,            0.,NA,NA,"",       5.40945,       4.74289,       2.60137,   307.476E-06
C:/temp/dataset/4/22_3.odb,Step-1,Increment      1: Step Time =    1.000,"PART-1-1",           182,      -8.75093,       23.2164,            0.,NA,NA,"",       9.63942,       9.12479,       3.10751,   77.8747E-09
C:/temp/dataset/4/22_3.odb,Step-1,Increment      1: Step Time =    1.000,"PART-1-1",           183,       9.13120,      -23.8882,            0.,NA,NA,"",   200.604E-03,   194.634E-03,   48.5756E-03,   11.1091E-03
C:/temp/dataset/4/22_3.odb,Step-1,Increment      1: Step Time =    1.000,"PART-1-1",           184,       8.76025,       8.63504,            0.,NA,NA,"",       5.74136,       5.73669,  -231.590E-03,   5.71499E-03
C:/temp/dataset/4/22_3.odb,Step-1,Increment      1: Step Time =    1.000,"PART-1-1",           185,       8.81891,       23.9948,            0.,NA,NA,"",       9.52592,       9.50096,  -689.218E-03,   1.04449E-03
C:/temp/dataset/4/22_3.odb,Step-1,Increment      1: Step Time =    1.000,"PART-1-1",           186,       9.00734,       17.5557,            0.,NA,NA,"",       7.92255,       7.90389,  -543.351E-03,   4.86651E-03
C:/temp/dataset/4/22_3.odb,Step-1,Increment      1: Step Time =    1.000,"PART-1-1",           187,      -8.59230,       19.6811,            0.,NA,NA,"",       8.95075,       8.37688,       3.15336,   91.1686E-09
C:/temp/dataset/4/22_3.odb,Step-1,Increment      1: Step Time =    1.000,"PART-1-1",           188,       9.06266,      -12.9142,            0.,NA,NA,"",       1.38957,       1.38763,   73.2548E-03,   8.99191E-03
C:/temp/dataset/4/22_3.odb,Step-1,Increment      1: Step Time =    1.000,"PART-1-1",           189,       9.13987,      -19.6571,            0.,NA,NA,"",   544.939E-03,   540.603E-03,   68.6089E-03,   9.88154E-03
C:/temp/dataset/4/22_3.odb,Step-1,Increment      1: Step Time =    1.000,"PART-1-1",           190,       9.00941,       15.3265,            0.,NA,NA,"",       7.36647,       7.35102,  -476.864E-03,   5.05707E-03
C:/temp/dataset/4/22_3.odb,Step-1,Increment      1: Step Time =    1.000,"PART-1-1",           191,      -8.96967,       13.7142,            0.,NA,NA,"",       7.88393,       7.12898,       3.36658,   913.300E-09
C:/temp/dataset/4/22_3.odb,Step-1,Increment      1: Step Time =    1.000,"PART-1-1",           192,       9.12973,      -17.4386,            0.,NA,NA,"",   784.780E-03,   781.348E-03,   73.3100E-03,   9.51060E-03
C:/temp/dataset/4/22_3.odb,Step-1,Increment      1: Step Time =    1.000,"PART-1-1",           193,       8.94484,       21.9321,            0.,NA,NA,"",       9.01455,       8.99046,  -658.654E-03,   2.36948E-03
C:/temp/dataset/4/22_3.odb,Step-1,Increment      1: Step Time =    1.000,"PART-1-1",           194,      -8.78258,       17.8115,            0.,NA,NA,"",       8.61785,       7.98749,       3.23534,   141.152E-09
C:/temp/dataset/4/22_3.odb,Step-1,Increment      1: Step Time =    1.000,"PART-1-1",           195,       8.90333,       10.8666,            0.,NA,NA,"",       6.27337,       6.26501,  -323.795E-03,   5.35773E-03
C:/temp/dataset/4/22_3.odb,Step-1,Increment      1: Step Time =    1.000,"PART-1-1",           196,      -9.00437,       11.6266,            0.,NA,NA,"",       7.51400,       6.69022,       3.42069,   2.21703E-06
C:/temp/dataset/4/22_3.odb,Step-1,Increment      1: Step Time =    1.000,"PART-1-1",           197,      -9.03622,       9.53759,            0.,NA,NA,"",       7.15167,       6.25109,       3.47423,   3.12687E-06
C:/temp/dataset/4/22_3.odb,Step-1,Increment      1: Step Time =    1.000,"PART-1-1",           198,       8.99264,      -10.6281,            0.,NA,NA,"",       1.74953,       1.74810,   70.7139E-03,   8.67765E-03
C:/temp/dataset/4/22_3.odb,Step-1,Increment      1: Step Time =    1.000,"PART-1-1",           199,       8.82192,      -8.34759,            0.,NA,NA,"",       2.14323,       2.14174,   79.9852E-03,   8.33857E-03
C:/temp/dataset/4/22_3.odb,Step-1,Increment      1: Step Time =    1.000,"PART-1-1",           200,       8.98411,       13.0928,            0.,NA,NA,"",       6.81479,       6.80273,  -405.283E-03,   5.06608E-03
C:/temp/dataset/4/22_3.odb,Step-1,Increment      1: Step Time =    1.000,"PART-1-1",           201,       7.30685,       27.8134,            0.,NA,NA,"",       10.4899,       10.4808,  -435.084E-03,   164.978E-06
C:/temp/dataset/4/22_3.odb,Step-1,Increment      1: Step Time =    1.000,"PART-1-1",           202,      -8.46063,       21.4565,            0.,NA,NA,"",       9.27607,       8.74774,       3.08584,   80.7440E-09
C:/temp/dataset/4/22_3.odb,Step-1,Increment      1: Step Time =    1.000,"PART-1-1",           203,       9.11250,      -15.1896,            0.,NA,NA,"",       1.06664,       1.06409,   73.7413E-03,   9.18023E-03
C:/temp/dataset/4/22_3.odb,Step-1,Increment      1: Step Time =    1.000,"PART-1-1",           204,       9.14200,      -21.8221,            0.,NA,NA,"",   349.512E-03,   344.317E-03,   60.0368E-03,   10.3796E-03
C:/temp/dataset/4/22_3.odb,Step-1,Increment      1: Step Time =    1.000,"PART-1-1",           205,      -8.90436,       15.8055,            0.,NA,NA,"",       8.25844,       7.56786,       3.30595,   367.703E-09
C:/temp/dataset/4/22_3.odb,Step-1,Increment      1: Step Time =    1.000,"PART-1-1",           206,       9.00445,       19.7587,            0.,NA,NA,"",       8.47315,       8.45126,  -608.636E-03,   3.86198E-03
C:/temp/dataset/4/22_3.odb,Step-1,Increment      1: Step Time =    1.000,"PART-1-1",           207,       8.39742,      -6.16188,            0.,NA,NA,"",       2.55651,       2.55312,   131.623E-03,   8.27556E-03
C:/temp/dataset/4/22_3.odb,Step-1,Increment      1: Step Time =    1.000,"PART-1-1",           208,      -9.10294,       7.45394,            0.,NA,NA,"",       6.80421,       5.81387,       3.53499,   5.09241E-06
C:/temp/dataset/4/22_3.odb,Step-1,Increment      1: Step Time =    1.000,"PART-1-1",           209,       8.43260,       6.43235,            0.,NA,NA,"",       5.23271,       5.23170,  -102.841E-03,   5.37983E-03
C:/temp/dataset/4/22_3.odb,Step-1,Increment      1: Step Time =    1.000,"PART-1-1",           210,       5.64784,       2.93298,            0.,NA,NA,"",       4.56253,       4.52782,   561.735E-03,   13.0559E-03
C:/temp/dataset/4/22_3.odb,Step-1,Increment      1: Step Time =    1.000,"PART-1-1",           211,      -10.7213,       1.88644,            0.,NA,NA,"",       6.15533,       4.67801,       4.00055,   22.7795E-06
C:/temp/dataset/4/22_3.odb,Step-1,Increment      1: Step Time =    1.000,"PART-1-1",           212,      -12.7178,       27.8380,            0.,NA,NA,"",       10.8862,       10.1868,       3.83915,   76.0351E-09
C:/temp/dataset/4/22_3.odb,Step-1,Increment      1: Step Time =    1.000,"PART-1-1",           213,      -11.0298,       24.2524,            0.,NA,NA,"",       10.0474,       9.39402,       3.56410,   76.1253E-09
C:/temp/dataset/4/22_3.odb,Step-1,Increment      1: Step Time =    1.000,"PART-1-1",           214,      -10.4500,       20.0822,            0.,NA,NA,"",       9.20871,       8.50297,       3.53551,   87.9203E-09
C:/temp/dataset/4/22_3.odb,Step-1,Increment      1: Step Time =    1.000,"PART-1-1",           215,      -10.9919,       14.0243,            0.,NA,NA,"",       8.16954,       7.23961,       3.78542,   816.181E-09
C:/temp/dataset/4/22_3.odb,Step-1,Increment      1: Step Time =    1.000,"PART-1-1",           216,      -11.0796,       9.82104,            0.,NA,NA,"",       7.45664,       6.35658,       3.89812,   2.98597E-06
C:/temp/dataset/4/22_3.odb,Step-1,Increment      1: Step Time =    1.000,"PART-1-1",           217,      -11.0365,       11.9204,            0.,NA,NA,"",       7.80824,       6.79765,       3.84196,   1.77650E-06
C:/temp/dataset/4/22_3.odb,Step-1,Increment      1: Step Time =    1.000,"PART-1-1",           218,      -10.5491,       22.5446,            0.,NA,NA,"",       9.67908,       9.02365,       3.50117,   78.5384E-09
C:/temp/dataset/4/22_3.odb,Step-1,Increment      1: Step Time =    1.000,"PART-1-1",           219,      -10.9277,       16.1478,            0.,NA,NA,"",       8.54013,       7.68528,       3.72429,   298.431E-09
C:/temp/dataset/4/22_3.odb,Step-1,Increment      1: Step Time =    1.000,"PART-1-1",           220,      -10.7891,       18.2216,            0.,NA,NA,"",       8.90099,       8.11882,       3.64862,   125.353E-09
C:/temp/dataset/4/22_3.odb,Step-1,Increment      1: Step Time =    1.000,"PART-1-1",           221,      -11.1555,       7.76515,            0.,NA,NA,"",       7.12695,       5.92541,       3.96017,   2.31934E-06
C:/temp/dataset/4/22_3.odb,Step-1,Increment      1: Step Time =    1.000,"PART-1-1",           222,      -9.80329,       4.04682,            0.,NA,NA,"",       6.34537,       5.11224,       3.75883,   18.4508E-06
C:/temp/dataset/4/22_3.odb,Step-1,Increment      1: Step Time =    1.000,"PART-1-1",           223,       9.22674,      -25.9093,            0.,NA,NA,"",   89.3859E-03,   84.3248E-03,   29.6507E-03,   10.5728E-03
C:/temp/dataset/4/22_3.odb,Step-1,Increment      1: Step Time =    1.000,"PART-1-1",           224,      -9.21421,       25.1107,            0.,NA,NA,"",       10.0449,       9.53404,       3.16259,   76.3379E-09
C:/temp/dataset/4/22_3.odb,Step-1,Increment      1: Step Time =    1.000,"PART-1-1",           225,       6.25241,      -4.60112,            0.,NA,NA,"",       2.95638,       2.90942,   524.860E-03,   16.1603E-03
C:/temp/dataset/4/22_3.odb,Step-1,Increment      1: Step Time =    1.000,"PART-1-1",           226,      -7.19550,       4.55405,            0.,NA,NA,"",       6.07128,       5.16052,       3.19836,   56.0312E-06
C:/temp/dataset/4/22_3.odb,Step-1,Increment      1: Step Time =    1.000,"PART-1-1",           227,       12.9551,      -24.6090,            0.,NA,NA,"",   216.983E-03,   161.110E-03,  -145.346E-03,   30.3055E-03
C:/temp/dataset/4/22_3.odb,Step-1,Increment      1: Step Time =    1.000,"PART-1-1",           228,       10.9241,       22.1645,            0.,NA,NA,"",       9.05862,       8.98556,      -1.14819,   1.60567E-03
C:/temp/dataset/4/22_3.odb,Step-1,Increment      1: Step Time =    1.000,"PART-1-1",           229,      -4.91288,   464.762E-03,            0.,NA,NA,"",       5.09380,       4.24898,       2.80944,   283.190E-06
C:/temp/dataset/4/22_3.odb,Step-1,Increment      1: Step Time =    1.000,"PART-1-1",           230,  -831.143E-03,      -1.35374,            0.,NA,NA,"",       4.26829,       3.77572,       1.99054,   548.704E-06
C:/temp/dataset/4/22_3.odb,Step-1,Increment      1: Step Time =    1.000,"PART-1-1",           231,       11.1616,      -19.7398,            0.,NA,NA,"",   535.843E-03,   523.278E-03,  -115.355E-03,   10.8215E-03
C:/temp/dataset/4/22_3.odb,Step-1,Increment      1: Step Time =    1.000,"PART-1-1",           232,       10.9730,      -10.3410,            0.,NA,NA,"",       1.78704,       1.77026,  -244.291E-03,   8.23624E-03
C:/temp/dataset/4/22_3.odb,Step-1,Increment      1: Step Time =    1.000,"PART-1-1",           233,       10.4844,      -5.04269,            0.,NA,NA,"",       2.74835,       2.73486,  -272.034E-03,   8.57088E-03
C:/temp/dataset/4/22_3.odb,Step-1,Increment      1: Step Time =    1.000,"PART-1-1",           234,       10.9074,       10.5689,            0.,NA,NA,"",       6.18849,       6.13896,  -781.373E-03,   5.28135E-03
C:/temp/dataset/4/22_3.odb,Step-1,Increment      1: Step Time =    1.000,"PART-1-1",           235,       11.0515,      -12.7377,            0.,NA,NA,"",       1.40903,       1.39310,  -211.252E-03,   8.81986E-03
C:/temp/dataset/4/22_3.odb,Step-1,Increment      1: Step Time =    1.000,"PART-1-1",           236,       10.9936,       12.8990,            0.,NA,NA,"",       6.75546,       6.69860,  -874.692E-03,   5.18353E-03
C:/temp/dataset/4/22_3.odb,Step-1,Increment      1: Step Time =    1.000,"PART-1-1",           237,      -9.84553,  -403.770E-03,            0.,NA,NA,"",       5.69202,       4.17626,       3.86755,   35.8143E-06
C:/temp/dataset/4/22_3.odb,Step-1,Increment      1: Step Time =    1.000,"PART-1-1",           238,      -6.42098,  -599.403E-03,            0.,NA,NA,"",       5.13814,       4.05853,       3.15100,   169.229E-06
C:/temp/dataset/4/22_3.odb,Step-1,Increment      1: Step Time =    1.000,"PART-1-1",           239,      -2.35214,      -1.85066,            0.,NA,NA,"",       4.37238,       3.70446,       2.32263,   430.976E-06
C:/temp/dataset/4/22_3.odb,Step-1,Increment      1: Step Time =    1.000,"PART-1-1",           240,       11.1625,      -21.9830,            0.,NA,NA,"",   336.492E-03,   325.191E-03,  -86.4739E-03,   11.3667E-03
C:/temp/dataset/4/22_3.odb,Step-1,Increment      1: Step Time =    1.000,"PART-1-1",           241,       11.1073,      -15.0998,            0.,NA,NA,"",       1.07438,       1.05947,  -178.423E-03,   9.53925E-03
C:/temp/dataset/4/22_3.odb,Step-1,Increment      1: Step Time =    1.000,"PART-1-1",           242,       11.1457,      -17.4375,            0.,NA,NA,"",   782.631E-03,   768.798E-03,  -146.497E-03,   10.2594E-03
C:/temp/dataset/4/22_3.odb,Step-1,Increment      1: Step Time =    1.000,"PART-1-1",           243,       10.8340,      -7.85693,            0.,NA,NA,"",       2.21708,       2.20028,  -272.380E-03,   8.24566E-03
C:/temp/dataset/4/22_3.odb,Step-1,Increment      1: Step Time =    1.000,"PART-1-1",           244,       10.5842,   120.255E-03,            0.,NA,NA,"",       3.81783,       3.79528,  -414.406E-03,   5.17294E-03
C:/temp/dataset/4/22_3.odb,Step-1,Increment      1: Step Time =    1.000,"PART-1-1",           245,       10.8633,      -2.34188,            0.,NA,NA,"",       3.29893,       3.27339,  -409.640E-03,   8.10894E-03
C:/temp/dataset/4/22_3.odb,Step-1,Increment      1: Step Time =    1.000,"PART-1-1",           246,       9.78574,       2.89226,            0.,NA,NA,"",       4.42093,       4.40982,  -313.208E-03,   2.20336E-03
C:/temp/dataset/4/22_3.odb,Step-1,Increment      1: Step Time =    1.000,"PART-1-1",           247,       10.7685,       8.18214,            0.,NA,NA,"",       5.61964,       5.57878,  -676.382E-03,   5.16679E-03
C:/temp/dataset/4/22_3.odb,Step-1,Increment      1: Step Time =    1.000,"PART-1-1",           248,       10.4587,       5.69287,            0.,NA,NA,"",       5.04293,       5.01461,  -533.710E-03,   4.11055E-03
C:/temp/dataset/4/22_3.odb,Step-1,Increment      1: Step Time =    1.000,"PART-1-1",           249,       11.0104,       19.8565,            0.,NA,NA,"",       8.48437,       8.41296,      -1.09848,   3.03000E-03
C:/temp/dataset/4/22_3.odb,Step-1,Increment      1: Step Time =    1.000,"PART-1-1",           250,       11.0363,       17.5467,            0.,NA,NA,"",       7.90786,       7.84016,      -1.03258,   4.25516E-03
C:/temp/dataset/4/22_3.odb,Step-1,Increment      1: Step Time =    1.000,"PART-1-1",           251,       11.0403,       15.2208,            0.,NA,NA,"",       7.32868,       7.26558,  -959.693E-03,   4.94180E-03
C:/temp/dataset/4/22_3.odb,Step-1,Increment      1: Step Time =    1.000,"PART-1-1",           252,       1.19009,      -1.06873,            0.,NA,NA,"",       4.09751,       3.79022,       1.55686,   1.83613E-03
C:/temp/dataset/4/22_3.odb,Step-1,Increment      1: Step Time =    1.000,"PART-1-1",           253,       10.6932,       24.5073,            0.,NA,NA,"",       9.63885,       9.56845,      -1.16285,   547.173E-06
C:/temp/dataset/4/22_3.odb,Step-1,Increment      1: Step Time =    1.000,"PART-1-1",           254,       8.51128,       25.6419,            0.,NA,NA,"",       9.93558,       9.91340,  -663.547E-03,   345.385E-06
C:/temp/dataset/4/22_3.odb,Step-1,Increment      1: Step Time =    1.000,"PART-1-1",           255,      -9.32324,       5.48290,            0.,NA,NA,"",       6.50737,       5.40381,       3.62556,   10.2048E-06
C:/temp/dataset/4/22_3.odb,Step-1,Increment      1: Step Time =    1.000,"PART-1-1",           256,      -11.4569,       25.7537,            0.,NA,NA,"",       10.3721,       9.71970,       3.62038,   75.3475E-09
C:/temp/dataset/4/22_3.odb,Step-1,Increment      1: Step Time =    1.000,"PART-1-1",           257,      -8.85145,       2.84717,            0.,NA,NA,"",       6.02196,       4.83835,       3.58530,   46.8252E-06
C:/temp/dataset/4/22_3.odb,Step-1,Increment      1: Step Time =    1.000,"PART-1-1",           258,       11.0896,      -24.0706,            0.,NA,NA,"",   187.837E-03,   178.838E-03,  -57.4416E-03,   11.1676E-03
C:/temp/dataset/4/22_3.odb,Step-1,Increment      1: Step Time =    1.000,"PART-1-1",           259,       5.69240,      -2.12345,            0.,NA,NA,"",       3.50304,       3.44788,   619.154E-03,   15.0170E-03
C:/temp/dataset/4/22_3.odb,Step-1,Increment      1: Step Time =    1.000,"PART-1-1",           260,       7.72467,       1.38687,            0.,NA,NA,"",       4.13995,       4.13714,   152.636E-03,   8.45949E-03
C:/temp/dataset/4/22_3.odb,Step-1,Increment      1: Step Time =    1.000,"PART-1-1",           261,       8.83369,  -368.727E-03,            0.,NA,NA,"",       3.73270,       3.73242,  -45.6722E-03,   7.44367E-03
C:/temp/dataset/4/22_3.odb,Step-1,Increment      1: Step Time =    1.000,"PART-1-1",           262,       7.58912,       4.39900,            0.,NA,NA,"",       4.79666,       4.79496,   127.855E-03,   5.76124E-03
C:/temp/dataset/4/22_3.odb,Step-1,Increment      1: Step Time =    1.000,"PART-1-1",           263,      -6.02595,       2.23751,            0.,NA,NA,"",       5.53316,       4.64673,       3.00395,   178.424E-06
C:/temp/dataset/4/22_3.odb,Step-1,Increment      1: Step Time =    1.000,"PART-1-1",           264,       4.92391,   813.983E-03,            0.,NA,NA,"",       4.16026,       4.09363,   741.591E-03,   10.1854E-03
C:/temp/dataset/4/22_3.odb,Step-1,Increment      1: Step Time =    1.000,"PART-1-1",           265,      -7.77287,       1.11371,            0.,NA,NA,"",       5.59793,       4.44933,       3.39709,   93.1227E-06
C:/temp/dataset/4/22_3.odb,Step-1,Increment      1: Step Time =    1.000,"PART-1-1",           266,      -3.71710,       1.36231,            0.,NA,NA,"",       5.08891,       4.41123,       2.53733,   370.814E-06
C:/temp/dataset/4/22_3.odb,Step-1,Increment      1: Step Time =    1.000,"PART-1-1",           267,       2.85817,       1.10052,            0.,NA,NA,"",       4.36688,       4.20873,       1.16457,   5.34591E-03
C:/temp/dataset/4/22_3.odb,Step-1,Increment      1: Step Time =    1.000,"PART-1-1",           268,       7.51165,      -2.37377,            0.,NA,NA,"",       3.35191,       3.34243,   251.995E-03,   12.3353E-03
C:/temp/dataset/4/22_3.odb,Step-1,Increment      1: Step Time =    1.000,"PART-1-1",           269,      -1.84913,   666.939E-03,            0.,NA,NA,"",       4.74387,       4.22374,       2.15970,   575.204E-06
C:/temp/dataset/4/22_3.odb,Step-1,Increment      1: Step Time =    1.000,"PART-1-1",           270,   621.955E-03,   989.730E-03,            0.,NA,NA,"",       4.54082,       4.23694,       1.63321,   895.327E-06
C:/temp/dataset/4/22_3.odb,Step-1,Increment      1: Step Time =    1.000,"PART-1-1",           271,       7.77182,      -4.29185,            0.,NA,NA,"",       2.94527,       2.93660,   225.771E-03,   11.8678E-03
C:/temp/dataset/4/22_3.odb,Step-1,Increment      1: Step Time =    1.000,"PART-1-1",           272,       6.40836,       5.42027,            0.,NA,NA,"",       5.06539,       5.05222,   365.051E-03,   8.14827E-03
C:/temp/dataset/4/22_3.odb,Step-1,Increment      1: Step Time =    1.000,"PART-1-1",           273,      -12.5139,      -2.82358,            0.,NA,NA,"",       5.83008,       3.72661,       4.48354,   2.51716E-06
C:/temp/dataset/4/22_3.odb,Step-1,Increment      1: Step Time =    1.000,"PART-1-1",           274,       10.8188,      -25.6946,            0.,NA,NA,"",   96.2089E-03,   91.5047E-03,  -29.7161E-03,   9.07516E-03
C:/temp/dataset/4/22_3.odb,Step-1,Increment      1: Step Time =    1.000,"PART-1-1",           275,       6.49302,  -163.532E-03,            0.,NA,NA,"",       3.86430,       3.84029,   430.103E-03,   11.4641E-03
C:/temp/dataset/4/22_3.odb,Step-1,Increment      1: Step Time =    1.000,"PART-1-1",           276,       7.60941,  -936.337E-03,            0.,NA,NA,"",       3.65005,       3.64387,   212.402E-03,   10.7727E-03
C:/temp/dataset/4/22_3.odb,Step-1,Increment      1: Step Time =    1.000,"PART-1-1",           277,       9.17282,      -2.25688,            0.,NA,NA,"",       3.32677,       3.32585,  -78.6044E-03,   8.34169E-03
C:/temp/dataset/4/22_3.odb,Step-1,Increment      1: Step Time =    1.000,"PART-1-1",           278,       9.10690,      -3.89703,            0.,NA,NA,"",       2.98874,       2.98852,  -35.7588E-03,   8.61429E-03
C:/temp/dataset/4/22_3.odb,Step-1,Increment      1: Step Time =    1.000,"PART-1-1",           279,      -7.91199,      -1.40732,            0.,NA,NA,"",       5.24515,       3.92173,       3.48305,   90.0830E-06
C:/temp/dataset/4/22_3.odb,Step-1,Increment      1: Step Time =    1.000,"PART-1-1",           280,      -9.83927,       21.3699,            0.,NA,NA,"",       9.38913,       8.76040,       3.37806,   81.9137E-09
C:/temp/dataset/4/22_3.odb,Step-1,Increment      1: Step Time =    1.000,"PART-1-1",           281,      -11.2653,       5.77953,            0.,NA,NA,"",       6.82504,       5.50981,       4.02780,   3.38884E-06
C:/temp/dataset/4/22_3.odb,Step-1,Increment      1: Step Time =    1.000,"PART-1-1",           282,      -11.2487,       3.84080,            0.,NA,NA,"",       6.52454,       5.10126,       4.06777,   11.4189E-06
C:/temp/dataset/4/22_3.odb,Step-1,Increment      1: Step Time =    1.000,"PART-1-1",           283,       3.11059,  -868.354E-03,            0.,NA,NA,"",       3.95567,       3.78597,       1.14619,   5.73989E-03
C:/temp/dataset/4/22_3.odb,Step-1,Increment      1: Step Time =    1.000,"PART-1-1",           284,       4.50766,  -682.768E-03,            0.,NA,NA,"",       3.88116,       3.78715,   849.059E-03,   9.47368E-03
C:/temp/dataset/4/22_3.odb,Step-1,Increment      1: Step Time =    1.000,"PART-1-1",           285,      -3.56662,  -854.847E-03,            0.,NA,NA,"",       4.69748,       3.94134,       2.55581,   432.374E-06
C:/temp/dataset/4/22_3.odb,Step-1,Increment      1: Step Time =    1.000,"PART-1-1",           286,      -7.33150,       26.6843,            0.,NA,NA,"",       10.1957,       9.82315,       2.73091,   76.2905E-09
C:/temp/dataset/4/22_3.odb,Step-1,Increment      1: Step Time =    1.000,"PART-1-1",           287,      -6.09303,       25.7233,            0.,NA,NA,"",       9.91136,       9.59305,       2.49169,   76.5058E-09
C:/temp/dataset/4/22_3.odb,Step-1,Increment      1: Step Time =    1.000,"PART-1-1",           288,           -5.,        26.875,            0.,NA,NA,"",       10.0625,       9.81103,       2.23573,   77.6910E-09
C:/temp/dataset/4/22_3.odb,Step-1,Increment      1: Step Time =    1.000,"PART-1-1",           289,      -6.23847,       27.8360,            0.,NA,NA,"",       10.3416,       10.0411,       2.47495,   77.5730E-09
C:/temp/dataset/4/22_3.odb,Step-1,Increment      1: Step Time =    1.000,"PART-1-1",           290,      -8.20013,       25.3620,            0.,NA,NA,"",       10.0069,       9.56421,       2.94344,   76.2627E-09
C:/temp/dataset/4/22_3.odb,Step-1,Increment      1: Step Time =    1.000,"PART-1-1",           291,      -8.98257,       24.1636,            0.,NA,NA,"",       9.84208,       9.32941,       3.13505,   77.0005E-09
C:/temp/dataset/4/22_3.odb,Step-1,Increment      1: Step Time =    1.000,"PART-1-1",           292,      -7.83587,       23.3915,            0.,NA,NA,"",       9.59344,       9.14115,       2.91092,   76.6197E-09
C:/temp/dataset/4/22_3.odb,Step-1,Increment      1: Step Time =    1.000,"PART-1-1",           293,      -7.05344,       24.5900,            0.,NA,NA,"",       9.76233,       9.37595,       2.71931,   75.9406E-09
C:/temp/dataset/4/22_3.odb,Step-1,Increment      1: Step Time =    1.000,"PART-1-1",           294,      -6.78951,       20.5788,            0.,NA,NA,"",       8.95914,       8.52547,       2.75366,   77.1740E-09
C:/temp/dataset/4/22_3.odb,Step-1,Increment      1: Step Time =    1.000,"PART-1-1",           295,      -5.89603,       19.5861,            0.,NA,NA,"",       8.69065,       8.29643,       2.58779,   70.2631E-09
C:/temp/dataset/4/22_3.odb,Step-1,Increment      1: Step Time =    1.000,"PART-1-1",           296,           -5.,        20.625,            0.,NA,NA,"",       8.82106,       8.49508,       2.37584,   65.6994E-09
C:/temp/dataset/4/22_3.odb,Step-1,Increment      1: Step Time =    1.000,"PART-1-1",           297,      -5.89348,       21.6177,            0.,NA,NA,"",       9.08683,       8.72412,       2.54171,   71.2379E-09
C:/temp/dataset/4/22_3.odb,Step-1,Increment      1: Step Time =    1.000,"PART-1-1",           298,      -7.97413,       13.6001,            0.,NA,NA,"",       7.75542,       7.08265,       3.15953,   834.326E-09
C:/temp/dataset/4/22_3.odb,Step-1,Increment      1: Step Time =    1.000,"PART-1-1",           299,      -8.98702,       12.6704,            0.,NA,NA,"",       7.69801,       6.90960,       3.39364,   1.51753E-06
C:/temp/dataset/4/22_3.odb,Step-1,Increment      1: Step Time =    1.000,"PART-1-1",           300,      -8.00249,       11.5116,            0.,NA,NA,"",       7.37942,       6.64355,       3.21232,   1.81841E-06
C:/temp/dataset/4/22_3.odb,Step-1,Increment      1: Step Time =    1.000,"PART-1-1",           301,      -6.98959,       12.4413,            0.,NA,NA,"",       7.43880,       6.81660,       2.97821,   1.61476E-06
C:/temp/dataset/4/22_3.odb,Step-1,Increment      1: Step Time =    1.000,"PART-1-1",           302,      -9.95004,      -1.64066,            0.,NA,NA,"",       5.54054,       3.91820,       3.91730,   26.1372E-06
C:/temp/dataset/4/22_3.odb,Step-1,Increment      1: Step Time =    1.000,"PART-1-1",           303,      -11.1983,  -513.068E-03,            0.,NA,NA,"",       5.89614,       4.18355,       4.15480,   20.0083E-06
C:/temp/dataset/4/22_3.odb,Step-1,Increment      1: Step Time =    1.000,"PART-1-1",           304,      -12.5325,      -1.72297,            0.,NA,NA,"",       5.96557,       3.95873,       4.46279,   4.21009E-06
C:/temp/dataset/4/22_3.odb,Step-1,Increment      1: Step Time =    1.000,"PART-1-1",           305,      -11.2842,      -2.85056,            0.,NA,NA,"",       5.61196,       3.69338,       4.22529,   12.4586E-06
C:/temp/dataset/4/22_3.odb,Step-1,Increment      1: Step Time =    1.000,"PART-1-1",           306,      -10.2834,   741.336E-03,            0.,NA,NA,"",       5.92252,       4.42713,       3.93404,   27.6106E-06
C:/temp/dataset/4/22_3.odb,Step-1,Increment      1: Step Time =    1.000,"PART-1-1",           307,      -11.7661,       1.72477,            0.,NA,NA,"",       6.29507,       4.66738,       4.22415,   13.8013E-06
C:/temp/dataset/4/22_3.odb,Step-1,Increment      1: Step Time =    1.000,"PART-1-1",           308,      -12.6810,   470.366E-03,            0.,NA,NA,"",       6.27113,       4.42380,       4.44489,   5.93915E-06
C:/temp/dataset/4/22_3.odb,Step-1,Increment      1: Step Time =    1.000,"PART-1-1",           309,         -1.25,           -5.,            0.,NA,NA,"",       3.70865,       3.01388,       2.16115,   1.18621E-03
C:/temp/dataset/4/22_3.odb,Step-1,Increment      1: Step Time =    1.000,"PART-1-1",           310,  -165.329E-03,      -4.13131,            0.,NA,NA,"",       3.70437,       3.17230,       1.91283,   983.934E-06
C:/temp/dataset/4/22_3.odb,Step-1,Increment      1: Step Time =    1.000,"PART-1-1",           311,      -1.46228,      -3.26668,            0.,NA,NA,"",       4.01957,       3.38536,       2.16709,   517.081E-06
C:/temp/dataset/4/22_3.odb,Step-1,Increment      1: Step Time =    1.000,"PART-1-1",           312,      -2.54695,      -4.13537,            0.,NA,NA,"",       4.03017,       3.22635,       2.41515,   446.986E-06
C:/temp/dataset/4/22_3.odb,Step-1,Increment      1: Step Time =    1.000,"PART-1-1",           313,   769.081E-03,      -3.16387,            0.,NA,NA,"",       3.75896,       3.35637,       1.69250,   1.10256E-03
C:/temp/dataset/4/22_3.odb,Step-1,Increment      1: Step Time =    1.000,"PART-1-1",           314,          1.25,           -5.,            0.,NA,NA,"",       3.37371,       2.95289,       1.63167,   1.67969E-03
C:/temp/dataset/4/22_3.odb,Step-1,Increment      1: Step Time =    1.000,"PART-1-1",           315,       2.18441,      -4.03256,            0.,NA,NA,"",       3.43972,       3.13831,       1.40808,   2.46048E-03
C:/temp/dataset/4/22_3.odb,Step-1,Increment      1: Step Time =    1.000,"PART-1-1",           316,       1.54561,       3.01681,            0.,NA,NA,"",       4.84752,       4.64173,       1.39740,   1.75987E-03
C:/temp/dataset/4/22_3.odb,Step-1,Increment      1: Step Time =    1.000,"PART-1-1",           317,       2.64536,       4.01417,            0.,NA,NA,"",       4.96142,       4.82625,       1.15020,   2.42888E-03
C:/temp/dataset/4/22_3.odb,Step-1,Increment      1: Step Time =    1.000,"PART-1-1",           318,          1.25,            5.,            0.,NA,NA,"",       5.25464,       5.06036,       1.41566,   1.44603E-03
C:/temp/dataset/4/22_3.odb,Step-1,Increment      1: Step Time =    1.000,"PART-1-1",           319,   150.245E-03,       4.00264,            0.,NA,NA,"",       5.15478,       4.87812,       1.66604,   822.613E-06
C:/temp/dataset/4/22_3.odb,Step-1,Increment      1: Step Time =    1.000,"PART-1-1",           320,   179.474E-03,      -1.21124,            0.,NA,NA,"",       4.17848,       3.78314,       1.77413,   854.859E-06
C:/temp/dataset/4/22_3.odb,Step-1,Increment      1: Step Time =    1.000,"PART-1-1",           321,  -580.901E-03,      -2.30818,            0.,NA,NA,"",       4.07084,       3.56828,       1.95936,   389.485E-06
C:/temp/dataset/4/22_3.odb,Step-1,Increment      1: Step Time =    1.000,"PART-1-1",           322,       1.52946,      -2.06693,            0.,NA,NA,"",       3.87627,       3.57155,       1.50649,   1.87240E-03
C:/temp/dataset/4/22_3.odb,Step-1,Increment      1: Step Time =    1.000,"PART-1-1",           323,       12.7868,      -3.71378,            0.,NA,NA,"",       3.05735,       2.96483,  -746.422E-03,   14.8402E-03
C:/temp/dataset/4/22_3.odb,Step-1,Increment      1: Step Time =    1.000,"PART-1-1",           324,       13.8814,      -5.00619,            0.,NA,NA,"",       2.85025,       2.70007,  -912.983E-03,   20.8968E-03
C:/temp/dataset/4/22_3.odb,Step-1,Increment      1: Step Time =    1.000,"PART-1-1",           325,           15.,         -3.75,            0.,NA,NA,"",       3.16289,       2.93319,      -1.18333,   24.1782E-03
C:/temp/dataset/4/22_3.odb,Step-1,Increment      1: Step Time =    1.000,"PART-1-1",           326,       13.9054,      -2.45760,            0.,NA,NA,"",       3.35871,       3.20253,      -1.01228,   17.5355E-03
C:/temp/dataset/4/22_3.odb,Step-1,Increment      1: Step Time =    1.000,"PART-1-1",           327,       5.10003,      -1.40311,            0.,NA,NA,"",       3.69165,       3.61780,   734.715E-03,   11.8943E-03
C:/temp/dataset/4/22_3.odb,Step-1,Increment      1: Step Time =    1.000,"PART-1-1",           328,       3.80913,  -775.561E-03,            0.,NA,NA,"",       3.91623,       3.78702,   997.670E-03,   7.78064E-03
C:/temp/dataset/4/22_3.odb,Step-1,Increment      1: Step Time =    1.000,"PART-1-1",           329,       3.52110,      -1.80919,            0.,NA,NA,"",       3.73465,       3.57637,       1.07573,   7.19467E-03
C:/temp/dataset/4/22_3.odb,Step-1,Increment      1: Step Time =    1.000,"PART-1-1",           330,       4.81200,      -2.43673,            0.,NA,NA,"",       3.50289,       3.40840,   808.111E-03,   11.9517E-03
C:/temp/dataset/4/22_3.odb,Step-1,Increment      1: Step Time =    1.000,"PART-1-1",           331,           15.,          3.75,            0.,NA,NA,"",       4.72704,       4.49009,      -1.47783,   16.0729E-03
C:/temp/dataset/4/22_3.odb,Step-1,Increment      1: Step Time =    1.000,"PART-1-1",           332,       13.8386,       5.14064,            0.,NA,NA,"",       4.98231,       4.81764,      -1.27035,   12.1357E-03
C:/temp/dataset/4/22_3.odb,Step-1,Increment      1: Step Time =    1.000,"PART-1-1",           333,       12.6076,       4.00525,            0.,NA,NA,"",       4.69029,       4.59148,  -957.683E-03,   8.97212E-03
C:/temp/dataset/4/22_3.odb,Step-1,Increment      1: Step Time =    1.000,"PART-1-1",           334,       13.7689,       2.61462,            0.,NA,NA,"",       4.42228,       4.26613,      -1.16476,   12.8111E-03
C:/temp/dataset/4/22_3.odb,Step-1,Increment      1: Step Time =    1.000,"PART-1-1",           335,       9.76439,       8.40859,            0.,NA,NA,"",       5.67514,       5.65693,  -454.268E-03,   4.71226E-03
C:/temp/dataset/4/22_3.odb,Step-1,Increment      1: Step Time =    1.000,"PART-1-1",           336,       8.59642,       7.53369,            0.,NA,NA,"",       5.48513,       5.48260,  -166.580E-03,   5.72431E-03
C:/temp/dataset/4/22_3.odb,Step-1,Increment      1: Step Time =    1.000,"PART-1-1",           337,       9.44563,       6.06261,            0.,NA,NA,"",       5.13223,       5.12233,  -318.677E-03,   3.84880E-03
C:/temp/dataset/4/22_3.odb,Step-1,Increment      1: Step Time =    1.000,"PART-1-1",           338,       10.6136,       6.93751,            0.,NA,NA,"",       5.32875,       5.29438,  -604.268E-03,   4.67541E-03
C:/temp/dataset/4/22_3.odb,Step-1,Increment      1: Step Time =    1.000,"PART-1-1",           339,       5.92452,       9.07762,            0.,NA,NA,"",       5.94003,       5.92588,   409.704E-03,   11.0282E-03
C:/temp/dataset/4/22_3.odb,Step-1,Increment      1: Step Time =    1.000,"PART-1-1",           340,            5.,         8.125,            0.,NA,NA,"",       5.76592,       5.73020,   640.857E-03,   14.9229E-03
C:/temp/dataset/4/22_3.odb,Step-1,Increment      1: Step Time =    1.000,"PART-1-1",           341,       5.83838,       7.03541,            0.,NA,NA,"",       5.46320,       5.44348,   463.814E-03,   13.4835E-03
C:/temp/dataset/4/22_3.odb,Step-1,Increment      1: Step Time =    1.000,"PART-1-1",           342,       6.76290,       7.98803,            0.,NA,NA,"",       5.64545,       5.64044,   237.910E-03,   10.4149E-03
C:/temp/dataset/4/22_3.odb,Step-1,Increment      1: Step Time =    1.000,"PART-1-1",           343,       6.00358,       15.4027,            0.,NA,NA,"",       7.46716,       7.46311,   245.827E-03,   5.03143E-03
C:/temp/dataset/4/22_3.odb,Step-1,Increment      1: Step Time =    1.000,"PART-1-1",           344,            5.,        14.375,            0.,NA,NA,"",       7.26070,       7.24231,   516.458E-03,   7.34486E-03
C:/temp/dataset/4/22_3.odb,Step-1,Increment      1: Step Time =    1.000,"PART-1-1",           345,       5.99171,       13.2884,            0.,NA,NA,"",       6.94913,       6.94254,   302.503E-03,   6.89638E-03
C:/temp/dataset/4/22_3.odb,Step-1,Increment      1: Step Time =    1.000,"PART-1-1",           346,       6.99529,       14.3161,            0.,NA,NA,"",       7.16315,       7.16306,   34.9122E-03,   5.27455E-03
C:/temp/dataset/4/22_3.odb,Step-1,Increment      1: Step Time =    1.000,"PART-1-1",           347,       11.7328,       24.6815,            0.,NA,NA,"",       9.68425,       9.57920,      -1.42254,   359.085E-06
C:/temp/dataset/4/22_3.odb,Step-1,Increment      1: Step Time =    1.000,"PART-1-1",           348,       12.6496,       26.1279,            0.,NA,NA,"",       10.0490,       9.90570,      -1.69116,   66.0705E-06
C:/temp/dataset/4/22_3.odb,Step-1,Increment      1: Step Time =    1.000,"PART-1-1",           349,       11.2054,       27.2635,            0.,NA,NA,"",       10.3195,       10.2279,      -1.37200,   105.894E-06
C:/temp/dataset/4/22_3.odb,Step-1,Increment      1: Step Time =    1.000,"PART-1-1",           350,       10.2886,       25.8171,            0.,NA,NA,"",       9.96310,       9.90179,      -1.10360,   266.315E-06
C:/temp/dataset/4/22_3.odb,Step-1,Increment      1: Step Time =    1.000,"PART-1-1",           351,       12.5134,       28.7000,            0.,NA,NA,"",       10.6817,       10.5397,      -1.73610,   100.846E-06
C:/temp/dataset/4/22_3.odb,Step-1,Increment      1: Step Time =    1.000,"PART-1-1",           352,       13.7634,       27.4500,            0.,NA,NA,"",       10.3907,       10.1956,      -2.00432,   109.031E-06
C:/temp/dataset/4/22_3.odb,Step-1,Increment      1: Step Time =    1.000,"PART-1-1",           353,           15.,         28.75,            0.,NA,NA,"",       10.7358,       10.4762,      -2.34676,   44.1391E-06
C:/temp/dataset/4/22_3.odb,Step-1,Increment      1: Step Time =    1.000,"PART-1-1",           354,         13.75,           30.,            0.,NA,NA,"",       11.0183,       10.8204,      -2.07865,   44.2361E-06
C:/temp/dataset/4/22_3.odb,Step-1,Increment      1: Step Time =    1.000,"PART-1-1",           355,      -3.83569,      -2.96698,            0.,NA,NA,"",       4.39784,       3.50200,       2.66027,   356.609E-06
C:/temp/dataset/4/22_3.odb,Step-1,Increment      1: Step Time =    1.000,"PART-1-1",           356,      -2.47303,      -2.56070,            0.,NA,NA,"",       4.27124,       3.55727,       2.36418,   414.255E-06
C:/temp/dataset/4/22_3.odb,Step-1,Increment      1: Step Time =    1.000,"PART-1-1",           357,      -2.95938,      -1.35275,            0.,NA,NA,"",       4.53485,       3.82296,       2.43924,   434.014E-06
C:/temp/dataset/4/22_3.odb,Step-1,Increment      1: Step Time =    1.000,"PART-1-1",           358,      -4.32205,      -1.75903,            0.,NA,NA,"",       4.65582,       3.76756,       2.73535,   288.797E-06
C:/temp/dataset/4/22_3.odb,Step-1,Increment      1: Step Time =    1.000,"PART-1-1",           359,       8.60967,      -7.25473,            0.,NA,NA,"",       2.34632,       2.34393,   105.842E-03,   8.36672E-03
C:/temp/dataset/4/22_3.odb,Step-1,Increment      1: Step Time =    1.000,"PART-1-1",           360,       7.51358,      -6.44375,            0.,NA,NA,"",       2.53479,       2.51746,   295.891E-03,   13.6373E-03
C:/temp/dataset/4/22_3.odb,Step-1,Increment      1: Step Time =    1.000,"PART-1-1",           361,       6.75300,      -7.77251,            0.,NA,NA,"",       2.32911,       2.28814,   434.906E-03,   20.7525E-03
C:/temp/dataset/4/22_3.odb,Step-1,Increment      1: Step Time =    1.000,"PART-1-1",           362,       7.84909,      -8.58350,            0.,NA,NA,"",       2.13265,       2.11836,   246.485E-03,   14.3372E-03
C:/temp/dataset/4/22_3.odb,Step-1,Increment      1: Step Time =    1.000,"PART-1-1",           363,       7.07130,      -14.2100,            0.,NA,NA,"",       1.27812,       1.23159,   341.699E-03,   23.6490E-03
C:/temp/dataset/4/22_3.odb,Step-1,Increment      1: Step Time =    1.000,"PART-1-1",           364,       6.02882,      -13.2279,            0.,NA,NA,"",       1.48370,       1.39759,   498.123E-03,   30.6160E-03
C:/temp/dataset/4/22_3.odb,Step-1,Increment      1: Step Time =    1.000,"PART-1-1",           365,            5.,       -14.375,            0.,NA,NA,"",       1.39890,       1.25602,   615.902E-03,   39.5486E-03
C:/temp/dataset/4/22_3.odb,Step-1,Increment      1: Step Time =    1.000,"PART-1-1",           366,       6.04247,      -15.3570,            0.,NA,NA,"",       1.18606,       1.09442,   457.143E-03,   32.4539E-03
C:/temp/dataset/4/22_3.odb,Step-1,Increment      1: Step Time =    1.000,"PART-1-1",           367,       7.02995,      -12.0379,            0.,NA,NA,"",       1.60047,       1.55758,   368.055E-03,   22.4439E-03
C:/temp/dataset/4/22_3.odb,Step-1,Increment      1: Step Time =    1.000,"PART-1-1",           368,       6.00113,      -11.1016,            0.,NA,NA,"",       1.81165,       1.73132,   533.492E-03,   28.9003E-03
C:/temp/dataset/4/22_3.odb,Step-1,Increment      1: Step Time =    1.000,"PART-1-1",           369,            5.,      -12.2917,            0.,NA,NA,"",       1.70260,       1.56734,   665.037E-03,   37.2044E-03
C:/temp/dataset/4/22_3.odb,Step-1,Increment      1: Step Time =    1.000,"PART-1-1",           370,            5.,      -22.7083,            0.,NA,NA,"",   476.944E-03,   340.059E-03,   334.418E-03,   48.9226E-03
C:/temp/dataset/4/22_3.odb,Step-1,Increment      1: Step Time =    1.000,"PART-1-1",           371,       6.05922,      -23.7899,            0.,NA,NA,"",   330.206E-03,   241.414E-03,   225.288E-03,   39.8745E-03
C:/temp/dataset/4/22_3.odb,Step-1,Increment      1: Step Time =    1.000,"PART-1-1",           372,       7.11013,      -22.7834,            0.,NA,NA,"",   348.141E-03,   292.969E-03,   188.073E-03,   29.1283E-03
C:/temp/dataset/4/22_3.odb,Step-1,Increment      1: Step Time =    1.000,"PART-1-1",           373,       6.05091,      -21.7018,            0.,NA,NA,"",   493.510E-03,   396.896E-03,   293.302E-03,   38.0862E-03
C:/temp/dataset/4/22_3.odb,Step-1,Increment      1: Step Time =    1.000,"PART-1-1",           374,          8.75,          -30.,            0.,NA,NA,"",            0.,  -6.08608E-39,   21.2234E-39,   11.5657E-03
C:/temp/dataset/4/22_3.odb,Step-1,Increment      1: Step Time =    1.000,"PART-1-1",           375,       9.84988,      -28.9274,            0.,NA,NA,"",   2.20128E-03,  -1.73552E-03,   1.35412E-03,   2.38023E-03
C:/temp/dataset/4/22_3.odb,Step-1,Increment      1: Step Time =    1.000,"PART-1-1",           376,       8.52411,      -27.9095,            0.,NA,NA,"",   32.9996E-03,   20.0523E-03,   26.2084E-03,   17.8816E-03
C:/temp/dataset/4/22_3.odb,Step-1,Increment      1: Step Time =    1.000,"PART-1-1",           377,       7.42422,      -28.9821,            0.,NA,NA,"",   21.5217E-03,   5.73828E-03,   20.7426E-03,   25.1094E-03
C:/temp/dataset/4/22_3.odb,Step-1,Increment      1: Step Time =    1.000,"PART-1-1",           378,       10.1104,      -23.9794,            0.,NA,NA,"",   184.487E-03,   184.414E-03,  -5.17568E-03,   5.06210E-03
C:/temp/dataset/4/22_3.odb,Step-1,Increment      1: Step Time =    1.000,"PART-1-1",           379,       11.1261,      -23.0268,            0.,NA,NA,"",   257.454E-03,   247.355E-03,  -71.4027E-03,   11.2950E-03
C:/temp/dataset/4/22_3.odb,Step-1,Increment      1: Step Time =    1.000,"PART-1-1",           380,       10.1523,      -21.9025,            0.,NA,NA,"",   332.758E-03,   332.477E-03,  -13.6582E-03,   4.92272E-03
C:/temp/dataset/4/22_3.odb,Step-1,Increment      1: Step Time =    1.000,"PART-1-1",           381,       9.13660,      -22.8552,            0.,NA,NA,"",   270.381E-03,   264.756E-03,   54.8645E-03,   10.7485E-03
C:/temp/dataset/4/22_3.odb,Step-1,Increment      1: Step Time =    1.000,"PART-1-1",           382,       7.09296,      -18.5383,            0.,NA,NA,"",   738.103E-03,   684.234E-03,   276.803E-03,   26.3974E-03
C:/temp/dataset/4/22_3.odb,Step-1,Increment      1: Step Time =    1.000,"PART-1-1",           383,       6.04465,      -17.4814,            0.,NA,NA,"",   921.360E-03,   825.188E-03,   409.840E-03,   34.3636E-03
C:/temp/dataset/4/22_3.odb,Step-1,Increment      1: Step Time =    1.000,"PART-1-1",           384,            5.,      -18.5417,            0.,NA,NA,"",   878.229E-03,   727.878E-03,   491.406E-03,   44.3271E-03
C:/temp/dataset/4/22_3.odb,Step-1,Increment      1: Step Time =    1.000,"PART-1-1",           385,       6.04831,      -19.5985,            0.,NA,NA,"",   690.124E-03,   591.874E-03,   354.903E-03,   36.2455E-03
C:/temp/dataset/4/22_3.odb,Step-1,Increment      1: Step Time =    1.000,"PART-1-1",           386,       8.88188,       22.9635,            0.,NA,NA,"",       9.27062,       9.24609,  -673.867E-03,   1.66568E-03
C:/temp/dataset/4/22_3.odb,Step-1,Increment      1: Step Time =    1.000,"PART-1-1",           387,       9.93448,       22.0483,            0.,NA,NA,"",       9.03307,       8.98779,  -903.304E-03,   1.93673E-03
C:/temp/dataset/4/22_3.odb,Step-1,Increment      1: Step Time =    1.000,"PART-1-1",           388,       10.8087,       23.3359,            0.,NA,NA,"",       9.34901,       9.27732,      -1.15557,   1.04699E-03
C:/temp/dataset/4/22_3.odb,Step-1,Increment      1: Step Time =    1.000,"PART-1-1",           389,       9.75606,       24.2511,            0.,NA,NA,"",       9.57944,       9.53458,  -925.945E-03,   774.519E-06
C:/temp/dataset/4/22_3.odb,Step-1,Increment      1: Step Time =    1.000,"PART-1-1",           390,       10.0218,       17.5512,            0.,NA,NA,"",       7.91108,       7.87175,  -787.907E-03,   4.45888E-03
C:/temp/dataset/4/22_3.odb,Step-1,Increment      1: Step Time =    1.000,"PART-1-1",           391,       9.00837,       16.4411,            0.,NA,NA,"",       7.64409,       7.62706,  -510.043E-03,   4.95290E-03
C:/temp/dataset/4/22_3.odb,Step-1,Increment      1: Step Time =    1.000,"PART-1-1",           392,       10.0249,       15.2736,            0.,NA,NA,"",       7.34320,       7.30798,  -718.308E-03,   4.84098E-03
C:/temp/dataset/4/22_3.odb,Step-1,Increment      1: Step Time =    1.000,"PART-1-1",           393,       11.0383,       16.3837,            0.,NA,NA,"",       7.61787,       7.55245,  -996.234E-03,   4.59331E-03
C:/temp/dataset/4/22_3.odb,Step-1,Increment      1: Step Time =    1.000,"PART-1-1",           394,      -14.0638,       5.89996,            0.,NA,NA,"",       7.25454,       5.59790,       4.61432,   4.19333E-06
C:/temp/dataset/4/22_3.odb,Step-1,Increment      1: Step Time =    1.000,"PART-1-1",           395,      -13.1194,       6.91794,            0.,NA,NA,"",       7.26855,       5.79106,       4.39266,   1.91938E-06
C:/temp/dataset/4/22_3.odb,Step-1,Increment      1: Step Time =    1.000,"PART-1-1",           396,      -14.0556,       8.04923,            0.,NA,NA,"",       7.57887,       6.05023,       4.56441,   3.40312E-06
C:/temp/dataset/4/22_3.odb,Step-1,Increment      1: Step Time =    1.000,"PART-1-1",           397,          -15.,       7.03125,            0.,NA,NA,"",       7.56385,       5.85707,       4.78607,   5.96106E-06
C:/temp/dataset/4/22_3.odb,Step-1,Increment      1: Step Time =    1.000,"PART-1-1",           398,      -14.0181,       12.3521,            0.,NA,NA,"",       8.26252,       6.95537,       4.46006,   919.888E-09
C:/temp/dataset/4/22_3.odb,Step-1,Increment      1: Step Time =    1.000,"PART-1-1",           399,      -13.0189,       13.2775,            0.,NA,NA,"",       8.28793,       7.12782,       4.22894,   918.418E-09
C:/temp/dataset/4/22_3.odb,Step-1,Increment      1: Step Time =    1.000,"PART-1-1",           400,      -14.0008,       14.5192,            0.,NA,NA,"",       8.62300,       7.41127,       4.40786,   335.850E-09
C:/temp/dataset/4/22_3.odb,Step-1,Increment      1: Step Time =    1.000,"PART-1-1",           401,          -15.,       13.5938,            0.,NA,NA,"",       8.59770,       7.23881,       4.63898,   615.064E-09
C:/temp/dataset/4/22_3.odb,Step-1,Increment      1: Step Time =    1.000,"PART-1-1",           402,      -10.1942,       21.9572,            0.,NA,NA,"",       9.53410,       8.89203,       3.43961,   80.3632E-09
C:/temp/dataset/4/22_3.odb,Step-1,Increment      1: Step Time =    1.000,"PART-1-1",           403,      -9.14995,       21.4132,            0.,NA,NA,"",       9.33162,       8.75407,       3.23195,   81.3549E-09
C:/temp/dataset/4/22_3.odb,Step-1,Increment      1: Step Time =    1.000,"PART-1-1",           404,      -8.60578,       22.3365,            0.,NA,NA,"",       9.45760,       8.93626,       3.09668,   79.1889E-09
C:/temp/dataset/4/22_3.odb,Step-1,Increment      1: Step Time =    1.000,"PART-1-1",           405,      -9.65000,       22.8805,            0.,NA,NA,"",       9.65713,       9.07422,       3.30434,   77.8890E-09
C:/temp/dataset/4/22_3.odb,Step-1,Increment      1: Step Time =    1.000,"PART-1-1",           406,      -14.0213,       25.7108,            0.,NA,NA,"",       10.6176,       9.76813,       4.16128,   73.6792E-09
C:/temp/dataset/4/22_3.odb,Step-1,Increment      1: Step Time =    1.000,"PART-1-1",           407,      -12.8802,       26.8172,            0.,NA,NA,"",       10.7094,       9.97552,       3.89622,   75.1172E-09
C:/temp/dataset/4/22_3.odb,Step-1,Increment      1: Step Time =    1.000,"PART-1-1",           408,      -13.8589,       27.8252,            0.,NA,NA,"",       10.9946,       10.2097,       4.07969,   75.9501E-09
C:/temp/dataset/4/22_3.odb,Step-1,Increment      1: Step Time =    1.000,"PART-1-1",           409,          -15.,       26.7188,            0.,NA,NA,"",       10.9052,       10.0023,       4.34475,   74.7551E-09
C:/temp/dataset/4/22_3.odb,Step-1,Increment      1: Step Time =    1.000,"PART-1-1",           410,        -13.75,           30.,            0.,NA,NA,"",       11.3934,       10.6652,       4.00801,   79.1763E-09
C:/temp/dataset/4/22_3.odb,Step-1,Increment      1: Step Time =    1.000,"PART-1-1",           411,          -15.,       28.9063,            0.,NA,NA,"",       11.3104,       10.4629,       4.29571,   78.1258E-09
C:/temp/dataset/4/22_3.odb,Step-1,Increment      1: Step Time =    1.000,"PART-1-1",           412,      -12.6089,       28.9190,            0.,NA,NA,"",       11.0810,       10.4120,       3.79198,   76.6477E-09
C:/temp/dataset/4/22_3.odb,Step-1,Increment      1: Step Time =    1.000,"PART-1-1",           413,      -11.4362,       27.6040,            0.,NA,NA,"",       10.7222,       10.1088,       3.57454,   75.8538E-09
C:/temp/dataset/4/22_3.odb,Step-1,Increment      1: Step Time =    1.000,"PART-1-1",           414,      -10.0773,       28.6850,            0.,NA,NA,"",       10.8105,       10.3060,       3.26418,   75.1898E-09
C:/temp/dataset/4/22_3.odb,Step-1,Increment      1: Step Time =    1.000,"PART-1-1",           415,        -11.25,           30.,            0.,NA,NA,"",       11.1658,       10.6091,       3.48163,   75.7285E-09
C:/temp/dataset/4/22_3.odb,Step-1,Increment      1: Step Time =    1.000,"PART-1-1",           416,      -13.7240,       21.2404,            0.,NA,NA,"",       9.76867,       8.82022,       4.19890,   68.4336E-09
C:/temp/dataset/4/22_3.odb,Step-1,Increment      1: Step Time =    1.000,"PART-1-1",           417,      -12.6979,       22.4429,            0.,NA,NA,"",       9.87721,       9.05042,       3.95589,   74.1172E-09
C:/temp/dataset/4/22_3.odb,Step-1,Increment      1: Step Time =    1.000,"PART-1-1",           418,      -13.9739,       23.5463,            0.,NA,NA,"",       10.2147,       9.31135,       4.19982,   70.4808E-09
C:/temp/dataset/4/22_3.odb,Step-1,Increment      1: Step Time =    1.000,"PART-1-1",           419,          -15.,       22.3438,            0.,NA,NA,"",       10.1097,       9.08114,       4.44283,   66.1304E-09
C:/temp/dataset/4/22_3.odb,Step-1,Increment      1: Step Time =    1.000,"PART-1-1",           420,      -11.9375,       16.3352,            0.,NA,NA,"",       8.68839,       7.74739,       3.93270,   232.238E-09
C:/temp/dataset/4/22_3.odb,Step-1,Increment      1: Step Time =    1.000,"PART-1-1",           421,      -10.8584,       17.1847,            0.,NA,NA,"",       8.71965,       7.90205,       3.68645,   203.909E-09
C:/temp/dataset/4/22_3.odb,Step-1,Increment      1: Step Time =    1.000,"PART-1-1",           422,      -11.8099,       18.4796,            0.,NA,NA,"",       9.05854,       8.19602,       3.85776,   102.960E-09
C:/temp/dataset/4/22_3.odb,Step-1,Increment      1: Step Time =    1.000,"PART-1-1",           423,      -12.8889,       17.6301,            0.,NA,NA,"",       9.02808,       8.04136,       4.10401,   136.011E-09
C:/temp/dataset/4/22_3.odb,Step-1,Increment      1: Step Time =    1.000,"PART-1-1",           424,      -9.98079,       13.8692,            0.,NA,NA,"",       8.02508,       7.18430,       3.57600,   784.141E-09
C:/temp/dataset/4/22_3.odb,Step-1,Increment      1: Step Time =    1.000,"PART-1-1",           425,      -11.0142,       12.9724,            0.,NA,NA,"",       7.98783,       7.01863,       3.81369,   1.23307E-06
C:/temp/dataset/4/22_3.odb,Step-1,Increment      1: Step Time =    1.000,"PART-1-1",           426,      -10.0204,       11.7735,            0.,NA,NA,"",       7.65945,       6.74393,       3.63133,   1.81367E-06
C:/temp/dataset/4/22_3.odb,Step-1,Increment      1: Step Time =    1.000,"PART-1-1",           427,      -6.95613,       14.5250,            0.,NA,NA,"",       7.82183,       7.25456,       2.92445,   600.711E-09
C:/temp/dataset/4/22_3.odb,Step-1,Increment      1: Step Time =    1.000,"PART-1-1",           428,      -5.98929,       13.4097,            0.,NA,NA,"",       7.51750,       6.99806,       2.74588,   651.032E-09
C:/temp/dataset/4/22_3.odb,Step-1,Increment      1: Step Time =    1.000,"PART-1-1",           429,           -5.,        14.375,            0.,NA,NA,"",       7.60723,       7.17914,       2.51595,   462.445E-09
C:/temp/dataset/4/22_3.odb,Step-1,Increment      1: Step Time =    1.000,"PART-1-1",           430,      -5.96684,       15.4903,            0.,NA,NA,"",       7.90880,       7.43564,       2.69452,   216.927E-09
C:/temp/dataset/4/22_3.odb,Step-1,Increment      1: Step Time =    1.000,"PART-1-1",           431,      -11.0581,       10.8707,            0.,NA,NA,"",       7.63123,       6.57711,       3.87004,   2.16586E-06
C:/temp/dataset/4/22_3.odb,Step-1,Increment      1: Step Time =    1.000,"PART-1-1",           432,      -10.0579,       9.67932,            0.,NA,NA,"",       7.30248,       6.30384,       3.68617,   2.59157E-06
C:/temp/dataset/4/22_3.odb,Step-1,Increment      1: Step Time =    1.000,"PART-1-1",           433,      -9.02030,       10.5821,            0.,NA,NA,"",       7.33174,       6.47066,       3.44746,   2.69858E-06
C:/temp/dataset/4/22_3.odb,Step-1,Increment      1: Step Time =    1.000,"PART-1-1",           434,      -7.04064,       8.20966,            0.,NA,NA,"",       6.68105,       5.92676,       3.08382,   6.37112E-06
C:/temp/dataset/4/22_3.odb,Step-1,Increment      1: Step Time =    1.000,"PART-1-1",           435,      -6.03068,       7.10065,            0.,NA,NA,"",       6.36731,       5.67060,       2.89602,   15.2830E-06
C:/temp/dataset/4/22_3.odb,Step-1,Increment      1: Step Time =    1.000,"PART-1-1",           436,           -5.,         8.125,            0.,NA,NA,"",       6.43673,       5.86318,       2.65604,   8.88488E-06
C:/temp/dataset/4/22_3.odb,Step-1,Increment      1: Step Time =    1.000,"PART-1-1",           437,      -6.00996,       9.23401,            0.,NA,NA,"",       6.74787,       6.11934,       2.84384,   4.35492E-06
C:/temp/dataset/4/22_3.odb,Step-1,Increment      1: Step Time =    1.000,"PART-1-1",           438,      -13.0926,       9.02789,            0.,NA,NA,"",       7.59636,       6.23470,       4.33973,   2.47060E-06
C:/temp/dataset/4/22_3.odb,Step-1,Increment      1: Step Time =    1.000,"PART-1-1",           439,      -14.0370,       10.1974,            0.,NA,NA,"",       7.91447,       6.50212,       4.51235,   2.03998E-06
C:/temp/dataset/4/22_3.odb,Step-1,Increment      1: Step Time =    1.000,"PART-1-1",           440,          -15.,       9.21875,            0.,NA,NA,"",       7.89635,       6.31765,       4.73705,   3.76673E-06
C:/temp/dataset/4/22_3.odb,Step-1,Increment      1: Step Time =    1.000,"PART-1-1",           441,      -13.9055,       1.56280,            0.,NA,NA,"",       6.61810,       4.68123,       4.67818,   2.25508E-06
C:/temp/dataset/4/22_3.odb,Step-1,Increment      1: Step Time =    1.000,"PART-1-1",           442,      -12.9296,       2.64306,            0.,NA,NA,"",       6.60833,       4.88678,       4.44852,   4.66591E-06
C:/temp/dataset/4/22_3.odb,Step-1,Increment      1: Step Time =    1.000,"PART-1-1",           443,      -14.0241,       3.73651,            0.,NA,NA,"",       6.93535,       5.14152,       4.65445,   3.28674E-06
C:/temp/dataset/4/22_3.odb,Step-1,Increment      1: Step Time =    1.000,"PART-1-1",           444,          -15.,       2.65625,            0.,NA,NA,"",       6.94394,       4.93596,       4.88411,   4.81745E-06
C:/temp/dataset/4/22_3.odb,Step-1,Increment      1: Step Time =    1.000,"PART-1-1",           445,      -13.7570,      -2.81804,            0.,NA,NA,"",       6.05151,       3.75563,       4.74510,   876.841E-09
C:/temp/dataset/4/22_3.odb,Step-1,Increment      1: Step Time =    1.000,"PART-1-1",           446,      -13.7756,  -623.683E-03,            0.,NA,NA,"",       6.31507,       4.21801,       4.69984,   1.84562E-06
C:/temp/dataset/4/22_3.odb,Step-1,Increment      1: Step Time =    1.000,"PART-1-1",           447,          -15.,      -1.71875,            0.,NA,NA,"",       6.39854,       4.01491,       4.98215,   2.41178E-06
C:/temp/dataset/4/22_3.odb,Step-1,Increment      1: Step Time =    1.000,"PART-1-1",           448,        -13.75,           -5.,            0.,NA,NA,"",       5.81661,       3.29614,       4.79253,   1.10043E-06
C:/temp/dataset/4/22_3.odb,Step-1,Increment      1: Step Time =    1.000,"PART-1-1",           449,      -12.5070,      -3.91179,            0.,NA,NA,"",       5.70437,       3.49737,       4.50647,   1.22352E-06
C:/temp/dataset/4/22_3.odb,Step-1,Increment      1: Step Time =    1.000,"PART-1-1",           450,          -15.,      -3.90625,            0.,NA,NA,"",       6.16007,       3.55441,       5.03117,   1.05578E-06
C:/temp/dataset/4/22_3.odb,Step-1,Increment      1: Step Time =    1.000,"PART-1-1",           451,          -15.,    468.75E-03,            0.,NA,NA,"",       6.66073,       4.47543,       4.93313,   3.06702E-06
C:/temp/dataset/4/22_3.odb,Step-1,Increment      1: Step Time =    1.000,"PART-1-1",           452,      -5.10506,       2.56414,            0.,NA,NA,"",       5.46776,       4.69484,       2.80265,   242.402E-06
C:/temp/dataset/4/22_3.odb,Step-1,Increment      1: Step Time =    1.000,"PART-1-1",           453,      -4.59209,       3.94539,            0.,NA,NA,"",       5.64214,       4.97378,       2.66369,   206.256E-06
C:/temp/dataset/4/22_3.odb,Step-1,Increment      1: Step Time =    1.000,"PART-1-1",           454,      -6.09775,       4.77703,            0.,NA,NA,"",       5.96960,       5.18279,       2.96223,   104.548E-06
C:/temp/dataset/4/22_3.odb,Step-1,Increment      1: Step Time =    1.000,"PART-1-1",           455,      -6.61072,       3.39578,            0.,NA,NA,"",       5.80192,       4.90358,       3.10115,   101.461E-06
C:/temp/dataset/4/22_3.odb,Step-1,Increment      1: Step Time =    1.000,"PART-1-1",           456,       9.44090,      -5.60228,            0.,NA,NA,"",       2.64347,       2.64260,  -67.9164E-03,   6.71786E-03
C:/temp/dataset/4/22_3.odb,Step-1,Increment      1: Step Time =    1.000,"PART-1-1",           457,       9.79564,      -4.46986,            0.,NA,NA,"",       2.86421,       2.85998,  -155.585E-03,   7.81238E-03
C:/temp/dataset/4/22_3.odb,Step-1,Increment      1: Step Time =    1.000,"PART-1-1",           458,       8.43936,      -4.09444,            0.,NA,NA,"",       2.96378,       2.96226,   94.9669E-03,   9.66104E-03
C:/temp/dataset/4/22_3.odb,Step-1,Increment      1: Step Time =    1.000,"PART-1-1",           459,       8.08462,      -5.22686,            0.,NA,NA,"",       2.74754,       2.74178,   177.710E-03,   9.98824E-03
C:/temp/dataset/4/22_3.odb,Step-1,Increment      1: Step Time =    1.000,"PART-1-1",           460,       6.93926,      -9.88629,            0.,NA,NA,"",       1.95232,       1.91176,   395.856E-03,   21.6011E-03
C:/temp/dataset/4/22_3.odb,Step-1,Increment      1: Step Time =    1.000,"PART-1-1",           461,       5.93813,      -8.99303,            0.,NA,NA,"",       2.16675,       2.09127,   566.920E-03,   27.7132E-03
C:/temp/dataset/4/22_3.odb,Step-1,Increment      1: Step Time =    1.000,"PART-1-1",           462,            5.,      -10.2083,            0.,NA,NA,"",       2.03331,       1.90694,   705.640E-03,   34.8529E-03
C:/temp/dataset/4/22_3.odb,Step-1,Increment      1: Step Time =    1.000,"PART-1-1",           463,       12.9852,      -11.3613,            0.,NA,NA,"",       1.68090,       1.59385,  -533.932E-03,   21.3450E-03
C:/temp/dataset/4/22_3.odb,Step-1,Increment      1: Step Time =    1.000,"PART-1-1",           464,       14.0059,      -12.5461,            0.,NA,NA,"",       1.55582,       1.41398,  -649.011E-03,   29.6201E-03
C:/temp/dataset/4/22_3.odb,Step-1,Increment      1: Step Time =    1.000,"PART-1-1",           465,           15.,        -11.25,            0.,NA,NA,"",       1.82567,       1.61191,  -857.211E-03,   35.6477E-03
C:/temp/dataset/4/22_3.odb,Step-1,Increment      1: Step Time =    1.000,"PART-1-1",           466,       13.9793,      -10.0652,            0.,NA,NA,"",       1.94452,       1.79874,  -738.727E-03,   27.1795E-03
C:/temp/dataset/4/22_3.odb,Step-1,Increment      1: Step Time =    1.000,"PART-1-1",           467,       7.08713,      -16.3801,            0.,NA,NA,"",   989.925E-03,   939.461E-03,   312.031E-03,   24.9902E-03
C:/temp/dataset/4/22_3.odb,Step-1,Increment      1: Step Time =    1.000,"PART-1-1",           468,            5.,      -16.4583,            0.,NA,NA,"",       1.12376,   975.479E-03,   557.920E-03,   41.9520E-03
C:/temp/dataset/4/22_3.odb,Step-1,Increment      1: Step Time =    1.000,"PART-1-1",           469,       13.0372,      -13.8111,            0.,NA,NA,"",       1.31627,       1.23120,  -465.521E-03,   23.2823E-03
C:/temp/dataset/4/22_3.odb,Step-1,Increment      1: Step Time =    1.000,"PART-1-1",           470,       14.0313,      -15.0151,            0.,NA,NA,"",       1.20932,       1.07190,  -559.893E-03,   31.9887E-03
C:/temp/dataset/4/22_3.odb,Step-1,Increment      1: Step Time =    1.000,"PART-1-1",           471,           15.,        -13.75,            0.,NA,NA,"",       1.45367,       1.24749,  -746.288E-03,   38.4716E-03
C:/temp/dataset/4/22_3.odb,Step-1,Increment      1: Step Time =    1.000,"PART-1-1",           472,       13.0981,      -18.6529,            0.,NA,NA,"",   717.990E-03,   639.087E-03,  -327.226E-03,   26.9393E-03
C:/temp/dataset/4/22_3.odb,Step-1,Increment      1: Step Time =    1.000,"PART-1-1",           473,       14.0553,      -19.9280,            0.,NA,NA,"",   645.580E-03,   522.159E-03,  -379.635E-03,   36.5155E-03
C:/temp/dataset/4/22_3.odb,Step-1,Increment      1: Step Time =    1.000,"PART-1-1",           474,           15.,        -18.75,            0.,NA,NA,"",   834.151E-03,   649.286E-03,  -523.675E-03,   43.9387E-03
C:/temp/dataset/4/22_3.odb,Step-1,Increment      1: Step Time =    1.000,"PART-1-1",           475,       14.0427,      -17.4749,            0.,NA,NA,"",   905.272E-03,   773.960E-03,  -469.578E-03,   34.2533E-03
C:/temp/dataset/4/22_3.odb,Step-1,Increment      1: Step Time =    1.000,"PART-1-1",           476,       6.17422,      -27.9405,            0.,NA,NA,"",   85.1720E-03,   46.3229E-03,   71.4734E-03,   42.6641E-03
C:/temp/dataset/4/22_3.odb,Step-1,Increment      1: Step Time =    1.000,"PART-1-1",           477,            5.,      -28.9583,            0.,NA,NA,"",   66.4573E-03,   42.6630E-03,   50.9553E-03,   55.9258E-03
C:/temp/dataset/4/22_3.odb,Step-1,Increment      1: Step Time =    1.000,"PART-1-1",           478,          6.25,          -30.,            0.,NA,NA,"",            0.,  -2.10998E-39,   62.9644E-39,   39.6184E-03
C:/temp/dataset/4/22_3.odb,Step-1,Increment      1: Step Time =    1.000,"PART-1-1",           479,       9.46325,      -26.8820,            0.,NA,NA,"",   47.7131E-03,   44.9760E-03,   15.9281E-03,   8.87062E-03
C:/temp/dataset/4/22_3.odb,Step-1,Increment      1: Step Time =    1.000,"PART-1-1",           480,       8.20536,      -25.9154,            0.,NA,NA,"",   114.166E-03,   92.2812E-03,   67.2160E-03,   20.7975E-03
C:/temp/dataset/4/22_3.odb,Step-1,Increment      1: Step Time =    1.000,"PART-1-1",           481,       7.26622,      -26.9429,            0.,NA,NA,"",   98.0068E-03,   62.2059E-03,   75.7347E-03,   30.3349E-03
C:/temp/dataset/4/22_3.odb,Step-1,Increment      1: Step Time =    1.000,"PART-1-1",           482,       13.6319,      -27.3465,            0.,NA,NA,"",   101.491E-03,   53.0421E-03,  -86.5268E-03,   39.2763E-03
C:/temp/dataset/4/22_3.odb,Step-1,Increment      1: Step Time =    1.000,"PART-1-1",           483,       12.3819,      -28.5965,            0.,NA,NA,"",   26.7551E-03,   7.13920E-03,  -25.7850E-03,   22.6930E-03
C:/temp/dataset/4/22_3.odb,Step-1,Increment      1: Step Time =    1.000,"PART-1-1",           484,         13.75,          -30.,            0.,NA,NA,"",            0.,  -3.71135E-39,  -61.1739E-39,   38.5062E-03
C:/temp/dataset/4/22_3.odb,Step-1,Increment      1: Step Time =    1.000,"PART-1-1",           485,           15.,        -28.75,            0.,NA,NA,"",   75.5152E-03,   46.1727E-03,  -59.7547E-03,   53.8570E-03
C:/temp/dataset/4/22_3.odb,Step-1,Increment      1: Step Time =    1.000,"PART-1-1",           486,         11.25,          -30.,            0.,NA,NA,"",            0.,  -6.71746E-39,  -21.3138E-39,   11.4484E-03
C:/temp/dataset/4/22_3.odb,Step-1,Increment      1: Step Time =    1.000,"PART-1-1",           487,       10.9817,      -27.5238,            0.,NA,NA,"",   30.6774E-03,   24.1315E-03,  -18.9412E-03,   11.5384E-03
C:/temp/dataset/4/22_3.odb,Step-1,Increment      1: Step Time =    1.000,"PART-1-1",           488,       10.1507,      -19.6985,            0.,NA,NA,"",   530.354E-03,   529.834E-03,  -23.4768E-03,   4.86560E-03
C:/temp/dataset/4/22_3.odb,Step-1,Increment      1: Step Time =    1.000,"PART-1-1",           489,       9.14094,      -20.7396,            0.,NA,NA,"",   442.349E-03,   437.563E-03,   64.8961E-03,   10.1258E-03
C:/temp/dataset/4/22_3.odb,Step-1,Increment      1: Step Time =    1.000,"PART-1-1",           490,       11.1621,      -20.8614,            0.,NA,NA,"",   430.947E-03,   419.041E-03,  -100.598E-03,   11.0916E-03
C:/temp/dataset/4/22_3.odb,Step-1,Increment      1: Step Time =    1.000,"PART-1-1",           491,       7.09922,      -20.6753,            0.,NA,NA,"",   524.004E-03,   468.206E-03,   235.293E-03,   27.7951E-03
C:/temp/dataset/4/22_3.odb,Step-1,Increment      1: Step Time =    1.000,"PART-1-1",           492,            5.,       -20.625,            0.,NA,NA,"",   662.754E-03,   515.359E-03,   416.710E-03,   46.6432E-03
C:/temp/dataset/4/22_3.odb,Step-1,Increment      1: Step Time =    1.000,"PART-1-1",           493,       9.08758,      -14.0519,            0.,NA,NA,"",       1.22360,       1.22135,   74.0962E-03,   9.08048E-03
C:/temp/dataset/4/22_3.odb,Step-1,Increment      1: Step Time =    1.000,"PART-1-1",           494,       10.1099,      -15.1447,            0.,NA,NA,"",       1.06129,       1.06003,  -51.7285E-03,   4.82566E-03
C:/temp/dataset/4/22_3.odb,Step-1,Increment      1: Step Time =    1.000,"PART-1-1",           495,       11.0794,      -13.9187,            0.,NA,NA,"",       1.23682,       1.22143,  -194.487E-03,   9.18338E-03
C:/temp/dataset/4/22_3.odb,Step-1,Increment      1: Step Time =    1.000,"PART-1-1",           496,       10.0571,      -12.8260,            0.,NA,NA,"",       1.39045,       1.38878,  -68.1334E-03,   4.81211E-03
C:/temp/dataset/4/22_3.odb,Step-1,Increment      1: Step Time =    1.000,"PART-1-1",           497,       9.02765,      -11.7712,            0.,NA,NA,"",       1.56533,       1.56365,   72.6013E-03,   8.81517E-03
C:/temp/dataset/4/22_3.odb,Step-1,Increment      1: Step Time =    1.000,"PART-1-1",           498,       11.0123,      -11.5393,            0.,NA,NA,"",       1.59329,       1.57698,  -227.391E-03,   8.53286E-03
C:/temp/dataset/4/22_3.odb,Step-1,Increment      1: Step Time =    1.000,"PART-1-1",           499,       9.98284,      -10.4845,            0.,NA,NA,"",       1.75981,       1.75772,  -85.6422E-03,   4.83721E-03
C:/temp/dataset/4/22_3.odb,Step-1,Increment      1: Step Time =    1.000,"PART-1-1",           500,       12.6190,       1.44886,            0.,NA,NA,"",       4.13144,       4.03709,  -877.870E-03,   9.91999E-03
C:/temp/dataset/4/22_3.odb,Step-1,Increment      1: Step Time =    1.000,"PART-1-1",           501,       13.8500,   84.2405E-03,            0.,NA,NA,"",       3.88375,       3.72692,      -1.09252,   14.5364E-03
C:/temp/dataset/4/22_3.odb,Step-1,Increment      1: Step Time =    1.000,"PART-1-1",           502,           15.,          1.25,            0.,NA,NA,"",       4.18845,       3.95408,      -1.38145,   17.5303E-03
C:/temp/dataset/4/22_3.odb,Step-1,Increment      1: Step Time =    1.000,"PART-1-1",           503,       10.0180,      -2.29938,            0.,NA,NA,"",       3.30782,       3.29879,  -244.211E-03,   7.27659E-03
C:/temp/dataset/4/22_3.odb,Step-1,Increment      1: Step Time =    1.000,"PART-1-1",           504,       9.13986,      -3.07696,            0.,NA,NA,"",       3.15669,       3.15618,  -56.9952E-03,   8.45473E-03
C:/temp/dataset/4/22_3.odb,Step-1,Increment      1: Step Time =    1.000,"PART-1-1",           505,       10.6738,      -3.69229,            0.,NA,NA,"",       3.02000,       3.00085,  -339.549E-03,   8.36259E-03
C:/temp/dataset/4/22_3.odb,Step-1,Increment      1: Step Time =    1.000,"PART-1-1",           506,       12.7589,       6.54544,            0.,NA,NA,"",       5.26691,       5.15582,      -1.07602,   8.64392E-03
C:/temp/dataset/4/22_3.odb,Step-1,Increment      1: Step Time =    1.000,"PART-1-1",           507,           15.,          6.25,            0.,NA,NA,"",       5.28284,       5.04245,      -1.57547,   14.8542E-03
C:/temp/dataset/4/22_3.odb,Step-1,Increment      1: Step Time =    1.000,"PART-1-1",           508,       13.9203,       7.65480,            0.,NA,NA,"",       5.55777,       5.38355,      -1.38063,   11.1311E-03
C:/temp/dataset/4/22_3.odb,Step-1,Increment      1: Step Time =    1.000,"PART-1-1",           509,       13.0275,       16.3263,            0.,NA,NA,"",       7.62482,       7.48087,      -1.47458,   4.22580E-03
C:/temp/dataset/4/22_3.odb,Step-1,Increment      1: Step Time =    1.000,"PART-1-1",           510,       14.0150,       15.0581,            0.,NA,NA,"",       7.33496,       7.14205,      -1.67116,   5.18307E-03
C:/temp/dataset/4/22_3.odb,Step-1,Increment      1: Step Time =    1.000,"PART-1-1",           511,           15.,         16.25,            0.,NA,NA,"",       7.65922,       7.40582,      -1.95383,   4.69823E-03
C:/temp/dataset/4/22_3.odb,Step-1,Increment      1: Step Time =    1.000,"PART-1-1",           512,       14.0124,       17.5182,            0.,NA,NA,"",       7.94206,       7.74585,      -1.75449,   3.11749E-03
C:/temp/dataset/4/22_3.odb,Step-1,Increment      1: Step Time =    1.000,"PART-1-1",           513,       13.0175,       18.7421,            0.,NA,NA,"",       8.22462,       8.07693,      -1.55159,   2.83045E-03
C:/temp/dataset/4/22_3.odb,Step-1,Increment      1: Step Time =    1.000,"PART-1-1",           514,           15.,         18.75,            0.,NA,NA,"",       8.27488,       8.01995,      -2.03816,   2.25808E-03
C:/temp/dataset/4/22_3.odb,Step-1,Increment      1: Step Time =    1.000,"PART-1-1",           515,       14.0051,       19.9738,            0.,NA,NA,"",       8.55019,       8.35141,      -1.83292,   1.47255E-03
C:/temp/dataset/4/22_3.odb,Step-1,Increment      1: Step Time =    1.000,"PART-1-1",           516,       5.97628,       21.7197,            0.,NA,NA,"",       9.03504,       9.03476,   71.2521E-03,   3.01059E-03
C:/temp/dataset/4/22_3.odb,Step-1,Increment      1: Step Time =    1.000,"PART-1-1",           517,       6.92463,       22.7965,            0.,NA,NA,"",       9.26973,       9.26775,  -191.293E-03,   2.41217E-03
C:/temp/dataset/4/22_3.odb,Step-1,Increment      1: Step Time =    1.000,"PART-1-1",           518,       5.94835,       23.7852,            0.,NA,NA,"",       9.54004,       9.54002,   18.0784E-03,   1.66460E-03
C:/temp/dataset/4/22_3.odb,Step-1,Increment      1: Step Time =    1.000,"PART-1-1",           519,            5.,       22.7083,            0.,NA,NA,"",       9.31312,       9.30892,   279.964E-03,   2.51387E-03
C:/temp/dataset/4/22_3.odb,Step-1,Increment      1: Step Time =    1.000,"PART-1-1",           520,       13.8862,       24.9278,            0.,NA,NA,"",       9.77183,       9.57373,      -1.95765,   123.244E-06
C:/temp/dataset/4/22_3.odb,Step-1,Increment      1: Step Time =    1.000,"PART-1-1",           521,           15.,         26.25,            0.,NA,NA,"",       10.1218,       9.86382,      -2.27086,   167.975E-06
C:/temp/dataset/4/22_3.odb,Step-1,Increment      1: Step Time =    1.000,"PART-1-1",           522,       6.15342,       27.8650,            0.,NA,NA,"",       10.5295,       10.5284,  -154.880E-03,   139.123E-06
C:/temp/dataset/4/22_3.odb,Step-1,Increment      1: Step Time =    1.000,"PART-1-1",           523,       7.40342,       28.9067,            0.,NA,NA,"",       10.7565,       10.7452,  -491.919E-03,   134.763E-06
C:/temp/dataset/4/22_3.odb,Step-1,Increment      1: Step Time =    1.000,"PART-1-1",           524,          6.25,           30.,            0.,NA,NA,"",       11.0501,       11.0474,  -243.256E-03,   63.5035E-06
C:/temp/dataset/4/22_3.odb,Step-1,Increment      1: Step Time =    1.000,"PART-1-1",           525,            5.,       28.9583,            0.,NA,NA,"",       10.8311,       10.8307,   93.8203E-03,   65.5847E-06
C:/temp/dataset/4/22_3.odb,Step-1,Increment      1: Step Time =    1.000,"PART-1-1",           526,       7.11917,       26.8292,            0.,NA,NA,"",       10.2522,       10.2459,  -359.328E-03,   150.625E-06
C:/temp/dataset/4/22_3.odb,Step-1,Increment      1: Step Time =    1.000,"PART-1-1",           527,            5.,        26.875,            0.,NA,NA,"",       10.3226,       10.3214,   156.777E-03,   264.199E-06
C:/temp/dataset/4/22_3.odb,Step-1,Increment      1: Step Time =    1.000,"PART-1-1",           528,       5.96574,       25.8392,            0.,NA,NA,"",       10.0392,       10.0390,  -47.8488E-03,   290.192E-06
C:/temp/dataset/4/22_3.odb,Step-1,Increment      1: Step Time =    1.000,"PART-1-1",           529,       8.59546,       27.4701,            0.,NA,NA,"",       10.3842,       10.3578,  -739.615E-03,   79.9322E-06
C:/temp/dataset/4/22_3.odb,Step-1,Increment      1: Step Time =    1.000,"PART-1-1",           530,       9.94204,       28.5635,            0.,NA,NA,"",       10.6417,       10.5844,      -1.10228,   91.6537E-06
C:/temp/dataset/4/22_3.odb,Step-1,Increment      1: Step Time =    1.000,"PART-1-1",           531,          8.75,           30.,            0.,NA,NA,"",       11.0051,       10.9719,  -854.392E-03,   194.861E-06
C:/temp/dataset/4/22_3.odb,Step-1,Increment      1: Step Time =    1.000,"PART-1-1",           532,            5.,       24.7917,            0.,NA,NA,"",       9.81525,       9.81282,   218.741E-03,   470.891E-06
C:/temp/dataset/4/22_3.odb,Step-1,Increment      1: Step Time =    1.000,"PART-1-1",           533,       6.91409,       24.8327,            0.,NA,NA,"",       9.76808,       9.76491,  -248.871E-03,   736.216E-06
C:/temp/dataset/4/22_3.odb,Step-1,Increment      1: Step Time =    1.000,"PART-1-1",           534,            5.,        20.625,            0.,NA,NA,"",       8.80409,       8.79741,   342.925E-03,   2.87565E-03
C:/temp/dataset/4/22_3.odb,Step-1,Increment      1: Step Time =    1.000,"PART-1-1",           535,       5.99534,       19.6263,            0.,NA,NA,"",       8.51795,       8.51699,   128.049E-03,   3.63520E-03
C:/temp/dataset/4/22_3.odb,Step-1,Increment      1: Step Time =    1.000,"PART-1-1",           536,       6.97162,       20.7210,            0.,NA,NA,"",       8.75685,       8.75569,  -142.460E-03,   3.58316E-03
C:/temp/dataset/4/22_3.odb,Step-1,Increment      1: Step Time =    1.000,"PART-1-1",           537,       9.90537,       10.7177,            0.,NA,NA,"",       6.22597,       6.20139,  -552.785E-03,   4.81351E-03
C:/temp/dataset/4/22_3.odb,Step-1,Increment      1: Step Time =    1.000,"PART-1-1",           538,       8.83179,       9.75083,            0.,NA,NA,"",       6.00600,       5.99960,  -277.197E-03,   5.52908E-03
C:/temp/dataset/4/22_3.odb,Step-1,Increment      1: Step Time =    1.000,"PART-1-1",           539,       10.8380,       9.37550,            0.,NA,NA,"",       5.90228,       5.85715,  -728.518E-03,   5.19087E-03
C:/temp/dataset/4/22_3.odb,Step-1,Increment      1: Step Time =    1.000,"PART-1-1",           540,       5.96737,       11.1773,            0.,NA,NA,"",       6.43888,       6.42898,   356.858E-03,   8.78455E-03
C:/temp/dataset/4/22_3.odb,Step-1,Increment      1: Step Time =    1.000,"PART-1-1",           541,       6.95908,       12.1740,            0.,NA,NA,"",       6.64026,       6.63952,   98.8388E-03,   6.62488E-03
C:/temp/dataset/4/22_3.odb,Step-1,Increment      1: Step Time =    1.000,"PART-1-1",           542,            5.,       12.2917,            0.,NA,NA,"",       6.75531,       6.73175,   563.809E-03,   9.52537E-03
C:/temp/dataset/4/22_3.odb,Step-1,Increment      1: Step Time =    1.000,"PART-1-1",           543,       6.89189,       10.0466,            0.,NA,NA,"",       6.12938,       6.12717,   164.650E-03,   8.22963E-03
C:/temp/dataset/4/22_3.odb,Step-1,Increment      1: Step Time =    1.000,"PART-1-1",           544,            5.,       10.2083,            0.,NA,NA,"",       6.25647,       6.22712,   605.253E-03,   11.8328E-03
C:/temp/dataset/4/22_3.odb,Step-1,Increment      1: Step Time =    1.000,"PART-1-1",           545,  -883.251E-03,       2.97832,            0.,NA,NA,"",       5.05967,       4.68734,       1.90500,   418.136E-06
C:/temp/dataset/4/22_3.odb,Step-1,Increment      1: Step Time =    1.000,"PART-1-1",           546,         -1.25,            5.,            0.,NA,NA,"",       5.47374,       5.11933,       1.93760,   1.10929E-03
C:/temp/dataset/4/22_3.odb,Step-1,Increment      1: Step Time =    1.000,"PART-1-1",           547,      -2.28350,       3.97568,            0.,NA,NA,"",       5.38746,       4.92794,       2.17717,   453.219E-06
C:/temp/dataset/4/22_3.odb,Step-1,Increment      1: Step Time =    1.000,"PART-1-1",           548,      -3.12559,       2.92107,            0.,NA,NA,"",       5.29000,       4.72549,       2.37778,   393.735E-06
C:/temp/dataset/4/22_3.odb,Step-1,Increment      1: Step Time =    1.000,"PART-1-1",           549,         -3.75,            5.,            0.,NA,NA,"",       5.73265,       5.17662,       2.46291,   448.983E-06
C:/temp/dataset/4/22_3.odb,Step-1,Increment      1: Step Time =    1.000,"PART-1-1",           550,      -7.01026,       10.3490,            0.,NA,NA,"",       7.05958,       6.37652,       3.02946,   3.34364E-06
C:/temp/dataset/4/22_3.odb,Step-1,Increment      1: Step Time =    1.000,"PART-1-1",           551,           -5.,       10.2083,            0.,NA,NA,"",       6.82069,       6.30184,       2.60935,   5.14742E-06
C:/temp/dataset/4/22_3.odb,Step-1,Increment      1: Step Time =    1.000,"PART-1-1",           552,      -6.00030,       11.3233,            0.,NA,NA,"",       7.12970,       6.55903,       2.79497,   1.77541E-06
C:/temp/dataset/4/22_3.odb,Step-1,Increment      1: Step Time =    1.000,"PART-1-1",           553,      -6.90277,       16.5792,            0.,NA,NA,"",       8.20327,       7.68590,       2.86717,   224.565E-09
C:/temp/dataset/4/22_3.odb,Step-1,Increment      1: Step Time =    1.000,"PART-1-1",           554,           -5.,       16.4583,            0.,NA,NA,"",       8.00799,       7.61779,       2.46925,   102.132E-09
C:/temp/dataset/4/22_3.odb,Step-1,Increment      1: Step Time =    1.000,"PART-1-1",           555,      -5.93592,       17.5473,            0.,NA,NA,"",       8.29974,       7.86805,       2.64189,   85.6043E-09
C:/temp/dataset/4/22_3.odb,Step-1,Increment      1: Step Time =    1.000,"PART-1-1",           556,      -5.96041,       23.6583,            0.,NA,NA,"",       9.49313,       9.15528,       2.51006,   74.4318E-09
C:/temp/dataset/4/22_3.odb,Step-1,Increment      1: Step Time =    1.000,"PART-1-1",           557,           -5.,       24.7917,            0.,NA,NA,"",       9.64630,       9.37238,       2.28244,   75.1784E-09
C:/temp/dataset/4/22_3.odb,Step-1,Increment      1: Step Time =    1.000,"PART-1-1",           558,      -7.48847,       28.8776,            0.,NA,NA,"",       10.6406,       10.2885,       2.71479,   75.7314E-09
C:/temp/dataset/4/22_3.odb,Step-1,Increment      1: Step Time =    1.000,"PART-1-1",           559,           -5.,       28.9583,            0.,NA,NA,"",       10.4808,       10.2497,       2.18903,   79.6526E-09
C:/temp/dataset/4/22_3.odb,Step-1,Increment      1: Step Time =    1.000,"PART-1-1",           560,         -6.25,           30.,            0.,NA,NA,"",       10.7744,       10.4970,       2.42887,   77.6145E-09
C:/temp/dataset/4/22_3.odb,Step-1,Increment      1: Step Time =    1.000,"PART-1-1",           561,       12.9634,       11.4929,            0.,NA,NA,"",       6.43822,       6.30684,      -1.29400,   6.84489E-03
C:/temp/dataset/4/22_3.odb,Step-1,Increment      1: Step Time =    1.000,"PART-1-1",           562,       13.9657,       10.1417,            0.,NA,NA,"",       6.14257,       5.96094,      -1.48269,   9.42298E-03
C:/temp/dataset/4/22_3.odb,Step-1,Increment      1: Step Time =    1.000,"PART-1-1",           563,           15.,         11.25,            0.,NA,NA,"",       6.44599,       6.19801,      -1.77075,   10.4258E-03
C:/temp/dataset/4/22_3.odb,Step-1,Increment      1: Step Time =    1.000,"PART-1-1",           564,       13.9978,       12.6011,            0.,NA,NA,"",       6.73426,       6.54633,      -1.57985,   7.36102E-03
C:/temp/dataset/4/22_3.odb,Step-1,Increment      1: Step Time =    1.000,"PART-1-1",           565,       9.13480,      -18.5479,            0.,NA,NA,"",   659.997E-03,   656.104E-03,   71.5769E-03,   9.69363E-03
C:/temp/dataset/4/22_3.odb,Step-1,Increment      1: Step Time =    1.000,"PART-1-1",           566,       11.1537,      -18.5886,            0.,NA,NA,"",   654.013E-03,   640.848E-03,  -130.564E-03,   10.5484E-03
C:/temp/dataset/4/22_3.odb,Step-1,Increment      1: Step Time =    1.000,"PART-1-1",           567,       10.1377,      -17.4381,            0.,NA,NA,"",   773.989E-03,   773.137E-03,  -36.3076E-03,   4.84325E-03
C:/temp/dataset/4/22_3.odb,Step-1,Increment      1: Step Time =    1.000,"PART-1-1",           568,      -8.81573,       27.5627,            0.,NA,NA,"",       10.4867,       10.0414,       3.02372,   75.9785E-09
C:/temp/dataset/4/22_3.odb,Step-1,Increment      1: Step Time =    1.000,"PART-1-1",           569,         -8.75,           30.,            0.,NA,NA,"",       10.9590,       10.5531,       2.95525,   74.9640E-09
C:/temp/dataset/4/22_3.odb,Step-1,Increment      1: Step Time =    1.000,"PART-1-1",           570,            5.,      -24.7917,            0.,NA,NA,"",   318.753E-03,   203.712E-03,   245.163E-03,   50.5768E-03
C:/temp/dataset/4/22_3.odb,Step-1,Increment      1: Step Time =    1.000,"PART-1-1",           571,       6.09200,      -25.8775,            0.,NA,NA,"",   196.542E-03,   125.818E-03,   150.993E-03,   41.2756E-03
C:/temp/dataset/4/22_3.odb,Step-1,Increment      1: Step Time =    1.000,"PART-1-1",           572,       7.15121,      -24.8757,            0.,NA,NA,"",   207.100E-03,   157.616E-03,   134.341E-03,   30.5159E-03
C:/temp/dataset/4/22_3.odb,Step-1,Increment      1: Step Time =    1.000,"PART-1-1",           573,       13.1040,      -21.0477,            0.,NA,NA,"",   485.973E-03,   412.209E-03,  -257.397E-03,   28.5261E-03
C:/temp/dataset/4/22_3.odb,Step-1,Increment      1: Step Time =    1.000,"PART-1-1",           574,       14.0487,      -22.3697,            0.,NA,NA,"",   429.661E-03,   318.821E-03,  -288.030E-03,   38.6779E-03
C:/temp/dataset/4/22_3.odb,Step-1,Increment      1: Step Time =    1.000,"PART-1-1",           575,           15.,        -21.25,            0.,NA,NA,"",   588.342E-03,   420.979E-03,  -411.003E-03,   46.7477E-03
C:/temp/dataset/4/22_3.odb,Step-1,Increment      1: Step Time =    1.000,"PART-1-1",           576,            5.,       -26.875,            0.,NA,NA,"",   186.613E-03,   108.040E-03,   152.157E-03,   52.7731E-03
C:/temp/dataset/4/22_3.odb,Step-1,Increment      1: Step Time =    1.000,"PART-1-1",           577,       12.8133,      -6.31290,            0.,NA,NA,"",       2.55113,       2.46253,  -666.491E-03,   17.1536E-03
C:/temp/dataset/4/22_3.odb,Step-1,Increment      1: Step Time =    1.000,"PART-1-1",           578,       13.9319,      -7.55671,            0.,NA,NA,"",       2.37546,       2.22723,  -825.984E-03,   24.3135E-03
C:/temp/dataset/4/22_3.odb,Step-1,Increment      1: Step Time =    1.000,"PART-1-1",           579,           15.,         -6.25,            0.,NA,NA,"",       2.68412,       2.45841,      -1.07736,   28.6028E-03
C:/temp/dataset/4/22_3.odb,Step-1,Increment      1: Step Time =    1.000,"PART-1-1",           580,            5.,       18.5417,            0.,NA,NA,"",       8.29117,       8.28128,   404.790E-03,   3.72871E-03
C:/temp/dataset/4/22_3.odb,Step-1,Increment      1: Step Time =    1.000,"PART-1-1",           581,       6.00122,       17.5195,            0.,NA,NA,"",       7.99305,       7.99087,   186.994E-03,   4.52232E-03
C:/temp/dataset/4/22_3.odb,Step-1,Increment      1: Step Time =    1.000,"PART-1-1",           582,       6.99656,       18.6041,            0.,NA,NA,"",       8.22950,       8.22904,  -87.1331E-03,   4.79155E-03
C:/temp/dataset/4/22_3.odb,Step-1,Increment      1: Step Time =    1.000,"PART-1-1",           583,       12.8545,       23.6160,            0.,NA,NA,"",       9.43132,       9.28325,      -1.66463,   538.270E-06
C:/temp/dataset/4/22_3.odb,Step-1,Increment      1: Step Time =    1.000,"PART-1-1",           584,       13.9683,       22.4382,            0.,NA,NA,"",       9.15918,       8.95965,      -1.90137,   476.231E-06
C:/temp/dataset/4/22_3.odb,Step-1,Increment      1: Step Time =    1.000,"PART-1-1",           585,           15.,         23.75,            0.,NA,NA,"",       9.50737,       9.25052,      -2.19499,   87.8429E-06
C:/temp/dataset/4/22_3.odb,Step-1,Increment      1: Step Time =    1.000,"PART-1-1",           586,            5.,       16.4583,            0.,NA,NA,"",       7.77216,       7.75830,   464.016E-03,   5.14206E-03
C:/temp/dataset/4/22_3.odb,Step-1,Increment      1: Step Time =    1.000,"PART-1-1",           587,       7.00480,       16.4638,            0.,NA,NA,"",       7.69488,       7.69483,  -27.2475E-03,   4.80501E-03
C:/temp/dataset/4/22_3.odb,Step-1,Increment      1: Step Time =    1.000,"PART-1-1",           588,       12.9734,       21.1620,            0.,NA,NA,"",       8.82514,       8.67560,      -1.61776,   1.52240E-03
C:/temp/dataset/4/22_3.odb,Step-1,Increment      1: Step Time =    1.000,"PART-1-1",           589,           15.,         21.25,            0.,NA,NA,"",       8.89163,       8.63568,      -2.11802,   629.335E-06
C:/temp/dataset/4/22_3.odb,Step-1,Increment      1: Step Time =    1.000,"PART-1-1",           590,            5.,       6.04167,            0.,NA,NA,"",       5.27946,       5.23744,   664.789E-03,   24.5128E-03
C:/temp/dataset/4/22_3.odb,Step-1,Increment      1: Step Time =    1.000,"PART-1-1",           591,       5.70418,       5.21013,            0.,NA,NA,"",       5.04662,       5.01971,   520.505E-03,   16.4409E-03
C:/temp/dataset/4/22_3.odb,Step-1,Increment      1: Step Time =    1.000,"PART-1-1",           592,       6.54256,       6.20387,            0.,NA,NA,"",       5.23787,       5.22805,   320.577E-03,   10.0404E-03
C:/temp/dataset/4/22_3.odb,Step-1,Increment      1: Step Time =    1.000,"PART-1-1",           593,       7.80464,       8.81181,            0.,NA,NA,"",       5.80525,       5.80523,  -17.7507E-03,   7.14688E-03
C:/temp/dataset/4/22_3.odb,Step-1,Increment      1: Step Time =    1.000,"PART-1-1",           594,       7.55468,       6.70991,            0.,NA,NA,"",       5.31924,       5.31854,   86.3337E-03,   8.47964E-03
C:/temp/dataset/4/22_3.odb,Step-1,Increment      1: Step Time =    1.000,"PART-1-1",           595,           -5.,       12.2917,            0.,NA,NA,"",       7.21120,       6.74049,       2.56265,   1.26127E-06
C:/temp/dataset/4/22_3.odb,Step-1,Increment      1: Step Time =    1.000,"PART-1-1",           596,      -13.0551,       11.1433,            0.,NA,NA,"",       7.93528,       6.67926,       4.28441,   1.79616E-06
C:/temp/dataset/4/22_3.odb,Step-1,Increment      1: Step Time =    1.000,"PART-1-1",           597,          -15.,       11.4063,            0.,NA,NA,"",       8.24147,       6.77823,       4.68801,   1.74700E-06
C:/temp/dataset/4/22_3.odb,Step-1,Increment      1: Step Time =    1.000,"PART-1-1",           598,           -5.,       18.5417,            0.,NA,NA,"",       8.41278,       8.05643,       2.42254,   61.7874E-09
C:/temp/dataset/4/22_3.odb,Step-1,Increment      1: Step Time =    1.000,"PART-1-1",           599,      -6.83195,       18.5917,            0.,NA,NA,"",       8.58023,       8.10804,       2.80714,   97.2720E-09
C:/temp/dataset/4/22_3.odb,Step-1,Increment      1: Step Time =    1.000,"PART-1-1",           600,      -12.9744,       15.4368,            0.,NA,NA,"",       8.65317,       7.58146,       4.17118,   371.600E-09
C:/temp/dataset/4/22_3.odb,Step-1,Increment      1: Step Time =    1.000,"PART-1-1",           601,      -13.9736,       16.6988,            0.,NA,NA,"",       8.99340,       7.86959,       4.35326,   115.020E-09
C:/temp/dataset/4/22_3.odb,Step-1,Increment      1: Step Time =    1.000,"PART-1-1",           602,          -15.,       15.7813,            0.,NA,NA,"",       8.96372,       7.69940,       4.58994,   151.507E-09
C:/temp/dataset/4/22_3.odb,Step-1,Increment      1: Step Time =    1.000,"PART-1-1",           603,      -6.85389,       22.5676,            0.,NA,NA,"",       9.35081,       8.94567,       2.72263,   75.6277E-09
C:/temp/dataset/4/22_3.odb,Step-1,Increment      1: Step Time =    1.000,"PART-1-1",           604,           -5.,       22.7083,            0.,NA,NA,"",       9.23236,       8.93373,       2.32914,   70.7085E-09
C:/temp/dataset/4/22_3.odb,Step-1,Increment      1: Step Time =    1.000,"PART-1-1",           605,      -7.62380,       21.5126,            0.,NA,NA,"",       9.21195,       8.74078,       2.90839,   77.8058E-09
C:/temp/dataset/4/22_3.odb,Step-1,Increment      1: Step Time =    1.000,"PART-1-1",           606,      -11.2433,       25.0031,            0.,NA,NA,"",       10.2097,       9.55686,       3.59224,   75.6885E-09
C:/temp/dataset/4/22_3.odb,Step-1,Increment      1: Step Time =    1.000,"PART-1-1",           607,      -10.1220,       24.6816,            0.,NA,NA,"",       10.0439,       9.46403,       3.36335,   76.0786E-09
C:/temp/dataset/4/22_3.odb,Step-1,Increment      1: Step Time =    1.000,"PART-1-1",           608,      -9.68436,       26.2404,            0.,NA,NA,"",       10.3038,       9.78242,       3.23626,   75.9996E-09
C:/temp/dataset/4/22_3.odb,Step-1,Increment      1: Step Time =    1.000,"PART-1-1",           609,      -10.8057,       26.5619,            0.,NA,NA,"",       10.4656,       9.87525,       3.46516,   75.6493E-09
C:/temp/dataset/4/22_3.odb,Step-1,Increment      1: Step Time =    1.000,"PART-1-1",           610,            5.,      -6.04167,            0.,NA,NA,"",       2.76862,       2.65999,   767.934E-03,   38.3572E-03
C:/temp/dataset/4/22_3.odb,Step-1,Increment      1: Step Time =    1.000,"PART-1-1",           611,       5.81487,      -6.90448,            0.,NA,NA,"",       2.54571,       2.47211,   607.701E-03,   27.1849E-03
C:/temp/dataset/4/22_3.odb,Step-1,Increment      1: Step Time =    1.000,"PART-1-1",           612,       6.44107,      -5.66337,            0.,NA,NA,"",       2.73584,       2.69095,   493.599E-03,   16.9033E-03
C:/temp/dataset/4/22_3.odb,Step-1,Increment      1: Step Time =    1.000,"PART-1-1",           613,       5.62621,      -4.80056,            0.,NA,NA,"",       2.95578,       2.88283,   652.645E-03,   24.2848E-03
C:/temp/dataset/4/22_3.odb,Step-1,Increment      1: Step Time =    1.000,"PART-1-1",           614,            5.,        -8.125,            0.,NA,NA,"",       2.38946,       2.27305,   736.745E-03,   33.7371E-03
C:/temp/dataset/4/22_3.odb,Step-1,Increment      1: Step Time =    1.000,"PART-1-1",           615,       8.00489,       17.5473,            0.,NA,NA,"",       7.93882,       7.93311,  -300.964E-03,   4.81819E-03
C:/temp/dataset/4/22_3.odb,Step-1,Increment      1: Step Time =    1.000,"PART-1-1",           616,       8.00828,       15.3576,            0.,NA,NA,"",       7.39277,       7.38895,  -237.658E-03,   4.77413E-03
C:/temp/dataset/4/22_3.odb,Step-1,Increment      1: Step Time =    1.000,"PART-1-1",           617,       11.1265,      -16.2686,            0.,NA,NA,"",   923.418E-03,   909.075E-03,  -162.121E-03,   9.90070E-03
C:/temp/dataset/4/22_3.odb,Step-1,Increment      1: Step Time =    1.000,"PART-1-1",           618,       9.12111,      -16.3141,            0.,NA,NA,"",   921.002E-03,   918.009E-03,   74.1824E-03,   9.33957E-03
C:/temp/dataset/4/22_3.odb,Step-1,Increment      1: Step Time =    1.000,"PART-1-1",           619,      -9.91602,       15.9767,            0.,NA,NA,"",       8.39766,       7.62657,       3.51512,   310.092E-09
C:/temp/dataset/4/22_3.odb,Step-1,Increment      1: Step Time =    1.000,"PART-1-1",           620,      -10.9598,       15.0860,            0.,NA,NA,"",       8.35386,       7.46245,       3.75485,   542.367E-09
C:/temp/dataset/4/22_3.odb,Step-1,Increment      1: Step Time =    1.000,"PART-1-1",           621,      -8.93702,       14.7598,            0.,NA,NA,"",       8.07032,       7.34842,       3.33627,   632.397E-09
C:/temp/dataset/4/22_3.odb,Step-1,Increment      1: Step Time =    1.000,"PART-1-1",           622,      -13.0880,       4.79273,            0.,NA,NA,"",       6.94292,       5.34290,       4.43368,   1.94532E-06
C:/temp/dataset/4/22_3.odb,Step-1,Increment      1: Step Time =    1.000,"PART-1-1",           623,          -15.,       4.84375,            0.,NA,NA,"",       7.24572,       5.39651,       4.83509,   6.53554E-06
C:/temp/dataset/4/22_3.odb,Step-1,Increment      1: Step Time =    1.000,"PART-1-1",           624,           -5.,       6.04167,            0.,NA,NA,"",       6.06051,       5.42449,       2.70272,   43.0890E-06
C:/temp/dataset/4/22_3.odb,Step-1,Increment      1: Step Time =    1.000,"PART-1-1",           625,      -7.12843,       5.83601,            0.,NA,NA,"",       6.27937,       5.42892,       3.15552,   11.4561E-06
C:/temp/dataset/4/22_3.odb,Step-1,Increment      1: Step Time =    1.000,"PART-1-1",           626,       12.9112,      -8.87192,            0.,NA,NA,"",       2.09084,       2.00261,  -600.957E-03,   19.3314E-03
C:/temp/dataset/4/22_3.odb,Step-1,Increment      1: Step Time =    1.000,"PART-1-1",           627,           15.,         -8.75,            0.,NA,NA,"",       2.23677,       2.01649,  -967.935E-03,   32.4733E-03
C:/temp/dataset/4/22_3.odb,Step-1,Increment      1: Step Time =    1.000,"PART-1-1",           628,       13.0740,      -16.2399,            0.,NA,NA,"",   995.102E-03,   912.694E-03,  -396.509E-03,   25.1437E-03
C:/temp/dataset/4/22_3.odb,Step-1,Increment      1: Step Time =    1.000,"PART-1-1",           629,           15.,        -16.25,            0.,NA,NA,"",       1.12271,   925.714E-03,  -635.240E-03,   41.2176E-03
C:/temp/dataset/4/22_3.odb,Step-1,Increment      1: Step Time =    1.000,"PART-1-1",           630,       13.0128,       13.9092,            0.,NA,NA,"",       7.02798,       6.88932,      -1.38917,   5.58418E-03
C:/temp/dataset/4/22_3.odb,Step-1,Increment      1: Step Time =    1.000,"PART-1-1",           631,           15.,         13.75,            0.,NA,NA,"",       7.04824,       6.79715,      -1.86451,   7.55095E-03
C:/temp/dataset/4/22_3.odb,Step-1,Increment      1: Step Time =    1.000,"PART-1-1",           632,       10.9505,       11.7339,            0.,NA,NA,"",       6.47073,       6.41756,  -827.807E-03,   5.21086E-03
C:/temp/dataset/4/22_3.odb,Step-1,Increment      1: Step Time =    1.000,"PART-1-1",           633,       9.98883,       12.9959,            0.,NA,NA,"",       6.78051,       6.75023,  -640.077E-03,   4.83947E-03
C:/temp/dataset/4/22_3.odb,Step-1,Increment      1: Step Time =    1.000,"PART-1-1",           634,       8.94372,       11.9797,            0.,NA,NA,"",       6.54301,       6.53287,  -364.096E-03,   5.19983E-03
C:/temp/dataset/4/22_3.odb,Step-1,Increment      1: Step Time =    1.000,"PART-1-1",           635,      -13.9153,       18.9000,            0.,NA,NA,"",       9.37210,       8.33175,       4.29165,   69.8930E-09
C:/temp/dataset/4/22_3.odb,Step-1,Increment      1: Step Time =    1.000,"PART-1-1",           636,      -12.6393,       19.9841,            0.,NA,NA,"",       9.42201,       8.53140,       3.99868,   79.6668E-09
C:/temp/dataset/4/22_3.odb,Step-1,Increment      1: Step Time =    1.000,"PART-1-1",           637,          -15.,       20.1563,            0.,NA,NA,"",       9.72064,       8.62056,       4.49186,   61.8769E-09
C:/temp/dataset/4/22_3.odb,Step-1,Increment      1: Step Time =    1.000,"PART-1-1",           638,       8.12191,      -21.7795,            0.,NA,NA,"",   382.429E-03,   357.599E-03,   135.554E-03,   19.1873E-03
C:/temp/dataset/4/22_3.odb,Step-1,Increment      1: Step Time =    1.000,"PART-1-1",           639,       8.12482,      -23.8590,            0.,NA,NA,"",   230.558E-03,   205.379E-03,   104.769E-03,   20.1535E-03
C:/temp/dataset/4/22_3.odb,Step-1,Increment      1: Step Time =    1.000,"PART-1-1",           640,       8.11825,      -19.6354,            0.,NA,NA,"",   576.918E-03,   553.655E-03,   162.172E-03,   18.2169E-03
C:/temp/dataset/4/22_3.odb,Step-1,Increment      1: Step Time =    1.000,"PART-1-1",           641,       8.10952,      -17.4508,            0.,NA,NA,"",   813.322E-03,   792.200E-03,   184.150E-03,   17.3261E-03
C:/temp/dataset/4/22_3.odb,Step-1,Increment      1: Step Time =    1.000,"PART-1-1",           642,       7.85781,       23.9076,            0.,NA,NA,"",       9.52047,       9.50974,  -451.796E-03,   1.23059E-03
C:/temp/dataset/4/22_3.odb,Step-1,Increment      1: Step Time =    1.000,"PART-1-1",           643,       7.94870,       21.8524,            0.,NA,NA,"",       9.01236,       9.00287,  -413.537E-03,   2.69996E-03
C:/temp/dataset/4/22_3.odb,Step-1,Increment      1: Step Time =    1.000,"PART-1-1",           644,       4.21929,       2.98066,            0.,NA,NA,"",       4.65451,       4.57568,   852.970E-03,   8.72517E-03
C:/temp/dataset/4/22_3.odb,Step-1,Increment      1: Step Time =    1.000,"PART-1-1",           645,       5.32392,       3.96649,            0.,NA,NA,"",       4.80018,       4.76044,   616.398E-03,   14.3995E-03
C:/temp/dataset/4/22_3.odb,Step-1,Increment      1: Step Time =    1.000,"PART-1-1",           646,          3.75,            5.,            0.,NA,NA,"",       5.08828,       5.00709,   905.367E-03,   7.06984E-03
C:/temp/dataset/4/22_3.odb,Step-1,Increment      1: Step Time =    1.000,"PART-1-1",           647,       12.8859,       9.04653,            0.,NA,NA,"",       5.85198,       5.72951,      -1.19097,   7.93505E-03
C:/temp/dataset/4/22_3.odb,Step-1,Increment      1: Step Time =    1.000,"PART-1-1",           648,           15.,          8.75,            0.,NA,NA,"",       5.85641,       5.61213,      -1.67378,   12.9764E-03
C:/temp/dataset/4/22_3.odb,Step-1,Increment      1: Step Time =    1.000,"PART-1-1",           649,      -8.02807,       9.41948,            0.,NA,NA,"",       7.01018,       6.20363,       3.26461,   3.29782E-06
C:/temp/dataset/4/22_3.odb,Step-1,Increment      1: Step Time =    1.000,"PART-1-1",           650,      -8.84347,       16.8085,            0.,NA,NA,"",       8.43738,       7.77767,       3.27064,   247.562E-09
C:/temp/dataset/4/22_3.odb,Step-1,Increment      1: Step Time =    1.000,"PART-1-1",           651,      -9.78583,       18.0165,            0.,NA,NA,"",       8.75788,       8.05315,       3.44198,   129.222E-09
C:/temp/dataset/4/22_3.odb,Step-1,Increment      1: Step Time =    1.000,"PART-1-1",           652,          -15.,       17.9688,            0.,NA,NA,"",       9.33836,       8.15998,       4.54090,   57.7798E-09
C:/temp/dataset/4/22_3.odb,Step-1,Increment      1: Step Time =    1.000,"PART-1-1",           653,          -15.,       24.5313,            0.,NA,NA,"",       10.5048,       9.54172,       4.39379,   71.1106E-09
C:/temp/dataset/4/22_3.odb,Step-1,Increment      1: Step Time =    1.000,"PART-1-1",           654,      -12.9952,       24.7258,            0.,NA,NA,"",       10.3300,       9.53775,       3.96731,   73.5949E-09
C:/temp/dataset/4/22_3.odb,Step-1,Increment      1: Step Time =    1.000,"PART-1-1",           655,      -11.4985,       21.8877,            0.,NA,NA,"",       9.65065,       8.90662,       3.71581,   77.4547E-09
C:/temp/dataset/4/22_3.odb,Step-1,Increment      1: Step Time =    1.000,"PART-1-1",           656,      -11.4490,       20.6565,            0.,NA,NA,"",       9.41771,       8.64628,       3.73298,   80.9515E-09
C:/temp/dataset/4/22_3.odb,Step-1,Increment      1: Step Time =    1.000,"PART-1-1",           657,      -10.1446,       20.7260,            0.,NA,NA,"",       9.29814,       8.63169,       3.45678,   84.4025E-09
C:/temp/dataset/4/22_3.odb,Step-1,Increment      1: Step Time =    1.000,"PART-1-1",           658,      -7.69218,       19.6350,            0.,NA,NA,"",       8.85792,       8.34699,       2.96488,   84.9099E-09
C:/temp/dataset/4/22_3.odb,Step-1,Increment      1: Step Time =    1.000,"PART-1-1",           659,      -8.68744,       18.7463,            0.,NA,NA,"",       8.78362,       8.18218,       3.19435,   111.434E-09
C:/temp/dataset/4/22_3.odb,Step-1,Increment      1: Step Time =    1.000,"PART-1-1",           660,      -7.82721,       17.7030,            0.,NA,NA,"",       8.50388,       7.94323,       3.03662,   127.908E-09
C:/temp/dataset/4/22_3.odb,Step-1,Increment      1: Step Time =    1.000,"PART-1-1",           661,      -9.52114,       19.8817,            0.,NA,NA,"",       9.07841,       8.43993,       3.34444,   89.3395E-09
C:/temp/dataset/4/22_3.odb,Step-1,Increment      1: Step Time =    1.000,"PART-1-1",           662,      -10.6195,       19.1519,            0.,NA,NA,"",       9.05394,       8.31089,       3.59206,   103.034E-09
C:/temp/dataset/4/22_3.odb,Step-1,Increment      1: Step Time =    1.000,"PART-1-1",           663,      -12.1485,       3.78191,            0.,NA,NA,"",       6.65112,       5.10903,       4.25854,   7.14142E-06
C:/temp/dataset/4/22_3.odb,Step-1,Increment      1: Step Time =    1.000,"PART-1-1",           664,      -10.9850,       2.86362,            0.,NA,NA,"",       6.33900,       4.88963,       4.03416,   15.7682E-06
C:/temp/dataset/4/22_3.odb,Step-1,Increment      1: Step Time =    1.000,"PART-1-1",           665,      -9.06958,       8.49577,            0.,NA,NA,"",       6.97662,       6.03249,       3.50461,   4.16711E-06
C:/temp/dataset/4/22_3.odb,Step-1,Increment      1: Step Time =    1.000,"PART-1-1",           666,      -8.08215,       7.28595,            0.,NA,NA,"",       6.64643,       5.75562,       3.32383,   6.99355E-06
C:/temp/dataset/4/22_3.odb,Step-1,Increment      1: Step Time =    1.000,"PART-1-1",           667,      -10.1292,       7.60955,            0.,NA,NA,"",       6.96398,       5.86964,       3.74758,   3.34020E-06
C:/temp/dataset/4/22_3.odb,Step-1,Increment      1: Step Time =    1.000,"PART-1-1",           668,      -11.2104,       6.77234,            0.,NA,NA,"",       6.97445,       5.71761,       3.99399,   2.38739E-06
C:/temp/dataset/4/22_3.odb,Step-1,Increment      1: Step Time =    1.000,"PART-1-1",           669,      -10.2942,       5.63122,            0.,NA,NA,"",       6.66485,       5.45681,       3.82668,   7.29658E-06
C:/temp/dataset/4/22_3.odb,Step-1,Increment      1: Step Time =    1.000,"PART-1-1",           670,      -9.21309,       6.46842,            0.,NA,NA,"",       6.65413,       5.60884,       3.58028,   6.14877E-06
C:/temp/dataset/4/22_3.odb,Step-1,Increment      1: Step Time =    1.000,"PART-1-1",           671,        -11.25,           -5.,            0.,NA,NA,"",       5.35717,       3.24012,       4.26625,   2.99032E-06
C:/temp/dataset/4/22_3.odb,Step-1,Increment      1: Step Time =    1.000,"PART-1-1",           672,      -10.0273,      -3.93877,            0.,NA,NA,"",       5.26193,       3.43612,       3.98509,   11.3134E-06
C:/temp/dataset/4/22_3.odb,Step-1,Increment      1: Step Time =    1.000,"PART-1-1",           673,         -8.75,           -5.,            0.,NA,NA,"",       4.91184,       3.18410,       3.74001,   24.4540E-06
C:/temp/dataset/4/22_3.odb,Step-1,Increment      1: Step Time =    1.000,"PART-1-1",           674,      -7.59562,      -4.02918,            0.,NA,NA,"",       4.83577,       3.36258,       3.47530,   50.1118E-06
C:/temp/dataset/4/22_3.odb,Step-1,Increment      1: Step Time =    1.000,"PART-1-1",           675,      -8.87289,      -2.96795,            0.,NA,NA,"",       5.18715,       3.61464,       3.72034,   48.2651E-06
C:/temp/dataset/4/22_3.odb,Step-1,Increment      1: Step Time =    1.000,"PART-1-1",           676,         -6.25,           -5.,            0.,NA,NA,"",       4.48477,       3.12799,       3.21386,   141.452E-06
C:/temp/dataset/4/22_3.odb,Step-1,Increment      1: Step Time =    1.000,"PART-1-1",           677,      -5.03874,      -3.83161,            0.,NA,NA,"",       4.44999,       3.34676,       2.93285,   182.294E-06
C:/temp/dataset/4/22_3.odb,Step-1,Increment      1: Step Time =    1.000,"PART-1-1",           678,      -6.38435,      -2.86079,            0.,NA,NA,"",       4.79894,       3.58146,       3.19421,   161.023E-06
C:/temp/dataset/4/22_3.odb,Step-1,Increment      1: Step Time =    1.000,"PART-1-1",           679,      -8.31216,       1.98044,            0.,NA,NA,"",       5.80978,       4.64383,       3.49119,   64.6854E-06
C:/temp/dataset/4/22_3.odb,Step-1,Increment      1: Step Time =    1.000,"PART-1-1",           680,      -6.89941,       1.67561,            0.,NA,NA,"",       5.56131,       4.54805,       3.20053,   127.420E-06
C:/temp/dataset/4/22_3.odb,Step-1,Increment      1: Step Time =    1.000,"PART-1-1",           681,      -8.02347,       3.70061,            0.,NA,NA,"",       6.04143,       4.99944,       3.39183,   47.1009E-06
C:/temp/dataset/4/22_3.odb,Step-1,Increment      1: Step Time =    1.000,"PART-1-1",           682,      -9.78636,       2.36681,            0.,NA,NA,"",       6.08495,       4.75818,       3.79293,   32.3457E-06
C:/temp/dataset/4/22_3.odb,Step-1,Increment      1: Step Time =    1.000,"PART-1-1",           683,      -8.80920,   354.969E-03,            0.,NA,NA,"",       5.63863,       4.31280,       3.63234,   59.9477E-06
C:/temp/dataset/4/22_3.odb,Step-1,Increment      1: Step Time =    1.000,"PART-1-1",           684,         -3.75,           -5.,            0.,NA,NA,"",       4.08140,       3.07144,       2.68776,   406.570E-06
C:/temp/dataset/4/22_3.odb,Step-1,Increment      1: Step Time =    1.000,"PART-1-1",           685,          3.75,           -5.,            0.,NA,NA,"",       3.08867,       2.89039,       1.08884,   7.71996E-03
C:/temp/dataset/4/22_3.odb,Step-1,Increment      1: Step Time =    1.000,"PART-1-1",           686,       4.46580,      -3.87501,            0.,NA,NA,"",       3.24338,       3.11624,   899.185E-03,   16.2846E-03
C:/temp/dataset/4/22_3.odb,Step-1,Increment      1: Step Time =    1.000,"PART-1-1",           687,       2.90021,      -2.90757,            0.,NA,NA,"",       3.57838,       3.36109,       1.22797,   4.63981E-03
C:/temp/dataset/4/22_3.odb,Step-1,Increment      1: Step Time =    1.000,"PART-1-1",           688,       11.1618,       2.81075,            0.,NA,NA,"",       4.40266,       4.36066,  -606.715E-03,   4.80409E-03
C:/temp/dataset/4/22_3.odb,Step-1,Increment      1: Step Time =    1.000,"PART-1-1",           689,       10.1850,       1.50626,            0.,NA,NA,"",       4.11678,       4.10057,  -364.940E-03,   3.59701E-03
C:/temp/dataset/4/22_3.odb,Step-1,Increment      1: Step Time =    1.000,"PART-1-1",           690,       11.6421,   144.368E-03,            0.,NA,NA,"",       3.83121,       3.77847,  -633.508E-03,   7.31405E-03
C:/temp/dataset/4/22_3.odb,Step-1,Increment      1: Step Time =    1.000,"PART-1-1",           691,         11.25,           30.,            0.,NA,NA,"",       10.9946,       10.8963,      -1.46627,   170.077E-06
C:/temp/dataset/4/22_3.odb,Step-1,Increment      1: Step Time =    1.000,"PART-1-1",           692,       9.19768,       26.3844,            0.,NA,NA,"",       10.1101,       10.0740,  -853.904E-03,   196.980E-06
C:/temp/dataset/4/22_3.odb,Step-1,Increment      1: Step Time =    1.000,"PART-1-1",           693,       7.72138,       25.7435,            0.,NA,NA,"",       9.97363,       9.96238,  -473.516E-03,   234.969E-06
C:/temp/dataset/4/22_3.odb,Step-1,Increment      1: Step Time =    1.000,"PART-1-1",           694,       9.17897,      -24.8987,            0.,NA,NA,"",   140.348E-03,   134.811E-03,   39.0314E-03,   10.8535E-03
C:/temp/dataset/4/22_3.odb,Step-1,Increment      1: Step Time =    1.000,"PART-1-1",           695,       9.00589,       18.6572,            0.,NA,NA,"",       8.19799,       8.17773,  -576.086E-03,   4.34070E-03
C:/temp/dataset/4/22_3.odb,Step-1,Increment      1: Step Time =    1.000,"PART-1-1",           696,       7.99757,       19.7140,            0.,NA,NA,"",       8.48029,       8.47252,  -362.893E-03,   4.00733E-03
C:/temp/dataset/4/22_3.odb,Step-1,Increment      1: Step Time =    1.000,"PART-1-1",           697,      -12.2498,       25.7751,            0.,NA,NA,"",       10.4521,       9.74197,       3.78684,   74.8433E-09
C:/temp/dataset/4/22_3.odb,Step-1,Increment      1: Step Time =    1.000,"PART-1-1",           698,      -11.9888,       23.9538,            0.,NA,NA,"",       10.0849,       9.35264,       3.77271,   74.2982E-09
C:/temp/dataset/4/22_3.odb,Step-1,Increment      1: Step Time =    1.000,"PART-1-1",           699,      -1.59164,      -1.60220,            0.,NA,NA,"",       4.31734,       3.74008,       2.15668,   440.100E-06
C:/temp/dataset/4/22_3.odb,Step-1,Increment      1: Step Time =    1.000,"PART-1-1",           700,      -1.34014,  -343.401E-03,            0.,NA,NA,"",       4.50621,       3.99995,       2.07517,   469.379E-06
C:/temp/dataset/4/22_3.odb,Step-1,Increment      1: Step Time =    1.000,"PART-1-1",           701,      -2.70787,  -93.9540E-03,            0.,NA,NA,"",       4.71450,       4.08263,       2.35769,   416.555E-06
C:/temp/dataset/4/22_3.odb,Step-1,Increment      1: Step Time =    1.000,"PART-1-1",           702,       8.06015,      -13.0184,            0.,NA,NA,"",       1.40398,       1.38750,   214.472E-03,   15.7195E-03
C:/temp/dataset/4/22_3.odb,Step-1,Increment      1: Step Time =    1.000,"PART-1-1",           703,       7.99745,      -10.7906,            0.,NA,NA,"",       1.75319,       1.73854,   226.197E-03,   14.9943E-03
C:/temp/dataset/4/22_3.odb,Step-1,Increment      1: Step Time =    1.000,"PART-1-1",           704,           15.,        -26.25,            0.,NA,NA,"",   217.275E-03,   120.120E-03,  -181.051E-03,   51.7965E-03
C:/temp/dataset/4/22_3.odb,Step-1,Increment      1: Step Time =    1.000,"PART-1-1",           705,       13.9776,      -24.8045,            0.,NA,NA,"",   254.123E-03,   165.467E-03,  -192.870E-03,   40.0225E-03
C:/temp/dataset/4/22_3.odb,Step-1,Increment      1: Step Time =    1.000,"PART-1-1",           706,       12.6094,      -25.9010,            0.,NA,NA,"",   133.620E-03,   93.7158E-03,  -95.2446E-03,   26.8160E-03
C:/temp/dataset/4/22_3.odb,Step-1,Increment      1: Step Time =    1.000,"PART-1-1",           707,       12.0224,      -24.3398,            0.,NA,NA,"",   196.695E-03,   167.426E-03,  -103.235E-03,   20.5557E-03
C:/temp/dataset/4/22_3.odb,Step-1,Increment      1: Step Time =    1.000,"PART-1-1",           708,       13.0263,      -23.4242,            0.,NA,NA,"",   296.203E-03,   232.775E-03,  -183.171E-03,   29.5678E-03
C:/temp/dataset/4/22_3.odb,Step-1,Increment      1: Step Time =    1.000,"PART-1-1",           709,       12.1300,      -22.1112,            0.,NA,NA,"",   354.205E-03,   318.667E-03,  -154.638E-03,   20.0655E-03
C:/temp/dataset/4/22_3.odb,Step-1,Increment      1: Step Time =    1.000,"PART-1-1",           710,           15.,        -23.75,            0.,NA,NA,"",   383.842E-03,   243.855E-03,  -296.428E-03,   49.0583E-03
C:/temp/dataset/4/22_3.odb,Step-1,Increment      1: Step Time =    1.000,"PART-1-1",           711,       10.9035,      -9.09896,            0.,NA,NA,"",       1.99716,       1.98043,  -257.935E-03,   8.21734E-03
C:/temp/dataset/4/22_3.odb,Step-1,Increment      1: Step Time =    1.000,"PART-1-1",           712,       9.82794,      -8.10226,            0.,NA,NA,"",       2.17160,       2.16954,  -94.7133E-03,   5.11003E-03
C:/temp/dataset/4/22_3.odb,Step-1,Increment      1: Step Time =    1.000,"PART-1-1",           713,       8.90728,      -9.48784,            0.,NA,NA,"",       1.94253,       1.94105,   75.8223E-03,   8.47543E-03
C:/temp/dataset/4/22_3.odb,Step-1,Increment      1: Step Time =    1.000,"PART-1-1",           714,           15.,         -1.25,            0.,NA,NA,"",       3.66634,       3.43403,      -1.28432,   20.1597E-03
C:/temp/dataset/4/22_3.odb,Step-1,Increment      1: Step Time =    1.000,"PART-1-1",           715,       12.7555,      -1.12336,            0.,NA,NA,"",       3.58858,       3.49264,  -824.216E-03,   12.2589E-03
C:/temp/dataset/4/22_3.odb,Step-1,Increment      1: Step Time =    1.000,"PART-1-1",           716,       11.5680,       5.48707,            0.,NA,NA,"",       5.00337,       4.94308,  -774.370E-03,   6.21969E-03
C:/temp/dataset/4/22_3.odb,Step-1,Increment      1: Step Time =    1.000,"PART-1-1",           717,       10.1222,       4.29256,            0.,NA,NA,"",       4.72824,       4.70944,  -421.270E-03,   2.82415E-03
C:/temp/dataset/4/22_3.odb,Step-1,Increment      1: Step Time =    1.000,"PART-1-1",           718,       8.27918,   509.070E-03,            0.,NA,NA,"",       3.93447,       3.93412,   52.3417E-03,   7.69456E-03
C:/temp/dataset/4/22_3.odb,Step-1,Increment      1: Step Time =    1.000,"PART-1-1",           719,       9.70893,  -124.236E-03,            0.,NA,NA,"",       3.77013,       3.76316,  -229.175E-03,   5.39829E-03
C:/temp/dataset/4/22_3.odb,Step-1,Increment      1: Step Time =    1.000,"PART-1-1",           720,       8.75521,       2.13956,            0.,NA,NA,"",       4.27284,       4.27213,  -77.5841E-03,   4.78111E-03
C:/temp/dataset/4/22_3.odb,Step-1,Increment      1: Step Time =    1.000,"PART-1-1",           721,       6.99874,       4.90963,            0.,NA,NA,"",       4.92855,       4.92243,   245.700E-03,   7.09194E-03
C:/temp/dataset/4/22_3.odb,Step-1,Increment      1: Step Time =    1.000,"PART-1-1",           722,       8.01086,       5.41567,            0.,NA,NA,"",       5.01105,       5.01103,   14.4112E-03,   4.97491E-03
C:/temp/dataset/4/22_3.odb,Step-1,Increment      1: Step Time =    1.000,"PART-1-1",           723,       11.8045,       7.99587,            0.,NA,NA,"",       5.58453,       5.51040,  -906.904E-03,   6.42096E-03
C:/temp/dataset/4/22_3.odb,Step-1,Increment      1: Step Time =    1.000,"PART-1-1",           724,       7.91904,       10.9856,            0.,NA,NA,"",       6.32294,       6.32219,  -97.3606E-03,   5.98765E-03
C:/temp/dataset/4/22_3.odb,Step-1,Increment      1: Step Time =    1.000,"PART-1-1",           725,       11.0233,       18.7016,            0.,NA,NA,"",       8.19617,       8.12659,      -1.06571,   3.63264E-03
C:/temp/dataset/4/22_3.odb,Step-1,Increment      1: Step Time =    1.000,"PART-1-1",           726,       10.0074,       19.8076,            0.,NA,NA,"",       8.47491,       8.43183,  -853.460E-03,   3.36379E-03
C:/temp/dataset/4/22_3.odb,Step-1,Increment      1: Step Time =    1.000,"PART-1-1",           727,       10.9673,       21.0105,            0.,NA,NA,"",       8.77181,       8.69957,      -1.12348,   2.29660E-03
C:/temp/dataset/4/22_3.odb,Step-1,Increment      1: Step Time =    1.000,"PART-1-1",           728,       8.97465,       20.8454,            0.,NA,NA,"",       8.74432,       8.72133,  -633.700E-03,   3.06294E-03
C:/temp/dataset/4/22_3.odb,Step-1,Increment      1: Step Time =    1.000,"PART-1-1",           729,       8.66510,       24.8184,            0.,NA,NA,"",       9.73084,       9.70731,  -676.309E-03,   643.682E-06
C:/temp/dataset/4/22_3.odb,Step-1,Increment      1: Step Time =    1.000,"PART-1-1",           730,       7.98376,       13.1681,            0.,NA,NA,"",       6.85292,       6.85081,  -170.191E-03,   5.16497E-03
C:/temp/dataset/4/22_3.odb,Step-1,Increment      1: Step Time =    1.000,"PART-1-1",           731,      -1.95806,       1.80915,            0.,NA,NA,"",       4.95965,       4.46608,       2.15691,   454.670E-06
C:/temp/dataset/4/22_3.odb,Step-1,Increment      1: Step Time =    1.000,"PART-1-1",           732,  -613.587E-03,   828.335E-03,            0.,NA,NA,"",       4.63592,       4.23047,       1.89600,   461.892E-06
C:/temp/dataset/4/22_3.odb,Step-1,Increment      1: Step Time =    1.000,"PART-1-1",           733,   461.223E-03,       1.99751,            0.,NA,NA,"",       4.74623,       4.45210,       1.64485,   660.215E-06
C:/temp/dataset/4/22_3.odb,Step-1,Increment      1: Step Time =    1.000,"PART-1-1",           734,       1.74006,       1.04512,            0.,NA,NA,"",       4.44862,       4.22330,       1.39783,   2.84066E-03
C:/temp/dataset/4/22_3.odb,Step-1,Increment      1: Step Time =    1.000,"PART-1-1",           735,   906.022E-03,  -39.5003E-03,            0.,NA,NA,"",       4.31932,       4.01392,       1.59531,   1.18837E-03
C:/temp/dataset/4/22_3.odb,Step-1,Increment      1: Step Time =    1.000,"PART-1-1",           736,       2.15034,  -968.542E-03,            0.,NA,NA,"",       4.02254,       3.78862,       1.35176,   3.67434E-03
C:/temp/dataset/4/22_3.odb,Step-1,Increment      1: Step Time =    1.000,"PART-1-1",           737,       2.98438,   116.081E-03,            0.,NA,NA,"",       4.16081,       3.99707,       1.15577,   5.24541E-03
C:/temp/dataset/4/22_3.odb,Step-1,Increment      1: Step Time =    1.000,"PART-1-1",           738,      -8.25937,       5.01848,            0.,NA,NA,"",       6.28831,       5.28217,       3.41197,   28.7206E-06
C:/temp/dataset/4/22_3.odb,Step-1,Increment      1: Step Time =    1.000,"PART-1-1",           739,      -2.78312,       1.01462,            0.,NA,NA,"",       4.91482,       4.31742,       2.34848,   398.901E-06
C:/temp/dataset/4/22_3.odb,Step-1,Increment      1: Step Time =    1.000,"PART-1-1",           740,      -4.31499,   913.536E-03,            0.,NA,NA,"",       5.08890,       4.33012,       2.67338,   321.878E-06
C:/temp/dataset/4/22_3.odb,Step-1,Increment      1: Step Time =    1.000,"PART-1-1",           741,      -4.23975,  -195.042E-03,            0.,NA,NA,"",       4.89561,       4.09520,       2.68261,   343.076E-06
C:/temp/dataset/4/22_3.odb,Step-1,Increment      1: Step Time =    1.000,"PART-1-1",           742,      -8.52646,       20.5688,            0.,NA,NA,"",       9.11291,       8.56231,       3.11960,   85.0802E-09
C:/temp/dataset/4/22_3.odb,Step-1,Increment      1: Step Time =    1.000,"PART-1-1",           743,       8.09873,      -15.2435,            0.,NA,NA,"",       1.08929,       1.07067,   200.533E-03,   16.4392E-03
C:/temp/dataset/4/22_3.odb,Step-1,Increment      1: Step Time =    1.000,"PART-1-1",           744,       8.99676,       14.2096,            0.,NA,NA,"",       7.08981,       7.07610,  -440.768E-03,   5.04289E-03
C:/temp/dataset/4/22_3.odb,Step-1,Increment      1: Step Time =    1.000,"PART-1-1",           745,       11.0169,       14.0599,            0.,NA,NA,"",       7.04122,       6.98124,  -917.111E-03,   5.05333E-03
C:/temp/dataset/4/22_3.odb,Step-1,Increment      1: Step Time =    1.000,"PART-1-1",           746,      -7.91902,       15.6847,            0.,NA,NA,"",       8.13467,       7.52034,       3.10119,   315.796E-09
C:/temp/dataset/4/22_3.odb,Step-1,Increment      1: Step Time =    1.000,"PART-1-1",           747,      -11.9968,       14.1876,            0.,NA,NA,"",       8.31781,       7.29652,       3.99333,   615.370E-09
C:/temp/dataset/4/22_3.odb,Step-1,Increment      1: Step Time =    1.000,"PART-1-1",           748,      -11.1175,       8.79310,            0.,NA,NA,"",       7.29040,       6.14100,       3.92914,   2.53041E-06
C:/temp/dataset/4/22_3.odb,Step-1,Increment      1: Step Time =    1.000,"PART-1-1",           749,       10.6592,      -6.44981,            0.,NA,NA,"",       2.47670,       2.46168,  -272.341E-03,   8.27446E-03
C:/temp/dataset/4/22_3.odb,Step-1,Increment      1: Step Time =    1.000,"PART-1-1",           750,      -10.7894,       23.3985,            0.,NA,NA,"",       9.86317,       9.20884,       3.53264,   77.2233E-09
C:/temp/dataset/4/22_3.odb,Step-1,Increment      1: Step Time =    1.000,"PART-1-1",           751,       10.0228,      -25.8019,            0.,NA,NA,"",   86.6558E-03,   86.6520E-03,   818.658E-06,   5.22722E-03
C:/temp/dataset/4/22_3.odb,Step-1,Increment      1: Step Time =    1.000,"PART-1-1",           752,       10.9542,      -24.8826,            0.,NA,NA,"",   138.934E-03,   132.240E-03,  -42.6078E-03,   10.1021E-03
C:/temp/dataset/4/22_3.odb,Step-1,Increment      1: Step Time =    1.000,"PART-1-1",           753,       11.8371,      -2.37854,            0.,NA,NA,"",       3.30387,       3.24875,  -600.994E-03,   10.2470E-03
C:/temp/dataset/4/22_3.odb,Step-1,Increment      1: Step Time =    1.000,"PART-1-1",           754,       11.6235,      -5.02753,            0.,NA,NA,"",       2.76418,       2.72132,  -484.841E-03,   11.4495E-03
C:/temp/dataset/4/22_3.odb,Step-1,Increment      1: Step Time =    1.000,"PART-1-1",           755,      -12.1333,       7.86930,            0.,NA,NA,"",       7.27796,       5.96926,       4.16372,   2.21890E-06
C:/temp/dataset/4/22_3.odb,Step-1,Increment      1: Step Time =    1.000,"PART-1-1",           756,      -12.0768,       9.95169,            0.,NA,NA,"",       7.60886,       6.40644,       4.10515,   2.27549E-06
C:/temp/dataset/4/22_3.odb,Step-1,Increment      1: Step Time =    1.000,"PART-1-1",           757,       8.68743,       3.64563,            0.,NA,NA,"",       4.60231,       4.60134,  -94.3176E-03,   3.32252E-03
C:/temp/dataset/4/22_3.odb,Step-1,Increment      1: Step Time =    1.000,"PART-1-1",           758,       6.61848,       3.66599,            0.,NA,NA,"",       4.67249,       4.65946,   348.641E-03,   9.71698E-03
C:/temp/dataset/4/22_3.odb,Step-1,Increment      1: Step Time =    1.000,"PART-1-1",           759,       4.71579,   65.6079E-03,            0.,NA,NA,"",       4.01955,       3.94014,   795.068E-03,   9.74437E-03
C:/temp/dataset/4/22_3.odb,Step-1,Increment      1: Step Time =    1.000,"PART-1-1",           760,       3.89104,   957.250E-03,            0.,NA,NA,"",       4.25977,       4.15188,   952.664E-03,   7.87388E-03
C:/temp/dataset/4/22_3.odb,Step-1,Increment      1: Step Time =    1.000,"PART-1-1",           761,      -12.0363,       12.0623,            0.,NA,NA,"",       7.95728,       6.84993,       4.04930,   1.36805E-06
C:/temp/dataset/4/22_3.odb,Step-1,Increment      1: Step Time =    1.000,"PART-1-1",           762,      -12.1964,       5.82098,            0.,NA,NA,"",       6.96550,       5.53941,       4.22293,   2.21458E-06
C:/temp/dataset/4/22_3.odb,Step-1,Increment      1: Step Time =    1.000,"PART-1-1",           763,      -11.2570,       4.81016,            0.,NA,NA,"",       6.67332,       5.30553,       4.04779,   6.44313E-06
C:/temp/dataset/4/22_3.odb,Step-1,Increment      1: Step Time =    1.000,"PART-1-1",           764,      -10.5260,       3.94381,            0.,NA,NA,"",       6.43372,       5.10675,       3.91330,   14.5882E-06
C:/temp/dataset/4/22_3.odb,Step-1,Increment      1: Step Time =    1.000,"PART-1-1",           765,      -9.56326,       4.76486,            0.,NA,NA,"",       6.42488,       5.25802,       3.69219,   14.6578E-06
C:/temp/dataset/4/22_3.odb,Step-1,Increment      1: Step Time =    1.000,"PART-1-1",           766,      -9.32737,       3.44699,            0.,NA,NA,"",       6.18365,       4.97529,       3.67207,   29.6037E-06
C:/temp/dataset/4/22_3.odb,Step-1,Increment      1: Step Time =    1.000,"PART-1-1",           767,       11.5413,      -26.4438,            0.,NA,NA,"",   79.2914E-03,   63.4288E-03,  -47.5806E-03,   15.9836E-03
C:/temp/dataset/4/22_3.odb,Step-1,Increment      1: Step Time =    1.000,"PART-1-1",           768,       5.97241,      -3.36228,            0.,NA,NA,"",       3.22816,       3.17706,   572.109E-03,   16.2917E-03
C:/temp/dataset/4/22_3.odb,Step-1,Increment      1: Step Time =    1.000,"PART-1-1",           769,       11.9304,       22.2704,            0.,NA,NA,"",       9.08864,       8.98061,      -1.39714,   1.22662E-03
C:/temp/dataset/4/22_3.odb,Step-1,Increment      1: Step Time =    1.000,"PART-1-1",           770,      -3.95064,       2.12654,            0.,NA,NA,"",       5.24886,       4.57702,       2.56932,   306.096E-06
C:/temp/dataset/4/22_3.odb,Step-1,Increment      1: Step Time =    1.000,"PART-1-1",           771,       12.1361,      -19.7979,            0.,NA,NA,"",   557.893E-03,   519.298E-03,  -203.899E-03,   19.1168E-03
C:/temp/dataset/4/22_3.odb,Step-1,Increment      1: Step Time =    1.000,"PART-1-1",           772,       12.1156,      -17.4436,            0.,NA,NA,"",   808.296E-03,   767.563E-03,  -253.357E-03,   17.8982E-03
C:/temp/dataset/4/22_3.odb,Step-1,Increment      1: Step Time =    1.000,"PART-1-1",           773,       11.8489,      -7.73518,            0.,NA,NA,"",       2.25660,       2.21098,  -451.439E-03,   12.8557E-03
C:/temp/dataset/4/22_3.odb,Step-1,Increment      1: Step Time =    1.000,"PART-1-1",           774,       11.9658,      -10.2357,            0.,NA,NA,"",       1.82478,       1.77926,  -405.037E-03,   14.0039E-03
C:/temp/dataset/4/22_3.odb,Step-1,Increment      1: Step Time =    1.000,"PART-1-1",           775,       10.7237,      -1.11081,            0.,NA,NA,"",       3.55641,       3.53241,  -412.505E-03,   6.58686E-03
C:/temp/dataset/4/22_3.odb,Step-1,Increment      1: Step Time =    1.000,"PART-1-1",           776,       11.9194,       10.4262,            0.,NA,NA,"",       6.16256,       6.07880,      -1.01260,   5.99539E-03
C:/temp/dataset/4/22_3.odb,Step-1,Increment      1: Step Time =    1.000,"PART-1-1",           777,       11.9945,       12.8006,            0.,NA,NA,"",       6.73928,       6.64746,      -1.10868,   5.41911E-03
C:/temp/dataset/4/22_3.odb,Step-1,Increment      1: Step Time =    1.000,"PART-1-1",           778,       12.0317,      -12.6649,            0.,NA,NA,"",       1.44248,       1.39833,  -354.142E-03,   15.2668E-03
C:/temp/dataset/4/22_3.odb,Step-1,Increment      1: Step Time =    1.000,"PART-1-1",           779,       12.0352,       15.1685,            0.,NA,NA,"",       7.32285,       7.22442,      -1.19662,   4.71236E-03
C:/temp/dataset/4/22_3.odb,Step-1,Increment      1: Step Time =    1.000,"PART-1-1",           780,      -7.80161,      -2.23284,            0.,NA,NA,"",       5.11149,       3.74543,       3.47837,   79.0692E-06
C:/temp/dataset/4/22_3.odb,Step-1,Increment      1: Step Time =    1.000,"PART-1-1",           781,      -8.87876,  -905.543E-03,            0.,NA,NA,"",       5.46828,       4.04899,       3.67529,   60.8015E-06
C:/temp/dataset/4/22_3.odb,Step-1,Increment      1: Step Time =    1.000,"PART-1-1",           782,      -7.16649,      -1.00336,            0.,NA,NA,"",       5.18881,       3.99012,       3.31704,   120.242E-06
C:/temp/dataset/4/22_3.odb,Step-1,Increment      1: Step Time =    1.000,"PART-1-1",           783,      -7.09692,   257.153E-03,            0.,NA,NA,"",       5.36798,       4.25393,       3.27403,   122.101E-06
C:/temp/dataset/4/22_3.odb,Step-1,Increment      1: Step Time =    1.000,"PART-1-1",           784,      -5.74923,      -1.63131,            0.,NA,NA,"",       4.88246,       3.82626,       3.03286,   181.456E-06
C:/temp/dataset/4/22_3.odb,Step-1,Increment      1: Step Time =    1.000,"PART-1-1",           785,      -5.66693,  -67.3201E-03,            0.,NA,NA,"",       5.11229,       4.15376,       2.98023,   221.975E-06
C:/temp/dataset/4/22_3.odb,Step-1,Increment      1: Step Time =    1.000,"PART-1-1",           786,      -5.46941,       1.35113,            0.,NA,NA,"",       5.31338,       4.44785,       2.90666,   212.518E-06
C:/temp/dataset/4/22_3.odb,Step-1,Increment      1: Step Time =    1.000,"PART-1-1",           787,       12.0849,      -15.0650,            0.,NA,NA,"",       1.10379,       1.06109,  -304.037E-03,   16.6356E-03
C:/temp/dataset/4/22_3.odb,Step-1,Increment      1: Step Time =    1.000,"PART-1-1",           788,       7.01212,      -4.44648,            0.,NA,NA,"",       2.94640,       2.92261,   373.698E-03,   13.5565E-03
C:/temp/dataset/4/22_3.odb,Step-1,Increment      1: Step Time =    1.000,"PART-1-1",           789,       7.64174,      -3.33281,            0.,NA,NA,"",       3.14676,       3.13769,   238.782E-03,   12.0840E-03
C:/temp/dataset/4/22_3.odb,Step-1,Increment      1: Step Time =    1.000,"PART-1-1",           790,       6.60203,      -2.24861,            0.,NA,NA,"",       3.42158,       3.39401,   433.432E-03,   13.2608E-03
C:/temp/dataset/4/22_3.odb,Step-1,Increment      1: Step Time =    1.000,"PART-1-1",           791,       6.68626,       2.15992,            0.,NA,NA,"",       4.34715,       4.33245,   357.199E-03,   10.1911E-03
C:/temp/dataset/4/22_3.odb,Step-1,Increment      1: Step Time =    1.000,"PART-1-1",           792,       12.0103,       19.9021,            0.,NA,NA,"",       8.50055,       8.39377,      -1.34310,   2.48968E-03
C:/temp/dataset/4/22_3.odb,Step-1,Increment      1: Step Time =    1.000,"PART-1-1",           793,       12.0305,       17.5416,            0.,NA,NA,"",       7.91255,       7.80950,      -1.27287,   3.74694E-03
C:/temp/dataset/4/22_3.odb,Step-1,Increment      1: Step Time =    1.000,"PART-1-1",           794,       6.09271,      -1.14349,            0.,NA,NA,"",       3.68114,       3.64347,   525.270E-03,   12.5204E-03
C:/temp/dataset/4/22_3.odb,Step-1,Increment      1: Step Time =    1.000,"PART-1-1",           795,       7.56053,      -1.65505,            0.,NA,NA,"",       3.50064,       3.49290,   232.632E-03,   11.3859E-03
C:/temp/dataset/4/22_3.odb,Step-1,Increment      1: Step Time =    1.000,"PART-1-1",           796,       7.05122,  -549.935E-03,            0.,NA,NA,"",       3.75571,       3.74198,   320.902E-03,   11.2250E-03
C:/temp/dataset/4/22_3.odb,Step-1,Increment      1: Step Time =    1.000,"PART-1-1",           797,       5.28588,       1.87348,            0.,NA,NA,"",       4.35894,       4.31001,   651.252E-03,   11.0717E-03
C:/temp/dataset/4/22_3.odb,Step-1,Increment      1: Step Time =    1.000,"PART-1-1",           798,       5.70847,   325.226E-03,            0.,NA,NA,"",       4.01013,       3.96713,   585.652E-03,   10.7296E-03
C:/temp/dataset/4/22_3.odb,Step-1,Increment      1: Step Time =    1.000,"PART-1-1",           799,       7.10885,   611.668E-03,            0.,NA,NA,"",       3.99893,       3.98821,   292.512E-03,   10.1489E-03
C:/temp/dataset/4/22_3.odb,Step-1,Increment      1: Step Time =    1.000,"PART-1-1",           800,       9.00326,      -1.31280,            0.,NA,NA,"",       3.52877,       3.52821,  -62.4815E-03,   7.77717E-03
C:/temp/dataset/4/22_3.odb,Step-1,Increment      1: Step Time =    1.000,"PART-1-1",           801,       8.22155,  -652.532E-03,            0.,NA,NA,"",       3.68879,       3.68784,   83.7673E-03,   8.94774E-03
C:/temp/dataset/4/22_3.odb,Step-1,Increment      1: Step Time =    1.000,"PART-1-1",           802,       8.34224,      -2.31533,            0.,NA,NA,"",       3.33445,       3.33334,   86.3167E-03,   9.88866E-03
C:/temp/dataset/4/22_3.odb,Step-1,Increment      1: Step Time =    1.000,"PART-1-1",           803,       2.82445,       2.06443,            0.,NA,NA,"",       4.56127,       4.41325,       1.15256,   4.58954E-03
