ODB Name,Step,Frame,Part Instance Name,    êﬂì_ÉâÉxÉã,X,Y,Z,Section Name,Material Name,Section Point,   U-Magnitude,          U-U1,          U-U2,       S-Mises
C:/temp/dataset/4/25_15.odb,Step-1,Increment      1: Step Time =    1.000,"PART-1-1",             1,           -5.,           30.,            0.,NA,NA,"",       7.34334,      -6.85118,      -2.64311,   55.6934E-09
C:/temp/dataset/4/25_15.odb,Step-1,Increment      1: Step Time =    1.000,"PART-1-1",             2,          -15.,           30.,            0.,NA,NA,"",       7.89679,      -6.74303,      -4.10984,   57.6498E-09
C:/temp/dataset/4/25_15.odb,Step-1,Increment      1: Step Time =    1.000,"PART-1-1",             3,          -15.,         21.25,            0.,NA,NA,"",       6.77713,      -5.45964,      -4.01521,   48.0823E-09
C:/temp/dataset/4/25_15.odb,Step-1,Increment      1: Step Time =    1.000,"PART-1-1",             4,          -15.,          12.5,            0.,NA,NA,"",       5.72817,      -4.17625,      -3.92058,   781.753E-09
C:/temp/dataset/4/25_15.odb,Step-1,Increment      1: Step Time =    1.000,"PART-1-1",             5,          -15.,          3.75,            0.,NA,NA,"",       4.79651,      -2.89290,      -3.82592,   5.10903E-06
C:/temp/dataset/4/25_15.odb,Step-1,Increment      1: Step Time =    1.000,"PART-1-1",             6,          -15.,           -5.,            0.,NA,NA,"",       4.06372,      -1.60972,      -3.73130,   492.120E-09
C:/temp/dataset/4/25_15.odb,Step-1,Increment      1: Step Time =    1.000,"PART-1-1",             7,          -10.,           -5.,            0.,NA,NA,"",       3.42881,      -1.66377,      -2.99810,   6.07095E-06
C:/temp/dataset/4/25_15.odb,Step-1,Increment      1: Step Time =    1.000,"PART-1-1",             8,           -5.,           -5.,            0.,NA,NA,"",       2.84258,      -1.71756,      -2.26501,   188.993E-06
C:/temp/dataset/4/25_15.odb,Step-1,Increment      1: Step Time =    1.000,"PART-1-1",             9,            0.,           -5.,            0.,NA,NA,"",       2.33891,      -1.76929,      -1.52974,   1.60037E-03
C:/temp/dataset/4/25_15.odb,Step-1,Increment      1: Step Time =    1.000,"PART-1-1",            10,            5.,           -5.,            0.,NA,NA,"",       1.97783,      -1.82898,  -752.756E-03,   23.7266E-03
C:/temp/dataset/4/25_15.odb,Step-1,Increment      1: Step Time =    1.000,"PART-1-1",            11,            5.,        -11.25,            0.,NA,NA,"",       1.23580,      -1.09836,  -566.406E-03,   25.2278E-03
C:/temp/dataset/4/25_15.odb,Step-1,Increment      1: Step Time =    1.000,"PART-1-1",            12,            5.,         -17.5,            0.,NA,NA,"",   655.962E-03,  -529.937E-03,  -386.591E-03,   29.3820E-03
C:/temp/dataset/4/25_15.odb,Step-1,Increment      1: Step Time =    1.000,"PART-1-1",            13,            5.,        -23.75,            0.,NA,NA,"",   257.710E-03,  -164.271E-03,  -198.568E-03,   33.6032E-03
C:/temp/dataset/4/25_15.odb,Step-1,Increment      1: Step Time =    1.000,"PART-1-1",            14,            5.,          -30.,            0.,NA,NA,"",            0.,  -11.0155E-39,  -21.2012E-39,   41.7431E-03
C:/temp/dataset/4/25_15.odb,Step-1,Increment      1: Step Time =    1.000,"PART-1-1",            15,           15.,          -30.,            0.,NA,NA,"",            0.,  -11.8733E-39,   22.3089E-39,   42.0016E-03
C:/temp/dataset/4/25_15.odb,Step-1,Increment      1: Step Time =    1.000,"PART-1-1",            16,           15.,         -22.5,            0.,NA,NA,"",   329.226E-03,  -233.411E-03,   232.184E-03,   33.0935E-03
C:/temp/dataset/4/25_15.odb,Step-1,Increment      1: Step Time =    1.000,"PART-1-1",            17,           15.,          -15.,            0.,NA,NA,"",   880.804E-03,  -775.126E-03,   418.325E-03,   28.0304E-03
C:/temp/dataset/4/25_15.odb,Step-1,Increment      1: Step Time =    1.000,"PART-1-1",            18,           15.,          -7.5,            0.,NA,NA,"",       1.69315,      -1.60330,   544.232E-03,   22.3780E-03
C:/temp/dataset/4/25_15.odb,Step-1,Increment      1: Step Time =    1.000,"PART-1-1",            19,           15.,            0.,            0.,NA,NA,"",       2.71537,      -2.64966,   593.749E-03,   14.2420E-03
C:/temp/dataset/4/25_15.odb,Step-1,Increment      1: Step Time =    1.000,"PART-1-1",            20,           15.,           7.5,            0.,NA,NA,"",       3.86842,      -3.82308,   590.539E-03,   12.2199E-03
C:/temp/dataset/4/25_15.odb,Step-1,Increment      1: Step Time =    1.000,"PART-1-1",            21,           15.,           15.,            0.,NA,NA,"",       5.14235,      -5.11308,   547.957E-03,   7.67009E-03
C:/temp/dataset/4/25_15.odb,Step-1,Increment      1: Step Time =    1.000,"PART-1-1",            22,           15.,          22.5,            0.,NA,NA,"",       6.49401,      -6.47777,   458.982E-03,   2.90337E-03
C:/temp/dataset/4/25_15.odb,Step-1,Increment      1: Step Time =    1.000,"PART-1-1",            23,           15.,           30.,            0.,NA,NA,"",       7.86378,      -7.85645,   339.282E-03,   1.51805E-03
C:/temp/dataset/4/25_15.odb,Step-1,Increment      1: Step Time =    1.000,"PART-1-1",            24,            5.,           30.,            0.,NA,NA,"",       7.82365,      -7.68170,      -1.48358,   53.7358E-06
C:/temp/dataset/4/25_15.odb,Step-1,Increment      1: Step Time =    1.000,"PART-1-1",            25,            5.,         23.75,            0.,NA,NA,"",       6.68081,      -6.53769,      -1.37547,   1.63216E-03
C:/temp/dataset/4/25_15.odb,Step-1,Increment      1: Step Time =    1.000,"PART-1-1",            26,            5.,          17.5,            0.,NA,NA,"",       5.54616,      -5.40328,      -1.25080,   5.80485E-03
C:/temp/dataset/4/25_15.odb,Step-1,Increment      1: Step Time =    1.000,"PART-1-1",            27,            5.,         11.25,            0.,NA,NA,"",       4.45208,      -4.31162,      -1.10950,   10.0906E-03
C:/temp/dataset/4/25_15.odb,Step-1,Increment      1: Step Time =    1.000,"PART-1-1",            28,            5.,            5.,            0.,NA,NA,"",       3.41588,      -3.28329,  -942.461E-03,   18.6930E-03
C:/temp/dataset/4/25_15.odb,Step-1,Increment      1: Step Time =    1.000,"PART-1-1",            29,            0.,            5.,            0.,NA,NA,"",       3.62769,      -3.23553,      -1.64058,   1.39421E-03
C:/temp/dataset/4/25_15.odb,Step-1,Increment      1: Step Time =    1.000,"PART-1-1",            30,           -5.,            5.,            0.,NA,NA,"",       3.97099,      -3.18424,      -2.37264,   142.706E-06
C:/temp/dataset/4/25_15.odb,Step-1,Increment      1: Step Time =    1.000,"PART-1-1",            31,           -5.,         11.25,            0.,NA,NA,"",       4.77220,      -4.10106,      -2.44033,   1.42476E-06
C:/temp/dataset/4/25_15.odb,Step-1,Increment      1: Step Time =    1.000,"PART-1-1",            32,           -5.,          17.5,            0.,NA,NA,"",       5.60960,      -5.01776,      -2.50792,   120.853E-09
C:/temp/dataset/4/25_15.odb,Step-1,Increment      1: Step Time =    1.000,"PART-1-1",            33,           -5.,         23.75,            0.,NA,NA,"",       6.46925,      -5.93447,      -2.57552,   82.2561E-09
C:/temp/dataset/4/25_15.odb,Step-1,Increment      1: Step Time =    1.000,"PART-1-1",            34,          -7.5,           30.,            0.,NA,NA,"",       7.45840,      -6.82414,      -3.00979,   50.7924E-09
C:/temp/dataset/4/25_15.odb,Step-1,Increment      1: Step Time =    1.000,"PART-1-1",            35,          -10.,           30.,            0.,NA,NA,"",       7.58954,      -6.79710,      -3.37648,   56.5988E-09
C:/temp/dataset/4/25_15.odb,Step-1,Increment      1: Step Time =    1.000,"PART-1-1",            36,         -12.5,           30.,            0.,NA,NA,"",       7.73596,      -6.77006,      -3.74316,   63.4062E-09
C:/temp/dataset/4/25_15.odb,Step-1,Increment      1: Step Time =    1.000,"PART-1-1",            37,          -15.,       27.8125,            0.,NA,NA,"",       7.61192,      -6.42218,      -4.08618,   49.9709E-09
C:/temp/dataset/4/25_15.odb,Step-1,Increment      1: Step Time =    1.000,"PART-1-1",            38,          -15.,        25.625,            0.,NA,NA,"",       7.33010,      -6.10133,      -4.06253,   48.8226E-09
C:/temp/dataset/4/25_15.odb,Step-1,Increment      1: Step Time =    1.000,"PART-1-1",            39,          -15.,       23.4375,            0.,NA,NA,"",       7.05170,      -5.78049,      -4.03887,   48.1633E-09
C:/temp/dataset/4/25_15.odb,Step-1,Increment      1: Step Time =    1.000,"PART-1-1",            40,          -15.,       19.0625,            0.,NA,NA,"",       6.50689,      -5.13879,      -3.99155,   50.1115E-09
C:/temp/dataset/4/25_15.odb,Step-1,Increment      1: Step Time =    1.000,"PART-1-1",            41,          -15.,        16.875,            0.,NA,NA,"",       6.24154,      -4.81794,      -3.96789,   66.8211E-09
C:/temp/dataset/4/25_15.odb,Step-1,Increment      1: Step Time =    1.000,"PART-1-1",            42,          -15.,       14.6875,            0.,NA,NA,"",       5.98171,      -4.49710,      -3.94424,   224.150E-09
C:/temp/dataset/4/25_15.odb,Step-1,Increment      1: Step Time =    1.000,"PART-1-1",            43,          -15.,       10.3125,            0.,NA,NA,"",       5.48180,      -3.85540,      -3.89692,   2.03843E-06
C:/temp/dataset/4/25_15.odb,Step-1,Increment      1: Step Time =    1.000,"PART-1-1",            44,          -15.,         8.125,            0.,NA,NA,"",       5.24359,      -3.53456,      -3.87325,   4.02369E-06
C:/temp/dataset/4/25_15.odb,Step-1,Increment      1: Step Time =    1.000,"PART-1-1",            45,          -15.,        5.9375,            0.,NA,NA,"",       5.01471,      -3.21372,      -3.84959,   5.57929E-06
C:/temp/dataset/4/25_15.odb,Step-1,Increment      1: Step Time =    1.000,"PART-1-1",            46,          -15.,        1.5625,            0.,NA,NA,"",       4.59052,      -2.57209,      -3.80226,   3.51484E-06
C:/temp/dataset/4/25_15.odb,Step-1,Increment      1: Step Time =    1.000,"PART-1-1",            47,          -15.,     -625.E-03,            0.,NA,NA,"",       4.39843,      -2.25129,      -3.77861,   2.21456E-06
C:/temp/dataset/4/25_15.odb,Step-1,Increment      1: Step Time =    1.000,"PART-1-1",            48,          -15.,       -2.8125,            0.,NA,NA,"",       4.22215,      -1.93050,      -3.75495,   1.82816E-06
C:/temp/dataset/4/25_15.odb,Step-1,Increment      1: Step Time =    1.000,"PART-1-1",            49,         -12.5,           -5.,            0.,NA,NA,"",       3.74167,      -1.63675,      -3.36470,   2.69784E-06
C:/temp/dataset/4/25_15.odb,Step-1,Increment      1: Step Time =    1.000,"PART-1-1",            50,          -7.5,           -5.,            0.,NA,NA,"",       3.12790,      -1.69076,      -2.63155,   26.9268E-06
C:/temp/dataset/4/25_15.odb,Step-1,Increment      1: Step Time =    1.000,"PART-1-1",            51,          -2.5,           -5.,            0.,NA,NA,"",       2.57770,      -1.74394,      -1.89822,   477.498E-06
C:/temp/dataset/4/25_15.odb,Step-1,Increment      1: Step Time =    1.000,"PART-1-1",            52,           2.5,           -5.,            0.,NA,NA,"",       2.13395,      -1.79393,      -1.15568,   4.43273E-03
C:/temp/dataset/4/25_15.odb,Step-1,Increment      1: Step Time =    1.000,"PART-1-1",            53,            5.,      -7.08333,            0.,NA,NA,"",       1.71439,      -1.57242,  -683.114E-03,   25.2704E-03
C:/temp/dataset/4/25_15.odb,Step-1,Increment      1: Step Time =    1.000,"PART-1-1",            54,            5.,      -9.16667,            0.,NA,NA,"",       1.46722,      -1.32730,  -625.309E-03,   23.7676E-03
C:/temp/dataset/4/25_15.odb,Step-1,Increment      1: Step Time =    1.000,"PART-1-1",            55,            5.,      -13.3333,            0.,NA,NA,"",       1.02279,  -888.194E-03,  -507.166E-03,   26.5269E-03
C:/temp/dataset/4/25_15.odb,Step-1,Increment      1: Step Time =    1.000,"PART-1-1",            56,            5.,      -15.4167,            0.,NA,NA,"",   829.290E-03,  -698.342E-03,  -447.259E-03,   27.9710E-03
C:/temp/dataset/4/25_15.odb,Step-1,Increment      1: Step Time =    1.000,"PART-1-1",            57,            5.,      -19.5833,            0.,NA,NA,"",   503.156E-03,  -384.087E-03,  -325.027E-03,   30.7951E-03
C:/temp/dataset/4/25_15.odb,Step-1,Increment      1: Step Time =    1.000,"PART-1-1",            58,            5.,      -21.6667,            0.,NA,NA,"",   370.696E-03,  -261.812E-03,  -262.431E-03,   32.1610E-03
C:/temp/dataset/4/25_15.odb,Step-1,Increment      1: Step Time =    1.000,"PART-1-1",            59,            5.,      -25.8333,            0.,NA,NA,"",   162.239E-03,  -91.7923E-03,  -133.775E-03,   34.1640E-03
C:/temp/dataset/4/25_15.odb,Step-1,Increment      1: Step Time =    1.000,"PART-1-1",            60,            5.,      -27.9167,            0.,NA,NA,"",   81.5315E-03,  -44.0400E-03,  -68.6138E-03,   37.2305E-03
C:/temp/dataset/4/25_15.odb,Step-1,Increment      1: Step Time =    1.000,"PART-1-1",            61,           7.5,          -30.,            0.,NA,NA,"",            0.,  -316.604E-42,  -40.0000E-39,   13.5066E-03
C:/temp/dataset/4/25_15.odb,Step-1,Increment      1: Step Time =    1.000,"PART-1-1",            62,           10.,          -30.,            0.,NA,NA,"",            0.,   7.36941E-39,   1.53771E-39,   4.89920E-03
C:/temp/dataset/4/25_15.odb,Step-1,Increment      1: Step Time =    1.000,"PART-1-1",            63,          12.5,          -30.,            0.,NA,NA,"",            0.,  -14.6926E-39,   35.8356E-39,   13.9397E-03
C:/temp/dataset/4/25_15.odb,Step-1,Increment      1: Step Time =    1.000,"PART-1-1",            64,           15.,         -27.5,            0.,NA,NA,"",   98.5135E-03,  -54.8425E-03,   81.8365E-03,   36.7732E-03
C:/temp/dataset/4/25_15.odb,Step-1,Increment      1: Step Time =    1.000,"PART-1-1",            65,           15.,          -25.,            0.,NA,NA,"",   202.289E-03,  -125.185E-03,   158.901E-03,   34.0052E-03
C:/temp/dataset/4/25_15.odb,Step-1,Increment      1: Step Time =    1.000,"PART-1-1",            66,           15.,          -20.,            0.,NA,NA,"",   483.491E-03,  -378.851E-03,   300.392E-03,   31.3429E-03
C:/temp/dataset/4/25_15.odb,Step-1,Increment      1: Step Time =    1.000,"PART-1-1",            67,           15.,         -17.5,            0.,NA,NA,"",   667.216E-03,  -560.130E-03,   362.534E-03,   29.7062E-03
C:/temp/dataset/4/25_15.odb,Step-1,Increment      1: Step Time =    1.000,"PART-1-1",            68,           15.,         -12.5,            0.,NA,NA,"",       1.12375,      -1.02190,   467.468E-03,   26.3597E-03
C:/temp/dataset/4/25_15.odb,Step-1,Increment      1: Step Time =    1.000,"PART-1-1",            69,           15.,          -10.,            0.,NA,NA,"",       1.39504,      -1.29860,   509.664E-03,   24.5712E-03
C:/temp/dataset/4/25_15.odb,Step-1,Increment      1: Step Time =    1.000,"PART-1-1",            70,           15.,           -5.,            0.,NA,NA,"",       2.01548,      -1.93321,   569.988E-03,   19.5400E-03
C:/temp/dataset/4/25_15.odb,Step-1,Increment      1: Step Time =    1.000,"PART-1-1",            71,           15.,          -2.5,            0.,NA,NA,"",       2.35776,      -2.28375,   586.112E-03,   16.4969E-03
C:/temp/dataset/4/25_15.odb,Step-1,Increment      1: Step Time =    1.000,"PART-1-1",            72,           15.,           2.5,            0.,NA,NA,"",       3.08591,      -3.02784,   595.847E-03,   13.2222E-03
C:/temp/dataset/4/25_15.odb,Step-1,Increment      1: Step Time =    1.000,"PART-1-1",            73,           15.,            5.,            0.,NA,NA,"",       3.46987,      -3.41852,   594.768E-03,   12.8608E-03
C:/temp/dataset/4/25_15.odb,Step-1,Increment      1: Step Time =    1.000,"PART-1-1",            74,           15.,           10.,            0.,NA,NA,"",       4.28127,      -4.24155,   581.835E-03,   10.9748E-03
C:/temp/dataset/4/25_15.odb,Step-1,Increment      1: Step Time =    1.000,"PART-1-1",            75,           15.,          12.5,            0.,NA,NA,"",       4.70665,      -4.67229,   567.684E-03,   9.35931E-03
C:/temp/dataset/4/25_15.odb,Step-1,Increment      1: Step Time =    1.000,"PART-1-1",            76,           15.,          17.5,            0.,NA,NA,"",       5.58638,      -5.56184,   522.989E-03,   6.01937E-03
C:/temp/dataset/4/25_15.odb,Step-1,Increment      1: Step Time =    1.000,"PART-1-1",            77,           15.,           20.,            0.,NA,NA,"",       6.03699,      -6.01682,   493.157E-03,   4.48431E-03
C:/temp/dataset/4/25_15.odb,Step-1,Increment      1: Step Time =    1.000,"PART-1-1",            78,           15.,           25.,            0.,NA,NA,"",       6.95245,      -6.93975,   420.127E-03,   2.01359E-03
C:/temp/dataset/4/25_15.odb,Step-1,Increment      1: Step Time =    1.000,"PART-1-1",            79,           15.,          27.5,            0.,NA,NA,"",       7.40863,      -7.39888,   379.930E-03,   1.54837E-03
C:/temp/dataset/4/25_15.odb,Step-1,Increment      1: Step Time =    1.000,"PART-1-1",            80,          12.5,           30.,            0.,NA,NA,"",       7.81188,      -7.81101,  -116.837E-03,   1.43638E-03
C:/temp/dataset/4/25_15.odb,Step-1,Increment      1: Step Time =    1.000,"PART-1-1",            81,           10.,           30.,            0.,NA,NA,"",       7.78752,      -7.76648,  -571.978E-03,   833.988E-06
C:/temp/dataset/4/25_15.odb,Step-1,Increment      1: Step Time =    1.000,"PART-1-1",            82,           7.5,           30.,            0.,NA,NA,"",       7.79170,      -7.72369,      -1.02719,   132.700E-06
C:/temp/dataset/4/25_15.odb,Step-1,Increment      1: Step Time =    1.000,"PART-1-1",            83,            5.,       27.9167,            0.,NA,NA,"",       7.44324,      -7.30093,      -1.44854,   78.1190E-06
C:/temp/dataset/4/25_15.odb,Step-1,Increment      1: Step Time =    1.000,"PART-1-1",            84,            5.,       25.8333,            0.,NA,NA,"",       7.06218,      -6.91942,      -1.41280,   623.406E-06
C:/temp/dataset/4/25_15.odb,Step-1,Increment      1: Step Time =    1.000,"PART-1-1",            85,            5.,       21.6667,            0.,NA,NA,"",       6.30015,      -6.15685,      -1.33608,   2.91874E-03
C:/temp/dataset/4/25_15.odb,Step-1,Increment      1: Step Time =    1.000,"PART-1-1",            86,            5.,       19.5833,            0.,NA,NA,"",       5.92149,      -5.77826,      -1.29449,   4.34881E-03
C:/temp/dataset/4/25_15.odb,Step-1,Increment      1: Step Time =    1.000,"PART-1-1",            87,            5.,       15.4167,            0.,NA,NA,"",       5.17543,      -5.03314,      -1.20525,   7.24071E-03
C:/temp/dataset/4/25_15.odb,Step-1,Increment      1: Step Time =    1.000,"PART-1-1",            88,            5.,       13.3333,            0.,NA,NA,"",       4.81041,      -4.66893,      -1.15807,   8.63051E-03
C:/temp/dataset/4/25_15.odb,Step-1,Increment      1: Step Time =    1.000,"PART-1-1",            89,            5.,       9.16667,            0.,NA,NA,"",       4.10116,      -3.96199,      -1.05931,   11.4930E-03
C:/temp/dataset/4/25_15.odb,Step-1,Increment      1: Step Time =    1.000,"PART-1-1",            90,            5.,       7.08333,            0.,NA,NA,"",       3.75717,      -3.61939,      -1.00813,   14.3738E-03
C:/temp/dataset/4/25_15.odb,Step-1,Increment      1: Step Time =    1.000,"PART-1-1",            91,           2.5,            5.,            0.,NA,NA,"",       3.50043,      -3.25764,      -1.28095,   3.92950E-03
C:/temp/dataset/4/25_15.odb,Step-1,Increment      1: Step Time =    1.000,"PART-1-1",            92,          -2.5,            5.,            0.,NA,NA,"",       3.78566,      -3.21050,      -2.00597,   489.164E-06
C:/temp/dataset/4/25_15.odb,Step-1,Increment      1: Step Time =    1.000,"PART-1-1",            93,           -5.,       7.08333,            0.,NA,NA,"",       4.23281,      -3.48991,      -2.39525,   24.4513E-06
C:/temp/dataset/4/25_15.odb,Step-1,Increment      1: Step Time =    1.000,"PART-1-1",            94,           -5.,       9.16667,            0.,NA,NA,"",       4.50016,      -3.79549,      -2.41779,   6.99526E-06
C:/temp/dataset/4/25_15.odb,Step-1,Increment      1: Step Time =    1.000,"PART-1-1",            95,           -5.,       13.3333,            0.,NA,NA,"",       5.04817,      -4.40663,      -2.46286,   485.348E-09
C:/temp/dataset/4/25_15.odb,Step-1,Increment      1: Step Time =    1.000,"PART-1-1",            96,           -5.,       15.4167,            0.,NA,NA,"",       5.32747,      -4.71220,      -2.48539,   52.1125E-09
C:/temp/dataset/4/25_15.odb,Step-1,Increment      1: Step Time =    1.000,"PART-1-1",            97,           -5.,       19.5833,            0.,NA,NA,"",       5.89416,      -5.32333,      -2.53045,   117.112E-09
C:/temp/dataset/4/25_15.odb,Step-1,Increment      1: Step Time =    1.000,"PART-1-1",            98,           -5.,       21.6667,            0.,NA,NA,"",       6.18080,      -5.62890,      -2.55299,   98.4337E-09
C:/temp/dataset/4/25_15.odb,Step-1,Increment      1: Step Time =    1.000,"PART-1-1",            99,           -5.,       25.8333,            0.,NA,NA,"",       6.75929,      -6.24004,      -2.59805,   71.1749E-09
C:/temp/dataset/4/25_15.odb,Step-1,Increment      1: Step Time =    1.000,"PART-1-1",           100,           -5.,       27.9167,            0.,NA,NA,"",       7.05070,      -6.54561,      -2.62058,   65.2792E-09
C:/temp/dataset/4/25_15.odb,Step-1,Increment      1: Step Time =    1.000,"PART-1-1",           101,       6.93475,       11.1046,            0.,NA,NA,"",       4.37742,      -4.30798,  -776.613E-03,   6.55910E-03
C:/temp/dataset/4/25_15.odb,Step-1,Increment      1: Step Time =    1.000,"PART-1-1",           102,       7.10183,      -21.7370,            0.,NA,NA,"",   279.585E-03,  -236.961E-03,  -148.381E-03,   18.5833E-03
C:/temp/dataset/4/25_15.odb,Step-1,Increment      1: Step Time =    1.000,"PART-1-1",           103,      -7.18606,       25.6133,            0.,NA,NA,"",       6.83727,      -6.18413,      -2.91630,   63.6500E-09
C:/temp/dataset/4/25_15.odb,Step-1,Increment      1: Step Time =    1.000,"PART-1-1",           104,       7.08931,      -17.4629,            0.,NA,NA,"",   564.486E-03,  -517.053E-03,  -226.497E-03,   17.0275E-03
C:/temp/dataset/4/25_15.odb,Step-1,Increment      1: Step Time =    1.000,"PART-1-1",           105,       7.11844,      -23.8299,            0.,NA,NA,"",   175.968E-03,  -137.441E-03,  -109.884E-03,   19.2589E-03
C:/temp/dataset/4/25_15.odb,Step-1,Increment      1: Step Time =    1.000,"PART-1-1",           106,       7.34845,      -27.9642,            0.,NA,NA,"",   35.6570E-03,  -17.2382E-03,  -31.2132E-03,   19.6170E-03
C:/temp/dataset/4/25_15.odb,Step-1,Increment      1: Step Time =    1.000,"PART-1-1",           107,       7.18399,      -25.9216,            0.,NA,NA,"",   94.0849E-03,  -63.5287E-03,  -69.3979E-03,   20.2989E-03
C:/temp/dataset/4/25_15.odb,Step-1,Increment      1: Step Time =    1.000,"PART-1-1",           108,       7.00226,      -10.9532,            0.,NA,NA,"",       1.17889,      -1.12371,  -356.443E-03,   14.9518E-03
C:/temp/dataset/4/25_15.odb,Step-1,Increment      1: Step Time =    1.000,"PART-1-1",           109,       6.93148,       25.8450,            0.,NA,NA,"",       7.03395,      -6.95360,      -1.06017,   1.21461E-03
C:/temp/dataset/4/25_15.odb,Step-1,Increment      1: Step Time =    1.000,"PART-1-1",           110,       6.95256,       21.7727,            0.,NA,NA,"",       6.28404,      -6.20668,  -983.020E-03,   2.59589E-03
C:/temp/dataset/4/25_15.odb,Step-1,Increment      1: Step Time =    1.000,"PART-1-1",           111,       6.99069,       19.6693,            0.,NA,NA,"",       5.89825,      -5.82343,  -936.528E-03,   3.30929E-03
C:/temp/dataset/4/25_15.odb,Step-1,Increment      1: Step Time =    1.000,"PART-1-1",           112,       6.98342,       13.2435,            0.,NA,NA,"",       4.74705,      -4.67718,  -811.487E-03,   5.63984E-03
C:/temp/dataset/4/25_15.odb,Step-1,Increment      1: Step Time =    1.000,"PART-1-1",           113,       6.84904,       8.98858,            0.,NA,NA,"",       4.02035,      -3.95027,  -747.377E-03,   7.89745E-03
C:/temp/dataset/4/25_15.odb,Step-1,Increment      1: Step Time =    1.000,"PART-1-1",           114,      -7.00061,       11.3966,            0.,NA,NA,"",       4.92948,      -4.10093,      -2.73535,   1.69951E-06
C:/temp/dataset/4/25_15.odb,Step-1,Increment      1: Step Time =    1.000,"PART-1-1",           115,      -6.87185,       17.5946,            0.,NA,NA,"",       5.73253,      -5.01139,      -2.78350,   75.7907E-09
C:/temp/dataset/4/25_15.odb,Step-1,Increment      1: Step Time =    1.000,"PART-1-1",           116,      -6.78696,       21.5686,            0.,NA,NA,"",       6.26299,      -5.59520,      -2.81402,   74.3018E-09
C:/temp/dataset/4/25_15.odb,Step-1,Increment      1: Step Time =    1.000,"PART-1-1",           117,      -6.92081,       23.5666,            0.,NA,NA,"",       6.54271,      -5.88680,      -2.85527,   69.2184E-09
C:/temp/dataset/4/25_15.odb,Step-1,Increment      1: Step Time =    1.000,"PART-1-1",           118,      -7.47694,       27.7553,            0.,NA,NA,"",       7.14703,      -6.49515,      -2.98213,   58.8563E-09
C:/temp/dataset/4/25_15.odb,Step-1,Increment      1: Step Time =    1.000,"PART-1-1",           119,       6.62973,      -6.72562,            0.,NA,NA,"",       1.68872,      -1.61747,  -485.357E-03,   14.5948E-03
C:/temp/dataset/4/25_15.odb,Step-1,Increment      1: Step Time =    1.000,"PART-1-1",           120,       7.00244,       17.5390,            0.,NA,NA,"",       5.51119,      -5.43831,  -893.307E-03,   4.03619E-03
C:/temp/dataset/4/25_15.odb,Step-1,Increment      1: Step Time =    1.000,"PART-1-1",           121,       7.05765,      -13.1226,            0.,NA,NA,"",   950.886E-03,  -899.114E-03,  -309.480E-03,   15.5640E-03
C:/temp/dataset/4/25_15.odb,Step-1,Increment      1: Step Time =    1.000,"PART-1-1",           122,      -6.97858,       13.4860,            0.,NA,NA,"",       5.19765,      -4.40762,      -2.75472,   651.997E-09
C:/temp/dataset/4/25_15.odb,Step-1,Increment      1: Step Time =    1.000,"PART-1-1",           123,      -7.06135,       7.11796,            0.,NA,NA,"",       4.39760,      -3.47271,      -2.69799,   12.2970E-06
C:/temp/dataset/4/25_15.odb,Step-1,Increment      1: Step Time =    1.000,"PART-1-1",           124,       6.87626,      -8.81940,            0.,NA,NA,"",       1.42533,      -1.36418,  -413.015E-03,   14.9195E-03
C:/temp/dataset/4/25_15.odb,Step-1,Increment      1: Step Time =    1.000,"PART-1-1",           125,       7.08495,      -15.2974,            0.,NA,NA,"",   745.256E-03,  -695.983E-03,  -266.484E-03,   16.2319E-03
C:/temp/dataset/4/25_15.odb,Step-1,Increment      1: Step Time =    1.000,"PART-1-1",           126,       7.00715,       15.3887,            0.,NA,NA,"",       5.12541,      -5.05440,  -850.184E-03,   4.79630E-03
C:/temp/dataset/4/25_15.odb,Step-1,Increment      1: Step Time =    1.000,"PART-1-1",           127,      -7.01992,       9.30136,            0.,NA,NA,"",       4.66519,      -3.79340,      -2.71553,   3.76385E-06
C:/temp/dataset/4/25_15.odb,Step-1,Increment      1: Step Time =    1.000,"PART-1-1",           128,      -6.93369,       15.5639,            0.,NA,NA,"",       5.46695,      -4.71288,      -2.77061,   217.888E-09
C:/temp/dataset/4/25_15.odb,Step-1,Increment      1: Step Time =    1.000,"PART-1-1",           129,      -6.79206,       19.5889,            0.,NA,NA,"",       5.99529,      -5.30477,      -2.79336,   73.3723E-09
C:/temp/dataset/4/25_15.odb,Step-1,Increment      1: Step Time =    1.000,"PART-1-1",           130,       7.09662,      -19.6136,            0.,NA,NA,"",   408.860E-03,  -363.587E-03,  -187.005E-03,   17.7929E-03
C:/temp/dataset/4/25_15.odb,Step-1,Increment      1: Step Time =    1.000,"PART-1-1",           131,       6.89670,       23.8203,            0.,NA,NA,"",       6.66147,      -6.58127,      -1.03060,   1.88132E-03
C:/temp/dataset/4/25_15.odb,Step-1,Increment      1: Step Time =    1.000,"PART-1-1",           132,       6.67676,       6.98748,            0.,NA,NA,"",       3.69257,      -3.61883,  -734.269E-03,   9.92944E-03
C:/temp/dataset/4/25_15.odb,Step-1,Increment      1: Step Time =    1.000,"PART-1-1",           133,      -13.0361,       12.2042,            0.,NA,NA,"",       5.51621,      -4.15410,      -3.62933,   988.127E-09
C:/temp/dataset/4/25_15.odb,Step-1,Increment      1: Step Time =    1.000,"PART-1-1",           134,      -13.0483,       3.72302,            0.,NA,NA,"",       4.58210,      -2.91004,      -3.53939,   2.55807E-06
C:/temp/dataset/4/25_15.odb,Step-1,Increment      1: Step Time =    1.000,"PART-1-1",           135,      -13.0740,       10.0823,            0.,NA,NA,"",       5.27359,      -3.84247,      -3.61194,   1.86479E-06
C:/temp/dataset/4/25_15.odb,Step-1,Increment      1: Step Time =    1.000,"PART-1-1",           136,      -13.0017,       14.3509,            0.,NA,NA,"",       5.76881,      -4.46934,      -3.64749,   412.266E-09
C:/temp/dataset/4/25_15.odb,Step-1,Increment      1: Step Time =    1.000,"PART-1-1",           137,      -12.4480,       21.2307,            0.,NA,NA,"",       6.58281,      -5.48441,      -3.64069,   45.9137E-09
C:/temp/dataset/4/25_15.odb,Step-1,Increment      1: Step Time =    1.000,"PART-1-1",           138,      -13.0426,       25.7965,            0.,NA,NA,"",       7.21537,      -6.14766,      -3.77728,   50.4756E-09
C:/temp/dataset/4/25_15.odb,Step-1,Increment      1: Step Time =    1.000,"PART-1-1",           139,      -12.9478,       23.6552,            0.,NA,NA,"",       6.93050,      -5.83461,      -3.74022,   49.1731E-09
C:/temp/dataset/4/25_15.odb,Step-1,Increment      1: Step Time =    1.000,"PART-1-1",           140,      -12.8307,       18.7376,            0.,NA,NA,"",       6.29499,      -5.11460,      -3.66985,   43.8651E-09
C:/temp/dataset/4/25_15.odb,Step-1,Increment      1: Step Time =    1.000,"PART-1-1",           141,      -12.9472,       16.5227,            0.,NA,NA,"",       6.02885,      -4.78847,      -3.66300,   126.986E-09
C:/temp/dataset/4/25_15.odb,Step-1,Increment      1: Step Time =    1.000,"PART-1-1",           142,      -13.1112,       7.97345,            0.,NA,NA,"",       5.03998,      -3.53275,      -3.59458,   2.13728E-06
C:/temp/dataset/4/25_15.odb,Step-1,Increment      1: Step Time =    1.000,"PART-1-1",           143,      -13.1276,       5.86243,            0.,NA,NA,"",       4.81270,      -3.22296,      -3.57416,   1.42609E-06
C:/temp/dataset/4/25_15.odb,Step-1,Increment      1: Step Time =    1.000,"PART-1-1",           144,      -12.8109,       1.56310,            0.,NA,NA,"",       4.34251,      -2.59585,      -3.48123,   4.78924E-06
C:/temp/dataset/4/25_15.odb,Step-1,Increment      1: Step Time =    1.000,"PART-1-1",           145,      -12.5511,  -622.366E-03,            0.,NA,NA,"",       4.10890,      -2.27816,      -3.41951,   4.05682E-06
C:/temp/dataset/4/25_15.odb,Step-1,Increment      1: Step Time =    1.000,"PART-1-1",           146,      -7.69124,      -3.05836,            0.,NA,NA,"",       3.32867,      -1.97344,      -2.68060,   59.4619E-06
C:/temp/dataset/4/25_15.odb,Step-1,Increment      1: Step Time =    1.000,"PART-1-1",           147,      -2.59391,      -3.27074,            0.,NA,NA,"",       2.77803,      -1.99713,      -1.93104,   371.294E-06
C:/temp/dataset/4/25_15.odb,Step-1,Increment      1: Step Time =    1.000,"PART-1-1",           148,      -2.06699,       2.95135,            0.,NA,NA,"",       3.49116,      -2.91564,      -1.92021,   388.313E-06
C:/temp/dataset/4/25_15.odb,Step-1,Increment      1: Step Time =    1.000,"PART-1-1",           149,       1.86882,      -3.06513,            0.,NA,NA,"",       2.43570,      -2.07554,      -1.27466,   2.64753E-03
C:/temp/dataset/4/25_15.odb,Step-1,Increment      1: Step Time =    1.000,"PART-1-1",           150,       2.79073,       3.02834,            0.,NA,NA,"",       3.21628,      -2.97771,      -1.21561,   4.08759E-03
C:/temp/dataset/4/25_15.odb,Step-1,Increment      1: Step Time =    1.000,"PART-1-1",           151,       12.5379,       2.72923,            0.,NA,NA,"",       3.03187,      -3.02360,   223.893E-03,   7.19075E-03
C:/temp/dataset/4/25_15.odb,Step-1,Increment      1: Step Time =    1.000,"PART-1-1",           152,       12.9313,       10.2835,            0.,NA,NA,"",       4.25912,      -4.25264,   234.898E-03,   6.59832E-03
C:/temp/dataset/4/25_15.odb,Step-1,Increment      1: Step Time =    1.000,"PART-1-1",           153,       12.7723,       24.8557,            0.,NA,NA,"",       6.87211,      -6.87209,   15.6020E-03,   2.41786E-03
C:/temp/dataset/4/25_15.odb,Step-1,Increment      1: Step Time =    1.000,"PART-1-1",           154,       12.5268,       27.4001,            0.,NA,NA,"",       7.33595,      -7.33562,  -69.8159E-03,   1.56861E-03
C:/temp/dataset/4/25_15.odb,Step-1,Increment      1: Step Time =    1.000,"PART-1-1",           155,       12.7627,      -5.01238,            0.,NA,NA,"",       1.91691,      -1.89674,   277.378E-03,   11.8173E-03
C:/temp/dataset/4/25_15.odb,Step-1,Increment      1: Step Time =    1.000,"PART-1-1",           156,       13.0118,      -12.5921,            0.,NA,NA,"",       1.01918,  -983.436E-03,   267.546E-03,   16.1371E-03
C:/temp/dataset/4/25_15.odb,Step-1,Increment      1: Step Time =    1.000,"PART-1-1",           157,       9.69976,      -27.8547,            0.,NA,NA,"",   9.58883E-03,  -9.09726E-03,  -3.03077E-03,   3.75934E-03
C:/temp/dataset/4/25_15.odb,Step-1,Increment      1: Step Time =    1.000,"PART-1-1",           158,       13.0855,      -17.4497,            0.,NA,NA,"",   580.955E-03,  -538.066E-03,   219.074E-03,   18.5572E-03
C:/temp/dataset/4/25_15.odb,Step-1,Increment      1: Step Time =    1.000,"PART-1-1",           159,       12.9366,       22.3763,            0.,NA,NA,"",       6.41756,      -6.41700,   84.2307E-03,   3.07036E-03
C:/temp/dataset/4/25_15.odb,Step-1,Increment      1: Step Time =    1.000,"PART-1-1",           160,       13.0248,       17.5365,            0.,NA,NA,"",       5.53510,      -5.53247,   170.422E-03,   4.03353E-03
C:/temp/dataset/4/25_15.odb,Step-1,Increment      1: Step Time =    1.000,"PART-1-1",           161,      -10.1545,       27.3700,            0.,NA,NA,"",       7.24194,      -6.40968,      -3.37070,   57.8465E-09
C:/temp/dataset/4/25_15.odb,Step-1,Increment      1: Step Time =    1.000,"PART-1-1",           162,      -10.0546,      -2.87755,            0.,NA,NA,"",       3.61573,      -1.97442,      -3.02905,   17.0914E-06
C:/temp/dataset/4/25_15.odb,Step-1,Increment      1: Step Time =    1.000,"PART-1-1",           163,      -5.07747,      -2.66322,            0.,NA,NA,"",       3.08873,      -2.05969,      -2.30173,   192.862E-06
C:/temp/dataset/4/25_15.odb,Step-1,Increment      1: Step Time =    1.000,"PART-1-1",           164,  -330.659E-03,      -3.26262,            0.,NA,NA,"",       2.57826,      -2.02292,      -1.59850,   597.178E-06
C:/temp/dataset/4/25_15.odb,Step-1,Increment      1: Step Time =    1.000,"PART-1-1",           165,       3.93161,      -2.75002,            0.,NA,NA,"",       2.35189,      -2.14437,  -965.957E-03,   7.28531E-03
C:/temp/dataset/4/25_15.odb,Step-1,Increment      1: Step Time =    1.000,"PART-1-1",           166,       12.9585,      -10.1304,            0.,NA,NA,"",       1.28397,      -1.25277,   281.316E-03,   14.8977E-03
C:/temp/dataset/4/25_15.odb,Step-1,Increment      1: Step Time =    1.000,"PART-1-1",           167,       13.1106,      -19.8561,            0.,NA,NA,"",   407.972E-03,  -363.178E-03,   185.857E-03,   19.7456E-03
C:/temp/dataset/4/25_15.odb,Step-1,Increment      1: Step Time =    1.000,"PART-1-1",           168,       12.2637,      -27.1930,            0.,NA,NA,"",   49.6309E-03,  -31.4324E-03,   38.4087E-03,   17.9270E-03
C:/temp/dataset/4/25_15.odb,Step-1,Increment      1: Step Time =    1.000,"PART-1-1",           169,       13.0974,      -22.2394,            0.,NA,NA,"",   265.752E-03,  -221.898E-03,   146.237E-03,   20.6384E-03
C:/temp/dataset/4/25_15.odb,Step-1,Increment      1: Step Time =    1.000,"PART-1-1",           170,       13.0625,      -15.0302,            0.,NA,NA,"",   785.137E-03,  -745.165E-03,   247.324E-03,   17.4156E-03
C:/temp/dataset/4/25_15.odb,Step-1,Increment      1: Step Time =    1.000,"PART-1-1",           171,       12.8638,      -7.61343,            0.,NA,NA,"",       1.58158,      -1.55592,   283.725E-03,   13.4652E-03
C:/temp/dataset/4/25_15.odb,Step-1,Increment      1: Step Time =    1.000,"PART-1-1",           172,       12.8109,      -2.41519,            0.,NA,NA,"",       2.27956,      -2.26195,   282.724E-03,   10.2065E-03
C:/temp/dataset/4/25_15.odb,Step-1,Increment      1: Step Time =    1.000,"PART-1-1",           173,       12.7001,   168.481E-03,            0.,NA,NA,"",       2.65176,      -2.63900,   259.821E-03,   8.29247E-03
C:/temp/dataset/4/25_15.odb,Step-1,Increment      1: Step Time =    1.000,"PART-1-1",           174,       12.6773,       5.28127,            0.,NA,NA,"",       3.43179,      -3.42402,   230.795E-03,   7.27262E-03
C:/temp/dataset/4/25_15.odb,Step-1,Increment      1: Step Time =    1.000,"PART-1-1",           175,       12.8405,       7.80961,            0.,NA,NA,"",       3.84368,      -3.83619,   239.899E-03,   7.18803E-03
C:/temp/dataset/4/25_15.odb,Step-1,Increment      1: Step Time =    1.000,"PART-1-1",           176,       12.9955,       12.7023,            0.,NA,NA,"",       4.67648,      -4.67118,   222.516E-03,   5.82991E-03
C:/temp/dataset/4/25_15.odb,Step-1,Increment      1: Step Time =    1.000,"PART-1-1",           177,       13.0102,       19.9477,            0.,NA,NA,"",       5.97270,      -5.97119,   134.233E-03,   3.11774E-03
C:/temp/dataset/4/25_15.odb,Step-1,Increment      1: Step Time =    1.000,"PART-1-1",           178,       9.88408,       27.1269,            0.,NA,NA,"",       7.25938,      -7.23885,  -545.607E-03,   1.47339E-03
C:/temp/dataset/4/25_15.odb,Step-1,Increment      1: Step Time =    1.000,"PART-1-1",           179,       13.0301,       15.1161,            0.,NA,NA,"",       5.10180,      -5.09781,   201.703E-03,   4.95412E-03
C:/temp/dataset/4/25_15.odb,Step-1,Increment      1: Step Time =    1.000,"PART-1-1",           180,   300.490E-03,       3.00528,            0.,NA,NA,"",       3.34320,      -2.94905,      -1.57483,   559.123E-06
C:/temp/dataset/4/25_15.odb,Step-1,Increment      1: Step Time =    1.000,"PART-1-1",           181,      -4.18418,       2.89078,            0.,NA,NA,"",       3.64559,      -2.88392,      -2.23010,   240.236E-06
C:/temp/dataset/4/25_15.odb,Step-1,Increment      1: Step Time =    1.000,"PART-1-1",           182,      -8.75093,       23.2164,            0.,NA,NA,"",       6.59965,      -5.81564,      -3.11991,   59.4966E-09
C:/temp/dataset/4/25_15.odb,Step-1,Increment      1: Step Time =    1.000,"PART-1-1",           183,       9.13120,      -23.8882,            0.,NA,NA,"",   129.702E-03,  -125.694E-03,  -31.9932E-03,   6.34036E-03
C:/temp/dataset/4/25_15.odb,Step-1,Increment      1: Step Time =    1.000,"PART-1-1",           184,       8.76025,       8.63504,            0.,NA,NA,"",       3.93683,      -3.91340,  -428.851E-03,   3.92235E-03
C:/temp/dataset/4/25_15.odb,Step-1,Increment      1: Step Time =    1.000,"PART-1-1",           185,       8.81891,       23.9948,            0.,NA,NA,"",       6.68009,      -6.64482,  -685.534E-03,   2.25641E-03
C:/temp/dataset/4/25_15.odb,Step-1,Increment      1: Step Time =    1.000,"PART-1-1",           186,       9.00734,       17.5557,            0.,NA,NA,"",       5.49728,      -5.47081,  -538.821E-03,   3.16109E-03
C:/temp/dataset/4/25_15.odb,Step-1,Increment      1: Step Time =    1.000,"PART-1-1",           187,      -8.59230,       19.6811,            0.,NA,NA,"",       6.11812,      -5.29883,      -3.05841,   51.3828E-09
C:/temp/dataset/4/25_15.odb,Step-1,Increment      1: Step Time =    1.000,"PART-1-1",           188,       9.06266,      -12.9142,            0.,NA,NA,"",   928.086E-03,  -920.617E-03,  -117.512E-03,   5.50379E-03
C:/temp/dataset/4/25_15.odb,Step-1,Increment      1: Step Time =    1.000,"PART-1-1",           189,       9.13987,      -19.6571,            0.,NA,NA,"",   359.448E-03,  -354.780E-03,  -57.7443E-03,   5.76885E-03
C:/temp/dataset/4/25_15.odb,Step-1,Increment      1: Step Time =    1.000,"PART-1-1",           190,       9.00941,       15.3265,            0.,NA,NA,"",       5.09595,      -5.07139,  -499.646E-03,   3.26870E-03
C:/temp/dataset/4/25_15.odb,Step-1,Increment      1: Step Time =    1.000,"PART-1-1",           191,      -8.96967,       13.7142,            0.,NA,NA,"",       5.36938,      -4.41955,      -3.04922,   701.062E-09
C:/temp/dataset/4/25_15.odb,Step-1,Increment      1: Step Time =    1.000,"PART-1-1",           192,       9.12973,      -17.4386,            0.,NA,NA,"",   520.345E-03,  -515.056E-03,  -74.0026E-03,   5.63410E-03
C:/temp/dataset/4/25_15.odb,Step-1,Increment      1: Step Time =    1.000,"PART-1-1",           193,       8.94484,       21.9321,            0.,NA,NA,"",       6.29886,      -6.26758,  -626.911E-03,   2.76572E-03
C:/temp/dataset/4/25_15.odb,Step-1,Increment      1: Step Time =    1.000,"PART-1-1",           194,      -8.78258,       17.8115,            0.,NA,NA,"",       5.88446,      -5.02254,      -3.06609,   77.0146E-09
C:/temp/dataset/4/25_15.odb,Step-1,Increment      1: Step Time =    1.000,"PART-1-1",           195,       8.90333,       10.8666,            0.,NA,NA,"",       4.31439,      -4.29170,  -441.914E-03,   3.67885E-03
C:/temp/dataset/4/25_15.odb,Step-1,Increment      1: Step Time =    1.000,"PART-1-1",           196,      -9.00437,       11.6266,            0.,NA,NA,"",       5.10961,      -4.11298,      -3.03174,   1.74037E-06
C:/temp/dataset/4/25_15.odb,Step-1,Increment      1: Step Time =    1.000,"PART-1-1",           197,      -9.03622,       9.53759,            0.,NA,NA,"",       4.85496,      -3.80624,      -3.01382,   2.51085E-06
C:/temp/dataset/4/25_15.odb,Step-1,Increment      1: Step Time =    1.000,"PART-1-1",           198,       8.99264,      -10.6281,            0.,NA,NA,"",       1.17192,      -1.16265,  -147.138E-03,   5.40750E-03
C:/temp/dataset/4/25_15.odb,Step-1,Increment      1: Step Time =    1.000,"PART-1-1",           199,       8.82192,      -8.34759,            0.,NA,NA,"",       1.43911,      -1.42633,  -191.354E-03,   5.28978E-03
C:/temp/dataset/4/25_15.odb,Step-1,Increment      1: Step Time =    1.000,"PART-1-1",           200,       8.98411,       13.0928,            0.,NA,NA,"",       4.70048,      -4.67735,  -465.698E-03,   3.41897E-03
C:/temp/dataset/4/25_15.odb,Step-1,Increment      1: Step Time =    1.000,"PART-1-1",           201,       7.30685,       27.8134,            0.,NA,NA,"",       7.39229,      -7.32079,      -1.02565,   700.797E-06
C:/temp/dataset/4/25_15.odb,Step-1,Increment      1: Step Time =    1.000,"PART-1-1",           202,      -8.46063,       21.4565,            0.,NA,NA,"",       6.34618,      -5.56065,      -3.05829,   58.5049E-09
C:/temp/dataset/4/25_15.odb,Step-1,Increment      1: Step Time =    1.000,"PART-1-1",           203,       9.11250,      -15.1896,            0.,NA,NA,"",   710.079E-03,  -703.968E-03,  -92.9641E-03,   5.52096E-03
C:/temp/dataset/4/25_15.odb,Step-1,Increment      1: Step Time =    1.000,"PART-1-1",           204,       9.14200,      -21.8221,            0.,NA,NA,"",   228.818E-03,  -224.586E-03,  -43.8067E-03,   5.97454E-03
C:/temp/dataset/4/25_15.odb,Step-1,Increment      1: Step Time =    1.000,"PART-1-1",           205,      -8.90436,       15.8055,            0.,NA,NA,"",       5.63223,      -4.72701,      -3.06226,   265.176E-09
C:/temp/dataset/4/25_15.odb,Step-1,Increment      1: Step Time =    1.000,"PART-1-1",           206,       9.00445,       19.7587,            0.,NA,NA,"",       5.89897,      -5.87058,  -578.040E-03,   3.04167E-03
C:/temp/dataset/4/25_15.odb,Step-1,Increment      1: Step Time =    1.000,"PART-1-1",           207,       8.39742,      -6.16188,            0.,NA,NA,"",       1.71951,      -1.69822,  -269.761E-03,   5.51088E-03
C:/temp/dataset/4/25_15.odb,Step-1,Increment      1: Step Time =    1.000,"PART-1-1",           208,      -9.10294,       7.45394,            0.,NA,NA,"",       4.61040,      -3.49990,      -3.00108,   4.08441E-06
C:/temp/dataset/4/25_15.odb,Step-1,Increment      1: Step Time =    1.000,"PART-1-1",           209,       8.43260,       6.43235,            0.,NA,NA,"",       3.57645,      -3.54846,  -446.590E-03,   3.63047E-03
C:/temp/dataset/4/25_15.odb,Step-1,Increment      1: Step Time =    1.000,"PART-1-1",           210,       5.64784,       2.93298,            0.,NA,NA,"",       3.09313,      -2.98518,  -810.041E-03,   10.3940E-03
C:/temp/dataset/4/25_15.odb,Step-1,Increment      1: Step Time =    1.000,"PART-1-1",           211,      -10.7213,       1.88644,            0.,NA,NA,"",       4.14828,      -2.66587,      -3.17826,   17.2354E-06
C:/temp/dataset/4/25_15.odb,Step-1,Increment      1: Step Time =    1.000,"PART-1-1",           212,      -12.7178,       27.8380,            0.,NA,NA,"",       7.46228,      -6.45059,      -3.75172,   54.2474E-09
C:/temp/dataset/4/25_15.odb,Step-1,Increment      1: Step Time =    1.000,"PART-1-1",           213,      -11.0298,       24.2524,            0.,NA,NA,"",       6.87949,      -5.94295,      -3.46535,   53.1003E-09
C:/temp/dataset/4/25_15.odb,Step-1,Increment      1: Step Time =    1.000,"PART-1-1",           214,      -10.4500,       20.0822,            0.,NA,NA,"",       6.29391,      -5.33756,      -3.33521,   41.9038E-09
C:/temp/dataset/4/25_15.odb,Step-1,Increment      1: Step Time =    1.000,"PART-1-1",           215,      -10.9919,       14.0243,            0.,NA,NA,"",       5.56406,      -4.44316,      -3.34918,   612.970E-09
C:/temp/dataset/4/25_15.odb,Step-1,Increment      1: Step Time =    1.000,"PART-1-1",           216,      -11.0796,       9.82104,            0.,NA,NA,"",       5.06319,      -3.82572,      -3.31660,   2.36188E-06
C:/temp/dataset/4/25_15.odb,Step-1,Increment      1: Step Time =    1.000,"PART-1-1",           217,      -11.0365,       11.9204,            0.,NA,NA,"",       5.31032,      -4.13411,      -3.33297,   1.37667E-06
C:/temp/dataset/4/25_15.odb,Step-1,Increment      1: Step Time =    1.000,"PART-1-1",           218,      -10.5491,       22.5446,            0.,NA,NA,"",       6.62293,      -5.69766,      -3.37638,   51.6026E-09
C:/temp/dataset/4/25_15.odb,Step-1,Increment      1: Step Time =    1.000,"PART-1-1",           219,      -10.9277,       16.1478,            0.,NA,NA,"",       5.82418,      -4.75532,      -3.36273,   202.254E-09
C:/temp/dataset/4/25_15.odb,Step-1,Increment      1: Step Time =    1.000,"PART-1-1",           220,      -10.7891,       18.2216,            0.,NA,NA,"",       6.07748,      -5.06099,      -3.36483,   56.9471E-09
C:/temp/dataset/4/25_15.odb,Step-1,Increment      1: Step Time =    1.000,"PART-1-1",           221,      -11.1555,       7.76515,            0.,NA,NA,"",       4.83117,      -3.52335,      -3.30549,   1.94846E-06
C:/temp/dataset/4/25_15.odb,Step-1,Increment      1: Step Time =    1.000,"PART-1-1",           222,      -9.80329,       4.04682,            0.,NA,NA,"",       4.28509,      -2.99262,      -3.06696,   13.8896E-06
C:/temp/dataset/4/25_15.odb,Step-1,Increment      1: Step Time =    1.000,"PART-1-1",           223,       9.22674,      -25.9093,            0.,NA,NA,"",   56.3854E-03,  -53.4211E-03,  -18.0416E-03,   5.91550E-03
C:/temp/dataset/4/25_15.odb,Step-1,Increment      1: Step Time =    1.000,"PART-1-1",           224,      -9.21421,       25.1107,            0.,NA,NA,"",       6.88208,      -6.08848,      -3.20834,   58.7832E-09
C:/temp/dataset/4/25_15.odb,Step-1,Increment      1: Step Time =    1.000,"PART-1-1",           225,       6.25241,      -4.60112,            0.,NA,NA,"",       1.98105,      -1.89448,  -579.227E-03,   11.6906E-03
C:/temp/dataset/4/25_15.odb,Step-1,Increment      1: Step Time =    1.000,"PART-1-1",           226,      -7.19550,       4.55405,            0.,NA,NA,"",       4.10072,      -3.09519,      -2.68992,   42.2851E-06
C:/temp/dataset/4/25_15.odb,Step-1,Increment      1: Step Time =    1.000,"PART-1-1",           227,       12.9551,      -24.6090,            0.,NA,NA,"",   150.281E-03,  -113.568E-03,   98.4204E-03,   21.3017E-03
C:/temp/dataset/4/25_15.odb,Step-1,Increment      1: Step Time =    1.000,"PART-1-1",           228,       10.9241,       22.1645,            0.,NA,NA,"",       6.34900,      -6.34303,  -275.233E-03,   2.93957E-03
C:/temp/dataset/4/25_15.odb,Step-1,Increment      1: Step Time =    1.000,"PART-1-1",           229,      -4.91288,   464.762E-03,            0.,NA,NA,"",       3.41969,      -2.52054,      -2.31109,   221.375E-06
C:/temp/dataset/4/25_15.odb,Step-1,Increment      1: Step Time =    1.000,"PART-1-1",           230,  -831.143E-03,      -1.35374,            0.,NA,NA,"",       2.85496,      -2.29887,      -1.69293,   452.472E-06
C:/temp/dataset/4/25_15.odb,Step-1,Increment      1: Step Time =    1.000,"PART-1-1",           231,       11.1616,      -19.7398,            0.,NA,NA,"",   361.191E-03,  -354.895E-03,   67.1430E-03,   8.08192E-03
C:/temp/dataset/4/25_15.odb,Step-1,Increment      1: Step Time =    1.000,"PART-1-1",           232,       10.9730,      -10.3410,            0.,NA,NA,"",       1.20917,      -1.20745,   64.5513E-03,   6.03085E-03
C:/temp/dataset/4/25_15.odb,Step-1,Increment      1: Step Time =    1.000,"PART-1-1",           233,       10.4844,      -5.04269,            0.,NA,NA,"",       1.86593,      -1.86587,  -15.1916E-03,   5.99182E-03
C:/temp/dataset/4/25_15.odb,Step-1,Increment      1: Step Time =    1.000,"PART-1-1",           234,       10.9074,       10.5689,            0.,NA,NA,"",       4.27036,      -4.26909,  -104.226E-03,   3.51754E-03
C:/temp/dataset/4/25_15.odb,Step-1,Increment      1: Step Time =    1.000,"PART-1-1",           235,       11.0515,      -12.7377,            0.,NA,NA,"",   951.924E-03,  -948.984E-03,   74.7545E-03,   6.49408E-03
C:/temp/dataset/4/25_15.odb,Step-1,Increment      1: Step Time =    1.000,"PART-1-1",           236,       10.9936,       12.8990,            0.,NA,NA,"",       4.67450,      -4.67294,  -120.627E-03,   3.39162E-03
C:/temp/dataset/4/25_15.odb,Step-1,Increment      1: Step Time =    1.000,"PART-1-1",           237,      -9.84553,  -403.770E-03,            0.,NA,NA,"",       3.82420,      -2.33949,      -3.02511,   27.0836E-06
C:/temp/dataset/4/25_15.odb,Step-1,Increment      1: Step Time =    1.000,"PART-1-1",           238,      -6.42098,  -599.403E-03,            0.,NA,NA,"",       3.44494,      -2.34796,      -2.52085,   131.108E-06
C:/temp/dataset/4/25_15.odb,Step-1,Increment      1: Step Time =    1.000,"PART-1-1",           239,      -2.35214,      -1.85066,            0.,NA,NA,"",       2.92069,      -2.20880,      -1.91093,   347.212E-06
C:/temp/dataset/4/25_15.odb,Step-1,Increment      1: Step Time =    1.000,"PART-1-1",           240,       11.1625,      -21.9830,            0.,NA,NA,"",   227.191E-03,  -220.297E-03,   55.5440E-03,   8.52441E-03
C:/temp/dataset/4/25_15.odb,Step-1,Increment      1: Step Time =    1.000,"PART-1-1",           241,       11.1073,      -15.0998,            0.,NA,NA,"",   724.908E-03,  -720.711E-03,   77.8934E-03,   7.06002E-03
C:/temp/dataset/4/25_15.odb,Step-1,Increment      1: Step Time =    1.000,"PART-1-1",           242,       11.1457,      -17.4375,            0.,NA,NA,"",   527.598E-03,  -522.215E-03,   75.1764E-03,   7.62347E-03
C:/temp/dataset/4/25_15.odb,Step-1,Increment      1: Step Time =    1.000,"PART-1-1",           243,       10.8340,      -7.85693,            0.,NA,NA,"",       1.50272,      -1.50213,   42.1511E-03,   5.98385E-03
C:/temp/dataset/4/25_15.odb,Step-1,Increment      1: Step Time =    1.000,"PART-1-1",           244,       10.5842,   120.255E-03,            0.,NA,NA,"",       2.60655,      -2.60616,  -44.6279E-03,   3.31503E-03
C:/temp/dataset/4/25_15.odb,Step-1,Increment      1: Step Time =    1.000,"PART-1-1",           245,       10.8633,      -2.34188,            0.,NA,NA,"",       2.24913,      -2.24907,   15.8923E-03,   5.61561E-03
C:/temp/dataset/4/25_15.odb,Step-1,Increment      1: Step Time =    1.000,"PART-1-1",           246,       9.78574,       2.89226,            0.,NA,NA,"",       3.01940,      -3.01329,  -192.028E-03,   904.881E-06
C:/temp/dataset/4/25_15.odb,Step-1,Increment      1: Step Time =    1.000,"PART-1-1",           247,       10.7685,       8.18214,            0.,NA,NA,"",       3.86690,      -3.86566,  -97.8714E-03,   3.52063E-03
C:/temp/dataset/4/25_15.odb,Step-1,Increment      1: Step Time =    1.000,"PART-1-1",           248,       10.4587,       5.69287,            0.,NA,NA,"",       3.45891,      -3.45685,  -119.468E-03,   2.80330E-03
C:/temp/dataset/4/25_15.odb,Step-1,Increment      1: Step Time =    1.000,"PART-1-1",           249,       11.0104,       19.8565,            0.,NA,NA,"",       5.92482,      -5.92066,  -222.130E-03,   3.03285E-03
C:/temp/dataset/4/25_15.odb,Step-1,Increment      1: Step Time =    1.000,"PART-1-1",           250,       11.0363,       17.5467,            0.,NA,NA,"",       5.50388,      -5.50090,  -181.121E-03,   3.08879E-03
C:/temp/dataset/4/25_15.odb,Step-1,Increment      1: Step Time =    1.000,"PART-1-1",           251,       11.0403,       15.2208,            0.,NA,NA,"",       5.08551,      -5.08343,  -145.488E-03,   3.24515E-03
C:/temp/dataset/4/25_15.odb,Step-1,Increment      1: Step Time =    1.000,"PART-1-1",           252,       1.19009,      -1.06873,            0.,NA,NA,"",       2.74567,      -2.36293,      -1.39830,   1.33581E-03
C:/temp/dataset/4/25_15.odb,Step-1,Increment      1: Step Time =    1.000,"PART-1-1",           253,       10.6932,       24.5073,            0.,NA,NA,"",       6.78028,      -6.77095,  -355.502E-03,   2.39742E-03
C:/temp/dataset/4/25_15.odb,Step-1,Increment      1: Step Time =    1.000,"PART-1-1",           254,       8.51128,       25.6419,            0.,NA,NA,"",       6.98516,      -6.94263,  -769.620E-03,   1.67349E-03
C:/temp/dataset/4/25_15.odb,Step-1,Increment      1: Step Time =    1.000,"PART-1-1",           255,      -9.32324,       5.48290,            0.,NA,NA,"",       4.40075,      -3.20843,      -3.01207,   7.61574E-06
C:/temp/dataset/4/25_15.odb,Step-1,Increment      1: Step Time =    1.000,"PART-1-1",           256,      -11.4569,       25.7537,            0.,NA,NA,"",       7.10558,      -6.15854,      -3.54424,   53.8495E-09
C:/temp/dataset/4/25_15.odb,Step-1,Increment      1: Step Time =    1.000,"PART-1-1",           257,      -8.85145,       2.84717,            0.,NA,NA,"",       4.06024,      -2.82699,      -2.91439,   35.6260E-06
C:/temp/dataset/4/25_15.odb,Step-1,Increment      1: Step Time =    1.000,"PART-1-1",           258,       11.0896,      -24.0706,            0.,NA,NA,"",   127.371E-03,  -121.021E-03,   39.7133E-03,   8.47145E-03
C:/temp/dataset/4/25_15.odb,Step-1,Increment      1: Step Time =    1.000,"PART-1-1",           259,       5.69240,      -2.12345,            0.,NA,NA,"",       2.35696,      -2.24702,  -711.434E-03,   11.3733E-03
C:/temp/dataset/4/25_15.odb,Step-1,Increment      1: Step Time =    1.000,"PART-1-1",           260,       7.72467,       1.38687,            0.,NA,NA,"",       2.81055,      -2.76964,  -477.759E-03,   6.44090E-03
C:/temp/dataset/4/25_15.odb,Step-1,Increment      1: Step Time =    1.000,"PART-1-1",           261,       8.83369,  -368.727E-03,            0.,NA,NA,"",       2.53537,      -2.51876,  -289.784E-03,   5.16011E-03
C:/temp/dataset/4/25_15.odb,Step-1,Increment      1: Step Time =    1.000,"PART-1-1",           262,       7.58912,       4.39900,            0.,NA,NA,"",       3.26569,      -3.21963,  -546.539E-03,   4.67369E-03
C:/temp/dataset/4/25_15.odb,Step-1,Increment      1: Step Time =    1.000,"PART-1-1",           263,      -6.02595,       2.23751,            0.,NA,NA,"",       3.72554,      -2.76822,      -2.49332,   137.384E-06
C:/temp/dataset/4/25_15.odb,Step-1,Increment      1: Step Time =    1.000,"PART-1-1",           264,       4.92391,   813.983E-03,            0.,NA,NA,"",       2.81001,      -2.66945,  -877.600E-03,   7.82760E-03
C:/temp/dataset/4/25_15.odb,Step-1,Increment      1: Step Time =    1.000,"PART-1-1",           265,      -7.77287,       1.11371,            0.,NA,NA,"",       3.76477,      -2.58450,      -2.73750,   71.3865E-06
C:/temp/dataset/4/25_15.odb,Step-1,Increment      1: Step Time =    1.000,"PART-1-1",           266,      -3.71710,       1.36231,            0.,NA,NA,"",       3.42135,      -2.66524,      -2.14526,   292.468E-06
C:/temp/dataset/4/25_15.odb,Step-1,Increment      1: Step Time =    1.000,"PART-1-1",           267,       2.85817,       1.10052,            0.,NA,NA,"",       2.94440,      -2.69666,      -1.18217,   4.04498E-03
C:/temp/dataset/4/25_15.odb,Step-1,Increment      1: Step Time =    1.000,"PART-1-1",           268,       7.51165,      -2.37377,            0.,NA,NA,"",       2.26332,      -2.21905,  -445.449E-03,   8.93316E-03
C:/temp/dataset/4/25_15.odb,Step-1,Increment      1: Step Time =    1.000,"PART-1-1",           269,      -1.84913,   666.939E-03,            0.,NA,NA,"",       3.18619,      -2.58402,      -1.86405,   464.258E-06
C:/temp/dataset/4/25_15.odb,Step-1,Increment      1: Step Time =    1.000,"PART-1-1",           270,   621.955E-03,   989.730E-03,            0.,NA,NA,"",       3.05529,      -2.65834,      -1.50600,   654.242E-06
C:/temp/dataset/4/25_15.odb,Step-1,Increment      1: Step Time =    1.000,"PART-1-1",           271,       7.77182,      -4.29185,            0.,NA,NA,"",       1.98349,      -1.94716,  -377.877E-03,   8.36953E-03
C:/temp/dataset/4/25_15.odb,Step-1,Increment      1: Step Time =    1.000,"PART-1-1",           272,       6.40836,       5.42027,            0.,NA,NA,"",       3.44582,      -3.36441,  -744.616E-03,   6.48686E-03
C:/temp/dataset/4/25_15.odb,Step-1,Increment      1: Step Time =    1.000,"PART-1-1",           273,      -12.5139,      -2.82358,            0.,NA,NA,"",       3.91393,      -1.95575,      -3.39026,   1.68822E-06
C:/temp/dataset/4/25_15.odb,Step-1,Increment      1: Step Time =    1.000,"PART-1-1",           274,       10.8188,      -25.6946,            0.,NA,NA,"",   65.3482E-03,  -61.5650E-03,   21.9119E-03,   7.03972E-03
C:/temp/dataset/4/25_15.odb,Step-1,Increment      1: Step Time =    1.000,"PART-1-1",           275,       6.49302,  -163.532E-03,            0.,NA,NA,"",       2.61250,      -2.53518,  -630.882E-03,   8.68156E-03
C:/temp/dataset/4/25_15.odb,Step-1,Increment      1: Step Time =    1.000,"PART-1-1",           276,       7.60941,  -936.337E-03,            0.,NA,NA,"",       2.47042,      -2.42797,  -456.024E-03,   7.92123E-03
C:/temp/dataset/4/25_15.odb,Step-1,Increment      1: Step Time =    1.000,"PART-1-1",           277,       9.17282,      -2.25688,            0.,NA,NA,"",       2.25663,      -2.24620,  -216.692E-03,   5.62683E-03
C:/temp/dataset/4/25_15.odb,Step-1,Increment      1: Step Time =    1.000,"PART-1-1",           278,       9.10690,      -3.89703,            0.,NA,NA,"",       2.02242,      -2.01197,  -205.371E-03,   5.79925E-03
C:/temp/dataset/4/25_15.odb,Step-1,Increment      1: Step Time =    1.000,"PART-1-1",           279,      -7.91199,      -1.40732,            0.,NA,NA,"",       3.51505,      -2.21325,      -2.73077,   68.8227E-06
C:/temp/dataset/4/25_15.odb,Step-1,Increment      1: Step Time =    1.000,"PART-1-1",           280,      -9.83927,       21.3699,            0.,NA,NA,"",       6.42178,      -5.53303,      -3.25957,   50.0313E-09
C:/temp/dataset/4/25_15.odb,Step-1,Increment      1: Step Time =    1.000,"PART-1-1",           281,      -11.2653,       5.77953,            0.,NA,NA,"",       4.61841,      -3.23093,      -3.30012,   2.52061E-06
C:/temp/dataset/4/25_15.odb,Step-1,Increment      1: Step Time =    1.000,"PART-1-1",           282,      -11.2487,       3.84080,            0.,NA,NA,"",       4.40686,      -2.94678,      -3.27673,   8.50881E-06
C:/temp/dataset/4/25_15.odb,Step-1,Increment      1: Step Time =    1.000,"PART-1-1",           283,       3.11059,  -868.354E-03,            0.,NA,NA,"",       2.65726,      -2.41130,      -1.11654,   4.29846E-03
C:/temp/dataset/4/25_15.odb,Step-1,Increment      1: Step Time =    1.000,"PART-1-1",           284,       4.50766,  -682.768E-03,            0.,NA,NA,"",       2.61322,      -2.44872,  -912.526E-03,   7.22511E-03
C:/temp/dataset/4/25_15.odb,Step-1,Increment      1: Step Time =    1.000,"PART-1-1",           285,      -3.56662,  -854.847E-03,            0.,NA,NA,"",       3.14522,      -2.34177,      -2.09965,   341.424E-06
C:/temp/dataset/4/25_15.odb,Step-1,Increment      1: Step Time =    1.000,"PART-1-1",           286,      -7.33150,       26.6843,            0.,NA,NA,"",       6.99206,      -6.33964,      -2.94922,   61.0714E-09
C:/temp/dataset/4/25_15.odb,Step-1,Increment      1: Step Time =    1.000,"PART-1-1",           287,      -6.09303,       25.7233,            0.,NA,NA,"",       6.79647,      -6.21208,      -2.75718,   66.5519E-09
C:/temp/dataset/4/25_15.odb,Step-1,Increment      1: Step Time =    1.000,"PART-1-1",           288,           -5.,        26.875,            0.,NA,NA,"",       6.90483,      -6.39282,      -2.60931,   67.2332E-09
C:/temp/dataset/4/25_15.odb,Step-1,Increment      1: Step Time =    1.000,"PART-1-1",           289,      -6.23847,       27.8360,            0.,NA,NA,"",       7.09668,      -6.52038,      -2.80136,   60.9279E-09
C:/temp/dataset/4/25_15.odb,Step-1,Increment      1: Step Time =    1.000,"PART-1-1",           290,      -8.20013,       25.3620,            0.,NA,NA,"",       6.85799,      -6.13630,      -3.06232,   60.9181E-09
C:/temp/dataset/4/25_15.odb,Step-1,Increment      1: Step Time =    1.000,"PART-1-1",           291,      -8.98257,       24.1636,            0.,NA,NA,"",       6.74082,      -5.95206,      -3.16413,   59.2748E-09
C:/temp/dataset/4/25_15.odb,Step-1,Increment      1: Step Time =    1.000,"PART-1-1",           292,      -7.83587,       23.3915,            0.,NA,NA,"",       6.56981,      -5.85122,      -2.98759,   63.8669E-09
C:/temp/dataset/4/25_15.odb,Step-1,Increment      1: Step Time =    1.000,"PART-1-1",           293,      -7.05344,       24.5900,            0.,NA,NA,"",       6.68989,      -6.03547,      -2.88578,   66.2435E-09
C:/temp/dataset/4/25_15.odb,Step-1,Increment      1: Step Time =    1.000,"PART-1-1",           294,      -6.78951,       20.5788,            0.,NA,NA,"",       6.12887,      -5.44998,      -2.80369,   73.4223E-09
C:/temp/dataset/4/25_15.odb,Step-1,Increment      1: Step Time =    1.000,"PART-1-1",           295,      -5.89603,       19.5861,            0.,NA,NA,"",       5.94348,      -5.31405,      -2.66191,   94.2160E-09
C:/temp/dataset/4/25_15.odb,Step-1,Increment      1: Step Time =    1.000,"PART-1-1",           296,           -5.,        20.625,            0.,NA,NA,"",       6.03723,      -5.47612,      -2.54172,   106.796E-09
C:/temp/dataset/4/25_15.odb,Step-1,Increment      1: Step Time =    1.000,"PART-1-1",           297,      -5.89348,       21.6177,            0.,NA,NA,"",       6.22064,      -5.61205,      -2.68351,   85.2467E-09
C:/temp/dataset/4/25_15.odb,Step-1,Increment      1: Step Time =    1.000,"PART-1-1",           298,      -7.97413,       13.6001,            0.,NA,NA,"",       5.28216,      -4.41359,      -2.90197,   640.569E-09
C:/temp/dataset/4/25_15.odb,Step-1,Increment      1: Step Time =    1.000,"PART-1-1",           299,      -8.98702,       12.6704,            0.,NA,NA,"",       5.23885,      -4.26627,      -3.04048,   1.18805E-06
C:/temp/dataset/4/25_15.odb,Step-1,Increment      1: Step Time =    1.000,"PART-1-1",           300,      -8.00249,       11.5116,            0.,NA,NA,"",       5.01816,      -4.10696,      -2.88355,   1.41705E-06
C:/temp/dataset/4/25_15.odb,Step-1,Increment      1: Step Time =    1.000,"PART-1-1",           301,      -6.98959,       12.4413,            0.,NA,NA,"",       5.06301,      -4.25428,      -2.74503,   1.22974E-06
C:/temp/dataset/4/25_15.odb,Step-1,Increment      1: Step Time =    1.000,"PART-1-1",           302,      -9.95004,      -1.64066,            0.,NA,NA,"",       3.71694,      -2.15695,      -3.02708,   19.6258E-06
C:/temp/dataset/4/25_15.odb,Step-1,Increment      1: Step Time =    1.000,"PART-1-1",           303,      -11.1983,  -513.068E-03,            0.,NA,NA,"",       3.96408,      -2.30882,      -3.22231,   14.9964E-06
C:/temp/dataset/4/25_15.odb,Step-1,Increment      1: Step Time =    1.000,"PART-1-1",           304,      -12.5325,      -1.72297,            0.,NA,NA,"",       4.00933,      -2.11695,      -3.40489,   2.97333E-06
C:/temp/dataset/4/25_15.odb,Step-1,Increment      1: Step Time =    1.000,"PART-1-1",           305,      -11.2842,      -2.85056,            0.,NA,NA,"",       3.76343,      -1.96509,      -3.20965,   9.05044E-06
C:/temp/dataset/4/25_15.odb,Step-1,Increment      1: Step Time =    1.000,"PART-1-1",           306,      -10.2834,   741.336E-03,            0.,NA,NA,"",       3.98545,      -2.50268,      -3.10168,   20.9327E-06
C:/temp/dataset/4/25_15.odb,Step-1,Increment      1: Step Time =    1.000,"PART-1-1",           307,      -11.7661,       1.72477,            0.,NA,NA,"",       4.24366,      -2.63086,      -3.32975,   10.3551E-06
C:/temp/dataset/4/25_15.odb,Step-1,Increment      1: Step Time =    1.000,"PART-1-1",           308,      -12.6810,   470.366E-03,            0.,NA,NA,"",       4.22422,      -2.43700,      -3.45037,   4.33617E-06
C:/temp/dataset/4/25_15.odb,Step-1,Increment      1: Step Time =    1.000,"PART-1-1",           309,         -1.25,           -5.,            0.,NA,NA,"",       2.45475,      -1.75681,      -1.71447,   918.061E-06
C:/temp/dataset/4/25_15.odb,Step-1,Increment      1: Step Time =    1.000,"PART-1-1",           310,  -165.329E-03,      -4.13131,            0.,NA,NA,"",       2.45804,      -1.89592,      -1.56442,   776.900E-06
C:/temp/dataset/4/25_15.odb,Step-1,Increment      1: Step Time =    1.000,"PART-1-1",           311,      -1.46228,      -3.26668,            0.,NA,NA,"",       2.67486,      -2.00997,      -1.76490,   418.287E-06
C:/temp/dataset/4/25_15.odb,Step-1,Increment      1: Step Time =    1.000,"PART-1-1",           312,      -2.54695,      -4.13537,            0.,NA,NA,"",       2.67665,      -1.87048,      -1.91462,   348.764E-06
C:/temp/dataset/4/25_15.odb,Step-1,Increment      1: Step Time =    1.000,"PART-1-1",           313,   769.081E-03,      -3.16387,            0.,NA,NA,"",       2.50292,      -2.04939,      -1.43688,   776.837E-06
C:/temp/dataset/4/25_15.odb,Step-1,Increment      1: Step Time =    1.000,"PART-1-1",           314,          1.25,           -5.,            0.,NA,NA,"",       2.23146,      -1.78108,      -1.34430,   1.33650E-03
C:/temp/dataset/4/25_15.odb,Step-1,Increment      1: Step Time =    1.000,"PART-1-1",           315,       2.18441,      -4.03256,            0.,NA,NA,"",       2.28583,      -1.93628,      -1.21485,   1.89657E-03
C:/temp/dataset/4/25_15.odb,Step-1,Increment      1: Step Time =    1.000,"PART-1-1",           316,       1.54561,       3.01681,            0.,NA,NA,"",       3.27540,      -2.96353,      -1.39492,   1.23842E-03
C:/temp/dataset/4/25_15.odb,Step-1,Increment      1: Step Time =    1.000,"PART-1-1",           317,       2.64536,       4.01417,            0.,NA,NA,"",       3.35989,      -3.11913,      -1.24895,   1.94120E-03
C:/temp/dataset/4/25_15.odb,Step-1,Increment      1: Step Time =    1.000,"PART-1-1",           318,          1.25,            5.,            0.,NA,NA,"",       3.55953,      -3.24697,      -1.45859,   1.21517E-03
C:/temp/dataset/4/25_15.odb,Step-1,Increment      1: Step Time =    1.000,"PART-1-1",           319,   150.245E-03,       4.00264,            0.,NA,NA,"",       3.48489,      -3.09203,      -1.60743,   673.533E-06
C:/temp/dataset/4/25_15.odb,Step-1,Increment      1: Step Time =    1.000,"PART-1-1",           320,   179.474E-03,      -1.21124,            0.,NA,NA,"",       2.79698,      -2.33089,      -1.54598,   624.686E-06
C:/temp/dataset/4/25_15.odb,Step-1,Increment      1: Step Time =    1.000,"PART-1-1",           321,  -580.901E-03,      -2.30818,            0.,NA,NA,"",       2.71626,      -2.16091,      -1.64577,   318.172E-06
C:/temp/dataset/4/25_15.odb,Step-1,Increment      1: Step Time =    1.000,"PART-1-1",           322,       1.52946,      -2.06693,            0.,NA,NA,"",       2.59119,      -2.21985,      -1.33662,   1.35523E-03
C:/temp/dataset/4/25_15.odb,Step-1,Increment      1: Step Time =    1.000,"PART-1-1",           323,       12.7868,      -3.71378,            0.,NA,NA,"",       2.09580,      -2.07691,   280.789E-03,   11.0235E-03
C:/temp/dataset/4/25_15.odb,Step-1,Increment      1: Step Time =    1.000,"PART-1-1",           324,       13.8814,      -5.00619,            0.,NA,NA,"",       1.95994,      -1.91384,   422.594E-03,   15.5106E-03
C:/temp/dataset/4/25_15.odb,Step-1,Increment      1: Step Time =    1.000,"PART-1-1",           325,           15.,         -3.75,            0.,NA,NA,"",       2.18443,      -2.10624,   579.208E-03,   18.0194E-03
C:/temp/dataset/4/25_15.odb,Step-1,Increment      1: Step Time =    1.000,"PART-1-1",           326,       13.9054,      -2.45760,            0.,NA,NA,"",       2.31287,      -2.27186,   433.596E-03,   13.2156E-03
C:/temp/dataset/4/25_15.odb,Step-1,Increment      1: Step Time =    1.000,"PART-1-1",           327,       5.10003,      -1.40311,            0.,NA,NA,"",       2.48450,      -2.34790,  -812.459E-03,   8.99178E-03
C:/temp/dataset/4/25_15.odb,Step-1,Increment      1: Step Time =    1.000,"PART-1-1",           328,       3.80913,  -775.561E-03,            0.,NA,NA,"",       2.63366,      -2.43034,      -1.01472,   5.89707E-03
C:/temp/dataset/4/25_15.odb,Step-1,Increment      1: Step Time =    1.000,"PART-1-1",           329,       3.52110,      -1.80919,            0.,NA,NA,"",       2.50447,      -2.27745,      -1.04192,   5.39106E-03
C:/temp/dataset/4/25_15.odb,Step-1,Increment      1: Step Time =    1.000,"PART-1-1",           330,       4.81200,      -2.43673,            0.,NA,NA,"",       2.35107,      -2.19714,  -836.711E-03,   9.01451E-03
C:/temp/dataset/4/25_15.odb,Step-1,Increment      1: Step Time =    1.000,"PART-1-1",           331,           15.,          3.75,            0.,NA,NA,"",       3.27615,      -3.22154,   595.687E-03,   13.0347E-03
C:/temp/dataset/4/25_15.odb,Step-1,Increment      1: Step Time =    1.000,"PART-1-1",           332,       13.8386,       5.14064,            0.,NA,NA,"",       3.44542,      -3.42058,   412.959E-03,   10.0523E-03
C:/temp/dataset/4/25_15.odb,Step-1,Increment      1: Step Time =    1.000,"PART-1-1",           333,       12.6076,       4.00525,            0.,NA,NA,"",       3.23008,      -3.22206,   227.513E-03,   7.24379E-03
C:/temp/dataset/4/25_15.odb,Step-1,Increment      1: Step Time =    1.000,"PART-1-1",           334,       13.7689,       2.61462,            0.,NA,NA,"",       3.05251,      -3.02486,   409.987E-03,   10.2135E-03
C:/temp/dataset/4/25_15.odb,Step-1,Increment      1: Step Time =    1.000,"PART-1-1",           335,       9.76439,       8.40859,            0.,NA,NA,"",       3.89784,      -3.88897,  -262.859E-03,   2.83676E-03
C:/temp/dataset/4/25_15.odb,Step-1,Increment      1: Step Time =    1.000,"PART-1-1",           336,       8.59642,       7.53369,            0.,NA,NA,"",       3.75506,      -3.72947,  -437.671E-03,   3.93600E-03
C:/temp/dataset/4/25_15.odb,Step-1,Increment      1: Step Time =    1.000,"PART-1-1",           337,       9.44563,       6.06261,            0.,NA,NA,"",       3.51350,      -3.50213,  -282.442E-03,   2.22430E-03
C:/temp/dataset/4/25_15.odb,Step-1,Increment      1: Step Time =    1.000,"PART-1-1",           338,       10.6136,       6.93751,            0.,NA,NA,"",       3.66080,      -3.65919,  -108.559E-03,   3.17068E-03
C:/temp/dataset/4/25_15.odb,Step-1,Increment      1: Step Time =    1.000,"PART-1-1",           339,       5.92452,       9.07762,            0.,NA,NA,"",       4.05757,      -3.95588,  -902.704E-03,   9.66763E-03
C:/temp/dataset/4/25_15.odb,Step-1,Increment      1: Step Time =    1.000,"PART-1-1",           340,            5.,         8.125,            0.,NA,NA,"",       3.92902,      -3.79044,      -1.03429,   12.8347E-03
C:/temp/dataset/4/25_15.odb,Step-1,Increment      1: Step Time =    1.000,"PART-1-1",           341,       5.83838,       7.03541,            0.,NA,NA,"",       3.72132,      -3.61852,  -868.621E-03,   11.2727E-03
C:/temp/dataset/4/25_15.odb,Step-1,Increment      1: Step Time =    1.000,"PART-1-1",           342,       6.76290,       7.98803,            0.,NA,NA,"",       3.85522,      -3.78336,  -740.881E-03,   8.55592E-03
C:/temp/dataset/4/25_15.odb,Step-1,Increment      1: Step Time =    1.000,"PART-1-1",           343,       6.00358,       15.4027,            0.,NA,NA,"",       5.14706,      -5.04356,      -1.02703,   5.89335E-03
C:/temp/dataset/4/25_15.odb,Step-1,Increment      1: Step Time =    1.000,"PART-1-1",           344,            5.,        14.375,            0.,NA,NA,"",       4.99214,      -4.85022,      -1.18185,   7.93742E-03
C:/temp/dataset/4/25_15.odb,Step-1,Increment      1: Step Time =    1.000,"PART-1-1",           345,       5.99171,       13.2884,            0.,NA,NA,"",       4.77530,      -4.67281,  -984.062E-03,   7.03165E-03
C:/temp/dataset/4/25_15.odb,Step-1,Increment      1: Step Time =    1.000,"PART-1-1",           346,       6.99529,       14.3161,            0.,NA,NA,"",       4.93540,      -4.86495,  -830.919E-03,   5.21442E-03
C:/temp/dataset/4/25_15.odb,Step-1,Increment      1: Step Time =    1.000,"PART-1-1",           347,       11.7328,       24.6815,            0.,NA,NA,"",       6.82339,      -6.82127,  -170.234E-03,   2.33094E-03
C:/temp/dataset/4/25_15.odb,Step-1,Increment      1: Step Time =    1.000,"PART-1-1",           348,       12.6496,       26.1279,            0.,NA,NA,"",       7.10418,      -7.10413,  -26.9783E-03,   1.94410E-03
C:/temp/dataset/4/25_15.odb,Step-1,Increment      1: Step Time =    1.000,"PART-1-1",           349,       11.2054,       27.2635,            0.,NA,NA,"",       7.29353,      -7.28702,  -307.900E-03,   1.46449E-03
C:/temp/dataset/4/25_15.odb,Step-1,Increment      1: Step Time =    1.000,"PART-1-1",           350,       10.2886,       25.8171,            0.,NA,NA,"",       7.01962,      -7.00515,  -450.449E-03,   1.91127E-03
C:/temp/dataset/4/25_15.odb,Step-1,Increment      1: Step Time =    1.000,"PART-1-1",           351,       12.5134,       28.7000,            0.,NA,NA,"",       7.57416,      -7.57359,  -93.3212E-03,   1.44299E-03
C:/temp/dataset/4/25_15.odb,Step-1,Increment      1: Step Time =    1.000,"PART-1-1",           352,       13.7634,       27.4500,            0.,NA,NA,"",       7.36879,      -7.36717,   154.800E-03,   1.51711E-03
C:/temp/dataset/4/25_15.odb,Step-1,Increment      1: Step Time =    1.000,"PART-1-1",           353,           15.,         28.75,            0.,NA,NA,"",       7.63624,      -7.62777,   359.606E-03,   1.52214E-03
C:/temp/dataset/4/25_15.odb,Step-1,Increment      1: Step Time =    1.000,"PART-1-1",           354,         13.75,           30.,            0.,NA,NA,"",       7.83449,      -7.83370,   111.162E-03,   1.48067E-03
C:/temp/dataset/4/25_15.odb,Step-1,Increment      1: Step Time =    1.000,"PART-1-1",           355,      -3.83569,      -2.96698,            0.,NA,NA,"",       2.93155,      -2.02847,      -2.11643,   280.037E-06
C:/temp/dataset/4/25_15.odb,Step-1,Increment      1: Step Time =    1.000,"PART-1-1",           356,      -2.47303,      -2.56070,            0.,NA,NA,"",       2.84831,      -2.10300,      -1.92100,   331.088E-06
C:/temp/dataset/4/25_15.odb,Step-1,Increment      1: Step Time =    1.000,"PART-1-1",           357,      -2.95938,      -1.35275,            0.,NA,NA,"",       3.03288,      -2.27532,      -2.00531,   345.641E-06
C:/temp/dataset/4/25_15.odb,Step-1,Increment      1: Step Time =    1.000,"PART-1-1",           358,      -4.32205,      -1.75903,            0.,NA,NA,"",       3.11226,      -2.20067,      -2.20073,   227.314E-06
C:/temp/dataset/4/25_15.odb,Step-1,Increment      1: Step Time =    1.000,"PART-1-1",           359,       8.60967,      -7.25473,            0.,NA,NA,"",       1.57669,      -1.55985,  -229.778E-03,   5.45684E-03
C:/temp/dataset/4/25_15.odb,Step-1,Increment      1: Step Time =    1.000,"PART-1-1",           360,       7.51358,      -6.44375,            0.,NA,NA,"",       1.69896,      -1.65638,  -378.011E-03,   9.42421E-03
C:/temp/dataset/4/25_15.odb,Step-1,Increment      1: Step Time =    1.000,"PART-1-1",           361,       6.75300,      -7.77251,            0.,NA,NA,"",       1.55452,      -1.48834,  -448.738E-03,   14.5217E-03
C:/temp/dataset/4/25_15.odb,Step-1,Increment      1: Step Time =    1.000,"PART-1-1",           362,       7.84909,      -8.58350,            0.,NA,NA,"",       1.42636,      -1.39390,  -302.572E-03,   9.74138E-03
C:/temp/dataset/4/25_15.odb,Step-1,Increment      1: Step Time =    1.000,"PART-1-1",           363,       7.07130,      -14.2100,            0.,NA,NA,"",   845.233E-03,  -794.712E-03,  -287.840E-03,   15.8969E-03
C:/temp/dataset/4/25_15.odb,Step-1,Increment      1: Step Time =    1.000,"PART-1-1",           364,       6.02882,      -13.2279,            0.,NA,NA,"",   981.170E-03,  -892.296E-03,  -408.048E-03,   21.0102E-03
C:/temp/dataset/4/25_15.odb,Step-1,Increment      1: Step Time =    1.000,"PART-1-1",           365,            5.,       -14.375,            0.,NA,NA,"",   923.557E-03,  -790.655E-03,  -477.307E-03,   27.2493E-03
C:/temp/dataset/4/25_15.odb,Step-1,Increment      1: Step Time =    1.000,"PART-1-1",           366,       6.04247,      -15.3570,            0.,NA,NA,"",   781.680E-03,  -695.710E-03,  -356.387E-03,   22.0616E-03
C:/temp/dataset/4/25_15.odb,Step-1,Increment      1: Step Time =    1.000,"PART-1-1",           367,       7.02995,      -12.0379,            0.,NA,NA,"",       1.06224,      -1.00878,  -332.758E-03,   15.2609E-03
C:/temp/dataset/4/25_15.odb,Step-1,Increment      1: Step Time =    1.000,"PART-1-1",           368,       6.00113,      -11.1016,            0.,NA,NA,"",       1.20179,      -1.10966,  -461.458E-03,   20.0525E-03
C:/temp/dataset/4/25_15.odb,Step-1,Increment      1: Step Time =    1.000,"PART-1-1",           369,            5.,      -12.2917,            0.,NA,NA,"",       1.12693,  -990.844E-03,  -536.840E-03,   25.8742E-03
C:/temp/dataset/4/25_15.odb,Step-1,Increment      1: Step Time =    1.000,"PART-1-1",           370,            5.,      -22.7083,            0.,NA,NA,"",   311.871E-03,  -209.884E-03,  -230.678E-03,   32.8706E-03
C:/temp/dataset/4/25_15.odb,Step-1,Increment      1: Step Time =    1.000,"PART-1-1",           371,       6.05922,      -23.7899,            0.,NA,NA,"",   213.703E-03,  -148.991E-03,  -153.202E-03,   26.3939E-03
C:/temp/dataset/4/25_15.odb,Step-1,Increment      1: Step Time =    1.000,"PART-1-1",           372,       7.11013,      -22.7834,            0.,NA,NA,"",   224.776E-03,  -183.995E-03,  -129.112E-03,   18.9193E-03
C:/temp/dataset/4/25_15.odb,Step-1,Increment      1: Step Time =    1.000,"PART-1-1",           373,       6.05091,      -21.7018,            0.,NA,NA,"",   321.183E-03,  -247.731E-03,  -204.420E-03,   25.3303E-03
C:/temp/dataset/4/25_15.odb,Step-1,Increment      1: Step Time =    1.000,"PART-1-1",           374,          8.75,          -30.,            0.,NA,NA,"",            0.,   4.59987E-39,  -14.0892E-39,   7.90962E-03
C:/temp/dataset/4/25_15.odb,Step-1,Increment      1: Step Time =    1.000,"PART-1-1",           375,       9.84988,      -28.9274,            0.,NA,NA,"",   1.74101E-03,   1.66864E-03,  -496.752E-06,   1.31413E-03
C:/temp/dataset/4/25_15.odb,Step-1,Increment      1: Step Time =    1.000,"PART-1-1",           376,       8.52411,      -27.9095,            0.,NA,NA,"",   19.8091E-03,  -10.9620E-03,  -16.4996E-03,   10.8839E-03
C:/temp/dataset/4/25_15.odb,Step-1,Increment      1: Step Time =    1.000,"PART-1-1",           377,       7.42422,      -28.9821,            0.,NA,NA,"",   13.5993E-03,  -1.89256E-03,  -13.4670E-03,   16.2371E-03
C:/temp/dataset/4/25_15.odb,Step-1,Increment      1: Step Time =    1.000,"PART-1-1",           378,       10.1104,      -23.9794,            0.,NA,NA,"",   121.918E-03,  -121.836E-03,   4.48123E-03,   3.22714E-03
C:/temp/dataset/4/25_15.odb,Step-1,Increment      1: Step Time =    1.000,"PART-1-1",           379,       11.1261,      -23.0268,            0.,NA,NA,"",   174.083E-03,  -167.433E-03,   47.6535E-03,   8.51539E-03
C:/temp/dataset/4/25_15.odb,Step-1,Increment      1: Step Time =    1.000,"PART-1-1",           380,       10.1523,      -21.9025,            0.,NA,NA,"",   221.041E-03,  -220.950E-03,   6.36459E-03,   3.25727E-03
C:/temp/dataset/4/25_15.odb,Step-1,Increment      1: Step Time =    1.000,"PART-1-1",           381,       9.13660,      -22.8552,            0.,NA,NA,"",   176.079E-03,  -171.960E-03,  -37.8609E-03,   6.16423E-03
C:/temp/dataset/4/25_15.odb,Step-1,Increment      1: Step Time =    1.000,"PART-1-1",           382,       7.09296,      -18.5383,            0.,NA,NA,"",   483.623E-03,  -437.224E-03,  -206.702E-03,   17.4102E-03
C:/temp/dataset/4/25_15.odb,Step-1,Increment      1: Step Time =    1.000,"PART-1-1",           383,       6.04465,      -17.4814,            0.,NA,NA,"",   604.993E-03,  -521.989E-03,  -305.850E-03,   23.1654E-03
C:/temp/dataset/4/25_15.odb,Step-1,Increment      1: Step Time =    1.000,"PART-1-1",           384,            5.,      -18.5417,            0.,NA,NA,"",   576.991E-03,  -454.127E-03,  -355.932E-03,   30.0871E-03
C:/temp/dataset/4/25_15.odb,Step-1,Increment      1: Step Time =    1.000,"PART-1-1",           385,       6.04831,      -19.5985,            0.,NA,NA,"",   451.289E-03,  -372.243E-03,  -255.140E-03,   24.2563E-03
C:/temp/dataset/4/25_15.odb,Step-1,Increment      1: Step Time =    1.000,"PART-1-1",           386,       8.88188,       22.9635,            0.,NA,NA,"",       6.48938,      -6.45611,  -656.258E-03,   2.51235E-03
C:/temp/dataset/4/25_15.odb,Step-1,Increment      1: Step Time =    1.000,"PART-1-1",           387,       9.93448,       22.0483,            0.,NA,NA,"",       6.32123,      -6.30511,  -451.115E-03,   2.77399E-03
C:/temp/dataset/4/25_15.odb,Step-1,Increment      1: Step Time =    1.000,"PART-1-1",           388,       10.8087,       23.3359,            0.,NA,NA,"",       6.56454,      -6.55696,  -315.317E-03,   2.67368E-03
C:/temp/dataset/4/25_15.odb,Step-1,Increment      1: Step Time =    1.000,"PART-1-1",           389,       9.75606,       24.2511,            0.,NA,NA,"",       6.72786,      -6.70769,  -520.600E-03,   2.27461E-03
C:/temp/dataset/4/25_15.odb,Step-1,Increment      1: Step Time =    1.000,"PART-1-1",           390,       10.0218,       17.5512,            0.,NA,NA,"",       5.49738,      -5.48559,  -359.940E-03,   2.89522E-03
C:/temp/dataset/4/25_15.odb,Step-1,Increment      1: Step Time =    1.000,"PART-1-1",           391,       9.00837,       16.4411,            0.,NA,NA,"",       5.29588,      -5.27037,  -519.173E-03,   3.21130E-03
C:/temp/dataset/4/25_15.odb,Step-1,Increment      1: Step Time =    1.000,"PART-1-1",           392,       10.0249,       15.2736,            0.,NA,NA,"",       5.08731,      -5.07708,  -322.441E-03,   2.88816E-03
C:/temp/dataset/4/25_15.odb,Step-1,Increment      1: Step Time =    1.000,"PART-1-1",           393,       11.0383,       16.3837,            0.,NA,NA,"",       5.29389,      -5.29138,  -163.063E-03,   3.16281E-03
C:/temp/dataset/4/25_15.odb,Step-1,Increment      1: Step Time =    1.000,"PART-1-1",           394,      -14.0638,       5.89996,            0.,NA,NA,"",       4.91281,      -3.21834,      -3.71188,   3.43233E-06
C:/temp/dataset/4/25_15.odb,Step-1,Increment      1: Step Time =    1.000,"PART-1-1",           395,      -13.1194,       6.91794,            0.,NA,NA,"",       4.92520,      -3.37785,      -3.58437,   1.65096E-06
C:/temp/dataset/4/25_15.odb,Step-1,Increment      1: Step Time =    1.000,"PART-1-1",           396,      -14.0556,       8.04923,            0.,NA,NA,"",       5.14090,      -3.53366,      -3.73392,   2.72720E-06
C:/temp/dataset/4/25_15.odb,Step-1,Increment      1: Step Time =    1.000,"PART-1-1",           397,          -15.,       7.03125,            0.,NA,NA,"",       5.12790,      -3.37414,      -3.86142,   4.78632E-06
C:/temp/dataset/4/25_15.odb,Step-1,Increment      1: Step Time =    1.000,"PART-1-1",           398,      -14.0181,       12.3521,            0.,NA,NA,"",       5.62129,      -4.16517,      -3.77496,   719.977E-09
C:/temp/dataset/4/25_15.odb,Step-1,Increment      1: Step Time =    1.000,"PART-1-1",           399,      -13.0189,       13.2775,            0.,NA,NA,"",       5.64172,      -4.31172,      -3.63841,   701.463E-09
C:/temp/dataset/4/25_15.odb,Step-1,Increment      1: Step Time =    1.000,"PART-1-1",           400,      -14.0008,       14.5192,            0.,NA,NA,"",       5.87434,      -4.48322,      -3.79587,   253.195E-09
C:/temp/dataset/4/25_15.odb,Step-1,Increment      1: Step Time =    1.000,"PART-1-1",           401,          -15.,       13.5938,            0.,NA,NA,"",       5.85411,      -4.33667,      -3.93241,   509.059E-09
C:/temp/dataset/4/25_15.odb,Step-1,Increment      1: Step Time =    1.000,"PART-1-1",           402,      -10.1942,       21.9572,            0.,NA,NA,"",       6.52235,      -5.61535,      -3.31797,   50.5637E-09
C:/temp/dataset/4/25_15.odb,Step-1,Increment      1: Step Time =    1.000,"PART-1-1",           403,      -9.14995,       21.4132,            0.,NA,NA,"",       6.38328,      -5.54684,      -3.15893,   53.8854E-09
C:/temp/dataset/4/25_15.odb,Step-1,Increment      1: Step Time =    1.000,"PART-1-1",           404,      -8.60578,       22.3365,            0.,NA,NA,"",       6.47283,      -5.68815,      -3.08910,   59.0100E-09
C:/temp/dataset/4/25_15.odb,Step-1,Increment      1: Step Time =    1.000,"PART-1-1",           405,      -9.65000,       22.8805,            0.,NA,NA,"",       6.60980,      -5.75665,      -3.24814,   55.4452E-09
C:/temp/dataset/4/25_15.odb,Step-1,Increment      1: Step Time =    1.000,"PART-1-1",           406,      -14.0213,       25.7108,            0.,NA,NA,"",       7.27153,      -6.12450,      -3.91990,   49.2854E-09
C:/temp/dataset/4/25_15.odb,Step-1,Increment      1: Step Time =    1.000,"PART-1-1",           407,      -12.8802,       26.8172,            0.,NA,NA,"",       7.33829,      -6.29913,      -3.76450,   51.9801E-09
C:/temp/dataset/4/25_15.odb,Step-1,Increment      1: Step Time =    1.000,"PART-1-1",           408,      -13.8589,       27.8252,            0.,NA,NA,"",       7.53560,      -6.43639,      -3.91895,   51.0230E-09
C:/temp/dataset/4/25_15.odb,Step-1,Increment      1: Step Time =    1.000,"PART-1-1",           409,          -15.,       26.7188,            0.,NA,NA,"",       7.47061,      -6.26176,      -4.07435,   50.0692E-09
C:/temp/dataset/4/25_15.odb,Step-1,Increment      1: Step Time =    1.000,"PART-1-1",           410,        -13.75,           30.,            0.,NA,NA,"",       7.81462,      -6.75655,      -3.92650,   61.3193E-09
C:/temp/dataset/4/25_15.odb,Step-1,Increment      1: Step Time =    1.000,"PART-1-1",           411,          -15.,       28.9063,            0.,NA,NA,"",       7.75399,      -6.58260,      -4.09801,   52.4942E-09
C:/temp/dataset/4/25_15.odb,Step-1,Increment      1: Step Time =    1.000,"PART-1-1",           412,      -12.6089,       28.9190,            0.,NA,NA,"",       7.59867,      -6.61033,      -3.74744,   58.8343E-09
C:/temp/dataset/4/25_15.odb,Step-1,Increment      1: Step Time =    1.000,"PART-1-1",           413,      -11.4362,       27.6040,            0.,NA,NA,"",       7.35044,      -6.43014,      -3.56121,   56.0823E-09
C:/temp/dataset/4/25_15.odb,Step-1,Increment      1: Step Time =    1.000,"PART-1-1",           414,      -10.0773,       28.6850,            0.,NA,NA,"",       7.41525,      -6.60339,      -3.37359,   57.1841E-09
C:/temp/dataset/4/25_15.odb,Step-1,Increment      1: Step Time =    1.000,"PART-1-1",           415,        -11.25,           30.,            0.,NA,NA,"",       7.66089,      -6.78358,      -3.55982,   58.9964E-09
C:/temp/dataset/4/25_15.odb,Step-1,Increment      1: Step Time =    1.000,"PART-1-1",           416,      -13.7240,       21.2404,            0.,NA,NA,"",       6.67804,      -5.47202,      -3.82795,   46.5619E-09
C:/temp/dataset/4/25_15.odb,Step-1,Increment      1: Step Time =    1.000,"PART-1-1",           417,      -12.6979,       22.4429,            0.,NA,NA,"",       6.75644,      -5.65951,      -3.69045,   47.2588E-09
C:/temp/dataset/4/25_15.odb,Step-1,Increment      1: Step Time =    1.000,"PART-1-1",           418,      -13.9739,       23.5463,            0.,NA,NA,"",       6.98972,      -5.80755,      -3.88954,   48.3389E-09
C:/temp/dataset/4/25_15.odb,Step-1,Increment      1: Step Time =    1.000,"PART-1-1",           419,          -15.,       22.3438,            0.,NA,NA,"",       6.91391,      -5.62006,      -4.02704,   48.2590E-09
C:/temp/dataset/4/25_15.odb,Step-1,Increment      1: Step Time =    1.000,"PART-1-1",           420,      -11.9375,       16.3352,            0.,NA,NA,"",       5.92547,      -4.77190,      -3.51286,   144.238E-09
C:/temp/dataset/4/25_15.odb,Step-1,Increment      1: Step Time =    1.000,"PART-1-1",           421,      -10.8584,       17.1847,            0.,NA,NA,"",       5.95021,      -4.90816,      -3.36378,   127.310E-09
C:/temp/dataset/4/25_15.odb,Step-1,Increment      1: Step Time =    1.000,"PART-1-1",           422,      -11.8099,       18.4796,            0.,NA,NA,"",       6.18525,      -5.08779,      -3.51734,   41.0322E-09
C:/temp/dataset/4/25_15.odb,Step-1,Increment      1: Step Time =    1.000,"PART-1-1",           423,      -12.8889,       17.6301,            0.,NA,NA,"",       6.16120,      -4.95153,      -3.66643,   80.3930E-09
C:/temp/dataset/4/25_15.odb,Step-1,Increment      1: Step Time =    1.000,"PART-1-1",           424,      -9.98079,       13.8692,            0.,NA,NA,"",       5.46551,      -4.43136,      -3.19920,   593.330E-09
C:/temp/dataset/4/25_15.odb,Step-1,Increment      1: Step Time =    1.000,"PART-1-1",           425,      -11.0142,       12.9724,            0.,NA,NA,"",       5.43647,      -4.28864,      -3.34108,   949.711E-09
C:/temp/dataset/4/25_15.odb,Step-1,Increment      1: Step Time =    1.000,"PART-1-1",           426,      -10.0204,       11.7735,            0.,NA,NA,"",       5.20874,      -4.12355,      -3.18235,   1.41267E-06
C:/temp/dataset/4/25_15.odb,Step-1,Increment      1: Step Time =    1.000,"PART-1-1",           427,      -6.95613,       14.5250,            0.,NA,NA,"",       5.33181,      -4.56025,      -2.76266,   431.859E-09
C:/temp/dataset/4/25_15.odb,Step-1,Increment      1: Step Time =    1.000,"PART-1-1",           428,      -5.98929,       13.4097,            0.,NA,NA,"",       5.12138,      -4.40712,      -2.60879,   417.014E-09
C:/temp/dataset/4/25_15.odb,Step-1,Increment      1: Step Time =    1.000,"PART-1-1",           429,           -5.,        14.375,            0.,NA,NA,"",       5.18744,      -4.55941,      -2.47413,   236.749E-09
C:/temp/dataset/4/25_15.odb,Step-1,Increment      1: Step Time =    1.000,"PART-1-1",           430,      -5.96684,       15.4903,            0.,NA,NA,"",       5.39578,      -4.71254,      -2.62800,   124.529E-09
C:/temp/dataset/4/25_15.odb,Step-1,Increment      1: Step Time =    1.000,"PART-1-1",           431,      -11.0581,       10.8707,            0.,NA,NA,"",       5.18593,      -3.97991,      -3.32478,   1.70799E-06
C:/temp/dataset/4/25_15.odb,Step-1,Increment      1: Step Time =    1.000,"PART-1-1",           432,      -10.0579,       9.67932,            0.,NA,NA,"",       4.95785,      -3.81598,      -3.16521,   2.07452E-06
C:/temp/dataset/4/25_15.odb,Step-1,Increment      1: Step Time =    1.000,"PART-1-1",           433,      -9.02030,       10.5821,            0.,NA,NA,"",       4.98154,      -3.95961,      -3.02278,   2.15688E-06
C:/temp/dataset/4/25_15.odb,Step-1,Increment      1: Step Time =    1.000,"PART-1-1",           434,      -7.04064,       8.20966,            0.,NA,NA,"",       4.53052,      -3.63305,      -2.70676,   5.05440E-06
C:/temp/dataset/4/25_15.odb,Step-1,Increment      1: Step Time =    1.000,"PART-1-1",           435,      -6.03068,       7.10065,            0.,NA,NA,"",       4.31332,      -3.48131,      -2.54662,   11.7190E-06
C:/temp/dataset/4/25_15.odb,Step-1,Increment      1: Step Time =    1.000,"PART-1-1",           436,           -5.,         8.125,            0.,NA,NA,"",       4.36585,      -3.64271,      -2.40652,   6.73121E-06
C:/temp/dataset/4/25_15.odb,Step-1,Increment      1: Step Time =    1.000,"PART-1-1",           437,      -6.00996,       9.23401,            0.,NA,NA,"",       4.58100,      -3.79445,      -2.56666,   3.27598E-06
C:/temp/dataset/4/25_15.odb,Step-1,Increment      1: Step Time =    1.000,"PART-1-1",           438,      -13.0926,       9.02789,            0.,NA,NA,"",       5.15577,      -3.68761,      -3.60326,   1.98668E-06
C:/temp/dataset/4/25_15.odb,Step-1,Increment      1: Step Time =    1.000,"PART-1-1",           439,      -14.0370,       10.1974,            0.,NA,NA,"",       5.37681,      -3.84894,      -3.75443,   1.61412E-06
C:/temp/dataset/4/25_15.odb,Step-1,Increment      1: Step Time =    1.000,"PART-1-1",           440,          -15.,       9.21875,            0.,NA,NA,"",       5.36160,      -3.69498,      -3.88509,   2.99384E-06
C:/temp/dataset/4/25_15.odb,Step-1,Increment      1: Step Time =    1.000,"PART-1-1",           441,      -13.9055,       1.56280,            0.,NA,NA,"",       4.46534,      -2.58397,      -3.64175,   1.59739E-06
C:/temp/dataset/4/25_15.odb,Step-1,Increment      1: Step Time =    1.000,"PART-1-1",           442,      -12.9296,       2.64306,            0.,NA,NA,"",       4.46105,      -2.75294,      -3.51031,   3.35400E-06
C:/temp/dataset/4/25_15.odb,Step-1,Increment      1: Step Time =    1.000,"PART-1-1",           443,      -14.0241,       3.73651,            0.,NA,NA,"",       4.68834,      -2.90147,      -3.68266,   2.76573E-06
C:/temp/dataset/4/25_15.odb,Step-1,Increment      1: Step Time =    1.000,"PART-1-1",           444,          -15.,       2.65625,            0.,NA,NA,"",       4.69189,      -2.73249,      -3.81409,   4.22475E-06
C:/temp/dataset/4/25_15.odb,Step-1,Increment      1: Step Time =    1.000,"PART-1-1",           445,      -13.7570,      -2.81804,            0.,NA,NA,"",       4.06685,      -1.94313,      -3.57261,   647.252E-09
C:/temp/dataset/4/25_15.odb,Step-1,Increment      1: Step Time =    1.000,"PART-1-1",           446,      -13.7756,  -623.683E-03,            0.,NA,NA,"",       4.25232,      -2.26472,      -3.59906,   1.06388E-06
C:/temp/dataset/4/25_15.odb,Step-1,Increment      1: Step Time =    1.000,"PART-1-1",           447,          -15.,      -1.71875,            0.,NA,NA,"",       4.30819,      -2.09090,      -3.76678,   2.09986E-06
C:/temp/dataset/4/25_15.odb,Step-1,Increment      1: Step Time =    1.000,"PART-1-1",           448,        -13.75,           -5.,            0.,NA,NA,"",       3.90169,      -1.62323,      -3.54800,   898.541E-09
C:/temp/dataset/4/25_15.odb,Step-1,Increment      1: Step Time =    1.000,"PART-1-1",           449,      -12.5070,      -3.91179,            0.,NA,NA,"",       3.82542,      -1.79625,      -3.37748,   1.05698E-06
C:/temp/dataset/4/25_15.odb,Step-1,Increment      1: Step Time =    1.000,"PART-1-1",           450,          -15.,      -3.90625,            0.,NA,NA,"",       4.14057,      -1.77011,      -3.74313,   823.033E-09
C:/temp/dataset/4/25_15.odb,Step-1,Increment      1: Step Time =    1.000,"PART-1-1",           451,          -15.,    468.75E-03,            0.,NA,NA,"",       4.49262,      -2.41169,      -3.79043,   2.85167E-06
C:/temp/dataset/4/25_15.odb,Step-1,Increment      1: Step Time =    1.000,"PART-1-1",           452,      -5.10506,       2.56414,            0.,NA,NA,"",       3.68300,      -2.82609,      -2.36171,   188.889E-06
C:/temp/dataset/4/25_15.odb,Step-1,Increment      1: Step Time =    1.000,"PART-1-1",           453,      -4.59209,       3.94539,            0.,NA,NA,"",       3.80801,      -3.03396,      -2.30131,   159.766E-06
C:/temp/dataset/4/25_15.odb,Step-1,Increment      1: Step Time =    1.000,"PART-1-1",           454,      -6.09775,       4.77703,            0.,NA,NA,"",       4.03303,      -3.13972,      -2.53130,   79.5241E-06
C:/temp/dataset/4/25_15.odb,Step-1,Increment      1: Step Time =    1.000,"PART-1-1",           455,      -6.61072,       3.39578,            0.,NA,NA,"",       3.91294,      -2.93167,      -2.59160,   77.7925E-06
C:/temp/dataset/4/25_15.odb,Step-1,Increment      1: Step Time =    1.000,"PART-1-1",           456,       9.44090,      -5.60228,            0.,NA,NA,"",       1.78641,      -1.78062,  -143.740E-03,   4.45002E-03
C:/temp/dataset/4/25_15.odb,Step-1,Increment      1: Step Time =    1.000,"PART-1-1",           457,       9.79564,      -4.46986,            0.,NA,NA,"",       1.94114,      -1.93809,  -108.686E-03,   5.24723E-03
C:/temp/dataset/4/25_15.odb,Step-1,Increment      1: Step Time =    1.000,"PART-1-1",           458,       8.43936,      -4.09444,            0.,NA,NA,"",       2.00072,      -1.97936,  -291.552E-03,   6.64998E-03
C:/temp/dataset/4/25_15.odb,Step-1,Increment      1: Step Time =    1.000,"PART-1-1",           459,       8.08462,      -5.22686,            0.,NA,NA,"",       1.84905,      -1.82074,  -322.348E-03,   6.84080E-03
C:/temp/dataset/4/25_15.odb,Step-1,Increment      1: Step Time =    1.000,"PART-1-1",           460,       6.93926,      -9.88629,            0.,NA,NA,"",       1.29977,      -1.24165,  -384.314E-03,   14.9017E-03
C:/temp/dataset/4/25_15.odb,Step-1,Increment      1: Step Time =    1.000,"PART-1-1",           461,       5.93813,      -8.99303,            0.,NA,NA,"",       1.44155,      -1.34486,  -519.067E-03,   19.4806E-03
C:/temp/dataset/4/25_15.odb,Step-1,Increment      1: Step Time =    1.000,"PART-1-1",           462,            5.,      -10.2083,            0.,NA,NA,"",       1.34926,      -1.21052,  -595.953E-03,   24.4665E-03
C:/temp/dataset/4/25_15.odb,Step-1,Increment      1: Step Time =    1.000,"PART-1-1",           463,       12.9852,      -11.3613,            0.,NA,NA,"",       1.14807,      -1.11459,   275.249E-03,   15.5058E-03
C:/temp/dataset/4/25_15.odb,Step-1,Increment      1: Step Time =    1.000,"PART-1-1",           464,       14.0059,      -12.5461,            0.,NA,NA,"",       1.06657,      -1.00150,   366.816E-03,   21.2108E-03
C:/temp/dataset/4/25_15.odb,Step-1,Increment      1: Step Time =    1.000,"PART-1-1",           465,           15.,        -11.25,            0.,NA,NA,"",       1.25592,      -1.15662,   489.473E-03,   25.4631E-03
C:/temp/dataset/4/25_15.odb,Step-1,Increment      1: Step Time =    1.000,"PART-1-1",           466,       13.9793,      -10.0652,            0.,NA,NA,"",       1.33422,      -1.27453,   394.639E-03,   19.6768E-03
C:/temp/dataset/4/25_15.odb,Step-1,Increment      1: Step Time =    1.000,"PART-1-1",           467,       7.08713,      -16.3801,            0.,NA,NA,"",   651.905E-03,  -603.533E-03,  -246.429E-03,   16.6292E-03
C:/temp/dataset/4/25_15.odb,Step-1,Increment      1: Step Time =    1.000,"PART-1-1",           468,            5.,      -16.4583,            0.,NA,NA,"",   740.074E-03,  -611.390E-03,  -417.027E-03,   28.6756E-03
C:/temp/dataset/4/25_15.odb,Step-1,Increment      1: Step Time =    1.000,"PART-1-1",           469,       13.0372,      -13.8111,            0.,NA,NA,"",   898.557E-03,  -860.655E-03,   258.220E-03,   16.7737E-03
C:/temp/dataset/4/25_15.odb,Step-1,Increment      1: Step Time =    1.000,"PART-1-1",           470,       14.0313,      -15.0151,            0.,NA,NA,"",   828.557E-03,  -759.001E-03,   332.301E-03,   22.6931E-03
C:/temp/dataset/4/25_15.odb,Step-1,Increment      1: Step Time =    1.000,"PART-1-1",           471,           15.,        -13.75,            0.,NA,NA,"",   998.662E-03,  -894.660E-03,   443.744E-03,   27.1904E-03
C:/temp/dataset/4/25_15.odb,Step-1,Increment      1: Step Time =    1.000,"PART-1-1",           472,       13.0981,      -18.6529,            0.,NA,NA,"",   490.654E-03,  -446.638E-03,   203.115E-03,   19.1486E-03
C:/temp/dataset/4/25_15.odb,Step-1,Increment      1: Step Time =    1.000,"PART-1-1",           473,       14.0553,      -19.9280,            0.,NA,NA,"",   442.567E-03,  -369.849E-03,   243.058E-03,   25.5159E-03
C:/temp/dataset/4/25_15.odb,Step-1,Increment      1: Step Time =    1.000,"PART-1-1",           474,           15.,        -18.75,            0.,NA,NA,"",   571.618E-03,  -465.157E-03,   332.229E-03,   30.5211E-03
C:/temp/dataset/4/25_15.odb,Step-1,Increment      1: Step Time =    1.000,"PART-1-1",           475,       14.0427,      -17.4749,            0.,NA,NA,"",   620.167E-03,  -547.930E-03,   290.482E-03,   24.1054E-03
C:/temp/dataset/4/25_15.odb,Step-1,Increment      1: Step Time =    1.000,"PART-1-1",           476,       6.17422,      -27.9405,            0.,NA,NA,"",   54.0406E-03,  -26.7650E-03,  -46.9470E-03,   28.0242E-03
C:/temp/dataset/4/25_15.odb,Step-1,Increment      1: Step Time =    1.000,"PART-1-1",           477,            5.,      -28.9583,            0.,NA,NA,"",   42.6390E-03,  -26.5113E-03,  -33.3951E-03,   36.5385E-03
C:/temp/dataset/4/25_15.odb,Step-1,Increment      1: Step Time =    1.000,"PART-1-1",           478,          6.25,          -30.,            0.,NA,NA,"",            0.,   2.08177E-39,  -41.2812E-39,   25.5737E-03
C:/temp/dataset/4/25_15.odb,Step-1,Increment      1: Step Time =    1.000,"PART-1-1",           479,       9.46325,      -26.8820,            0.,NA,NA,"",   29.5275E-03,  -28.1150E-03,  -9.02322E-03,   4.81814E-03
C:/temp/dataset/4/25_15.odb,Step-1,Increment      1: Step Time =    1.000,"PART-1-1",           480,       8.20536,      -25.9154,            0.,NA,NA,"",   71.5395E-03,  -56.7752E-03,  -43.5255E-03,   12.9130E-03
C:/temp/dataset/4/25_15.odb,Step-1,Increment      1: Step Time =    1.000,"PART-1-1",           481,       7.26622,      -26.9429,            0.,NA,NA,"",   61.5413E-03,  -36.5819E-03,  -49.4884E-03,   19.4520E-03
C:/temp/dataset/4/25_15.odb,Step-1,Increment      1: Step Time =    1.000,"PART-1-1",           482,       13.6319,      -27.3465,            0.,NA,NA,"",   71.0314E-03,  -39.2144E-03,   59.2257E-03,   27.0269E-03
C:/temp/dataset/4/25_15.odb,Step-1,Increment      1: Step Time =    1.000,"PART-1-1",           483,       12.3819,      -28.5965,            0.,NA,NA,"",   19.0910E-03,  -6.32993E-03,   18.0110E-03,   15.9597E-03
C:/temp/dataset/4/25_15.odb,Step-1,Increment      1: Step Time =    1.000,"PART-1-1",           484,         13.75,          -30.,            0.,NA,NA,"",            0.,   2.33994E-39,   41.5386E-39,   26.5273E-03
C:/temp/dataset/4/25_15.odb,Step-1,Increment      1: Step Time =    1.000,"PART-1-1",           485,           15.,        -28.75,            0.,NA,NA,"",   52.1158E-03,  -32.6903E-03,   40.5882E-03,   36.7758E-03
C:/temp/dataset/4/25_15.odb,Step-1,Increment      1: Step Time =    1.000,"PART-1-1",           486,         11.25,          -30.,            0.,NA,NA,"",            0.,   4.47723E-39,   14.2976E-39,   7.83589E-03
C:/temp/dataset/4/25_15.odb,Step-1,Increment      1: Step Time =    1.000,"PART-1-1",           487,       10.9817,      -27.5238,            0.,NA,NA,"",   21.8502E-03,  -16.6487E-03,   14.1510E-03,   8.72495E-03
C:/temp/dataset/4/25_15.odb,Step-1,Increment      1: Step Time =    1.000,"PART-1-1",           488,       10.1507,      -19.6985,            0.,NA,NA,"",   353.466E-03,  -353.430E-03,   5.00741E-03,   3.16986E-03
C:/temp/dataset/4/25_15.odb,Step-1,Increment      1: Step Time =    1.000,"PART-1-1",           489,       9.14094,      -20.7396,            0.,NA,NA,"",   290.809E-03,  -286.368E-03,  -50.6258E-03,   5.87203E-03
C:/temp/dataset/4/25_15.odb,Step-1,Increment      1: Step Time =    1.000,"PART-1-1",           490,       11.1621,      -20.8614,            0.,NA,NA,"",   290.626E-03,  -284.006E-03,   61.6768E-03,   8.30227E-03
C:/temp/dataset/4/25_15.odb,Step-1,Increment      1: Step Time =    1.000,"PART-1-1",           491,       7.09922,      -20.6753,            0.,NA,NA,"",   341.164E-03,  -297.112E-03,  -167.683E-03,   18.1861E-03
C:/temp/dataset/4/25_15.odb,Step-1,Increment      1: Step Time =    1.000,"PART-1-1",           492,            5.,       -20.625,            0.,NA,NA,"",   434.415E-03,  -319.937E-03,  -293.866E-03,   31.4751E-03
C:/temp/dataset/4/25_15.odb,Step-1,Increment      1: Step Time =    1.000,"PART-1-1",           493,       9.08758,      -14.0519,            0.,NA,NA,"",   815.943E-03,  -809.175E-03,  -104.873E-03,   5.50969E-03
C:/temp/dataset/4/25_15.odb,Step-1,Increment      1: Step Time =    1.000,"PART-1-1",           494,       10.1099,      -15.1447,            0.,NA,NA,"",   711.114E-03,  -711.073E-03,  -7.67453E-03,   3.02146E-03
C:/temp/dataset/4/25_15.odb,Step-1,Increment      1: Step Time =    1.000,"PART-1-1",           495,       11.0794,      -13.9187,            0.,NA,NA,"",   834.998E-03,  -831.449E-03,   76.9015E-03,   6.77696E-03
C:/temp/dataset/4/25_15.odb,Step-1,Increment      1: Step Time =    1.000,"PART-1-1",           496,       10.0571,      -12.8260,            0.,NA,NA,"",   933.831E-03,  -933.579E-03,  -21.6833E-03,   2.94604E-03
C:/temp/dataset/4/25_15.odb,Step-1,Increment      1: Step Time =    1.000,"PART-1-1",           497,       9.02765,      -11.7712,            0.,NA,NA,"",       1.04703,      -1.03868,  -131.940E-03,   5.44188E-03
C:/temp/dataset/4/25_15.odb,Step-1,Increment      1: Step Time =    1.000,"PART-1-1",           498,       11.0123,      -11.5393,            0.,NA,NA,"",       1.07720,      -1.07490,   70.2771E-03,   6.25975E-03
C:/temp/dataset/4/25_15.odb,Step-1,Increment      1: Step Time =    1.000,"PART-1-1",           499,       9.98284,      -10.4845,            0.,NA,NA,"",       1.18458,      -1.18384,  -41.7904E-03,   2.93847E-03
C:/temp/dataset/4/25_15.odb,Step-1,Increment      1: Step Time =    1.000,"PART-1-1",           500,       12.6190,       1.44886,            0.,NA,NA,"",       2.84020,      -2.82983,   242.471E-03,   7.69159E-03
C:/temp/dataset/4/25_15.odb,Step-1,Increment      1: Step Time =    1.000,"PART-1-1",           501,       13.8500,   84.2405E-03,            0.,NA,NA,"",       2.67755,      -2.64338,   426.411E-03,   11.2127E-03
C:/temp/dataset/4/25_15.odb,Step-1,Increment      1: Step Time =    1.000,"PART-1-1",           502,           15.,          1.25,            0.,NA,NA,"",       2.89906,      -2.83728,   595.317E-03,   13.7257E-03
C:/temp/dataset/4/25_15.odb,Step-1,Increment      1: Step Time =    1.000,"PART-1-1",           503,       10.0180,      -2.29938,            0.,NA,NA,"",       2.24931,      -2.24708,  -100.116E-03,   4.82385E-03
C:/temp/dataset/4/25_15.odb,Step-1,Increment      1: Step Time =    1.000,"PART-1-1",           504,       9.13986,      -3.07696,            0.,NA,NA,"",       2.13877,      -2.12835,  -210.873E-03,   5.68354E-03
C:/temp/dataset/4/25_15.odb,Step-1,Increment      1: Step Time =    1.000,"PART-1-1",           505,       10.6738,      -3.69229,            0.,NA,NA,"",       2.05487,      -2.05487,   310.390E-06,   5.81046E-03
C:/temp/dataset/4/25_15.odb,Step-1,Increment      1: Step Time =    1.000,"PART-1-1",           506,       12.7589,       6.54544,            0.,NA,NA,"",       3.63584,      -3.62820,   235.598E-03,   7.23571E-03
C:/temp/dataset/4/25_15.odb,Step-1,Increment      1: Step Time =    1.000,"PART-1-1",           507,           15.,          6.25,            0.,NA,NA,"",       3.66729,      -3.61900,   593.137E-03,   12.5595E-03
C:/temp/dataset/4/25_15.odb,Step-1,Increment      1: Step Time =    1.000,"PART-1-1",           508,       13.9203,       7.65480,            0.,NA,NA,"",       3.85146,      -3.82901,   415.240E-03,   9.65060E-03
C:/temp/dataset/4/25_15.odb,Step-1,Increment      1: Step Time =    1.000,"PART-1-1",           509,       13.0275,       16.3263,            0.,NA,NA,"",       5.31758,      -5.31431,   186.492E-03,   4.48767E-03
C:/temp/dataset/4/25_15.odb,Step-1,Increment      1: Step Time =    1.000,"PART-1-1",           510,       14.0150,       15.0581,            0.,NA,NA,"",       5.11873,      -5.10501,   374.398E-03,   6.20151E-03
C:/temp/dataset/4/25_15.odb,Step-1,Increment      1: Step Time =    1.000,"PART-1-1",           511,           15.,         16.25,            0.,NA,NA,"",       5.36344,      -5.33658,   536.101E-03,   6.84519E-03
C:/temp/dataset/4/25_15.odb,Step-1,Increment      1: Step Time =    1.000,"PART-1-1",           512,       14.0124,       17.5182,            0.,NA,NA,"",       5.55758,      -5.54679,   346.191E-03,   4.89370E-03
C:/temp/dataset/4/25_15.odb,Step-1,Increment      1: Step Time =    1.000,"PART-1-1",           513,       13.0175,       18.7421,            0.,NA,NA,"",       5.75322,      -5.75119,   152.730E-03,   3.57845E-03
C:/temp/dataset/4/25_15.odb,Step-1,Increment      1: Step Time =    1.000,"PART-1-1",           514,           15.,         18.75,            0.,NA,NA,"",       5.81093,      -5.78862,   508.647E-03,   5.23584E-03
C:/temp/dataset/4/25_15.odb,Step-1,Increment      1: Step Time =    1.000,"PART-1-1",           515,       14.0051,       19.9738,            0.,NA,NA,"",       6.00188,      -5.99370,   313.177E-03,   3.57777E-03
C:/temp/dataset/4/25_15.odb,Step-1,Increment      1: Step Time =    1.000,"PART-1-1",           516,       5.97628,       21.7197,            0.,NA,NA,"",       6.28944,      -6.18173,      -1.15901,   2.56796E-03
C:/temp/dataset/4/25_15.odb,Step-1,Increment      1: Step Time =    1.000,"PART-1-1",           517,       6.92463,       22.7965,            0.,NA,NA,"",       6.47265,      -6.39384,      -1.00694,   2.23274E-03
C:/temp/dataset/4/25_15.odb,Step-1,Increment      1: Step Time =    1.000,"PART-1-1",           518,       5.94835,       23.7852,            0.,NA,NA,"",       6.66881,      -6.55948,      -1.20259,   1.59095E-03
C:/temp/dataset/4/25_15.odb,Step-1,Increment      1: Step Time =    1.000,"PART-1-1",           519,            5.,       22.7083,            0.,NA,NA,"",       6.49032,      -6.34708,      -1.35604,   2.27557E-03
C:/temp/dataset/4/25_15.odb,Step-1,Increment      1: Step Time =    1.000,"PART-1-1",           520,       13.8862,       24.9278,            0.,NA,NA,"",       6.90924,      -6.90582,   217.423E-03,   2.10033E-03
C:/temp/dataset/4/25_15.odb,Step-1,Increment      1: Step Time =    1.000,"PART-1-1",           521,           15.,         26.25,            0.,NA,NA,"",       7.18073,      -7.16958,   400.145E-03,   1.71833E-03
C:/temp/dataset/4/25_15.odb,Step-1,Increment      1: Step Time =    1.000,"PART-1-1",           522,       6.15342,       27.8650,            0.,NA,NA,"",       7.41475,      -7.31086,      -1.23686,   335.933E-06
C:/temp/dataset/4/25_15.odb,Step-1,Increment      1: Step Time =    1.000,"PART-1-1",           523,       7.40342,       28.9067,            0.,NA,NA,"",       7.59216,      -7.52245,      -1.02650,   370.641E-06
C:/temp/dataset/4/25_15.odb,Step-1,Increment      1: Step Time =    1.000,"PART-1-1",           524,          6.25,           30.,            0.,NA,NA,"",       7.80428,      -7.70267,      -1.25528,   46.8949E-06
C:/temp/dataset/4/25_15.odb,Step-1,Increment      1: Step Time =    1.000,"PART-1-1",           525,            5.,       28.9583,            0.,NA,NA,"",       7.63347,      -7.49136,      -1.46608,   51.4504E-06
C:/temp/dataset/4/25_15.odb,Step-1,Increment      1: Step Time =    1.000,"PART-1-1",           526,       7.11917,       26.8292,            0.,NA,NA,"",       7.21310,      -7.13729,      -1.04302,   948.076E-06
C:/temp/dataset/4/25_15.odb,Step-1,Increment      1: Step Time =    1.000,"PART-1-1",           527,            5.,        26.875,            0.,NA,NA,"",       7.25279,      -7.11026,      -1.43081,   345.582E-06
C:/temp/dataset/4/25_15.odb,Step-1,Increment      1: Step Time =    1.000,"PART-1-1",           528,       5.96574,       25.8392,            0.,NA,NA,"",       7.04582,      -6.93654,      -1.23615,   819.123E-06
C:/temp/dataset/4/25_15.odb,Step-1,Increment      1: Step Time =    1.000,"PART-1-1",           529,       8.59546,       27.4701,            0.,NA,NA,"",       7.32197,      -7.27973,  -785.407E-03,   1.08482E-03
C:/temp/dataset/4/25_15.odb,Step-1,Increment      1: Step Time =    1.000,"PART-1-1",           530,       9.94204,       28.5635,            0.,NA,NA,"",       7.52396,      -7.50318,  -558.906E-03,   1.03731E-03
C:/temp/dataset/4/25_15.odb,Step-1,Increment      1: Step Time =    1.000,"PART-1-1",           531,          8.75,           30.,            0.,NA,NA,"",       7.78606,      -7.74491,  -799.488E-03,   471.891E-06
C:/temp/dataset/4/25_15.odb,Step-1,Increment      1: Step Time =    1.000,"PART-1-1",           532,            5.,       24.7917,            0.,NA,NA,"",       6.87148,      -6.72852,      -1.39436,   1.12568E-03
C:/temp/dataset/4/25_15.odb,Step-1,Increment      1: Step Time =    1.000,"PART-1-1",           533,       6.91409,       24.8327,            0.,NA,NA,"",       6.84773,      -6.76744,      -1.04552,   1.53924E-03
C:/temp/dataset/4/25_15.odb,Step-1,Increment      1: Step Time =    1.000,"PART-1-1",           534,            5.,        20.625,            0.,NA,NA,"",       6.11049,      -5.96719,      -1.31556,   3.63486E-03
C:/temp/dataset/4/25_15.odb,Step-1,Increment      1: Step Time =    1.000,"PART-1-1",           535,       5.99534,       19.6263,            0.,NA,NA,"",       5.90692,      -5.80075,      -1.11491,   3.64944E-03
C:/temp/dataset/4/25_15.odb,Step-1,Increment      1: Step Time =    1.000,"PART-1-1",           536,       6.97162,       20.7210,            0.,NA,NA,"",       6.09084,      -6.01473,  -959.901E-03,   2.94628E-03
C:/temp/dataset/4/25_15.odb,Step-1,Increment      1: Step Time =    1.000,"PART-1-1",           537,       9.90537,       10.7177,            0.,NA,NA,"",       4.28862,      -4.27995,  -272.693E-03,   2.89554E-03
C:/temp/dataset/4/25_15.odb,Step-1,Increment      1: Step Time =    1.000,"PART-1-1",           538,       8.83179,       9.75083,            0.,NA,NA,"",       4.12438,      -4.10134,  -435.298E-03,   3.79397E-03
C:/temp/dataset/4/25_15.odb,Step-1,Increment      1: Step Time =    1.000,"PART-1-1",           539,       10.8380,       9.37550,            0.,NA,NA,"",       4.06707,      -4.06583,  -100.769E-03,   3.48998E-03
C:/temp/dataset/4/25_15.odb,Step-1,Increment      1: Step Time =    1.000,"PART-1-1",           540,       5.96737,       11.1773,            0.,NA,NA,"",       4.41127,      -4.30948,  -942.189E-03,   8.22571E-03
C:/temp/dataset/4/25_15.odb,Step-1,Increment      1: Step Time =    1.000,"PART-1-1",           541,       6.95908,       12.1740,            0.,NA,NA,"",       4.56128,      -4.49162,  -794.138E-03,   6.10564E-03
C:/temp/dataset/4/25_15.odb,Step-1,Increment      1: Step Time =    1.000,"PART-1-1",           542,            5.,       12.2917,            0.,NA,NA,"",       4.63037,      -4.48937,      -1.13398,   9.36121E-03
C:/temp/dataset/4/25_15.odb,Step-1,Increment      1: Step Time =    1.000,"PART-1-1",           543,       6.89189,       10.0466,            0.,NA,NA,"",       4.19786,      -4.12810,  -762.151E-03,   7.15076E-03
C:/temp/dataset/4/25_15.odb,Step-1,Increment      1: Step Time =    1.000,"PART-1-1",           544,            5.,       10.2083,            0.,NA,NA,"",       4.27560,      -4.13576,      -1.08457,   10.8065E-03
C:/temp/dataset/4/25_15.odb,Step-1,Increment      1: Step Time =    1.000,"PART-1-1",           545,  -883.251E-03,       2.97832,            0.,NA,NA,"",       3.41343,      -2.93232,      -1.74728,   357.900E-06
C:/temp/dataset/4/25_15.odb,Step-1,Increment      1: Step Time =    1.000,"PART-1-1",           546,         -1.25,            5.,            0.,NA,NA,"",       3.70308,      -3.22331,      -1.82294,   875.556E-06
C:/temp/dataset/4/25_15.odb,Step-1,Increment      1: Step Time =    1.000,"PART-1-1",           547,      -2.28350,       3.97568,            0.,NA,NA,"",       3.63804,      -3.06297,      -1.96305,   356.439E-06
C:/temp/dataset/4/25_15.odb,Step-1,Increment      1: Step Time =    1.000,"PART-1-1",           548,      -3.12559,       2.92107,            0.,NA,NA,"",       3.56580,      -2.89979,      -2.07512,   315.194E-06
C:/temp/dataset/4/25_15.odb,Step-1,Increment      1: Step Time =    1.000,"PART-1-1",           549,         -3.75,            5.,            0.,NA,NA,"",       3.87511,      -3.19747,      -2.18923,   346.900E-06
C:/temp/dataset/4/25_15.odb,Step-1,Increment      1: Step Time =    1.000,"PART-1-1",           550,      -7.01026,       10.3490,            0.,NA,NA,"",       4.79668,      -3.94717,      -2.72544,   2.60571E-06
C:/temp/dataset/4/25_15.odb,Step-1,Increment      1: Step Time =    1.000,"PART-1-1",           551,           -5.,       10.2083,            0.,NA,NA,"",       4.63565,      -3.94828,      -2.42906,   3.82696E-06
C:/temp/dataset/4/25_15.odb,Step-1,Increment      1: Step Time =    1.000,"PART-1-1",           552,      -6.00030,       11.3233,            0.,NA,NA,"",       4.84924,      -4.10100,      -2.58784,   1.28871E-06
C:/temp/dataset/4/25_15.odb,Step-1,Increment      1: Step Time =    1.000,"PART-1-1",           553,      -6.90277,       16.5792,            0.,NA,NA,"",       5.59932,      -4.86214,      -2.77705,   142.892E-09
C:/temp/dataset/4/25_15.odb,Step-1,Increment      1: Step Time =    1.000,"PART-1-1",           554,           -5.,       16.4583,            0.,NA,NA,"",       5.46821,      -4.86498,      -2.49666,   81.8960E-09
C:/temp/dataset/4/25_15.odb,Step-1,Increment      1: Step Time =    1.000,"PART-1-1",           555,      -5.93592,       17.5473,            0.,NA,NA,"",       5.66972,      -5.01458,      -2.64571,   90.6887E-09
C:/temp/dataset/4/25_15.odb,Step-1,Increment      1: Step Time =    1.000,"PART-1-1",           556,      -5.96041,       23.6583,            0.,NA,NA,"",       6.50454,      -5.91064,      -2.71539,   74.8310E-09
C:/temp/dataset/4/25_15.odb,Step-1,Increment      1: Step Time =    1.000,"PART-1-1",           557,           -5.,       24.7917,            0.,NA,NA,"",       6.61408,      -6.08726,      -2.58678,   76.5029E-09
C:/temp/dataset/4/25_15.odb,Step-1,Increment      1: Step Time =    1.000,"PART-1-1",           558,      -7.48847,       28.8776,            0.,NA,NA,"",       7.30251,      -6.65964,      -2.99596,   54.7038E-09
C:/temp/dataset/4/25_15.odb,Step-1,Increment      1: Step Time =    1.000,"PART-1-1",           559,           -5.,       28.9583,            0.,NA,NA,"",       7.19688,      -6.69839,      -2.63184,   61.1606E-09
C:/temp/dataset/4/25_15.odb,Step-1,Increment      1: Step Time =    1.000,"PART-1-1",           560,         -6.25,           30.,            0.,NA,NA,"",       7.39881,      -6.83766,      -2.82645,   52.0465E-09
C:/temp/dataset/4/25_15.odb,Step-1,Increment      1: Step Time =    1.000,"PART-1-1",           561,       12.9634,       11.4929,            0.,NA,NA,"",       4.46647,      -4.46059,   229.130E-03,   6.20776E-03
C:/temp/dataset/4/25_15.odb,Step-1,Increment      1: Step Time =    1.000,"PART-1-1",           562,       13.9657,       10.1417,            0.,NA,NA,"",       4.26607,      -4.24650,   408.182E-03,   8.70334E-03
C:/temp/dataset/4/25_15.odb,Step-1,Increment      1: Step Time =    1.000,"PART-1-1",           563,           15.,         11.25,            0.,NA,NA,"",       4.49252,      -4.45551,   575.455E-03,   10.1643E-03
C:/temp/dataset/4/25_15.odb,Step-1,Increment      1: Step Time =    1.000,"PART-1-1",           564,       13.9978,       12.6011,            0.,NA,NA,"",       4.68787,      -4.67122,   394.759E-03,   7.49731E-03
C:/temp/dataset/4/25_15.odb,Step-1,Increment      1: Step Time =    1.000,"PART-1-1",           565,       9.13480,      -18.5479,            0.,NA,NA,"",   436.563E-03,  -431.597E-03,  -65.6566E-03,   5.70250E-03
C:/temp/dataset/4/25_15.odb,Step-1,Increment      1: Step Time =    1.000,"PART-1-1",           566,       11.1537,      -18.5886,            0.,NA,NA,"",   440.799E-03,  -434.950E-03,   71.5739E-03,   7.85527E-03
C:/temp/dataset/4/25_15.odb,Step-1,Increment      1: Step Time =    1.000,"PART-1-1",           567,       10.1377,      -17.4381,            0.,NA,NA,"",   517.297E-03,  -517.296E-03,   658.890E-06,   3.10054E-03
C:/temp/dataset/4/25_15.odb,Step-1,Increment      1: Step Time =    1.000,"PART-1-1",           568,      -8.81573,       27.5627,            0.,NA,NA,"",       7.19189,      -6.45242,      -3.17641,   58.3499E-09
C:/temp/dataset/4/25_15.odb,Step-1,Increment      1: Step Time =    1.000,"PART-1-1",           569,         -8.75,           30.,            0.,NA,NA,"",       7.52201,      -6.81062,      -3.19313,   54.0602E-09
C:/temp/dataset/4/25_15.odb,Step-1,Increment      1: Step Time =    1.000,"PART-1-1",           570,            5.,      -24.7917,            0.,NA,NA,"",   207.872E-03,  -124.901E-03,  -166.164E-03,   33.8506E-03
C:/temp/dataset/4/25_15.odb,Step-1,Increment      1: Step Time =    1.000,"PART-1-1",           571,       6.09200,      -25.8775,            0.,NA,NA,"",   126.310E-03,  -76.1790E-03,  -100.753E-03,   27.2043E-03
C:/temp/dataset/4/25_15.odb,Step-1,Increment      1: Step Time =    1.000,"PART-1-1",           572,       7.15121,      -24.8757,            0.,NA,NA,"",   132.179E-03,  -97.1526E-03,  -89.6252E-03,   19.7064E-03
C:/temp/dataset/4/25_15.odb,Step-1,Increment      1: Step Time =    1.000,"PART-1-1",           573,       13.1040,      -21.0477,            0.,NA,NA,"",   333.010E-03,  -288.397E-03,   166.503E-03,   20.1825E-03
C:/temp/dataset/4/25_15.odb,Step-1,Increment      1: Step Time =    1.000,"PART-1-1",           574,       14.0487,      -22.3697,            0.,NA,NA,"",   295.124E-03,  -226.285E-03,   189.456E-03,   26.8381E-03
C:/temp/dataset/4/25_15.odb,Step-1,Increment      1: Step Time =    1.000,"PART-1-1",           575,           15.,        -21.25,            0.,NA,NA,"",   402.773E-03,  -301.528E-03,   267.034E-03,   32.2087E-03
C:/temp/dataset/4/25_15.odb,Step-1,Increment      1: Step Time =    1.000,"PART-1-1",           576,            5.,       -26.875,            0.,NA,NA,"",   121.145E-03,  -65.9229E-03,  -101.639E-03,   35.2536E-03
C:/temp/dataset/4/25_15.odb,Step-1,Increment      1: Step Time =    1.000,"PART-1-1",           577,       12.8133,      -6.31290,            0.,NA,NA,"",       1.74596,      -1.72310,   281.653E-03,   12.6506E-03
C:/temp/dataset/4/25_15.odb,Step-1,Increment      1: Step Time =    1.000,"PART-1-1",           578,       13.9319,      -7.55671,            0.,NA,NA,"",       1.63159,      -1.57846,   412.958E-03,   17.8178E-03
C:/temp/dataset/4/25_15.odb,Step-1,Increment      1: Step Time =    1.000,"PART-1-1",           579,           15.,         -6.25,            0.,NA,NA,"",       1.85152,      -1.76535,   558.285E-03,   20.9717E-03
C:/temp/dataset/4/25_15.odb,Step-1,Increment      1: Step Time =    1.000,"PART-1-1",           580,            5.,       18.5417,            0.,NA,NA,"",       5.73333,      -5.59024,      -1.27289,   5.07821E-03
C:/temp/dataset/4/25_15.odb,Step-1,Increment      1: Step Time =    1.000,"PART-1-1",           581,       6.00122,       17.5195,            0.,NA,NA,"",       5.52552,      -5.42064,      -1.07142,   4.76871E-03
C:/temp/dataset/4/25_15.odb,Step-1,Increment      1: Step Time =    1.000,"PART-1-1",           582,       6.99656,       18.6041,            0.,NA,NA,"",       5.70422,      -5.63035,  -915.026E-03,   3.66633E-03
C:/temp/dataset/4/25_15.odb,Step-1,Increment      1: Step Time =    1.000,"PART-1-1",           583,       12.8545,       23.6160,            0.,NA,NA,"",       6.64483,      -6.64465,   50.0267E-03,   2.80460E-03
C:/temp/dataset/4/25_15.odb,Step-1,Increment      1: Step Time =    1.000,"PART-1-1",           584,       13.9683,       22.4382,            0.,NA,NA,"",       6.45271,      -6.44704,   270.530E-03,   2.82781E-03
C:/temp/dataset/4/25_15.odb,Step-1,Increment      1: Step Time =    1.000,"PART-1-1",           585,           15.,         23.75,            0.,NA,NA,"",       6.72393,      -6.70953,   439.782E-03,   2.42322E-03
C:/temp/dataset/4/25_15.odb,Step-1,Increment      1: Step Time =    1.000,"PART-1-1",           586,            5.,       16.4583,            0.,NA,NA,"",       5.36015,      -5.21753,      -1.22824,   6.52377E-03
C:/temp/dataset/4/25_15.odb,Step-1,Increment      1: Step Time =    1.000,"PART-1-1",           587,       7.00480,       16.4638,            0.,NA,NA,"",       5.31762,      -5.24566,  -871.830E-03,   4.41274E-03
C:/temp/dataset/4/25_15.odb,Step-1,Increment      1: Step Time =    1.000,"PART-1-1",           588,       12.9734,       21.1620,            0.,NA,NA,"",       6.19460,      -6.19363,   109.507E-03,   2.99654E-03
C:/temp/dataset/4/25_15.odb,Step-1,Increment      1: Step Time =    1.000,"PART-1-1",           589,           15.,         21.25,            0.,NA,NA,"",       6.26438,      -6.24621,   476.751E-03,   3.66382E-03
C:/temp/dataset/4/25_15.odb,Step-1,Increment      1: Step Time =    1.000,"PART-1-1",           590,            5.,       6.04167,            0.,NA,NA,"",       3.58792,      -3.45213,  -977.747E-03,   19.6471E-03
C:/temp/dataset/4/25_15.odb,Step-1,Increment      1: Step Time =    1.000,"PART-1-1",           591,       5.70418,       5.21013,            0.,NA,NA,"",       3.42856,      -3.32238,  -846.667E-03,   12.9176E-03
C:/temp/dataset/4/25_15.odb,Step-1,Increment      1: Step Time =    1.000,"PART-1-1",           592,       6.54256,       6.20387,            0.,NA,NA,"",       3.56748,      -3.49021,  -738.490E-03,   7.95656E-03
C:/temp/dataset/4/25_15.odb,Step-1,Increment      1: Step Time =    1.000,"PART-1-1",           593,       7.80464,       8.81181,            0.,NA,NA,"",       3.97500,      -3.93136,  -587.415E-03,   5.65247E-03
C:/temp/dataset/4/25_15.odb,Step-1,Increment      1: Step Time =    1.000,"PART-1-1",           594,       7.55468,       6.70991,            0.,NA,NA,"",       3.63105,      -3.58288,  -589.540E-03,   6.51756E-03
C:/temp/dataset/4/25_15.odb,Step-1,Increment      1: Step Time =    1.000,"PART-1-1",           595,           -5.,       12.2917,            0.,NA,NA,"",       4.90974,      -4.25384,      -2.45160,   809.142E-09
C:/temp/dataset/4/25_15.odb,Step-1,Increment      1: Step Time =    1.000,"PART-1-1",           596,      -13.0551,       11.1433,            0.,NA,NA,"",       5.39401,      -3.99828,      -3.62064,   1.40673E-06
C:/temp/dataset/4/25_15.odb,Step-1,Increment      1: Step Time =    1.000,"PART-1-1",           597,          -15.,       11.4063,            0.,NA,NA,"",       5.60403,      -4.01582,      -3.90875,   1.39529E-06
C:/temp/dataset/4/25_15.odb,Step-1,Increment      1: Step Time =    1.000,"PART-1-1",           598,           -5.,       18.5417,            0.,NA,NA,"",       5.75160,      -5.17055,      -2.51919,   115.268E-09
C:/temp/dataset/4/25_15.odb,Step-1,Increment      1: Step Time =    1.000,"PART-1-1",           599,      -6.83195,       18.5917,            0.,NA,NA,"",       5.86354,      -5.15808,      -2.78843,   70.7222E-09
C:/temp/dataset/4/25_15.odb,Step-1,Increment      1: Step Time =    1.000,"PART-1-1",           600,      -12.9744,       15.4368,            0.,NA,NA,"",       5.89810,      -4.62890,      -3.65525,   270.303E-09
C:/temp/dataset/4/25_15.odb,Step-1,Increment      1: Step Time =    1.000,"PART-1-1",           601,      -13.9736,       16.6988,            0.,NA,NA,"",       6.13420,      -4.80321,      -3.81545,   72.8857E-09
C:/temp/dataset/4/25_15.odb,Step-1,Increment      1: Step Time =    1.000,"PART-1-1",           602,          -15.,       15.7813,            0.,NA,NA,"",       6.11089,      -4.65752,      -3.95607,   144.699E-09
C:/temp/dataset/4/25_15.odb,Step-1,Increment      1: Step Time =    1.000,"PART-1-1",           603,      -6.85389,       22.5676,            0.,NA,NA,"",       6.40268,      -5.74100,      -2.83464,   71.5063E-09
C:/temp/dataset/4/25_15.odb,Step-1,Increment      1: Step Time =    1.000,"PART-1-1",           604,           -5.,       22.7083,            0.,NA,NA,"",       6.32481,      -5.78169,      -2.56425,   89.9164E-09
C:/temp/dataset/4/25_15.odb,Step-1,Increment      1: Step Time =    1.000,"PART-1-1",           605,      -7.62380,       21.5126,            0.,NA,NA,"",       6.30351,      -5.57793,      -2.93616,   65.8849E-09
C:/temp/dataset/4/25_15.odb,Step-1,Increment      1: Step Time =    1.000,"PART-1-1",           606,      -11.2433,       25.0031,            0.,NA,NA,"",       6.99250,      -6.05074,      -3.50480,   53.3514E-09
C:/temp/dataset/4/25_15.odb,Step-1,Increment      1: Step Time =    1.000,"PART-1-1",           607,      -10.1220,       24.6816,            0.,NA,NA,"",       6.87920,      -6.01572,      -3.33685,   55.8197E-09
C:/temp/dataset/4/25_15.odb,Step-1,Increment      1: Step Time =    1.000,"PART-1-1",           608,      -9.68436,       26.2404,            0.,NA,NA,"",       7.06201,      -6.24908,      -3.28952,   58.0735E-09
C:/temp/dataset/4/25_15.odb,Step-1,Increment      1: Step Time =    1.000,"PART-1-1",           609,      -10.8057,       26.5619,            0.,NA,NA,"",       7.17246,      -6.28411,      -3.45747,   55.7567E-09
C:/temp/dataset/4/25_15.odb,Step-1,Increment      1: Step Time =    1.000,"PART-1-1",           610,            5.,      -6.04167,            0.,NA,NA,"",       1.84538,      -1.70028,  -717.282E-03,   27.4810E-03
C:/temp/dataset/4/25_15.odb,Step-1,Increment      1: Step Time =    1.000,"PART-1-1",           611,       5.81487,      -6.90448,            0.,NA,NA,"",       1.69731,      -1.59273,  -586.582E-03,   19.3905E-03
C:/temp/dataset/4/25_15.odb,Step-1,Increment      1: Step Time =    1.000,"PART-1-1",           612,       6.44107,      -5.66337,            0.,NA,NA,"",       1.83003,      -1.75094,  -532.207E-03,   11.9695E-03
C:/temp/dataset/4/25_15.odb,Step-1,Increment      1: Step Time =    1.000,"PART-1-1",           613,       5.62621,      -4.80056,            0.,NA,NA,"",       1.97591,      -1.86132,  -663.098E-03,   17.7110E-03
C:/temp/dataset/4/25_15.odb,Step-1,Increment      1: Step Time =    1.000,"PART-1-1",           614,            5.,        -8.125,            0.,NA,NA,"",       1.58982,      -1.44903,  -654.081E-03,   24.0267E-03
C:/temp/dataset/4/25_15.odb,Step-1,Increment      1: Step Time =    1.000,"PART-1-1",           615,       8.00489,       17.5473,            0.,NA,NA,"",       5.50112,      -5.45436,  -715.735E-03,   3.40750E-03
C:/temp/dataset/4/25_15.odb,Step-1,Increment      1: Step Time =    1.000,"PART-1-1",           616,       8.00828,       15.3576,            0.,NA,NA,"",       5.10738,      -5.06264,  -674.514E-03,   3.81543E-03
C:/temp/dataset/4/25_15.odb,Step-1,Increment      1: Step Time =    1.000,"PART-1-1",           617,       11.1265,      -16.2686,            0.,NA,NA,"",   622.727E-03,  -617.942E-03,   77.0517E-03,   7.34055E-03
C:/temp/dataset/4/25_15.odb,Step-1,Increment      1: Step Time =    1.000,"PART-1-1",           618,       9.12111,      -16.3141,            0.,NA,NA,"",   611.960E-03,  -606.275E-03,  -83.2183E-03,   5.57543E-03
C:/temp/dataset/4/25_15.odb,Step-1,Increment      1: Step Time =    1.000,"PART-1-1",           619,      -9.91602,       15.9767,            0.,NA,NA,"",       5.72702,      -4.74116,      -3.21250,   213.522E-09
C:/temp/dataset/4/25_15.odb,Step-1,Increment      1: Step Time =    1.000,"PART-1-1",           620,      -10.9598,       15.0860,            0.,NA,NA,"",       5.69346,      -4.59924,      -3.35596,   398.312E-09
C:/temp/dataset/4/25_15.odb,Step-1,Increment      1: Step Time =    1.000,"PART-1-1",           621,      -8.93702,       14.7598,            0.,NA,NA,"",       5.50022,      -4.57328,      -3.05574,   482.697E-09
C:/temp/dataset/4/25_15.odb,Step-1,Increment      1: Step Time =    1.000,"PART-1-1",           622,      -13.0880,       4.79273,            0.,NA,NA,"",       4.69618,      -3.06650,      -3.55678,   1.40367E-06
C:/temp/dataset/4/25_15.odb,Step-1,Increment      1: Step Time =    1.000,"PART-1-1",           623,          -15.,       4.84375,            0.,NA,NA,"",       4.90419,      -3.05331,      -3.83776,   5.39603E-06
C:/temp/dataset/4/25_15.odb,Step-1,Increment      1: Step Time =    1.000,"PART-1-1",           624,           -5.,       6.04167,            0.,NA,NA,"",       4.10117,      -3.33712,      -2.38396,   33.0166E-06
C:/temp/dataset/4/25_15.odb,Step-1,Increment      1: Step Time =    1.000,"PART-1-1",           625,      -7.12843,       5.83601,            0.,NA,NA,"",       4.24754,      -3.28393,      -2.69396,   8.70314E-06
C:/temp/dataset/4/25_15.odb,Step-1,Increment      1: Step Time =    1.000,"PART-1-1",           626,       12.9112,      -8.87192,            0.,NA,NA,"",       1.42931,      -1.40091,   283.514E-03,   14.1607E-03
C:/temp/dataset/4/25_15.odb,Step-1,Increment      1: Step Time =    1.000,"PART-1-1",           627,           15.,         -8.75,            0.,NA,NA,"",       1.54086,      -1.44758,   527.977E-03,   23.4811E-03
C:/temp/dataset/4/25_15.odb,Step-1,Increment      1: Step Time =    1.000,"PART-1-1",           628,       13.0740,      -16.2399,            0.,NA,NA,"",   679.337E-03,  -637.812E-03,   233.870E-03,   17.9845E-03
C:/temp/dataset/4/25_15.odb,Step-1,Increment      1: Step Time =    1.000,"PART-1-1",           629,           15.,        -16.25,            0.,NA,NA,"",   770.296E-03,  -663.537E-03,   391.246E-03,   28.8646E-03
C:/temp/dataset/4/25_15.odb,Step-1,Increment      1: Step Time =    1.000,"PART-1-1",           630,       13.0128,       13.9092,            0.,NA,NA,"",       4.88806,      -4.88344,   212.537E-03,   5.38892E-03
C:/temp/dataset/4/25_15.odb,Step-1,Increment      1: Step Time =    1.000,"PART-1-1",           631,           15.,         13.75,            0.,NA,NA,"",       4.92334,      -4.89156,   558.497E-03,   8.51207E-03
C:/temp/dataset/4/25_15.odb,Step-1,Increment      1: Step Time =    1.000,"PART-1-1",           632,       10.9505,       11.7339,            0.,NA,NA,"",       4.47122,      -4.46981,  -112.186E-03,   3.44062E-03
C:/temp/dataset/4/25_15.odb,Step-1,Increment      1: Step Time =    1.000,"PART-1-1",           633,       9.98883,       12.9959,            0.,NA,NA,"",       4.68393,      -4.67476,  -292.935E-03,   2.89254E-03
C:/temp/dataset/4/25_15.odb,Step-1,Increment      1: Step Time =    1.000,"PART-1-1",           634,       8.94372,       11.9797,            0.,NA,NA,"",       4.50637,      -4.48347,  -453.745E-03,   3.54025E-03
C:/temp/dataset/4/25_15.odb,Step-1,Increment      1: Step Time =    1.000,"PART-1-1",           635,      -13.9153,       18.9000,            0.,NA,NA,"",       6.39979,      -5.12669,      -3.83070,   42.6766E-09
C:/temp/dataset/4/25_15.odb,Step-1,Increment      1: Step Time =    1.000,"PART-1-1",           636,      -12.6393,       19.9841,            0.,NA,NA,"",       6.43784,      -5.29950,      -3.65527,   42.8246E-09
C:/temp/dataset/4/25_15.odb,Step-1,Increment      1: Step Time =    1.000,"PART-1-1",           637,          -15.,       20.1563,            0.,NA,NA,"",       6.64144,      -5.29921,      -4.00338,   48.6577E-09
C:/temp/dataset/4/25_15.odb,Step-1,Increment      1: Step Time =    1.000,"PART-1-1",           638,       8.12191,      -21.7795,            0.,NA,NA,"",   248.324E-03,  -229.241E-03,  -95.4644E-03,   12.0906E-03
C:/temp/dataset/4/25_15.odb,Step-1,Increment      1: Step Time =    1.000,"PART-1-1",           639,       8.12482,      -23.8590,            0.,NA,NA,"",   147.746E-03,  -129.958E-03,  -70.2826E-03,   12.5911E-03
C:/temp/dataset/4/25_15.odb,Step-1,Increment      1: Step Time =    1.000,"PART-1-1",           640,       8.11825,      -19.6354,            0.,NA,NA,"",   377.891E-03,  -357.708E-03,  -121.846E-03,   11.5901E-03
C:/temp/dataset/4/25_15.odb,Step-1,Increment      1: Step Time =    1.000,"PART-1-1",           641,       8.10952,      -17.4508,            0.,NA,NA,"",   536.040E-03,  -514.652E-03,  -149.908E-03,   11.1382E-03
C:/temp/dataset/4/25_15.odb,Step-1,Increment      1: Step Time =    1.000,"PART-1-1",           642,       7.85781,       23.9076,            0.,NA,NA,"",       6.66835,      -6.61294,  -857.861E-03,   1.99312E-03
C:/temp/dataset/4/25_15.odb,Step-1,Increment      1: Step Time =    1.000,"PART-1-1",           643,       7.94870,       21.8524,            0.,NA,NA,"",       6.28870,      -6.23700,  -804.713E-03,   2.56539E-03
C:/temp/dataset/4/25_15.odb,Step-1,Increment      1: Step Time =    1.000,"PART-1-1",           644,       4.21929,       2.98066,            0.,NA,NA,"",       3.15161,      -2.98346,      -1.01568,   6.73626E-03
C:/temp/dataset/4/25_15.odb,Step-1,Increment      1: Step Time =    1.000,"PART-1-1",           645,       5.32392,       3.96649,            0.,NA,NA,"",       3.25663,      -3.13596,  -878.300E-03,   11.4429E-03
C:/temp/dataset/4/25_15.odb,Step-1,Increment      1: Step Time =    1.000,"PART-1-1",           646,          3.75,            5.,            0.,NA,NA,"",       3.45254,      -3.27121,      -1.10418,   5.31291E-03
C:/temp/dataset/4/25_15.odb,Step-1,Increment      1: Step Time =    1.000,"PART-1-1",           647,       12.8859,       9.04653,            0.,NA,NA,"",       4.04975,      -4.04276,   237.814E-03,   6.88300E-03
C:/temp/dataset/4/25_15.odb,Step-1,Increment      1: Step Time =    1.000,"PART-1-1",           648,           15.,          8.75,            0.,NA,NA,"",       4.07313,      -4.03064,   586.818E-03,   11.6048E-03
C:/temp/dataset/4/25_15.odb,Step-1,Increment      1: Step Time =    1.000,"PART-1-1",           649,      -8.02807,       9.41948,            0.,NA,NA,"",       4.75868,      -3.79982,      -2.86467,   2.65953E-06
C:/temp/dataset/4/25_15.odb,Step-1,Increment      1: Step Time =    1.000,"PART-1-1",           650,      -8.84347,       16.8085,            0.,NA,NA,"",       5.75783,      -4.87477,      -3.06418,   169.710E-09
C:/temp/dataset/4/25_15.odb,Step-1,Increment      1: Step Time =    1.000,"PART-1-1",           651,      -9.78583,       18.0165,            0.,NA,NA,"",       5.97985,      -5.04177,      -3.21546,   62.7660E-09
C:/temp/dataset/4/25_15.odb,Step-1,Increment      1: Step Time =    1.000,"PART-1-1",           652,          -15.,       17.9688,            0.,NA,NA,"",       6.37357,      -4.97837,      -3.97972,   56.1848E-09
C:/temp/dataset/4/25_15.odb,Step-1,Increment      1: Step Time =    1.000,"PART-1-1",           653,          -15.,       24.5313,            0.,NA,NA,"",       7.19045,      -5.94091,      -4.05070,   48.3272E-09
C:/temp/dataset/4/25_15.odb,Step-1,Increment      1: Step Time =    1.000,"PART-1-1",           654,      -12.9952,       24.7258,            0.,NA,NA,"",       7.07261,      -5.99113,      -3.75875,   49.7713E-09
C:/temp/dataset/4/25_15.odb,Step-1,Increment      1: Step Time =    1.000,"PART-1-1",           655,      -11.4985,       21.8877,            0.,NA,NA,"",       6.60072,      -5.59103,      -3.50854,   47.6535E-09
C:/temp/dataset/4/25_15.odb,Step-1,Increment      1: Step Time =    1.000,"PART-1-1",           656,      -11.4490,       20.6565,            0.,NA,NA,"",       6.43775,      -5.41099,      -3.48795,   42.7633E-09
C:/temp/dataset/4/25_15.odb,Step-1,Increment      1: Step Time =    1.000,"PART-1-1",           657,      -10.1446,       20.7260,            0.,NA,NA,"",       6.35730,      -5.43530,      -3.29739,   46.1680E-09
C:/temp/dataset/4/25_15.odb,Step-1,Increment      1: Step Time =    1.000,"PART-1-1",           658,      -7.69218,       19.6350,            0.,NA,NA,"",       6.05556,      -5.30180,      -2.92588,   62.3494E-09
C:/temp/dataset/4/25_15.odb,Step-1,Increment      1: Step Time =    1.000,"PART-1-1",           659,      -8.68744,       18.7463,            0.,NA,NA,"",       6.00084,      -5.16068,      -3.06225,   60.4087E-09
C:/temp/dataset/4/25_15.odb,Step-1,Increment      1: Step Time =    1.000,"PART-1-1",           660,      -7.82721,       17.7030,            0.,NA,NA,"",       5.80727,      -5.01696,      -2.92479,   78.8250E-09
C:/temp/dataset/4/25_15.odb,Step-1,Increment      1: Step Time =    1.000,"PART-1-1",           661,      -9.52114,       19.8817,            0.,NA,NA,"",       6.20506,      -5.31820,      -3.19681,   45.9246E-09
C:/temp/dataset/4/25_15.odb,Step-1,Increment      1: Step Time =    1.000,"PART-1-1",           662,      -10.6195,       19.1519,            0.,NA,NA,"",       6.18508,      -5.19928,      -3.35002,   44.8065E-09
C:/temp/dataset/4/25_15.odb,Step-1,Increment      1: Step Time =    1.000,"PART-1-1",           663,      -12.1485,       3.78191,            0.,NA,NA,"",       4.49338,      -2.92841,      -3.40806,   5.23552E-06
C:/temp/dataset/4/25_15.odb,Step-1,Increment      1: Step Time =    1.000,"PART-1-1",           664,      -10.9850,       2.86362,            0.,NA,NA,"",       4.27693,      -2.80632,      -3.22749,   11.8706E-06
C:/temp/dataset/4/25_15.odb,Step-1,Increment      1: Step Time =    1.000,"PART-1-1",           665,      -9.06958,       8.49577,            0.,NA,NA,"",       4.73177,      -3.65307,      -3.00745,   3.37590E-06
C:/temp/dataset/4/25_15.odb,Step-1,Increment      1: Step Time =    1.000,"PART-1-1",           666,      -8.08215,       7.28595,            0.,NA,NA,"",       4.50269,      -3.48631,      -2.84954,   5.43112E-06
C:/temp/dataset/4/25_15.odb,Step-1,Increment      1: Step Time =    1.000,"PART-1-1",           667,      -10.1292,       7.60955,            0.,NA,NA,"",       4.71961,      -3.51163,      -3.15328,   2.73022E-06
C:/temp/dataset/4/25_15.odb,Step-1,Increment      1: Step Time =    1.000,"PART-1-1",           668,      -11.2104,       6.77234,            0.,NA,NA,"",       4.72373,      -3.37714,      -3.30280,   1.93260E-06
C:/temp/dataset/4/25_15.odb,Step-1,Increment      1: Step Time =    1.000,"PART-1-1",           669,      -10.2942,       5.63122,            0.,NA,NA,"",       4.50858,      -3.21968,      -3.15610,   5.45658E-06
C:/temp/dataset/4/25_15.odb,Step-1,Increment      1: Step Time =    1.000,"PART-1-1",           670,      -9.21309,       6.46842,            0.,NA,NA,"",       4.50443,      -3.35416,      -3.00658,   4.65941E-06
C:/temp/dataset/4/25_15.odb,Step-1,Increment      1: Step Time =    1.000,"PART-1-1",           671,        -11.25,           -5.,            0.,NA,NA,"",       3.58394,      -1.65026,      -3.18140,   1.93754E-06
C:/temp/dataset/4/25_15.odb,Step-1,Increment      1: Step Time =    1.000,"PART-1-1",           672,      -10.0273,      -3.93877,            0.,NA,NA,"",       3.52005,      -1.81909,      -3.01358,   8.17891E-06
C:/temp/dataset/4/25_15.odb,Step-1,Increment      1: Step Time =    1.000,"PART-1-1",           673,         -8.75,           -5.,            0.,NA,NA,"",       3.27665,      -1.67727,      -2.81482,   17.5648E-06
C:/temp/dataset/4/25_15.odb,Step-1,Increment      1: Step Time =    1.000,"PART-1-1",           674,      -7.59562,      -4.02918,            0.,NA,NA,"",       3.22665,      -1.83208,      -2.65607,   37.5554E-06
C:/temp/dataset/4/25_15.odb,Step-1,Increment      1: Step Time =    1.000,"PART-1-1",           675,      -8.87289,      -2.96795,            0.,NA,NA,"",       3.47079,      -1.97394,      -2.85481,   36.4088E-06
C:/temp/dataset/4/25_15.odb,Step-1,Increment      1: Step Time =    1.000,"PART-1-1",           676,         -6.25,           -5.,            0.,NA,NA,"",       2.98303,      -1.70421,      -2.44829,   106.401E-06
C:/temp/dataset/4/25_15.odb,Step-1,Increment      1: Step Time =    1.000,"PART-1-1",           677,      -5.03874,      -3.83161,            0.,NA,NA,"",       2.96321,      -1.88855,      -2.28341,   140.035E-06
C:/temp/dataset/4/25_15.odb,Step-1,Increment      1: Step Time =    1.000,"PART-1-1",           678,      -6.38435,      -2.86079,            0.,NA,NA,"",       3.20504,      -2.01654,      -2.49115,   124.198E-06
C:/temp/dataset/4/25_15.odb,Step-1,Increment      1: Step Time =    1.000,"PART-1-1",           679,      -8.31216,       1.98044,            0.,NA,NA,"",       3.91241,      -2.70574,      -2.82593,   49.4732E-06
C:/temp/dataset/4/25_15.odb,Step-1,Increment      1: Step Time =    1.000,"PART-1-1",           680,      -6.89941,       1.67561,            0.,NA,NA,"",       3.74211,      -2.67637,      -2.61542,   98.1652E-06
C:/temp/dataset/4/25_15.odb,Step-1,Increment      1: Step Time =    1.000,"PART-1-1",           681,      -8.02347,       3.70061,            0.,NA,NA,"",       4.07678,      -2.96109,      -2.80215,   35.8290E-06
C:/temp/dataset/4/25_15.odb,Step-1,Increment      1: Step Time =    1.000,"PART-1-1",           682,      -9.78636,       2.36681,            0.,NA,NA,"",       4.10158,      -2.74643,      -3.04633,   24.5741E-06
C:/temp/dataset/4/25_15.odb,Step-1,Increment      1: Step Time =    1.000,"PART-1-1",           683,      -8.80920,   354.969E-03,            0.,NA,NA,"",       3.78990,      -2.46199,      -2.88132,   45.8386E-06
C:/temp/dataset/4/25_15.odb,Step-1,Increment      1: Step Time =    1.000,"PART-1-1",           684,         -3.75,           -5.,            0.,NA,NA,"",       2.70724,      -1.73081,      -2.08169,   312.790E-06
C:/temp/dataset/4/25_15.odb,Step-1,Increment      1: Step Time =    1.000,"PART-1-1",           685,          3.75,           -5.,            0.,NA,NA,"",       2.04850,      -1.80741,  -964.165E-03,   5.45905E-03
C:/temp/dataset/4/25_15.odb,Step-1,Increment      1: Step Time =    1.000,"PART-1-1",           686,       4.46580,      -3.87501,            0.,NA,NA,"",       2.16722,      -1.98800,  -862.957E-03,   12.1400E-03
C:/temp/dataset/4/25_15.odb,Step-1,Increment      1: Step Time =    1.000,"PART-1-1",           687,       2.90021,      -2.90757,            0.,NA,NA,"",       2.39015,      -2.11173,      -1.11956,   3.44455E-03
C:/temp/dataset/4/25_15.odb,Step-1,Increment      1: Step Time =    1.000,"PART-1-1",           688,       11.1618,       2.81075,            0.,NA,NA,"",       3.01734,      -3.01730,   16.0997E-03,   3.60264E-03
C:/temp/dataset/4/25_15.odb,Step-1,Increment      1: Step Time =    1.000,"PART-1-1",           689,       10.1850,       1.50626,            0.,NA,NA,"",       2.81103,      -2.80859,  -116.915E-03,   2.01127E-03
C:/temp/dataset/4/25_15.odb,Step-1,Increment      1: Step Time =    1.000,"PART-1-1",           690,       11.6421,   144.368E-03,            0.,NA,NA,"",       2.62379,      -2.62160,   107.396E-03,   5.36609E-03
C:/temp/dataset/4/25_15.odb,Step-1,Increment      1: Step Time =    1.000,"PART-1-1",           691,         11.25,           30.,            0.,NA,NA,"",       7.79618,      -7.78856,  -344.501E-03,   1.14844E-03
C:/temp/dataset/4/25_15.odb,Step-1,Increment      1: Step Time =    1.000,"PART-1-1",           692,       9.19768,       26.3844,            0.,NA,NA,"",       7.12115,      -7.09071,  -657.731E-03,   1.52334E-03
C:/temp/dataset/4/25_15.odb,Step-1,Increment      1: Step Time =    1.000,"PART-1-1",           693,       7.72138,       25.7435,            0.,NA,NA,"",       7.00804,      -6.94808,  -914.735E-03,   1.40985E-03
C:/temp/dataset/4/25_15.odb,Step-1,Increment      1: Step Time =    1.000,"PART-1-1",           694,       9.17897,      -24.8987,            0.,NA,NA,"",   89.9017E-03,  -86.4536E-03,  -24.6595E-03,   6.14612E-03
C:/temp/dataset/4/25_15.odb,Step-1,Increment      1: Step Time =    1.000,"PART-1-1",           695,       9.00589,       18.6572,            0.,NA,NA,"",       5.69758,      -5.67015,  -558.410E-03,   3.09749E-03
C:/temp/dataset/4/25_15.odb,Step-1,Increment      1: Step Time =    1.000,"PART-1-1",           696,       7.99757,       19.7140,            0.,NA,NA,"",       5.89565,      -5.84685,  -756.998E-03,   3.01783E-03
C:/temp/dataset/4/25_15.odb,Step-1,Increment      1: Step Time =    1.000,"PART-1-1",           697,      -12.2498,       25.7751,            0.,NA,NA,"",       7.15973,      -6.15310,      -3.66076,   51.9212E-09
C:/temp/dataset/4/25_15.odb,Step-1,Increment      1: Step Time =    1.000,"PART-1-1",           698,      -11.9888,       23.9538,            0.,NA,NA,"",       6.90346,      -5.88878,      -3.60278,   50.7277E-09
C:/temp/dataset/4/25_15.odb,Step-1,Increment      1: Step Time =    1.000,"PART-1-1",           699,      -1.59164,      -1.60220,            0.,NA,NA,"",       2.88561,      -2.25379,      -1.80199,   361.969E-06
C:/temp/dataset/4/25_15.odb,Step-1,Increment      1: Step Time =    1.000,"PART-1-1",           700,      -1.34014,  -343.401E-03,            0.,NA,NA,"",       3.02072,      -2.44160,      -1.77858,   383.496E-06
C:/temp/dataset/4/25_15.odb,Step-1,Increment      1: Step Time =    1.000,"PART-1-1",           701,      -2.70787,  -93.9540E-03,            0.,NA,NA,"",       3.16131,      -2.46297,      -1.98183,   335.674E-06
C:/temp/dataset/4/25_15.odb,Step-1,Increment      1: Step Time =    1.000,"PART-1-1",           702,       8.06015,      -13.0184,            0.,NA,NA,"",   933.344E-03,  -908.582E-03,  -213.567E-03,   10.3511E-03
C:/temp/dataset/4/25_15.odb,Step-1,Increment      1: Step Time =    1.000,"PART-1-1",           703,       7.99745,      -10.7906,            0.,NA,NA,"",       1.16935,      -1.14184,  -252.169E-03,   10.0115E-03
C:/temp/dataset/4/25_15.odb,Step-1,Increment      1: Step Time =    1.000,"PART-1-1",           704,           15.,        -26.25,            0.,NA,NA,"",   148.791E-03,  -86.3113E-03,   121.199E-03,   35.0854E-03
C:/temp/dataset/4/25_15.odb,Step-1,Increment      1: Step Time =    1.000,"PART-1-1",           705,       13.9776,      -24.8045,            0.,NA,NA,"",   175.337E-03,  -118.193E-03,   129.512E-03,   27.6133E-03
C:/temp/dataset/4/25_15.odb,Step-1,Increment      1: Step Time =    1.000,"PART-1-1",           706,       12.6094,      -25.9010,            0.,NA,NA,"",   93.4299E-03,  -66.4950E-03,   65.6320E-03,   19.0354E-03
C:/temp/dataset/4/25_15.odb,Step-1,Increment      1: Step Time =    1.000,"PART-1-1",           707,       12.0224,      -24.3398,            0.,NA,NA,"",   135.592E-03,  -115.847E-03,   70.4613E-03,   14.8099E-03
C:/temp/dataset/4/25_15.odb,Step-1,Increment      1: Step Time =    1.000,"PART-1-1",           708,       13.0263,      -23.4242,            0.,NA,NA,"",   204.149E-03,  -163.409E-03,   122.370E-03,   20.8317E-03
C:/temp/dataset/4/25_15.odb,Step-1,Increment      1: Step Time =    1.000,"PART-1-1",           709,       12.1300,      -22.1112,            0.,NA,NA,"",   241.967E-03,  -219.736E-03,   101.314E-03,   14.4813E-03
C:/temp/dataset/4/25_15.odb,Step-1,Increment      1: Step Time =    1.000,"PART-1-1",           710,           15.,        -23.75,            0.,NA,NA,"",   262.549E-03,  -174.697E-03,   195.991E-03,   33.5778E-03
C:/temp/dataset/4/25_15.odb,Step-1,Increment      1: Step Time =    1.000,"PART-1-1",           711,       10.9035,      -9.09896,            0.,NA,NA,"",       1.35242,      -1.35134,   54.0870E-03,   5.97849E-03
C:/temp/dataset/4/25_15.odb,Step-1,Increment      1: Step Time =    1.000,"PART-1-1",           712,       9.82794,      -8.10226,            0.,NA,NA,"",       1.46487,      -1.46293,  -75.3010E-03,   3.21297E-03
C:/temp/dataset/4/25_15.odb,Step-1,Increment      1: Step Time =    1.000,"PART-1-1",           713,       8.90728,      -9.48784,            0.,NA,NA,"",       1.30274,      -1.29176,  -168.763E-03,   5.32695E-03
C:/temp/dataset/4/25_15.odb,Step-1,Increment      1: Step Time =    1.000,"PART-1-1",           714,           15.,         -1.25,            0.,NA,NA,"",       2.53488,      -2.46507,   590.800E-03,   15.3443E-03
C:/temp/dataset/4/25_15.odb,Step-1,Increment      1: Step Time =    1.000,"PART-1-1",           715,       12.7555,      -1.12336,            0.,NA,NA,"",       2.46389,      -2.44882,   272.072E-03,   9.23777E-03
C:/temp/dataset/4/25_15.odb,Step-1,Increment      1: Step Time =    1.000,"PART-1-1",           716,       11.5680,       5.48707,            0.,NA,NA,"",       3.44041,      -3.43995,   55.9322E-03,   4.93083E-03
C:/temp/dataset/4/25_15.odb,Step-1,Increment      1: Step Time =    1.000,"PART-1-1",           717,       10.1222,       4.29256,            0.,NA,NA,"",       3.23613,      -3.23234,  -156.578E-03,   1.58307E-03
C:/temp/dataset/4/25_15.odb,Step-1,Increment      1: Step Time =    1.000,"PART-1-1",           718,       8.27918,   509.070E-03,            0.,NA,NA,"",       2.67157,      -2.64402,  -382.726E-03,   5.58168E-03
C:/temp/dataset/4/25_15.odb,Step-1,Increment      1: Step Time =    1.000,"PART-1-1",           719,       9.70893,  -124.236E-03,            0.,NA,NA,"",       2.56722,      -2.56174,  -167.638E-03,   3.43258E-03
C:/temp/dataset/4/25_15.odb,Step-1,Increment      1: Step Time =    1.000,"PART-1-1",           720,       8.75521,       2.13956,            0.,NA,NA,"",       2.90927,      -2.88974,  -336.528E-03,   3.43496E-03
C:/temp/dataset/4/25_15.odb,Step-1,Increment      1: Step Time =    1.000,"PART-1-1",           721,       6.99874,       4.90963,            0.,NA,NA,"",       3.35390,      -3.29135,  -644.730E-03,   5.66354E-03
C:/temp/dataset/4/25_15.odb,Step-1,Increment      1: Step Time =    1.000,"PART-1-1",           722,       8.01086,       5.41567,            0.,NA,NA,"",       3.41811,      -3.38174,  -497.312E-03,   3.61529E-03
C:/temp/dataset/4/25_15.odb,Step-1,Increment      1: Step Time =    1.000,"PART-1-1",           723,       11.8045,       7.99587,            0.,NA,NA,"",       3.85106,      -3.85040,   71.2057E-03,   5.13458E-03
C:/temp/dataset/4/25_15.odb,Step-1,Increment      1: Step Time =    1.000,"PART-1-1",           724,       7.91904,       10.9856,            0.,NA,NA,"",       4.34231,      -4.29944,  -608.600E-03,   4.88347E-03
C:/temp/dataset/4/25_15.odb,Step-1,Increment      1: Step Time =    1.000,"PART-1-1",           725,       11.0233,       18.7016,            0.,NA,NA,"",       5.71373,      -5.71018,  -201.424E-03,   3.04873E-03
C:/temp/dataset/4/25_15.odb,Step-1,Increment      1: Step Time =    1.000,"PART-1-1",           726,       10.0074,       19.8076,            0.,NA,NA,"",       5.90898,      -5.89541,  -400.120E-03,   2.90944E-03
C:/temp/dataset/4/25_15.odb,Step-1,Increment      1: Step Time =    1.000,"PART-1-1",           727,       10.9673,       21.0105,            0.,NA,NA,"",       6.13652,      -6.13148,  -248.572E-03,   2.98322E-03
C:/temp/dataset/4/25_15.odb,Step-1,Increment      1: Step Time =    1.000,"PART-1-1",           728,       8.97465,       20.8454,            0.,NA,NA,"",       6.09860,      -6.06876,  -602.487E-03,   2.90334E-03
C:/temp/dataset/4/25_15.odb,Step-1,Increment      1: Step Time =    1.000,"PART-1-1",           729,       8.66510,       24.8184,            0.,NA,NA,"",       6.83261,      -6.79376,  -727.586E-03,   1.95544E-03
C:/temp/dataset/4/25_15.odb,Step-1,Increment      1: Step Time =    1.000,"PART-1-1",           730,       7.98376,       13.1681,            0.,NA,NA,"",       4.72028,      -4.67695,  -638.106E-03,   4.30274E-03
C:/temp/dataset/4/25_15.odb,Step-1,Increment      1: Step Time =    1.000,"PART-1-1",           731,      -1.95806,       1.80915,            0.,NA,NA,"",       3.33802,      -2.74997,      -1.89210,   366.920E-06
C:/temp/dataset/4/25_15.odb,Step-1,Increment      1: Step Time =    1.000,"PART-1-1",           732,  -613.587E-03,   828.335E-03,            0.,NA,NA,"",       3.11609,      -2.62139,      -1.68473,   358.002E-06
C:/temp/dataset/4/25_15.odb,Step-1,Increment      1: Step Time =    1.000,"PART-1-1",           733,   461.223E-03,       1.99751,            0.,NA,NA,"",       3.19915,      -2.80382,      -1.54051,   475.636E-06
C:/temp/dataset/4/25_15.odb,Step-1,Increment      1: Step Time =    1.000,"PART-1-1",           734,       1.74006,       1.04512,            0.,NA,NA,"",       2.99619,      -2.67812,      -1.34343,   2.10904E-03
C:/temp/dataset/4/25_15.odb,Step-1,Increment      1: Step Time =    1.000,"PART-1-1",           735,   906.022E-03,  -39.5003E-03,            0.,NA,NA,"",       2.90066,      -2.51083,      -1.45244,   855.209E-06
C:/temp/dataset/4/25_15.odb,Step-1,Increment      1: Step Time =    1.000,"PART-1-1",           736,       2.15034,  -968.542E-03,            0.,NA,NA,"",       2.69846,      -2.38742,      -1.25775,   2.71916E-03
C:/temp/dataset/4/25_15.odb,Step-1,Increment      1: Step Time =    1.000,"PART-1-1",           737,       2.98438,   116.081E-03,            0.,NA,NA,"",       2.80050,      -2.55369,      -1.14955,   3.94403E-03
C:/temp/dataset/4/25_15.odb,Step-1,Increment      1: Step Time =    1.000,"PART-1-1",           738,      -8.25937,       5.01848,            0.,NA,NA,"",       4.24996,      -3.15181,      -2.85101,   21.5995E-06
C:/temp/dataset/4/25_15.odb,Step-1,Increment      1: Step Time =    1.000,"PART-1-1",           739,      -2.78312,       1.01462,            0.,NA,NA,"",       3.30256,      -2.62458,      -2.00461,   321.203E-06
C:/temp/dataset/4/25_15.odb,Step-1,Increment      1: Step Time =    1.000,"PART-1-1",           740,      -4.31499,   913.536E-03,            0.,NA,NA,"",       3.41876,      -2.59290,      -2.22818,   252.710E-06
C:/temp/dataset/4/25_15.odb,Step-1,Increment      1: Step Time =    1.000,"PART-1-1",           741,      -4.23975,  -195.042E-03,            0.,NA,NA,"",       3.28242,      -2.43119,      -2.20536,   269.213E-06
C:/temp/dataset/4/25_15.odb,Step-1,Increment      1: Step Time =    1.000,"PART-1-1",           742,      -8.52646,       20.5688,            0.,NA,NA,"",       6.23182,      -5.42974,      -3.05835,   54.6106E-09
C:/temp/dataset/4/25_15.odb,Step-1,Increment      1: Step Time =    1.000,"PART-1-1",           743,       8.09873,      -15.2435,            0.,NA,NA,"",   721.348E-03,  -698.634E-03,  -179.593E-03,   10.6853E-03
C:/temp/dataset/4/25_15.odb,Step-1,Increment      1: Step Time =    1.000,"PART-1-1",           744,       8.99676,       14.2096,            0.,NA,NA,"",       4.89731,      -4.87347,  -482.598E-03,   3.34095E-03
C:/temp/dataset/4/25_15.odb,Step-1,Increment      1: Step Time =    1.000,"PART-1-1",           745,       11.0169,       14.0599,            0.,NA,NA,"",       4.87901,      -4.87721,  -132.825E-03,   3.31585E-03
C:/temp/dataset/4/25_15.odb,Step-1,Increment      1: Step Time =    1.000,"PART-1-1",           746,      -7.91902,       15.6847,            0.,NA,NA,"",       5.54828,      -4.71994,      -2.91643,   220.704E-09
C:/temp/dataset/4/25_15.odb,Step-1,Increment      1: Step Time =    1.000,"PART-1-1",           747,      -11.9968,       14.1876,            0.,NA,NA,"",       5.66538,      -4.45625,      -3.49834,   450.269E-09
C:/temp/dataset/4/25_15.odb,Step-1,Increment      1: Step Time =    1.000,"PART-1-1",           748,      -11.1175,       8.79310,            0.,NA,NA,"",       4.94623,      -3.67453,      -3.31104,   2.07289E-06
C:/temp/dataset/4/25_15.odb,Step-1,Increment      1: Step Time =    1.000,"PART-1-1",           749,       10.6592,      -6.44981,            0.,NA,NA,"",       1.67995,      -1.67988,   14.9422E-03,   5.86005E-03
C:/temp/dataset/4/25_15.odb,Step-1,Increment      1: Step Time =    1.000,"PART-1-1",           750,      -10.7894,       23.3985,            0.,NA,NA,"",       6.75117,      -5.82031,      -3.42087,   52.4116E-09
C:/temp/dataset/4/25_15.odb,Step-1,Increment      1: Step Time =    1.000,"PART-1-1",           751,       10.0228,      -25.8019,            0.,NA,NA,"",   56.6045E-03,  -56.5869E-03,   1.41139E-03,   3.32917E-03
C:/temp/dataset/4/25_15.odb,Step-1,Increment      1: Step Time =    1.000,"PART-1-1",           752,       10.9542,      -24.8826,            0.,NA,NA,"",   94.2660E-03,  -89.2512E-03,   30.3364E-03,   7.73529E-03
C:/temp/dataset/4/25_15.odb,Step-1,Increment      1: Step Time =    1.000,"PART-1-1",           753,       11.8371,      -2.37854,            0.,NA,NA,"",       2.25962,      -2.25469,   149.187E-03,   7.49886E-03
C:/temp/dataset/4/25_15.odb,Step-1,Increment      1: Step Time =    1.000,"PART-1-1",           754,       11.6235,      -5.02753,            0.,NA,NA,"",       1.88486,      -1.88031,   130.822E-03,   8.39579E-03
C:/temp/dataset/4/25_15.odb,Step-1,Increment      1: Step Time =    1.000,"PART-1-1",           755,      -12.1333,       7.86930,            0.,NA,NA,"",       4.93456,      -3.52805,      -3.45003,   1.83634E-06
C:/temp/dataset/4/25_15.odb,Step-1,Increment      1: Step Time =    1.000,"PART-1-1",           756,      -12.0768,       9.95169,            0.,NA,NA,"",       5.16734,      -3.83409,      -3.46427,   1.79108E-06
C:/temp/dataset/4/25_15.odb,Step-1,Increment      1: Step Time =    1.000,"PART-1-1",           757,       8.68743,       3.64563,            0.,NA,NA,"",       3.13773,      -3.11611,  -367.727E-03,   2.40962E-03
C:/temp/dataset/4/25_15.odb,Step-1,Increment      1: Step Time =    1.000,"PART-1-1",           758,       6.61848,       3.66599,            0.,NA,NA,"",       3.17375,      -3.09989,  -680.720E-03,   7.82344E-03
C:/temp/dataset/4/25_15.odb,Step-1,Increment      1: Step Time =    1.000,"PART-1-1",           759,       4.71579,   65.6079E-03,            0.,NA,NA,"",       2.71093,      -2.55900,  -894.792E-03,   7.45935E-03
C:/temp/dataset/4/25_15.odb,Step-1,Increment      1: Step Time =    1.000,"PART-1-1",           760,       3.89104,   957.250E-03,            0.,NA,NA,"",       2.87447,      -2.68367,      -1.02981,   6.01359E-03
C:/temp/dataset/4/25_15.odb,Step-1,Increment      1: Step Time =    1.000,"PART-1-1",           761,      -12.0363,       12.0623,            0.,NA,NA,"",       5.41221,      -4.14410,      -3.48115,   1.04945E-06
C:/temp/dataset/4/25_15.odb,Step-1,Increment      1: Step Time =    1.000,"PART-1-1",           762,      -12.1964,       5.82098,            0.,NA,NA,"",       4.71456,      -3.22695,      -3.43714,   1.63690E-06
C:/temp/dataset/4/25_15.odb,Step-1,Increment      1: Step Time =    1.000,"PART-1-1",           763,      -11.2570,       4.81016,            0.,NA,NA,"",       4.51162,      -3.08885,      -3.28842,   4.75844E-06
C:/temp/dataset/4/25_15.odb,Step-1,Increment      1: Step Time =    1.000,"PART-1-1",           764,      -10.5260,       3.94381,            0.,NA,NA,"",       4.34508,      -2.96970,      -3.17184,   10.9483E-06
C:/temp/dataset/4/25_15.odb,Step-1,Increment      1: Step Time =    1.000,"PART-1-1",           765,      -9.56326,       4.76486,            0.,NA,NA,"",       4.34188,      -3.10052,      -3.03952,   10.9860E-06
C:/temp/dataset/4/25_15.odb,Step-1,Increment      1: Step Time =    1.000,"PART-1-1",           766,      -9.32737,       3.44699,            0.,NA,NA,"",       4.17266,      -2.90980,      -2.99067,   22.4584E-06
C:/temp/dataset/4/25_15.odb,Step-1,Increment      1: Step Time =    1.000,"PART-1-1",           767,       11.5413,      -26.4438,            0.,NA,NA,"",   55.4961E-03,  -44.0476E-03,   33.7583E-03,   11.8108E-03
C:/temp/dataset/4/25_15.odb,Step-1,Increment      1: Step Time =    1.000,"PART-1-1",           768,       5.97241,      -3.36228,            0.,NA,NA,"",       2.16783,      -2.06972,  -644.755E-03,   12.0176E-03
C:/temp/dataset/4/25_15.odb,Step-1,Increment      1: Step Time =    1.000,"PART-1-1",           769,       11.9304,       22.2704,            0.,NA,NA,"",       6.38050,      -6.37978,  -95.8410E-03,   2.87692E-03
C:/temp/dataset/4/25_15.odb,Step-1,Increment      1: Step Time =    1.000,"PART-1-1",           770,      -3.95064,       2.12654,            0.,NA,NA,"",       3.53327,      -2.77456,      -2.18765,   241.347E-06
C:/temp/dataset/4/25_15.odb,Step-1,Increment      1: Step Time =    1.000,"PART-1-1",           771,       12.1361,      -19.7979,            0.,NA,NA,"",   379.503E-03,  -357.758E-03,   126.614E-03,   13.8178E-03
C:/temp/dataset/4/25_15.odb,Step-1,Increment      1: Step Time =    1.000,"PART-1-1",           772,       12.1156,      -17.4436,            0.,NA,NA,"",   548.958E-03,  -528.925E-03,   146.948E-03,   12.9837E-03
C:/temp/dataset/4/25_15.odb,Step-1,Increment      1: Step Time =    1.000,"PART-1-1",           773,       11.8489,      -7.73518,            0.,NA,NA,"",       1.53662,      -1.52803,   162.279E-03,   9.50800E-03
C:/temp/dataset/4/25_15.odb,Step-1,Increment      1: Step Time =    1.000,"PART-1-1",           774,       11.9658,      -10.2357,            0.,NA,NA,"",       1.24102,      -1.22900,   172.305E-03,   10.3228E-03
C:/temp/dataset/4/25_15.odb,Step-1,Increment      1: Step Time =    1.000,"PART-1-1",           775,       10.7237,      -1.11081,            0.,NA,NA,"",       2.42641,      -2.42637,  -13.4951E-03,   4.41661E-03
C:/temp/dataset/4/25_15.odb,Step-1,Increment      1: Step Time =    1.000,"PART-1-1",           776,       11.9194,       10.4262,            0.,NA,NA,"",       4.26088,      -4.26037,   65.4052E-03,   4.81056E-03
C:/temp/dataset/4/25_15.odb,Step-1,Increment      1: Step Time =    1.000,"PART-1-1",           777,       11.9945,       12.8006,            0.,NA,NA,"",       4.67190,      -4.67162,   50.8877E-03,   4.37183E-03
C:/temp/dataset/4/25_15.odb,Step-1,Increment      1: Step Time =    1.000,"PART-1-1",           778,       12.0317,      -12.6649,            0.,NA,NA,"",   980.026E-03,  -965.059E-03,   170.628E-03,   11.1873E-03
C:/temp/dataset/4/25_15.odb,Step-1,Increment      1: Step Time =    1.000,"PART-1-1",           779,       12.0352,       15.1685,            0.,NA,NA,"",       5.09032,      -5.09024,   27.9394E-03,   3.86931E-03
C:/temp/dataset/4/25_15.odb,Step-1,Increment      1: Step Time =    1.000,"PART-1-1",           780,      -7.80161,      -2.23284,            0.,NA,NA,"",       3.42094,      -2.09334,      -2.70569,   60.3509E-06
C:/temp/dataset/4/25_15.odb,Step-1,Increment      1: Step Time =    1.000,"PART-1-1",           781,      -8.87876,  -905.543E-03,            0.,NA,NA,"",       3.66938,      -2.27637,      -2.87793,   46.3042E-06
C:/temp/dataset/4/25_15.odb,Step-1,Increment      1: Step Time =    1.000,"PART-1-1",           782,      -7.16649,      -1.00336,            0.,NA,NA,"",       3.47793,      -2.28059,      -2.62582,   92.6606E-06
C:/temp/dataset/4/25_15.odb,Step-1,Increment      1: Step Time =    1.000,"PART-1-1",           783,      -7.09692,   257.153E-03,            0.,NA,NA,"",       3.60483,      -2.46624,      -2.62916,   94.1308E-06
C:/temp/dataset/4/25_15.odb,Step-1,Increment      1: Step Time =    1.000,"PART-1-1",           784,      -5.74923,      -1.63131,            0.,NA,NA,"",       3.26671,      -2.20387,      -2.41130,   141.194E-06
C:/temp/dataset/4/25_15.odb,Step-1,Increment      1: Step Time =    1.000,"PART-1-1",           785,      -5.66693,  -67.3201E-03,            0.,NA,NA,"",       3.42966,      -2.43425,      -2.41598,   172.752E-06
C:/temp/dataset/4/25_15.odb,Step-1,Increment      1: Step Time =    1.000,"PART-1-1",           786,      -5.46941,       1.35113,            0.,NA,NA,"",       3.57256,      -2.64438,      -2.40217,   165.139E-06
C:/temp/dataset/4/25_15.odb,Step-1,Increment      1: Step Time =    1.000,"PART-1-1",           787,       12.0849,      -15.0650,            0.,NA,NA,"",   749.519E-03,  -731.748E-03,   162.244E-03,   12.1222E-03
C:/temp/dataset/4/25_15.odb,Step-1,Increment      1: Step Time =    1.000,"PART-1-1",           788,       7.01212,      -4.44648,            0.,NA,NA,"",       1.97935,      -1.92093,  -477.363E-03,   9.67838E-03
C:/temp/dataset/4/25_15.odb,Step-1,Increment      1: Step Time =    1.000,"PART-1-1",           789,       7.64174,      -3.33281,            0.,NA,NA,"",       2.12206,      -2.08186,  -411.079E-03,   8.61129E-03
C:/temp/dataset/4/25_15.odb,Step-1,Increment      1: Step Time =    1.000,"PART-1-1",           790,       6.60203,      -2.24861,            0.,NA,NA,"",       2.30598,      -2.23272,  -576.614E-03,   9.85408E-03
C:/temp/dataset/4/25_15.odb,Step-1,Increment      1: Step Time =    1.000,"PART-1-1",           791,       6.68626,       2.15992,            0.,NA,NA,"",       2.94848,      -2.87730,  -643.962E-03,   7.96146E-03
C:/temp/dataset/4/25_15.odb,Step-1,Increment      1: Step Time =    1.000,"PART-1-1",           792,       12.0103,       19.9021,            0.,NA,NA,"",       5.94585,      -5.94569,  -44.3004E-03,   2.95545E-03
C:/temp/dataset/4/25_15.odb,Step-1,Increment      1: Step Time =    1.000,"PART-1-1",           793,       12.0305,       17.5416,            0.,NA,NA,"",       5.51636,      -5.51636,  -5.61119E-03,   3.34088E-03
C:/temp/dataset/4/25_15.odb,Step-1,Increment      1: Step Time =    1.000,"PART-1-1",           794,       6.09271,      -1.14349,            0.,NA,NA,"",       2.48305,      -2.39055,  -671.431E-03,   9.44846E-03
C:/temp/dataset/4/25_15.odb,Step-1,Increment      1: Step Time =    1.000,"PART-1-1",           795,       7.56053,      -1.65505,            0.,NA,NA,"",       2.36662,      -2.32326,  -450.954E-03,   8.29605E-03
C:/temp/dataset/4/25_15.odb,Step-1,Increment      1: Step Time =    1.000,"PART-1-1",           796,       7.05122,  -549.935E-03,            0.,NA,NA,"",       2.54033,      -2.48158,  -543.184E-03,   8.38306E-03
C:/temp/dataset/4/25_15.odb,Step-1,Increment      1: Step Time =    1.000,"PART-1-1",           797,       5.28588,       1.87348,            0.,NA,NA,"",       2.95008,      -2.82699,  -843.265E-03,   8.64491E-03
C:/temp/dataset/4/25_15.odb,Step-1,Increment      1: Step Time =    1.000,"PART-1-1",           798,       5.70847,   325.226E-03,            0.,NA,NA,"",       2.70954,      -2.60247,  -754.178E-03,   8.19546E-03
C:/temp/dataset/4/25_15.odb,Step-1,Increment      1: Step Time =    1.000,"PART-1-1",           799,       7.10885,   611.668E-03,            0.,NA,NA,"",       2.70925,      -2.65179,  -555.031E-03,   7.71512E-03
C:/temp/dataset/4/25_15.odb,Step-1,Increment      1: Step Time =    1.000,"PART-1-1",           800,       9.00326,      -1.31280,            0.,NA,NA,"",       2.39529,      -2.38192,  -252.708E-03,   5.26911E-03
C:/temp/dataset/4/25_15.odb,Step-1,Increment      1: Step Time =    1.000,"PART-1-1",           801,       8.22155,  -652.532E-03,            0.,NA,NA,"",       2.50103,      -2.47304,  -373.125E-03,   6.43574E-03
C:/temp/dataset/4/25_15.odb,Step-1,Increment      1: Step Time =    1.000,"PART-1-1",           802,       8.34224,      -2.31533,            0.,NA,NA,"",       2.25650,      -2.23214,  -330.621E-03,   6.94104E-03
C:/temp/dataset/4/25_15.odb,Step-1,Increment      1: Step Time =    1.000,"PART-1-1",           803,       2.82445,       2.06443,            0.,NA,NA,"",       3.08062,      -2.83752,      -1.19946,   3.45682E-03
