ODB Name,Step,Frame,Part Instance Name,    êﬂì_ÉâÉxÉã,X,Y,Z,Section Name,Material Name,Section Point,   U-Magnitude,          U-U1,          U-U2,       S-Mises
C:/temp/dataset/4/26_05.odb,Step-1,Increment      1: Step Time =    1.000,"PART-1-1",             1,           -5.,           30.,            0.,NA,NA,"",       2.03623,      -1.93460,  -635.249E-03,   35.7113E-09
C:/temp/dataset/4/26_05.odb,Step-1,Increment      1: Step Time =    1.000,"PART-1-1",             2,          -15.,           30.,            0.,NA,NA,"",       2.18879,      -1.92645,      -1.03903,   35.9894E-09
C:/temp/dataset/4/26_05.odb,Step-1,Increment      1: Step Time =    1.000,"PART-1-1",             3,          -15.,         21.25,            0.,NA,NA,"",       1.88137,      -1.57314,      -1.03190,   33.6380E-09
C:/temp/dataset/4/26_05.odb,Step-1,Increment      1: Step Time =    1.000,"PART-1-1",             4,          -15.,          12.5,            0.,NA,NA,"",       1.59314,      -1.21982,      -1.02476,   171.884E-09
C:/temp/dataset/4/26_05.odb,Step-1,Increment      1: Step Time =    1.000,"PART-1-1",             5,          -15.,          3.75,            0.,NA,NA,"",       1.33656,  -866.519E-03,      -1.01762,   1.16387E-06
C:/temp/dataset/4/26_05.odb,Step-1,Increment      1: Step Time =    1.000,"PART-1-1",             6,          -15.,           -5.,            0.,NA,NA,"",       1.13336,  -513.255E-03,      -1.01048,   105.364E-09
C:/temp/dataset/4/26_05.odb,Step-1,Increment      1: Step Time =    1.000,"PART-1-1",             7,          -10.,           -5.,            0.,NA,NA,"",   959.953E-03,  -517.332E-03,  -808.628E-03,   1.50587E-06
C:/temp/dataset/4/26_05.odb,Step-1,Increment      1: Step Time =    1.000,"PART-1-1",             8,           -5.,           -5.,            0.,NA,NA,"",   800.010E-03,  -521.348E-03,  -606.805E-03,   45.3319E-06
C:/temp/dataset/4/26_05.odb,Step-1,Increment      1: Step Time =    1.000,"PART-1-1",             9,            0.,           -5.,            0.,NA,NA,"",   662.623E-03,  -524.823E-03,  -404.513E-03,   385.515E-06
C:/temp/dataset/4/26_05.odb,Step-1,Increment      1: Step Time =    1.000,"PART-1-1",            10,            5.,           -5.,            0.,NA,NA,"",   562.868E-03,  -529.141E-03,  -191.912E-03,   5.91205E-03
C:/temp/dataset/4/26_05.odb,Step-1,Increment      1: Step Time =    1.000,"PART-1-1",            11,            5.,        -11.25,            0.,NA,NA,"",   354.498E-03,  -320.573E-03,  -151.333E-03,   6.74406E-03
C:/temp/dataset/4/26_05.odb,Step-1,Increment      1: Step Time =    1.000,"PART-1-1",            12,            5.,         -17.5,            0.,NA,NA,"",   189.779E-03,  -156.457E-03,  -107.410E-03,   8.14241E-03
C:/temp/dataset/4/26_05.odb,Step-1,Increment      1: Step Time =    1.000,"PART-1-1",            13,            5.,        -23.75,            0.,NA,NA,"",   75.1863E-03,  -49.2638E-03,  -56.7984E-03,   9.55342E-03
C:/temp/dataset/4/26_05.odb,Step-1,Increment      1: Step Time =    1.000,"PART-1-1",            14,            5.,          -30.,            0.,NA,NA,"",            0.,  -3.28171E-39,  -6.26518E-39,   12.2533E-03
C:/temp/dataset/4/26_05.odb,Step-1,Increment      1: Step Time =    1.000,"PART-1-1",            15,           15.,          -30.,            0.,NA,NA,"",            0.,  -3.39390E-39,   6.41770E-39,   12.1261E-03
C:/temp/dataset/4/26_05.odb,Step-1,Increment      1: Step Time =    1.000,"PART-1-1",            16,           15.,         -22.5,            0.,NA,NA,"",   94.6208E-03,  -66.7821E-03,   67.0317E-03,   9.31039E-03
C:/temp/dataset/4/26_05.odb,Step-1,Increment      1: Step Time =    1.000,"PART-1-1",            17,           15.,          -15.,            0.,NA,NA,"",   250.956E-03,  -219.069E-03,   122.423E-03,   7.61561E-03
C:/temp/dataset/4/26_05.odb,Step-1,Increment      1: Step Time =    1.000,"PART-1-1",            18,           15.,          -7.5,            0.,NA,NA,"",   477.960E-03,  -448.809E-03,   164.367E-03,   5.78635E-03
C:/temp/dataset/4/26_05.odb,Step-1,Increment      1: Step Time =    1.000,"PART-1-1",            19,           15.,            0.,            0.,NA,NA,"",   759.732E-03,  -735.752E-03,   189.369E-03,   3.37865E-03
C:/temp/dataset/4/26_05.odb,Step-1,Increment      1: Step Time =    1.000,"PART-1-1",            20,           15.,           7.5,            0.,NA,NA,"",       1.07267,      -1.05348,   202.007E-03,   2.43251E-03
C:/temp/dataset/4/26_05.odb,Step-1,Increment      1: Step Time =    1.000,"PART-1-1",            21,           15.,           15.,            0.,NA,NA,"",       1.41067,      -1.39555,   205.989E-03,   962.341E-06
C:/temp/dataset/4/26_05.odb,Step-1,Increment      1: Step Time =    1.000,"PART-1-1",            22,           15.,          22.5,            0.,NA,NA,"",       1.75438,      -1.74295,   199.960E-03,   267.777E-06
C:/temp/dataset/4/26_05.odb,Step-1,Increment      1: Step Time =    1.000,"PART-1-1",            23,           15.,           30.,            0.,NA,NA,"",       2.09591,      -2.08705,   192.454E-03,   2.31360E-06
C:/temp/dataset/4/26_05.odb,Step-1,Increment      1: Step Time =    1.000,"PART-1-1",            24,            5.,           30.,            0.,NA,NA,"",       2.09376,      -2.07659,  -267.534E-03,   1.52460E-06
C:/temp/dataset/4/26_05.odb,Step-1,Increment      1: Step Time =    1.000,"PART-1-1",            25,            5.,         23.75,            0.,NA,NA,"",       1.80782,      -1.78888,  -261.033E-03,   47.4547E-06
C:/temp/dataset/4/26_05.odb,Step-1,Increment      1: Step Time =    1.000,"PART-1-1",            26,            5.,          17.5,            0.,NA,NA,"",       1.52116,      -1.49981,  -253.963E-03,   353.941E-06
C:/temp/dataset/4/26_05.odb,Step-1,Increment      1: Step Time =    1.000,"PART-1-1",            27,            5.,         11.25,            0.,NA,NA,"",       1.23564,      -1.21171,  -242.015E-03,   1.64601E-03
C:/temp/dataset/4/26_05.odb,Step-1,Increment      1: Step Time =    1.000,"PART-1-1",            28,            5.,            5.,            0.,NA,NA,"",   957.735E-03,  -932.216E-03,  -219.612E-03,   4.20314E-03
C:/temp/dataset/4/26_05.odb,Step-1,Increment      1: Step Time =    1.000,"PART-1-1",            29,            0.,            5.,            0.,NA,NA,"",       1.01641,  -928.570E-03,  -413.328E-03,   322.566E-06
C:/temp/dataset/4/26_05.odb,Step-1,Increment      1: Step Time =    1.000,"PART-1-1",            30,           -5.,            5.,            0.,NA,NA,"",       1.11079,  -925.109E-03,  -614.840E-03,   34.0753E-06
C:/temp/dataset/4/26_05.odb,Step-1,Increment      1: Step Time =    1.000,"PART-1-1",            31,           -5.,         11.25,            0.,NA,NA,"",       1.33074,      -1.17751,  -619.957E-03,   329.496E-09
C:/temp/dataset/4/26_05.odb,Step-1,Increment      1: Step Time =    1.000,"PART-1-1",            32,           -5.,          17.5,            0.,NA,NA,"",       1.56052,      -1.42987,  -625.055E-03,   44.1383E-09
C:/temp/dataset/4/26_05.odb,Step-1,Increment      1: Step Time =    1.000,"PART-1-1",            33,           -5.,         23.75,            0.,NA,NA,"",       1.79639,      -1.68224,  -630.152E-03,   38.7011E-09
C:/temp/dataset/4/26_05.odb,Step-1,Increment      1: Step Time =    1.000,"PART-1-1",            34,          -7.5,           30.,            0.,NA,NA,"",       2.06804,      -1.93256,  -736.195E-03,   34.2981E-09
C:/temp/dataset/4/26_05.odb,Step-1,Increment      1: Step Time =    1.000,"PART-1-1",            35,          -10.,           30.,            0.,NA,NA,"",       2.10422,      -1.93053,  -837.142E-03,   35.2010E-09
C:/temp/dataset/4/26_05.odb,Step-1,Increment      1: Step Time =    1.000,"PART-1-1",            36,         -12.5,           30.,            0.,NA,NA,"",       2.14454,      -1.92849,  -938.088E-03,   36.2115E-09
C:/temp/dataset/4/26_05.odb,Step-1,Increment      1: Step Time =    1.000,"PART-1-1",            37,          -15.,       27.8125,            0.,NA,NA,"",       2.11059,      -1.83812,      -1.03725,   34.2319E-09
C:/temp/dataset/4/26_05.odb,Step-1,Increment      1: Step Time =    1.000,"PART-1-1",            38,          -15.,        25.625,            0.,NA,NA,"",       2.03321,      -1.74979,      -1.03547,   33.8770E-09
C:/temp/dataset/4/26_05.odb,Step-1,Increment      1: Step Time =    1.000,"PART-1-1",            39,          -15.,       23.4375,            0.,NA,NA,"",       1.95677,      -1.66146,      -1.03368,   33.6179E-09
C:/temp/dataset/4/26_05.odb,Step-1,Increment      1: Step Time =    1.000,"PART-1-1",            40,          -15.,       19.0625,            0.,NA,NA,"",       1.80715,      -1.48481,      -1.03011,   33.9374E-09
C:/temp/dataset/4/26_05.odb,Step-1,Increment      1: Step Time =    1.000,"PART-1-1",            41,          -15.,        16.875,            0.,NA,NA,"",       1.73425,      -1.39648,      -1.02833,   31.5646E-09
C:/temp/dataset/4/26_05.odb,Step-1,Increment      1: Step Time =    1.000,"PART-1-1",            42,          -15.,       14.6875,            0.,NA,NA,"",       1.66285,      -1.30815,      -1.02655,   48.0488E-09
C:/temp/dataset/4/26_05.odb,Step-1,Increment      1: Step Time =    1.000,"PART-1-1",            43,          -15.,       10.3125,            0.,NA,NA,"",       1.52537,      -1.13149,      -1.02298,   466.812E-09
C:/temp/dataset/4/26_05.odb,Step-1,Increment      1: Step Time =    1.000,"PART-1-1",            44,          -15.,         8.125,            0.,NA,NA,"",       1.45981,      -1.04317,      -1.02119,   932.483E-09
C:/temp/dataset/4/26_05.odb,Step-1,Increment      1: Step Time =    1.000,"PART-1-1",            45,          -15.,        5.9375,            0.,NA,NA,"",       1.39675,  -954.841E-03,      -1.01941,   1.29062E-06
C:/temp/dataset/4/26_05.odb,Step-1,Increment      1: Step Time =    1.000,"PART-1-1",            46,          -15.,        1.5625,            0.,NA,NA,"",       1.27965,  -778.199E-03,      -1.01583,   779.447E-09
C:/temp/dataset/4/26_05.odb,Step-1,Increment      1: Step Time =    1.000,"PART-1-1",            47,          -15.,     -625.E-03,            0.,NA,NA,"",       1.22647,  -689.883E-03,      -1.01405,   487.826E-09
C:/temp/dataset/4/26_05.odb,Step-1,Increment      1: Step Time =    1.000,"PART-1-1",            48,          -15.,       -2.8125,            0.,NA,NA,"",       1.17753,  -601.568E-03,      -1.01227,   421.680E-09
C:/temp/dataset/4/26_05.odb,Step-1,Increment      1: Step Time =    1.000,"PART-1-1",            49,         -12.5,           -5.,            0.,NA,NA,"",       1.04538,  -515.293E-03,  -909.553E-03,   629.352E-09
C:/temp/dataset/4/26_05.odb,Step-1,Increment      1: Step Time =    1.000,"PART-1-1",            50,          -7.5,           -5.,            0.,NA,NA,"",   877.836E-03,  -519.362E-03,  -707.714E-03,   6.52568E-06
C:/temp/dataset/4/26_05.odb,Step-1,Increment      1: Step Time =    1.000,"PART-1-1",            51,          -2.5,           -5.,            0.,NA,NA,"",   727.771E-03,  -523.228E-03,  -505.848E-03,   113.427E-06
C:/temp/dataset/4/26_05.odb,Step-1,Increment      1: Step Time =    1.000,"PART-1-1",            52,           2.5,           -5.,            0.,NA,NA,"",   606.557E-03,  -526.109E-03,  -301.864E-03,   1.08600E-03
C:/temp/dataset/4/26_05.odb,Step-1,Increment      1: Step Time =    1.000,"PART-1-1",            53,            5.,      -7.08333,            0.,NA,NA,"",   489.070E-03,  -455.912E-03,  -177.013E-03,   6.48681E-03
C:/temp/dataset/4/26_05.odb,Step-1,Increment      1: Step Time =    1.000,"PART-1-1",            54,            5.,      -9.16667,            0.,NA,NA,"",   419.688E-03,  -386.070E-03,  -164.585E-03,   6.26154E-03
C:/temp/dataset/4/26_05.odb,Step-1,Increment      1: Step Time =    1.000,"PART-1-1",            55,            5.,      -13.3333,            0.,NA,NA,"",   294.238E-03,  -260.172E-03,  -137.428E-03,   7.18902E-03
C:/temp/dataset/4/26_05.odb,Step-1,Increment      1: Step Time =    1.000,"PART-1-1",            56,            5.,      -15.4167,            0.,NA,NA,"",   239.250E-03,  -205.338E-03,  -122.788E-03,   7.66972E-03
C:/temp/dataset/4/26_05.odb,Step-1,Increment      1: Step Time =    1.000,"PART-1-1",            57,            5.,      -19.5833,            0.,NA,NA,"",   145.975E-03,  -113.908E-03,  -91.2881E-03,   8.61560E-03
C:/temp/dataset/4/26_05.odb,Step-1,Increment      1: Step Time =    1.000,"PART-1-1",            58,            5.,      -21.6667,            0.,NA,NA,"",   107.842E-03,  -78.0468E-03,  -74.4222E-03,   9.07386E-03
C:/temp/dataset/4/26_05.odb,Step-1,Increment      1: Step Time =    1.000,"PART-1-1",            59,            5.,      -25.8333,            0.,NA,NA,"",   47.4861E-03,  -27.7097E-03,  -38.5630E-03,   9.77642E-03
C:/temp/dataset/4/26_05.odb,Step-1,Increment      1: Step Time =    1.000,"PART-1-1",            60,            5.,      -27.9167,            0.,NA,NA,"",   23.9906E-03,  -13.3045E-03,  -19.9635E-03,   10.7372E-03
C:/temp/dataset/4/26_05.odb,Step-1,Increment      1: Step Time =    1.000,"PART-1-1",            61,           7.5,          -30.,            0.,NA,NA,"",            0.,  -447.279E-42,  -7.59730E-39,   3.86218E-03
C:/temp/dataset/4/26_05.odb,Step-1,Increment      1: Step Time =    1.000,"PART-1-1",            62,           10.,          -30.,            0.,NA,NA,"",            0.,   1.30787E-39,   121.874E-42,   1.29468E-03
C:/temp/dataset/4/26_05.odb,Step-1,Increment      1: Step Time =    1.000,"PART-1-1",            63,          12.5,          -30.,            0.,NA,NA,"",            0.,  -2.51209E-39,   7.06821E-39,   3.95907E-03
C:/temp/dataset/4/26_05.odb,Step-1,Increment      1: Step Time =    1.000,"PART-1-1",            64,           15.,         -27.5,            0.,NA,NA,"",   28.4514E-03,  -15.8243E-03,   23.6447E-03,   10.5742E-03
C:/temp/dataset/4/26_05.odb,Step-1,Increment      1: Step Time =    1.000,"PART-1-1",            65,           15.,          -25.,            0.,NA,NA,"",   58.2998E-03,  -35.9895E-03,   45.8652E-03,   9.65257E-03
C:/temp/dataset/4/26_05.odb,Step-1,Increment      1: Step Time =    1.000,"PART-1-1",            66,           15.,          -20.,            0.,NA,NA,"",   138.567E-03,  -107.893E-03,   86.9474E-03,   8.72366E-03
C:/temp/dataset/4/26_05.odb,Step-1,Increment      1: Step Time =    1.000,"PART-1-1",            67,           15.,         -17.5,            0.,NA,NA,"",   190.667E-03,  -158.879E-03,   105.411E-03,   8.17500E-03
C:/temp/dataset/4/26_05.odb,Step-1,Increment      1: Step Time =    1.000,"PART-1-1",            68,           15.,         -12.5,            0.,NA,NA,"",   319.204E-03,  -287.851E-03,   137.960E-03,   7.05814E-03
C:/temp/dataset/4/26_05.odb,Step-1,Increment      1: Step Time =    1.000,"PART-1-1",            69,           15.,          -10.,            0.,NA,NA,"",   395.041E-03,  -364.633E-03,   151.987E-03,   6.47142E-03
C:/temp/dataset/4/26_05.odb,Step-1,Increment      1: Step Time =    1.000,"PART-1-1",            70,           15.,           -5.,            0.,NA,NA,"",   567.185E-03,  -539.573E-03,   174.814E-03,   4.94792E-03
C:/temp/dataset/4/26_05.odb,Step-1,Increment      1: Step Time =    1.000,"PART-1-1",            71,           15.,          -2.5,            0.,NA,NA,"",   661.537E-03,  -635.697E-03,   183.084E-03,   4.06654E-03
C:/temp/dataset/4/26_05.odb,Step-1,Increment      1: Step Time =    1.000,"PART-1-1",            72,           15.,           2.5,            0.,NA,NA,"",   861.003E-03,  -838.788E-03,   194.321E-03,   2.98430E-03
C:/temp/dataset/4/26_05.odb,Step-1,Increment      1: Step Time =    1.000,"PART-1-1",            73,           15.,            5.,            0.,NA,NA,"",   965.279E-03,  -944.645E-03,   198.517E-03,   2.74038E-03
C:/temp/dataset/4/26_05.odb,Step-1,Increment      1: Step Time =    1.000,"PART-1-1",            74,           15.,           10.,            0.,NA,NA,"",       1.18297,      -1.16516,   204.528E-03,   1.99185E-03
C:/temp/dataset/4/26_05.odb,Step-1,Increment      1: Step Time =    1.000,"PART-1-1",            75,           15.,          12.5,            0.,NA,NA,"",       1.29569,      -1.27923,   205.847E-03,   1.49894E-03
C:/temp/dataset/4/26_05.odb,Step-1,Increment      1: Step Time =    1.000,"PART-1-1",            76,           15.,          17.5,            0.,NA,NA,"",       1.52621,      -1.51243,   204.591E-03,   639.721E-06
C:/temp/dataset/4/26_05.odb,Step-1,Increment      1: Step Time =    1.000,"PART-1-1",            77,           15.,           20.,            0.,NA,NA,"",       1.64089,      -1.62834,   202.534E-03,   501.325E-06
C:/temp/dataset/4/26_05.odb,Step-1,Increment      1: Step Time =    1.000,"PART-1-1",            78,           15.,           25.,            0.,NA,NA,"",       1.86771,      -1.85722,   197.636E-03,   109.147E-06
C:/temp/dataset/4/26_05.odb,Step-1,Increment      1: Step Time =    1.000,"PART-1-1",            79,           15.,          27.5,            0.,NA,NA,"",       1.98174,      -1.97211,   195.079E-03,   21.6980E-06
C:/temp/dataset/4/26_05.odb,Step-1,Increment      1: Step Time =    1.000,"PART-1-1",            80,          12.5,           30.,            0.,NA,NA,"",       2.08586,      -2.08442,   77.5308E-03,   16.2888E-06
C:/temp/dataset/4/26_05.odb,Step-1,Increment      1: Step Time =    1.000,"PART-1-1",            81,           10.,           30.,            0.,NA,NA,"",       2.08217,      -2.08183,  -37.4295E-03,   26.7303E-06
C:/temp/dataset/4/26_05.odb,Step-1,Increment      1: Step Time =    1.000,"PART-1-1",            82,           7.5,           30.,            0.,NA,NA,"",       2.08482,      -2.07923,  -152.470E-03,   13.0048E-06
C:/temp/dataset/4/26_05.odb,Step-1,Increment      1: Step Time =    1.000,"PART-1-1",            83,            5.,       27.9167,            0.,NA,NA,"",       1.99841,      -1.98072,  -265.331E-03,   10.0819E-06
C:/temp/dataset/4/26_05.odb,Step-1,Increment      1: Step Time =    1.000,"PART-1-1",            84,            5.,       25.8333,            0.,NA,NA,"",       1.90312,      -1.88484,  -263.162E-03,   33.6434E-06
C:/temp/dataset/4/26_05.odb,Step-1,Increment      1: Step Time =    1.000,"PART-1-1",            85,            5.,       21.6667,            0.,NA,NA,"",       1.71242,      -1.69274,  -258.889E-03,   15.7087E-06
C:/temp/dataset/4/26_05.odb,Step-1,Increment      1: Step Time =    1.000,"PART-1-1",            86,            5.,       19.5833,            0.,NA,NA,"",       1.61686,      -1.59637,  -256.600E-03,   109.309E-06
C:/temp/dataset/4/26_05.odb,Step-1,Increment      1: Step Time =    1.000,"PART-1-1",            87,            5.,       15.4167,            0.,NA,NA,"",       1.42550,      -1.40327,  -250.754E-03,   715.923E-06
C:/temp/dataset/4/26_05.odb,Step-1,Increment      1: Step Time =    1.000,"PART-1-1",            88,            5.,       13.3333,            0.,NA,NA,"",       1.33019,      -1.30710,  -246.798E-03,   1.15378E-03
C:/temp/dataset/4/26_05.odb,Step-1,Increment      1: Step Time =    1.000,"PART-1-1",            89,            5.,       9.16667,            0.,NA,NA,"",       1.14218,      -1.11747,  -236.311E-03,   2.13378E-03
C:/temp/dataset/4/26_05.odb,Step-1,Increment      1: Step Time =    1.000,"PART-1-1",            90,            5.,       7.08333,            0.,NA,NA,"",       1.04990,      -1.02443,  -229.857E-03,   2.94814E-03
C:/temp/dataset/4/26_05.odb,Step-1,Increment      1: Step Time =    1.000,"PART-1-1",            91,           2.5,            5.,            0.,NA,NA,"",   981.300E-03,  -929.657E-03,  -314.147E-03,   859.059E-06
C:/temp/dataset/4/26_05.odb,Step-1,Increment      1: Step Time =    1.000,"PART-1-1",            92,          -2.5,            5.,            0.,NA,NA,"",       1.05989,  -926.965E-03,  -513.918E-03,   115.555E-06
C:/temp/dataset/4/26_05.odb,Step-1,Increment      1: Step Time =    1.000,"PART-1-1",            93,           -5.,       7.08333,            0.,NA,NA,"",       1.18268,      -1.00926,  -616.555E-03,   5.80169E-06
C:/temp/dataset/4/26_05.odb,Step-1,Increment      1: Step Time =    1.000,"PART-1-1",            94,           -5.,       9.16667,            0.,NA,NA,"",       1.25608,      -1.09338,  -618.256E-03,   1.66540E-06
C:/temp/dataset/4/26_05.odb,Step-1,Increment      1: Step Time =    1.000,"PART-1-1",            95,           -5.,       13.3333,            0.,NA,NA,"",       1.40647,      -1.26163,  -621.657E-03,   122.274E-09
C:/temp/dataset/4/26_05.odb,Step-1,Increment      1: Step Time =    1.000,"PART-1-1",            96,           -5.,       15.4167,            0.,NA,NA,"",       1.48311,      -1.34575,  -623.356E-03,   28.0710E-09
C:/temp/dataset/4/26_05.odb,Step-1,Increment      1: Step Time =    1.000,"PART-1-1",            97,           -5.,       19.5833,            0.,NA,NA,"",       1.63860,      -1.51399,  -626.754E-03,   43.4776E-09
C:/temp/dataset/4/26_05.odb,Step-1,Increment      1: Step Time =    1.000,"PART-1-1",            98,           -5.,       21.6667,            0.,NA,NA,"",       1.71724,      -1.59812,  -628.453E-03,   40.9380E-09
C:/temp/dataset/4/26_05.odb,Step-1,Increment      1: Step Time =    1.000,"PART-1-1",            99,           -5.,       25.8333,            0.,NA,NA,"",       1.87597,      -1.76636,  -631.851E-03,   37.3150E-09
C:/temp/dataset/4/26_05.odb,Step-1,Increment      1: Step Time =    1.000,"PART-1-1",           100,           -5.,       27.9167,            0.,NA,NA,"",       1.95593,      -1.85048,  -633.550E-03,   36.5969E-09
C:/temp/dataset/4/26_05.odb,Step-1,Increment      1: Step Time =    1.000,"PART-1-1",           101,       6.93475,       11.1046,            0.,NA,NA,"",       1.21571,      -1.20588,  -154.325E-03,   1.24753E-03
C:/temp/dataset/4/26_05.odb,Step-1,Increment      1: Step Time =    1.000,"PART-1-1",           102,       7.10183,      -21.7370,            0.,NA,NA,"",   81.9714E-03,  -70.4062E-03,  -41.9795E-03,   5.30841E-03
C:/temp/dataset/4/26_05.odb,Step-1,Increment      1: Step Time =    1.000,"PART-1-1",           103,      -7.18606,       25.6133,            0.,NA,NA,"",       1.89757,      -1.75569,  -719.941E-03,   36.1930E-09
C:/temp/dataset/4/26_05.odb,Step-1,Increment      1: Step Time =    1.000,"PART-1-1",           104,       7.08931,      -17.4629,            0.,NA,NA,"",   163.963E-03,  -151.723E-03,  -62.1608E-03,   4.77154E-03
C:/temp/dataset/4/26_05.odb,Step-1,Increment      1: Step Time =    1.000,"PART-1-1",           105,       7.11844,      -23.8299,            0.,NA,NA,"",   51.8734E-03,  -41.2548E-03,  -31.4466E-03,   5.54604E-03
C:/temp/dataset/4/26_05.odb,Step-1,Increment      1: Step Time =    1.000,"PART-1-1",           106,       7.34845,      -27.9642,            0.,NA,NA,"",   10.6187E-03,  -5.53814E-03,  -9.06014E-03,   5.73253E-03
C:/temp/dataset/4/26_05.odb,Step-1,Increment      1: Step Time =    1.000,"PART-1-1",           107,       7.18399,      -25.9216,            0.,NA,NA,"",   27.9014E-03,  -19.4213E-03,  -20.0326E-03,   5.89329E-03
C:/temp/dataset/4/26_05.odb,Step-1,Increment      1: Step Time =    1.000,"PART-1-1",           108,       7.00226,      -10.9532,            0.,NA,NA,"",   338.555E-03,  -325.739E-03,  -92.2692E-03,   4.03289E-03
C:/temp/dataset/4/26_05.odb,Step-1,Increment      1: Step Time =    1.000,"PART-1-1",           109,       6.93148,       25.8450,            0.,NA,NA,"",       1.89547,      -1.88744,  -174.237E-03,   19.3817E-06
C:/temp/dataset/4/26_05.odb,Step-1,Increment      1: Step Time =    1.000,"PART-1-1",           110,       6.95256,       21.7727,            0.,NA,NA,"",       1.70810,      -1.69972,  -168.938E-03,   106.983E-06
C:/temp/dataset/4/26_05.odb,Step-1,Increment      1: Step Time =    1.000,"PART-1-1",           111,       6.99069,       19.6693,            0.,NA,NA,"",       1.61085,      -1.60239,  -164.835E-03,   269.155E-06
C:/temp/dataset/4/26_05.odb,Step-1,Increment      1: Step Time =    1.000,"PART-1-1",           112,       6.98342,       13.2435,            0.,NA,NA,"",       1.31348,      -1.30418,  -156.102E-03,   982.581E-06
C:/temp/dataset/4/26_05.odb,Step-1,Increment      1: Step Time =    1.000,"PART-1-1",           113,       6.84904,       8.98858,            0.,NA,NA,"",       1.12041,      -1.10983,  -153.600E-03,   1.61550E-03
C:/temp/dataset/4/26_05.odb,Step-1,Increment      1: Step Time =    1.000,"PART-1-1",           114,      -7.00061,       11.3966,            0.,NA,NA,"",       1.37399,      -1.18180,  -700.859E-03,   400.472E-09
C:/temp/dataset/4/26_05.odb,Step-1,Increment      1: Step Time =    1.000,"PART-1-1",           115,      -6.87185,       17.5946,            0.,NA,NA,"",       1.59439,      -1.43216,  -700.714E-03,   33.9097E-09
C:/temp/dataset/4/26_05.odb,Step-1,Increment      1: Step Time =    1.000,"PART-1-1",           116,      -6.78696,       21.5686,            0.,NA,NA,"",       1.73995,      -1.59270,  -700.528E-03,   37.1126E-09
C:/temp/dataset/4/26_05.odb,Step-1,Increment      1: Step Time =    1.000,"PART-1-1",           117,      -6.92081,       23.5666,            0.,NA,NA,"",       1.81672,      -1.67327,  -707.562E-03,   36.7750E-09
C:/temp/dataset/4/26_05.odb,Step-1,Increment      1: Step Time =    1.000,"PART-1-1",           118,      -7.47694,       27.7553,            0.,NA,NA,"",       1.98260,      -1.84194,  -733.433E-03,   35.5994E-09
C:/temp/dataset/4/26_05.odb,Step-1,Increment      1: Step Time =    1.000,"PART-1-1",           119,       6.62973,      -6.72562,            0.,NA,NA,"",   481.842E-03,  -466.268E-03,  -121.514E-03,   3.76646E-03
C:/temp/dataset/4/26_05.odb,Step-1,Increment      1: Step Time =    1.000,"PART-1-1",           120,       7.00244,       17.5390,            0.,NA,NA,"",       1.51216,      -1.50349,  -161.693E-03,   487.419E-06
C:/temp/dataset/4/26_05.odb,Step-1,Increment      1: Step Time =    1.000,"PART-1-1",           121,       7.05765,      -13.1226,            0.,NA,NA,"",   274.049E-03,  -261.571E-03,  -81.7522E-03,   4.25851E-03
C:/temp/dataset/4/26_05.odb,Step-1,Increment      1: Step Time =    1.000,"PART-1-1",           122,      -6.97858,       13.4860,            0.,NA,NA,"",       1.44760,      -1.26618,  -701.673E-03,   152.583E-09
C:/temp/dataset/4/26_05.odb,Step-1,Increment      1: Step Time =    1.000,"PART-1-1",           123,      -7.06135,       7.11796,            0.,NA,NA,"",       1.22792,      -1.00898,  -699.823E-03,   2.93684E-06
C:/temp/dataset/4/26_05.odb,Step-1,Increment      1: Step Time =    1.000,"PART-1-1",           124,       6.87626,      -8.81940,            0.,NA,NA,"",   407.974E-03,  -394.247E-03,  -104.936E-03,   3.94562E-03
C:/temp/dataset/4/26_05.odb,Step-1,Increment      1: Step Time =    1.000,"PART-1-1",           125,       7.08495,      -15.2974,            0.,NA,NA,"",   215.597E-03,  -203.291E-03,  -71.7998E-03,   4.49835E-03
C:/temp/dataset/4/26_05.odb,Step-1,Increment      1: Step Time =    1.000,"PART-1-1",           126,       7.00715,       15.3887,            0.,NA,NA,"",       1.41248,      -1.40356,  -158.486E-03,   730.484E-06
C:/temp/dataset/4/26_05.odb,Step-1,Increment      1: Step Time =    1.000,"PART-1-1",           127,      -7.01992,       9.30136,            0.,NA,NA,"",       1.30142,      -1.09718,  -699.930E-03,   888.035E-09
C:/temp/dataset/4/26_05.odb,Step-1,Increment      1: Step Time =    1.000,"PART-1-1",           128,      -6.93369,       15.5639,            0.,NA,NA,"",       1.52151,      -1.35012,  -701.555E-03,   56.0922E-09
C:/temp/dataset/4/26_05.odb,Step-1,Increment      1: Step Time =    1.000,"PART-1-1",           129,      -6.79206,       19.5889,            0.,NA,NA,"",       1.66649,      -1.51276,  -699.119E-03,   36.1795E-09
C:/temp/dataset/4/26_05.odb,Step-1,Increment      1: Step Time =    1.000,"PART-1-1",           130,       7.09662,      -19.6136,            0.,NA,NA,"",   119.286E-03,  -107.274E-03,  -52.1694E-03,   5.03634E-03
C:/temp/dataset/4/26_05.odb,Step-1,Increment      1: Step Time =    1.000,"PART-1-1",           131,       6.89670,       23.8203,            0.,NA,NA,"",       1.80255,      -1.79416,  -173.701E-03,   18.5152E-06
C:/temp/dataset/4/26_05.odb,Step-1,Increment      1: Step Time =    1.000,"PART-1-1",           132,       6.67676,       6.98748,            0.,NA,NA,"",       1.03230,      -1.02038,  -156.450E-03,   2.19514E-03
C:/temp/dataset/4/26_05.odb,Step-1,Increment      1: Step Time =    1.000,"PART-1-1",           133,      -13.0361,       12.2042,            0.,NA,NA,"",       1.53502,      -1.20948,  -945.224E-03,   229.453E-09
C:/temp/dataset/4/26_05.odb,Step-1,Increment      1: Step Time =    1.000,"PART-1-1",           134,      -13.0483,       3.72302,            0.,NA,NA,"",       1.27791,  -867.021E-03,  -938.796E-03,   629.332E-09
C:/temp/dataset/4/26_05.odb,Step-1,Increment      1: Step Time =    1.000,"PART-1-1",           135,      -13.0740,       10.0823,            0.,NA,NA,"",       1.46831,      -1.12377,  -945.023E-03,   434.951E-09
C:/temp/dataset/4/26_05.odb,Step-1,Increment      1: Step Time =    1.000,"PART-1-1",           136,      -13.0017,       14.3509,            0.,NA,NA,"",       1.60444,      -1.29619,  -945.582E-03,   95.7097E-09
C:/temp/dataset/4/26_05.odb,Step-1,Increment      1: Step Time =    1.000,"PART-1-1",           137,      -12.4480,       21.2307,            0.,NA,NA,"",       1.82800,      -1.57444,  -928.837E-03,   32.4181E-09
C:/temp/dataset/4/26_05.odb,Step-1,Increment      1: Step Time =    1.000,"PART-1-1",           138,      -13.0426,       25.7965,            0.,NA,NA,"",       2.00167,      -1.75831,  -956.569E-03,   34.2860E-09
C:/temp/dataset/4/26_05.odb,Step-1,Increment      1: Step Time =    1.000,"PART-1-1",           139,      -12.9478,       23.6552,            0.,NA,NA,"",       1.92347,      -1.67193,  -950.994E-03,   33.7675E-09
C:/temp/dataset/4/26_05.odb,Step-1,Increment      1: Step Time =    1.000,"PART-1-1",           140,      -12.8307,       18.7376,            0.,NA,NA,"",       1.74898,      -1.47346,  -942.255E-03,   29.7019E-09
C:/temp/dataset/4/26_05.odb,Step-1,Increment      1: Step Time =    1.000,"PART-1-1",           141,      -12.9472,       16.5227,            0.,NA,NA,"",       1.67588,      -1.38393,  -945.155E-03,   36.3049E-09
C:/temp/dataset/4/26_05.odb,Step-1,Increment      1: Step Time =    1.000,"PART-1-1",           142,      -13.1112,       7.97345,            0.,NA,NA,"",       1.40404,      -1.03859,  -944.802E-03,   493.919E-09
C:/temp/dataset/4/26_05.odb,Step-1,Increment      1: Step Time =    1.000,"PART-1-1",           143,      -13.1276,       5.86243,            0.,NA,NA,"",       1.34146,  -953.336E-03,  -943.745E-03,   325.042E-09
C:/temp/dataset/4/26_05.odb,Step-1,Increment      1: Step Time =    1.000,"PART-1-1",           144,      -12.8109,       1.56310,            0.,NA,NA,"",       1.21185,  -780.009E-03,  -927.453E-03,   1.16274E-06
C:/temp/dataset/4/26_05.odb,Step-1,Increment      1: Step Time =    1.000,"PART-1-1",           145,      -12.5511,  -622.366E-03,            0.,NA,NA,"",       1.14735,  -691.986E-03,  -915.185E-03,   995.985E-09
C:/temp/dataset/4/26_05.odb,Step-1,Increment      1: Step Time =    1.000,"PART-1-1",           146,      -7.69124,      -3.05836,            0.,NA,NA,"",   933.402E-03,  -597.598E-03,  -717.019E-03,   14.2062E-06
C:/temp/dataset/4/26_05.odb,Step-1,Increment      1: Step Time =    1.000,"PART-1-1",           147,      -2.59391,      -3.27074,            0.,NA,NA,"",   782.965E-03,  -593.121E-03,  -511.118E-03,   88.0299E-06
C:/temp/dataset/4/26_05.odb,Step-1,Increment      1: Step Time =    1.000,"PART-1-1",           148,      -2.06699,       2.95135,            0.,NA,NA,"",   979.011E-03,  -844.817E-03,  -494.719E-03,   90.8528E-06
C:/temp/dataset/4/26_05.odb,Step-1,Increment      1: Step Time =    1.000,"PART-1-1",           149,       1.86882,      -3.06513,            0.,NA,NA,"",   689.169E-03,  -604.958E-03,  -330.121E-03,   651.459E-06
C:/temp/dataset/4/26_05.odb,Step-1,Increment      1: Step Time =    1.000,"PART-1-1",           150,       2.79073,       3.02834,            0.,NA,NA,"",   903.055E-03,  -851.638E-03,  -300.369E-03,   958.805E-06
C:/temp/dataset/4/26_05.odb,Step-1,Increment      1: Step Time =    1.000,"PART-1-1",           151,       12.5379,       2.72923,            0.,NA,NA,"",   848.829E-03,  -843.751E-03,   92.7087E-03,   1.65591E-03
C:/temp/dataset/4/26_05.odb,Step-1,Increment      1: Step Time =    1.000,"PART-1-1",           152,       12.9313,       10.2835,            0.,NA,NA,"",       1.17982,      -1.17448,   112.100E-03,   1.26595E-03
C:/temp/dataset/4/26_05.odb,Step-1,Increment      1: Step Time =    1.000,"PART-1-1",           153,       12.7723,       24.8557,            0.,NA,NA,"",       1.85065,      -1.84819,   95.5216E-03,   51.0404E-06
C:/temp/dataset/4/26_05.odb,Step-1,Increment      1: Step Time =    1.000,"PART-1-1",           154,       12.5268,       27.4001,            0.,NA,NA,"",       1.96658,      -1.96489,   81.5247E-03,   26.1505E-06
C:/temp/dataset/4/26_05.odb,Step-1,Increment      1: Step Time =    1.000,"PART-1-1",           155,       12.7627,      -5.01238,            0.,NA,NA,"",   541.757E-03,  -533.701E-03,   93.0795E-03,   3.02581E-03
C:/temp/dataset/4/26_05.odb,Step-1,Increment      1: Step Time =    1.000,"PART-1-1",           156,       13.0118,      -12.5921,            0.,NA,NA,"",   290.842E-03,  -279.314E-03,   81.0736E-03,   4.31447E-03
C:/temp/dataset/4/26_05.odb,Step-1,Increment      1: Step Time =    1.000,"PART-1-1",           157,       9.69976,      -27.8547,            0.,NA,NA,"",   3.17295E-03,  -3.02262E-03,  -965.098E-06,   1.23992E-03
C:/temp/dataset/4/26_05.odb,Step-1,Increment      1: Step Time =    1.000,"PART-1-1",           158,       13.0855,      -17.4497,            0.,NA,NA,"",   166.740E-03,  -153.880E-03,   64.2113E-03,   5.08434E-03
C:/temp/dataset/4/26_05.odb,Step-1,Increment      1: Step Time =    1.000,"PART-1-1",           159,       12.9366,       22.3763,            0.,NA,NA,"",       1.73789,      -1.73468,   105.567E-03,   295.177E-06
C:/temp/dataset/4/26_05.odb,Step-1,Increment      1: Step Time =    1.000,"PART-1-1",           160,       13.0248,       17.5365,            0.,NA,NA,"",       1.51524,      -1.51099,   113.380E-03,   789.904E-06
C:/temp/dataset/4/26_05.odb,Step-1,Increment      1: Step Time =    1.000,"PART-1-1",           161,      -10.1545,       27.3700,            0.,NA,NA,"",       2.00883,      -1.82421,  -841.236E-03,   35.1803E-09
C:/temp/dataset/4/26_05.odb,Step-1,Increment      1: Step Time =    1.000,"PART-1-1",           162,      -10.0546,      -2.87755,            0.,NA,NA,"",       1.01185,  -602.974E-03,  -812.560E-03,   4.11471E-06
C:/temp/dataset/4/26_05.odb,Step-1,Increment      1: Step Time =    1.000,"PART-1-1",           163,      -5.07747,      -2.66322,            0.,NA,NA,"",   868.012E-03,  -615.696E-03,  -611.853E-03,   45.6713E-06
C:/temp/dataset/4/26_05.odb,Step-1,Increment      1: Step Time =    1.000,"PART-1-1",           164,  -330.659E-03,      -3.26262,            0.,NA,NA,"",   728.310E-03,  -595.311E-03,  -419.571E-03,   146.269E-06
C:/temp/dataset/4/26_05.odb,Step-1,Increment      1: Step Time =    1.000,"PART-1-1",           165,       3.93161,      -2.75002,            0.,NA,NA,"",   665.827E-03,  -619.188E-03,  -244.811E-03,   1.76113E-03
C:/temp/dataset/4/26_05.odb,Step-1,Increment      1: Step Time =    1.000,"PART-1-1",           166,       12.9585,      -10.1304,            0.,NA,NA,"",   365.276E-03,  -354.684E-03,   87.3291E-03,   3.92568E-03
C:/temp/dataset/4/26_05.odb,Step-1,Increment      1: Step Time =    1.000,"PART-1-1",           167,       13.1106,      -19.8561,            0.,NA,NA,"",   117.379E-03,  -104.280E-03,   53.8841E-03,   5.46606E-03
C:/temp/dataset/4/26_05.odb,Step-1,Increment      1: Step Time =    1.000,"PART-1-1",           168,       12.2637,      -27.1930,            0.,NA,NA,"",   14.3133E-03,  -9.26116E-03,   10.9134E-03,   5.07023E-03
C:/temp/dataset/4/26_05.odb,Step-1,Increment      1: Step Time =    1.000,"PART-1-1",           169,       13.0974,      -22.2394,            0.,NA,NA,"",   76.6013E-03,  -64.0131E-03,   42.0723E-03,   5.76395E-03
C:/temp/dataset/4/26_05.odb,Step-1,Increment      1: Step Time =    1.000,"PART-1-1",           170,       13.0625,      -15.0302,            0.,NA,NA,"",   224.711E-03,  -212.337E-03,   73.5412E-03,   4.71715E-03
C:/temp/dataset/4/26_05.odb,Step-1,Increment      1: Step Time =    1.000,"PART-1-1",           171,       12.8638,      -7.61343,            0.,NA,NA,"",   448.507E-03,  -439.170E-03,   91.0405E-03,   3.49568E-03
C:/temp/dataset/4/26_05.odb,Step-1,Increment      1: Step Time =    1.000,"PART-1-1",           172,       12.8109,      -2.41519,            0.,NA,NA,"",   641.958E-03,  -634.281E-03,   98.9864E-03,   2.56179E-03
C:/temp/dataset/4/26_05.odb,Step-1,Increment      1: Step Time =    1.000,"PART-1-1",           173,       12.7001,   168.481E-03,            0.,NA,NA,"",   744.503E-03,  -738.092E-03,   97.4946E-03,   2.01547E-03
C:/temp/dataset/4/26_05.odb,Step-1,Increment      1: Step Time =    1.000,"PART-1-1",           174,       12.6773,       5.28127,            0.,NA,NA,"",   957.609E-03,  -952.388E-03,   99.8636E-03,   1.57795E-03
C:/temp/dataset/4/26_05.odb,Step-1,Increment      1: Step Time =    1.000,"PART-1-1",           175,       12.8405,       7.80961,            0.,NA,NA,"",       1.06870,      -1.06325,   107.804E-03,   1.47521E-03
C:/temp/dataset/4/26_05.odb,Step-1,Increment      1: Step Time =    1.000,"PART-1-1",           176,       12.9955,       12.7023,            0.,NA,NA,"",       1.29051,      -1.28542,   114.525E-03,   1.01330E-03
C:/temp/dataset/4/26_05.odb,Step-1,Increment      1: Step Time =    1.000,"PART-1-1",           177,       13.0102,       19.9477,            0.,NA,NA,"",       1.62676,      -1.62297,   110.981E-03,   582.866E-06
C:/temp/dataset/4/26_05.odb,Step-1,Increment      1: Step Time =    1.000,"PART-1-1",           178,       9.88408,       27.1269,            0.,NA,NA,"",       1.94996,      -1.94956,  -39.6924E-03,   16.0440E-06
C:/temp/dataset/4/26_05.odb,Step-1,Increment      1: Step Time =    1.000,"PART-1-1",           179,       13.0301,       15.1161,            0.,NA,NA,"",       1.40259,      -1.39787,   115.010E-03,   1.03327E-03
C:/temp/dataset/4/26_05.odb,Step-1,Increment      1: Step Time =    1.000,"PART-1-1",           180,   300.490E-03,       3.00528,            0.,NA,NA,"",   938.225E-03,  -848.930E-03,  -399.480E-03,   127.620E-06
C:/temp/dataset/4/26_05.odb,Step-1,Increment      1: Step Time =    1.000,"PART-1-1",           181,      -4.18418,       2.89078,            0.,NA,NA,"",       1.02142,  -840.659E-03,  -580.156E-03,   56.7242E-06
C:/temp/dataset/4/26_05.odb,Step-1,Increment      1: Step Time =    1.000,"PART-1-1",           182,      -8.75093,       23.2164,            0.,NA,NA,"",       1.83248,      -1.65763,  -781.174E-03,   35.0512E-09
C:/temp/dataset/4/26_05.odb,Step-1,Increment      1: Step Time =    1.000,"PART-1-1",           183,       9.13120,      -23.8882,            0.,NA,NA,"",   38.5472E-03,  -37.4279E-03,  -9.22158E-03,   1.95277E-03
C:/temp/dataset/4/26_05.odb,Step-1,Increment      1: Step Time =    1.000,"PART-1-1",           184,       8.76025,       8.63504,            0.,NA,NA,"",       1.09729,      -1.09509,  -69.5576E-03,   1.11181E-03
C:/temp/dataset/4/26_05.odb,Step-1,Increment      1: Step Time =    1.000,"PART-1-1",           185,       8.81891,       23.9948,            0.,NA,NA,"",       1.80630,      -1.80428,  -85.3829E-03,   48.4142E-06
C:/temp/dataset/4/26_05.odb,Step-1,Increment      1: Step Time =    1.000,"PART-1-1",           186,       9.00734,       17.5557,            0.,NA,NA,"",       1.50801,      -1.50638,  -70.0525E-03,   640.286E-06
C:/temp/dataset/4/26_05.odb,Step-1,Increment      1: Step Time =    1.000,"PART-1-1",           187,      -8.59230,       19.6811,            0.,NA,NA,"",       1.70031,      -1.51501,  -771.885E-03,   32.2889E-09
C:/temp/dataset/4/26_05.odb,Step-1,Increment      1: Step Time =    1.000,"PART-1-1",           188,       9.06266,      -12.9142,            0.,NA,NA,"",   267.225E-03,  -265.785E-03,  -27.6959E-03,   1.62868E-03
C:/temp/dataset/4/26_05.odb,Step-1,Increment      1: Step Time =    1.000,"PART-1-1",           189,       9.13987,      -19.6571,            0.,NA,NA,"",   104.994E-03,  -103.838E-03,  -15.5381E-03,   1.75632E-03
C:/temp/dataset/4/26_05.odb,Step-1,Increment      1: Step Time =    1.000,"PART-1-1",           190,       9.00941,       15.3265,            0.,NA,NA,"",       1.40418,      -1.40256,  -67.4424E-03,   855.599E-06
C:/temp/dataset/4/26_05.odb,Step-1,Increment      1: Step Time =    1.000,"PART-1-1",           191,      -8.96967,       13.7142,            0.,NA,NA,"",       1.49479,      -1.27377,  -782.257E-03,   166.557E-09
C:/temp/dataset/4/26_05.odb,Step-1,Increment      1: Step Time =    1.000,"PART-1-1",           192,       9.12973,      -17.4386,            0.,NA,NA,"",   151.150E-03,  -149.944E-03,  -19.0583E-03,   1.70173E-03
C:/temp/dataset/4/26_05.odb,Step-1,Increment      1: Step Time =    1.000,"PART-1-1",           193,       8.94484,       21.9321,            0.,NA,NA,"",       1.71105,      -1.70930,  -77.4469E-03,   171.547E-06
C:/temp/dataset/4/26_05.odb,Step-1,Increment      1: Step Time =    1.000,"PART-1-1",           194,      -8.78258,       17.8115,            0.,NA,NA,"",       1.63619,      -1.43936,  -778.044E-03,   32.2270E-09
C:/temp/dataset/4/26_05.odb,Step-1,Increment      1: Step Time =    1.000,"PART-1-1",           195,       8.90333,       10.8666,            0.,NA,NA,"",       1.19820,      -1.19636,  -66.4189E-03,   1.06064E-03
C:/temp/dataset/4/26_05.odb,Step-1,Increment      1: Step Time =    1.000,"PART-1-1",           196,      -9.00437,       11.6266,            0.,NA,NA,"",       1.42346,      -1.18944,  -781.956E-03,   412.766E-09
C:/temp/dataset/4/26_05.odb,Step-1,Increment      1: Step Time =    1.000,"PART-1-1",           197,      -9.03622,       9.53759,            0.,NA,NA,"",       1.35351,      -1.10507,  -781.539E-03,   593.880E-09
C:/temp/dataset/4/26_05.odb,Step-1,Increment      1: Step Time =    1.000,"PART-1-1",           198,       8.99264,      -10.6281,            0.,NA,NA,"",   336.141E-03,  -334.479E-03,  -33.3895E-03,   1.58185E-03
C:/temp/dataset/4/26_05.odb,Step-1,Increment      1: Step Time =    1.000,"PART-1-1",           199,       8.82192,      -8.34759,            0.,NA,NA,"",   411.315E-03,  -409.104E-03,  -42.5843E-03,   1.53235E-03
C:/temp/dataset/4/26_05.odb,Step-1,Increment      1: Step Time =    1.000,"PART-1-1",           200,       8.98411,       13.0928,            0.,NA,NA,"",       1.30050,      -1.29883,  -65.8032E-03,   988.201E-06
C:/temp/dataset/4/26_05.odb,Step-1,Increment      1: Step Time =    1.000,"PART-1-1",           201,       7.30685,       27.8134,            0.,NA,NA,"",       1.98480,      -1.97842,  -159.037E-03,   21.9741E-06
C:/temp/dataset/4/26_05.odb,Step-1,Increment      1: Step Time =    1.000,"PART-1-1",           202,      -8.46063,       21.4565,            0.,NA,NA,"",       1.76290,      -1.58681,  -768.017E-03,   34.4569E-09
C:/temp/dataset/4/26_05.odb,Step-1,Increment      1: Step Time =    1.000,"PART-1-1",           203,       9.11250,      -15.1896,            0.,NA,NA,"",   205.302E-03,  -204.026E-03,  -22.8599E-03,   1.65298E-03
C:/temp/dataset/4/26_05.odb,Step-1,Increment      1: Step Time =    1.000,"PART-1-1",           204,       9.14200,      -21.8221,            0.,NA,NA,"",   67.3153E-03,  -66.1909E-03,  -12.2520E-03,   1.83254E-03
C:/temp/dataset/4/26_05.odb,Step-1,Increment      1: Step Time =    1.000,"PART-1-1",           205,      -8.90436,       15.8055,            0.,NA,NA,"",       1.56696,      -1.35827,  -781.325E-03,   66.0786E-09
C:/temp/dataset/4/26_05.odb,Step-1,Increment      1: Step Time =    1.000,"PART-1-1",           206,       9.00445,       19.7587,            0.,NA,NA,"",       1.61041,      -1.60877,  -72.4918E-03,   386.261E-06
C:/temp/dataset/4/26_05.odb,Step-1,Increment      1: Step Time =    1.000,"PART-1-1",           207,       8.39742,      -6.16188,            0.,NA,NA,"",   489.859E-03,  -486.068E-03,  -60.8277E-03,   1.56358E-03
C:/temp/dataset/4/26_05.odb,Step-1,Increment      1: Step Time =    1.000,"PART-1-1",           208,      -9.10294,       7.45394,            0.,NA,NA,"",       1.28630,      -1.02088,  -782.535E-03,   974.523E-09
C:/temp/dataset/4/26_05.odb,Step-1,Increment      1: Step Time =    1.000,"PART-1-1",           209,       8.43260,       6.43235,            0.,NA,NA,"",       1.00028,  -997.038E-03,  -80.5279E-03,   1.03787E-03
C:/temp/dataset/4/26_05.odb,Step-1,Increment      1: Step Time =    1.000,"PART-1-1",           210,       5.64784,       2.93298,            0.,NA,NA,"",   869.050E-03,  -848.340E-03,  -188.590E-03,   2.35098E-03
C:/temp/dataset/4/26_05.odb,Step-1,Increment      1: Step Time =    1.000,"PART-1-1",           211,      -10.7213,       1.88644,            0.,NA,NA,"",       1.15883,  -794.769E-03,  -843.346E-03,   4.11905E-06
C:/temp/dataset/4/26_05.odb,Step-1,Increment      1: Step Time =    1.000,"PART-1-1",           212,      -12.7178,       27.8380,            0.,NA,NA,"",       2.06944,      -1.84101,  -945.120E-03,   34.9908E-09
C:/temp/dataset/4/26_05.odb,Step-1,Increment      1: Step Time =    1.000,"PART-1-1",           213,      -11.0298,       24.2524,            0.,NA,NA,"",       1.90940,      -1.69761,  -874.035E-03,   34.2613E-09
C:/temp/dataset/4/26_05.odb,Step-1,Increment      1: Step Time =    1.000,"PART-1-1",           214,      -10.4500,       20.0822,            0.,NA,NA,"",       1.74864,      -1.52969,  -847.223E-03,   31.0265E-09
C:/temp/dataset/4/26_05.odb,Step-1,Increment      1: Step Time =    1.000,"PART-1-1",           215,      -10.9919,       14.0243,            0.,NA,NA,"",       1.54825,      -1.28464,  -864.165E-03,   146.754E-09
C:/temp/dataset/4/26_05.odb,Step-1,Increment      1: Step Time =    1.000,"PART-1-1",           216,      -11.0796,       9.82104,            0.,NA,NA,"",       1.41063,      -1.11485,  -864.280E-03,   561.330E-09
C:/temp/dataset/4/26_05.odb,Step-1,Increment      1: Step Time =    1.000,"PART-1-1",           217,      -11.0365,       11.9204,            0.,NA,NA,"",       1.47854,      -1.19965,  -864.249E-03,   327.740E-09
C:/temp/dataset/4/26_05.odb,Step-1,Increment      1: Step Time =    1.000,"PART-1-1",           218,      -10.5491,       22.5446,            0.,NA,NA,"",       1.83896,      -1.62904,  -853.232E-03,   33.6189E-09
C:/temp/dataset/4/26_05.odb,Step-1,Increment      1: Step Time =    1.000,"PART-1-1",           219,      -10.9277,       16.1478,            0.,NA,NA,"",       1.61969,      -1.37044,  -863.303E-03,   52.7945E-09
C:/temp/dataset/4/26_05.odb,Step-1,Increment      1: Step Time =    1.000,"PART-1-1",           220,      -10.7891,       18.2216,            0.,NA,NA,"",       1.68924,      -1.45429,  -859.398E-03,   29.6538E-09
C:/temp/dataset/4/26_05.odb,Step-1,Increment      1: Step Time =    1.000,"PART-1-1",           221,      -11.1555,       7.76515,            0.,NA,NA,"",       1.34682,      -1.03177,  -865.665E-03,   465.119E-09
C:/temp/dataset/4/26_05.odb,Step-1,Increment      1: Step Time =    1.000,"PART-1-1",           222,      -9.80329,       4.04682,            0.,NA,NA,"",       1.19673,  -882.740E-03,  -808.037E-03,   3.33179E-06
C:/temp/dataset/4/26_05.odb,Step-1,Increment      1: Step Time =    1.000,"PART-1-1",           223,       9.22674,      -25.9093,            0.,NA,NA,"",   17.0819E-03,  -16.2294E-03,  -5.32892E-03,   1.84609E-03
C:/temp/dataset/4/26_05.odb,Step-1,Increment      1: Step Time =    1.000,"PART-1-1",           224,      -9.21421,       25.1107,            0.,NA,NA,"",       1.91001,      -1.73375,  -801.425E-03,   35.2046E-09
C:/temp/dataset/4/26_05.odb,Step-1,Increment      1: Step Time =    1.000,"PART-1-1",           225,       6.25241,      -4.60112,            0.,NA,NA,"",   563.270E-03,  -544.735E-03,  -143.310E-03,   3.01513E-03
C:/temp/dataset/4/26_05.odb,Step-1,Increment      1: Step Time =    1.000,"PART-1-1",           226,      -7.19550,       4.55405,            0.,NA,NA,"",       1.14632,  -905.339E-03,  -703.146E-03,   10.1149E-06
C:/temp/dataset/4/26_05.odb,Step-1,Increment      1: Step Time =    1.000,"PART-1-1",           227,       12.9551,      -24.6090,            0.,NA,NA,"",   43.3513E-03,  -32.9644E-03,   28.1547E-03,   6.00624E-03
C:/temp/dataset/4/26_05.odb,Step-1,Increment      1: Step Time =    1.000,"PART-1-1",           228,       10.9241,       22.1645,            0.,NA,NA,"",       1.72244,      -1.72239,   13.2851E-03,   216.905E-06
C:/temp/dataset/4/26_05.odb,Step-1,Increment      1: Step Time =    1.000,"PART-1-1",           229,      -4.91288,   464.762E-03,            0.,NA,NA,"",   959.228E-03,  -742.193E-03,  -607.674E-03,   52.2698E-06
C:/temp/dataset/4/26_05.odb,Step-1,Increment      1: Step Time =    1.000,"PART-1-1",           230,  -831.143E-03,      -1.35374,            0.,NA,NA,"",   804.258E-03,  -672.312E-03,  -441.392E-03,   105.159E-06
C:/temp/dataset/4/26_05.odb,Step-1,Increment      1: Step Time =    1.000,"PART-1-1",           231,       11.1616,      -19.7398,            0.,NA,NA,"",   104.791E-03,  -102.875E-03,   19.9459E-03,   2.24619E-03
C:/temp/dataset/4/26_05.odb,Step-1,Increment      1: Step Time =    1.000,"PART-1-1",           232,       10.9730,      -10.3410,            0.,NA,NA,"",   345.612E-03,  -344.617E-03,   26.1983E-03,   1.66331E-03
C:/temp/dataset/4/26_05.odb,Step-1,Increment      1: Step Time =    1.000,"PART-1-1",           233,       10.4844,      -5.04269,            0.,NA,NA,"",   529.331E-03,  -529.201E-03,   11.7245E-03,   1.67991E-03
C:/temp/dataset/4/26_05.odb,Step-1,Increment      1: Step Time =    1.000,"PART-1-1",           234,       10.9074,       10.5689,            0.,NA,NA,"",       1.18499,      -1.18478,   22.3891E-03,   1.00820E-03
C:/temp/dataset/4/26_05.odb,Step-1,Increment      1: Step Time =    1.000,"PART-1-1",           235,       11.0515,      -12.7377,            0.,NA,NA,"",   273.046E-03,  -271.755E-03,   26.5168E-03,   1.79312E-03
C:/temp/dataset/4/26_05.odb,Step-1,Increment      1: Step Time =    1.000,"PART-1-1",           236,       10.9936,       12.8990,            0.,NA,NA,"",       1.29220,      -1.29197,   24.3990E-03,   1.01316E-03
C:/temp/dataset/4/26_05.odb,Step-1,Increment      1: Step Time =    1.000,"PART-1-1",           237,      -9.84553,  -403.770E-03,            0.,NA,NA,"",       1.06962,  -703.023E-03,  -806.130E-03,   6.46817E-06
C:/temp/dataset/4/26_05.odb,Step-1,Increment      1: Step Time =    1.000,"PART-1-1",           238,      -6.42098,  -599.403E-03,            0.,NA,NA,"",   965.915E-03,  -697.952E-03,  -667.723E-03,   31.0392E-06
C:/temp/dataset/4/26_05.odb,Step-1,Increment      1: Step Time =    1.000,"PART-1-1",           239,      -2.35214,      -1.85066,            0.,NA,NA,"",   822.248E-03,  -650.841E-03,  -502.491E-03,   81.4253E-06
C:/temp/dataset/4/26_05.odb,Step-1,Increment      1: Step Time =    1.000,"PART-1-1",           240,       11.1625,      -21.9830,            0.,NA,NA,"",   66.2020E-03,  -64.2255E-03,   16.0562E-03,   2.37880E-03
C:/temp/dataset/4/26_05.odb,Step-1,Increment      1: Step Time =    1.000,"PART-1-1",           241,       11.1073,      -15.0998,            0.,NA,NA,"",   208.679E-03,  -207.123E-03,   25.4328E-03,   1.95147E-03
C:/temp/dataset/4/26_05.odb,Step-1,Increment      1: Step Time =    1.000,"PART-1-1",           242,       11.1457,      -17.4375,            0.,NA,NA,"",   152.453E-03,  -150.675E-03,   23.2133E-03,   2.11225E-03
C:/temp/dataset/4/26_05.odb,Step-1,Increment      1: Step Time =    1.000,"PART-1-1",           243,       10.8340,      -7.85693,            0.,NA,NA,"",   427.976E-03,  -427.348E-03,   23.1841E-03,   1.64569E-03
C:/temp/dataset/4/26_05.odb,Step-1,Increment      1: Step Time =    1.000,"PART-1-1",           244,       10.5842,   120.255E-03,            0.,NA,NA,"",   733.775E-03,  -733.645E-03,   13.8119E-03,   1.01783E-03
C:/temp/dataset/4/26_05.odb,Step-1,Increment      1: Step Time =    1.000,"PART-1-1",           245,       10.8633,      -2.34188,            0.,NA,NA,"",   635.087E-03,  -634.579E-03,   25.3886E-03,   1.56964E-03
C:/temp/dataset/4/26_05.odb,Step-1,Increment      1: Step Time =    1.000,"PART-1-1",           246,       9.78574,       2.89226,            0.,NA,NA,"",   847.664E-03,  -847.421E-03,  -20.3027E-03,   476.378E-06
C:/temp/dataset/4/26_05.odb,Step-1,Increment      1: Step Time =    1.000,"PART-1-1",           247,       10.7685,       8.18214,            0.,NA,NA,"",       1.07706,      -1.07691,   17.8703E-03,   993.561E-06
C:/temp/dataset/4/26_05.odb,Step-1,Increment      1: Step Time =    1.000,"PART-1-1",           248,       10.4587,       5.69287,            0.,NA,NA,"",   967.073E-03,  -967.055E-03,   5.91161E-03,   811.008E-06
C:/temp/dataset/4/26_05.odb,Step-1,Increment      1: Step Time =    1.000,"PART-1-1",           249,       11.0104,       19.8565,            0.,NA,NA,"",       1.61598,      -1.61586,   19.3243E-03,   489.018E-06
C:/temp/dataset/4/26_05.odb,Step-1,Increment      1: Step Time =    1.000,"PART-1-1",           250,       11.0363,       17.5467,            0.,NA,NA,"",       1.50868,      -1.50851,   22.4477E-03,   767.631E-06
C:/temp/dataset/4/26_05.odb,Step-1,Increment      1: Step Time =    1.000,"PART-1-1",           251,       11.0403,       15.2208,            0.,NA,NA,"",       1.40021,      -1.40000,   24.5524E-03,   968.656E-06
C:/temp/dataset/4/26_05.odb,Step-1,Increment      1: Step Time =    1.000,"PART-1-1",           252,       1.19009,      -1.06873,            0.,NA,NA,"",   774.166E-03,  -685.528E-03,  -359.700E-03,   324.902E-06
C:/temp/dataset/4/26_05.odb,Step-1,Increment      1: Step Time =    1.000,"PART-1-1",           253,       10.6932,       24.5073,            0.,NA,NA,"",       1.82993,      -1.82993,   309.408E-06,   47.1409E-06
C:/temp/dataset/4/26_05.odb,Step-1,Increment      1: Step Time =    1.000,"PART-1-1",           254,       8.51128,       25.6419,            0.,NA,NA,"",       1.88251,      -1.87978,  -101.285E-03,   17.1825E-06
C:/temp/dataset/4/26_05.odb,Step-1,Increment      1: Step Time =    1.000,"PART-1-1",           255,      -9.32324,       5.48290,            0.,NA,NA,"",       1.22862,  -941.113E-03,  -789.823E-03,   1.84123E-06
C:/temp/dataset/4/26_05.odb,Step-1,Increment      1: Step Time =    1.000,"PART-1-1",           256,      -11.4569,       25.7537,            0.,NA,NA,"",       1.97147,      -1.75788,  -892.507E-03,   34.6369E-09
C:/temp/dataset/4/26_05.odb,Step-1,Increment      1: Step Time =    1.000,"PART-1-1",           257,      -8.85145,       2.84717,            0.,NA,NA,"",       1.13497,  -835.084E-03,  -768.626E-03,   8.49467E-06
C:/temp/dataset/4/26_05.odb,Step-1,Increment      1: Step Time =    1.000,"PART-1-1",           258,       11.0896,      -24.0706,            0.,NA,NA,"",   37.3068E-03,  -35.5652E-03,   11.2656E-03,   2.37257E-03
C:/temp/dataset/4/26_05.odb,Step-1,Increment      1: Step Time =    1.000,"PART-1-1",           259,       5.69240,      -2.12345,            0.,NA,NA,"",   666.865E-03,  -643.812E-03,  -173.823E-03,   2.78405E-03
C:/temp/dataset/4/26_05.odb,Step-1,Increment      1: Step Time =    1.000,"PART-1-1",           260,       7.72467,       1.38687,            0.,NA,NA,"",   791.226E-03,  -784.668E-03,  -101.662E-03,   1.53820E-03
C:/temp/dataset/4/26_05.odb,Step-1,Increment      1: Step Time =    1.000,"PART-1-1",           261,       8.83369,  -368.727E-03,            0.,NA,NA,"",   715.142E-03,  -713.071E-03,  -54.3894E-03,   1.40040E-03
C:/temp/dataset/4/26_05.odb,Step-1,Increment      1: Step Time =    1.000,"PART-1-1",           262,       7.58912,       4.39900,            0.,NA,NA,"",   916.103E-03,  -909.115E-03,  -112.933E-03,   1.01795E-03
C:/temp/dataset/4/26_05.odb,Step-1,Increment      1: Step Time =    1.000,"PART-1-1",           263,      -6.02595,       2.23751,            0.,NA,NA,"",       1.04325,  -812.790E-03,  -654.024E-03,   32.5895E-06
C:/temp/dataset/4/26_05.odb,Step-1,Increment      1: Step Time =    1.000,"PART-1-1",           264,       4.92391,   813.983E-03,            0.,NA,NA,"",   791.410E-03,  -762.384E-03,  -212.370E-03,   1.85147E-03
C:/temp/dataset/4/26_05.odb,Step-1,Increment      1: Step Time =    1.000,"PART-1-1",           265,      -7.77287,       1.11371,            0.,NA,NA,"",       1.05378,  -765.992E-03,  -723.671E-03,   16.9729E-06
C:/temp/dataset/4/26_05.odb,Step-1,Increment      1: Step Time =    1.000,"PART-1-1",           266,      -3.71710,       1.36231,            0.,NA,NA,"",   959.798E-03,  -779.433E-03,  -560.086E-03,   68.7082E-06
C:/temp/dataset/4/26_05.odb,Step-1,Increment      1: Step Time =    1.000,"PART-1-1",           267,       2.85817,       1.10052,            0.,NA,NA,"",   828.448E-03,  -773.997E-03,  -295.389E-03,   958.307E-06
C:/temp/dataset/4/26_05.odb,Step-1,Increment      1: Step Time =    1.000,"PART-1-1",           268,       7.51165,      -2.37377,            0.,NA,NA,"",   640.675E-03,  -632.572E-03,  -101.573E-03,   2.30240E-03
C:/temp/dataset/4/26_05.odb,Step-1,Increment      1: Step Time =    1.000,"PART-1-1",           269,      -1.84913,   666.939E-03,            0.,NA,NA,"",   895.229E-03,  -753.019E-03,  -484.145E-03,   108.324E-06
C:/temp/dataset/4/26_05.odb,Step-1,Increment      1: Step Time =    1.000,"PART-1-1",           270,   621.955E-03,   989.730E-03,            0.,NA,NA,"",   859.150E-03,  -768.142E-03,  -384.835E-03,   158.621E-06
C:/temp/dataset/4/26_05.odb,Step-1,Increment      1: Step Time =    1.000,"PART-1-1",           271,       7.77182,      -4.29185,            0.,NA,NA,"",   563.369E-03,  -556.586E-03,  -87.1590E-03,   2.23761E-03
C:/temp/dataset/4/26_05.odb,Step-1,Increment      1: Step Time =    1.000,"PART-1-1",           272,       6.40836,       5.42027,            0.,NA,NA,"",   965.580E-03,  -951.551E-03,  -164.002E-03,   1.42801E-03
C:/temp/dataset/4/26_05.odb,Step-1,Increment      1: Step Time =    1.000,"PART-1-1",           273,      -12.5139,      -2.82358,            0.,NA,NA,"",       1.09331,  -603.148E-03,  -911.888E-03,   432.495E-09
C:/temp/dataset/4/26_05.odb,Step-1,Increment      1: Step Time =    1.000,"PART-1-1",           274,       10.8188,      -25.6946,            0.,NA,NA,"",   19.3205E-03,  -18.3274E-03,   6.11460E-03,   1.98041E-03
C:/temp/dataset/4/26_05.odb,Step-1,Increment      1: Step Time =    1.000,"PART-1-1",           275,       6.49302,  -163.532E-03,            0.,NA,NA,"",   737.001E-03,  -722.152E-03,  -147.196E-03,   2.09904E-03
C:/temp/dataset/4/26_05.odb,Step-1,Increment      1: Step Time =    1.000,"PART-1-1",           276,       7.60941,  -936.337E-03,            0.,NA,NA,"",   697.687E-03,  -690.310E-03,  -101.192E-03,   1.99539E-03
C:/temp/dataset/4/26_05.odb,Step-1,Increment      1: Step Time =    1.000,"PART-1-1",           277,       9.17282,      -2.25688,            0.,NA,NA,"",   638.166E-03,  -637.005E-03,  -38.4838E-03,   1.59438E-03
C:/temp/dataset/4/26_05.odb,Step-1,Increment      1: Step Time =    1.000,"PART-1-1",           278,       9.10690,      -3.89703,            0.,NA,NA,"",   573.509E-03,  -572.198E-03,  -38.7545E-03,   1.65936E-03
C:/temp/dataset/4/26_05.odb,Step-1,Increment      1: Step Time =    1.000,"PART-1-1",           279,      -7.91199,      -1.40732,            0.,NA,NA,"",   984.851E-03,  -664.092E-03,  -727.264E-03,   16.3878E-06
C:/temp/dataset/4/26_05.odb,Step-1,Increment      1: Step Time =    1.000,"PART-1-1",           280,      -9.83927,       21.3699,            0.,NA,NA,"",       1.78372,      -1.58218,  -823.613E-03,   33.0358E-09
C:/temp/dataset/4/26_05.odb,Step-1,Increment      1: Step Time =    1.000,"PART-1-1",           281,      -11.2653,       5.77953,            0.,NA,NA,"",       1.28826,  -951.507E-03,  -868.480E-03,   625.433E-09
C:/temp/dataset/4/26_05.odb,Step-1,Increment      1: Step Time =    1.000,"PART-1-1",           282,      -11.2487,       3.84080,            0.,NA,NA,"",       1.23000,  -873.243E-03,  -866.231E-03,   2.05125E-06
C:/temp/dataset/4/26_05.odb,Step-1,Increment      1: Step Time =    1.000,"PART-1-1",           283,       3.11059,  -868.354E-03,            0.,NA,NA,"",   749.689E-03,  -694.694E-03,  -281.841E-03,   1.03297E-03
C:/temp/dataset/4/26_05.odb,Step-1,Increment      1: Step Time =    1.000,"PART-1-1",           284,       4.50766,  -682.768E-03,            0.,NA,NA,"",   737.442E-03,  -702.120E-03,  -225.496E-03,   1.72666E-03
C:/temp/dataset/4/26_05.odb,Step-1,Increment      1: Step Time =    1.000,"PART-1-1",           285,      -3.56662,  -854.847E-03,            0.,NA,NA,"",   883.870E-03,  -690.065E-03,  -552.301E-03,   80.5598E-06
C:/temp/dataset/4/26_05.odb,Step-1,Increment      1: Step Time =    1.000,"PART-1-1",           286,      -7.33150,       26.6843,            0.,NA,NA,"",       1.94006,      -1.79882,  -726.687E-03,   35.8871E-09
C:/temp/dataset/4/26_05.odb,Step-1,Increment      1: Step Time =    1.000,"PART-1-1",           287,      -6.09303,       25.7233,            0.,NA,NA,"",       1.88628,      -1.76103,  -675.896E-03,   36.7076E-09
C:/temp/dataset/4/26_05.odb,Step-1,Increment      1: Step Time =    1.000,"PART-1-1",           288,           -5.,        26.875,            0.,NA,NA,"",       1.91591,      -1.80842,  -632.700E-03,   36.8383E-09
C:/temp/dataset/4/26_05.odb,Step-1,Increment      1: Step Time =    1.000,"PART-1-1",           289,      -6.23847,       27.8360,            0.,NA,NA,"",       1.96867,      -1.84621,  -683.492E-03,   36.0705E-09
C:/temp/dataset/4/26_05.odb,Step-1,Increment      1: Step Time =    1.000,"PART-1-1",           290,      -8.20013,       25.3620,            0.,NA,NA,"",       1.90334,      -1.74472,  -760.683E-03,   35.6879E-09
C:/temp/dataset/4/26_05.odb,Step-1,Increment      1: Step Time =    1.000,"PART-1-1",           291,      -8.98257,       24.1636,            0.,NA,NA,"",       1.87123,      -1.69569,  -791.300E-03,   35.1569E-09
C:/temp/dataset/4/26_05.odb,Step-1,Increment      1: Step Time =    1.000,"PART-1-1",           292,      -7.83587,       23.3915,            0.,NA,NA,"",       1.82423,      -1.66545,  -744.368E-03,   35.8868E-09
C:/temp/dataset/4/26_05.odb,Step-1,Increment      1: Step Time =    1.000,"PART-1-1",           293,      -7.05344,       24.5900,            0.,NA,NA,"",       1.85712,      -1.71448,  -713.752E-03,   36.4566E-09
C:/temp/dataset/4/26_05.odb,Step-1,Increment      1: Step Time =    1.000,"PART-1-1",           294,      -6.78951,       20.5788,            0.,NA,NA,"",       1.70315,      -1.55273,  -699.823E-03,   36.6086E-09
C:/temp/dataset/4/26_05.odb,Step-1,Increment      1: Step Time =    1.000,"PART-1-1",           295,      -5.89603,       19.5861,            0.,NA,NA,"",       1.65221,      -1.51338,  -662.936E-03,   39.6149E-09
C:/temp/dataset/4/26_05.odb,Step-1,Increment      1: Step Time =    1.000,"PART-1-1",           296,           -5.,        20.625,            0.,NA,NA,"",       1.67785,      -1.55605,  -627.603E-03,   42.0239E-09
C:/temp/dataset/4/26_05.odb,Step-1,Increment      1: Step Time =    1.000,"PART-1-1",           297,      -5.89348,       21.6177,            0.,NA,NA,"",       1.72826,      -1.59541,  -664.490E-03,   38.8938E-09
C:/temp/dataset/4/26_05.odb,Step-1,Increment      1: Step Time =    1.000,"PART-1-1",           298,      -7.97413,       13.6001,            0.,NA,NA,"",       1.47083,      -1.26997,  -741.965E-03,   151.813E-09
C:/temp/dataset/4/26_05.odb,Step-1,Increment      1: Step Time =    1.000,"PART-1-1",           299,      -8.98702,       12.6704,            0.,NA,NA,"",       1.45895,      -1.23161,  -782.107E-03,   281.778E-09
C:/temp/dataset/4/26_05.odb,Step-1,Increment      1: Step Time =    1.000,"PART-1-1",           300,      -8.00249,       11.5116,            0.,NA,NA,"",       1.39835,      -1.18562,  -741.408E-03,   332.888E-09
C:/temp/dataset/4/26_05.odb,Step-1,Increment      1: Step Time =    1.000,"PART-1-1",           301,      -6.98959,       12.4413,            0.,NA,NA,"",       1.41064,      -1.22399,  -701.266E-03,   290.599E-09
C:/temp/dataset/4/26_05.odb,Step-1,Increment      1: Step Time =    1.000,"PART-1-1",           302,      -9.95004,      -1.64066,            0.,NA,NA,"",       1.03993,  -652.998E-03,  -809.346E-03,   4.70161E-06
C:/temp/dataset/4/26_05.odb,Step-1,Increment      1: Step Time =    1.000,"PART-1-1",           303,      -11.1983,  -513.068E-03,            0.,NA,NA,"",       1.10781,  -697.503E-03,  -860.657E-03,   3.59629E-06
C:/temp/dataset/4/26_05.odb,Step-1,Increment      1: Step Time =    1.000,"PART-1-1",           304,      -12.5325,      -1.72297,            0.,NA,NA,"",       1.11977,  -647.567E-03,  -913.537E-03,   739.165E-09
C:/temp/dataset/4/26_05.odb,Step-1,Increment      1: Step Time =    1.000,"PART-1-1",           305,      -11.2842,      -2.85056,            0.,NA,NA,"",       1.05219,  -603.061E-03,  -862.223E-03,   2.19797E-06
C:/temp/dataset/4/26_05.odb,Step-1,Increment      1: Step Time =    1.000,"PART-1-1",           306,      -10.2834,   741.336E-03,            0.,NA,NA,"",       1.11402,  -748.896E-03,  -824.737E-03,   4.99781E-06
C:/temp/dataset/4/26_05.odb,Step-1,Increment      1: Step Time =    1.000,"PART-1-1",           307,      -11.7661,       1.72477,            0.,NA,NA,"",       1.18487,  -787.389E-03,  -885.400E-03,   2.48447E-06
C:/temp/dataset/4/26_05.odb,Step-1,Increment      1: Step Time =    1.000,"PART-1-1",           308,      -12.6810,   470.366E-03,            0.,NA,NA,"",       1.17920,  -735.997E-03,  -921.319E-03,   1.05640E-06
C:/temp/dataset/4/26_05.odb,Step-1,Increment      1: Step Time =    1.000,"PART-1-1",           309,         -1.25,           -5.,            0.,NA,NA,"",   694.231E-03,  -524.084E-03,  -455.294E-03,   219.604E-06
C:/temp/dataset/4/26_05.odb,Step-1,Increment      1: Step Time =    1.000,"PART-1-1",           310,  -165.329E-03,      -4.13131,            0.,NA,NA,"",   695.326E-03,  -560.031E-03,  -412.121E-03,   184.735E-06
C:/temp/dataset/4/26_05.odb,Step-1,Increment      1: Step Time =    1.000,"PART-1-1",           311,      -1.46228,      -3.26668,            0.,NA,NA,"",   754.755E-03,  -594.205E-03,  -465.377E-03,   98.7554E-06
C:/temp/dataset/4/26_05.odb,Step-1,Increment      1: Step Time =    1.000,"PART-1-1",           312,      -2.54695,      -4.13537,            0.,NA,NA,"",   755.047E-03,  -558.161E-03,  -508.480E-03,   82.4745E-06
C:/temp/dataset/4/26_05.odb,Step-1,Increment      1: Step Time =    1.000,"PART-1-1",           313,   769.081E-03,      -3.16387,            0.,NA,NA,"",   707.657E-03,  -600.182E-03,  -374.913E-03,   191.532E-06
C:/temp/dataset/4/26_05.odb,Step-1,Increment      1: Step Time =    1.000,"PART-1-1",           314,          1.25,           -5.,            0.,NA,NA,"",   633.280E-03,  -525.378E-03,  -353.584E-03,   318.419E-06
C:/temp/dataset/4/26_05.odb,Step-1,Increment      1: Step Time =    1.000,"PART-1-1",           315,       2.18441,      -4.03256,            0.,NA,NA,"",   648.085E-03,  -565.898E-03,  -315.869E-03,   465.600E-06
C:/temp/dataset/4/26_05.odb,Step-1,Increment      1: Step Time =    1.000,"PART-1-1",           316,       1.54561,       3.01681,            0.,NA,NA,"",   919.467E-03,  -850.313E-03,  -349.840E-03,   305.240E-06
C:/temp/dataset/4/26_05.odb,Step-1,Increment      1: Step Time =    1.000,"PART-1-1",           317,       2.64536,       4.01417,            0.,NA,NA,"",   942.542E-03,  -891.012E-03,  -307.382E-03,   435.603E-06
C:/temp/dataset/4/26_05.odb,Step-1,Increment      1: Step Time =    1.000,"PART-1-1",           318,          1.25,            5.,            0.,NA,NA,"",   997.617E-03,  -929.140E-03,  -363.234E-03,   273.883E-06
C:/temp/dataset/4/26_05.odb,Step-1,Increment      1: Step Time =    1.000,"PART-1-1",           319,   150.245E-03,       4.00264,            0.,NA,NA,"",   977.178E-03,  -888.683E-03,  -406.347E-03,   153.770E-06
C:/temp/dataset/4/26_05.odb,Step-1,Increment      1: Step Time =    1.000,"PART-1-1",           320,   179.474E-03,      -1.21124,            0.,NA,NA,"",   788.319E-03,  -678.927E-03,  -400.632E-03,   151.719E-06
C:/temp/dataset/4/26_05.odb,Step-1,Increment      1: Step Time =    1.000,"PART-1-1",           321,  -580.901E-03,      -2.30818,            0.,NA,NA,"",   766.190E-03,  -633.815E-03,  -430.495E-03,   75.1009E-06
C:/temp/dataset/4/26_05.odb,Step-1,Increment      1: Step Time =    1.000,"PART-1-1",           322,       1.52946,      -2.06693,            0.,NA,NA,"",   731.786E-03,  -645.395E-03,  -344.928E-03,   331.761E-06
C:/temp/dataset/4/26_05.odb,Step-1,Increment      1: Step Time =    1.000,"PART-1-1",           323,       12.7868,      -3.71378,            0.,NA,NA,"",   591.246E-03,  -583.372E-03,   96.1742E-03,   2.79720E-03
C:/temp/dataset/4/26_05.odb,Step-1,Increment      1: Step Time =    1.000,"PART-1-1",           324,       13.8814,      -5.00619,            0.,NA,NA,"",   552.751E-03,  -536.365E-03,   133.588E-03,   3.92882E-03
C:/temp/dataset/4/26_05.odb,Step-1,Increment      1: Step Time =    1.000,"PART-1-1",           325,           15.,         -3.75,            0.,NA,NA,"",   613.803E-03,  -587.058E-03,   179.215E-03,   4.50719E-03
C:/temp/dataset/4/26_05.odb,Step-1,Increment      1: Step Time =    1.000,"PART-1-1",           326,       13.9054,      -2.45760,            0.,NA,NA,"",   650.174E-03,  -634.757E-03,   140.750E-03,   3.26328E-03
C:/temp/dataset/4/26_05.odb,Step-1,Increment      1: Step Time =    1.000,"PART-1-1",           327,       5.10003,      -1.40311,            0.,NA,NA,"",   702.021E-03,  -672.994E-03,  -199.780E-03,   2.18221E-03
C:/temp/dataset/4/26_05.odb,Step-1,Increment      1: Step Time =    1.000,"PART-1-1",           328,       3.80913,  -775.561E-03,            0.,NA,NA,"",   743.134E-03,  -698.488E-03,  -253.698E-03,   1.41201E-03
C:/temp/dataset/4/26_05.odb,Step-1,Increment      1: Step Time =    1.000,"PART-1-1",           329,       3.52110,      -1.80919,            0.,NA,NA,"",   707.742E-03,  -656.862E-03,  -263.499E-03,   1.30270E-03
C:/temp/dataset/4/26_05.odb,Step-1,Increment      1: Step Time =    1.000,"PART-1-1",           330,       4.81200,      -2.43673,            0.,NA,NA,"",   665.403E-03,  -631.798E-03,  -208.788E-03,   2.18971E-03
C:/temp/dataset/4/26_05.odb,Step-1,Increment      1: Step Time =    1.000,"PART-1-1",           331,           15.,          3.75,            0.,NA,NA,"",   912.760E-03,  -891.356E-03,   196.507E-03,   2.86072E-03
C:/temp/dataset/4/26_05.odb,Step-1,Increment      1: Step Time =    1.000,"PART-1-1",           332,       13.8386,       5.14064,            0.,NA,NA,"",   960.012E-03,  -948.359E-03,   149.129E-03,   2.14464E-03
C:/temp/dataset/4/26_05.odb,Step-1,Increment      1: Step Time =    1.000,"PART-1-1",           333,       12.6076,       4.00525,            0.,NA,NA,"",   902.843E-03,  -897.692E-03,   96.3062E-03,   1.61897E-03
C:/temp/dataset/4/26_05.odb,Step-1,Increment      1: Step Time =    1.000,"PART-1-1",           334,       13.7689,       2.61462,            0.,NA,NA,"",   853.206E-03,  -841.063E-03,   143.436E-03,   2.30870E-03
C:/temp/dataset/4/26_05.odb,Step-1,Increment      1: Step Time =    1.000,"PART-1-1",           335,       9.76439,       8.40859,            0.,NA,NA,"",       1.08619,      -1.08588,  -25.7652E-03,   946.923E-06
C:/temp/dataset/4/26_05.odb,Step-1,Increment      1: Step Time =    1.000,"PART-1-1",           336,       8.59642,       7.53369,            0.,NA,NA,"",       1.04846,      -1.04577,  -75.0695E-03,   1.10359E-03
C:/temp/dataset/4/26_05.odb,Step-1,Increment      1: Step Time =    1.000,"PART-1-1",           337,       9.44563,       6.06261,            0.,NA,NA,"",   982.631E-03,  -981.927E-03,  -37.2042E-03,   786.100E-06
C:/temp/dataset/4/26_05.odb,Step-1,Increment      1: Step Time =    1.000,"PART-1-1",           338,       10.6136,       6.93751,            0.,NA,NA,"",       1.02163,      -1.02156,   11.8784E-03,   909.715E-06
C:/temp/dataset/4/26_05.odb,Step-1,Increment      1: Step Time =    1.000,"PART-1-1",           339,       5.92452,       9.07762,            0.,NA,NA,"",       1.13051,      -1.11361,  -194.767E-03,   1.83796E-03
C:/temp/dataset/4/26_05.odb,Step-1,Increment      1: Step Time =    1.000,"PART-1-1",           340,            5.,         8.125,            0.,NA,NA,"",       1.09605,      -1.07094,  -233.260E-03,   2.51873E-03
C:/temp/dataset/4/26_05.odb,Step-1,Increment      1: Step Time =    1.000,"PART-1-1",           341,       5.83838,       7.03541,            0.,NA,NA,"",       1.04020,      -1.02222,  -192.544E-03,   2.32319E-03
C:/temp/dataset/4/26_05.odb,Step-1,Increment      1: Step Time =    1.000,"PART-1-1",           342,       6.76290,       7.98803,            0.,NA,NA,"",       1.07611,      -1.06487,  -155.088E-03,   1.82293E-03
C:/temp/dataset/4/26_05.odb,Step-1,Increment      1: Step Time =    1.000,"PART-1-1",           343,       6.00358,       15.4027,            0.,NA,NA,"",       1.41820,      -1.40339,  -204.443E-03,   662.073E-06
C:/temp/dataset/4/26_05.odb,Step-1,Increment      1: Step Time =    1.000,"PART-1-1",           344,            5.,        14.375,            0.,NA,NA,"",       1.37778,      -1.35511,  -248.874E-03,   935.275E-06
C:/temp/dataset/4/26_05.odb,Step-1,Increment      1: Step Time =    1.000,"PART-1-1",           345,       5.99171,       13.2884,            0.,NA,NA,"",       1.32102,      -1.30560,  -201.247E-03,   1.00721E-03
C:/temp/dataset/4/26_05.odb,Step-1,Increment      1: Step Time =    1.000,"PART-1-1",           346,       6.99529,       14.3161,            0.,NA,NA,"",       1.36291,      -1.35380,  -157.359E-03,   853.859E-06
C:/temp/dataset/4/26_05.odb,Step-1,Increment      1: Step Time =    1.000,"PART-1-1",           347,       11.7328,       24.6815,            0.,NA,NA,"",       1.83970,      -1.83908,   47.9327E-03,   33.6359E-06
C:/temp/dataset/4/26_05.odb,Step-1,Increment      1: Step Time =    1.000,"PART-1-1",           348,       12.6496,       26.1279,            0.,NA,NA,"",       1.90858,      -1.90653,   88.5221E-03,   26.6466E-06
C:/temp/dataset/4/26_05.odb,Step-1,Increment      1: Step Time =    1.000,"PART-1-1",           349,       11.2054,       27.2635,            0.,NA,NA,"",       1.95734,      -1.95722,   20.9328E-03,   16.3366E-06
C:/temp/dataset/4/26_05.odb,Step-1,Increment      1: Step Time =    1.000,"PART-1-1",           350,       10.2886,       25.8171,            0.,NA,NA,"",       1.88984,      -1.88974,  -19.6832E-03,   21.0901E-06
C:/temp/dataset/4/26_05.odb,Step-1,Increment      1: Step Time =    1.000,"PART-1-1",           351,       12.5134,       28.7000,            0.,NA,NA,"",       2.02623,      -2.02466,   79.5278E-03,   18.2528E-06
C:/temp/dataset/4/26_05.odb,Step-1,Increment      1: Step Time =    1.000,"PART-1-1",           352,       13.7634,       27.4500,            0.,NA,NA,"",       1.97335,      -1.96850,   138.300E-03,   20.4782E-06
C:/temp/dataset/4/26_05.odb,Step-1,Increment      1: Step Time =    1.000,"PART-1-1",           353,           15.,         28.75,            0.,NA,NA,"",       2.03881,      -2.02958,   193.772E-03,   8.60353E-06
C:/temp/dataset/4/26_05.odb,Step-1,Increment      1: Step Time =    1.000,"PART-1-1",           354,         13.75,           30.,            0.,NA,NA,"",       2.09009,      -2.08573,   134.988E-03,   6.67555E-06
C:/temp/dataset/4/26_05.odb,Step-1,Increment      1: Step Time =    1.000,"PART-1-1",           355,      -3.83569,      -2.96698,            0.,NA,NA,"",   824.988E-03,  -604.424E-03,  -561.495E-03,   66.3414E-06
C:/temp/dataset/4/26_05.odb,Step-1,Increment      1: Step Time =    1.000,"PART-1-1",           356,      -2.47303,      -2.56070,            0.,NA,NA,"",   802.326E-03,  -621.991E-03,  -506.808E-03,   77.8975E-06
C:/temp/dataset/4/26_05.odb,Step-1,Increment      1: Step Time =    1.000,"PART-1-1",           357,      -2.95938,      -1.35275,            0.,NA,NA,"",   853.036E-03,  -670.462E-03,  -527.401E-03,   81.3731E-06
C:/temp/dataset/4/26_05.odb,Step-1,Increment      1: Step Time =    1.000,"PART-1-1",           358,      -4.32205,      -1.75903,            0.,NA,NA,"",   874.680E-03,  -652.869E-03,  -582.089E-03,   53.5816E-06
C:/temp/dataset/4/26_05.odb,Step-1,Increment      1: Step Time =    1.000,"PART-1-1",           359,       8.60967,      -7.25473,            0.,NA,NA,"",   449.912E-03,  -446.947E-03,  -51.5652E-03,   1.55656E-03
C:/temp/dataset/4/26_05.odb,Step-1,Increment      1: Step Time =    1.000,"PART-1-1",           360,       7.51358,      -6.44375,            0.,NA,NA,"",   484.491E-03,  -475.811E-03,  -91.2996E-03,   2.48986E-03
C:/temp/dataset/4/26_05.odb,Step-1,Increment      1: Step Time =    1.000,"PART-1-1",           361,       6.75300,      -7.77251,            0.,NA,NA,"",   444.265E-03,  -429.607E-03,  -113.178E-03,   3.80529E-03
C:/temp/dataset/4/26_05.odb,Step-1,Increment      1: Step Time =    1.000,"PART-1-1",           362,       7.84909,      -8.58350,            0.,NA,NA,"",   408.080E-03,  -401.338E-03,  -73.8722E-03,   2.62318E-03
C:/temp/dataset/4/26_05.odb,Step-1,Increment      1: Step Time =    1.000,"PART-1-1",           363,       7.07130,      -14.2100,            0.,NA,NA,"",   244.051E-03,  -231.651E-03,  -76.8043E-03,   4.37830E-03
C:/temp/dataset/4/26_05.odb,Step-1,Increment      1: Step Time =    1.000,"PART-1-1",           364,       6.02882,      -13.2279,            0.,NA,NA,"",   282.595E-03,  -260.516E-03,  -109.505E-03,   5.70926E-03
C:/temp/dataset/4/26_05.odb,Step-1,Increment      1: Step Time =    1.000,"PART-1-1",           365,            5.,       -14.375,            0.,NA,NA,"",   266.068E-03,  -232.034E-03,  -130.201E-03,   7.42973E-03
C:/temp/dataset/4/26_05.odb,Step-1,Increment      1: Step Time =    1.000,"PART-1-1",           366,       6.04247,      -15.3570,            0.,NA,NA,"",   225.888E-03,  -203.929E-03,  -97.1515E-03,   6.06861E-03
C:/temp/dataset/4/26_05.odb,Step-1,Increment      1: Step Time =    1.000,"PART-1-1",           367,       7.02995,      -12.0379,            0.,NA,NA,"",   305.591E-03,  -292.938E-03,  -87.0244E-03,   4.14670E-03
C:/temp/dataset/4/26_05.odb,Step-1,Increment      1: Step Time =    1.000,"PART-1-1",           368,       6.00113,      -11.1016,            0.,NA,NA,"",   345.020E-03,  -322.806E-03,  -121.799E-03,   5.37340E-03
C:/temp/dataset/4/26_05.odb,Step-1,Increment      1: Step Time =    1.000,"PART-1-1",           369,            5.,      -12.2917,            0.,NA,NA,"",   323.731E-03,  -289.709E-03,  -144.466E-03,   6.96590E-03
C:/temp/dataset/4/26_05.odb,Step-1,Increment      1: Step Time =    1.000,"PART-1-1",           370,            5.,      -22.7083,            0.,NA,NA,"",   90.8570E-03,  -62.7491E-03,  -65.7081E-03,   9.31066E-03
C:/temp/dataset/4/26_05.odb,Step-1,Increment      1: Step Time =    1.000,"PART-1-1",           371,       6.05922,      -23.7899,            0.,NA,NA,"",   62.6327E-03,  -44.7531E-03,  -43.8179E-03,   7.53666E-03
C:/temp/dataset/4/26_05.odb,Step-1,Increment      1: Step Time =    1.000,"PART-1-1",           372,       7.11013,      -22.7834,            0.,NA,NA,"",   66.0775E-03,  -54.9155E-03,  -36.7494E-03,   5.42698E-03
C:/temp/dataset/4/26_05.odb,Step-1,Increment      1: Step Time =    1.000,"PART-1-1",           373,       6.05091,      -21.7018,            0.,NA,NA,"",   93.7943E-03,  -73.7792E-03,  -57.9138E-03,   7.17639E-03
C:/temp/dataset/4/26_05.odb,Step-1,Increment      1: Step Time =    1.000,"PART-1-1",           374,          8.75,          -30.,            0.,NA,NA,"",            0.,   1.19461E-39,  -4.06897E-39,   2.21853E-03
C:/temp/dataset/4/26_05.odb,Step-1,Increment      1: Step Time =    1.000,"PART-1-1",           375,       9.84988,      -28.9274,            0.,NA,NA,"",   332.582E-06,   282.121E-06,  -176.120E-06,   327.027E-06
C:/temp/dataset/4/26_05.odb,Step-1,Increment      1: Step Time =    1.000,"PART-1-1",           376,       8.52411,      -27.9095,            0.,NA,NA,"",   6.05633E-03,  -3.66042E-03,  -4.82498E-03,   3.24180E-03
C:/temp/dataset/4/26_05.odb,Step-1,Increment      1: Step Time =    1.000,"PART-1-1",           377,       7.42422,      -28.9821,            0.,NA,NA,"",   3.99960E-03,  -837.138E-06,  -3.91101E-03,   4.71437E-03
C:/temp/dataset/4/26_05.odb,Step-1,Increment      1: Step Time =    1.000,"PART-1-1",           378,       10.1104,      -23.9794,            0.,NA,NA,"",   36.0787E-03,  -36.0591E-03,   1.18883E-03,   1.02745E-03
C:/temp/dataset/4/26_05.odb,Step-1,Increment      1: Step Time =    1.000,"PART-1-1",           379,       11.1261,      -23.0268,            0.,NA,NA,"",   50.8516E-03,  -48.9885E-03,   13.6384E-03,   2.38078E-03
C:/temp/dataset/4/26_05.odb,Step-1,Increment      1: Step Time =    1.000,"PART-1-1",           380,       10.1523,      -21.9025,            0.,NA,NA,"",   64.8134E-03,  -64.7818E-03,   2.02494E-03,   1.02299E-03
C:/temp/dataset/4/26_05.odb,Step-1,Increment      1: Step Time =    1.000,"PART-1-1",           381,       9.13660,      -22.8552,            0.,NA,NA,"",   52.0332E-03,  -50.9082E-03,  -10.7614E-03,   1.89427E-03
C:/temp/dataset/4/26_05.odb,Step-1,Increment      1: Step Time =    1.000,"PART-1-1",           382,       7.09296,      -18.5383,            0.,NA,NA,"",   140.778E-03,  -128.630E-03,  -57.2090E-03,   4.90411E-03
C:/temp/dataset/4/26_05.odb,Step-1,Increment      1: Step Time =    1.000,"PART-1-1",           383,       6.04465,      -17.4814,            0.,NA,NA,"",   175.425E-03,  -153.686E-03,  -84.5843E-03,   6.44217E-03
C:/temp/dataset/4/26_05.odb,Step-1,Increment      1: Step Time =    1.000,"PART-1-1",           384,            5.,      -18.5417,            0.,NA,NA,"",   167.164E-03,  -134.369E-03,  -99.4432E-03,   8.37895E-03
C:/temp/dataset/4/26_05.odb,Step-1,Increment      1: Step Time =    1.000,"PART-1-1",           385,       6.04831,      -19.5985,            0.,NA,NA,"",   131.316E-03,  -110.160E-03,  -71.4748E-03,   6.81201E-03
C:/temp/dataset/4/26_05.odb,Step-1,Increment      1: Step Time =    1.000,"PART-1-1",           386,       8.88188,       22.9635,            0.,NA,NA,"",       1.75871,      -1.75682,  -81.4087E-03,   105.637E-06
C:/temp/dataset/4/26_05.odb,Step-1,Increment      1: Step Time =    1.000,"PART-1-1",           387,       9.93448,       22.0483,            0.,NA,NA,"",       1.71612,      -1.71582,  -32.0811E-03,   185.871E-06
C:/temp/dataset/4/26_05.odb,Step-1,Increment      1: Step Time =    1.000,"PART-1-1",           388,       10.8087,       23.3359,            0.,NA,NA,"",       1.77620,      -1.77618,   6.82706E-03,   120.822E-06
C:/temp/dataset/4/26_05.odb,Step-1,Increment      1: Step Time =    1.000,"PART-1-1",           389,       9.75606,       24.2511,            0.,NA,NA,"",       1.81761,      -1.81711,  -42.5288E-03,   44.7878E-06
C:/temp/dataset/4/26_05.odb,Step-1,Increment      1: Step Time =    1.000,"PART-1-1",           390,       10.0218,       17.5512,            0.,NA,NA,"",       1.50758,      -1.50739,  -23.8041E-03,   686.265E-06
C:/temp/dataset/4/26_05.odb,Step-1,Increment      1: Step Time =    1.000,"PART-1-1",           391,       9.00837,       16.4411,            0.,NA,NA,"",       1.45610,      -1.45447,  -68.7760E-03,   746.560E-06
C:/temp/dataset/4/26_05.odb,Step-1,Increment      1: Step Time =    1.000,"PART-1-1",           392,       10.0249,       15.2736,            0.,NA,NA,"",       1.40139,      -1.40122,  -21.4356E-03,   889.214E-06
C:/temp/dataset/4/26_05.odb,Step-1,Increment      1: Step Time =    1.000,"PART-1-1",           393,       11.0383,       16.3837,            0.,NA,NA,"",       1.45446,      -1.45427,   23.4946E-03,   866.222E-06
C:/temp/dataset/4/26_05.odb,Step-1,Increment      1: Step Time =    1.000,"PART-1-1",           394,      -14.0638,       5.89996,            0.,NA,NA,"",       1.36886,  -954.089E-03,  -981.576E-03,   788.354E-09
C:/temp/dataset/4/26_05.odb,Step-1,Increment      1: Step Time =    1.000,"PART-1-1",           395,      -13.1194,       6.91794,            0.,NA,NA,"",       1.37244,  -995.962E-03,  -944.273E-03,   374.881E-09
C:/temp/dataset/4/26_05.odb,Step-1,Increment      1: Step Time =    1.000,"PART-1-1",           396,      -14.0556,       8.04923,            0.,NA,NA,"",       1.43168,      -1.04088,  -982.997E-03,   628.300E-09
C:/temp/dataset/4/26_05.odb,Step-1,Increment      1: Step Time =    1.000,"PART-1-1",           397,          -15.,       7.03125,            0.,NA,NA,"",       1.42794,  -999.004E-03,      -1.02030,   1.10810E-06
C:/temp/dataset/4/26_05.odb,Step-1,Increment      1: Step Time =    1.000,"PART-1-1",           398,      -14.0181,       12.3521,            0.,NA,NA,"",       1.56384,      -1.21465,  -984.993E-03,   160.794E-09
C:/temp/dataset/4/26_05.odb,Step-1,Increment      1: Step Time =    1.000,"PART-1-1",           399,      -13.0189,       13.2775,            0.,NA,NA,"",       1.56952,      -1.25283,  -945.403E-03,   162.698E-09
C:/temp/dataset/4/26_05.odb,Step-1,Increment      1: Step Time =    1.000,"PART-1-1",           400,      -14.0008,       14.5192,            0.,NA,NA,"",       1.63339,      -1.30217,  -986.064E-03,   56.0503E-09
C:/temp/dataset/4/26_05.odb,Step-1,Increment      1: Step Time =    1.000,"PART-1-1",           401,          -15.,       13.5938,            0.,NA,NA,"",       1.62777,      -1.26399,      -1.02565,   108.818E-09
C:/temp/dataset/4/26_05.odb,Step-1,Increment      1: Step Time =    1.000,"PART-1-1",           402,      -10.1942,       21.9572,            0.,NA,NA,"",       1.81134,      -1.60561,  -838.423E-03,   33.2673E-09
C:/temp/dataset/4/26_05.odb,Step-1,Increment      1: Step Time =    1.000,"PART-1-1",           403,      -9.14995,       21.4132,            0.,NA,NA,"",       1.77312,      -1.58450,  -795.815E-03,   33.7082E-09
C:/temp/dataset/4/26_05.odb,Step-1,Increment      1: Step Time =    1.000,"PART-1-1",           404,      -8.60578,       22.3365,            0.,NA,NA,"",       1.79766,      -1.62222,  -774.595E-03,   34.7660E-09
C:/temp/dataset/4/26_05.odb,Step-1,Increment      1: Step Time =    1.000,"PART-1-1",           405,      -9.65000,       22.8805,            0.,NA,NA,"",       1.83531,      -1.64334,  -817.203E-03,   34.3666E-09
C:/temp/dataset/4/26_05.odb,Step-1,Increment      1: Step Time =    1.000,"PART-1-1",           406,      -14.0213,       25.7108,            0.,NA,NA,"",       2.01711,      -1.75405,  -996.018E-03,   34.0851E-09
C:/temp/dataset/4/26_05.odb,Step-1,Increment      1: Step Time =    1.000,"PART-1-1",           407,      -12.8802,       26.8172,            0.,NA,NA,"",       2.03541,      -1.79966,  -950.845E-03,   34.5995E-09
C:/temp/dataset/4/26_05.odb,Step-1,Increment      1: Step Time =    1.000,"PART-1-1",           408,      -13.8589,       27.8252,            0.,NA,NA,"",       2.08960,      -1.83956,  -991.185E-03,   34.5840E-09
C:/temp/dataset/4/26_05.odb,Step-1,Increment      1: Step Time =    1.000,"PART-1-1",           409,          -15.,       26.7188,            0.,NA,NA,"",       2.07179,      -1.79396,      -1.03636,   34.2036E-09
C:/temp/dataset/4/26_05.odb,Step-1,Increment      1: Step Time =    1.000,"PART-1-1",           410,        -13.75,           30.,            0.,NA,NA,"",       2.16619,      -1.92747,  -988.561E-03,   36.2211E-09
C:/temp/dataset/4/26_05.odb,Step-1,Increment      1: Step Time =    1.000,"PART-1-1",           411,          -15.,       28.9063,            0.,NA,NA,"",       2.14959,      -1.88228,      -1.03814,   34.9443E-09
C:/temp/dataset/4/26_05.odb,Step-1,Increment      1: Step Time =    1.000,"PART-1-1",           412,      -12.6089,       28.9190,            0.,NA,NA,"",       2.10687,      -1.88475,  -941.604E-03,   35.6181E-09
C:/temp/dataset/4/26_05.odb,Step-1,Increment      1: Step Time =    1.000,"PART-1-1",           413,      -11.4362,       27.6040,            0.,NA,NA,"",       2.03868,      -1.83261,  -893.178E-03,   35.0804E-09
C:/temp/dataset/4/26_05.odb,Step-1,Increment      1: Step Time =    1.000,"PART-1-1",           414,      -10.0773,       28.6850,            0.,NA,NA,"",       2.05639,      -1.87737,  -839.189E-03,   35.1894E-09
C:/temp/dataset/4/26_05.odb,Step-1,Increment      1: Step Time =    1.000,"PART-1-1",           415,        -11.25,           30.,            0.,NA,NA,"",       2.12388,      -1.92951,  -887.615E-03,   35.6012E-09
C:/temp/dataset/4/26_05.odb,Step-1,Increment      1: Step Time =    1.000,"PART-1-1",           416,      -13.7240,       21.2404,            0.,NA,NA,"",       1.85416,      -1.57379,  -980.368E-03,   32.9975E-09
C:/temp/dataset/4/26_05.odb,Step-1,Increment      1: Step Time =    1.000,"PART-1-1",           417,      -12.6979,       22.4429,            0.,NA,NA,"",       1.87568,      -1.62318,  -939.916E-03,   33.0639E-09
C:/temp/dataset/4/26_05.odb,Step-1,Increment      1: Step Time =    1.000,"PART-1-1",           418,      -13.9739,       23.5463,            0.,NA,NA,"",       1.93974,      -1.66670,  -992.338E-03,   33.6686E-09
C:/temp/dataset/4/26_05.odb,Step-1,Increment      1: Step Time =    1.000,"PART-1-1",           419,          -15.,       22.3438,            0.,NA,NA,"",       1.91894,      -1.61730,      -1.03279,   33.6087E-09
C:/temp/dataset/4/26_05.odb,Step-1,Increment      1: Step Time =    1.000,"PART-1-1",           420,      -11.9375,       16.3352,            0.,NA,NA,"",       1.64750,      -1.37718,  -904.229E-03,   40.5963E-09
C:/temp/dataset/4/26_05.odb,Step-1,Increment      1: Step Time =    1.000,"PART-1-1",           421,      -10.8584,       17.1847,            0.,NA,NA,"",       1.65429,      -1.41236,  -861.351E-03,   38.8761E-09
C:/temp/dataset/4/26_05.odb,Step-1,Increment      1: Step Time =    1.000,"PART-1-1",           422,      -11.8099,       18.4796,            0.,NA,NA,"",       1.71884,      -1.46387,  -900.827E-03,   29.0423E-09
C:/temp/dataset/4/26_05.odb,Step-1,Increment      1: Step Time =    1.000,"PART-1-1",           423,      -12.8889,       17.6301,            0.,NA,NA,"",       1.71223,      -1.42869,  -943.705E-03,   30.8037E-09
C:/temp/dataset/4/26_05.odb,Step-1,Increment      1: Step Time =    1.000,"PART-1-1",           424,      -9.98079,       13.8692,            0.,NA,NA,"",       1.52120,      -1.27920,  -823.211E-03,   141.495E-09
C:/temp/dataset/4/26_05.odb,Step-1,Increment      1: Step Time =    1.000,"PART-1-1",           425,      -11.0142,       12.9724,            0.,NA,NA,"",       1.51320,      -1.24215,  -864.207E-03,   226.807E-09
C:/temp/dataset/4/26_05.odb,Step-1,Increment      1: Step Time =    1.000,"PART-1-1",           426,      -10.0204,       11.7735,            0.,NA,NA,"",       1.45067,      -1.19455,  -823.103E-03,   335.859E-09
C:/temp/dataset/4/26_05.odb,Step-1,Increment      1: Step Time =    1.000,"PART-1-1",           427,      -6.95613,       14.5250,            0.,NA,NA,"",       1.48442,      -1.30815,  -701.614E-03,   102.151E-09
C:/temp/dataset/4/26_05.odb,Step-1,Increment      1: Step Time =    1.000,"PART-1-1",           428,      -5.98929,       13.4097,            0.,NA,NA,"",       1.42662,      -1.26390,  -661.665E-03,   98.9514E-09
C:/temp/dataset/4/26_05.odb,Step-1,Increment      1: Step Time =    1.000,"PART-1-1",           429,           -5.,        14.375,            0.,NA,NA,"",       1.44469,      -1.30369,  -622.506E-03,   62.6298E-09
C:/temp/dataset/4/26_05.odb,Step-1,Increment      1: Step Time =    1.000,"PART-1-1",           430,      -5.96684,       15.4903,            0.,NA,NA,"",       1.50192,      -1.34793,  -662.455E-03,   37.8146E-09
C:/temp/dataset/4/26_05.odb,Step-1,Increment      1: Step Time =    1.000,"PART-1-1",           431,      -11.0581,       10.8707,            0.,NA,NA,"",       1.44436,      -1.15725,  -864.264E-03,   405.788E-09
C:/temp/dataset/4/26_05.odb,Step-1,Increment      1: Step Time =    1.000,"PART-1-1",           432,      -10.0579,       9.67932,            0.,NA,NA,"",       1.38173,      -1.10996,  -822.910E-03,   491.304E-09
C:/temp/dataset/4/26_05.odb,Step-1,Increment      1: Step Time =    1.000,"PART-1-1",           433,      -9.02030,       10.5821,            0.,NA,NA,"",       1.38828,      -1.14726,  -781.748E-03,   511.511E-09
C:/temp/dataset/4/26_05.odb,Step-1,Increment      1: Step Time =    1.000,"PART-1-1",           434,      -7.04064,       8.20966,            0.,NA,NA,"",       1.26444,      -1.05308,  -699.877E-03,   1.19645E-06
C:/temp/dataset/4/26_05.odb,Step-1,Increment      1: Step Time =    1.000,"PART-1-1",           435,      -6.03068,       7.10065,            0.,NA,NA,"",       1.20479,      -1.00912,  -658.188E-03,   2.77732E-06
C:/temp/dataset/4/26_05.odb,Step-1,Increment      1: Step Time =    1.000,"PART-1-1",           436,           -5.,         8.125,            0.,NA,NA,"",       1.21921,      -1.05132,  -617.406E-03,   1.58459E-06
C:/temp/dataset/4/26_05.odb,Step-1,Increment      1: Step Time =    1.000,"PART-1-1",           437,      -6.00996,       9.23401,            0.,NA,NA,"",       1.27830,      -1.09528,  -659.093E-03,   771.220E-09
C:/temp/dataset/4/26_05.odb,Step-1,Increment      1: Step Time =    1.000,"PART-1-1",           438,      -13.0926,       9.02789,            0.,NA,NA,"",       1.43590,      -1.08118,  -944.913E-03,   460.659E-09
C:/temp/dataset/4/26_05.odb,Step-1,Increment      1: Step Time =    1.000,"PART-1-1",           439,      -14.0370,       10.1974,            0.,NA,NA,"",       1.49660,      -1.12763,  -984.000E-03,   369.448E-09
C:/temp/dataset/4/26_05.odb,Step-1,Increment      1: Step Time =    1.000,"PART-1-1",           440,          -15.,       9.21875,            0.,NA,NA,"",       1.49230,      -1.08733,      -1.02209,   690.758E-09
C:/temp/dataset/4/26_05.odb,Step-1,Increment      1: Step Time =    1.000,"PART-1-1",           441,      -13.9055,       1.56280,            0.,NA,NA,"",       1.24543,  -779.104E-03,  -971.644E-03,   388.192E-09
C:/temp/dataset/4/26_05.odb,Step-1,Increment      1: Step Time =    1.000,"PART-1-1",           442,      -12.9296,       2.64306,            0.,NA,NA,"",       1.24455,  -823.514E-03,  -933.124E-03,   820.847E-09
C:/temp/dataset/4/26_05.odb,Step-1,Increment      1: Step Time =    1.000,"PART-1-1",           443,      -14.0241,       3.73651,            0.,NA,NA,"",       1.30697,  -866.770E-03,  -978.208E-03,   628.969E-09
C:/temp/dataset/4/26_05.odb,Step-1,Increment      1: Step Time =    1.000,"PART-1-1",           444,          -15.,       2.65625,            0.,NA,NA,"",       1.30767,  -822.359E-03,      -1.01673,   951.245E-09
C:/temp/dataset/4/26_05.odb,Step-1,Increment      1: Step Time =    1.000,"PART-1-1",           445,      -13.7570,      -2.81804,            0.,NA,NA,"",       1.13509,  -602.358E-03,  -962.077E-03,   166.952E-09
C:/temp/dataset/4/26_05.odb,Step-1,Increment      1: Step Time =    1.000,"PART-1-1",           446,      -13.7756,  -623.683E-03,            0.,NA,NA,"",       1.18654,  -690.934E-03,  -964.617E-03,   287.897E-09
C:/temp/dataset/4/26_05.odb,Step-1,Increment      1: Step Time =    1.000,"PART-1-1",           447,          -15.,      -1.71875,            0.,NA,NA,"",       1.20144,  -645.725E-03,      -1.01316,   466.985E-09
C:/temp/dataset/4/26_05.odb,Step-1,Increment      1: Step Time =    1.000,"PART-1-1",           448,        -13.75,           -5.,            0.,NA,NA,"",       1.08909,  -514.274E-03,  -960.017E-03,   208.153E-09
C:/temp/dataset/4/26_05.odb,Step-1,Increment      1: Step Time =    1.000,"PART-1-1",           449,      -12.5070,      -3.91179,            0.,NA,NA,"",       1.06871,  -559.220E-03,  -910.720E-03,   245.416E-09
C:/temp/dataset/4/26_05.odb,Step-1,Increment      1: Step Time =    1.000,"PART-1-1",           450,          -15.,      -3.90625,            0.,NA,NA,"",       1.15481,  -557.411E-03,      -1.01137,   189.947E-09
C:/temp/dataset/4/26_05.odb,Step-1,Increment      1: Step Time =    1.000,"PART-1-1",           451,          -15.,    468.75E-03,            0.,NA,NA,"",       1.25257,  -734.041E-03,      -1.01494,   628.361E-09
C:/temp/dataset/4/26_05.odb,Step-1,Increment      1: Step Time =    1.000,"PART-1-1",           452,      -5.10506,       2.56414,            0.,NA,NA,"",       1.03164,  -826.730E-03,  -617.090E-03,   44.5940E-06
C:/temp/dataset/4/26_05.odb,Step-1,Increment      1: Step Time =    1.000,"PART-1-1",           453,      -4.59209,       3.94539,            0.,NA,NA,"",       1.06603,  -882.854E-03,  -597.487E-03,   37.8071E-06
C:/temp/dataset/4/26_05.odb,Step-1,Increment      1: Step Time =    1.000,"PART-1-1",           454,      -6.09775,       4.77703,            0.,NA,NA,"",       1.12779,  -915.226E-03,  -658.998E-03,   18.9365E-06
C:/temp/dataset/4/26_05.odb,Step-1,Increment      1: Step Time =    1.000,"PART-1-1",           455,      -6.61072,       3.39578,            0.,NA,NA,"",       1.09474,  -859.057E-03,  -678.582E-03,   18.4934E-06
C:/temp/dataset/4/26_05.odb,Step-1,Increment      1: Step Time =    1.000,"PART-1-1",           456,       9.44090,      -5.60228,            0.,NA,NA,"",   507.906E-03,  -507.295E-03,  -24.9080E-03,   1.32677E-03
C:/temp/dataset/4/26_05.odb,Step-1,Increment      1: Step Time =    1.000,"PART-1-1",           457,       9.79564,      -4.46986,            0.,NA,NA,"",   550.614E-03,  -550.457E-03,  -13.1337E-03,   1.52496E-03
C:/temp/dataset/4/26_05.odb,Step-1,Increment      1: Step Time =    1.000,"PART-1-1",           458,       8.43936,      -4.09444,            0.,NA,NA,"",   567.836E-03,  -564.337E-03,  -62.9364E-03,   1.83802E-03
C:/temp/dataset/4/26_05.odb,Step-1,Increment      1: Step Time =    1.000,"PART-1-1",           459,       8.08462,      -5.22686,            0.,NA,NA,"",   525.995E-03,  -520.809E-03,  -73.6767E-03,   1.88551E-03
C:/temp/dataset/4/26_05.odb,Step-1,Increment      1: Step Time =    1.000,"PART-1-1",           460,       6.93926,      -9.88629,            0.,NA,NA,"",   372.642E-03,  -359.372E-03,  -98.5601E-03,   3.98309E-03
C:/temp/dataset/4/26_05.odb,Step-1,Increment      1: Step Time =    1.000,"PART-1-1",           461,       5.93813,      -8.99303,            0.,NA,NA,"",   412.546E-03,  -389.929E-03,  -134.719E-03,   5.13433E-03
C:/temp/dataset/4/26_05.odb,Step-1,Increment      1: Step Time =    1.000,"PART-1-1",           462,            5.,      -10.2083,            0.,NA,NA,"",   386.495E-03,  -352.700E-03,  -158.055E-03,   6.49629E-03
C:/temp/dataset/4/26_05.odb,Step-1,Increment      1: Step Time =    1.000,"PART-1-1",           463,       12.9852,      -11.3613,            0.,NA,NA,"",   327.124E-03,  -316.059E-03,   84.3628E-03,   4.11761E-03
C:/temp/dataset/4/26_05.odb,Step-1,Increment      1: Step Time =    1.000,"PART-1-1",           464,       14.0059,      -12.5461,            0.,NA,NA,"",   303.613E-03,  -283.269E-03,   109.266E-03,   5.67074E-03
C:/temp/dataset/4/26_05.odb,Step-1,Increment      1: Step Time =    1.000,"PART-1-1",           465,           15.,        -11.25,            0.,NA,NA,"",   356.201E-03,  -325.276E-03,   145.169E-03,   6.76461E-03
C:/temp/dataset/4/26_05.odb,Step-1,Increment      1: Step Time =    1.000,"PART-1-1",           466,       13.9793,      -10.0652,            0.,NA,NA,"",   378.662E-03,  -359.356E-03,   119.363E-03,   5.17633E-03
C:/temp/dataset/4/26_05.odb,Step-1,Increment      1: Step Time =    1.000,"PART-1-1",           467,       7.08713,      -16.3801,            0.,NA,NA,"",   188.965E-03,  -176.678E-03,  -67.0262E-03,   4.63490E-03
C:/temp/dataset/4/26_05.odb,Step-1,Increment      1: Step Time =    1.000,"PART-1-1",           468,            5.,      -16.4583,            0.,NA,NA,"",   213.813E-03,  -180.130E-03,  -115.192E-03,   7.90609E-03
C:/temp/dataset/4/26_05.odb,Step-1,Increment      1: Step Time =    1.000,"PART-1-1",           469,       13.0372,      -13.8111,            0.,NA,NA,"",   256.801E-03,  -244.838E-03,   77.4670E-03,   4.51546E-03
C:/temp/dataset/4/26_05.odb,Step-1,Increment      1: Step Time =    1.000,"PART-1-1",           470,       14.0313,      -15.0151,            0.,NA,NA,"",   236.540E-03,  -215.384E-03,   97.7812E-03,   6.15371E-03
C:/temp/dataset/4/26_05.odb,Step-1,Increment      1: Step Time =    1.000,"PART-1-1",           471,           15.,        -13.75,            0.,NA,NA,"",   284.106E-03,  -252.424E-03,   130.377E-03,   7.33610E-03
C:/temp/dataset/4/26_05.odb,Step-1,Increment      1: Step Time =    1.000,"PART-1-1",           472,       13.0981,      -18.6529,            0.,NA,NA,"",   141.003E-03,  -127.980E-03,   59.1855E-03,   5.27488E-03
C:/temp/dataset/4/26_05.odb,Step-1,Increment      1: Step Time =    1.000,"PART-1-1",           473,       14.0553,      -19.9280,            0.,NA,NA,"",   127.004E-03,  -105.742E-03,   70.3480E-03,   7.08355E-03
C:/temp/dataset/4/26_05.odb,Step-1,Increment      1: Step Time =    1.000,"PART-1-1",           474,           15.,        -18.75,            0.,NA,NA,"",   163.588E-03,  -132.198E-03,   96.3567E-03,   8.44884E-03
C:/temp/dataset/4/26_05.odb,Step-1,Increment      1: Step Time =    1.000,"PART-1-1",           475,       14.0427,      -17.4749,            0.,NA,NA,"",   177.534E-03,  -156.043E-03,   84.6686E-03,   6.61861E-03
C:/temp/dataset/4/26_05.odb,Step-1,Increment      1: Step Time =    1.000,"PART-1-1",           476,       6.17422,      -27.9405,            0.,NA,NA,"",   15.9611E-03,  -8.33134E-03,  -13.6142E-03,   8.11467E-03
C:/temp/dataset/4/26_05.odb,Step-1,Increment      1: Step Time =    1.000,"PART-1-1",           477,            5.,      -28.9583,            0.,NA,NA,"",   12.5803E-03,  -7.93813E-03,  -9.75959E-03,   10.6519E-03
C:/temp/dataset/4/26_05.odb,Step-1,Increment      1: Step Time =    1.000,"PART-1-1",           478,          6.25,          -30.,            0.,NA,NA,"",            0.,   514.831E-42,  -12.0158E-39,   7.49534E-03
C:/temp/dataset/4/26_05.odb,Step-1,Increment      1: Step Time =    1.000,"PART-1-1",           479,       9.46325,      -26.8820,            0.,NA,NA,"",   9.13387E-03,  -8.71749E-03,  -2.72632E-03,   1.54437E-03
C:/temp/dataset/4/26_05.odb,Step-1,Increment      1: Step Time =    1.000,"PART-1-1",           480,       8.20536,      -25.9154,            0.,NA,NA,"",   21.4566E-03,  -17.3521E-03,  -12.6210E-03,   3.80360E-03
C:/temp/dataset/4/26_05.odb,Step-1,Increment      1: Step Time =    1.000,"PART-1-1",           481,       7.26622,      -26.9429,            0.,NA,NA,"",   18.3055E-03,  -11.3850E-03,  -14.3343E-03,   5.66213E-03
C:/temp/dataset/4/26_05.odb,Step-1,Increment      1: Step Time =    1.000,"PART-1-1",           482,       13.6319,      -27.3465,            0.,NA,NA,"",   20.4030E-03,  -11.3490E-03,   16.9553E-03,   7.71011E-03
C:/temp/dataset/4/26_05.odb,Step-1,Increment      1: Step Time =    1.000,"PART-1-1",           483,       12.3819,      -28.5965,            0.,NA,NA,"",   5.45431E-03,  -1.88416E-03,   5.11854E-03,   4.52611E-03
C:/temp/dataset/4/26_05.odb,Step-1,Increment      1: Step Time =    1.000,"PART-1-1",           484,         13.75,          -30.,            0.,NA,NA,"",            0.,   662.231E-42,   11.9606E-39,   7.63209E-03
C:/temp/dataset/4/26_05.odb,Step-1,Increment      1: Step Time =    1.000,"PART-1-1",           485,           15.,        -28.75,            0.,NA,NA,"",   15.0527E-03,  -9.43353E-03,   11.7299E-03,   10.5751E-03
C:/temp/dataset/4/26_05.odb,Step-1,Increment      1: Step Time =    1.000,"PART-1-1",           486,         11.25,          -30.,            0.,NA,NA,"",            0.,   1.20121E-39,   4.11328E-39,   2.20313E-03
C:/temp/dataset/4/26_05.odb,Step-1,Increment      1: Step Time =    1.000,"PART-1-1",           487,       10.9817,      -27.5238,            0.,NA,NA,"",   6.45465E-03,  -5.11209E-03,   3.94068E-03,   2.46228E-03
C:/temp/dataset/4/26_05.odb,Step-1,Increment      1: Step Time =    1.000,"PART-1-1",           488,       10.1507,      -19.6985,            0.,NA,NA,"",   102.984E-03,  -102.959E-03,   2.27019E-03,   1.00386E-03
C:/temp/dataset/4/26_05.odb,Step-1,Increment      1: Step Time =    1.000,"PART-1-1",           489,       9.14094,      -20.7396,            0.,NA,NA,"",   85.2229E-03,  -84.0819E-03,  -13.8988E-03,   1.79430E-03
C:/temp/dataset/4/26_05.odb,Step-1,Increment      1: Step Time =    1.000,"PART-1-1",           490,       11.1621,      -20.8614,            0.,NA,NA,"",   84.4980E-03,  -82.5466E-03,   18.0544E-03,   2.31230E-03
C:/temp/dataset/4/26_05.odb,Step-1,Increment      1: Step Time =    1.000,"PART-1-1",           491,       7.09922,      -20.6753,            0.,NA,NA,"",   99.7732E-03,  -87.9443E-03,  -47.1221E-03,   5.17184E-03
C:/temp/dataset/4/26_05.odb,Step-1,Increment      1: Step Time =    1.000,"PART-1-1",           492,            5.,       -20.625,            0.,NA,NA,"",   126.205E-03,  -95.1184E-03,  -82.9473E-03,   8.84442E-03
C:/temp/dataset/4/26_05.odb,Step-1,Increment      1: Step Time =    1.000,"PART-1-1",           493,       9.08758,      -14.0519,            0.,NA,NA,"",   235.410E-03,  -234.053E-03,  -25.2430E-03,   1.64025E-03
C:/temp/dataset/4/26_05.odb,Step-1,Increment      1: Step Time =    1.000,"PART-1-1",           494,       10.1099,      -15.1447,            0.,NA,NA,"",   205.235E-03,  -205.231E-03,   1.22506E-03,   978.290E-06
C:/temp/dataset/4/26_05.odb,Step-1,Increment      1: Step Time =    1.000,"PART-1-1",           495,       11.0794,      -13.9187,            0.,NA,NA,"",   239.935E-03,  -238.514E-03,   26.0716E-03,   1.87230E-03
C:/temp/dataset/4/26_05.odb,Step-1,Increment      1: Step Time =    1.000,"PART-1-1",           496,       10.0571,      -12.8260,            0.,NA,NA,"",   268.448E-03,  -268.447E-03,  -696.267E-06,   966.275E-06
C:/temp/dataset/4/26_05.odb,Step-1,Increment      1: Step Time =    1.000,"PART-1-1",           497,       9.02765,      -11.7712,            0.,NA,NA,"",   300.885E-03,  -299.335E-03,  -30.5060E-03,   1.60214E-03
C:/temp/dataset/4/26_05.odb,Step-1,Increment      1: Step Time =    1.000,"PART-1-1",           498,       11.0123,      -11.5393,            0.,NA,NA,"",   308.433E-03,  -307.296E-03,   26.4605E-03,   1.72806E-03
C:/temp/dataset/4/26_05.odb,Step-1,Increment      1: Step Time =    1.000,"PART-1-1",           499,       9.98284,      -10.4845,            0.,NA,NA,"",   339.260E-03,  -339.239E-03,  -3.75292E-03,   967.390E-06
C:/temp/dataset/4/26_05.odb,Step-1,Increment      1: Step Time =    1.000,"PART-1-1",           500,       12.6190,       1.44886,            0.,NA,NA,"",   796.288E-03,  -790.573E-03,   95.2308E-03,   1.82467E-03
C:/temp/dataset/4/26_05.odb,Step-1,Increment      1: Step Time =    1.000,"PART-1-1",           501,       13.8500,   84.2405E-03,            0.,NA,NA,"",   750.495E-03,  -736.698E-03,   143.248E-03,   2.66684E-03
C:/temp/dataset/4/26_05.odb,Step-1,Increment      1: Step Time =    1.000,"PART-1-1",           502,           15.,          1.25,            0.,NA,NA,"",   810.003E-03,  -786.925E-03,   191.972E-03,   3.18038E-03
C:/temp/dataset/4/26_05.odb,Step-1,Increment      1: Step Time =    1.000,"PART-1-1",           503,       10.0180,      -2.29938,            0.,NA,NA,"",   635.681E-03,  -635.647E-03,  -6.49535E-03,   1.41314E-03
C:/temp/dataset/4/26_05.odb,Step-1,Increment      1: Step Time =    1.000,"PART-1-1",           504,       9.13986,      -3.07696,            0.,NA,NA,"",   605.647E-03,  -604.416E-03,  -38.6051E-03,   1.62118E-03
C:/temp/dataset/4/26_05.odb,Step-1,Increment      1: Step Time =    1.000,"PART-1-1",           505,       10.6738,      -3.69229,            0.,NA,NA,"",   581.538E-03,  -581.245E-03,   18.4792E-03,   1.62837E-03
C:/temp/dataset/4/26_05.odb,Step-1,Increment      1: Step Time =    1.000,"PART-1-1",           506,       12.7589,       6.54544,            0.,NA,NA,"",       1.01277,      -1.00742,   103.870E-03,   1.52761E-03
C:/temp/dataset/4/26_05.odb,Step-1,Increment      1: Step Time =    1.000,"PART-1-1",           507,           15.,          6.25,            0.,NA,NA,"",       1.01859,  -998.685E-03,   200.367E-03,   2.59112E-03
C:/temp/dataset/4/26_05.odb,Step-1,Increment      1: Step Time =    1.000,"PART-1-1",           508,       13.9203,       7.65480,            0.,NA,NA,"",       1.06949,      -1.05823,   154.816E-03,   1.92327E-03
C:/temp/dataset/4/26_05.odb,Step-1,Increment      1: Step Time =    1.000,"PART-1-1",           509,       13.0275,       16.3263,            0.,NA,NA,"",       1.45895,      -1.45447,   114.231E-03,   927.973E-06
C:/temp/dataset/4/26_05.odb,Step-1,Increment      1: Step Time =    1.000,"PART-1-1",           510,       14.0150,       15.0581,            0.,NA,NA,"",       1.40582,      -1.39667,   160.163E-03,   948.054E-06
C:/temp/dataset/4/26_05.odb,Step-1,Increment      1: Step Time =    1.000,"PART-1-1",           511,           15.,         16.25,            0.,NA,NA,"",       1.46868,      -1.45424,   205.417E-03,   781.829E-06
C:/temp/dataset/4/26_05.odb,Step-1,Increment      1: Step Time =    1.000,"PART-1-1",           512,       14.0124,       17.5182,            0.,NA,NA,"",       1.52003,      -1.51171,   158.870E-03,   682.235E-06
C:/temp/dataset/4/26_05.odb,Step-1,Increment      1: Step Time =    1.000,"PART-1-1",           513,       13.0175,       18.7421,            0.,NA,NA,"",       1.57108,      -1.56707,   112.221E-03,   659.122E-06
C:/temp/dataset/4/26_05.odb,Step-1,Increment      1: Step Time =    1.000,"PART-1-1",           514,           15.,         18.75,            0.,NA,NA,"",       1.58365,      -1.57050,   203.637E-03,   522.227E-06
C:/temp/dataset/4/26_05.odb,Step-1,Increment      1: Step Time =    1.000,"PART-1-1",           515,       14.0051,       19.9738,            0.,NA,NA,"",       1.63319,      -1.62566,   156.672E-03,   526.912E-06
C:/temp/dataset/4/26_05.odb,Step-1,Increment      1: Step Time =    1.000,"PART-1-1",           516,       5.97628,       21.7197,            0.,NA,NA,"",       1.70966,      -1.69623,  -213.880E-03,   51.8235E-06
C:/temp/dataset/4/26_05.odb,Step-1,Increment      1: Step Time =    1.000,"PART-1-1",           517,       6.92463,       22.7965,            0.,NA,NA,"",       1.75535,      -1.74697,  -171.327E-03,   60.7581E-06
C:/temp/dataset/4/26_05.odb,Step-1,Increment      1: Step Time =    1.000,"PART-1-1",           518,       5.94835,       23.7852,            0.,NA,NA,"",       1.80466,      -1.79152,  -217.361E-03,   24.4155E-06
C:/temp/dataset/4/26_05.odb,Step-1,Increment      1: Step Time =    1.000,"PART-1-1",           519,            5.,       22.7083,            0.,NA,NA,"",       1.76014,      -1.74083,  -259.971E-03,   31.3422E-06
C:/temp/dataset/4/26_05.odb,Step-1,Increment      1: Step Time =    1.000,"PART-1-1",           520,       13.8862,       24.9278,            0.,NA,NA,"",       1.85848,      -1.85270,   146.562E-03,   51.6357E-06
C:/temp/dataset/4/26_05.odb,Step-1,Increment      1: Step Time =    1.000,"PART-1-1",           521,           15.,         26.25,            0.,NA,NA,"",       1.92469,      -1.91464,   196.374E-03,   42.7864E-06
C:/temp/dataset/4/26_05.odb,Step-1,Increment      1: Step Time =    1.000,"PART-1-1",           522,       6.15342,       27.8650,            0.,NA,NA,"",       1.99091,      -1.97957,  -212.190E-03,   13.8474E-06
C:/temp/dataset/4/26_05.odb,Step-1,Increment      1: Step Time =    1.000,"PART-1-1",           523,       7.40342,       28.9067,            0.,NA,NA,"",       2.03479,      -2.02882,  -155.752E-03,   15.0157E-06
C:/temp/dataset/4/26_05.odb,Step-1,Increment      1: Step Time =    1.000,"PART-1-1",           524,          6.25,           30.,            0.,NA,NA,"",       2.08850,      -2.07792,  -210.003E-03,   4.94985E-06
C:/temp/dataset/4/26_05.odb,Step-1,Increment      1: Step Time =    1.000,"PART-1-1",           525,            5.,       28.9583,            0.,NA,NA,"",       2.04608,      -2.02865,  -266.430E-03,   4.29233E-06
C:/temp/dataset/4/26_05.odb,Step-1,Increment      1: Step Time =    1.000,"PART-1-1",           526,       7.11917,       26.8292,            0.,NA,NA,"",       1.94010,      -1.93293,  -166.636E-03,   19.6440E-06
C:/temp/dataset/4/26_05.odb,Step-1,Increment      1: Step Time =    1.000,"PART-1-1",           527,            5.,        26.875,            0.,NA,NA,"",       1.95076,      -1.93278,  -264.242E-03,   21.6947E-06
C:/temp/dataset/4/26_05.odb,Step-1,Increment      1: Step Time =    1.000,"PART-1-1",           528,       5.96574,       25.8392,            0.,NA,NA,"",       1.89878,      -1.88614,  -218.704E-03,   21.7821E-06
C:/temp/dataset/4/26_05.odb,Step-1,Increment      1: Step Time =    1.000,"PART-1-1",           529,       8.59546,       27.4701,            0.,NA,NA,"",       1.96650,      -1.96399,  -99.3558E-03,   15.8534E-06
C:/temp/dataset/4/26_05.odb,Step-1,Increment      1: Step Time =    1.000,"PART-1-1",           530,       9.94204,       28.5635,            0.,NA,NA,"",       2.01606,      -2.01569,  -38.5606E-03,   17.6996E-06
C:/temp/dataset/4/26_05.odb,Step-1,Increment      1: Step Time =    1.000,"PART-1-1",           531,          8.75,           30.,            0.,NA,NA,"",       2.08270,      -2.08054,  -94.9407E-03,   20.8773E-06
C:/temp/dataset/4/26_05.odb,Step-1,Increment      1: Step Time =    1.000,"PART-1-1",           532,            5.,       24.7917,            0.,NA,NA,"",       1.85548,      -1.83687,  -262.096E-03,   39.9364E-06
C:/temp/dataset/4/26_05.odb,Step-1,Increment      1: Step Time =    1.000,"PART-1-1",           533,       6.91409,       24.8327,            0.,NA,NA,"",       1.84902,      -1.84082,  -173.970E-03,   8.61197E-06
C:/temp/dataset/4/26_05.odb,Step-1,Increment      1: Step Time =    1.000,"PART-1-1",           534,            5.,        20.625,            0.,NA,NA,"",       1.66466,      -1.64458,  -257.776E-03,   46.9319E-06
C:/temp/dataset/4/26_05.odb,Step-1,Increment      1: Step Time =    1.000,"PART-1-1",           535,       5.99534,       19.6263,            0.,NA,NA,"",       1.61318,      -1.59937,  -210.639E-03,   167.122E-06
C:/temp/dataset/4/26_05.odb,Step-1,Increment      1: Step Time =    1.000,"PART-1-1",           536,       6.97162,       20.7210,            0.,NA,NA,"",       1.65951,      -1.65110,  -166.906E-03,   186.703E-06
C:/temp/dataset/4/26_05.odb,Step-1,Increment      1: Step Time =    1.000,"PART-1-1",           537,       9.90537,       10.7177,            0.,NA,NA,"",       1.19069,      -1.19049,  -21.9655E-03,   967.698E-06
C:/temp/dataset/4/26_05.odb,Step-1,Increment      1: Step Time =    1.000,"PART-1-1",           538,       8.83179,       9.75083,            0.,NA,NA,"",       1.14752,      -1.14551,  -68.0081E-03,   1.08425E-03
C:/temp/dataset/4/26_05.odb,Step-1,Increment      1: Step Time =    1.000,"PART-1-1",           539,       10.8380,       9.37550,            0.,NA,NA,"",       1.13073,      -1.13055,   20.1636E-03,   994.283E-06
C:/temp/dataset/4/26_05.odb,Step-1,Increment      1: Step Time =    1.000,"PART-1-1",           540,       5.96737,       11.1773,            0.,NA,NA,"",       1.22483,      -1.20873,  -197.931E-03,   1.39158E-03
C:/temp/dataset/4/26_05.odb,Step-1,Increment      1: Step Time =    1.000,"PART-1-1",           541,       6.95908,       12.1740,            0.,NA,NA,"",       1.26447,      -1.25490,  -155.284E-03,   1.11494E-03
C:/temp/dataset/4/26_05.odb,Step-1,Increment      1: Step Time =    1.000,"PART-1-1",           542,            5.,       12.2917,            0.,NA,NA,"",       1.28280,      -1.25928,  -244.516E-03,   1.40057E-03
C:/temp/dataset/4/26_05.odb,Step-1,Increment      1: Step Time =    1.000,"PART-1-1",           543,       6.89189,       10.0466,            0.,NA,NA,"",       1.16789,      -1.15769,  -154.047E-03,   1.41008E-03
C:/temp/dataset/4/26_05.odb,Step-1,Increment      1: Step Time =    1.000,"PART-1-1",           544,            5.,       10.2083,            0.,NA,NA,"",       1.18874,      -1.16441,  -239.272E-03,   1.89407E-03
C:/temp/dataset/4/26_05.odb,Step-1,Increment      1: Step Time =    1.000,"PART-1-1",           545,  -883.251E-03,       2.97832,            0.,NA,NA,"",   957.612E-03,  -846.862E-03,  -447.042E-03,   80.5370E-06
C:/temp/dataset/4/26_05.odb,Step-1,Increment      1: Step Time =    1.000,"PART-1-1",           546,         -1.25,            5.,            0.,NA,NA,"",       1.03717,  -927.827E-03,  -463.539E-03,   204.307E-06
C:/temp/dataset/4/26_05.odb,Step-1,Increment      1: Step Time =    1.000,"PART-1-1",           547,      -2.28350,       3.97568,            0.,NA,NA,"",       1.01936,  -885.866E-03,  -504.312E-03,   83.9129E-06
C:/temp/dataset/4/26_05.odb,Step-1,Increment      1: Step Time =    1.000,"PART-1-1",           548,      -3.12559,       2.92107,            0.,NA,NA,"",   999.520E-03,  -842.739E-03,  -537.429E-03,   73.5151E-06
C:/temp/dataset/4/26_05.odb,Step-1,Increment      1: Step Time =    1.000,"PART-1-1",           549,         -3.75,            5.,            0.,NA,NA,"",       1.08447,  -926.059E-03,  -564.359E-03,   82.0576E-06
C:/temp/dataset/4/26_05.odb,Step-1,Increment      1: Step Time =    1.000,"PART-1-1",           550,      -7.01026,       10.3490,            0.,NA,NA,"",       1.33753,      -1.13949,  -700.394E-03,   612.666E-09
C:/temp/dataset/4/26_05.odb,Step-1,Increment      1: Step Time =    1.000,"PART-1-1",           551,           -5.,       10.2083,            0.,NA,NA,"",       1.29326,      -1.13544,  -619.107E-03,   910.147E-09
C:/temp/dataset/4/26_05.odb,Step-1,Increment      1: Step Time =    1.000,"PART-1-1",           552,      -6.00030,       11.3233,            0.,NA,NA,"",       1.35193,      -1.17965,  -660.408E-03,   300.115E-09
C:/temp/dataset/4/26_05.odb,Step-1,Increment      1: Step Time =    1.000,"PART-1-1",           553,      -6.90277,       16.5792,            0.,NA,NA,"",       1.55784,      -1.39114,  -701.135E-03,   42.6551E-09
C:/temp/dataset/4/26_05.odb,Step-1,Increment      1: Step Time =    1.000,"PART-1-1",           554,           -5.,       16.4583,            0.,NA,NA,"",       1.52173,      -1.38781,  -624.205E-03,   35.7370E-09
C:/temp/dataset/4/26_05.odb,Step-1,Increment      1: Step Time =    1.000,"PART-1-1",           555,      -5.93592,       17.5473,            0.,NA,NA,"",       1.57709,      -1.43102,  -662.885E-03,   37.7962E-09
C:/temp/dataset/4/26_05.odb,Step-1,Increment      1: Step Time =    1.000,"PART-1-1",           556,      -5.96041,       23.6583,            0.,NA,NA,"",       1.80616,      -1.67775,  -668.857E-03,   37.6718E-09
C:/temp/dataset/4/26_05.odb,Step-1,Increment      1: Step Time =    1.000,"PART-1-1",           557,           -5.,       24.7917,            0.,NA,NA,"",       1.83613,      -1.72430,  -631.001E-03,   37.9881E-09
C:/temp/dataset/4/26_05.odb,Step-1,Increment      1: Step Time =    1.000,"PART-1-1",           558,      -7.48847,       28.8776,            0.,NA,NA,"",       2.02526,      -1.88725,  -734.814E-03,   34.9514E-09
C:/temp/dataset/4/26_05.odb,Step-1,Increment      1: Step Time =    1.000,"PART-1-1",           559,           -5.,       28.9583,            0.,NA,NA,"",       1.99604,      -1.89254,  -634.399E-03,   36.2596E-09
C:/temp/dataset/4/26_05.odb,Step-1,Increment      1: Step Time =    1.000,"PART-1-1",           560,         -6.25,           30.,            0.,NA,NA,"",       2.05158,      -1.93358,  -685.722E-03,   34.8328E-09
C:/temp/dataset/4/26_05.odb,Step-1,Increment      1: Step Time =    1.000,"PART-1-1",           561,       12.9634,       11.4929,            0.,NA,NA,"",       1.23493,      -1.22971,   113.402E-03,   1.13628E-03
C:/temp/dataset/4/26_05.odb,Step-1,Increment      1: Step Time =    1.000,"PART-1-1",           562,       13.9657,       10.1417,            0.,NA,NA,"",       1.18035,      -1.16970,   158.175E-03,   1.58245E-03
C:/temp/dataset/4/26_05.odb,Step-1,Increment      1: Step Time =    1.000,"PART-1-1",           563,           15.,         11.25,            0.,NA,NA,"",       1.23906,      -1.22192,   205.337E-03,   1.74296E-03
C:/temp/dataset/4/26_05.odb,Step-1,Increment      1: Step Time =    1.000,"PART-1-1",           564,       13.9978,       12.6011,            0.,NA,NA,"",       1.29219,      -1.28224,   160.035E-03,   1.17300E-03
C:/temp/dataset/4/26_05.odb,Step-1,Increment      1: Step Time =    1.000,"PART-1-1",           565,       9.13480,      -18.5479,            0.,NA,NA,"",   127.146E-03,  -125.964E-03,  -17.2916E-03,   1.72929E-03
C:/temp/dataset/4/26_05.odb,Step-1,Increment      1: Step Time =    1.000,"PART-1-1",           566,       11.1537,      -18.5886,            0.,NA,NA,"",   127.624E-03,  -125.775E-03,   21.6459E-03,   2.18029E-03
C:/temp/dataset/4/26_05.odb,Step-1,Increment      1: Step Time =    1.000,"PART-1-1",           567,       10.1377,      -17.4381,            0.,NA,NA,"",   149.952E-03,  -149.938E-03,   2.07504E-03,   991.484E-06
C:/temp/dataset/4/26_05.odb,Step-1,Increment      1: Step Time =    1.000,"PART-1-1",           568,      -8.81573,       27.5627,            0.,NA,NA,"",       1.99501,      -1.83307,  -787.335E-03,   35.3664E-09
C:/temp/dataset/4/26_05.odb,Step-1,Increment      1: Step Time =    1.000,"PART-1-1",           569,         -8.75,           30.,            0.,NA,NA,"",       2.08560,      -1.93155,  -786.668E-03,   34.8691E-09
C:/temp/dataset/4/26_05.odb,Step-1,Increment      1: Step Time =    1.000,"PART-1-1",           570,            5.,      -24.7917,            0.,NA,NA,"",   60.7378E-03,  -37.5795E-03,  -47.7165E-03,   9.65764E-03
C:/temp/dataset/4/26_05.odb,Step-1,Increment      1: Step Time =    1.000,"PART-1-1",           571,       6.09200,      -25.8775,            0.,NA,NA,"",   37.1558E-03,  -23.1722E-03,  -29.0448E-03,   7.82467E-03
C:/temp/dataset/4/26_05.odb,Step-1,Increment      1: Step Time =    1.000,"PART-1-1",           572,       7.15121,      -24.8757,            0.,NA,NA,"",   39.0824E-03,  -29.3825E-03,  -25.7702E-03,   5.69716E-03
C:/temp/dataset/4/26_05.odb,Step-1,Increment      1: Step Time =    1.000,"PART-1-1",           573,       13.1040,      -21.0477,            0.,NA,NA,"",   95.9112E-03,  -82.9952E-03,   48.0703E-03,   5.61246E-03
C:/temp/dataset/4/26_05.odb,Step-1,Increment      1: Step Time =    1.000,"PART-1-1",           574,       14.0487,      -22.3697,            0.,NA,NA,"",   84.8614E-03,  -64.9830E-03,   54.5772E-03,   7.52668E-03
C:/temp/dataset/4/26_05.odb,Step-1,Increment      1: Step Time =    1.000,"PART-1-1",           575,           15.,        -21.25,            0.,NA,NA,"",   115.596E-03,  -86.0631E-03,   77.1728E-03,   9.01503E-03
C:/temp/dataset/4/26_05.odb,Step-1,Increment      1: Step Time =    1.000,"PART-1-1",           576,            5.,       -26.875,            0.,NA,NA,"",   35.5389E-03,  -19.9342E-03,  -29.4218E-03,   10.1311E-03
C:/temp/dataset/4/26_05.odb,Step-1,Increment      1: Step Time =    1.000,"PART-1-1",           577,       12.8133,      -6.31290,            0.,NA,NA,"",   494.284E-03,  -485.593E-03,   92.2820E-03,   3.26270E-03
C:/temp/dataset/4/26_05.odb,Step-1,Increment      1: Step Time =    1.000,"PART-1-1",           578,       13.9319,      -7.55671,            0.,NA,NA,"",   461.619E-03,  -443.702E-03,   127.363E-03,   4.60394E-03
C:/temp/dataset/4/26_05.odb,Step-1,Increment      1: Step Time =    1.000,"PART-1-1",           579,           15.,         -6.25,            0.,NA,NA,"",   521.848E-03,  -493.433E-03,   169.851E-03,   5.37045E-03
C:/temp/dataset/4/26_05.odb,Step-1,Increment      1: Step Time =    1.000,"PART-1-1",           580,            5.,       18.5417,            0.,NA,NA,"",       1.56902,      -1.54810,  -255.340E-03,   230.574E-06
C:/temp/dataset/4/26_05.odb,Step-1,Increment      1: Step Time =    1.000,"PART-1-1",           581,       6.00122,       17.5195,            0.,NA,NA,"",       1.51593,      -1.50163,  -207.699E-03,   373.336E-06
C:/temp/dataset/4/26_05.odb,Step-1,Increment      1: Step Time =    1.000,"PART-1-1",           582,       6.99656,       18.6041,            0.,NA,NA,"",       1.56153,      -1.55297,  -163.301E-03,   376.890E-06
C:/temp/dataset/4/26_05.odb,Step-1,Increment      1: Step Time =    1.000,"PART-1-1",           583,       12.8545,       23.6160,            0.,NA,NA,"",       1.79424,      -1.79142,   100.590E-03,   124.228E-06
C:/temp/dataset/4/26_05.odb,Step-1,Increment      1: Step Time =    1.000,"PART-1-1",           584,       13.9683,       22.4382,            0.,NA,NA,"",       1.74555,      -1.73883,   152.918E-03,   288.718E-06
C:/temp/dataset/4/26_05.odb,Step-1,Increment      1: Step Time =    1.000,"PART-1-1",           585,           15.,         23.75,            0.,NA,NA,"",       1.81080,      -1.79985,   198.813E-03,   78.4720E-06
C:/temp/dataset/4/26_05.odb,Step-1,Increment      1: Step Time =    1.000,"PART-1-1",           586,            5.,       16.4583,            0.,NA,NA,"",       1.47331,      -1.45152,  -252.442E-03,   534.380E-06
C:/temp/dataset/4/26_05.odb,Step-1,Increment      1: Step Time =    1.000,"PART-1-1",           587,       7.00480,       16.4638,            0.,NA,NA,"",       1.46231,      -1.45351,  -160.143E-03,   607.596E-06
C:/temp/dataset/4/26_05.odb,Step-1,Increment      1: Step Time =    1.000,"PART-1-1",           588,       12.9734,       21.1620,            0.,NA,NA,"",       1.68242,      -1.67893,   108.321E-03,   438.944E-06
C:/temp/dataset/4/26_05.odb,Step-1,Increment      1: Step Time =    1.000,"PART-1-1",           589,           15.,         21.25,            0.,NA,NA,"",       1.69794,      -1.68597,   201.252E-03,   427.057E-06
C:/temp/dataset/4/26_05.odb,Step-1,Increment      1: Step Time =    1.000,"PART-1-1",           590,            5.,       6.04167,            0.,NA,NA,"",       1.00420,  -978.599E-03,  -225.321E-03,   4.26517E-03
C:/temp/dataset/4/26_05.odb,Step-1,Increment      1: Step Time =    1.000,"PART-1-1",           591,       5.70418,       5.21013,            0.,NA,NA,"",   961.114E-03,  -941.639E-03,  -192.501E-03,   2.88817E-03
C:/temp/dataset/4/26_05.odb,Step-1,Increment      1: Step Time =    1.000,"PART-1-1",           592,       6.54256,       6.20387,            0.,NA,NA,"",   998.547E-03,  -985.636E-03,  -160.055E-03,   1.77168E-03
C:/temp/dataset/4/26_05.odb,Step-1,Increment      1: Step Time =    1.000,"PART-1-1",           593,       7.80464,       8.81181,            0.,NA,NA,"",       1.10798,      -1.10236,  -111.419E-03,   1.29784E-03
C:/temp/dataset/4/26_05.odb,Step-1,Increment      1: Step Time =    1.000,"PART-1-1",           594,       7.55468,       6.70991,            0.,NA,NA,"",       1.01544,      -1.00853,  -118.294E-03,   1.52647E-03
C:/temp/dataset/4/26_05.odb,Step-1,Increment      1: Step Time =    1.000,"PART-1-1",           595,           -5.,       12.2917,            0.,NA,NA,"",       1.36848,      -1.21957,  -620.807E-03,   189.038E-09
C:/temp/dataset/4/26_05.odb,Step-1,Increment      1: Step Time =    1.000,"PART-1-1",           596,      -13.0551,       11.1433,            0.,NA,NA,"",       1.50142,      -1.16663,  -945.123E-03,   328.084E-09
C:/temp/dataset/4/26_05.odb,Step-1,Increment      1: Step Time =    1.000,"PART-1-1",           597,          -15.,       11.4063,            0.,NA,NA,"",       1.55900,      -1.17566,      -1.02387,   315.262E-09
C:/temp/dataset/4/26_05.odb,Step-1,Increment      1: Step Time =    1.000,"PART-1-1",           598,           -5.,       18.5417,            0.,NA,NA,"",       1.59948,      -1.47193,  -625.904E-03,   42.8647E-09
C:/temp/dataset/4/26_05.odb,Step-1,Increment      1: Step Time =    1.000,"PART-1-1",           599,      -6.83195,       18.5917,            0.,NA,NA,"",       1.63034,      -1.47246,  -699.917E-03,   34.5377E-09
C:/temp/dataset/4/26_05.odb,Step-1,Increment      1: Step Time =    1.000,"PART-1-1",           600,      -12.9744,       15.4368,            0.,NA,NA,"",       1.63996,      -1.34006,  -945.369E-03,   64.3026E-09
C:/temp/dataset/4/26_05.odb,Step-1,Increment      1: Step Time =    1.000,"PART-1-1",           601,      -13.9736,       16.6988,            0.,NA,NA,"",       1.70480,      -1.39020,  -986.743E-03,   29.6790E-09
C:/temp/dataset/4/26_05.odb,Step-1,Increment      1: Step Time =    1.000,"PART-1-1",           602,          -15.,       15.7813,            0.,NA,NA,"",       1.69835,      -1.35232,      -1.02744,   35.3830E-09
C:/temp/dataset/4/26_05.odb,Step-1,Increment      1: Step Time =    1.000,"PART-1-1",           603,      -6.85389,       22.5676,            0.,NA,NA,"",       1.77829,      -1.63298,  -704.045E-03,   36.9007E-09
C:/temp/dataset/4/26_05.odb,Step-1,Increment      1: Step Time =    1.000,"PART-1-1",           604,           -5.,       22.7083,            0.,NA,NA,"",       1.75676,      -1.64018,  -629.302E-03,   39.7306E-09
C:/temp/dataset/4/26_05.odb,Step-1,Increment      1: Step Time =    1.000,"PART-1-1",           605,      -7.62380,       21.5126,            0.,NA,NA,"",       1.75113,      -1.58975,  -734.272E-03,   35.7625E-09
C:/temp/dataset/4/26_05.odb,Step-1,Increment      1: Step Time =    1.000,"PART-1-1",           606,      -11.2433,       25.0031,            0.,NA,NA,"",       1.94043,      -1.72774,  -883.271E-03,   34.4370E-09
C:/temp/dataset/4/26_05.odb,Step-1,Increment      1: Step Time =    1.000,"PART-1-1",           607,      -10.1220,       24.6816,            0.,NA,NA,"",       1.90928,      -1.71568,  -837.730E-03,   34.7438E-09
C:/temp/dataset/4/26_05.odb,Step-1,Increment      1: Step Time =    1.000,"PART-1-1",           608,      -9.68436,       26.2404,            0.,NA,NA,"",       1.95942,      -1.77898,  -821.331E-03,   35.1614E-09
C:/temp/dataset/4/26_05.odb,Step-1,Increment      1: Step Time =    1.000,"PART-1-1",           609,      -10.8057,       26.5619,            0.,NA,NA,"",       1.98980,      -1.79104,  -866.872E-03,   34.9117E-09
C:/temp/dataset/4/26_05.odb,Step-1,Increment      1: Step Time =    1.000,"PART-1-1",           610,            5.,      -6.04167,            0.,NA,NA,"",   525.739E-03,  -492.369E-03,  -184.320E-03,   7.00294E-03
C:/temp/dataset/4/26_05.odb,Step-1,Increment      1: Step Time =    1.000,"PART-1-1",           611,       5.81487,      -6.90448,            0.,NA,NA,"",   484.368E-03,  -460.603E-03,  -149.855E-03,   5.01006E-03
C:/temp/dataset/4/26_05.odb,Step-1,Increment      1: Step Time =    1.000,"PART-1-1",           612,       6.44107,      -5.66337,            0.,NA,NA,"",   521.380E-03,  -504.256E-03,  -132.528E-03,   3.10145E-03
C:/temp/dataset/4/26_05.odb,Step-1,Increment      1: Step Time =    1.000,"PART-1-1",           613,       5.62621,      -4.80056,            0.,NA,NA,"",   562.119E-03,  -536.775E-03,  -166.885E-03,   4.45415E-03
C:/temp/dataset/4/26_05.odb,Step-1,Increment      1: Step Time =    1.000,"PART-1-1",           614,            5.,        -8.125,            0.,NA,NA,"",   454.085E-03,  -420.734E-03,  -170.812E-03,   6.26199E-03
C:/temp/dataset/4/26_05.odb,Step-1,Increment      1: Step Time =    1.000,"PART-1-1",           615,       8.00489,       17.5473,            0.,NA,NA,"",       1.50934,      -1.50489,  -115.809E-03,   541.576E-06
C:/temp/dataset/4/26_05.odb,Step-1,Increment      1: Step Time =    1.000,"PART-1-1",           616,       8.00828,       15.3576,            0.,NA,NA,"",       1.40755,      -1.40302,  -112.873E-03,   760.684E-06
C:/temp/dataset/4/26_05.odb,Step-1,Increment      1: Step Time =    1.000,"PART-1-1",           617,       11.1265,      -16.2686,            0.,NA,NA,"",   179.597E-03,  -177.931E-03,   24.4099E-03,   2.03164E-03
C:/temp/dataset/4/26_05.odb,Step-1,Increment      1: Step Time =    1.000,"PART-1-1",           618,       9.12111,      -16.3141,            0.,NA,NA,"",   177.332E-03,  -176.091E-03,  -20.9460E-03,   1.67683E-03
C:/temp/dataset/4/26_05.odb,Step-1,Increment      1: Step Time =    1.000,"PART-1-1",           619,      -9.91602,       15.9767,            0.,NA,NA,"",       1.59300,      -1.36435,  -822.314E-03,   54.9783E-09
C:/temp/dataset/4/26_05.odb,Step-1,Increment      1: Step Time =    1.000,"PART-1-1",           620,      -10.9598,       15.0860,            0.,NA,NA,"",       1.58379,      -1.32754,  -863.734E-03,   96.5915E-09
C:/temp/dataset/4/26_05.odb,Step-1,Increment      1: Step Time =    1.000,"PART-1-1",           621,      -8.93702,       14.7598,            0.,NA,NA,"",       1.53072,      -1.31602,  -781.791E-03,   116.056E-09
C:/temp/dataset/4/26_05.odb,Step-1,Increment      1: Step Time =    1.000,"PART-1-1",           622,      -13.0880,       4.79273,            0.,NA,NA,"",       1.30936,  -910.178E-03,  -941.270E-03,   343.780E-09
C:/temp/dataset/4/26_05.odb,Step-1,Increment      1: Step Time =    1.000,"PART-1-1",           623,          -15.,       4.84375,            0.,NA,NA,"",       1.36627,  -910.680E-03,      -1.01851,   1.23971E-06
C:/temp/dataset/4/26_05.odb,Step-1,Increment      1: Step Time =    1.000,"PART-1-1",           624,           -5.,       6.04167,            0.,NA,NA,"",       1.14654,  -967.194E-03,  -615.701E-03,   7.83700E-06
C:/temp/dataset/4/26_05.odb,Step-1,Increment      1: Step Time =    1.000,"PART-1-1",           625,      -7.12843,       5.83601,            0.,NA,NA,"",       1.18669,  -957.155E-03,  -701.485E-03,   2.09596E-06
C:/temp/dataset/4/26_05.odb,Step-1,Increment      1: Step Time =    1.000,"PART-1-1",           626,       12.9112,      -8.87192,            0.,NA,NA,"",   405.981E-03,  -396.018E-03,   89.3843E-03,   3.70573E-03
C:/temp/dataset/4/26_05.odb,Step-1,Increment      1: Step Time =    1.000,"PART-1-1",           627,           15.,         -8.75,            0.,NA,NA,"",   435.652E-03,  -405.836E-03,   158.400E-03,   6.13086E-03
C:/temp/dataset/4/26_05.odb,Step-1,Increment      1: Step Time =    1.000,"PART-1-1",           628,       13.0740,      -16.2399,            0.,NA,NA,"",   194.709E-03,  -182.068E-03,   69.0119E-03,   4.90061E-03
C:/temp/dataset/4/26_05.odb,Step-1,Increment      1: Step Time =    1.000,"PART-1-1",           629,           15.,        -16.25,            0.,NA,NA,"",   219.798E-03,  -187.862E-03,   114.101E-03,   7.89480E-03
C:/temp/dataset/4/26_05.odb,Step-1,Increment      1: Step Time =    1.000,"PART-1-1",           630,       13.0128,       13.9092,            0.,NA,NA,"",       1.34639,      -1.34148,   114.815E-03,   999.409E-06
C:/temp/dataset/4/26_05.odb,Step-1,Increment      1: Step Time =    1.000,"PART-1-1",           631,           15.,         13.75,            0.,NA,NA,"",       1.35279,      -1.33700,   206.093E-03,   1.21403E-03
C:/temp/dataset/4/26_05.odb,Step-1,Increment      1: Step Time =    1.000,"PART-1-1",           632,       10.9505,       11.7339,            0.,NA,NA,"",       1.23839,      -1.23817,   23.4165E-03,   1.00386E-03
C:/temp/dataset/4/26_05.odb,Step-1,Increment      1: Step Time =    1.000,"PART-1-1",           633,       9.98883,       12.9959,            0.,NA,NA,"",       1.29551,      -1.29534,  -20.6853E-03,   966.450E-06
C:/temp/dataset/4/26_05.odb,Step-1,Increment      1: Step Time =    1.000,"PART-1-1",           634,       8.94372,       11.9797,            0.,NA,NA,"",       1.24919,      -1.24744,  -66.1400E-03,   1.02256E-03
C:/temp/dataset/4/26_05.odb,Step-1,Increment      1: Step Time =    1.000,"PART-1-1",           635,      -13.9153,       18.9000,            0.,NA,NA,"",       1.77775,      -1.47913,  -986.185E-03,   31.4013E-09
C:/temp/dataset/4/26_05.odb,Step-1,Increment      1: Step Time =    1.000,"PART-1-1",           636,      -12.6393,       19.9841,            0.,NA,NA,"",       1.78820,      -1.52395,  -935.546E-03,   30.8753E-09
C:/temp/dataset/4/26_05.odb,Step-1,Increment      1: Step Time =    1.000,"PART-1-1",           637,          -15.,       20.1563,            0.,NA,NA,"",       1.84411,      -1.52897,      -1.03101,   33.5620E-09
C:/temp/dataset/4/26_05.odb,Step-1,Increment      1: Step Time =    1.000,"PART-1-1",           638,       8.12191,      -21.7795,            0.,NA,NA,"",   73.0249E-03,  -67.8736E-03,  -26.9408E-03,   3.50540E-03
C:/temp/dataset/4/26_05.odb,Step-1,Increment      1: Step Time =    1.000,"PART-1-1",           639,       8.12482,      -23.8590,            0.,NA,NA,"",   43.8008E-03,  -38.8931E-03,  -20.1454E-03,   3.67982E-03
C:/temp/dataset/4/26_05.odb,Step-1,Increment      1: Step Time =    1.000,"PART-1-1",           640,       8.11825,      -19.6354,            0.,NA,NA,"",   110.420E-03,  -105.149E-03,  -33.7106E-03,   3.32992E-03
C:/temp/dataset/4/26_05.odb,Step-1,Increment      1: Step Time =    1.000,"PART-1-1",           641,       8.10952,      -17.4508,            0.,NA,NA,"",   155.812E-03,  -150.451E-03,  -40.5209E-03,   3.16861E-03
C:/temp/dataset/4/26_05.odb,Step-1,Increment      1: Step Time =    1.000,"PART-1-1",           642,       7.85781,       23.9076,            0.,NA,NA,"",       1.80387,      -1.79921,  -129.532E-03,   33.2399E-06
C:/temp/dataset/4/26_05.odb,Step-1,Increment      1: Step Time =    1.000,"PART-1-1",           643,       7.94870,       21.8524,            0.,NA,NA,"",       1.70894,      -1.70449,  -123.173E-03,   134.257E-06
C:/temp/dataset/4/26_05.odb,Step-1,Increment      1: Step Time =    1.000,"PART-1-1",           644,       4.21929,       2.98066,            0.,NA,NA,"",   885.099E-03,  -850.502E-03,  -245.042E-03,   1.56888E-03
C:/temp/dataset/4/26_05.odb,Step-1,Increment      1: Step Time =    1.000,"PART-1-1",           645,       5.32392,       3.96649,            0.,NA,NA,"",   913.877E-03,  -890.697E-03,  -204.525E-03,   2.56874E-03
C:/temp/dataset/4/26_05.odb,Step-1,Increment      1: Step Time =    1.000,"PART-1-1",           646,          3.75,            5.,            0.,NA,NA,"",   967.934E-03,  -930.887E-03,  -265.225E-03,   1.23964E-03
C:/temp/dataset/4/26_05.odb,Step-1,Increment      1: Step Time =    1.000,"PART-1-1",           647,       12.8859,       9.04653,            0.,NA,NA,"",       1.12394,      -1.11854,   110.029E-03,   1.36696E-03
C:/temp/dataset/4/26_05.odb,Step-1,Increment      1: Step Time =    1.000,"PART-1-1",           648,           15.,          8.75,            0.,NA,NA,"",       1.12748,      -1.10898,   203.404E-03,   2.21481E-03
C:/temp/dataset/4/26_05.odb,Step-1,Increment      1: Step Time =    1.000,"PART-1-1",           649,      -8.02807,       9.41948,            0.,NA,NA,"",       1.32709,      -1.10112,  -740.735E-03,   630.671E-09
C:/temp/dataset/4/26_05.odb,Step-1,Increment      1: Step Time =    1.000,"PART-1-1",           650,      -8.84347,       16.8085,            0.,NA,NA,"",       1.60143,      -1.39881,  -779.684E-03,   46.6795E-09
C:/temp/dataset/4/26_05.odb,Step-1,Increment      1: Step Time =    1.000,"PART-1-1",           651,      -9.78583,       18.0165,            0.,NA,NA,"",       1.66241,      -1.44683,  -818.721E-03,   30.5377E-09
C:/temp/dataset/4/26_05.odb,Step-1,Increment      1: Step Time =    1.000,"PART-1-1",           652,          -15.,       17.9688,            0.,NA,NA,"",       1.77052,      -1.44064,      -1.02922,   32.1627E-09
C:/temp/dataset/4/26_05.odb,Step-1,Increment      1: Step Time =    1.000,"PART-1-1",           653,          -15.,       24.5313,            0.,NA,NA,"",       1.99487,      -1.70563,      -1.03457,   33.7173E-09
C:/temp/dataset/4/26_05.odb,Step-1,Increment      1: Step Time =    1.000,"PART-1-1",           654,      -12.9952,       24.7258,            0.,NA,NA,"",       1.96248,      -1.71512,  -953.782E-03,   34.0235E-09
C:/temp/dataset/4/26_05.odb,Step-1,Increment      1: Step Time =    1.000,"PART-1-1",           655,      -11.4985,       21.8877,            0.,NA,NA,"",       1.83290,      -1.60174,  -891.035E-03,   32.8606E-09
C:/temp/dataset/4/26_05.odb,Step-1,Increment      1: Step Time =    1.000,"PART-1-1",           656,      -11.4490,       20.6565,            0.,NA,NA,"",       1.78816,      -1.55207,  -888.030E-03,   31.7269E-09
C:/temp/dataset/4/26_05.odb,Step-1,Increment      1: Step Time =    1.000,"PART-1-1",           657,      -10.1446,       20.7260,            0.,NA,NA,"",       1.76603,      -1.55594,  -835.418E-03,   32.0806E-09
C:/temp/dataset/4/26_05.odb,Step-1,Increment      1: Step Time =    1.000,"PART-1-1",           658,      -7.69218,       19.6350,            0.,NA,NA,"",       1.68310,      -1.51388,  -735.502E-03,   34.2637E-09
C:/temp/dataset/4/26_05.odb,Step-1,Increment      1: Step Time =    1.000,"PART-1-1",           659,      -8.68744,       18.7463,            0.,NA,NA,"",       1.66813,      -1.47719,  -774.965E-03,   31.8635E-09
C:/temp/dataset/4/26_05.odb,Step-1,Increment      1: Step Time =    1.000,"PART-1-1",           660,      -7.82721,       17.7030,            0.,NA,NA,"",       1.61496,      -1.43576,  -739.379E-03,   33.6267E-09
C:/temp/dataset/4/26_05.odb,Step-1,Increment      1: Step Time =    1.000,"PART-1-1",           661,      -9.52114,       19.8817,            0.,NA,NA,"",       1.72422,      -1.52235,  -809.554E-03,   31.6452E-09
C:/temp/dataset/4/26_05.odb,Step-1,Increment      1: Step Time =    1.000,"PART-1-1",           662,      -10.6195,       19.1519,            0.,NA,NA,"",       1.71877,      -1.49199,  -853.311E-03,   29.9123E-09
C:/temp/dataset/4/26_05.odb,Step-1,Increment      1: Step Time =    1.000,"PART-1-1",           663,      -12.1485,       3.78191,            0.,NA,NA,"",       1.25366,  -870.132E-03,  -902.514E-03,   1.27161E-06
C:/temp/dataset/4/26_05.odb,Step-1,Increment      1: Step Time =    1.000,"PART-1-1",           664,      -10.9850,       2.86362,            0.,NA,NA,"",       1.19425,  -834.006E-03,  -854.788E-03,   2.84559E-06
C:/temp/dataset/4/26_05.odb,Step-1,Increment      1: Step Time =    1.000,"PART-1-1",           665,      -9.06958,       8.49577,            0.,NA,NA,"",       1.31966,      -1.06297,  -782.037E-03,   801.172E-09
C:/temp/dataset/4/26_05.odb,Step-1,Increment      1: Step Time =    1.000,"PART-1-1",           666,      -8.08215,       7.28595,            0.,NA,NA,"",       1.25675,      -1.01493,  -741.180E-03,   1.29344E-06
C:/temp/dataset/4/26_05.odb,Step-1,Increment      1: Step Time =    1.000,"PART-1-1",           667,      -10.1292,       7.60955,            0.,NA,NA,"",       1.31624,      -1.02633,  -824.100E-03,   655.478E-09
C:/temp/dataset/4/26_05.odb,Step-1,Increment      1: Step Time =    1.000,"PART-1-1",           668,      -11.2104,       6.77234,            0.,NA,NA,"",       1.31726,  -991.639E-03,  -867.073E-03,   475.545E-09
C:/temp/dataset/4/26_05.odb,Step-1,Increment      1: Step Time =    1.000,"PART-1-1",           669,      -10.2942,       5.63122,            0.,NA,NA,"",       1.25817,  -946.310E-03,  -829.152E-03,   1.32661E-06
C:/temp/dataset/4/26_05.odb,Step-1,Increment      1: Step Time =    1.000,"PART-1-1",           670,      -9.21309,       6.46842,            0.,NA,NA,"",       1.25715,  -980.996E-03,  -786.179E-03,   1.13417E-06
C:/temp/dataset/4/26_05.odb,Step-1,Increment      1: Step Time =    1.000,"PART-1-1",           671,        -11.25,           -5.,            0.,NA,NA,"",       1.00230,  -516.313E-03,  -859.089E-03,   479.600E-09
C:/temp/dataset/4/26_05.odb,Step-1,Increment      1: Step Time =    1.000,"PART-1-1",           672,      -10.0273,      -3.93877,            0.,NA,NA,"",   985.309E-03,  -560.151E-03,  -810.594E-03,   1.98895E-06
C:/temp/dataset/4/26_05.odb,Step-1,Increment      1: Step Time =    1.000,"PART-1-1",           673,         -8.75,           -5.,            0.,NA,NA,"",   918.426E-03,  -518.349E-03,  -758.169E-03,   4.27068E-06
C:/temp/dataset/4/26_05.odb,Step-1,Increment      1: Step Time =    1.000,"PART-1-1",           674,      -7.59562,      -4.02918,            0.,NA,NA,"",   905.186E-03,  -558.476E-03,  -712.366E-03,   8.99849E-06
C:/temp/dataset/4/26_05.odb,Step-1,Increment      1: Step Time =    1.000,"PART-1-1",           675,      -8.87289,      -2.96795,            0.,NA,NA,"",   972.236E-03,  -600.287E-03,  -764.787E-03,   8.70788E-06
C:/temp/dataset/4/26_05.odb,Step-1,Increment      1: Step Time =    1.000,"PART-1-1",           676,         -6.25,           -5.,            0.,NA,NA,"",   838.315E-03,  -520.367E-03,  -657.260E-03,   25.5261E-06
C:/temp/dataset/4/26_05.odb,Step-1,Increment      1: Step Time =    1.000,"PART-1-1",           677,      -5.03874,      -3.83161,            0.,NA,NA,"",   833.364E-03,  -568.507E-03,  -609.340E-03,   33.3105E-06
C:/temp/dataset/4/26_05.odb,Step-1,Increment      1: Step Time =    1.000,"PART-1-1",           678,      -6.38435,      -2.86079,            0.,NA,NA,"",   899.715E-03,  -606.641E-03,  -664.434E-03,   29.4808E-06
C:/temp/dataset/4/26_05.odb,Step-1,Increment      1: Step Time =    1.000,"PART-1-1",           679,      -8.31216,       1.98044,            0.,NA,NA,"",       1.09435,  -800.537E-03,  -746.146E-03,   11.7709E-06
C:/temp/dataset/4/26_05.odb,Step-1,Increment      1: Step Time =    1.000,"PART-1-1",           680,      -6.89941,       1.67561,            0.,NA,NA,"",       1.04769,  -789.395E-03,  -688.851E-03,   23.2842E-06
C:/temp/dataset/4/26_05.odb,Step-1,Increment      1: Step Time =    1.000,"PART-1-1",           681,      -8.02347,       3.70061,            0.,NA,NA,"",       1.13965,  -870.212E-03,  -735.885E-03,   8.54668E-06
C:/temp/dataset/4/26_05.odb,Step-1,Increment      1: Step Time =    1.000,"PART-1-1",           682,      -9.78636,       2.36681,            0.,NA,NA,"",       1.14618,  -814.927E-03,  -805.986E-03,   5.86367E-06
C:/temp/dataset/4/26_05.odb,Step-1,Increment      1: Step Time =    1.000,"PART-1-1",           683,      -8.80920,   354.969E-03,            0.,NA,NA,"",       1.06046,  -734.507E-03,  -764.904E-03,   10.9061E-06
C:/temp/dataset/4/26_05.odb,Step-1,Increment      1: Step Time =    1.000,"PART-1-1",           684,         -3.75,           -5.,            0.,NA,NA,"",   763.099E-03,  -522.304E-03,  -556.343E-03,   74.2132E-06
C:/temp/dataset/4/26_05.odb,Step-1,Increment      1: Step Time =    1.000,"PART-1-1",           685,          3.75,           -5.,            0.,NA,NA,"",   582.973E-03,  -526.918E-03,  -249.430E-03,   1.36110E-03
C:/temp/dataset/4/26_05.odb,Step-1,Increment      1: Step Time =    1.000,"PART-1-1",           686,       4.46580,      -3.87501,            0.,NA,NA,"",   614.967E-03,  -574.568E-03,  -219.218E-03,   2.99015E-03
C:/temp/dataset/4/26_05.odb,Step-1,Increment      1: Step Time =    1.000,"PART-1-1",           687,       2.90021,      -2.90757,            0.,NA,NA,"",   676.488E-03,  -612.485E-03,  -287.226E-03,   829.579E-06
C:/temp/dataset/4/26_05.odb,Step-1,Increment      1: Step Time =    1.000,"PART-1-1",           688,       11.1618,       2.81075,            0.,NA,NA,"",   846.098E-03,  -845.324E-03,   36.1746E-03,   909.141E-06
C:/temp/dataset/4/26_05.odb,Step-1,Increment      1: Step Time =    1.000,"PART-1-1",           689,       10.1850,       1.50626,            0.,NA,NA,"",   790.246E-03,  -790.240E-03,  -2.95459E-03,   731.153E-06
C:/temp/dataset/4/26_05.odb,Step-1,Increment      1: Step Time =    1.000,"PART-1-1",           690,       11.6421,   144.368E-03,            0.,NA,NA,"",   737.731E-03,  -735.637E-03,   55.5548E-03,   1.38424E-03
C:/temp/dataset/4/26_05.odb,Step-1,Increment      1: Step Time =    1.000,"PART-1-1",           691,         11.25,           30.,            0.,NA,NA,"",       2.08322,      -2.08312,   20.0602E-03,   22.4906E-06
C:/temp/dataset/4/26_05.odb,Step-1,Increment      1: Step Time =    1.000,"PART-1-1",           692,       9.19768,       26.3844,            0.,NA,NA,"",       1.91597,      -1.91467,  -70.4836E-03,   14.0153E-06
C:/temp/dataset/4/26_05.odb,Step-1,Increment      1: Step Time =    1.000,"PART-1-1",           693,       7.72138,       25.7435,            0.,NA,NA,"",       1.88864,      -1.88361,  -137.758E-03,   15.7561E-06
C:/temp/dataset/4/26_05.odb,Step-1,Increment      1: Step Time =    1.000,"PART-1-1",           694,       9.17897,      -24.8987,            0.,NA,NA,"",   26.9213E-03,  -25.9410E-03,  -7.19858E-03,   1.90428E-03
C:/temp/dataset/4/26_05.odb,Step-1,Increment      1: Step Time =    1.000,"PART-1-1",           695,       9.00589,       18.6572,            0.,NA,NA,"",       1.55926,      -1.55762,  -71.2877E-03,   510.837E-06
C:/temp/dataset/4/26_05.odb,Step-1,Increment      1: Step Time =    1.000,"PART-1-1",           696,       7.99757,       19.7140,            0.,NA,NA,"",       1.60992,      -1.60555,  -118.623E-03,   315.933E-06
C:/temp/dataset/4/26_05.odb,Step-1,Increment      1: Step Time =    1.000,"PART-1-1",           697,      -12.2498,       25.7751,            0.,NA,NA,"",       1.98637,      -1.75810,  -924.538E-03,   34.4432E-09
C:/temp/dataset/4/26_05.odb,Step-1,Increment      1: Step Time =    1.000,"PART-1-1",           698,      -11.9888,       23.9538,            0.,NA,NA,"",       1.91602,      -1.68477,  -912.514E-03,   33.9985E-09
C:/temp/dataset/4/26_05.odb,Step-1,Increment      1: Step Time =    1.000,"PART-1-1",           699,      -1.59164,      -1.60220,            0.,NA,NA,"",   812.660E-03,  -661.568E-03,  -471.958E-03,   84.5665E-06
C:/temp/dataset/4/26_05.odb,Step-1,Increment      1: Step Time =    1.000,"PART-1-1",           700,      -1.34014,  -343.401E-03,            0.,NA,NA,"",   849.774E-03,  -712.703E-03,  -462.786E-03,   89.3470E-06
C:/temp/dataset/4/26_05.odb,Step-1,Increment      1: Step Time =    1.000,"PART-1-1",           701,      -2.70787,  -93.9540E-03,            0.,NA,NA,"",   888.367E-03,  -721.561E-03,  -518.215E-03,   78.3305E-06
C:/temp/dataset/4/26_05.odb,Step-1,Increment      1: Step Time =    1.000,"PART-1-1",           702,       8.06015,      -13.0184,            0.,NA,NA,"",   268.972E-03,  -263.341E-03,  -54.7502E-03,   2.87681E-03
C:/temp/dataset/4/26_05.odb,Step-1,Increment      1: Step Time =    1.000,"PART-1-1",           703,       7.99745,      -10.7906,            0.,NA,NA,"",   335.721E-03,  -329.769E-03,  -62.9361E-03,   2.74464E-03
C:/temp/dataset/4/26_05.odb,Step-1,Increment      1: Step Time =    1.000,"PART-1-1",           704,           15.,        -26.25,            0.,NA,NA,"",   42.9369E-03,  -24.8677E-03,   35.0024E-03,   10.0197E-03
C:/temp/dataset/4/26_05.odb,Step-1,Increment      1: Step Time =    1.000,"PART-1-1",           705,       13.9776,      -24.8045,            0.,NA,NA,"",   50.4757E-03,  -34.1115E-03,   37.2048E-03,   7.81425E-03
C:/temp/dataset/4/26_05.odb,Step-1,Increment      1: Step Time =    1.000,"PART-1-1",           706,       12.6094,      -25.9010,            0.,NA,NA,"",   26.9548E-03,  -19.4152E-03,   18.6979E-03,   5.37024E-03
C:/temp/dataset/4/26_05.odb,Step-1,Increment      1: Step Time =    1.000,"PART-1-1",           707,       12.0224,      -24.3398,            0.,NA,NA,"",   39.3418E-03,  -33.8281E-03,   20.0856E-03,   4.15623E-03
C:/temp/dataset/4/26_05.odb,Step-1,Increment      1: Step Time =    1.000,"PART-1-1",           708,       13.0263,      -23.4242,            0.,NA,NA,"",   58.8828E-03,  -47.2784E-03,   35.0990E-03,   5.84477E-03
C:/temp/dataset/4/26_05.odb,Step-1,Increment      1: Step Time =    1.000,"PART-1-1",           709,       12.1300,      -22.1112,            0.,NA,NA,"",   70.0702E-03,  -63.7179E-03,   29.1522E-03,   4.03056E-03
C:/temp/dataset/4/26_05.odb,Step-1,Increment      1: Step Time =    1.000,"PART-1-1",           710,           15.,        -23.75,            0.,NA,NA,"",   75.5648E-03,  -50.1111E-03,   56.5590E-03,   9.48789E-03
C:/temp/dataset/4/26_05.odb,Step-1,Increment      1: Step Time =    1.000,"PART-1-1",           711,       10.9035,      -9.09896,            0.,NA,NA,"",   385.870E-03,  -385.071E-03,   24.8130E-03,   1.64827E-03
C:/temp/dataset/4/26_05.odb,Step-1,Increment      1: Step Time =    1.000,"PART-1-1",           712,       9.82794,      -8.10226,            0.,NA,NA,"",   418.022E-03,  -417.904E-03,  -9.91355E-03,   1.02773E-03
C:/temp/dataset/4/26_05.odb,Step-1,Increment      1: Step Time =    1.000,"PART-1-1",           713,       8.90728,      -9.48784,            0.,NA,NA,"",   372.998E-03,  -371.065E-03,  -37.9241E-03,   1.55139E-03
C:/temp/dataset/4/26_05.odb,Step-1,Increment      1: Step Time =    1.000,"PART-1-1",           714,           15.,         -1.25,            0.,NA,NA,"",   710.221E-03,  -685.315E-03,   186.434E-03,   3.71663E-03
C:/temp/dataset/4/26_05.odb,Step-1,Increment      1: Step Time =    1.000,"PART-1-1",           715,       12.7555,      -1.12336,            0.,NA,NA,"",   692.796E-03,  -685.770E-03,   98.4130E-03,   2.28682E-03
C:/temp/dataset/4/26_05.odb,Step-1,Increment      1: Step Time =    1.000,"PART-1-1",           716,       11.5680,       5.48707,            0.,NA,NA,"",   961.072E-03,  -959.615E-03,   52.8938E-03,   1.14119E-03
C:/temp/dataset/4/26_05.odb,Step-1,Increment      1: Step Time =    1.000,"PART-1-1",           717,       10.1222,       4.29256,            0.,NA,NA,"",   906.694E-03,  -906.663E-03,  -7.43974E-03,   595.061E-06
C:/temp/dataset/4/26_05.odb,Step-1,Increment      1: Step Time =    1.000,"PART-1-1",           718,       8.27918,   509.070E-03,            0.,NA,NA,"",   752.837E-03,  -748.807E-03,  -77.7913E-03,   1.41999E-03
C:/temp/dataset/4/26_05.odb,Step-1,Increment      1: Step Time =    1.000,"PART-1-1",           719,       9.70893,  -124.236E-03,            0.,NA,NA,"",   723.485E-03,  -723.197E-03,  -20.4101E-03,   1.04848E-03
C:/temp/dataset/4/26_05.odb,Step-1,Increment      1: Step Time =    1.000,"PART-1-1",           720,       8.75521,       2.13956,            0.,NA,NA,"",   817.991E-03,  -815.684E-03,  -61.3842E-03,   886.971E-06
C:/temp/dataset/4/26_05.odb,Step-1,Increment      1: Step Time =    1.000,"PART-1-1",           721,       6.99874,       4.90963,            0.,NA,NA,"",   940.392E-03,  -930.168E-03,  -138.289E-03,   1.24443E-03
C:/temp/dataset/4/26_05.odb,Step-1,Increment      1: Step Time =    1.000,"PART-1-1",           722,       8.01086,       5.41567,            0.,NA,NA,"",   957.512E-03,  -952.592E-03,  -96.9470E-03,   923.138E-06
C:/temp/dataset/4/26_05.odb,Step-1,Increment      1: Step Time =    1.000,"PART-1-1",           723,       11.8045,       7.99587,            0.,NA,NA,"",       1.07181,      -1.06997,   62.8198E-03,   1.15824E-03
C:/temp/dataset/4/26_05.odb,Step-1,Increment      1: Step Time =    1.000,"PART-1-1",           724,       7.91904,       10.9856,            0.,NA,NA,"",       1.20609,      -1.20104,  -110.221E-03,   1.09589E-03
C:/temp/dataset/4/26_05.odb,Step-1,Increment      1: Step Time =    1.000,"PART-1-1",           725,       11.0233,       18.7016,            0.,NA,NA,"",       1.56241,      -1.56227,   20.8966E-03,   620.402E-06
C:/temp/dataset/4/26_05.odb,Step-1,Increment      1: Step Time =    1.000,"PART-1-1",           726,       10.0074,       19.8076,            0.,NA,NA,"",       1.61249,      -1.61227,  -26.5816E-03,   425.342E-06
C:/temp/dataset/4/26_05.odb,Step-1,Increment      1: Step Time =    1.000,"PART-1-1",           727,       10.9673,       21.0105,            0.,NA,NA,"",       1.66928,      -1.66920,   16.3342E-03,   349.428E-06
C:/temp/dataset/4/26_05.odb,Step-1,Increment      1: Step Time =    1.000,"PART-1-1",           728,       8.97465,       20.8454,            0.,NA,NA,"",       1.66078,      -1.65909,  -74.9687E-03,   276.125E-06
C:/temp/dataset/4/26_05.odb,Step-1,Increment      1: Step Time =    1.000,"PART-1-1",           729,       8.66510,       24.8184,            0.,NA,NA,"",       1.84440,      -1.84204,  -93.3307E-03,   25.8584E-06
C:/temp/dataset/4/26_05.odb,Step-1,Increment      1: Step Time =    1.000,"PART-1-1",           730,       7.98376,       13.1681,            0.,NA,NA,"",       1.30616,      -1.30145,  -110.841E-03,   941.196E-06
C:/temp/dataset/4/26_05.odb,Step-1,Increment      1: Step Time =    1.000,"PART-1-1",           731,      -1.95806,       1.80915,            0.,NA,NA,"",   936.939E-03,  -798.950E-03,  -489.423E-03,   85.6604E-06
C:/temp/dataset/4/26_05.odb,Step-1,Increment      1: Step Time =    1.000,"PART-1-1",           732,  -613.587E-03,   828.335E-03,            0.,NA,NA,"",   875.937E-03,  -760.624E-03,  -434.415E-03,   83.9951E-06
C:/temp/dataset/4/26_05.odb,Step-1,Increment      1: Step Time =    1.000,"PART-1-1",           733,   461.223E-03,       1.99751,            0.,NA,NA,"",   898.657E-03,  -808.566E-03,  -392.180E-03,   114.486E-06
C:/temp/dataset/4/26_05.odb,Step-1,Increment      1: Step Time =    1.000,"PART-1-1",           734,       1.74006,       1.04512,            0.,NA,NA,"",   842.799E-03,  -771.200E-03,  -339.942E-03,   504.688E-06
C:/temp/dataset/4/26_05.odb,Step-1,Increment      1: Step Time =    1.000,"PART-1-1",           735,   906.022E-03,  -39.5003E-03,            0.,NA,NA,"",   816.695E-03,  -726.885E-03,  -372.330E-03,   208.396E-06
C:/temp/dataset/4/26_05.odb,Step-1,Increment      1: Step Time =    1.000,"PART-1-1",           736,       2.15034,  -968.542E-03,            0.,NA,NA,"",   761.117E-03,  -690.191E-03,  -320.836E-03,   655.783E-06
C:/temp/dataset/4/26_05.odb,Step-1,Increment      1: Step Time =    1.000,"PART-1-1",           737,       2.98438,   116.081E-03,            0.,NA,NA,"",   788.987E-03,  -734.281E-03,  -288.670E-03,   942.375E-06
C:/temp/dataset/4/26_05.odb,Step-1,Increment      1: Step Time =    1.000,"PART-1-1",           738,      -8.25937,       5.01848,            0.,NA,NA,"",       1.18726,  -923.227E-03,  -746.486E-03,   5.17650E-06
C:/temp/dataset/4/26_05.odb,Step-1,Increment      1: Step Time =    1.000,"PART-1-1",           739,      -2.78312,       1.01462,            0.,NA,NA,"",   927.190E-03,  -766.215E-03,  -522.107E-03,   74.9733E-06
C:/temp/dataset/4/26_05.odb,Step-1,Increment      1: Step Time =    1.000,"PART-1-1",           740,      -4.31499,   913.536E-03,            0.,NA,NA,"",   959.040E-03,  -760.816E-03,  -583.881E-03,   59.5377E-06
C:/temp/dataset/4/26_05.odb,Step-1,Increment      1: Step Time =    1.000,"PART-1-1",           741,      -4.23975,  -195.042E-03,            0.,NA,NA,"",   921.539E-03,  -716.137E-03,  -579.986E-03,   63.5935E-06
C:/temp/dataset/4/26_05.odb,Step-1,Increment      1: Step Time =    1.000,"PART-1-1",           742,      -8.52646,       20.5688,            0.,NA,NA,"",       1.73152,      -1.55091,  -769.951E-03,   33.3611E-09
C:/temp/dataset/4/26_05.odb,Step-1,Increment      1: Step Time =    1.000,"PART-1-1",           743,       8.09873,      -15.2435,            0.,NA,NA,"",   208.729E-03,  -203.299E-03,  -47.3004E-03,   3.00724E-03
C:/temp/dataset/4/26_05.odb,Step-1,Increment      1: Step Time =    1.000,"PART-1-1",           744,       8.99676,       14.2096,            0.,NA,NA,"",       1.35226,      -1.35062,  -66.6555E-03,   921.497E-06
C:/temp/dataset/4/26_05.odb,Step-1,Increment      1: Step Time =    1.000,"PART-1-1",           745,       11.0169,       14.0599,            0.,NA,NA,"",       1.34610,      -1.34588,   24.4733E-03,   990.337E-06
C:/temp/dataset/4/26_05.odb,Step-1,Increment      1: Step Time =    1.000,"PART-1-1",           746,      -7.91902,       15.6847,            0.,NA,NA,"",       1.54388,      -1.35419,  -741.440E-03,   55.8572E-09
C:/temp/dataset/4/26_05.odb,Step-1,Increment      1: Step Time =    1.000,"PART-1-1",           747,      -11.9968,       14.1876,            0.,NA,NA,"",       1.57606,      -1.29041,  -904.873E-03,   107.558E-09
C:/temp/dataset/4/26_05.odb,Step-1,Increment      1: Step Time =    1.000,"PART-1-1",           748,      -11.1175,       8.79310,            0.,NA,NA,"",       1.37847,      -1.07331,  -864.973E-03,   491.704E-09
C:/temp/dataset/4/26_05.odb,Step-1,Increment      1: Step Time =    1.000,"PART-1-1",           749,       10.6592,      -6.44981,            0.,NA,NA,"",   477.528E-03,  -477.198E-03,   17.7347E-03,   1.63372E-03
C:/temp/dataset/4/26_05.odb,Step-1,Increment      1: Step Time =    1.000,"PART-1-1",           750,      -10.7894,       23.3985,            0.,NA,NA,"",       1.87417,      -1.66332,  -863.633E-03,   33.9642E-09
C:/temp/dataset/4/26_05.odb,Step-1,Increment      1: Step Time =    1.000,"PART-1-1",           751,       10.0228,      -25.8019,            0.,NA,NA,"",   17.0260E-03,  -17.0243E-03,   239.756E-06,   1.05995E-03
C:/temp/dataset/4/26_05.odb,Step-1,Increment      1: Step Time =    1.000,"PART-1-1",           752,       10.9542,      -24.8826,            0.,NA,NA,"",   27.7192E-03,  -26.3702E-03,   8.54205E-03,   2.17198E-03
C:/temp/dataset/4/26_05.odb,Step-1,Increment      1: Step Time =    1.000,"PART-1-1",           753,       11.8371,      -2.37854,            0.,NA,NA,"",   637.262E-03,  -634.228E-03,   62.1146E-03,   1.94677E-03
C:/temp/dataset/4/26_05.odb,Step-1,Increment      1: Step Time =    1.000,"PART-1-1",           754,       11.6235,      -5.02753,            0.,NA,NA,"",   533.765E-03,  -531.198E-03,   52.2846E-03,   2.20100E-03
C:/temp/dataset/4/26_05.odb,Step-1,Increment      1: Step Time =    1.000,"PART-1-1",           755,      -12.1333,       7.86930,            0.,NA,NA,"",       1.37515,      -1.03518,  -905.234E-03,   431.197E-09
C:/temp/dataset/4/26_05.odb,Step-1,Increment      1: Step Time =    1.000,"PART-1-1",           756,      -12.0768,       9.95169,            0.,NA,NA,"",       1.43918,      -1.11931,  -904.652E-03,   423.208E-09
C:/temp/dataset/4/26_05.odb,Step-1,Increment      1: Step Time =    1.000,"PART-1-1",           757,       8.68743,       3.64563,            0.,NA,NA,"",   880.666E-03,  -878.168E-03,  -66.2801E-03,   615.750E-06
C:/temp/dataset/4/26_05.odb,Step-1,Increment      1: Step Time =    1.000,"PART-1-1",           758,       6.61848,       3.66599,            0.,NA,NA,"",   891.151E-03,  -878.206E-03,  -151.338E-03,   1.73007E-03
C:/temp/dataset/4/26_05.odb,Step-1,Increment      1: Step Time =    1.000,"PART-1-1",           759,       4.71579,   65.6079E-03,            0.,NA,NA,"",   764.234E-03,  -732.221E-03,  -218.877E-03,   1.77320E-03
C:/temp/dataset/4/26_05.odb,Step-1,Increment      1: Step Time =    1.000,"PART-1-1",           760,       3.89104,   957.250E-03,            0.,NA,NA,"",   809.177E-03,  -768.335E-03,  -253.830E-03,   1.42459E-03
C:/temp/dataset/4/26_05.odb,Step-1,Increment      1: Step Time =    1.000,"PART-1-1",           761,      -12.0363,       12.0623,            0.,NA,NA,"",       1.50649,      -1.20457,  -904.736E-03,   248.555E-09
C:/temp/dataset/4/26_05.odb,Step-1,Increment      1: Step Time =    1.000,"PART-1-1",           762,      -12.1964,       5.82098,            0.,NA,NA,"",       1.31459,  -952.422E-03,  -906.112E-03,   410.133E-09
C:/temp/dataset/4/26_05.odb,Step-1,Increment      1: Step Time =    1.000,"PART-1-1",           763,      -11.2570,       4.81016,            0.,NA,NA,"",       1.25886,  -912.375E-03,  -867.355E-03,   1.15924E-06
C:/temp/dataset/4/26_05.odb,Step-1,Increment      1: Step Time =    1.000,"PART-1-1",           764,      -10.5260,       3.94381,            0.,NA,NA,"",       1.21312,  -877.992E-03,  -837.134E-03,   2.63049E-06
C:/temp/dataset/4/26_05.odb,Step-1,Increment      1: Step Time =    1.000,"PART-1-1",           765,      -9.56326,       4.76486,            0.,NA,NA,"",       1.21239,  -911.926E-03,  -798.930E-03,   2.64124E-06
C:/temp/dataset/4/26_05.odb,Step-1,Increment      1: Step Time =    1.000,"PART-1-1",           766,      -9.32737,       3.44699,            0.,NA,NA,"",       1.16584,  -858.911E-03,  -788.331E-03,   5.36337E-06
C:/temp/dataset/4/26_05.odb,Step-1,Increment      1: Step Time =    1.000,"PART-1-1",           767,       11.5413,      -26.4438,            0.,NA,NA,"",   16.1772E-03,  -13.0686E-03,   9.53493E-03,   3.31461E-03
C:/temp/dataset/4/26_05.odb,Step-1,Increment      1: Step Time =    1.000,"PART-1-1",           768,       5.97241,      -3.36228,            0.,NA,NA,"",   614.792E-03,  -594.011E-03,  -158.495E-03,   3.02263E-03
C:/temp/dataset/4/26_05.odb,Step-1,Increment      1: Step Time =    1.000,"PART-1-1",           769,       11.9304,       22.2704,            0.,NA,NA,"",       1.72955,      -1.72853,   59.4294E-03,   234.385E-06
C:/temp/dataset/4/26_05.odb,Step-1,Increment      1: Step Time =    1.000,"PART-1-1",           770,      -3.95064,       2.12654,            0.,NA,NA,"",   990.554E-03,  -810.042E-03,  -570.115E-03,   56.7474E-06
C:/temp/dataset/4/26_05.odb,Step-1,Increment      1: Step Time =    1.000,"PART-1-1",           771,       12.1361,      -19.7979,            0.,NA,NA,"",   109.610E-03,  -103.208E-03,   36.9126E-03,   3.81664E-03
C:/temp/dataset/4/26_05.odb,Step-1,Increment      1: Step Time =    1.000,"PART-1-1",           772,       12.1156,      -17.4436,            0.,NA,NA,"",   158.074E-03,  -151.935E-03,   43.6258E-03,   3.55464E-03
C:/temp/dataset/4/26_05.odb,Step-1,Increment      1: Step Time =    1.000,"PART-1-1",           773,       11.8489,      -7.73518,            0.,NA,NA,"",   436.730E-03,  -433.008E-03,   56.8967E-03,   2.49327E-03
C:/temp/dataset/4/26_05.odb,Step-1,Increment      1: Step Time =    1.000,"PART-1-1",           774,       11.9658,      -10.2357,            0.,NA,NA,"",   353.911E-03,  -349.363E-03,   56.5525E-03,   2.73637E-03
C:/temp/dataset/4/26_05.odb,Step-1,Increment      1: Step Time =    1.000,"PART-1-1",           775,       10.7237,      -1.11081,            0.,NA,NA,"",   684.075E-03,  -683.789E-03,   19.7799E-03,   1.28284E-03
C:/temp/dataset/4/26_05.odb,Step-1,Increment      1: Step Time =    1.000,"PART-1-1",           776,       11.9194,       10.4262,            0.,NA,NA,"",       1.18145,      -1.17953,   67.1926E-03,   1.05954E-03
C:/temp/dataset/4/26_05.odb,Step-1,Increment      1: Step Time =    1.000,"PART-1-1",           777,       11.9945,       12.8006,            0.,NA,NA,"",       1.29050,      -1.28864,   69.3726E-03,   978.888E-06
C:/temp/dataset/4/26_05.odb,Step-1,Increment      1: Step Time =    1.000,"PART-1-1",           778,       12.0317,      -12.6649,            0.,NA,NA,"",   280.401E-03,  -275.228E-03,   53.6120E-03,   3.00071E-03
C:/temp/dataset/4/26_05.odb,Step-1,Increment      1: Step Time =    1.000,"PART-1-1",           779,       12.0352,       15.1685,            0.,NA,NA,"",       1.40061,      -1.39888,   69.6846E-03,   962.192E-06
C:/temp/dataset/4/26_05.odb,Step-1,Increment      1: Step Time =    1.000,"PART-1-1",           780,      -7.80161,      -2.23284,            0.,NA,NA,"",   958.883E-03,  -630.844E-03,  -722.144E-03,   14.3710E-06
C:/temp/dataset/4/26_05.odb,Step-1,Increment      1: Step Time =    1.000,"PART-1-1",           781,      -8.87876,  -905.543E-03,            0.,NA,NA,"",       1.02717,  -683.557E-03,  -766.696E-03,   11.0369E-06
C:/temp/dataset/4/26_05.odb,Step-1,Increment      1: Step Time =    1.000,"PART-1-1",           782,      -7.16649,      -1.00336,            0.,NA,NA,"",   974.827E-03,  -681.019E-03,  -697.496E-03,   21.9776E-06
C:/temp/dataset/4/26_05.odb,Step-1,Increment      1: Step Time =    1.000,"PART-1-1",           783,      -7.09692,   257.153E-03,            0.,NA,NA,"",       1.00984,  -731.974E-03,  -695.694E-03,   22.3314E-06
C:/temp/dataset/4/26_05.odb,Step-1,Increment      1: Step Time =    1.000,"PART-1-1",           784,      -5.74923,      -1.63131,            0.,NA,NA,"",   916.931E-03,  -656.835E-03,  -639.789E-03,   33.3913E-06
C:/temp/dataset/4/26_05.odb,Step-1,Increment      1: Step Time =    1.000,"PART-1-1",           785,      -5.66693,  -67.3201E-03,            0.,NA,NA,"",   961.857E-03,  -720.073E-03,  -637.702E-03,   40.8405E-06
C:/temp/dataset/4/26_05.odb,Step-1,Increment      1: Step Time =    1.000,"PART-1-1",           786,      -5.46941,       1.35113,            0.,NA,NA,"",       1.00123,  -777.492E-03,  -630.842E-03,   39.0746E-06
C:/temp/dataset/4/26_05.odb,Step-1,Increment      1: Step Time =    1.000,"PART-1-1",           787,       12.0849,      -15.0650,            0.,NA,NA,"",   215.139E-03,  -209.403E-03,   49.3470E-03,   3.28665E-03
C:/temp/dataset/4/26_05.odb,Step-1,Increment      1: Step Time =    1.000,"PART-1-1",           788,       7.01212,      -4.44648,            0.,NA,NA,"",   562.518E-03,  -550.654E-03,  -114.921E-03,   2.53167E-03
C:/temp/dataset/4/26_05.odb,Step-1,Increment      1: Step Time =    1.000,"PART-1-1",           789,       7.64174,      -3.33281,            0.,NA,NA,"",   601.690E-03,  -594.260E-03,  -94.2650E-03,   2.26446E-03
C:/temp/dataset/4/26_05.odb,Step-1,Increment      1: Step Time =    1.000,"PART-1-1",           790,       6.60203,      -2.24861,            0.,NA,NA,"",   652.670E-03,  -638.076E-03,  -137.246E-03,   2.46008E-03
C:/temp/dataset/4/26_05.odb,Step-1,Increment      1: Step Time =    1.000,"PART-1-1",           791,       6.68626,       2.15992,            0.,NA,NA,"",   829.298E-03,  -816.503E-03,  -145.114E-03,   1.84000E-03
C:/temp/dataset/4/26_05.odb,Step-1,Increment      1: Step Time =    1.000,"PART-1-1",           792,       12.0103,       19.9021,            0.,NA,NA,"",       1.62069,      -1.61938,   65.1272E-03,   519.103E-06
C:/temp/dataset/4/26_05.odb,Step-1,Increment      1: Step Time =    1.000,"PART-1-1",           793,       12.0305,       17.5416,            0.,NA,NA,"",       1.51123,      -1.50970,   67.8389E-03,   767.132E-06
C:/temp/dataset/4/26_05.odb,Step-1,Increment      1: Step Time =    1.000,"PART-1-1",           794,       6.09271,      -1.14349,            0.,NA,NA,"",   701.477E-03,  -682.845E-03,  -160.599E-03,   2.30120E-03
C:/temp/dataset/4/26_05.odb,Step-1,Increment      1: Step Time =    1.000,"PART-1-1",           795,       7.56053,      -1.65505,            0.,NA,NA,"",   669.118E-03,  -661.382E-03,  -101.450E-03,   2.11630E-03
C:/temp/dataset/4/26_05.odb,Step-1,Increment      1: Step Time =    1.000,"PART-1-1",           796,       7.05122,  -549.935E-03,            0.,NA,NA,"",   717.056E-03,  -706.231E-03,  -124.124E-03,   2.06671E-03
C:/temp/dataset/4/26_05.odb,Step-1,Increment      1: Step Time =    1.000,"PART-1-1",           797,       5.28588,       1.87348,            0.,NA,NA,"",   829.816E-03,  -805.259E-03,  -200.380E-03,   2.00267E-03
C:/temp/dataset/4/26_05.odb,Step-1,Increment      1: Step Time =    1.000,"PART-1-1",           798,       5.70847,   325.226E-03,            0.,NA,NA,"",   763.763E-03,  -742.310E-03,  -179.750E-03,   1.95710E-03
C:/temp/dataset/4/26_05.odb,Step-1,Increment      1: Step Time =    1.000,"PART-1-1",           799,       7.10885,   611.668E-03,            0.,NA,NA,"",   763.505E-03,  -753.269E-03,  -124.606E-03,   1.85380E-03
C:/temp/dataset/4/26_05.odb,Step-1,Increment      1: Step Time =    1.000,"PART-1-1",           800,       9.00326,      -1.31280,            0.,NA,NA,"",   676.480E-03,  -674.892E-03,  -46.3315E-03,   1.47567E-03
C:/temp/dataset/4/26_05.odb,Step-1,Increment      1: Step Time =    1.000,"PART-1-1",           801,       8.22155,  -652.532E-03,            0.,NA,NA,"",   705.922E-03,  -701.617E-03,  -77.8462E-03,   1.66565E-03
C:/temp/dataset/4/26_05.odb,Step-1,Increment      1: Step Time =    1.000,"PART-1-1",           802,       8.34224,      -2.31533,            0.,NA,NA,"",   638.498E-03,  -634.658E-03,  -69.9210E-03,   1.85895E-03
C:/temp/dataset/4/26_05.odb,Step-1,Increment      1: Step Time =    1.000,"PART-1-1",           803,       2.82445,       2.06443,            0.,NA,NA,"",   865.807E-03,  -812.907E-03,  -298.001E-03,   819.294E-06
