ODB Name,Step,Frame,Part Instance Name,    êﬂì_ÉâÉxÉã,X,Y,Z,Section Name,Material Name,Section Point,   U-Magnitude,          U-U1,          U-U2,       S-Mises
C:/temp/dataset/4/26_2.odb,Step-1,Increment      1: Step Time =    1.000,"PART-1-1",             1,           -5.,           30.,            0.,NA,NA,"",       8.12600,      -7.56985,      -2.95454,   1.90709E-09
C:/temp/dataset/4/26_2.odb,Step-1,Increment      1: Step Time =    1.000,"PART-1-1",             2,          -15.,           30.,            0.,NA,NA,"",       8.72798,      -7.43944,      -4.56425,   1.96405E-09
C:/temp/dataset/4/26_2.odb,Step-1,Increment      1: Step Time =    1.000,"PART-1-1",             3,          -15.,         21.25,            0.,NA,NA,"",       7.49507,      -6.03095,      -4.45014,   18.0088E-09
C:/temp/dataset/4/26_2.odb,Step-1,Increment      1: Step Time =    1.000,"PART-1-1",             4,          -15.,          12.5,            0.,NA,NA,"",       6.33784,      -4.62245,      -4.33603,   683.686E-09
C:/temp/dataset/4/26_2.odb,Step-1,Increment      1: Step Time =    1.000,"PART-1-1",             5,          -15.,          3.75,            0.,NA,NA,"",       5.30606,      -3.21399,      -4.22190,   4.79137E-06
C:/temp/dataset/4/26_2.odb,Step-1,Increment      1: Step Time =    1.000,"PART-1-1",             6,          -15.,           -5.,            0.,NA,NA,"",       4.48716,      -1.80569,      -4.10781,   514.178E-09
C:/temp/dataset/4/26_2.odb,Step-1,Increment      1: Step Time =    1.000,"PART-1-1",             7,          -10.,           -5.,            0.,NA,NA,"",       3.79614,      -1.87088,      -3.30311,   5.92306E-06
C:/temp/dataset/4/26_2.odb,Step-1,Increment      1: Step Time =    1.000,"PART-1-1",             8,           -5.,           -5.,            0.,NA,NA,"",       3.16068,      -1.93580,      -2.49851,   181.010E-06
C:/temp/dataset/4/26_2.odb,Step-1,Increment      1: Step Time =    1.000,"PART-1-1",             9,            0.,           -5.,            0.,NA,NA,"",       2.61865,      -1.99879,      -1.69180,   1.55193E-03
C:/temp/dataset/4/26_2.odb,Step-1,Increment      1: Step Time =    1.000,"PART-1-1",            10,            5.,           -5.,            0.,NA,NA,"",       2.23544,      -2.06988,  -844.253E-03,   23.5741E-03
C:/temp/dataset/4/26_2.odb,Step-1,Increment      1: Step Time =    1.000,"PART-1-1",            11,            5.,        -11.25,            0.,NA,NA,"",       1.40730,      -1.25260,  -641.466E-03,   26.9005E-03
C:/temp/dataset/4/26_2.odb,Step-1,Increment      1: Step Time =    1.000,"PART-1-1",            12,            5.,         -17.5,            0.,NA,NA,"",   752.586E-03,  -609.979E-03,  -440.807E-03,   32.4519E-03
C:/temp/dataset/4/26_2.odb,Step-1,Increment      1: Step Time =    1.000,"PART-1-1",            13,            5.,        -23.75,            0.,NA,NA,"",   297.727E-03,  -191.346E-03,  -228.097E-03,   38.0796E-03
C:/temp/dataset/4/26_2.odb,Step-1,Increment      1: Step Time =    1.000,"PART-1-1",            14,            5.,          -30.,            0.,NA,NA,"",            0.,  -12.7683E-39,  -24.5429E-39,   48.4242E-03
C:/temp/dataset/4/26_2.odb,Step-1,Increment      1: Step Time =    1.000,"PART-1-1",            15,           15.,          -30.,            0.,NA,NA,"",            0.,  -13.8845E-39,   25.9682E-39,   48.8750E-03
C:/temp/dataset/4/26_2.odb,Step-1,Increment      1: Step Time =    1.000,"PART-1-1",            16,           15.,         -22.5,            0.,NA,NA,"",   380.612E-03,  -273.076E-03,   265.133E-03,   37.3715E-03
C:/temp/dataset/4/26_2.odb,Step-1,Increment      1: Step Time =    1.000,"PART-1-1",            17,           15.,          -15.,            0.,NA,NA,"",       1.00902,  -893.760E-03,   468.302E-03,   30.6009E-03
C:/temp/dataset/4/26_2.odb,Step-1,Increment      1: Step Time =    1.000,"PART-1-1",            18,           15.,          -7.5,            0.,NA,NA,"",       1.92014,      -1.82602,   593.782E-03,   23.2546E-03
C:/temp/dataset/4/26_2.odb,Step-1,Increment      1: Step Time =    1.000,"PART-1-1",            19,           15.,            0.,            0.,NA,NA,"",       3.04842,      -2.98307,   627.792E-03,   13.5662E-03
C:/temp/dataset/4/26_2.odb,Step-1,Increment      1: Step Time =    1.000,"PART-1-1",            20,           15.,           7.5,            0.,NA,NA,"",       4.30005,      -4.25836,   597.283E-03,   9.74933E-03
C:/temp/dataset/4/26_2.odb,Step-1,Increment      1: Step Time =    1.000,"PART-1-1",            21,           15.,           15.,            0.,NA,NA,"",       5.65029,      -5.62636,   519.430E-03,   3.85575E-03
C:/temp/dataset/4/26_2.odb,Step-1,Increment      1: Step Time =    1.000,"PART-1-1",            22,           15.,          22.5,            0.,NA,NA,"",       7.02151,      -7.01017,   398.889E-03,   1.06954E-03
C:/temp/dataset/4/26_2.odb,Step-1,Increment      1: Step Time =    1.000,"PART-1-1",            23,           15.,           30.,            0.,NA,NA,"",       8.38463,      -8.38015,   274.306E-03,   9.39926E-06
C:/temp/dataset/4/26_2.odb,Step-1,Increment      1: Step Time =    1.000,"PART-1-1",            24,            5.,           30.,            0.,NA,NA,"",       8.35785,      -8.21159,      -1.55674,   6.20430E-06
C:/temp/dataset/4/26_2.odb,Step-1,Increment      1: Step Time =    1.000,"PART-1-1",            25,            5.,         23.75,            0.,NA,NA,"",       7.21380,      -7.06628,      -1.45142,   190.370E-06
C:/temp/dataset/4/26_2.odb,Step-1,Increment      1: Step Time =    1.000,"PART-1-1",            26,            5.,          17.5,            0.,NA,NA,"",       6.06646,      -5.91592,      -1.34310,   1.40990E-03
C:/temp/dataset/4/26_2.odb,Step-1,Increment      1: Step Time =    1.000,"PART-1-1",            27,            5.,         11.25,            0.,NA,NA,"",       4.92448,      -4.77197,      -1.21602,   6.57199E-03
C:/temp/dataset/4/26_2.odb,Step-1,Increment      1: Step Time =    1.000,"PART-1-1",            28,            5.,            5.,            0.,NA,NA,"",       3.81528,      -3.66730,      -1.05228,   16.7418E-03
C:/temp/dataset/4/26_2.odb,Step-1,Increment      1: Step Time =    1.000,"PART-1-1",            29,            0.,            5.,            0.,NA,NA,"",       4.04322,      -3.60803,      -1.82476,   1.30069E-03
C:/temp/dataset/4/26_2.odb,Step-1,Increment      1: Step Time =    1.000,"PART-1-1",            30,           -5.,            5.,            0.,NA,NA,"",       4.41350,      -3.54547,      -2.62842,   135.762E-06
C:/temp/dataset/4/26_2.odb,Step-1,Increment      1: Step Time =    1.000,"PART-1-1",            31,           -5.,         11.25,            0.,NA,NA,"",       5.29733,      -4.55165,      -2.71002,   1.45718E-06
C:/temp/dataset/4/26_2.odb,Step-1,Increment      1: Step Time =    1.000,"PART-1-1",            32,           -5.,          17.5,            0.,NA,NA,"",       6.21939,      -5.55772,      -2.79153,   22.9407E-09
C:/temp/dataset/4/26_2.odb,Step-1,Increment      1: Step Time =    1.000,"PART-1-1",            33,           -5.,         23.75,            0.,NA,NA,"",       7.16502,      -6.56378,      -2.87303,   9.23070E-09
C:/temp/dataset/4/26_2.odb,Step-1,Increment      1: Step Time =    1.000,"PART-1-1",            34,          -7.5,           30.,            0.,NA,NA,"",       8.25102,      -7.53725,      -3.35697,   2.20237E-09
C:/temp/dataset/4/26_2.odb,Step-1,Increment      1: Step Time =    1.000,"PART-1-1",            35,          -10.,           30.,            0.,NA,NA,"",       8.39361,      -7.50465,      -3.75939,   2.88933E-09
C:/temp/dataset/4/26_2.odb,Step-1,Increment      1: Step Time =    1.000,"PART-1-1",            36,         -12.5,           30.,            0.,NA,NA,"",       8.55291,      -7.47204,      -4.16182,   2.45791E-09
C:/temp/dataset/4/26_2.odb,Step-1,Increment      1: Step Time =    1.000,"PART-1-1",            37,          -15.,       27.8125,            0.,NA,NA,"",       8.41444,      -7.08732,      -4.53572,   2.06849E-09
C:/temp/dataset/4/26_2.odb,Step-1,Increment      1: Step Time =    1.000,"PART-1-1",            38,          -15.,        25.625,            0.,NA,NA,"",       8.10418,      -6.73520,      -4.50719,   3.74014E-09
C:/temp/dataset/4/26_2.odb,Step-1,Increment      1: Step Time =    1.000,"PART-1-1",            39,          -15.,       23.4375,            0.,NA,NA,"",       7.79757,      -6.38307,      -4.47867,   8.96779E-09
C:/temp/dataset/4/26_2.odb,Step-1,Increment      1: Step Time =    1.000,"PART-1-1",            40,          -15.,       19.0625,            0.,NA,NA,"",       7.19720,      -5.67882,      -4.42161,   26.2573E-09
C:/temp/dataset/4/26_2.odb,Step-1,Increment      1: Step Time =    1.000,"PART-1-1",            41,          -15.,        16.875,            0.,NA,NA,"",       6.90456,      -5.32670,      -4.39309,   12.2135E-09
C:/temp/dataset/4/26_2.odb,Step-1,Increment      1: Step Time =    1.000,"PART-1-1",            42,          -15.,       14.6875,            0.,NA,NA,"",       6.61784,      -4.97458,      -4.36456,   159.838E-09
C:/temp/dataset/4/26_2.odb,Step-1,Increment      1: Step Time =    1.000,"PART-1-1",            43,          -15.,       10.3125,            0.,NA,NA,"",       6.06550,      -4.27033,      -4.30750,   1.87032E-06
C:/temp/dataset/4/26_2.odb,Step-1,Increment      1: Step Time =    1.000,"PART-1-1",            44,          -15.,         8.125,            0.,NA,NA,"",       5.80189,      -3.91821,      -4.27897,   3.75082E-06
C:/temp/dataset/4/26_2.odb,Step-1,Increment      1: Step Time =    1.000,"PART-1-1",            45,          -15.,        5.9375,            0.,NA,NA,"",       5.54827,      -3.56609,      -4.25044,   5.22828E-06
C:/temp/dataset/4/26_2.odb,Step-1,Increment      1: Step Time =    1.000,"PART-1-1",            46,          -15.,        1.5625,            0.,NA,NA,"",       5.07690,      -2.86191,      -4.19338,   3.29903E-06
C:/temp/dataset/4/26_2.odb,Step-1,Increment      1: Step Time =    1.000,"PART-1-1",            47,          -15.,     -625.E-03,            0.,NA,NA,"",       4.86264,      -2.50983,      -4.16485,   2.09568E-06
C:/temp/dataset/4/26_2.odb,Step-1,Increment      1: Step Time =    1.000,"PART-1-1",            48,          -15.,       -2.8125,            0.,NA,NA,"",       4.66531,      -2.15776,      -4.13633,   1.74888E-06
C:/temp/dataset/4/26_2.odb,Step-1,Increment      1: Step Time =    1.000,"PART-1-1",            49,         -12.5,           -5.,            0.,NA,NA,"",       4.13638,      -1.83829,      -3.70545,   2.57629E-06
C:/temp/dataset/4/26_2.odb,Step-1,Increment      1: Step Time =    1.000,"PART-1-1",            50,          -7.5,           -5.,            0.,NA,NA,"",       3.46954,      -1.90343,      -2.90081,   25.6071E-06
C:/temp/dataset/4/26_2.odb,Step-1,Increment      1: Step Time =    1.000,"PART-1-1",            51,          -2.5,           -5.,            0.,NA,NA,"",       2.87494,      -1.96778,      -2.09597,   455.071E-06
C:/temp/dataset/4/26_2.odb,Step-1,Increment      1: Step Time =    1.000,"PART-1-1",            52,           2.5,           -5.,            0.,NA,NA,"",       2.40036,      -2.02918,      -1.28226,   4.39856E-03
C:/temp/dataset/4/26_2.odb,Step-1,Increment      1: Step Time =    1.000,"PART-1-1",            53,            5.,      -7.08333,            0.,NA,NA,"",       1.94262,      -1.78357,  -769.827E-03,   25.9550E-03
C:/temp/dataset/4/26_2.odb,Step-1,Increment      1: Step Time =    1.000,"PART-1-1",            54,            5.,      -9.16667,            0.,NA,NA,"",       1.66659,      -1.50945,  -706.445E-03,   24.9711E-03
C:/temp/dataset/4/26_2.odb,Step-1,Increment      1: Step Time =    1.000,"PART-1-1",            55,            5.,      -13.3333,            0.,NA,NA,"",       1.16768,      -1.01590,  -575.695E-03,   28.6660E-03
C:/temp/dataset/4/26_2.odb,Step-1,Increment      1: Step Time =    1.000,"PART-1-1",            56,            5.,      -15.4167,            0.,NA,NA,"",   949.125E-03,  -801.201E-03,  -508.837E-03,   30.5754E-03
C:/temp/dataset/4/26_2.odb,Step-1,Increment      1: Step Time =    1.000,"PART-1-1",            57,            5.,      -19.5833,            0.,NA,NA,"",   578.645E-03,  -443.670E-03,  -371.465E-03,   34.3318E-03
C:/temp/dataset/4/26_2.odb,Step-1,Increment      1: Step Time =    1.000,"PART-1-1",            58,            5.,      -21.6667,            0.,NA,NA,"",   427.293E-03,  -303.621E-03,  -300.655E-03,   36.1591E-03
C:/temp/dataset/4/26_2.odb,Step-1,Increment      1: Step Time =    1.000,"PART-1-1",            59,            5.,      -25.8333,            0.,NA,NA,"",   187.869E-03,  -107.385E-03,  -154.153E-03,   38.9823E-03
C:/temp/dataset/4/26_2.odb,Step-1,Increment      1: Step Time =    1.000,"PART-1-1",            60,            5.,      -27.9167,            0.,NA,NA,"",   94.6719E-03,  -51.5718E-03,  -79.3922E-03,   42.8624E-03
C:/temp/dataset/4/26_2.odb,Step-1,Increment      1: Step Time =    1.000,"PART-1-1",            61,           7.5,          -30.,            0.,NA,NA,"",            0.,  -726.956E-42,  -53.3628E-39,   15.3689E-03
C:/temp/dataset/4/26_2.odb,Step-1,Increment      1: Step Time =    1.000,"PART-1-1",            62,           10.,          -30.,            0.,NA,NA,"",            0.,   9.20631E-39,   1.89150E-39,   5.21386E-03
C:/temp/dataset/4/26_2.odb,Step-1,Increment      1: Step Time =    1.000,"PART-1-1",            63,          12.5,          -30.,            0.,NA,NA,"",            0.,  -21.1140E-39,   48.1694E-39,   15.9417E-03
C:/temp/dataset/4/26_2.odb,Step-1,Increment      1: Step Time =    1.000,"PART-1-1",            64,           15.,         -27.5,            0.,NA,NA,"",   114.664E-03,  -64.8026E-03,   94.5960E-03,   42.2362E-03
C:/temp/dataset/4/26_2.odb,Step-1,Increment      1: Step Time =    1.000,"PART-1-1",            65,           15.,          -25.,            0.,NA,NA,"",   234.554E-03,  -147.347E-03,   182.495E-03,   38.7167E-03
C:/temp/dataset/4/26_2.odb,Step-1,Increment      1: Step Time =    1.000,"PART-1-1",            66,           15.,          -20.,            0.,NA,NA,"",   557.312E-03,  -440.853E-03,   340.949E-03,   35.0453E-03
C:/temp/dataset/4/26_2.odb,Step-1,Increment      1: Step Time =    1.000,"PART-1-1",            67,           15.,         -17.5,            0.,NA,NA,"",   766.753E-03,  -648.698E-03,   408.780E-03,   32.8478E-03
C:/temp/dataset/4/26_2.odb,Step-1,Increment      1: Step Time =    1.000,"PART-1-1",            68,           15.,         -12.5,            0.,NA,NA,"",       1.28313,      -1.17339,   519.209E-03,   28.3601E-03
C:/temp/dataset/4/26_2.odb,Step-1,Increment      1: Step Time =    1.000,"PART-1-1",            69,           15.,          -10.,            0.,NA,NA,"",       1.58754,      -1.48502,   561.236E-03,   26.0036E-03
C:/temp/dataset/4/26_2.odb,Step-1,Increment      1: Step Time =    1.000,"PART-1-1",            70,           15.,           -5.,            0.,NA,NA,"",       2.27772,      -2.19290,   615.810E-03,   19.8878E-03
C:/temp/dataset/4/26_2.odb,Step-1,Increment      1: Step Time =    1.000,"PART-1-1",            71,           15.,          -2.5,            0.,NA,NA,"",       2.65551,      -2.58050,   626.710E-03,   16.3415E-03
C:/temp/dataset/4/26_2.odb,Step-1,Increment      1: Step Time =    1.000,"PART-1-1",            72,           15.,           2.5,            0.,NA,NA,"",       3.45351,      -3.39702,   622.053E-03,   11.9709E-03
C:/temp/dataset/4/26_2.odb,Step-1,Increment      1: Step Time =    1.000,"PART-1-1",            73,           15.,            5.,            0.,NA,NA,"",       3.87059,      -3.82192,   611.847E-03,   10.9860E-03
C:/temp/dataset/4/26_2.odb,Step-1,Increment      1: Step Time =    1.000,"PART-1-1",            74,           15.,           10.,            0.,NA,NA,"",       4.74095,      -4.70567,   577.351E-03,   7.98222E-03
C:/temp/dataset/4/26_2.odb,Step-1,Increment      1: Step Time =    1.000,"PART-1-1",            75,           15.,          12.5,            0.,NA,NA,"",       5.19124,      -5.16188,   551.347E-03,   6.00738E-03
C:/temp/dataset/4/26_2.odb,Step-1,Increment      1: Step Time =    1.000,"PART-1-1",            76,           15.,          17.5,            0.,NA,NA,"",       6.11123,      -6.09226,   481.081E-03,   2.56140E-03
C:/temp/dataset/4/26_2.odb,Step-1,Increment      1: Step Time =    1.000,"PART-1-1",            77,           15.,           20.,            0.,NA,NA,"",       6.56873,      -6.55393,   440.659E-03,   2.00341E-03
C:/temp/dataset/4/26_2.odb,Step-1,Increment      1: Step Time =    1.000,"PART-1-1",            78,           15.,           25.,            0.,NA,NA,"",       7.47384,      -7.46525,   358.302E-03,   437.096E-06
C:/temp/dataset/4/26_2.odb,Step-1,Increment      1: Step Time =    1.000,"PART-1-1",            79,           15.,          27.5,            0.,NA,NA,"",       7.92892,      -7.92261,   316.456E-03,   86.7238E-06
C:/temp/dataset/4/26_2.odb,Step-1,Increment      1: Step Time =    1.000,"PART-1-1",            80,          12.5,           30.,            0.,NA,NA,"",       8.33998,      -8.33797,  -183.155E-03,   65.1418E-06
C:/temp/dataset/4/26_2.odb,Step-1,Increment      1: Step Time =    1.000,"PART-1-1",            81,           10.,           30.,            0.,NA,NA,"",       8.32067,      -8.29596,  -640.787E-03,   106.909E-06
C:/temp/dataset/4/26_2.odb,Step-1,Increment      1: Step Time =    1.000,"PART-1-1",            82,           7.5,           30.,            0.,NA,NA,"",       8.32668,      -8.25387,      -1.09873,   51.9822E-06
C:/temp/dataset/4/26_2.odb,Step-1,Increment      1: Step Time =    1.000,"PART-1-1",            83,            5.,       27.9167,            0.,NA,NA,"",       7.97643,      -7.82997,      -1.52151,   40.2925E-06
C:/temp/dataset/4/26_2.odb,Step-1,Increment      1: Step Time =    1.000,"PART-1-1",            84,            5.,       25.8333,            0.,NA,NA,"",       7.59517,      -7.44830,      -1.48641,   134.674E-06
C:/temp/dataset/4/26_2.odb,Step-1,Increment      1: Step Time =    1.000,"PART-1-1",            85,            5.,       21.6667,            0.,NA,NA,"",       6.83198,      -6.68357,      -1.41627,   64.2848E-06
C:/temp/dataset/4/26_2.odb,Step-1,Increment      1: Step Time =    1.000,"PART-1-1",            86,            5.,       19.5833,            0.,NA,NA,"",       6.44948,      -6.30002,      -1.38043,   433.859E-06
C:/temp/dataset/4/26_2.odb,Step-1,Increment      1: Step Time =    1.000,"PART-1-1",            87,            5.,       15.4167,            0.,NA,NA,"",       5.68369,      -5.53219,      -1.30353,   2.85525E-03
C:/temp/dataset/4/26_2.odb,Step-1,Increment      1: Step Time =    1.000,"PART-1-1",            88,            5.,       13.3333,            0.,NA,NA,"",       5.30249,      -5.15032,      -1.26120,   4.60404E-03
C:/temp/dataset/4/26_2.odb,Step-1,Increment      1: Step Time =    1.000,"PART-1-1",            89,            5.,       9.16667,            0.,NA,NA,"",       4.55104,      -4.39866,      -1.16783,   8.51504E-03
C:/temp/dataset/4/26_2.odb,Step-1,Increment      1: Step Time =    1.000,"PART-1-1",            90,            5.,       7.08333,            0.,NA,NA,"",       4.18242,      -4.03042,      -1.11730,   11.8115E-03
C:/temp/dataset/4/26_2.odb,Step-1,Increment      1: Step Time =    1.000,"PART-1-1",            91,           2.5,            5.,            0.,NA,NA,"",       3.90664,      -3.63596,      -1.42888,   3.48927E-03
C:/temp/dataset/4/26_2.odb,Step-1,Increment      1: Step Time =    1.000,"PART-1-1",            92,          -2.5,            5.,            0.,NA,NA,"",       4.21336,      -3.57734,      -2.22599,   464.315E-06
C:/temp/dataset/4/26_2.odb,Step-1,Increment      1: Step Time =    1.000,"PART-1-1",            93,           -5.,       7.08333,            0.,NA,NA,"",       4.70257,      -3.88093,      -2.65567,   23.2739E-06
C:/temp/dataset/4/26_2.odb,Step-1,Increment      1: Step Time =    1.000,"PART-1-1",            94,           -5.,       9.16667,            0.,NA,NA,"",       4.99748,      -4.21629,      -2.68285,   6.71874E-06
C:/temp/dataset/4/26_2.odb,Step-1,Increment      1: Step Time =    1.000,"PART-1-1",            95,           -5.,       13.3333,            0.,NA,NA,"",       5.60134,      -4.88700,      -2.73719,   530.197E-09
C:/temp/dataset/4/26_2.odb,Step-1,Increment      1: Step Time =    1.000,"PART-1-1",            96,           -5.,       15.4167,            0.,NA,NA,"",       5.90887,      -5.22236,      -2.76436,   60.2786E-09
C:/temp/dataset/4/26_2.odb,Step-1,Increment      1: Step Time =    1.000,"PART-1-1",            97,           -5.,       19.5833,            0.,NA,NA,"",       6.53248,      -5.89307,      -2.81870,   29.3251E-09
C:/temp/dataset/4/26_2.odb,Step-1,Increment      1: Step Time =    1.000,"PART-1-1",            98,           -5.,       21.6667,            0.,NA,NA,"",       6.84779,      -6.22843,      -2.84587,   18.0381E-09
C:/temp/dataset/4/26_2.odb,Step-1,Increment      1: Step Time =    1.000,"PART-1-1",            99,           -5.,       25.8333,            0.,NA,NA,"",       7.48394,      -6.89914,      -2.90020,   4.33274E-09
C:/temp/dataset/4/26_2.odb,Step-1,Increment      1: Step Time =    1.000,"PART-1-1",           100,           -5.,       27.9167,            0.,NA,NA,"",       7.80432,      -7.23450,      -2.92737,   2.38804E-09
C:/temp/dataset/4/26_2.odb,Step-1,Increment      1: Step Time =    1.000,"PART-1-1",           101,       6.93475,       11.1046,            0.,NA,NA,"",       4.85021,      -4.77256,  -864.418E-03,   4.98474E-03
C:/temp/dataset/4/26_2.odb,Step-1,Increment      1: Step Time =    1.000,"PART-1-1",           102,       7.10183,      -21.7370,            0.,NA,NA,"",   324.085E-03,  -276.155E-03,  -169.616E-03,   20.9175E-03
C:/temp/dataset/4/26_2.odb,Step-1,Increment      1: Step Time =    1.000,"PART-1-1",           103,      -7.18606,       25.6133,            0.,NA,NA,"",       7.56820,      -6.83522,      -3.24923,   4.77655E-09
C:/temp/dataset/4/26_2.odb,Step-1,Increment      1: Step Time =    1.000,"PART-1-1",           104,       7.08931,      -17.4629,            0.,NA,NA,"",   650.577E-03,  -597.021E-03,  -258.488E-03,   18.8420E-03
C:/temp/dataset/4/26_2.odb,Step-1,Increment      1: Step Time =    1.000,"PART-1-1",           105,       7.11844,      -23.8299,            0.,NA,NA,"",   204.432E-03,  -161.207E-03,  -125.717E-03,   21.8301E-03
C:/temp/dataset/4/26_2.odb,Step-1,Increment      1: Step Time =    1.000,"PART-1-1",           106,       7.34845,      -27.9642,            0.,NA,NA,"",   41.4096E-03,  -20.8663E-03,  -35.7680E-03,   22.4930E-03
C:/temp/dataset/4/26_2.odb,Step-1,Increment      1: Step Time =    1.000,"PART-1-1",           107,       7.18399,      -25.9216,            0.,NA,NA,"",   109.419E-03,  -75.2516E-03,  -79.4342E-03,   23.1749E-03
C:/temp/dataset/4/26_2.odb,Step-1,Increment      1: Step Time =    1.000,"PART-1-1",           108,       7.00226,      -10.9532,            0.,NA,NA,"",       1.34631,      -1.28378,  -405.543E-03,   15.9781E-03
C:/temp/dataset/4/26_2.odb,Step-1,Increment      1: Step Time =    1.000,"PART-1-1",           109,       6.93148,       25.8450,            0.,NA,NA,"",       7.56845,      -7.48323,      -1.13260,   77.8517E-06
C:/temp/dataset/4/26_2.odb,Step-1,Increment      1: Step Time =    1.000,"PART-1-1",           110,       6.95256,       21.7727,            0.,NA,NA,"",       6.81912,      -6.73629,      -1.05960,   426.375E-06
C:/temp/dataset/4/26_2.odb,Step-1,Increment      1: Step Time =    1.000,"PART-1-1",           111,       6.99069,       19.6693,            0.,NA,NA,"",       6.43024,      -6.34943,      -1.01623,   1.07436E-03
C:/temp/dataset/4/26_2.odb,Step-1,Increment      1: Step Time =    1.000,"PART-1-1",           112,       6.98342,       13.2435,            0.,NA,NA,"",       5.24114,      -5.16354,  -898.516E-03,   3.92837E-03
C:/temp/dataset/4/26_2.odb,Step-1,Increment      1: Step Time =    1.000,"PART-1-1",           113,       6.84904,       8.98858,            0.,NA,NA,"",       4.46917,      -4.39038,  -835.487E-03,   6.45831E-03
C:/temp/dataset/4/26_2.odb,Step-1,Increment      1: Step Time =    1.000,"PART-1-1",           114,      -7.00061,       11.3966,            0.,NA,NA,"",       5.46808,      -4.54917,      -3.03398,   1.62692E-06
C:/temp/dataset/4/26_2.odb,Step-1,Increment      1: Step Time =    1.000,"PART-1-1",           115,      -6.87185,       17.5946,            0.,NA,NA,"",       6.35291,      -5.54853,      -3.09408,   50.8246E-09
C:/temp/dataset/4/26_2.odb,Step-1,Increment      1: Step Time =    1.000,"PART-1-1",           116,      -6.78696,       21.5686,            0.,NA,NA,"",       6.93678,      -6.18935,      -3.13224,   8.96896E-09
C:/temp/dataset/4/26_2.odb,Step-1,Increment      1: Step Time =    1.000,"PART-1-1",           117,      -6.92081,       23.5666,            0.,NA,NA,"",       7.24440,      -6.50922,      -3.17984,   7.36612E-09
C:/temp/dataset/4/26_2.odb,Step-1,Increment      1: Step Time =    1.000,"PART-1-1",           118,      -7.47694,       27.7553,            0.,NA,NA,"",       7.90866,      -7.17622,      -3.32398,   3.10542E-09
C:/temp/dataset/4/26_2.odb,Step-1,Increment      1: Step Time =    1.000,"PART-1-1",           119,       6.62973,      -6.72562,            0.,NA,NA,"",       1.91688,      -1.83637,  -549.703E-03,   14.9216E-03
C:/temp/dataset/4/26_2.odb,Step-1,Increment      1: Step Time =    1.000,"PART-1-1",           120,       7.00244,       17.5390,            0.,NA,NA,"",       6.03557,      -5.95610,  -976.186E-03,   1.94749E-03
C:/temp/dataset/4/26_2.odb,Step-1,Increment      1: Step Time =    1.000,"PART-1-1",           121,       7.05765,      -13.1226,            0.,NA,NA,"",       1.08925,      -1.03062,  -352.553E-03,   16.8521E-03
C:/temp/dataset/4/26_2.odb,Step-1,Increment      1: Step Time =    1.000,"PART-1-1",           122,      -6.97858,       13.4860,            0.,NA,NA,"",       5.76370,      -4.88578,      -3.05768,   632.957E-09
C:/temp/dataset/4/26_2.odb,Step-1,Increment      1: Step Time =    1.000,"PART-1-1",           123,      -7.06135,       7.11796,            0.,NA,NA,"",       4.88105,      -3.85963,      -2.98796,   11.6472E-06
C:/temp/dataset/4/26_2.odb,Step-1,Increment      1: Step Time =    1.000,"PART-1-1",           124,       6.87626,      -8.81940,            0.,NA,NA,"",       1.62282,      -1.55357,  -468.973E-03,   15.6609E-03
C:/temp/dataset/4/26_2.odb,Step-1,Increment      1: Step Time =    1.000,"PART-1-1",           125,       7.08495,      -15.2974,            0.,NA,NA,"",   856.318E-03,  -800.588E-03,  -303.874E-03,   17.7810E-03
C:/temp/dataset/4/26_2.odb,Step-1,Increment      1: Step Time =    1.000,"PART-1-1",           126,       7.00715,       15.3887,            0.,NA,NA,"",       5.63699,      -5.55881,  -935.581E-03,   2.92029E-03
C:/temp/dataset/4/26_2.odb,Step-1,Increment      1: Step Time =    1.000,"PART-1-1",           127,      -7.01992,       9.30136,            0.,NA,NA,"",       5.17654,      -4.21164,      -3.00976,   3.55153E-06
C:/temp/dataset/4/26_2.odb,Step-1,Increment      1: Step Time =    1.000,"PART-1-1",           128,      -6.93369,       15.5639,            0.,NA,NA,"",       6.06041,      -5.22085,      -3.07755,   216.754E-09
C:/temp/dataset/4/26_2.odb,Step-1,Increment      1: Step Time =    1.000,"PART-1-1",           129,      -6.79206,       19.5889,            0.,NA,NA,"",       6.64220,      -5.87060,      -3.10724,   4.16186E-09
C:/temp/dataset/4/26_2.odb,Step-1,Increment      1: Step Time =    1.000,"PART-1-1",           130,       7.09662,      -19.6136,            0.,NA,NA,"",   472.625E-03,  -421.608E-03,  -213.591E-03,   19.8674E-03
C:/temp/dataset/4/26_2.odb,Step-1,Increment      1: Step Time =    1.000,"PART-1-1",           131,       6.89670,       23.8203,            0.,NA,NA,"",       7.19675,      -7.11146,      -1.10471,   73.4725E-06
C:/temp/dataset/4/26_2.odb,Step-1,Increment      1: Step Time =    1.000,"PART-1-1",           132,       6.67676,       6.98748,            0.,NA,NA,"",       4.11666,      -4.03355,  -823.029E-03,   8.77069E-03
C:/temp/dataset/4/26_2.odb,Step-1,Increment      1: Step Time =    1.000,"PART-1-1",           133,      -13.0361,       12.2042,            0.,NA,NA,"",       6.10678,      -4.60044,      -4.01605,   935.658E-09
C:/temp/dataset/4/26_2.odb,Step-1,Increment      1: Step Time =    1.000,"PART-1-1",           134,      -13.0483,       3.72302,            0.,NA,NA,"",       5.07284,      -3.23510,      -3.90741,   2.40375E-06
C:/temp/dataset/4/26_2.odb,Step-1,Increment      1: Step Time =    1.000,"PART-1-1",           135,      -13.0740,       10.0823,            0.,NA,NA,"",       5.83865,      -4.25839,      -3.99448,   1.76259E-06
C:/temp/dataset/4/26_2.odb,Step-1,Increment      1: Step Time =    1.000,"PART-1-1",           136,      -13.0017,       14.3509,            0.,NA,NA,"",       6.38568,      -4.94645,      -4.03850,   389.705E-09
C:/temp/dataset/4/26_2.odb,Step-1,Increment      1: Step Time =    1.000,"PART-1-1",           137,      -12.4480,       21.2307,            0.,NA,NA,"",       7.28364,      -6.06112,      -4.03909,   6.82114E-09
C:/temp/dataset/4/26_2.odb,Step-1,Increment      1: Step Time =    1.000,"PART-1-1",           138,      -13.0426,       25.7965,            0.,NA,NA,"",       7.97960,      -6.78833,      -4.19434,   4.17526E-09
C:/temp/dataset/4/26_2.odb,Step-1,Increment      1: Step Time =    1.000,"PART-1-1",           139,      -12.9478,       23.6552,            0.,NA,NA,"",       7.66607,      -6.44488,      -4.15116,   7.22057E-09
C:/temp/dataset/4/26_2.odb,Step-1,Increment      1: Step Time =    1.000,"PART-1-1",           140,      -12.8307,       18.7376,            0.,NA,NA,"",       6.96613,      -5.65481,      -4.06818,   19.2875E-09
C:/temp/dataset/4/26_2.odb,Step-1,Increment      1: Step Time =    1.000,"PART-1-1",           141,      -12.9472,       16.5227,            0.,NA,NA,"",       6.67259,      -5.29676,      -4.05806,   118.372E-09
C:/temp/dataset/4/26_2.odb,Step-1,Increment      1: Step Time =    1.000,"PART-1-1",           142,      -13.1112,       7.97345,            0.,NA,NA,"",       5.58019,      -3.91844,      -3.97295,   2.01307E-06
C:/temp/dataset/4/26_2.odb,Step-1,Increment      1: Step Time =    1.000,"PART-1-1",           143,      -13.1276,       5.86243,            0.,NA,NA,"",       5.32845,      -3.57842,      -3.94807,   1.30654E-06
C:/temp/dataset/4/26_2.odb,Step-1,Increment      1: Step Time =    1.000,"PART-1-1",           144,      -12.8109,       1.56310,            0.,NA,NA,"",       4.80717,      -2.89054,      -3.84104,   4.55097E-06
C:/temp/dataset/4/26_2.odb,Step-1,Increment      1: Step Time =    1.000,"PART-1-1",           145,      -12.5511,  -622.366E-03,            0.,NA,NA,"",       4.54766,      -2.54218,      -3.77075,   3.87201E-06
C:/temp/dataset/4/26_2.odb,Step-1,Increment      1: Step Time =    1.000,"PART-1-1",           146,      -7.69124,      -3.05836,            0.,NA,NA,"",       3.69360,      -2.21345,      -2.95691,   56.7353E-06
C:/temp/dataset/4/26_2.odb,Step-1,Increment      1: Step Time =    1.000,"PART-1-1",           147,      -2.59391,      -3.27074,            0.,NA,NA,"",       3.09773,      -2.24545,      -2.13398,   356.089E-06
C:/temp/dataset/4/26_2.odb,Step-1,Increment      1: Step Time =    1.000,"PART-1-1",           148,      -2.06699,       2.95135,            0.,NA,NA,"",       3.88896,      -3.25411,      -2.12951,   368.777E-06
C:/temp/dataset/4/26_2.odb,Step-1,Increment      1: Step Time =    1.000,"PART-1-1",           149,       1.86882,      -3.06513,            0.,NA,NA,"",       2.73154,      -2.33680,      -1.41445,   2.59818E-03
C:/temp/dataset/4/26_2.odb,Step-1,Increment      1: Step Time =    1.000,"PART-1-1",           150,       2.79073,       3.02834,            0.,NA,NA,"",       3.59341,      -3.32803,      -1.35528,   3.81038E-03
C:/temp/dataset/4/26_2.odb,Step-1,Increment      1: Step Time =    1.000,"PART-1-1",           151,       12.5379,       2.72923,            0.,NA,NA,"",       3.39864,      -3.39177,   216.095E-03,   6.65498E-03
C:/temp/dataset/4/26_2.odb,Step-1,Increment      1: Step Time =    1.000,"PART-1-1",           152,       12.9313,       10.2835,            0.,NA,NA,"",       4.72269,      -4.71817,   206.655E-03,   5.07662E-03
C:/temp/dataset/4/26_2.odb,Step-1,Increment      1: Step Time =    1.000,"PART-1-1",           153,       12.7723,       24.8557,            0.,NA,NA,"",       7.40126,      -7.40112,  -46.3124E-03,   204.833E-06
C:/temp/dataset/4/26_2.odb,Step-1,Increment      1: Step Time =    1.000,"PART-1-1",           154,       12.5268,       27.4001,            0.,NA,NA,"",       7.86369,      -7.86255,  -134.281E-03,   104.773E-06
C:/temp/dataset/4/26_2.odb,Step-1,Increment      1: Step Time =    1.000,"PART-1-1",           155,       12.7627,      -5.01238,            0.,NA,NA,"",       2.17130,      -2.15159,   291.893E-03,   12.2014E-03
C:/temp/dataset/4/26_2.odb,Step-1,Increment      1: Step Time =    1.000,"PART-1-1",           156,       13.0118,      -12.5921,            0.,NA,NA,"",       1.16734,      -1.12957,   294.537E-03,   17.4518E-03
C:/temp/dataset/4/26_2.odb,Step-1,Increment      1: Step Time =    1.000,"PART-1-1",           157,       9.69976,      -27.8547,            0.,NA,NA,"",   12.3039E-03,  -11.8286E-03,  -3.38675E-03,   4.69218E-03
C:/temp/dataset/4/26_2.odb,Step-1,Increment      1: Step Time =    1.000,"PART-1-1",           158,       13.0855,      -17.4497,            0.,NA,NA,"",   670.143E-03,  -623.440E-03,   245.794E-03,   20.5795E-03
C:/temp/dataset/4/26_2.odb,Step-1,Increment      1: Step Time =    1.000,"PART-1-1",           159,       12.9366,       22.3763,            0.,NA,NA,"",       6.95134,      -6.95129,   24.9464E-03,   1.18008E-03
C:/temp/dataset/4/26_2.odb,Step-1,Increment      1: Step Time =    1.000,"PART-1-1",           160,       13.0248,       17.5365,            0.,NA,NA,"",       6.06246,      -6.06131,   118.134E-03,   3.15868E-03
C:/temp/dataset/4/26_2.odb,Step-1,Increment      1: Step Time =    1.000,"PART-1-1",           161,      -10.1545,       27.3700,            0.,NA,NA,"",       8.01115,      -7.07928,      -3.74997,   2.99391E-09
C:/temp/dataset/4/26_2.odb,Step-1,Increment      1: Step Time =    1.000,"PART-1-1",           162,      -10.0546,      -2.87755,            0.,NA,NA,"",       4.00556,      -2.21176,      -3.33956,   16.2908E-06
C:/temp/dataset/4/26_2.odb,Step-1,Increment      1: Step Time =    1.000,"PART-1-1",           163,      -5.07747,      -2.66322,            0.,NA,NA,"",       3.43524,      -2.31116,      -2.54154,   183.663E-06
C:/temp/dataset/4/26_2.odb,Step-1,Increment      1: Step Time =    1.000,"PART-1-1",           164,  -330.659E-03,      -3.26262,            0.,NA,NA,"",       2.88303,      -2.27641,      -1.76913,   587.980E-06
C:/temp/dataset/4/26_2.odb,Step-1,Increment      1: Step Time =    1.000,"PART-1-1",           165,       3.93161,      -2.75002,            0.,NA,NA,"",       2.64429,      -2.41486,      -1.07736,   7.05044E-03
C:/temp/dataset/4/26_2.odb,Step-1,Increment      1: Step Time =    1.000,"PART-1-1",           166,       12.9585,      -10.1304,            0.,NA,NA,"",       1.46536,      -1.43305,   306.031E-03,   15.8717E-03
C:/temp/dataset/4/26_2.odb,Step-1,Increment      1: Step Time =    1.000,"PART-1-1",           167,       13.1106,      -19.8561,            0.,NA,NA,"",   472.279E-03,  -422.962E-03,   210.120E-03,   22.1297E-03
C:/temp/dataset/4/26_2.odb,Step-1,Increment      1: Step Time =    1.000,"PART-1-1",           168,       12.2637,      -27.1930,            0.,NA,NA,"",   58.3085E-03,  -38.1295E-03,   44.1137E-03,   20.6784E-03
C:/temp/dataset/4/26_2.odb,Step-1,Increment      1: Step Time =    1.000,"PART-1-1",           169,       13.0974,      -22.2394,            0.,NA,NA,"",   308.740E-03,  -260.060E-03,   166.401E-03,   23.3473E-03
C:/temp/dataset/4/26_2.odb,Step-1,Increment      1: Step Time =    1.000,"PART-1-1",           170,       13.0625,      -15.0302,            0.,NA,NA,"",   902.451E-03,  -859.508E-03,   275.072E-03,   19.0863E-03
C:/temp/dataset/4/26_2.odb,Step-1,Increment      1: Step Time =    1.000,"PART-1-1",           171,       12.8638,      -7.61343,            0.,NA,NA,"",       1.79838,      -1.77248,   304.133E-03,   14.1210E-03
C:/temp/dataset/4/26_2.odb,Step-1,Increment      1: Step Time =    1.000,"PART-1-1",           172,       12.8109,      -2.41519,            0.,NA,NA,"",       2.57218,      -2.55552,   292.265E-03,   10.3104E-03
C:/temp/dataset/4/26_2.odb,Step-1,Increment      1: Step Time =    1.000,"PART-1-1",           173,       12.7001,   168.481E-03,            0.,NA,NA,"",       2.98194,      -2.97047,   261.347E-03,   8.10272E-03
C:/temp/dataset/4/26_2.odb,Step-1,Increment      1: Step Time =    1.000,"PART-1-1",           174,       12.6773,       5.28127,            0.,NA,NA,"",       3.83393,      -3.82779,   216.937E-03,   6.33961E-03
C:/temp/dataset/4/26_2.odb,Step-1,Increment      1: Step Time =    1.000,"PART-1-1",           175,       12.8405,       7.80961,            0.,NA,NA,"",       4.27842,      -4.27279,   219.497E-03,   5.92294E-03
C:/temp/dataset/4/26_2.odb,Step-1,Increment      1: Step Time =    1.000,"PART-1-1",           176,       12.9955,       12.7023,            0.,NA,NA,"",       5.16500,      -5.16166,   185.825E-03,   4.05717E-03
C:/temp/dataset/4/26_2.odb,Step-1,Increment      1: Step Time =    1.000,"PART-1-1",           177,       13.0102,       19.9477,            0.,NA,NA,"",       6.50774,      -6.50728,   77.3720E-03,   2.33078E-03
C:/temp/dataset/4/26_2.odb,Step-1,Increment      1: Step Time =    1.000,"PART-1-1",           178,       9.88408,       27.1269,            0.,NA,NA,"",       7.79216,      -7.76799,  -613.333E-03,   64.4505E-06
C:/temp/dataset/4/26_2.odb,Step-1,Increment      1: Step Time =    1.000,"PART-1-1",           179,       13.0301,       15.1161,            0.,NA,NA,"",       5.61264,      -5.61046,   156.349E-03,   4.13403E-03
C:/temp/dataset/4/26_2.odb,Step-1,Increment      1: Step Time =    1.000,"PART-1-1",           180,   300.490E-03,       3.00528,            0.,NA,NA,"",       3.72975,      -3.29353,      -1.75034,   509.402E-06
C:/temp/dataset/4/26_2.odb,Step-1,Increment      1: Step Time =    1.000,"PART-1-1",           181,      -4.18418,       2.89078,            0.,NA,NA,"",       4.05542,      -3.21681,      -2.46953,   228.530E-06
C:/temp/dataset/4/26_2.odb,Step-1,Increment      1: Step Time =    1.000,"PART-1-1",           182,      -8.75093,       23.2164,            0.,NA,NA,"",       7.30559,      -6.42897,      -3.46987,   6.79849E-09
C:/temp/dataset/4/26_2.odb,Step-1,Increment      1: Step Time =    1.000,"PART-1-1",           183,       9.13120,      -23.8882,            0.,NA,NA,"",   152.655E-03,  -148.215E-03,  -36.5468E-03,   7.43302E-03
C:/temp/dataset/4/26_2.odb,Step-1,Increment      1: Step Time =    1.000,"PART-1-1",           184,       8.76025,       8.63504,            0.,NA,NA,"",       4.38186,      -4.35368,  -496.133E-03,   4.44756E-03
C:/temp/dataset/4/26_2.odb,Step-1,Increment      1: Step Time =    1.000,"PART-1-1",           185,       8.81891,       23.9948,            0.,NA,NA,"",       7.21585,      -7.17620,  -755.409E-03,   192.917E-06
C:/temp/dataset/4/26_2.odb,Step-1,Increment      1: Step Time =    1.000,"PART-1-1",           186,       9.00734,       17.5557,            0.,NA,NA,"",       6.02389,      -5.99276,  -611.604E-03,   2.56014E-03
C:/temp/dataset/4/26_2.odb,Step-1,Increment      1: Step Time =    1.000,"PART-1-1",           187,      -8.59230,       19.6811,            0.,NA,NA,"",       6.77574,      -5.86197,      -3.39823,   14.2698E-09
C:/temp/dataset/4/26_2.odb,Step-1,Increment      1: Step Time =    1.000,"PART-1-1",           188,       9.06266,      -12.9142,            0.,NA,NA,"",       1.06549,      -1.05666,  -136.958E-03,   6.33765E-03
C:/temp/dataset/4/26_2.odb,Step-1,Increment      1: Step Time =    1.000,"PART-1-1",           189,       9.13987,      -19.6571,            0.,NA,NA,"",   417.842E-03,  -412.504E-03,  -66.5807E-03,   6.74580E-03
C:/temp/dataset/4/26_2.odb,Step-1,Increment      1: Step Time =    1.000,"PART-1-1",           190,       9.00941,       15.3265,            0.,NA,NA,"",       5.60890,      -5.57963,  -572.221E-03,   3.42322E-03
C:/temp/dataset/4/26_2.odb,Step-1,Increment      1: Step Time =    1.000,"PART-1-1",           191,      -8.96967,       13.7142,            0.,NA,NA,"",       5.95049,      -4.89654,      -3.38116,   663.157E-09
C:/temp/dataset/4/26_2.odb,Step-1,Increment      1: Step Time =    1.000,"PART-1-1",           192,       9.12973,      -17.4386,            0.,NA,NA,"",   602.112E-03,  -595.978E-03,  -85.7259E-03,   6.56588E-03
C:/temp/dataset/4/26_2.odb,Step-1,Increment      1: Step Time =    1.000,"PART-1-1",           193,       8.94484,       21.9321,            0.,NA,NA,"",       6.83538,      -6.79969,  -697.509E-03,   684.674E-06
C:/temp/dataset/4/26_2.odb,Step-1,Increment      1: Step Time =    1.000,"PART-1-1",           194,      -8.78258,       17.8115,            0.,NA,NA,"",       6.51826,      -5.55853,      -3.40448,   68.6390E-09
C:/temp/dataset/4/26_2.odb,Step-1,Increment      1: Step Time =    1.000,"PART-1-1",           195,       8.90333,       10.8666,            0.,NA,NA,"",       4.78547,      -4.75810,  -511.075E-03,   4.24535E-03
C:/temp/dataset/4/26_2.odb,Step-1,Increment      1: Step Time =    1.000,"PART-1-1",           196,      -9.00437,       11.6266,            0.,NA,NA,"",       5.66396,      -4.56004,      -3.35952,   1.64134E-06
C:/temp/dataset/4/26_2.odb,Step-1,Increment      1: Step Time =    1.000,"PART-1-1",           197,      -9.03622,       9.53759,            0.,NA,NA,"",       5.38285,      -4.22336,      -3.33741,   2.37162E-06
C:/temp/dataset/4/26_2.odb,Step-1,Increment      1: Step Time =    1.000,"PART-1-1",           198,       8.99264,      -10.6281,            0.,NA,NA,"",       1.34057,      -1.32954,  -171.611E-03,   6.18229E-03
C:/temp/dataset/4/26_2.odb,Step-1,Increment      1: Step Time =    1.000,"PART-1-1",           199,       8.82192,      -8.34759,            0.,NA,NA,"",       1.64043,      -1.62526,  -222.578E-03,   6.01869E-03
C:/temp/dataset/4/26_2.odb,Step-1,Increment      1: Step Time =    1.000,"PART-1-1",           200,       8.98411,       13.0928,            0.,NA,NA,"",       5.19446,      -5.16665,  -536.836E-03,   3.95506E-03
C:/temp/dataset/4/26_2.odb,Step-1,Increment      1: Step Time =    1.000,"PART-1-1",           201,       7.30685,       27.8134,            0.,NA,NA,"",       7.92641,      -7.85011,      -1.09710,   88.0193E-06
C:/temp/dataset/4/26_2.odb,Step-1,Increment      1: Step Time =    1.000,"PART-1-1",           202,      -8.46063,       21.4565,            0.,NA,NA,"",       7.02690,      -6.14947,      -3.40019,   6.28362E-09
C:/temp/dataset/4/26_2.odb,Step-1,Increment      1: Step Time =    1.000,"PART-1-1",           203,       9.11250,      -15.1896,            0.,NA,NA,"",   818.317E-03,  -811.143E-03,  -108.117E-03,   6.40513E-03
C:/temp/dataset/4/26_2.odb,Step-1,Increment      1: Step Time =    1.000,"PART-1-1",           204,       9.14200,      -21.8221,            0.,NA,NA,"",   267.443E-03,  -262.677E-03,  -50.2631E-03,   7.00413E-03
C:/temp/dataset/4/26_2.odb,Step-1,Increment      1: Step Time =    1.000,"PART-1-1",           205,      -8.90436,       15.8055,            0.,NA,NA,"",       6.24027,      -5.23404,      -3.39792,   251.957E-09
C:/temp/dataset/4/26_2.odb,Step-1,Increment      1: Step Time =    1.000,"PART-1-1",           206,       9.00445,       19.7587,            0.,NA,NA,"",       6.43319,      -6.40028,  -649.860E-03,   1.54326E-03
C:/temp/dataset/4/26_2.odb,Step-1,Increment      1: Step Time =    1.000,"PART-1-1",           207,       8.39742,      -6.16188,            0.,NA,NA,"",       1.95324,      -1.92826,  -311.372E-03,   6.22762E-03
C:/temp/dataset/4/26_2.odb,Step-1,Increment      1: Step Time =    1.000,"PART-1-1",           208,      -9.10294,       7.45394,            0.,NA,NA,"",       5.11257,      -3.88708,      -3.32099,   3.83695E-06
C:/temp/dataset/4/26_2.odb,Step-1,Increment      1: Step Time =    1.000,"PART-1-1",           209,       8.43260,       6.43235,            0.,NA,NA,"",       3.99327,      -3.96007,  -513.885E-03,   4.14748E-03
C:/temp/dataset/4/26_2.odb,Step-1,Increment      1: Step Time =    1.000,"PART-1-1",           210,       5.64784,       2.93298,            0.,NA,NA,"",       3.46223,      -3.34107,  -907.910E-03,   9.43273E-03
C:/temp/dataset/4/26_2.odb,Step-1,Increment      1: Step Time =    1.000,"PART-1-1",           211,      -10.7213,       1.88644,            0.,NA,NA,"",       4.59700,      -2.96984,      -3.50891,   16.3802E-06
C:/temp/dataset/4/26_2.odb,Step-1,Increment      1: Step Time =    1.000,"PART-1-1",           212,      -12.7178,       27.8380,            0.,NA,NA,"",       8.25161,      -7.12118,      -4.16869,   2.81934E-09
C:/temp/dataset/4/26_2.odb,Step-1,Increment      1: Step Time =    1.000,"PART-1-1",           213,      -11.0298,       24.2524,            0.,NA,NA,"",       7.61162,      -6.56603,      -3.85020,   5.93751E-09
C:/temp/dataset/4/26_2.odb,Step-1,Increment      1: Step Time =    1.000,"PART-1-1",           214,      -10.4500,       20.0822,            0.,NA,NA,"",       6.96747,      -5.90231,      -3.70249,   11.1001E-09
C:/temp/dataset/4/26_2.odb,Step-1,Increment      1: Step Time =    1.000,"PART-1-1",           215,      -10.9919,       14.0243,            0.,NA,NA,"",       6.16252,      -4.92008,      -3.71072,   589.571E-09
C:/temp/dataset/4/26_2.odb,Step-1,Increment      1: Step Time =    1.000,"PART-1-1",           216,      -11.0796,       9.82104,            0.,NA,NA,"",       5.60951,      -4.24234,      -3.67004,   2.24515E-06
C:/temp/dataset/4/26_2.odb,Step-1,Increment      1: Step Time =    1.000,"PART-1-1",           217,      -11.0365,       11.9204,            0.,NA,NA,"",       5.88249,      -4.58085,      -3.69046,   1.31190E-06
C:/temp/dataset/4/26_2.odb,Step-1,Increment      1: Step Time =    1.000,"PART-1-1",           218,      -10.5491,       22.5446,            0.,NA,NA,"",       7.32965,      -6.29739,      -3.75055,   6.79468E-09
C:/temp/dataset/4/26_2.odb,Step-1,Increment      1: Step Time =    1.000,"PART-1-1",           219,      -10.9277,       16.1478,            0.,NA,NA,"",       6.44942,      -5.26275,      -3.72808,   199.179E-09
C:/temp/dataset/4/26_2.odb,Step-1,Increment      1: Step Time =    1.000,"PART-1-1",           220,      -10.7891,       18.2216,            0.,NA,NA,"",       6.72872,      -5.59838,      -3.73281,   54.8934E-09
C:/temp/dataset/4/26_2.odb,Step-1,Increment      1: Step Time =    1.000,"PART-1-1",           221,      -11.1555,       7.76515,            0.,NA,NA,"",       5.35290,      -3.91041,      -3.65543,   1.83871E-06
C:/temp/dataset/4/26_2.odb,Step-1,Increment      1: Step Time =    1.000,"PART-1-1",           222,      -9.80329,       4.04682,            0.,NA,NA,"",       4.75111,      -3.32953,      -3.38930,   13.1687E-06
C:/temp/dataset/4/26_2.odb,Step-1,Increment      1: Step Time =    1.000,"PART-1-1",           223,       9.22674,      -25.9093,            0.,NA,NA,"",   67.2081E-03,  -63.9988E-03,  -20.5202E-03,   6.98628E-03
C:/temp/dataset/4/26_2.odb,Step-1,Increment      1: Step Time =    1.000,"PART-1-1",           224,      -9.21421,       25.1107,            0.,NA,NA,"",       7.61597,      -6.72787,      -3.56915,   5.01108E-09
C:/temp/dataset/4/26_2.odb,Step-1,Increment      1: Step Time =    1.000,"PART-1-1",           225,       6.25241,      -4.60112,            0.,NA,NA,"",       2.24109,      -2.14358,  -653.872E-03,   12.0774E-03
C:/temp/dataset/4/26_2.odb,Step-1,Increment      1: Step Time =    1.000,"PART-1-1",           226,      -7.19550,       4.55405,            0.,NA,NA,"",       4.55261,      -3.44515,      -2.97610,   40.2154E-06
C:/temp/dataset/4/26_2.odb,Step-1,Increment      1: Step Time =    1.000,"PART-1-1",           227,       12.9551,      -24.6090,            0.,NA,NA,"",   175.253E-03,  -134.320E-03,   112.568E-03,   24.3263E-03
C:/temp/dataset/4/26_2.odb,Step-1,Increment      1: Step Time =    1.000,"PART-1-1",           228,       10.9241,       22.1645,            0.,NA,NA,"",       6.88525,      -6.87687,  -339.464E-03,   866.258E-06
C:/temp/dataset/4/26_2.odb,Step-1,Increment      1: Step Time =    1.000,"PART-1-1",           229,      -4.91288,   464.762E-03,            0.,NA,NA,"",       3.80352,      -2.81710,      -2.55552,   210.630E-06
C:/temp/dataset/4/26_2.odb,Step-1,Increment      1: Step Time =    1.000,"PART-1-1",           230,  -831.143E-03,      -1.35374,            0.,NA,NA,"",       3.18810,      -2.57847,      -1.87495,   431.361E-06
C:/temp/dataset/4/26_2.odb,Step-1,Increment      1: Step Time =    1.000,"PART-1-1",           231,       11.1616,      -19.7398,            0.,NA,NA,"",   420.015E-03,  -413.235E-03,   75.1656E-03,   9.29806E-03
C:/temp/dataset/4/26_2.odb,Step-1,Increment      1: Step Time =    1.000,"PART-1-1",           232,       10.9730,      -10.3410,            0.,NA,NA,"",       1.38275,      -1.38125,   64.3649E-03,   6.81604E-03
C:/temp/dataset/4/26_2.odb,Step-1,Increment      1: Step Time =    1.000,"PART-1-1",           233,       10.4844,      -5.04269,            0.,NA,NA,"",       2.11624,      -2.11600,  -31.3614E-03,   6.79102E-03
C:/temp/dataset/4/26_2.odb,Step-1,Increment      1: Step Time =    1.000,"PART-1-1",           234,       10.9074,       10.5689,            0.,NA,NA,"",       4.73797,      -4.73547,  -153.738E-03,   4.03906E-03
C:/temp/dataset/4/26_2.odb,Step-1,Increment      1: Step Time =    1.000,"PART-1-1",           235,       11.0515,      -12.7377,            0.,NA,NA,"",       1.09273,      -1.08991,   78.4697E-03,   7.36840E-03
C:/temp/dataset/4/26_2.odb,Step-1,Increment      1: Step Time =    1.000,"PART-1-1",           236,       10.9936,       12.8990,            0.,NA,NA,"",       5.16648,      -5.16350,  -175.241E-03,   4.05501E-03
C:/temp/dataset/4/26_2.odb,Step-1,Increment      1: Step Time =    1.000,"PART-1-1",           237,      -9.84553,  -403.770E-03,            0.,NA,NA,"",       4.23900,      -2.61266,      -3.33814,   25.7864E-06
C:/temp/dataset/4/26_2.odb,Step-1,Increment      1: Step Time =    1.000,"PART-1-1",           238,      -6.42098,  -599.403E-03,            0.,NA,NA,"",       3.82739,      -2.62595,      -2.78448,   124.715E-06
C:/temp/dataset/4/26_2.odb,Step-1,Increment      1: Step Time =    1.000,"PART-1-1",           239,      -2.35214,      -1.85066,            0.,NA,NA,"",       3.25689,      -2.47793,      -2.11358,   331.540E-06
C:/temp/dataset/4/26_2.odb,Step-1,Increment      1: Step Time =    1.000,"PART-1-1",           240,       11.1625,      -21.9830,            0.,NA,NA,"",   265.702E-03,  -258.156E-03,   62.8718E-03,   9.86940E-03
C:/temp/dataset/4/26_2.odb,Step-1,Increment      1: Step Time =    1.000,"PART-1-1",           241,       11.1073,      -15.0998,            0.,NA,NA,"",   835.415E-03,  -831.159E-03,   84.2251E-03,   8.03858E-03
C:/temp/dataset/4/26_2.odb,Step-1,Increment      1: Step Time =    1.000,"PART-1-1",           242,       11.1457,      -17.4375,            0.,NA,NA,"",   610.606E-03,  -604.946E-03,   82.9386E-03,   8.72006E-03
C:/temp/dataset/4/26_2.odb,Step-1,Increment      1: Step Time =    1.000,"PART-1-1",           243,       10.8340,      -7.85693,            0.,NA,NA,"",       1.71179,      -1.71141,   36.1882E-03,   6.71273E-03
C:/temp/dataset/4/26_2.odb,Step-1,Increment      1: Step Time =    1.000,"PART-1-1",           244,       10.5842,   120.255E-03,            0.,NA,NA,"",       2.93367,      -2.93280,  -71.2581E-03,   4.08130E-03
C:/temp/dataset/4/26_2.odb,Step-1,Increment      1: Step Time =    1.000,"PART-1-1",           245,       10.8633,      -2.34188,            0.,NA,NA,"",       2.53995,      -2.53995,  -1.21195E-03,   6.31705E-03
C:/temp/dataset/4/26_2.odb,Step-1,Increment      1: Step Time =    1.000,"PART-1-1",           246,       9.78574,       2.89226,            0.,NA,NA,"",       3.38674,      -3.37854,  -235.478E-03,   1.89447E-03
C:/temp/dataset/4/26_2.odb,Step-1,Increment      1: Step Time =    1.000,"PART-1-1",           247,       10.7685,       8.18214,            0.,NA,NA,"",       4.30632,      -4.30395,  -142.597E-03,   3.98772E-03
C:/temp/dataset/4/26_2.odb,Step-1,Increment      1: Step Time =    1.000,"PART-1-1",           248,       10.4587,       5.69287,            0.,NA,NA,"",       3.86585,      -3.86248,  -161.345E-03,   3.26166E-03
C:/temp/dataset/4/26_2.odb,Step-1,Increment      1: Step Time =    1.000,"PART-1-1",           249,       11.0104,       19.8565,            0.,NA,NA,"",       6.46008,      -6.45375,  -285.874E-03,   1.95485E-03
C:/temp/dataset/4/26_2.odb,Step-1,Increment      1: Step Time =    1.000,"PART-1-1",           250,       11.0363,       17.5467,            0.,NA,NA,"",       6.03144,      -6.02652,  -243.494E-03,   3.06982E-03
C:/temp/dataset/4/26_2.odb,Step-1,Increment      1: Step Time =    1.000,"PART-1-1",           251,       11.0403,       15.2208,            0.,NA,NA,"",       5.59809,      -5.59434,  -204.742E-03,   3.87572E-03
C:/temp/dataset/4/26_2.odb,Step-1,Increment      1: Step Time =    1.000,"PART-1-1",           252,       1.19009,      -1.06873,            0.,NA,NA,"",       3.07205,      -2.65112,      -1.55212,   1.28205E-03
C:/temp/dataset/4/26_2.odb,Step-1,Increment      1: Step Time =    1.000,"PART-1-1",           253,       10.6932,       24.5073,            0.,NA,NA,"",       7.31422,      -7.30210,  -420.867E-03,   188.065E-06
C:/temp/dataset/4/26_2.odb,Step-1,Increment      1: Step Time =    1.000,"PART-1-1",           254,       8.51128,       25.6419,            0.,NA,NA,"",       7.51983,      -7.47281,  -839.644E-03,   69.0083E-06
C:/temp/dataset/4/26_2.odb,Step-1,Increment      1: Step Time =    1.000,"PART-1-1",           255,      -9.32324,       5.48290,            0.,NA,NA,"",       4.88025,      -3.56693,      -3.33074,   7.19637E-06
C:/temp/dataset/4/26_2.odb,Step-1,Increment      1: Step Time =    1.000,"PART-1-1",           256,      -11.4569,       25.7537,            0.,NA,NA,"",       7.86009,      -6.80212,      -3.93854,   4.18576E-09
C:/temp/dataset/4/26_2.odb,Step-1,Increment      1: Step Time =    1.000,"PART-1-1",           257,      -8.85145,       2.84717,            0.,NA,NA,"",       4.50406,      -3.14886,      -3.22044,   33.8654E-06
C:/temp/dataset/4/26_2.odb,Step-1,Increment      1: Step Time =    1.000,"PART-1-1",           258,       11.0896,      -24.0706,            0.,NA,NA,"",   150.084E-03,  -143.081E-03,   45.3086E-03,   9.89236E-03
C:/temp/dataset/4/26_2.odb,Step-1,Increment      1: Step Time =    1.000,"PART-1-1",           259,       5.69240,      -2.12345,            0.,NA,NA,"",       2.65381,      -2.53053,  -799.447E-03,   11.1913E-03
C:/temp/dataset/4/26_2.odb,Step-1,Increment      1: Step Time =    1.000,"PART-1-1",           260,       7.72467,       1.38687,            0.,NA,NA,"",       3.15594,      -3.10855,  -544.883E-03,   6.14872E-03
C:/temp/dataset/4/26_2.odb,Step-1,Increment      1: Step Time =    1.000,"PART-1-1",           261,       8.83369,  -368.727E-03,            0.,NA,NA,"",       2.85474,      -2.83460,  -338.559E-03,   5.59199E-03
C:/temp/dataset/4/26_2.odb,Step-1,Increment      1: Step Time =    1.000,"PART-1-1",           262,       7.58912,       4.39900,            0.,NA,NA,"",       3.65457,      -3.60149,  -620.646E-03,   4.06150E-03
C:/temp/dataset/4/26_2.odb,Step-1,Increment      1: Step Time =    1.000,"PART-1-1",           263,      -6.02595,       2.23751,            0.,NA,NA,"",       4.13982,      -3.08766,      -2.75762,   130.630E-06
C:/temp/dataset/4/26_2.odb,Step-1,Increment      1: Step Time =    1.000,"PART-1-1",           264,       4.92391,   813.983E-03,            0.,NA,NA,"",       3.15021,      -2.99322,  -982.094E-03,   7.41372E-03
C:/temp/dataset/4/26_2.odb,Step-1,Increment      1: Step Time =    1.000,"PART-1-1",           265,      -7.77287,       1.11371,            0.,NA,NA,"",       4.17894,      -2.88398,      -3.02427,   67.9430E-06
C:/temp/dataset/4/26_2.odb,Step-1,Increment      1: Step Time =    1.000,"PART-1-1",           266,      -3.71710,       1.36231,            0.,NA,NA,"",       3.80827,      -2.97728,      -2.37461,   277.521E-06
C:/temp/dataset/4/26_2.odb,Step-1,Increment      1: Step Time =    1.000,"PART-1-1",           267,       2.85817,       1.10052,            0.,NA,NA,"",       3.29414,      -3.01956,      -1.31668,   3.81407E-03
C:/temp/dataset/4/26_2.odb,Step-1,Increment      1: Step Time =    1.000,"PART-1-1",           268,       7.51165,      -2.37377,            0.,NA,NA,"",       2.55386,      -2.50287,  -507.778E-03,   9.22206E-03
C:/temp/dataset/4/26_2.odb,Step-1,Increment      1: Step Time =    1.000,"PART-1-1",           269,      -1.84913,   666.939E-03,            0.,NA,NA,"",       3.55222,      -2.89025,      -2.06513,   440.861E-06
C:/temp/dataset/4/26_2.odb,Step-1,Increment      1: Step Time =    1.000,"PART-1-1",           270,   621.955E-03,   989.730E-03,            0.,NA,NA,"",       3.41254,      -2.97465,      -1.67241,   627.314E-06
C:/temp/dataset/4/26_2.odb,Step-1,Increment      1: Step Time =    1.000,"PART-1-1",           271,       7.77182,      -4.29185,            0.,NA,NA,"",       2.24552,      -2.20352,  -432.277E-03,   8.96090E-03
C:/temp/dataset/4/26_2.odb,Step-1,Increment      1: Step Time =    1.000,"PART-1-1",           272,       6.40836,       5.42027,            0.,NA,NA,"",       3.84940,      -3.75770,  -835.199E-03,   5.68520E-03
C:/temp/dataset/4/26_2.odb,Step-1,Increment      1: Step Time =    1.000,"PART-1-1",           273,      -12.5139,      -2.82358,            0.,NA,NA,"",       4.32980,      -2.18838,      -3.73606,   1.60196E-06
C:/temp/dataset/4/26_2.odb,Step-1,Increment      1: Step Time =    1.000,"PART-1-1",           274,       10.8188,      -25.6946,            0.,NA,NA,"",   77.8826E-03,  -73.7150E-03,   25.1357E-03,   8.33420E-03
C:/temp/dataset/4/26_2.odb,Step-1,Increment      1: Step Time =    1.000,"PART-1-1",           275,       6.49302,  -163.532E-03,            0.,NA,NA,"",       2.93629,      -2.84872,  -711.756E-03,   8.40615E-03
C:/temp/dataset/4/26_2.odb,Step-1,Increment      1: Step Time =    1.000,"PART-1-1",           276,       7.60941,  -936.337E-03,            0.,NA,NA,"",       2.78193,      -2.73288,  -520.099E-03,   7.98788E-03
C:/temp/dataset/4/26_2.odb,Step-1,Increment      1: Step Time =    1.000,"PART-1-1",           277,       9.17282,      -2.25688,            0.,NA,NA,"",       2.54802,      -2.53506,  -256.735E-03,   6.37870E-03
C:/temp/dataset/4/26_2.odb,Step-1,Increment      1: Step Time =    1.000,"PART-1-1",           278,       9.10690,      -3.89703,            0.,NA,NA,"",       2.28944,      -2.27655,  -242.586E-03,   6.65194E-03
C:/temp/dataset/4/26_2.odb,Step-1,Increment      1: Step Time =    1.000,"PART-1-1",           279,      -7.91199,      -1.40732,            0.,NA,NA,"",       3.90078,      -2.47637,      -3.01392,   65.5799E-06
C:/temp/dataset/4/26_2.odb,Step-1,Increment      1: Step Time =    1.000,"PART-1-1",           280,      -9.83927,       21.3699,            0.,NA,NA,"",       7.10885,      -6.11754,      -3.62098,   6.24642E-09
C:/temp/dataset/4/26_2.odb,Step-1,Increment      1: Step Time =    1.000,"PART-1-1",           281,      -11.2653,       5.77953,            0.,NA,NA,"",       5.11720,      -3.58936,      -3.64722,   2.35809E-06
C:/temp/dataset/4/26_2.odb,Step-1,Increment      1: Step Time =    1.000,"PART-1-1",           282,      -11.2487,       3.84080,            0.,NA,NA,"",       4.88275,      -3.27752,      -3.61927,   8.06122E-06
C:/temp/dataset/4/26_2.odb,Step-1,Increment      1: Step Time =    1.000,"PART-1-1",           283,       3.11059,  -868.354E-03,            0.,NA,NA,"",       2.97870,      -2.70674,      -1.24345,   4.11022E-03
C:/temp/dataset/4/26_2.odb,Step-1,Increment      1: Step Time =    1.000,"PART-1-1",           284,       4.50766,  -682.768E-03,            0.,NA,NA,"",       2.93318,      -2.75010,      -1.02005,   6.91265E-03
C:/temp/dataset/4/26_2.odb,Step-1,Increment      1: Step Time =    1.000,"PART-1-1",           285,      -3.56662,  -854.847E-03,            0.,NA,NA,"",       3.50262,      -2.62243,      -2.32189,   325.913E-06
C:/temp/dataset/4/26_2.odb,Step-1,Increment      1: Step Time =    1.000,"PART-1-1",           286,      -7.33150,       26.6843,            0.,NA,NA,"",       7.73834,      -7.00572,      -3.28660,   3.84206E-09
C:/temp/dataset/4/26_2.odb,Step-1,Increment      1: Step Time =    1.000,"PART-1-1",           287,      -6.09303,       25.7233,            0.,NA,NA,"",       7.52410,      -6.86718,      -3.07471,   3.94441E-09
C:/temp/dataset/4/26_2.odb,Step-1,Increment      1: Step Time =    1.000,"PART-1-1",           288,           -5.,        26.875,            0.,NA,NA,"",       7.64396,      -7.06682,      -2.91379,   3.29800E-09
C:/temp/dataset/4/26_2.odb,Step-1,Increment      1: Step Time =    1.000,"PART-1-1",           289,      -6.23847,       27.8360,            0.,NA,NA,"",       7.85411,      -7.20536,      -3.12568,   2.53911E-09
C:/temp/dataset/4/26_2.odb,Step-1,Increment      1: Step Time =    1.000,"PART-1-1",           290,      -8.20013,       25.3620,            0.,NA,NA,"",       7.59025,      -6.78154,      -3.40919,   4.39905E-09
C:/temp/dataset/4/26_2.odb,Step-1,Increment      1: Step Time =    1.000,"PART-1-1",           291,      -8.98257,       24.1636,            0.,NA,NA,"",       7.46073,      -6.57842,      -3.51951,   5.80091E-09
C:/temp/dataset/4/26_2.odb,Step-1,Increment      1: Step Time =    1.000,"PART-1-1",           292,      -7.83587,       23.3915,            0.,NA,NA,"",       7.27350,      -6.46909,      -3.32485,   6.23189E-09
C:/temp/dataset/4/26_2.odb,Step-1,Increment      1: Step Time =    1.000,"PART-1-1",           293,      -7.05344,       24.5900,            0.,NA,NA,"",       7.40619,      -6.67222,      -3.21453,   5.92136E-09
C:/temp/dataset/4/26_2.odb,Step-1,Increment      1: Step Time =    1.000,"PART-1-1",           294,      -6.78951,       20.5788,            0.,NA,NA,"",       6.78921,      -6.02997,      -3.11974,   3.56760E-09
C:/temp/dataset/4/26_2.odb,Step-1,Increment      1: Step Time =    1.000,"PART-1-1",           295,      -5.89603,       19.5861,            0.,NA,NA,"",       6.58598,      -5.88184,      -2.96297,   14.8736E-09
C:/temp/dataset/4/26_2.odb,Step-1,Increment      1: Step Time =    1.000,"PART-1-1",           296,           -5.,        20.625,            0.,NA,NA,"",       6.68988,      -6.06075,      -2.83228,   22.8129E-09
C:/temp/dataset/4/26_2.odb,Step-1,Increment      1: Step Time =    1.000,"PART-1-1",           297,      -5.89348,       21.6177,            0.,NA,NA,"",       6.89091,      -6.20889,      -2.98905,   11.7280E-09
C:/temp/dataset/4/26_2.odb,Step-1,Increment      1: Step Time =    1.000,"PART-1-1",           298,      -7.97413,       13.6001,            0.,NA,NA,"",       5.85560,      -4.89116,      -3.21942,   604.080E-09
C:/temp/dataset/4/26_2.odb,Step-1,Increment      1: Step Time =    1.000,"PART-1-1",           299,      -8.98702,       12.6704,            0.,NA,NA,"",       5.80654,      -4.72829,      -3.37034,   1.11964E-06
C:/temp/dataset/4/26_2.odb,Step-1,Increment      1: Step Time =    1.000,"PART-1-1",           300,      -8.00249,       11.5116,            0.,NA,NA,"",       5.56450,      -4.55461,      -3.19675,   1.34132E-06
C:/temp/dataset/4/26_2.odb,Step-1,Increment      1: Step Time =    1.000,"PART-1-1",           301,      -6.98959,       12.4413,            0.,NA,NA,"",       5.61530,      -4.71747,      -3.04583,   1.18044E-06
C:/temp/dataset/4/26_2.odb,Step-1,Increment      1: Step Time =    1.000,"PART-1-1",           302,      -9.95004,      -1.64066,            0.,NA,NA,"",       4.11906,      -2.41221,      -3.33885,   18.7004E-06
C:/temp/dataset/4/26_2.odb,Step-1,Increment      1: Step Time =    1.000,"PART-1-1",           303,      -11.1983,  -513.068E-03,            0.,NA,NA,"",       4.39057,      -2.57741,      -3.55444,   14.2882E-06
C:/temp/dataset/4/26_2.odb,Step-1,Increment      1: Step Time =    1.000,"PART-1-1",           304,      -12.5325,      -1.72297,            0.,NA,NA,"",       4.43651,      -2.36528,      -3.75340,   2.83160E-06
C:/temp/dataset/4/26_2.odb,Step-1,Increment      1: Step Time =    1.000,"PART-1-1",           305,      -11.2842,      -2.85056,            0.,NA,NA,"",       4.16610,      -2.20007,      -3.53780,   8.63369E-06
C:/temp/dataset/4/26_2.odb,Step-1,Increment      1: Step Time =    1.000,"PART-1-1",           306,      -10.2834,   741.336E-03,            0.,NA,NA,"",       4.41719,      -2.79125,      -3.42352,   19.9214E-06
C:/temp/dataset/4/26_2.odb,Step-1,Increment      1: Step Time =    1.000,"PART-1-1",           307,      -11.7661,       1.72477,            0.,NA,NA,"",       4.70016,      -2.93019,      -3.67498,   9.83678E-06
C:/temp/dataset/4/26_2.odb,Step-1,Increment      1: Step Time =    1.000,"PART-1-1",           308,      -12.6810,   470.366E-03,            0.,NA,NA,"",       4.67584,      -2.71636,      -3.80590,   4.12817E-06
C:/temp/dataset/4/26_2.odb,Step-1,Increment      1: Step Time =    1.000,"PART-1-1",           309,         -1.25,           -5.,            0.,NA,NA,"",       2.74276,      -1.98346,      -1.89437,   884.688E-06
C:/temp/dataset/4/26_2.odb,Step-1,Increment      1: Step Time =    1.000,"PART-1-1",           310,  -165.329E-03,      -4.13131,            0.,NA,NA,"",       2.75029,      -2.13742,      -1.73076,   748.938E-06
C:/temp/dataset/4/26_2.odb,Step-1,Increment      1: Step Time =    1.000,"PART-1-1",           311,      -1.46228,      -3.26668,            0.,NA,NA,"",       2.98674,      -2.26087,      -1.95168,   403.398E-06
C:/temp/dataset/4/26_2.odb,Step-1,Increment      1: Step Time =    1.000,"PART-1-1",           312,      -2.54695,      -4.13537,            0.,NA,NA,"",       2.98507,      -2.10656,      -2.11496,   332.310E-06
C:/temp/dataset/4/26_2.odb,Step-1,Increment      1: Step Time =    1.000,"PART-1-1",           313,   769.081E-03,      -3.16387,            0.,NA,NA,"",       2.80283,      -2.30676,      -1.59208,   749.460E-06
C:/temp/dataset/4/26_2.odb,Step-1,Increment      1: Step Time =    1.000,"PART-1-1",           314,          1.25,           -5.,            0.,NA,NA,"",       2.50395,      -2.01345,      -1.48856,   1.29584E-03
C:/temp/dataset/4/26_2.odb,Step-1,Increment      1: Step Time =    1.000,"PART-1-1",           315,       2.18441,      -4.03256,            0.,NA,NA,"",       2.56694,      -2.18447,      -1.34805,   1.88700E-03
C:/temp/dataset/4/26_2.odb,Step-1,Increment      1: Step Time =    1.000,"PART-1-1",           316,       1.54561,       3.01681,            0.,NA,NA,"",       3.65684,      -3.31093,      -1.55249,   1.19210E-03
C:/temp/dataset/4/26_2.odb,Step-1,Increment      1: Step Time =    1.000,"PART-1-1",           317,       2.64536,       4.01417,            0.,NA,NA,"",       3.75147,      -3.48336,      -1.39273,   1.74637E-03
C:/temp/dataset/4/26_2.odb,Step-1,Increment      1: Step Time =    1.000,"PART-1-1",           318,          1.25,            5.,            0.,NA,NA,"",       3.97007,      -3.62235,      -1.62483,   1.12163E-03
C:/temp/dataset/4/26_2.odb,Step-1,Increment      1: Step Time =    1.000,"PART-1-1",           319,   150.245E-03,       4.00264,            0.,NA,NA,"",       3.88595,      -3.45054,      -1.78729,   625.475E-06
C:/temp/dataset/4/26_2.odb,Step-1,Increment      1: Step Time =    1.000,"PART-1-1",           320,   179.474E-03,      -1.21124,            0.,NA,NA,"",       3.12641,      -2.61478,      -1.71388,   600.338E-06
C:/temp/dataset/4/26_2.odb,Step-1,Increment      1: Step Time =    1.000,"PART-1-1",           321,  -580.901E-03,      -2.30818,            0.,NA,NA,"",       3.03522,      -2.42745,      -1.82210,   308.416E-06
C:/temp/dataset/4/26_2.odb,Step-1,Increment      1: Step Time =    1.000,"PART-1-1",           322,       1.52946,      -2.06693,            0.,NA,NA,"",       2.90231,      -2.49456,      -1.48343,   1.30864E-03
C:/temp/dataset/4/26_2.odb,Step-1,Increment      1: Step Time =    1.000,"PART-1-1",           323,       12.7868,      -3.71378,            0.,NA,NA,"",       2.36931,      -2.35113,   292.943E-03,   11.2676E-03
C:/temp/dataset/4/26_2.odb,Step-1,Increment      1: Step Time =    1.000,"PART-1-1",           324,       13.8814,      -5.00619,            0.,NA,NA,"",       2.21771,      -2.17104,   452.566E-03,   15.8189E-03
C:/temp/dataset/4/26_2.odb,Step-1,Increment      1: Step Time =    1.000,"PART-1-1",           325,           15.,         -3.75,            0.,NA,NA,"",       2.46442,      -2.38448,   622.594E-03,   18.1143E-03
C:/temp/dataset/4/26_2.odb,Step-1,Increment      1: Step Time =    1.000,"PART-1-1",           326,       13.9054,      -2.45760,            0.,NA,NA,"",       2.60760,      -2.56698,   458.472E-03,   13.1260E-03
C:/temp/dataset/4/26_2.odb,Step-1,Increment      1: Step Time =    1.000,"PART-1-1",           327,       5.10003,      -1.40311,            0.,NA,NA,"",       2.79287,      -2.64038,  -910.236E-03,   8.74292E-03
C:/temp/dataset/4/26_2.odb,Step-1,Increment      1: Step Time =    1.000,"PART-1-1",           328,       3.80913,  -775.561E-03,            0.,NA,NA,"",       2.95418,      -2.72873,      -1.13191,   5.64121E-03
C:/temp/dataset/4/26_2.odb,Step-1,Increment      1: Step Time =    1.000,"PART-1-1",           329,       3.52110,      -1.80919,            0.,NA,NA,"",       2.81137,      -2.56042,      -1.16106,   5.19306E-03
C:/temp/dataset/4/26_2.odb,Step-1,Increment      1: Step Time =    1.000,"PART-1-1",           330,       4.81200,      -2.43673,            0.,NA,NA,"",       2.64544,      -2.47416,  -936.419E-03,   8.76629E-03
C:/temp/dataset/4/26_2.odb,Step-1,Increment      1: Step Time =    1.000,"PART-1-1",           331,           15.,          3.75,            0.,NA,NA,"",       3.66053,      -3.60808,   617.487E-03,   11.4718E-03
C:/temp/dataset/4/26_2.odb,Step-1,Increment      1: Step Time =    1.000,"PART-1-1",           332,       13.8386,       5.14064,            0.,NA,NA,"",       3.84658,      -3.82421,   414.230E-03,   8.60545E-03
C:/temp/dataset/4/26_2.odb,Step-1,Increment      1: Step Time =    1.000,"PART-1-1",           333,       12.6076,       4.00525,            0.,NA,NA,"",       3.61479,      -3.60828,   216.791E-03,   6.50571E-03
C:/temp/dataset/4/26_2.odb,Step-1,Increment      1: Step Time =    1.000,"PART-1-1",           334,       13.7689,       2.61462,            0.,NA,NA,"",       3.41930,      -3.39355,   418.866E-03,   9.26794E-03
C:/temp/dataset/4/26_2.odb,Step-1,Increment      1: Step Time =    1.000,"PART-1-1",           335,       9.76439,       8.40859,            0.,NA,NA,"",       4.34012,      -4.32838,  -318.989E-03,   3.79368E-03
C:/temp/dataset/4/26_2.odb,Step-1,Increment      1: Step Time =    1.000,"PART-1-1",           336,       8.59642,       7.53369,            0.,NA,NA,"",       4.18627,      -4.15570,  -504.957E-03,   4.41214E-03
C:/temp/dataset/4/26_2.odb,Step-1,Increment      1: Step Time =    1.000,"PART-1-1",           337,       9.44563,       6.06261,            0.,NA,NA,"",       3.92536,      -3.91086,  -337.139E-03,   3.14901E-03
C:/temp/dataset/4/26_2.odb,Step-1,Increment      1: Step Time =    1.000,"PART-1-1",           338,       10.6136,       6.93751,            0.,NA,NA,"",       4.08435,      -4.08153,  -151.796E-03,   3.65369E-03
C:/temp/dataset/4/26_2.odb,Step-1,Increment      1: Step Time =    1.000,"PART-1-1",           339,       5.92452,       9.07762,            0.,NA,NA,"",       4.50697,      -4.39443,      -1.00088,   7.33650E-03
C:/temp/dataset/4/26_2.odb,Step-1,Increment      1: Step Time =    1.000,"PART-1-1",           340,            5.,         8.125,            0.,NA,NA,"",       4.36675,      -4.21443,      -1.14326,   10.0596E-03
C:/temp/dataset/4/26_2.odb,Step-1,Increment      1: Step Time =    1.000,"PART-1-1",           341,       5.83838,       7.03541,            0.,NA,NA,"",       4.14605,      -4.03156,  -967.630E-03,   9.27926E-03
C:/temp/dataset/4/26_2.odb,Step-1,Increment      1: Step Time =    1.000,"PART-1-1",           342,       6.76290,       7.98803,            0.,NA,NA,"",       4.29191,      -4.21101,  -829.380E-03,   7.28194E-03
C:/temp/dataset/4/26_2.odb,Step-1,Increment      1: Step Time =    1.000,"PART-1-1",           343,       6.00358,       15.4027,            0.,NA,NA,"",       5.65724,      -5.54550,      -1.11884,   2.64252E-03
C:/temp/dataset/4/26_2.odb,Step-1,Increment      1: Step Time =    1.000,"PART-1-1",           344,            5.,        14.375,            0.,NA,NA,"",       5.49280,      -5.34092,      -1.28271,   3.73130E-03
C:/temp/dataset/4/26_2.odb,Step-1,Increment      1: Step Time =    1.000,"PART-1-1",           345,       5.99171,       13.2884,            0.,NA,NA,"",       5.26859,      -5.15691,      -1.07903,   4.02044E-03
C:/temp/dataset/4/26_2.odb,Step-1,Increment      1: Step Time =    1.000,"PART-1-1",           346,       6.99529,       14.3161,            0.,NA,NA,"",       5.43877,      -5.36087,  -917.266E-03,   3.41402E-03
C:/temp/dataset/4/26_2.odb,Step-1,Increment      1: Step Time =    1.000,"PART-1-1",           347,       11.7328,       24.6815,            0.,NA,NA,"",       7.35539,      -7.35168,  -233.531E-03,   134.251E-06
C:/temp/dataset/4/26_2.odb,Step-1,Increment      1: Step Time =    1.000,"PART-1-1",           348,       12.6496,       26.1279,            0.,NA,NA,"",       7.63231,      -7.63178,  -90.2933E-03,   107.225E-06
C:/temp/dataset/4/26_2.odb,Step-1,Increment      1: Step Time =    1.000,"PART-1-1",           349,       11.2054,       27.2635,            0.,NA,NA,"",       7.82420,      -7.81527,  -373.741E-03,   65.5540E-06
C:/temp/dataset/4/26_2.odb,Step-1,Increment      1: Step Time =    1.000,"PART-1-1",           350,       10.2886,       25.8171,            0.,NA,NA,"",       7.55274,      -7.53502,  -517.064E-03,   84.2409E-06
C:/temp/dataset/4/26_2.odb,Step-1,Increment      1: Step Time =    1.000,"PART-1-1",           351,       12.5134,       28.7000,            0.,NA,NA,"",       8.10185,      -8.10029,  -158.722E-03,   73.0669E-06
C:/temp/dataset/4/26_2.odb,Step-1,Increment      1: Step Time =    1.000,"PART-1-1",           352,       13.7634,       27.4500,            0.,NA,NA,"",       7.89309,      -7.89256,   91.0804E-03,   81.9389E-06
C:/temp/dataset/4/26_2.odb,Step-1,Increment      1: Step Time =    1.000,"PART-1-1",           353,           15.,         28.75,            0.,NA,NA,"",       8.15673,      -8.15138,   295.401E-03,   34.3850E-06
C:/temp/dataset/4/26_2.odb,Step-1,Increment      1: Step Time =    1.000,"PART-1-1",           354,         13.75,           30.,            0.,NA,NA,"",       8.35916,      -8.35904,   45.5601E-03,   26.6681E-06
C:/temp/dataset/4/26_2.odb,Step-1,Increment      1: Step Time =    1.000,"PART-1-1",           355,      -3.83569,      -2.96698,            0.,NA,NA,"",       3.26439,      -2.27836,      -2.33780,   268.105E-06
C:/temp/dataset/4/26_2.odb,Step-1,Increment      1: Step Time =    1.000,"PART-1-1",           356,      -2.47303,      -2.56070,            0.,NA,NA,"",       3.17620,      -2.36173,      -2.12379,   316.413E-06
C:/temp/dataset/4/26_2.odb,Step-1,Increment      1: Step Time =    1.000,"PART-1-1",           357,      -2.95938,      -1.35275,            0.,NA,NA,"",       3.37965,      -2.55022,      -2.21776,   330.128E-06
C:/temp/dataset/4/26_2.odb,Step-1,Increment      1: Step Time =    1.000,"PART-1-1",           358,      -4.32205,      -1.75903,            0.,NA,NA,"",       3.46385,      -2.46674,      -2.43176,   216.429E-06
C:/temp/dataset/4/26_2.odb,Step-1,Increment      1: Step Time =    1.000,"PART-1-1",           359,       8.60967,      -7.25473,            0.,NA,NA,"",       1.79412,      -1.77427,  -266.132E-03,   6.15594E-03
C:/temp/dataset/4/26_2.odb,Step-1,Increment      1: Step Time =    1.000,"PART-1-1",           360,       7.51358,      -6.44375,            0.,NA,NA,"",       1.92956,      -1.88083,  -430.893E-03,   9.85179E-03
C:/temp/dataset/4/26_2.odb,Step-1,Increment      1: Step Time =    1.000,"PART-1-1",           361,       6.75300,      -7.77251,            0.,NA,NA,"",       1.76727,      -1.69241,  -508.889E-03,   15.0921E-03
C:/temp/dataset/4/26_2.odb,Step-1,Increment      1: Step Time =    1.000,"PART-1-1",           362,       7.84909,      -8.58350,            0.,NA,NA,"",       1.62528,      -1.58800,  -346.079E-03,   10.3595E-03
C:/temp/dataset/4/26_2.odb,Step-1,Increment      1: Step Time =    1.000,"PART-1-1",           363,       7.07130,      -14.2100,            0.,NA,NA,"",   969.703E-03,  -912.521E-03,  -328.071E-03,   17.3155E-03
C:/temp/dataset/4/26_2.odb,Step-1,Increment      1: Step Time =    1.000,"PART-1-1",           364,       6.02882,      -13.2279,            0.,NA,NA,"",       1.12207,      -1.02180,  -463.641E-03,   22.6985E-03
C:/temp/dataset/4/26_2.odb,Step-1,Increment      1: Step Time =    1.000,"PART-1-1",           365,            5.,       -14.375,            0.,NA,NA,"",       1.05570,  -905.703E-03,  -542.412E-03,   29.6208E-03
C:/temp/dataset/4/26_2.odb,Step-1,Increment      1: Step Time =    1.000,"PART-1-1",           366,       6.04247,      -15.3570,            0.,NA,NA,"",   896.355E-03,  -799.316E-03,  -405.643E-03,   24.1134E-03
C:/temp/dataset/4/26_2.odb,Step-1,Increment      1: Step Time =    1.000,"PART-1-1",           367,       7.02995,      -12.0379,            0.,NA,NA,"",       1.21494,      -1.15437,  -378.844E-03,   16.4177E-03
C:/temp/dataset/4/26_2.odb,Step-1,Increment      1: Step Time =    1.000,"PART-1-1",           368,       6.00113,      -11.1016,            0.,NA,NA,"",       1.37059,      -1.26674,  -523.343E-03,   21.3772E-03
C:/temp/dataset/4/26_2.odb,Step-1,Increment      1: Step Time =    1.000,"PART-1-1",           369,            5.,      -12.2917,            0.,NA,NA,"",       1.28494,      -1.13162,  -608.690E-03,   27.7799E-03
C:/temp/dataset/4/26_2.odb,Step-1,Increment      1: Step Time =    1.000,"PART-1-1",           370,            5.,      -22.7083,            0.,NA,NA,"",   359.893E-03,  -243.925E-03,  -264.619E-03,   37.1059E-03
C:/temp/dataset/4/26_2.odb,Step-1,Increment      1: Step Time =    1.000,"PART-1-1",           371,       6.05922,      -23.7899,            0.,NA,NA,"",   247.302E-03,  -174.151E-03,  -175.584E-03,   29.8980E-03
C:/temp/dataset/4/26_2.odb,Step-1,Increment      1: Step Time =    1.000,"PART-1-1",           372,       7.11013,      -22.7834,            0.,NA,NA,"",   260.871E-03,  -215.065E-03,  -147.651E-03,   21.3712E-03
C:/temp/dataset/4/26_2.odb,Step-1,Increment      1: Step Time =    1.000,"PART-1-1",           373,       6.05091,      -21.7018,            0.,NA,NA,"",   371.013E-03,  -288.028E-03,  -233.861E-03,   28.4741E-03
C:/temp/dataset/4/26_2.odb,Step-1,Increment      1: Step Time =    1.000,"PART-1-1",           374,          8.75,          -30.,            0.,NA,NA,"",            0.,   4.91937E-39,  -16.1872E-39,   8.89452E-03
C:/temp/dataset/4/26_2.odb,Step-1,Increment      1: Step Time =    1.000,"PART-1-1",           375,       9.84988,      -28.9274,            0.,NA,NA,"",   1.33625E-03,   1.22287E-03,  -538.653E-06,   1.17658E-03
C:/temp/dataset/4/26_2.odb,Step-1,Increment      1: Step Time =    1.000,"PART-1-1",           376,       8.52411,      -27.9095,            0.,NA,NA,"",   23.3461E-03,  -13.8243E-03,  -18.8130E-03,   12.5167E-03
C:/temp/dataset/4/26_2.odb,Step-1,Increment      1: Step Time =    1.000,"PART-1-1",           377,       7.42422,      -28.9821,            0.,NA,NA,"",   15.6542E-03,  -2.63704E-03,  -15.4305E-03,   18.5756E-03
C:/temp/dataset/4/26_2.odb,Step-1,Increment      1: Step Time =    1.000,"PART-1-1",           378,       10.1104,      -23.9794,            0.,NA,NA,"",   144.015E-03,  -143.925E-03,   5.09332E-03,   4.22554E-03
C:/temp/dataset/4/26_2.odb,Step-1,Increment      1: Step Time =    1.000,"PART-1-1",           379,       11.1261,      -23.0268,            0.,NA,NA,"",   204.281E-03,  -196.970E-03,   54.1632E-03,   9.89905E-03
C:/temp/dataset/4/26_2.odb,Step-1,Increment      1: Step Time =    1.000,"PART-1-1",           380,       10.1523,      -21.9025,            0.,NA,NA,"",   258.832E-03,  -258.741E-03,   6.86977E-03,   4.23846E-03
C:/temp/dataset/4/26_2.odb,Step-1,Increment      1: Step Time =    1.000,"PART-1-1",           381,       9.13660,      -22.8552,            0.,NA,NA,"",   206.453E-03,  -201.853E-03,  -43.3413E-03,   7.22547E-03
C:/temp/dataset/4/26_2.odb,Step-1,Increment      1: Step Time =    1.000,"PART-1-1",           382,       7.09296,      -18.5383,            0.,NA,NA,"",   558.219E-03,  -505.881E-03,  -235.993E-03,   19.3547E-03
C:/temp/dataset/4/26_2.odb,Step-1,Increment      1: Step Time =    1.000,"PART-1-1",           383,       6.04465,      -17.4814,            0.,NA,NA,"",   695.566E-03,  -601.844E-03,  -348.705E-03,   25.5840E-03
C:/temp/dataset/4/26_2.odb,Step-1,Increment      1: Step Time =    1.000,"PART-1-1",           384,            5.,      -18.5417,            0.,NA,NA,"",   662.776E-03,  -523.624E-03,  -406.313E-03,   33.3899E-03
C:/temp/dataset/4/26_2.odb,Step-1,Increment      1: Step Time =    1.000,"PART-1-1",           385,       6.04831,      -19.5985,            0.,NA,NA,"",   520.143E-03,  -430.867E-03,  -291.381E-03,   27.0395E-03
C:/temp/dataset/4/26_2.odb,Step-1,Increment      1: Step Time =    1.000,"PART-1-1",           386,       8.88188,       22.9635,            0.,NA,NA,"",       7.02573,      -6.98808,  -726.452E-03,   421.362E-06
C:/temp/dataset/4/26_2.odb,Step-1,Increment      1: Step Time =    1.000,"PART-1-1",           387,       9.93448,       22.0483,            0.,NA,NA,"",       6.85784,      -6.83821,  -518.477E-03,   742.116E-06
C:/temp/dataset/4/26_2.odb,Step-1,Increment      1: Step Time =    1.000,"PART-1-1",           388,       10.8087,       23.3359,            0.,NA,NA,"",       7.09979,      -7.08961,  -380.062E-03,   482.153E-06
C:/temp/dataset/4/26_2.odb,Step-1,Increment      1: Step Time =    1.000,"PART-1-1",           389,       9.75606,       24.2511,            0.,NA,NA,"",       7.26303,      -7.23918,  -588.111E-03,   178.570E-06
C:/temp/dataset/4/26_2.odb,Step-1,Increment      1: Step Time =    1.000,"PART-1-1",           390,       10.0218,       17.5512,            0.,NA,NA,"",       6.02460,      -6.00941,  -427.523E-03,   2.74439E-03
C:/temp/dataset/4/26_2.odb,Step-1,Increment      1: Step Time =    1.000,"PART-1-1",           391,       9.00837,       16.4411,            0.,NA,NA,"",       5.81638,      -5.78617,  -592.023E-03,   2.98634E-03
C:/temp/dataset/4/26_2.odb,Step-1,Increment      1: Step Time =    1.000,"PART-1-1",           392,       10.0249,       15.2736,            0.,NA,NA,"",       5.60025,      -5.58677,  -388.412E-03,   3.55798E-03
C:/temp/dataset/4/26_2.odb,Step-1,Increment      1: Step Time =    1.000,"PART-1-1",           393,       11.0383,       16.3837,            0.,NA,NA,"",       5.81480,      -5.81048,  -224.145E-03,   3.46542E-03
C:/temp/dataset/4/26_2.odb,Step-1,Increment      1: Step Time =    1.000,"PART-1-1",           394,      -14.0638,       5.89996,            0.,NA,NA,"",       5.43736,      -3.57226,      -4.09926,   3.20341E-06
C:/temp/dataset/4/26_2.odb,Step-1,Increment      1: Step Time =    1.000,"PART-1-1",           395,      -13.1194,       6.91794,            0.,NA,NA,"",       5.45311,      -3.74843,      -3.96051,   1.53817E-06
C:/temp/dataset/4/26_2.odb,Step-1,Increment      1: Step Time =    1.000,"PART-1-1",           396,      -14.0556,       8.04923,            0.,NA,NA,"",       5.69006,      -3.91832,      -4.12596,   2.54177E-06
C:/temp/dataset/4/26_2.odb,Step-1,Increment      1: Step Time =    1.000,"PART-1-1",           397,          -15.,       7.03125,            0.,NA,NA,"",       5.67375,      -3.74215,      -4.26470,   4.47520E-06
C:/temp/dataset/4/26_2.odb,Step-1,Increment      1: Step Time =    1.000,"PART-1-1",           398,      -14.0181,       12.3521,            0.,NA,NA,"",       6.22132,      -4.61145,      -4.17604,   658.131E-09
C:/temp/dataset/4/26_2.odb,Step-1,Increment      1: Step Time =    1.000,"PART-1-1",           399,      -13.0189,       13.2775,            0.,NA,NA,"",       6.24538,      -4.77345,      -4.02727,   664.017E-09
C:/temp/dataset/4/26_2.odb,Step-1,Increment      1: Step Time =    1.000,"PART-1-1",           400,      -14.0008,       14.5192,            0.,NA,NA,"",       6.50073,      -4.96051,      -4.20153,   224.306E-09
C:/temp/dataset/4/26_2.odb,Step-1,Increment      1: Step Time =    1.000,"PART-1-1",           401,          -15.,       13.5938,            0.,NA,NA,"",       6.47695,      -4.79851,      -4.35030,   428.623E-09
C:/temp/dataset/4/26_2.odb,Step-1,Increment      1: Step Time =    1.000,"PART-1-1",           402,      -10.1942,       21.9572,            0.,NA,NA,"",       7.21924,      -6.20746,      -3.68576,   6.08177E-09
C:/temp/dataset/4/26_2.odb,Step-1,Increment      1: Step Time =    1.000,"PART-1-1",           403,      -9.14995,       21.4132,            0.,NA,NA,"",       7.06711,      -6.13351,      -3.51058,   5.66727E-09
C:/temp/dataset/4/26_2.odb,Step-1,Increment      1: Step Time =    1.000,"PART-1-1",           404,      -8.60578,       22.3365,            0.,NA,NA,"",       7.16615,      -6.28922,      -3.43503,   6.13126E-09
C:/temp/dataset/4/26_2.odb,Step-1,Increment      1: Step Time =    1.000,"PART-1-1",           405,      -9.65000,       22.8805,            0.,NA,NA,"",       7.31599,      -6.36318,      -3.61021,   6.15389E-09
C:/temp/dataset/4/26_2.odb,Step-1,Increment      1: Step Time =    1.000,"PART-1-1",           406,      -14.0213,       25.7108,            0.,NA,NA,"",       8.04056,      -6.76176,      -4.35077,   3.59338E-09
C:/temp/dataset/4/26_2.odb,Step-1,Increment      1: Step Time =    1.000,"PART-1-1",           407,      -12.8802,       26.8172,            0.,NA,NA,"",       8.11503,      -6.95475,      -4.18152,   3.39149E-09
C:/temp/dataset/4/26_2.odb,Step-1,Increment      1: Step Time =    1.000,"PART-1-1",           408,      -13.8589,       27.8252,            0.,NA,NA,"",       8.33139,      -7.10425,      -4.35221,   2.37587E-09
C:/temp/dataset/4/26_2.odb,Step-1,Increment      1: Step Time =    1.000,"PART-1-1",           409,          -15.,       26.7188,            0.,NA,NA,"",       8.25888,      -6.91126,      -4.52146,   2.91314E-09
C:/temp/dataset/4/26_2.odb,Step-1,Increment      1: Step Time =    1.000,"PART-1-1",           410,        -13.75,           30.,            0.,NA,NA,"",       8.63853,      -7.45574,      -4.36303,   2.15474E-09
C:/temp/dataset/4/26_2.odb,Step-1,Increment      1: Step Time =    1.000,"PART-1-1",           411,          -15.,       28.9063,            0.,NA,NA,"",       8.57083,      -7.26338,      -4.54998,   1.98025E-09
C:/temp/dataset/4/26_2.odb,Step-1,Increment      1: Step Time =    1.000,"PART-1-1",           412,      -12.6089,       28.9190,            0.,NA,NA,"",       8.40178,      -7.29661,      -4.16526,   2.51389E-09
C:/temp/dataset/4/26_2.odb,Step-1,Increment      1: Step Time =    1.000,"PART-1-1",           413,      -11.4362,       27.6040,            0.,NA,NA,"",       8.12955,      -7.10023,      -3.95933,   2.71271E-09
C:/temp/dataset/4/26_2.odb,Step-1,Increment      1: Step Time =    1.000,"PART-1-1",           414,      -10.0773,       28.6850,            0.,NA,NA,"",       8.20185,      -7.29197,      -3.75468,   2.86757E-09
C:/temp/dataset/4/26_2.odb,Step-1,Increment      1: Step Time =    1.000,"PART-1-1",           415,        -11.25,           30.,            0.,NA,NA,"",       8.47123,      -7.48835,      -3.96061,   2.72393E-09
C:/temp/dataset/4/26_2.odb,Step-1,Increment      1: Step Time =    1.000,"PART-1-1",           416,      -13.7240,       21.2404,            0.,NA,NA,"",       7.38724,      -6.04603,      -4.24462,   9.41331E-09
C:/temp/dataset/4/26_2.odb,Step-1,Increment      1: Step Time =    1.000,"PART-1-1",           417,      -12.6979,       22.4429,            0.,NA,NA,"",       7.47463,      -6.25300,      -4.09513,   6.52430E-09
C:/temp/dataset/4/26_2.odb,Step-1,Increment      1: Step Time =    1.000,"PART-1-1",           418,      -13.9739,       23.5463,            0.,NA,NA,"",       7.73030,      -6.41397,      -4.31491,   6.59851E-09
C:/temp/dataset/4/26_2.odb,Step-1,Increment      1: Step Time =    1.000,"PART-1-1",           419,          -15.,       22.3438,            0.,NA,NA,"",       7.64578,      -6.20701,      -4.46440,   13.0658E-09
C:/temp/dataset/4/26_2.odb,Step-1,Increment      1: Step Time =    1.000,"PART-1-1",           420,      -11.9375,       16.3352,            0.,NA,NA,"",       6.55986,      -5.27975,      -3.89307,   146.852E-09
C:/temp/dataset/4/26_2.odb,Step-1,Increment      1: Step Time =    1.000,"PART-1-1",           421,      -10.8584,       17.1847,            0.,NA,NA,"",       6.58842,      -5.43056,      -3.73045,   125.637E-09
C:/temp/dataset/4/26_2.odb,Step-1,Increment      1: Step Time =    1.000,"PART-1-1",           422,      -11.8099,       18.4796,            0.,NA,NA,"",       6.84634,      -5.62659,      -3.90050,   34.5110E-09
C:/temp/dataset/4/26_2.odb,Step-1,Increment      1: Step Time =    1.000,"PART-1-1",           423,      -12.8889,       17.6301,            0.,NA,NA,"",       6.81859,      -5.47578,      -4.06312,   69.8972E-09
C:/temp/dataset/4/26_2.odb,Step-1,Increment      1: Step Time =    1.000,"PART-1-1",           424,      -9.98079,       13.8692,            0.,NA,NA,"",       6.05518,      -4.90831,      -3.54594,   566.837E-09
C:/temp/dataset/4/26_2.odb,Step-1,Increment      1: Step Time =    1.000,"PART-1-1",           425,      -11.0142,       12.9724,            0.,NA,NA,"",       6.02174,      -4.75047,      -3.70059,   906.761E-09
C:/temp/dataset/4/26_2.odb,Step-1,Increment      1: Step Time =    1.000,"PART-1-1",           426,      -10.0204,       11.7735,            0.,NA,NA,"",       5.77188,      -4.57045,      -3.52499,   1.34007E-06
C:/temp/dataset/4/26_2.odb,Step-1,Increment      1: Step Time =    1.000,"PART-1-1",           427,      -6.95613,       14.5250,            0.,NA,NA,"",       5.91153,      -5.05331,      -3.06761,   421.240E-09
C:/temp/dataset/4/26_2.odb,Step-1,Increment      1: Step Time =    1.000,"PART-1-1",           428,      -5.98929,       13.4097,            0.,NA,NA,"",       5.68084,      -4.88639,      -2.89743,   445.710E-09
C:/temp/dataset/4/26_2.odb,Step-1,Increment      1: Step Time =    1.000,"PART-1-1",           429,           -5.,        14.375,            0.,NA,NA,"",       5.75470,      -5.05468,      -2.75078,   299.532E-09
C:/temp/dataset/4/26_2.odb,Step-1,Increment      1: Step Time =    1.000,"PART-1-1",           430,      -5.96684,       15.4903,            0.,NA,NA,"",       5.98307,      -5.22160,      -2.92096,   125.569E-09
C:/temp/dataset/4/26_2.odb,Step-1,Increment      1: Step Time =    1.000,"PART-1-1",           431,      -11.0581,       10.8707,            0.,NA,NA,"",       5.74512,      -4.41159,      -3.68025,   1.62551E-06
C:/temp/dataset/4/26_2.odb,Step-1,Increment      1: Step Time =    1.000,"PART-1-1",           432,      -10.0579,       9.67932,            0.,NA,NA,"",       5.49483,      -4.23285,      -3.50373,   1.96688E-06
C:/temp/dataset/4/26_2.odb,Step-1,Increment      1: Step Time =    1.000,"PART-1-1",           433,      -9.02030,       10.5821,            0.,NA,NA,"",       5.52262,      -4.39170,      -3.34847,   2.03104E-06
C:/temp/dataset/4/26_2.odb,Step-1,Increment      1: Step Time =    1.000,"PART-1-1",           434,      -7.04064,       8.20966,            0.,NA,NA,"",       5.02787,      -4.03563,      -2.99886,   4.79166E-06
C:/temp/dataset/4/26_2.odb,Step-1,Increment      1: Step Time =    1.000,"PART-1-1",           435,      -6.03068,       7.10065,            0.,NA,NA,"",       4.78974,      -3.87028,      -2.82181,   11.1716E-06
C:/temp/dataset/4/26_2.odb,Step-1,Increment      1: Step Time =    1.000,"PART-1-1",           436,           -5.,         8.125,            0.,NA,NA,"",       4.84935,      -4.04861,      -2.66926,   6.53089E-06
C:/temp/dataset/4/26_2.odb,Step-1,Increment      1: Step Time =    1.000,"PART-1-1",           437,      -6.00996,       9.23401,            0.,NA,NA,"",       5.08517,      -4.21397,      -2.84631,   3.18248E-06
C:/temp/dataset/4/26_2.odb,Step-1,Increment      1: Step Time =    1.000,"PART-1-1",           438,      -13.0926,       9.02789,            0.,NA,NA,"",       5.70834,      -4.08842,      -3.98372,   1.87407E-06
C:/temp/dataset/4/26_2.odb,Step-1,Increment      1: Step Time =    1.000,"PART-1-1",           439,      -14.0370,       10.1974,            0.,NA,NA,"",       5.95109,      -4.26436,      -4.15099,   1.49580E-06
C:/temp/dataset/4/26_2.odb,Step-1,Increment      1: Step Time =    1.000,"PART-1-1",           440,          -15.,       9.21875,            0.,NA,NA,"",       5.93253,      -4.09427,      -4.29324,   2.77531E-06
C:/temp/dataset/4/26_2.odb,Step-1,Increment      1: Step Time =    1.000,"PART-1-1",           441,      -13.9055,       1.56280,            0.,NA,NA,"",       4.94071,      -2.87622,      -4.01721,   1.50529E-06
C:/temp/dataset/4/26_2.odb,Step-1,Increment      1: Step Time =    1.000,"PART-1-1",           442,      -12.9296,       2.64306,            0.,NA,NA,"",       4.93867,      -3.06282,      -3.87422,   3.17717E-06
C:/temp/dataset/4/26_2.odb,Step-1,Increment      1: Step Time =    1.000,"PART-1-1",           443,      -14.0241,       3.73651,            0.,NA,NA,"",       5.18836,      -3.22455,      -4.06466,   2.57473E-06
C:/temp/dataset/4/26_2.odb,Step-1,Increment      1: Step Time =    1.000,"PART-1-1",           444,          -15.,       2.65625,            0.,NA,NA,"",       5.18974,      -3.03795,      -4.20764,   3.96110E-06
C:/temp/dataset/4/26_2.odb,Step-1,Increment      1: Step Time =    1.000,"PART-1-1",           445,      -13.7570,      -2.81804,            0.,NA,NA,"",       4.49621,      -2.17307,      -3.93619,   603.694E-09
C:/temp/dataset/4/26_2.odb,Step-1,Increment      1: Step Time =    1.000,"PART-1-1",           446,      -13.7756,  -623.683E-03,            0.,NA,NA,"",       4.70363,      -2.52600,      -3.96780,   1.02745E-06
C:/temp/dataset/4/26_2.odb,Step-1,Increment      1: Step Time =    1.000,"PART-1-1",           447,          -15.,      -1.71875,            0.,NA,NA,"",       4.76172,      -2.33379,      -4.15059,   2.00506E-06
C:/temp/dataset/4/26_2.odb,Step-1,Increment      1: Step Time =    1.000,"PART-1-1",           448,        -13.75,           -5.,            0.,NA,NA,"",       4.31062,      -1.82199,      -3.90663,   862.266E-09
C:/temp/dataset/4/26_2.odb,Step-1,Increment      1: Step Time =    1.000,"PART-1-1",           449,      -12.5070,      -3.91179,            0.,NA,NA,"",       4.23055,      -2.01333,      -3.72076,   994.647E-09
C:/temp/dataset/4/26_2.odb,Step-1,Increment      1: Step Time =    1.000,"PART-1-1",           450,          -15.,      -3.90625,            0.,NA,NA,"",       4.57370,      -1.98173,      -4.12207,   796.024E-09
C:/temp/dataset/4/26_2.odb,Step-1,Increment      1: Step Time =    1.000,"PART-1-1",           451,          -15.,    468.75E-03,            0.,NA,NA,"",       4.96778,      -2.68587,      -4.17911,   2.68581E-06
C:/temp/dataset/4/26_2.odb,Step-1,Increment      1: Step Time =    1.000,"PART-1-1",           452,      -5.10506,       2.56414,            0.,NA,NA,"",       4.09481,      -3.15225,      -2.61358,   179.429E-06
C:/temp/dataset/4/26_2.odb,Step-1,Increment      1: Step Time =    1.000,"PART-1-1",           453,      -4.59209,       3.94539,            0.,NA,NA,"",       4.23418,      -3.38102,      -2.54892,   151.817E-06
C:/temp/dataset/4/26_2.odb,Step-1,Increment      1: Step Time =    1.000,"PART-1-1",           454,      -6.09775,       4.77703,            0.,NA,NA,"",       4.47996,      -3.49532,      -2.80228,   75.5281E-06
C:/temp/dataset/4/26_2.odb,Step-1,Increment      1: Step Time =    1.000,"PART-1-1",           455,      -6.61072,       3.39578,            0.,NA,NA,"",       4.34603,      -3.26638,      -2.86685,   73.9996E-06
C:/temp/dataset/4/26_2.odb,Step-1,Increment      1: Step Time =    1.000,"PART-1-1",           456,       9.44090,      -5.60228,            0.,NA,NA,"",       2.02800,      -2.02064,  -172.638E-03,   5.34797E-03
C:/temp/dataset/4/26_2.odb,Step-1,Increment      1: Step Time =    1.000,"PART-1-1",           457,       9.79564,      -4.46986,            0.,NA,NA,"",       2.19964,      -2.19547,  -135.341E-03,   6.13305E-03
C:/temp/dataset/4/26_2.odb,Step-1,Increment      1: Step Time =    1.000,"PART-1-1",           458,       8.43936,      -4.09444,            0.,NA,NA,"",       2.26508,      -2.23982,  -337.329E-03,   7.35951E-03
C:/temp/dataset/4/26_2.odb,Step-1,Increment      1: Step Time =    1.000,"PART-1-1",           459,       8.08462,      -5.22686,            0.,NA,NA,"",       2.09692,      -2.06396,  -370.317E-03,   7.52851E-03
C:/temp/dataset/4/26_2.odb,Step-1,Increment      1: Step Time =    1.000,"PART-1-1",           460,       6.93926,      -9.88629,            0.,NA,NA,"",       1.48209,      -1.41625,  -436.844E-03,   15.7925E-03
C:/temp/dataset/4/26_2.odb,Step-1,Increment      1: Step Time =    1.000,"PART-1-1",           461,       5.93813,      -8.99303,            0.,NA,NA,"",       1.63944,      -1.53058,  -587.443E-03,   20.4401E-03
C:/temp/dataset/4/26_2.odb,Step-1,Increment      1: Step Time =    1.000,"PART-1-1",           462,            5.,      -10.2083,            0.,NA,NA,"",       1.53455,      -1.37856,  -674.109E-03,   25.9055E-03
C:/temp/dataset/4/26_2.odb,Step-1,Increment      1: Step Time =    1.000,"PART-1-1",           463,       12.9852,      -11.3613,            0.,NA,NA,"",       1.31262,      -1.27758,   301.283E-03,   16.6488E-03
C:/temp/dataset/4/26_2.odb,Step-1,Increment      1: Step Time =    1.000,"PART-1-1",           464,       14.0059,      -12.5461,            0.,NA,NA,"",       1.21976,      -1.15021,   405.998E-03,   22.8469E-03
C:/temp/dataset/4/26_2.odb,Step-1,Increment      1: Step Time =    1.000,"PART-1-1",           465,           15.,        -11.25,            0.,NA,NA,"",       1.43166,      -1.32535,   541.366E-03,   27.1794E-03
C:/temp/dataset/4/26_2.odb,Step-1,Increment      1: Step Time =    1.000,"PART-1-1",           466,       13.9793,      -10.0652,            0.,NA,NA,"",       1.52061,      -1.45778,   432.589E-03,   20.8531E-03
C:/temp/dataset/4/26_2.odb,Step-1,Increment      1: Step Time =    1.000,"PART-1-1",           467,       7.08713,      -16.3801,            0.,NA,NA,"",   750.191E-03,  -695.526E-03,  -281.122E-03,   18.3109E-03
C:/temp/dataset/4/26_2.odb,Step-1,Increment      1: Step Time =    1.000,"PART-1-1",           468,            5.,      -16.4583,            0.,NA,NA,"",   848.058E-03,  -702.567E-03,  -474.976E-03,   31.5123E-03
C:/temp/dataset/4/26_2.odb,Step-1,Increment      1: Step Time =    1.000,"PART-1-1",           469,       13.0372,      -13.8111,            0.,NA,NA,"",       1.03100,  -990.601E-03,   285.777E-03,   18.2650E-03
C:/temp/dataset/4/26_2.odb,Step-1,Increment      1: Step Time =    1.000,"PART-1-1",           470,       14.0313,      -15.0151,            0.,NA,NA,"",   950.746E-03,  -875.374E-03,   370.997E-03,   24.7954E-03
C:/temp/dataset/4/26_2.odb,Step-1,Increment      1: Step Time =    1.000,"PART-1-1",           471,           15.,        -13.75,            0.,NA,NA,"",       1.14218,      -1.02942,   494.847E-03,   29.4755E-03
C:/temp/dataset/4/26_2.odb,Step-1,Increment      1: Step Time =    1.000,"PART-1-1",           472,       13.0981,      -18.6529,            0.,NA,NA,"",   566.986E-03,  -518.776E-03,   228.789E-03,   21.3503E-03
C:/temp/dataset/4/26_2.odb,Step-1,Increment      1: Step Time =    1.000,"PART-1-1",           473,       14.0553,      -19.9280,            0.,NA,NA,"",   511.122E-03,  -430.607E-03,   275.360E-03,   28.5440E-03
C:/temp/dataset/4/26_2.odb,Step-1,Increment      1: Step Time =    1.000,"PART-1-1",           474,           15.,        -18.75,            0.,NA,NA,"",   657.903E-03,  -539.960E-03,   375.871E-03,   33.9421E-03
C:/temp/dataset/4/26_2.odb,Step-1,Increment      1: Step Time =    1.000,"PART-1-1",           475,       14.0427,      -17.4749,            0.,NA,NA,"",   713.966E-03,  -634.772E-03,   326.822E-03,   26.6712E-03
C:/temp/dataset/4/26_2.odb,Step-1,Increment      1: Step Time =    1.000,"PART-1-1",           476,       6.17422,      -27.9405,            0.,NA,NA,"",   62.5631E-03,  -31.6920E-03,  -53.9422E-03,   32.1670E-03
C:/temp/dataset/4/26_2.odb,Step-1,Increment      1: Step Time =    1.000,"PART-1-1",           477,            5.,      -28.9583,            0.,NA,NA,"",   49.5266E-03,  -30.9156E-03,  -38.6925E-03,   42.2018E-03
C:/temp/dataset/4/26_2.odb,Step-1,Increment      1: Step Time =    1.000,"PART-1-1",           478,          6.25,          -30.,            0.,NA,NA,"",            0.,   2.27762E-39,  -47.6029E-39,   29.5762E-03
C:/temp/dataset/4/26_2.odb,Step-1,Increment      1: Step Time =    1.000,"PART-1-1",           479,       9.46325,      -26.8820,            0.,NA,NA,"",   35.8061E-03,  -34.3179E-03,  -10.2157E-03,   5.81515E-03
C:/temp/dataset/4/26_2.odb,Step-1,Increment      1: Step Time =    1.000,"PART-1-1",           480,       8.20536,      -25.9154,            0.,NA,NA,"",   83.9688E-03,  -67.6765E-03,  -49.7057E-03,   14.7841E-03
C:/temp/dataset/4/26_2.odb,Step-1,Increment      1: Step Time =    1.000,"PART-1-1",           481,       7.26622,      -26.9429,            0.,NA,NA,"",   71.5435E-03,  -43.6893E-03,  -56.6543E-03,   22.2375E-03
C:/temp/dataset/4/26_2.odb,Step-1,Increment      1: Step Time =    1.000,"PART-1-1",           482,       13.6319,      -27.3465,            0.,NA,NA,"",   82.7361E-03,  -46.9593E-03,   68.1181E-03,   31.0465E-03
C:/temp/dataset/4/26_2.odb,Step-1,Increment      1: Step Time =    1.000,"PART-1-1",           483,       12.3819,      -28.5965,            0.,NA,NA,"",   22.2876E-03,  -8.24751E-03,   20.7055E-03,   18.3640E-03
C:/temp/dataset/4/26_2.odb,Step-1,Increment      1: Step Time =    1.000,"PART-1-1",           484,         13.75,          -30.,            0.,NA,NA,"",            0.,   2.51762E-39,   47.9428E-39,   30.8024E-03
C:/temp/dataset/4/26_2.odb,Step-1,Increment      1: Step Time =    1.000,"PART-1-1",           485,           15.,        -28.75,            0.,NA,NA,"",   60.7626E-03,  -38.4345E-03,   47.0625E-03,   42.5298E-03
C:/temp/dataset/4/26_2.odb,Step-1,Increment      1: Step Time =    1.000,"PART-1-1",           486,         11.25,          -30.,            0.,NA,NA,"",            0.,   4.72504E-39,   16.4153E-39,   8.84895E-03
C:/temp/dataset/4/26_2.odb,Step-1,Increment      1: Step Time =    1.000,"PART-1-1",           487,       10.9817,      -27.5238,            0.,NA,NA,"",   26.4465E-03,  -20.8400E-03,   16.2822E-03,   10.2516E-03
C:/temp/dataset/4/26_2.odb,Step-1,Increment      1: Step Time =    1.000,"PART-1-1",           488,       10.1507,      -19.6985,            0.,NA,NA,"",   411.329E-03,  -411.302E-03,   4.64696E-03,   4.13599E-03
C:/temp/dataset/4/26_2.odb,Step-1,Increment      1: Step Time =    1.000,"PART-1-1",           489,       9.14094,      -20.7396,            0.,NA,NA,"",   338.918E-03,  -333.878E-03,  -58.2298E-03,   6.87468E-03
C:/temp/dataset/4/26_2.odb,Step-1,Increment      1: Step Time =    1.000,"PART-1-1",           490,       11.1621,      -20.8614,            0.,NA,NA,"",   338.864E-03,  -331.671E-03,   69.4518E-03,   9.58185E-03
C:/temp/dataset/4/26_2.odb,Step-1,Increment      1: Step Time =    1.000,"PART-1-1",           491,       7.09922,      -20.6753,            0.,NA,NA,"",   394.933E-03,  -345.343E-03,  -191.600E-03,   20.3901E-03
C:/temp/dataset/4/26_2.odb,Step-1,Increment      1: Step Time =    1.000,"PART-1-1",           492,            5.,       -20.625,            0.,NA,NA,"",   500.171E-03,  -370.277E-03,  -336.253E-03,   35.2417E-03
C:/temp/dataset/4/26_2.odb,Step-1,Increment      1: Step Time =    1.000,"PART-1-1",           493,       9.08758,      -14.0519,            0.,NA,NA,"",   938.498E-03,  -930.519E-03,  -122.112E-03,   6.36888E-03
C:/temp/dataset/4/26_2.odb,Step-1,Increment      1: Step Time =    1.000,"PART-1-1",           494,       10.1099,      -15.1447,            0.,NA,NA,"",   819.856E-03,  -819.767E-03,  -12.0835E-03,   3.97924E-03
C:/temp/dataset/4/26_2.odb,Step-1,Increment      1: Step Time =    1.000,"PART-1-1",           495,       11.0794,      -13.9187,            0.,NA,NA,"",   960.367E-03,  -956.856E-03,   82.0480E-03,   7.70112E-03
C:/temp/dataset/4/26_2.odb,Step-1,Increment      1: Step Time =    1.000,"PART-1-1",           496,       10.0571,      -12.8260,            0.,NA,NA,"",       1.07237,      -1.07196,  -29.5567E-03,   3.90529E-03
C:/temp/dataset/4/26_2.odb,Step-1,Increment      1: Step Time =    1.000,"PART-1-1",           497,       9.02765,      -11.7712,            0.,NA,NA,"",       1.19985,      -1.18994,  -153.842E-03,   6.24760E-03
C:/temp/dataset/4/26_2.odb,Step-1,Increment      1: Step Time =    1.000,"PART-1-1",           498,       11.0123,      -11.5393,            0.,NA,NA,"",       1.23416,      -1.23205,   72.1630E-03,   7.08843E-03
C:/temp/dataset/4/26_2.odb,Step-1,Increment      1: Step Time =    1.000,"PART-1-1",           499,       9.98284,      -10.4845,            0.,NA,NA,"",       1.35519,      -1.35411,  -54.1324E-03,   3.89573E-03
C:/temp/dataset/4/26_2.odb,Step-1,Increment      1: Step Time =    1.000,"PART-1-1",           500,       12.6190,       1.44886,            0.,NA,NA,"",       3.18879,      -3.17979,   239.412E-03,   7.33498E-03
C:/temp/dataset/4/26_2.odb,Step-1,Increment      1: Step Time =    1.000,"PART-1-1",           501,       13.8500,   84.2405E-03,            0.,NA,NA,"",       3.00874,      -2.97580,   443.952E-03,   10.7146E-03
C:/temp/dataset/4/26_2.odb,Step-1,Increment      1: Step Time =    1.000,"PART-1-1",           502,           15.,          1.25,            0.,NA,NA,"",       3.24951,      -3.18872,   625.603E-03,   12.7640E-03
C:/temp/dataset/4/26_2.odb,Step-1,Increment      1: Step Time =    1.000,"PART-1-1",           503,       10.0180,      -2.29938,            0.,NA,NA,"",       2.54022,      -2.53695,  -128.697E-03,   5.66873E-03
C:/temp/dataset/4/26_2.odb,Step-1,Increment      1: Step Time =    1.000,"PART-1-1",           504,       9.13986,      -3.07696,            0.,NA,NA,"",       2.41798,      -2.40508,  -249.510E-03,   6.48942E-03
C:/temp/dataset/4/26_2.odb,Step-1,Increment      1: Step Time =    1.000,"PART-1-1",           505,       10.6738,      -3.69229,            0.,NA,NA,"",       2.32543,      -2.32538,  -16.2785E-03,   6.56579E-03
C:/temp/dataset/4/26_2.odb,Step-1,Increment      1: Step Time =    1.000,"PART-1-1",           506,       12.7589,       6.54544,            0.,NA,NA,"",       4.05464,      -4.04874,   218.569E-03,   6.13508E-03
C:/temp/dataset/4/26_2.odb,Step-1,Increment      1: Step Time =    1.000,"PART-1-1",           507,           15.,          6.25,            0.,NA,NA,"",       4.08378,      -4.03869,   605.181E-03,   10.3862E-03
C:/temp/dataset/4/26_2.odb,Step-1,Increment      1: Step Time =    1.000,"PART-1-1",           508,       13.9203,       7.65480,            0.,NA,NA,"",       4.28448,      -4.26500,   408.109E-03,   7.71504E-03
C:/temp/dataset/4/26_2.odb,Step-1,Increment      1: Step Time =    1.000,"PART-1-1",           509,       13.0275,       16.3263,            0.,NA,NA,"",       5.83769,      -5.83607,   137.363E-03,   3.71238E-03
C:/temp/dataset/4/26_2.odb,Step-1,Increment      1: Step Time =    1.000,"PART-1-1",           510,       14.0150,       15.0581,            0.,NA,NA,"",       5.62813,      -5.61806,   336.581E-03,   3.79749E-03
C:/temp/dataset/4/26_2.odb,Step-1,Increment      1: Step Time =    1.000,"PART-1-1",           511,           15.,         16.25,            0.,NA,NA,"",       5.88172,      -5.86038,   500.616E-03,   3.13072E-03
C:/temp/dataset/4/26_2.odb,Step-1,Increment      1: Step Time =    1.000,"PART-1-1",           512,       14.0124,       17.5182,            0.,NA,NA,"",       6.08405,      -6.07669,   299.154E-03,   2.72998E-03
C:/temp/dataset/4/26_2.odb,Step-1,Increment      1: Step Time =    1.000,"PART-1-1",           513,       13.0175,       18.7421,            0.,NA,NA,"",       6.28543,      -6.28467,   97.8629E-03,   2.63574E-03
C:/temp/dataset/4/26_2.odb,Step-1,Increment      1: Step Time =    1.000,"PART-1-1",           514,           15.,         18.75,            0.,NA,NA,"",       6.34038,      -6.32359,   461.100E-03,   2.08880E-03
C:/temp/dataset/4/26_2.odb,Step-1,Increment      1: Step Time =    1.000,"PART-1-1",           515,       14.0051,       19.9738,            0.,NA,NA,"",       6.53571,      -6.53059,   258.671E-03,   2.10660E-03
C:/temp/dataset/4/26_2.odb,Step-1,Increment      1: Step Time =    1.000,"PART-1-1",           516,       5.97628,       21.7197,            0.,NA,NA,"",       6.82317,      -6.70995,      -1.23780,   206.367E-06
C:/temp/dataset/4/26_2.odb,Step-1,Increment      1: Step Time =    1.000,"PART-1-1",           517,       6.92463,       22.7965,            0.,NA,NA,"",       7.00806,      -6.92400,      -1.08220,   241.873E-06
C:/temp/dataset/4/26_2.odb,Step-1,Increment      1: Step Time =    1.000,"PART-1-1",           518,       5.94835,       23.7852,            0.,NA,NA,"",       7.20317,      -7.08888,      -1.27804,   97.9723E-06
C:/temp/dataset/4/26_2.odb,Step-1,Increment      1: Step Time =    1.000,"PART-1-1",           519,            5.,       22.7083,            0.,NA,NA,"",       7.02297,      -6.87503,      -1.43390,   126.407E-06
C:/temp/dataset/4/26_2.odb,Step-1,Increment      1: Step Time =    1.000,"PART-1-1",           520,       13.8862,       24.9278,            0.,NA,NA,"",       7.43477,      -7.43314,   155.932E-03,   207.021E-06
C:/temp/dataset/4/26_2.odb,Step-1,Increment      1: Step Time =    1.000,"PART-1-1",           521,           15.,         26.25,            0.,NA,NA,"",       7.70124,      -7.69384,   337.457E-03,   171.429E-06
C:/temp/dataset/4/26_2.odb,Step-1,Increment      1: Step Time =    1.000,"PART-1-1",           522,       6.15342,       27.8650,            0.,NA,NA,"",       7.94863,      -7.84004,      -1.30933,   55.4187E-06
C:/temp/dataset/4/26_2.odb,Step-1,Increment      1: Step Time =    1.000,"PART-1-1",           523,       7.40342,       28.9067,            0.,NA,NA,"",       8.12648,      -8.05197,      -1.09791,   60.1029E-06
C:/temp/dataset/4/26_2.odb,Step-1,Increment      1: Step Time =    1.000,"PART-1-1",           524,          6.25,           30.,            0.,NA,NA,"",       8.33912,      -8.23274,      -1.32775,   19.7588E-06
C:/temp/dataset/4/26_2.odb,Step-1,Increment      1: Step Time =    1.000,"PART-1-1",           525,            5.,       28.9583,            0.,NA,NA,"",       8.16711,      -8.02077,      -1.53912,   17.1489E-06
C:/temp/dataset/4/26_2.odb,Step-1,Increment      1: Step Time =    1.000,"PART-1-1",           526,       7.11917,       26.8292,            0.,NA,NA,"",       7.74732,      -7.66669,      -1.11485,   78.8000E-06
C:/temp/dataset/4/26_2.odb,Step-1,Increment      1: Step Time =    1.000,"PART-1-1",           527,            5.,        26.875,            0.,NA,NA,"",       7.78579,      -7.63916,      -1.50394,   86.8166E-06
C:/temp/dataset/4/26_2.odb,Step-1,Increment      1: Step Time =    1.000,"PART-1-1",           528,       5.96574,       25.8392,            0.,NA,NA,"",       7.57975,      -7.46577,      -1.30953,   87.2861E-06
C:/temp/dataset/4/26_2.odb,Step-1,Increment      1: Step Time =    1.000,"PART-1-1",           529,       8.59546,       27.4701,            0.,NA,NA,"",       7.85574,      -7.80906,  -855.182E-03,   63.5862E-06
C:/temp/dataset/4/26_2.odb,Step-1,Increment      1: Step Time =    1.000,"PART-1-1",           530,       9.94204,       28.5635,            0.,NA,NA,"",       8.05641,      -8.03197,  -627.058E-03,   70.9310E-06
C:/temp/dataset/4/26_2.odb,Step-1,Increment      1: Step Time =    1.000,"PART-1-1",           531,          8.75,           30.,            0.,NA,NA,"",       8.32051,      -8.27493,  -869.726E-03,   83.4753E-06
C:/temp/dataset/4/26_2.odb,Step-1,Increment      1: Step Time =    1.000,"PART-1-1",           532,            5.,       24.7917,            0.,NA,NA,"",       7.40452,      -7.25735,      -1.46891,   160.071E-06
C:/temp/dataset/4/26_2.odb,Step-1,Increment      1: Step Time =    1.000,"PART-1-1",           533,       6.91409,       24.8327,            0.,NA,NA,"",       7.38265,      -7.29741,      -1.11867,   34.6463E-06
C:/temp/dataset/4/26_2.odb,Step-1,Increment      1: Step Time =    1.000,"PART-1-1",           534,            5.,        20.625,            0.,NA,NA,"",       6.64082,      -6.49190,      -1.39849,   185.272E-06
C:/temp/dataset/4/26_2.odb,Step-1,Increment      1: Step Time =    1.000,"PART-1-1",           535,       5.99534,       19.6263,            0.,NA,NA,"",       6.43721,      -6.32475,      -1.19802,   666.139E-06
C:/temp/dataset/4/26_2.odb,Step-1,Increment      1: Step Time =    1.000,"PART-1-1",           536,       6.97162,       20.7210,            0.,NA,NA,"",       6.62484,      -6.54301,      -1.03801,   744.901E-06
C:/temp/dataset/4/26_2.odb,Step-1,Increment      1: Step Time =    1.000,"PART-1-1",           537,       9.90537,       10.7177,            0.,NA,NA,"",       4.75809,      -4.74648,  -332.164E-03,   3.87443E-03
C:/temp/dataset/4/26_2.odb,Step-1,Increment      1: Step Time =    1.000,"PART-1-1",           538,       8.83179,       9.75083,            0.,NA,NA,"",       4.58278,      -4.55503,  -503.563E-03,   4.33865E-03
C:/temp/dataset/4/26_2.odb,Step-1,Increment      1: Step Time =    1.000,"PART-1-1",           539,       10.8380,       9.37550,            0.,NA,NA,"",       4.52097,      -4.51855,  -147.870E-03,   3.98569E-03
C:/temp/dataset/4/26_2.odb,Step-1,Increment      1: Step Time =    1.000,"PART-1-1",           540,       5.96737,       11.1773,            0.,NA,NA,"",       4.88400,      -4.77215,      -1.03924,   5.55500E-03
C:/temp/dataset/4/26_2.odb,Step-1,Increment      1: Step Time =    1.000,"PART-1-1",           541,       6.95908,       12.1740,            0.,NA,NA,"",       5.04514,      -4.96750,  -881.674E-03,   4.45656E-03
C:/temp/dataset/4/26_2.odb,Step-1,Increment      1: Step Time =    1.000,"PART-1-1",           542,            5.,       12.2917,            0.,NA,NA,"",       5.11300,      -4.96062,      -1.23898,   5.59071E-03
C:/temp/dataset/4/26_2.odb,Step-1,Increment      1: Step Time =    1.000,"PART-1-1",           543,       6.89189,       10.0466,            0.,NA,NA,"",       4.65899,      -4.58075,  -850.197E-03,   5.63471E-03
C:/temp/dataset/4/26_2.odb,Step-1,Increment      1: Step Time =    1.000,"PART-1-1",           544,            5.,       10.2083,            0.,NA,NA,"",       4.73706,      -4.58457,      -1.19226,   7.55982E-03
C:/temp/dataset/4/26_2.odb,Step-1,Increment      1: Step Time =    1.000,"PART-1-1",           545,  -883.251E-03,       2.97832,            0.,NA,NA,"",       3.80528,      -3.27380,      -1.93969,   332.310E-06
C:/temp/dataset/4/26_2.odb,Step-1,Increment      1: Step Time =    1.000,"PART-1-1",           546,         -1.25,            5.,            0.,NA,NA,"",       4.12435,      -3.59296,      -2.02507,   823.679E-06
C:/temp/dataset/4/26_2.odb,Step-1,Increment      1: Step Time =    1.000,"PART-1-1",           547,      -2.28350,       3.97568,            0.,NA,NA,"",       4.05079,      -3.41562,      -2.17771,   338.573E-06
C:/temp/dataset/4/26_2.odb,Step-1,Increment      1: Step Time =    1.000,"PART-1-1",           548,      -3.12559,       2.92107,            0.,NA,NA,"",       3.96937,      -3.23546,      -2.29949,   298.101E-06
C:/temp/dataset/4/26_2.odb,Step-1,Increment      1: Step Time =    1.000,"PART-1-1",           549,         -3.75,            5.,            0.,NA,NA,"",       4.30991,      -3.56150,      -2.42714,   329.035E-06
C:/temp/dataset/4/26_2.odb,Step-1,Increment      1: Step Time =    1.000,"PART-1-1",           550,      -7.01026,       10.3490,            0.,NA,NA,"",       5.32162,      -4.38040,      -3.02187,   2.47182E-06
C:/temp/dataset/4/26_2.odb,Step-1,Increment      1: Step Time =    1.000,"PART-1-1",           551,           -5.,       10.2083,            0.,NA,NA,"",       5.14684,      -4.38397,      -2.69644,   3.72991E-06
C:/temp/dataset/4/26_2.odb,Step-1,Increment      1: Step Time =    1.000,"PART-1-1",           552,      -6.00030,       11.3233,            0.,NA,NA,"",       5.38095,      -4.55041,      -2.87200,   1.27663E-06
C:/temp/dataset/4/26_2.odb,Step-1,Increment      1: Step Time =    1.000,"PART-1-1",           553,      -6.90277,       16.5792,            0.,NA,NA,"",       6.20621,      -5.38469,      -3.08581,   138.480E-09
C:/temp/dataset/4/26_2.odb,Step-1,Increment      1: Step Time =    1.000,"PART-1-1",           554,           -5.,       16.4583,            0.,NA,NA,"",       6.06379,      -5.39004,      -2.77795,   21.6634E-09
C:/temp/dataset/4/26_2.odb,Step-1,Increment      1: Step Time =    1.000,"PART-1-1",           555,      -5.93592,       17.5473,            0.,NA,NA,"",       6.28468,      -5.55312,      -2.94280,   21.7598E-09
C:/temp/dataset/4/26_2.odb,Step-1,Increment      1: Step Time =    1.000,"PART-1-1",           556,      -5.96041,       23.6583,            0.,NA,NA,"",       7.20314,      -6.53650,      -3.02644,   7.02554E-09
C:/temp/dataset/4/26_2.odb,Step-1,Increment      1: Step Time =    1.000,"PART-1-1",           557,           -5.,       24.7917,            0.,NA,NA,"",       7.32428,      -6.73146,      -2.88662,   6.71957E-09
C:/temp/dataset/4/26_2.odb,Step-1,Increment      1: Step Time =    1.000,"PART-1-1",           558,      -7.48847,       28.8776,            0.,NA,NA,"",       8.07962,      -7.35673,      -3.34047,   2.56832E-09
C:/temp/dataset/4/26_2.odb,Step-1,Increment      1: Step Time =    1.000,"PART-1-1",           559,           -5.,       28.9583,            0.,NA,NA,"",       7.96501,      -7.40217,      -2.94096,   2.15437E-09
C:/temp/dataset/4/26_2.odb,Step-1,Increment      1: Step Time =    1.000,"PART-1-1",           560,         -6.25,           30.,            0.,NA,NA,"",       8.18626,      -7.55355,      -3.15575,   1.98382E-09
C:/temp/dataset/4/26_2.odb,Step-1,Increment      1: Step Time =    1.000,"PART-1-1",           561,       12.9634,       11.4929,            0.,NA,NA,"",       4.94293,      -4.93902,   196.726E-03,   4.55298E-03
C:/temp/dataset/4/26_2.odb,Step-1,Increment      1: Step Time =    1.000,"PART-1-1",           562,       13.9657,       10.1417,            0.,NA,NA,"",       4.72764,      -4.71140,   391.519E-03,   6.34544E-03
C:/temp/dataset/4/26_2.odb,Step-1,Increment      1: Step Time =    1.000,"PART-1-1",           563,           15.,         11.25,            0.,NA,NA,"",       4.96502,      -4.93276,   565.092E-03,   6.98455E-03
C:/temp/dataset/4/26_2.odb,Step-1,Increment      1: Step Time =    1.000,"PART-1-1",           564,       13.9978,       12.6011,            0.,NA,NA,"",       5.17444,      -5.16134,   368.039E-03,   4.70204E-03
C:/temp/dataset/4/26_2.odb,Step-1,Increment      1: Step Time =    1.000,"PART-1-1",           565,       9.13480,      -18.5479,            0.,NA,NA,"",   506.277E-03,  -500.557E-03,  -75.8849E-03,   6.65692E-03
C:/temp/dataset/4/26_2.odb,Step-1,Increment      1: Step Time =    1.000,"PART-1-1",           566,       11.1537,      -18.5886,            0.,NA,NA,"",   511.320E-03,  -505.089E-03,   79.5782E-03,   9.01087E-03
C:/temp/dataset/4/26_2.odb,Step-1,Increment      1: Step Time =    1.000,"PART-1-1",           567,       10.1377,      -17.4381,            0.,NA,NA,"",   598.986E-03,  -598.985E-03,  -1.30224E-03,   4.05995E-03
C:/temp/dataset/4/26_2.odb,Step-1,Increment      1: Step Time =    1.000,"PART-1-1",           568,      -8.81573,       27.5627,            0.,NA,NA,"",       7.95707,      -7.12775,      -3.53698,   2.88519E-09
C:/temp/dataset/4/26_2.odb,Step-1,Increment      1: Step Time =    1.000,"PART-1-1",           569,         -8.75,           30.,            0.,NA,NA,"",       8.32018,      -7.52095,      -3.55818,   2.59624E-09
C:/temp/dataset/4/26_2.odb,Step-1,Increment      1: Step Time =    1.000,"PART-1-1",           570,            5.,      -24.7917,            0.,NA,NA,"",   240.425E-03,  -145.818E-03,  -191.157E-03,   38.4910E-03
C:/temp/dataset/4/26_2.odb,Step-1,Increment      1: Step Time =    1.000,"PART-1-1",           571,       6.09200,      -25.8775,            0.,NA,NA,"",   146.340E-03,  -89.6229E-03,  -115.685E-03,   31.0298E-03
C:/temp/dataset/4/26_2.odb,Step-1,Increment      1: Step Time =    1.000,"PART-1-1",           572,       7.15121,      -24.8757,            0.,NA,NA,"",   153.681E-03,  -114.443E-03,  -102.570E-03,   22.4141E-03
C:/temp/dataset/4/26_2.odb,Step-1,Increment      1: Step Time =    1.000,"PART-1-1",           573,       13.1040,      -21.0477,            0.,NA,NA,"",   386.196E-03,  -336.860E-03,   188.872E-03,   22.7262E-03
C:/temp/dataset/4/26_2.odb,Step-1,Increment      1: Step Time =    1.000,"PART-1-1",           574,       14.0487,      -22.3697,            0.,NA,NA,"",   341.863E-03,  -265.025E-03,   215.945E-03,   30.3173E-03
C:/temp/dataset/4/26_2.odb,Step-1,Increment      1: Step Time =    1.000,"PART-1-1",           575,           15.,        -21.25,            0.,NA,NA,"",   464.958E-03,  -351.790E-03,   304.023E-03,   36.1968E-03
C:/temp/dataset/4/26_2.odb,Step-1,Increment      1: Step Time =    1.000,"PART-1-1",           576,            5.,       -26.875,            0.,NA,NA,"",   140.482E-03,  -77.2245E-03,  -117.352E-03,   40.4024E-03
C:/temp/dataset/4/26_2.odb,Step-1,Increment      1: Step Time =    1.000,"PART-1-1",           577,       12.8133,      -6.31290,            0.,NA,NA,"",       1.98147,      -1.95874,   299.278E-03,   13.1648E-03
C:/temp/dataset/4/26_2.odb,Step-1,Increment      1: Step Time =    1.000,"PART-1-1",           578,       13.9319,      -7.55671,            0.,NA,NA,"",       1.85292,      -1.79801,   447.740E-03,   18.5452E-03
C:/temp/dataset/4/26_2.odb,Step-1,Increment      1: Step Time =    1.000,"PART-1-1",           579,           15.,         -6.25,            0.,NA,NA,"",       2.09607,      -2.00650,   606.173E-03,   21.5837E-03
C:/temp/dataset/4/26_2.odb,Step-1,Increment      1: Step Time =    1.000,"PART-1-1",           580,            5.,       18.5417,            0.,NA,NA,"",       6.25801,      -6.10800,      -1.36200,   917.689E-06
C:/temp/dataset/4/26_2.odb,Step-1,Increment      1: Step Time =    1.000,"PART-1-1",           581,       6.00122,       17.5195,            0.,NA,NA,"",       6.04814,      -5.93603,      -1.15912,   1.48944E-03
C:/temp/dataset/4/26_2.odb,Step-1,Increment      1: Step Time =    1.000,"PART-1-1",           582,       6.99656,       18.6041,            0.,NA,NA,"",       6.23301,      -6.15286,  -996.369E-03,   1.50538E-03
C:/temp/dataset/4/26_2.odb,Step-1,Increment      1: Step Time =    1.000,"PART-1-1",           583,       12.8545,       23.6160,            0.,NA,NA,"",       7.17618,      -7.17617,  -10.4966E-03,   496.035E-06
C:/temp/dataset/4/26_2.odb,Step-1,Increment      1: Step Time =    1.000,"PART-1-1",           584,       13.9683,       22.4382,            0.,NA,NA,"",       6.98415,      -6.98091,   212.518E-03,   1.15343E-03
C:/temp/dataset/4/26_2.odb,Step-1,Increment      1: Step Time =    1.000,"PART-1-1",           585,           15.,         23.75,            0.,NA,NA,"",       7.24669,      -7.23678,   378.787E-03,   314.903E-06
C:/temp/dataset/4/26_2.odb,Step-1,Increment      1: Step Time =    1.000,"PART-1-1",           586,            5.,       16.4583,            0.,NA,NA,"",       5.87498,      -5.72393,      -1.32363,   2.13037E-03
C:/temp/dataset/4/26_2.odb,Step-1,Increment      1: Step Time =    1.000,"PART-1-1",           587,       7.00480,       16.4638,            0.,NA,NA,"",       5.83623,      -5.75739,  -956.086E-03,   2.42864E-03
C:/temp/dataset/4/26_2.odb,Step-1,Increment      1: Step Time =    1.000,"PART-1-1",           588,       12.9734,       21.1620,            0.,NA,NA,"",       6.72994,      -6.72975,   51.2850E-03,   1.75448E-03
C:/temp/dataset/4/26_2.odb,Step-1,Increment      1: Step Time =    1.000,"PART-1-1",           589,           15.,         21.25,            0.,NA,NA,"",       6.79631,      -6.78335,   419.615E-03,   1.70743E-03
C:/temp/dataset/4/26_2.odb,Step-1,Increment      1: Step Time =    1.000,"PART-1-1",           590,            5.,       6.04167,            0.,NA,NA,"",       4.00025,      -3.84967,      -1.08722,   16.9788E-03
C:/temp/dataset/4/26_2.odb,Step-1,Increment      1: Step Time =    1.000,"PART-1-1",           591,       5.70418,       5.21013,            0.,NA,NA,"",       3.82993,      -3.71116,  -946.356E-03,   11.4941E-03
C:/temp/dataset/4/26_2.odb,Step-1,Increment      1: Step Time =    1.000,"PART-1-1",           592,       6.54256,       6.20387,            0.,NA,NA,"",       3.98150,      -3.89440,  -828.264E-03,   7.06283E-03
C:/temp/dataset/4/26_2.odb,Step-1,Increment      1: Step Time =    1.000,"PART-1-1",           593,       7.80464,       8.81181,            0.,NA,NA,"",       4.42202,      -4.37171,  -665.122E-03,   5.18679E-03
C:/temp/dataset/4/26_2.odb,Step-1,Increment      1: Step Time =    1.000,"PART-1-1",           594,       7.55468,       6.70991,            0.,NA,NA,"",       4.05157,      -3.99619,  -667.583E-03,   6.08554E-03
C:/temp/dataset/4/26_2.odb,Step-1,Increment      1: Step Time =    1.000,"PART-1-1",           595,           -5.,       12.2917,            0.,NA,NA,"",       5.44886,      -4.71933,      -2.72361,   874.795E-09
C:/temp/dataset/4/26_2.odb,Step-1,Increment      1: Step Time =    1.000,"PART-1-1",           596,      -13.0551,       11.1433,            0.,NA,NA,"",       5.97176,      -4.42942,      -4.00527,   1.32974E-06
C:/temp/dataset/4/26_2.odb,Step-1,Increment      1: Step Time =    1.000,"PART-1-1",           597,          -15.,       11.4063,            0.,NA,NA,"",       6.20065,      -4.44639,      -4.32177,   1.26346E-06
C:/temp/dataset/4/26_2.odb,Step-1,Increment      1: Step Time =    1.000,"PART-1-1",           598,           -5.,       18.5417,            0.,NA,NA,"",       6.37564,      -5.72539,      -2.80511,   21.9911E-09
C:/temp/dataset/4/26_2.odb,Step-1,Increment      1: Step Time =    1.000,"PART-1-1",           599,      -6.83195,       18.5917,            0.,NA,NA,"",       6.49717,      -5.70956,      -3.10066,   26.3667E-09
C:/temp/dataset/4/26_2.odb,Step-1,Increment      1: Step Time =    1.000,"PART-1-1",           600,      -12.9744,       15.4368,            0.,NA,NA,"",       6.52835,      -5.12160,      -4.04828,   254.684E-09
C:/temp/dataset/4/26_2.odb,Step-1,Increment      1: Step Time =    1.000,"PART-1-1",           601,      -13.9736,       16.6988,            0.,NA,NA,"",       6.78748,      -5.31173,      -4.22557,   54.9869E-09
C:/temp/dataset/4/26_2.odb,Step-1,Increment      1: Step Time =    1.000,"PART-1-1",           602,          -15.,       15.7813,            0.,NA,NA,"",       6.76041,      -5.15064,      -4.37882,   85.9363E-09
C:/temp/dataset/4/26_2.odb,Step-1,Increment      1: Step Time =    1.000,"PART-1-1",           603,      -6.85389,       22.5676,            0.,NA,NA,"",       7.09041,      -6.34928,      -3.15604,   7.78451E-09
C:/temp/dataset/4/26_2.odb,Step-1,Increment      1: Step Time =    1.000,"PART-1-1",           604,           -5.,       22.7083,            0.,NA,NA,"",       7.00618,      -6.39611,      -2.85945,   13.3597E-09
C:/temp/dataset/4/26_2.odb,Step-1,Increment      1: Step Time =    1.000,"PART-1-1",           605,      -7.62380,       21.5126,            0.,NA,NA,"",       6.98067,      -6.16941,      -3.26621,   5.82208E-09
C:/temp/dataset/4/26_2.odb,Step-1,Increment      1: Step Time =    1.000,"PART-1-1",           606,      -11.2433,       25.0031,            0.,NA,NA,"",       7.73583,      -6.68408,      -3.89437,   4.75710E-09
C:/temp/dataset/4/26_2.odb,Step-1,Increment      1: Step Time =    1.000,"PART-1-1",           607,      -10.1220,       24.6816,            0.,NA,NA,"",       7.61207,      -6.64695,      -3.70967,   5.02370E-09
C:/temp/dataset/4/26_2.odb,Step-1,Increment      1: Step Time =    1.000,"PART-1-1",           608,      -9.68436,       26.2404,            0.,NA,NA,"",       7.81356,      -6.90357,      -3.65956,   3.83202E-09
C:/temp/dataset/4/26_2.odb,Step-1,Increment      1: Step Time =    1.000,"PART-1-1",           609,      -10.8057,       26.5619,            0.,NA,NA,"",       7.93421,      -6.94070,      -3.84426,   3.41279E-09
C:/temp/dataset/4/26_2.odb,Step-1,Increment      1: Step Time =    1.000,"PART-1-1",           610,            5.,      -6.04167,            0.,NA,NA,"",       2.08818,      -1.92615,  -806.491E-03,   27.8362E-03
C:/temp/dataset/4/26_2.odb,Step-1,Increment      1: Step Time =    1.000,"PART-1-1",           611,       5.81487,      -6.90448,            0.,NA,NA,"",       1.92510,      -1.80772,  -661.916E-03,   19.9513E-03
C:/temp/dataset/4/26_2.odb,Step-1,Increment      1: Step Time =    1.000,"PART-1-1",           612,       6.44107,      -5.66337,            0.,NA,NA,"",       2.07413,      -1.98495,  -601.658E-03,   12.3267E-03
C:/temp/dataset/4/26_2.odb,Step-1,Increment      1: Step Time =    1.000,"PART-1-1",           613,       5.62621,      -4.80056,            0.,NA,NA,"",       2.23462,      -2.10639,  -746.076E-03,   17.7702E-03
C:/temp/dataset/4/26_2.odb,Step-1,Increment      1: Step Time =    1.000,"PART-1-1",           614,            5.,        -8.125,            0.,NA,NA,"",       1.80350,      -1.64555,  -738.088E-03,   24.9873E-03
C:/temp/dataset/4/26_2.odb,Step-1,Increment      1: Step Time =    1.000,"PART-1-1",           615,       8.00489,       17.5473,            0.,NA,NA,"",       6.02678,      -5.97430,  -793.618E-03,   2.16481E-03
C:/temp/dataset/4/26_2.odb,Step-1,Increment      1: Step Time =    1.000,"PART-1-1",           616,       8.00828,       15.3576,            0.,NA,NA,"",       5.61983,      -5.56909,  -753.514E-03,   3.04228E-03
C:/temp/dataset/4/26_2.odb,Step-1,Increment      1: Step Time =    1.000,"PART-1-1",           617,       11.1265,      -16.2686,            0.,NA,NA,"",   719.139E-03,  -714.190E-03,   84.2203E-03,   8.37629E-03
C:/temp/dataset/4/26_2.odb,Step-1,Increment      1: Step Time =    1.000,"PART-1-1",           618,       9.12111,      -16.3141,            0.,NA,NA,"",   706.642E-03,  -700.008E-03,  -96.6014E-03,   6.48328E-03
C:/temp/dataset/4/26_2.odb,Step-1,Increment      1: Step Time =    1.000,"PART-1-1",           619,      -9.91602,       15.9767,            0.,NA,NA,"",       6.34355,      -5.24839,      -3.56300,   207.617E-09
C:/temp/dataset/4/26_2.odb,Step-1,Increment      1: Step Time =    1.000,"PART-1-1",           620,      -10.9598,       15.0860,            0.,NA,NA,"",       6.30527,      -5.09142,      -3.71940,   385.418E-09
C:/temp/dataset/4/26_2.odb,Step-1,Increment      1: Step Time =    1.000,"PART-1-1",           621,      -8.93702,       14.7598,            0.,NA,NA,"",       6.09476,      -5.06529,      -3.38954,   454.772E-09
C:/temp/dataset/4/26_2.odb,Step-1,Increment      1: Step Time =    1.000,"PART-1-1",           622,      -13.0880,       4.79273,            0.,NA,NA,"",       5.19934,      -3.40676,      -3.92774,   1.28990E-06
C:/temp/dataset/4/26_2.odb,Step-1,Increment      1: Step Time =    1.000,"PART-1-1",           623,          -15.,       4.84375,            0.,NA,NA,"",       5.42564,      -3.39004,      -4.23617,   5.05916E-06
C:/temp/dataset/4/26_2.odb,Step-1,Increment      1: Step Time =    1.000,"PART-1-1",           624,           -5.,       6.04167,            0.,NA,NA,"",       4.55726,      -3.71324,      -2.64206,   31.3885E-06
C:/temp/dataset/4/26_2.odb,Step-1,Increment      1: Step Time =    1.000,"PART-1-1",           625,      -7.12843,       5.83601,            0.,NA,NA,"",       4.71512,      -3.65238,      -2.98203,   8.24658E-06
C:/temp/dataset/4/26_2.odb,Step-1,Increment      1: Step Time =    1.000,"PART-1-1",           626,       12.9112,      -8.87192,            0.,NA,NA,"",       1.62825,      -1.59919,   306.254E-03,   14.9727E-03
C:/temp/dataset/4/26_2.odb,Step-1,Increment      1: Step Time =    1.000,"PART-1-1",           627,           15.,         -8.75,            0.,NA,NA,"",       1.75047,      -1.65202,   578.762E-03,   24.6355E-03
C:/temp/dataset/4/26_2.odb,Step-1,Increment      1: Step Time =    1.000,"PART-1-1",           628,       13.0740,      -16.2399,            0.,NA,NA,"",   782.231E-03,  -737.303E-03,   261.286E-03,   19.8301E-03
C:/temp/dataset/4/26_2.odb,Step-1,Increment      1: Step Time =    1.000,"PART-1-1",           629,           15.,        -16.25,            0.,NA,NA,"",   883.827E-03,  -766.745E-03,   439.604E-03,   31.7199E-03
C:/temp/dataset/4/26_2.odb,Step-1,Increment      1: Step Time =    1.000,"PART-1-1",           630,       13.0128,       13.9092,            0.,NA,NA,"",       5.38818,      -5.38545,   171.366E-03,   3.99907E-03
C:/temp/dataset/4/26_2.odb,Step-1,Increment      1: Step Time =    1.000,"PART-1-1",           631,           15.,         13.75,            0.,NA,NA,"",       5.41926,      -5.39265,   536.300E-03,   4.86591E-03
C:/temp/dataset/4/26_2.odb,Step-1,Increment      1: Step Time =    1.000,"PART-1-1",           632,       10.9505,       11.7339,            0.,NA,NA,"",       4.95142,      -4.94869,  -164.286E-03,   4.01911E-03
C:/temp/dataset/4/26_2.odb,Step-1,Increment      1: Step Time =    1.000,"PART-1-1",           633,       9.98883,       12.9959,            0.,NA,NA,"",       5.17711,      -5.16486,  -355.940E-03,   3.86821E-03
C:/temp/dataset/4/26_2.odb,Step-1,Increment      1: Step Time =    1.000,"PART-1-1",           634,       8.94372,       11.9797,            0.,NA,NA,"",       4.98934,      -4.96175,  -523.984E-03,   4.09295E-03
C:/temp/dataset/4/26_2.odb,Step-1,Increment      1: Step Time =    1.000,"PART-1-1",           635,      -13.9153,       18.9000,            0.,NA,NA,"",       7.08039,      -5.66682,      -4.24490,   12.2179E-09
C:/temp/dataset/4/26_2.odb,Step-1,Increment      1: Step Time =    1.000,"PART-1-1",           636,      -12.6393,       19.9841,            0.,NA,NA,"",       7.12374,      -5.85797,      -4.05364,   7.68865E-09
C:/temp/dataset/4/26_2.odb,Step-1,Increment      1: Step Time =    1.000,"PART-1-1",           637,          -15.,       20.1563,            0.,NA,NA,"",       7.34552,      -5.85489,      -4.43588,   20.6993E-09
C:/temp/dataset/4/26_2.odb,Step-1,Increment      1: Step Time =    1.000,"PART-1-1",           638,       8.12191,      -21.7795,            0.,NA,NA,"",   289.092E-03,  -267.694E-03,  -109.153E-03,   13.6721E-03
C:/temp/dataset/4/26_2.odb,Step-1,Increment      1: Step Time =    1.000,"PART-1-1",           639,       8.12482,      -23.8590,            0.,NA,NA,"",   172.694E-03,  -152.883E-03,  -80.3131E-03,   14.3223E-03
C:/temp/dataset/4/26_2.odb,Step-1,Increment      1: Step Time =    1.000,"PART-1-1",           640,       8.11825,      -19.6354,            0.,NA,NA,"",   438.183E-03,  -415.414E-03,  -139.412E-03,   13.0148E-03
C:/temp/dataset/4/26_2.odb,Step-1,Increment      1: Step Time =    1.000,"PART-1-1",           641,       8.10952,      -17.4508,            0.,NA,NA,"",   619.219E-03,  -594.955E-03,  -171.641E-03,   12.4090E-03
C:/temp/dataset/4/26_2.odb,Step-1,Increment      1: Step Time =    1.000,"PART-1-1",           642,       7.85781,       23.9076,            0.,NA,NA,"",       7.20410,      -7.14382,  -930.018E-03,   132.319E-06
C:/temp/dataset/4/26_2.odb,Step-1,Increment      1: Step Time =    1.000,"PART-1-1",           643,       7.94870,       21.8524,            0.,NA,NA,"",       6.82471,      -6.76793,  -878.464E-03,   535.604E-06
C:/temp/dataset/4/26_2.odb,Step-1,Increment      1: Step Time =    1.000,"PART-1-1",           644,       4.21929,       2.98066,            0.,NA,NA,"",       3.52382,      -3.33633,      -1.13409,   6.26699E-03
C:/temp/dataset/4/26_2.odb,Step-1,Increment      1: Step Time =    1.000,"PART-1-1",           645,       5.32392,       3.96649,            0.,NA,NA,"",       3.64063,      -3.50570,  -981.984E-03,   10.2790E-03
C:/temp/dataset/4/26_2.odb,Step-1,Increment      1: Step Time =    1.000,"PART-1-1",           646,          3.75,            5.,            0.,NA,NA,"",       3.85507,      -3.65227,      -1.23390,   4.90058E-03
C:/temp/dataset/4/26_2.odb,Step-1,Increment      1: Step Time =    1.000,"PART-1-1",           647,       12.8859,       9.04653,            0.,NA,NA,"",       4.49931,      -4.49424,   213.557E-03,   5.48421E-03
C:/temp/dataset/4/26_2.odb,Step-1,Increment      1: Step Time =    1.000,"PART-1-1",           648,           15.,          8.75,            0.,NA,NA,"",       4.51917,      -4.48075,   588.042E-03,   8.87626E-03
C:/temp/dataset/4/26_2.odb,Step-1,Increment      1: Step Time =    1.000,"PART-1-1",           649,      -8.02807,       9.41948,            0.,NA,NA,"",       5.27816,      -4.21750,      -3.17359,   2.49130E-06
C:/temp/dataset/4/26_2.odb,Step-1,Increment      1: Step Time =    1.000,"PART-1-1",           650,      -8.84347,       16.8085,            0.,NA,NA,"",       6.37872,      -5.39628,      -3.40120,   159.812E-09
C:/temp/dataset/4/26_2.odb,Step-1,Increment      1: Step Time =    1.000,"PART-1-1",           651,      -9.78583,       18.0165,            0.,NA,NA,"",       6.62226,      -5.57845,      -3.56865,   57.8995E-09
C:/temp/dataset/4/26_2.odb,Step-1,Increment      1: Step Time =    1.000,"PART-1-1",           652,          -15.,       17.9688,            0.,NA,NA,"",       7.05019,      -5.50276,      -4.40735,   11.1507E-09
C:/temp/dataset/4/26_2.odb,Step-1,Increment      1: Step Time =    1.000,"PART-1-1",           653,          -15.,       24.5313,            0.,NA,NA,"",       7.95039,      -6.55913,      -4.49293,   6.17242E-09
C:/temp/dataset/4/26_2.odb,Step-1,Increment      1: Step Time =    1.000,"PART-1-1",           654,      -12.9952,       24.7258,            0.,NA,NA,"",       7.82249,      -6.61660,      -4.17275,   5.47540E-09
C:/temp/dataset/4/26_2.odb,Step-1,Increment      1: Step Time =    1.000,"PART-1-1",           655,      -11.4985,       21.8877,            0.,NA,NA,"",       7.30430,      -6.17925,      -3.89482,   5.55254E-09
C:/temp/dataset/4/26_2.odb,Step-1,Increment      1: Step Time =    1.000,"PART-1-1",           656,      -11.4490,       20.6565,            0.,NA,NA,"",       7.12488,      -5.98171,      -3.87079,   5.71114E-09
C:/temp/dataset/4/26_2.odb,Step-1,Increment      1: Step Time =    1.000,"PART-1-1",           657,      -10.1446,       20.7260,            0.,NA,NA,"",       7.03758,      -6.00992,      -3.66173,   7.05533E-09
C:/temp/dataset/4/26_2.odb,Step-1,Increment      1: Step Time =    1.000,"PART-1-1",           658,      -7.69218,       19.6350,            0.,NA,NA,"",       6.70773,      -5.86628,      -3.25273,   8.15193E-09
C:/temp/dataset/4/26_2.odb,Step-1,Increment      1: Step Time =    1.000,"PART-1-1",           659,      -8.68744,       18.7463,            0.,NA,NA,"",       6.64651,      -5.71025,      -3.40135,   41.2619E-09
C:/temp/dataset/4/26_2.odb,Step-1,Increment      1: Step Time =    1.000,"PART-1-1",           660,      -7.82721,       17.7030,            0.,NA,NA,"",       6.43424,      -5.55353,      -3.24928,   58.4684E-09
C:/temp/dataset/4/26_2.odb,Step-1,Increment      1: Step Time =    1.000,"PART-1-1",           661,      -9.52114,       19.8817,            0.,NA,NA,"",       6.87056,      -5.88214,      -3.55036,   12.3866E-09
C:/temp/dataset/4/26_2.odb,Step-1,Increment      1: Step Time =    1.000,"PART-1-1",           662,      -10.6195,       19.1519,            0.,NA,NA,"",       6.84743,      -5.75034,      -3.71765,   32.1394E-09
C:/temp/dataset/4/26_2.odb,Step-1,Increment      1: Step Time =    1.000,"PART-1-1",           663,      -12.1485,       3.78191,            0.,NA,NA,"",       4.97657,      -3.25631,      -3.76334,   4.95339E-06
C:/temp/dataset/4/26_2.odb,Step-1,Increment      1: Step Time =    1.000,"PART-1-1",           664,      -10.9850,       2.86362,            0.,NA,NA,"",       4.73921,      -3.12368,      -3.56409,   11.2730E-06
C:/temp/dataset/4/26_2.odb,Step-1,Increment      1: Step Time =    1.000,"PART-1-1",           665,      -9.06958,       8.49577,            0.,NA,NA,"",       5.24675,      -4.05522,      -3.32920,   3.17570E-06
C:/temp/dataset/4/26_2.odb,Step-1,Increment      1: Step Time =    1.000,"PART-1-1",           666,      -8.08215,       7.28595,            0.,NA,NA,"",       4.99536,      -3.87336,      -3.15447,   5.13129E-06
C:/temp/dataset/4/26_2.odb,Step-1,Increment      1: Step Time =    1.000,"PART-1-1",           667,      -10.1292,       7.60955,            0.,NA,NA,"",       5.23143,      -3.89875,      -3.48821,   2.56312E-06
C:/temp/dataset/4/26_2.odb,Step-1,Increment      1: Step Time =    1.000,"PART-1-1",           668,      -11.2104,       6.77234,            0.,NA,NA,"",       5.23391,      -3.74989,      -3.65132,   1.80992E-06
C:/temp/dataset/4/26_2.odb,Step-1,Increment      1: Step Time =    1.000,"PART-1-1",           669,      -10.2942,       5.63122,            0.,NA,NA,"",       4.99761,      -3.57815,      -3.48898,   5.14139E-06
C:/temp/dataset/4/26_2.odb,Step-1,Increment      1: Step Time =    1.000,"PART-1-1",           670,      -9.21309,       6.46842,            0.,NA,NA,"",       4.99519,      -3.72701,      -3.32586,   4.37868E-06
C:/temp/dataset/4/26_2.odb,Step-1,Increment      1: Step Time =    1.000,"PART-1-1",           671,        -11.25,           -5.,            0.,NA,NA,"",       3.96478,      -1.85458,      -3.50428,   1.90867E-06
C:/temp/dataset/4/26_2.odb,Step-1,Increment      1: Step Time =    1.000,"PART-1-1",           672,      -10.0273,      -3.93877,            0.,NA,NA,"",       3.89849,      -2.04131,      -3.32134,   7.80158E-06
C:/temp/dataset/4/26_2.odb,Step-1,Increment      1: Step Time =    1.000,"PART-1-1",           673,         -8.75,           -5.,            0.,NA,NA,"",       3.63091,      -1.88716,      -3.10195,   16.7196E-06
C:/temp/dataset/4/26_2.odb,Step-1,Increment      1: Step Time =    1.000,"PART-1-1",           674,      -7.59562,      -4.02918,            0.,NA,NA,"",       3.57985,      -2.05842,      -2.92886,   35.7861E-06
C:/temp/dataset/4/26_2.odb,Step-1,Increment      1: Step Time =    1.000,"PART-1-1",           675,      -8.87289,      -2.96795,            0.,NA,NA,"",       3.84798,      -2.21261,      -3.14822,   34.7222E-06
C:/temp/dataset/4/26_2.odb,Step-1,Increment      1: Step Time =    1.000,"PART-1-1",           676,         -6.25,           -5.,            0.,NA,NA,"",       3.31260,      -1.91966,      -2.69967,   101.772E-06
C:/temp/dataset/4/26_2.odb,Step-1,Increment      1: Step Time =    1.000,"PART-1-1",           677,      -5.03874,      -3.83161,            0.,NA,NA,"",       3.29539,      -2.12341,      -2.52006,   133.578E-06
C:/temp/dataset/4/26_2.odb,Step-1,Increment      1: Step Time =    1.000,"PART-1-1",           678,      -6.38435,      -2.86079,            0.,NA,NA,"",       3.56035,      -2.26228,      -2.74921,   118.334E-06
C:/temp/dataset/4/26_2.odb,Step-1,Increment      1: Step Time =    1.000,"PART-1-1",           679,      -8.31216,       1.98044,            0.,NA,NA,"",       4.34141,      -3.01642,      -3.12235,   47.0556E-06
C:/temp/dataset/4/26_2.odb,Step-1,Increment      1: Step Time =    1.000,"PART-1-1",           680,      -6.89941,       1.67561,            0.,NA,NA,"",       4.15606,      -2.98583,      -2.89096,   93.3292E-06
C:/temp/dataset/4/26_2.odb,Step-1,Increment      1: Step Time =    1.000,"PART-1-1",           681,      -8.02347,       3.70061,            0.,NA,NA,"",       4.52433,      -3.29701,      -3.09827,   34.0527E-06
C:/temp/dataset/4/26_2.odb,Step-1,Increment      1: Step Time =    1.000,"PART-1-1",           682,      -9.78636,       2.36681,            0.,NA,NA,"",       4.54761,      -3.05935,      -3.36468,   23.3479E-06
C:/temp/dataset/4/26_2.odb,Step-1,Increment      1: Step Time =    1.000,"PART-1-1",           683,      -8.80920,   354.969E-03,            0.,NA,NA,"",       4.20397,      -2.74831,      -3.18122,   43.6133E-06
C:/temp/dataset/4/26_2.odb,Step-1,Increment      1: Step Time =    1.000,"PART-1-1",           684,         -3.75,           -5.,            0.,NA,NA,"",       3.01453,      -1.95185,      -2.29731,   297.607E-06
C:/temp/dataset/4/26_2.odb,Step-1,Increment      1: Step Time =    1.000,"PART-1-1",           685,          3.75,           -5.,            0.,NA,NA,"",       2.30985,      -2.04544,      -1.07311,   5.34253E-03
C:/temp/dataset/4/26_2.odb,Step-1,Increment      1: Step Time =    1.000,"PART-1-1",           686,       4.46580,      -3.87501,            0.,NA,NA,"",       2.44221,      -2.24369,  -964.498E-03,   11.9611E-03
C:/temp/dataset/4/26_2.odb,Step-1,Increment      1: Step Time =    1.000,"PART-1-1",           687,       2.90021,      -2.90757,            0.,NA,NA,"",       2.68390,      -2.37759,      -1.24516,   3.29132E-03
C:/temp/dataset/4/26_2.odb,Step-1,Increment      1: Step Time =    1.000,"PART-1-1",           688,       11.1618,       2.81075,            0.,NA,NA,"",       3.38412,      -3.38410,  -9.66710E-03,   3.65666E-03
C:/temp/dataset/4/26_2.odb,Step-1,Increment      1: Step Time =    1.000,"PART-1-1",           689,       10.1850,       1.50626,            0.,NA,NA,"",       3.15831,      -3.15465,  -152.060E-03,   2.92266E-03
C:/temp/dataset/4/26_2.odb,Step-1,Increment      1: Step Time =    1.000,"PART-1-1",           690,       11.6421,   144.368E-03,            0.,NA,NA,"",       2.95220,      -2.95067,   94.7674E-03,   5.56888E-03
C:/temp/dataset/4/26_2.odb,Step-1,Increment      1: Step Time =    1.000,"PART-1-1",           691,         11.25,           30.,            0.,NA,NA,"",       8.32716,      -8.31697,  -411.932E-03,   89.9370E-06
C:/temp/dataset/4/26_2.odb,Step-1,Increment      1: Step Time =    1.000,"PART-1-1",           692,       9.19768,       26.3844,            0.,NA,NA,"",       7.65497,      -7.62042,  -726.472E-03,   56.3618E-06
C:/temp/dataset/4/26_2.odb,Step-1,Increment      1: Step Time =    1.000,"PART-1-1",           693,       7.72138,       25.7435,            0.,NA,NA,"",       7.54276,      -7.47802,  -986.114E-03,   63.3292E-06
C:/temp/dataset/4/26_2.odb,Step-1,Increment      1: Step Time =    1.000,"PART-1-1",           694,       9.17897,      -24.8987,            0.,NA,NA,"",   106.357E-03,  -102.575E-03,  -28.1083E-03,   7.23213E-03
C:/temp/dataset/4/26_2.odb,Step-1,Increment      1: Step Time =    1.000,"PART-1-1",           695,       9.00589,       18.6572,            0.,NA,NA,"",       6.22872,      -6.19670,  -630.819E-03,   2.04202E-03
C:/temp/dataset/4/26_2.odb,Step-1,Increment      1: Step Time =    1.000,"PART-1-1",           696,       7.99757,       19.7140,            0.,NA,NA,"",       6.42892,      -6.37474,  -832.866E-03,   1.26185E-03
C:/temp/dataset/4/26_2.odb,Step-1,Increment      1: Step Time =    1.000,"PART-1-1",           697,      -12.2498,       25.7751,            0.,NA,NA,"",       7.91903,      -6.79523,      -4.06644,   3.93344E-09
C:/temp/dataset/4/26_2.odb,Step-1,Increment      1: Step Time =    1.000,"PART-1-1",           698,      -11.9888,       23.9538,            0.,NA,NA,"",       7.63717,      -6.50545,      -4.00068,   5.77245E-09
C:/temp/dataset/4/26_2.odb,Step-1,Increment      1: Step Time =    1.000,"PART-1-1",           699,      -1.59164,      -1.60220,            0.,NA,NA,"",       3.22008,      -2.52816,      -1.99433,   346.864E-06
C:/temp/dataset/4/26_2.odb,Step-1,Increment      1: Step Time =    1.000,"PART-1-1",           700,      -1.34014,  -343.401E-03,            0.,NA,NA,"",       3.37030,      -2.73450,      -1.97013,   365.363E-06
C:/temp/dataset/4/26_2.odb,Step-1,Increment      1: Step Time =    1.000,"PART-1-1",           701,      -2.70787,  -93.9540E-03,            0.,NA,NA,"",       3.52267,      -2.75642,      -2.19349,   318.574E-06
C:/temp/dataset/4/26_2.odb,Step-1,Increment      1: Step Time =    1.000,"PART-1-1",           702,       8.06015,      -13.0184,            0.,NA,NA,"",       1.07060,      -1.04225,  -244.738E-03,   11.3118E-03
C:/temp/dataset/4/26_2.odb,Step-1,Increment      1: Step Time =    1.000,"PART-1-1",           703,       7.99745,      -10.7906,            0.,NA,NA,"",       1.33683,      -1.30524,  -288.871E-03,   10.8147E-03
C:/temp/dataset/4/26_2.odb,Step-1,Increment      1: Step Time =    1.000,"PART-1-1",           704,           15.,        -26.25,            0.,NA,NA,"",   172.827E-03,  -101.859E-03,   139.621E-03,   40.1287E-03
C:/temp/dataset/4/26_2.odb,Step-1,Increment      1: Step Time =    1.000,"PART-1-1",           705,       13.9776,      -24.8045,            0.,NA,NA,"",   203.683E-03,  -139.510E-03,   148.404E-03,   31.4637E-03
C:/temp/dataset/4/26_2.odb,Step-1,Increment      1: Step Time =    1.000,"PART-1-1",           706,       12.6094,      -25.9010,            0.,NA,NA,"",   109.341E-03,  -79.3511E-03,   75.2248E-03,   21.8322E-03
C:/temp/dataset/4/26_2.odb,Step-1,Increment      1: Step Time =    1.000,"PART-1-1",           707,       12.0224,      -24.3398,            0.,NA,NA,"",   158.947E-03,  -137.064E-03,   80.4833E-03,   16.9833E-03
C:/temp/dataset/4/26_2.odb,Step-1,Increment      1: Step Time =    1.000,"PART-1-1",           708,       13.0263,      -23.4242,            0.,NA,NA,"",   237.631E-03,  -192.287E-03,   139.622E-03,   23.6710E-03
C:/temp/dataset/4/26_2.odb,Step-1,Increment      1: Step Time =    1.000,"PART-1-1",           709,       12.1300,      -22.1112,            0.,NA,NA,"",   282.108E-03,  -257.578E-03,   115.060E-03,   16.4560E-03
C:/temp/dataset/4/26_2.odb,Step-1,Increment      1: Step Time =    1.000,"PART-1-1",           710,           15.,        -23.75,            0.,NA,NA,"",   303.969E-03,  -204.990E-03,   224.446E-03,   38.0791E-03
C:/temp/dataset/4/26_2.odb,Step-1,Increment      1: Step Time =    1.000,"PART-1-1",           711,       10.9035,      -9.09896,            0.,NA,NA,"",       1.54358,      -1.54273,   51.1379E-03,   6.73451E-03
C:/temp/dataset/4/26_2.odb,Step-1,Increment      1: Step Time =    1.000,"PART-1-1",           712,       9.82794,      -8.10226,            0.,NA,NA,"",       1.66962,      -1.66697,  -93.9130E-03,   4.14957E-03
C:/temp/dataset/4/26_2.odb,Step-1,Increment      1: Step Time =    1.000,"PART-1-1",           713,       8.90728,      -9.48784,            0.,NA,NA,"",       1.48757,      -1.47453,  -196.552E-03,   6.07785E-03
C:/temp/dataset/4/26_2.odb,Step-1,Increment      1: Step Time =    1.000,"PART-1-1",           714,           15.,         -1.25,            0.,NA,NA,"",       2.85033,      -2.78023,   628.284E-03,   14.9298E-03
C:/temp/dataset/4/26_2.odb,Step-1,Increment      1: Step Time =    1.000,"PART-1-1",           715,       12.7555,      -1.12336,            0.,NA,NA,"",       2.77533,      -2.76140,   277.703E-03,   9.19976E-03
C:/temp/dataset/4/26_2.odb,Step-1,Increment      1: Step Time =    1.000,"PART-1-1",           716,       11.5680,       5.48707,            0.,NA,NA,"",       3.84482,      -3.84472,   27.8784E-03,   4.59002E-03
C:/temp/dataset/4/26_2.odb,Step-1,Increment      1: Step Time =    1.000,"PART-1-1",           717,       10.1222,       4.29256,            0.,NA,NA,"",       3.62358,      -3.61811,  -199.092E-03,   2.39009E-03
C:/temp/dataset/4/26_2.odb,Step-1,Increment      1: Step Time =    1.000,"PART-1-1",           718,       8.27918,   509.070E-03,            0.,NA,NA,"",       3.00395,      -2.97144,  -440.749E-03,   5.66625E-03
C:/temp/dataset/4/26_2.odb,Step-1,Increment      1: Step Time =    1.000,"PART-1-1",           719,       9.70893,  -124.236E-03,            0.,NA,NA,"",       2.89030,      -2.88300,  -205.313E-03,   4.18853E-03
C:/temp/dataset/4/26_2.odb,Step-1,Increment      1: Step Time =    1.000,"PART-1-1",           720,       8.75521,       2.13956,            0.,NA,NA,"",       3.26548,      -3.24192,  -391.596E-03,   3.53338E-03
C:/temp/dataset/4/26_2.odb,Step-1,Increment      1: Step Time =    1.000,"PART-1-1",           721,       6.99874,       4.90963,            0.,NA,NA,"",       3.75019,      -3.67902,  -727.143E-03,   4.95345E-03
C:/temp/dataset/4/26_2.odb,Step-1,Increment      1: Step Time =    1.000,"PART-1-1",           722,       8.01086,       5.41567,            0.,NA,NA,"",       3.82117,      -3.77874,  -567.878E-03,   3.67566E-03
C:/temp/dataset/4/26_2.odb,Step-1,Increment      1: Step Time =    1.000,"PART-1-1",           723,       11.8045,       7.99587,            0.,NA,NA,"",       4.28809,      -4.28792,   38.4414E-03,   4.65208E-03
C:/temp/dataset/4/26_2.odb,Step-1,Increment      1: Step Time =    1.000,"PART-1-1",           724,       7.91904,       10.9856,            0.,NA,NA,"",       4.81440,      -4.76511,  -687.104E-03,   4.38070E-03
C:/temp/dataset/4/26_2.odb,Step-1,Increment      1: Step Time =    1.000,"PART-1-1",           725,       11.0233,       18.7016,            0.,NA,NA,"",       6.24606,      -6.24045,  -264.685E-03,   2.48070E-03
C:/temp/dataset/4/26_2.odb,Step-1,Increment      1: Step Time =    1.000,"PART-1-1",           726,       10.0074,       19.8076,            0.,NA,NA,"",       6.44385,      -6.42684,  -467.833E-03,   1.69991E-03
C:/temp/dataset/4/26_2.odb,Step-1,Increment      1: Step Time =    1.000,"PART-1-1",           727,       10.9673,       21.0105,            0.,NA,NA,"",       6.67295,      -6.66563,  -312.594E-03,   1.39640E-03
C:/temp/dataset/4/26_2.odb,Step-1,Increment      1: Step Time =    1.000,"PART-1-1",           728,       8.97465,       20.8454,            0.,NA,NA,"",       6.63450,      -6.60020,  -673.711E-03,   1.10286E-03
C:/temp/dataset/4/26_2.odb,Step-1,Increment      1: Step Time =    1.000,"PART-1-1",           729,       8.66510,       24.8184,            0.,NA,NA,"",       7.36783,      -7.32454,  -797.520E-03,   103.068E-06
C:/temp/dataset/4/26_2.odb,Step-1,Increment      1: Step Time =    1.000,"PART-1-1",           730,       7.98376,       13.1681,            0.,NA,NA,"",       5.21451,      -5.16495,  -717.203E-03,   3.76445E-03
C:/temp/dataset/4/26_2.odb,Step-1,Increment      1: Step Time =    1.000,"PART-1-1",           731,      -1.95806,       1.80915,            0.,NA,NA,"",       3.71991,      -3.07231,      -2.09729,   348.634E-06
C:/temp/dataset/4/26_2.odb,Step-1,Increment      1: Step Time =    1.000,"PART-1-1",           732,  -613.587E-03,   828.335E-03,            0.,NA,NA,"",       3.47731,      -2.93265,      -1.86849,   337.738E-06
C:/temp/dataset/4/26_2.odb,Step-1,Increment      1: Step Time =    1.000,"PART-1-1",           733,   461.223E-03,       1.99751,            0.,NA,NA,"",       3.57104,      -3.13420,      -1.71147,   449.078E-06
C:/temp/dataset/4/26_2.odb,Step-1,Increment      1: Step Time =    1.000,"PART-1-1",           734,       1.74006,       1.04512,            0.,NA,NA,"",       3.34934,      -2.99770,      -1.49393,   1.99861E-03
C:/temp/dataset/4/26_2.odb,Step-1,Increment      1: Step Time =    1.000,"PART-1-1",           735,   906.022E-03,  -39.5003E-03,            0.,NA,NA,"",       3.24246,      -2.81306,      -1.61253,   819.241E-06
C:/temp/dataset/4/26_2.odb,Step-1,Increment      1: Step Time =    1.000,"PART-1-1",           736,       2.15034,  -968.542E-03,            0.,NA,NA,"",       3.02206,      -2.67922,      -1.39809,   2.59909E-03
C:/temp/dataset/4/26_2.odb,Step-1,Increment      1: Step Time =    1.000,"PART-1-1",           737,       2.98438,   116.081E-03,            0.,NA,NA,"",       3.13610,      -2.86288,      -1.28026,   3.74999E-03
C:/temp/dataset/4/26_2.odb,Step-1,Increment      1: Step Time =    1.000,"PART-1-1",           738,      -8.25937,       5.01848,            0.,NA,NA,"",       4.71556,      -3.50605,      -3.15343,   20.5027E-06
C:/temp/dataset/4/26_2.odb,Step-1,Increment      1: Step Time =    1.000,"PART-1-1",           739,      -2.78312,       1.01462,            0.,NA,NA,"",       3.67891,      -2.93372,      -2.21983,   304.859E-06
C:/temp/dataset/4/26_2.odb,Step-1,Increment      1: Step Time =    1.000,"PART-1-1",           740,      -4.31499,   913.536E-03,            0.,NA,NA,"",       3.80399,      -2.89720,      -2.46507,   240.213E-06
C:/temp/dataset/4/26_2.odb,Step-1,Increment      1: Step Time =    1.000,"PART-1-1",           741,      -4.23975,  -195.042E-03,            0.,NA,NA,"",       3.65302,      -2.71979,      -2.43870,   256.707E-06
C:/temp/dataset/4/26_2.odb,Step-1,Increment      1: Step Time =    1.000,"PART-1-1",           742,      -8.52646,       20.5688,            0.,NA,NA,"",       6.90096,      -6.00572,      -3.39921,   6.82699E-09
C:/temp/dataset/4/26_2.odb,Step-1,Increment      1: Step Time =    1.000,"PART-1-1",           743,       8.09873,      -15.2435,            0.,NA,NA,"",   830.304E-03,  -804.405E-03,  -205.760E-03,   11.7997E-03
C:/temp/dataset/4/26_2.odb,Step-1,Increment      1: Step Time =    1.000,"PART-1-1",           744,       8.99676,       14.2096,            0.,NA,NA,"",       5.40136,      -5.37281,  -554.612E-03,   3.68793E-03
C:/temp/dataset/4/26_2.odb,Step-1,Increment      1: Step Time =    1.000,"PART-1-1",           745,       11.0169,       14.0599,            0.,NA,NA,"",       5.38186,      -5.37851,  -189.941E-03,   3.96339E-03
C:/temp/dataset/4/26_2.odb,Step-1,Increment      1: Step Time =    1.000,"PART-1-1",           746,      -7.91902,       15.6847,            0.,NA,NA,"",       6.14891,      -5.22744,      -3.23773,   210.010E-09
C:/temp/dataset/4/26_2.odb,Step-1,Increment      1: Step Time =    1.000,"PART-1-1",           747,      -11.9968,       14.1876,            0.,NA,NA,"",       6.27294,      -4.93327,      -3.87461,   438.456E-09
C:/temp/dataset/4/26_2.odb,Step-1,Increment      1: Step Time =    1.000,"PART-1-1",           748,      -11.1175,       8.79310,            0.,NA,NA,"",       5.48019,      -4.07638,      -3.66273,   1.96719E-06
C:/temp/dataset/4/26_2.odb,Step-1,Increment      1: Step Time =    1.000,"PART-1-1",           749,       10.6592,      -6.44981,            0.,NA,NA,"",       1.90952,      -1.90952,   4.01403E-03,   6.62516E-03
C:/temp/dataset/4/26_2.odb,Step-1,Increment      1: Step Time =    1.000,"PART-1-1",           750,      -10.7894,       23.3985,            0.,NA,NA,"",       7.47059,      -6.43171,      -3.80038,   6.45980E-09
C:/temp/dataset/4/26_2.odb,Step-1,Increment      1: Step Time =    1.000,"PART-1-1",           751,       10.0228,      -25.8019,            0.,NA,NA,"",   67.8466E-03,  -67.8249E-03,   1.71692E-03,   4.35039E-03
C:/temp/dataset/4/26_2.odb,Step-1,Increment      1: Step Time =    1.000,"PART-1-1",           752,       10.9542,      -24.8826,            0.,NA,NA,"",   111.603E-03,  -106.070E-03,   34.7056E-03,   9.09324E-03
C:/temp/dataset/4/26_2.odb,Step-1,Increment      1: Step Time =    1.000,"PART-1-1",           753,       11.8371,      -2.37854,            0.,NA,NA,"",       2.55105,      -2.54691,   145.333E-03,   7.84341E-03
C:/temp/dataset/4/26_2.odb,Step-1,Increment      1: Step Time =    1.000,"PART-1-1",           754,       11.6235,      -5.02753,            0.,NA,NA,"",       2.13671,      -2.13276,   129.912E-03,   8.89963E-03
C:/temp/dataset/4/26_2.odb,Step-1,Increment      1: Step Time =    1.000,"PART-1-1",           755,      -12.1333,       7.86930,            0.,NA,NA,"",       5.46542,      -3.91443,      -3.81419,   1.73686E-06
C:/temp/dataset/4/26_2.odb,Step-1,Increment      1: Step Time =    1.000,"PART-1-1",           756,      -12.0768,       9.95169,            0.,NA,NA,"",       5.72292,      -4.25037,      -3.83226,   1.70849E-06
C:/temp/dataset/4/26_2.odb,Step-1,Increment      1: Step Time =    1.000,"PART-1-1",           757,       8.68743,       3.64563,            0.,NA,NA,"",       3.51577,      -3.48979,  -426.658E-03,   2.43976E-03
C:/temp/dataset/4/26_2.odb,Step-1,Increment      1: Step Time =    1.000,"PART-1-1",           758,       6.61848,       3.66599,            0.,NA,NA,"",       3.55255,      -3.46891,  -766.320E-03,   6.92841E-03
C:/temp/dataset/4/26_2.odb,Step-1,Increment      1: Step Time =    1.000,"PART-1-1",           759,       4.71579,   65.6079E-03,            0.,NA,NA,"",       3.04098,      -2.87157,      -1.00083,   7.09894E-03
C:/temp/dataset/4/26_2.odb,Step-1,Increment      1: Step Time =    1.000,"PART-1-1",           760,       3.89104,   957.250E-03,            0.,NA,NA,"",       3.21913,      -3.00699,      -1.14926,   5.69217E-03
C:/temp/dataset/4/26_2.odb,Step-1,Increment      1: Step Time =    1.000,"PART-1-1",           761,      -12.0363,       12.0623,            0.,NA,NA,"",       5.99346,      -4.59065,      -3.85326,   1.00544E-06
C:/temp/dataset/4/26_2.odb,Step-1,Increment      1: Step Time =    1.000,"PART-1-1",           762,      -12.1964,       5.82098,            0.,NA,NA,"",       5.22172,      -3.58389,      -3.79765,   1.50878E-06
C:/temp/dataset/4/26_2.odb,Step-1,Increment      1: Step Time =    1.000,"PART-1-1",           763,      -11.2570,       4.81016,            0.,NA,NA,"",       4.99890,      -3.43344,      -3.63324,   4.49337E-06
C:/temp/dataset/4/26_2.odb,Step-1,Increment      1: Step Time =    1.000,"PART-1-1",           764,      -10.5260,       3.94381,            0.,NA,NA,"",       4.81594,      -3.30352,      -3.50428,   10.3757E-06
C:/temp/dataset/4/26_2.odb,Step-1,Increment      1: Step Time =    1.000,"PART-1-1",           765,      -9.56326,       4.76486,            0.,NA,NA,"",       4.81456,      -3.44823,      -3.36002,   10.4076E-06
C:/temp/dataset/4/26_2.odb,Step-1,Increment      1: Step Time =    1.000,"PART-1-1",           766,      -9.32737,       3.44699,            0.,NA,NA,"",       4.62758,      -3.23919,      -3.30487,   21.3294E-06
C:/temp/dataset/4/26_2.odb,Step-1,Increment      1: Step Time =    1.000,"PART-1-1",           767,       11.5413,      -26.4438,            0.,NA,NA,"",   65.7526E-03,  -53.1334E-03,   38.7330E-03,   13.6715E-03
C:/temp/dataset/4/26_2.odb,Step-1,Increment      1: Step Time =    1.000,"PART-1-1",           768,       5.97241,      -3.36228,            0.,NA,NA,"",       2.44636,      -2.33609,  -726.199E-03,   12.1133E-03
C:/temp/dataset/4/26_2.odb,Step-1,Increment      1: Step Time =    1.000,"PART-1-1",           769,       11.9304,       22.2704,            0.,NA,NA,"",       6.91585,      -6.91406,  -157.243E-03,   936.421E-06
C:/temp/dataset/4/26_2.odb,Step-1,Increment      1: Step Time =    1.000,"PART-1-1",           770,      -3.95064,       2.12654,            0.,NA,NA,"",       3.93165,      -3.09703,      -2.42204,   229.233E-06
C:/temp/dataset/4/26_2.odb,Step-1,Increment      1: Step Time =    1.000,"PART-1-1",           771,       12.1361,      -19.7979,            0.,NA,NA,"",   440.438E-03,  -416.674E-03,   142.720E-03,   15.5651E-03
C:/temp/dataset/4/26_2.odb,Step-1,Increment      1: Step Time =    1.000,"PART-1-1",           772,       12.1156,      -17.4436,            0.,NA,NA,"",   634.442E-03,  -612.848E-03,   164.117E-03,   14.4857E-03
C:/temp/dataset/4/26_2.odb,Step-1,Increment      1: Step Time =    1.000,"PART-1-1",           773,       11.8489,      -7.73518,            0.,NA,NA,"",       1.74911,      -1.74088,   169.409E-03,   10.1175E-03
C:/temp/dataset/4/26_2.odb,Step-1,Increment      1: Step Time =    1.000,"PART-1-1",           774,       11.9658,      -10.2357,            0.,NA,NA,"",       1.41801,      -1.40596,   184.470E-03,   11.1237E-03
C:/temp/dataset/4/26_2.odb,Step-1,Increment      1: Step Time =    1.000,"PART-1-1",           775,       10.7237,      -1.11081,            0.,NA,NA,"",       2.73540,      -2.73517,  -35.3532E-03,   5.15311E-03
C:/temp/dataset/4/26_2.odb,Step-1,Increment      1: Step Time =    1.000,"PART-1-1",           776,       11.9194,       10.4262,            0.,NA,NA,"",       4.72649,      -4.72642,   26.3054E-03,   4.24811E-03
C:/temp/dataset/4/26_2.odb,Step-1,Increment      1: Step Time =    1.000,"PART-1-1",           777,       11.9945,       12.8006,            0.,NA,NA,"",       5.16232,      -5.16231,   4.96886E-03,   3.91886E-03
C:/temp/dataset/4/26_2.odb,Step-1,Increment      1: Step Time =    1.000,"PART-1-1",           778,       12.0317,      -12.6649,            0.,NA,NA,"",       1.12397,      -1.10849,   185.884E-03,   12.2101E-03
C:/temp/dataset/4/26_2.odb,Step-1,Increment      1: Step Time =    1.000,"PART-1-1",           779,       12.0352,       15.1685,            0.,NA,NA,"",       5.60219,      -5.60214,  -24.5482E-03,   3.85066E-03
C:/temp/dataset/4/26_2.odb,Step-1,Increment      1: Step Time =    1.000,"PART-1-1",           780,      -7.80161,      -2.23284,            0.,NA,NA,"",       3.79623,      -2.34491,      -2.98542,   57.4872E-06
C:/temp/dataset/4/26_2.odb,Step-1,Increment      1: Step Time =    1.000,"PART-1-1",           781,      -8.87876,  -905.543E-03,            0.,NA,NA,"",       4.06960,      -2.54451,      -3.17602,   44.1236E-06
C:/temp/dataset/4/26_2.odb,Step-1,Increment      1: Step Time =    1.000,"PART-1-1",           782,      -7.16649,      -1.00336,            0.,NA,NA,"",       3.86183,      -2.55115,      -2.89920,   88.1578E-06
C:/temp/dataset/4/26_2.odb,Step-1,Increment      1: Step Time =    1.000,"PART-1-1",           783,      -7.09692,   257.153E-03,            0.,NA,NA,"",       4.00315,      -2.75497,      -2.90436,   89.5837E-06
C:/temp/dataset/4/26_2.odb,Step-1,Increment      1: Step Time =    1.000,"PART-1-1",           784,      -5.74923,      -1.63131,            0.,NA,NA,"",       3.63120,      -2.46860,      -2.66301,   134.371E-06
C:/temp/dataset/4/26_2.odb,Step-1,Increment      1: Step Time =    1.000,"PART-1-1",           785,      -5.66693,  -67.3201E-03,            0.,NA,NA,"",       3.81256,      -2.72152,      -2.67001,   164.328E-06
C:/temp/dataset/4/26_2.odb,Step-1,Increment      1: Step Time =    1.000,"PART-1-1",           786,      -5.46941,       1.35113,            0.,NA,NA,"",       3.97162,      -2.95238,      -2.65654,   157.148E-06
C:/temp/dataset/4/26_2.odb,Step-1,Increment      1: Step Time =    1.000,"PART-1-1",           787,       12.0849,      -15.0650,            0.,NA,NA,"",   862.841E-03,  -844.028E-03,   179.196E-03,   13.3831E-03
C:/temp/dataset/4/26_2.odb,Step-1,Increment      1: Step Time =    1.000,"PART-1-1",           788,       7.01212,      -4.44648,            0.,NA,NA,"",       2.24017,      -2.17366,  -541.820E-03,   10.1258E-03
C:/temp/dataset/4/26_2.odb,Step-1,Increment      1: Step Time =    1.000,"PART-1-1",           789,       7.64174,      -3.33281,            0.,NA,NA,"",       2.39837,      -2.35198,  -469.467E-03,   9.06249E-03
C:/temp/dataset/4/26_2.odb,Step-1,Increment      1: Step Time =    1.000,"PART-1-1",           790,       6.60203,      -2.24861,            0.,NA,NA,"",       2.59947,      -2.51644,  -651.732E-03,   9.86646E-03
C:/temp/dataset/4/26_2.odb,Step-1,Increment      1: Step Time =    1.000,"PART-1-1",           791,       6.68626,       2.15992,            0.,NA,NA,"",       3.30559,      -3.22480,  -726.342E-03,   7.36817E-03
C:/temp/dataset/4/26_2.odb,Step-1,Increment      1: Step Time =    1.000,"PART-1-1",           792,       12.0103,       19.9021,            0.,NA,NA,"",       6.48119,      -6.48036,  -104.332E-03,   2.07527E-03
C:/temp/dataset/4/26_2.odb,Step-1,Increment      1: Step Time =    1.000,"PART-1-1",           793,       12.0305,       17.5416,            0.,NA,NA,"",       6.04400,      -6.04367,  -62.9480E-03,   3.06809E-03
C:/temp/dataset/4/26_2.odb,Step-1,Increment      1: Step Time =    1.000,"PART-1-1",           794,       6.09271,      -1.14349,            0.,NA,NA,"",       2.79327,      -2.68905,  -755.893E-03,   9.22235E-03
C:/temp/dataset/4/26_2.odb,Step-1,Increment      1: Step Time =    1.000,"PART-1-1",           795,       7.56053,      -1.65505,            0.,NA,NA,"",       2.66764,      -2.61762,  -514.177E-03,   8.47162E-03
C:/temp/dataset/4/26_2.odb,Step-1,Increment      1: Step Time =    1.000,"PART-1-1",           796,       7.05122,  -549.935E-03,            0.,NA,NA,"",       2.85793,      -2.79084,  -615.645E-03,   8.27511E-03
C:/temp/dataset/4/26_2.odb,Step-1,Increment      1: Step Time =    1.000,"PART-1-1",           797,       5.28588,       1.87348,            0.,NA,NA,"",       3.30466,      -3.16680,  -944.553E-03,   8.02467E-03
C:/temp/dataset/4/26_2.odb,Step-1,Increment      1: Step Time =    1.000,"PART-1-1",           798,       5.70847,   325.226E-03,            0.,NA,NA,"",       3.04142,      -2.92115,  -846.811E-03,   7.83801E-03
C:/temp/dataset/4/26_2.odb,Step-1,Increment      1: Step Time =    1.000,"PART-1-1",           799,       7.10885,   611.668E-03,            0.,NA,NA,"",       3.04368,      -2.97799,  -628.957E-03,   7.42156E-03
C:/temp/dataset/4/26_2.odb,Step-1,Increment      1: Step Time =    1.000,"PART-1-1",           800,       9.00326,      -1.31280,            0.,NA,NA,"",       2.70069,      -2.68430,  -297.151E-03,   5.89345E-03
C:/temp/dataset/4/26_2.odb,Step-1,Increment      1: Step Time =    1.000,"PART-1-1",           801,       8.22155,  -652.532E-03,            0.,NA,NA,"",       2.81636,      -2.78342,  -429.514E-03,   6.65931E-03
C:/temp/dataset/4/26_2.odb,Step-1,Increment      1: Step Time =    1.000,"PART-1-1",           802,       8.34224,      -2.31533,            0.,NA,NA,"",       2.54726,      -2.51849,  -381.765E-03,   7.43338E-03
C:/temp/dataset/4/26_2.odb,Step-1,Increment      1: Step Time =    1.000,"PART-1-1",           803,       2.82445,       2.06443,            0.,NA,NA,"",       3.44400,      -3.17409,      -1.33651,   3.25484E-03
