ODB Name,Step,Frame,Part Instance Name,    êﬂì_ÉâÉxÉã,X,Y,Z,Section Name,Material Name,Section Point,   U-Magnitude,          U-U1,          U-U2,       S-Mises
C:/temp/dataset/4/28_2.odb,Step-1,Increment      1: Step Time =    1.000,"PART-1-1",             1,           -5.,           30.,            0.,NA,NA,"",       4.78451,      -4.52668,      -1.54942,   15.7043E-09
C:/temp/dataset/4/28_2.odb,Step-1,Increment      1: Step Time =    1.000,"PART-1-1",             2,          -15.,           30.,            0.,NA,NA,"",       5.11762,      -4.48465,      -2.46536,   15.9784E-09
C:/temp/dataset/4/28_2.odb,Step-1,Increment      1: Step Time =    1.000,"PART-1-1",             3,          -15.,         21.25,            0.,NA,NA,"",       4.41180,      -3.68321,      -2.42858,   14.2147E-09
C:/temp/dataset/4/28_2.odb,Step-1,Increment      1: Step Time =    1.000,"PART-1-1",             4,          -15.,          12.5,            0.,NA,NA,"",       3.74503,      -2.88176,      -2.39180,   142.466E-09
C:/temp/dataset/4/28_2.odb,Step-1,Increment      1: Step Time =    1.000,"PART-1-1",             5,          -15.,          3.75,            0.,NA,NA,"",       3.14226,      -2.08033,      -2.35501,   1.36787E-06
C:/temp/dataset/4/28_2.odb,Step-1,Increment      1: Step Time =    1.000,"PART-1-1",             6,          -15.,           -5.,            0.,NA,NA,"",       2.64761,      -1.27893,      -2.31823,   101.555E-09
C:/temp/dataset/4/28_2.odb,Step-1,Increment      1: Step Time =    1.000,"PART-1-1",             7,          -10.,           -5.,            0.,NA,NA,"",       2.26948,      -1.29995,      -1.86030,   1.17241E-06
C:/temp/dataset/4/28_2.odb,Step-1,Increment      1: Step Time =    1.000,"PART-1-1",             8,           -5.,           -5.,            0.,NA,NA,"",       1.92653,      -1.32091,      -1.40240,   38.8833E-06
C:/temp/dataset/4/28_2.odb,Step-1,Increment      1: Step Time =    1.000,"PART-1-1",             9,            0.,           -5.,            0.,NA,NA,"",       1.64031,      -1.34136,  -944.119E-03,   415.985E-06
C:/temp/dataset/4/28_2.odb,Step-1,Increment      1: Step Time =    1.000,"PART-1-1",            10,            5.,           -5.,            0.,NA,NA,"",       1.44218,      -1.36201,  -474.127E-03,   7.26997E-03
C:/temp/dataset/4/28_2.odb,Step-1,Increment      1: Step Time =    1.000,"PART-1-1",            11,            5.,        -11.25,            0.,NA,NA,"",   933.274E-03,  -848.132E-03,  -389.452E-03,   13.4598E-03
C:/temp/dataset/4/28_2.odb,Step-1,Increment      1: Step Time =    1.000,"PART-1-1",            12,            5.,         -17.5,            0.,NA,NA,"",   512.890E-03,  -427.288E-03,  -283.692E-03,   19.0642E-03
C:/temp/dataset/4/28_2.odb,Step-1,Increment      1: Step Time =    1.000,"PART-1-1",            13,            5.,        -23.75,            0.,NA,NA,"",   208.082E-03,  -139.876E-03,  -154.054E-03,   24.6990E-03
C:/temp/dataset/4/28_2.odb,Step-1,Increment      1: Step Time =    1.000,"PART-1-1",            14,            5.,          -30.,            0.,NA,NA,"",            0.,  -9.18220E-39,  -17.4649E-39,   34.3536E-03
C:/temp/dataset/4/28_2.odb,Step-1,Increment      1: Step Time =    1.000,"PART-1-1",            15,           15.,          -30.,            0.,NA,NA,"",            0.,  -9.78320E-39,   18.2241E-39,   34.3440E-03
C:/temp/dataset/4/28_2.odb,Step-1,Increment      1: Step Time =    1.000,"PART-1-1",            16,           15.,         -22.5,            0.,NA,NA,"",   262.500E-03,  -192.672E-03,   178.280E-03,   23.7525E-03
C:/temp/dataset/4/28_2.odb,Step-1,Increment      1: Step Time =    1.000,"PART-1-1",            17,           15.,          -15.,            0.,NA,NA,"",   674.843E-03,  -602.470E-03,   304.044E-03,   16.9481E-03
C:/temp/dataset/4/28_2.odb,Step-1,Increment      1: Step Time =    1.000,"PART-1-1",            18,           15.,          -7.5,            0.,NA,NA,"",       1.24026,      -1.18287,   372.924E-03,   10.0631E-03
C:/temp/dataset/4/28_2.odb,Step-1,Increment      1: Step Time =    1.000,"PART-1-1",            19,           15.,            0.,            0.,NA,NA,"",       1.90322,      -1.86358,   386.410E-03,   3.27213E-03
C:/temp/dataset/4/28_2.odb,Step-1,Increment      1: Step Time =    1.000,"PART-1-1",            20,           15.,           7.5,            0.,NA,NA,"",       2.57914,      -2.55383,   360.399E-03,   1.01525E-03
C:/temp/dataset/4/28_2.odb,Step-1,Increment      1: Step Time =    1.000,"PART-1-1",            21,           15.,           15.,            0.,NA,NA,"",       3.24728,      -3.23030,   331.637E-03,   41.5193E-06
C:/temp/dataset/4/28_2.odb,Step-1,Increment      1: Step Time =    1.000,"PART-1-1",            22,           15.,          22.5,            0.,NA,NA,"",       3.92184,      -3.91028,   300.805E-03,   768.306E-09
C:/temp/dataset/4/28_2.odb,Step-1,Increment      1: Step Time =    1.000,"PART-1-1",            23,           15.,           30.,            0.,NA,NA,"",       4.59814,      -4.59022,   269.919E-03,   32.1444E-09
C:/temp/dataset/4/28_2.odb,Step-1,Increment      1: Step Time =    1.000,"PART-1-1",            24,            5.,           30.,            0.,NA,NA,"",       4.59337,      -4.54904,  -636.652E-03,   27.0431E-09
C:/temp/dataset/4/28_2.odb,Step-1,Increment      1: Step Time =    1.000,"PART-1-1",            25,            5.,         23.75,            0.,NA,NA,"",       4.02902,      -3.98243,  -610.914E-03,   667.021E-09
C:/temp/dataset/4/28_2.odb,Step-1,Increment      1: Step Time =    1.000,"PART-1-1",            26,            5.,          17.5,            0.,NA,NA,"",       3.46561,      -3.41585,  -585.189E-03,   10.2873E-06
C:/temp/dataset/4/28_2.odb,Step-1,Increment      1: Step Time =    1.000,"PART-1-1",            27,            5.,         11.25,            0.,NA,NA,"",       2.90356,      -2.84908,  -559.804E-03,   155.207E-06
C:/temp/dataset/4/28_2.odb,Step-1,Increment      1: Step Time =    1.000,"PART-1-1",            28,            5.,            5.,            0.,NA,NA,"",       2.33913,      -2.27756,  -533.179E-03,   1.30455E-03
C:/temp/dataset/4/28_2.odb,Step-1,Increment      1: Step Time =    1.000,"PART-1-1",            29,            0.,            5.,            0.,NA,NA,"",       2.46349,      -2.25732,  -986.550E-03,   247.081E-06
C:/temp/dataset/4/28_2.odb,Step-1,Increment      1: Step Time =    1.000,"PART-1-1",            30,           -5.,            5.,            0.,NA,NA,"",       2.66260,      -2.23682,      -1.44432,   26.6168E-06
C:/temp/dataset/4/28_2.odb,Step-1,Increment      1: Step Time =    1.000,"PART-1-1",            31,           -5.,         11.25,            0.,NA,NA,"",       3.17094,      -2.80931,      -1.47061,   276.222E-09
C:/temp/dataset/4/28_2.odb,Step-1,Increment      1: Step Time =    1.000,"PART-1-1",            32,           -5.,          17.5,            0.,NA,NA,"",       3.69824,      -3.38177,      -1.49688,   26.6255E-09
C:/temp/dataset/4/28_2.odb,Step-1,Increment      1: Step Time =    1.000,"PART-1-1",            33,           -5.,         23.75,            0.,NA,NA,"",       4.23744,      -3.95422,      -1.52315,   19.1171E-09
C:/temp/dataset/4/28_2.odb,Step-1,Increment      1: Step Time =    1.000,"PART-1-1",            34,          -7.5,           30.,            0.,NA,NA,"",       4.85372,      -4.51617,      -1.77841,   14.6585E-09
C:/temp/dataset/4/28_2.odb,Step-1,Increment      1: Step Time =    1.000,"PART-1-1",            35,          -10.,           30.,            0.,NA,NA,"",       4.93261,      -4.50567,      -2.00739,   15.5315E-09
C:/temp/dataset/4/28_2.odb,Step-1,Increment      1: Step Time =    1.000,"PART-1-1",            36,         -12.5,           30.,            0.,NA,NA,"",       5.02074,      -4.49516,      -2.23637,   16.4948E-09
C:/temp/dataset/4/28_2.odb,Step-1,Increment      1: Step Time =    1.000,"PART-1-1",            37,          -15.,       27.8125,            0.,NA,NA,"",       4.93841,      -4.28429,      -2.45616,   14.5531E-09
C:/temp/dataset/4/28_2.odb,Step-1,Increment      1: Step Time =    1.000,"PART-1-1",            38,          -15.,        25.625,            0.,NA,NA,"",       4.76089,      -4.08393,      -2.44697,   14.2762E-09
C:/temp/dataset/4/28_2.odb,Step-1,Increment      1: Step Time =    1.000,"PART-1-1",            39,          -15.,       23.4375,            0.,NA,NA,"",       4.58528,      -3.88357,      -2.43777,   14.1001E-09
C:/temp/dataset/4/28_2.odb,Step-1,Increment      1: Step Time =    1.000,"PART-1-1",            40,          -15.,       19.0625,            0.,NA,NA,"",       4.24071,      -3.48284,      -2.41938,   14.8341E-09
C:/temp/dataset/4/28_2.odb,Step-1,Increment      1: Step Time =    1.000,"PART-1-1",            41,          -15.,        16.875,            0.,NA,NA,"",       4.07231,      -3.28248,      -2.41019,   14.1902E-09
C:/temp/dataset/4/28_2.odb,Step-1,Increment      1: Step Time =    1.000,"PART-1-1",            42,          -15.,       14.6875,            0.,NA,NA,"",       3.90695,      -3.08212,      -2.40099,   34.7116E-09
C:/temp/dataset/4/28_2.odb,Step-1,Increment      1: Step Time =    1.000,"PART-1-1",            43,          -15.,       10.3125,            0.,NA,NA,"",       3.58702,      -2.68140,      -2.38260,   404.150E-09
C:/temp/dataset/4/28_2.odb,Step-1,Increment      1: Step Time =    1.000,"PART-1-1",            44,          -15.,         8.125,            0.,NA,NA,"",       3.43345,      -2.48104,      -2.37340,   851.137E-09
C:/temp/dataset/4/28_2.odb,Step-1,Increment      1: Step Time =    1.000,"PART-1-1",            45,          -15.,        5.9375,            0.,NA,NA,"",       3.28496,      -2.28068,      -2.36421,   1.28473E-06
C:/temp/dataset/4/28_2.odb,Step-1,Increment      1: Step Time =    1.000,"PART-1-1",            46,          -15.,        1.5625,            0.,NA,NA,"",       3.00618,      -1.87997,      -2.34581,   1.15330E-06
C:/temp/dataset/4/28_2.odb,Step-1,Increment      1: Step Time =    1.000,"PART-1-1",            47,          -15.,     -625.E-03,            0.,NA,NA,"",       2.87766,      -1.67962,      -2.33662,   799.963E-09
C:/temp/dataset/4/28_2.odb,Step-1,Increment      1: Step Time =    1.000,"PART-1-1",            48,          -15.,       -2.8125,            0.,NA,NA,"",       2.75774,      -1.47928,      -2.32742,   453.618E-09
C:/temp/dataset/4/28_2.odb,Step-1,Increment      1: Step Time =    1.000,"PART-1-1",            49,         -12.5,           -5.,            0.,NA,NA,"",       2.45513,      -1.28944,      -2.08926,   727.201E-09
C:/temp/dataset/4/28_2.odb,Step-1,Increment      1: Step Time =    1.000,"PART-1-1",            50,          -7.5,           -5.,            0.,NA,NA,"",       2.09250,      -1.31045,      -1.63134,   3.81763E-06
C:/temp/dataset/4/28_2.odb,Step-1,Increment      1: Step Time =    1.000,"PART-1-1",            51,          -2.5,           -5.,            0.,NA,NA,"",       1.77462,      -1.33129,      -1.17343,   99.2575E-06
C:/temp/dataset/4/28_2.odb,Step-1,Increment      1: Step Time =    1.000,"PART-1-1",            52,           2.5,           -5.,            0.,NA,NA,"",       1.52800,      -1.35112,  -713.625E-03,   1.37583E-03
C:/temp/dataset/4/28_2.odb,Step-1,Increment      1: Step Time =    1.000,"PART-1-1",            53,            5.,      -7.08333,            0.,NA,NA,"",       1.26472,      -1.18329,  -446.482E-03,   10.4161E-03
C:/temp/dataset/4/28_2.odb,Step-1,Increment      1: Step Time =    1.000,"PART-1-1",            54,            5.,      -9.16667,            0.,NA,NA,"",       1.09488,      -1.01136,  -419.432E-03,   11.5513E-03
C:/temp/dataset/4/28_2.odb,Step-1,Increment      1: Step Time =    1.000,"PART-1-1",            55,            5.,      -13.3333,            0.,NA,NA,"",   781.601E-03,  -695.385E-03,  -356.847E-03,   15.3040E-03
C:/temp/dataset/4/28_2.odb,Step-1,Increment      1: Step Time =    1.000,"PART-1-1",            56,            5.,      -15.4167,            0.,NA,NA,"",   641.117E-03,  -554.630E-03,  -321.585E-03,   17.1892E-03
C:/temp/dataset/4/28_2.odb,Step-1,Increment      1: Step Time =    1.000,"PART-1-1",            57,            5.,      -19.5833,            0.,NA,NA,"",   397.758E-03,  -314.778E-03,  -243.158E-03,   20.9432E-03
C:/temp/dataset/4/28_2.odb,Step-1,Increment      1: Step Time =    1.000,"PART-1-1",            58,            5.,      -21.6667,            0.,NA,NA,"",   296.180E-03,  -218.479E-03,  -199.974E-03,   22.7854E-03
C:/temp/dataset/4/28_2.odb,Step-1,Increment      1: Step Time =    1.000,"PART-1-1",            59,            5.,      -25.8333,            0.,NA,NA,"",   132.448E-03,  -79.7632E-03,  -105.737E-03,   25.9043E-03
C:/temp/dataset/4/28_2.odb,Step-1,Increment      1: Step Time =    1.000,"PART-1-1",            60,            5.,      -27.9167,            0.,NA,NA,"",   67.5111E-03,  -38.4278E-03,  -55.5072E-03,   29.3443E-03
C:/temp/dataset/4/28_2.odb,Step-1,Increment      1: Step Time =    1.000,"PART-1-1",            61,           7.5,          -30.,            0.,NA,NA,"",            0.,  -2.30711E-39,  -25.0441E-39,   10.1738E-03
C:/temp/dataset/4/28_2.odb,Step-1,Increment      1: Step Time =    1.000,"PART-1-1",            62,           10.,          -30.,            0.,NA,NA,"",            0.,   3.25498E-39,   21.6178E-42,   2.54848E-03
C:/temp/dataset/4/28_2.odb,Step-1,Increment      1: Step Time =    1.000,"PART-1-1",            63,          12.5,          -30.,            0.,NA,NA,"",            0.,  -10.3616E-39,   24.1981E-39,   10.5987E-03
C:/temp/dataset/4/28_2.odb,Step-1,Increment      1: Step Time =    1.000,"PART-1-1",            64,           15.,         -27.5,            0.,NA,NA,"",   80.7110E-03,  -47.1109E-03,   65.5349E-03,   28.6706E-03
C:/temp/dataset/4/28_2.odb,Step-1,Increment      1: Step Time =    1.000,"PART-1-1",            65,           15.,          -25.,            0.,NA,NA,"",   163.338E-03,  -105.858E-03,   124.391E-03,   25.3708E-03
C:/temp/dataset/4/28_2.odb,Step-1,Increment      1: Step Time =    1.000,"PART-1-1",            66,           15.,          -20.,            0.,NA,NA,"",   380.616E-03,  -305.886E-03,   226.499E-03,   21.4308E-03
C:/temp/dataset/4/28_2.odb,Step-1,Increment      1: Step Time =    1.000,"PART-1-1",            67,           15.,         -17.5,            0.,NA,NA,"",   518.322E-03,  -443.400E-03,   268.428E-03,   19.2089E-03
C:/temp/dataset/4/28_2.odb,Step-1,Increment      1: Step Time =    1.000,"PART-1-1",            68,           15.,         -12.5,            0.,NA,NA,"",   848.669E-03,  -780.476E-03,   333.311E-03,   14.6943E-03
C:/temp/dataset/4/28_2.odb,Step-1,Increment      1: Step Time =    1.000,"PART-1-1",            69,           15.,          -10.,            0.,NA,NA,"",       1.03788,  -974.813E-03,   356.272E-03,   12.4138E-03
C:/temp/dataset/4/28_2.odb,Step-1,Increment      1: Step Time =    1.000,"PART-1-1",            70,           15.,           -5.,            0.,NA,NA,"",       1.45336,      -1.40191,   383.286E-03,   7.63600E-03
C:/temp/dataset/4/28_2.odb,Step-1,Increment      1: Step Time =    1.000,"PART-1-1",            71,           15.,          -2.5,            0.,NA,NA,"",       1.67458,      -1.62913,   387.492E-03,   5.34284E-03
C:/temp/dataset/4/28_2.odb,Step-1,Increment      1: Step Time =    1.000,"PART-1-1",            72,           15.,           2.5,            0.,NA,NA,"",       2.13268,      -2.09867,   379.378E-03,   2.33467E-03
C:/temp/dataset/4/28_2.odb,Step-1,Increment      1: Step Time =    1.000,"PART-1-1",            73,           15.,            5.,            0.,NA,NA,"",       2.35824,      -2.32894,   370.552E-03,   1.97430E-03
C:/temp/dataset/4/28_2.odb,Step-1,Increment      1: Step Time =    1.000,"PART-1-1",            74,           15.,           10.,            0.,NA,NA,"",       2.79964,      -2.77748,   351.575E-03,   440.636E-06
C:/temp/dataset/4/28_2.odb,Step-1,Increment      1: Step Time =    1.000,"PART-1-1",            75,           15.,          12.5,            0.,NA,NA,"",       3.02307,      -3.00370,   341.721E-03,   142.237E-06
C:/temp/dataset/4/28_2.odb,Step-1,Increment      1: Step Time =    1.000,"PART-1-1",            76,           15.,          17.5,            0.,NA,NA,"",       3.47188,      -3.45697,   321.387E-03,   9.93626E-06
C:/temp/dataset/4/28_2.odb,Step-1,Increment      1: Step Time =    1.000,"PART-1-1",            77,           15.,           20.,            0.,NA,NA,"",       3.69675,      -3.68363,   311.101E-03,   702.634E-09
C:/temp/dataset/4/28_2.odb,Step-1,Increment      1: Step Time =    1.000,"PART-1-1",            78,           15.,           25.,            0.,NA,NA,"",       4.14712,      -4.13693,   290.509E-03,   491.566E-09
C:/temp/dataset/4/28_2.odb,Step-1,Increment      1: Step Time =    1.000,"PART-1-1",            79,           15.,          27.5,            0.,NA,NA,"",       4.37256,      -4.36357,   280.214E-03,   135.243E-09
C:/temp/dataset/4/28_2.odb,Step-1,Increment      1: Step Time =    1.000,"PART-1-1",            80,          12.5,           30.,            0.,NA,NA,"",       4.58013,      -4.57992,   43.2758E-03,   110.481E-09
C:/temp/dataset/4/28_2.odb,Step-1,Increment      1: Step Time =    1.000,"PART-1-1",            81,           10.,           30.,            0.,NA,NA,"",       4.57330,      -4.56963,  -183.367E-03,   220.462E-09
C:/temp/dataset/4/28_2.odb,Step-1,Increment      1: Step Time =    1.000,"PART-1-1",            82,           7.5,           30.,            0.,NA,NA,"",       4.57773,      -4.55933,  -410.010E-03,   110.452E-09
C:/temp/dataset/4/28_2.odb,Step-1,Increment      1: Step Time =    1.000,"PART-1-1",            83,            5.,       27.9167,            0.,NA,NA,"",       4.40517,      -4.36017,  -628.073E-03,   93.5854E-09
C:/temp/dataset/4/28_2.odb,Step-1,Increment      1: Step Time =    1.000,"PART-1-1",            84,            5.,       25.8333,            0.,NA,NA,"",       4.21705,      -4.17130,  -619.494E-03,   358.430E-09
C:/temp/dataset/4/28_2.odb,Step-1,Increment      1: Step Time =    1.000,"PART-1-1",            85,            5.,       21.6667,            0.,NA,NA,"",       3.84109,      -3.79357,  -602.335E-03,   547.652E-09
C:/temp/dataset/4/28_2.odb,Step-1,Increment      1: Step Time =    1.000,"PART-1-1",            86,            5.,       19.5833,            0.,NA,NA,"",       3.65328,      -3.60470,  -593.757E-03,   1.68407E-06
C:/temp/dataset/4/28_2.odb,Step-1,Increment      1: Step Time =    1.000,"PART-1-1",            87,            5.,       15.4167,            0.,NA,NA,"",       3.27811,      -3.22700,  -576.648E-03,   33.7605E-06
C:/temp/dataset/4/28_2.odb,Step-1,Increment      1: Step Time =    1.000,"PART-1-1",            88,            5.,       13.3333,            0.,NA,NA,"",       3.09078,      -3.03811,  -568.171E-03,   84.6152E-06
C:/temp/dataset/4/28_2.odb,Step-1,Increment      1: Step Time =    1.000,"PART-1-1",            89,            5.,       9.16667,            0.,NA,NA,"",       2.71624,      -2.65966,  -551.522E-03,   212.819E-06
C:/temp/dataset/4/28_2.odb,Step-1,Increment      1: Step Time =    1.000,"PART-1-1",            90,            5.,       7.08333,            0.,NA,NA,"",       2.52840,      -2.46936,  -543.193E-03,   245.881E-06
C:/temp/dataset/4/28_2.odb,Step-1,Increment      1: Step Time =    1.000,"PART-1-1",            91,           2.5,            5.,            0.,NA,NA,"",       2.39063,      -2.26705,  -758.677E-03,   336.254E-06
C:/temp/dataset/4/28_2.odb,Step-1,Increment      1: Step Time =    1.000,"PART-1-1",            92,          -2.5,            5.,            0.,NA,NA,"",       2.55477,      -2.24719,      -1.21532,   100.263E-06
C:/temp/dataset/4/28_2.odb,Step-1,Increment      1: Step Time =    1.000,"PART-1-1",            93,           -5.,       7.08333,            0.,NA,NA,"",       2.82932,      -2.42767,      -1.45309,   4.67420E-06
C:/temp/dataset/4/28_2.odb,Step-1,Increment      1: Step Time =    1.000,"PART-1-1",            94,           -5.,       9.16667,            0.,NA,NA,"",       2.99891,      -2.61849,      -1.46185,   1.33991E-06
C:/temp/dataset/4/28_2.odb,Step-1,Increment      1: Step Time =    1.000,"PART-1-1",            95,           -5.,       13.3333,            0.,NA,NA,"",       3.34504,      -3.00013,      -1.47936,   88.7015E-09
C:/temp/dataset/4/28_2.odb,Step-1,Increment      1: Step Time =    1.000,"PART-1-1",            96,           -5.,       15.4167,            0.,NA,NA,"",       3.52089,      -3.19095,      -1.48812,   14.7606E-09
C:/temp/dataset/4/28_2.odb,Step-1,Increment      1: Step Time =    1.000,"PART-1-1",            97,           -5.,       19.5833,            0.,NA,NA,"",       3.87689,      -3.57258,      -1.50564,   25.0350E-09
C:/temp/dataset/4/28_2.odb,Step-1,Increment      1: Step Time =    1.000,"PART-1-1",            98,           -5.,       21.6667,            0.,NA,NA,"",       4.05667,      -3.76340,      -1.51439,   21.6643E-09
C:/temp/dataset/4/28_2.odb,Step-1,Increment      1: Step Time =    1.000,"PART-1-1",            99,           -5.,       25.8333,            0.,NA,NA,"",       4.41906,      -4.14504,      -1.53191,   17.5735E-09
C:/temp/dataset/4/28_2.odb,Step-1,Increment      1: Step Time =    1.000,"PART-1-1",           100,           -5.,       27.9167,            0.,NA,NA,"",       4.60145,      -4.33586,      -1.54067,   16.8045E-09
C:/temp/dataset/4/28_2.odb,Step-1,Increment      1: Step Time =    1.000,"PART-1-1",           101,       6.93475,       11.1046,            0.,NA,NA,"",       2.86969,      -2.84395,  -383.491E-03,   57.4641E-06
C:/temp/dataset/4/28_2.odb,Step-1,Increment      1: Step Time =    1.000,"PART-1-1",           102,       7.10183,      -21.7370,            0.,NA,NA,"",   229.362E-03,  -200.207E-03,  -111.911E-03,   13.4461E-03
C:/temp/dataset/4/28_2.odb,Step-1,Increment      1: Step Time =    1.000,"PART-1-1",           103,      -7.18606,       25.6133,            0.,NA,NA,"",       4.46499,      -4.11570,      -1.73121,   16.5386E-09
C:/temp/dataset/4/28_2.odb,Step-1,Increment      1: Step Time =    1.000,"PART-1-1",           104,       7.08931,      -17.4629,            0.,NA,NA,"",   449.871E-03,  -418.688E-03,  -164.574E-03,   11.3333E-03
C:/temp/dataset/4/28_2.odb,Step-1,Increment      1: Step Time =    1.000,"PART-1-1",           105,       7.11844,      -23.8299,            0.,NA,NA,"",   146.295E-03,  -119.687E-03,  -84.1268E-03,   14.4056E-03
C:/temp/dataset/4/28_2.odb,Step-1,Increment      1: Step Time =    1.000,"PART-1-1",           106,       7.34845,      -27.9642,            0.,NA,NA,"",   30.0410E-03,  -17.5356E-03,  -24.3919E-03,   15.5168E-03
C:/temp/dataset/4/28_2.odb,Step-1,Increment      1: Step Time =    1.000,"PART-1-1",           107,       7.18399,      -25.9216,            0.,NA,NA,"",   79.0618E-03,  -58.0227E-03,  -53.7041E-03,   15.7011E-03
C:/temp/dataset/4/28_2.odb,Step-1,Increment      1: Step Time =    1.000,"PART-1-1",           108,       7.00226,      -10.9532,            0.,NA,NA,"",   900.022E-03,  -867.079E-03,  -241.272E-03,   8.27350E-03
C:/temp/dataset/4/28_2.odb,Step-1,Increment      1: Step Time =    1.000,"PART-1-1",           109,       6.93148,       25.8450,            0.,NA,NA,"",       4.20387,      -4.18031,  -444.440E-03,   259.589E-09
C:/temp/dataset/4/28_2.odb,Step-1,Increment      1: Step Time =    1.000,"PART-1-1",           110,       6.95256,       21.7727,            0.,NA,NA,"",       3.83493,      -3.81122,  -425.761E-03,   1.24208E-06
C:/temp/dataset/4/28_2.odb,Step-1,Increment      1: Step Time =    1.000,"PART-1-1",           111,       6.99069,       19.6693,            0.,NA,NA,"",       3.64424,      -3.62069,  -413.644E-03,   5.39640E-06
C:/temp/dataset/4/28_2.odb,Step-1,Increment      1: Step Time =    1.000,"PART-1-1",           112,       6.98342,       13.2435,            0.,NA,NA,"",       3.06284,      -3.03818,  -387.860E-03,   63.0044E-06
C:/temp/dataset/4/28_2.odb,Step-1,Increment      1: Step Time =    1.000,"PART-1-1",           113,       6.84904,       8.98858,            0.,NA,NA,"",       2.67867,      -2.65122,  -382.547E-03,   124.357E-06
C:/temp/dataset/4/28_2.odb,Step-1,Increment      1: Step Time =    1.000,"PART-1-1",           114,      -7.00061,       11.3966,            0.,NA,NA,"",       3.26461,      -2.81433,      -1.65447,   353.835E-09
C:/temp/dataset/4/28_2.odb,Step-1,Increment      1: Step Time =    1.000,"PART-1-1",           115,      -6.87185,       17.5946,            0.,NA,NA,"",       3.77178,      -3.38256,      -1.66873,   16.1547E-09
C:/temp/dataset/4/28_2.odb,Step-1,Increment      1: Step Time =    1.000,"PART-1-1",           116,      -6.78696,       21.5686,            0.,NA,NA,"",       4.10535,      -3.74691,      -1.67766,   17.9121E-09
C:/temp/dataset/4/28_2.odb,Step-1,Increment      1: Step Time =    1.000,"PART-1-1",           117,      -6.92081,       23.5666,            0.,NA,NA,"",       4.28067,      -3.92936,      -1.69831,   17.2690E-09
C:/temp/dataset/4/28_2.odb,Step-1,Increment      1: Step Time =    1.000,"PART-1-1",           118,      -7.47694,       27.7553,            0.,NA,NA,"",       4.65872,      -4.31067,      -1.76686,   15.8883E-09
C:/temp/dataset/4/28_2.odb,Step-1,Increment      1: Step Time =    1.000,"PART-1-1",           119,       6.62973,      -6.72562,            0.,NA,NA,"",       1.25366,      -1.21418,  -312.130E-03,   6.23692E-03
C:/temp/dataset/4/28_2.odb,Step-1,Increment      1: Step Time =    1.000,"PART-1-1",           120,       7.00244,       17.5390,            0.,NA,NA,"",       3.45134,      -3.42763,  -403.809E-03,   16.0148E-06
C:/temp/dataset/4/28_2.odb,Step-1,Increment      1: Step Time =    1.000,"PART-1-1",           121,       7.05765,      -13.1226,            0.,NA,NA,"",   736.338E-03,  -704.303E-03,  -214.830E-03,   9.25448E-03
C:/temp/dataset/4/28_2.odb,Step-1,Increment      1: Step Time =    1.000,"PART-1-1",           122,      -6.97858,       13.4860,            0.,NA,NA,"",       3.43431,      -3.00579,      -1.66123,   129.287E-09
C:/temp/dataset/4/28_2.odb,Step-1,Increment      1: Step Time =    1.000,"PART-1-1",           123,      -7.06135,       7.11796,            0.,NA,NA,"",       2.92630,      -2.42217,      -1.64205,   2.32184E-06
C:/temp/dataset/4/28_2.odb,Step-1,Increment      1: Step Time =    1.000,"PART-1-1",           124,       6.87626,      -8.81940,            0.,NA,NA,"",       1.07302,      -1.03790,  -272.272E-03,   7.44374E-03
C:/temp/dataset/4/28_2.odb,Step-1,Increment      1: Step Time =    1.000,"PART-1-1",           125,       7.08495,      -15.2974,            0.,NA,NA,"",   585.445E-03,  -553.948E-03,  -189.439E-03,   10.2628E-03
C:/temp/dataset/4/28_2.odb,Step-1,Increment      1: Step Time =    1.000,"PART-1-1",           126,       7.00715,       15.3887,            0.,NA,NA,"",       3.25673,      -3.23274,  -394.532E-03,   37.4517E-06
C:/temp/dataset/4/28_2.odb,Step-1,Increment      1: Step Time =    1.000,"PART-1-1",           127,      -7.01992,       9.30136,            0.,NA,NA,"",       3.09688,      -2.62233,      -1.64743,   757.951E-09
C:/temp/dataset/4/28_2.odb,Step-1,Increment      1: Step Time =    1.000,"PART-1-1",           128,      -6.93369,       15.5639,            0.,NA,NA,"",       3.60436,      -3.19631,      -1.66585,   40.9583E-09
C:/temp/dataset/4/28_2.odb,Step-1,Increment      1: Step Time =    1.000,"PART-1-1",           129,      -6.79206,       19.5889,            0.,NA,NA,"",       3.93719,      -3.56556,      -1.66980,   17.4554E-09
C:/temp/dataset/4/28_2.odb,Step-1,Increment      1: Step Time =    1.000,"PART-1-1",           130,       7.09662,      -19.6136,            0.,NA,NA,"",   330.631E-03,  -300.180E-03,  -138.595E-03,   12.3829E-03
C:/temp/dataset/4/28_2.odb,Step-1,Increment      1: Step Time =    1.000,"PART-1-1",           131,       6.89670,       23.8203,            0.,NA,NA,"",       4.02068,      -3.99662,  -439.257E-03,   150.410E-09
C:/temp/dataset/4/28_2.odb,Step-1,Increment      1: Step Time =    1.000,"PART-1-1",           132,       6.67676,       6.98748,            0.,NA,NA,"",       2.49830,      -2.46769,  -389.883E-03,   670.001E-06
C:/temp/dataset/4/28_2.odb,Step-1,Increment      1: Step Time =    1.000,"PART-1-1",           133,      -13.0361,       12.2042,            0.,NA,NA,"",       3.61710,      -2.86292,      -2.21068,   203.555E-09
C:/temp/dataset/4/28_2.odb,Step-1,Increment      1: Step Time =    1.000,"PART-1-1",           134,      -13.0483,       3.72302,            0.,NA,NA,"",       3.01450,      -2.08606,      -2.17614,   334.710E-09
C:/temp/dataset/4/28_2.odb,Step-1,Increment      1: Step Time =    1.000,"PART-1-1",           135,      -13.0740,       10.0823,            0.,NA,NA,"",       3.46171,      -2.66842,      -2.20523,   406.586E-09
C:/temp/dataset/4/28_2.odb,Step-1,Increment      1: Step Time =    1.000,"PART-1-1",           136,      -13.0017,       14.3509,            0.,NA,NA,"",       3.77820,      -3.05969,      -2.21654,   79.4590E-09
C:/temp/dataset/4/28_2.odb,Step-1,Increment      1: Step Time =    1.000,"PART-1-1",           137,      -12.4480,       21.2307,            0.,NA,NA,"",       4.29523,      -3.69217,      -2.19475,   13.5054E-09
C:/temp/dataset/4/28_2.odb,Step-1,Increment      1: Step Time =    1.000,"PART-1-1",           138,      -13.0426,       25.7965,            0.,NA,NA,"",       4.69257,      -4.10786,      -2.26840,   14.6706E-09
C:/temp/dataset/4/28_2.odb,Step-1,Increment      1: Step Time =    1.000,"PART-1-1",           139,      -12.9478,       23.6552,            0.,NA,NA,"",       4.51337,      -3.91213,      -2.25072,   14.3525E-09
C:/temp/dataset/4/28_2.odb,Step-1,Increment      1: Step Time =    1.000,"PART-1-1",           140,      -12.8307,       18.7376,            0.,NA,NA,"",       4.11245,      -3.46220,      -2.21932,   11.5677E-09
C:/temp/dataset/4/28_2.odb,Step-1,Increment      1: Step Time =    1.000,"PART-1-1",           141,      -12.9472,       16.5227,            0.,NA,NA,"",       3.94354,      -3.25884,      -2.22069,   22.7348E-09
C:/temp/dataset/4/28_2.odb,Step-1,Increment      1: Step Time =    1.000,"PART-1-1",           142,      -13.1112,       7.97345,            0.,NA,NA,"",       3.31136,      -2.47510,      -2.19976,   523.739E-09
C:/temp/dataset/4/28_2.odb,Step-1,Increment      1: Step Time =    1.000,"PART-1-1",           143,      -13.1276,       5.86243,            0.,NA,NA,"",       3.16428,      -2.28168,      -2.19240,   413.839E-09
C:/temp/dataset/4/28_2.odb,Step-1,Increment      1: Step Time =    1.000,"PART-1-1",           144,      -12.8109,       1.56310,            0.,NA,NA,"",       2.85860,      -1.88923,      -2.14532,   746.322E-09
C:/temp/dataset/4/28_2.odb,Step-1,Increment      1: Step Time =    1.000,"PART-1-1",           145,      -12.5511,  -622.366E-03,            0.,NA,NA,"",       2.70530,      -1.69016,      -2.11234,   631.662E-09
C:/temp/dataset/4/28_2.odb,Step-1,Increment      1: Step Time =    1.000,"PART-1-1",           146,      -7.69124,      -3.05836,            0.,NA,NA,"",       2.22672,      -1.48748,      -1.65702,   11.6000E-06
C:/temp/dataset/4/28_2.odb,Step-1,Increment      1: Step Time =    1.000,"PART-1-1",           147,      -2.59391,      -3.27074,            0.,NA,NA,"",       1.90601,      -1.48939,      -1.18936,   91.3079E-06
C:/temp/dataset/4/28_2.odb,Step-1,Increment      1: Step Time =    1.000,"PART-1-1",           148,      -2.06699,       2.95135,            0.,NA,NA,"",       2.36894,      -2.06154,      -1.16702,   90.4053E-06
C:/temp/dataset/4/28_2.odb,Step-1,Increment      1: Step Time =    1.000,"PART-1-1",           149,       1.86882,      -3.06513,            0.,NA,NA,"",       1.71499,      -1.52693,  -780.815E-03,   713.294E-06
C:/temp/dataset/4/28_2.odb,Step-1,Increment      1: Step Time =    1.000,"PART-1-1",           150,       2.79073,       3.02834,            0.,NA,NA,"",       2.21053,      -2.08870,  -723.735E-03,   479.861E-06
C:/temp/dataset/4/28_2.odb,Step-1,Increment      1: Step Time =    1.000,"PART-1-1",           151,       12.5379,       2.72923,            0.,NA,NA,"",       2.11052,      -2.10490,   153.932E-03,   2.90279E-03
C:/temp/dataset/4/28_2.odb,Step-1,Increment      1: Step Time =    1.000,"PART-1-1",           152,       12.9313,       10.2835,            0.,NA,NA,"",       2.79920,      -2.79441,   163.610E-03,   190.008E-06
C:/temp/dataset/4/28_2.odb,Step-1,Increment      1: Step Time =    1.000,"PART-1-1",           153,       12.7723,       24.8557,            0.,NA,NA,"",       4.11564,      -4.11467,   89.1486E-03,   240.620E-09
C:/temp/dataset/4/28_2.odb,Step-1,Increment      1: Step Time =    1.000,"PART-1-1",           154,       12.5268,       27.4001,            0.,NA,NA,"",       4.34469,      -4.34433,   56.4115E-03,   247.264E-09
C:/temp/dataset/4/28_2.odb,Step-1,Increment      1: Step Time =    1.000,"PART-1-1",           155,       12.7627,      -5.01238,            0.,NA,NA,"",       1.39933,      -1.38642,   189.648E-03,   5.21922E-03
C:/temp/dataset/4/28_2.odb,Step-1,Increment      1: Step Time =    1.000,"PART-1-1",           156,       13.0118,      -12.5921,            0.,NA,NA,"",   781.561E-03,  -757.977E-03,   190.551E-03,   9.29880E-03
C:/temp/dataset/4/28_2.odb,Step-1,Increment      1: Step Time =    1.000,"PART-1-1",           157,       9.69976,      -27.8547,            0.,NA,NA,"",   11.6699E-03,  -11.4182E-03,  -2.41066E-03,   4.28104E-03
C:/temp/dataset/4/28_2.odb,Step-1,Increment      1: Step Time =    1.000,"PART-1-1",           158,       13.0855,      -17.4497,            0.,NA,NA,"",   459.121E-03,  -430.024E-03,   160.845E-03,   12.1414E-03
C:/temp/dataset/4/28_2.odb,Step-1,Increment      1: Step Time =    1.000,"PART-1-1",           159,       12.9366,       22.3763,            0.,NA,NA,"",       3.89225,      -3.89058,   114.252E-03,   678.946E-09
C:/temp/dataset/4/28_2.odb,Step-1,Increment      1: Step Time =    1.000,"PART-1-1",           160,       13.0248,       17.5365,            0.,NA,NA,"",       3.45507,      -3.45214,   142.179E-03,   15.5298E-06
C:/temp/dataset/4/28_2.odb,Step-1,Increment      1: Step Time =    1.000,"PART-1-1",           161,      -10.1545,       27.3700,            0.,NA,NA,"",       4.71432,      -4.26413,      -2.01049,   15.5970E-09
C:/temp/dataset/4/28_2.odb,Step-1,Increment      1: Step Time =    1.000,"PART-1-1",           162,      -10.0546,      -2.87755,            0.,NA,NA,"",       2.39688,      -1.49411,      -1.87421,   2.90366E-06
C:/temp/dataset/4/28_2.odb,Step-1,Increment      1: Step Time =    1.000,"PART-1-1",           163,      -5.07747,      -2.66322,            0.,NA,NA,"",       2.09038,      -1.53466,      -1.41933,   40.8120E-06
C:/temp/dataset/4/28_2.odb,Step-1,Increment      1: Step Time =    1.000,"PART-1-1",           164,  -330.659E-03,      -3.26262,            0.,NA,NA,"",       1.79260,      -1.49968,  -982.018E-03,   181.090E-06
C:/temp/dataset/4/28_2.odb,Step-1,Increment      1: Step Time =    1.000,"PART-1-1",           165,       3.93161,      -2.75002,            0.,NA,NA,"",       1.67245,      -1.56449,  -591.169E-03,   1.65096E-03
C:/temp/dataset/4/28_2.odb,Step-1,Increment      1: Step Time =    1.000,"PART-1-1",           166,       12.9585,      -10.1304,            0.,NA,NA,"",   969.342E-03,  -949.037E-03,   197.364E-03,   7.91550E-03
C:/temp/dataset/4/28_2.odb,Step-1,Increment      1: Step Time =    1.000,"PART-1-1",           167,       13.1106,      -19.8561,            0.,NA,NA,"",   327.127E-03,  -296.360E-03,   138.504E-03,   13.5897E-03
C:/temp/dataset/4/28_2.odb,Step-1,Increment      1: Step Time =    1.000,"PART-1-1",           168,       12.2637,      -27.1930,            0.,NA,NA,"",   42.0119E-03,  -29.8274E-03,   29.5859E-03,   14.0045E-03
C:/temp/dataset/4/28_2.odb,Step-1,Increment      1: Step Time =    1.000,"PART-1-1",           169,       13.0974,      -22.2394,            0.,NA,NA,"",   216.082E-03,  -185.665E-03,   110.543E-03,   14.8320E-03
C:/temp/dataset/4/28_2.odb,Step-1,Increment      1: Step Time =    1.000,"PART-1-1",           170,       13.0625,      -15.0302,            0.,NA,NA,"",   611.259E-03,  -584.507E-03,   178.855E-03,   10.7455E-03
C:/temp/dataset/4/28_2.odb,Step-1,Increment      1: Step Time =    1.000,"PART-1-1",           171,       12.8638,      -7.61343,            0.,NA,NA,"",       1.17471,      -1.15819,   196.268E-03,   6.52856E-03
C:/temp/dataset/4/28_2.odb,Step-1,Increment      1: Step Time =    1.000,"PART-1-1",           172,       12.8109,      -2.41519,            0.,NA,NA,"",       1.63524,      -1.62403,   191.184E-03,   3.99485E-03
C:/temp/dataset/4/28_2.odb,Step-1,Increment      1: Step Time =    1.000,"PART-1-1",           173,       12.7001,   168.481E-03,            0.,NA,NA,"",       1.87389,      -1.86566,   175.473E-03,   3.89193E-03
C:/temp/dataset/4/28_2.odb,Step-1,Increment      1: Step Time =    1.000,"PART-1-1",           174,       12.6773,       5.28127,            0.,NA,NA,"",       2.34668,      -2.34129,   158.970E-03,   2.13425E-03
C:/temp/dataset/4/28_2.odb,Step-1,Increment      1: Step Time =    1.000,"PART-1-1",           175,       12.8405,       7.80961,            0.,NA,NA,"",       2.57642,      -2.57112,   165.233E-03,   982.103E-06
C:/temp/dataset/4/28_2.odb,Step-1,Increment      1: Step Time =    1.000,"PART-1-1",           176,       12.9955,       12.7023,            0.,NA,NA,"",       3.01794,      -3.01372,   159.431E-03,   74.4440E-06
C:/temp/dataset/4/28_2.odb,Step-1,Increment      1: Step Time =    1.000,"PART-1-1",           177,       13.0102,       19.9477,            0.,NA,NA,"",       3.67303,      -3.67069,   130.920E-03,   4.50333E-06
C:/temp/dataset/4/28_2.odb,Step-1,Increment      1: Step Time =    1.000,"PART-1-1",           178,       9.88408,       27.1269,            0.,NA,NA,"",       4.31253,      -4.30868,  -182.046E-03,   164.485E-09
C:/temp/dataset/4/28_2.odb,Step-1,Increment      1: Step Time =    1.000,"PART-1-1",           179,       13.0301,       15.1161,            0.,NA,NA,"",       3.23630,      -3.23270,   152.628E-03,   45.3070E-06
C:/temp/dataset/4/28_2.odb,Step-1,Increment      1: Step Time =    1.000,"PART-1-1",           180,   300.490E-03,       3.00528,            0.,NA,NA,"",       2.28365,      -2.07639,  -950.613E-03,   73.0442E-06
C:/temp/dataset/4/28_2.odb,Step-1,Increment      1: Step Time =    1.000,"PART-1-1",           181,      -4.18418,       2.89078,            0.,NA,NA,"",       2.45808,      -2.04710,      -1.36070,   51.6645E-06
C:/temp/dataset/4/28_2.odb,Step-1,Increment      1: Step Time =    1.000,"PART-1-1",           182,      -8.75093,       23.2164,            0.,NA,NA,"",       4.31336,      -3.88958,      -1.86447,   15.7231E-09
C:/temp/dataset/4/28_2.odb,Step-1,Increment      1: Step Time =    1.000,"PART-1-1",           183,       9.13120,      -23.8882,            0.,NA,NA,"",   113.145E-03,  -110.453E-03,  -24.5341E-03,   5.78772E-03
C:/temp/dataset/4/28_2.odb,Step-1,Increment      1: Step Time =    1.000,"PART-1-1",           184,       8.76025,       8.63504,            0.,NA,NA,"",       2.63538,      -2.62719,  -207.591E-03,   320.573E-06
C:/temp/dataset/4/28_2.odb,Step-1,Increment      1: Step Time =    1.000,"PART-1-1",           185,       8.81891,       23.9948,            0.,NA,NA,"",       4.02912,      -4.02035,  -265.713E-03,   344.432E-09
C:/temp/dataset/4/28_2.odb,Step-1,Increment      1: Step Time =    1.000,"PART-1-1",           186,       9.00734,       17.5557,            0.,NA,NA,"",       3.44456,      -3.43739,  -222.095E-03,   19.2240E-06
C:/temp/dataset/4/28_2.odb,Step-1,Increment      1: Step Time =    1.000,"PART-1-1",           187,      -8.59230,       19.6811,            0.,NA,NA,"",       4.01086,      -3.56644,      -1.83508,   13.4737E-09
C:/temp/dataset/4/28_2.odb,Step-1,Increment      1: Step Time =    1.000,"PART-1-1",           188,       9.06266,      -12.9142,            0.,NA,NA,"",   723.414E-03,  -719.033E-03,  -79.5017E-03,   4.72987E-03
C:/temp/dataset/4/28_2.odb,Step-1,Increment      1: Step Time =    1.000,"PART-1-1",           189,       9.13987,      -19.6571,            0.,NA,NA,"",   296.299E-03,  -293.219E-03,  -42.6125E-03,   5.21987E-03
C:/temp/dataset/4/28_2.odb,Step-1,Increment      1: Step Time =    1.000,"PART-1-1",           190,       9.00941,       15.3265,            0.,NA,NA,"",       3.24230,      -3.23532,  -212.687E-03,   44.0350E-06
C:/temp/dataset/4/28_2.odb,Step-1,Increment      1: Step Time =    1.000,"PART-1-1",           191,      -8.96967,       13.7142,            0.,NA,NA,"",       3.53732,      -3.01832,      -1.84456,   141.010E-09
C:/temp/dataset/4/28_2.odb,Step-1,Increment      1: Step Time =    1.000,"PART-1-1",           192,       9.12973,      -17.4386,            0.,NA,NA,"",   420.191E-03,  -416.811E-03,  -53.1859E-03,   5.03654E-03
C:/temp/dataset/4/28_2.odb,Step-1,Increment      1: Step Time =    1.000,"PART-1-1",           193,       8.94484,       21.9321,            0.,NA,NA,"",       3.84174,      -3.83387,  -245.803E-03,   1.73190E-06
C:/temp/dataset/4/28_2.odb,Step-1,Increment      1: Step Time =    1.000,"PART-1-1",           194,      -8.78258,       17.8115,            0.,NA,NA,"",       3.86324,      -3.39439,      -1.84465,   15.1563E-09
C:/temp/dataset/4/28_2.odb,Step-1,Increment      1: Step Time =    1.000,"PART-1-1",           195,       8.90333,       10.8666,            0.,NA,NA,"",       2.83786,      -2.83053,  -203.773E-03,   71.5508E-06
C:/temp/dataset/4/28_2.odb,Step-1,Increment      1: Step Time =    1.000,"PART-1-1",           196,      -9.00437,       11.6266,            0.,NA,NA,"",       3.37247,      -2.82696,      -1.83896,   363.023E-09
C:/temp/dataset/4/28_2.odb,Step-1,Increment      1: Step Time =    1.000,"PART-1-1",           197,      -9.03622,       9.53759,            0.,NA,NA,"",       3.21031,      -2.63549,      -1.83310,   581.612E-09
C:/temp/dataset/4/28_2.odb,Step-1,Increment      1: Step Time =    1.000,"PART-1-1",           198,       8.99264,      -10.6281,            0.,NA,NA,"",   898.698E-03,  -893.500E-03,  -96.5172E-03,   4.57268E-03
C:/temp/dataset/4/28_2.odb,Step-1,Increment      1: Step Time =    1.000,"PART-1-1",           199,       8.82192,      -8.34759,            0.,NA,NA,"",       1.08621,      -1.07932,  -122.166E-03,   4.45117E-03
C:/temp/dataset/4/28_2.odb,Step-1,Increment      1: Step Time =    1.000,"PART-1-1",           200,       8.98411,       13.0928,            0.,NA,NA,"",       3.03971,      -3.03274,  -205.702E-03,   70.2062E-06
C:/temp/dataset/4/28_2.odb,Step-1,Increment      1: Step Time =    1.000,"PART-1-1",           201,       7.30685,       27.8134,            0.,NA,NA,"",       4.38034,      -4.36030,  -418.516E-03,   219.649E-09
C:/temp/dataset/4/28_2.odb,Step-1,Increment      1: Step Time =    1.000,"PART-1-1",           202,      -8.46063,       21.4565,            0.,NA,NA,"",       4.15459,      -3.72961,      -1.83048,   15.3630E-09
C:/temp/dataset/4/28_2.odb,Step-1,Increment      1: Step Time =    1.000,"PART-1-1",           203,       9.11250,      -15.1896,            0.,NA,NA,"",   563.009E-03,  -559.259E-03,  -64.8737E-03,   4.86317E-03
C:/temp/dataset/4/28_2.odb,Step-1,Increment      1: Step Time =    1.000,"PART-1-1",           204,       9.14200,      -21.8221,            0.,NA,NA,"",   193.320E-03,  -190.474E-03,  -33.0480E-03,   5.45798E-03
C:/temp/dataset/4/28_2.odb,Step-1,Increment      1: Step Time =    1.000,"PART-1-1",           205,      -8.90436,       15.8055,            0.,NA,NA,"",       3.70376,      -3.21015,      -1.84737,   50.0794E-09
C:/temp/dataset/4/28_2.odb,Step-1,Increment      1: Step Time =    1.000,"PART-1-1",           206,       9.00445,       19.7587,            0.,NA,NA,"",       3.64444,      -3.63708,  -231.445E-03,   6.64787E-06
C:/temp/dataset/4/28_2.odb,Step-1,Increment      1: Step Time =    1.000,"PART-1-1",           207,       8.39742,      -6.16188,            0.,NA,NA,"",       1.27771,      -1.26645,  -169.253E-03,   4.43362E-03
C:/temp/dataset/4/28_2.odb,Step-1,Increment      1: Step Time =    1.000,"PART-1-1",           208,      -9.10294,       7.45394,            0.,NA,NA,"",       3.05377,      -2.44436,      -1.83046,   928.044E-09
C:/temp/dataset/4/28_2.odb,Step-1,Increment      1: Step Time =    1.000,"PART-1-1",           209,       8.43260,       6.43235,            0.,NA,NA,"",       2.43534,      -2.42460,  -228.506E-03,   958.379E-06
C:/temp/dataset/4/28_2.odb,Step-1,Increment      1: Step Time =    1.000,"PART-1-1",           210,       5.64784,       2.93298,            0.,NA,NA,"",       2.14223,      -2.09114,  -465.056E-03,   1.26083E-03
C:/temp/dataset/4/28_2.odb,Step-1,Increment      1: Step Time =    1.000,"PART-1-1",           211,      -10.7213,       1.88644,            0.,NA,NA,"",       2.74571,      -1.92763,      -1.95529,   3.19640E-06
C:/temp/dataset/4/28_2.odb,Step-1,Increment      1: Step Time =    1.000,"PART-1-1",           212,      -12.7178,       27.8380,            0.,NA,NA,"",       4.84845,      -4.29621,      -2.24724,   15.2680E-09
C:/temp/dataset/4/28_2.odb,Step-1,Increment      1: Step Time =    1.000,"PART-1-1",           213,      -11.0298,       24.2524,            0.,NA,NA,"",       4.48509,      -3.97490,      -2.07755,   14.8572E-09
C:/temp/dataset/4/28_2.odb,Step-1,Increment      1: Step Time =    1.000,"PART-1-1",           214,      -10.4500,       20.0822,            0.,NA,NA,"",       4.11757,      -3.59537,      -2.00692,   12.2580E-09
C:/temp/dataset/4/28_2.odb,Step-1,Increment      1: Step Time =    1.000,"PART-1-1",           215,      -10.9919,       14.0243,            0.,NA,NA,"",       3.65460,      -3.03822,      -2.03109,   122.609E-09
C:/temp/dataset/4/28_2.odb,Step-1,Increment      1: Step Time =    1.000,"PART-1-1",           216,      -11.0796,       9.82104,            0.,NA,NA,"",       3.33526,      -2.65287,      -2.02146,   525.549E-09
C:/temp/dataset/4/28_2.odb,Step-1,Increment      1: Step Time =    1.000,"PART-1-1",           217,      -11.0365,       11.9204,            0.,NA,NA,"",       3.49313,      -2.84534,      -2.02633,   288.932E-09
C:/temp/dataset/4/28_2.odb,Step-1,Increment      1: Step Time =    1.000,"PART-1-1",           218,      -10.5491,       22.5446,            0.,NA,NA,"",       4.32461,      -3.82049,      -2.02634,   14.4482E-09
C:/temp/dataset/4/28_2.odb,Step-1,Increment      1: Step Time =    1.000,"PART-1-1",           219,      -10.9277,       16.1478,            0.,NA,NA,"",       3.81968,      -3.23299,      -2.03413,   38.2456E-09
C:/temp/dataset/4/28_2.odb,Step-1,Increment      1: Step Time =    1.000,"PART-1-1",           220,      -10.7891,       18.2216,            0.,NA,NA,"",       3.98021,      -3.42352,      -2.03015,   12.1416E-09
C:/temp/dataset/4/28_2.odb,Step-1,Increment      1: Step Time =    1.000,"PART-1-1",           221,      -11.1555,       7.76515,            0.,NA,NA,"",       3.18621,      -2.46424,      -2.01976,   515.519E-09
C:/temp/dataset/4/28_2.odb,Step-1,Increment      1: Step Time =    1.000,"PART-1-1",           222,      -9.80329,       4.04682,            0.,NA,NA,"",       2.84071,      -2.12936,      -1.88028,   2.48168E-06
C:/temp/dataset/4/28_2.odb,Step-1,Increment      1: Step Time =    1.000,"PART-1-1",           223,       9.22674,      -25.9093,            0.,NA,NA,"",   52.0872E-03,  -50.1717E-03,  -13.9958E-03,   5.57749E-03
C:/temp/dataset/4/28_2.odb,Step-1,Increment      1: Step Time =    1.000,"PART-1-1",           224,      -9.21421,       25.1107,            0.,NA,NA,"",       4.48994,      -4.06115,      -1.91486,   15.7114E-09
C:/temp/dataset/4/28_2.odb,Step-1,Increment      1: Step Time =    1.000,"PART-1-1",           225,       6.25241,      -4.60112,            0.,NA,NA,"",       1.44761,      -1.40125,  -363.422E-03,   5.23358E-03
C:/temp/dataset/4/28_2.odb,Step-1,Increment      1: Step Time =    1.000,"PART-1-1",           226,      -7.19550,       4.55405,            0.,NA,NA,"",       2.73555,      -2.18677,      -1.64355,   7.86925E-06
C:/temp/dataset/4/28_2.odb,Step-1,Increment      1: Step Time =    1.000,"PART-1-1",           227,       12.9551,      -24.6090,            0.,NA,NA,"",   123.896E-03,  -98.4087E-03,   75.2720E-03,   15.9907E-03
C:/temp/dataset/4/28_2.odb,Step-1,Increment      1: Step Time =    1.000,"PART-1-1",           228,       10.9241,       22.1645,            0.,NA,NA,"",       3.86367,      -3.86309,  -67.3234E-03,   1.44666E-06
C:/temp/dataset/4/28_2.odb,Step-1,Increment      1: Step Time =    1.000,"PART-1-1",           229,      -4.91288,   464.762E-03,            0.,NA,NA,"",       2.30828,      -1.82191,      -1.41732,   47.6356E-06
C:/temp/dataset/4/28_2.odb,Step-1,Increment      1: Step Time =    1.000,"PART-1-1",           230,  -831.143E-03,      -1.35374,            0.,NA,NA,"",       1.96751,      -1.67274,      -1.03588,   121.104E-06
C:/temp/dataset/4/28_2.odb,Step-1,Increment      1: Step Time =    1.000,"PART-1-1",           231,       11.1616,      -19.7398,            0.,NA,NA,"",   296.230E-03,  -292.031E-03,   49.6999E-03,   6.32590E-03
C:/temp/dataset/4/28_2.odb,Step-1,Increment      1: Step Time =    1.000,"PART-1-1",           232,       10.9730,      -10.3410,            0.,NA,NA,"",   923.226E-03,  -921.951E-03,   48.5061E-03,   4.64904E-03
C:/temp/dataset/4/28_2.odb,Step-1,Increment      1: Step Time =    1.000,"PART-1-1",           233,       10.4844,      -5.04269,            0.,NA,NA,"",       1.37304,      -1.37304,  -1.57890E-03,   4.51309E-03
C:/temp/dataset/4/28_2.odb,Step-1,Increment      1: Step Time =    1.000,"PART-1-1",           234,       10.9074,       10.5689,            0.,NA,NA,"",       2.81196,      -2.81189,  -20.7978E-03,   109.683E-06
C:/temp/dataset/4/28_2.odb,Step-1,Increment      1: Step Time =    1.000,"PART-1-1",           235,       11.0515,      -12.7377,            0.,NA,NA,"",   739.073E-03,  -737.021E-03,   55.0328E-03,   4.99591E-03
C:/temp/dataset/4/28_2.odb,Step-1,Increment      1: Step Time =    1.000,"PART-1-1",           236,       10.9936,       12.8990,            0.,NA,NA,"",       3.02347,      -3.02339,  -22.6971E-03,   81.1998E-06
C:/temp/dataset/4/28_2.odb,Step-1,Increment      1: Step Time =    1.000,"PART-1-1",           237,      -9.84553,  -403.770E-03,            0.,NA,NA,"",       2.53844,      -1.72156,      -1.86546,   5.04795E-06
C:/temp/dataset/4/28_2.odb,Step-1,Increment      1: Step Time =    1.000,"PART-1-1",           238,      -6.42098,  -599.403E-03,            0.,NA,NA,"",       2.31459,      -1.71806,      -1.55100,   27.0679E-06
C:/temp/dataset/4/28_2.odb,Step-1,Increment      1: Step Time =    1.000,"PART-1-1",           239,      -2.35214,      -1.85066,            0.,NA,NA,"",       2.00070,      -1.62065,      -1.17317,   87.1132E-06
C:/temp/dataset/4/28_2.odb,Step-1,Increment      1: Step Time =    1.000,"PART-1-1",           240,       11.1625,      -21.9830,            0.,NA,NA,"",   190.654E-03,  -186.091E-03,   41.4650E-03,   6.79822E-03
C:/temp/dataset/4/28_2.odb,Step-1,Increment      1: Step Time =    1.000,"PART-1-1",           241,       11.1073,      -15.0998,            0.,NA,NA,"",   572.478E-03,  -569.624E-03,   57.0865E-03,   5.41858E-03
C:/temp/dataset/4/28_2.odb,Step-1,Increment      1: Step Time =    1.000,"PART-1-1",           242,       11.1457,      -17.4375,            0.,NA,NA,"",   424.217E-03,  -420.602E-03,   55.2656E-03,   5.88397E-03
C:/temp/dataset/4/28_2.odb,Step-1,Increment      1: Step Time =    1.000,"PART-1-1",           243,       10.8340,      -7.85693,            0.,NA,NA,"",       1.12775,      -1.12723,   34.2883E-03,   4.47495E-03
C:/temp/dataset/4/28_2.odb,Step-1,Increment      1: Step Time =    1.000,"PART-1-1",           244,       10.5842,   120.255E-03,            0.,NA,NA,"",       1.85051,      -1.85047,  -12.1240E-03,   3.58703E-03
C:/temp/dataset/4/28_2.odb,Step-1,Increment      1: Step Time =    1.000,"PART-1-1",           245,       10.8633,      -2.34188,            0.,NA,NA,"",       1.62201,      -1.62187,   21.3953E-03,   4.23381E-03
C:/temp/dataset/4/28_2.odb,Step-1,Increment      1: Step Time =    1.000,"PART-1-1",           246,       9.78574,       2.89226,            0.,NA,NA,"",       2.10716,      -2.10509,  -93.4203E-03,   2.35398E-03
C:/temp/dataset/4/28_2.odb,Step-1,Increment      1: Step Time =    1.000,"PART-1-1",           247,       10.7685,       8.18214,            0.,NA,NA,"",       2.59516,      -2.59505,  -23.7789E-03,   553.517E-06
C:/temp/dataset/4/28_2.odb,Step-1,Increment      1: Step Time =    1.000,"PART-1-1",           248,       10.4587,       5.69287,            0.,NA,NA,"",       2.36715,      -2.36677,  -42.7842E-03,   1.48298E-03
C:/temp/dataset/4/28_2.odb,Step-1,Increment      1: Step Time =    1.000,"PART-1-1",           249,       11.0104,       19.8565,            0.,NA,NA,"",       3.65455,      -3.65420,  -49.9902E-03,   6.28080E-06
C:/temp/dataset/4/28_2.odb,Step-1,Increment      1: Step Time =    1.000,"PART-1-1",           250,       11.0363,       17.5467,            0.,NA,NA,"",       3.44511,      -3.44490,  -38.1198E-03,   19.2308E-06
C:/temp/dataset/4/28_2.odb,Step-1,Increment      1: Step Time =    1.000,"PART-1-1",           251,       11.0403,       15.2208,            0.,NA,NA,"",       3.23417,      -3.23405,  -28.1251E-03,   46.5619E-06
C:/temp/dataset/4/28_2.odb,Step-1,Increment      1: Step Time =    1.000,"PART-1-1",           252,       1.19009,      -1.06873,            0.,NA,NA,"",       1.90814,      -1.70751,  -851.709E-03,   248.253E-06
C:/temp/dataset/4/28_2.odb,Step-1,Increment      1: Step Time =    1.000,"PART-1-1",           253,       10.6932,       24.5073,            0.,NA,NA,"",       4.07571,      -4.07453,  -97.9063E-03,   264.941E-09
C:/temp/dataset/4/28_2.odb,Step-1,Increment      1: Step Time =    1.000,"PART-1-1",           254,       8.51128,       25.6419,            0.,NA,NA,"",       4.17921,      -4.16840,  -300.385E-03,   213.116E-09
C:/temp/dataset/4/28_2.odb,Step-1,Increment      1: Step Time =    1.000,"PART-1-1",           255,      -9.32324,       5.48290,            0.,NA,NA,"",       2.91804,      -2.26290,      -1.84235,   1.30798E-06
C:/temp/dataset/4/28_2.odb,Step-1,Increment      1: Step Time =    1.000,"PART-1-1",           256,      -11.4569,       25.7537,            0.,NA,NA,"",       4.62647,      -4.11061,      -2.12299,   15.0742E-09
C:/temp/dataset/4/28_2.odb,Step-1,Increment      1: Step Time =    1.000,"PART-1-1",           257,      -8.85145,       2.84717,            0.,NA,NA,"",       2.70030,      -2.02348,      -1.78806,   6.81400E-06
C:/temp/dataset/4/28_2.odb,Step-1,Increment      1: Step Time =    1.000,"PART-1-1",           258,       11.0896,      -24.0706,            0.,NA,NA,"",   110.062E-03,  -105.934E-03,   29.8607E-03,   6.95521E-03
C:/temp/dataset/4/28_2.odb,Step-1,Increment      1: Step Time =    1.000,"PART-1-1",           259,       5.69240,      -2.12345,            0.,NA,NA,"",       1.68368,      -1.62708,  -432.884E-03,   3.31272E-03
C:/temp/dataset/4/28_2.odb,Step-1,Increment      1: Step Time =    1.000,"PART-1-1",           260,       7.72467,       1.38687,            0.,NA,NA,"",       1.97534,      -1.95665,  -271.113E-03,   2.24354E-03
C:/temp/dataset/4/28_2.odb,Step-1,Increment      1: Step Time =    1.000,"PART-1-1",           261,       8.83369,  -368.727E-03,            0.,NA,NA,"",       1.80530,      -1.79783,  -164.144E-03,   3.34906E-03
C:/temp/dataset/4/28_2.odb,Step-1,Increment      1: Step Time =    1.000,"PART-1-1",           262,       7.58912,       4.39900,            0.,NA,NA,"",       2.25357,      -2.23396,  -296.601E-03,   1.28074E-03
C:/temp/dataset/4/28_2.odb,Step-1,Increment      1: Step Time =    1.000,"PART-1-1",           263,      -6.02595,       2.23751,            0.,NA,NA,"",       2.49987,      -1.97953,      -1.52669,   27.4981E-06
C:/temp/dataset/4/28_2.odb,Step-1,Increment      1: Step Time =    1.000,"PART-1-1",           264,       4.92391,   813.983E-03,            0.,NA,NA,"",       1.96412,      -1.89407,  -519.855E-03,   1.48075E-03
C:/temp/dataset/4/28_2.odb,Step-1,Increment      1: Step Time =    1.000,"PART-1-1",           265,      -7.77287,       1.11371,            0.,NA,NA,"",       2.51460,      -1.86926,      -1.68199,   14.2323E-06
C:/temp/dataset/4/28_2.odb,Step-1,Increment      1: Step Time =    1.000,"PART-1-1",           266,      -3.71710,       1.36231,            0.,NA,NA,"",       2.31625,      -1.90916,      -1.31153,   62.8957E-06
C:/temp/dataset/4/28_2.odb,Step-1,Increment      1: Step Time =    1.000,"PART-1-1",           267,       2.85817,       1.10052,            0.,NA,NA,"",       2.03992,      -1.91276,  -708.966E-03,   608.062E-06
C:/temp/dataset/4/28_2.odb,Step-1,Increment      1: Step Time =    1.000,"PART-1-1",           268,       7.51165,      -2.37377,            0.,NA,NA,"",       1.63055,      -1.60820,  -268.995E-03,   4.10552E-03
C:/temp/dataset/4/28_2.odb,Step-1,Increment      1: Step Time =    1.000,"PART-1-1",           269,      -1.84913,   666.939E-03,            0.,NA,NA,"",       2.17471,      -1.85346,      -1.13756,   109.996E-06
C:/temp/dataset/4/28_2.odb,Step-1,Increment      1: Step Time =    1.000,"PART-1-1",           270,   621.955E-03,   989.730E-03,            0.,NA,NA,"",       2.10199,      -1.89350,  -912.698E-03,   125.075E-06
C:/temp/dataset/4/28_2.odb,Step-1,Increment      1: Step Time =    1.000,"PART-1-1",           271,       7.77182,      -4.29185,            0.,NA,NA,"",       1.45162,      -1.43266,  -233.813E-03,   4.81111E-03
C:/temp/dataset/4/28_2.odb,Step-1,Increment      1: Step Time =    1.000,"PART-1-1",           272,       6.40836,       5.42027,            0.,NA,NA,"",       2.35804,      -2.32255,  -407.544E-03,   932.027E-06
C:/temp/dataset/4/28_2.odb,Step-1,Increment      1: Step Time =    1.000,"PART-1-1",           273,      -12.5139,      -2.82358,            0.,NA,NA,"",       2.57389,      -1.48871,      -2.09968,   381.462E-09
C:/temp/dataset/4/28_2.odb,Step-1,Increment      1: Step Time =    1.000,"PART-1-1",           274,       10.8188,      -25.6946,            0.,NA,NA,"",   59.0443E-03,  -56.6911E-03,   16.5031E-03,   6.08502E-03
C:/temp/dataset/4/28_2.odb,Step-1,Increment      1: Step Time =    1.000,"PART-1-1",           275,       6.49302,  -163.532E-03,            0.,NA,NA,"",       1.84738,      -1.80933,  -373.002E-03,   2.45157E-03
C:/temp/dataset/4/28_2.odb,Step-1,Increment      1: Step Time =    1.000,"PART-1-1",           276,       7.60941,  -936.337E-03,            0.,NA,NA,"",       1.76188,      -1.74121,  -269.101E-03,   3.26854E-03
C:/temp/dataset/4/28_2.odb,Step-1,Increment      1: Step Time =    1.000,"PART-1-1",           277,       9.17282,      -2.25688,            0.,NA,NA,"",       1.62839,      -1.62358,  -125.051E-03,   4.19646E-03
C:/temp/dataset/4/28_2.odb,Step-1,Increment      1: Step Time =    1.000,"PART-1-1",           278,       9.10690,      -3.89703,            0.,NA,NA,"",       1.47738,      -1.47230,  -122.324E-03,   4.52441E-03
C:/temp/dataset/4/28_2.odb,Step-1,Increment      1: Step Time =    1.000,"PART-1-1",           279,      -7.91199,      -1.40732,            0.,NA,NA,"",       2.34920,      -1.63778,      -1.68417,   13.6935E-06
C:/temp/dataset/4/28_2.odb,Step-1,Increment      1: Step Time =    1.000,"PART-1-1",           280,      -9.83927,       21.3699,            0.,NA,NA,"",       4.19943,      -3.71588,      -1.95639,   14.0225E-09
C:/temp/dataset/4/28_2.odb,Step-1,Increment      1: Step Time =    1.000,"PART-1-1",           281,      -11.2653,       5.77953,            0.,NA,NA,"",       3.04852,      -2.28191,      -2.02147,   440.925E-09
C:/temp/dataset/4/28_2.odb,Step-1,Increment      1: Step Time =    1.000,"PART-1-1",           282,      -11.2487,       3.84080,            0.,NA,NA,"",       2.91134,      -2.10441,      -2.01180,   1.43747E-06
C:/temp/dataset/4/28_2.odb,Step-1,Increment      1: Step Time =    1.000,"PART-1-1",           283,       3.11059,  -868.354E-03,            0.,NA,NA,"",       1.86092,      -1.73368,  -676.319E-03,   824.940E-06
C:/temp/dataset/4/28_2.odb,Step-1,Increment      1: Step Time =    1.000,"PART-1-1",           284,       4.50766,  -682.768E-03,            0.,NA,NA,"",       1.83953,      -1.75555,  -549.469E-03,   1.48834E-03
C:/temp/dataset/4/28_2.odb,Step-1,Increment      1: Step Time =    1.000,"PART-1-1",           285,      -3.56662,  -854.847E-03,            0.,NA,NA,"",       2.13853,      -1.70675,      -1.28853,   79.1458E-06
C:/temp/dataset/4/28_2.odb,Step-1,Increment      1: Step Time =    1.000,"PART-1-1",           286,      -7.33150,       26.6843,            0.,NA,NA,"",       4.56181,      -4.21319,      -1.74904,   16.1989E-09
C:/temp/dataset/4/28_2.odb,Step-1,Increment      1: Step Time =    1.000,"PART-1-1",           287,      -6.09303,       25.7233,            0.,NA,NA,"",       4.44094,      -4.13037,      -1.63156,   16.9727E-09
C:/temp/dataset/4/28_2.odb,Step-1,Increment      1: Step Time =    1.000,"PART-1-1",           288,           -5.,        26.875,            0.,NA,NA,"",       4.51017,      -4.24045,      -1.53629,   17.0606E-09
C:/temp/dataset/4/28_2.odb,Step-1,Increment      1: Step Time =    1.000,"PART-1-1",           289,      -6.23847,       27.8360,            0.,NA,NA,"",       4.62878,      -4.32327,      -1.65376,   16.2631E-09
C:/temp/dataset/4/28_2.odb,Step-1,Increment      1: Step Time =    1.000,"PART-1-1",           290,      -8.20013,       25.3620,            0.,NA,NA,"",       4.47646,      -4.08842,      -1.82304,   16.0981E-09
C:/temp/dataset/4/28_2.odb,Step-1,Increment      1: Step Time =    1.000,"PART-1-1",           291,      -8.98257,       24.1636,            0.,NA,NA,"",       4.40163,      -3.97536,      -1.88967,   15.7397E-09
C:/temp/dataset/4/28_2.odb,Step-1,Increment      1: Step Time =    1.000,"PART-1-1",           292,      -7.83587,       23.3915,            0.,NA,NA,"",       4.29620,      -3.90947,      -1.78139,   16.4382E-09
C:/temp/dataset/4/28_2.odb,Step-1,Increment      1: Step Time =    1.000,"PART-1-1",           293,      -7.05344,       24.5900,            0.,NA,NA,"",       4.37277,      -4.02253,      -1.71476,   16.8742E-09
C:/temp/dataset/4/28_2.odb,Step-1,Increment      1: Step Time =    1.000,"PART-1-1",           294,      -6.78951,       20.5788,            0.,NA,NA,"",       4.02113,      -3.65624,      -1.67373,   17.6205E-09
C:/temp/dataset/4/28_2.odb,Step-1,Increment      1: Step Time =    1.000,"PART-1-1",           295,      -5.89603,       19.5861,            0.,NA,NA,"",       3.90629,      -3.56907,      -1.58772,   20.9912E-09
C:/temp/dataset/4/28_2.odb,Step-1,Increment      1: Step Time =    1.000,"PART-1-1",           296,           -5.,        20.625,            0.,NA,NA,"",       3.96665,      -3.66799,      -1.51001,   23.1632E-09
C:/temp/dataset/4/28_2.odb,Step-1,Increment      1: Step Time =    1.000,"PART-1-1",           297,      -5.89348,       21.6177,            0.,NA,NA,"",       4.08026,      -3.75516,      -1.59602,   19.6067E-09
C:/temp/dataset/4/28_2.odb,Step-1,Increment      1: Step Time =    1.000,"PART-1-1",           298,      -7.97413,       13.6001,            0.,NA,NA,"",       3.48499,      -3.01206,      -1.75290,   128.014E-09
C:/temp/dataset/4/28_2.odb,Step-1,Increment      1: Step Time =    1.000,"PART-1-1",           299,      -8.98702,       12.6704,            0.,NA,NA,"",       3.45455,      -2.92264,      -1.84176,   246.517E-09
C:/temp/dataset/4/28_2.odb,Step-1,Increment      1: Step Time =    1.000,"PART-1-1",           300,      -8.00249,       11.5116,            0.,NA,NA,"",       3.31769,      -2.82065,      -1.74672,   298.566E-09
C:/temp/dataset/4/28_2.odb,Step-1,Increment      1: Step Time =    1.000,"PART-1-1",           301,      -6.98959,       12.4413,            0.,NA,NA,"",       3.34917,      -2.91006,      -1.65785,   252.955E-09
C:/temp/dataset/4/28_2.odb,Step-1,Increment      1: Step Time =    1.000,"PART-1-1",           302,      -9.95004,      -1.64066,            0.,NA,NA,"",       2.46605,      -1.60783,      -1.86984,   3.56381E-06
C:/temp/dataset/4/28_2.odb,Step-1,Increment      1: Step Time =    1.000,"PART-1-1",           303,      -11.1983,  -513.068E-03,            0.,NA,NA,"",       2.62024,      -1.70586,      -1.98890,   2.69950E-06
C:/temp/dataset/4/28_2.odb,Step-1,Increment      1: Step Time =    1.000,"PART-1-1",           304,      -12.5325,      -1.72297,            0.,NA,NA,"",       2.63848,      -1.58943,      -2.10601,   472.460E-09
C:/temp/dataset/4/28_2.odb,Step-1,Increment      1: Step Time =    1.000,"PART-1-1",           305,      -11.2842,      -2.85056,            0.,NA,NA,"",       2.48440,      -1.49141,      -1.98694,   1.38390E-06
C:/temp/dataset/4/28_2.odb,Step-1,Increment      1: Step Time =    1.000,"PART-1-1",           306,      -10.2834,   741.336E-03,            0.,NA,NA,"",       2.64171,      -1.82459,      -1.91037,   3.95081E-06
C:/temp/dataset/4/28_2.odb,Step-1,Increment      1: Step Time =    1.000,"PART-1-1",           307,      -11.7661,       1.72477,            0.,NA,NA,"",       2.80104,      -1.90843,      -2.05030,   1.83389E-06
C:/temp/dataset/4/28_2.odb,Step-1,Increment      1: Step Time =    1.000,"PART-1-1",           308,      -12.6810,   470.366E-03,            0.,NA,NA,"",       2.78117,      -1.78969,      -2.12883,   692.025E-09
C:/temp/dataset/4/28_2.odb,Step-1,Increment      1: Step Time =    1.000,"PART-1-1",           309,         -1.25,           -5.,            0.,NA,NA,"",       1.70505,      -1.33639,      -1.05889,   224.815E-06
C:/temp/dataset/4/28_2.odb,Step-1,Increment      1: Step Time =    1.000,"PART-1-1",           310,  -165.329E-03,      -4.13131,            0.,NA,NA,"",       1.71623,      -1.42048,  -963.162E-03,   202.251E-06
C:/temp/dataset/4/28_2.odb,Step-1,Increment      1: Step Time =    1.000,"PART-1-1",           311,      -1.46228,      -3.26668,            0.,NA,NA,"",       1.84725,      -1.49452,      -1.08571,   118.633E-06
C:/temp/dataset/4/28_2.odb,Step-1,Increment      1: Step Time =    1.000,"PART-1-1",           312,      -2.54695,      -4.13537,            0.,NA,NA,"",       1.83975,      -1.41032,      -1.18139,   75.7929E-06
C:/temp/dataset/4/28_2.odb,Step-1,Increment      1: Step Time =    1.000,"PART-1-1",           313,   769.081E-03,      -3.16387,            0.,NA,NA,"",       1.75135,      -1.51336,  -881.463E-03,   195.031E-06
C:/temp/dataset/4/28_2.odb,Step-1,Increment      1: Step Time =    1.000,"PART-1-1",           314,          1.25,           -5.,            0.,NA,NA,"",       1.58107,      -1.34616,  -829.239E-03,   373.965E-06
C:/temp/dataset/4/28_2.odb,Step-1,Increment      1: Step Time =    1.000,"PART-1-1",           315,       2.18441,      -4.03256,            0.,NA,NA,"",       1.62166,      -1.43932,  -747.075E-03,   615.385E-06
C:/temp/dataset/4/28_2.odb,Step-1,Increment      1: Step Time =    1.000,"PART-1-1",           316,       1.54561,       3.01681,            0.,NA,NA,"",       2.24449,      -2.08257,  -837.032E-03,   171.631E-06
C:/temp/dataset/4/28_2.odb,Step-1,Increment      1: Step Time =    1.000,"PART-1-1",           317,       2.64536,       4.01417,            0.,NA,NA,"",       2.30073,      -2.17805,  -741.263E-03,   195.132E-06
C:/temp/dataset/4/28_2.odb,Step-1,Increment      1: Step Time =    1.000,"PART-1-1",           318,          1.25,            5.,            0.,NA,NA,"",       2.42458,      -2.26220,  -872.362E-03,   237.866E-06
C:/temp/dataset/4/28_2.odb,Step-1,Increment      1: Step Time =    1.000,"PART-1-1",           319,   150.245E-03,       4.00264,            0.,NA,NA,"",       2.37342,      -2.16681,  -968.545E-03,   133.418E-06
C:/temp/dataset/4/28_2.odb,Step-1,Increment      1: Step Time =    1.000,"PART-1-1",           320,   179.474E-03,      -1.21124,            0.,NA,NA,"",       1.93580,      -1.69010,  -943.867E-03,   137.591E-06
C:/temp/dataset/4/28_2.odb,Step-1,Increment      1: Step Time =    1.000,"PART-1-1",           321,  -580.901E-03,      -2.30818,            0.,NA,NA,"",       1.87991,      -1.58621,      -1.00896,   101.370E-06
C:/temp/dataset/4/28_2.odb,Step-1,Increment      1: Step Time =    1.000,"PART-1-1",           322,       1.52946,      -2.06693,            0.,NA,NA,"",       1.81172,      -1.61741,  -816.296E-03,   269.300E-06
C:/temp/dataset/4/28_2.odb,Step-1,Increment      1: Step Time =    1.000,"PART-1-1",           323,       12.7868,      -3.71378,            0.,NA,NA,"",       1.51639,      -1.50433,   190.897E-03,   4.58816E-03
C:/temp/dataset/4/28_2.odb,Step-1,Increment      1: Step Time =    1.000,"PART-1-1",           324,       13.8814,      -5.00619,            0.,NA,NA,"",       1.42258,      -1.39365,   285.440E-03,   6.14596E-03
C:/temp/dataset/4/28_2.odb,Step-1,Increment      1: Step Time =    1.000,"PART-1-1",           325,           15.,         -3.75,            0.,NA,NA,"",       1.56307,      -1.51463,   386.113E-03,   6.48051E-03
C:/temp/dataset/4/28_2.odb,Step-1,Increment      1: Step Time =    1.000,"PART-1-1",           326,       13.9054,      -2.45760,            0.,NA,NA,"",       1.65157,      -1.62618,   288.499E-03,   4.24826E-03
C:/temp/dataset/4/28_2.odb,Step-1,Increment      1: Step Time =    1.000,"PART-1-1",           327,       5.10003,      -1.40311,            0.,NA,NA,"",       1.76140,      -1.69147,  -491.384E-03,   2.30978E-03
C:/temp/dataset/4/28_2.odb,Step-1,Increment      1: Step Time =    1.000,"PART-1-1",           328,       3.80913,  -775.561E-03,            0.,NA,NA,"",       1.84920,      -1.74468,  -612.882E-03,   1.18280E-03
C:/temp/dataset/4/28_2.odb,Step-1,Increment      1: Step Time =    1.000,"PART-1-1",           329,       3.52110,      -1.80919,            0.,NA,NA,"",       1.76670,      -1.64904,  -633.971E-03,   1.15253E-03
C:/temp/dataset/4/28_2.odb,Step-1,Increment      1: Step Time =    1.000,"PART-1-1",           330,       4.81200,      -2.43673,            0.,NA,NA,"",       1.67606,      -1.59616,  -511.343E-03,   2.27482E-03
C:/temp/dataset/4/28_2.odb,Step-1,Increment      1: Step Time =    1.000,"PART-1-1",           331,           15.,          3.75,            0.,NA,NA,"",       2.24588,      -2.21431,   375.199E-03,   1.95568E-03
C:/temp/dataset/4/28_2.odb,Step-1,Increment      1: Step Time =    1.000,"PART-1-1",           332,       13.8386,       5.14064,            0.,NA,NA,"",       2.35008,      -2.33516,   264.413E-03,   2.01692E-03
C:/temp/dataset/4/28_2.odb,Step-1,Increment      1: Step Time =    1.000,"PART-1-1",           333,       12.6076,       4.00525,            0.,NA,NA,"",       2.22910,      -2.22360,   156.536E-03,   2.41540E-03
C:/temp/dataset/4/28_2.odb,Step-1,Increment      1: Step Time =    1.000,"PART-1-1",           334,       13.7689,       2.61462,            0.,NA,NA,"",       2.11846,      -2.10169,   266.042E-03,   2.48079E-03
C:/temp/dataset/4/28_2.odb,Step-1,Increment      1: Step Time =    1.000,"PART-1-1",           335,       9.76439,       8.40859,            0.,NA,NA,"",       2.61360,      -2.61104,  -115.657E-03,   423.158E-06
C:/temp/dataset/4/28_2.odb,Step-1,Increment      1: Step Time =    1.000,"PART-1-1",           336,       8.59642,       7.53369,            0.,NA,NA,"",       2.53546,      -2.52607,  -218.032E-03,   626.027E-06
C:/temp/dataset/4/28_2.odb,Step-1,Increment      1: Step Time =    1.000,"PART-1-1",           337,       9.44563,       6.06261,            0.,NA,NA,"",       2.39935,      -2.39552,  -135.568E-03,   1.18791E-03
C:/temp/dataset/4/28_2.odb,Step-1,Increment      1: Step Time =    1.000,"PART-1-1",           338,       10.6136,       6.93751,            0.,NA,NA,"",       2.48141,      -2.48119,  -33.1701E-03,   992.766E-06
C:/temp/dataset/4/28_2.odb,Step-1,Increment      1: Step Time =    1.000,"PART-1-1",           339,       5.92452,       9.07762,            0.,NA,NA,"",       2.69622,      -2.65546,  -467.032E-03,   97.7853E-06
C:/temp/dataset/4/28_2.odb,Step-1,Increment      1: Step Time =    1.000,"PART-1-1",           340,            5.,         8.125,            0.,NA,NA,"",       2.62248,      -2.56470,  -547.425E-03,   121.846E-06
C:/temp/dataset/4/28_2.odb,Step-1,Increment      1: Step Time =    1.000,"PART-1-1",           341,       5.83838,       7.03541,            0.,NA,NA,"",       2.51216,      -2.46851,  -466.283E-03,   240.051E-06
C:/temp/dataset/4/28_2.odb,Step-1,Increment      1: Step Time =    1.000,"PART-1-1",           342,       6.76290,       7.98803,            0.,NA,NA,"",       2.58855,      -2.55958,  -386.237E-03,   364.145E-06
C:/temp/dataset/4/28_2.odb,Step-1,Increment      1: Step Time =    1.000,"PART-1-1",           343,       6.00358,       15.4027,            0.,NA,NA,"",       3.26617,      -3.22987,  -485.601E-03,   28.1061E-06
C:/temp/dataset/4/28_2.odb,Step-1,Increment      1: Step Time =    1.000,"PART-1-1",           344,            5.,        14.375,            0.,NA,NA,"",       3.18443,      -3.13256,  -572.399E-03,   58.3482E-06
C:/temp/dataset/4/28_2.odb,Step-1,Increment      1: Step Time =    1.000,"PART-1-1",           345,       5.99171,       13.2884,            0.,NA,NA,"",       3.07553,      -3.03815,  -478.036E-03,   59.4750E-06
C:/temp/dataset/4/28_2.odb,Step-1,Increment      1: Step Time =    1.000,"PART-1-1",           346,       6.99529,       14.3161,            0.,NA,NA,"",       3.15978,      -3.13547,  -391.195E-03,   49.1713E-06
C:/temp/dataset/4/28_2.odb,Step-1,Increment      1: Step Time =    1.000,"PART-1-1",           347,       11.7328,       24.6815,            0.,NA,NA,"",       4.09460,      -4.09460,  -4.37899E-03,   202.622E-09
C:/temp/dataset/4/28_2.odb,Step-1,Increment      1: Step Time =    1.000,"PART-1-1",           348,       12.6496,       26.1279,            0.,NA,NA,"",       4.23013,      -4.22950,   72.7801E-03,   210.566E-09
C:/temp/dataset/4/28_2.odb,Step-1,Increment      1: Step Time =    1.000,"PART-1-1",           349,       11.2054,       27.2635,            0.,NA,NA,"",       4.32696,      -4.32650,  -62.8174E-03,   163.812E-09
C:/temp/dataset/4/28_2.odb,Step-1,Increment      1: Step Time =    1.000,"PART-1-1",           350,       10.2886,       25.8171,            0.,NA,NA,"",       4.19394,      -4.19161,  -139.976E-03,   166.265E-09
C:/temp/dataset/4/28_2.odb,Step-1,Increment      1: Step Time =    1.000,"PART-1-1",           351,       12.5134,       28.7000,            0.,NA,NA,"",       4.46240,      -4.46212,   49.8437E-03,   153.683E-09
C:/temp/dataset/4/28_2.odb,Step-1,Increment      1: Step Time =    1.000,"PART-1-1",           352,       13.7634,       27.4500,            0.,NA,NA,"",       4.35720,      -4.35395,   168.313E-03,   159.302E-09
C:/temp/dataset/4/28_2.odb,Step-1,Increment      1: Step Time =    1.000,"PART-1-1",           353,           15.,         28.75,            0.,NA,NA,"",       4.48534,      -4.47689,   275.066E-03,   51.4046E-09
C:/temp/dataset/4/28_2.odb,Step-1,Increment      1: Step Time =    1.000,"PART-1-1",           354,         13.75,           30.,            0.,NA,NA,"",       4.58774,      -4.58507,   156.597E-03,   41.4868E-09
C:/temp/dataset/4/28_2.odb,Step-1,Increment      1: Step Time =    1.000,"PART-1-1",           355,      -3.83569,      -2.96698,            0.,NA,NA,"",       1.99690,      -1.51204,      -1.30435,   66.2431E-06
C:/temp/dataset/4/28_2.odb,Step-1,Increment      1: Step Time =    1.000,"PART-1-1",           356,      -2.47303,      -2.56070,            0.,NA,NA,"",       1.95282,      -1.55503,      -1.18127,   81.9767E-06
C:/temp/dataset/4/28_2.odb,Step-1,Increment      1: Step Time =    1.000,"PART-1-1",           357,      -2.95938,      -1.35275,            0.,NA,NA,"",       2.06952,      -1.66371,      -1.23085,   83.6278E-06
C:/temp/dataset/4/28_2.odb,Step-1,Increment      1: Step Time =    1.000,"PART-1-1",           358,      -4.32205,      -1.75903,            0.,NA,NA,"",       2.11183,      -1.62069,      -1.35394,   50.7362E-06
C:/temp/dataset/4/28_2.odb,Step-1,Increment      1: Step Time =    1.000,"PART-1-1",           359,       8.60967,      -7.25473,            0.,NA,NA,"",       1.18082,      -1.17183,  -145.414E-03,   4.42608E-03
C:/temp/dataset/4/28_2.odb,Step-1,Increment      1: Step Time =    1.000,"PART-1-1",           360,       7.51358,      -6.44375,            0.,NA,NA,"",       1.26295,      -1.23982,  -240.637E-03,   4.98627E-03
C:/temp/dataset/4/28_2.odb,Step-1,Increment      1: Step Time =    1.000,"PART-1-1",           361,       6.75300,      -7.77251,            0.,NA,NA,"",       1.16229,      -1.12496,  -292.208E-03,   6.84827E-03
C:/temp/dataset/4/28_2.odb,Step-1,Increment      1: Step Time =    1.000,"PART-1-1",           362,       7.84909,      -8.58350,            0.,NA,NA,"",       1.07624,      -1.05802,  -197.185E-03,   5.54658E-03
C:/temp/dataset/4/28_2.odb,Step-1,Increment      1: Step Time =    1.000,"PART-1-1",           363,       7.07130,      -14.2100,            0.,NA,NA,"",   659.213E-03,  -627.421E-03,  -202.249E-03,   9.75820E-03
C:/temp/dataset/4/28_2.odb,Step-1,Increment      1: Step Time =    1.000,"PART-1-1",           364,       6.02882,      -13.2279,            0.,NA,NA,"",   755.035E-03,  -699.090E-03,  -285.221E-03,   12.1632E-03
C:/temp/dataset/4/28_2.odb,Step-1,Increment      1: Step Time =    1.000,"PART-1-1",           365,            5.,       -14.375,            0.,NA,NA,"",   709.891E-03,  -623.419E-03,  -339.549E-03,   16.2469E-03
C:/temp/dataset/4/28_2.odb,Step-1,Increment      1: Step Time =    1.000,"PART-1-1",           366,       6.04247,      -15.3570,            0.,NA,NA,"",   609.260E-03,  -553.436E-03,  -254.765E-03,   13.6166E-03
C:/temp/dataset/4/28_2.odb,Step-1,Increment      1: Step Time =    1.000,"PART-1-1",           367,       7.02995,      -12.0379,            0.,NA,NA,"",   816.720E-03,  -784.207E-03,  -228.146E-03,   8.76396E-03
C:/temp/dataset/4/28_2.odb,Step-1,Increment      1: Step Time =    1.000,"PART-1-1",           368,       6.00113,      -11.1016,            0.,NA,NA,"",   912.949E-03,  -856.927E-03,  -314.886E-03,   10.7425E-03
C:/temp/dataset/4/28_2.odb,Step-1,Increment      1: Step Time =    1.000,"PART-1-1",           369,            5.,      -12.2917,            0.,NA,NA,"",   856.118E-03,  -770.358E-03,  -373.479E-03,   14.3810E-03
C:/temp/dataset/4/28_2.odb,Step-1,Increment      1: Step Time =    1.000,"PART-1-1",           370,            5.,      -22.7083,            0.,NA,NA,"",   250.492E-03,  -176.880E-03,  -177.369E-03,   23.7343E-03
C:/temp/dataset/4/28_2.odb,Step-1,Increment      1: Step Time =    1.000,"PART-1-1",           371,       6.05922,      -23.7899,            0.,NA,NA,"",   174.374E-03,  -128.446E-03,  -117.932E-03,   19.4729E-03
C:/temp/dataset/4/28_2.odb,Step-1,Increment      1: Step Time =    1.000,"PART-1-1",           372,       7.11013,      -22.7834,            0.,NA,NA,"",   185.678E-03,  -157.622E-03,  -98.1399E-03,   13.9243E-03
C:/temp/dataset/4/28_2.odb,Step-1,Increment      1: Step Time =    1.000,"PART-1-1",           373,       6.05091,      -21.7018,            0.,NA,NA,"",   259.481E-03,  -208.218E-03,  -154.841E-03,   18.0253E-03
C:/temp/dataset/4/28_2.odb,Step-1,Increment      1: Step Time =    1.000,"PART-1-1",           374,          8.75,          -30.,            0.,NA,NA,"",            0.,   2.38455E-39,  -11.0499E-39,   5.64691E-03
C:/temp/dataset/4/28_2.odb,Step-1,Increment      1: Step Time =    1.000,"PART-1-1",           375,       9.84988,      -28.9274,            0.,NA,NA,"",   948.508E-06,  -855.423E-06,  -409.780E-06,   929.337E-06
C:/temp/dataset/4/28_2.odb,Step-1,Increment      1: Step Time =    1.000,"PART-1-1",           376,       8.52411,      -27.9095,            0.,NA,NA,"",   18.0991E-03,  -12.8184E-03,  -12.7776E-03,   8.91540E-03
C:/temp/dataset/4/28_2.odb,Step-1,Increment      1: Step Time =    1.000,"PART-1-1",           377,       7.42422,      -28.9821,            0.,NA,NA,"",   11.0515E-03,  -3.36877E-03,  -10.5255E-03,   12.6690E-03
C:/temp/dataset/4/28_2.odb,Step-1,Increment      1: Step Time =    1.000,"PART-1-1",           378,       10.1104,      -23.9794,            0.,NA,NA,"",   107.108E-03,  -107.063E-03,   3.11292E-03,   4.01788E-03
C:/temp/dataset/4/28_2.odb,Step-1,Increment      1: Step Time =    1.000,"PART-1-1",           379,       11.1261,      -23.0268,            0.,NA,NA,"",   148.053E-03,  -143.684E-03,   35.7022E-03,   6.88626E-03
C:/temp/dataset/4/28_2.odb,Step-1,Increment      1: Step Time =    1.000,"PART-1-1",           380,       10.1523,      -21.9025,            0.,NA,NA,"",   187.268E-03,  -187.213E-03,   4.53168E-03,   3.98578E-03
C:/temp/dataset/4/28_2.odb,Step-1,Increment      1: Step Time =    1.000,"PART-1-1",           381,       9.13660,      -22.8552,            0.,NA,NA,"",   150.934E-03,  -148.157E-03,  -28.8168E-03,   5.62485E-03
C:/temp/dataset/4/28_2.odb,Step-1,Increment      1: Step Time =    1.000,"PART-1-1",           382,       7.09296,      -18.5383,            0.,NA,NA,"",   388.237E-03,  -357.363E-03,  -151.723E-03,   11.8585E-03
C:/temp/dataset/4/28_2.odb,Step-1,Increment      1: Step Time =    1.000,"PART-1-1",           383,       6.04465,      -17.4814,            0.,NA,NA,"",   477.462E-03,  -422.052E-03,  -223.253E-03,   15.0982E-03
C:/temp/dataset/4/28_2.odb,Step-1,Increment      1: Step Time =    1.000,"PART-1-1",           384,            5.,      -18.5417,            0.,NA,NA,"",   453.649E-03,  -369.091E-03,  -263.759E-03,   20.0033E-03
C:/temp/dataset/4/28_2.odb,Step-1,Increment      1: Step Time =    1.000,"PART-1-1",           385,       6.04831,      -19.5985,            0.,NA,NA,"",   360.490E-03,  -306.438E-03,  -189.865E-03,   16.5705E-03
C:/temp/dataset/4/28_2.odb,Step-1,Increment      1: Step Time =    1.000,"PART-1-1",           386,       8.88188,       22.9635,            0.,NA,NA,"",       3.93543,      -3.92711,  -255.758E-03,   1.00967E-06
C:/temp/dataset/4/28_2.odb,Step-1,Increment      1: Step Time =    1.000,"PART-1-1",           387,       9.93448,       22.0483,            0.,NA,NA,"",       3.85166,      -3.84848,  -156.563E-03,   1.49728E-06
C:/temp/dataset/4/28_2.odb,Step-1,Increment      1: Step Time =    1.000,"PART-1-1",           388,       10.8087,       23.3359,            0.,NA,NA,"",       3.96967,      -3.96881,  -82.6152E-03,   794.783E-09
C:/temp/dataset/4/28_2.odb,Step-1,Increment      1: Step Time =    1.000,"PART-1-1",           389,       9.75606,       24.2511,            0.,NA,NA,"",       4.05152,      -4.04744,  -181.810E-03,   286.503E-09
C:/temp/dataset/4/28_2.odb,Step-1,Increment      1: Step Time =    1.000,"PART-1-1",           390,       10.0218,       17.5512,            0.,NA,NA,"",       3.44360,      -3.44114,  -130.104E-03,   17.5594E-06
C:/temp/dataset/4/28_2.odb,Step-1,Increment      1: Step Time =    1.000,"PART-1-1",           391,       9.00837,       16.4411,            0.,NA,NA,"",       3.34343,      -3.33636,  -217.396E-03,   30.5115E-06
C:/temp/dataset/4/28_2.odb,Step-1,Increment      1: Step Time =    1.000,"PART-1-1",           392,       10.0249,       15.2736,            0.,NA,NA,"",       3.23693,      -3.23469,  -120.395E-03,   40.7948E-06
C:/temp/dataset/4/28_2.odb,Step-1,Increment      1: Step Time =    1.000,"PART-1-1",           393,       11.0383,       16.3837,            0.,NA,NA,"",       3.33964,      -3.33947,  -33.1284E-03,   31.9198E-06
C:/temp/dataset/4/28_2.odb,Step-1,Increment      1: Step Time =    1.000,"PART-1-1",           394,      -14.0638,       5.89996,            0.,NA,NA,"",       3.22404,      -2.28118,      -2.27830,   817.599E-09
C:/temp/dataset/4/28_2.odb,Step-1,Increment      1: Step Time =    1.000,"PART-1-1",           395,      -13.1194,       6.91794,            0.,NA,NA,"",       3.23721,      -2.37839,      -2.19608,   458.585E-09
C:/temp/dataset/4/28_2.odb,Step-1,Increment      1: Step Time =    1.000,"PART-1-1",           396,      -14.0556,       8.04923,            0.,NA,NA,"",       3.37184,      -2.47807,      -2.28658,   598.000E-09
C:/temp/dataset/4/28_2.odb,Step-1,Increment      1: Step Time =    1.000,"PART-1-1",           397,          -15.,       7.03125,            0.,NA,NA,"",       3.35853,      -2.38086,      -2.36881,   1.06362E-06
C:/temp/dataset/4/28_2.odb,Step-1,Increment      1: Step Time =    1.000,"PART-1-1",           398,      -14.0181,       12.3521,            0.,NA,NA,"",       3.68049,      -2.87234,      -2.30124,   139.575E-09
C:/temp/dataset/4/28_2.odb,Step-1,Increment      1: Step Time =    1.000,"PART-1-1",           399,      -13.0189,       13.2775,            0.,NA,NA,"",       3.69722,      -2.96131,      -2.21361,   141.616E-09
C:/temp/dataset/4/28_2.odb,Step-1,Increment      1: Step Time =    1.000,"PART-1-1",           400,      -14.0008,       14.5192,            0.,NA,NA,"",       3.84199,      -3.07091,      -2.30877,   45.0158E-09
C:/temp/dataset/4/28_2.odb,Step-1,Increment      1: Step Time =    1.000,"PART-1-1",           401,          -15.,       13.5938,            0.,NA,NA,"",       3.82553,      -2.98194,      -2.39639,   89.2207E-09
C:/temp/dataset/4/28_2.odb,Step-1,Increment      1: Step Time =    1.000,"PART-1-1",           402,      -10.1942,       21.9572,            0.,NA,NA,"",       4.26201,      -3.76818,      -1.99137,   14.1909E-09
C:/temp/dataset/4/28_2.odb,Step-1,Increment      1: Step Time =    1.000,"PART-1-1",           403,      -9.14995,       21.4132,            0.,NA,NA,"",       4.17659,      -3.72274,      -1.89344,   14.6298E-09
C:/temp/dataset/4/28_2.odb,Step-1,Increment      1: Step Time =    1.000,"PART-1-1",           404,      -8.60578,       22.3365,            0.,NA,NA,"",       4.23393,      -3.80960,      -1.84747,   15.5460E-09
C:/temp/dataset/4/28_2.odb,Step-1,Increment      1: Step Time =    1.000,"PART-1-1",           405,      -9.65000,       22.8805,            0.,NA,NA,"",       4.31809,      -3.85504,      -1.94541,   15.0885E-09
C:/temp/dataset/4/28_2.odb,Step-1,Increment      1: Step Time =    1.000,"PART-1-1",           406,      -14.0213,       25.7108,            0.,NA,NA,"",       4.72600,      -4.09590,      -2.35768,   14.4641E-09
C:/temp/dataset/4/28_2.odb,Step-1,Increment      1: Step Time =    1.000,"PART-1-1",           407,      -12.8802,       26.8172,            0.,NA,NA,"",       4.77021,      -4.20204,      -2.25782,   14.9274E-09
C:/temp/dataset/4/28_2.odb,Step-1,Increment      1: Step Time =    1.000,"PART-1-1",           408,      -13.8589,       27.8252,            0.,NA,NA,"",       4.89252,      -4.29025,      -2.35170,   14.8408E-09
C:/temp/dataset/4/28_2.odb,Step-1,Increment      1: Step Time =    1.000,"PART-1-1",           409,          -15.,       26.7188,            0.,NA,NA,"",       4.84942,      -4.18411,      -2.45156,   14.5449E-09
C:/temp/dataset/4/28_2.odb,Step-1,Increment      1: Step Time =    1.000,"PART-1-1",           410,        -13.75,           30.,            0.,NA,NA,"",       5.06812,      -4.48990,      -2.35087,   16.3525E-09
C:/temp/dataset/4/28_2.odb,Step-1,Increment      1: Step Time =    1.000,"PART-1-1",           411,          -15.,       28.9063,            0.,NA,NA,"",       5.02781,      -4.38447,      -2.46076,   15.0987E-09
C:/temp/dataset/4/28_2.odb,Step-1,Increment      1: Step Time =    1.000,"PART-1-1",           412,      -12.6089,       28.9190,            0.,NA,NA,"",       4.93434,      -4.39568,      -2.24181,   15.8896E-09
C:/temp/dataset/4/28_2.odb,Step-1,Increment      1: Step Time =    1.000,"PART-1-1",           413,      -11.4362,       27.6040,            0.,NA,NA,"",       4.78037,      -4.28017,      -2.12886,   15.4308E-09
C:/temp/dataset/4/28_2.odb,Step-1,Increment      1: Step Time =    1.000,"PART-1-1",           414,      -10.0773,       28.6850,            0.,NA,NA,"",       4.82319,      -4.38490,      -2.00894,   15.5618E-09
C:/temp/dataset/4/28_2.odb,Step-1,Increment      1: Step Time =    1.000,"PART-1-1",           415,        -11.25,           30.,            0.,NA,NA,"",       4.97555,      -4.50041,      -2.12188,   15.8937E-09
C:/temp/dataset/4/28_2.odb,Step-1,Increment      1: Step Time =    1.000,"PART-1-1",           416,      -13.7240,       21.2404,            0.,NA,NA,"",       4.35233,      -3.68769,      -2.31166,   13.8242E-09
C:/temp/dataset/4/28_2.odb,Step-1,Increment      1: Step Time =    1.000,"PART-1-1",           417,      -12.6979,       22.4429,            0.,NA,NA,"",       4.40419,      -3.80215,      -2.22273,   13.8991E-09
C:/temp/dataset/4/28_2.odb,Step-1,Increment      1: Step Time =    1.000,"PART-1-1",           418,      -13.9739,       23.5463,            0.,NA,NA,"",       4.54848,      -3.89785,      -2.34424,   14.2040E-09
C:/temp/dataset/4/28_2.odb,Step-1,Increment      1: Step Time =    1.000,"PART-1-1",           419,          -15.,       22.3438,            0.,NA,NA,"",       4.49826,      -3.78339,      -2.43317,   14.1412E-09
C:/temp/dataset/4/28_2.odb,Step-1,Increment      1: Step Time =    1.000,"PART-1-1",           420,      -11.9375,       16.3352,            0.,NA,NA,"",       3.88096,      -3.24592,      -2.12741,   27.1239E-09
C:/temp/dataset/4/28_2.odb,Step-1,Increment      1: Step Time =    1.000,"PART-1-1",           421,      -10.8584,       17.1847,            0.,NA,NA,"",       3.89960,      -3.32826,      -2.03214,   24.1095E-09
C:/temp/dataset/4/28_2.odb,Step-1,Increment      1: Step Time =    1.000,"PART-1-1",           422,      -11.8099,       18.4796,            0.,NA,NA,"",       4.04572,      -3.44286,      -2.12474,   10.8119E-09
C:/temp/dataset/4/28_2.odb,Step-1,Increment      1: Step Time =    1.000,"PART-1-1",           423,      -12.8889,       17.6301,            0.,NA,NA,"",       4.02760,      -3.36052,      -2.22000,   15.2185E-09
C:/temp/dataset/4/28_2.odb,Step-1,Increment      1: Step Time =    1.000,"PART-1-1",           424,      -9.98079,       13.8692,            0.,NA,NA,"",       3.59522,      -3.02827,      -1.93782,   119.517E-09
C:/temp/dataset/4/28_2.odb,Step-1,Increment      1: Step Time =    1.000,"PART-1-1",           425,      -11.0142,       12.9724,            0.,NA,NA,"",       3.57348,      -2.94178,      -2.02871,   197.416E-09
C:/temp/dataset/4/28_2.odb,Step-1,Increment      1: Step Time =    1.000,"PART-1-1",           426,      -10.0204,       11.7735,            0.,NA,NA,"",       3.43204,      -2.83615,      -1.93265,   294.945E-09
C:/temp/dataset/4/28_2.odb,Step-1,Increment      1: Step Time =    1.000,"PART-1-1",           427,      -6.95613,       14.5250,            0.,NA,NA,"",       3.51907,      -3.10105,      -1.66354,   84.4346E-09
C:/temp/dataset/4/28_2.odb,Step-1,Increment      1: Step Time =    1.000,"PART-1-1",           428,      -5.98929,       13.4097,            0.,NA,NA,"",       3.38875,      -3.00296,      -1.57030,   80.8351E-09
C:/temp/dataset/4/28_2.odb,Step-1,Increment      1: Step Time =    1.000,"PART-1-1",           429,           -5.,        14.375,            0.,NA,NA,"",       3.43276,      -3.09554,      -1.48374,   43.1661E-09
C:/temp/dataset/4/28_2.odb,Step-1,Increment      1: Step Time =    1.000,"PART-1-1",           430,      -5.96684,       15.4903,            0.,NA,NA,"",       3.56176,      -3.19363,      -1.57699,   24.2459E-09
C:/temp/dataset/4/28_2.odb,Step-1,Increment      1: Step Time =    1.000,"PART-1-1",           431,      -11.0581,       10.8707,            0.,NA,NA,"",       3.41375,      -2.74910,      -2.02389,   378.883E-09
C:/temp/dataset/4/28_2.odb,Step-1,Increment      1: Step Time =    1.000,"PART-1-1",           432,      -10.0579,       9.67932,            0.,NA,NA,"",       3.27202,      -2.64418,      -1.92728,   480.014E-09
C:/temp/dataset/4/28_2.odb,Step-1,Increment      1: Step Time =    1.000,"PART-1-1",           433,      -9.02030,       10.5821,            0.,NA,NA,"",       3.29099,      -2.73123,      -1.83603,   478.497E-09
C:/temp/dataset/4/28_2.odb,Step-1,Increment      1: Step Time =    1.000,"PART-1-1",           434,      -7.04064,       8.20966,            0.,NA,NA,"",       3.01113,      -2.52225,      -1.64474,   1.13358E-06
C:/temp/dataset/4/28_2.odb,Step-1,Increment      1: Step Time =    1.000,"PART-1-1",           435,      -6.03068,       7.10065,            0.,NA,NA,"",       2.87666,      -2.42492,      -1.54757,   2.37944E-06
C:/temp/dataset/4/28_2.odb,Step-1,Increment      1: Step Time =    1.000,"PART-1-1",           436,           -5.,         8.125,            0.,NA,NA,"",       2.91378,      -2.52308,      -1.45747,   1.44979E-06
C:/temp/dataset/4/28_2.odb,Step-1,Increment      1: Step Time =    1.000,"PART-1-1",           437,      -6.00996,       9.23401,            0.,NA,NA,"",       3.04688,      -2.62041,      -1.55464,   681.659E-09
C:/temp/dataset/4/28_2.odb,Step-1,Increment      1: Step Time =    1.000,"PART-1-1",           438,      -13.0926,       9.02789,            0.,NA,NA,"",       3.38599,      -2.57176,      -2.20250,   462.084E-09
C:/temp/dataset/4/28_2.odb,Step-1,Increment      1: Step Time =    1.000,"PART-1-1",           439,      -14.0370,       10.1974,            0.,NA,NA,"",       3.52380,      -2.67491,      -2.29391,   332.224E-09
C:/temp/dataset/4/28_2.odb,Step-1,Increment      1: Step Time =    1.000,"PART-1-1",           440,          -15.,       9.21875,            0.,NA,NA,"",       3.50964,      -2.58122,      -2.37800,   619.968E-09
C:/temp/dataset/4/28_2.odb,Step-1,Increment      1: Step Time =    1.000,"PART-1-1",           441,      -13.9055,       1.56280,            0.,NA,NA,"",       2.93160,      -1.88460,      -2.24557,   394.624E-09
C:/temp/dataset/4/28_2.odb,Step-1,Increment      1: Step Time =    1.000,"PART-1-1",           442,      -12.9296,       2.64306,            0.,NA,NA,"",       2.93589,      -1.98764,      -2.16073,   461.815E-09
C:/temp/dataset/4/28_2.odb,Step-1,Increment      1: Step Time =    1.000,"PART-1-1",           443,      -14.0241,       3.73651,            0.,NA,NA,"",       3.07774,      -2.08319,      -2.26557,   751.238E-09
C:/temp/dataset/4/28_2.odb,Step-1,Increment      1: Step Time =    1.000,"PART-1-1",           444,          -15.,       2.65625,            0.,NA,NA,"",       3.07334,      -1.98015,      -2.35041,   1.24492E-06
C:/temp/dataset/4/28_2.odb,Step-1,Increment      1: Step Time =    1.000,"PART-1-1",           445,      -13.7570,      -2.81804,            0.,NA,NA,"",       2.66497,      -1.48399,      -2.21355,   237.428E-09
C:/temp/dataset/4/28_2.odb,Step-1,Increment      1: Step Time =    1.000,"PART-1-1",           446,      -13.7756,  -623.683E-03,            0.,NA,NA,"",       2.79055,      -1.68489,      -2.22448,   140.385E-09
C:/temp/dataset/4/28_2.odb,Step-1,Increment      1: Step Time =    1.000,"PART-1-1",           447,          -15.,      -1.71875,            0.,NA,NA,"",       2.81655,      -1.57945,      -2.33202,   655.623E-09
C:/temp/dataset/4/28_2.odb,Step-1,Increment      1: Step Time =    1.000,"PART-1-1",           448,        -13.75,           -5.,            0.,NA,NA,"",       2.55061,      -1.28419,      -2.20374,   254.594E-09
C:/temp/dataset/4/28_2.odb,Step-1,Increment      1: Step Time =    1.000,"PART-1-1",           449,      -12.5070,      -3.91179,            0.,NA,NA,"",       2.51323,      -1.38908,      -2.09447,   394.042E-09
C:/temp/dataset/4/28_2.odb,Step-1,Increment      1: Step Time =    1.000,"PART-1-1",           450,          -15.,      -3.90625,            0.,NA,NA,"",       2.70138,      -1.37910,      -2.32282,   204.575E-09
C:/temp/dataset/4/28_2.odb,Step-1,Increment      1: Step Time =    1.000,"PART-1-1",           451,          -15.,    468.75E-03,            0.,NA,NA,"",       2.94091,      -1.77980,      -2.34121,   982.219E-09
C:/temp/dataset/4/28_2.odb,Step-1,Increment      1: Step Time =    1.000,"PART-1-1",           452,      -5.10506,       2.56414,            0.,NA,NA,"",       2.47745,      -2.01332,      -1.44370,   39.1871E-06
C:/temp/dataset/4/28_2.odb,Step-1,Increment      1: Step Time =    1.000,"PART-1-1",           453,      -4.59209,       3.94539,            0.,NA,NA,"",       2.56026,      -2.14194,      -1.40250,   32.4419E-06
C:/temp/dataset/4/28_2.odb,Step-1,Increment      1: Step Time =    1.000,"PART-1-1",           454,      -6.09775,       4.77703,            0.,NA,NA,"",       2.69737,      -2.21180,      -1.54394,   14.7936E-06
C:/temp/dataset/4/28_2.odb,Step-1,Increment      1: Step Time =    1.000,"PART-1-1",           455,      -6.61072,       3.39578,            0.,NA,NA,"",       2.61765,      -2.08315,      -1.58512,   15.4172E-06
C:/temp/dataset/4/28_2.odb,Step-1,Increment      1: Step Time =    1.000,"PART-1-1",           456,       9.44090,      -5.60228,            0.,NA,NA,"",       1.32195,      -1.31915,  -85.9729E-03,   4.23349E-03
C:/temp/dataset/4/28_2.odb,Step-1,Increment      1: Step Time =    1.000,"PART-1-1",           457,       9.79564,      -4.46986,            0.,NA,NA,"",       1.42370,      -1.42238,  -61.3765E-03,   4.38708E-03
C:/temp/dataset/4/28_2.odb,Step-1,Increment      1: Step Time =    1.000,"PART-1-1",           458,       8.43936,      -4.09444,            0.,NA,NA,"",       1.46324,      -1.45238,  -177.978E-03,   4.52513E-03
C:/temp/dataset/4/28_2.odb,Step-1,Increment      1: Step Time =    1.000,"PART-1-1",           459,       8.08462,      -5.22686,            0.,NA,NA,"",       1.36382,      -1.34891,  -201.063E-03,   4.64868E-03
C:/temp/dataset/4/28_2.odb,Step-1,Increment      1: Step Time =    1.000,"PART-1-1",           460,       6.93926,      -9.88629,            0.,NA,NA,"",   985.330E-03,  -951.281E-03,  -256.789E-03,   7.86116E-03
C:/temp/dataset/4/28_2.odb,Step-1,Increment      1: Step Time =    1.000,"PART-1-1",           461,       5.93813,      -8.99303,            0.,NA,NA,"",       1.08085,      -1.02418,  -345.371E-03,   9.44105E-03
C:/temp/dataset/4/28_2.odb,Step-1,Increment      1: Step Time =    1.000,"PART-1-1",           462,            5.,      -10.2083,            0.,NA,NA,"",       1.01291,  -928.510E-03,  -404.794E-03,   12.5006E-03
C:/temp/dataset/4/28_2.odb,Step-1,Increment      1: Step Time =    1.000,"PART-1-1",           463,       12.9852,      -11.3613,            0.,NA,NA,"",   873.596E-03,  -851.657E-03,   194.552E-03,   8.59933E-03
C:/temp/dataset/4/28_2.odb,Step-1,Increment      1: Step Time =    1.000,"PART-1-1",           464,       14.0059,      -12.5461,            0.,NA,NA,"",   811.674E-03,  -768.543E-03,   261.067E-03,   11.8898E-03
C:/temp/dataset/4/28_2.odb,Step-1,Increment      1: Step Time =    1.000,"PART-1-1",           465,           15.,        -11.25,            0.,NA,NA,"",   941.480E-03,  -875.762E-03,   345.579E-03,   13.5546E-03
C:/temp/dataset/4/28_2.odb,Step-1,Increment      1: Step Time =    1.000,"PART-1-1",           466,       13.9793,      -10.0652,            0.,NA,NA,"",       1.00010,  -961.301E-03,   275.873E-03,   10.0270E-03
C:/temp/dataset/4/28_2.odb,Step-1,Increment      1: Step Time =    1.000,"PART-1-1",           467,       7.08713,      -16.3801,            0.,NA,NA,"",   515.795E-03,  -484.419E-03,  -177.152E-03,   10.7974E-03
C:/temp/dataset/4/28_2.odb,Step-1,Increment      1: Step Time =    1.000,"PART-1-1",           468,            5.,      -16.4583,            0.,NA,NA,"",   575.414E-03,  -489.195E-03,  -302.969E-03,   18.1264E-03
C:/temp/dataset/4/28_2.odb,Step-1,Increment      1: Step Time =    1.000,"PART-1-1",           469,       13.0372,      -13.8111,            0.,NA,NA,"",   694.318E-03,  -669.132E-03,   185.310E-03,   10.0179E-03
C:/temp/dataset/4/28_2.odb,Step-1,Increment      1: Step Time =    1.000,"PART-1-1",           470,       14.0313,      -15.0151,            0.,NA,NA,"",   639.764E-03,  -592.758E-03,   240.699E-03,   13.7596E-03
C:/temp/dataset/4/28_2.odb,Step-1,Increment      1: Step Time =    1.000,"PART-1-1",           471,           15.,        -13.75,            0.,NA,NA,"",   759.706E-03,  -689.270E-03,   319.467E-03,   15.8203E-03
C:/temp/dataset/4/28_2.odb,Step-1,Increment      1: Step Time =    1.000,"PART-1-1",           472,       13.0981,      -18.6529,            0.,NA,NA,"",   390.607E-03,  -360.555E-03,   150.247E-03,   12.8620E-03
C:/temp/dataset/4/28_2.odb,Step-1,Increment      1: Step Time =    1.000,"PART-1-1",           473,       14.0553,      -19.9280,            0.,NA,NA,"",   351.178E-03,  -300.281E-03,   182.091E-03,   17.4417E-03
C:/temp/dataset/4/28_2.odb,Step-1,Increment      1: Step Time =    1.000,"PART-1-1",           474,           15.,        -18.75,            0.,NA,NA,"",   447.046E-03,  -371.789E-03,   248.241E-03,   20.3183E-03
C:/temp/dataset/4/28_2.odb,Step-1,Increment      1: Step Time =    1.000,"PART-1-1",           475,       14.0427,      -17.4749,            0.,NA,NA,"",   485.621E-03,  -435.912E-03,   214.030E-03,   15.6008E-03
C:/temp/dataset/4/28_2.odb,Step-1,Increment      1: Step Time =    1.000,"PART-1-1",           476,       6.17422,      -27.9405,            0.,NA,NA,"",   44.5557E-03,  -24.8507E-03,  -36.9818E-03,   21.9720E-03
C:/temp/dataset/4/28_2.odb,Step-1,Increment      1: Step Time =    1.000,"PART-1-1",           477,            5.,      -28.9583,            0.,NA,NA,"",   35.4322E-03,  -22.6392E-03,  -27.2563E-03,   29.4372E-03
C:/temp/dataset/4/28_2.odb,Step-1,Increment      1: Step Time =    1.000,"PART-1-1",           478,          6.25,          -30.,            0.,NA,NA,"",            0.,   1.12467E-39,  -33.0263E-39,   20.8202E-03
C:/temp/dataset/4/28_2.odb,Step-1,Increment      1: Step Time =    1.000,"PART-1-1",           479,       9.46325,      -26.8820,            0.,NA,NA,"",   29.2350E-03,  -28.3687E-03,  -7.06412E-03,   4.94262E-03
C:/temp/dataset/4/28_2.odb,Step-1,Increment      1: Step Time =    1.000,"PART-1-1",           480,       8.20536,      -25.9154,            0.,NA,NA,"",   62.5898E-03,  -52.8213E-03,  -33.5768E-03,   10.2863E-03
C:/temp/dataset/4/28_2.odb,Step-1,Increment      1: Step Time =    1.000,"PART-1-1",           481,       7.26622,      -26.9429,            0.,NA,NA,"",   51.8693E-03,  -34.8058E-03,  -38.4575E-03,   15.1649E-03
C:/temp/dataset/4/28_2.odb,Step-1,Increment      1: Step Time =    1.000,"PART-1-1",           482,       13.6319,      -27.3465,            0.,NA,NA,"",   58.0961E-03,  -35.2294E-03,   46.1957E-03,   20.9227E-03
C:/temp/dataset/4/28_2.odb,Step-1,Increment      1: Step Time =    1.000,"PART-1-1",           483,       12.3819,      -28.5965,            0.,NA,NA,"",   15.7517E-03,  -7.37769E-03,   13.9171E-03,   12.3900E-03
C:/temp/dataset/4/28_2.odb,Step-1,Increment      1: Step Time =    1.000,"PART-1-1",           484,         13.75,          -30.,            0.,NA,NA,"",            0.,   1.41912E-39,   32.9901E-39,   21.4719E-03
C:/temp/dataset/4/28_2.odb,Step-1,Increment      1: Step Time =    1.000,"PART-1-1",           485,           15.,        -28.75,            0.,NA,NA,"",   42.9265E-03,  -27.6358E-03,   32.8473E-03,   29.3448E-03
C:/temp/dataset/4/28_2.odb,Step-1,Increment      1: Step Time =    1.000,"PART-1-1",           486,         11.25,          -30.,            0.,NA,NA,"",            0.,   2.28644E-39,   11.1367E-39,   5.68876E-03
C:/temp/dataset/4/28_2.odb,Step-1,Increment      1: Step Time =    1.000,"PART-1-1",           487,       10.9817,      -27.5238,            0.,NA,NA,"",   20.8439E-03,  -17.8628E-03,   10.7418E-03,   7.30499E-03
C:/temp/dataset/4/28_2.odb,Step-1,Increment      1: Step Time =    1.000,"PART-1-1",           488,       10.1507,      -19.6985,            0.,NA,NA,"",   291.685E-03,  -291.661E-03,   3.72552E-03,   3.93041E-03
C:/temp/dataset/4/28_2.odb,Step-1,Increment      1: Step Time =    1.000,"PART-1-1",           489,       9.14094,      -20.7396,            0.,NA,NA,"",   242.501E-03,  -239.538E-03,  -37.7946E-03,   5.33691E-03
C:/temp/dataset/4/28_2.odb,Step-1,Increment      1: Step Time =    1.000,"PART-1-1",           490,       11.1621,      -20.8614,            0.,NA,NA,"",   240.966E-03,  -236.565E-03,   45.8421E-03,   6.55931E-03
C:/temp/dataset/4/28_2.odb,Step-1,Increment      1: Step Time =    1.000,"PART-1-1",           491,       7.09922,      -20.6753,            0.,NA,NA,"",   277.887E-03,  -247.984E-03,  -125.402E-03,   12.9130E-03
C:/temp/dataset/4/28_2.odb,Step-1,Increment      1: Step Time =    1.000,"PART-1-1",           492,            5.,       -20.625,            0.,NA,NA,"",   345.262E-03,  -264.514E-03,  -221.897E-03,   21.8632E-03
C:/temp/dataset/4/28_2.odb,Step-1,Increment      1: Step Time =    1.000,"PART-1-1",           493,       9.08758,      -14.0519,            0.,NA,NA,"",   641.357E-03,  -637.295E-03,  -72.0688E-03,   4.79600E-03
C:/temp/dataset/4/28_2.odb,Step-1,Increment      1: Step Time =    1.000,"PART-1-1",           494,       10.1099,      -15.1447,            0.,NA,NA,"",   563.687E-03,  -563.673E-03,  -4.00521E-03,   3.87557E-03
C:/temp/dataset/4/28_2.odb,Step-1,Increment      1: Step Time =    1.000,"PART-1-1",           495,       11.0794,      -13.9187,            0.,NA,NA,"",   653.773E-03,  -651.334E-03,   56.4194E-03,   5.20053E-03
C:/temp/dataset/4/28_2.odb,Step-1,Increment      1: Step Time =    1.000,"PART-1-1",           496,       10.0571,      -12.8260,            0.,NA,NA,"",   727.448E-03,  -727.341E-03,  -12.4335E-03,   3.85655E-03
C:/temp/dataset/4/28_2.odb,Step-1,Increment      1: Step Time =    1.000,"PART-1-1",           497,       9.02765,      -11.7712,            0.,NA,NA,"",   809.427E-03,  -804.641E-03,  -87.8936E-03,   4.64834E-03
C:/temp/dataset/4/28_2.odb,Step-1,Increment      1: Step Time =    1.000,"PART-1-1",           498,       11.0123,      -11.5393,            0.,NA,NA,"",   829.352E-03,  -827.712E-03,   52.1359E-03,   4.81562E-03
C:/temp/dataset/4/28_2.odb,Step-1,Increment      1: Step Time =    1.000,"PART-1-1",           499,       9.98284,      -10.4845,            0.,NA,NA,"",   907.440E-03,  -907.115E-03,  -24.2845E-03,   3.85584E-03
C:/temp/dataset/4/28_2.odb,Step-1,Increment      1: Step Time =    1.000,"PART-1-1",           500,       12.6190,       1.44886,            0.,NA,NA,"",       1.99243,      -1.98561,   164.799E-03,   3.42494E-03
C:/temp/dataset/4/28_2.odb,Step-1,Increment      1: Step Time =    1.000,"PART-1-1",           501,       13.8500,   84.2405E-03,            0.,NA,NA,"",       1.88515,      -1.86435,   279.322E-03,   3.39016E-03
C:/temp/dataset/4/28_2.odb,Step-1,Increment      1: Step Time =    1.000,"PART-1-1",           502,           15.,          1.25,            0.,NA,NA,"",       2.01898,      -1.98226,   383.270E-03,   2.72185E-03
C:/temp/dataset/4/28_2.odb,Step-1,Increment      1: Step Time =    1.000,"PART-1-1",           503,       10.0180,      -2.29938,            0.,NA,NA,"",       1.62339,      -1.62256,  -51.8134E-03,   4.12965E-03
C:/temp/dataset/4/28_2.odb,Step-1,Increment      1: Step Time =    1.000,"PART-1-1",           504,       9.13986,      -3.07696,            0.,NA,NA,"",       1.55267,      -1.54773,  -123.726E-03,   4.35103E-03
C:/temp/dataset/4/28_2.odb,Step-1,Increment      1: Step Time =    1.000,"PART-1-1",           505,       10.6738,      -3.69229,            0.,NA,NA,"",       1.49658,      -1.49655,   9.84487E-03,   4.36388E-03
C:/temp/dataset/4/28_2.odb,Step-1,Increment      1: Step Time =    1.000,"PART-1-1",           506,       12.7589,       6.54544,            0.,NA,NA,"",       2.46201,      -2.45665,   162.310E-03,   1.51799E-03
C:/temp/dataset/4/28_2.odb,Step-1,Increment      1: Step Time =    1.000,"PART-1-1",           507,           15.,          6.25,            0.,NA,NA,"",       2.46987,      -2.44268,   365.444E-03,   1.69269E-03
C:/temp/dataset/4/28_2.odb,Step-1,Increment      1: Step Time =    1.000,"PART-1-1",           508,       13.9203,       7.65480,            0.,NA,NA,"",       2.57595,      -2.56243,   263.500E-03,   1.02716E-03
C:/temp/dataset/4/28_2.odb,Step-1,Increment      1: Step Time =    1.000,"PART-1-1",           509,       13.0275,       16.3263,            0.,NA,NA,"",       3.34567,      -3.34242,   147.403E-03,   30.5009E-06
C:/temp/dataset/4/28_2.odb,Step-1,Increment      1: Step Time =    1.000,"PART-1-1",           510,       14.0150,       15.0581,            0.,NA,NA,"",       3.24055,      -3.23149,   242.115E-03,   34.3759E-06
C:/temp/dataset/4/28_2.odb,Step-1,Increment      1: Step Time =    1.000,"PART-1-1",           511,           15.,         16.25,            0.,NA,NA,"",       3.35954,      -3.34364,   326.521E-03,   25.2759E-06
C:/temp/dataset/4/28_2.odb,Step-1,Increment      1: Step Time =    1.000,"PART-1-1",           512,       14.0124,       17.5182,            0.,NA,NA,"",       3.46232,      -3.45455,   231.780E-03,   10.3634E-06
C:/temp/dataset/4/28_2.odb,Step-1,Increment      1: Step Time =    1.000,"PART-1-1",           513,       13.0175,       18.7421,            0.,NA,NA,"",       3.56404,      -3.56142,   136.549E-03,   9.94560E-06
C:/temp/dataset/4/28_2.odb,Step-1,Increment      1: Step Time =    1.000,"PART-1-1",           514,           15.,         18.75,            0.,NA,NA,"",       3.58428,      -3.57030,   316.247E-03,   5.65776E-06
C:/temp/dataset/4/28_2.odb,Step-1,Increment      1: Step Time =    1.000,"PART-1-1",           515,       14.0051,       19.9738,            0.,NA,NA,"",       3.68380,      -3.67716,   221.009E-03,   2.34263E-06
C:/temp/dataset/4/28_2.odb,Step-1,Increment      1: Step Time =    1.000,"PART-1-1",           516,       5.97628,       21.7197,            0.,NA,NA,"",       3.83698,      -3.80239,  -514.048E-03,   575.157E-09
C:/temp/dataset/4/28_2.odb,Step-1,Increment      1: Step Time =    1.000,"PART-1-1",           517,       6.92463,       22.7965,            0.,NA,NA,"",       3.92780,      -3.90392,  -432.509E-03,   647.316E-09
C:/temp/dataset/4/28_2.odb,Step-1,Increment      1: Step Time =    1.000,"PART-1-1",           518,       5.94835,       23.7852,            0.,NA,NA,"",       4.02393,      -3.98952,  -525.085E-03,   321.752E-09
C:/temp/dataset/4/28_2.odb,Step-1,Increment      1: Step Time =    1.000,"PART-1-1",           519,            5.,       22.7083,            0.,NA,NA,"",       3.93504,      -3.88800,  -606.624E-03,   551.496E-09
C:/temp/dataset/4/28_2.odb,Step-1,Increment      1: Step Time =    1.000,"PART-1-1",           520,       13.8862,       24.9278,            0.,NA,NA,"",       4.13017,      -4.12580,   189.829E-03,   274.900E-09
C:/temp/dataset/4/28_2.odb,Step-1,Increment      1: Step Time =    1.000,"PART-1-1",           521,           15.,         26.25,            0.,NA,NA,"",       4.25982,      -4.25025,   285.361E-03,   299.546E-09
C:/temp/dataset/4/28_2.odb,Step-1,Increment      1: Step Time =    1.000,"PART-1-1",           522,       6.15342,       27.8650,            0.,NA,NA,"",       4.39152,      -4.36023,  -523.295E-03,   132.245E-09
C:/temp/dataset/4/28_2.odb,Step-1,Increment      1: Step Time =    1.000,"PART-1-1",           523,       7.40342,       28.9067,            0.,NA,NA,"",       4.47901,      -4.45982,  -414.263E-03,   144.227E-09
C:/temp/dataset/4/28_2.odb,Step-1,Increment      1: Step Time =    1.000,"PART-1-1",           524,          6.25,           30.,            0.,NA,NA,"",       4.58415,      -4.55418,  -523.331E-03,   39.9997E-09
C:/temp/dataset/4/28_2.odb,Step-1,Increment      1: Step Time =    1.000,"PART-1-1",           525,            5.,       28.9583,            0.,NA,NA,"",       4.49926,      -4.45460,  -632.363E-03,   39.4812E-09
C:/temp/dataset/4/28_2.odb,Step-1,Increment      1: Step Time =    1.000,"PART-1-1",           526,       7.11917,       26.8292,            0.,NA,NA,"",       4.29205,      -4.27031,  -431.478E-03,   225.297E-09
C:/temp/dataset/4/28_2.odb,Step-1,Increment      1: Step Time =    1.000,"PART-1-1",           527,            5.,        26.875,            0.,NA,NA,"",       4.31110,      -4.26573,  -623.784E-03,   222.649E-09
C:/temp/dataset/4/28_2.odb,Step-1,Increment      1: Step Time =    1.000,"PART-1-1",           528,       5.96574,       25.8392,            0.,NA,NA,"",       4.20955,      -4.17581,  -531.967E-03,   240.671E-09
C:/temp/dataset/4/28_2.odb,Step-1,Increment      1: Step Time =    1.000,"PART-1-1",           529,       8.59546,       27.4701,            0.,NA,NA,"",       4.34488,      -4.33449,  -300.281E-03,   155.888E-09
C:/temp/dataset/4/28_2.odb,Step-1,Increment      1: Step Time =    1.000,"PART-1-1",           530,       9.94204,       28.5635,            0.,NA,NA,"",       4.44291,      -4.43915,  -182.707E-03,   163.180E-09
C:/temp/dataset/4/28_2.odb,Step-1,Increment      1: Step Time =    1.000,"PART-1-1",           531,          8.75,           30.,            0.,NA,NA,"",       4.57411,      -4.56448,  -296.689E-03,   175.957E-09
C:/temp/dataset/4/28_2.odb,Step-1,Increment      1: Step Time =    1.000,"PART-1-1",           532,            5.,       24.7917,            0.,NA,NA,"",       4.12302,      -4.07686,  -615.204E-03,   490.715E-09
C:/temp/dataset/4/28_2.odb,Step-1,Increment      1: Step Time =    1.000,"PART-1-1",           533,       6.91409,       24.8327,            0.,NA,NA,"",       4.11227,      -4.08846,  -441.848E-03,   155.653E-09
C:/temp/dataset/4/28_2.odb,Step-1,Increment      1: Step Time =    1.000,"PART-1-1",           534,            5.,        20.625,            0.,NA,NA,"",       3.74717,      -3.69913,  -598.045E-03,   674.123E-09
C:/temp/dataset/4/28_2.odb,Step-1,Increment      1: Step Time =    1.000,"PART-1-1",           535,       5.99534,       19.6263,            0.,NA,NA,"",       3.64764,      -3.61270,  -503.702E-03,   3.02227E-06
C:/temp/dataset/4/28_2.odb,Step-1,Increment      1: Step Time =    1.000,"PART-1-1",           536,       6.97162,       20.7210,            0.,NA,NA,"",       3.73958,      -3.71596,  -419.702E-03,   3.33289E-06
C:/temp/dataset/4/28_2.odb,Step-1,Increment      1: Step Time =    1.000,"PART-1-1",           537,       9.90537,       10.7177,            0.,NA,NA,"",       2.82344,      -2.82121,  -112.249E-03,   85.9340E-06
C:/temp/dataset/4/28_2.odb,Step-1,Increment      1: Step Time =    1.000,"PART-1-1",           538,       8.83179,       9.75083,            0.,NA,NA,"",       2.73669,      -2.72895,  -205.656E-03,   162.894E-06
C:/temp/dataset/4/28_2.odb,Step-1,Increment      1: Step Time =    1.000,"PART-1-1",           539,       10.8380,       9.37550,            0.,NA,NA,"",       2.70361,      -2.70352,  -22.1978E-03,   273.708E-06
C:/temp/dataset/4/28_2.odb,Step-1,Increment      1: Step Time =    1.000,"PART-1-1",           540,       5.96737,       11.1773,            0.,NA,NA,"",       2.88534,      -2.84652,  -471.660E-03,   93.5227E-06
C:/temp/dataset/4/28_2.odb,Step-1,Increment      1: Step Time =    1.000,"PART-1-1",           541,       6.95908,       12.1740,            0.,NA,NA,"",       2.96628,      -2.94110,  -385.676E-03,   56.8294E-06
C:/temp/dataset/4/28_2.odb,Step-1,Increment      1: Step Time =    1.000,"PART-1-1",           542,            5.,       12.2917,            0.,NA,NA,"",       2.99716,      -2.94362,  -563.975E-03,   118.180E-06
C:/temp/dataset/4/28_2.odb,Step-1,Increment      1: Step Time =    1.000,"PART-1-1",           543,       6.89189,       10.0466,            0.,NA,NA,"",       2.77424,      -2.74767,  -383.031E-03,   40.1413E-06
C:/temp/dataset/4/28_2.odb,Step-1,Increment      1: Step Time =    1.000,"PART-1-1",           544,            5.,       10.2083,            0.,NA,NA,"",       2.80992,      -2.75444,  -555.660E-03,   178.650E-06
C:/temp/dataset/4/28_2.odb,Step-1,Increment      1: Step Time =    1.000,"PART-1-1",           545,  -883.251E-03,       2.97832,            0.,NA,NA,"",       2.32413,      -2.06896,      -1.05877,   82.1831E-06
C:/temp/dataset/4/28_2.odb,Step-1,Increment      1: Step Time =    1.000,"PART-1-1",           546,         -1.25,            5.,            0.,NA,NA,"",       2.50695,      -2.25230,      -1.10089,   167.315E-06
C:/temp/dataset/4/28_2.odb,Step-1,Increment      1: Step Time =    1.000,"PART-1-1",           547,      -2.28350,       3.97568,            0.,NA,NA,"",       2.46171,      -2.15434,      -1.19116,   77.0306E-06
C:/temp/dataset/4/28_2.odb,Step-1,Increment      1: Step Time =    1.000,"PART-1-1",           548,      -3.12559,       2.92107,            0.,NA,NA,"",       2.41197,      -2.05432,      -1.26386,   69.2447E-06
C:/temp/dataset/4/28_2.odb,Step-1,Increment      1: Step Time =    1.000,"PART-1-1",           549,         -3.75,            5.,            0.,NA,NA,"",       2.60674,      -2.24203,      -1.32981,   68.0062E-06
C:/temp/dataset/4/28_2.odb,Step-1,Increment      1: Step Time =    1.000,"PART-1-1",           550,      -7.01026,       10.3490,            0.,NA,NA,"",       3.18040,      -2.71833,      -1.65095,   549.918E-09
C:/temp/dataset/4/28_2.odb,Step-1,Increment      1: Step Time =    1.000,"PART-1-1",           551,           -5.,       10.2083,            0.,NA,NA,"",       3.08465,      -2.71390,      -1.46623,   754.863E-09
C:/temp/dataset/4/28_2.odb,Step-1,Increment      1: Step Time =    1.000,"PART-1-1",           552,      -6.00030,       11.3233,            0.,NA,NA,"",       3.21681,      -2.81182,      -1.56254,   263.008E-09
C:/temp/dataset/4/28_2.odb,Step-1,Increment      1: Step Time =    1.000,"PART-1-1",           553,      -6.90277,       16.5792,            0.,NA,NA,"",       3.68785,      -3.28943,      -1.66729,   27.1616E-09
C:/temp/dataset/4/28_2.odb,Step-1,Increment      1: Step Time =    1.000,"PART-1-1",           554,           -5.,       16.4583,            0.,NA,NA,"",       3.60939,      -3.28636,      -1.49250,   19.9879E-09
C:/temp/dataset/4/28_2.odb,Step-1,Increment      1: Step Time =    1.000,"PART-1-1",           555,      -5.93592,       17.5473,            0.,NA,NA,"",       3.73420,      -3.38216,      -1.58280,   20.2390E-09
C:/temp/dataset/4/28_2.odb,Step-1,Increment      1: Step Time =    1.000,"PART-1-1",           556,      -5.96041,       23.6583,            0.,NA,NA,"",       4.25819,      -3.94179,      -1.61073,   18.0808E-09
C:/temp/dataset/4/28_2.odb,Step-1,Increment      1: Step Time =    1.000,"PART-1-1",           557,           -5.,       24.7917,            0.,NA,NA,"",       4.32815,      -4.04963,      -1.52753,   18.3176E-09
C:/temp/dataset/4/28_2.odb,Step-1,Increment      1: Step Time =    1.000,"PART-1-1",           558,      -7.48847,       28.8776,            0.,NA,NA,"",       4.75610,      -4.41342,      -1.77263,   15.2681E-09
C:/temp/dataset/4/28_2.odb,Step-1,Increment      1: Step Time =    1.000,"PART-1-1",           559,           -5.,       28.9583,            0.,NA,NA,"",       4.69290,      -4.43127,      -1.54504,   16.3563E-09
C:/temp/dataset/4/28_2.odb,Step-1,Increment      1: Step Time =    1.000,"PART-1-1",           560,         -6.25,           30.,            0.,NA,NA,"",       4.81788,      -4.52143,      -1.66391,   15.0154E-09
C:/temp/dataset/4/28_2.odb,Step-1,Increment      1: Step Time =    1.000,"PART-1-1",           561,       12.9634,       11.4929,            0.,NA,NA,"",       2.90851,      -2.90402,   161.520E-03,   92.7445E-06
C:/temp/dataset/4/28_2.odb,Step-1,Increment      1: Step Time =    1.000,"PART-1-1",           562,       13.9657,       10.1417,            0.,NA,NA,"",       2.79780,      -2.78592,   257.543E-03,   218.711E-06
C:/temp/dataset/4/28_2.odb,Step-1,Increment      1: Step Time =    1.000,"PART-1-1",           563,           15.,         11.25,            0.,NA,NA,"",       2.91119,      -2.89047,   346.694E-03,   195.614E-06
C:/temp/dataset/4/28_2.odb,Step-1,Increment      1: Step Time =    1.000,"PART-1-1",           564,       13.9978,       12.6011,            0.,NA,NA,"",       3.01910,      -3.00869,   250.580E-03,   86.9754E-06
C:/temp/dataset/4/28_2.odb,Step-1,Increment      1: Step Time =    1.000,"PART-1-1",           565,       9.13480,      -18.5479,            0.,NA,NA,"",   356.032E-03,  -352.804E-03,  -47.8354E-03,   5.12843E-03
C:/temp/dataset/4/28_2.odb,Step-1,Increment      1: Step Time =    1.000,"PART-1-1",           566,       11.1537,      -18.5886,            0.,NA,NA,"",   357.839E-03,  -353.925E-03,   52.7801E-03,   6.10451E-03
C:/temp/dataset/4/28_2.odb,Step-1,Increment      1: Step Time =    1.000,"PART-1-1",           567,       10.1377,      -17.4381,            0.,NA,NA,"",   417.839E-03,  -417.837E-03,   1.05500E-03,   3.90048E-03
C:/temp/dataset/4/28_2.odb,Step-1,Increment      1: Step Time =    1.000,"PART-1-1",           568,      -8.81573,       27.5627,            0.,NA,NA,"",       4.68496,      -4.28740,      -1.88867,   15.7314E-09
C:/temp/dataset/4/28_2.odb,Step-1,Increment      1: Step Time =    1.000,"PART-1-1",           569,         -8.75,           30.,            0.,NA,NA,"",       4.89198,      -4.51092,      -1.89290,   15.1874E-09
C:/temp/dataset/4/28_2.odb,Step-1,Increment      1: Step Time =    1.000,"PART-1-1",           570,            5.,      -24.7917,            0.,NA,NA,"",   168.742E-03,  -107.475E-03,  -130.089E-03,   25.2782E-03
C:/temp/dataset/4/28_2.odb,Step-1,Increment      1: Step Time =    1.000,"PART-1-1",           571,       6.09200,      -25.8775,            0.,NA,NA,"",   103.898E-03,  -67.8413E-03,  -78.6919E-03,   20.7232E-03
C:/temp/dataset/4/28_2.odb,Step-1,Increment      1: Step Time =    1.000,"PART-1-1",           572,       7.15121,      -24.8757,            0.,NA,NA,"",   110.560E-03,  -86.3611E-03,  -69.0316E-03,   14.9800E-03
C:/temp/dataset/4/28_2.odb,Step-1,Increment      1: Step Time =    1.000,"PART-1-1",           573,       13.1040,      -21.0477,            0.,NA,NA,"",   268.934E-03,  -238.132E-03,   124.975E-03,   14.2010E-03
C:/temp/dataset/4/28_2.odb,Step-1,Increment      1: Step Time =    1.000,"PART-1-1",           574,       14.0487,      -22.3697,            0.,NA,NA,"",   237.052E-03,  -188.118E-03,   144.239E-03,   19.2301E-03
C:/temp/dataset/4/28_2.odb,Step-1,Increment      1: Step Time =    1.000,"PART-1-1",           575,           15.,        -21.25,            0.,NA,NA,"",   319.116E-03,  -246.077E-03,   203.178E-03,   22.5853E-03
C:/temp/dataset/4/28_2.odb,Step-1,Increment      1: Step Time =    1.000,"PART-1-1",           576,            5.,       -26.875,            0.,NA,NA,"",   99.5836E-03,  -57.6283E-03,  -81.2150E-03,   27.2594E-03
C:/temp/dataset/4/28_2.odb,Step-1,Increment      1: Step Time =    1.000,"PART-1-1",           577,       12.8133,      -6.31290,            0.,NA,NA,"",       1.28564,      -1.27097,   193.606E-03,   5.85669E-03
C:/temp/dataset/4/28_2.odb,Step-1,Increment      1: Step Time =    1.000,"PART-1-1",           578,       13.9319,      -7.55671,            0.,NA,NA,"",       1.20384,      -1.16996,   283.595E-03,   8.10075E-03
C:/temp/dataset/4/28_2.odb,Step-1,Increment      1: Step Time =    1.000,"PART-1-1",           579,           15.,         -6.25,            0.,NA,NA,"",       1.34563,      -1.29119,   378.889E-03,   8.85602E-03
C:/temp/dataset/4/28_2.odb,Step-1,Increment      1: Step Time =    1.000,"PART-1-1",           580,            5.,       18.5417,            0.,NA,NA,"",       3.55943,      -3.51028,  -589.470E-03,   6.10102E-06
C:/temp/dataset/4/28_2.odb,Step-1,Increment      1: Step Time =    1.000,"PART-1-1",           581,       6.00122,       17.5195,            0.,NA,NA,"",       3.45729,      -3.42174,  -494.504E-03,   10.6043E-06
C:/temp/dataset/4/28_2.odb,Step-1,Increment      1: Step Time =    1.000,"PART-1-1",           582,       6.99656,       18.6041,            0.,NA,NA,"",       3.54778,      -3.52416,  -408.726E-03,   10.6507E-06
C:/temp/dataset/4/28_2.odb,Step-1,Increment      1: Step Time =    1.000,"PART-1-1",           583,       12.8545,       23.6160,            0.,NA,NA,"",       4.00392,      -4.00262,   101.700E-03,   297.750E-09
C:/temp/dataset/4/28_2.odb,Step-1,Increment      1: Step Time =    1.000,"PART-1-1",           584,       13.9683,       22.4382,            0.,NA,NA,"",       3.90595,      -3.90043,   207.528E-03,   357.628E-09
C:/temp/dataset/4/28_2.odb,Step-1,Increment      1: Step Time =    1.000,"PART-1-1",           585,           15.,         23.75,            0.,NA,NA,"",       4.03445,      -4.02361,   295.657E-03,   553.833E-09
C:/temp/dataset/4/28_2.odb,Step-1,Increment      1: Step Time =    1.000,"PART-1-1",           586,            5.,       16.4583,            0.,NA,NA,"",       3.37184,      -3.32143,  -580.913E-03,   21.9455E-06
C:/temp/dataset/4/28_2.odb,Step-1,Increment      1: Step Time =    1.000,"PART-1-1",           587,       7.00480,       16.4638,            0.,NA,NA,"",       3.35402,      -3.33019,  -399.170E-03,   26.2686E-06
C:/temp/dataset/4/28_2.odb,Step-1,Increment      1: Step Time =    1.000,"PART-1-1",           588,       12.9734,       21.1620,            0.,NA,NA,"",       3.78262,      -3.78064,   122.586E-03,   2.65996E-06
C:/temp/dataset/4/28_2.odb,Step-1,Increment      1: Step Time =    1.000,"PART-1-1",           589,           15.,         21.25,            0.,NA,NA,"",       3.80927,      -3.79696,   305.954E-03,   209.469E-09
C:/temp/dataset/4/28_2.odb,Step-1,Increment      1: Step Time =    1.000,"PART-1-1",           590,            5.,       6.04167,            0.,NA,NA,"",       2.43415,      -2.37384,  -538.505E-03,   757.857E-06
C:/temp/dataset/4/28_2.odb,Step-1,Increment      1: Step Time =    1.000,"PART-1-1",           591,       5.70418,       5.21013,            0.,NA,NA,"",       2.34760,      -2.29999,  -470.384E-03,   1.05225E-03
C:/temp/dataset/4/28_2.odb,Step-1,Increment      1: Step Time =    1.000,"PART-1-1",           592,       6.54256,       6.20387,            0.,NA,NA,"",       2.42811,      -2.39516,  -398.659E-03,   803.024E-06
C:/temp/dataset/4/28_2.odb,Step-1,Increment      1: Step Time =    1.000,"PART-1-1",           593,       7.80464,       8.81181,            0.,NA,NA,"",       2.65560,      -2.63916,  -295.027E-03,   227.959E-06
C:/temp/dataset/4/28_2.odb,Step-1,Increment      1: Step Time =    1.000,"PART-1-1",           594,       7.55468,       6.70991,            0.,NA,NA,"",       2.46550,      -2.44605,  -309.081E-03,   767.809E-06
C:/temp/dataset/4/28_2.odb,Step-1,Increment      1: Step Time =    1.000,"PART-1-1",           595,           -5.,       12.2917,            0.,NA,NA,"",       3.25775,      -2.90472,      -1.47499,   160.494E-09
C:/temp/dataset/4/28_2.odb,Step-1,Increment      1: Step Time =    1.000,"PART-1-1",           596,      -13.0551,       11.1433,            0.,NA,NA,"",       3.53892,      -2.76567,      -2.20795,   301.025E-09
C:/temp/dataset/4/28_2.odb,Step-1,Increment      1: Step Time =    1.000,"PART-1-1",           597,          -15.,       11.4063,            0.,NA,NA,"",       3.66550,      -2.78158,      -2.38720,   270.324E-09
C:/temp/dataset/4/28_2.odb,Step-1,Increment      1: Step Time =    1.000,"PART-1-1",           598,           -5.,       18.5417,            0.,NA,NA,"",       3.78742,      -3.47717,      -1.50126,   25.0754E-09
C:/temp/dataset/4/28_2.odb,Step-1,Increment      1: Step Time =    1.000,"PART-1-1",           599,      -6.83195,       18.5917,            0.,NA,NA,"",       3.85429,      -3.47406,      -1.66926,   16.2062E-09
C:/temp/dataset/4/28_2.odb,Step-1,Increment      1: Step Time =    1.000,"PART-1-1",           600,      -12.9744,       15.4368,            0.,NA,NA,"",       3.86047,      -3.15927,      -2.21861,   50.9866E-09
C:/temp/dataset/4/28_2.odb,Step-1,Increment      1: Step Time =    1.000,"PART-1-1",           601,      -13.9736,       16.6988,            0.,NA,NA,"",       4.00730,      -3.27066,      -2.31544,   13.8331E-09
C:/temp/dataset/4/28_2.odb,Step-1,Increment      1: Step Time =    1.000,"PART-1-1",           602,          -15.,       15.7813,            0.,NA,NA,"",       3.98922,      -3.18230,      -2.40559,   21.9372E-09
C:/temp/dataset/4/28_2.odb,Step-1,Increment      1: Step Time =    1.000,"PART-1-1",           603,      -6.85389,       22.5676,            0.,NA,NA,"",       4.19292,      -3.83814,      -1.68798,   17.5461E-09
C:/temp/dataset/4/28_2.odb,Step-1,Increment      1: Step Time =    1.000,"PART-1-1",           604,           -5.,       22.7083,            0.,NA,NA,"",       4.14694,      -3.85881,      -1.51877,   20.3094E-09
C:/temp/dataset/4/28_2.odb,Step-1,Increment      1: Step Time =    1.000,"PART-1-1",           605,      -7.62380,       21.5126,            0.,NA,NA,"",       4.12933,      -3.73826,      -1.75407,   16.5620E-09
C:/temp/dataset/4/28_2.odb,Step-1,Increment      1: Step Time =    1.000,"PART-1-1",           606,      -11.2433,       25.0031,            0.,NA,NA,"",       4.55576,      -4.04276,      -2.10027,   14.9484E-09
C:/temp/dataset/4/28_2.odb,Step-1,Increment      1: Step Time =    1.000,"PART-1-1",           607,      -10.1220,       24.6816,            0.,NA,NA,"",       4.48657,      -4.01802,      -1.99621,   15.2783E-09
C:/temp/dataset/4/28_2.odb,Step-1,Increment      1: Step Time =    1.000,"PART-1-1",           608,      -9.68436,       26.2404,            0.,NA,NA,"",       4.60213,      -4.16264,      -1.96268,   15.6226E-09
C:/temp/dataset/4/28_2.odb,Step-1,Increment      1: Step Time =    1.000,"PART-1-1",           609,      -10.8057,       26.5619,            0.,NA,NA,"",       4.66963,      -4.18737,      -2.06674,   15.3298E-09
C:/temp/dataset/4/28_2.odb,Step-1,Increment      1: Step Time =    1.000,"PART-1-1",           610,            5.,      -6.04167,            0.,NA,NA,"",       1.35275,      -1.27198,  -460.449E-03,   10.1513E-03
C:/temp/dataset/4/28_2.odb,Step-1,Increment      1: Step Time =    1.000,"PART-1-1",           611,       5.81487,      -6.90448,            0.,NA,NA,"",       1.25673,      -1.19803,  -379.596E-03,   8.19501E-03
C:/temp/dataset/4/28_2.odb,Step-1,Increment      1: Step Time =    1.000,"PART-1-1",           612,       6.44107,      -5.66337,            0.,NA,NA,"",       1.34916,      -1.30616,  -337.913E-03,   5.40198E-03
C:/temp/dataset/4/28_2.odb,Step-1,Increment      1: Step Time =    1.000,"PART-1-1",           613,       5.62621,      -4.80056,            0.,NA,NA,"",       1.44328,      -1.38155,  -417.568E-03,   6.14144E-03
C:/temp/dataset/4/28_2.odb,Step-1,Increment      1: Step Time =    1.000,"PART-1-1",           614,            5.,        -8.125,            0.,NA,NA,"",       1.17909,      -1.09661,  -433.234E-03,   10.8813E-03
C:/temp/dataset/4/28_2.odb,Step-1,Increment      1: Step Time =    1.000,"PART-1-1",           615,       8.00489,       17.5473,            0.,NA,NA,"",       3.44675,      -3.43251,  -312.952E-03,   15.8525E-06
C:/temp/dataset/4/28_2.odb,Step-1,Increment      1: Step Time =    1.000,"PART-1-1",           616,       8.00828,       15.3576,            0.,NA,NA,"",       3.24826,      -3.23404,  -303.606E-03,   35.8136E-06
C:/temp/dataset/4/28_2.odb,Step-1,Increment      1: Step Time =    1.000,"PART-1-1",           617,       11.1265,      -16.2686,            0.,NA,NA,"",   496.135E-03,  -492.905E-03,   56.5205E-03,   5.64586E-03
C:/temp/dataset/4/28_2.odb,Step-1,Increment      1: Step Time =    1.000,"PART-1-1",           618,       9.12111,      -16.3141,            0.,NA,NA,"",   489.554E-03,  -485.992E-03,  -58.9531E-03,   4.94851E-03
C:/temp/dataset/4/28_2.odb,Step-1,Increment      1: Step Time =    1.000,"PART-1-1",           619,      -9.91602,       15.9767,            0.,NA,NA,"",       3.76099,      -3.22157,      -1.94075,   40.3865E-09
C:/temp/dataset/4/28_2.odb,Step-1,Increment      1: Step Time =    1.000,"PART-1-1",           620,      -10.9598,       15.0860,            0.,NA,NA,"",       3.73678,      -3.13561,      -2.03261,   78.7097E-09
C:/temp/dataset/4/28_2.odb,Step-1,Increment      1: Step Time =    1.000,"PART-1-1",           621,      -8.93702,       14.7598,            0.,NA,NA,"",       3.62023,      -3.11424,      -1.84597,   95.5118E-09
C:/temp/dataset/4/28_2.odb,Step-1,Increment      1: Step Time =    1.000,"PART-1-1",           622,      -13.0880,       4.79273,            0.,NA,NA,"",       3.08874,      -2.18387,      -2.18427,   255.717E-09
C:/temp/dataset/4/28_2.odb,Step-1,Increment      1: Step Time =    1.000,"PART-1-1",           623,          -15.,       4.84375,            0.,NA,NA,"",       3.21284,      -2.18050,      -2.35961,   1.33415E-06
C:/temp/dataset/4/28_2.odb,Step-1,Increment      1: Step Time =    1.000,"PART-1-1",           624,           -5.,       6.04167,            0.,NA,NA,"",       2.74557,      -2.33225,      -1.44871,   6.44465E-06
C:/temp/dataset/4/28_2.odb,Step-1,Increment      1: Step Time =    1.000,"PART-1-1",           625,      -7.12843,       5.83601,            0.,NA,NA,"",       2.83008,      -2.30447,      -1.64280,   1.73695E-06
C:/temp/dataset/4/28_2.odb,Step-1,Increment      1: Step Time =    1.000,"PART-1-1",           626,       12.9112,      -8.87192,            0.,NA,NA,"",       1.07038,      -1.05200,   197.460E-03,   7.20700E-03
C:/temp/dataset/4/28_2.odb,Step-1,Increment      1: Step Time =    1.000,"PART-1-1",           627,           15.,         -8.75,            0.,NA,NA,"",       1.13757,      -1.07729,   365.388E-03,   11.2413E-03
C:/temp/dataset/4/28_2.odb,Step-1,Increment      1: Step Time =    1.000,"PART-1-1",           628,       13.0740,      -16.2399,            0.,NA,NA,"",   532.880E-03,  -504.896E-03,   170.413E-03,   11.4410E-03
C:/temp/dataset/4/28_2.odb,Step-1,Increment      1: Step Time =    1.000,"PART-1-1",           629,           15.,        -16.25,            0.,NA,NA,"",   594.311E-03,  -520.404E-03,   287.030E-03,   18.0772E-03
C:/temp/dataset/4/28_2.odb,Step-1,Increment      1: Step Time =    1.000,"PART-1-1",           630,       13.0128,       13.9092,            0.,NA,NA,"",       3.12710,      -3.12320,   156.028E-03,   59.1075E-06
C:/temp/dataset/4/28_2.odb,Step-1,Increment      1: Step Time =    1.000,"PART-1-1",           631,           15.,         13.75,            0.,NA,NA,"",       3.13510,      -3.11697,   336.707E-03,   88.2324E-06
C:/temp/dataset/4/28_2.odb,Step-1,Increment      1: Step Time =    1.000,"PART-1-1",           632,       10.9505,       11.7339,            0.,NA,NA,"",       2.91770,      -2.91762,  -21.7389E-03,   72.1465E-06
C:/temp/dataset/4/28_2.odb,Step-1,Increment      1: Step Time =    1.000,"PART-1-1",           633,       9.98883,       12.9959,            0.,NA,NA,"",       3.03022,      -3.02807,  -114.179E-03,   67.8113E-06
C:/temp/dataset/4/28_2.odb,Step-1,Increment      1: Step Time =    1.000,"PART-1-1",           634,       8.94372,       11.9797,            0.,NA,NA,"",       2.93880,      -2.93166,  -204.732E-03,   60.2264E-06
C:/temp/dataset/4/28_2.odb,Step-1,Increment      1: Step Time =    1.000,"PART-1-1",           635,      -13.9153,       18.9000,            0.,NA,NA,"",       4.17586,      -3.47252,      -2.31935,   12.7321E-09
C:/temp/dataset/4/28_2.odb,Step-1,Increment      1: Step Time =    1.000,"PART-1-1",           636,      -12.6393,       19.9841,            0.,NA,NA,"",       4.20324,      -3.57718,      -2.20703,   12.3230E-09
C:/temp/dataset/4/28_2.odb,Step-1,Increment      1: Step Time =    1.000,"PART-1-1",           637,          -15.,       20.1563,            0.,NA,NA,"",       4.32594,      -3.58302,      -2.42398,   14.3542E-09
C:/temp/dataset/4/28_2.odb,Step-1,Increment      1: Step Time =    1.000,"PART-1-1",           638,       8.12191,      -21.7795,            0.,NA,NA,"",   207.136E-03,  -194.272E-03,  -71.8600E-03,   9.10030E-03
C:/temp/dataset/4/28_2.odb,Step-1,Increment      1: Step Time =    1.000,"PART-1-1",           639,       8.12482,      -23.8590,            0.,NA,NA,"",   125.910E-03,  -113.899E-03,  -53.6695E-03,   9.73857E-03
C:/temp/dataset/4/28_2.odb,Step-1,Increment      1: Step Time =    1.000,"PART-1-1",           640,       8.11825,      -19.6354,            0.,NA,NA,"",   309.124E-03,  -295.713E-03,  -90.0627E-03,   8.44644E-03
C:/temp/dataset/4/28_2.odb,Step-1,Increment      1: Step Time =    1.000,"PART-1-1",           641,       8.10952,      -17.4508,            0.,NA,NA,"",   430.741E-03,  -416.859E-03,  -108.471E-03,   7.82567E-03
C:/temp/dataset/4/28_2.odb,Step-1,Increment      1: Step Time =    1.000,"PART-1-1",           642,       7.85781,       23.9076,            0.,NA,NA,"",       4.02395,      -4.00848,  -352.485E-03,   225.119E-09
C:/temp/dataset/4/28_2.odb,Step-1,Increment      1: Step Time =    1.000,"PART-1-1",           643,       7.94870,       21.8524,            0.,NA,NA,"",       3.83726,      -3.82255,  -335.782E-03,   1.42377E-06
C:/temp/dataset/4/28_2.odb,Step-1,Increment      1: Step Time =    1.000,"PART-1-1",           644,       4.21929,       2.98066,            0.,NA,NA,"",       2.17291,      -2.09006,  -594.304E-03,   915.453E-06
C:/temp/dataset/4/28_2.odb,Step-1,Increment      1: Step Time =    1.000,"PART-1-1",           645,       5.32392,       3.96649,            0.,NA,NA,"",       2.24093,      -2.18460,  -499.290E-03,   1.06511E-03
C:/temp/dataset/4/28_2.odb,Step-1,Increment      1: Step Time =    1.000,"PART-1-1",           646,          3.75,            5.,            0.,NA,NA,"",       2.36204,      -2.27217,  -645.358E-03,   459.706E-06
C:/temp/dataset/4/28_2.odb,Step-1,Increment      1: Step Time =    1.000,"PART-1-1",           647,       12.8859,       9.04653,            0.,NA,NA,"",       2.68774,      -2.68269,   164.553E-03,   383.591E-06
C:/temp/dataset/4/28_2.odb,Step-1,Increment      1: Step Time =    1.000,"PART-1-1",           648,           15.,          8.75,            0.,NA,NA,"",       2.68837,      -2.66468,   356.040E-03,   338.743E-06
C:/temp/dataset/4/28_2.odb,Step-1,Increment      1: Step Time =    1.000,"PART-1-1",           649,      -8.02807,       9.41948,            0.,NA,NA,"",       3.15273,      -2.62891,      -1.74026,   593.668E-09
C:/temp/dataset/4/28_2.odb,Step-1,Increment      1: Step Time =    1.000,"PART-1-1",           650,      -8.84347,       16.8085,            0.,NA,NA,"",       3.78322,      -3.30227,      -1.84601,   31.8680E-09
C:/temp/dataset/4/28_2.odb,Step-1,Increment      1: Step Time =    1.000,"PART-1-1",           651,      -9.78583,       18.0165,            0.,NA,NA,"",       3.92104,      -3.40896,      -1.93740,   13.1446E-09
C:/temp/dataset/4/28_2.odb,Step-1,Increment      1: Step Time =    1.000,"PART-1-1",           652,          -15.,       17.9688,            0.,NA,NA,"",       4.15615,      -3.38266,      -2.41478,   13.9913E-09
C:/temp/dataset/4/28_2.odb,Step-1,Increment      1: Step Time =    1.000,"PART-1-1",           653,          -15.,       24.5313,            0.,NA,NA,"",       4.67284,      -3.98375,      -2.44237,   14.1708E-09
C:/temp/dataset/4/28_2.odb,Step-1,Increment      1: Step Time =    1.000,"PART-1-1",           654,      -12.9952,       24.7258,            0.,NA,NA,"",       4.60279,      -4.01000,      -2.25956,   14.5003E-09
C:/temp/dataset/4/28_2.odb,Step-1,Increment      1: Step Time =    1.000,"PART-1-1",           655,      -11.4985,       21.8877,            0.,NA,NA,"",       4.30864,      -3.75633,      -2.11055,   13.8098E-09
C:/temp/dataset/4/28_2.odb,Step-1,Increment      1: Step Time =    1.000,"PART-1-1",           656,      -11.4490,       20.6565,            0.,NA,NA,"",       4.20601,      -3.64377,      -2.10083,   12.8580E-09
C:/temp/dataset/4/28_2.odb,Step-1,Increment      1: Step Time =    1.000,"PART-1-1",           657,      -10.1446,       20.7260,            0.,NA,NA,"",       4.15819,      -3.65562,      -1.98165,   13.1703E-09
C:/temp/dataset/4/28_2.odb,Step-1,Increment      1: Step Time =    1.000,"PART-1-1",           658,      -7.69218,       19.6350,            0.,NA,NA,"",       3.97334,      -3.56600,      -1.75244,   15.4543E-09
C:/temp/dataset/4/28_2.odb,Step-1,Increment      1: Step Time =    1.000,"PART-1-1",           659,      -8.68744,       18.7463,            0.,NA,NA,"",       3.93680,      -3.48042,      -1.83986,   13.5795E-09
C:/temp/dataset/4/28_2.odb,Step-1,Increment      1: Step Time =    1.000,"PART-1-1",           660,      -7.82721,       17.7030,            0.,NA,NA,"",       3.81677,      -3.38848,      -1.75669,   16.1242E-09
C:/temp/dataset/4/28_2.odb,Step-1,Increment      1: Step Time =    1.000,"PART-1-1",           661,      -9.52114,       19.8817,            0.,NA,NA,"",       4.06363,      -3.58091,      -1.92100,   12.8237E-09
C:/temp/dataset/4/28_2.odb,Step-1,Increment      1: Step Time =    1.000,"PART-1-1",           662,      -10.6195,       19.1519,            0.,NA,NA,"",       4.04854,      -3.50945,      -2.01854,   11.4967E-09
C:/temp/dataset/4/28_2.odb,Step-1,Increment      1: Step Time =    1.000,"PART-1-1",           663,      -12.1485,       3.78191,            0.,NA,NA,"",       2.96222,      -2.09523,      -2.09397,   797.640E-09
C:/temp/dataset/4/28_2.odb,Step-1,Increment      1: Step Time =    1.000,"PART-1-1",           664,      -10.9850,       2.86362,            0.,NA,NA,"",       2.82821,      -2.01602,      -1.98354,   2.14447E-06
C:/temp/dataset/4/28_2.odb,Step-1,Increment      1: Step Time =    1.000,"PART-1-1",           665,      -9.06958,       8.49577,            0.,NA,NA,"",       3.13156,      -2.53993,      -1.83178,   780.771E-09
C:/temp/dataset/4/28_2.odb,Step-1,Increment      1: Step Time =    1.000,"PART-1-1",           666,      -8.08215,       7.28595,            0.,NA,NA,"",       2.98921,      -2.43327,      -1.73625,   1.12325E-06
C:/temp/dataset/4/28_2.odb,Step-1,Increment      1: Step Time =    1.000,"PART-1-1",           667,      -10.1292,       7.60955,            0.,NA,NA,"",       3.11924,      -2.45430,      -1.92511,   652.441E-09
C:/temp/dataset/4/28_2.odb,Step-1,Increment      1: Step Time =    1.000,"PART-1-1",           668,      -11.2104,       6.77234,            0.,NA,NA,"",       3.11679,      -2.37308,      -2.02061,   467.039E-09
C:/temp/dataset/4/28_2.odb,Step-1,Increment      1: Step Time =    1.000,"PART-1-1",           669,      -10.2942,       5.63122,            0.,NA,NA,"",       2.98264,      -2.27241,      -1.93191,   926.661E-09
C:/temp/dataset/4/28_2.odb,Step-1,Increment      1: Step Time =    1.000,"PART-1-1",           670,      -9.21309,       6.46842,            0.,NA,NA,"",       2.98529,      -2.35363,      -1.83640,   856.722E-09
C:/temp/dataset/4/28_2.odb,Step-1,Increment      1: Step Time =    1.000,"PART-1-1",           671,        -11.25,           -5.,            0.,NA,NA,"",       2.36135,      -1.29469,      -1.97478,   435.751E-09
C:/temp/dataset/4/28_2.odb,Step-1,Increment      1: Step Time =    1.000,"PART-1-1",           672,      -10.0273,      -3.93877,            0.,NA,NA,"",       2.33202,      -1.39703,      -1.86725,   1.22503E-06
C:/temp/dataset/4/28_2.odb,Step-1,Increment      1: Step Time =    1.000,"PART-1-1",           673,         -8.75,           -5.,            0.,NA,NA,"",       2.17978,      -1.30520,      -1.74582,   2.37947E-06
C:/temp/dataset/4/28_2.odb,Step-1,Increment      1: Step Time =    1.000,"PART-1-1",           674,      -7.59562,      -4.02918,            0.,NA,NA,"",       2.15880,      -1.39896,      -1.64418,   6.74135E-06
C:/temp/dataset/4/28_2.odb,Step-1,Increment      1: Step Time =    1.000,"PART-1-1",           675,      -8.87289,      -2.96795,            0.,NA,NA,"",       2.31081,      -1.49079,      -1.76561,   6.83266E-06
C:/temp/dataset/4/28_2.odb,Step-1,Increment      1: Step Time =    1.000,"PART-1-1",           676,         -6.25,           -5.,            0.,NA,NA,"",       2.00797,      -1.31569,      -1.51687,   20.8039E-06
C:/temp/dataset/4/28_2.odb,Step-1,Increment      1: Step Time =    1.000,"PART-1-1",           677,      -5.03874,      -3.83161,            0.,NA,NA,"",       2.00726,      -1.42777,      -1.41087,   28.9184E-06
C:/temp/dataset/4/28_2.odb,Step-1,Increment      1: Step Time =    1.000,"PART-1-1",           678,      -6.38435,      -2.86079,            0.,NA,NA,"",       2.15622,      -1.51106,      -1.53817,   25.7567E-06
C:/temp/dataset/4/28_2.odb,Step-1,Increment      1: Step Time =    1.000,"PART-1-1",           679,      -8.31216,       1.98044,            0.,NA,NA,"",       2.60743,      -1.94637,      -1.73502,   9.70948E-06
C:/temp/dataset/4/28_2.odb,Step-1,Increment      1: Step Time =    1.000,"PART-1-1",           680,      -6.89941,       1.67561,            0.,NA,NA,"",       2.50544,      -1.92440,      -1.60434,   19.6974E-06
C:/temp/dataset/4/28_2.odb,Step-1,Increment      1: Step Time =    1.000,"PART-1-1",           681,      -8.02347,       3.70061,            0.,NA,NA,"",       2.71580,      -2.10513,      -1.71581,   6.82661E-06
C:/temp/dataset/4/28_2.odb,Step-1,Increment      1: Step Time =    1.000,"PART-1-1",           682,      -9.78636,       2.36681,            0.,NA,NA,"",       2.72139,      -1.97556,      -1.87167,   4.65032E-06
C:/temp/dataset/4/28_2.odb,Step-1,Increment      1: Step Time =    1.000,"PART-1-1",           683,      -8.80920,   354.969E-03,            0.,NA,NA,"",       2.52381,      -1.79541,      -1.77373,   8.99606E-06
C:/temp/dataset/4/28_2.odb,Step-1,Increment      1: Step Time =    1.000,"PART-1-1",           684,         -3.75,           -5.,            0.,NA,NA,"",       1.84860,      -1.32612,      -1.28792,   62.4472E-06
C:/temp/dataset/4/28_2.odb,Step-1,Increment      1: Step Time =    1.000,"PART-1-1",           685,          3.75,           -5.,            0.,NA,NA,"",       1.48141,      -1.35575,  -597.095E-03,   1.44957E-03
C:/temp/dataset/4/28_2.odb,Step-1,Increment      1: Step Time =    1.000,"PART-1-1",           686,       4.46580,      -3.87501,            0.,NA,NA,"",       1.55831,      -1.46394,  -534.034E-03,   3.40001E-03
C:/temp/dataset/4/28_2.odb,Step-1,Increment      1: Step Time =    1.000,"PART-1-1",           687,       2.90021,      -2.90757,            0.,NA,NA,"",       1.69138,      -1.54616,  -685.667E-03,   634.013E-06
C:/temp/dataset/4/28_2.odb,Step-1,Increment      1: Step Time =    1.000,"PART-1-1",           688,       11.1618,       2.81075,            0.,NA,NA,"",       2.10486,      -2.10465,   30.0200E-03,   2.58840E-03
C:/temp/dataset/4/28_2.odb,Step-1,Increment      1: Step Time =    1.000,"PART-1-1",           689,       10.1850,       1.50626,            0.,NA,NA,"",       1.97881,      -1.97810,  -52.6838E-03,   2.95704E-03
C:/temp/dataset/4/28_2.odb,Step-1,Increment      1: Step Time =    1.000,"PART-1-1",           690,       11.6421,   144.368E-03,            0.,NA,NA,"",       1.85954,      -1.85777,   81.2962E-03,   3.57508E-03
C:/temp/dataset/4/28_2.odb,Step-1,Increment      1: Step Time =    1.000,"PART-1-1",           691,         11.25,           30.,            0.,NA,NA,"",       4.57531,      -4.57477,  -70.0458E-03,   177.234E-09
C:/temp/dataset/4/28_2.odb,Step-1,Increment      1: Step Time =    1.000,"PART-1-1",           692,       9.19768,       26.3844,            0.,NA,NA,"",       4.24540,      -4.23854,  -241.215E-03,   176.931E-09
C:/temp/dataset/4/28_2.odb,Step-1,Increment      1: Step Time =    1.000,"PART-1-1",           693,       7.72138,       25.7435,            0.,NA,NA,"",       4.19094,      -4.17436,  -372.413E-03,   202.086E-09
C:/temp/dataset/4/28_2.odb,Step-1,Increment      1: Step Time =    1.000,"PART-1-1",           694,       9.17897,      -24.8987,            0.,NA,NA,"",   80.2717E-03,  -77.9840E-03,  -19.0270E-03,   5.70027E-03
C:/temp/dataset/4/28_2.odb,Step-1,Increment      1: Step Time =    1.000,"PART-1-1",           695,       9.00589,       18.6572,            0.,NA,NA,"",       3.54450,      -3.53724,  -226.772E-03,   12.7367E-06
C:/temp/dataset/4/28_2.odb,Step-1,Increment      1: Step Time =    1.000,"PART-1-1",           696,       7.99757,       19.7140,            0.,NA,NA,"",       3.64319,      -3.62889,  -322.544E-03,   5.53130E-06
C:/temp/dataset/4/28_2.odb,Step-1,Increment      1: Step Time =    1.000,"PART-1-1",           697,      -12.2498,       25.7751,            0.,NA,NA,"",       4.65907,      -4.10924,      -2.19569,   14.8469E-09
C:/temp/dataset/4/28_2.odb,Step-1,Increment      1: Step Time =    1.000,"PART-1-1",           698,      -11.9888,       23.9538,            0.,NA,NA,"",       4.49831,      -3.94351,      -2.16413,   14.5739E-09
C:/temp/dataset/4/28_2.odb,Step-1,Increment      1: Step Time =    1.000,"PART-1-1",           699,      -1.59164,      -1.60220,            0.,NA,NA,"",       1.98282,      -1.64668,      -1.10454,   101.116E-06
C:/temp/dataset/4/28_2.odb,Step-1,Increment      1: Step Time =    1.000,"PART-1-1",           700,      -1.34014,  -343.401E-03,            0.,NA,NA,"",       2.07114,      -1.76313,      -1.08673,   98.3567E-06
C:/temp/dataset/4/28_2.odb,Step-1,Increment      1: Step Time =    1.000,"PART-1-1",           701,      -2.70787,  -93.9540E-03,            0.,NA,NA,"",       2.15414,      -1.78012,      -1.21305,   79.1056E-06
C:/temp/dataset/4/28_2.odb,Step-1,Increment      1: Step Time =    1.000,"PART-1-1",           702,       8.06015,      -13.0184,            0.,NA,NA,"",   725.995E-03,  -710.956E-03,  -147.003E-03,   6.64725E-03
C:/temp/dataset/4/28_2.odb,Step-1,Increment      1: Step Time =    1.000,"PART-1-1",           703,       7.99745,      -10.7906,            0.,NA,NA,"",   895.690E-03,  -879.631E-03,  -168.851E-03,   6.09531E-03
C:/temp/dataset/4/28_2.odb,Step-1,Increment      1: Step Time =    1.000,"PART-1-1",           704,           15.,        -26.25,            0.,NA,NA,"",   120.994E-03,  -73.7524E-03,   95.9175E-03,   26.7689E-03
C:/temp/dataset/4/28_2.odb,Step-1,Increment      1: Step Time =    1.000,"PART-1-1",           705,       13.9776,      -24.8045,            0.,NA,NA,"",   142.371E-03,  -101.229E-03,   100.112E-03,   20.6029E-03
C:/temp/dataset/4/28_2.odb,Step-1,Increment      1: Step Time =    1.000,"PART-1-1",           706,       12.6094,      -25.9010,            0.,NA,NA,"",   77.9920E-03,  -59.5701E-03,   50.3404E-03,   14.5307E-03
C:/temp/dataset/4/28_2.odb,Step-1,Increment      1: Step Time =    1.000,"PART-1-1",           707,       12.0224,      -24.3398,            0.,NA,NA,"",   114.315E-03,  -101.048E-03,   53.4524E-03,   11.2758E-03
C:/temp/dataset/4/28_2.odb,Step-1,Increment      1: Step Time =    1.000,"PART-1-1",           708,       13.0263,      -23.4242,            0.,NA,NA,"",   167.203E-03,  -138.903E-03,   93.0746E-03,   15.2861E-03
C:/temp/dataset/4/28_2.odb,Step-1,Increment      1: Step Time =    1.000,"PART-1-1",           709,       12.1300,      -22.1112,            0.,NA,NA,"",   199.921E-03,  -184.871E-03,   76.0990E-03,   10.5960E-03
C:/temp/dataset/4/28_2.odb,Step-1,Increment      1: Step Time =    1.000,"PART-1-1",           710,           15.,        -23.75,            0.,NA,NA,"",   210.657E-03,  -145.953E-03,   151.902E-03,   24.5853E-03
C:/temp/dataset/4/28_2.odb,Step-1,Increment      1: Step Time =    1.000,"PART-1-1",           711,       10.9035,      -9.09896,            0.,NA,NA,"",       1.02381,      -1.02296,   41.8040E-03,   4.54578E-03
C:/temp/dataset/4/28_2.odb,Step-1,Increment      1: Step Time =    1.000,"PART-1-1",           712,       9.82794,      -8.10226,            0.,NA,NA,"",       1.10359,      -1.10270,  -44.3190E-03,   3.92490E-03
C:/temp/dataset/4/28_2.odb,Step-1,Increment      1: Step Time =    1.000,"PART-1-1",           713,       8.90728,      -9.48784,            0.,NA,NA,"",   991.075E-03,  -985.043E-03,  -109.175E-03,   4.50387E-03
C:/temp/dataset/4/28_2.odb,Step-1,Increment      1: Step Time =    1.000,"PART-1-1",           714,           15.,         -1.25,            0.,NA,NA,"",       1.78755,      -1.74499,   387.717E-03,   4.20725E-03
C:/temp/dataset/4/28_2.odb,Step-1,Increment      1: Step Time =    1.000,"PART-1-1",           715,       12.7555,      -1.12336,            0.,NA,NA,"",       1.75404,      -1.74441,   183.585E-03,   3.87435E-03
C:/temp/dataset/4/28_2.odb,Step-1,Increment      1: Step Time =    1.000,"PART-1-1",           716,       11.5680,       5.48707,            0.,NA,NA,"",       2.35457,      -2.35385,   58.0826E-03,   1.74557E-03
C:/temp/dataset/4/28_2.odb,Step-1,Increment      1: Step Time =    1.000,"PART-1-1",           717,       10.1222,       4.29256,            0.,NA,NA,"",       2.23735,      -2.23631,  -68.2567E-03,   1.85734E-03
C:/temp/dataset/4/28_2.odb,Step-1,Increment      1: Step Time =    1.000,"PART-1-1",           718,       8.27918,   509.070E-03,            0.,NA,NA,"",       1.88991,      -1.87736,  -217.467E-03,   2.78955E-03
C:/temp/dataset/4/28_2.odb,Step-1,Increment      1: Step Time =    1.000,"PART-1-1",           719,       9.70893,  -124.236E-03,            0.,NA,NA,"",       1.82602,      -1.82388,  -88.2472E-03,   3.39311E-03
C:/temp/dataset/4/28_2.odb,Step-1,Increment      1: Step Time =    1.000,"PART-1-1",           720,       8.75521,       2.13956,            0.,NA,NA,"",       2.03871,      -2.03052,  -182.516E-03,   2.16364E-03
C:/temp/dataset/4/28_2.odb,Step-1,Increment      1: Step Time =    1.000,"PART-1-1",           721,       6.99874,       4.90963,            0.,NA,NA,"",       2.30526,      -2.27823,  -351.962E-03,   1.10424E-03
C:/temp/dataset/4/28_2.odb,Step-1,Increment      1: Step Time =    1.000,"PART-1-1",           722,       8.01086,       5.41567,            0.,NA,NA,"",       2.34411,      -2.32935,  -262.639E-03,   1.12659E-03
C:/temp/dataset/4/28_2.odb,Step-1,Increment      1: Step Time =    1.000,"PART-1-1",           723,       11.8045,       7.99587,            0.,NA,NA,"",       2.58398,      -2.58301,   70.7722E-03,   686.940E-06
C:/temp/dataset/4/28_2.odb,Step-1,Increment      1: Step Time =    1.000,"PART-1-1",           724,       7.91904,       10.9856,            0.,NA,NA,"",       2.85239,      -2.83724,  -293.609E-03,   49.4489E-06
C:/temp/dataset/4/28_2.odb,Step-1,Increment      1: Step Time =    1.000,"PART-1-1",           725,       11.0233,       18.7016,            0.,NA,NA,"",       3.54982,      -3.54955,  -44.0578E-03,   12.5913E-06
C:/temp/dataset/4/28_2.odb,Step-1,Increment      1: Step Time =    1.000,"PART-1-1",           726,       10.0074,       19.8076,            0.,NA,NA,"",       3.64836,      -3.64564,  -140.717E-03,   5.92760E-06
C:/temp/dataset/4/28_2.odb,Step-1,Increment      1: Step Time =    1.000,"PART-1-1",           727,       10.9673,       21.0105,            0.,NA,NA,"",       3.75910,      -3.75865,  -58.6578E-03,   3.85201E-06
C:/temp/dataset/4/28_2.odb,Step-1,Increment      1: Step Time =    1.000,"PART-1-1",           728,       8.97465,       20.8454,            0.,NA,NA,"",       3.74309,      -3.73548,  -238.624E-03,   4.17386E-06
C:/temp/dataset/4/28_2.odb,Step-1,Increment      1: Step Time =    1.000,"PART-1-1",           729,       8.66510,       24.8184,            0.,NA,NA,"",       4.10415,      -4.09438,  -283.049E-03,   208.200E-09
C:/temp/dataset/4/28_2.odb,Step-1,Increment      1: Step Time =    1.000,"PART-1-1",           730,       7.98376,       13.1681,            0.,NA,NA,"",       3.04994,      -3.03547,  -296.775E-03,   57.0951E-06
C:/temp/dataset/4/28_2.odb,Step-1,Increment      1: Step Time =    1.000,"PART-1-1",           731,      -1.95806,       1.80915,            0.,NA,NA,"",       2.27148,      -1.95752,      -1.15228,   87.0185E-06
C:/temp/dataset/4/28_2.odb,Step-1,Increment      1: Step Time =    1.000,"PART-1-1",           732,  -613.587E-03,   828.335E-03,            0.,NA,NA,"",       2.13562,      -1.87352,      -1.02508,   82.0758E-06
C:/temp/dataset/4/28_2.odb,Step-1,Increment      1: Step Time =    1.000,"PART-1-1",           733,   461.223E-03,       1.99751,            0.,NA,NA,"",       2.19274,      -1.98497,  -931.669E-03,   75.3003E-06
C:/temp/dataset/4/28_2.odb,Step-1,Increment      1: Step Time =    1.000,"PART-1-1",           734,       1.74006,       1.04512,            0.,NA,NA,"",       2.06870,      -1.90323,  -810.691E-03,   318.754E-06
C:/temp/dataset/4/28_2.odb,Step-1,Increment      1: Step Time =    1.000,"PART-1-1",           735,   906.022E-03,  -39.5003E-03,            0.,NA,NA,"",       2.00508,      -1.80056,  -882.243E-03,   150.637E-06
C:/temp/dataset/4/28_2.odb,Step-1,Increment      1: Step Time =    1.000,"PART-1-1",           736,       2.15034,  -968.542E-03,            0.,NA,NA,"",       1.88266,      -1.72065,  -764.047E-03,   487.690E-06
C:/temp/dataset/4/28_2.odb,Step-1,Increment      1: Step Time =    1.000,"PART-1-1",           737,       2.98438,   116.081E-03,            0.,NA,NA,"",       1.95037,      -1.82320,  -692.726E-03,   686.765E-06
C:/temp/dataset/4/28_2.odb,Step-1,Increment      1: Step Time =    1.000,"PART-1-1",           738,      -8.25937,       5.01848,            0.,NA,NA,"",       2.82627,      -2.22484,      -1.74295,   3.86001E-06
C:/temp/dataset/4/28_2.odb,Step-1,Increment      1: Step Time =    1.000,"PART-1-1",           739,      -2.78312,       1.01462,            0.,NA,NA,"",       2.24472,      -1.88130,      -1.22454,   75.7534E-06
C:/temp/dataset/4/28_2.odb,Step-1,Increment      1: Step Time =    1.000,"PART-1-1",           740,      -4.31499,   913.536E-03,            0.,NA,NA,"",       2.31125,      -1.86554,      -1.36443,   54.6940E-06
C:/temp/dataset/4/28_2.odb,Step-1,Increment      1: Step Time =    1.000,"PART-1-1",           741,      -4.23975,  -195.042E-03,            0.,NA,NA,"",       2.22335,      -1.76433,      -1.35293,   60.3092E-06
C:/temp/dataset/4/28_2.odb,Step-1,Increment      1: Step Time =    1.000,"PART-1-1",           742,      -8.52646,       20.5688,            0.,NA,NA,"",       4.08255,      -3.64803,      -1.83278,   14.4028E-09
C:/temp/dataset/4/28_2.odb,Step-1,Increment      1: Step Time =    1.000,"PART-1-1",           743,       8.09873,      -15.2435,            0.,NA,NA,"",   570.102E-03,  -555.804E-03,  -126.877E-03,   7.20645E-03
C:/temp/dataset/4/28_2.odb,Step-1,Increment      1: Step Time =    1.000,"PART-1-1",           744,       8.99676,       14.2096,            0.,NA,NA,"",       3.14101,      -3.13403,  -209.199E-03,   54.7272E-06
C:/temp/dataset/4/28_2.odb,Step-1,Increment      1: Step Time =    1.000,"PART-1-1",           745,       11.0169,       14.0599,            0.,NA,NA,"",       3.12881,      -3.12871,  -25.4198E-03,   61.4319E-06
C:/temp/dataset/4/28_2.odb,Step-1,Increment      1: Step Time =    1.000,"PART-1-1",           746,      -7.91902,       15.6847,            0.,NA,NA,"",       3.65327,      -3.20323,      -1.75661,   41.6276E-09
C:/temp/dataset/4/28_2.odb,Step-1,Increment      1: Step Time =    1.000,"PART-1-1",           747,      -11.9968,       14.1876,            0.,NA,NA,"",       3.71574,      -3.04896,      -2.12381,   89.6030E-09
C:/temp/dataset/4/28_2.odb,Step-1,Increment      1: Step Time =    1.000,"PART-1-1",           748,      -11.1175,       8.79310,            0.,NA,NA,"",       3.26022,      -2.55855,      -2.02061,   513.168E-09
C:/temp/dataset/4/28_2.odb,Step-1,Increment      1: Step Time =    1.000,"PART-1-1",           749,       10.6592,      -6.44981,            0.,NA,NA,"",       1.24858,      -1.24847,   17.0070E-03,   4.45944E-03
C:/temp/dataset/4/28_2.odb,Step-1,Increment      1: Step Time =    1.000,"PART-1-1",           750,      -10.7894,       23.3985,            0.,NA,NA,"",       4.40483,      -3.89770,      -2.05195,   14.6693E-09
C:/temp/dataset/4/28_2.odb,Step-1,Increment      1: Step Time =    1.000,"PART-1-1",           751,       10.0228,      -25.8019,            0.,NA,NA,"",   52.7690E-03,  -52.7620E-03,   863.324E-06,   4.10456E-03
C:/temp/dataset/4/28_2.odb,Step-1,Increment      1: Step Time =    1.000,"PART-1-1",           752,       10.9542,      -24.8826,            0.,NA,NA,"",   82.9977E-03,  -79.7906E-03,   22.8492E-03,   6.51467E-03
C:/temp/dataset/4/28_2.odb,Step-1,Increment      1: Step Time =    1.000,"PART-1-1",           753,       11.8371,      -2.37854,            0.,NA,NA,"",       1.62617,      -1.62271,   105.923E-03,   4.01173E-03
C:/temp/dataset/4/28_2.odb,Step-1,Increment      1: Step Time =    1.000,"PART-1-1",           754,       11.6235,      -5.02753,            0.,NA,NA,"",       1.38243,      -1.37926,   93.5958E-03,   4.51818E-03
C:/temp/dataset/4/28_2.odb,Step-1,Increment      1: Step Time =    1.000,"PART-1-1",           755,      -12.1333,       7.86930,            0.,NA,NA,"",       3.24813,      -2.46967,      -2.10976,   469.523E-09
C:/temp/dataset/4/28_2.odb,Step-1,Increment      1: Step Time =    1.000,"PART-1-1",           756,      -12.0768,       9.95169,            0.,NA,NA,"",       3.39783,      -2.66064,      -2.11334,   400.935E-09
C:/temp/dataset/4/28_2.odb,Step-1,Increment      1: Step Time =    1.000,"PART-1-1",           757,       8.68743,       3.64563,            0.,NA,NA,"",       2.17827,      -2.16955,  -194.729E-03,   1.78428E-03
C:/temp/dataset/4/28_2.odb,Step-1,Increment      1: Step Time =    1.000,"PART-1-1",           758,       6.61848,       3.66599,            0.,NA,NA,"",       2.19562,      -2.16232,  -380.932E-03,   1.15242E-03
C:/temp/dataset/4/28_2.odb,Step-1,Increment      1: Step Time =    1.000,"PART-1-1",           759,       4.71579,   65.6079E-03,            0.,NA,NA,"",       1.90150,      -1.82479,  -534.663E-03,   1.47495E-03
C:/temp/dataset/4/28_2.odb,Step-1,Increment      1: Step Time =    1.000,"PART-1-1",           760,       3.89104,   957.250E-03,            0.,NA,NA,"",       2.00020,      -1.90355,  -614.229E-03,   1.04945E-03
C:/temp/dataset/4/28_2.odb,Step-1,Increment      1: Step Time =    1.000,"PART-1-1",           761,      -12.0363,       12.0623,            0.,NA,NA,"",       3.55445,      -2.85413,      -2.11850,   219.828E-09
C:/temp/dataset/4/28_2.odb,Step-1,Increment      1: Step Time =    1.000,"PART-1-1",           762,      -12.1964,       5.82098,            0.,NA,NA,"",       3.10576,      -2.28179,      -2.10693,   282.161E-09
C:/temp/dataset/4/28_2.odb,Step-1,Increment      1: Step Time =    1.000,"PART-1-1",           763,      -11.2570,       4.81016,            0.,NA,NA,"",       2.97939,      -2.19316,      -2.01664,   762.188E-09
C:/temp/dataset/4/28_2.odb,Step-1,Increment      1: Step Time =    1.000,"PART-1-1",           764,      -10.5260,       3.94381,            0.,NA,NA,"",       2.87546,      -2.11688,      -1.94604,   1.92247E-06
C:/temp/dataset/4/28_2.odb,Step-1,Increment      1: Step Time =    1.000,"PART-1-1",           765,      -9.56326,       4.76486,            0.,NA,NA,"",       2.87880,      -2.19613,      -1.86132,   1.92332E-06
C:/temp/dataset/4/28_2.odb,Step-1,Increment      1: Step Time =    1.000,"PART-1-1",           766,      -9.32737,       3.44699,            0.,NA,NA,"",       2.77050,      -2.07642,      -1.83417,   4.20350E-06
C:/temp/dataset/4/28_2.odb,Step-1,Increment      1: Step Time =    1.000,"PART-1-1",           767,       11.5413,      -26.4438,            0.,NA,NA,"",   48.7179E-03,  -41.3532E-03,   25.7556E-03,   9.31625E-03
C:/temp/dataset/4/28_2.odb,Step-1,Increment      1: Step Time =    1.000,"PART-1-1",           768,       5.97241,      -3.36228,            0.,NA,NA,"",       1.56562,      -1.51407,  -398.418E-03,   4.42017E-03
C:/temp/dataset/4/28_2.odb,Step-1,Increment      1: Step Time =    1.000,"PART-1-1",           769,       11.9304,       22.2704,            0.,NA,NA,"",       3.87690,      -3.87683,   23.4640E-03,   1.01705E-06
C:/temp/dataset/4/28_2.odb,Step-1,Increment      1: Step Time =    1.000,"PART-1-1",           770,      -3.95064,       2.12654,            0.,NA,NA,"",       2.38709,      -1.97813,      -1.33611,   52.8178E-06
C:/temp/dataset/4/28_2.odb,Step-1,Increment      1: Step Time =    1.000,"PART-1-1",           771,       12.1361,      -19.7979,            0.,NA,NA,"",   307.981E-03,  -293.295E-03,   93.9701E-03,   9.73743E-03
C:/temp/dataset/4/28_2.odb,Step-1,Increment      1: Step Time =    1.000,"PART-1-1",           772,       12.1156,      -17.4436,            0.,NA,NA,"",   437.958E-03,  -424.505E-03,   107.718E-03,   8.77423E-03
C:/temp/dataset/4/28_2.odb,Step-1,Increment      1: Step Time =    1.000,"PART-1-1",           773,       11.8489,      -7.73518,            0.,NA,NA,"",       1.14796,      -1.14222,   114.708E-03,   5.19848E-03
C:/temp/dataset/4/28_2.odb,Step-1,Increment      1: Step Time =    1.000,"PART-1-1",           774,       11.9658,      -10.2357,            0.,NA,NA,"",   942.882E-03,  -934.910E-03,   122.355E-03,   5.98890E-03
C:/temp/dataset/4/28_2.odb,Step-1,Increment      1: Step Time =    1.000,"PART-1-1",           775,       10.7237,      -1.11081,            0.,NA,NA,"",       1.73596,      -1.73596,   4.74993E-03,   3.90866E-03
C:/temp/dataset/4/28_2.odb,Step-1,Increment      1: Step Time =    1.000,"PART-1-1",           776,       11.9194,       10.4262,            0.,NA,NA,"",       2.80408,      -2.80317,   71.4645E-03,   95.0307E-06
C:/temp/dataset/4/28_2.odb,Step-1,Increment      1: Step Time =    1.000,"PART-1-1",           777,       11.9945,       12.8006,            0.,NA,NA,"",       3.01932,      -3.01855,   68.3906E-03,   70.7355E-06
C:/temp/dataset/4/28_2.odb,Step-1,Increment      1: Step Time =    1.000,"PART-1-1",           778,       12.0317,      -12.6649,            0.,NA,NA,"",   756.779E-03,  -746.839E-03,   122.255E-03,   6.86788E-03
C:/temp/dataset/4/28_2.odb,Step-1,Increment      1: Step Time =    1.000,"PART-1-1",           779,       12.0352,       15.1685,            0.,NA,NA,"",       3.23397,      -3.23337,   62.2563E-03,   38.9569E-06
C:/temp/dataset/4/28_2.odb,Step-1,Increment      1: Step Time =    1.000,"PART-1-1",           780,      -7.80161,      -2.23284,            0.,NA,NA,"",       2.28751,      -1.56262,      -1.67059,   11.8727E-06
C:/temp/dataset/4/28_2.odb,Step-1,Increment      1: Step Time =    1.000,"PART-1-1",           781,      -8.87876,  -905.543E-03,            0.,NA,NA,"",       2.44361,      -1.67966,      -1.77481,   9.05923E-06
C:/temp/dataset/4/28_2.odb,Step-1,Increment      1: Step Time =    1.000,"PART-1-1",           782,      -7.16649,      -1.00336,            0.,NA,NA,"",       2.33066,      -1.67791,      -1.61758,   18.7337E-06
C:/temp/dataset/4/28_2.odb,Step-1,Increment      1: Step Time =    1.000,"PART-1-1",           783,      -7.09692,   257.153E-03,            0.,NA,NA,"",       2.41460,      -1.79366,      -1.61649,   19.1845E-06
C:/temp/dataset/4/28_2.odb,Step-1,Increment      1: Step Time =    1.000,"PART-1-1",           784,      -5.74923,      -1.63131,            0.,NA,NA,"",       2.20245,      -1.62637,      -1.48516,   29.8057E-06
C:/temp/dataset/4/28_2.odb,Step-1,Increment      1: Step Time =    1.000,"PART-1-1",           785,      -5.66693,  -67.3201E-03,            0.,NA,NA,"",       2.30989,      -1.76998,      -1.48417,   36.3733E-06
C:/temp/dataset/4/28_2.odb,Step-1,Increment      1: Step Time =    1.000,"PART-1-1",           786,      -5.46941,       1.35113,            0.,NA,NA,"",       2.40406,      -1.90072,      -1.47200,   34.7045E-06
C:/temp/dataset/4/28_2.odb,Step-1,Increment      1: Step Time =    1.000,"PART-1-1",           787,       12.0849,      -15.0650,            0.,NA,NA,"",   588.186E-03,  -576.327E-03,   117.515E-03,   7.82338E-03
C:/temp/dataset/4/28_2.odb,Step-1,Increment      1: Step Time =    1.000,"PART-1-1",           788,       7.01212,      -4.44648,            0.,NA,NA,"",       1.44793,      -1.41692,  -298.037E-03,   4.82011E-03
C:/temp/dataset/4/28_2.odb,Step-1,Increment      1: Step Time =    1.000,"PART-1-1",           789,       7.64174,      -3.33281,            0.,NA,NA,"",       1.54076,      -1.52012,  -251.371E-03,   4.46853E-03
C:/temp/dataset/4/28_2.odb,Step-1,Increment      1: Step Time =    1.000,"PART-1-1",           790,       6.60203,      -2.24861,            0.,NA,NA,"",       1.65507,      -1.61759,  -350.241E-03,   3.55653E-03
C:/temp/dataset/4/28_2.odb,Step-1,Increment      1: Step Time =    1.000,"PART-1-1",           791,       6.68626,       2.15992,            0.,NA,NA,"",       2.05723,      -2.02407,  -367.844E-03,   1.71031E-03
C:/temp/dataset/4/28_2.odb,Step-1,Increment      1: Step Time =    1.000,"PART-1-1",           792,       12.0103,       19.9021,            0.,NA,NA,"",       3.66267,      -3.66245,   40.4647E-03,   4.86644E-06
C:/temp/dataset/4/28_2.odb,Step-1,Increment      1: Step Time =    1.000,"PART-1-1",           793,       12.0305,       17.5416,            0.,NA,NA,"",       3.44891,      -3.44852,   52.0305E-03,   16.0389E-06
C:/temp/dataset/4/28_2.odb,Step-1,Increment      1: Step Time =    1.000,"PART-1-1",           794,       6.09271,      -1.14349,            0.,NA,NA,"",       1.76467,      -1.71800,  -403.129E-03,   2.68805E-03
C:/temp/dataset/4/28_2.odb,Step-1,Increment      1: Step Time =    1.000,"PART-1-1",           795,       7.56053,      -1.65505,            0.,NA,NA,"",       1.69615,      -1.67465,  -269.216E-03,   3.62923E-03
C:/temp/dataset/4/28_2.odb,Step-1,Increment      1: Step Time =    1.000,"PART-1-1",           796,       7.05122,  -549.935E-03,            0.,NA,NA,"",       1.80412,      -1.77535,  -320.934E-03,   2.89037E-03
C:/temp/dataset/4/28_2.odb,Step-1,Increment      1: Step Time =    1.000,"PART-1-1",           797,       5.28588,       1.87348,            0.,NA,NA,"",       2.05255,      -1.99258,  -492.531E-03,   1.33426E-03
C:/temp/dataset/4/28_2.odb,Step-1,Increment      1: Step Time =    1.000,"PART-1-1",           798,       5.70847,   325.226E-03,            0.,NA,NA,"",       1.90486,      -1.85184,  -446.282E-03,   1.91613E-03
C:/temp/dataset/4/28_2.odb,Step-1,Increment      1: Step Time =    1.000,"PART-1-1",           799,       7.10885,   611.668E-03,            0.,NA,NA,"",       1.91015,      -1.88278,  -322.195E-03,   2.28566E-03
C:/temp/dataset/4/28_2.odb,Step-1,Increment      1: Step Time =    1.000,"PART-1-1",           800,       9.00326,      -1.31280,            0.,NA,NA,"",       1.71675,      -1.71065,  -144.571E-03,   3.78386E-03
C:/temp/dataset/4/28_2.odb,Step-1,Increment      1: Step Time =    1.000,"PART-1-1",           801,       8.22155,  -652.532E-03,            0.,NA,NA,"",       1.78261,      -1.76940,  -216.624E-03,   3.24694E-03
C:/temp/dataset/4/28_2.odb,Step-1,Increment      1: Step Time =    1.000,"PART-1-1",           802,       8.34224,      -2.31533,            0.,NA,NA,"",       1.62766,      -1.61571,  -196.800E-03,   4.02853E-03
C:/temp/dataset/4/28_2.odb,Step-1,Increment      1: Step Time =    1.000,"PART-1-1",           803,       2.82445,       2.06443,            0.,NA,NA,"",       2.12518,      -2.00078,  -716.428E-03,   498.062E-06
