ODB Name,Step,Frame,Part Instance Name,    êﬂì_ÉâÉxÉã,X,Y,Z,Section Name,Material Name,Section Point,   U-Magnitude,          U-U1,          U-U2,       S-Mises
C:/temp/dataset/4/29_2.odb,Step-1,Increment      1: Step Time =    1.000,"PART-1-1",             1,           -5.,           30.,            0.,NA,NA,"",       3.10550,      -2.96494,  -923.705E-03,   36.5975E-12
C:/temp/dataset/4/29_2.odb,Step-1,Increment      1: Step Time =    1.000,"PART-1-1",             2,          -15.,           30.,            0.,NA,NA,"",       3.30441,      -2.94883,      -1.49116,   38.1121E-12
C:/temp/dataset/4/29_2.odb,Step-1,Increment      1: Step Time =    1.000,"PART-1-1",             3,          -15.,         21.25,            0.,NA,NA,"",       2.86278,      -2.45231,      -1.47706,   542.380E-12
C:/temp/dataset/4/29_2.odb,Step-1,Increment      1: Step Time =    1.000,"PART-1-1",             4,          -15.,          12.5,            0.,NA,NA,"",       2.44241,      -1.95579,      -1.46296,   1.30264E-09
C:/temp/dataset/4/29_2.odb,Step-1,Increment      1: Step Time =    1.000,"PART-1-1",             5,          -15.,          3.75,            0.,NA,NA,"",       2.05637,      -1.45927,      -1.44886,   428.957E-09
C:/temp/dataset/4/29_2.odb,Step-1,Increment      1: Step Time =    1.000,"PART-1-1",             6,          -15.,           -5.,            0.,NA,NA,"",       1.72784,  -962.761E-03,      -1.43476,   33.2763E-09
C:/temp/dataset/4/29_2.odb,Step-1,Increment      1: Step Time =    1.000,"PART-1-1",             7,          -10.,           -5.,            0.,NA,NA,"",       1.50578,  -970.818E-03,      -1.15104,   685.315E-09
C:/temp/dataset/4/29_2.odb,Step-1,Increment      1: Step Time =    1.000,"PART-1-1",             8,           -5.,           -5.,            0.,NA,NA,"",       1.30784,  -978.877E-03,  -867.328E-03,   2.03835E-06
C:/temp/dataset/4/29_2.odb,Step-1,Increment      1: Step Time =    1.000,"PART-1-1",             9,            0.,           -5.,            0.,NA,NA,"",       1.14653,  -986.855E-03,  -583.657E-03,   60.2933E-06
C:/temp/dataset/4/29_2.odb,Step-1,Increment      1: Step Time =    1.000,"PART-1-1",            10,            5.,           -5.,            0.,NA,NA,"",       1.03772,  -993.840E-03,  -298.580E-03,   945.959E-06
C:/temp/dataset/4/29_2.odb,Step-1,Increment      1: Step Time =    1.000,"PART-1-1",            11,            5.,        -11.25,            0.,NA,NA,"",   694.446E-03,  -641.100E-03,  -266.922E-03,   6.57204E-03
C:/temp/dataset/4/29_2.odb,Step-1,Increment      1: Step Time =    1.000,"PART-1-1",            12,            5.,         -17.5,            0.,NA,NA,"",   392.233E-03,  -333.769E-03,  -206.020E-03,   12.3379E-03
C:/temp/dataset/4/29_2.odb,Step-1,Increment      1: Step Time =    1.000,"PART-1-1",            13,            5.,        -23.75,            0.,NA,NA,"",   162.924E-03,  -113.419E-03,  -116.963E-03,   17.9845E-03
C:/temp/dataset/4/29_2.odb,Step-1,Increment      1: Step Time =    1.000,"PART-1-1",            14,            5.,          -30.,            0.,NA,NA,"",            0.,  -7.34414E-39,  -13.8571E-39,   27.2356E-03
C:/temp/dataset/4/29_2.odb,Step-1,Increment      1: Step Time =    1.000,"PART-1-1",            15,           15.,          -30.,            0.,NA,NA,"",            0.,  -7.75802E-39,   14.3654E-39,   27.1010E-03
C:/temp/dataset/4/29_2.odb,Step-1,Increment      1: Step Time =    1.000,"PART-1-1",            16,           15.,         -22.5,            0.,NA,NA,"",   203.769E-03,  -153.025E-03,   134.556E-03,   16.9571E-03
C:/temp/dataset/4/29_2.odb,Step-1,Increment      1: Step Time =    1.000,"PART-1-1",            17,           15.,          -15.,            0.,NA,NA,"",   508.697E-03,  -458.858E-03,   219.595E-03,   10.1931E-03
C:/temp/dataset/4/29_2.odb,Step-1,Increment      1: Step Time =    1.000,"PART-1-1",            18,           15.,          -7.5,            0.,NA,NA,"",   906.441E-03,  -869.614E-03,   255.749E-03,   3.83615E-03
C:/temp/dataset/4/29_2.odb,Step-1,Increment      1: Step Time =    1.000,"PART-1-1",            19,           15.,            0.,            0.,NA,NA,"",       1.32391,      -1.29979,   251.534E-03,   1.06176E-03
C:/temp/dataset/4/29_2.odb,Step-1,Increment      1: Step Time =    1.000,"PART-1-1",            20,           15.,           7.5,            0.,NA,NA,"",       1.73450,      -1.71754,   241.901E-03,   41.5836E-06
C:/temp/dataset/4/29_2.odb,Step-1,Increment      1: Step Time =    1.000,"PART-1-1",            21,           15.,           15.,            0.,NA,NA,"",       2.15107,      -2.13872,   230.111E-03,   1.51941E-06
C:/temp/dataset/4/29_2.odb,Step-1,Increment      1: Step Time =    1.000,"PART-1-1",            22,           15.,          22.5,            0.,NA,NA,"",       2.56910,      -2.55981,   218.277E-03,   61.1753E-09
C:/temp/dataset/4/29_2.odb,Step-1,Increment      1: Step Time =    1.000,"PART-1-1",            23,           15.,           30.,            0.,NA,NA,"",       2.98805,      -2.98091,   206.446E-03,   451.817E-12
C:/temp/dataset/4/29_2.odb,Step-1,Increment      1: Step Time =    1.000,"PART-1-1",            24,            5.,           30.,            0.,NA,NA,"",       2.98631,      -2.96513,  -355.008E-03,   219.623E-12
C:/temp/dataset/4/29_2.odb,Step-1,Increment      1: Step Time =    1.000,"PART-1-1",            25,            5.,         23.75,            0.,NA,NA,"",       2.63691,      -2.61422,  -345.149E-03,   23.5686E-09
C:/temp/dataset/4/29_2.odb,Step-1,Increment      1: Step Time =    1.000,"PART-1-1",            26,            5.,          17.5,            0.,NA,NA,"",       2.28801,      -2.26331,  -335.289E-03,   753.449E-09
C:/temp/dataset/4/29_2.odb,Step-1,Increment      1: Step Time =    1.000,"PART-1-1",            27,            5.,         11.25,            0.,NA,NA,"",       1.93992,      -1.91243,  -325.425E-03,   2.64827E-06
C:/temp/dataset/4/29_2.odb,Step-1,Increment      1: Step Time =    1.000,"PART-1-1",            28,            5.,            5.,            0.,NA,NA,"",       1.59345,      -1.56182,  -315.936E-03,   299.149E-06
C:/temp/dataset/4/29_2.odb,Step-1,Increment      1: Step Time =    1.000,"PART-1-1",            29,            0.,            5.,            0.,NA,NA,"",       1.66598,      -1.55433,  -599.641E-03,   33.9528E-06
C:/temp/dataset/4/29_2.odb,Step-1,Increment      1: Step Time =    1.000,"PART-1-1",            30,           -5.,            5.,            0.,NA,NA,"",       1.78088,      -1.54632,  -883.420E-03,   1.46947E-06
C:/temp/dataset/4/29_2.odb,Step-1,Increment      1: Step Time =    1.000,"PART-1-1",            31,           -5.,         11.25,            0.,NA,NA,"",       2.10048,      -1.90097,  -893.493E-03,   18.8412E-09
C:/temp/dataset/4/29_2.odb,Step-1,Increment      1: Step Time =    1.000,"PART-1-1",            32,           -5.,          17.5,            0.,NA,NA,"",       2.42987,      -2.25563,  -903.564E-03,   2.81130E-09
C:/temp/dataset/4/29_2.odb,Step-1,Increment      1: Step Time =    1.000,"PART-1-1",            33,           -5.,         23.75,            0.,NA,NA,"",       2.76556,      -2.61029,  -913.634E-03,   149.519E-12
C:/temp/dataset/4/29_2.odb,Step-1,Increment      1: Step Time =    1.000,"PART-1-1",            34,          -7.5,           30.,            0.,NA,NA,"",       3.14681,      -2.96091,      -1.06557,   31.5442E-12
C:/temp/dataset/4/29_2.odb,Step-1,Increment      1: Step Time =    1.000,"PART-1-1",            35,          -10.,           30.,            0.,NA,NA,"",       3.19391,      -2.95689,      -1.20743,   36.1571E-12
C:/temp/dataset/4/29_2.odb,Step-1,Increment      1: Step Time =    1.000,"PART-1-1",            36,         -12.5,           30.,            0.,NA,NA,"",       3.24653,      -2.95286,      -1.34929,   40.5128E-12
C:/temp/dataset/4/29_2.odb,Step-1,Increment      1: Step Time =    1.000,"PART-1-1",            37,          -15.,       27.8125,            0.,NA,NA,"",       3.19249,      -2.82470,      -1.48763,   31.2148E-12
C:/temp/dataset/4/29_2.odb,Step-1,Increment      1: Step Time =    1.000,"PART-1-1",            38,          -15.,        25.625,            0.,NA,NA,"",       3.08150,      -2.70057,      -1.48411,   29.0141E-12
C:/temp/dataset/4/29_2.odb,Step-1,Increment      1: Step Time =    1.000,"PART-1-1",            39,          -15.,       23.4375,            0.,NA,NA,"",       2.97156,      -2.57644,      -1.48058,   119.462E-12
C:/temp/dataset/4/29_2.odb,Step-1,Increment      1: Step Time =    1.000,"PART-1-1",            40,          -15.,       19.0625,            0.,NA,NA,"",       2.75531,      -2.32818,      -1.47353,   1.49147E-09
C:/temp/dataset/4/29_2.odb,Step-1,Increment      1: Step Time =    1.000,"PART-1-1",            41,          -15.,        16.875,            0.,NA,NA,"",       2.64929,      -2.20405,      -1.47001,   3.20851E-09
C:/temp/dataset/4/29_2.odb,Step-1,Increment      1: Step Time =    1.000,"PART-1-1",            42,          -15.,       14.6875,            0.,NA,NA,"",       2.54492,      -2.07992,      -1.46648,   4.72219E-09
C:/temp/dataset/4/29_2.odb,Step-1,Increment      1: Step Time =    1.000,"PART-1-1",            43,          -15.,       10.3125,            0.,NA,NA,"",       2.34199,      -1.83166,      -1.45943,   24.0872E-09
C:/temp/dataset/4/29_2.odb,Step-1,Increment      1: Step Time =    1.000,"PART-1-1",            44,          -15.,         8.125,            0.,NA,NA,"",       2.24395,      -1.70753,      -1.45591,   98.6157E-09
C:/temp/dataset/4/29_2.odb,Step-1,Increment      1: Step Time =    1.000,"PART-1-1",            45,          -15.,        5.9375,            0.,NA,NA,"",       2.14862,      -1.58340,      -1.45238,   245.867E-09
C:/temp/dataset/4/29_2.odb,Step-1,Increment      1: Step Time =    1.000,"PART-1-1",            46,          -15.,        1.5625,            0.,NA,NA,"",       1.96764,      -1.33514,      -1.44533,   521.490E-09
C:/temp/dataset/4/29_2.odb,Step-1,Increment      1: Step Time =    1.000,"PART-1-1",            47,          -15.,     -625.E-03,            0.,NA,NA,"",       1.88291,      -1.21102,      -1.44181,   403.152E-09
C:/temp/dataset/4/29_2.odb,Step-1,Increment      1: Step Time =    1.000,"PART-1-1",            48,          -15.,       -2.8125,            0.,NA,NA,"",       1.80277,      -1.08689,      -1.43828,   130.249E-09
C:/temp/dataset/4/29_2.odb,Step-1,Increment      1: Step Time =    1.000,"PART-1-1",            49,         -12.5,           -5.,            0.,NA,NA,"",       1.61439,  -966.789E-03,      -1.29290,   201.063E-09
C:/temp/dataset/4/29_2.odb,Step-1,Increment      1: Step Time =    1.000,"PART-1-1",            50,          -7.5,           -5.,            0.,NA,NA,"",       1.40313,  -974.849E-03,      -1.00918,   1.53193E-06
C:/temp/dataset/4/29_2.odb,Step-1,Increment      1: Step Time =    1.000,"PART-1-1",            51,          -2.5,           -5.,            0.,NA,NA,"",       1.22165,  -982.902E-03,  -725.493E-03,   6.98097E-06
C:/temp/dataset/4/29_2.odb,Step-1,Increment      1: Step Time =    1.000,"PART-1-1",            52,           2.5,           -5.,            0.,NA,NA,"",       1.08477,  -990.726E-03,  -441.798E-03,   224.250E-06
C:/temp/dataset/4/29_2.odb,Step-1,Increment      1: Step Time =    1.000,"PART-1-1",            53,            5.,      -7.08333,            0.,NA,NA,"",   921.130E-03,  -873.958E-03,  -290.997E-03,   2.89201E-03
C:/temp/dataset/4/29_2.odb,Step-1,Increment      1: Step Time =    1.000,"PART-1-1",            54,            5.,      -9.16667,            0.,NA,NA,"",   806.272E-03,  -755.860E-03,  -280.625E-03,   4.63997E-03
C:/temp/dataset/4/29_2.odb,Step-1,Increment      1: Step Time =    1.000,"PART-1-1",            55,            5.,      -13.3333,            0.,NA,NA,"",   587.235E-03,  -531.428E-03,  -249.859E-03,   8.51696E-03
C:/temp/dataset/4/29_2.odb,Step-1,Increment      1: Step Time =    1.000,"PART-1-1",            56,            5.,      -15.4167,            0.,NA,NA,"",   486.084E-03,  -428.482E-03,  -229.524E-03,   10.4405E-03
C:/temp/dataset/4/29_2.odb,Step-1,Increment      1: Step Time =    1.000,"PART-1-1",            57,            5.,      -19.5833,            0.,NA,NA,"",   306.690E-03,  -248.741E-03,  -179.405E-03,   14.2243E-03
C:/temp/dataset/4/29_2.odb,Step-1,Increment      1: Step Time =    1.000,"PART-1-1",            58,            5.,      -21.6667,            0.,NA,NA,"",   230.157E-03,  -174.799E-03,  -149.725E-03,   16.0753E-03
C:/temp/dataset/4/29_2.odb,Step-1,Increment      1: Step Time =    1.000,"PART-1-1",            59,            5.,      -25.8333,            0.,NA,NA,"",   104.503E-03,  -65.5276E-03,  -81.4070E-03,   19.3401E-03
C:/temp/dataset/4/29_2.odb,Step-1,Increment      1: Step Time =    1.000,"PART-1-1",            60,            5.,      -27.9167,            0.,NA,NA,"",   53.7680E-03,  -31.6596E-03,  -43.4588E-03,   22.5534E-03
C:/temp/dataset/4/29_2.odb,Step-1,Increment      1: Step Time =    1.000,"PART-1-1",            61,           7.5,          -30.,            0.,NA,NA,"",            0.,  -2.77491E-39,  -18.6713E-39,   7.61216E-03
C:/temp/dataset/4/29_2.odb,Step-1,Increment      1: Step Time =    1.000,"PART-1-1",            62,           10.,          -30.,            0.,NA,NA,"",            0.,   1.62833E-39,  -476.869E-42,   1.23582E-03
C:/temp/dataset/4/29_2.odb,Step-1,Increment      1: Step Time =    1.000,"PART-1-1",            63,          12.5,          -30.,            0.,NA,NA,"",            0.,  -8.65815E-39,   18.8436E-39,   7.96956E-03
C:/temp/dataset/4/29_2.odb,Step-1,Increment      1: Step Time =    1.000,"PART-1-1",            64,           15.,         -27.5,            0.,NA,NA,"",   63.8229E-03,  -38.3794E-03,   50.9940E-03,   21.8778E-03
C:/temp/dataset/4/29_2.odb,Step-1,Increment      1: Step Time =    1.000,"PART-1-1",            65,           15.,          -25.,            0.,NA,NA,"",   127.921E-03,  -85.4013E-03,   95.2392E-03,   18.7055E-03
C:/temp/dataset/4/29_2.odb,Step-1,Increment      1: Step Time =    1.000,"PART-1-1",            66,           15.,          -20.,            0.,NA,NA,"",   292.751E-03,  -239.340E-03,   168.581E-03,   14.6457E-03
C:/temp/dataset/4/29_2.odb,Step-1,Increment      1: Step Time =    1.000,"PART-1-1",            67,           15.,         -17.5,            0.,NA,NA,"",   394.788E-03,  -342.180E-03,   196.902E-03,   12.4244E-03
C:/temp/dataset/4/29_2.odb,Step-1,Increment      1: Step Time =    1.000,"PART-1-1",            68,           15.,         -12.5,            0.,NA,NA,"",   632.840E-03,  -586.866E-03,   236.800E-03,   8.02041E-03
C:/temp/dataset/4/29_2.odb,Step-1,Increment      1: Step Time =    1.000,"PART-1-1",            69,           15.,          -10.,            0.,NA,NA,"",   765.429E-03,  -723.915E-03,   248.655E-03,   5.96775E-03
C:/temp/dataset/4/29_2.odb,Step-1,Increment      1: Step Time =    1.000,"PART-1-1",            70,           15.,           -5.,            0.,NA,NA,"",       1.04924,      -1.01737,   256.675E-03,   2.60192E-03
C:/temp/dataset/4/29_2.odb,Step-1,Increment      1: Step Time =    1.000,"PART-1-1",            71,           15.,          -2.5,            0.,NA,NA,"",       1.18884,      -1.16116,   255.076E-03,   2.04245E-03
C:/temp/dataset/4/29_2.odb,Step-1,Increment      1: Step Time =    1.000,"PART-1-1",            72,           15.,           2.5,            0.,NA,NA,"",       1.45861,      -1.43719,   249.081E-03,   443.215E-06
C:/temp/dataset/4/29_2.odb,Step-1,Increment      1: Step Time =    1.000,"PART-1-1",            73,           15.,            5.,            0.,NA,NA,"",       1.59619,      -1.57718,   245.630E-03,   151.038E-06
C:/temp/dataset/4/29_2.odb,Step-1,Increment      1: Step Time =    1.000,"PART-1-1",            74,           15.,           10.,            0.,NA,NA,"",       1.87314,      -1.85796,   237.998E-03,   7.30084E-06
C:/temp/dataset/4/29_2.odb,Step-1,Increment      1: Step Time =    1.000,"PART-1-1",            75,           15.,          12.5,            0.,NA,NA,"",       2.01201,      -1.99835,   234.059E-03,   1.27832E-06
C:/temp/dataset/4/29_2.odb,Step-1,Increment      1: Step Time =    1.000,"PART-1-1",            76,           15.,          17.5,            0.,NA,NA,"",       2.29028,      -2.27909,   226.165E-03,   744.220E-09
C:/temp/dataset/4/29_2.odb,Step-1,Increment      1: Step Time =    1.000,"PART-1-1",            77,           15.,           20.,            0.,NA,NA,"",       2.42963,      -2.41945,   222.220E-03,   255.447E-09
C:/temp/dataset/4/29_2.odb,Step-1,Increment      1: Step Time =    1.000,"PART-1-1",            78,           15.,           25.,            0.,NA,NA,"",       2.70867,      -2.70018,   214.333E-03,   6.63100E-09
C:/temp/dataset/4/29_2.odb,Step-1,Increment      1: Step Time =    1.000,"PART-1-1",            79,           15.,          27.5,            0.,NA,NA,"",       2.84832,      -2.84054,   210.390E-03,   2.14543E-09
C:/temp/dataset/4/29_2.odb,Step-1,Increment      1: Step Time =    1.000,"PART-1-1",            80,          12.5,           30.,            0.,NA,NA,"",       2.97769,      -2.97696,   66.0825E-03,   2.37253E-09
C:/temp/dataset/4/29_2.odb,Step-1,Increment      1: Step Time =    1.000,"PART-1-1",            81,           10.,           30.,            0.,NA,NA,"",       2.97395,      -2.97302,  -74.2811E-03,   2.96541E-09
C:/temp/dataset/4/29_2.odb,Step-1,Increment      1: Step Time =    1.000,"PART-1-1",            82,           7.5,           30.,            0.,NA,NA,"",       2.97682,      -2.96907,  -214.645E-03,   1.81170E-09
C:/temp/dataset/4/29_2.odb,Step-1,Increment      1: Step Time =    1.000,"PART-1-1",            83,            5.,       27.9167,            0.,NA,NA,"",       2.86980,      -2.84816,  -351.722E-03,   1.87928E-09
C:/temp/dataset/4/29_2.odb,Step-1,Increment      1: Step Time =    1.000,"PART-1-1",            84,            5.,       25.8333,            0.,NA,NA,"",       2.75333,      -2.73119,  -348.436E-03,   1.94043E-09
C:/temp/dataset/4/29_2.odb,Step-1,Increment      1: Step Time =    1.000,"PART-1-1",            85,            5.,       21.6667,            0.,NA,NA,"",       2.52054,      -2.49725,  -341.863E-03,   104.951E-09
C:/temp/dataset/4/29_2.odb,Step-1,Increment      1: Step Time =    1.000,"PART-1-1",            86,            5.,       19.5833,            0.,NA,NA,"",       2.40424,      -2.38028,  -338.576E-03,   311.071E-09
C:/temp/dataset/4/29_2.odb,Step-1,Increment      1: Step Time =    1.000,"PART-1-1",            87,            5.,       15.4167,            0.,NA,NA,"",       2.17187,      -2.14635,  -332.001E-03,   1.32687E-06
C:/temp/dataset/4/29_2.odb,Step-1,Increment      1: Step Time =    1.000,"PART-1-1",            88,            5.,       13.3333,            0.,NA,NA,"",       2.05583,      -2.02938,  -328.712E-03,   1.80340E-06
C:/temp/dataset/4/29_2.odb,Step-1,Increment      1: Step Time =    1.000,"PART-1-1",            89,            5.,       9.16667,            0.,NA,NA,"",       1.82416,      -1.79549,  -322.152E-03,   13.1232E-06
C:/temp/dataset/4/29_2.odb,Step-1,Increment      1: Step Time =    1.000,"PART-1-1",            90,            5.,       7.08333,            0.,NA,NA,"",       1.70862,      -1.67859,  -318.907E-03,   84.9890E-06
C:/temp/dataset/4/29_2.odb,Step-1,Increment      1: Step Time =    1.000,"PART-1-1",            91,           2.5,            5.,            0.,NA,NA,"",       1.62407,      -1.55823,  -457.746E-03,   128.615E-06
C:/temp/dataset/4/29_2.odb,Step-1,Increment      1: Step Time =    1.000,"PART-1-1",            92,          -2.5,            5.,            0.,NA,NA,"",       1.71856,      -1.55034,  -741.539E-03,   9.48388E-06
C:/temp/dataset/4/29_2.odb,Step-1,Increment      1: Step Time =    1.000,"PART-1-1",            93,           -5.,       7.08333,            0.,NA,NA,"",       1.88602,      -1.66454,  -886.779E-03,   384.061E-09
C:/temp/dataset/4/29_2.odb,Step-1,Increment      1: Step Time =    1.000,"PART-1-1",            94,           -5.,       9.16667,            0.,NA,NA,"",       1.99262,      -1.78275,  -890.136E-03,   65.4296E-09
C:/temp/dataset/4/29_2.odb,Step-1,Increment      1: Step Time =    1.000,"PART-1-1",            95,           -5.,       13.3333,            0.,NA,NA,"",       2.20941,      -2.01919,  -896.850E-03,   6.95575E-09
C:/temp/dataset/4/29_2.odb,Step-1,Increment      1: Step Time =    1.000,"PART-1-1",            96,           -5.,       15.4167,            0.,NA,NA,"",       2.31924,      -2.13741,  -900.207E-03,   4.59438E-09
C:/temp/dataset/4/29_2.odb,Step-1,Increment      1: Step Time =    1.000,"PART-1-1",            97,           -5.,       19.5833,            0.,NA,NA,"",       2.54119,      -2.37385,  -906.921E-03,   1.21188E-09
C:/temp/dataset/4/29_2.odb,Step-1,Increment      1: Step Time =    1.000,"PART-1-1",            98,           -5.,       21.6667,            0.,NA,NA,"",       2.65311,      -2.49207,  -910.277E-03,   465.086E-12
C:/temp/dataset/4/29_2.odb,Step-1,Increment      1: Step Time =    1.000,"PART-1-1",            99,           -5.,       25.8333,            0.,NA,NA,"",       2.87847,      -2.72850,  -916.991E-03,   54.3769E-12
C:/temp/dataset/4/29_2.odb,Step-1,Increment      1: Step Time =    1.000,"PART-1-1",           100,           -5.,       27.9167,            0.,NA,NA,"",       2.99180,      -2.84672,  -920.348E-03,   40.9376E-12
C:/temp/dataset/4/29_2.odb,Step-1,Increment      1: Step Time =    1.000,"PART-1-1",           101,       6.93475,       11.1046,            0.,NA,NA,"",       1.91957,      -1.90731,  -216.577E-03,   9.18972E-06
C:/temp/dataset/4/29_2.odb,Step-1,Increment      1: Step Time =    1.000,"PART-1-1",           102,       7.10183,      -21.7370,            0.,NA,NA,"",   181.576E-03,  -161.463E-03,  -83.0629E-03,   9.72060E-03
C:/temp/dataset/4/29_2.odb,Step-1,Increment      1: Step Time =    1.000,"PART-1-1",           103,      -7.18606,       25.6133,            0.,NA,NA,"",       2.90528,      -2.71250,      -1.04068,   101.789E-12
C:/temp/dataset/4/29_2.odb,Step-1,Increment      1: Step Time =    1.000,"PART-1-1",           104,       7.08931,      -17.4629,            0.,NA,NA,"",   348.780E-03,  -328.071E-03,  -118.391E-03,   7.63892E-03
C:/temp/dataset/4/29_2.odb,Step-1,Increment      1: Step Time =    1.000,"PART-1-1",           105,       7.11844,      -23.8299,            0.,NA,NA,"",   116.960E-03,  -98.4060E-03,  -63.2130E-03,   10.6901E-03
C:/temp/dataset/4/29_2.odb,Step-1,Increment      1: Step Time =    1.000,"PART-1-1",           106,       7.34845,      -27.9642,            0.,NA,NA,"",   24.3791E-03,  -15.7165E-03,  -18.6369E-03,   12.0276E-03
C:/temp/dataset/4/29_2.odb,Step-1,Increment      1: Step Time =    1.000,"PART-1-1",           107,       7.18399,      -25.9216,            0.,NA,NA,"",   63.7757E-03,  -49.0903E-03,  -40.7121E-03,   11.9525E-03
C:/temp/dataset/4/29_2.odb,Step-1,Increment      1: Step Time =    1.000,"PART-1-1",           108,       7.00226,      -10.9532,            0.,NA,NA,"",   675.369E-03,  -655.401E-03,  -163.010E-03,   4.67840E-03
C:/temp/dataset/4/29_2.odb,Step-1,Increment      1: Step Time =    1.000,"PART-1-1",           109,       6.93148,       25.8450,            0.,NA,NA,"",       2.74541,      -2.73489,  -240.010E-03,   14.5243E-09
C:/temp/dataset/4/29_2.odb,Step-1,Increment      1: Step Time =    1.000,"PART-1-1",           110,       6.95256,       21.7727,            0.,NA,NA,"",       2.51704,      -2.50629,  -232.403E-03,   138.020E-09
C:/temp/dataset/4/29_2.odb,Step-1,Increment      1: Step Time =    1.000,"PART-1-1",           111,       6.99069,       19.6693,            0.,NA,NA,"",       2.39901,      -2.38825,  -226.945E-03,   300.455E-09
C:/temp/dataset/4/29_2.odb,Step-1,Increment      1: Step Time =    1.000,"PART-1-1",           112,       6.98342,       13.2435,            0.,NA,NA,"",       2.03907,      -2.02746,  -217.217E-03,   1.86306E-06
C:/temp/dataset/4/29_2.odb,Step-1,Increment      1: Step Time =    1.000,"PART-1-1",           113,       6.84904,       8.98858,            0.,NA,NA,"",       1.80166,      -1.78842,  -218.060E-03,   31.9037E-06
C:/temp/dataset/4/29_2.odb,Step-1,Increment      1: Step Time =    1.000,"PART-1-1",           114,      -7.00061,       11.3966,            0.,NA,NA,"",       2.15584,      -1.90607,      -1.00725,   36.1193E-09
C:/temp/dataset/4/29_2.odb,Step-1,Increment      1: Step Time =    1.000,"PART-1-1",           115,      -6.87185,       17.5946,            0.,NA,NA,"",       2.47355,      -2.25798,      -1.00993,   1.56711E-09
C:/temp/dataset/4/29_2.odb,Step-1,Increment      1: Step Time =    1.000,"PART-1-1",           116,      -6.78696,       21.5686,            0.,NA,NA,"",       2.68171,      -2.48362,      -1.01152,   546.463E-12
C:/temp/dataset/4/29_2.odb,Step-1,Increment      1: Step Time =    1.000,"PART-1-1",           117,      -6.92081,       23.5666,            0.,NA,NA,"",       2.79078,      -2.59679,      -1.02234,   247.305E-12
C:/temp/dataset/4/29_2.odb,Step-1,Increment      1: Step Time =    1.000,"PART-1-1",           118,      -7.47694,       27.7553,            0.,NA,NA,"",       3.02557,      -2.83357,      -1.06064,   50.6240E-12
C:/temp/dataset/4/29_2.odb,Step-1,Increment      1: Step Time =    1.000,"PART-1-1",           119,       6.62973,      -6.72562,            0.,NA,NA,"",   917.605E-03,  -895.386E-03,  -200.705E-03,   2.62613E-03
C:/temp/dataset/4/29_2.odb,Step-1,Increment      1: Step Time =    1.000,"PART-1-1",           120,       7.00244,       17.5390,            0.,NA,NA,"",       2.27958,      -2.26866,  -222.924E-03,   478.152E-09
C:/temp/dataset/4/29_2.odb,Step-1,Increment      1: Step Time =    1.000,"PART-1-1",           121,       7.05765,      -13.1226,            0.,NA,NA,"",   558.773E-03,  -538.675E-03,  -148.516E-03,   5.63114E-03
C:/temp/dataset/4/29_2.odb,Step-1,Increment      1: Step Time =    1.000,"PART-1-1",           122,      -6.97858,       13.4860,            0.,NA,NA,"",       2.26232,      -2.02467,      -1.00937,   7.23786E-09
C:/temp/dataset/4/29_2.odb,Step-1,Increment      1: Step Time =    1.000,"PART-1-1",           123,      -7.06135,       7.11796,            0.,NA,NA,"",       1.94263,      -1.66318,      -1.00381,   492.802E-09
C:/temp/dataset/4/29_2.odb,Step-1,Increment      1: Step Time =    1.000,"PART-1-1",           124,       6.87626,      -8.81940,            0.,NA,NA,"",   795.667E-03,  -775.174E-03,  -179.419E-03,   3.70905E-03
C:/temp/dataset/4/29_2.odb,Step-1,Increment      1: Step Time =    1.000,"PART-1-1",           125,       7.08495,      -15.2974,            0.,NA,NA,"",   449.107E-03,  -428.733E-03,  -133.736E-03,   6.61007E-03
C:/temp/dataset/4/29_2.odb,Step-1,Increment      1: Step Time =    1.000,"PART-1-1",           126,       7.00715,       15.3887,            0.,NA,NA,"",       2.15910,      -2.14794,  -219.268E-03,   366.099E-09
C:/temp/dataset/4/29_2.odb,Step-1,Increment      1: Step Time =    1.000,"PART-1-1",           127,      -7.01992,       9.30136,            0.,NA,NA,"",       2.05033,      -1.78714,      -1.00497,   126.002E-09
C:/temp/dataset/4/29_2.odb,Step-1,Increment      1: Step Time =    1.000,"PART-1-1",           128,      -6.93369,       15.5639,            0.,NA,NA,"",       2.36884,      -2.14265,      -1.01017,   1.32308E-09
C:/temp/dataset/4/29_2.odb,Step-1,Increment      1: Step Time =    1.000,"PART-1-1",           129,      -6.79206,       19.5889,            0.,NA,NA,"",       2.57687,      -2.37128,      -1.00862,   1.07626E-09
C:/temp/dataset/4/29_2.odb,Step-1,Increment      1: Step Time =    1.000,"PART-1-1",           130,       7.09662,      -19.6136,            0.,NA,NA,"",   259.052E-03,  -238.388E-03,  -101.384E-03,   8.67117E-03
C:/temp/dataset/4/29_2.odb,Step-1,Increment      1: Step Time =    1.000,"PART-1-1",           131,       6.89670,       23.8203,            0.,NA,NA,"",       2.63201,      -2.62116,  -238.770E-03,   51.1986E-09
C:/temp/dataset/4/29_2.odb,Step-1,Increment      1: Step Time =    1.000,"PART-1-1",           132,       6.67676,       6.98748,            0.,NA,NA,"",       1.69084,      -1.67586,  -224.586E-03,   98.7836E-06
C:/temp/dataset/4/29_2.odb,Step-1,Increment      1: Step Time =    1.000,"PART-1-1",           133,      -13.0361,       12.2042,            0.,NA,NA,"",       2.36587,      -1.94217,      -1.35104,   18.2952E-09
C:/temp/dataset/4/29_2.odb,Step-1,Increment      1: Step Time =    1.000,"PART-1-1",           134,      -13.0483,       3.72302,            0.,NA,NA,"",       1.98106,      -1.46089,      -1.33806,   250.499E-09
C:/temp/dataset/4/29_2.odb,Step-1,Increment      1: Step Time =    1.000,"PART-1-1",           135,      -13.0740,       10.0823,            0.,NA,NA,"",       2.26727,      -1.82170,      -1.34977,   57.8443E-09
C:/temp/dataset/4/29_2.odb,Step-1,Increment      1: Step Time =    1.000,"PART-1-1",           136,      -13.0017,       14.3509,            0.,NA,NA,"",       2.46772,      -2.06404,      -1.35254,   2.79012E-09
C:/temp/dataset/4/29_2.odb,Step-1,Increment      1: Step Time =    1.000,"PART-1-1",           137,      -12.4480,       21.2307,            0.,NA,NA,"",       2.79346,      -2.45533,      -1.33221,   673.517E-12
C:/temp/dataset/4/29_2.odb,Step-1,Increment      1: Step Time =    1.000,"PART-1-1",           138,      -13.0426,       25.7965,            0.,NA,NA,"",       3.04119,      -2.71346,      -1.37331,   77.5030E-12
C:/temp/dataset/4/29_2.odb,Step-1,Increment      1: Step Time =    1.000,"PART-1-1",           139,      -12.9478,       23.6552,            0.,NA,NA,"",       2.92930,      -2.59210,      -1.36448,   222.895E-12
C:/temp/dataset/4/29_2.odb,Step-1,Increment      1: Step Time =    1.000,"PART-1-1",           140,      -12.8307,       18.7376,            0.,NA,NA,"",       2.67831,      -2.31324,      -1.34991,   1.29440E-09
C:/temp/dataset/4/29_2.odb,Step-1,Increment      1: Step Time =    1.000,"PART-1-1",           141,      -12.9472,       16.5227,            0.,NA,NA,"",       2.57197,      -2.18737,      -1.35295,   1.36166E-09
C:/temp/dataset/4/29_2.odb,Step-1,Increment      1: Step Time =    1.000,"PART-1-1",           142,      -13.1112,       7.97345,            0.,NA,NA,"",       2.17143,      -1.70197,      -1.34848,   130.834E-09
C:/temp/dataset/4/29_2.odb,Step-1,Increment      1: Step Time =    1.000,"PART-1-1",           143,      -13.1276,       5.86243,            0.,NA,NA,"",       2.07725,      -1.58216,      -1.34601,   215.583E-09
C:/temp/dataset/4/29_2.odb,Step-1,Increment      1: Step Time =    1.000,"PART-1-1",           144,      -12.8109,       1.56310,            0.,NA,NA,"",       1.88082,      -1.33870,      -1.32112,   216.959E-09
C:/temp/dataset/4/29_2.odb,Step-1,Increment      1: Step Time =    1.000,"PART-1-1",           145,      -12.5511,  -622.366E-03,            0.,NA,NA,"",       1.78155,      -1.21511,      -1.30285,   328.780E-09
C:/temp/dataset/4/29_2.odb,Step-1,Increment      1: Step Time =    1.000,"PART-1-1",           146,      -7.69124,      -3.05836,            0.,NA,NA,"",       1.49113,      -1.08471,      -1.02316,   270.154E-09
C:/temp/dataset/4/29_2.odb,Step-1,Increment      1: Step Time =    1.000,"PART-1-1",           147,      -2.59391,      -3.27074,            0.,NA,NA,"",       1.30632,      -1.08087,  -733.609E-03,   17.2237E-06
C:/temp/dataset/4/29_2.odb,Step-1,Increment      1: Step Time =    1.000,"PART-1-1",           148,      -2.06699,       2.95135,            0.,NA,NA,"",       1.60248,      -1.43479,  -713.658E-03,   19.7536E-06
C:/temp/dataset/4/29_2.odb,Step-1,Increment      1: Step Time =    1.000,"PART-1-1",           149,       1.86882,      -3.06513,            0.,NA,NA,"",       1.20025,      -1.09973,  -480.808E-03,   141.896E-06
C:/temp/dataset/4/29_2.odb,Step-1,Increment      1: Step Time =    1.000,"PART-1-1",           150,       2.79073,       3.02834,            0.,NA,NA,"",       1.51182,      -1.44697,  -438.066E-03,   112.324E-06
C:/temp/dataset/4/29_2.odb,Step-1,Increment      1: Step Time =    1.000,"PART-1-1",           151,       12.5379,       2.72923,            0.,NA,NA,"",       1.45019,      -1.44591,   111.350E-03,   177.804E-06
C:/temp/dataset/4/29_2.odb,Step-1,Increment      1: Step Time =    1.000,"PART-1-1",           152,       12.9313,       10.2835,            0.,NA,NA,"",       1.87455,      -1.87061,   121.404E-03,   15.2048E-06
C:/temp/dataset/4/29_2.odb,Step-1,Increment      1: Step Time =    1.000,"PART-1-1",           153,       12.7723,       24.8557,            0.,NA,NA,"",       2.69005,      -2.68856,   89.4876E-03,   30.1295E-09
C:/temp/dataset/4/29_2.odb,Step-1,Increment      1: Step Time =    1.000,"PART-1-1",           154,       12.5268,       27.4001,            0.,NA,NA,"",       2.83194,      -2.83103,   71.6884E-03,   4.53553E-09
C:/temp/dataset/4/29_2.odb,Step-1,Increment      1: Step Time =    1.000,"PART-1-1",           155,       12.7627,      -5.01238,            0.,NA,NA,"",       1.01674,      -1.00838,   130.052E-03,   3.23345E-03
C:/temp/dataset/4/29_2.odb,Step-1,Increment      1: Step Time =    1.000,"PART-1-1",           156,       13.0118,      -12.5921,            0.,NA,NA,"",   589.363E-03,  -573.636E-03,   135.245E-03,   5.42789E-03
C:/temp/dataset/4/29_2.odb,Step-1,Increment      1: Step Time =    1.000,"PART-1-1",           157,       9.69976,      -27.8547,            0.,NA,NA,"",   11.3226E-03,  -11.1673E-03,  -1.86858E-03,   4.07618E-03
C:/temp/dataset/4/29_2.odb,Step-1,Increment      1: Step Time =    1.000,"PART-1-1",           158,       13.0855,      -17.4497,            0.,NA,NA,"",   354.116E-03,  -334.127E-03,   117.291E-03,   8.04772E-03
C:/temp/dataset/4/29_2.odb,Step-1,Increment      1: Step Time =    1.000,"PART-1-1",           159,       12.9366,       22.3763,            0.,NA,NA,"",       2.55168,      -2.54962,   102.622E-03,   107.162E-09
C:/temp/dataset/4/29_2.odb,Step-1,Increment      1: Step Time =    1.000,"PART-1-1",           160,       13.0248,       17.5365,            0.,NA,NA,"",       2.28093,      -2.27802,   115.209E-03,   487.560E-09
C:/temp/dataset/4/29_2.odb,Step-1,Increment      1: Step Time =    1.000,"PART-1-1",           161,      -10.1545,       27.3700,            0.,NA,NA,"",       3.05783,      -2.80740,      -1.21196,   61.3662E-12
C:/temp/dataset/4/29_2.odb,Step-1,Increment      1: Step Time =    1.000,"PART-1-1",           162,      -10.0546,      -2.87755,            0.,NA,NA,"",       1.59078,      -1.09117,      -1.15755,   487.347E-09
C:/temp/dataset/4/29_2.odb,Step-1,Increment      1: Step Time =    1.000,"PART-1-1",           163,      -5.07747,      -2.66322,            0.,NA,NA,"",       1.41477,      -1.11135,  -875.488E-03,   4.12609E-06
C:/temp/dataset/4/29_2.odb,Step-1,Increment      1: Step Time =    1.000,"PART-1-1",           164,  -330.659E-03,      -3.26262,            0.,NA,NA,"",       1.24237,      -1.08497,  -605.242E-03,   44.9975E-06
C:/temp/dataset/4/29_2.odb,Step-1,Increment      1: Step Time =    1.000,"PART-1-1",           165,       3.93161,      -2.75002,            0.,NA,NA,"",       1.17872,      -1.12106,  -364.145E-03,   131.582E-06
C:/temp/dataset/4/29_2.odb,Step-1,Increment      1: Step Time =    1.000,"PART-1-1",           166,       12.9585,      -10.1304,            0.,NA,NA,"",   722.420E-03,  -709.150E-03,   137.833E-03,   4.17979E-03
C:/temp/dataset/4/29_2.odb,Step-1,Increment      1: Step Time =    1.000,"PART-1-1",           167,       13.1106,      -19.8561,            0.,NA,NA,"",   255.005E-03,  -233.626E-03,   102.208E-03,   9.41956E-03
C:/temp/dataset/4/29_2.odb,Step-1,Increment      1: Step Time =    1.000,"PART-1-1",           168,       12.2637,      -27.1930,            0.,NA,NA,"",   34.1159E-03,  -25.7616E-03,   22.3659E-03,   10.7704E-03
C:/temp/dataset/4/29_2.odb,Step-1,Increment      1: Step Time =    1.000,"PART-1-1",           169,       13.0974,      -22.2394,            0.,NA,NA,"",   170.153E-03,  -148.833E-03,   82.4653E-03,   10.6580E-03
C:/temp/dataset/4/29_2.odb,Step-1,Increment      1: Step Time =    1.000,"PART-1-1",           170,       13.0625,      -15.0302,            0.,NA,NA,"",   466.231E-03,  -448.102E-03,   128.746E-03,   6.73019E-03
C:/temp/dataset/4/29_2.odb,Step-1,Increment      1: Step Time =    1.000,"PART-1-1",           171,       12.8638,      -7.61343,            0.,NA,NA,"",   865.705E-03,  -855.124E-03,   134.934E-03,   4.14361E-03
C:/temp/dataset/4/29_2.odb,Step-1,Increment      1: Step Time =    1.000,"PART-1-1",           172,       12.8109,      -2.41519,            0.,NA,NA,"",       1.16635,      -1.15884,   132.141E-03,   2.27443E-03
C:/temp/dataset/4/29_2.odb,Step-1,Increment      1: Step Time =    1.000,"PART-1-1",           173,       12.7001,   168.481E-03,            0.,NA,NA,"",       1.30953,      -1.30364,   124.016E-03,   997.478E-06
C:/temp/dataset/4/29_2.odb,Step-1,Increment      1: Step Time =    1.000,"PART-1-1",           174,       12.6773,       5.28127,            0.,NA,NA,"",       1.59342,      -1.58926,   115.064E-03,   102.648E-06
C:/temp/dataset/4/29_2.odb,Step-1,Increment      1: Step Time =    1.000,"PART-1-1",           175,       12.8405,       7.80961,            0.,NA,NA,"",       1.73569,      -1.73152,   120.216E-03,   52.8351E-06
C:/temp/dataset/4/29_2.odb,Step-1,Increment      1: Step Time =    1.000,"PART-1-1",           176,       12.9955,       12.7023,            0.,NA,NA,"",       2.01020,      -2.00654,   121.190E-03,   3.11408E-06
C:/temp/dataset/4/29_2.odb,Step-1,Increment      1: Step Time =    1.000,"PART-1-1",           177,       13.0102,       19.9477,            0.,NA,NA,"",       2.41591,      -2.41337,   110.582E-03,   278.289E-09
C:/temp/dataset/4/29_2.odb,Step-1,Increment      1: Step Time =    1.000,"PART-1-1",           178,       9.88408,       27.1269,            0.,NA,NA,"",       2.81256,      -2.81152,  -76.2577E-03,   10.3833E-09
C:/temp/dataset/4/29_2.odb,Step-1,Increment      1: Step Time =    1.000,"PART-1-1",           179,       13.0301,       15.1161,            0.,NA,NA,"",       2.14545,      -2.14213,   119.323E-03,   403.881E-09
C:/temp/dataset/4/29_2.odb,Step-1,Increment      1: Step Time =    1.000,"PART-1-1",           180,   300.490E-03,       3.00528,            0.,NA,NA,"",       1.55371,      -1.44166,  -579.358E-03,   51.1935E-06
C:/temp/dataset/4/29_2.odb,Step-1,Increment      1: Step Time =    1.000,"PART-1-1",           181,      -4.18418,       2.89078,            0.,NA,NA,"",       1.65351,      -1.42794,  -833.723E-03,   6.58057E-06
C:/temp/dataset/4/29_2.odb,Step-1,Increment      1: Step Time =    1.000,"PART-1-1",           182,      -8.75093,       23.2164,            0.,NA,NA,"",       2.80932,      -2.57396,      -1.12562,   336.071E-12
C:/temp/dataset/4/29_2.odb,Step-1,Increment      1: Step Time =    1.000,"PART-1-1",           183,       9.13120,      -23.8882,            0.,NA,NA,"",   93.1593E-03,  -91.3213E-03,  -18.4140E-03,   5.03868E-03
C:/temp/dataset/4/29_2.odb,Step-1,Increment      1: Step Time =    1.000,"PART-1-1",           184,       8.76025,       8.63504,            0.,NA,NA,"",       1.77498,      -1.77156,  -110.147E-03,   41.7702E-06
C:/temp/dataset/4/29_2.odb,Step-1,Increment      1: Step Time =    1.000,"PART-1-1",           185,       8.81891,       23.9948,            0.,NA,NA,"",       2.63725,      -2.63399,  -131.121E-03,   60.4868E-09
C:/temp/dataset/4/29_2.odb,Step-1,Increment      1: Step Time =    1.000,"PART-1-1",           186,       9.00734,       17.5557,            0.,NA,NA,"",       2.27544,      -2.27276,  -110.386E-03,   493.612E-09
C:/temp/dataset/4/29_2.odb,Step-1,Increment      1: Step Time =    1.000,"PART-1-1",           187,      -8.59230,       19.6811,            0.,NA,NA,"",       2.62072,      -2.37361,      -1.11092,   1.09560E-09
C:/temp/dataset/4/29_2.odb,Step-1,Increment      1: Step Time =    1.000,"PART-1-1",           188,       9.06266,      -12.9142,            0.,NA,NA,"",   551.634E-03,  -549.023E-03,  -53.6086E-03,   4.21285E-03
C:/temp/dataset/4/29_2.odb,Step-1,Increment      1: Step Time =    1.000,"PART-1-1",           189,       9.13987,      -19.6571,            0.,NA,NA,"",   235.116E-03,  -233.075E-03,  -30.9091E-03,   4.58237E-03
C:/temp/dataset/4/29_2.odb,Step-1,Increment      1: Step Time =    1.000,"PART-1-1",           190,       9.00941,       15.3265,            0.,NA,NA,"",       2.15026,      -2.14760,  -106.754E-03,   617.612E-09
C:/temp/dataset/4/29_2.odb,Step-1,Increment      1: Step Time =    1.000,"PART-1-1",           191,      -8.96967,       13.7142,            0.,NA,NA,"",       2.32364,      -2.03440,      -1.12272,   9.21612E-09
C:/temp/dataset/4/29_2.odb,Step-1,Increment      1: Step Time =    1.000,"PART-1-1",           192,       9.12973,      -17.4386,            0.,NA,NA,"",   328.723E-03,  -326.552E-03,  -37.7176E-03,   4.43554E-03
C:/temp/dataset/4/29_2.odb,Step-1,Increment      1: Step Time =    1.000,"PART-1-1",           193,       8.94484,       21.9321,            0.,NA,NA,"",       2.52127,      -2.51838,  -120.797E-03,   151.688E-09
C:/temp/dataset/4/29_2.odb,Step-1,Increment      1: Step Time =    1.000,"PART-1-1",           194,      -8.78258,       17.8115,            0.,NA,NA,"",       2.52819,      -2.26721,      -1.11871,   1.49046E-09
C:/temp/dataset/4/29_2.odb,Step-1,Increment      1: Step Time =    1.000,"PART-1-1",           195,       8.90333,       10.8666,            0.,NA,NA,"",       1.89999,      -1.89705,  -105.665E-03,   14.0428E-06
C:/temp/dataset/4/29_2.odb,Step-1,Increment      1: Step Time =    1.000,"PART-1-1",           196,      -9.00437,       11.6266,            0.,NA,NA,"",       2.21991,      -1.91589,      -1.12133,   38.0562E-09
C:/temp/dataset/4/29_2.odb,Step-1,Increment      1: Step Time =    1.000,"PART-1-1",           197,      -9.03622,       9.53759,            0.,NA,NA,"",       2.11758,      -1.79730,      -1.11977,   116.328E-09
C:/temp/dataset/4/29_2.odb,Step-1,Increment      1: Step Time =    1.000,"PART-1-1",           198,       8.99264,      -10.6281,            0.,NA,NA,"",   676.769E-03,  -673.796E-03,  -63.3635E-03,   4.07800E-03
C:/temp/dataset/4/29_2.odb,Step-1,Increment      1: Step Time =    1.000,"PART-1-1",           199,       8.82192,      -8.34759,            0.,NA,NA,"",   807.334E-03,  -803.550E-03,  -78.0759E-03,   3.71641E-03
C:/temp/dataset/4/29_2.odb,Step-1,Increment      1: Step Time =    1.000,"PART-1-1",           200,       8.98411,       13.0928,            0.,NA,NA,"",       2.02486,      -2.02216,  -104.650E-03,   3.42231E-06
C:/temp/dataset/4/29_2.odb,Step-1,Increment      1: Step Time =    1.000,"PART-1-1",           201,       7.30685,       27.8134,            0.,NA,NA,"",       2.85465,      -2.84600,  -222.040E-03,   2.94654E-09
C:/temp/dataset/4/29_2.odb,Step-1,Increment      1: Step Time =    1.000,"PART-1-1",           202,      -8.46063,       21.4565,            0.,NA,NA,"",       2.71061,      -2.47457,      -1.10631,   621.318E-12
C:/temp/dataset/4/29_2.odb,Step-1,Increment      1: Step Time =    1.000,"PART-1-1",           203,       9.11250,      -15.1896,            0.,NA,NA,"",   434.747E-03,  -432.424E-03,  -44.8821E-03,   4.31048E-03
C:/temp/dataset/4/29_2.odb,Step-1,Increment      1: Step Time =    1.000,"PART-1-1",           204,       9.14200,      -21.8221,            0.,NA,NA,"",   155.938E-03,  -154.012E-03,  -24.4381E-03,   4.78123E-03
C:/temp/dataset/4/29_2.odb,Step-1,Increment      1: Step Time =    1.000,"PART-1-1",           205,      -8.90436,       15.8055,            0.,NA,NA,"",       2.42816,      -2.15318,      -1.12239,   1.97826E-09
C:/temp/dataset/4/29_2.odb,Step-1,Increment      1: Step Time =    1.000,"PART-1-1",           206,       9.00445,       19.7587,            0.,NA,NA,"",       2.39915,      -2.39644,  -114.023E-03,   322.432E-09
C:/temp/dataset/4/29_2.odb,Step-1,Increment      1: Step Time =    1.000,"PART-1-1",           207,       8.39742,      -6.16188,            0.,NA,NA,"",   936.053E-03,  -930.046E-03,  -105.877E-03,   2.92252E-03
C:/temp/dataset/4/29_2.odb,Step-1,Increment      1: Step Time =    1.000,"PART-1-1",           208,      -9.10294,       7.45394,            0.,NA,NA,"",       2.01835,      -1.67895,      -1.12020,   268.081E-09
C:/temp/dataset/4/29_2.odb,Step-1,Increment      1: Step Time =    1.000,"PART-1-1",           209,       8.43260,       6.43235,            0.,NA,NA,"",       1.65215,      -1.64741,  -124.996E-03,   93.5463E-06
C:/temp/dataset/4/29_2.odb,Step-1,Increment      1: Step Time =    1.000,"PART-1-1",           210,       5.64784,       2.93298,            0.,NA,NA,"",       1.47231,      -1.44619,  -276.122E-03,   59.3263E-06
C:/temp/dataset/4/29_2.odb,Step-1,Increment      1: Step Time =    1.000,"PART-1-1",           211,      -10.7213,       1.88644,            0.,NA,NA,"",       1.81607,      -1.36042,      -1.20306,   210.792E-09
C:/temp/dataset/4/29_2.odb,Step-1,Increment      1: Step Time =    1.000,"PART-1-1",           212,      -12.7178,       27.8380,            0.,NA,NA,"",       3.13887,      -2.82982,      -1.35817,   43.3570E-12
C:/temp/dataset/4/29_2.odb,Step-1,Increment      1: Step Time =    1.000,"PART-1-1",           213,      -11.0298,       24.2524,            0.,NA,NA,"",       2.91395,      -2.62908,      -1.25660,   221.527E-12
C:/temp/dataset/4/29_2.odb,Step-1,Increment      1: Step Time =    1.000,"PART-1-1",           214,      -10.4500,       20.0822,            0.,NA,NA,"",       2.68501,      -2.39338,      -1.21698,   999.963E-12
C:/temp/dataset/4/29_2.odb,Step-1,Increment      1: Step Time =    1.000,"PART-1-1",           215,      -10.9919,       14.0243,            0.,NA,NA,"",       2.39373,      -2.04874,      -1.23797,   7.25865E-09
C:/temp/dataset/4/29_2.odb,Step-1,Increment      1: Step Time =    1.000,"PART-1-1",           216,      -11.0796,       9.82104,            0.,NA,NA,"",       2.19193,      -1.81009,      -1.23618,   85.4228E-09
C:/temp/dataset/4/29_2.odb,Step-1,Increment      1: Step Time =    1.000,"PART-1-1",           217,      -11.0365,       11.9204,            0.,NA,NA,"",       2.29186,      -1.92929,      -1.23711,   29.4832E-09
C:/temp/dataset/4/29_2.odb,Step-1,Increment      1: Step Time =    1.000,"PART-1-1",           218,      -10.5491,       22.5446,            0.,NA,NA,"",       2.81430,      -2.53294,      -1.22657,   454.861E-12
C:/temp/dataset/4/29_2.odb,Step-1,Increment      1: Step Time =    1.000,"PART-1-1",           219,      -10.9277,       16.1478,            0.,NA,NA,"",       2.49762,      -2.16935,      -1.23775,   1.64329E-09
C:/temp/dataset/4/29_2.odb,Step-1,Increment      1: Step Time =    1.000,"PART-1-1",           220,      -10.7891,       18.2216,            0.,NA,NA,"",       2.59853,      -2.28725,      -1.23323,   1.46447E-09
C:/temp/dataset/4/29_2.odb,Step-1,Increment      1: Step Time =    1.000,"PART-1-1",           221,      -11.1555,       7.76515,            0.,NA,NA,"",       2.09711,      -1.69331,      -1.23717,   183.089E-09
C:/temp/dataset/4/29_2.odb,Step-1,Increment      1: Step Time =    1.000,"PART-1-1",           222,      -9.80329,       4.04682,            0.,NA,NA,"",       1.88055,      -1.48449,      -1.15445,   332.016E-09
C:/temp/dataset/4/29_2.odb,Step-1,Increment      1: Step Time =    1.000,"PART-1-1",           223,       9.22674,      -25.9093,            0.,NA,NA,"",   44.4002E-03,  -43.1116E-03,  -10.6190E-03,   4.92517E-03
C:/temp/dataset/4/29_2.odb,Step-1,Increment      1: Step Time =    1.000,"PART-1-1",           224,      -9.21421,       25.1107,            0.,NA,NA,"",       2.91893,      -2.68071,      -1.15496,   149.138E-12
C:/temp/dataset/4/29_2.odb,Step-1,Increment      1: Step Time =    1.000,"PART-1-1",           225,       6.25241,      -4.60112,            0.,NA,NA,"",       1.04339,      -1.01814,  -228.160E-03,   1.57224E-03
C:/temp/dataset/4/29_2.odb,Step-1,Increment      1: Step Time =    1.000,"PART-1-1",           226,      -7.19550,       4.55405,            0.,NA,NA,"",       1.82136,      -1.51747,      -1.00729,   500.227E-09
C:/temp/dataset/4/29_2.odb,Step-1,Increment      1: Step Time =    1.000,"PART-1-1",           227,       12.9551,      -24.6090,            0.,NA,NA,"",   98.5578E-03,  -80.6626E-03,   56.6319E-03,   11.8974E-03
C:/temp/dataset/4/29_2.odb,Step-1,Increment      1: Step Time =    1.000,"PART-1-1",           228,       10.9241,       22.1645,            0.,NA,NA,"",       2.53457,      -2.53455,  -10.0362E-03,   138.391E-09
C:/temp/dataset/4/29_2.odb,Step-1,Increment      1: Step Time =    1.000,"PART-1-1",           229,      -4.91288,   464.762E-03,            0.,NA,NA,"",       1.55588,      -1.28911,  -871.176E-03,   6.07721E-06
C:/temp/dataset/4/29_2.odb,Step-1,Increment      1: Step Time =    1.000,"PART-1-1",           230,  -831.143E-03,      -1.35374,            0.,NA,NA,"",       1.35185,      -1.19254,  -636.671E-03,   40.8061E-06
C:/temp/dataset/4/29_2.odb,Step-1,Increment      1: Step Time =    1.000,"PART-1-1",           231,       11.1616,      -19.7398,            0.,NA,NA,"",   234.379E-03,  -231.501E-03,   36.6157E-03,   5.09129E-03
C:/temp/dataset/4/29_2.odb,Step-1,Increment      1: Step Time =    1.000,"PART-1-1",           232,       10.9730,      -10.3410,            0.,NA,NA,"",   693.433E-03,  -692.514E-03,   35.6933E-03,   4.05331E-03
C:/temp/dataset/4/29_2.odb,Step-1,Increment      1: Step Time =    1.000,"PART-1-1",           233,       10.4844,      -5.04269,            0.,NA,NA,"",   999.608E-03,  -999.593E-03,   5.32435E-03,   2.98810E-03
C:/temp/dataset/4/29_2.odb,Step-1,Increment      1: Step Time =    1.000,"PART-1-1",           234,       10.9074,       10.5689,            0.,NA,NA,"",       1.88348,      -1.88347,   7.33060E-03,   16.5782E-06
C:/temp/dataset/4/29_2.odb,Step-1,Increment      1: Step Time =    1.000,"PART-1-1",           235,       11.0515,      -12.7377,            0.,NA,NA,"",   562.149E-03,  -560.710E-03,   40.1976E-03,   4.14781E-03
C:/temp/dataset/4/29_2.odb,Step-1,Increment      1: Step Time =    1.000,"PART-1-1",           236,       10.9936,       12.8990,            0.,NA,NA,"",       2.01446,      -2.01444,   8.47798E-03,   3.94720E-06
C:/temp/dataset/4/29_2.odb,Step-1,Increment      1: Step Time =    1.000,"PART-1-1",           237,      -9.84553,  -403.770E-03,            0.,NA,NA,"",       1.68501,      -1.23187,      -1.14968,   304.499E-09
C:/temp/dataset/4/29_2.odb,Step-1,Increment      1: Step Time =    1.000,"PART-1-1",           238,      -6.42098,  -599.403E-03,            0.,NA,NA,"",       1.55431,      -1.22629,  -955.041E-03,   2.58157E-06
C:/temp/dataset/4/29_2.odb,Step-1,Increment      1: Step Time =    1.000,"PART-1-1",           239,      -2.35214,      -1.85066,            0.,NA,NA,"",       1.36801,      -1.16186,  -722.172E-03,   21.8066E-06
C:/temp/dataset/4/29_2.odb,Step-1,Increment      1: Step Time =    1.000,"PART-1-1",           240,       11.1625,      -21.9830,            0.,NA,NA,"",   153.213E-03,  -150.104E-03,   30.7110E-03,   5.48412E-03
C:/temp/dataset/4/29_2.odb,Step-1,Increment      1: Step Time =    1.000,"PART-1-1",           241,       11.1073,      -15.0998,            0.,NA,NA,"",   440.950E-03,  -438.971E-03,   41.7197E-03,   4.41082E-03
C:/temp/dataset/4/29_2.odb,Step-1,Increment      1: Step Time =    1.000,"PART-1-1",           242,       11.1457,      -17.4375,            0.,NA,NA,"",   331.019E-03,  -328.529E-03,   40.5228E-03,   4.74514E-03
C:/temp/dataset/4/29_2.odb,Step-1,Increment      1: Step Time =    1.000,"PART-1-1",           243,       10.8340,      -7.85693,            0.,NA,NA,"",   835.819E-03,  -835.396E-03,   26.6076E-03,   3.96040E-03
C:/temp/dataset/4/29_2.odb,Step-1,Increment      1: Step Time =    1.000,"PART-1-1",           244,       10.5842,   120.255E-03,            0.,NA,NA,"",       1.29620,      -1.29619,   5.68218E-03,   658.546E-06
C:/temp/dataset/4/29_2.odb,Step-1,Increment      1: Step Time =    1.000,"PART-1-1",           245,       10.8633,      -2.34188,            0.,NA,NA,"",       1.15736,      -1.15711,   23.8116E-03,   1.74763E-03
C:/temp/dataset/4/29_2.odb,Step-1,Increment      1: Step Time =    1.000,"PART-1-1",           246,       9.78574,       2.89226,            0.,NA,NA,"",       1.45125,      -1.45061,  -43.1602E-03,   102.009E-06
C:/temp/dataset/4/29_2.odb,Step-1,Increment      1: Step Time =    1.000,"PART-1-1",           247,       10.7685,       8.18214,            0.,NA,NA,"",       1.74923,      -1.74923,   3.34877E-03,   49.6207E-06
C:/temp/dataset/4/29_2.odb,Step-1,Increment      1: Step Time =    1.000,"PART-1-1",           248,       10.4587,       5.69287,            0.,NA,NA,"",       1.60899,      -1.60896,  -9.98288E-03,   107.776E-06
C:/temp/dataset/4/29_2.odb,Step-1,Increment      1: Step Time =    1.000,"PART-1-1",           249,       11.0104,       19.8565,            0.,NA,NA,"",       2.40510,      -2.40510,  -1.55016E-03,   312.102E-09
C:/temp/dataset/4/29_2.odb,Step-1,Increment      1: Step Time =    1.000,"PART-1-1",           250,       11.0363,       17.5467,            0.,NA,NA,"",       2.27546,      -2.27545,   3.54254E-03,   499.444E-09
C:/temp/dataset/4/29_2.odb,Step-1,Increment      1: Step Time =    1.000,"PART-1-1",           251,       11.0403,       15.2208,            0.,NA,NA,"",       2.14489,      -2.14488,   7.43882E-03,   665.252E-09
C:/temp/dataset/4/29_2.odb,Step-1,Increment      1: Step Time =    1.000,"PART-1-1",           252,       1.19009,      -1.06873,            0.,NA,NA,"",       1.31987,      -1.21206,  -522.447E-03,   88.1793E-06
C:/temp/dataset/4/29_2.odb,Step-1,Increment      1: Step Time =    1.000,"PART-1-1",           253,       10.6932,       24.5073,            0.,NA,NA,"",       2.66586,      -2.66572,  -26.6969E-03,   46.5941E-09
C:/temp/dataset/4/29_2.odb,Step-1,Increment      1: Step Time =    1.000,"PART-1-1",           254,       8.51128,       25.6419,            0.,NA,NA,"",       2.73016,      -2.72598,  -150.991E-03,   23.1735E-09
C:/temp/dataset/4/29_2.odb,Step-1,Increment      1: Step Time =    1.000,"PART-1-1",           255,      -9.32324,       5.48290,            0.,NA,NA,"",       1.93146,      -1.56675,      -1.12952,   358.765E-09
C:/temp/dataset/4/29_2.odb,Step-1,Increment      1: Step Time =    1.000,"PART-1-1",           256,      -11.4569,       25.7537,            0.,NA,NA,"",       3.00172,      -2.71358,      -1.28326,   98.8245E-12
C:/temp/dataset/4/29_2.odb,Step-1,Increment      1: Step Time =    1.000,"PART-1-1",           257,      -8.85145,       2.84717,            0.,NA,NA,"",       1.79368,      -1.41795,      -1.09851,   386.121E-09
C:/temp/dataset/4/29_2.odb,Step-1,Increment      1: Step Time =    1.000,"PART-1-1",           258,       11.0896,      -24.0706,            0.,NA,NA,"",   90.1614E-03,  -87.3834E-03,   22.2084E-03,   5.68634E-03
C:/temp/dataset/4/29_2.odb,Step-1,Increment      1: Step Time =    1.000,"PART-1-1",           259,       5.69240,      -2.12345,            0.,NA,NA,"",       1.18949,      -1.15953,  -265.264E-03,   353.845E-06
C:/temp/dataset/4/29_2.odb,Step-1,Increment      1: Step Time =    1.000,"PART-1-1",           260,       7.72467,       1.38687,            0.,NA,NA,"",       1.37126,      -1.36228,  -156.612E-03,   222.111E-06
C:/temp/dataset/4/29_2.odb,Step-1,Increment      1: Step Time =    1.000,"PART-1-1",           261,       8.83369,  -368.727E-03,            0.,NA,NA,"",       1.26823,      -1.26491,  -91.6568E-03,   622.106E-06
C:/temp/dataset/4/29_2.odb,Step-1,Increment      1: Step Time =    1.000,"PART-1-1",           262,       7.58912,       4.39900,            0.,NA,NA,"",       1.54118,      -1.53188,  -169.087E-03,   93.2062E-06
C:/temp/dataset/4/29_2.odb,Step-1,Increment      1: Step Time =    1.000,"PART-1-1",           263,      -6.02595,       2.23751,            0.,NA,NA,"",       1.67470,      -1.38791,  -937.190E-03,   1.90237E-06
C:/temp/dataset/4/29_2.odb,Step-1,Increment      1: Step Time =    1.000,"PART-1-1",           264,       4.92391,   813.983E-03,            0.,NA,NA,"",       1.36175,      -1.32513,  -313.698E-03,   97.8902E-06
C:/temp/dataset/4/29_2.odb,Step-1,Increment      1: Step Time =    1.000,"PART-1-1",           265,      -7.77287,       1.11371,            0.,NA,NA,"",       1.67812,      -1.32132,      -1.03451,   894.064E-09
C:/temp/dataset/4/29_2.odb,Step-1,Increment      1: Step Time =    1.000,"PART-1-1",           266,      -3.71710,       1.36231,            0.,NA,NA,"",       1.56477,      -1.34197,  -804.760E-03,   9.80826E-06
C:/temp/dataset/4/29_2.odb,Step-1,Increment      1: Step Time =    1.000,"PART-1-1",           267,       2.85817,       1.10052,            0.,NA,NA,"",       1.40566,      -1.33789,  -431.185E-03,   95.1153E-06
C:/temp/dataset/4/29_2.odb,Step-1,Increment      1: Step Time =    1.000,"PART-1-1",           268,       7.51165,      -2.37377,            0.,NA,NA,"",       1.15953,      -1.14810,  -162.454E-03,   938.764E-06
C:/temp/dataset/4/29_2.odb,Step-1,Increment      1: Step Time =    1.000,"PART-1-1",           269,      -1.84913,   666.939E-03,            0.,NA,NA,"",       1.48025,      -1.30555,  -697.641E-03,   27.2582E-06
C:/temp/dataset/4/29_2.odb,Step-1,Increment      1: Step Time =    1.000,"PART-1-1",           270,   621.955E-03,   989.730E-03,            0.,NA,NA,"",       1.44034,      -1.32791,  -557.907E-03,   62.0138E-06
C:/temp/dataset/4/29_2.odb,Step-1,Increment      1: Step Time =    1.000,"PART-1-1",           271,       7.77182,      -4.29185,            0.,NA,NA,"",       1.04789,      -1.03792,  -144.235E-03,   1.86265E-03
C:/temp/dataset/4/29_2.odb,Step-1,Increment      1: Step Time =    1.000,"PART-1-1",           272,       6.40836,       5.42027,            0.,NA,NA,"",       1.60512,      -1.58750,  -237.207E-03,   119.772E-06
C:/temp/dataset/4/29_2.odb,Step-1,Increment      1: Step Time =    1.000,"PART-1-1",           273,      -12.5139,      -2.82358,            0.,NA,NA,"",       1.69452,      -1.09027,      -1.29719,   388.225E-09
C:/temp/dataset/4/29_2.odb,Step-1,Increment      1: Step Time =    1.000,"PART-1-1",           274,       10.8188,      -25.6946,            0.,NA,NA,"",   49.7173E-03,  -48.1774E-03,   12.2779E-03,   5.14174E-03
C:/temp/dataset/4/29_2.odb,Step-1,Increment      1: Step Time =    1.000,"PART-1-1",           275,       6.49302,  -163.532E-03,            0.,NA,NA,"",       1.29183,      -1.27236,  -223.494E-03,   299.436E-06
C:/temp/dataset/4/29_2.odb,Step-1,Increment      1: Step Time =    1.000,"PART-1-1",           276,       7.60941,  -936.337E-03,            0.,NA,NA,"",       1.24064,      -1.23035,  -159.421E-03,   583.052E-06
C:/temp/dataset/4/29_2.odb,Step-1,Increment      1: Step Time =    1.000,"PART-1-1",           277,       9.17282,      -2.25688,            0.,NA,NA,"",       1.16004,      -1.15792,  -70.0698E-03,   1.30250E-03
C:/temp/dataset/4/29_2.odb,Step-1,Increment      1: Step Time =    1.000,"PART-1-1",           278,       9.10690,      -3.89703,            0.,NA,NA,"",       1.06558,      -1.06319,  -71.3860E-03,   2.02638E-03
C:/temp/dataset/4/29_2.odb,Step-1,Increment      1: Step Time =    1.000,"PART-1-1",           279,      -7.91199,      -1.40732,            0.,NA,NA,"",       1.57033,      -1.17804,      -1.03834,   698.065E-09
C:/temp/dataset/4/29_2.odb,Step-1,Increment      1: Step Time =    1.000,"PART-1-1",           280,      -9.83927,       21.3699,            0.,NA,NA,"",       2.73697,      -2.46743,      -1.18440,   688.590E-12
C:/temp/dataset/4/29_2.odb,Step-1,Increment      1: Step Time =    1.000,"PART-1-1",           281,      -11.2653,       5.77953,            0.,NA,NA,"",       2.00896,      -1.58045,      -1.24020,   264.172E-09
C:/temp/dataset/4/29_2.odb,Step-1,Increment      1: Step Time =    1.000,"PART-1-1",           282,      -11.2487,       3.84080,            0.,NA,NA,"",       1.92102,      -1.47047,      -1.23614,   259.131E-09
C:/temp/dataset/4/29_2.odb,Step-1,Increment      1: Step Time =    1.000,"PART-1-1",           283,       3.11059,  -868.354E-03,            0.,NA,NA,"",       1.29458,      -1.22667,  -413.772E-03,   89.8510E-06
C:/temp/dataset/4/29_2.odb,Step-1,Increment      1: Step Time =    1.000,"PART-1-1",           284,       4.50766,  -682.768E-03,            0.,NA,NA,"",       1.28398,      -1.23955,  -334.852E-03,   120.448E-06
C:/temp/dataset/4/29_2.odb,Step-1,Increment      1: Step Time =    1.000,"PART-1-1",           285,      -3.56662,  -854.847E-03,            0.,NA,NA,"",       1.45188,      -1.21640,  -792.670E-03,   13.2615E-06
C:/temp/dataset/4/29_2.odb,Step-1,Increment      1: Step Time =    1.000,"PART-1-1",           286,      -7.33150,       26.6843,            0.,NA,NA,"",       2.96540,      -2.77304,      -1.05066,   74.4409E-12
C:/temp/dataset/4/29_2.odb,Step-1,Increment      1: Step Time =    1.000,"PART-1-1",           287,      -6.09303,       25.7233,            0.,NA,NA,"",       2.89124,      -2.72050,  -978.838E-03,   68.4132E-12
C:/temp/dataset/4/29_2.odb,Step-1,Increment      1: Step Time =    1.000,"PART-1-1",           288,           -5.,        26.875,            0.,NA,NA,"",       2.93509,      -2.78761,  -918.670E-03,   46.7206E-12
C:/temp/dataset/4/29_2.odb,Step-1,Increment      1: Step Time =    1.000,"PART-1-1",           289,      -6.23847,       27.8360,            0.,NA,NA,"",       3.00791,      -2.84015,  -990.495E-03,   43.0693E-12
C:/temp/dataset/4/29_2.odb,Step-1,Increment      1: Step Time =    1.000,"PART-1-1",           290,      -8.20013,       25.3620,            0.,NA,NA,"",       2.91151,      -2.69660,      -1.09782,   116.100E-12
C:/temp/dataset/4/29_2.odb,Step-1,Increment      1: Step Time =    1.000,"PART-1-1",           291,      -8.98257,       24.1636,            0.,NA,NA,"",       2.86412,      -2.62734,      -1.14029,   241.079E-12
C:/temp/dataset/4/29_2.odb,Step-1,Increment      1: Step Time =    1.000,"PART-1-1",           292,      -7.83587,       23.3915,            0.,NA,NA,"",       2.79957,      -2.58537,      -1.07398,   262.158E-12
C:/temp/dataset/4/29_2.odb,Step-1,Increment      1: Step Time =    1.000,"PART-1-1",           293,      -7.05344,       24.5900,            0.,NA,NA,"",       2.84801,      -2.65464,      -1.03151,   172.104E-12
C:/temp/dataset/4/29_2.odb,Step-1,Increment      1: Step Time =    1.000,"PART-1-1",           294,      -6.78951,       20.5788,            0.,NA,NA,"",       2.62921,      -2.42745,      -1.01007,   792.009E-12
C:/temp/dataset/4/29_2.odb,Step-1,Increment      1: Step Time =    1.000,"PART-1-1",           295,      -5.89603,       19.5861,            0.,NA,NA,"",       2.55859,      -2.37256,  -957.770E-03,   941.077E-12
C:/temp/dataset/4/29_2.odb,Step-1,Increment      1: Step Time =    1.000,"PART-1-1",           296,           -5.,        20.625,            0.,NA,NA,"",       2.59708,      -2.43296,  -908.599E-03,   834.550E-12
C:/temp/dataset/4/29_2.odb,Step-1,Increment      1: Step Time =    1.000,"PART-1-1",           297,      -5.89348,       21.6177,            0.,NA,NA,"",       2.66697,      -2.48785,  -960.899E-03,   422.351E-12
C:/temp/dataset/4/29_2.odb,Step-1,Increment      1: Step Time =    1.000,"PART-1-1",           298,      -7.97413,       13.6001,            0.,NA,NA,"",       2.29248,      -2.02954,      -1.06605,   8.16912E-09
C:/temp/dataset/4/29_2.odb,Step-1,Increment      1: Step Time =    1.000,"PART-1-1",           299,      -8.98702,       12.6704,            0.,NA,NA,"",       2.27160,      -1.97515,      -1.12203,   23.7300E-09
C:/temp/dataset/4/29_2.odb,Step-1,Increment      1: Step Time =    1.000,"PART-1-1",           300,      -8.00249,       11.5116,            0.,NA,NA,"",       2.18736,      -1.91098,      -1.06429,   31.4937E-09
C:/temp/dataset/4/29_2.odb,Step-1,Increment      1: Step Time =    1.000,"PART-1-1",           301,      -6.98959,       12.4413,            0.,NA,NA,"",       2.20893,      -1.96537,      -1.00831,   21.7990E-09
C:/temp/dataset/4/29_2.odb,Step-1,Increment      1: Step Time =    1.000,"PART-1-1",           302,      -9.95004,      -1.64066,            0.,NA,NA,"",       1.63706,      -1.16152,      -1.15361,   312.759E-09
C:/temp/dataset/4/29_2.odb,Step-1,Increment      1: Step Time =    1.000,"PART-1-1",           303,      -11.1983,  -513.068E-03,            0.,NA,NA,"",       1.73224,      -1.22349,      -1.22626,   277.776E-09
C:/temp/dataset/4/29_2.odb,Step-1,Increment      1: Step Time =    1.000,"PART-1-1",           304,      -12.5325,      -1.72297,            0.,NA,NA,"",       1.73745,      -1.15269,      -1.30002,   349.400E-09
C:/temp/dataset/4/29_2.odb,Step-1,Increment      1: Step Time =    1.000,"PART-1-1",           305,      -11.2842,      -2.85056,            0.,NA,NA,"",       1.64198,      -1.09072,      -1.22737,   419.800E-09
C:/temp/dataset/4/29_2.odb,Step-1,Increment      1: Step Time =    1.000,"PART-1-1",           306,      -10.2834,   741.336E-03,            0.,NA,NA,"",       1.75038,      -1.29615,      -1.17637,   228.075E-09
C:/temp/dataset/4/29_2.odb,Step-1,Increment      1: Step Time =    1.000,"PART-1-1",           307,      -11.7661,       1.72477,            0.,NA,NA,"",       1.84775,      -1.34956,      -1.26209,   180.724E-09
C:/temp/dataset/4/29_2.odb,Step-1,Increment      1: Step Time =    1.000,"PART-1-1",           308,      -12.6810,   470.366E-03,            0.,NA,NA,"",       1.83079,      -1.27691,      -1.31198,   238.126E-09
C:/temp/dataset/4/29_2.odb,Step-1,Increment      1: Step Time =    1.000,"PART-1-1",           309,         -1.25,           -5.,            0.,NA,NA,"",       1.18258,  -984.894E-03,  -654.584E-03,   32.5610E-06
C:/temp/dataset/4/29_2.odb,Step-1,Increment      1: Step Time =    1.000,"PART-1-1",           310,  -165.329E-03,      -4.13131,            0.,NA,NA,"",       1.19436,      -1.03591,  -594.463E-03,   40.0799E-06
C:/temp/dataset/4/29_2.odb,Step-1,Increment      1: Step Time =    1.000,"PART-1-1",           311,      -1.46228,      -3.26668,            0.,NA,NA,"",       1.27312,      -1.08292,  -669.422E-03,   29.8576E-06
C:/temp/dataset/4/29_2.odb,Step-1,Increment      1: Step Time =    1.000,"PART-1-1",           312,      -2.54695,      -4.13537,            0.,NA,NA,"",       1.26373,      -1.03188,  -729.550E-03,   9.86081E-06
C:/temp/dataset/4/29_2.odb,Step-1,Increment      1: Step Time =    1.000,"PART-1-1",           313,   769.081E-03,      -3.16387,            0.,NA,NA,"",       1.21988,      -1.09235,  -543.028E-03,   84.6852E-06
C:/temp/dataset/4/29_2.odb,Step-1,Increment      1: Step Time =    1.000,"PART-1-1",           314,          1.25,           -5.,            0.,NA,NA,"",       1.11384,  -988.810E-03,  -512.729E-03,   86.5269E-06
C:/temp/dataset/4/29_2.odb,Step-1,Increment      1: Step Time =    1.000,"PART-1-1",           315,       2.18441,      -4.03256,            0.,NA,NA,"",       1.14245,      -1.04518,  -461.290E-03,   150.213E-06
C:/temp/dataset/4/29_2.odb,Step-1,Increment      1: Step Time =    1.000,"PART-1-1",           316,       1.54561,       3.01681,            0.,NA,NA,"",       1.53127,      -1.44431,  -508.692E-03,   72.1412E-06
C:/temp/dataset/4/29_2.odb,Step-1,Increment      1: Step Time =    1.000,"PART-1-1",           317,       2.64536,       4.01417,            0.,NA,NA,"",       1.56788,      -1.50254,  -447.880E-03,   86.9809E-06
C:/temp/dataset/4/29_2.odb,Step-1,Increment      1: Step Time =    1.000,"PART-1-1",           318,          1.25,            5.,            0.,NA,NA,"",       1.64365,      -1.55630,  -528.704E-03,   71.3888E-06
C:/temp/dataset/4/29_2.odb,Step-1,Increment      1: Step Time =    1.000,"PART-1-1",           319,   150.245E-03,       4.00264,            0.,NA,NA,"",       1.60980,      -1.49798,  -589.498E-03,   33.6894E-06
C:/temp/dataset/4/29_2.odb,Step-1,Increment      1: Step Time =    1.000,"PART-1-1",           320,   179.474E-03,      -1.21124,            0.,NA,NA,"",       1.33469,      -1.20229,  -579.562E-03,   62.9104E-06
C:/temp/dataset/4/29_2.odb,Step-1,Increment      1: Step Time =    1.000,"PART-1-1",           321,  -580.901E-03,      -2.30818,            0.,NA,NA,"",       1.29706,      -1.13876,  -620.961E-03,   41.1183E-06
C:/temp/dataset/4/29_2.odb,Step-1,Increment      1: Step Time =    1.000,"PART-1-1",           322,       1.52946,      -2.06693,            0.,NA,NA,"",       1.26009,      -1.15593,  -501.638E-03,   75.9905E-06
C:/temp/dataset/4/29_2.odb,Step-1,Increment      1: Step Time =    1.000,"PART-1-1",           323,       12.7868,      -3.71378,            0.,NA,NA,"",       1.09197,      -1.08405,   131.259E-03,   2.64604E-03
C:/temp/dataset/4/29_2.odb,Step-1,Increment      1: Step Time =    1.000,"PART-1-1",           324,       13.8814,      -5.00619,            0.,NA,NA,"",       1.03101,      -1.01282,   192.783E-03,   2.76516E-03
C:/temp/dataset/4/29_2.odb,Step-1,Increment      1: Step Time =    1.000,"PART-1-1",           325,           15.,         -3.75,            0.,NA,NA,"",       1.11943,      -1.08972,   256.169E-03,   2.10036E-03
C:/temp/dataset/4/29_2.odb,Step-1,Increment      1: Step Time =    1.000,"PART-1-1",           326,       13.9054,      -2.45760,            0.,NA,NA,"",       1.17600,      -1.16002,   193.224E-03,   2.11666E-03
C:/temp/dataset/4/29_2.odb,Step-1,Increment      1: Step Time =    1.000,"PART-1-1",           327,       5.10003,      -1.40311,            0.,NA,NA,"",       1.23658,      -1.19961,  -300.106E-03,   214.437E-06
C:/temp/dataset/4/29_2.odb,Step-1,Increment      1: Step Time =    1.000,"PART-1-1",           328,       3.80913,  -775.561E-03,            0.,NA,NA,"",       1.28867,      -1.23311,  -374.306E-03,   102.385E-06
C:/temp/dataset/4/29_2.odb,Step-1,Increment      1: Step Time =    1.000,"PART-1-1",           329,       3.52110,      -1.80919,            0.,NA,NA,"",       1.23667,      -1.17390,  -388.987E-03,   90.6668E-06
C:/temp/dataset/4/29_2.odb,Step-1,Increment      1: Step Time =    1.000,"PART-1-1",           330,       4.81200,      -2.43673,            0.,NA,NA,"",       1.18293,      -1.14032,  -314.643E-03,   171.366E-06
C:/temp/dataset/4/29_2.odb,Step-1,Increment      1: Step Time =    1.000,"PART-1-1",           331,           15.,          3.75,            0.,NA,NA,"",       1.52725,      -1.50708,   247.402E-03,   216.769E-06
C:/temp/dataset/4/29_2.odb,Step-1,Increment      1: Step Time =    1.000,"PART-1-1",           332,       13.8386,       5.14064,            0.,NA,NA,"",       1.59343,      -1.58319,   180.339E-03,   96.8949E-06
C:/temp/dataset/4/29_2.odb,Step-1,Increment      1: Step Time =    1.000,"PART-1-1",           333,       12.6076,       4.00525,            0.,NA,NA,"",       1.52174,      -1.51753,   113.203E-03,   108.717E-06
C:/temp/dataset/4/29_2.odb,Step-1,Increment      1: Step Time =    1.000,"PART-1-1",           334,       13.7689,       2.61462,            0.,NA,NA,"",       1.45274,      -1.44152,   180.178E-03,   214.883E-06
C:/temp/dataset/4/29_2.odb,Step-1,Increment      1: Step Time =    1.000,"PART-1-1",           335,       9.76439,       8.40859,            0.,NA,NA,"",       1.76121,      -1.76040,  -53.3915E-03,   42.0654E-06
C:/temp/dataset/4/29_2.odb,Step-1,Increment      1: Step Time =    1.000,"PART-1-1",           336,       8.59642,       7.53369,            0.,NA,NA,"",       1.71352,      -1.70949,  -117.579E-03,   64.8176E-06
C:/temp/dataset/4/29_2.odb,Step-1,Increment      1: Step Time =    1.000,"PART-1-1",           337,       9.44563,       6.06261,            0.,NA,NA,"",       1.62959,      -1.62819,  -67.4704E-03,   91.1683E-06
C:/temp/dataset/4/29_2.odb,Step-1,Increment      1: Step Time =    1.000,"PART-1-1",           338,       10.6136,       6.93751,            0.,NA,NA,"",       1.67910,      -1.67910,  -3.33133E-03,   75.7996E-06
C:/temp/dataset/4/29_2.odb,Step-1,Increment      1: Step Time =    1.000,"PART-1-1",           339,       5.92452,       9.07762,            0.,NA,NA,"",       1.81219,      -1.79195,  -270.110E-03,   17.3215E-06
C:/temp/dataset/4/29_2.odb,Step-1,Increment      1: Step Time =    1.000,"PART-1-1",           340,            5.,         8.125,            0.,NA,NA,"",       1.76635,      -1.73702,  -320.518E-03,   36.1733E-06
C:/temp/dataset/4/29_2.odb,Step-1,Increment      1: Step Time =    1.000,"PART-1-1",           341,       5.83838,       7.03541,            0.,NA,NA,"",       1.69911,      -1.67724,  -271.789E-03,   49.1870E-06
C:/temp/dataset/4/29_2.odb,Step-1,Increment      1: Step Time =    1.000,"PART-1-1",           342,       6.76290,       7.98803,            0.,NA,NA,"",       1.74622,      -1.73214,  -221.323E-03,   57.5888E-06
C:/temp/dataset/4/29_2.odb,Step-1,Increment      1: Step Time =    1.000,"PART-1-1",           343,       6.00358,       15.4027,            0.,NA,NA,"",       2.16476,      -2.14714,  -275.634E-03,   687.000E-09
C:/temp/dataset/4/29_2.odb,Step-1,Increment      1: Step Time =    1.000,"PART-1-1",           344,            5.,        14.375,            0.,NA,NA,"",       2.11384,      -2.08786,  -330.357E-03,   1.47462E-06
C:/temp/dataset/4/29_2.odb,Step-1,Increment      1: Step Time =    1.000,"PART-1-1",           345,       5.99171,       13.2884,            0.,NA,NA,"",       2.04671,      -2.02842,  -272.965E-03,   849.912E-09
C:/temp/dataset/4/29_2.odb,Step-1,Increment      1: Step Time =    1.000,"PART-1-1",           346,       6.99529,       14.3161,            0.,NA,NA,"",       2.09908,      -2.08770,  -218.242E-03,   841.627E-09
C:/temp/dataset/4/29_2.odb,Step-1,Increment      1: Step Time =    1.000,"PART-1-1",           347,       11.7328,       24.6815,            0.,NA,NA,"",       2.67733,      -2.67714,   31.3953E-03,   34.9581E-09
C:/temp/dataset/4/29_2.odb,Step-1,Increment      1: Step Time =    1.000,"PART-1-1",           348,       12.6496,       26.1279,            0.,NA,NA,"",       2.76097,      -2.75979,   80.5880E-03,   17.2654E-09
C:/temp/dataset/4/29_2.odb,Step-1,Increment      1: Step Time =    1.000,"PART-1-1",           349,       11.2054,       27.2635,            0.,NA,NA,"",       2.82128,      -2.82128,  -2.28464E-03,   7.14441E-09
C:/temp/dataset/4/29_2.odb,Step-1,Increment      1: Step Time =    1.000,"PART-1-1",           350,       10.2886,       25.8171,            0.,NA,NA,"",       2.73911,      -2.73862,  -51.4773E-03,   27.7494E-09
C:/temp/dataset/4/29_2.odb,Step-1,Increment      1: Step Time =    1.000,"PART-1-1",           351,       12.5134,       28.7000,            0.,NA,NA,"",       2.90481,      -2.90400,   68.8855E-03,   1.44842E-09
C:/temp/dataset/4/29_2.odb,Step-1,Increment      1: Step Time =    1.000,"PART-1-1",           352,       13.7634,       27.4500,            0.,NA,NA,"",       2.83929,      -2.83579,   141.039E-03,   1.72088E-09
C:/temp/dataset/4/29_2.odb,Step-1,Increment      1: Step Time =    1.000,"PART-1-1",           353,           15.,         28.75,            0.,NA,NA,"",       2.91818,      -2.91072,   208.418E-03,   845.818E-12
C:/temp/dataset/4/29_2.odb,Step-1,Increment      1: Step Time =    1.000,"PART-1-1",           354,         13.75,           30.,            0.,NA,NA,"",       2.98205,      -2.97893,   136.264E-03,   1.26364E-09
C:/temp/dataset/4/29_2.odb,Step-1,Increment      1: Step Time =    1.000,"PART-1-1",           355,      -3.83569,      -2.96698,            0.,NA,NA,"",       1.35969,      -1.09611,  -804.546E-03,   10.7799E-06
C:/temp/dataset/4/29_2.odb,Step-1,Increment      1: Step Time =    1.000,"PART-1-1",           356,      -2.47303,      -2.56070,            0.,NA,NA,"",       1.33689,      -1.12136,  -727.893E-03,   17.6219E-06
C:/temp/dataset/4/29_2.odb,Step-1,Increment      1: Step Time =    1.000,"PART-1-1",           357,      -2.95938,      -1.35275,            0.,NA,NA,"",       1.40987,      -1.18913,  -757.419E-03,   17.2401E-06
C:/temp/dataset/4/29_2.odb,Step-1,Increment      1: Step Time =    1.000,"PART-1-1",           358,      -4.32205,      -1.75903,            0.,NA,NA,"",       1.43188,      -1.16387,  -834.081E-03,   7.84239E-06
C:/temp/dataset/4/29_2.odb,Step-1,Increment      1: Step Time =    1.000,"PART-1-1",           359,       8.60967,      -7.25473,            0.,NA,NA,"",   871.516E-03,  -866.653E-03,  -91.9397E-03,   3.32207E-03
C:/temp/dataset/4/29_2.odb,Step-1,Increment      1: Step Time =    1.000,"PART-1-1",           360,       7.51358,      -6.44375,            0.,NA,NA,"",   925.295E-03,  -912.538E-03,  -153.121E-03,   2.67528E-03
C:/temp/dataset/4/29_2.odb,Step-1,Increment      1: Step Time =    1.000,"PART-1-1",           361,       6.75300,      -7.77251,            0.,NA,NA,"",   856.461E-03,  -835.069E-03,  -190.224E-03,   3.16469E-03
C:/temp/dataset/4/29_2.odb,Step-1,Increment      1: Step Time =    1.000,"PART-1-1",           362,       7.84909,      -8.58350,            0.,NA,NA,"",   799.491E-03,  -789.089E-03,  -128.550E-03,   3.52339E-03
C:/temp/dataset/4/29_2.odb,Step-1,Increment      1: Step Time =    1.000,"PART-1-1",           363,       7.07130,      -14.2100,            0.,NA,NA,"",   502.974E-03,  -482.709E-03,  -141.332E-03,   6.11618E-03
C:/temp/dataset/4/29_2.odb,Step-1,Increment      1: Step Time =    1.000,"PART-1-1",           364,       6.02882,      -13.2279,            0.,NA,NA,"",   570.288E-03,  -534.642E-03,  -198.460E-03,   6.86924E-03
C:/temp/dataset/4/29_2.odb,Step-1,Increment      1: Step Time =    1.000,"PART-1-1",           365,            5.,       -14.375,            0.,NA,NA,"",   535.821E-03,  -479.018E-03,  -240.096E-03,   9.47956E-03
C:/temp/dataset/4/29_2.odb,Step-1,Increment      1: Step Time =    1.000,"PART-1-1",           366,       6.04247,      -15.3570,            0.,NA,NA,"",   464.731E-03,  -428.104E-03,  -180.836E-03,   8.35034E-03
C:/temp/dataset/4/29_2.odb,Step-1,Increment      1: Step Time =    1.000,"PART-1-1",           367,       7.02995,      -12.0379,            0.,NA,NA,"",   616.340E-03,  -596.279E-03,  -155.967E-03,   5.14840E-03
C:/temp/dataset/4/29_2.odb,Step-1,Increment      1: Step Time =    1.000,"PART-1-1",           368,       6.00113,      -11.1016,            0.,NA,NA,"",   682.455E-03,  -647.937E-03,  -214.297E-03,   5.39139E-03
C:/temp/dataset/4/29_2.odb,Step-1,Increment      1: Step Time =    1.000,"PART-1-1",           369,            5.,      -12.2917,            0.,NA,NA,"",   640.169E-03,  -585.522E-03,  -258.806E-03,   7.54624E-03
C:/temp/dataset/4/29_2.odb,Step-1,Increment      1: Step Time =    1.000,"PART-1-1",           370,            5.,      -22.7083,            0.,NA,NA,"",   195.394E-03,  -142.453E-03,  -133.738E-03,   17.0243E-03
C:/temp/dataset/4/29_2.odb,Step-1,Increment      1: Step Time =    1.000,"PART-1-1",           371,       6.05922,      -23.7899,            0.,NA,NA,"",   137.613E-03,  -104.956E-03,  -89.0038E-03,   14.2326E-03
C:/temp/dataset/4/29_2.odb,Step-1,Increment      1: Step Time =    1.000,"PART-1-1",           372,       7.11013,      -22.7834,            0.,NA,NA,"",   147.735E-03,  -128.262E-03,  -73.3102E-03,   10.2036E-03
C:/temp/dataset/4/29_2.odb,Step-1,Increment      1: Step Time =    1.000,"PART-1-1",           373,       6.05091,      -21.7018,            0.,NA,NA,"",   203.270E-03,  -167.358E-03,  -115.368E-03,   12.7771E-03
C:/temp/dataset/4/29_2.odb,Step-1,Increment      1: Step Time =    1.000,"PART-1-1",           374,          8.75,          -30.,            0.,NA,NA,"",            0.,   1.13226E-39,  -8.46048E-39,   4.12254E-03
C:/temp/dataset/4/29_2.odb,Step-1,Increment      1: Step Time =    1.000,"PART-1-1",           375,       9.84988,      -28.9274,            0.,NA,NA,"",   1.90646E-03,  -1.87805E-03,  -327.864E-06,   1.37227E-03
C:/temp/dataset/4/29_2.odb,Step-1,Increment      1: Step Time =    1.000,"PART-1-1",           376,       8.52411,      -27.9095,            0.,NA,NA,"",   15.5945E-03,  -12.2108E-03,  -9.69969E-03,   7.14117E-03
C:/temp/dataset/4/29_2.odb,Step-1,Increment      1: Step Time =    1.000,"PART-1-1",           377,       7.42422,      -28.9821,            0.,NA,NA,"",   8.83702E-03,  -3.65659E-03,  -8.04502E-03,   9.73762E-03
C:/temp/dataset/4/29_2.odb,Step-1,Increment      1: Step Time =    1.000,"PART-1-1",           378,       10.1104,      -23.9794,            0.,NA,NA,"",   88.5505E-03,  -88.5227E-03,   2.21984E-03,   3.95352E-03
C:/temp/dataset/4/29_2.odb,Step-1,Increment      1: Step Time =    1.000,"PART-1-1",           379,       11.1261,      -23.0268,            0.,NA,NA,"",   120.034E-03,  -117.073E-03,   26.4989E-03,   5.58992E-03
C:/temp/dataset/4/29_2.odb,Step-1,Increment      1: Step Time =    1.000,"PART-1-1",           380,       10.1523,      -21.9025,            0.,NA,NA,"",   151.334E-03,  -151.297E-03,   3.34638E-03,   3.91753E-03
C:/temp/dataset/4/29_2.odb,Step-1,Increment      1: Step Time =    1.000,"PART-1-1",           381,       9.13660,      -22.8552,            0.,NA,NA,"",   122.897E-03,  -121.006E-03,  -21.4798E-03,   4.90926E-03
C:/temp/dataset/4/29_2.odb,Step-1,Increment      1: Step Time =    1.000,"PART-1-1",           382,       7.09296,      -18.5383,            0.,NA,NA,"",   302.586E-03,  -281.848E-03,  -110.090E-03,   8.15408E-03
C:/temp/dataset/4/29_2.odb,Step-1,Increment      1: Step Time =    1.000,"PART-1-1",           383,       6.04465,      -17.4814,            0.,NA,NA,"",   367.623E-03,  -330.330E-03,  -161.335E-03,   9.83838E-03
C:/temp/dataset/4/29_2.odb,Step-1,Increment      1: Step Time =    1.000,"PART-1-1",           384,            5.,      -18.5417,            0.,NA,NA,"",   348.371E-03,  -289.956E-03,  -193.101E-03,   13.2809E-03
C:/temp/dataset/4/29_2.odb,Step-1,Increment      1: Step Time =    1.000,"PART-1-1",           385,       6.04831,      -19.5985,            0.,NA,NA,"",   280.054E-03,  -242.875E-03,  -139.434E-03,   11.3163E-03
C:/temp/dataset/4/29_2.odb,Step-1,Increment      1: Step Time =    1.000,"PART-1-1",           386,       8.88188,       22.9635,            0.,NA,NA,"",       2.57926,      -2.57618,  -125.959E-03,   104.686E-09
C:/temp/dataset/4/29_2.odb,Step-1,Increment      1: Step Time =    1.000,"PART-1-1",           387,       9.93448,       22.0483,            0.,NA,NA,"",       2.52731,      -2.52646,  -65.4168E-03,   132.749E-09
C:/temp/dataset/4/29_2.odb,Step-1,Increment      1: Step Time =    1.000,"PART-1-1",           388,       10.8087,       23.3359,            0.,NA,NA,"",       2.60020,      -2.60014,  -18.3666E-03,   91.3073E-09
C:/temp/dataset/4/29_2.odb,Step-1,Increment      1: Step Time =    1.000,"PART-1-1",           389,       9.75606,       24.2511,            0.,NA,NA,"",       2.65103,      -2.64986,  -78.9090E-03,   49.6802E-09
C:/temp/dataset/4/29_2.odb,Step-1,Increment      1: Step Time =    1.000,"PART-1-1",           390,       10.0218,       17.5512,            0.,NA,NA,"",       2.27474,      -2.27411,  -53.4219E-03,   449.110E-09
C:/temp/dataset/4/29_2.odb,Step-1,Increment      1: Step Time =    1.000,"PART-1-1",           391,       9.00837,       16.4411,            0.,NA,NA,"",       2.21285,      -2.21018,  -108.570E-03,   420.169E-09
C:/temp/dataset/4/29_2.odb,Step-1,Increment      1: Step Time =    1.000,"PART-1-1",           392,       10.0249,       15.2736,            0.,NA,NA,"",       2.14681,      -2.14624,  -49.6579E-03,   604.873E-09
C:/temp/dataset/4/29_2.odb,Step-1,Increment      1: Step Time =    1.000,"PART-1-1",           393,       11.0383,       16.3837,            0.,NA,NA,"",       2.21017,      -2.21017,   5.49060E-03,   413.005E-09
C:/temp/dataset/4/29_2.odb,Step-1,Increment      1: Step Time =    1.000,"PART-1-1",           394,      -14.0638,       5.89996,            0.,NA,NA,"",       2.11257,      -1.58278,      -1.39920,   200.121E-09
C:/temp/dataset/4/29_2.odb,Step-1,Increment      1: Step Time =    1.000,"PART-1-1",           395,      -13.1194,       6.91794,            0.,NA,NA,"",       2.12402,      -1.64207,      -1.34725,   171.446E-09
C:/temp/dataset/4/29_2.odb,Step-1,Increment      1: Step Time =    1.000,"PART-1-1",           396,      -14.0556,       8.04923,            0.,NA,NA,"",       2.20734,      -1.70475,      -1.40219,   94.9197E-09
C:/temp/dataset/4/29_2.odb,Step-1,Increment      1: Step Time =    1.000,"PART-1-1",           397,          -15.,       7.03125,            0.,NA,NA,"",       2.19593,      -1.64547,      -1.45415,   170.583E-09
C:/temp/dataset/4/29_2.odb,Step-1,Increment      1: Step Time =    1.000,"PART-1-1",           398,      -14.0181,       12.3521,            0.,NA,NA,"",       2.40378,      -1.94898,      -1.40700,   8.23905E-09
C:/temp/dataset/4/29_2.odb,Step-1,Increment      1: Step Time =    1.000,"PART-1-1",           399,      -13.0189,       13.2775,            0.,NA,NA,"",       2.41656,      -2.00310,      -1.35179,   10.2579E-09
C:/temp/dataset/4/29_2.odb,Step-1,Increment      1: Step Time =    1.000,"PART-1-1",           400,      -14.0008,       14.5192,            0.,NA,NA,"",       2.50596,      -2.07198,      -1.40951,   2.21752E-09
C:/temp/dataset/4/29_2.odb,Step-1,Increment      1: Step Time =    1.000,"PART-1-1",           401,          -15.,       13.5938,            0.,NA,NA,"",       2.49342,      -2.01786,      -1.46472,   2.62598E-09
C:/temp/dataset/4/29_2.odb,Step-1,Increment      1: Step Time =    1.000,"PART-1-1",           402,      -10.1942,       21.9572,            0.,NA,NA,"",       2.77563,      -2.50019,      -1.20549,   560.873E-12
C:/temp/dataset/4/29_2.odb,Step-1,Increment      1: Step Time =    1.000,"PART-1-1",           403,      -9.14995,       21.4132,            0.,NA,NA,"",       2.72354,      -2.47100,      -1.14536,   624.645E-12
C:/temp/dataset/4/29_2.odb,Step-1,Increment      1: Step Time =    1.000,"PART-1-1",           404,      -8.60578,       22.3365,            0.,NA,NA,"",       2.75994,      -2.52426,      -1.11597,   476.655E-12
C:/temp/dataset/4/29_2.odb,Step-1,Increment      1: Step Time =    1.000,"PART-1-1",           405,      -9.65000,       22.8805,            0.,NA,NA,"",       2.81129,      -2.55345,      -1.17610,   358.919E-12
C:/temp/dataset/4/29_2.odb,Step-1,Increment      1: Step Time =    1.000,"PART-1-1",           406,      -14.0213,       25.7108,            0.,NA,NA,"",       3.06090,      -2.70701,      -1.42871,   52.6752E-12
C:/temp/dataset/4/29_2.odb,Step-1,Increment      1: Step Time =    1.000,"PART-1-1",           407,      -12.8802,       26.8172,            0.,NA,NA,"",       3.08986,      -2.77164,      -1.36574,   58.3079E-12
C:/temp/dataset/4/29_2.odb,Step-1,Increment      1: Step Time =    1.000,"PART-1-1",           408,      -13.8589,       27.8252,            0.,NA,NA,"",       3.16513,      -2.82726,      -1.42290,   36.7556E-12
C:/temp/dataset/4/29_2.odb,Step-1,Increment      1: Step Time =    1.000,"PART-1-1",           409,          -15.,       26.7188,            0.,NA,NA,"",       3.13687,      -2.76263,      -1.48587,   32.0918E-12
C:/temp/dataset/4/29_2.odb,Step-1,Increment      1: Step Time =    1.000,"PART-1-1",           410,        -13.75,           30.,            0.,NA,NA,"",       3.27483,      -2.95084,      -1.42022,   39.6485E-12
C:/temp/dataset/4/29_2.odb,Step-1,Increment      1: Step Time =    1.000,"PART-1-1",           411,          -15.,       28.9063,            0.,NA,NA,"",       3.24834,      -2.88676,      -1.48939,   33.9141E-12
C:/temp/dataset/4/29_2.odb,Step-1,Increment      1: Step Time =    1.000,"PART-1-1",           412,      -12.6089,       28.9190,            0.,NA,NA,"",       3.19256,      -2.89134,      -1.35373,   41.1218E-12
C:/temp/dataset/4/29_2.odb,Step-1,Increment      1: Step Time =    1.000,"PART-1-1",           413,      -11.4362,       27.6040,            0.,NA,NA,"",       3.09773,      -2.81861,      -1.28506,   50.8461E-12
C:/temp/dataset/4/29_2.odb,Step-1,Increment      1: Step Time =    1.000,"PART-1-1",           414,      -10.0773,       28.6850,            0.,NA,NA,"",       3.12572,      -2.88214,      -1.20970,   45.7303E-12
C:/temp/dataset/4/29_2.odb,Step-1,Increment      1: Step Time =    1.000,"PART-1-1",           415,        -11.25,           30.,            0.,NA,NA,"",       3.21955,      -2.95487,      -1.27836,   37.1589E-12
C:/temp/dataset/4/29_2.odb,Step-1,Increment      1: Step Time =    1.000,"PART-1-1",           416,      -13.7240,       21.2404,            0.,NA,NA,"",       2.82741,      -2.45382,      -1.40463,   451.923E-12
C:/temp/dataset/4/29_2.odb,Step-1,Increment      1: Step Time =    1.000,"PART-1-1",           417,      -12.6979,       22.4429,            0.,NA,NA,"",       2.86132,      -2.52371,      -1.34835,   431.109E-12
C:/temp/dataset/4/29_2.odb,Step-1,Increment      1: Step Time =    1.000,"PART-1-1",           418,      -13.9739,       23.5463,            0.,NA,NA,"",       2.94992,      -2.58427,      -1.42253,   150.337E-12
C:/temp/dataset/4/29_2.odb,Step-1,Increment      1: Step Time =    1.000,"PART-1-1",           419,          -15.,       22.3438,            0.,NA,NA,"",       2.91702,      -2.51437,      -1.47882,   329.590E-12
C:/temp/dataset/4/29_2.odb,Step-1,Increment      1: Step Time =    1.000,"PART-1-1",           420,      -11.9375,       16.3352,            0.,NA,NA,"",       2.53440,      -2.17836,      -1.29535,   1.09155E-09
C:/temp/dataset/4/29_2.odb,Step-1,Increment      1: Step Time =    1.000,"PART-1-1",           421,      -10.8584,       17.1847,            0.,NA,NA,"",       2.54789,      -2.22830,      -1.23549,   1.29341E-09
C:/temp/dataset/4/29_2.odb,Step-1,Increment      1: Step Time =    1.000,"PART-1-1",           422,      -11.8099,       18.4796,            0.,NA,NA,"",       2.63804,      -2.30024,      -1.29157,   1.19177E-09
C:/temp/dataset/4/29_2.odb,Step-1,Increment      1: Step Time =    1.000,"PART-1-1",           423,      -12.8889,       17.6301,            0.,NA,NA,"",       2.62492,      -2.25030,      -1.35143,   1.23497E-09
C:/temp/dataset/4/29_2.odb,Step-1,Increment      1: Step Time =    1.000,"PART-1-1",           424,      -9.98079,       13.8692,            0.,NA,NA,"",       2.35823,      -2.04157,      -1.18035,   8.09152E-09
C:/temp/dataset/4/29_2.odb,Step-1,Increment      1: Step Time =    1.000,"PART-1-1",           425,      -11.0142,       12.9724,            0.,NA,NA,"",       2.34258,      -1.98902,      -1.23754,   18.3629E-09
C:/temp/dataset/4/29_2.odb,Step-1,Increment      1: Step Time =    1.000,"PART-1-1",           426,      -10.0204,       11.7735,            0.,NA,NA,"",       2.25542,      -1.92259,      -1.17922,   29.7480E-09
C:/temp/dataset/4/29_2.odb,Step-1,Increment      1: Step Time =    1.000,"PART-1-1",           427,      -6.95613,       14.5250,            0.,NA,NA,"",       2.31544,      -2.08366,      -1.00977,   3.16743E-09
C:/temp/dataset/4/29_2.odb,Step-1,Increment      1: Step Time =    1.000,"PART-1-1",           428,      -5.98929,       13.4097,            0.,NA,NA,"",       2.23531,      -2.02193,  -953.110E-03,   2.74773E-09
C:/temp/dataset/4/29_2.odb,Step-1,Increment      1: Step Time =    1.000,"PART-1-1",           429,           -5.,        14.375,            0.,NA,NA,"",       2.26422,      -2.07830,  -898.528E-03,   5.02019E-09
C:/temp/dataset/4/29_2.odb,Step-1,Increment      1: Step Time =    1.000,"PART-1-1",           430,      -5.96684,       15.4903,            0.,NA,NA,"",       2.34353,      -2.14003,  -955.189E-03,   2.29894E-09
C:/temp/dataset/4/29_2.odb,Step-1,Increment      1: Step Time =    1.000,"PART-1-1",           431,      -11.0581,       10.8707,            0.,NA,NA,"",       2.24166,      -1.86969,      -1.23665,   58.4255E-09
C:/temp/dataset/4/29_2.odb,Step-1,Increment      1: Step Time =    1.000,"PART-1-1",           432,      -10.0579,       9.67932,            0.,NA,NA,"",       2.15428,      -1.80369,      -1.17797,   91.5563E-09
C:/temp/dataset/4/29_2.odb,Step-1,Increment      1: Step Time =    1.000,"PART-1-1",           433,      -9.02030,       10.5821,            0.,NA,NA,"",       2.16854,      -1.85659,      -1.12055,   73.7388E-09
C:/temp/dataset/4/29_2.odb,Step-1,Increment      1: Step Time =    1.000,"PART-1-1",           434,      -7.04064,       8.20966,            0.,NA,NA,"",       1.99624,      -1.72516,      -1.00439,   277.547E-09
C:/temp/dataset/4/29_2.odb,Step-1,Increment      1: Step Time =    1.000,"PART-1-1",           435,      -6.03068,       7.10065,            0.,NA,NA,"",       1.91364,      -1.66386,  -945.293E-03,   284.141E-09
C:/temp/dataset/4/29_2.odb,Step-1,Increment      1: Step Time =    1.000,"PART-1-1",           436,           -5.,         8.125,            0.,NA,NA,"",       1.93915,      -1.72364,  -888.458E-03,   199.454E-09
C:/temp/dataset/4/29_2.odb,Step-1,Increment      1: Step Time =    1.000,"PART-1-1",           437,      -6.00996,       9.23401,            0.,NA,NA,"",       2.02087,      -1.78495,  -947.555E-03,   72.2145E-09
C:/temp/dataset/4/29_2.odb,Step-1,Increment      1: Step Time =    1.000,"PART-1-1",           438,      -13.0926,       9.02789,            0.,NA,NA,"",       2.21906,      -1.76184,      -1.34913,   93.1233E-09
C:/temp/dataset/4/29_2.odb,Step-1,Increment      1: Step Time =    1.000,"PART-1-1",           439,      -14.0370,       10.1974,            0.,NA,NA,"",       2.30427,      -1.82668,      -1.40460,   33.6463E-09
C:/temp/dataset/4/29_2.odb,Step-1,Increment      1: Step Time =    1.000,"PART-1-1",           440,          -15.,       9.21875,            0.,NA,NA,"",       2.29266,      -1.76960,      -1.45767,   60.6348E-09
C:/temp/dataset/4/29_2.odb,Step-1,Increment      1: Step Time =    1.000,"PART-1-1",           441,      -13.9055,       1.56280,            0.,NA,NA,"",       1.92371,      -1.33692,      -1.38322,   354.838E-09
C:/temp/dataset/4/29_2.odb,Step-1,Increment      1: Step Time =    1.000,"PART-1-1",           442,      -12.9296,       2.64306,            0.,NA,NA,"",       1.93060,      -1.39979,      -1.32959,   219.833E-09
C:/temp/dataset/4/29_2.odb,Step-1,Increment      1: Step Time =    1.000,"PART-1-1",           443,      -14.0241,       3.73651,            0.,NA,NA,"",       2.01831,      -1.46008,      -1.39346,   312.958E-09
C:/temp/dataset/4/29_2.odb,Step-1,Increment      1: Step Time =    1.000,"PART-1-1",           444,          -15.,       2.65625,            0.,NA,NA,"",       2.01153,      -1.39721,      -1.44709,   475.331E-09
C:/temp/dataset/4/29_2.odb,Step-1,Increment      1: Step Time =    1.000,"PART-1-1",           445,      -13.7570,      -2.81804,            0.,NA,NA,"",       1.74806,      -1.08858,      -1.36774,   229.161E-09
C:/temp/dataset/4/29_2.odb,Step-1,Increment      1: Step Time =    1.000,"PART-1-1",           446,      -13.7756,  -623.683E-03,            0.,NA,NA,"",       1.83161,      -1.21306,      -1.37233,   322.384E-09
C:/temp/dataset/4/29_2.odb,Step-1,Increment      1: Step Time =    1.000,"PART-1-1",           447,          -15.,      -1.71875,            0.,NA,NA,"",       1.84223,      -1.14895,      -1.44004,   274.238E-09
C:/temp/dataset/4/29_2.odb,Step-1,Increment      1: Step Time =    1.000,"PART-1-1",           448,        -13.75,           -5.,            0.,NA,NA,"",       1.67057,  -964.775E-03,      -1.36383,   77.4049E-09
C:/temp/dataset/4/29_2.odb,Step-1,Increment      1: Step Time =    1.000,"PART-1-1",           449,      -12.5070,      -3.91179,            0.,NA,NA,"",       1.65379,      -1.02853,      -1.29504,   249.423E-09
C:/temp/dataset/4/29_2.odb,Step-1,Increment      1: Step Time =    1.000,"PART-1-1",           450,          -15.,      -3.90625,            0.,NA,NA,"",       1.76461,      -1.02482,      -1.43652,   55.3771E-09
C:/temp/dataset/4/29_2.odb,Step-1,Increment      1: Step Time =    1.000,"PART-1-1",           451,          -15.,    468.75E-03,            0.,NA,NA,"",       1.92474,      -1.27308,      -1.44357,   468.974E-09
C:/temp/dataset/4/29_2.odb,Step-1,Increment      1: Step Time =    1.000,"PART-1-1",           452,      -5.10506,       2.56414,            0.,NA,NA,"",       1.66322,      -1.40792,  -885.458E-03,   4.18328E-06
C:/temp/dataset/4/29_2.odb,Step-1,Increment      1: Step Time =    1.000,"PART-1-1",           453,      -4.59209,       3.94539,            0.,NA,NA,"",       1.71718,      -1.48713,  -858.572E-03,   2.96093E-06
C:/temp/dataset/4/29_2.odb,Step-1,Increment      1: Step Time =    1.000,"PART-1-1",           454,      -6.09775,       4.77703,            0.,NA,NA,"",       1.80011,      -1.53189,  -945.355E-03,   503.363E-09
C:/temp/dataset/4/29_2.odb,Step-1,Increment      1: Step Time =    1.000,"PART-1-1",           455,      -6.61072,       3.39578,            0.,NA,NA,"",       1.74801,      -1.45269,  -972.239E-03,   987.153E-09
C:/temp/dataset/4/29_2.odb,Step-1,Increment      1: Step Time =    1.000,"PART-1-1",           456,       9.44090,      -5.60228,            0.,NA,NA,"",   965.819E-03,  -964.497E-03,  -50.5228E-03,   2.84240E-03
C:/temp/dataset/4/29_2.odb,Step-1,Increment      1: Step Time =    1.000,"PART-1-1",           457,       9.79564,      -4.46986,            0.,NA,NA,"",       1.03190,      -1.03138,  -32.8160E-03,   2.46916E-03
C:/temp/dataset/4/29_2.odb,Step-1,Increment      1: Step Time =    1.000,"PART-1-1",           458,       8.43936,      -4.09444,            0.,NA,NA,"",       1.05599,      -1.05047,  -107.762E-03,   1.91396E-03
C:/temp/dataset/4/29_2.odb,Step-1,Increment      1: Step Time =    1.000,"PART-1-1",           459,       8.08462,      -5.22686,            0.,NA,NA,"",   991.987E-03,  -984.085E-03,  -124.965E-03,   2.39780E-03
C:/temp/dataset/4/29_2.odb,Step-1,Increment      1: Step Time =    1.000,"PART-1-1",           460,       6.93926,      -9.88629,            0.,NA,NA,"",   735.071E-03,  -714.809E-03,  -171.399E-03,   4.19014E-03
C:/temp/dataset/4/29_2.odb,Step-1,Increment      1: Step Time =    1.000,"PART-1-1",           461,       5.93813,      -8.99303,            0.,NA,NA,"",   798.968E-03,  -765.317E-03,  -229.431E-03,   3.94425E-03
C:/temp/dataset/4/29_2.odb,Step-1,Increment      1: Step Time =    1.000,"PART-1-1",           462,            5.,      -10.2083,            0.,NA,NA,"",   749.877E-03,  -697.949E-03,  -274.194E-03,   5.60836E-03
C:/temp/dataset/4/29_2.odb,Step-1,Increment      1: Step Time =    1.000,"PART-1-1",           463,       12.9852,      -11.3613,            0.,NA,NA,"",   654.918E-03,  -640.427E-03,   137.007E-03,   4.80613E-03
C:/temp/dataset/4/29_2.odb,Step-1,Increment      1: Step Time =    1.000,"PART-1-1",           464,       14.0059,      -12.5461,            0.,NA,NA,"",   608.708E-03,  -579.857E-03,   185.181E-03,   6.54847E-03
C:/temp/dataset/4/29_2.odb,Step-1,Increment      1: Step Time =    1.000,"PART-1-1",           465,           15.,        -11.25,            0.,NA,NA,"",   698.145E-03,  -654.352E-03,   243.372E-03,   6.97048E-03
C:/temp/dataset/4/29_2.odb,Step-1,Increment      1: Step Time =    1.000,"PART-1-1",           466,       13.9793,      -10.0652,            0.,NA,NA,"",   741.615E-03,  -716.215E-03,   192.428E-03,   4.76560E-03
C:/temp/dataset/4/29_2.odb,Step-1,Increment      1: Step Time =    1.000,"PART-1-1",           467,       7.08713,      -16.3801,            0.,NA,NA,"",   397.779E-03,  -377.203E-03,  -126.279E-03,   7.12140E-03
C:/temp/dataset/4/29_2.odb,Step-1,Increment      1: Step Time =    1.000,"PART-1-1",           468,            5.,      -16.4583,            0.,NA,NA,"",   438.179E-03,  -380.006E-03,  -218.166E-03,   11.3892E-03
C:/temp/dataset/4/29_2.odb,Step-1,Increment      1: Step Time =    1.000,"PART-1-1",           469,       13.0372,      -13.8111,            0.,NA,NA,"",   526.595E-03,  -509.659E-03,   132.476E-03,   6.07028E-03
C:/temp/dataset/4/29_2.odb,Step-1,Increment      1: Step Time =    1.000,"PART-1-1",           470,       14.0313,      -15.0151,            0.,NA,NA,"",   485.085E-03,  -453.026E-03,   173.423E-03,   8.32457E-03
C:/temp/dataset/4/29_2.odb,Step-1,Increment      1: Step Time =    1.000,"PART-1-1",           471,           15.,        -13.75,            0.,NA,NA,"",   569.594E-03,  -521.590E-03,   228.871E-03,   9.10793E-03
C:/temp/dataset/4/29_2.odb,Step-1,Increment      1: Step Time =    1.000,"PART-1-1",           472,       13.0981,      -18.6529,            0.,NA,NA,"",   302.897E-03,  -282.129E-03,   110.228E-03,   8.72853E-03
C:/temp/dataset/4/29_2.odb,Step-1,Increment      1: Step Time =    1.000,"PART-1-1",           473,       14.0553,      -19.9280,            0.,NA,NA,"",   271.725E-03,  -235.888E-03,   134.877E-03,   11.9346E-03
C:/temp/dataset/4/29_2.odb,Step-1,Increment      1: Step Time =    1.000,"PART-1-1",           474,           15.,        -18.75,            0.,NA,NA,"",   342.194E-03,  -288.871E-03,   183.440E-03,   13.5347E-03
C:/temp/dataset/4/29_2.odb,Step-1,Increment      1: Step Time =    1.000,"PART-1-1",           475,       14.0427,      -17.4749,            0.,NA,NA,"",   372.098E-03,  -337.617E-03,   156.433E-03,   10.1235E-03
C:/temp/dataset/4/29_2.odb,Step-1,Increment      1: Step Time =    1.000,"PART-1-1",           476,       6.17422,      -27.9405,            0.,NA,NA,"",   35.4818E-03,  -21.2396E-03,  -28.4224E-03,   16.8429E-03
C:/temp/dataset/4/29_2.odb,Step-1,Increment      1: Step Time =    1.000,"PART-1-1",           477,            5.,      -28.9583,            0.,NA,NA,"",   28.2825E-03,  -18.4032E-03,  -21.4760E-03,   22.9962E-03
C:/temp/dataset/4/29_2.odb,Step-1,Increment      1: Step Time =    1.000,"PART-1-1",           478,          6.25,          -30.,            0.,NA,NA,"",            0.,   561.806E-42,  -25.6539E-39,   16.4051E-03
C:/temp/dataset/4/29_2.odb,Step-1,Increment      1: Step Time =    1.000,"PART-1-1",           479,       9.46325,      -26.8820,            0.,NA,NA,"",   25.8736E-03,  -25.3036E-03,  -5.40091E-03,   4.53449E-03
C:/temp/dataset/4/29_2.odb,Step-1,Increment      1: Step Time =    1.000,"PART-1-1",           480,       8.20536,      -25.9154,            0.,NA,NA,"",   51.8035E-03,  -45.1553E-03,  -25.3890E-03,   8.06347E-03
C:/temp/dataset/4/29_2.odb,Step-1,Increment      1: Step Time =    1.000,"PART-1-1",           481,       7.26622,      -26.9429,            0.,NA,NA,"",   41.9979E-03,  -30.1319E-03,  -29.2556E-03,   11.6249E-03
C:/temp/dataset/4/29_2.odb,Step-1,Increment      1: Step Time =    1.000,"PART-1-1",           482,       13.6319,      -27.3465,            0.,NA,NA,"",   45.9632E-03,  -29.4935E-03,   35.2527E-03,   15.8901E-03
C:/temp/dataset/4/29_2.odb,Step-1,Increment      1: Step Time =    1.000,"PART-1-1",           483,       12.3819,      -28.5965,            0.,NA,NA,"",   12.6555E-03,  -7.00236E-03,   10.5418E-03,   9.47766E-03
C:/temp/dataset/4/29_2.odb,Step-1,Increment      1: Step Time =    1.000,"PART-1-1",           484,         13.75,          -30.,            0.,NA,NA,"",            0.,   863.570E-42,   25.5239E-39,   16.8324E-03
C:/temp/dataset/4/29_2.odb,Step-1,Increment      1: Step Time =    1.000,"PART-1-1",           485,           15.,        -28.75,            0.,NA,NA,"",   34.0485E-03,  -22.2826E-03,   25.7446E-03,   22.7670E-03
C:/temp/dataset/4/29_2.odb,Step-1,Increment      1: Step Time =    1.000,"PART-1-1",           486,         11.25,          -30.,            0.,NA,NA,"",            0.,   1.06228E-39,   8.49569E-39,   4.20167E-03
C:/temp/dataset/4/29_2.odb,Step-1,Increment      1: Step Time =    1.000,"PART-1-1",           487,       10.9817,      -27.5238,            0.,NA,NA,"",   18.2529E-03,  -16.3934E-03,   8.02642E-03,   5.97129E-03
C:/temp/dataset/4/29_2.odb,Step-1,Increment      1: Step Time =    1.000,"PART-1-1",           488,       10.1507,      -19.6985,            0.,NA,NA,"",   231.649E-03,  -231.630E-03,   2.95859E-03,   3.87999E-03
C:/temp/dataset/4/29_2.odb,Step-1,Increment      1: Step Time =    1.000,"PART-1-1",           489,       9.14094,      -20.7396,            0.,NA,NA,"",   193.927E-03,  -191.939E-03,  -27.6917E-03,   4.67856E-03
C:/temp/dataset/4/29_2.odb,Step-1,Increment      1: Step Time =    1.000,"PART-1-1",           490,       11.1621,      -20.8614,            0.,NA,NA,"",   192.079E-03,  -189.070E-03,   33.8621E-03,   5.28367E-03
C:/temp/dataset/4/29_2.odb,Step-1,Increment      1: Step Time =    1.000,"PART-1-1",           491,       7.09922,      -20.6753,            0.,NA,NA,"",   218.861E-03,  -198.388E-03,  -92.4251E-03,   9.19389E-03
C:/temp/dataset/4/29_2.odb,Step-1,Increment      1: Step Time =    1.000,"PART-1-1",           492,            5.,       -20.625,            0.,NA,NA,"",   267.266E-03,  -210.296E-03,  -164.946E-03,   15.1494E-03
C:/temp/dataset/4/29_2.odb,Step-1,Increment      1: Step Time =    1.000,"PART-1-1",           493,       9.08758,      -14.0519,            0.,NA,NA,"",   492.121E-03,  -489.653E-03,  -49.2329E-03,   4.25904E-03
C:/temp/dataset/4/29_2.odb,Step-1,Increment      1: Step Time =    1.000,"PART-1-1",           494,       10.1099,      -15.1447,            0.,NA,NA,"",   435.239E-03,  -435.235E-03,  -1.67583E-03,   3.85324E-03
C:/temp/dataset/4/29_2.odb,Step-1,Increment      1: Step Time =    1.000,"PART-1-1",           495,       11.0794,      -13.9187,            0.,NA,NA,"",   500.389E-03,  -498.690E-03,   41.2065E-03,   4.27033E-03
C:/temp/dataset/4/29_2.odb,Step-1,Increment      1: Step Time =    1.000,"PART-1-1",           496,       10.0571,      -12.8260,            0.,NA,NA,"",   554.536E-03,  -554.494E-03,  -6.85028E-03,   3.85834E-03
C:/temp/dataset/4/29_2.odb,Step-1,Increment      1: Step Time =    1.000,"PART-1-1",           497,       9.02765,      -11.7712,            0.,NA,NA,"",   613.383E-03,  -610.587E-03,  -58.4977E-03,   4.14138E-03
C:/temp/dataset/4/29_2.odb,Step-1,Increment      1: Step Time =    1.000,"PART-1-1",           498,       11.0123,      -11.5393,            0.,NA,NA,"",   626.856E-03,  -625.693E-03,   38.1673E-03,   4.08013E-03
C:/temp/dataset/4/29_2.odb,Step-1,Increment      1: Step Time =    1.000,"PART-1-1",           499,       9.98284,      -10.4845,            0.,NA,NA,"",   683.010E-03,  -682.866E-03,  -14.0089E-03,   3.88787E-03
C:/temp/dataset/4/29_2.odb,Step-1,Increment      1: Step Time =    1.000,"PART-1-1",           500,       12.6190,       1.44886,            0.,NA,NA,"",       1.37974,      -1.37470,   117.836E-03,   384.461E-06
C:/temp/dataset/4/29_2.odb,Step-1,Increment      1: Step Time =    1.000,"PART-1-1",           501,       13.8500,   84.2405E-03,            0.,NA,NA,"",       1.31527,      -1.30170,   188.458E-03,   1.06067E-03
C:/temp/dataset/4/29_2.odb,Step-1,Increment      1: Step Time =    1.000,"PART-1-1",           502,           15.,          1.25,            0.,NA,NA,"",       1.39027,      -1.36754,   250.363E-03,   379.095E-06
C:/temp/dataset/4/29_2.odb,Step-1,Increment      1: Step Time =    1.000,"PART-1-1",           503,       10.0180,      -2.29938,            0.,NA,NA,"",       1.15760,      -1.15737,  -23.1141E-03,   1.48765E-03
C:/temp/dataset/4/29_2.odb,Step-1,Increment      1: Step Time =    1.000,"PART-1-1",           504,       9.13986,      -3.07696,            0.,NA,NA,"",       1.11292,      -1.11067,  -70.7616E-03,   1.64738E-03
C:/temp/dataset/4/29_2.odb,Step-1,Increment      1: Step Time =    1.000,"PART-1-1",           505,       10.6738,      -3.69229,            0.,NA,NA,"",       1.07885,      -1.07875,   14.4861E-03,   2.30974E-03
C:/temp/dataset/4/29_2.odb,Step-1,Increment      1: Step Time =    1.000,"PART-1-1",           506,       12.7589,       6.54544,            0.,NA,NA,"",       1.66454,      -1.66038,   117.635E-03,   74.3443E-06
C:/temp/dataset/4/29_2.odb,Step-1,Increment      1: Step Time =    1.000,"PART-1-1",           507,           15.,          6.25,            0.,NA,NA,"",       1.66528,      -1.64734,   243.795E-03,   93.3598E-06
C:/temp/dataset/4/29_2.odb,Step-1,Increment      1: Step Time =    1.000,"PART-1-1",           508,       13.9203,       7.65480,            0.,NA,NA,"",       1.73400,      -1.72452,   181.040E-03,   37.0937E-06
C:/temp/dataset/4/29_2.odb,Step-1,Increment      1: Step Time =    1.000,"PART-1-1",           509,       13.0275,       16.3263,            0.,NA,NA,"",       2.21319,      -2.21008,   117.266E-03,   338.381E-09
C:/temp/dataset/4/29_2.odb,Step-1,Increment      1: Step Time =    1.000,"PART-1-1",           510,       14.0150,       15.0581,            0.,NA,NA,"",       2.14755,      -2.14043,   174.717E-03,   743.019E-09
C:/temp/dataset/4/29_2.odb,Step-1,Increment      1: Step Time =    1.000,"PART-1-1",           511,           15.,         16.25,            0.,NA,NA,"",       2.22065,      -2.20890,   228.138E-03,   1.04996E-06
C:/temp/dataset/4/29_2.odb,Step-1,Increment      1: Step Time =    1.000,"PART-1-1",           512,       14.0124,       17.5182,            0.,NA,NA,"",       2.28494,      -2.27855,   170.687E-03,   489.333E-09
C:/temp/dataset/4/29_2.odb,Step-1,Increment      1: Step Time =    1.000,"PART-1-1",           513,       13.0175,       18.7421,            0.,NA,NA,"",       2.34841,      -2.34570,   112.895E-03,   357.569E-09
C:/temp/dataset/4/29_2.odb,Step-1,Increment      1: Step Time =    1.000,"PART-1-1",           514,           15.,         18.75,            0.,NA,NA,"",       2.35994,      -2.34927,   224.193E-03,   484.957E-09
C:/temp/dataset/4/29_2.odb,Step-1,Increment      1: Step Time =    1.000,"PART-1-1",           515,       14.0051,       19.9738,            0.,NA,NA,"",       2.42214,      -2.41641,   166.401E-03,   209.040E-09
C:/temp/dataset/4/29_2.odb,Step-1,Increment      1: Step Time =    1.000,"PART-1-1",           516,       5.97628,       21.7197,            0.,NA,NA,"",       2.51819,      -2.50177,  -287.133E-03,   97.7036E-09
C:/temp/dataset/4/29_2.odb,Step-1,Increment      1: Step Time =    1.000,"PART-1-1",           517,       6.92463,       22.7965,            0.,NA,NA,"",       2.57453,      -2.56372,  -235.586E-03,   93.5793E-09
C:/temp/dataset/4/29_2.odb,Step-1,Increment      1: Step Time =    1.000,"PART-1-1",           518,       5.94835,       23.7852,            0.,NA,NA,"",       2.63392,      -2.61769,  -291.959E-03,   31.0682E-09
C:/temp/dataset/4/29_2.odb,Step-1,Increment      1: Step Time =    1.000,"PART-1-1",           519,            5.,       22.7083,            0.,NA,NA,"",       2.57872,      -2.55574,  -343.506E-03,   64.9406E-09
C:/temp/dataset/4/29_2.odb,Step-1,Increment      1: Step Time =    1.000,"PART-1-1",           520,       13.8862,       24.9278,            0.,NA,NA,"",       2.69865,      -2.69437,   151.910E-03,   15.3289E-09
C:/temp/dataset/4/29_2.odb,Step-1,Increment      1: Step Time =    1.000,"PART-1-1",           521,           15.,         26.25,            0.,NA,NA,"",       2.77849,      -2.77036,   212.361E-03,   3.10672E-09
C:/temp/dataset/4/29_2.odb,Step-1,Increment      1: Step Time =    1.000,"PART-1-1",           522,       6.15342,       27.8650,            0.,NA,NA,"",       2.86150,      -2.84708,  -286.881E-03,   1.03919E-09
C:/temp/dataset/4/29_2.odb,Step-1,Increment      1: Step Time =    1.000,"PART-1-1",           523,       7.40342,       28.9067,            0.,NA,NA,"",       2.91572,      -2.90754,  -218.342E-03,   874.464E-12
C:/temp/dataset/4/29_2.odb,Step-1,Increment      1: Step Time =    1.000,"PART-1-1",           524,          6.25,           30.,            0.,NA,NA,"",       2.98074,      -2.96710,  -284.826E-03,   1.09860E-09
C:/temp/dataset/4/29_2.odb,Step-1,Increment      1: Step Time =    1.000,"PART-1-1",           525,            5.,       28.9583,            0.,NA,NA,"",       2.92805,      -2.90665,  -353.365E-03,   853.522E-12
C:/temp/dataset/4/29_2.odb,Step-1,Increment      1: Step Time =    1.000,"PART-1-1",           526,       7.11917,       26.8292,            0.,NA,NA,"",       2.79999,      -2.79045,  -231.025E-03,   8.79764E-09
C:/temp/dataset/4/29_2.odb,Step-1,Increment      1: Step Time =    1.000,"PART-1-1",           527,            5.,        26.875,            0.,NA,NA,"",       2.81156,      -2.78968,  -350.079E-03,   599.310E-12
C:/temp/dataset/4/29_2.odb,Step-1,Increment      1: Step Time =    1.000,"PART-1-1",           528,       5.96574,       25.8392,            0.,NA,NA,"",       2.74883,      -2.73304,  -294.223E-03,   7.07559E-09
C:/temp/dataset/4/29_2.odb,Step-1,Increment      1: Step Time =    1.000,"PART-1-1",           529,       8.59546,       27.4701,            0.,NA,NA,"",       2.83269,      -2.82876,  -149.149E-03,   6.84491E-09
C:/temp/dataset/4/29_2.odb,Step-1,Increment      1: Step Time =    1.000,"PART-1-1",           530,       9.94204,       28.5635,            0.,NA,NA,"",       2.89325,      -2.89227,  -75.2694E-03,   3.96250E-09
C:/temp/dataset/4/29_2.odb,Step-1,Increment      1: Step Time =    1.000,"PART-1-1",           531,          8.75,           30.,            0.,NA,NA,"",       2.97456,      -2.97105,  -144.463E-03,   2.31552E-09
C:/temp/dataset/4/29_2.odb,Step-1,Increment      1: Step Time =    1.000,"PART-1-1",           532,            5.,       24.7917,            0.,NA,NA,"",       2.69511,      -2.67271,  -346.793E-03,   12.8113E-09
C:/temp/dataset/4/29_2.odb,Step-1,Increment      1: Step Time =    1.000,"PART-1-1",           533,       6.91409,       24.8327,            0.,NA,NA,"",       2.68871,      -2.67803,  -239.390E-03,   32.8220E-09
C:/temp/dataset/4/29_2.odb,Step-1,Increment      1: Step Time =    1.000,"PART-1-1",           534,            5.,        20.625,            0.,NA,NA,"",       2.46238,      -2.43877,  -340.220E-03,   207.025E-09
C:/temp/dataset/4/29_2.odb,Step-1,Increment      1: Step Time =    1.000,"PART-1-1",           535,       5.99534,       19.6263,            0.,NA,NA,"",       2.40097,      -2.38427,  -282.760E-03,   240.867E-09
C:/temp/dataset/4/29_2.odb,Step-1,Increment      1: Step Time =    1.000,"PART-1-1",           536,       6.97162,       20.7210,            0.,NA,NA,"",       2.45802,      -2.44727,  -229.674E-03,   214.626E-09
C:/temp/dataset/4/29_2.odb,Step-1,Increment      1: Step Time =    1.000,"PART-1-1",           537,       9.90537,       10.7177,            0.,NA,NA,"",       1.89090,      -1.89026,  -49.1657E-03,   13.8369E-06
C:/temp/dataset/4/29_2.odb,Step-1,Increment      1: Step Time =    1.000,"PART-1-1",           538,       8.83179,       9.75083,            0.,NA,NA,"",       1.83747,      -1.83430,  -107.911E-03,   27.6360E-06
C:/temp/dataset/4/29_2.odb,Step-1,Increment      1: Step Time =    1.000,"PART-1-1",           539,       10.8380,       9.37550,            0.,NA,NA,"",       1.81636,      -1.81635,   5.33205E-03,   32.1662E-06
C:/temp/dataset/4/29_2.odb,Step-1,Increment      1: Step Time =    1.000,"PART-1-1",           540,       5.96737,       11.1773,            0.,NA,NA,"",       1.92900,      -1.90987,  -271.004E-03,   4.75240E-06
C:/temp/dataset/4/29_2.odb,Step-1,Increment      1: Step Time =    1.000,"PART-1-1",           541,       6.95908,       12.1740,            0.,NA,NA,"",       1.97931,      -1.96739,  -216.896E-03,   5.63177E-06
C:/temp/dataset/4/29_2.odb,Step-1,Increment      1: Step Time =    1.000,"PART-1-1",           542,            5.,       12.2917,            0.,NA,NA,"",       1.99786,      -1.97090,  -327.067E-03,   943.439E-09
C:/temp/dataset/4/29_2.odb,Step-1,Increment      1: Step Time =    1.000,"PART-1-1",           543,       6.89189,       10.0466,            0.,NA,NA,"",       1.86060,      -1.84786,  -217.317E-03,   18.3394E-06
C:/temp/dataset/4/29_2.odb,Step-1,Increment      1: Step Time =    1.000,"PART-1-1",           544,            5.,       10.2083,            0.,NA,NA,"",       1.88202,      -1.85396,  -323.786E-03,   7.33440E-06
C:/temp/dataset/4/29_2.odb,Step-1,Increment      1: Step Time =    1.000,"PART-1-1",           545,  -883.251E-03,       2.97832,            0.,NA,NA,"",       1.57685,      -1.43823,  -646.510E-03,   31.7788E-06
C:/temp/dataset/4/29_2.odb,Step-1,Increment      1: Step Time =    1.000,"PART-1-1",           546,         -1.25,            5.,            0.,NA,NA,"",       1.69099,      -1.55234,  -670.591E-03,   20.8611E-06
C:/temp/dataset/4/29_2.odb,Step-1,Increment      1: Step Time =    1.000,"PART-1-1",           547,      -2.28350,       3.97568,            0.,NA,NA,"",       1.66046,      -1.49256,  -727.596E-03,   11.2437E-06
C:/temp/dataset/4/29_2.odb,Step-1,Increment      1: Step Time =    1.000,"PART-1-1",           548,      -3.12559,       2.92107,            0.,NA,NA,"",       1.62709,      -1.43137,  -773.693E-03,   12.9477E-06
C:/temp/dataset/4/29_2.odb,Step-1,Increment      1: Step Time =    1.000,"PART-1-1",           549,         -3.75,            5.,            0.,NA,NA,"",       1.74856,      -1.54833,  -812.482E-03,   4.26412E-06
C:/temp/dataset/4/29_2.odb,Step-1,Increment      1: Step Time =    1.000,"PART-1-1",           550,      -7.01026,       10.3490,            0.,NA,NA,"",       2.10291,      -1.84661,      -1.00611,   63.5806E-09
C:/temp/dataset/4/29_2.odb,Step-1,Increment      1: Step Time =    1.000,"PART-1-1",           551,           -5.,       10.2083,            0.,NA,NA,"",       2.04641,      -1.84186,  -891.815E-03,   46.0324E-09
C:/temp/dataset/4/29_2.odb,Step-1,Increment      1: Step Time =    1.000,"PART-1-1",           552,      -6.00030,       11.3233,            0.,NA,NA,"",       2.12758,      -1.90352,  -950.374E-03,   19.9006E-09
C:/temp/dataset/4/29_2.odb,Step-1,Increment      1: Step Time =    1.000,"PART-1-1",           553,      -6.90277,       16.5792,            0.,NA,NA,"",       2.42107,      -2.20031,      -1.01005,   1.05241E-09
C:/temp/dataset/4/29_2.odb,Step-1,Increment      1: Step Time =    1.000,"PART-1-1",           554,           -5.,       16.4583,            0.,NA,NA,"",       2.37447,      -2.19652,  -901.885E-03,   3.56920E-09
C:/temp/dataset/4/29_2.odb,Step-1,Increment      1: Step Time =    1.000,"PART-1-1",           555,      -5.93592,       17.5473,            0.,NA,NA,"",       2.45123,      -2.25680,  -956.749E-03,   1.79558E-09
C:/temp/dataset/4/29_2.odb,Step-1,Increment      1: Step Time =    1.000,"PART-1-1",           556,      -5.96041,       23.6583,            0.,NA,NA,"",       2.77766,      -2.60354,  -967.985E-03,   164.992E-12
C:/temp/dataset/4/29_2.odb,Step-1,Increment      1: Step Time =    1.000,"PART-1-1",           557,           -5.,       24.7917,            0.,NA,NA,"",       2.82196,      -2.66939,  -915.313E-03,   102.781E-12
C:/temp/dataset/4/29_2.odb,Step-1,Increment      1: Step Time =    1.000,"PART-1-1",           558,      -7.48847,       28.8776,            0.,NA,NA,"",       3.08613,      -2.89724,      -1.06310,   40.0935E-12
C:/temp/dataset/4/29_2.odb,Step-1,Increment      1: Step Time =    1.000,"PART-1-1",           559,           -5.,       28.9583,            0.,NA,NA,"",       3.04861,      -2.90583,  -922.027E-03,   40.0670E-12
C:/temp/dataset/4/29_2.odb,Step-1,Increment      1: Step Time =    1.000,"PART-1-1",           560,         -6.25,           30.,            0.,NA,NA,"",       3.12542,      -2.96293,  -994.636E-03,   33.2832E-12
C:/temp/dataset/4/29_2.odb,Step-1,Increment      1: Step Time =    1.000,"PART-1-1",           561,       12.9634,       11.4929,            0.,NA,NA,"",       1.94237,      -1.93858,   121.297E-03,   8.91503E-06
C:/temp/dataset/4/29_2.odb,Step-1,Increment      1: Step Time =    1.000,"PART-1-1",           562,       13.9657,       10.1417,            0.,NA,NA,"",       1.87293,      -1.86428,   179.697E-03,   9.21036E-06
C:/temp/dataset/4/29_2.odb,Step-1,Increment      1: Step Time =    1.000,"PART-1-1",           563,           15.,         11.25,            0.,NA,NA,"",       1.94255,      -1.92816,   236.031E-03,   3.47783E-06
C:/temp/dataset/4/29_2.odb,Step-1,Increment      1: Step Time =    1.000,"PART-1-1",           564,       13.9978,       12.6011,            0.,NA,NA,"",       2.01031,      -2.00245,   177.623E-03,   1.48445E-06
C:/temp/dataset/4/29_2.odb,Step-1,Increment      1: Step Time =    1.000,"PART-1-1",           565,       9.13480,      -18.5479,            0.,NA,NA,"",   280.451E-03,  -278.343E-03,  -34.3187E-03,   4.50796E-03
C:/temp/dataset/4/29_2.odb,Step-1,Increment      1: Step Time =    1.000,"PART-1-1",           566,       11.1537,      -18.5886,            0.,NA,NA,"",   281.118E-03,  -278.429E-03,   38.7881E-03,   4.91558E-03
C:/temp/dataset/4/29_2.odb,Step-1,Increment      1: Step Time =    1.000,"PART-1-1",           567,       10.1377,      -17.4381,            0.,NA,NA,"",   326.980E-03,  -326.977E-03,   1.38942E-03,   3.86306E-03
C:/temp/dataset/4/29_2.odb,Step-1,Increment      1: Step Time =    1.000,"PART-1-1",           568,      -8.81573,       27.5627,            0.,NA,NA,"",       3.04078,      -2.82049,      -1.13630,   55.1669E-12
C:/temp/dataset/4/29_2.odb,Step-1,Increment      1: Step Time =    1.000,"PART-1-1",           569,         -8.75,           30.,            0.,NA,NA,"",       3.16966,      -2.95890,      -1.13650,   34.0928E-12
C:/temp/dataset/4/29_2.odb,Step-1,Increment      1: Step Time =    1.000,"PART-1-1",           570,            5.,      -24.7917,            0.,NA,NA,"",   132.621E-03,  -87.7416E-03,  -99.4475E-03,   18.6460E-03
C:/temp/dataset/4/29_2.odb,Step-1,Increment      1: Step Time =    1.000,"PART-1-1",           571,       6.09200,      -25.8775,            0.,NA,NA,"",   82.5062E-03,  -56.5621E-03,  -60.0667E-03,   15.5384E-03
C:/temp/dataset/4/29_2.odb,Step-1,Increment      1: Step Time =    1.000,"PART-1-1",           572,       7.15121,      -24.8757,            0.,NA,NA,"",   88.8131E-03,  -71.9062E-03,  -52.1274E-03,   11.2549E-03
C:/temp/dataset/4/29_2.odb,Step-1,Increment      1: Step Time =    1.000,"PART-1-1",           573,       13.1040,      -21.0477,            0.,NA,NA,"",   210.729E-03,  -189.227E-03,   92.7350E-03,   10.0290E-03
C:/temp/dataset/4/29_2.odb,Step-1,Increment      1: Step Time =    1.000,"PART-1-1",           574,       14.0487,      -22.3697,            0.,NA,NA,"",   185.051E-03,  -150.144E-03,   108.169E-03,   13.7218E-03
C:/temp/dataset/4/29_2.odb,Step-1,Increment      1: Step Time =    1.000,"PART-1-1",           575,           15.,        -21.25,            0.,NA,NA,"",   246.596E-03,  -193.953E-03,   152.289E-03,   15.7972E-03
C:/temp/dataset/4/29_2.odb,Step-1,Increment      1: Step Time =    1.000,"PART-1-1",           576,            5.,       -26.875,            0.,NA,NA,"",   78.9358E-03,  -47.5247E-03,  -63.0259E-03,   20.6584E-03
C:/temp/dataset/4/29_2.odb,Step-1,Increment      1: Step Time =    1.000,"PART-1-1",           577,       12.8133,      -6.31290,            0.,NA,NA,"",   941.300E-03,  -931.907E-03,   132.644E-03,   3.76927E-03
C:/temp/dataset/4/29_2.odb,Step-1,Increment      1: Step Time =    1.000,"PART-1-1",           578,       13.9319,      -7.55671,            0.,NA,NA,"",   883.595E-03,  -862.084E-03,   193.781E-03,   3.77146E-03
C:/temp/dataset/4/29_2.odb,Step-1,Increment      1: Step Time =    1.000,"PART-1-1",           579,           15.,         -6.25,            0.,NA,NA,"",   978.770E-03,  -944.513E-03,   256.682E-03,   3.16068E-03
C:/temp/dataset/4/29_2.odb,Step-1,Increment      1: Step Time =    1.000,"PART-1-1",           580,            5.,       18.5417,            0.,NA,NA,"",       2.34612,      -2.32180,  -336.933E-03,   523.338E-09
C:/temp/dataset/4/29_2.odb,Step-1,Increment      1: Step Time =    1.000,"PART-1-1",           581,       6.00122,       17.5195,            0.,NA,NA,"",       2.28311,      -2.26599,  -279.107E-03,   487.314E-09
C:/temp/dataset/4/29_2.odb,Step-1,Increment      1: Step Time =    1.000,"PART-1-1",           582,       6.99656,       18.6041,            0.,NA,NA,"",       2.33929,      -2.32845,  -224.935E-03,   375.318E-09
C:/temp/dataset/4/29_2.odb,Step-1,Increment      1: Step Time =    1.000,"PART-1-1",           583,       12.8545,       23.6160,            0.,NA,NA,"",       2.62085,      -2.61909,   96.0549E-03,   67.2787E-09
C:/temp/dataset/4/29_2.odb,Step-1,Increment      1: Step Time =    1.000,"PART-1-1",           584,       13.9683,       22.4382,            0.,NA,NA,"",       2.55975,      -2.55472,   160.449E-03,   66.5743E-09
C:/temp/dataset/4/29_2.odb,Step-1,Increment      1: Step Time =    1.000,"PART-1-1",           585,           15.,         23.75,            0.,NA,NA,"",       2.63888,      -2.63000,   216.305E-03,   35.0179E-09
C:/temp/dataset/4/29_2.odb,Step-1,Increment      1: Step Time =    1.000,"PART-1-1",           586,            5.,       16.4583,            0.,NA,NA,"",       2.22993,      -2.20483,  -333.645E-03,   1.01124E-06
C:/temp/dataset/4/29_2.odb,Step-1,Increment      1: Step Time =    1.000,"PART-1-1",           587,       7.00480,       16.4638,            0.,NA,NA,"",       2.21934,      -2.20830,  -221.096E-03,   364.745E-09
C:/temp/dataset/4/29_2.odb,Step-1,Increment      1: Step Time =    1.000,"PART-1-1",           588,       12.9734,       21.1620,            0.,NA,NA,"",       2.48378,      -2.48150,   106.602E-03,   186.239E-09
C:/temp/dataset/4/29_2.odb,Step-1,Increment      1: Step Time =    1.000,"PART-1-1",           589,           15.,         21.25,            0.,NA,NA,"",       2.49936,      -2.48963,   220.248E-03,   156.729E-09
C:/temp/dataset/4/29_2.odb,Step-1,Increment      1: Step Time =    1.000,"PART-1-1",           590,            5.,       6.04167,            0.,NA,NA,"",       1.65093,      -1.62014,  -317.375E-03,   182.912E-06
C:/temp/dataset/4/29_2.odb,Step-1,Increment      1: Step Time =    1.000,"PART-1-1",           591,       5.70418,       5.21013,            0.,NA,NA,"",       1.59876,      -1.57467,  -276.542E-03,   185.809E-06
C:/temp/dataset/4/29_2.odb,Step-1,Increment      1: Step Time =    1.000,"PART-1-1",           592,       6.54256,       6.20387,            0.,NA,NA,"",       1.64795,      -1.63170,  -230.913E-03,   99.8975E-06
C:/temp/dataset/4/29_2.odb,Step-1,Increment      1: Step Time =    1.000,"PART-1-1",           593,       7.80464,       8.81181,            0.,NA,NA,"",       1.78754,      -1.77999,  -164.104E-03,   34.2294E-06
C:/temp/dataset/4/29_2.odb,Step-1,Increment      1: Step Time =    1.000,"PART-1-1",           594,       7.55468,       6.70991,            0.,NA,NA,"",       1.67082,      -1.66165,  -174.796E-03,   81.1019E-06
C:/temp/dataset/4/29_2.odb,Step-1,Increment      1: Step Time =    1.000,"PART-1-1",           595,           -5.,       12.2917,            0.,NA,NA,"",       2.15482,      -1.96008,  -895.172E-03,   7.06551E-09
C:/temp/dataset/4/29_2.odb,Step-1,Increment      1: Step Time =    1.000,"PART-1-1",           596,      -13.0551,       11.1433,            0.,NA,NA,"",       2.31631,      -1.88194,      -1.35041,   37.2762E-09
C:/temp/dataset/4/29_2.odb,Step-1,Increment      1: Step Time =    1.000,"PART-1-1",           597,          -15.,       11.4063,            0.,NA,NA,"",       2.39192,      -1.89373,      -1.46120,   11.7042E-09
C:/temp/dataset/4/29_2.odb,Step-1,Increment      1: Step Time =    1.000,"PART-1-1",           598,           -5.,       18.5417,            0.,NA,NA,"",       2.48545,      -2.31474,  -905.242E-03,   1.96925E-09
C:/temp/dataset/4/29_2.odb,Step-1,Increment      1: Step Time =    1.000,"PART-1-1",           599,      -6.83195,       18.5917,            0.,NA,NA,"",       2.52510,      -2.31463,      -1.00928,   1.26882E-09
C:/temp/dataset/4/29_2.odb,Step-1,Increment      1: Step Time =    1.000,"PART-1-1",           600,      -12.9744,       15.4368,            0.,NA,NA,"",       2.51963,      -2.12570,      -1.35275,   1.03316E-09
C:/temp/dataset/4/29_2.odb,Step-1,Increment      1: Step Time =    1.000,"PART-1-1",           601,      -13.9736,       16.6988,            0.,NA,NA,"",       2.61025,      -2.19571,      -1.41148,   1.84467E-09
C:/temp/dataset/4/29_2.odb,Step-1,Increment      1: Step Time =    1.000,"PART-1-1",           602,          -15.,       15.7813,            0.,NA,NA,"",       2.59689,      -2.14199,      -1.46824,   3.78839E-09
C:/temp/dataset/4/29_2.odb,Step-1,Increment      1: Step Time =    1.000,"PART-1-1",           603,      -6.85389,       22.5676,            0.,NA,NA,"",       2.73620,      -2.54021,      -1.01693,   392.803E-12
C:/temp/dataset/4/29_2.odb,Step-1,Increment      1: Step Time =    1.000,"PART-1-1",           604,           -5.,       22.7083,            0.,NA,NA,"",       2.70927,      -2.55118,  -911.956E-03,   309.656E-12
C:/temp/dataset/4/29_2.odb,Step-1,Increment      1: Step Time =    1.000,"PART-1-1",           605,      -7.62380,       21.5126,            0.,NA,NA,"",       2.69578,      -2.47910,      -1.05892,   536.583E-12
C:/temp/dataset/4/29_2.odb,Step-1,Increment      1: Step Time =    1.000,"PART-1-1",           606,      -11.2433,       25.0031,            0.,NA,NA,"",       2.95783,      -2.67133,      -1.26993,   157.767E-12
C:/temp/dataset/4/29_2.odb,Step-1,Increment      1: Step Time =    1.000,"PART-1-1",           607,      -10.1220,       24.6816,            0.,NA,NA,"",       2.91588,      -2.65490,      -1.20578,   168.999E-12
C:/temp/dataset/4/29_2.odb,Step-1,Increment      1: Step Time =    1.000,"PART-1-1",           608,      -9.68436,       26.2404,            0.,NA,NA,"",       2.98838,      -2.74405,      -1.18346,   100.996E-12
C:/temp/dataset/4/29_2.odb,Step-1,Increment      1: Step Time =    1.000,"PART-1-1",           609,      -10.8057,       26.5619,            0.,NA,NA,"",       3.02933,      -2.76049,      -1.24761,   76.2584E-12
C:/temp/dataset/4/29_2.odb,Step-1,Increment      1: Step Time =    1.000,"PART-1-1",           610,            5.,      -6.04167,            0.,NA,NA,"",   979.212E-03,  -933.682E-03,  -295.115E-03,   2.15286E-03
C:/temp/dataset/4/29_2.odb,Step-1,Increment      1: Step Time =    1.000,"PART-1-1",           611,       5.81487,      -6.90448,            0.,NA,NA,"",   917.981E-03,  -884.551E-03,  -245.475E-03,   2.55466E-03
C:/temp/dataset/4/29_2.odb,Step-1,Increment      1: Step Time =    1.000,"PART-1-1",           612,       6.44107,      -5.66337,            0.,NA,NA,"",   980.539E-03,  -956.775E-03,  -214.566E-03,   2.10873E-03
C:/temp/dataset/4/29_2.odb,Step-1,Increment      1: Step Time =    1.000,"PART-1-1",           613,       5.62621,      -4.80056,            0.,NA,NA,"",       1.03983,      -1.00601,  -263.060E-03,   1.24554E-03
C:/temp/dataset/4/29_2.odb,Step-1,Increment      1: Step Time =    1.000,"PART-1-1",           614,            5.,        -8.125,            0.,NA,NA,"",   863.425E-03,  -814.611E-03,  -286.202E-03,   3.76807E-03
C:/temp/dataset/4/29_2.odb,Step-1,Increment      1: Step Time =    1.000,"PART-1-1",           615,       8.00489,       17.5473,            0.,NA,NA,"",       2.27682,      -2.27071,  -166.655E-03,   407.845E-09
C:/temp/dataset/4/29_2.odb,Step-1,Increment      1: Step Time =    1.000,"PART-1-1",           616,       8.00828,       15.3576,            0.,NA,NA,"",       2.15395,      -2.14777,  -163.011E-03,   378.723E-09
C:/temp/dataset/4/29_2.odb,Step-1,Increment      1: Step Time =    1.000,"PART-1-1",           617,       11.1265,      -16.2686,            0.,NA,NA,"",   384.600E-03,  -382.369E-03,   41.3658E-03,   4.57122E-03
C:/temp/dataset/4/29_2.odb,Step-1,Increment      1: Step Time =    1.000,"PART-1-1",           618,       9.12111,      -16.3141,            0.,NA,NA,"",   380.454E-03,  -378.205E-03,  -41.3027E-03,   4.37031E-03
C:/temp/dataset/4/29_2.odb,Step-1,Increment      1: Step Time =    1.000,"PART-1-1",           619,      -9.91602,       15.9767,            0.,NA,NA,"",       2.46244,      -2.16127,      -1.18007,   1.61397E-09
C:/temp/dataset/4/29_2.odb,Step-1,Increment      1: Step Time =    1.000,"PART-1-1",           620,      -10.9598,       15.0860,            0.,NA,NA,"",       2.44548,      -2.10905,      -1.23786,   3.90516E-09
C:/temp/dataset/4/29_2.odb,Step-1,Increment      1: Step Time =    1.000,"PART-1-1",           621,      -8.93702,       14.7598,            0.,NA,NA,"",       2.37573,      -2.09379,      -1.12255,   5.09652E-09
C:/temp/dataset/4/29_2.odb,Step-1,Increment      1: Step Time =    1.000,"PART-1-1",           622,      -13.0880,       4.79273,            0.,NA,NA,"",       2.02882,      -1.52152,      -1.34204,   230.328E-09
C:/temp/dataset/4/29_2.odb,Step-1,Increment      1: Step Time =    1.000,"PART-1-1",           623,          -15.,       4.84375,            0.,NA,NA,"",       2.10209,      -1.52134,      -1.45062,   335.254E-09
C:/temp/dataset/4/29_2.odb,Step-1,Increment      1: Step Time =    1.000,"PART-1-1",           624,           -5.,       6.04167,            0.,NA,NA,"",       1.83325,      -1.60543,  -885.100E-03,   979.254E-09
C:/temp/dataset/4/29_2.odb,Step-1,Increment      1: Step Time =    1.000,"PART-1-1",           625,      -7.12843,       5.83601,            0.,NA,NA,"",       1.88156,      -1.59033,      -1.00555,   500.346E-09
C:/temp/dataset/4/29_2.odb,Step-1,Increment      1: Step Time =    1.000,"PART-1-1",           626,       12.9112,      -8.87192,            0.,NA,NA,"",   793.285E-03,  -781.420E-03,   136.693E-03,   4.02726E-03
C:/temp/dataset/4/29_2.odb,Step-1,Increment      1: Step Time =    1.000,"PART-1-1",           627,           15.,         -8.75,            0.,NA,NA,"",   834.465E-03,  -795.206E-03,   252.941E-03,   4.85233E-03
C:/temp/dataset/4/29_2.odb,Step-1,Increment      1: Step Time =    1.000,"PART-1-1",           628,       13.0740,      -16.2399,            0.,NA,NA,"",   408.740E-03,  -389.642E-03,   123.482E-03,   7.38452E-03
C:/temp/dataset/4/29_2.odb,Step-1,Increment      1: Step Time =    1.000,"PART-1-1",           629,           15.,        -16.25,            0.,NA,NA,"",   450.354E-03,  -398.949E-03,   208.946E-03,   11.3085E-03
C:/temp/dataset/4/29_2.odb,Step-1,Increment      1: Step Time =    1.000,"PART-1-1",           630,       13.0128,       13.9092,            0.,NA,NA,"",       2.07782,      -2.07434,   120.257E-03,   1.53778E-06
C:/temp/dataset/4/29_2.odb,Step-1,Increment      1: Step Time =    1.000,"PART-1-1",           631,           15.,         13.75,            0.,NA,NA,"",       2.08152,      -2.06854,   232.085E-03,   1.20577E-06
C:/temp/dataset/4/29_2.odb,Step-1,Increment      1: Step Time =    1.000,"PART-1-1",           632,       10.9505,       11.7339,            0.,NA,NA,"",       1.94897,      -1.94895,   7.90147E-03,   10.2263E-06
C:/temp/dataset/4/29_2.odb,Step-1,Increment      1: Step Time =    1.000,"PART-1-1",           633,       9.98883,       12.9959,            0.,NA,NA,"",       2.01887,      -2.01830,  -48.0861E-03,   3.46430E-06
C:/temp/dataset/4/29_2.odb,Step-1,Increment      1: Step Time =    1.000,"PART-1-1",           634,       8.94372,       11.9797,            0.,NA,NA,"",       1.96242,      -1.95960,  -105.159E-03,   8.78726E-06
C:/temp/dataset/4/29_2.odb,Step-1,Increment      1: Step Time =    1.000,"PART-1-1",           635,      -13.9153,       18.9000,            0.,NA,NA,"",       2.71637,      -2.32071,      -1.41172,   1.06647E-09
C:/temp/dataset/4/29_2.odb,Step-1,Increment      1: Step Time =    1.000,"PART-1-1",           636,      -12.6393,       19.9841,            0.,NA,NA,"",       2.73555,      -2.38428,      -1.34106,   956.790E-12
C:/temp/dataset/4/29_2.odb,Step-1,Increment      1: Step Time =    1.000,"PART-1-1",           637,          -15.,       20.1563,            0.,NA,NA,"",       2.80887,      -2.39024,      -1.47529,   1.00054E-09
C:/temp/dataset/4/29_2.odb,Step-1,Increment      1: Step Time =    1.000,"PART-1-1",           638,       8.12191,      -21.7795,            0.,NA,NA,"",   165.762E-03,  -156.991E-03,  -53.2053E-03,   6.87880E-03
C:/temp/dataset/4/29_2.odb,Step-1,Increment      1: Step Time =    1.000,"PART-1-1",           639,       8.12482,      -23.8590,            0.,NA,NA,"",   102.260E-03,  -94.0163E-03,  -40.2259E-03,   7.48648E-03
C:/temp/dataset/4/29_2.odb,Step-1,Increment      1: Step Time =    1.000,"PART-1-1",           640,       8.11825,      -19.6354,            0.,NA,NA,"",   244.067E-03,  -235.069E-03,  -65.6595E-03,   6.26143E-03
C:/temp/dataset/4/29_2.odb,Step-1,Increment      1: Step Time =    1.000,"PART-1-1",           641,       8.10952,      -17.4508,            0.,NA,NA,"",   335.847E-03,  -326.745E-03,  -77.6603E-03,   5.68379E-03
C:/temp/dataset/4/29_2.odb,Step-1,Increment      1: Step Time =    1.000,"PART-1-1",           642,       7.85781,       23.9076,            0.,NA,NA,"",       2.63408,      -2.62758,  -184.945E-03,   51.4721E-09
C:/temp/dataset/4/29_2.odb,Step-1,Increment      1: Step Time =    1.000,"PART-1-1",           643,       7.94870,       21.8524,            0.,NA,NA,"",       2.51853,      -2.51233,  -176.600E-03,   130.058E-09
C:/temp/dataset/4/29_2.odb,Step-1,Increment      1: Step Time =    1.000,"PART-1-1",           644,       4.21929,       2.98066,            0.,NA,NA,"",       1.48995,      -1.44656,  -356.974E-03,   68.0202E-06
C:/temp/dataset/4/29_2.odb,Step-1,Increment      1: Step Time =    1.000,"PART-1-1",           645,       5.32392,       3.96649,            0.,NA,NA,"",       1.53287,      -1.50401,  -296.005E-03,   107.420E-06
C:/temp/dataset/4/29_2.odb,Step-1,Increment      1: Step Time =    1.000,"PART-1-1",           646,          3.75,            5.,            0.,NA,NA,"",       1.60729,      -1.56004,  -386.843E-03,   198.268E-06
C:/temp/dataset/4/29_2.odb,Step-1,Increment      1: Step Time =    1.000,"PART-1-1",           647,       12.8859,       9.04653,            0.,NA,NA,"",       1.80512,      -1.80107,   120.809E-03,   32.6442E-06
C:/temp/dataset/4/29_2.odb,Step-1,Increment      1: Step Time =    1.000,"PART-1-1",           648,           15.,          8.75,            0.,NA,NA,"",       1.80379,      -1.78776,   239.959E-03,   23.6532E-06
C:/temp/dataset/4/29_2.odb,Step-1,Increment      1: Step Time =    1.000,"PART-1-1",           649,      -8.02807,       9.41948,            0.,NA,NA,"",       2.08343,      -1.79222,      -1.06237,   114.439E-09
C:/temp/dataset/4/29_2.odb,Step-1,Increment      1: Step Time =    1.000,"PART-1-1",           650,      -8.84347,       16.8085,            0.,NA,NA,"",       2.47802,      -2.21020,      -1.12055,   1.27778E-09
C:/temp/dataset/4/29_2.odb,Step-1,Increment      1: Step Time =    1.000,"PART-1-1",           651,      -9.78583,       18.0165,            0.,NA,NA,"",       2.56294,      -2.27723,      -1.17597,   1.33034E-09
C:/temp/dataset/4/29_2.odb,Step-1,Increment      1: Step Time =    1.000,"PART-1-1",           652,          -15.,       17.9688,            0.,NA,NA,"",       2.70211,      -2.26612,      -1.47177,   2.27854E-09
C:/temp/dataset/4/29_2.odb,Step-1,Increment      1: Step Time =    1.000,"PART-1-1",           653,          -15.,       24.5313,            0.,NA,NA,"",       3.02639,      -2.63850,      -1.48234,   77.4817E-12
C:/temp/dataset/4/29_2.odb,Step-1,Increment      1: Step Time =    1.000,"PART-1-1",           654,      -12.9952,       24.7258,            0.,NA,NA,"",       2.98515,      -2.65278,      -1.36889,   144.000E-12
C:/temp/dataset/4/29_2.odb,Step-1,Increment      1: Step Time =    1.000,"PART-1-1",           655,      -11.4985,       21.8877,            0.,NA,NA,"",       2.80313,      -2.49414,      -1.27939,   505.655E-12
C:/temp/dataset/4/29_2.odb,Step-1,Increment      1: Step Time =    1.000,"PART-1-1",           656,      -11.4490,       20.6565,            0.,NA,NA,"",       2.73899,      -2.42435,      -1.27460,   765.205E-12
C:/temp/dataset/4/29_2.odb,Step-1,Increment      1: Step Time =    1.000,"PART-1-1",           657,      -10.1446,       20.7260,            0.,NA,NA,"",       2.71081,      -2.43040,      -1.20069,   814.640E-12
C:/temp/dataset/4/29_2.odb,Step-1,Increment      1: Step Time =    1.000,"PART-1-1",           658,      -7.69218,       19.6350,            0.,NA,NA,"",       2.59838,      -2.37244,      -1.05977,   952.751E-12
C:/temp/dataset/4/29_2.odb,Step-1,Increment      1: Step Time =    1.000,"PART-1-1",           659,      -8.68744,       18.7463,            0.,NA,NA,"",       2.57432,      -2.32041,      -1.11482,   1.23290E-09
C:/temp/dataset/4/29_2.odb,Step-1,Increment      1: Step Time =    1.000,"PART-1-1",           660,      -7.82721,       17.7030,            0.,NA,NA,"",       2.50042,      -2.26259,      -1.06432,   1.24613E-09
C:/temp/dataset/4/29_2.odb,Step-1,Increment      1: Step Time =    1.000,"PART-1-1",           661,      -9.52114,       19.8817,            0.,NA,NA,"",       2.65251,      -2.38349,      -1.16395,   964.445E-12
C:/temp/dataset/4/29_2.odb,Step-1,Increment      1: Step Time =    1.000,"PART-1-1",           662,      -10.6195,       19.1519,            0.,NA,NA,"",       2.64158,      -2.34031,      -1.22511,   1.18665E-09
C:/temp/dataset/4/29_2.odb,Step-1,Increment      1: Step Time =    1.000,"PART-1-1",           663,      -12.1485,       3.78191,            0.,NA,NA,"",       1.95060,      -1.46568,      -1.28710,   230.753E-09
C:/temp/dataset/4/29_2.odb,Step-1,Increment      1: Step Time =    1.000,"PART-1-1",           664,      -10.9850,       2.86362,            0.,NA,NA,"",       1.86840,      -1.41544,      -1.21960,   214.843E-09
C:/temp/dataset/4/29_2.odb,Step-1,Increment      1: Step Time =    1.000,"PART-1-1",           665,      -9.06958,       8.49577,            0.,NA,NA,"",       2.06772,      -1.73813,      -1.11998,   170.165E-09
C:/temp/dataset/4/29_2.odb,Step-1,Increment      1: Step Time =    1.000,"PART-1-1",           666,      -8.08215,       7.28595,            0.,NA,NA,"",       1.97998,      -1.67107,      -1.06200,   270.632E-09
C:/temp/dataset/4/29_2.odb,Step-1,Increment      1: Step Time =    1.000,"PART-1-1",           667,      -10.1292,       7.60955,            0.,NA,NA,"",       2.05726,      -1.68613,      -1.17868,   208.255E-09
C:/temp/dataset/4/29_2.odb,Step-1,Increment      1: Step Time =    1.000,"PART-1-1",           668,      -11.2104,       6.77234,            0.,NA,NA,"",       2.05273,      -1.63688,      -1.23869,   218.178E-09
C:/temp/dataset/4/29_2.odb,Step-1,Increment      1: Step Time =    1.000,"PART-1-1",           669,      -10.2942,       5.63122,            0.,NA,NA,"",       1.96980,      -1.57360,      -1.18486,   286.852E-09
C:/temp/dataset/4/29_2.odb,Step-1,Increment      1: Step Time =    1.000,"PART-1-1",           670,      -9.21309,       6.46842,            0.,NA,NA,"",       1.97458,      -1.62285,      -1.12486,   314.958E-09
C:/temp/dataset/4/29_2.odb,Step-1,Increment      1: Step Time =    1.000,"PART-1-1",           671,        -11.25,           -5.,            0.,NA,NA,"",       1.55942,  -968.803E-03,      -1.22197,   429.884E-09
C:/temp/dataset/4/29_2.odb,Step-1,Increment      1: Step Time =    1.000,"PART-1-1",           672,      -10.0273,      -3.93877,            0.,NA,NA,"",       1.54769,      -1.03099,      -1.15429,   473.998E-09
C:/temp/dataset/4/29_2.odb,Step-1,Increment      1: Step Time =    1.000,"PART-1-1",           673,         -8.75,           -5.,            0.,NA,NA,"",       1.45363,  -972.833E-03,      -1.08011,   1.02360E-06
C:/temp/dataset/4/29_2.odb,Step-1,Increment      1: Step Time =    1.000,"PART-1-1",           674,      -7.59562,      -4.02918,            0.,NA,NA,"",       1.44674,      -1.02978,      -1.01617,   683.346E-09
C:/temp/dataset/4/29_2.odb,Step-1,Increment      1: Step Time =    1.000,"PART-1-1",           675,      -8.87289,      -2.96795,            0.,NA,NA,"",       1.54029,      -1.08794,      -1.09035,   164.216E-09
C:/temp/dataset/4/29_2.odb,Step-1,Increment      1: Step Time =    1.000,"PART-1-1",           676,         -6.25,           -5.,            0.,NA,NA,"",       1.35447,  -976.864E-03,  -938.253E-03,   672.823E-09
C:/temp/dataset/4/29_2.odb,Step-1,Increment      1: Step Time =    1.000,"PART-1-1",           677,      -5.03874,      -3.83161,            0.,NA,NA,"",       1.36074,      -1.04511,  -871.409E-03,   2.10267E-06
C:/temp/dataset/4/29_2.odb,Step-1,Increment      1: Step Time =    1.000,"PART-1-1",           678,      -6.38435,      -2.86079,            0.,NA,NA,"",       1.45151,      -1.09803,  -949.322E-03,   2.00130E-06
C:/temp/dataset/4/29_2.odb,Step-1,Increment      1: Step Time =    1.000,"PART-1-1",           679,      -8.31216,       1.98044,            0.,NA,NA,"",       1.73590,      -1.36963,      -1.06651,   590.903E-09
C:/temp/dataset/4/29_2.odb,Step-1,Increment      1: Step Time =    1.000,"PART-1-1",           680,      -6.89941,       1.67561,            0.,NA,NA,"",       1.67537,      -1.35461,  -985.850E-03,   1.41134E-06
C:/temp/dataset/4/29_2.odb,Step-1,Increment      1: Step Time =    1.000,"PART-1-1",           681,      -8.02347,       3.70061,            0.,NA,NA,"",       1.80631,      -1.46771,      -1.05290,   347.581E-09
C:/temp/dataset/4/29_2.odb,Step-1,Increment      1: Step Time =    1.000,"PART-1-1",           682,      -9.78636,       2.36681,            0.,NA,NA,"",       1.80392,      -1.38918,      -1.15078,   270.543E-09
C:/temp/dataset/4/29_2.odb,Step-1,Increment      1: Step Time =    1.000,"PART-1-1",           683,      -8.80920,   354.969E-03,            0.,NA,NA,"",       1.67999,      -1.27660,      -1.09209,   483.627E-09
C:/temp/dataset/4/29_2.odb,Step-1,Increment      1: Step Time =    1.000,"PART-1-1",           684,         -3.75,           -5.,            0.,NA,NA,"",       1.26349,  -980.892E-03,  -796.407E-03,   3.66014E-06
C:/temp/dataset/4/29_2.odb,Step-1,Increment      1: Step Time =    1.000,"PART-1-1",           685,          3.75,           -5.,            0.,NA,NA,"",       1.05928,  -992.312E-03,  -370.665E-03,   358.400E-06
C:/temp/dataset/4/29_2.odb,Step-1,Increment      1: Step Time =    1.000,"PART-1-1",           686,       4.46580,      -3.87501,            0.,NA,NA,"",       1.10855,      -1.05776,  -331.691E-03,   306.948E-06
C:/temp/dataset/4/29_2.odb,Step-1,Increment      1: Step Time =    1.000,"PART-1-1",           687,       2.90021,      -2.90757,            0.,NA,NA,"",       1.18804,      -1.11039,  -422.452E-03,   141.575E-06
C:/temp/dataset/4/29_2.odb,Step-1,Increment      1: Step Time =    1.000,"PART-1-1",           688,       11.1618,       2.81075,            0.,NA,NA,"",       1.44868,      -1.44828,   34.1718E-03,   88.0390E-06
C:/temp/dataset/4/29_2.odb,Step-1,Increment      1: Step Time =    1.000,"PART-1-1",           689,       10.1850,       1.50626,            0.,NA,NA,"",       1.37352,      -1.37340,  -18.6045E-03,   336.934E-06
C:/temp/dataset/4/29_2.odb,Step-1,Increment      1: Step Time =    1.000,"PART-1-1",           690,       11.6421,   144.368E-03,            0.,NA,NA,"",       1.30148,      -1.29987,   64.8725E-03,   743.911E-06
C:/temp/dataset/4/29_2.odb,Step-1,Increment      1: Step Time =    1.000,"PART-1-1",           691,         11.25,           30.,            0.,NA,NA,"",       2.97499,      -2.97499,  -4.09929E-03,   2.33217E-09
C:/temp/dataset/4/29_2.odb,Step-1,Increment      1: Step Time =    1.000,"PART-1-1",           692,       9.19768,       26.3844,            0.,NA,NA,"",       2.77108,      -2.76875,  -113.625E-03,   16.3526E-09
C:/temp/dataset/4/29_2.odb,Step-1,Increment      1: Step Time =    1.000,"PART-1-1",           693,       7.72138,       25.7435,            0.,NA,NA,"",       2.73743,      -2.73044,  -195.501E-03,   18.1308E-09
C:/temp/dataset/4/29_2.odb,Step-1,Increment      1: Step Time =    1.000,"PART-1-1",           694,       9.17897,      -24.8987,            0.,NA,NA,"",   67.0493E-03,  -65.4930E-03,  -14.3620E-03,   4.99764E-03
C:/temp/dataset/4/29_2.odb,Step-1,Increment      1: Step Time =    1.000,"PART-1-1",           695,       9.00589,       18.6572,            0.,NA,NA,"",       2.33730,      -2.33460,  -112.204E-03,   387.275E-09
C:/temp/dataset/4/29_2.odb,Step-1,Increment      1: Step Time =    1.000,"PART-1-1",           696,       7.99757,       19.7140,            0.,NA,NA,"",       2.39841,      -2.39235,  -170.484E-03,   270.897E-09
C:/temp/dataset/4/29_2.odb,Step-1,Increment      1: Step Time =    1.000,"PART-1-1",           697,      -12.2498,       25.7751,            0.,NA,NA,"",       3.02118,      -2.71352,      -1.32829,   85.0726E-12
C:/temp/dataset/4/29_2.odb,Step-1,Increment      1: Step Time =    1.000,"PART-1-1",           698,      -11.9888,       23.9538,            0.,NA,NA,"",       2.92108,      -2.61059,      -1.31054,   207.489E-12
C:/temp/dataset/4/29_2.odb,Step-1,Increment      1: Step Time =    1.000,"PART-1-1",           699,      -1.59164,      -1.60220,            0.,NA,NA,"",       1.35919,      -1.17720,  -679.424E-03,   31.0232E-06
C:/temp/dataset/4/29_2.odb,Step-1,Increment      1: Step Time =    1.000,"PART-1-1",           700,      -1.34014,  -343.401E-03,            0.,NA,NA,"",       1.41606,      -1.24905,  -667.153E-03,   30.7596E-06
C:/temp/dataset/4/29_2.odb,Step-1,Increment      1: Step Time =    1.000,"PART-1-1",           701,      -2.70787,  -93.9540E-03,            0.,NA,NA,"",       1.46469,      -1.26098,  -745.159E-03,   18.9057E-06
C:/temp/dataset/4/29_2.odb,Step-1,Increment      1: Step Time =    1.000,"PART-1-1",           702,       8.06015,      -13.0184,            0.,NA,NA,"",   552.738E-03,  -543.467E-03,  -100.815E-03,   4.64299E-03
C:/temp/dataset/4/29_2.odb,Step-1,Increment      1: Step Time =    1.000,"PART-1-1",           703,       7.99745,      -10.7906,            0.,NA,NA,"",   673.822E-03,  -664.284E-03,  -112.978E-03,   4.14673E-03
C:/temp/dataset/4/29_2.odb,Step-1,Increment      1: Step Time =    1.000,"PART-1-1",           704,           15.,        -26.25,            0.,NA,NA,"",   95.2138E-03,  -59.8915E-03,   74.0180E-03,   20.0900E-03
C:/temp/dataset/4/29_2.odb,Step-1,Increment      1: Step Time =    1.000,"PART-1-1",           705,       13.9776,      -24.8045,            0.,NA,NA,"",   112.014E-03,  -82.3558E-03,   75.9251E-03,   15.2015E-03
C:/temp/dataset/4/29_2.odb,Step-1,Increment      1: Step Time =    1.000,"PART-1-1",           706,       12.6094,      -25.9010,            0.,NA,NA,"",   62.6218E-03,  -49.8169E-03,   37.9444E-03,   10.9702E-03
C:/temp/dataset/4/29_2.odb,Step-1,Increment      1: Step Time =    1.000,"PART-1-1",           707,       12.0224,      -24.3398,            0.,NA,NA,"",   92.2821E-03,  -83.1721E-03,   39.9800E-03,   8.54868E-03
C:/temp/dataset/4/29_2.odb,Step-1,Increment      1: Step Time =    1.000,"PART-1-1",           708,       13.0263,      -23.4242,            0.,NA,NA,"",   132.360E-03,  -112.490E-03,   69.7504E-03,   11.1712E-03
C:/temp/dataset/4/29_2.odb,Step-1,Increment      1: Step Time =    1.000,"PART-1-1",           709,       12.1300,      -22.1112,            0.,NA,NA,"",   159.115E-03,  -148.736E-03,   56.5254E-03,   7.80779E-03
C:/temp/dataset/4/29_2.odb,Step-1,Increment      1: Step Time =    1.000,"PART-1-1",           710,           15.,        -23.75,            0.,NA,NA,"",   164.257E-03,  -116.840E-03,   115.451E-03,   17.8497E-03
C:/temp/dataset/4/29_2.odb,Step-1,Increment      1: Step Time =    1.000,"PART-1-1",           711,       10.9035,      -9.09896,            0.,NA,NA,"",   764.004E-03,  -763.363E-03,   31.2682E-03,   3.99697E-03
C:/temp/dataset/4/29_2.odb,Step-1,Increment      1: Step Time =    1.000,"PART-1-1",           712,       9.82794,      -8.10226,            0.,NA,NA,"",   819.568E-03,  -819.158E-03,  -25.9103E-03,   3.72240E-03
C:/temp/dataset/4/29_2.odb,Step-1,Increment      1: Step Time =    1.000,"PART-1-1",           713,       8.90728,      -9.48784,            0.,NA,NA,"",   741.551E-03,  -738.170E-03,  -70.7374E-03,   3.89965E-03
C:/temp/dataset/4/29_2.odb,Step-1,Increment      1: Step Time =    1.000,"PART-1-1",           714,           15.,         -1.25,            0.,NA,NA,"",       1.25755,      -1.23178,   253.322E-03,   1.72823E-03
C:/temp/dataset/4/29_2.odb,Step-1,Increment      1: Step Time =    1.000,"PART-1-1",           715,       12.7555,      -1.12336,            0.,NA,NA,"",       1.23832,      -1.23165,   128.310E-03,   1.61873E-03
C:/temp/dataset/4/29_2.odb,Step-1,Increment      1: Step Time =    1.000,"PART-1-1",           716,       11.5680,       5.48707,            0.,NA,NA,"",       1.59996,      -1.59909,   52.5699E-03,   94.1636E-06
C:/temp/dataset/4/29_2.odb,Step-1,Increment      1: Step Time =    1.000,"PART-1-1",           717,       10.1222,       4.29256,            0.,NA,NA,"",       1.53004,      -1.52981,  -26.5540E-03,   82.4484E-06
C:/temp/dataset/4/29_2.odb,Step-1,Increment      1: Step Time =    1.000,"PART-1-1",           718,       8.27918,   509.070E-03,            0.,NA,NA,"",       1.31947,      -1.31363,  -124.080E-03,   408.619E-06
C:/temp/dataset/4/29_2.odb,Step-1,Increment      1: Step Time =    1.000,"PART-1-1",           719,       9.70893,  -124.236E-03,            0.,NA,NA,"",       1.28126,      -1.28054,  -43.0027E-03,   622.393E-06
C:/temp/dataset/4/29_2.odb,Step-1,Increment      1: Step Time =    1.000,"PART-1-1",           720,       8.75521,       2.13956,            0.,NA,NA,"",       1.41007,      -1.40653,  -99.8496E-03,   150.256E-06
C:/temp/dataset/4/29_2.odb,Step-1,Increment      1: Step Time =    1.000,"PART-1-1",           721,       6.99874,       4.90963,            0.,NA,NA,"",       1.57288,      -1.55970,  -203.152E-03,   96.0283E-06
C:/temp/dataset/4/29_2.odb,Step-1,Increment      1: Step Time =    1.000,"PART-1-1",           722,       8.01086,       5.41567,            0.,NA,NA,"",       1.59647,      -1.58968,  -147.038E-03,   92.4153E-06
C:/temp/dataset/4/29_2.odb,Step-1,Increment      1: Step Time =    1.000,"PART-1-1",           723,       11.8045,       7.99587,            0.,NA,NA,"",       1.74147,      -1.74037,   61.7893E-03,   44.9076E-06
C:/temp/dataset/4/29_2.odb,Step-1,Increment      1: Step Time =    1.000,"PART-1-1",           724,       7.91904,       10.9856,            0.,NA,NA,"",       1.90900,      -1.90218,  -161.122E-03,   10.4401E-06
C:/temp/dataset/4/29_2.odb,Step-1,Increment      1: Step Time =    1.000,"PART-1-1",           725,       11.0233,       18.7016,            0.,NA,NA,"",       2.34028,      -2.34028,   996.201E-06,   380.804E-09
C:/temp/dataset/4/29_2.odb,Step-1,Increment      1: Step Time =    1.000,"PART-1-1",           726,       10.0074,       19.8076,            0.,NA,NA,"",       2.40147,      -2.40077,  -57.7864E-03,   287.922E-09
C:/temp/dataset/4/29_2.odb,Step-1,Increment      1: Step Time =    1.000,"PART-1-1",           727,       10.9673,       21.0105,            0.,NA,NA,"",       2.46983,      -2.46983,  -5.79315E-03,   219.119E-09
C:/temp/dataset/4/29_2.odb,Step-1,Increment      1: Step Time =    1.000,"PART-1-1",           728,       8.97465,       20.8454,            0.,NA,NA,"",       2.46021,      -2.45741,  -117.410E-03,   230.907E-09
C:/temp/dataset/4/29_2.odb,Step-1,Increment      1: Step Time =    1.000,"PART-1-1",           729,       8.66510,       24.8184,            0.,NA,NA,"",       2.68370,      -2.67999,  -141.056E-03,   41.8034E-09
C:/temp/dataset/4/29_2.odb,Step-1,Increment      1: Step Time =    1.000,"PART-1-1",           730,       7.98376,       13.1681,            0.,NA,NA,"",       2.03120,      -2.02481,  -160.934E-03,   2.56615E-06
C:/temp/dataset/4/29_2.odb,Step-1,Increment      1: Step Time =    1.000,"PART-1-1",           731,      -1.95806,       1.80915,            0.,NA,NA,"",       1.54120,      -1.37017,  -705.645E-03,   20.5438E-06
C:/temp/dataset/4/29_2.odb,Step-1,Increment      1: Step Time =    1.000,"PART-1-1",           732,  -613.587E-03,   828.335E-03,            0.,NA,NA,"",       1.45872,      -1.31672,  -627.777E-03,   44.2197E-06
C:/temp/dataset/4/29_2.odb,Step-1,Increment      1: Step Time =    1.000,"PART-1-1",           733,   461.223E-03,       1.99751,            0.,NA,NA,"",       1.49698,      -1.38478,  -568.624E-03,   52.3014E-06
C:/temp/dataset/4/29_2.odb,Step-1,Increment      1: Step Time =    1.000,"PART-1-1",           734,       1.74006,       1.04512,            0.,NA,NA,"",       1.42168,      -1.33290,  -494.538E-03,   75.5167E-06
C:/temp/dataset/4/29_2.odb,Step-1,Increment      1: Step Time =    1.000,"PART-1-1",           735,   906.022E-03,  -39.5003E-03,            0.,NA,NA,"",       1.38010,      -1.27000,  -540.170E-03,   68.3529E-06
C:/temp/dataset/4/29_2.odb,Step-1,Increment      1: Step Time =    1.000,"PART-1-1",           736,       2.15034,  -968.542E-03,            0.,NA,NA,"",       1.30613,      -1.21937,  -468.114E-03,   85.8723E-06
C:/temp/dataset/4/29_2.odb,Step-1,Increment      1: Step Time =    1.000,"PART-1-1",           737,       2.98438,   116.081E-03,            0.,NA,NA,"",       1.35012,      -1.28231,  -422.486E-03,   81.0760E-06
C:/temp/dataset/4/29_2.odb,Step-1,Increment      1: Step Time =    1.000,"PART-1-1",           738,      -8.25937,       5.01848,            0.,NA,NA,"",       1.87606,      -1.54211,      -1.06841,   425.484E-09
C:/temp/dataset/4/29_2.odb,Step-1,Increment      1: Step Time =    1.000,"PART-1-1",           739,      -2.78312,       1.01462,            0.,NA,NA,"",       1.52205,      -1.32375,  -751.199E-03,   17.8244E-06
C:/temp/dataset/4/29_2.odb,Step-1,Increment      1: Step Time =    1.000,"PART-1-1",           740,      -4.31499,   913.536E-03,            0.,NA,NA,"",       1.55975,      -1.31554,  -837.969E-03,   7.84735E-06
C:/temp/dataset/4/29_2.odb,Step-1,Increment      1: Step Time =    1.000,"PART-1-1",           741,      -4.23975,  -195.042E-03,            0.,NA,NA,"",       1.50383,      -1.25276,  -831.921E-03,   9.01175E-06
C:/temp/dataset/4/29_2.odb,Step-1,Increment      1: Step Time =    1.000,"PART-1-1",           742,      -8.52646,       20.5688,            0.,NA,NA,"",       2.66556,      -2.42409,      -1.10862,   839.252E-12
C:/temp/dataset/4/29_2.odb,Step-1,Increment      1: Step Time =    1.000,"PART-1-1",           743,       8.09873,      -15.2435,            0.,NA,NA,"",   439.216E-03,  -430.105E-03,  -88.9965E-03,   5.13573E-03
C:/temp/dataset/4/29_2.odb,Step-1,Increment      1: Step Time =    1.000,"PART-1-1",           744,       8.99676,       14.2096,            0.,NA,NA,"",       2.08756,      -2.08488,  -105.703E-03,   1.91402E-06
C:/temp/dataset/4/29_2.odb,Step-1,Increment      1: Step Time =    1.000,"PART-1-1",           745,       11.0169,       14.0599,            0.,NA,NA,"",       2.07967,      -2.07966,   7.95762E-03,   2.19169E-06
C:/temp/dataset/4/29_2.odb,Step-1,Increment      1: Step Time =    1.000,"PART-1-1",           746,      -7.91902,       15.6847,            0.,NA,NA,"",       2.39802,      -2.14792,      -1.06628,   1.07065E-09
C:/temp/dataset/4/29_2.odb,Step-1,Increment      1: Step Time =    1.000,"PART-1-1",           747,      -11.9968,       14.1876,            0.,NA,NA,"",       2.43032,      -2.05639,      -1.29526,   4.91227E-09
C:/temp/dataset/4/29_2.odb,Step-1,Increment      1: Step Time =    1.000,"PART-1-1",           748,      -11.1175,       8.79310,            0.,NA,NA,"",       2.14425,      -1.75170,      -1.23667,   133.119E-09
C:/temp/dataset/4/29_2.odb,Step-1,Increment      1: Step Time =    1.000,"PART-1-1",           749,       10.6592,      -6.44981,            0.,NA,NA,"",   917.642E-03,  -917.501E-03,   16.0530E-03,   3.49688E-03
C:/temp/dataset/4/29_2.odb,Step-1,Increment      1: Step Time =    1.000,"PART-1-1",           750,      -10.7894,       23.3985,            0.,NA,NA,"",       2.86412,      -2.58101,      -1.24159,   327.476E-12
C:/temp/dataset/4/29_2.odb,Step-1,Increment      1: Step Time =    1.000,"PART-1-1",           751,       10.0228,      -25.8019,            0.,NA,NA,"",   45.1581E-03,  -45.1548E-03,   541.944E-06,   4.00905E-03
C:/temp/dataset/4/29_2.odb,Step-1,Increment      1: Step Time =    1.000,"PART-1-1",           752,       10.9542,      -24.8826,            0.,NA,NA,"",   68.7947E-03,  -66.6587E-03,   17.0095E-03,   5.41463E-03
C:/temp/dataset/4/29_2.odb,Step-1,Increment      1: Step Time =    1.000,"PART-1-1",           753,       11.8371,      -2.37854,            0.,NA,NA,"",       1.16044,      -1.15782,   77.9216E-03,   1.94241E-03
C:/temp/dataset/4/29_2.odb,Step-1,Increment      1: Step Time =    1.000,"PART-1-1",           754,       11.6235,      -5.02753,            0.,NA,NA,"",       1.00596,      -1.00370,   67.3915E-03,   3.04806E-03
C:/temp/dataset/4/29_2.odb,Step-1,Increment      1: Step Time =    1.000,"PART-1-1",           755,      -12.1333,       7.86930,            0.,NA,NA,"",       2.13387,      -1.69764,      -1.29283,   141.493E-09
C:/temp/dataset/4/29_2.odb,Step-1,Increment      1: Step Time =    1.000,"PART-1-1",           756,      -12.0768,       9.95169,            0.,NA,NA,"",       2.22919,      -1.81590,      -1.29298,   65.2060E-09
C:/temp/dataset/4/29_2.odb,Step-1,Increment      1: Step Time =    1.000,"PART-1-1",           757,       8.68743,       3.64563,            0.,NA,NA,"",       1.49497,      -1.49120,  -106.085E-03,   65.6987E-06
C:/temp/dataset/4/29_2.odb,Step-1,Increment      1: Step Time =    1.000,"PART-1-1",           758,       6.61848,       3.66599,            0.,NA,NA,"",       1.50564,      -1.48910,  -222.540E-03,   33.4026E-06
C:/temp/dataset/4/29_2.odb,Step-1,Increment      1: Step Time =    1.000,"PART-1-1",           759,       4.71579,   65.6079E-03,            0.,NA,NA,"",       1.32272,      -1.28236,  -324.273E-03,   107.911E-06
C:/temp/dataset/4/29_2.odb,Step-1,Increment      1: Step Time =    1.000,"PART-1-1",           760,       3.89104,   957.250E-03,            0.,NA,NA,"",       1.38261,      -1.33151,  -372.409E-03,   83.8635E-06
C:/temp/dataset/4/29_2.odb,Step-1,Increment      1: Step Time =    1.000,"PART-1-1",           761,      -12.0363,       12.0623,            0.,NA,NA,"",       2.32845,      -1.93573,      -1.29408,   22.2701E-09
C:/temp/dataset/4/29_2.odb,Step-1,Increment      1: Step Time =    1.000,"PART-1-1",           762,      -12.1964,       5.82098,            0.,NA,NA,"",       2.04271,      -1.58131,      -1.29311,   218.276E-09
C:/temp/dataset/4/29_2.odb,Step-1,Increment      1: Step Time =    1.000,"PART-1-1",           763,      -11.2570,       4.81016,            0.,NA,NA,"",       1.96471,      -1.52546,      -1.23817,   255.366E-09
C:/temp/dataset/4/29_2.odb,Step-1,Increment      1: Step Time =    1.000,"PART-1-1",           764,      -10.5260,       3.94381,            0.,NA,NA,"",       1.90044,      -1.47748,      -1.19529,   284.376E-09
C:/temp/dataset/4/29_2.odb,Step-1,Increment      1: Step Time =    1.000,"PART-1-1",           765,      -9.56326,       4.76486,            0.,NA,NA,"",       1.90569,      -1.52562,      -1.14199,   353.582E-09
C:/temp/dataset/4/29_2.odb,Step-1,Increment      1: Step Time =    1.000,"PART-1-1",           766,      -9.32737,       3.44699,            0.,NA,NA,"",       1.83711,      -1.45122,      -1.12648,   346.466E-09
C:/temp/dataset/4/29_2.odb,Step-1,Increment      1: Step Time =    1.000,"PART-1-1",           767,       11.5413,      -26.4438,            0.,NA,NA,"",   40.4402E-03,  -35.5191E-03,   19.3340E-03,   7.27903E-03
C:/temp/dataset/4/29_2.odb,Step-1,Increment      1: Step Time =    1.000,"PART-1-1",           768,       5.97241,      -3.36228,            0.,NA,NA,"",       1.11676,      -1.08911,  -246.949E-03,   926.581E-06
C:/temp/dataset/4/29_2.odb,Step-1,Increment      1: Step Time =    1.000,"PART-1-1",           769,       11.9304,       22.2704,            0.,NA,NA,"",       2.54250,      -2.54208,   46.2930E-03,   110.610E-09
C:/temp/dataset/4/29_2.odb,Step-1,Increment      1: Step Time =    1.000,"PART-1-1",           770,      -3.95064,       2.12654,            0.,NA,NA,"",       1.60912,      -1.38496,  -819.240E-03,   8.20773E-06
C:/temp/dataset/4/29_2.odb,Step-1,Increment      1: Step Time =    1.000,"PART-1-1",           771,       12.1361,      -19.7979,            0.,NA,NA,"",   242.036E-03,  -231.937E-03,   69.1855E-03,   6.99164E-03
C:/temp/dataset/4/29_2.odb,Step-1,Increment      1: Step Time =    1.000,"PART-1-1",           772,       12.1156,      -17.4436,            0.,NA,NA,"",   339.991E-03,  -330.795E-03,   78.5361E-03,   6.12199E-03
C:/temp/dataset/4/29_2.odb,Step-1,Increment      1: Step Time =    1.000,"PART-1-1",           773,       11.8489,      -7.73518,            0.,NA,NA,"",   848.796E-03,  -844.991E-03,   80.2817E-03,   3.88179E-03
C:/temp/dataset/4/29_2.odb,Step-1,Increment      1: Step Time =    1.000,"PART-1-1",           774,       11.9658,      -10.2357,            0.,NA,NA,"",   705.862E-03,  -700.576E-03,   86.2215E-03,   3.96270E-03
C:/temp/dataset/4/29_2.odb,Step-1,Increment      1: Step Time =    1.000,"PART-1-1",           775,       10.7237,      -1.11081,            0.,NA,NA,"",       1.22700,      -1.22691,   14.8927E-03,   1.18572E-03
C:/temp/dataset/4/29_2.odb,Step-1,Increment      1: Step Time =    1.000,"PART-1-1",           776,       11.9194,       10.4262,            0.,NA,NA,"",       1.87814,      -1.87704,   64.3681E-03,   14.7835E-06
C:/temp/dataset/4/29_2.odb,Step-1,Increment      1: Step Time =    1.000,"PART-1-1",           777,       11.9945,       12.8006,            0.,NA,NA,"",       2.01154,      -2.01049,   64.8338E-03,   3.29508E-06
C:/temp/dataset/4/29_2.odb,Step-1,Increment      1: Step Time =    1.000,"PART-1-1",           778,       12.0317,      -12.6649,            0.,NA,NA,"",   573.470E-03,  -566.799E-03,   87.2202E-03,   4.51109E-03
C:/temp/dataset/4/29_2.odb,Step-1,Increment      1: Step Time =    1.000,"PART-1-1",           779,       12.0352,       15.1685,            0.,NA,NA,"",       2.14444,      -2.14350,   63.3808E-03,   398.221E-09
C:/temp/dataset/4/29_2.odb,Step-1,Increment      1: Step Time =    1.000,"PART-1-1",           780,      -7.80161,      -2.23284,            0.,NA,NA,"",       1.53051,      -1.13138,      -1.03075,   475.524E-09
C:/temp/dataset/4/29_2.odb,Step-1,Increment      1: Step Time =    1.000,"PART-1-1",           781,      -8.87876,  -905.543E-03,            0.,NA,NA,"",       1.62751,      -1.20496,      -1.09401,   412.957E-09
C:/temp/dataset/4/29_2.odb,Step-1,Increment      1: Step Time =    1.000,"PART-1-1",           782,      -7.16649,      -1.00336,            0.,NA,NA,"",       1.56160,      -1.20217,  -996.692E-03,   1.40933E-06
C:/temp/dataset/4/29_2.odb,Step-1,Increment      1: Step Time =    1.000,"PART-1-1",           783,      -7.09692,   257.153E-03,            0.,NA,NA,"",       1.61622,      -1.27381,  -994.775E-03,   1.53346E-06
C:/temp/dataset/4/29_2.odb,Step-1,Increment      1: Step Time =    1.000,"PART-1-1",           784,      -5.74923,      -1.63131,            0.,NA,NA,"",       1.48454,      -1.16882,  -915.264E-03,   3.29096E-06
C:/temp/dataset/4/29_2.odb,Step-1,Increment      1: Step Time =    1.000,"PART-1-1",           785,      -5.66693,  -67.3201E-03,            0.,NA,NA,"",       1.55421,      -1.25770,  -913.109E-03,   4.03400E-06
C:/temp/dataset/4/29_2.odb,Step-1,Increment      1: Step Time =    1.000,"PART-1-1",           786,      -5.46941,       1.35113,            0.,NA,NA,"",       1.61528,      -1.33851,  -904.182E-03,   3.74448E-06
C:/temp/dataset/4/29_2.odb,Step-1,Increment      1: Step Time =    1.000,"PART-1-1",           787,       12.0849,      -15.0650,            0.,NA,NA,"",   451.123E-03,  -443.084E-03,   84.7876E-03,   5.29151E-03
C:/temp/dataset/4/29_2.odb,Step-1,Increment      1: Step Time =    1.000,"PART-1-1",           788,       7.01212,      -4.44648,            0.,NA,NA,"",       1.04464,      -1.02795,  -186.001E-03,   1.64084E-03
C:/temp/dataset/4/29_2.odb,Step-1,Increment      1: Step Time =    1.000,"PART-1-1",           789,       7.64174,      -3.33281,            0.,NA,NA,"",       1.10388,      -1.09317,  -153.383E-03,   1.38549E-03
C:/temp/dataset/4/29_2.odb,Step-1,Increment      1: Step Time =    1.000,"PART-1-1",           790,       6.60203,      -2.24861,            0.,NA,NA,"",       1.17342,      -1.15379,  -213.721E-03,   629.422E-06
C:/temp/dataset/4/29_2.odb,Step-1,Increment      1: Step Time =    1.000,"PART-1-1",           791,       6.68626,       2.15992,            0.,NA,NA,"",       1.42078,      -1.40422,  -216.315E-03,   125.067E-06
C:/temp/dataset/4/29_2.odb,Step-1,Increment      1: Step Time =    1.000,"PART-1-1",           792,       12.0103,       19.9021,            0.,NA,NA,"",       2.40986,      -2.40924,   54.5159E-03,   258.312E-09
C:/temp/dataset/4/29_2.odb,Step-1,Increment      1: Step Time =    1.000,"PART-1-1",           793,       12.0305,       17.5416,            0.,NA,NA,"",       2.27751,      -2.27674,   59.3755E-03,   418.203E-09
C:/temp/dataset/4/29_2.odb,Step-1,Increment      1: Step Time =    1.000,"PART-1-1",           794,       6.09271,      -1.14349,            0.,NA,NA,"",       1.24031,      -1.21599,  -244.417E-03,   332.957E-06
C:/temp/dataset/4/29_2.odb,Step-1,Increment      1: Step Time =    1.000,"PART-1-1",           795,       7.56053,      -1.65505,            0.,NA,NA,"",       1.20014,      -1.18929,  -160.985E-03,   745.659E-06
C:/temp/dataset/4/29_2.odb,Step-1,Increment      1: Step Time =    1.000,"PART-1-1",           796,       7.05122,  -549.935E-03,            0.,NA,NA,"",       1.26591,      -1.25136,  -191.424E-03,   441.433E-06
C:/temp/dataset/4/29_2.odb,Step-1,Increment      1: Step Time =    1.000,"PART-1-1",           797,       5.28588,       1.87348,            0.,NA,NA,"",       1.41674,      -1.38570,  -294.906E-03,   68.2701E-06
C:/temp/dataset/4/29_2.odb,Step-1,Increment      1: Step Time =    1.000,"PART-1-1",           798,       5.70847,   325.226E-03,            0.,NA,NA,"",       1.32623,      -1.29875,  -268.555E-03,   186.254E-06
C:/temp/dataset/4/29_2.odb,Step-1,Increment      1: Step Time =    1.000,"PART-1-1",           799,       7.10885,   611.668E-03,            0.,NA,NA,"",       1.33101,      -1.31737,  -190.048E-03,   254.080E-06
C:/temp/dataset/4/29_2.odb,Step-1,Increment      1: Step Time =    1.000,"PART-1-1",           800,       9.00326,      -1.31280,            0.,NA,NA,"",       1.21425,      -1.21155,  -80.8412E-03,   953.874E-06
C:/temp/dataset/4/29_2.odb,Step-1,Increment      1: Step Time =    1.000,"PART-1-1",           801,       8.22155,  -652.532E-03,            0.,NA,NA,"",       1.25392,      -1.24762,  -125.541E-03,   590.726E-06
C:/temp/dataset/4/29_2.odb,Step-1,Increment      1: Step Time =    1.000,"PART-1-1",           802,       8.34224,      -2.31533,            0.,NA,NA,"",       1.15875,      -1.15291,  -116.199E-03,   1.09521E-03
C:/temp/dataset/4/29_2.odb,Step-1,Increment      1: Step Time =    1.000,"PART-1-1",           803,       2.82445,       2.06443,            0.,NA,NA,"",       1.45869,      -1.39244,  -434.619E-03,   82.8014E-06
