ODB Name,Step,Frame,Part Instance Name,    êﬂì_ÉâÉxÉã,X,Y,Z,Section Name,Material Name,Section Point,   U-Magnitude,          U-U1,          U-U2,       S-Mises
C:/temp/dataset/4/29_4.odb,Step-1,Increment      1: Step Time =    1.000,"PART-1-1",             1,           -5.,           30.,            0.,NA,NA,"",       6.20806,      -5.87620,      -2.00256,   124.765E-12
C:/temp/dataset/4/29_4.odb,Step-1,Increment      1: Step Time =    1.000,"PART-1-1",             2,          -15.,           30.,            0.,NA,NA,"",       6.60391,      -5.81175,      -3.13612,   126.703E-12
C:/temp/dataset/4/29_4.odb,Step-1,Increment      1: Step Time =    1.000,"PART-1-1",             3,          -15.,         21.25,            0.,NA,NA,"",       5.71978,      -4.81988,      -3.07972,   1.13089E-09
C:/temp/dataset/4/29_4.odb,Step-1,Increment      1: Step Time =    1.000,"PART-1-1",             4,          -15.,          12.5,            0.,NA,NA,"",       4.87792,      -3.82801,      -3.02332,   2.69127E-09
C:/temp/dataset/4/29_4.odb,Step-1,Increment      1: Step Time =    1.000,"PART-1-1",             5,          -15.,          3.75,            0.,NA,NA,"",       4.10442,      -2.83614,      -2.96692,   856.786E-09
C:/temp/dataset/4/29_4.odb,Step-1,Increment      1: Step Time =    1.000,"PART-1-1",             6,          -15.,           -5.,            0.,NA,NA,"",       3.44565,      -1.84428,      -2.91052,   66.5953E-09
C:/temp/dataset/4/29_4.odb,Step-1,Increment      1: Step Time =    1.000,"PART-1-1",             7,          -10.,           -5.,            0.,NA,NA,"",       3.00241,      -1.87651,      -2.34375,   1.37054E-06
C:/temp/dataset/4/29_4.odb,Step-1,Increment      1: Step Time =    1.000,"PART-1-1",             8,           -5.,           -5.,            0.,NA,NA,"",       2.60788,      -1.90874,      -1.77700,   4.05555E-06
C:/temp/dataset/4/29_4.odb,Step-1,Increment      1: Step Time =    1.000,"PART-1-1",             9,            0.,           -5.,            0.,NA,NA,"",       2.28727,      -1.94081,      -1.21031,   120.182E-06
C:/temp/dataset/4/29_4.odb,Step-1,Increment      1: Step Time =    1.000,"PART-1-1",            10,            5.,           -5.,            0.,NA,NA,"",       2.07258,      -1.97105,  -640.722E-03,   1.88200E-03
C:/temp/dataset/4/29_4.odb,Step-1,Increment      1: Step Time =    1.000,"PART-1-1",            11,            5.,        -11.25,            0.,NA,NA,"",       1.38574,      -1.26857,  -557.673E-03,   13.1096E-03
C:/temp/dataset/4/29_4.odb,Step-1,Increment      1: Step Time =    1.000,"PART-1-1",            12,            5.,         -17.5,            0.,NA,NA,"",   781.940E-03,  -658.927E-03,  -421.005E-03,   24.6254E-03
C:/temp/dataset/4/29_4.odb,Step-1,Increment      1: Step Time =    1.000,"PART-1-1",            13,            5.,        -23.75,            0.,NA,NA,"",   324.432E-03,  -223.304E-03,  -235.353E-03,   35.9238E-03
C:/temp/dataset/4/29_4.odb,Step-1,Increment      1: Step Time =    1.000,"PART-1-1",            14,            5.,          -30.,            0.,NA,NA,"",            0.,  -14.4543E-39,  -27.3586E-39,   54.1410E-03
C:/temp/dataset/4/29_4.odb,Step-1,Increment      1: Step Time =    1.000,"PART-1-1",            15,           15.,          -30.,            0.,NA,NA,"",            0.,  -15.7373E-39,   28.9733E-39,   54.5367E-03
C:/temp/dataset/4/29_4.odb,Step-1,Increment      1: Step Time =    1.000,"PART-1-1",            16,           15.,         -22.5,            0.,NA,NA,"",   409.158E-03,  -310.314E-03,   266.676E-03,   34.0172E-03
C:/temp/dataset/4/29_4.odb,Step-1,Increment      1: Step Time =    1.000,"PART-1-1",            17,           15.,          -15.,            0.,NA,NA,"",       1.02050,  -927.982E-03,   424.571E-03,   20.4464E-03
C:/temp/dataset/4/29_4.odb,Step-1,Increment      1: Step Time =    1.000,"PART-1-1",            18,           15.,          -7.5,            0.,NA,NA,"",       1.81630,      -1.75324,   474.466E-03,   7.69325E-03
C:/temp/dataset/4/29_4.odb,Step-1,Increment      1: Step Time =    1.000,"PART-1-1",            19,           15.,            0.,            0.,NA,NA,"",       2.65046,      -2.61344,   441.427E-03,   2.12320E-03
C:/temp/dataset/4/29_4.odb,Step-1,Increment      1: Step Time =    1.000,"PART-1-1",            20,           15.,           7.5,            0.,NA,NA,"",       3.47125,      -3.44826,   398.857E-03,   83.0632E-06
C:/temp/dataset/4/29_4.odb,Step-1,Increment      1: Step Time =    1.000,"PART-1-1",            21,           15.,           15.,            0.,NA,NA,"",       4.30405,      -4.28967,   351.601E-03,   3.04209E-06
C:/temp/dataset/4/29_4.odb,Step-1,Increment      1: Step Time =    1.000,"PART-1-1",            22,           15.,          22.5,            0.,NA,NA,"",       5.13991,      -5.13090,   304.266E-03,   122.150E-09
C:/temp/dataset/4/29_4.odb,Step-1,Increment      1: Step Time =    1.000,"PART-1-1",            23,           15.,           30.,            0.,NA,NA,"",       5.97766,      -5.97213,   256.938E-03,   912.924E-12
C:/temp/dataset/4/29_4.odb,Step-1,Increment      1: Step Time =    1.000,"PART-1-1",            24,            5.,           30.,            0.,NA,NA,"",       5.97196,      -5.90903,  -864.702E-03,   435.144E-12
C:/temp/dataset/4/29_4.odb,Step-1,Increment      1: Step Time =    1.000,"PART-1-1",            25,            5.,         23.75,            0.,NA,NA,"",       5.27298,      -5.20800,  -825.263E-03,   46.9806E-09
C:/temp/dataset/4/29_4.odb,Step-1,Increment      1: Step Time =    1.000,"PART-1-1",            26,            5.,          17.5,            0.,NA,NA,"",       4.57497,      -4.50698,  -785.821E-03,   1.50712E-06
C:/temp/dataset/4/29_4.odb,Step-1,Increment      1: Step Time =    1.000,"PART-1-1",            27,            5.,         11.25,            0.,NA,NA,"",       3.87849,      -3.80600,  -746.372E-03,   5.27673E-06
C:/temp/dataset/4/29_4.odb,Step-1,Increment      1: Step Time =    1.000,"PART-1-1",            28,            5.,            5.,            0.,NA,NA,"",       3.18515,      -3.10553,  -707.705E-03,   598.560E-06
C:/temp/dataset/4/29_4.odb,Step-1,Increment      1: Step Time =    1.000,"PART-1-1",            29,            0.,            5.,            0.,NA,NA,"",       3.32814,      -3.07444,      -1.27451,   67.7557E-06
C:/temp/dataset/4/29_4.odb,Step-1,Increment      1: Step Time =    1.000,"PART-1-1",            30,           -5.,            5.,            0.,NA,NA,"",       3.55617,      -3.04229,      -1.84141,   2.93979E-06
C:/temp/dataset/4/29_4.odb,Step-1,Increment      1: Step Time =    1.000,"PART-1-1",            31,           -5.,         11.25,            0.,NA,NA,"",       4.19631,      -3.75077,      -1.88170,   37.6577E-09
C:/temp/dataset/4/29_4.odb,Step-1,Increment      1: Step Time =    1.000,"PART-1-1",            32,           -5.,          17.5,            0.,NA,NA,"",       4.85581,      -4.45925,      -1.92199,   5.60788E-09
C:/temp/dataset/4/29_4.odb,Step-1,Increment      1: Step Time =    1.000,"PART-1-1",            33,           -5.,         23.75,            0.,NA,NA,"",       5.52774,      -5.16773,      -1.96227,   316.100E-12
C:/temp/dataset/4/29_4.odb,Step-1,Increment      1: Step Time =    1.000,"PART-1-1",            34,          -7.5,           30.,            0.,NA,NA,"",       6.29017,      -5.86009,      -2.28595,   115.206E-12
C:/temp/dataset/4/29_4.odb,Step-1,Increment      1: Step Time =    1.000,"PART-1-1",            35,          -10.,           30.,            0.,NA,NA,"",       6.38385,      -5.84398,      -2.56934,   121.742E-12
C:/temp/dataset/4/29_4.odb,Step-1,Increment      1: Step Time =    1.000,"PART-1-1",            36,         -12.5,           30.,            0.,NA,NA,"",       6.48861,      -5.82786,      -2.85273,   126.546E-12
C:/temp/dataset/4/29_4.odb,Step-1,Increment      1: Step Time =    1.000,"PART-1-1",            37,          -15.,       27.8125,            0.,NA,NA,"",       6.37986,      -5.56378,      -3.12202,   113.353E-12
C:/temp/dataset/4/29_4.odb,Step-1,Increment      1: Step Time =    1.000,"PART-1-1",            38,          -15.,        25.625,            0.,NA,NA,"",       6.15768,      -5.31581,      -3.10792,   114.687E-12
C:/temp/dataset/4/29_4.odb,Step-1,Increment      1: Step Time =    1.000,"PART-1-1",            39,          -15.,       23.4375,            0.,NA,NA,"",       5.93757,      -5.06784,      -3.09382,   291.540E-12
C:/temp/dataset/4/29_4.odb,Step-1,Increment      1: Step Time =    1.000,"PART-1-1",            40,          -15.,       19.0625,            0.,NA,NA,"",       5.50458,      -4.57191,      -3.06562,   3.03303E-09
C:/temp/dataset/4/29_4.odb,Step-1,Increment      1: Step Time =    1.000,"PART-1-1",            41,          -15.,        16.875,            0.,NA,NA,"",       5.29228,      -4.32394,      -3.05152,   6.47687E-09
C:/temp/dataset/4/29_4.odb,Step-1,Increment      1: Step Time =    1.000,"PART-1-1",            42,          -15.,       14.6875,            0.,NA,NA,"",       5.08326,      -4.07597,      -3.03742,   9.53253E-09
C:/temp/dataset/4/29_4.odb,Step-1,Increment      1: Step Time =    1.000,"PART-1-1",            43,          -15.,       10.3125,            0.,NA,NA,"",       4.67676,      -3.58004,      -3.00922,   47.8150E-09
C:/temp/dataset/4/29_4.odb,Step-1,Increment      1: Step Time =    1.000,"PART-1-1",            44,          -15.,         8.125,            0.,NA,NA,"",       4.48034,      -3.33207,      -2.99512,   196.535E-09
C:/temp/dataset/4/29_4.odb,Step-1,Increment      1: Step Time =    1.000,"PART-1-1",            45,          -15.,        5.9375,            0.,NA,NA,"",       4.28931,      -3.08410,      -2.98102,   490.699E-09
C:/temp/dataset/4/29_4.odb,Step-1,Increment      1: Step Time =    1.000,"PART-1-1",            46,          -15.,        1.5625,            0.,NA,NA,"",       3.92655,      -2.58817,      -2.95282,   1.04200E-06
C:/temp/dataset/4/29_4.odb,Step-1,Increment      1: Step Time =    1.000,"PART-1-1",            47,          -15.,     -625.E-03,            0.,NA,NA,"",       3.75668,      -2.34021,      -2.93872,   805.599E-09
C:/temp/dataset/4/29_4.odb,Step-1,Increment      1: Step Time =    1.000,"PART-1-1",            48,          -15.,       -2.8125,            0.,NA,NA,"",       3.59595,      -2.09225,      -2.92462,   260.158E-09
C:/temp/dataset/4/29_4.odb,Step-1,Increment      1: Step Time =    1.000,"PART-1-1",            49,         -12.5,           -5.,            0.,NA,NA,"",       3.21915,      -1.86040,      -2.62713,   401.491E-09
C:/temp/dataset/4/29_4.odb,Step-1,Increment      1: Step Time =    1.000,"PART-1-1",            50,          -7.5,           -5.,            0.,NA,NA,"",       2.79771,      -1.89263,      -2.06037,   3.06439E-06
C:/temp/dataset/4/29_4.odb,Step-1,Increment      1: Step Time =    1.000,"PART-1-1",            51,          -2.5,           -5.,            0.,NA,NA,"",       2.43640,      -1.92485,      -1.49366,   13.8839E-06
C:/temp/dataset/4/29_4.odb,Step-1,Increment      1: Step Time =    1.000,"PART-1-1",            52,           2.5,           -5.,            0.,NA,NA,"",       2.16506,      -1.95661,  -926.913E-03,   447.003E-06
C:/temp/dataset/4/29_4.odb,Step-1,Increment      1: Step Time =    1.000,"PART-1-1",            53,            5.,      -7.08333,            0.,NA,NA,"",       1.83921,      -1.73202,  -618.705E-03,   5.76052E-03
C:/temp/dataset/4/29_4.odb,Step-1,Increment      1: Step Time =    1.000,"PART-1-1",            54,            5.,      -9.16667,            0.,NA,NA,"",       1.60939,      -1.49682,  -591.326E-03,   9.25095E-03
C:/temp/dataset/4/29_4.odb,Step-1,Increment      1: Step Time =    1.000,"PART-1-1",            55,            5.,      -13.3333,            0.,NA,NA,"",       1.17144,      -1.05075,  -517.862E-03,   16.9947E-03
C:/temp/dataset/4/29_4.odb,Step-1,Increment      1: Step Time =    1.000,"PART-1-1",            56,            5.,      -15.4167,            0.,NA,NA,"",   969.350E-03,  -846.559E-03,  -472.206E-03,   20.8364E-03
C:/temp/dataset/4/29_4.odb,Step-1,Increment      1: Step Time =    1.000,"PART-1-1",            57,            5.,      -19.5833,            0.,NA,NA,"",   611.203E-03,  -490.674E-03,  -364.428E-03,   28.3932E-03
C:/temp/dataset/4/29_4.odb,Step-1,Increment      1: Step Time =    1.000,"PART-1-1",            58,            5.,      -21.6667,            0.,NA,NA,"",   458.516E-03,  -344.508E-03,  -302.575E-03,   32.0959E-03
C:/temp/dataset/4/29_4.odb,Step-1,Increment      1: Step Time =    1.000,"PART-1-1",            59,            5.,      -25.8333,            0.,NA,NA,"",   207.965E-03,  -128.816E-03,  -163.267E-03,   38.6521E-03
C:/temp/dataset/4/29_4.odb,Step-1,Increment      1: Step Time =    1.000,"PART-1-1",            60,            5.,      -27.9167,            0.,NA,NA,"",   106.818E-03,  -62.1954E-03,  -86.8433E-03,   45.1543E-03
C:/temp/dataset/4/29_4.odb,Step-1,Increment      1: Step Time =    1.000,"PART-1-1",            61,           7.5,          -30.,            0.,NA,NA,"",            0.,  -6.00692E-39,  -44.5164E-39,   15.1218E-03
C:/temp/dataset/4/29_4.odb,Step-1,Increment      1: Step Time =    1.000,"PART-1-1",            62,           10.,          -30.,            0.,NA,NA,"",            0.,   3.86133E-39,  -950.026E-42,   2.50165E-03
C:/temp/dataset/4/29_4.odb,Step-1,Increment      1: Step Time =    1.000,"PART-1-1",            63,          12.5,          -30.,            0.,NA,NA,"",            0.,  -21.7734E-39,   45.2743E-39,   16.0941E-03
C:/temp/dataset/4/29_4.odb,Step-1,Increment      1: Step Time =    1.000,"PART-1-1",            64,           15.,         -27.5,            0.,NA,NA,"",   128.354E-03,  -77.9689E-03,   101.958E-03,   43.7235E-03
C:/temp/dataset/4/29_4.odb,Step-1,Increment      1: Step Time =    1.000,"PART-1-1",            65,           15.,          -25.,            0.,NA,NA,"",   256.935E-03,  -173.376E-03,   189.622E-03,   37.5184E-03
C:/temp/dataset/4/29_4.odb,Step-1,Increment      1: Step Time =    1.000,"PART-1-1",            66,           15.,          -20.,            0.,NA,NA,"",   587.665E-03,  -484.946E-03,   331.930E-03,   29.3913E-03
C:/temp/dataset/4/29_4.odb,Step-1,Increment      1: Step Time =    1.000,"PART-1-1",            67,           15.,         -17.5,            0.,NA,NA,"",   792.253E-03,  -692.687E-03,   384.511E-03,   24.9291E-03
C:/temp/dataset/4/29_4.odb,Step-1,Increment      1: Step Time =    1.000,"PART-1-1",            68,           15.,         -12.5,            0.,NA,NA,"",       1.26907,      -1.18566,   452.502E-03,   16.0838E-03
C:/temp/dataset/4/29_4.odb,Step-1,Increment      1: Step Time =    1.000,"PART-1-1",            69,           15.,          -10.,            0.,NA,NA,"",       1.53437,      -1.46101,   468.746E-03,   11.9658E-03
C:/temp/dataset/4/29_4.odb,Step-1,Increment      1: Step Time =    1.000,"PART-1-1",            70,           15.,           -5.,            0.,NA,NA,"",       2.10160,      -2.04892,   467.633E-03,   5.21546E-03
C:/temp/dataset/4/29_4.odb,Step-1,Increment      1: Step Time =    1.000,"PART-1-1",            71,           15.,          -2.5,            0.,NA,NA,"",       2.38055,      -2.33643,   456.189E-03,   4.08370E-03
C:/temp/dataset/4/29_4.odb,Step-1,Increment      1: Step Time =    1.000,"PART-1-1",            72,           15.,           2.5,            0.,NA,NA,"",       2.91978,      -2.88810,   428.955E-03,   886.612E-06
C:/temp/dataset/4/29_4.odb,Step-1,Increment      1: Step Time =    1.000,"PART-1-1",            73,           15.,            5.,            0.,NA,NA,"",       3.19479,      -3.16782,   414.206E-03,   301.919E-06
C:/temp/dataset/4/29_4.odb,Step-1,Increment      1: Step Time =    1.000,"PART-1-1",            74,           15.,           10.,            0.,NA,NA,"",       3.74841,      -3.72878,   383.156E-03,   14.5586E-06
C:/temp/dataset/4/29_4.odb,Step-1,Increment      1: Step Time =    1.000,"PART-1-1",            75,           15.,          12.5,            0.,NA,NA,"",       4.02604,      -4.00924,   367.386E-03,   2.57138E-06
C:/temp/dataset/4/29_4.odb,Step-1,Increment      1: Step Time =    1.000,"PART-1-1",            76,           15.,          17.5,            0.,NA,NA,"",       4.58240,      -4.57008,   335.820E-03,   1.48863E-06
C:/temp/dataset/4/29_4.odb,Step-1,Increment      1: Step Time =    1.000,"PART-1-1",            77,           15.,           20.,            0.,NA,NA,"",       4.86104,      -4.85049,   320.042E-03,   510.575E-09
C:/temp/dataset/4/29_4.odb,Step-1,Increment      1: Step Time =    1.000,"PART-1-1",            78,           15.,           25.,            0.,NA,NA,"",       5.41900,      -5.41131,   288.490E-03,   13.1940E-09
C:/temp/dataset/4/29_4.odb,Step-1,Increment      1: Step Time =    1.000,"PART-1-1",            79,           15.,          27.5,            0.,NA,NA,"",       5.69825,      -5.69172,   272.714E-03,   4.31621E-09
C:/temp/dataset/4/29_4.odb,Step-1,Increment      1: Step Time =    1.000,"PART-1-1",            80,          12.5,           30.,            0.,NA,NA,"",       5.95640,      -5.95636,  -23.4718E-03,   4.76669E-09
C:/temp/dataset/4/29_4.odb,Step-1,Increment      1: Step Time =    1.000,"PART-1-1",            81,           10.,           30.,            0.,NA,NA,"",       5.94835,      -5.94058,  -303.882E-03,   5.96614E-09
C:/temp/dataset/4/29_4.odb,Step-1,Increment      1: Step Time =    1.000,"PART-1-1",            82,           7.5,           30.,            0.,NA,NA,"",       5.95355,      -5.92480,  -584.292E-03,   3.64677E-09
C:/temp/dataset/4/29_4.odb,Step-1,Increment      1: Step Time =    1.000,"PART-1-1",            83,            5.,       27.9167,            0.,NA,NA,"",       5.73888,      -5.67535,  -851.556E-03,   3.78516E-09
C:/temp/dataset/4/29_4.odb,Step-1,Increment      1: Step Time =    1.000,"PART-1-1",            84,            5.,       25.8333,            0.,NA,NA,"",       5.50589,      -5.44168,  -838.409E-03,   3.87470E-09
C:/temp/dataset/4/29_4.odb,Step-1,Increment      1: Step Time =    1.000,"PART-1-1",            85,            5.,       21.6667,            0.,NA,NA,"",       5.04019,      -4.97433,  -812.116E-03,   209.624E-09
C:/temp/dataset/4/29_4.odb,Step-1,Increment      1: Step Time =    1.000,"PART-1-1",            86,            5.,       19.5833,            0.,NA,NA,"",       4.80751,      -4.74065,  -798.969E-03,   621.827E-09
C:/temp/dataset/4/29_4.odb,Step-1,Increment      1: Step Time =    1.000,"PART-1-1",            87,            5.,       15.4167,            0.,NA,NA,"",       4.34260,      -4.27331,  -772.671E-03,   2.65648E-06
C:/temp/dataset/4/29_4.odb,Step-1,Increment      1: Step Time =    1.000,"PART-1-1",            88,            5.,       13.3333,            0.,NA,NA,"",       4.11042,      -4.03964,  -759.520E-03,   3.61723E-06
C:/temp/dataset/4/29_4.odb,Step-1,Increment      1: Step Time =    1.000,"PART-1-1",            89,            5.,       9.16667,            0.,NA,NA,"",       3.64686,      -3.57239,  -733.256E-03,   26.1987E-06
C:/temp/dataset/4/29_4.odb,Step-1,Increment      1: Step Time =    1.000,"PART-1-1",            90,            5.,       7.08333,            0.,NA,NA,"",       3.41564,      -3.33885,  -720.201E-03,   169.931E-06
C:/temp/dataset/4/29_4.odb,Step-1,Increment      1: Step Time =    1.000,"PART-1-1",            91,           2.5,            5.,            0.,NA,NA,"",       3.24532,      -3.09030,  -991.043E-03,   257.072E-06
C:/temp/dataset/4/29_4.odb,Step-1,Increment      1: Step Time =    1.000,"PART-1-1",            92,          -2.5,            5.,            0.,NA,NA,"",       3.43236,      -3.05840,      -1.55798,   18.8989E-06
C:/temp/dataset/4/29_4.odb,Step-1,Increment      1: Step Time =    1.000,"PART-1-1",            93,           -5.,       7.08333,            0.,NA,NA,"",       3.76679,      -3.27845,      -1.85484,   767.823E-09
C:/temp/dataset/4/29_4.odb,Step-1,Increment      1: Step Time =    1.000,"PART-1-1",            94,           -5.,       9.16667,            0.,NA,NA,"",       3.98032,      -3.51461,      -1.86827,   130.402E-09
C:/temp/dataset/4/29_4.odb,Step-1,Increment      1: Step Time =    1.000,"PART-1-1",            95,           -5.,       13.3333,            0.,NA,NA,"",       4.41442,      -3.98693,      -1.89513,   13.9389E-09
C:/temp/dataset/4/29_4.odb,Step-1,Increment      1: Step Time =    1.000,"PART-1-1",            96,           -5.,       15.4167,            0.,NA,NA,"",       4.63433,      -4.22309,      -1.90856,   9.18819E-09
C:/temp/dataset/4/29_4.odb,Step-1,Increment      1: Step Time =    1.000,"PART-1-1",            97,           -5.,       19.5833,            0.,NA,NA,"",       5.07865,      -4.69541,      -1.93541,   2.41850E-09
C:/temp/dataset/4/29_4.odb,Step-1,Increment      1: Step Time =    1.000,"PART-1-1",            98,           -5.,       21.6667,            0.,NA,NA,"",       5.30267,      -4.93157,      -1.94884,   931.740E-12
C:/temp/dataset/4/29_4.odb,Step-1,Increment      1: Step Time =    1.000,"PART-1-1",            99,           -5.,       25.8333,            0.,NA,NA,"",       5.75373,      -5.40388,      -1.97570,   145.469E-12
C:/temp/dataset/4/29_4.odb,Step-1,Increment      1: Step Time =    1.000,"PART-1-1",           100,           -5.,       27.9167,            0.,NA,NA,"",       5.98053,      -5.64004,      -1.98913,   126.788E-12
C:/temp/dataset/4/29_4.odb,Step-1,Increment      1: Step Time =    1.000,"PART-1-1",           101,       6.93475,       11.1046,            0.,NA,NA,"",       3.83845,      -3.80189,  -528.462E-03,   18.3545E-06
C:/temp/dataset/4/29_4.odb,Step-1,Increment      1: Step Time =    1.000,"PART-1-1",           102,       7.10183,      -21.7370,            0.,NA,NA,"",   361.504E-03,  -319.985E-03,  -168.212E-03,   19.3101E-03
C:/temp/dataset/4/29_4.odb,Step-1,Increment      1: Step Time =    1.000,"PART-1-1",           103,      -7.18606,       25.6133,            0.,NA,NA,"",       5.80684,      -5.36486,      -2.22208,   234.256E-12
C:/temp/dataset/4/29_4.odb,Step-1,Increment      1: Step Time =    1.000,"PART-1-1",           104,       7.08931,      -17.4629,            0.,NA,NA,"",   695.795E-03,  -651.264E-03,  -244.920E-03,   15.2081E-03
C:/temp/dataset/4/29_4.odb,Step-1,Increment      1: Step Time =    1.000,"PART-1-1",           105,       7.11844,      -23.8299,            0.,NA,NA,"",   232.392E-03,  -194.659E-03,  -126.941E-03,   21.2120E-03
C:/temp/dataset/4/29_4.odb,Step-1,Increment      1: Step Time =    1.000,"PART-1-1",           106,       7.34845,      -27.9642,            0.,NA,NA,"",   48.0067E-03,  -30.5748E-03,  -37.0111E-03,   23.7840E-03
C:/temp/dataset/4/29_4.odb,Step-1,Increment      1: Step Time =    1.000,"PART-1-1",           107,       7.18399,      -25.9216,            0.,NA,NA,"",   126.273E-03,  -96.7125E-03,  -81.1881E-03,   23.6980E-03
C:/temp/dataset/4/29_4.odb,Step-1,Increment      1: Step Time =    1.000,"PART-1-1",           108,       7.00226,      -10.9532,            0.,NA,NA,"",       1.34892,      -1.30264,  -350.324E-03,   9.34439E-03
C:/temp/dataset/4/29_4.odb,Step-1,Increment      1: Step Time =    1.000,"PART-1-1",           109,       6.93148,       25.8450,            0.,NA,NA,"",       5.49051,      -5.45518,  -621.840E-03,   28.9785E-09
C:/temp/dataset/4/29_4.odb,Step-1,Increment      1: Step Time =    1.000,"PART-1-1",           110,       6.95256,       21.7727,            0.,NA,NA,"",       5.03369,      -4.99855,  -593.778E-03,   275.977E-09
C:/temp/dataset/4/29_4.odb,Step-1,Increment      1: Step Time =    1.000,"PART-1-1",           111,       6.99069,       19.6693,            0.,NA,NA,"",       4.79758,      -4.76285,  -576.229E-03,   601.185E-09
C:/temp/dataset/4/29_4.odb,Step-1,Increment      1: Step Time =    1.000,"PART-1-1",           112,       6.98342,       13.2435,            0.,NA,NA,"",       4.07753,      -4.04208,  -536.497E-03,   3.71380E-06
C:/temp/dataset/4/29_4.odb,Step-1,Increment      1: Step Time =    1.000,"PART-1-1",           113,       6.84904,       8.98858,            0.,NA,NA,"",       3.60252,      -3.56409,  -524.746E-03,   63.7808E-06
C:/temp/dataset/4/29_4.odb,Step-1,Increment      1: Step Time =    1.000,"PART-1-1",           114,      -7.00061,       11.3966,            0.,NA,NA,"",       4.30650,      -3.75450,      -2.10943,   71.9755E-09
C:/temp/dataset/4/29_4.odb,Step-1,Increment      1: Step Time =    1.000,"PART-1-1",           115,      -6.87185,       17.5946,            0.,NA,NA,"",       4.94269,      -4.45790,      -2.13478,   3.14146E-09
C:/temp/dataset/4/29_4.odb,Step-1,Increment      1: Step Time =    1.000,"PART-1-1",           116,      -6.78696,       21.5686,            0.,NA,NA,"",       5.35943,      -4.90894,      -2.15077,   1.10247E-09
C:/temp/dataset/4/29_4.odb,Step-1,Increment      1: Step Time =    1.000,"PART-1-1",           117,      -6.92081,       23.5666,            0.,NA,NA,"",       5.57772,      -5.13456,      -2.17883,   511.104E-12
C:/temp/dataset/4/29_4.odb,Step-1,Increment      1: Step Time =    1.000,"PART-1-1",           118,      -7.47694,       27.7553,            0.,NA,NA,"",       6.04753,      -5.60578,      -2.26886,   146.958E-12
C:/temp/dataset/4/29_4.odb,Step-1,Increment      1: Step Time =    1.000,"PART-1-1",           119,       6.62973,      -6.72562,            0.,NA,NA,"",       1.83333,      -1.77992,  -439.280E-03,   5.24650E-03
C:/temp/dataset/4/29_4.odb,Step-1,Increment      1: Step Time =    1.000,"PART-1-1",           120,       7.00244,       17.5390,            0.,NA,NA,"",       4.55869,      -4.52398,  -561.468E-03,   957.826E-09
C:/temp/dataset/4/29_4.odb,Step-1,Increment      1: Step Time =    1.000,"PART-1-1",           121,       7.05765,      -13.1226,            0.,NA,NA,"",       1.11574,      -1.07031,  -315.134E-03,   11.2363E-03
C:/temp/dataset/4/29_4.odb,Step-1,Increment      1: Step Time =    1.000,"PART-1-1",           122,      -6.97858,       13.4860,            0.,NA,NA,"",       4.51973,      -3.99148,      -2.12040,   14.3889E-09
C:/temp/dataset/4/29_4.odb,Step-1,Increment      1: Step Time =    1.000,"PART-1-1",           123,      -7.06135,       7.11796,            0.,NA,NA,"",       3.87940,      -3.26909,      -2.08873,   985.447E-09
C:/temp/dataset/4/29_4.odb,Step-1,Increment      1: Step Time =    1.000,"PART-1-1",           124,       6.87626,      -8.81940,            0.,NA,NA,"",       1.58950,      -1.54096,  -389.821E-03,   7.41143E-03
C:/temp/dataset/4/29_4.odb,Step-1,Increment      1: Step Time =    1.000,"PART-1-1",           125,       7.08495,      -15.2974,            0.,NA,NA,"",   896.422E-03,  -851.527E-03,  -280.130E-03,   13.1746E-03
C:/temp/dataset/4/29_4.odb,Step-1,Increment      1: Step Time =    1.000,"PART-1-1",           126,       7.00715,       15.3887,            0.,NA,NA,"",       4.31767,      -4.28283,  -547.370E-03,   735.932E-09
C:/temp/dataset/4/29_4.odb,Step-1,Increment      1: Step Time =    1.000,"PART-1-1",           127,      -7.01992,       9.30136,            0.,NA,NA,"",       4.09516,      -3.51686,      -2.09811,   251.709E-09
C:/temp/dataset/4/29_4.odb,Step-1,Increment      1: Step Time =    1.000,"PART-1-1",           128,      -6.93369,       15.5639,            0.,NA,NA,"",       4.73303,      -4.22732,      -2.12870,   2.63348E-09
C:/temp/dataset/4/29_4.odb,Step-1,Increment      1: Step Time =    1.000,"PART-1-1",           129,      -6.79206,       19.5889,            0.,NA,NA,"",       5.14956,      -4.68449,      -2.13859,   2.15820E-09
C:/temp/dataset/4/29_4.odb,Step-1,Increment      1: Step Time =    1.000,"PART-1-1",           130,       7.09662,      -19.6136,            0.,NA,NA,"",   516.386E-03,  -472.918E-03,  -207.372E-03,   17.2445E-03
C:/temp/dataset/4/29_4.odb,Step-1,Increment      1: Step Time =    1.000,"PART-1-1",           131,       6.89670,       23.8203,            0.,NA,NA,"",       5.26367,      -5.22786,  -612.965E-03,   102.299E-09
C:/temp/dataset/4/29_4.odb,Step-1,Increment      1: Step Time =    1.000,"PART-1-1",           132,       6.67676,       6.98748,            0.,NA,NA,"",       3.38072,      -3.33869,  -531.470E-03,   197.616E-06
C:/temp/dataset/4/29_4.odb,Step-1,Increment      1: Step Time =    1.000,"PART-1-1",           133,      -13.0361,       12.2042,            0.,NA,NA,"",       4.72520,      -3.80713,      -2.79880,   36.4219E-09
C:/temp/dataset/4/29_4.odb,Step-1,Increment      1: Step Time =    1.000,"PART-1-1",           134,      -13.0483,       3.72302,            0.,NA,NA,"",       3.95419,      -2.84566,      -2.74551,   501.024E-09
C:/temp/dataset/4/29_4.odb,Step-1,Increment      1: Step Time =    1.000,"PART-1-1",           135,      -13.0740,       10.0823,            0.,NA,NA,"",       4.52767,      -3.56636,      -2.78942,   115.373E-09
C:/temp/dataset/4/29_4.odb,Step-1,Increment      1: Step Time =    1.000,"PART-1-1",           136,      -13.0017,       14.3509,            0.,NA,NA,"",       4.92921,      -4.05070,      -2.80873,   5.49468E-09
C:/temp/dataset/4/29_4.odb,Step-1,Increment      1: Step Time =    1.000,"PART-1-1",           137,      -12.4480,       21.2307,            0.,NA,NA,"",       5.58164,      -4.83414,      -2.79031,   1.35756E-09
C:/temp/dataset/4/29_4.odb,Step-1,Increment      1: Step Time =    1.000,"PART-1-1",           138,      -13.0426,       25.7965,            0.,NA,NA,"",       6.07744,      -5.34787,      -2.88714,   198.445E-12
C:/temp/dataset/4/29_4.odb,Step-1,Increment      1: Step Time =    1.000,"PART-1-1",           139,      -12.9478,       23.6552,            0.,NA,NA,"",       5.85347,      -5.10575,      -2.86259,   472.862E-12
C:/temp/dataset/4/29_4.odb,Step-1,Increment      1: Step Time =    1.000,"PART-1-1",           140,      -12.8307,       18.7376,            0.,NA,NA,"",       5.35098,      -4.54906,      -2.81762,   2.60104E-09
C:/temp/dataset/4/29_4.odb,Step-1,Increment      1: Step Time =    1.000,"PART-1-1",           141,      -12.9472,       16.5227,            0.,NA,NA,"",       5.13802,      -4.29724,      -2.81656,   2.73766E-09
C:/temp/dataset/4/29_4.odb,Step-1,Increment      1: Step Time =    1.000,"PART-1-1",           142,      -13.1112,       7.97345,            0.,NA,NA,"",       4.33566,      -3.32707,      -2.78003,   261.259E-09
C:/temp/dataset/4/29_4.odb,Step-1,Increment      1: Step Time =    1.000,"PART-1-1",           143,      -13.1276,       5.86243,            0.,NA,NA,"",       4.14694,      -3.08766,      -2.76829,   430.854E-09
C:/temp/dataset/4/29_4.odb,Step-1,Increment      1: Step Time =    1.000,"PART-1-1",           144,      -12.8109,       1.56310,            0.,NA,NA,"",       3.75333,      -2.60235,      -2.70468,   434.235E-09
C:/temp/dataset/4/29_4.odb,Step-1,Increment      1: Step Time =    1.000,"PART-1-1",           145,      -12.5511,  -622.366E-03,            0.,NA,NA,"",       3.55441,      -2.35629,      -2.66115,   657.589E-09
C:/temp/dataset/4/29_4.odb,Step-1,Increment      1: Step Time =    1.000,"PART-1-1",           146,      -7.69124,      -3.05836,            0.,NA,NA,"",       2.97415,      -2.11149,      -2.09456,   536.794E-09
C:/temp/dataset/4/29_4.odb,Step-1,Increment      1: Step Time =    1.000,"PART-1-1",           147,      -2.59391,      -3.27074,            0.,NA,NA,"",       2.60616,      -2.12025,      -1.51545,   34.3750E-06
C:/temp/dataset/4/29_4.odb,Step-1,Increment      1: Step Time =    1.000,"PART-1-1",           148,      -2.06699,       2.95135,            0.,NA,NA,"",       3.20002,      -2.82897,      -1.49567,   39.4441E-06
C:/temp/dataset/4/29_4.odb,Step-1,Increment      1: Step Time =    1.000,"PART-1-1",           149,       1.86882,      -3.06513,            0.,NA,NA,"",       2.39611,      -2.17232,      -1.01111,   283.492E-06
C:/temp/dataset/4/29_4.odb,Step-1,Increment      1: Step Time =    1.000,"PART-1-1",           150,       2.79073,       3.02834,            0.,NA,NA,"",       3.02072,      -2.86898,  -945.383E-03,   224.850E-06
C:/temp/dataset/4/29_4.odb,Step-1,Increment      1: Step Time =    1.000,"PART-1-1",           151,       12.5379,       2.72923,            0.,NA,NA,"",       2.90189,      -2.89785,   153.109E-03,   355.523E-06
C:/temp/dataset/4/29_4.odb,Step-1,Increment      1: Step Time =    1.000,"PART-1-1",           152,       12.9313,       10.2835,            0.,NA,NA,"",       3.75050,      -3.74752,   149.336E-03,   30.3781E-06
C:/temp/dataset/4/29_4.odb,Step-1,Increment      1: Step Time =    1.000,"PART-1-1",           153,       12.7723,       24.8557,            0.,NA,NA,"",       5.38121,      -5.38107,   39.5370E-03,   60.1768E-09
C:/temp/dataset/4/29_4.odb,Step-1,Increment      1: Step Time =    1.000,"PART-1-1",           154,       12.5268,       27.4001,            0.,NA,NA,"",       5.66491,      -5.66491,  -4.05923E-03,   9.02758E-09
C:/temp/dataset/4/29_4.odb,Step-1,Increment      1: Step Time =    1.000,"PART-1-1",           155,       12.7627,      -5.01238,            0.,NA,NA,"",       2.03522,      -2.02380,   215.291E-03,   6.46599E-03
C:/temp/dataset/4/29_4.odb,Step-1,Increment      1: Step Time =    1.000,"PART-1-1",           156,       13.0118,      -12.5921,            0.,NA,NA,"",       1.18089,      -1.15401,   250.514E-03,   10.8908E-03
C:/temp/dataset/4/29_4.odb,Step-1,Increment      1: Step Time =    1.000,"PART-1-1",           157,       9.69976,      -27.8547,            0.,NA,NA,"",   22.4669E-03,  -22.2034E-03,  -3.43092E-03,   8.04531E-03
C:/temp/dataset/4/29_4.odb,Step-1,Increment      1: Step Time =    1.000,"PART-1-1",           158,       13.0855,      -17.4497,            0.,NA,NA,"",   710.245E-03,  -673.278E-03,   226.150E-03,   16.1860E-03
C:/temp/dataset/4/29_4.odb,Step-1,Increment      1: Step Time =    1.000,"PART-1-1",           159,       12.9366,       22.3763,            0.,NA,NA,"",       5.10454,      -5.10401,   73.6087E-03,   214.237E-09
C:/temp/dataset/4/29_4.odb,Step-1,Increment      1: Step Time =    1.000,"PART-1-1",           160,       13.0248,       17.5365,            0.,NA,NA,"",       4.56313,      -4.56171,   114.043E-03,   976.590E-09
C:/temp/dataset/4/29_4.odb,Step-1,Increment      1: Step Time =    1.000,"PART-1-1",           161,      -10.1545,       27.3700,            0.,NA,NA,"",       6.11145,      -5.54485,      -2.56990,   165.524E-12
C:/temp/dataset/4/29_4.odb,Step-1,Increment      1: Step Time =    1.000,"PART-1-1",           162,      -10.0546,      -2.87755,            0.,NA,NA,"",       3.17290,      -2.11675,      -2.36361,   975.881E-09
C:/temp/dataset/4/29_4.odb,Step-1,Increment      1: Step Time =    1.000,"PART-1-1",           163,      -5.07747,      -2.66322,            0.,NA,NA,"",       2.82232,      -2.17312,      -1.80084,   8.22262E-06
C:/temp/dataset/4/29_4.odb,Step-1,Increment      1: Step Time =    1.000,"PART-1-1",           164,  -330.659E-03,      -3.26262,            0.,NA,NA,"",       2.47923,      -2.13575,      -1.25905,   89.8725E-06
C:/temp/dataset/4/29_4.odb,Step-1,Increment      1: Step Time =    1.000,"PART-1-1",           165,       3.93161,      -2.75002,            0.,NA,NA,"",       2.35424,      -2.22159,  -779.090E-03,   263.122E-06
C:/temp/dataset/4/29_4.odb,Step-1,Increment      1: Step Time =    1.000,"PART-1-1",           166,       12.9585,      -10.1304,            0.,NA,NA,"",       1.44693,      -1.42547,   248.301E-03,   8.37429E-03
C:/temp/dataset/4/29_4.odb,Step-1,Increment      1: Step Time =    1.000,"PART-1-1",           167,       13.1106,      -19.8561,            0.,NA,NA,"",   511.849E-03,  -471.186E-03,   199.933E-03,   18.9631E-03
C:/temp/dataset/4/29_4.odb,Step-1,Increment      1: Step Time =    1.000,"PART-1-1",           168,       12.2637,      -27.1930,            0.,NA,NA,"",   69.0558E-03,  -52.3519E-03,   45.0331E-03,   21.8165E-03
C:/temp/dataset/4/29_4.odb,Step-1,Increment      1: Step Time =    1.000,"PART-1-1",           169,       13.0974,      -22.2394,            0.,NA,NA,"",   341.929E-03,  -300.502E-03,   163.138E-03,   21.4799E-03
C:/temp/dataset/4/29_4.odb,Step-1,Increment      1: Step Time =    1.000,"PART-1-1",           170,       13.0625,      -15.0302,            0.,NA,NA,"",   934.597E-03,  -902.219E-03,   243.867E-03,   13.5206E-03
C:/temp/dataset/4/29_4.odb,Step-1,Increment      1: Step Time =    1.000,"PART-1-1",           171,       12.8638,      -7.61343,            0.,NA,NA,"",       1.73330,      -1.71743,   234.072E-03,   8.28945E-03
C:/temp/dataset/4/29_4.odb,Step-1,Increment      1: Step Time =    1.000,"PART-1-1",           172,       12.8109,      -2.41519,            0.,NA,NA,"",       2.33443,      -2.32490,   210.749E-03,   4.54657E-03
C:/temp/dataset/4/29_4.odb,Step-1,Increment      1: Step Time =    1.000,"PART-1-1",           173,       12.7001,   168.481E-03,            0.,NA,NA,"",       2.62071,      -2.61408,   186.363E-03,   1.99164E-03
C:/temp/dataset/4/29_4.odb,Step-1,Increment      1: Step Time =    1.000,"PART-1-1",           174,       12.6773,       5.28127,            0.,NA,NA,"",       3.18829,      -3.18464,   152.484E-03,   205.405E-06
C:/temp/dataset/4/29_4.odb,Step-1,Increment      1: Step Time =    1.000,"PART-1-1",           175,       12.8405,       7.80961,            0.,NA,NA,"",       3.47281,      -3.46936,   154.784E-03,   105.627E-06
C:/temp/dataset/4/29_4.odb,Step-1,Increment      1: Step Time =    1.000,"PART-1-1",           176,       12.9955,       12.7023,            0.,NA,NA,"",       4.02176,      -4.01928,   141.265E-03,   6.21251E-06
C:/temp/dataset/4/29_4.odb,Step-1,Increment      1: Step Time =    1.000,"PART-1-1",           177,       13.0102,       19.9477,            0.,NA,NA,"",       4.83304,      -4.83206,   97.1825E-03,   556.753E-09
C:/temp/dataset/4/29_4.odb,Step-1,Increment      1: Step Time =    1.000,"PART-1-1",           178,       9.88408,       27.1269,            0.,NA,NA,"",       5.62553,      -5.61759,  -298.754E-03,   20.7210E-09
C:/temp/dataset/4/29_4.odb,Step-1,Increment      1: Step Time =    1.000,"PART-1-1",           179,       13.0301,       15.1161,            0.,NA,NA,"",       4.29223,      -4.29026,   129.909E-03,   810.514E-09
C:/temp/dataset/4/29_4.odb,Step-1,Increment      1: Step Time =    1.000,"PART-1-1",           180,   300.490E-03,       3.00528,            0.,NA,NA,"",       3.10343,      -2.85033,      -1.22756,   102.335E-06
C:/temp/dataset/4/29_4.odb,Step-1,Increment      1: Step Time =    1.000,"PART-1-1",           181,      -4.18418,       2.89078,            0.,NA,NA,"",       3.30133,      -2.80845,      -1.73533,   13.1249E-06
C:/temp/dataset/4/29_4.odb,Step-1,Increment      1: Step Time =    1.000,"PART-1-1",           182,      -8.75093,       23.2164,            0.,NA,NA,"",       5.61436,      -5.08306,      -2.38402,   682.793E-12
C:/temp/dataset/4/29_4.odb,Step-1,Increment      1: Step Time =    1.000,"PART-1-1",           183,       9.13120,      -23.8882,            0.,NA,NA,"",   185.693E-03,  -181.961E-03,  -37.0431E-03,   9.94556E-03
C:/temp/dataset/4/29_4.odb,Step-1,Increment      1: Step Time =    1.000,"PART-1-1",           184,       8.76025,       8.63504,            0.,NA,NA,"",       3.54985,      -3.53646,  -308.045E-03,   83.5214E-06
C:/temp/dataset/4/29_4.odb,Step-1,Increment      1: Step Time =    1.000,"PART-1-1",           185,       8.81891,       23.9948,            0.,NA,NA,"",       5.27463,      -5.25956,  -398.463E-03,   120.892E-09
C:/temp/dataset/4/29_4.odb,Step-1,Increment      1: Step Time =    1.000,"PART-1-1",           186,       9.00734,       17.5557,            0.,NA,NA,"",       4.55099,      -4.53851,  -336.698E-03,   988.934E-09
C:/temp/dataset/4/29_4.odb,Step-1,Increment      1: Step Time =    1.000,"PART-1-1",           187,      -8.59230,       19.6811,            0.,NA,NA,"",       5.23684,      -4.68334,      -2.34325,   2.19076E-09
C:/temp/dataset/4/29_4.odb,Step-1,Increment      1: Step Time =    1.000,"PART-1-1",           188,       9.06266,      -12.9142,            0.,NA,NA,"",       1.10278,      -1.09560,  -125.693E-03,   8.42269E-03
C:/temp/dataset/4/29_4.odb,Step-1,Increment      1: Step Time =    1.000,"PART-1-1",           189,       9.13987,      -19.6571,            0.,NA,NA,"",   469.677E-03,  -465.016E-03,  -66.0034E-03,   9.10889E-03
C:/temp/dataset/4/29_4.odb,Step-1,Increment      1: Step Time =    1.000,"PART-1-1",           190,       9.00941,       15.3265,            0.,NA,NA,"",       4.30059,      -4.28849,  -322.400E-03,   1.23479E-06
C:/temp/dataset/4/29_4.odb,Step-1,Increment      1: Step Time =    1.000,"PART-1-1",           191,      -8.96967,       13.7142,            0.,NA,NA,"",       4.64190,      -4.00451,      -2.34757,   18.3129E-09
C:/temp/dataset/4/29_4.odb,Step-1,Increment      1: Step Time =    1.000,"PART-1-1",           192,       9.12973,      -17.4386,            0.,NA,NA,"",   656.933E-03,  -651.632E-03,  -83.2848E-03,   8.83948E-03
C:/temp/dataset/4/29_4.odb,Step-1,Increment      1: Step Time =    1.000,"PART-1-1",           193,       8.94484,       21.9321,            0.,NA,NA,"",       5.04268,      -5.02899,  -371.322E-03,   303.353E-09
C:/temp/dataset/4/29_4.odb,Step-1,Increment      1: Step Time =    1.000,"PART-1-1",           194,      -8.78258,       17.8115,            0.,NA,NA,"",       5.05153,      -4.47017,      -2.35277,   2.97362E-09
C:/temp/dataset/4/29_4.odb,Step-1,Increment      1: Step Time =    1.000,"PART-1-1",           195,       8.90333,       10.8666,            0.,NA,NA,"",       3.79996,      -3.78761,  -306.136E-03,   28.0604E-06
C:/temp/dataset/4/29_4.odb,Step-1,Increment      1: Step Time =    1.000,"PART-1-1",           196,      -9.00437,       11.6266,            0.,NA,NA,"",       4.43414,      -3.76764,      -2.33805,   75.8489E-09
C:/temp/dataset/4/29_4.odb,Step-1,Increment      1: Step Time =    1.000,"PART-1-1",           197,      -9.03622,       9.53759,            0.,NA,NA,"",       4.22917,      -3.53064,      -2.32819,   232.246E-09
C:/temp/dataset/4/29_4.odb,Step-1,Increment      1: Step Time =    1.000,"PART-1-1",           198,       8.99264,      -10.6281,            0.,NA,NA,"",       1.35304,      -1.34448,  -151.929E-03,   8.15914E-03
C:/temp/dataset/4/29_4.odb,Step-1,Increment      1: Step Time =    1.000,"PART-1-1",           199,       8.82192,      -8.34759,            0.,NA,NA,"",       1.61410,      -1.60303,  -188.694E-03,   7.43550E-03
C:/temp/dataset/4/29_4.odb,Step-1,Increment      1: Step Time =    1.000,"PART-1-1",           200,       8.98411,       13.0928,            0.,NA,NA,"",       4.04977,      -4.03780,  -311.141E-03,   6.83071E-06
C:/temp/dataset/4/29_4.odb,Step-1,Increment      1: Step Time =    1.000,"PART-1-1",           201,       7.30685,       27.8134,            0.,NA,NA,"",       5.70912,      -5.67832,  -592.159E-03,   5.84716E-09
C:/temp/dataset/4/29_4.odb,Step-1,Increment      1: Step Time =    1.000,"PART-1-1",           202,      -8.46063,       21.4565,            0.,NA,NA,"",       5.41683,      -4.88544,      -2.33977,   1.24777E-09
C:/temp/dataset/4/29_4.odb,Step-1,Increment      1: Step Time =    1.000,"PART-1-1",           203,       9.11250,      -15.1896,            0.,NA,NA,"",   869.010E-03,  -862.956E-03,  -102.399E-03,   8.60684E-03
C:/temp/dataset/4/29_4.odb,Step-1,Increment      1: Step Time =    1.000,"PART-1-1",           204,       9.14200,      -21.8221,            0.,NA,NA,"",   311.280E-03,  -307.150E-03,  -50.5389E-03,   9.47272E-03
C:/temp/dataset/4/29_4.odb,Step-1,Increment      1: Step Time =    1.000,"PART-1-1",           205,      -8.90436,       15.8055,            0.,NA,NA,"",       4.85121,      -4.24200,      -2.35365,   3.90642E-09
C:/temp/dataset/4/29_4.odb,Step-1,Increment      1: Step Time =    1.000,"PART-1-1",           206,       9.00445,       19.7587,            0.,NA,NA,"",       4.79844,      -4.78559,  -350.922E-03,   645.252E-09
C:/temp/dataset/4/29_4.odb,Step-1,Increment      1: Step Time =    1.000,"PART-1-1",           207,       8.39742,      -6.16188,            0.,NA,NA,"",       1.87135,      -1.85436,  -251.621E-03,   5.84272E-03
C:/temp/dataset/4/29_4.odb,Step-1,Increment      1: Step Time =    1.000,"PART-1-1",           208,      -9.10294,       7.45394,            0.,NA,NA,"",       4.03035,      -3.29401,      -2.32233,   535.643E-09
C:/temp/dataset/4/29_4.odb,Step-1,Increment      1: Step Time =    1.000,"PART-1-1",           209,       8.43260,       6.43235,            0.,NA,NA,"",       3.30402,      -3.28743,  -330.756E-03,   187.189E-06
C:/temp/dataset/4/29_4.odb,Step-1,Increment      1: Step Time =    1.000,"PART-1-1",           210,       5.64784,       2.93298,            0.,NA,NA,"",       2.94299,      -2.87661,  -621.570E-03,   118.288E-06
C:/temp/dataset/4/29_4.odb,Step-1,Increment      1: Step Time =    1.000,"PART-1-1",           211,      -10.7213,       1.88644,            0.,NA,NA,"",       3.62436,      -2.65247,      -2.46989,   422.354E-09
C:/temp/dataset/4/29_4.odb,Step-1,Increment      1: Step Time =    1.000,"PART-1-1",           212,      -12.7178,       27.8380,            0.,NA,NA,"",       6.27306,      -5.58138,      -2.86349,   138.860E-12
C:/temp/dataset/4/29_4.odb,Step-1,Increment      1: Step Time =    1.000,"PART-1-1",           213,      -11.0298,       24.2524,            0.,NA,NA,"",       5.82323,      -5.18581,      -2.64902,   461.980E-12
C:/temp/dataset/4/29_4.odb,Step-1,Increment      1: Step Time =    1.000,"PART-1-1",           214,      -10.4500,       20.0822,            0.,NA,NA,"",       5.36505,      -4.71683,      -2.55642,   1.99566E-09
C:/temp/dataset/4/29_4.odb,Step-1,Increment      1: Step Time =    1.000,"PART-1-1",           215,      -10.9919,       14.0243,            0.,NA,NA,"",       4.78163,      -4.02663,      -2.57880,   14.4090E-09
C:/temp/dataset/4/29_4.odb,Step-1,Increment      1: Step Time =    1.000,"PART-1-1",           216,      -11.0796,       9.82104,            0.,NA,NA,"",       4.37741,      -3.54960,      -2.56166,   170.476E-09
C:/temp/dataset/4/29_4.odb,Step-1,Increment      1: Step Time =    1.000,"PART-1-1",           217,      -11.0365,       11.9204,            0.,NA,NA,"",       4.57759,      -3.78786,      -2.57029,   58.7545E-09
C:/temp/dataset/4/29_4.odb,Step-1,Increment      1: Step Time =    1.000,"PART-1-1",           218,      -10.5491,       22.5446,            0.,NA,NA,"",       5.62386,      -4.99532,      -2.58352,   915.275E-12
C:/temp/dataset/4/29_4.odb,Step-1,Increment      1: Step Time =    1.000,"PART-1-1",           219,      -10.9277,       16.1478,            0.,NA,NA,"",       4.98970,      -4.26776,      -2.58521,   3.23745E-09
C:/temp/dataset/4/29_4.odb,Step-1,Increment      1: Step Time =    1.000,"PART-1-1",           220,      -10.7891,       18.2216,            0.,NA,NA,"",       5.19180,      -4.50373,      -2.58287,   2.91762E-09
C:/temp/dataset/4/29_4.odb,Step-1,Increment      1: Step Time =    1.000,"PART-1-1",           221,      -11.1555,       7.76515,            0.,NA,NA,"",       4.18742,      -3.31606,      -2.55700,   365.831E-09
C:/temp/dataset/4/29_4.odb,Step-1,Increment      1: Step Time =    1.000,"PART-1-1",           222,      -9.80329,       4.04682,            0.,NA,NA,"",       3.75397,      -2.90328,      -2.37976,   664.782E-09
C:/temp/dataset/4/29_4.odb,Step-1,Increment      1: Step Time =    1.000,"PART-1-1",           223,       9.22674,      -25.9093,            0.,NA,NA,"",   88.2571E-03,  -85.7572E-03,  -20.8569E-03,   9.68500E-03
C:/temp/dataset/4/29_4.odb,Step-1,Increment      1: Step Time =    1.000,"PART-1-1",           224,      -9.21421,       25.1107,            0.,NA,NA,"",       5.83364,      -5.29481,      -2.44875,   321.029E-12
C:/temp/dataset/4/29_4.odb,Step-1,Increment      1: Step Time =    1.000,"PART-1-1",           225,       6.25241,      -4.60112,            0.,NA,NA,"",       2.08481,      -2.02364,  -501.288E-03,   3.13715E-03
C:/temp/dataset/4/29_4.odb,Step-1,Increment      1: Step Time =    1.000,"PART-1-1",           226,      -7.19550,       4.55405,            0.,NA,NA,"",       3.63639,      -2.97759,      -2.08742,   1.00300E-06
C:/temp/dataset/4/29_4.odb,Step-1,Increment      1: Step Time =    1.000,"PART-1-1",           227,       12.9551,      -24.6090,            0.,NA,NA,"",   198.463E-03,  -163.134E-03,   113.026E-03,   23.9778E-03
C:/temp/dataset/4/29_4.odb,Step-1,Increment      1: Step Time =    1.000,"PART-1-1",           228,       10.9241,       22.1645,            0.,NA,NA,"",       5.06980,      -5.06755,  -150.785E-03,   276.739E-09
C:/temp/dataset/4/29_4.odb,Step-1,Increment      1: Step Time =    1.000,"PART-1-1",           229,      -4.91288,   464.762E-03,            0.,NA,NA,"",       3.10531,      -2.52876,      -1.80232,   12.1204E-06
C:/temp/dataset/4/29_4.odb,Step-1,Increment      1: Step Time =    1.000,"PART-1-1",           230,  -831.143E-03,      -1.35374,            0.,NA,NA,"",       2.69842,      -2.34902,      -1.32800,   81.5281E-06
C:/temp/dataset/4/29_4.odb,Step-1,Increment      1: Step Time =    1.000,"PART-1-1",           231,       11.1616,      -19.7398,            0.,NA,NA,"",   469.588E-03,  -464.480E-03,   69.0774E-03,   10.2837E-03
C:/temp/dataset/4/29_4.odb,Step-1,Increment      1: Step Time =    1.000,"PART-1-1",           232,       10.9730,      -10.3410,            0.,NA,NA,"",       1.38765,      -1.38691,   45.1170E-03,   8.11320E-03
C:/temp/dataset/4/29_4.odb,Step-1,Increment      1: Step Time =    1.000,"PART-1-1",           233,       10.4844,      -5.04269,            0.,NA,NA,"",       1.99969,      -1.99941,  -33.3790E-03,   5.97354E-03
C:/temp/dataset/4/29_4.odb,Step-1,Increment      1: Step Time =    1.000,"PART-1-1",           234,       10.9074,       10.5689,            0.,NA,NA,"",       3.76765,      -3.76681,  -79.4574E-03,   33.1290E-06
C:/temp/dataset/4/29_4.odb,Step-1,Increment      1: Step Time =    1.000,"PART-1-1",           235,       11.0515,      -12.7377,            0.,NA,NA,"",       1.12516,      -1.12349,   61.2912E-03,   8.31214E-03
C:/temp/dataset/4/29_4.odb,Step-1,Increment      1: Step Time =    1.000,"PART-1-1",           236,       10.9936,       12.8990,            0.,NA,NA,"",       4.02962,      -4.02873,  -84.5272E-03,   7.87936E-06
C:/temp/dataset/4/29_4.odb,Step-1,Increment      1: Step Time =    1.000,"PART-1-1",           237,      -9.84553,  -403.770E-03,            0.,NA,NA,"",       3.36198,      -2.39851,      -2.35586,   609.812E-09
C:/temp/dataset/4/29_4.odb,Step-1,Increment      1: Step Time =    1.000,"PART-1-1",           238,      -6.42098,  -599.403E-03,            0.,NA,NA,"",       3.10147,      -2.39841,      -1.96641,   5.14481E-06
C:/temp/dataset/4/29_4.odb,Step-1,Increment      1: Step Time =    1.000,"PART-1-1",           239,      -2.35214,      -1.85066,            0.,NA,NA,"",       2.72999,      -2.28282,      -1.49719,   43.5498E-06
C:/temp/dataset/4/29_4.odb,Step-1,Increment      1: Step Time =    1.000,"PART-1-1",           240,       11.1625,      -21.9830,            0.,NA,NA,"",   307.203E-03,  -301.319E-03,   59.8366E-03,   11.1111E-03
C:/temp/dataset/4/29_4.odb,Step-1,Increment      1: Step Time =    1.000,"PART-1-1",           241,       11.1073,      -15.0998,            0.,NA,NA,"",   882.791E-03,  -879.973E-03,   70.4738E-03,   8.85818E-03
C:/temp/dataset/4/29_4.odb,Step-1,Increment      1: Step Time =    1.000,"PART-1-1",           242,       11.1457,      -17.4375,            0.,NA,NA,"",   662.913E-03,  -658.871E-03,   73.0924E-03,   9.55487E-03
C:/temp/dataset/4/29_4.odb,Step-1,Increment      1: Step Time =    1.000,"PART-1-1",           243,       10.8340,      -7.85693,            0.,NA,NA,"",       1.67229,      -1.67219,   18.7696E-03,   7.92319E-03
C:/temp/dataset/4/29_4.odb,Step-1,Increment      1: Step Time =    1.000,"PART-1-1",           244,       10.5842,   120.255E-03,            0.,NA,NA,"",       2.59303,      -2.59255,  -49.7240E-03,   1.31437E-03
C:/temp/dataset/4/29_4.odb,Step-1,Increment      1: Step Time =    1.000,"PART-1-1",           245,       10.8633,      -2.34188,            0.,NA,NA,"",       2.31545,      -2.31544,  -5.57857E-03,   3.49126E-03
C:/temp/dataset/4/29_4.odb,Step-1,Increment      1: Step Time =    1.000,"PART-1-1",           246,       9.78574,       2.89226,            0.,NA,NA,"",       2.90276,      -2.89856,  -156.064E-03,   203.810E-06
C:/temp/dataset/4/29_4.odb,Step-1,Increment      1: Step Time =    1.000,"PART-1-1",           247,       10.7685,       8.18214,            0.,NA,NA,"",       3.49911,      -3.49820,  -79.8705E-03,   99.2141E-06
C:/temp/dataset/4/29_4.odb,Step-1,Increment      1: Step Time =    1.000,"PART-1-1",           248,       10.4587,       5.69287,            0.,NA,NA,"",       3.21853,      -3.21702,  -98.6379E-03,   215.672E-06
C:/temp/dataset/4/29_4.odb,Step-1,Increment      1: Step Time =    1.000,"PART-1-1",           249,       11.0104,       19.8565,            0.,NA,NA,"",       4.81089,      -4.80922,  -126.540E-03,   624.545E-09
C:/temp/dataset/4/29_4.odb,Step-1,Increment      1: Step Time =    1.000,"PART-1-1",           250,       11.0363,       17.5467,            0.,NA,NA,"",       4.55161,      -4.55030,  -109.070E-03,   1.00058E-06
C:/temp/dataset/4/29_4.odb,Step-1,Increment      1: Step Time =    1.000,"PART-1-1",           251,       11.0403,       15.2208,            0.,NA,NA,"",       4.29048,      -4.28945,  -93.9383E-03,   1.32933E-06
C:/temp/dataset/4/29_4.odb,Step-1,Increment      1: Step Time =    1.000,"PART-1-1",           252,       1.19009,      -1.06873,            0.,NA,NA,"",       2.63542,      -2.39454,      -1.10075,   176.395E-06
C:/temp/dataset/4/29_4.odb,Step-1,Increment      1: Step Time =    1.000,"PART-1-1",           253,       10.6932,       24.5073,            0.,NA,NA,"",       5.33231,      -5.32887,  -191.469E-03,   93.1104E-09
C:/temp/dataset/4/29_4.odb,Step-1,Increment      1: Step Time =    1.000,"PART-1-1",           254,       8.51128,       25.6419,            0.,NA,NA,"",       5.46039,      -5.44237,  -443.362E-03,   46.2797E-09
C:/temp/dataset/4/29_4.odb,Step-1,Increment      1: Step Time =    1.000,"PART-1-1",           255,      -9.32324,       5.48290,            0.,NA,NA,"",       3.85618,      -3.06916,      -2.33460,   717.772E-09
C:/temp/dataset/4/29_4.odb,Step-1,Increment      1: Step Time =    1.000,"PART-1-1",           256,      -11.4569,       25.7537,            0.,NA,NA,"",       5.99881,      -5.35324,      -2.70712,   234.512E-12
C:/temp/dataset/4/29_4.odb,Step-1,Increment      1: Step Time =    1.000,"PART-1-1",           257,      -8.85145,       2.84717,            0.,NA,NA,"",       3.58025,      -2.77343,      -2.26413,   771.677E-09
C:/temp/dataset/4/29_4.odb,Step-1,Increment      1: Step Time =    1.000,"PART-1-1",           258,       11.0896,      -24.0706,            0.,NA,NA,"",   181.010E-03,  -175.519E-03,   44.2495E-03,   11.5629E-03
C:/temp/dataset/4/29_4.odb,Step-1,Increment      1: Step Time =    1.000,"PART-1-1",           259,       5.69240,      -2.12345,            0.,NA,NA,"",       2.37689,      -2.30413,  -583.589E-03,   704.229E-06
C:/temp/dataset/4/29_4.odb,Step-1,Increment      1: Step Time =    1.000,"PART-1-1",           260,       7.72467,       1.38687,            0.,NA,NA,"",       2.74177,      -2.71560,  -377.894E-03,   442.778E-06
C:/temp/dataset/4/29_4.odb,Step-1,Increment      1: Step Time =    1.000,"PART-1-1",           261,       8.83369,  -368.727E-03,            0.,NA,NA,"",       2.53619,      -2.52457,  -242.518E-03,   1.24123E-03
C:/temp/dataset/4/29_4.odb,Step-1,Increment      1: Step Time =    1.000,"PART-1-1",           262,       7.58912,       4.39900,            0.,NA,NA,"",       3.08168,      -3.05396,  -412.409E-03,   186.733E-06
C:/temp/dataset/4/29_4.odb,Step-1,Increment      1: Step Time =    1.000,"PART-1-1",           263,      -6.02595,       2.23751,            0.,NA,NA,"",       3.34296,      -2.72253,      -1.93991,   3.78677E-06
C:/temp/dataset/4/29_4.odb,Step-1,Increment      1: Step Time =    1.000,"PART-1-1",           264,       4.92391,   813.983E-03,            0.,NA,NA,"",       2.72132,      -2.63244,  -689.836E-03,   195.479E-06
C:/temp/dataset/4/29_4.odb,Step-1,Increment      1: Step Time =    1.000,"PART-1-1",           265,      -7.77287,       1.11371,            0.,NA,NA,"",       3.34907,      -2.58388,      -2.13069,   1.78040E-06
C:/temp/dataset/4/29_4.odb,Step-1,Increment      1: Step Time =    1.000,"PART-1-1",           266,      -3.71710,       1.36231,            0.,NA,NA,"",       3.12371,      -2.63822,      -1.67254,   19.5729E-06
C:/temp/dataset/4/29_4.odb,Step-1,Increment      1: Step Time =    1.000,"PART-1-1",           267,       2.85817,       1.10052,            0.,NA,NA,"",       2.80817,      -2.65130,  -925.443E-03,   190.540E-06
C:/temp/dataset/4/29_4.odb,Step-1,Increment      1: Step Time =    1.000,"PART-1-1",           268,       7.51165,      -2.37377,            0.,NA,NA,"",       2.31799,      -2.28706,  -377.377E-03,   1.87283E-03
C:/temp/dataset/4/29_4.odb,Step-1,Increment      1: Step Time =    1.000,"PART-1-1",           269,      -1.84913,   666.939E-03,            0.,NA,NA,"",       2.95523,      -2.57148,      -1.45631,   54.4372E-06
C:/temp/dataset/4/29_4.odb,Step-1,Increment      1: Step Time =    1.000,"PART-1-1",           270,   621.955E-03,   989.730E-03,            0.,NA,NA,"",       2.87650,      -2.62413,      -1.17822,   124.006E-06
C:/temp/dataset/4/29_4.odb,Step-1,Increment      1: Step Time =    1.000,"PART-1-1",           271,       7.77182,      -4.29185,            0.,NA,NA,"",       2.09475,      -2.06785,  -334.592E-03,   3.71965E-03
C:/temp/dataset/4/29_4.odb,Step-1,Increment      1: Step Time =    1.000,"PART-1-1",           272,       6.40836,       5.42027,            0.,NA,NA,"",       3.20911,      -3.16132,  -551.738E-03,   239.742E-06
C:/temp/dataset/4/29_4.odb,Step-1,Increment      1: Step Time =    1.000,"PART-1-1",           273,      -12.5139,      -2.82358,            0.,NA,NA,"",       3.37988,      -2.10701,      -2.64274,   776.209E-09
C:/temp/dataset/4/29_4.odb,Step-1,Increment      1: Step Time =    1.000,"PART-1-1",           274,       10.8188,      -25.6946,            0.,NA,NA,"",   99.9098E-03,  -96.7641E-03,   24.8734E-03,   10.4954E-03
C:/temp/dataset/4/29_4.odb,Step-1,Increment      1: Step Time =    1.000,"PART-1-1",           275,       6.49302,  -163.532E-03,            0.,NA,NA,"",       2.58220,      -2.53204,  -506.502E-03,   596.842E-06
C:/temp/dataset/4/29_4.odb,Step-1,Increment      1: Step Time =    1.000,"PART-1-1",           276,       7.60941,  -936.337E-03,            0.,NA,NA,"",       2.48034,      -2.45167,  -376.016E-03,   1.16294E-03
C:/temp/dataset/4/29_4.odb,Step-1,Increment      1: Step Time =    1.000,"PART-1-1",           277,       9.17282,      -2.25688,            0.,NA,NA,"",       2.31992,      -2.31186,  -193.253E-03,   2.60055E-03
C:/temp/dataset/4/29_4.odb,Step-1,Increment      1: Step Time =    1.000,"PART-1-1",           278,       9.10690,      -3.89703,            0.,NA,NA,"",       2.13091,      -2.12238,  -190.412E-03,   4.04844E-03
C:/temp/dataset/4/29_4.odb,Step-1,Increment      1: Step Time =    1.000,"PART-1-1",           279,      -7.91199,      -1.40732,            0.,NA,NA,"",       3.13289,      -2.29721,      -2.13022,   1.38887E-06
C:/temp/dataset/4/29_4.odb,Step-1,Increment      1: Step Time =    1.000,"PART-1-1",           280,      -9.83927,       21.3699,            0.,NA,NA,"",       5.46923,      -4.86673,      -2.49549,   1.37852E-09
C:/temp/dataset/4/29_4.odb,Step-1,Increment      1: Step Time =    1.000,"PART-1-1",           281,      -11.2653,       5.77953,            0.,NA,NA,"",       4.01076,      -3.09027,      -2.55665,   528.276E-09
C:/temp/dataset/4/29_4.odb,Step-1,Increment      1: Step Time =    1.000,"PART-1-1",           282,      -11.2487,       3.84080,            0.,NA,NA,"",       3.83452,      -2.87061,      -2.54227,   518.944E-09
C:/temp/dataset/4/29_4.odb,Step-1,Increment      1: Step Time =    1.000,"PART-1-1",           283,       3.11059,  -868.354E-03,            0.,NA,NA,"",       2.58583,      -2.42991,  -884.315E-03,   179.927E-06
C:/temp/dataset/4/29_4.odb,Step-1,Increment      1: Step Time =    1.000,"PART-1-1",           284,       4.50766,  -682.768E-03,            0.,NA,NA,"",       2.56539,      -2.46015,  -727.269E-03,   240.802E-06
C:/temp/dataset/4/29_4.odb,Step-1,Increment      1: Step Time =    1.000,"PART-1-1",           285,      -3.56662,  -854.847E-03,            0.,NA,NA,"",       2.89751,      -2.38787,      -1.64123,   26.4608E-06
C:/temp/dataset/4/29_4.odb,Step-1,Increment      1: Step Time =    1.000,"PART-1-1",           286,      -7.33150,       26.6843,            0.,NA,NA,"",       5.92713,      -5.48532,      -2.24547,   186.322E-12
C:/temp/dataset/4/29_4.odb,Step-1,Increment      1: Step Time =    1.000,"PART-1-1",           287,      -6.09303,       25.7233,            0.,NA,NA,"",       5.77900,      -5.38437,      -2.09889,   176.010E-12
C:/temp/dataset/4/29_4.odb,Step-1,Increment      1: Step Time =    1.000,"PART-1-1",           288,           -5.,        26.875,            0.,NA,NA,"",       5.86703,      -5.52196,      -1.98241,   135.095E-12
C:/temp/dataset/4/29_4.odb,Step-1,Increment      1: Step Time =    1.000,"PART-1-1",           289,      -6.23847,       27.8360,            0.,NA,NA,"",       6.01247,      -5.62291,      -2.12900,   134.573E-12
C:/temp/dataset/4/29_4.odb,Step-1,Increment      1: Step Time =    1.000,"PART-1-1",           290,      -8.20013,       25.3620,            0.,NA,NA,"",       5.81905,      -5.32983,      -2.33542,   260.678E-12
C:/temp/dataset/4/29_4.odb,Step-1,Increment      1: Step Time =    1.000,"PART-1-1",           291,      -8.98257,       24.1636,            0.,NA,NA,"",       5.72398,      -5.18894,      -2.41639,   496.012E-12
C:/temp/dataset/4/29_4.odb,Step-1,Increment      1: Step Time =    1.000,"PART-1-1",           292,      -7.83587,       23.3915,            0.,NA,NA,"",       5.59507,      -5.10881,      -2.28142,   540.242E-12
C:/temp/dataset/4/29_4.odb,Step-1,Increment      1: Step Time =    1.000,"PART-1-1",           293,      -7.05344,       24.5900,            0.,NA,NA,"",       5.69223,      -5.24971,      -2.20045,   365.245E-12
C:/temp/dataset/4/29_4.odb,Step-1,Increment      1: Step Time =    1.000,"PART-1-1",           294,      -6.78951,       20.5788,            0.,NA,NA,"",       5.25434,      -4.79671,      -2.14468,   1.59104E-09
C:/temp/dataset/4/29_4.odb,Step-1,Increment      1: Step Time =    1.000,"PART-1-1",           295,      -5.89603,       19.5861,            0.,NA,NA,"",       5.11322,      -4.68995,      -2.03700,   1.88597E-09
C:/temp/dataset/4/29_4.odb,Step-1,Increment      1: Step Time =    1.000,"PART-1-1",           296,           -5.,        20.625,            0.,NA,NA,"",       5.19052,      -4.81349,      -1.94213,   1.66782E-09
C:/temp/dataset/4/29_4.odb,Step-1,Increment      1: Step Time =    1.000,"PART-1-1",           297,      -5.89348,       21.6177,            0.,NA,NA,"",       5.33016,      -4.92025,      -2.04981,   856.403E-12
C:/temp/dataset/4/29_4.odb,Step-1,Increment      1: Step Time =    1.000,"PART-1-1",           298,      -7.97413,       13.6001,            0.,NA,NA,"",       4.57981,      -3.99799,      -2.23398,   16.2277E-09
C:/temp/dataset/4/29_4.odb,Step-1,Increment      1: Step Time =    1.000,"PART-1-1",           299,      -8.98702,       12.6704,            0.,NA,NA,"",       4.53766,      -3.88608,      -2.34281,   47.2719E-09
C:/temp/dataset/4/29_4.odb,Step-1,Increment      1: Step Time =    1.000,"PART-1-1",           300,      -8.00249,       11.5116,            0.,NA,NA,"",       4.36929,      -3.76107,      -2.22374,   62.7534E-09
C:/temp/dataset/4/29_4.odb,Step-1,Increment      1: Step Time =    1.000,"PART-1-1",           301,      -6.98959,       12.4413,            0.,NA,NA,"",       4.41281,      -3.87299,      -2.11491,   43.4045E-09
C:/temp/dataset/4/29_4.odb,Step-1,Increment      1: Step Time =    1.000,"PART-1-1",           302,      -9.95004,      -1.64066,            0.,NA,NA,"",       3.26577,      -2.25763,      -2.35973,   626.784E-09
C:/temp/dataset/4/29_4.odb,Step-1,Increment      1: Step Time =    1.000,"PART-1-1",           303,      -11.1983,  -513.068E-03,            0.,NA,NA,"",       3.45610,      -2.37740,      -2.50850,   556.537E-09
C:/temp/dataset/4/29_4.odb,Step-1,Increment      1: Step Time =    1.000,"PART-1-1",           304,      -12.5325,      -1.72297,            0.,NA,NA,"",       3.46599,      -2.23165,      -2.65194,   698.686E-09
C:/temp/dataset/4/29_4.odb,Step-1,Increment      1: Step Time =    1.000,"PART-1-1",           305,      -11.2842,      -2.85056,            0.,NA,NA,"",       3.27504,      -2.11188,      -2.50317,   840.210E-09
C:/temp/dataset/4/29_4.odb,Step-1,Increment      1: Step Time =    1.000,"PART-1-1",           306,      -10.2834,   741.336E-03,            0.,NA,NA,"",       3.49286,      -2.52549,      -2.41288,   456.388E-09
C:/temp/dataset/4/29_4.odb,Step-1,Increment      1: Step Time =    1.000,"PART-1-1",           307,      -11.7661,       1.72477,            0.,NA,NA,"",       3.68746,      -2.62741,      -2.58729,   362.369E-09
C:/temp/dataset/4/29_4.odb,Step-1,Increment      1: Step Time =    1.000,"PART-1-1",           308,      -12.6810,   470.366E-03,            0.,NA,NA,"",       3.65309,      -2.47932,      -2.68291,   476.415E-09
C:/temp/dataset/4/29_4.odb,Step-1,Increment      1: Step Time =    1.000,"PART-1-1",           309,         -1.25,           -5.,            0.,NA,NA,"",       2.35878,      -1.93286,      -1.35201,   64.9272E-06
C:/temp/dataset/4/29_4.odb,Step-1,Increment      1: Step Time =    1.000,"PART-1-1",           310,  -165.329E-03,      -4.13131,            0.,NA,NA,"",       2.38308,      -2.03828,      -1.23471,   79.9913E-06
C:/temp/dataset/4/29_4.odb,Step-1,Increment      1: Step Time =    1.000,"PART-1-1",           311,      -1.46228,      -3.26668,            0.,NA,NA,"",       2.54024,      -2.12800,      -1.38724,   59.6104E-06
C:/temp/dataset/4/29_4.odb,Step-1,Increment      1: Step Time =    1.000,"PART-1-1",           312,      -2.54695,      -4.13537,            0.,NA,NA,"",       2.52078,      -2.02254,      -1.50455,   19.6651E-06
C:/temp/dataset/4/29_4.odb,Step-1,Increment      1: Step Time =    1.000,"PART-1-1",           313,   769.081E-03,      -3.16387,            0.,NA,NA,"",       2.43480,      -2.15403,      -1.13508,   169.304E-06
C:/temp/dataset/4/29_4.odb,Step-1,Increment      1: Step Time =    1.000,"PART-1-1",           314,          1.25,           -5.,            0.,NA,NA,"",       2.22252,      -1.94875,      -1.06862,   172.799E-06
C:/temp/dataset/4/29_4.odb,Step-1,Increment      1: Step Time =    1.000,"PART-1-1",           315,       2.18441,      -4.03256,            0.,NA,NA,"",       2.28046,      -2.06436,  -968.979E-03,   299.766E-06
C:/temp/dataset/4/29_4.odb,Step-1,Increment      1: Step Time =    1.000,"PART-1-1",           316,       1.54561,       3.01681,            0.,NA,NA,"",       3.05908,      -2.85965,      -1.08643,   144.353E-06
C:/temp/dataset/4/29_4.odb,Step-1,Increment      1: Step Time =    1.000,"PART-1-1",           317,       2.64536,       4.01417,            0.,NA,NA,"",       3.13288,      -2.97954,  -968.156E-03,   173.945E-06
C:/temp/dataset/4/29_4.odb,Step-1,Increment      1: Step Time =    1.000,"PART-1-1",           318,          1.25,            5.,            0.,NA,NA,"",       3.28397,      -3.08241,      -1.13280,   142.627E-06
C:/temp/dataset/4/29_4.odb,Step-1,Increment      1: Step Time =    1.000,"PART-1-1",           319,   150.245E-03,       4.00264,            0.,NA,NA,"",       3.21569,      -2.96236,      -1.25104,   67.2922E-06
C:/temp/dataset/4/29_4.odb,Step-1,Increment      1: Step Time =    1.000,"PART-1-1",           320,   179.474E-03,      -1.21124,            0.,NA,NA,"",       2.66457,      -2.37175,      -1.21438,   125.760E-06
C:/temp/dataset/4/29_4.odb,Step-1,Increment      1: Step Time =    1.000,"PART-1-1",           321,  -580.901E-03,      -2.30818,            0.,NA,NA,"",       2.58873,      -2.24239,      -1.29353,   82.1689E-06
C:/temp/dataset/4/29_4.odb,Step-1,Increment      1: Step Time =    1.000,"PART-1-1",           322,       1.52946,      -2.06693,            0.,NA,NA,"",       2.51583,      -2.28350,      -1.05595,   151.951E-06
C:/temp/dataset/4/29_4.odb,Step-1,Increment      1: Step Time =    1.000,"PART-1-1",           323,       12.7868,      -3.71378,            0.,NA,NA,"",       2.18567,      -2.17524,   213.296E-03,   5.29085E-03
C:/temp/dataset/4/29_4.odb,Step-1,Increment      1: Step Time =    1.000,"PART-1-1",           324,       13.8814,      -5.00619,            0.,NA,NA,"",       2.06442,      -2.03618,   340.312E-03,   5.53653E-03
C:/temp/dataset/4/29_4.odb,Step-1,Increment      1: Step Time =    1.000,"PART-1-1",           325,           15.,         -3.75,            0.,NA,NA,"",       2.24184,      -2.19362,   462.445E-03,   4.20566E-03
C:/temp/dataset/4/29_4.odb,Step-1,Increment      1: Step Time =    1.000,"PART-1-1",           326,       13.9054,      -2.45760,            0.,NA,NA,"",       2.35428,      -2.33066,   332.698E-03,   4.23256E-03
C:/temp/dataset/4/29_4.odb,Step-1,Increment      1: Step Time =    1.000,"PART-1-1",           327,       5.10003,      -1.40311,            0.,NA,NA,"",       2.47082,      -2.38227,  -655.533E-03,   426.935E-06
C:/temp/dataset/4/29_4.odb,Step-1,Increment      1: Step Time =    1.000,"PART-1-1",           328,       3.80913,  -775.561E-03,            0.,NA,NA,"",       2.57438,      -2.44503,  -805.780E-03,   204.863E-06
C:/temp/dataset/4/29_4.odb,Step-1,Increment      1: Step Time =    1.000,"PART-1-1",           329,       3.52110,      -1.80919,            0.,NA,NA,"",       2.47009,      -2.32583,  -831.764E-03,   181.547E-06
C:/temp/dataset/4/29_4.odb,Step-1,Increment      1: Step Time =    1.000,"PART-1-1",           330,       4.81200,      -2.43673,            0.,NA,NA,"",       2.36322,      -2.26291,  -681.220E-03,   341.140E-06
C:/temp/dataset/4/29_4.odb,Step-1,Increment      1: Step Time =    1.000,"PART-1-1",           331,           15.,          3.75,            0.,NA,NA,"",       3.05698,      -3.02776,   421.685E-03,   433.588E-06
C:/temp/dataset/4/29_4.odb,Step-1,Increment      1: Step Time =    1.000,"PART-1-1",           332,       13.8386,       5.14064,            0.,NA,NA,"",       3.18879,      -3.17617,   283.332E-03,   193.806E-06
C:/temp/dataset/4/29_4.odb,Step-1,Increment      1: Step Time =    1.000,"PART-1-1",           333,       12.6076,       4.00525,            0.,NA,NA,"",       3.04497,      -3.04113,   152.796E-03,   217.761E-06
C:/temp/dataset/4/29_4.odb,Step-1,Increment      1: Step Time =    1.000,"PART-1-1",           334,       13.7689,       2.61462,            0.,NA,NA,"",       2.90750,      -2.89291,   290.962E-03,   429.972E-06
C:/temp/dataset/4/29_4.odb,Step-1,Increment      1: Step Time =    1.000,"PART-1-1",           335,       9.76439,       8.40859,            0.,NA,NA,"",       3.52268,      -3.51734,  -193.942E-03,   84.1139E-06
C:/temp/dataset/4/29_4.odb,Step-1,Increment      1: Step Time =    1.000,"PART-1-1",           336,       8.59642,       7.53369,            0.,NA,NA,"",       3.42686,      -3.41194,  -319.414E-03,   129.675E-06
C:/temp/dataset/4/29_4.odb,Step-1,Increment      1: Step Time =    1.000,"PART-1-1",           337,       9.44563,       6.06261,            0.,NA,NA,"",       3.25931,      -3.25224,  -214.659E-03,   182.425E-06
C:/temp/dataset/4/29_4.odb,Step-1,Increment      1: Step Time =    1.000,"PART-1-1",           338,       10.6136,       6.93751,            0.,NA,NA,"",       3.35880,      -3.35761,  -89.2832E-03,   151.659E-06
C:/temp/dataset/4/29_4.odb,Step-1,Increment      1: Step Time =    1.000,"PART-1-1",           339,       5.92452,       9.07762,            0.,NA,NA,"",       3.62326,      -3.56824,  -629.010E-03,   34.6086E-06
C:/temp/dataset/4/29_4.odb,Step-1,Increment      1: Step Time =    1.000,"PART-1-1",           340,            5.,         8.125,            0.,NA,NA,"",       3.53117,      -3.45559,  -726.703E-03,   72.2765E-06
C:/temp/dataset/4/29_4.odb,Step-1,Increment      1: Step Time =    1.000,"PART-1-1",           341,       5.83838,       7.03541,            0.,NA,NA,"",       3.39695,      -3.33879,  -625.920E-03,   98.3382E-06
C:/temp/dataset/4/29_4.odb,Step-1,Increment      1: Step Time =    1.000,"PART-1-1",           342,       6.76290,       7.98803,            0.,NA,NA,"",       3.49156,      -3.45139,  -528.107E-03,   115.187E-06
C:/temp/dataset/4/29_4.odb,Step-1,Increment      1: Step Time =    1.000,"PART-1-1",           343,       6.00358,       15.4027,            0.,NA,NA,"",       4.32868,      -4.27807,  -660.020E-03,   1.37647E-06
C:/temp/dataset/4/29_4.odb,Step-1,Increment      1: Step Time =    1.000,"PART-1-1",           344,            5.,        14.375,            0.,NA,NA,"",       4.22648,      -4.15647,  -766.095E-03,   2.95590E-06
C:/temp/dataset/4/29_4.odb,Step-1,Increment      1: Step Time =    1.000,"PART-1-1",           345,       5.99171,       13.2884,            0.,NA,NA,"",       4.09249,      -4.04086,  -648.009E-03,   1.69926E-06
C:/temp/dataset/4/29_4.odb,Step-1,Increment      1: Step Time =    1.000,"PART-1-1",           346,       6.99529,       14.3161,            0.,NA,NA,"",       4.19758,      -4.16245,  -541.933E-03,   1.67512E-06
C:/temp/dataset/4/29_4.odb,Step-1,Increment      1: Step Time =    1.000,"PART-1-1",           347,       11.7328,       24.6815,            0.,NA,NA,"",       5.35551,      -5.35497,  -75.9662E-03,   69.8460E-09
C:/temp/dataset/4/29_4.odb,Step-1,Increment      1: Step Time =    1.000,"PART-1-1",           348,       12.6496,       26.1279,            0.,NA,NA,"",       5.52301,      -5.52299,   17.7389E-03,   34.4700E-09
C:/temp/dataset/4/29_4.odb,Step-1,Increment      1: Step Time =    1.000,"PART-1-1",           349,       11.2054,       27.2635,            0.,NA,NA,"",       5.64328,      -5.64125,  -151.407E-03,   14.2509E-09
C:/temp/dataset/4/29_4.odb,Step-1,Increment      1: Step Time =    1.000,"PART-1-1",           350,       10.2886,       25.8171,            0.,NA,NA,"",       5.47872,      -5.47323,  -245.112E-03,   55.4418E-09
C:/temp/dataset/4/29_4.odb,Step-1,Increment      1: Step Time =    1.000,"PART-1-1",           351,       12.5134,       28.7000,            0.,NA,NA,"",       5.81065,      -5.81063,  -13.7654E-03,   2.86389E-09
C:/temp/dataset/4/29_4.odb,Step-1,Increment      1: Step Time =    1.000,"PART-1-1",           352,       13.7634,       27.4500,            0.,NA,NA,"",       5.67990,      -5.67831,   134.328E-03,   3.42339E-09
C:/temp/dataset/4/29_4.odb,Step-1,Increment      1: Step Time =    1.000,"PART-1-1",           353,           15.,         28.75,            0.,NA,NA,"",       5.83794,      -5.83193,   264.826E-03,   1.70739E-09
C:/temp/dataset/4/29_4.odb,Step-1,Increment      1: Step Time =    1.000,"PART-1-1",           354,         13.75,           30.,            0.,NA,NA,"",       5.96539,      -5.96424,   116.733E-03,   2.53994E-09
C:/temp/dataset/4/29_4.odb,Step-1,Increment      1: Step Time =    1.000,"PART-1-1",           355,      -3.83569,      -2.96698,            0.,NA,NA,"",       2.71251,      -2.14669,      -1.65814,   21.5057E-06
C:/temp/dataset/4/29_4.odb,Step-1,Increment      1: Step Time =    1.000,"PART-1-1",           356,      -2.47303,      -2.56070,            0.,NA,NA,"",       2.66754,      -2.20153,      -1.50632,   35.1801E-06
C:/temp/dataset/4/29_4.odb,Step-1,Increment      1: Step Time =    1.000,"PART-1-1",           357,      -2.95938,      -1.35275,            0.,NA,NA,"",       2.81358,      -2.33534,      -1.56921,   34.4147E-06
C:/temp/dataset/4/29_4.odb,Step-1,Increment      1: Step Time =    1.000,"PART-1-1",           358,      -4.32205,      -1.75903,            0.,NA,NA,"",       2.85703,      -2.28049,      -1.72104,   15.6478E-06
C:/temp/dataset/4/29_4.odb,Step-1,Increment      1: Step Time =    1.000,"PART-1-1",           359,       8.60967,      -7.25473,            0.,NA,NA,"",       1.74237,      -1.72841,  -220.064E-03,   6.64459E-03
C:/temp/dataset/4/29_4.odb,Step-1,Increment      1: Step Time =    1.000,"PART-1-1",           360,       7.51358,      -6.44375,            0.,NA,NA,"",       1.84929,      -1.81680,  -345.088E-03,   5.34680E-03
C:/temp/dataset/4/29_4.odb,Step-1,Increment      1: Step Time =    1.000,"PART-1-1",           361,       6.75300,      -7.77251,            0.,NA,NA,"",       1.71106,      -1.66001,  -414.848E-03,   6.32343E-03
C:/temp/dataset/4/29_4.odb,Step-1,Increment      1: Step Time =    1.000,"PART-1-1",           362,       7.84909,      -8.58350,            0.,NA,NA,"",       1.59780,      -1.57147,  -288.829E-03,   7.04509E-03
C:/temp/dataset/4/29_4.odb,Step-1,Increment      1: Step Time =    1.000,"PART-1-1",           363,       7.07130,      -14.2100,            0.,NA,NA,"",       1.00414,  -958.924E-03,  -297.937E-03,   12.1979E-03
C:/temp/dataset/4/29_4.odb,Step-1,Increment      1: Step Time =    1.000,"PART-1-1",           364,       6.02882,      -13.2279,            0.,NA,NA,"",       1.13813,      -1.05978,  -414.983E-03,   13.6985E-03
C:/temp/dataset/4/29_4.odb,Step-1,Increment      1: Step Time =    1.000,"PART-1-1",           365,            5.,       -14.375,            0.,NA,NA,"",       1.06870,  -946.765E-03,  -495.749E-03,   18.9170E-03
C:/temp/dataset/4/29_4.odb,Step-1,Increment      1: Step Time =    1.000,"PART-1-1",           366,       6.04247,      -15.3570,            0.,NA,NA,"",   927.101E-03,  -848.092E-03,  -374.507E-03,   16.6472E-03
C:/temp/dataset/4/29_4.odb,Step-1,Increment      1: Step Time =    1.000,"PART-1-1",           367,       7.02995,      -12.0379,            0.,NA,NA,"",       1.23086,      -1.18495,  -333.051E-03,   10.2789E-03
C:/temp/dataset/4/29_4.odb,Step-1,Increment      1: Step Time =    1.000,"PART-1-1",           368,       6.00113,      -11.1016,            0.,NA,NA,"",       1.36243,      -1.28505,  -452.615E-03,   10.7535E-03
C:/temp/dataset/4/29_4.odb,Step-1,Increment      1: Step Time =    1.000,"PART-1-1",           369,            5.,      -12.2917,            0.,NA,NA,"",       1.27723,      -1.15815,  -538.519E-03,   15.0555E-03
C:/temp/dataset/4/29_4.odb,Step-1,Increment      1: Step Time =    1.000,"PART-1-1",           370,            5.,      -22.7083,            0.,NA,NA,"",   389.179E-03,  -280.617E-03,  -269.656E-03,   33.9977E-03
C:/temp/dataset/4/29_4.odb,Step-1,Increment      1: Step Time =    1.000,"PART-1-1",           371,       6.05922,      -23.7899,            0.,NA,NA,"",   273.612E-03,  -207.038E-03,  -178.882E-03,   28.3470E-03
C:/temp/dataset/4/29_4.odb,Step-1,Increment      1: Step Time =    1.000,"PART-1-1",           372,       7.11013,      -22.7834,            0.,NA,NA,"",   293.873E-03,  -253.995E-03,  -147.810E-03,   20.2572E-03
C:/temp/dataset/4/29_4.odb,Step-1,Increment      1: Step Time =    1.000,"PART-1-1",           373,       6.05091,      -21.7018,            0.,NA,NA,"",   404.681E-03,  -330.704E-03,  -233.241E-03,   25.4495E-03
C:/temp/dataset/4/29_4.odb,Step-1,Increment      1: Step Time =    1.000,"PART-1-1",           374,          8.75,          -30.,            0.,NA,NA,"",            0.,   2.37405E-39,  -16.9167E-39,   8.21568E-03
C:/temp/dataset/4/29_4.odb,Step-1,Increment      1: Step Time =    1.000,"PART-1-1",           375,       9.84988,      -28.9274,            0.,NA,NA,"",   3.74347E-03,  -3.70427E-03,  -540.385E-06,   2.67335E-03
C:/temp/dataset/4/29_4.odb,Step-1,Increment      1: Step Time =    1.000,"PART-1-1",           376,       8.52411,      -27.9095,            0.,NA,NA,"",   30.5961E-03,  -23.9040E-03,  -19.0976E-03,   13.9990E-03
C:/temp/dataset/4/29_4.odb,Step-1,Increment      1: Step Time =    1.000,"PART-1-1",           377,       7.42422,      -28.9821,            0.,NA,NA,"",   17.3504E-03,  -6.80680E-03,  -15.9595E-03,   19.2615E-03
C:/temp/dataset/4/29_4.odb,Step-1,Increment      1: Step Time =    1.000,"PART-1-1",           378,       10.1104,      -23.9794,            0.,NA,NA,"",   177.145E-03,  -177.093E-03,   4.28116E-03,   7.94687E-03
C:/temp/dataset/4/29_4.odb,Step-1,Increment      1: Step Time =    1.000,"PART-1-1",           379,       11.1261,      -23.0268,            0.,NA,NA,"",   240.800E-03,  -235.065E-03,   52.2383E-03,   11.3431E-03
C:/temp/dataset/4/29_4.odb,Step-1,Increment      1: Step Time =    1.000,"PART-1-1",           380,       10.1523,      -21.9025,            0.,NA,NA,"",   302.770E-03,  -302.727E-03,   5.11728E-03,   7.87802E-03
C:/temp/dataset/4/29_4.odb,Step-1,Increment      1: Step Time =    1.000,"PART-1-1",           381,       9.13660,      -22.8552,            0.,NA,NA,"",   245.179E-03,  -241.238E-03,  -43.7832E-03,   9.70843E-03
C:/temp/dataset/4/29_4.odb,Step-1,Increment      1: Step Time =    1.000,"PART-1-1",           382,       7.09296,      -18.5383,            0.,NA,NA,"",   603.429E-03,  -559.336E-03,  -226.429E-03,   16.2254E-03
C:/temp/dataset/4/29_4.odb,Step-1,Increment      1: Step Time =    1.000,"PART-1-1",           383,       6.04465,      -17.4814,            0.,NA,NA,"",   733.018E-03,  -653.959E-03,  -331.139E-03,   19.6075E-03
C:/temp/dataset/4/29_4.odb,Step-1,Increment      1: Step Time =    1.000,"PART-1-1",           384,            5.,      -18.5417,            0.,NA,NA,"",   694.386E-03,  -572.206E-03,  -393.386E-03,   26.5083E-03
C:/temp/dataset/4/29_4.odb,Step-1,Increment      1: Step Time =    1.000,"PART-1-1",           385,       6.04831,      -19.5985,            0.,NA,NA,"",   558.049E-03,  -480.443E-03,  -283.890E-03,   22.5459E-03
C:/temp/dataset/4/29_4.odb,Step-1,Increment      1: Step Time =    1.000,"PART-1-1",           386,       8.88188,       22.9635,            0.,NA,NA,"",       5.15866,      -5.14428,  -384.893E-03,   209.328E-09
C:/temp/dataset/4/29_4.odb,Step-1,Increment      1: Step Time =    1.000,"PART-1-1",           387,       9.93448,       22.0483,            0.,NA,NA,"",       5.05502,      -5.04827,  -261.053E-03,   265.472E-09
C:/temp/dataset/4/29_4.odb,Step-1,Increment      1: Step Time =    1.000,"PART-1-1",           388,       10.8087,       23.3359,            0.,NA,NA,"",       5.20103,      -5.19821,  -171.127E-03,   182.562E-09
C:/temp/dataset/4/29_4.odb,Step-1,Increment      1: Step Time =    1.000,"PART-1-1",           389,       9.75606,       24.2511,            0.,NA,NA,"",       5.30243,      -5.29422,  -294.966E-03,   99.2885E-09
C:/temp/dataset/4/29_4.odb,Step-1,Increment      1: Step Time =    1.000,"PART-1-1",           390,       10.0218,       17.5512,            0.,NA,NA,"",       4.54987,      -4.54441,  -222.884E-03,   899.738E-09
C:/temp/dataset/4/29_4.odb,Step-1,Increment      1: Step Time =    1.000,"PART-1-1",           391,       9.00837,       16.4411,            0.,NA,NA,"",       4.42579,      -4.41350,  -329.549E-03,   841.763E-09
C:/temp/dataset/4/29_4.odb,Step-1,Increment      1: Step Time =    1.000,"PART-1-1",           392,       10.0249,       15.2736,            0.,NA,NA,"",       4.29402,      -4.28897,  -208.170E-03,   1.20883E-06
C:/temp/dataset/4/29_4.odb,Step-1,Increment      1: Step Time =    1.000,"PART-1-1",           393,       11.0383,       16.3837,            0.,NA,NA,"",       4.42104,      -4.41988,  -101.504E-03,   827.143E-09
C:/temp/dataset/4/29_4.odb,Step-1,Increment      1: Step Time =    1.000,"PART-1-1",           394,      -14.0638,       5.89996,            0.,NA,NA,"",       4.21739,      -3.08588,      -2.87466,   399.609E-09
C:/temp/dataset/4/29_4.odb,Step-1,Increment      1: Step Time =    1.000,"PART-1-1",           395,      -13.1194,       6.91794,            0.,NA,NA,"",       4.24066,      -3.20737,      -2.77416,   342.529E-09
C:/temp/dataset/4/29_4.odb,Step-1,Increment      1: Step Time =    1.000,"PART-1-1",           396,      -14.0556,       8.04923,            0.,NA,NA,"",       4.40728,      -3.32957,      -2.88758,   189.368E-09
C:/temp/dataset/4/29_4.odb,Step-1,Increment      1: Step Time =    1.000,"PART-1-1",           397,          -15.,       7.03125,            0.,NA,NA,"",       4.38411,      -3.20809,      -2.98807,   340.303E-09
C:/temp/dataset/4/29_4.odb,Step-1,Increment      1: Step Time =    1.000,"PART-1-1",           398,      -14.0181,       12.3521,            0.,NA,NA,"",       4.80085,      -3.81757,      -2.91106,   16.3766E-09
C:/temp/dataset/4/29_4.odb,Step-1,Increment      1: Step Time =    1.000,"PART-1-1",           399,      -13.0189,       13.2775,            0.,NA,NA,"",       4.82675,      -3.92892,      -2.80376,   20.3892E-09
C:/temp/dataset/4/29_4.odb,Step-1,Increment      1: Step Time =    1.000,"PART-1-1",           400,      -14.0008,       14.5192,            0.,NA,NA,"",       5.00550,      -4.06334,      -2.92308,   4.48497E-09
C:/temp/dataset/4/29_4.odb,Step-1,Increment      1: Step Time =    1.000,"PART-1-1",           401,          -15.,       13.5938,            0.,NA,NA,"",       4.98010,      -3.95199,      -3.03037,   5.38605E-09
C:/temp/dataset/4/29_4.odb,Step-1,Increment      1: Step Time =    1.000,"PART-1-1",           402,      -10.1942,       21.9572,            0.,NA,NA,"",       5.54654,      -4.93102,      -2.53951,   1.12505E-09
C:/temp/dataset/4/29_4.odb,Step-1,Increment      1: Step Time =    1.000,"PART-1-1",           403,      -9.14995,       21.4132,            0.,NA,NA,"",       5.44253,      -4.87608,      -2.41763,   1.25269E-09
C:/temp/dataset/4/29_4.odb,Step-1,Increment      1: Step Time =    1.000,"PART-1-1",           404,      -8.60578,       22.3365,            0.,NA,NA,"",       5.51555,      -4.98425,      -2.36190,   959.747E-12
C:/temp/dataset/4/29_4.odb,Step-1,Increment      1: Step Time =    1.000,"PART-1-1",           405,      -9.65000,       22.8805,            0.,NA,NA,"",       5.61806,      -5.03919,      -2.48377,   727.412E-12
C:/temp/dataset/4/29_4.odb,Step-1,Increment      1: Step Time =    1.000,"PART-1-1",           406,      -14.0213,       25.7108,            0.,NA,NA,"",       6.11668,      -5.33184,      -2.99753,   154.587E-12
C:/temp/dataset/4/29_4.odb,Step-1,Increment      1: Step Time =    1.000,"PART-1-1",           407,      -12.8802,       26.8172,            0.,NA,NA,"",       6.17491,      -5.46462,      -2.87531,   165.123E-12
C:/temp/dataset/4/29_4.odb,Step-1,Increment      1: Step Time =    1.000,"PART-1-1",           408,      -13.8589,       27.8252,            0.,NA,NA,"",       6.32536,      -5.57258,      -2.99275,   126.303E-12
C:/temp/dataset/4/29_4.odb,Step-1,Increment      1: Step Time =    1.000,"PART-1-1",           409,          -15.,       26.7188,            0.,NA,NA,"",       6.26853,      -5.43980,      -3.11497,   118.594E-12
C:/temp/dataset/4/29_4.odb,Step-1,Increment      1: Step Time =    1.000,"PART-1-1",           410,        -13.75,           30.,            0.,NA,NA,"",       6.54498,      -5.81980,      -2.99443,   126.973E-12
C:/temp/dataset/4/29_4.odb,Step-1,Increment      1: Step Time =    1.000,"PART-1-1",           411,          -15.,       28.9063,            0.,NA,NA,"",       6.49167,      -5.68776,      -3.12907,   120.212E-12
C:/temp/dataset/4/29_4.odb,Step-1,Increment      1: Step Time =    1.000,"PART-1-1",           412,      -12.6089,       28.9190,            0.,NA,NA,"",       6.38055,      -5.70462,      -2.85811,   131.678E-12
C:/temp/dataset/4/29_4.odb,Step-1,Increment      1: Step Time =    1.000,"PART-1-1",           413,      -11.4362,       27.6040,            0.,NA,NA,"",       6.19102,      -5.56312,      -2.71669,   149.648E-12
C:/temp/dataset/4/29_4.odb,Step-1,Increment      1: Step Time =    1.000,"PART-1-1",           414,      -10.0773,       28.6850,            0.,NA,NA,"",       6.24734,      -5.69442,      -2.56962,   139.269E-12
C:/temp/dataset/4/29_4.odb,Step-1,Increment      1: Step Time =    1.000,"PART-1-1",           415,        -11.25,           30.,            0.,NA,NA,"",       6.43488,      -5.83592,      -2.71103,   123.156E-12
C:/temp/dataset/4/29_4.odb,Step-1,Increment      1: Step Time =    1.000,"PART-1-1",           416,      -13.7240,       21.2404,            0.,NA,NA,"",       5.64928,      -4.82701,      -2.93502,   935.198E-12
C:/temp/dataset/4/29_4.odb,Step-1,Increment      1: Step Time =    1.000,"PART-1-1",           417,      -12.6979,       22.4429,            0.,NA,NA,"",       5.71744,      -4.96994,      -2.82645,   879.045E-12
C:/temp/dataset/4/29_4.odb,Step-1,Increment      1: Step Time =    1.000,"PART-1-1",           418,      -13.9739,       23.5463,            0.,NA,NA,"",       5.89451,      -5.08680,      -2.97821,   340.593E-12
C:/temp/dataset/4/29_4.odb,Step-1,Increment      1: Step Time =    1.000,"PART-1-1",           419,          -15.,       22.3438,            0.,NA,NA,"",       5.82837,      -4.94386,      -3.08677,   704.897E-12
C:/temp/dataset/4/29_4.odb,Step-1,Increment      1: Step Time =    1.000,"PART-1-1",           420,      -11.9375,       16.3352,            0.,NA,NA,"",       5.06306,      -4.28250,      -2.70088,   2.14902E-09
C:/temp/dataset/4/29_4.odb,Step-1,Increment      1: Step Time =    1.000,"PART-1-1",           421,      -10.8584,       17.1847,            0.,NA,NA,"",       5.09038,      -4.38574,      -2.58404,   2.55219E-09
C:/temp/dataset/4/29_4.odb,Step-1,Increment      1: Step Time =    1.000,"PART-1-1",           422,      -11.8099,       18.4796,            0.,NA,NA,"",       5.27063,      -4.52640,      -2.70024,   2.37879E-09
C:/temp/dataset/4/29_4.odb,Step-1,Increment      1: Step Time =    1.000,"PART-1-1",           423,      -12.8889,       17.6301,            0.,NA,NA,"",       5.24407,      -4.42315,      -2.81709,   2.48230E-09
C:/temp/dataset/4/29_4.odb,Step-1,Increment      1: Step Time =    1.000,"PART-1-1",           424,      -9.98079,       13.8692,            0.,NA,NA,"",       4.71085,      -4.01557,      -2.46319,   16.0768E-09
C:/temp/dataset/4/29_4.odb,Step-1,Increment      1: Step Time =    1.000,"PART-1-1",           425,      -11.0142,       12.9724,            0.,NA,NA,"",       4.67919,      -3.90724,      -2.57455,   36.5720E-09
C:/temp/dataset/4/29_4.odb,Step-1,Increment      1: Step Time =    1.000,"PART-1-1",           426,      -10.0204,       11.7735,            0.,NA,NA,"",       4.50493,      -3.77775,      -2.45417,   59.2755E-09
C:/temp/dataset/4/29_4.odb,Step-1,Increment      1: Step Time =    1.000,"PART-1-1",           427,      -6.95613,       14.5250,            0.,NA,NA,"",       4.62611,      -4.10940,      -2.12455,   6.26393E-09
C:/temp/dataset/4/29_4.odb,Step-1,Increment      1: Step Time =    1.000,"PART-1-1",           428,      -5.98929,       13.4097,            0.,NA,NA,"",       4.46597,      -3.98920,      -2.00776,   5.46271E-09
C:/temp/dataset/4/29_4.odb,Step-1,Increment      1: Step Time =    1.000,"PART-1-1",           429,           -5.,        14.375,            0.,NA,NA,"",       4.52417,      -4.10501,      -1.90184,   10.0510E-09
C:/temp/dataset/4/29_4.odb,Step-1,Increment      1: Step Time =    1.000,"PART-1-1",           430,      -5.96684,       15.4903,            0.,NA,NA,"",       4.68265,      -4.22520,      -2.01863,   4.59649E-09
C:/temp/dataset/4/29_4.odb,Step-1,Increment      1: Step Time =    1.000,"PART-1-1",           431,      -11.0581,       10.8707,            0.,NA,NA,"",       4.47703,      -3.66873,      -2.56598,   116.575E-09
C:/temp/dataset/4/29_4.odb,Step-1,Increment      1: Step Time =    1.000,"PART-1-1",           432,      -10.0579,       9.67932,            0.,NA,NA,"",       4.30234,      -3.54012,      -2.44493,   182.766E-09
C:/temp/dataset/4/29_4.odb,Step-1,Increment      1: Step Time =    1.000,"PART-1-1",           433,      -9.02030,       10.5821,            0.,NA,NA,"",       4.33125,      -3.64914,      -2.33312,   147.128E-09
C:/temp/dataset/4/29_4.odb,Step-1,Increment      1: Step Time =    1.000,"PART-1-1",           434,      -7.04064,       8.20966,            0.,NA,NA,"",       3.98681,      -3.39297,      -2.09342,   554.433E-09
C:/temp/dataset/4/29_4.odb,Step-1,Increment      1: Step Time =    1.000,"PART-1-1",           435,      -6.03068,       7.10065,            0.,NA,NA,"",       3.82172,      -3.27377,      -1.97179,   567.164E-09
C:/temp/dataset/4/29_4.odb,Step-1,Increment      1: Step Time =    1.000,"PART-1-1",           436,           -5.,         8.125,            0.,NA,NA,"",       3.87322,      -3.39653,      -1.86156,   398.028E-09
C:/temp/dataset/4/29_4.odb,Step-1,Increment      1: Step Time =    1.000,"PART-1-1",           437,      -6.00996,       9.23401,            0.,NA,NA,"",       4.03651,      -3.51573,      -1.98319,   144.010E-09
C:/temp/dataset/4/29_4.odb,Step-1,Increment      1: Step Time =    1.000,"PART-1-1",           438,      -13.0926,       9.02789,            0.,NA,NA,"",       4.43109,      -3.44672,      -2.78473,   185.884E-09
C:/temp/dataset/4/29_4.odb,Step-1,Increment      1: Step Time =    1.000,"PART-1-1",           439,      -14.0370,       10.1974,            0.,NA,NA,"",       4.60150,      -3.57320,      -2.89932,   67.0246E-09
C:/temp/dataset/4/29_4.odb,Step-1,Increment      1: Step Time =    1.000,"PART-1-1",           440,          -15.,       9.21875,            0.,NA,NA,"",       4.57792,      -3.45606,      -3.00217,   120.746E-09
C:/temp/dataset/4/29_4.odb,Step-1,Increment      1: Step Time =    1.000,"PART-1-1",           441,      -13.9055,       1.56280,            0.,NA,NA,"",       3.83891,      -2.59526,      -2.82875,   709.363E-09
C:/temp/dataset/4/29_4.odb,Step-1,Increment      1: Step Time =    1.000,"PART-1-1",           442,      -12.9296,       2.64306,            0.,NA,NA,"",       3.85310,      -2.72400,      -2.72510,   439.845E-09
C:/temp/dataset/4/29_4.odb,Step-1,Increment      1: Step Time =    1.000,"PART-1-1",           443,      -14.0241,       3.73651,            0.,NA,NA,"",       4.02848,      -2.84090,      -2.85621,   625.340E-09
C:/temp/dataset/4/29_4.odb,Step-1,Increment      1: Step Time =    1.000,"PART-1-1",           444,          -15.,       2.65625,            0.,NA,NA,"",       4.01455,      -2.71216,      -2.95987,   949.616E-09
C:/temp/dataset/4/29_4.odb,Step-1,Increment      1: Step Time =    1.000,"PART-1-1",           445,      -13.7570,      -2.81804,            0.,NA,NA,"",       3.48673,      -2.09963,      -2.78368,   458.096E-09
C:/temp/dataset/4/29_4.odb,Step-1,Increment      1: Step Time =    1.000,"PART-1-1",           446,      -13.7756,  -623.683E-03,            0.,NA,NA,"",       3.65430,      -2.34825,      -2.79993,   644.580E-09
C:/temp/dataset/4/29_4.odb,Step-1,Increment      1: Step Time =    1.000,"PART-1-1",           447,          -15.,      -1.71875,            0.,NA,NA,"",       3.67510,      -2.21623,      -2.93167,   547.916E-09
C:/temp/dataset/4/29_4.odb,Step-1,Increment      1: Step Time =    1.000,"PART-1-1",           448,        -13.75,           -5.,            0.,NA,NA,"",       3.33130,      -1.85234,      -2.76883,   154.567E-09
C:/temp/dataset/4/29_4.odb,Step-1,Increment      1: Step Time =    1.000,"PART-1-1",           449,      -12.5070,      -3.91179,            0.,NA,NA,"",       3.29818,      -1.98371,      -2.63493,   498.502E-09
C:/temp/dataset/4/29_4.odb,Step-1,Increment      1: Step Time =    1.000,"PART-1-1",           450,          -15.,      -3.90625,            0.,NA,NA,"",       3.51941,      -1.96827,      -2.91757,   110.590E-09
C:/temp/dataset/4/29_4.odb,Step-1,Increment      1: Step Time =    1.000,"PART-1-1",           451,          -15.,    468.75E-03,            0.,NA,NA,"",       3.84055,      -2.46419,      -2.94577,   937.096E-09
C:/temp/dataset/4/29_4.odb,Step-1,Increment      1: Step Time =    1.000,"PART-1-1",           452,      -5.10506,       2.56414,            0.,NA,NA,"",       3.32036,      -2.76549,      -1.83762,   8.33886E-06
C:/temp/dataset/4/29_4.odb,Step-1,Increment      1: Step Time =    1.000,"PART-1-1",           453,      -4.59209,       3.94539,            0.,NA,NA,"",       3.42871,      -2.92537,      -1.78837,   5.90048E-06
C:/temp/dataset/4/29_4.odb,Step-1,Increment      1: Step Time =    1.000,"PART-1-1",           454,      -6.09775,       4.77703,            0.,NA,NA,"",       3.59425,      -3.00994,      -1.96441,   1.00250E-06
C:/temp/dataset/4/29_4.odb,Step-1,Increment      1: Step Time =    1.000,"PART-1-1",           455,      -6.61072,       3.39578,            0.,NA,NA,"",       3.48965,      -2.85006,      -2.01366,   1.96643E-06
C:/temp/dataset/4/29_4.odb,Step-1,Increment      1: Step Time =    1.000,"PART-1-1",           456,       9.44090,      -5.60228,            0.,NA,NA,"",       1.93151,      -1.92621,  -142.953E-03,   5.68299E-03
C:/temp/dataset/4/29_4.odb,Step-1,Increment      1: Step Time =    1.000,"PART-1-1",           457,       9.79564,      -4.46986,            0.,NA,NA,"",       2.06390,      -2.06089,  -111.464E-03,   4.93479E-03
C:/temp/dataset/4/29_4.odb,Step-1,Increment      1: Step Time =    1.000,"PART-1-1",           458,       8.43936,      -4.09444,            0.,NA,NA,"",       2.11133,      -2.09496,  -262.396E-03,   3.82302E-03
C:/temp/dataset/4/29_4.odb,Step-1,Increment      1: Step Time =    1.000,"PART-1-1",           459,       8.08462,      -5.22686,            0.,NA,NA,"",       1.98308,      -1.96132,  -292.937E-03,   4.79163E-03
C:/temp/dataset/4/29_4.odb,Step-1,Increment      1: Step Time =    1.000,"PART-1-1",           460,       6.93926,      -9.88629,            0.,NA,NA,"",       1.46831,      -1.42083,  -370.384E-03,   8.37166E-03
C:/temp/dataset/4/29_4.odb,Step-1,Increment      1: Step Time =    1.000,"PART-1-1",           461,       5.93813,      -8.99303,            0.,NA,NA,"",       1.59546,      -1.51856,  -489.363E-03,   7.86698E-03
C:/temp/dataset/4/29_4.odb,Step-1,Increment      1: Step Time =    1.000,"PART-1-1",           462,            5.,      -10.2083,            0.,NA,NA,"",       1.49659,      -1.38160,  -575.281E-03,   11.1849E-03
C:/temp/dataset/4/29_4.odb,Step-1,Increment      1: Step Time =    1.000,"PART-1-1",           463,       12.9852,      -11.3613,            0.,NA,NA,"",       1.31198,      -1.28785,   250.455E-03,   9.63580E-03
C:/temp/dataset/4/29_4.odb,Step-1,Increment      1: Step Time =    1.000,"PART-1-1",           464,       14.0059,      -12.5461,            0.,NA,NA,"",       1.22021,      -1.16897,   349.882E-03,   13.1419E-03
C:/temp/dataset/4/29_4.odb,Step-1,Increment      1: Step Time =    1.000,"PART-1-1",           465,           15.,        -11.25,            0.,NA,NA,"",       1.39976,      -1.32131,   462.031E-03,   13.9760E-03
C:/temp/dataset/4/29_4.odb,Step-1,Increment      1: Step Time =    1.000,"PART-1-1",           466,       13.9793,      -10.0652,            0.,NA,NA,"",       1.48603,      -1.44253,   356.937E-03,   9.56042E-03
C:/temp/dataset/4/29_4.odb,Step-1,Increment      1: Step Time =    1.000,"PART-1-1",           467,       7.08713,      -16.3801,            0.,NA,NA,"",   793.777E-03,  -748.998E-03,  -262.837E-03,   14.1865E-03
C:/temp/dataset/4/29_4.odb,Step-1,Increment      1: Step Time =    1.000,"PART-1-1",           468,            5.,      -16.4583,            0.,NA,NA,"",   873.678E-03,  -750.497E-03,  -447.289E-03,   22.7305E-03
C:/temp/dataset/4/29_4.odb,Step-1,Increment      1: Step Time =    1.000,"PART-1-1",           469,       13.0372,      -13.8111,            0.,NA,NA,"",       1.05535,      -1.02573,   248.285E-03,   12.1857E-03
C:/temp/dataset/4/29_4.odb,Step-1,Increment      1: Step Time =    1.000,"PART-1-1",           470,       14.0313,      -15.0151,            0.,NA,NA,"",   972.830E-03,  -914.142E-03,   332.782E-03,   16.7152E-03
C:/temp/dataset/4/29_4.odb,Step-1,Increment      1: Step Time =    1.000,"PART-1-1",           471,           15.,        -13.75,            0.,NA,NA,"",       1.14245,      -1.05432,   440.019E-03,   18.2669E-03
C:/temp/dataset/4/29_4.odb,Step-1,Increment      1: Step Time =    1.000,"PART-1-1",           472,       13.0981,      -18.6529,            0.,NA,NA,"",   607.726E-03,  -568.743E-03,   214.154E-03,   17.5610E-03
C:/temp/dataset/4/29_4.odb,Step-1,Increment      1: Step Time =    1.000,"PART-1-1",           473,       14.0553,      -19.9280,            0.,NA,NA,"",   545.545E-03,  -476.879E-03,   264.965E-03,   23.9867E-03
C:/temp/dataset/4/29_4.odb,Step-1,Increment      1: Step Time =    1.000,"PART-1-1",           474,           15.,        -18.75,            0.,NA,NA,"",   686.815E-03,  -585.041E-03,   359.780E-03,   27.1583E-03
C:/temp/dataset/4/29_4.odb,Step-1,Increment      1: Step Time =    1.000,"PART-1-1",           475,       14.0427,      -17.4749,            0.,NA,NA,"",   746.608E-03,  -681.884E-03,   304.068E-03,   20.3377E-03
C:/temp/dataset/4/29_4.odb,Step-1,Increment      1: Step Time =    1.000,"PART-1-1",           476,       6.17422,      -27.9405,            0.,NA,NA,"",   70.0839E-03,  -41.3648E-03,  -56.5748E-03,   33.5295E-03
C:/temp/dataset/4/29_4.odb,Step-1,Increment      1: Step Time =    1.000,"PART-1-1",           477,            5.,      -28.9583,            0.,NA,NA,"",   56.0747E-03,  -36.2134E-03,  -42.8132E-03,   45.7791E-03
C:/temp/dataset/4/29_4.odb,Step-1,Increment      1: Step Time =    1.000,"PART-1-1",           478,          6.25,          -30.,            0.,NA,NA,"",            0.,   1.33462E-39,  -51.1587E-39,   32.5345E-03
C:/temp/dataset/4/29_4.odb,Step-1,Increment      1: Step Time =    1.000,"PART-1-1",           479,       9.46325,      -26.8820,            0.,NA,NA,"",   51.3904E-03,  -50.3260E-03,  -10.4053E-03,   8.91572E-03
C:/temp/dataset/4/29_4.odb,Step-1,Increment      1: Step Time =    1.000,"PART-1-1",           480,       8.20536,      -25.9154,            0.,NA,NA,"",   102.570E-03,  -89.3099E-03,  -50.4421E-03,   15.8971E-03
C:/temp/dataset/4/29_4.odb,Step-1,Increment      1: Step Time =    1.000,"PART-1-1",           481,       7.26622,      -26.9429,            0.,NA,NA,"",   82.9177E-03,  -59.0915E-03,  -58.1683E-03,   23.0096E-03
C:/temp/dataset/4/29_4.odb,Step-1,Increment      1: Step Time =    1.000,"PART-1-1",           482,       13.6319,      -27.3465,            0.,NA,NA,"",   92.8622E-03,  -60.1802E-03,   70.7229E-03,   31.9460E-03
C:/temp/dataset/4/29_4.odb,Step-1,Increment      1: Step Time =    1.000,"PART-1-1",           483,       12.3819,      -28.5965,            0.,NA,NA,"",   25.7613E-03,  -14.5466E-03,   21.2613E-03,   19.1831E-03
C:/temp/dataset/4/29_4.odb,Step-1,Increment      1: Step Time =    1.000,"PART-1-1",           484,         13.75,          -30.,            0.,NA,NA,"",            0.,   1.56561E-39,   51.0509E-39,   33.9347E-03
C:/temp/dataset/4/29_4.odb,Step-1,Increment      1: Step Time =    1.000,"PART-1-1",           485,           15.,        -28.75,            0.,NA,NA,"",   68.5655E-03,  -45.1610E-03,   51.5918E-03,   45.7485E-03
C:/temp/dataset/4/29_4.odb,Step-1,Increment      1: Step Time =    1.000,"PART-1-1",           486,         11.25,          -30.,            0.,NA,NA,"",            0.,   2.05892E-39,   16.9366E-39,   8.48875E-03
C:/temp/dataset/4/29_4.odb,Step-1,Increment      1: Step Time =    1.000,"PART-1-1",           487,       10.9817,      -27.5238,            0.,NA,NA,"",   36.9547E-03,  -33.1179E-03,   16.3967E-03,   12.1927E-03
C:/temp/dataset/4/29_4.odb,Step-1,Increment      1: Step Time =    1.000,"PART-1-1",           488,       10.1507,      -19.6985,            0.,NA,NA,"",   463.444E-03,  -463.440E-03,   1.79987E-03,   7.79025E-03
C:/temp/dataset/4/29_4.odb,Step-1,Increment      1: Step Time =    1.000,"PART-1-1",           489,       9.14094,      -20.7396,            0.,NA,NA,"",   387.277E-03,  -382.882E-03,  -58.1761E-03,   9.28539E-03
C:/temp/dataset/4/29_4.odb,Step-1,Increment      1: Step Time =    1.000,"PART-1-1",           490,       11.1621,      -20.8614,            0.,NA,NA,"",   384.961E-03,  -379.435E-03,   64.9944E-03,   10.6864E-03
C:/temp/dataset/4/29_4.odb,Step-1,Increment      1: Step Time =    1.000,"PART-1-1",           491,       7.09922,      -20.6753,            0.,NA,NA,"",   436.036E-03,  -393.389E-03,  -188.076E-03,   18.2746E-03
C:/temp/dataset/4/29_4.odb,Step-1,Increment      1: Step Time =    1.000,"PART-1-1",           492,            5.,       -20.625,            0.,NA,NA,"",   532.544E-03,  -414.660E-03,  -334.157E-03,   30.2424E-03
C:/temp/dataset/4/29_4.odb,Step-1,Increment      1: Step Time =    1.000,"PART-1-1",           493,       9.08758,      -14.0519,            0.,NA,NA,"",   983.760E-03,  -977.143E-03,  -113.904E-03,   8.51027E-03
C:/temp/dataset/4/29_4.odb,Step-1,Increment      1: Step Time =    1.000,"PART-1-1",           494,       10.1099,      -15.1447,            0.,NA,NA,"",   870.682E-03,  -870.533E-03,  -16.1046E-03,   7.71924E-03
C:/temp/dataset/4/29_4.odb,Step-1,Increment      1: Step Time =    1.000,"PART-1-1",           495,       11.0794,      -13.9187,            0.,NA,NA,"",       1.00166,  -999.451E-03,   66.5051E-03,   8.56428E-03
C:/temp/dataset/4/29_4.odb,Step-1,Increment      1: Step Time =    1.000,"PART-1-1",           496,       10.0571,      -12.8260,            0.,NA,NA,"",       1.10926,      -1.10879,  -32.4492E-03,   7.72449E-03
C:/temp/dataset/4/29_4.odb,Step-1,Increment      1: Step Time =    1.000,"PART-1-1",           497,       9.02765,      -11.7712,            0.,NA,NA,"",       1.22627,      -1.21840,  -138.739E-03,   8.28376E-03
C:/temp/dataset/4/29_4.odb,Step-1,Increment      1: Step Time =    1.000,"PART-1-1",           498,       11.0123,      -11.5393,            0.,NA,NA,"",       1.25454,      -1.25339,   53.7549E-03,   8.16972E-03
C:/temp/dataset/4/29_4.odb,Step-1,Increment      1: Step Time =    1.000,"PART-1-1",           499,       9.98284,      -10.4845,            0.,NA,NA,"",       1.36616,      -1.36510,  -53.7197E-03,   7.78159E-03
C:/temp/dataset/4/29_4.odb,Step-1,Increment      1: Step Time =    1.000,"PART-1-1",           500,       12.6190,       1.44886,            0.,NA,NA,"",       2.76107,      -2.75583,   170.050E-03,   766.655E-06
C:/temp/dataset/4/29_4.odb,Step-1,Increment      1: Step Time =    1.000,"PART-1-1",           501,       13.8500,   84.2405E-03,            0.,NA,NA,"",       2.63275,      -2.61380,   315.258E-03,   2.11936E-03
C:/temp/dataset/4/29_4.odb,Step-1,Increment      1: Step Time =    1.000,"PART-1-1",           502,           15.,          1.25,            0.,NA,NA,"",       2.78316,      -2.74889,   435.408E-03,   758.595E-06
C:/temp/dataset/4/29_4.odb,Step-1,Increment      1: Step Time =    1.000,"PART-1-1",           503,       10.0180,      -2.29938,            0.,NA,NA,"",       2.31550,      -2.31336,  -99.3689E-03,   2.97121E-03
C:/temp/dataset/4/29_4.odb,Step-1,Increment      1: Step Time =    1.000,"PART-1-1",           504,       9.13986,      -3.07696,            0.,NA,NA,"",       2.22563,      -2.21734,  -191.912E-03,   3.29045E-03
C:/temp/dataset/4/29_4.odb,Step-1,Increment      1: Step Time =    1.000,"PART-1-1",           505,       10.6738,      -3.69229,            0.,NA,NA,"",       2.15830,      -2.15821,  -19.6860E-03,   4.61653E-03
C:/temp/dataset/4/29_4.odb,Step-1,Increment      1: Step Time =    1.000,"PART-1-1",           506,       12.7589,       6.54544,            0.,NA,NA,"",       3.33053,      -3.32698,   153.625E-03,   148.734E-06
C:/temp/dataset/4/29_4.odb,Step-1,Increment      1: Step Time =    1.000,"PART-1-1",           507,           15.,          6.25,            0.,NA,NA,"",       3.33290,      -3.30800,   406.593E-03,   186.599E-06
C:/temp/dataset/4/29_4.odb,Step-1,Increment      1: Step Time =    1.000,"PART-1-1",           508,       13.9203,       7.65480,            0.,NA,NA,"",       3.46985,      -3.45879,   276.785E-03,   74.1362E-06
C:/temp/dataset/4/29_4.odb,Step-1,Increment      1: Step Time =    1.000,"PART-1-1",           509,       13.0275,       16.3263,            0.,NA,NA,"",       4.42767,      -4.42599,   121.976E-03,   679.805E-09
C:/temp/dataset/4/29_4.odb,Step-1,Increment      1: Step Time =    1.000,"PART-1-1",           510,       14.0150,       15.0581,            0.,NA,NA,"",       4.29671,      -4.28996,   240.755E-03,   1.48895E-06
C:/temp/dataset/4/29_4.odb,Step-1,Increment      1: Step Time =    1.000,"PART-1-1",           511,           15.,         16.25,            0.,NA,NA,"",       4.44319,      -4.42987,   343.710E-03,   2.10178E-06
C:/temp/dataset/4/29_4.odb,Step-1,Increment      1: Step Time =    1.000,"PART-1-1",           512,       14.0124,       17.5182,            0.,NA,NA,"",       4.57143,      -4.56590,   224.931E-03,   979.291E-09
C:/temp/dataset/4/29_4.odb,Step-1,Increment      1: Step Time =    1.000,"PART-1-1",           513,       13.0175,       18.7421,            0.,NA,NA,"",       4.69807,      -4.69689,   105.613E-03,   715.991E-09
C:/temp/dataset/4/29_4.odb,Step-1,Increment      1: Step Time =    1.000,"PART-1-1",           514,           15.,         18.75,            0.,NA,NA,"",       4.72169,      -4.71029,   327.931E-03,   969.902E-09
C:/temp/dataset/4/29_4.odb,Step-1,Increment      1: Step Time =    1.000,"PART-1-1",           515,       14.0051,       19.9738,            0.,NA,NA,"",       4.84577,      -4.84128,   208.612E-03,   418.027E-09
C:/temp/dataset/4/29_4.odb,Step-1,Increment      1: Step Time =    1.000,"PART-1-1",           516,       5.97628,       21.7197,            0.,NA,NA,"",       5.03574,      -4.98644,  -702.947E-03,   195.276E-09
C:/temp/dataset/4/29_4.odb,Step-1,Increment      1: Step Time =    1.000,"PART-1-1",           517,       6.92463,       22.7965,            0.,NA,NA,"",       5.14868,      -5.11320,  -603.372E-03,   187.084E-09
C:/temp/dataset/4/29_4.odb,Step-1,Increment      1: Step Time =    1.000,"PART-1-1",           518,       5.94835,       23.7852,            0.,NA,NA,"",       5.26725,      -5.21793,  -719.114E-03,   62.0373E-09
C:/temp/dataset/4/29_4.odb,Step-1,Increment      1: Step Time =    1.000,"PART-1-1",           519,            5.,       22.7083,            0.,NA,NA,"",       5.15657,      -5.09117,  -818.690E-03,   129.669E-09
C:/temp/dataset/4/29_4.odb,Step-1,Increment      1: Step Time =    1.000,"PART-1-1",           520,       13.8862,       24.9278,            0.,NA,NA,"",       5.39868,      -5.39619,   164.013E-03,   30.5960E-09
C:/temp/dataset/4/29_4.odb,Step-1,Increment      1: Step Time =    1.000,"PART-1-1",           521,           15.,         26.25,            0.,NA,NA,"",       5.55860,      -5.55152,   280.602E-03,   6.17182E-09
C:/temp/dataset/4/29_4.odb,Step-1,Increment      1: Step Time =    1.000,"PART-1-1",           522,       6.15342,       27.8650,            0.,NA,NA,"",       5.72255,      -5.67684,  -721.857E-03,   2.06626E-09
C:/temp/dataset/4/29_4.odb,Step-1,Increment      1: Step Time =    1.000,"PART-1-1",           523,       7.40342,       28.9067,            0.,NA,NA,"",       5.83131,      -5.80156,  -588.225E-03,   1.72267E-09
C:/temp/dataset/4/29_4.odb,Step-1,Increment      1: Step Time =    1.000,"PART-1-1",           524,          6.25,           30.,            0.,NA,NA,"",       5.96111,      -5.91692,  -724.497E-03,   2.21111E-09
C:/temp/dataset/4/29_4.odb,Step-1,Increment      1: Step Time =    1.000,"PART-1-1",           525,            5.,       28.9583,            0.,NA,NA,"",       5.85541,      -5.79219,  -858.129E-03,   1.72232E-09
C:/temp/dataset/4/29_4.odb,Step-1,Increment      1: Step Time =    1.000,"PART-1-1",           526,       7.11917,       26.8292,            0.,NA,NA,"",       5.59975,      -5.56675,  -606.999E-03,   17.5378E-09
C:/temp/dataset/4/29_4.odb,Step-1,Increment      1: Step Time =    1.000,"PART-1-1",           527,            5.,        26.875,            0.,NA,NA,"",       5.62237,      -5.55852,  -844.983E-03,   1.22426E-09
C:/temp/dataset/4/29_4.odb,Step-1,Increment      1: Step Time =    1.000,"PART-1-1",           528,       5.96574,       25.8392,            0.,NA,NA,"",       5.49713,      -5.44843,  -730.125E-03,   14.1004E-09
C:/temp/dataset/4/29_4.odb,Step-1,Increment      1: Step Time =    1.000,"PART-1-1",           529,       8.59546,       27.4701,            0.,NA,NA,"",       5.66550,      -5.64796,  -445.457E-03,   13.6509E-09
C:/temp/dataset/4/29_4.odb,Step-1,Increment      1: Step Time =    1.000,"PART-1-1",           530,       9.94204,       28.5635,            0.,NA,NA,"",       5.78694,      -5.77909,  -301.318E-03,   7.88646E-09
C:/temp/dataset/4/29_4.odb,Step-1,Increment      1: Step Time =    1.000,"PART-1-1",           531,          8.75,           30.,            0.,NA,NA,"",       5.94929,      -5.93269,  -444.087E-03,   4.66116E-09
C:/temp/dataset/4/29_4.odb,Step-1,Increment      1: Step Time =    1.000,"PART-1-1",           532,            5.,       24.7917,            0.,NA,NA,"",       5.38942,      -5.32484,  -831.836E-03,   25.5102E-09
C:/temp/dataset/4/29_4.odb,Step-1,Increment      1: Step Time =    1.000,"PART-1-1",           533,       6.91409,       24.8327,            0.,NA,NA,"",       5.37708,      -5.34152,  -617.403E-03,   65.5623E-09
C:/temp/dataset/4/29_4.odb,Step-1,Increment      1: Step Time =    1.000,"PART-1-1",           534,            5.,        20.625,            0.,NA,NA,"",       4.92383,      -4.85749,  -805.543E-03,   413.769E-09
C:/temp/dataset/4/29_4.odb,Step-1,Increment      1: Step Time =    1.000,"PART-1-1",           535,       5.99534,       19.6263,            0.,NA,NA,"",       4.80124,      -4.75175,  -687.599E-03,   481.718E-09
C:/temp/dataset/4/29_4.odb,Step-1,Increment      1: Step Time =    1.000,"PART-1-1",           536,       6.97162,       20.7210,            0.,NA,NA,"",       4.91563,      -4.88070,  -585.004E-03,   429.370E-09
C:/temp/dataset/4/29_4.odb,Step-1,Increment      1: Step Time =    1.000,"PART-1-1",           537,       9.90537,       10.7177,            0.,NA,NA,"",       3.78213,      -3.77721,  -192.794E-03,   27.6493E-06
C:/temp/dataset/4/29_4.odb,Step-1,Increment      1: Step Time =    1.000,"PART-1-1",           538,       8.83179,       9.75083,            0.,NA,NA,"",       3.67488,      -3.66203,  -307.100E-03,   55.2497E-06
C:/temp/dataset/4/29_4.odb,Step-1,Increment      1: Step Time =    1.000,"PART-1-1",           539,       10.8380,       9.37550,            0.,NA,NA,"",       3.63338,      -3.63251,  -79.6794E-03,   64.3085E-06
C:/temp/dataset/4/29_4.odb,Step-1,Increment      1: Step Time =    1.000,"PART-1-1",           540,       5.96737,       11.1773,            0.,NA,NA,"",       3.85698,      -3.80395,  -637.425E-03,   9.48654E-06
C:/temp/dataset/4/29_4.odb,Step-1,Increment      1: Step Time =    1.000,"PART-1-1",           541,       6.95908,       12.1740,            0.,NA,NA,"",       3.95796,      -3.92198,  -532.479E-03,   11.2454E-06
C:/temp/dataset/4/29_4.odb,Step-1,Increment      1: Step Time =    1.000,"PART-1-1",           542,            5.,       12.2917,            0.,NA,NA,"",       3.99442,      -3.92282,  -752.944E-03,   1.88575E-06
C:/temp/dataset/4/29_4.odb,Step-1,Increment      1: Step Time =    1.000,"PART-1-1",           543,       6.89189,       10.0466,            0.,NA,NA,"",       3.72044,      -3.68299,  -526.600E-03,   36.6526E-06
C:/temp/dataset/4/29_4.odb,Step-1,Increment      1: Step Time =    1.000,"PART-1-1",           544,            5.,       10.2083,            0.,NA,NA,"",       3.76264,      -3.68919,  -739.809E-03,   14.6288E-06
C:/temp/dataset/4/29_4.odb,Step-1,Increment      1: Step Time =    1.000,"PART-1-1",           545,  -883.251E-03,       2.97832,            0.,NA,NA,"",       3.14923,      -2.83965,      -1.36162,   63.5001E-06
C:/temp/dataset/4/29_4.odb,Step-1,Increment      1: Step Time =    1.000,"PART-1-1",           546,         -1.25,            5.,            0.,NA,NA,"",       3.37769,      -3.06643,      -1.41625,   41.6135E-06
C:/temp/dataset/4/29_4.odb,Step-1,Increment      1: Step Time =    1.000,"PART-1-1",           547,      -2.28350,       3.97568,            0.,NA,NA,"",       3.31608,      -2.94367,      -1.52682,   22.4353E-06
C:/temp/dataset/4/29_4.odb,Step-1,Increment      1: Step Time =    1.000,"PART-1-1",           548,      -3.12559,       2.92107,            0.,NA,NA,"",       3.24884,      -2.81871,      -1.61550,   25.8455E-06
C:/temp/dataset/4/29_4.odb,Step-1,Increment      1: Step Time =    1.000,"PART-1-1",           549,         -3.75,            5.,            0.,NA,NA,"",       3.49194,      -3.05035,      -1.69970,   8.48248E-06
C:/temp/dataset/4/29_4.odb,Step-1,Increment      1: Step Time =    1.000,"PART-1-1",           550,      -7.01026,       10.3490,            0.,NA,NA,"",       4.20048,      -3.63568,      -2.10377,   126.780E-09
C:/temp/dataset/4/29_4.odb,Step-1,Increment      1: Step Time =    1.000,"PART-1-1",           551,           -5.,       10.2083,            0.,NA,NA,"",       4.08803,      -3.63269,      -1.87499,   91.6481E-09
C:/temp/dataset/4/29_4.odb,Step-1,Increment      1: Step Time =    1.000,"PART-1-1",           552,      -6.00030,       11.3233,            0.,NA,NA,"",       4.25024,      -3.75263,      -1.99556,   39.6032E-09
C:/temp/dataset/4/29_4.odb,Step-1,Increment      1: Step Time =    1.000,"PART-1-1",           553,      -6.90277,       16.5792,            0.,NA,NA,"",       4.83762,      -4.34261,      -2.13174,   2.10926E-09
C:/temp/dataset/4/29_4.odb,Step-1,Increment      1: Step Time =    1.000,"PART-1-1",           554,           -5.,       16.4583,            0.,NA,NA,"",       4.74489,      -4.34117,      -1.91527,   7.13255E-09
C:/temp/dataset/4/29_4.odb,Step-1,Increment      1: Step Time =    1.000,"PART-1-1",           555,      -5.93592,       17.5473,            0.,NA,NA,"",       4.89829,      -4.45857,      -2.02838,   3.59188E-09
C:/temp/dataset/4/29_4.odb,Step-1,Increment      1: Step Time =    1.000,"PART-1-1",           556,      -5.96041,       23.6583,            0.,NA,NA,"",       5.55171,      -5.15114,      -2.07055,   353.105E-12
C:/temp/dataset/4/29_4.odb,Step-1,Increment      1: Step Time =    1.000,"PART-1-1",           557,           -5.,       24.7917,            0.,NA,NA,"",       5.64062,      -5.28581,      -1.96898,   230.345E-12
C:/temp/dataset/4/29_4.odb,Step-1,Increment      1: Step Time =    1.000,"PART-1-1",           558,      -7.48847,       28.8776,            0.,NA,NA,"",       6.16872,      -5.73294,      -2.27741,   129.975E-12
C:/temp/dataset/4/29_4.odb,Step-1,Increment      1: Step Time =    1.000,"PART-1-1",           559,           -5.,       28.9583,            0.,NA,NA,"",       6.09421,      -5.75812,      -1.99584,   127.941E-12
C:/temp/dataset/4/29_4.odb,Step-1,Increment      1: Step Time =    1.000,"PART-1-1",           560,         -6.25,           30.,            0.,NA,NA,"",       6.24764,      -5.86815,      -2.14425,   119.170E-12
C:/temp/dataset/4/29_4.odb,Step-1,Increment      1: Step Time =    1.000,"PART-1-1",           561,       12.9634,       11.4929,            0.,NA,NA,"",       3.88612,      -3.88341,   145.300E-03,   17.8083E-06
C:/temp/dataset/4/29_4.odb,Step-1,Increment      1: Step Time =    1.000,"PART-1-1",           562,       13.9657,       10.1417,            0.,NA,NA,"",       3.74761,      -3.73814,   266.239E-03,   18.3939E-06
C:/temp/dataset/4/29_4.odb,Step-1,Increment      1: Step Time =    1.000,"PART-1-1",           563,           15.,         11.25,            0.,NA,NA,"",       3.88717,      -3.86901,   375.276E-03,   6.92629E-06
C:/temp/dataset/4/29_4.odb,Step-1,Increment      1: Step Time =    1.000,"PART-1-1",           564,       13.9978,       12.6011,            0.,NA,NA,"",       4.02231,      -4.01426,   254.323E-03,   2.96221E-06
C:/temp/dataset/4/29_4.odb,Step-1,Increment      1: Step Time =    1.000,"PART-1-1",           565,       9.13480,      -18.5479,            0.,NA,NA,"",   560.368E-03,  -555.391E-03,  -74.5192E-03,   8.97300E-03
C:/temp/dataset/4/29_4.odb,Step-1,Increment      1: Step Time =    1.000,"PART-1-1",           566,       11.1537,      -18.5886,            0.,NA,NA,"",   563.090E-03,  -558.510E-03,   71.6690E-03,   9.91036E-03
C:/temp/dataset/4/29_4.odb,Step-1,Increment      1: Step Time =    1.000,"PART-1-1",           567,       10.1377,      -17.4381,            0.,NA,NA,"",   654.147E-03,  -654.127E-03,  -5.07032E-03,   7.74641E-03
C:/temp/dataset/4/29_4.odb,Step-1,Increment      1: Step Time =    1.000,"PART-1-1",           568,      -8.81573,       27.5627,            0.,NA,NA,"",       6.07763,      -5.57532,      -2.41938,   154.876E-12
C:/temp/dataset/4/29_4.odb,Step-1,Increment      1: Step Time =    1.000,"PART-1-1",           569,         -8.75,           30.,            0.,NA,NA,"",       6.33559,      -5.85203,      -2.42764,   118.968E-12
C:/temp/dataset/4/29_4.odb,Step-1,Increment      1: Step Time =    1.000,"PART-1-1",           570,            5.,      -24.7917,            0.,NA,NA,"",   264.022E-03,  -172.640E-03,  -199.757E-03,   37.2461E-03
C:/temp/dataset/4/29_4.odb,Step-1,Increment      1: Step Time =    1.000,"PART-1-1",           571,       6.09200,      -25.8775,            0.,NA,NA,"",   163.711E-03,  -111.214E-03,  -120.137E-03,   30.9422E-03
C:/temp/dataset/4/29_4.odb,Step-1,Increment      1: Step Time =    1.000,"PART-1-1",           572,       7.15121,      -24.8757,            0.,NA,NA,"",   176.199E-03,  -142.016E-03,  -104.297E-03,   22.3219E-03
C:/temp/dataset/4/29_4.odb,Step-1,Increment      1: Step Time =    1.000,"PART-1-1",           573,       13.1040,      -21.0477,            0.,NA,NA,"",   423.195E-03,  -381.827E-03,   182.487E-03,   20.1996E-03
C:/temp/dataset/4/29_4.odb,Step-1,Increment      1: Step Time =    1.000,"PART-1-1",           574,       14.0487,      -22.3697,            0.,NA,NA,"",   371.835E-03,  -303.879E-03,   214.286E-03,   27.5807E-03
C:/temp/dataset/4/29_4.odb,Step-1,Increment      1: Step Time =    1.000,"PART-1-1",           575,           15.,        -21.25,            0.,NA,NA,"",   495.087E-03,  -393.155E-03,   300.898E-03,   31.6935E-03
C:/temp/dataset/4/29_4.odb,Step-1,Increment      1: Step Time =    1.000,"PART-1-1",           576,            5.,       -26.875,            0.,NA,NA,"",   157.000E-03,  -93.3846E-03,  -126.207E-03,   41.3100E-03
C:/temp/dataset/4/29_4.odb,Step-1,Increment      1: Step Time =    1.000,"PART-1-1",           577,       12.8133,      -6.31290,            0.,NA,NA,"",       1.88441,      -1.87093,   224.970E-03,   7.54052E-03
C:/temp/dataset/4/29_4.odb,Step-1,Increment      1: Step Time =    1.000,"PART-1-1",           578,       13.9319,      -7.55671,            0.,NA,NA,"",       1.76978,      -1.73458,   351.198E-03,   7.56151E-03
C:/temp/dataset/4/29_4.odb,Step-1,Increment      1: Step Time =    1.000,"PART-1-1",           579,           15.,         -6.25,            0.,NA,NA,"",       1.96079,      -1.90317,   471.870E-03,   6.33686E-03
C:/temp/dataset/4/29_4.odb,Step-1,Increment      1: Step Time =    1.000,"PART-1-1",           580,            5.,       18.5417,            0.,NA,NA,"",       4.69122,      -4.62382,  -792.395E-03,   1.04667E-06
C:/temp/dataset/4/29_4.odb,Step-1,Increment      1: Step Time =    1.000,"PART-1-1",           581,       6.00122,       17.5195,            0.,NA,NA,"",       4.56545,      -4.51548,  -673.644E-03,   975.284E-09
C:/temp/dataset/4/29_4.odb,Step-1,Increment      1: Step Time =    1.000,"PART-1-1",           582,       6.99656,       18.6041,            0.,NA,NA,"",       4.67813,      -4.64342,  -568.848E-03,   751.554E-09
C:/temp/dataset/4/29_4.odb,Step-1,Increment      1: Step Time =    1.000,"PART-1-1",           583,       12.8545,       23.6160,            0.,NA,NA,"",       5.24284,      -5.24254,   56.5729E-03,   134.481E-09
C:/temp/dataset/4/29_4.odb,Step-1,Increment      1: Step Time =    1.000,"PART-1-1",           584,       13.9683,       22.4382,            0.,NA,NA,"",       5.12094,      -5.11746,   188.937E-03,   133.042E-09
C:/temp/dataset/4/29_4.odb,Step-1,Increment      1: Step Time =    1.000,"PART-1-1",           585,           15.,         23.75,            0.,NA,NA,"",       5.27943,      -5.27111,   296.378E-03,   69.8993E-09
C:/temp/dataset/4/29_4.odb,Step-1,Increment      1: Step Time =    1.000,"PART-1-1",           586,            5.,       16.4583,            0.,NA,NA,"",       4.45876,      -4.39014,  -779.246E-03,   2.02400E-06
C:/temp/dataset/4/29_4.odb,Step-1,Increment      1: Step Time =    1.000,"PART-1-1",           587,       7.00480,       16.4638,            0.,NA,NA,"",       4.43817,      -4.40340,  -554.419E-03,   732.594E-09
C:/temp/dataset/4/29_4.odb,Step-1,Increment      1: Step Time =    1.000,"PART-1-1",           588,       12.9734,       21.1620,            0.,NA,NA,"",       4.96877,      -4.96804,   85.3956E-03,   372.536E-09
C:/temp/dataset/4/29_4.odb,Step-1,Increment      1: Step Time =    1.000,"PART-1-1",           589,           15.,         21.25,            0.,NA,NA,"",       5.00045,      -4.99070,   312.154E-03,   313.221E-09
C:/temp/dataset/4/29_4.odb,Step-1,Increment      1: Step Time =    1.000,"PART-1-1",           590,            5.,       6.04167,            0.,NA,NA,"",       3.30020,      -3.22207,  -713.853E-03,   365.919E-06
C:/temp/dataset/4/29_4.odb,Step-1,Increment      1: Step Time =    1.000,"PART-1-1",           591,       5.70418,       5.21013,            0.,NA,NA,"",       3.19608,      -3.13344,  -629.663E-03,   371.836E-06
C:/temp/dataset/4/29_4.odb,Step-1,Increment      1: Step Time =    1.000,"PART-1-1",           592,       6.54256,       6.20387,            0.,NA,NA,"",       3.29486,      -3.25004,  -541.638E-03,   199.923E-06
C:/temp/dataset/4/29_4.odb,Step-1,Increment      1: Step Time =    1.000,"PART-1-1",           593,       7.80464,       8.81181,            0.,NA,NA,"",       3.57462,      -3.55029,  -416.397E-03,   68.4421E-06
C:/temp/dataset/4/29_4.odb,Step-1,Increment      1: Step Time =    1.000,"PART-1-1",           594,       7.55468,       6.70991,            0.,NA,NA,"",       3.34101,      -3.31308,  -431.123E-03,   162.267E-06
C:/temp/dataset/4/29_4.odb,Step-1,Increment      1: Step Time =    1.000,"PART-1-1",           595,           -5.,       12.2917,            0.,NA,NA,"",       4.30512,      -3.86885,      -1.88841,   14.1173E-09
C:/temp/dataset/4/29_4.odb,Step-1,Increment      1: Step Time =    1.000,"PART-1-1",           596,      -13.0551,       11.1433,            0.,NA,NA,"",       4.62592,      -3.68675,      -2.79411,   74.3108E-09
C:/temp/dataset/4/29_4.odb,Step-1,Increment      1: Step Time =    1.000,"PART-1-1",           597,          -15.,       11.4063,            0.,NA,NA,"",       4.77679,      -3.70402,      -3.01627,   23.1517E-09
C:/temp/dataset/4/29_4.odb,Step-1,Increment      1: Step Time =    1.000,"PART-1-1",           598,           -5.,       18.5417,            0.,NA,NA,"",       4.96707,      -4.57733,      -1.92870,   3.92749E-09
C:/temp/dataset/4/29_4.odb,Step-1,Increment      1: Step Time =    1.000,"PART-1-1",           599,      -6.83195,       18.5917,            0.,NA,NA,"",       5.04591,      -4.57119,      -2.13669,   2.54394E-09
C:/temp/dataset/4/29_4.odb,Step-1,Increment      1: Step Time =    1.000,"PART-1-1",           600,      -12.9744,       15.4368,            0.,NA,NA,"",       5.03319,      -4.17397,      -2.81264,   1.99496E-09
C:/temp/dataset/4/29_4.odb,Step-1,Increment      1: Step Time =    1.000,"PART-1-1",           601,      -13.9736,       16.6988,            0.,NA,NA,"",       5.21438,      -4.31059,      -2.93404,   3.73960E-09
C:/temp/dataset/4/29_4.odb,Step-1,Increment      1: Step Time =    1.000,"PART-1-1",           602,          -15.,       15.7813,            0.,NA,NA,"",       5.18734,      -4.19996,      -3.04447,   7.65128E-09
C:/temp/dataset/4/29_4.odb,Step-1,Increment      1: Step Time =    1.000,"PART-1-1",           603,      -6.85389,       22.5676,            0.,NA,NA,"",       5.46848,      -5.02175,      -2.16480,   797.697E-12
C:/temp/dataset/4/29_4.odb,Step-1,Increment      1: Step Time =    1.000,"PART-1-1",           604,           -5.,       22.7083,            0.,NA,NA,"",       5.41508,      -5.04965,      -1.95556,   626.868E-12
C:/temp/dataset/4/29_4.odb,Step-1,Increment      1: Step Time =    1.000,"PART-1-1",           605,      -7.62380,       21.5126,            0.,NA,NA,"",       5.38736,      -4.89719,      -2.24527,   1.08292E-09
C:/temp/dataset/4/29_4.odb,Step-1,Increment      1: Step Time =    1.000,"PART-1-1",           606,      -11.2433,       25.0031,            0.,NA,NA,"",       5.91101,      -5.26953,      -2.67807,   340.309E-12
C:/temp/dataset/4/29_4.odb,Step-1,Increment      1: Step Time =    1.000,"PART-1-1",           607,      -10.1220,       24.6816,            0.,NA,NA,"",       5.82732,      -5.24031,      -2.54889,   360.304E-12
C:/temp/dataset/4/29_4.odb,Step-1,Increment      1: Step Time =    1.000,"PART-1-1",           608,      -9.68436,       26.2404,            0.,NA,NA,"",       5.97255,      -5.41983,      -2.50933,   232.282E-12
C:/temp/dataset/4/29_4.odb,Step-1,Increment      1: Step Time =    1.000,"PART-1-1",           609,      -10.8057,       26.5619,            0.,NA,NA,"",       6.05424,      -5.44905,      -2.63851,   193.284E-12
C:/temp/dataset/4/29_4.odb,Step-1,Increment      1: Step Time =    1.000,"PART-1-1",           610,            5.,      -6.04167,            0.,NA,NA,"",       1.95545,      -1.85107,  -630.341E-03,   4.28533E-03
C:/temp/dataset/4/29_4.odb,Step-1,Increment      1: Step Time =    1.000,"PART-1-1",           611,       5.81487,      -6.90448,            0.,NA,NA,"",       1.83351,      -1.75577,  -528.223E-03,   5.09340E-03
C:/temp/dataset/4/29_4.odb,Step-1,Increment      1: Step Time =    1.000,"PART-1-1",           612,       6.44107,      -5.66337,            0.,NA,NA,"",       1.95914,      -1.90179,  -470.549E-03,   4.21138E-03
C:/temp/dataset/4/29_4.odb,Step-1,Increment      1: Step Time =    1.000,"PART-1-1",           613,       5.62621,      -4.80056,            0.,NA,NA,"",       2.07726,      -1.99741,  -570.389E-03,   2.48197E-03
C:/temp/dataset/4/29_4.odb,Step-1,Increment      1: Step Time =    1.000,"PART-1-1",           614,            5.,        -8.125,            0.,NA,NA,"",       1.72373,      -1.61379,  -605.762E-03,   7.50993E-03
C:/temp/dataset/4/29_4.odb,Step-1,Increment      1: Step Time =    1.000,"PART-1-1",           615,       8.00489,       17.5473,            0.,NA,NA,"",       4.55345,      -4.53125,  -449.083E-03,   817.217E-09
C:/temp/dataset/4/29_4.odb,Step-1,Increment      1: Step Time =    1.000,"PART-1-1",           616,       8.00828,       15.3576,            0.,NA,NA,"",       4.30767,      -4.28566,  -434.885E-03,   757.571E-09
C:/temp/dataset/4/29_4.odb,Step-1,Increment      1: Step Time =    1.000,"PART-1-1",           617,       11.1265,      -16.2686,            0.,NA,NA,"",   770.087E-03,  -766.675E-03,   72.4130E-03,   9.18976E-03
C:/temp/dataset/4/29_4.odb,Step-1,Increment      1: Step Time =    1.000,"PART-1-1",           618,       9.12111,      -16.3141,            0.,NA,NA,"",   760.410E-03,  -754.736E-03,  -92.7175E-03,   8.71856E-03
C:/temp/dataset/4/29_4.odb,Step-1,Increment      1: Step Time =    1.000,"PART-1-1",           619,      -9.91602,       15.9767,            0.,NA,NA,"",       4.91956,      -4.25488,      -2.46943,   3.17657E-09
C:/temp/dataset/4/29_4.odb,Step-1,Increment      1: Step Time =    1.000,"PART-1-1",           620,      -10.9598,       15.0860,            0.,NA,NA,"",       4.88528,      -4.14719,      -2.58201,   7.72648E-09
C:/temp/dataset/4/29_4.odb,Step-1,Increment      1: Step Time =    1.000,"PART-1-1",           621,      -8.93702,       14.7598,            0.,NA,NA,"",       4.74622,      -4.12326,      -2.35061,   10.1023E-09
C:/temp/dataset/4/29_4.odb,Step-1,Increment      1: Step Time =    1.000,"PART-1-1",           622,      -13.0880,       4.79273,            0.,NA,NA,"",       4.04989,      -2.96666,      -2.75690,   460.517E-09
C:/temp/dataset/4/29_4.odb,Step-1,Increment      1: Step Time =    1.000,"PART-1-1",           623,          -15.,       4.84375,            0.,NA,NA,"",       4.19605,      -2.96012,      -2.97397,   669.421E-09
C:/temp/dataset/4/29_4.odb,Step-1,Increment      1: Step Time =    1.000,"PART-1-1",           624,           -5.,       6.04167,            0.,NA,NA,"",       3.66108,      -3.16037,      -1.84813,   1.95665E-06
C:/temp/dataset/4/29_4.odb,Step-1,Increment      1: Step Time =    1.000,"PART-1-1",           625,      -7.12843,       5.83601,            0.,NA,NA,"",       3.75703,      -3.12334,      -2.08808,   1.00074E-06
C:/temp/dataset/4/29_4.odb,Step-1,Increment      1: Step Time =    1.000,"PART-1-1",           626,       12.9112,      -8.87192,            0.,NA,NA,"",       1.58857,      -1.57004,   241.891E-03,   8.06026E-03
C:/temp/dataset/4/29_4.odb,Step-1,Increment      1: Step Time =    1.000,"PART-1-1",           627,           15.,         -8.75,            0.,NA,NA,"",       1.67245,      -1.60409,   473.265E-03,   9.72820E-03
C:/temp/dataset/4/29_4.odb,Step-1,Increment      1: Step Time =    1.000,"PART-1-1",           628,       13.0740,      -16.2399,            0.,NA,NA,"",   819.561E-03,  -784.822E-03,   236.083E-03,   14.8419E-03
C:/temp/dataset/4/29_4.odb,Step-1,Increment      1: Step Time =    1.000,"PART-1-1",           629,           15.,        -16.25,            0.,NA,NA,"",   903.612E-03,  -807.221E-03,   406.089E-03,   22.6862E-03
C:/temp/dataset/4/29_4.odb,Step-1,Increment      1: Step Time =    1.000,"PART-1-1",           630,       13.0128,       13.9092,            0.,NA,NA,"",       4.15698,      -4.15477,   135.587E-03,   3.06527E-06
C:/temp/dataset/4/29_4.odb,Step-1,Increment      1: Step Time =    1.000,"PART-1-1",           631,           15.,         13.75,            0.,NA,NA,"",       4.16500,      -4.14946,   359.494E-03,   2.42058E-06
C:/temp/dataset/4/29_4.odb,Step-1,Increment      1: Step Time =    1.000,"PART-1-1",           632,       10.9505,       11.7339,            0.,NA,NA,"",       3.89863,      -3.89777,  -81.9980E-03,   20.4320E-06
C:/temp/dataset/4/29_4.odb,Step-1,Increment      1: Step Time =    1.000,"PART-1-1",           633,       9.98883,       12.9959,            0.,NA,NA,"",       4.03811,      -4.03326,  -197.834E-03,   6.91583E-06
C:/temp/dataset/4/29_4.odb,Step-1,Increment      1: Step Time =    1.000,"PART-1-1",           634,       8.94372,       11.9797,            0.,NA,NA,"",       3.92485,      -3.91270,  -308.642E-03,   17.5553E-06
C:/temp/dataset/4/29_4.odb,Step-1,Increment      1: Step Time =    1.000,"PART-1-1",           635,      -13.9153,       18.9000,            0.,NA,NA,"",       5.42689,      -4.56049,      -2.94162,   2.17091E-09
C:/temp/dataset/4/29_4.odb,Step-1,Increment      1: Step Time =    1.000,"PART-1-1",           636,      -12.6393,       19.9841,            0.,NA,NA,"",       5.46565,      -4.69160,      -2.80397,   1.92449E-09
C:/temp/dataset/4/29_4.odb,Step-1,Increment      1: Step Time =    1.000,"PART-1-1",           637,          -15.,       20.1563,            0.,NA,NA,"",       5.61184,      -4.69589,      -3.07267,   2.04998E-09
C:/temp/dataset/4/29_4.odb,Step-1,Increment      1: Step Time =    1.000,"PART-1-1",           638,       8.12191,      -21.7795,            0.,NA,NA,"",   330.311E-03,  -312.078E-03,  -108.225E-03,   13.6171E-03
C:/temp/dataset/4/29_4.odb,Step-1,Increment      1: Step Time =    1.000,"PART-1-1",           639,       8.12482,      -23.8590,            0.,NA,NA,"",   203.333E-03,  -186.605E-03,  -80.7650E-03,   14.7849E-03
C:/temp/dataset/4/29_4.odb,Step-1,Increment      1: Step Time =    1.000,"PART-1-1",           640,       8.11825,      -19.6354,            0.,NA,NA,"",   486.933E-03,  -467.656E-03,  -135.653E-03,   12.4236E-03
C:/temp/dataset/4/29_4.odb,Step-1,Increment      1: Step Time =    1.000,"PART-1-1",           641,       8.10952,      -17.4508,            0.,NA,NA,"",   670.512E-03,  -650.334E-03,  -163.255E-03,   11.3019E-03
C:/temp/dataset/4/29_4.odb,Step-1,Increment      1: Step Time =    1.000,"PART-1-1",           642,       7.85781,       23.9076,            0.,NA,NA,"",       5.26804,      -5.24371,  -505.714E-03,   102.867E-09
C:/temp/dataset/4/29_4.odb,Step-1,Increment      1: Step Time =    1.000,"PART-1-1",           643,       7.94870,       21.8524,            0.,NA,NA,"",       5.03694,      -5.01377,  -482.550E-03,   260.092E-09
C:/temp/dataset/4/29_4.odb,Step-1,Increment      1: Step Time =    1.000,"PART-1-1",           644,       4.21929,       2.98066,            0.,NA,NA,"",       2.97762,      -2.87276,  -783.235E-03,   136.396E-06
C:/temp/dataset/4/29_4.odb,Step-1,Increment      1: Step Time =    1.000,"PART-1-1",           645,       5.32392,       3.96649,            0.,NA,NA,"",       3.06403,      -2.99109,  -664.592E-03,   215.112E-06
C:/temp/dataset/4/29_4.odb,Step-1,Increment      1: Step Time =    1.000,"PART-1-1",           646,          3.75,            5.,            0.,NA,NA,"",       3.21228,      -3.09795,  -849.380E-03,   396.631E-06
C:/temp/dataset/4/29_4.odb,Step-1,Increment      1: Step Time =    1.000,"PART-1-1",           647,       12.8859,       9.04653,            0.,NA,NA,"",       3.61165,      -3.60845,   152.057E-03,   65.2565E-06
C:/temp/dataset/4/29_4.odb,Step-1,Increment      1: Step Time =    1.000,"PART-1-1",           648,           15.,          8.75,            0.,NA,NA,"",       3.60977,      -3.58853,   391.026E-03,   47.2386E-06
C:/temp/dataset/4/29_4.odb,Step-1,Increment      1: Step Time =    1.000,"PART-1-1",           649,      -8.02807,       9.41948,            0.,NA,NA,"",       4.16111,      -3.52375,      -2.21315,   228.483E-09
C:/temp/dataset/4/29_4.odb,Step-1,Increment      1: Step Time =    1.000,"PART-1-1",           650,      -8.84347,       16.8085,            0.,NA,NA,"",       4.95107,      -4.35609,      -2.35321,   2.52180E-09
C:/temp/dataset/4/29_4.odb,Step-1,Increment      1: Step Time =    1.000,"PART-1-1",           651,      -9.78583,       18.0165,            0.,NA,NA,"",       5.12083,      -4.48695,      -2.46782,   2.64845E-09
C:/temp/dataset/4/29_4.odb,Step-1,Increment      1: Step Time =    1.000,"PART-1-1",           652,          -15.,       17.9688,            0.,NA,NA,"",       5.39805,      -4.44793,      -3.05857,   4.61265E-09
C:/temp/dataset/4/29_4.odb,Step-1,Increment      1: Step Time =    1.000,"PART-1-1",           653,          -15.,       24.5313,            0.,NA,NA,"",       6.04735,      -5.19183,      -3.10087,   209.809E-12
C:/temp/dataset/4/29_4.odb,Step-1,Increment      1: Step Time =    1.000,"PART-1-1",           654,      -12.9952,       24.7258,            0.,NA,NA,"",       5.96527,      -5.22681,      -2.87487,   319.167E-12
C:/temp/dataset/4/29_4.odb,Step-1,Increment      1: Step Time =    1.000,"PART-1-1",           655,      -11.4985,       21.8877,            0.,NA,NA,"",       5.60126,      -4.91473,      -2.68692,   1.01947E-09
C:/temp/dataset/4/29_4.odb,Step-1,Increment      1: Step Time =    1.000,"PART-1-1",           656,      -11.4490,       20.6565,            0.,NA,NA,"",       5.47285,      -4.77548,      -2.67337,   1.53086E-09
C:/temp/dataset/4/29_4.odb,Step-1,Increment      1: Step Time =    1.000,"PART-1-1",           657,      -10.1446,       20.7260,            0.,NA,NA,"",       5.41679,      -4.79178,      -2.52596,   1.62719E-09
C:/temp/dataset/4/29_4.odb,Step-1,Increment      1: Step Time =    1.000,"PART-1-1",           658,      -7.69218,       19.6350,            0.,NA,NA,"",       5.19238,      -4.68391,      -2.24092,   1.91146E-09
C:/temp/dataset/4/29_4.odb,Step-1,Increment      1: Step Time =    1.000,"PART-1-1",           659,      -8.68744,       18.7463,            0.,NA,NA,"",       5.14392,      -4.57676,      -2.34801,   2.46123E-09
C:/temp/dataset/4/29_4.odb,Step-1,Increment      1: Step Time =    1.000,"PART-1-1",           660,      -7.82721,       17.7030,            0.,NA,NA,"",       4.99621,      -4.46404,      -2.24378,   2.49539E-09
C:/temp/dataset/4/29_4.odb,Step-1,Increment      1: Step Time =    1.000,"PART-1-1",           661,      -9.52114,       19.8817,            0.,NA,NA,"",       5.30024,      -4.70008,      -2.44984,   1.92687E-09
C:/temp/dataset/4/29_4.odb,Step-1,Increment      1: Step Time =    1.000,"PART-1-1",           662,      -10.6195,       19.1519,            0.,NA,NA,"",       5.27804,      -4.61028,      -2.56964,   2.36448E-09
C:/temp/dataset/4/29_4.odb,Step-1,Increment      1: Step Time =    1.000,"PART-1-1",           663,      -12.1485,       3.78191,            0.,NA,NA,"",       3.89347,      -2.85813,      -2.64389,   461.960E-09
C:/temp/dataset/4/29_4.odb,Step-1,Increment      1: Step Time =    1.000,"PART-1-1",           664,      -10.9850,       2.86362,            0.,NA,NA,"",       3.72915,      -2.76154,      -2.50608,   430.481E-09
C:/temp/dataset/4/29_4.odb,Step-1,Increment      1: Step Time =    1.000,"PART-1-1",           665,      -9.06958,       8.49577,            0.,NA,NA,"",       4.12926,      -3.41233,      -2.32526,   339.803E-09
C:/temp/dataset/4/29_4.odb,Step-1,Increment      1: Step Time =    1.000,"PART-1-1",           666,      -8.08215,       7.28595,            0.,NA,NA,"",       3.95385,      -3.28155,      -2.20553,   540.984E-09
C:/temp/dataset/4/29_4.odb,Step-1,Increment      1: Step Time =    1.000,"PART-1-1",           667,      -10.1292,       7.60955,            0.,NA,NA,"",       4.10795,      -3.30504,      -2.43966,   416.129E-09
C:/temp/dataset/4/29_4.odb,Step-1,Increment      1: Step Time =    1.000,"PART-1-1",           668,      -11.2104,       6.77234,            0.,NA,NA,"",       4.09849,      -3.20317,      -2.55682,   436.112E-09
C:/temp/dataset/4/29_4.odb,Step-1,Increment      1: Step Time =    1.000,"PART-1-1",           669,      -10.2942,       5.63122,            0.,NA,NA,"",       3.93265,      -3.07972,      -2.44562,   573.867E-09
C:/temp/dataset/4/29_4.odb,Step-1,Increment      1: Step Time =    1.000,"PART-1-1",           670,      -9.21309,       6.46842,            0.,NA,NA,"",       3.94262,      -3.18159,      -2.32846,   629.829E-09
C:/temp/dataset/4/29_4.odb,Step-1,Increment      1: Step Time =    1.000,"PART-1-1",           671,        -11.25,           -5.,            0.,NA,NA,"",       3.10943,      -1.86846,      -2.48544,   859.536E-09
C:/temp/dataset/4/29_4.odb,Step-1,Increment      1: Step Time =    1.000,"PART-1-1",           672,      -10.0273,      -3.93877,            0.,NA,NA,"",       3.08648,      -1.99663,      -2.35368,   948.440E-09
C:/temp/dataset/4/29_4.odb,Step-1,Increment      1: Step Time =    1.000,"PART-1-1",           673,         -8.75,           -5.,            0.,NA,NA,"",       2.89839,      -1.88457,      -2.20206,   2.04807E-06
C:/temp/dataset/4/29_4.odb,Step-1,Increment      1: Step Time =    1.000,"PART-1-1",           674,      -7.59562,      -4.02918,            0.,NA,NA,"",       2.88515,      -2.00206,      -2.07746,   1.36869E-06
C:/temp/dataset/4/29_4.odb,Step-1,Increment      1: Step Time =    1.000,"PART-1-1",           675,      -8.87289,      -2.96795,            0.,NA,NA,"",       3.07218,      -2.11412,      -2.22908,   332.128E-09
C:/temp/dataset/4/29_4.odb,Step-1,Increment      1: Step Time =    1.000,"PART-1-1",           676,         -6.25,           -5.,            0.,NA,NA,"",       2.70073,      -1.90069,      -1.91868,   1.34897E-06
C:/temp/dataset/4/29_4.odb,Step-1,Increment      1: Step Time =    1.000,"PART-1-1",           677,      -5.03874,      -3.83161,            0.,NA,NA,"",       2.71397,      -2.04093,      -1.78892,   4.18586E-06
C:/temp/dataset/4/29_4.odb,Step-1,Increment      1: Step Time =    1.000,"PART-1-1",           678,      -6.38435,      -2.86079,            0.,NA,NA,"",       2.89534,      -2.14230,      -1.94769,   3.98381E-06
C:/temp/dataset/4/29_4.odb,Step-1,Increment      1: Step Time =    1.000,"PART-1-1",           679,      -8.31216,       1.98044,            0.,NA,NA,"",       3.46465,      -2.67865,      -2.19741,   1.17790E-06
C:/temp/dataset/4/29_4.odb,Step-1,Increment      1: Step Time =    1.000,"PART-1-1",           680,      -6.89941,       1.67561,            0.,NA,NA,"",       3.34394,      -2.65320,      -2.03530,   2.81002E-06
C:/temp/dataset/4/29_4.odb,Step-1,Increment      1: Step Time =    1.000,"PART-1-1",           681,      -8.02347,       3.70061,            0.,NA,NA,"",       3.60590,      -2.87551,      -2.17577,   694.883E-09
C:/temp/dataset/4/29_4.odb,Step-1,Increment      1: Step Time =    1.000,"PART-1-1",           682,      -9.78636,       2.36681,            0.,NA,NA,"",       3.60039,      -2.71295,      -2.36701,   541.285E-09
C:/temp/dataset/4/29_4.odb,Step-1,Increment      1: Step Time =    1.000,"PART-1-1",           683,      -8.80920,   354.969E-03,            0.,NA,NA,"",       3.35236,      -2.49119,      -2.24328,   963.161E-09
C:/temp/dataset/4/29_4.odb,Step-1,Increment      1: Step Time =    1.000,"PART-1-1",           684,         -3.75,           -5.,            0.,NA,NA,"",       2.51960,      -1.91680,      -1.63532,   7.27957E-06
C:/temp/dataset/4/29_4.odb,Step-1,Increment      1: Step Time =    1.000,"PART-1-1",           685,          3.75,           -5.,            0.,NA,NA,"",       2.11483,      -1.96384,  -784.767E-03,   716.495E-06
C:/temp/dataset/4/29_4.odb,Step-1,Increment      1: Step Time =    1.000,"PART-1-1",           686,       4.46580,      -3.87501,            0.,NA,NA,"",       2.21405,      -2.09691,  -710.597E-03,   610.014E-06
C:/temp/dataset/4/29_4.odb,Step-1,Increment      1: Step Time =    1.000,"PART-1-1",           687,       2.90021,      -2.90757,            0.,NA,NA,"",       2.37228,      -2.19695,  -895.050E-03,   283.381E-06
C:/temp/dataset/4/29_4.odb,Step-1,Increment      1: Step Time =    1.000,"PART-1-1",           688,       11.1618,       2.81075,            0.,NA,NA,"",       2.89825,      -2.89825,  -1.32584E-03,   176.039E-06
C:/temp/dataset/4/29_4.odb,Step-1,Increment      1: Step Time =    1.000,"PART-1-1",           689,       10.1850,       1.50626,            0.,NA,NA,"",       2.74749,      -2.74557,  -102.626E-03,   672.146E-06
C:/temp/dataset/4/29_4.odb,Step-1,Increment      1: Step Time =    1.000,"PART-1-1",           690,       11.6421,   144.368E-03,            0.,NA,NA,"",       2.60412,      -2.60322,   68.3721E-03,   1.48526E-03
C:/temp/dataset/4/29_4.odb,Step-1,Increment      1: Step Time =    1.000,"PART-1-1",           691,         11.25,           30.,            0.,NA,NA,"",       5.95072,      -5.94847,  -163.677E-03,   4.69896E-09
C:/temp/dataset/4/29_4.odb,Step-1,Increment      1: Step Time =    1.000,"PART-1-1",           692,       9.19768,       26.3844,            0.,NA,NA,"",       5.54241,      -5.52998,  -371.058E-03,   32.6496E-09
C:/temp/dataset/4/29_4.odb,Step-1,Increment      1: Step Time =    1.000,"PART-1-1",           693,       7.72138,       25.7435,            0.,NA,NA,"",       5.47474,      -5.44877,  -532.601E-03,   36.1991E-09
C:/temp/dataset/4/29_4.odb,Step-1,Increment      1: Step Time =    1.000,"PART-1-1",           694,       9.17897,      -24.8987,            0.,NA,NA,"",   133.507E-03,  -130.420E-03,  -28.5453E-03,   9.84851E-03
C:/temp/dataset/4/29_4.odb,Step-1,Increment      1: Step Time =    1.000,"PART-1-1",           695,       9.00589,       18.6572,            0.,NA,NA,"",       4.67471,      -4.66205,  -343.810E-03,   775.650E-09
C:/temp/dataset/4/29_4.odb,Step-1,Increment      1: Step Time =    1.000,"PART-1-1",           696,       7.99757,       19.7140,            0.,NA,NA,"",       4.79667,      -4.77422,  -463.576E-03,   542.125E-09
C:/temp/dataset/4/29_4.odb,Step-1,Increment      1: Step Time =    1.000,"PART-1-1",           697,      -12.2498,       25.7751,            0.,NA,NA,"",       6.03758,      -5.35056,      -2.79713,   209.270E-12
C:/temp/dataset/4/29_4.odb,Step-1,Increment      1: Step Time =    1.000,"PART-1-1",           698,      -11.9888,       23.9538,            0.,NA,NA,"",       5.83726,      -5.14578,      -2.75581,   438.697E-12
C:/temp/dataset/4/29_4.odb,Step-1,Increment      1: Step Time =    1.000,"PART-1-1",           699,      -1.59164,      -1.60220,            0.,NA,NA,"",       2.71272,      -2.31591,      -1.41260,   61.9657E-06
C:/temp/dataset/4/29_4.odb,Step-1,Increment      1: Step Time =    1.000,"PART-1-1",           700,      -1.34014,  -343.401E-03,            0.,NA,NA,"",       2.82683,      -2.46026,      -1.39215,   61.4544E-06
C:/temp/dataset/4/29_4.odb,Step-1,Increment      1: Step Time =    1.000,"PART-1-1",           701,      -2.70787,  -93.9540E-03,            0.,NA,NA,"",       2.92361,      -2.47968,      -1.54878,   37.7555E-06
C:/temp/dataset/4/29_4.odb,Step-1,Increment      1: Step Time =    1.000,"PART-1-1",           702,       8.06015,      -13.0184,            0.,NA,NA,"",       1.10432,      -1.08221,  -219.873E-03,   9.26778E-03
C:/temp/dataset/4/29_4.odb,Step-1,Increment      1: Step Time =    1.000,"PART-1-1",           703,       7.99745,      -10.7906,            0.,NA,NA,"",       1.34649,      -1.32295,  -250.671E-03,   8.28783E-03
C:/temp/dataset/4/29_4.odb,Step-1,Increment      1: Step Time =    1.000,"PART-1-1",           704,           15.,        -26.25,            0.,NA,NA,"",   191.309E-03,  -121.643E-03,   147.655E-03,   40.2410E-03
C:/temp/dataset/4/29_4.odb,Step-1,Increment      1: Step Time =    1.000,"PART-1-1",           705,       13.9776,      -24.8045,            0.,NA,NA,"",   225.379E-03,  -166.965E-03,   151.387E-03,   30.5557E-03
C:/temp/dataset/4/29_4.odb,Step-1,Increment      1: Step Time =    1.000,"PART-1-1",           706,       12.6094,      -25.9010,            0.,NA,NA,"",   126.386E-03,  -100.902E-03,   76.1059E-03,   22.1762E-03
C:/temp/dataset/4/29_4.odb,Step-1,Increment      1: Step Time =    1.000,"PART-1-1",           707,       12.0224,      -24.3398,            0.,NA,NA,"",   185.700E-03,  -167.683E-03,   79.7926E-03,   17.2993E-03
C:/temp/dataset/4/29_4.odb,Step-1,Increment      1: Step Time =    1.000,"PART-1-1",           708,       13.0263,      -23.4242,            0.,NA,NA,"",   266.213E-03,  -227.272E-03,   138.623E-03,   22.5136E-03
C:/temp/dataset/4/29_4.odb,Step-1,Increment      1: Step Time =    1.000,"PART-1-1",           709,       12.1300,      -22.1112,            0.,NA,NA,"",   319.524E-03,  -299.470E-03,   111.414E-03,   15.7844E-03
C:/temp/dataset/4/29_4.odb,Step-1,Increment      1: Step Time =    1.000,"PART-1-1",           710,           15.,        -23.75,            0.,NA,NA,"",   329.854E-03,  -237.030E-03,   229.391E-03,   35.8125E-03
C:/temp/dataset/4/29_4.odb,Step-1,Increment      1: Step Time =    1.000,"PART-1-1",           711,       10.9035,      -9.09896,            0.,NA,NA,"",       1.52872,      -1.52838,   32.2510E-03,   7.99852E-03
C:/temp/dataset/4/29_4.odb,Step-1,Increment      1: Step Time =    1.000,"PART-1-1",           712,       9.82794,      -8.10226,            0.,NA,NA,"",       1.63919,      -1.63697,  -85.2766E-03,   7.44854E-03
C:/temp/dataset/4/29_4.odb,Step-1,Increment      1: Step Time =    1.000,"PART-1-1",           713,       8.90728,      -9.48784,            0.,NA,NA,"",       1.48256,      -1.47275,  -170.285E-03,   7.80305E-03
C:/temp/dataset/4/29_4.odb,Step-1,Increment      1: Step Time =    1.000,"PART-1-1",           714,           15.,         -1.25,            0.,NA,NA,"",       2.51784,      -2.47753,   448.700E-03,   3.45387E-03
C:/temp/dataset/4/29_4.odb,Step-1,Increment      1: Step Time =    1.000,"PART-1-1",           715,       12.7555,      -1.12336,            0.,NA,NA,"",       2.47834,      -2.47034,   198.972E-03,   3.23406E-03
C:/temp/dataset/4/29_4.odb,Step-1,Increment      1: Step Time =    1.000,"PART-1-1",           716,       11.5680,       5.48707,            0.,NA,NA,"",       3.20092,      -3.20081,   26.9834E-03,   188.422E-06
C:/temp/dataset/4/29_4.odb,Step-1,Increment      1: Step Time =    1.000,"PART-1-1",           717,       10.1222,       4.29256,            0.,NA,NA,"",       3.06049,      -3.05784,  -127.319E-03,   165.169E-06
C:/temp/dataset/4/29_4.odb,Step-1,Increment      1: Step Time =    1.000,"PART-1-1",           718,       8.27918,   509.070E-03,            0.,NA,NA,"",       2.63843,      -2.62015,  -310.100E-03,   815.050E-06
C:/temp/dataset/4/29_4.odb,Step-1,Increment      1: Step Time =    1.000,"PART-1-1",           719,       9.70893,  -124.236E-03,            0.,NA,NA,"",       2.56270,      -2.55853,  -146.150E-03,   1.24200E-03
C:/temp/dataset/4/29_4.odb,Step-1,Increment      1: Step Time =    1.000,"PART-1-1",           720,       8.75521,       2.13956,            0.,NA,NA,"",       2.81992,      -2.80726,  -266.915E-03,   299.647E-06
C:/temp/dataset/4/29_4.odb,Step-1,Increment      1: Step Time =    1.000,"PART-1-1",           721,       6.99874,       4.90963,            0.,NA,NA,"",       3.14484,      -3.10767,  -482.084E-03,   192.364E-06
C:/temp/dataset/4/29_4.odb,Step-1,Increment      1: Step Time =    1.000,"PART-1-1",           722,       8.01086,       5.41567,            0.,NA,NA,"",       3.19246,      -3.17076,  -371.579E-03,   185.087E-06
C:/temp/dataset/4/29_4.odb,Step-1,Increment      1: Step Time =    1.000,"PART-1-1",           723,       11.8045,       7.99587,            0.,NA,NA,"",       3.48397,      -3.48377,   37.4711E-03,   89.7947E-06
C:/temp/dataset/4/29_4.odb,Step-1,Increment      1: Step Time =    1.000,"PART-1-1",           724,       7.91904,       10.9856,            0.,NA,NA,"",       3.81763,      -3.79476,  -417.303E-03,   20.8581E-06
C:/temp/dataset/4/29_4.odb,Step-1,Increment      1: Step Time =    1.000,"PART-1-1",           725,       11.0233,       18.7016,            0.,NA,NA,"",       4.68125,      -4.67976,  -117.805E-03,   762.684E-09
C:/temp/dataset/4/29_4.odb,Step-1,Increment      1: Step Time =    1.000,"PART-1-1",           726,       10.0074,       19.8076,            0.,NA,NA,"",       4.80334,      -4.79741,  -238.731E-03,   576.184E-09
C:/temp/dataset/4/29_4.odb,Step-1,Increment      1: Step Time =    1.000,"PART-1-1",           727,       10.9673,       21.0105,            0.,NA,NA,"",       4.94034,      -4.93839,  -138.662E-03,   438.404E-09
C:/temp/dataset/4/29_4.odb,Step-1,Increment      1: Step Time =    1.000,"PART-1-1",           728,       8.97465,       20.8454,            0.,NA,NA,"",       4.92056,      -4.90729,  -361.122E-03,   462.012E-09
C:/temp/dataset/4/29_4.odb,Step-1,Increment      1: Step Time =    1.000,"PART-1-1",           729,       8.66510,       24.8184,            0.,NA,NA,"",       5.36749,      -5.35096,  -420.913E-03,   83.5366E-09
C:/temp/dataset/4/29_4.odb,Step-1,Increment      1: Step Time =    1.000,"PART-1-1",           730,       7.98376,       13.1681,            0.,NA,NA,"",       4.06211,      -4.03994,  -423.820E-03,   5.12071E-06
C:/temp/dataset/4/29_4.odb,Step-1,Increment      1: Step Time =    1.000,"PART-1-1",           731,      -1.95806,       1.80915,            0.,NA,NA,"",       3.07730,      -2.70023,      -1.47598,   41.0248E-06
C:/temp/dataset/4/29_4.odb,Step-1,Increment      1: Step Time =    1.000,"PART-1-1",           732,  -613.587E-03,   828.335E-03,            0.,NA,NA,"",       2.91269,      -2.59780,      -1.31727,   88.3966E-06
C:/temp/dataset/4/29_4.odb,Step-1,Increment      1: Step Time =    1.000,"PART-1-1",           733,   461.223E-03,       1.99751,            0.,NA,NA,"",       2.98987,      -2.73723,      -1.20287,   104.581E-06
C:/temp/dataset/4/29_4.odb,Step-1,Increment      1: Step Time =    1.000,"PART-1-1",           734,       1.74006,       1.04512,            0.,NA,NA,"",       2.83968,      -2.63771,      -1.05181,   151.180E-06
C:/temp/dataset/4/29_4.odb,Step-1,Increment      1: Step Time =    1.000,"PART-1-1",           735,   906.022E-03,  -39.5003E-03,            0.,NA,NA,"",       2.75596,      -2.50937,      -1.13947,   136.714E-06
C:/temp/dataset/4/29_4.odb,Step-1,Increment      1: Step Time =    1.000,"PART-1-1",           736,       2.15034,  -968.542E-03,            0.,NA,NA,"",       2.60844,      -2.41222,  -992.540E-03,   171.988E-06
C:/temp/dataset/4/29_4.odb,Step-1,Increment      1: Step Time =    1.000,"PART-1-1",           737,       2.98438,   116.081E-03,            0.,NA,NA,"",       2.69700,      -2.54066,  -904.898E-03,   162.470E-06
C:/temp/dataset/4/29_4.odb,Step-1,Increment      1: Step Time =    1.000,"PART-1-1",           738,      -8.25937,       5.01848,            0.,NA,NA,"",       3.74558,      -3.02338,      -2.21101,   852.362E-09
C:/temp/dataset/4/29_4.odb,Step-1,Increment      1: Step Time =    1.000,"PART-1-1",           739,      -2.78312,       1.01462,            0.,NA,NA,"",       3.03852,      -2.60484,      -1.56442,   35.5959E-06
C:/temp/dataset/4/29_4.odb,Step-1,Increment      1: Step Time =    1.000,"PART-1-1",           740,      -4.31499,   913.536E-03,            0.,NA,NA,"",       3.11337,      -2.58349,      -1.73743,   15.6559E-06
C:/temp/dataset/4/29_4.odb,Step-1,Increment      1: Step Time =    1.000,"PART-1-1",           741,      -4.23975,  -195.042E-03,            0.,NA,NA,"",       3.00130,      -2.45831,      -1.72177,   17.9786E-06
C:/temp/dataset/4/29_4.odb,Step-1,Increment      1: Step Time =    1.000,"PART-1-1",           742,      -8.52646,       20.5688,            0.,NA,NA,"",       5.32664,      -4.78439,      -2.34151,   1.68007E-09
C:/temp/dataset/4/29_4.odb,Step-1,Increment      1: Step Time =    1.000,"PART-1-1",           743,       8.09873,      -15.2435,            0.,NA,NA,"",   877.270E-03,  -856.317E-03,  -190.586E-03,   10.2330E-03
C:/temp/dataset/4/29_4.odb,Step-1,Increment      1: Step Time =    1.000,"PART-1-1",           744,       8.99676,       14.2096,            0.,NA,NA,"",       4.17517,      -4.16314,  -316.772E-03,   3.81883E-06
C:/temp/dataset/4/29_4.odb,Step-1,Increment      1: Step Time =    1.000,"PART-1-1",           745,       11.0169,       14.0599,            0.,NA,NA,"",       4.16005,      -4.15909,  -89.2344E-03,   4.37327E-06
C:/temp/dataset/4/29_4.odb,Step-1,Increment      1: Step Time =    1.000,"PART-1-1",           746,      -7.91902,       15.6847,            0.,NA,NA,"",       4.79116,      -4.23466,      -2.24118,   2.09755E-09
C:/temp/dataset/4/29_4.odb,Step-1,Increment      1: Step Time =    1.000,"PART-1-1",           747,      -11.9968,       14.1876,            0.,NA,NA,"",       4.85460,      -4.03866,      -2.69377,   9.73661E-09
C:/temp/dataset/4/29_4.odb,Step-1,Increment      1: Step Time =    1.000,"PART-1-1",           748,      -11.1175,       8.79310,            0.,NA,NA,"",       4.28188,      -3.43283,      -2.55933,   265.870E-09
C:/temp/dataset/4/29_4.odb,Step-1,Increment      1: Step Time =    1.000,"PART-1-1",           749,       10.6592,      -6.44981,            0.,NA,NA,"",       1.83584,      -1.83582,  -7.12622E-03,   6.99433E-03
C:/temp/dataset/4/29_4.odb,Step-1,Increment      1: Step Time =    1.000,"PART-1-1",           750,      -10.7894,       23.3985,            0.,NA,NA,"",       5.72353,      -5.09057,      -2.61627,   665.220E-12
C:/temp/dataset/4/29_4.odb,Step-1,Increment      1: Step Time =    1.000,"PART-1-1",           751,       10.0228,      -25.8019,            0.,NA,NA,"",   90.2835E-03,  -90.2719E-03,   1.44662E-03,   8.07330E-03
C:/temp/dataset/4/29_4.odb,Step-1,Increment      1: Step Time =    1.000,"PART-1-1",           752,       10.9542,      -24.8826,            0.,NA,NA,"",   138.172E-03,  -133.885E-03,   34.1524E-03,   11.0294E-03
C:/temp/dataset/4/29_4.odb,Step-1,Increment      1: Step Time =    1.000,"PART-1-1",           753,       11.8371,      -2.37854,            0.,NA,NA,"",       2.32212,      -2.31986,   102.493E-03,   3.88169E-03
C:/temp/dataset/4/29_4.odb,Step-1,Increment      1: Step Time =    1.000,"PART-1-1",           754,       11.6235,      -5.02753,            0.,NA,NA,"",       2.01303,      -2.01099,   90.3994E-03,   6.09490E-03
C:/temp/dataset/4/29_4.odb,Step-1,Increment      1: Step Time =    1.000,"PART-1-1",           755,      -12.1333,       7.86930,            0.,NA,NA,"",       4.26072,      -3.32156,      -2.66852,   282.647E-09
C:/temp/dataset/4/29_4.odb,Step-1,Increment      1: Step Time =    1.000,"PART-1-1",           756,      -12.0768,       9.95169,            0.,NA,NA,"",       4.45171,      -3.55798,      -2.67554,   130.115E-09
C:/temp/dataset/4/29_4.odb,Step-1,Increment      1: Step Time =    1.000,"PART-1-1",           757,       8.68743,       3.64563,            0.,NA,NA,"",       2.98972,      -2.97618,  -284.156E-03,   131.676E-06
C:/temp/dataset/4/29_4.odb,Step-1,Increment      1: Step Time =    1.000,"PART-1-1",           758,       6.61848,       3.66599,            0.,NA,NA,"",       3.01013,      -2.96542,  -516.869E-03,   66.6879E-06
C:/temp/dataset/4/29_4.odb,Step-1,Increment      1: Step Time =    1.000,"PART-1-1",           759,       4.71579,   65.6079E-03,            0.,NA,NA,"",       2.64307,      -2.54633,  -708.552E-03,   215.569E-06
C:/temp/dataset/4/29_4.odb,Step-1,Increment      1: Step Time =    1.000,"PART-1-1",           760,       3.89104,   957.250E-03,            0.,NA,NA,"",       2.76255,      -2.64187,  -807.574E-03,   167.926E-06
C:/temp/dataset/4/29_4.odb,Step-1,Increment      1: Step Time =    1.000,"PART-1-1",           761,      -12.0363,       12.0623,            0.,NA,NA,"",       4.65057,      -3.79750,      -2.68455,   44.3712E-09
C:/temp/dataset/4/29_4.odb,Step-1,Increment      1: Step Time =    1.000,"PART-1-1",           762,      -12.1964,       5.82098,            0.,NA,NA,"",       4.07805,      -3.08897,      -2.66247,   436.469E-09
C:/temp/dataset/4/29_4.odb,Step-1,Increment      1: Step Time =    1.000,"PART-1-1",           763,      -11.2570,       4.81016,            0.,NA,NA,"",       3.92209,      -2.98044,      -2.54946,   510.974E-09
C:/temp/dataset/4/29_4.odb,Step-1,Increment      1: Step Time =    1.000,"PART-1-1",           764,      -10.5260,       3.94381,            0.,NA,NA,"",       3.79355,      -2.88694,      -2.46102,   569.455E-09
C:/temp/dataset/4/29_4.odb,Step-1,Increment      1: Step Time =    1.000,"PART-1-1",           765,      -9.56326,       4.76486,            0.,NA,NA,"",       3.80444,      -2.98622,      -2.35718,   707.692E-09
C:/temp/dataset/4/29_4.odb,Step-1,Increment      1: Step Time =    1.000,"PART-1-1",           766,      -9.32737,       3.44699,            0.,NA,NA,"",       3.66711,      -2.83835,      -2.32194,   693.317E-09
C:/temp/dataset/4/29_4.odb,Step-1,Increment      1: Step Time =    1.000,"PART-1-1",           767,       11.5413,      -26.4438,            0.,NA,NA,"",   81.6445E-03,  -71.7227E-03,   39.0087E-03,   14.8162E-03
C:/temp/dataset/4/29_4.odb,Step-1,Increment      1: Step Time =    1.000,"PART-1-1",           768,       5.97241,      -3.36228,            0.,NA,NA,"",       2.23147,      -2.16442,  -542.942E-03,   1.84731E-03
C:/temp/dataset/4/29_4.odb,Step-1,Increment      1: Step Time =    1.000,"PART-1-1",           769,       11.9304,       22.2704,            0.,NA,NA,"",       5.08593,      -5.08578,  -38.5878E-03,   221.170E-09
C:/temp/dataset/4/29_4.odb,Step-1,Increment      1: Step Time =    1.000,"PART-1-1",           770,      -3.95064,       2.12654,            0.,NA,NA,"",       3.21246,      -2.72333,      -1.70393,   16.3783E-06
C:/temp/dataset/4/29_4.odb,Step-1,Increment      1: Step Time =    1.000,"PART-1-1",           771,       12.1361,      -19.7979,            0.,NA,NA,"",   485.477E-03,  -466.587E-03,   134.107E-03,   14.1084E-03
C:/temp/dataset/4/29_4.odb,Step-1,Increment      1: Step Time =    1.000,"PART-1-1",           772,       12.1156,      -17.4436,            0.,NA,NA,"",   681.469E-03,  -664.995E-03,   148.933E-03,   12.3319E-03
C:/temp/dataset/4/29_4.odb,Step-1,Increment      1: Step Time =    1.000,"PART-1-1",           773,       11.8489,      -7.73518,            0.,NA,NA,"",       1.69886,      -1.69422,   125.478E-03,   7.76947E-03
C:/temp/dataset/4/29_4.odb,Step-1,Increment      1: Step Time =    1.000,"PART-1-1",           774,       11.9658,      -10.2357,            0.,NA,NA,"",       1.41315,      -1.40563,   145.658E-03,   7.93732E-03
C:/temp/dataset/4/29_4.odb,Step-1,Increment      1: Step Time =    1.000,"PART-1-1",           775,       10.7237,      -1.11081,            0.,NA,NA,"",       2.45468,      -2.45453,  -27.3894E-03,   2.36811E-03
C:/temp/dataset/4/29_4.odb,Step-1,Increment      1: Step Time =    1.000,"PART-1-1",           776,       11.9194,       10.4262,            0.,NA,NA,"",       3.75732,      -3.75716,   34.9411E-03,   29.5406E-06
C:/temp/dataset/4/29_4.odb,Step-1,Increment      1: Step Time =    1.000,"PART-1-1",           777,       11.9945,       12.8006,            0.,NA,NA,"",       4.02410,      -4.02400,   28.3683E-03,   6.57664E-06
C:/temp/dataset/4/29_4.odb,Step-1,Increment      1: Step Time =    1.000,"PART-1-1",           778,       12.0317,      -12.6649,            0.,NA,NA,"",       1.14846,      -1.13796,   154.946E-03,   9.05272E-03
C:/temp/dataset/4/29_4.odb,Step-1,Increment      1: Step Time =    1.000,"PART-1-1",           779,       12.0352,       15.1685,            0.,NA,NA,"",       4.28989,      -4.28986,   17.9848E-03,   795.891E-09
C:/temp/dataset/4/29_4.odb,Step-1,Increment      1: Step Time =    1.000,"PART-1-1",           780,      -7.80161,      -2.23284,            0.,NA,NA,"",       3.05309,      -2.20435,      -2.11239,   944.501E-09
C:/temp/dataset/4/29_4.odb,Step-1,Increment      1: Step Time =    1.000,"PART-1-1",           781,      -8.87876,  -905.543E-03,            0.,NA,NA,"",       3.24710,      -2.34786,      -2.24304,   822.700E-09
C:/temp/dataset/4/29_4.odb,Step-1,Increment      1: Step Time =    1.000,"PART-1-1",           782,      -7.16649,      -1.00336,            0.,NA,NA,"",       3.11574,      -2.34781,      -2.04832,   2.80647E-06
C:/temp/dataset/4/29_4.odb,Step-1,Increment      1: Step Time =    1.000,"PART-1-1",           783,      -7.09692,   257.153E-03,            0.,NA,NA,"",       3.22527,      -2.49114,      -2.04855,   3.05450E-06
C:/temp/dataset/4/29_4.odb,Step-1,Increment      1: Step Time =    1.000,"PART-1-1",           784,      -5.74923,      -1.63131,            0.,NA,NA,"",       2.96188,      -2.28576,      -1.88362,   6.56114E-06
C:/temp/dataset/4/29_4.odb,Step-1,Increment      1: Step Time =    1.000,"PART-1-1",           785,      -5.66693,  -67.3201E-03,            0.,NA,NA,"",       3.10163,      -2.46358,      -1.88437,   8.04244E-06
C:/temp/dataset/4/29_4.odb,Step-1,Increment      1: Step Time =    1.000,"PART-1-1",           786,      -5.46941,       1.35113,            0.,NA,NA,"",       3.22414,      -2.62564,      -1.87111,   7.46493E-06
C:/temp/dataset/4/29_4.odb,Step-1,Increment      1: Step Time =    1.000,"PART-1-1",           787,       12.0849,      -15.0650,            0.,NA,NA,"",   903.783E-03,  -890.160E-03,   156.330E-03,   10.6391E-03
C:/temp/dataset/4/29_4.odb,Step-1,Increment      1: Step Time =    1.000,"PART-1-1",           788,       7.01212,      -4.44648,            0.,NA,NA,"",       2.08778,      -2.04560,  -417.538E-03,   3.27525E-03
C:/temp/dataset/4/29_4.odb,Step-1,Increment      1: Step Time =    1.000,"PART-1-1",           789,       7.64174,      -3.33281,            0.,NA,NA,"",       2.20670,      -2.17778,  -356.081E-03,   2.76574E-03
C:/temp/dataset/4/29_4.odb,Step-1,Increment      1: Step Time =    1.000,"PART-1-1",           790,       6.60203,      -2.24861,            0.,NA,NA,"",       2.34526,      -2.29557,  -480.206E-03,   1.25491E-03
C:/temp/dataset/4/29_4.odb,Step-1,Increment      1: Step Time =    1.000,"PART-1-1",           791,       6.68626,       2.15992,            0.,NA,NA,"",       2.84035,      -2.79607,  -499.625E-03,   249.080E-06
C:/temp/dataset/4/29_4.odb,Step-1,Increment      1: Step Time =    1.000,"PART-1-1",           792,       12.0103,       19.9021,            0.,NA,NA,"",       4.82067,      -4.82064,  -14.6790E-03,   516.887E-09
C:/temp/dataset/4/29_4.odb,Step-1,Increment      1: Step Time =    1.000,"PART-1-1",           793,       12.0305,       17.5416,            0.,NA,NA,"",       4.55601,      -4.55601,   2.48635E-03,   837.893E-09
C:/temp/dataset/4/29_4.odb,Step-1,Increment      1: Step Time =    1.000,"PART-1-1",           794,       6.09271,      -1.14349,            0.,NA,NA,"",       2.47885,      -2.41817,  -545.126E-03,   663.486E-06
C:/temp/dataset/4/29_4.odb,Step-1,Increment      1: Step Time =    1.000,"PART-1-1",           795,       7.56053,      -1.65505,            0.,NA,NA,"",       2.39927,      -2.36950,  -376.799E-03,   1.48741E-03
C:/temp/dataset/4/29_4.odb,Step-1,Increment      1: Step Time =    1.000,"PART-1-1",           796,       7.05122,  -549.935E-03,            0.,NA,NA,"",       2.53062,      -2.49186,  -441.193E-03,   880.245E-06
C:/temp/dataset/4/29_4.odb,Step-1,Increment      1: Step Time =    1.000,"PART-1-1",           797,       5.28588,       1.87348,            0.,NA,NA,"",       2.83158,      -2.75461,  -655.701E-03,   136.275E-06
C:/temp/dataset/4/29_4.odb,Step-1,Increment      1: Step Time =    1.000,"PART-1-1",           798,       5.70847,   325.226E-03,            0.,NA,NA,"",       2.65062,      -2.58226,  -598.089E-03,   371.256E-06
C:/temp/dataset/4/29_4.odb,Step-1,Increment      1: Step Time =    1.000,"PART-1-1",           799,       7.10885,   611.668E-03,            0.,NA,NA,"",       2.66091,      -2.62391,  -442.192E-03,   506.509E-06
C:/temp/dataset/4/29_4.odb,Step-1,Increment      1: Step Time =    1.000,"PART-1-1",           800,       9.00326,      -1.31280,            0.,NA,NA,"",       2.42828,      -2.41848,  -217.857E-03,   1.90410E-03
C:/temp/dataset/4/29_4.odb,Step-1,Increment      1: Step Time =    1.000,"PART-1-1",           801,       8.22155,  -652.532E-03,            0.,NA,NA,"",       2.50725,      -2.48810,  -309.270E-03,   1.17845E-03
C:/temp/dataset/4/29_4.odb,Step-1,Increment      1: Step Time =    1.000,"PART-1-1",           802,       8.34224,      -2.31533,            0.,NA,NA,"",       2.31689,      -2.29927,  -285.179E-03,   2.18603E-03
C:/temp/dataset/4/29_4.odb,Step-1,Increment      1: Step Time =    1.000,"PART-1-1",           803,       2.82445,       2.06443,            0.,NA,NA,"",       2.91434,      -2.76015,  -935.400E-03,   165.857E-06
