ODB Name,Step,Frame,Part Instance Name,    êﬂì_ÉâÉxÉã,X,Y,Z,Section Name,Material Name,Section Point,   U-Magnitude,          U-U1,          U-U2,       S-Mises
C:/temp/dataset/4/30_15.odb,Step-1,Increment      1: Step Time =    1.000,"PART-1-1",             1,           -5.,           30.,            0.,NA,NA,"",       1.26532,      -1.21962,  -336.994E-03,   1.77719E-09
C:/temp/dataset/4/30_15.odb,Step-1,Increment      1: Step Time =    1.000,"PART-1-1",             2,          -15.,           30.,            0.,NA,NA,"",       1.33775,      -1.21725,  -554.874E-03,   1.78104E-09
C:/temp/dataset/4/30_15.odb,Step-1,Increment      1: Step Time =    1.000,"PART-1-1",             3,          -15.,         21.25,            0.,NA,NA,"",       1.16598,      -1.02661,  -552.797E-03,   1.63781E-09
C:/temp/dataset/4/30_15.odb,Step-1,Increment      1: Step Time =    1.000,"PART-1-1",             4,          -15.,          12.5,            0.,NA,NA,"",       1.00106,  -835.961E-03,  -550.720E-03,   2.43511E-09
C:/temp/dataset/4/30_15.odb,Step-1,Increment      1: Step Time =    1.000,"PART-1-1",             5,          -15.,          3.75,            0.,NA,NA,"",   847.019E-03,  -645.316E-03,  -548.642E-03,   1.44464E-09
C:/temp/dataset/4/30_15.odb,Step-1,Increment      1: Step Time =    1.000,"PART-1-1",             6,          -15.,           -5.,            0.,NA,NA,"",   710.957E-03,  -454.672E-03,  -546.565E-03,   3.56869E-09
C:/temp/dataset/4/30_15.odb,Step-1,Increment      1: Step Time =    1.000,"PART-1-1",             7,          -10.,           -5.,            0.,NA,NA,"",   631.920E-03,  -455.859E-03,  -437.625E-03,   33.2955E-09
C:/temp/dataset/4/30_15.odb,Step-1,Increment      1: Step Time =    1.000,"PART-1-1",             8,           -5.,           -5.,            0.,NA,NA,"",   562.961E-03,  -457.046E-03,  -328.686E-03,   474.199E-09
C:/temp/dataset/4/30_15.odb,Step-1,Increment      1: Step Time =    1.000,"PART-1-1",             9,            0.,           -5.,            0.,NA,NA,"",   508.205E-03,  -458.238E-03,  -219.752E-03,   4.58980E-06
C:/temp/dataset/4/30_15.odb,Step-1,Increment      1: Step Time =    1.000,"PART-1-1",            10,            5.,           -5.,            0.,NA,NA,"",   472.605E-03,  -459.395E-03,  -110.960E-03,   134.530E-06
C:/temp/dataset/4/30_15.odb,Step-1,Increment      1: Step Time =    1.000,"PART-1-1",            11,            5.,        -11.25,            0.,NA,NA,"",   337.855E-03,  -319.662E-03,  -109.373E-03,   574.097E-06
C:/temp/dataset/4/30_15.odb,Step-1,Increment      1: Step Time =    1.000,"PART-1-1",            12,            5.,         -17.5,            0.,NA,NA,"",   203.190E-03,  -179.140E-03,  -95.8910E-03,   4.07199E-03
C:/temp/dataset/4/30_15.odb,Step-1,Increment      1: Step Time =    1.000,"PART-1-1",            13,            5.,        -23.75,            0.,NA,NA,"",   88.3158E-03,  -65.0277E-03,  -59.7585E-03,   8.42479E-03
C:/temp/dataset/4/30_15.odb,Step-1,Increment      1: Step Time =    1.000,"PART-1-1",            14,            5.,          -30.,            0.,NA,NA,"",            0.,  -4.11800E-39,  -7.67172E-39,   15.0622E-03
C:/temp/dataset/4/30_15.odb,Step-1,Increment      1: Step Time =    1.000,"PART-1-1",            15,           15.,          -30.,            0.,NA,NA,"",            0.,  -4.30130E-39,   7.87058E-39,   14.8878E-03
C:/temp/dataset/4/30_15.odb,Step-1,Increment      1: Step Time =    1.000,"PART-1-1",            16,           15.,         -22.5,            0.,NA,NA,"",   109.012E-03,  -85.0940E-03,   68.1367E-03,   7.65235E-03
C:/temp/dataset/4/30_15.odb,Step-1,Increment      1: Step Time =    1.000,"PART-1-1",            17,           15.,          -15.,            0.,NA,NA,"",   260.531E-03,  -239.717E-03,   102.039E-03,   2.86347E-03
C:/temp/dataset/4/30_15.odb,Step-1,Increment      1: Step Time =    1.000,"PART-1-1",            18,           15.,          -7.5,            0.,NA,NA,"",   423.491E-03,  -409.979E-03,   106.123E-03,   812.470E-06
C:/temp/dataset/4/30_15.odb,Step-1,Increment      1: Step Time =    1.000,"PART-1-1",            19,           15.,            0.,            0.,NA,NA,"",   580.412E-03,  -570.691E-03,   105.783E-03,   37.8513E-06
C:/temp/dataset/4/30_15.odb,Step-1,Increment      1: Step Time =    1.000,"PART-1-1",            20,           15.,           7.5,            0.,NA,NA,"",   741.416E-03,  -734.076E-03,   104.067E-03,   334.773E-09
C:/temp/dataset/4/30_15.odb,Step-1,Increment      1: Step Time =    1.000,"PART-1-1",            21,           15.,           15.,            0.,NA,NA,"",   903.236E-03,  -897.426E-03,   102.286E-03,   108.271E-09
C:/temp/dataset/4/30_15.odb,Step-1,Increment      1: Step Time =    1.000,"PART-1-1",            22,           15.,          22.5,            0.,NA,NA,"",       1.06552,      -1.06077,   100.507E-03,   2.45772E-09
C:/temp/dataset/4/30_15.odb,Step-1,Increment      1: Step Time =    1.000,"PART-1-1",            23,           15.,           30.,            0.,NA,NA,"",       1.22809,      -1.22412,   98.7278E-03,   1.09451E-09
C:/temp/dataset/4/30_15.odb,Step-1,Increment      1: Step Time =    1.000,"PART-1-1",            24,            5.,           30.,            0.,NA,NA,"",       1.22753,      -1.22174,  -119.066E-03,   1.10646E-09
C:/temp/dataset/4/30_15.odb,Step-1,Increment      1: Step Time =    1.000,"PART-1-1",            25,            5.,         23.75,            0.,NA,NA,"",       1.09197,      -1.08562,  -117.584E-03,   2.27602E-09
C:/temp/dataset/4/30_15.odb,Step-1,Increment      1: Step Time =    1.000,"PART-1-1",            26,            5.,          17.5,            0.,NA,NA,"",   956.574E-03,  -949.502E-03,  -116.101E-03,   29.5609E-09
C:/temp/dataset/4/30_15.odb,Step-1,Increment      1: Step Time =    1.000,"PART-1-1",            27,            5.,         11.25,            0.,NA,NA,"",   821.417E-03,  -813.381E-03,  -114.618E-03,   448.624E-09
C:/temp/dataset/4/30_15.odb,Step-1,Increment      1: Step Time =    1.000,"PART-1-1",            28,            5.,            5.,            0.,NA,NA,"",   686.674E-03,  -677.289E-03,  -113.143E-03,   14.8438E-06
C:/temp/dataset/4/30_15.odb,Step-1,Increment      1: Step Time =    1.000,"PART-1-1",            29,            0.,            5.,            0.,NA,NA,"",   711.666E-03,  -676.116E-03,  -222.116E-03,   1.30382E-06
C:/temp/dataset/4/30_15.odb,Step-1,Increment      1: Step Time =    1.000,"PART-1-1",            30,           -5.,            5.,            0.,NA,NA,"",   751.748E-03,  -674.926E-03,  -331.060E-03,   292.550E-09
C:/temp/dataset/4/30_15.odb,Step-1,Increment      1: Step Time =    1.000,"PART-1-1",            31,           -5.,         11.25,            0.,NA,NA,"",   876.623E-03,  -811.100E-03,  -332.543E-03,   4.58697E-09
C:/temp/dataset/4/30_15.odb,Step-1,Increment      1: Step Time =    1.000,"PART-1-1",            32,           -5.,          17.5,            0.,NA,NA,"",       1.00444,  -947.274E-03,  -334.027E-03,   1.75262E-09
C:/temp/dataset/4/30_15.odb,Step-1,Increment      1: Step Time =    1.000,"PART-1-1",            33,           -5.,         23.75,            0.,NA,NA,"",       1.13421,      -1.08345,  -335.511E-03,   1.76355E-09
C:/temp/dataset/4/30_15.odb,Step-1,Increment      1: Step Time =    1.000,"PART-1-1",            34,          -7.5,           30.,            0.,NA,NA,"",       1.28034,      -1.21903,  -391.464E-03,   1.71612E-09
C:/temp/dataset/4/30_15.odb,Step-1,Increment      1: Step Time =    1.000,"PART-1-1",            35,          -10.,           30.,            0.,NA,NA,"",       1.29748,      -1.21844,  -445.934E-03,   1.72413E-09
C:/temp/dataset/4/30_15.odb,Step-1,Increment      1: Step Time =    1.000,"PART-1-1",            36,         -12.5,           30.,            0.,NA,NA,"",       1.31664,      -1.21784,  -500.404E-03,   1.75106E-09
C:/temp/dataset/4/30_15.odb,Step-1,Increment      1: Step Time =    1.000,"PART-1-1",            37,          -15.,       27.8125,            0.,NA,NA,"",       1.29431,      -1.16959,  -554.354E-03,   1.72371E-09
C:/temp/dataset/4/30_15.odb,Step-1,Increment      1: Step Time =    1.000,"PART-1-1",            38,          -15.,        25.625,            0.,NA,NA,"",       1.25118,      -1.12193,  -553.835E-03,   1.70427E-09
C:/temp/dataset/4/30_15.odb,Step-1,Increment      1: Step Time =    1.000,"PART-1-1",            39,          -15.,       23.4375,            0.,NA,NA,"",       1.20839,      -1.07427,  -553.316E-03,   1.67429E-09
C:/temp/dataset/4/30_15.odb,Step-1,Increment      1: Step Time =    1.000,"PART-1-1",            40,          -15.,       19.0625,            0.,NA,NA,"",       1.12398,  -978.944E-03,  -552.277E-03,   1.60103E-09
C:/temp/dataset/4/30_15.odb,Step-1,Increment      1: Step Time =    1.000,"PART-1-1",            41,          -15.,        16.875,            0.,NA,NA,"",       1.08246,  -931.283E-03,  -551.758E-03,   1.60025E-09
C:/temp/dataset/4/30_15.odb,Step-1,Increment      1: Step Time =    1.000,"PART-1-1",            42,          -15.,       14.6875,            0.,NA,NA,"",       1.04147,  -883.622E-03,  -551.239E-03,   1.74295E-09
C:/temp/dataset/4/30_15.odb,Step-1,Increment      1: Step Time =    1.000,"PART-1-1",            43,          -15.,       10.3125,            0.,NA,NA,"",   961.320E-03,  -788.300E-03,  -550.200E-03,   4.13731E-09
C:/temp/dataset/4/30_15.odb,Step-1,Increment      1: Step Time =    1.000,"PART-1-1",            44,          -15.,         8.125,            0.,NA,NA,"",   922.331E-03,  -740.639E-03,  -549.681E-03,   6.17511E-09
C:/temp/dataset/4/30_15.odb,Step-1,Increment      1: Step Time =    1.000,"PART-1-1",            45,          -15.,        5.9375,            0.,NA,NA,"",   884.193E-03,  -692.978E-03,  -549.162E-03,   5.57391E-09
C:/temp/dataset/4/30_15.odb,Step-1,Increment      1: Step Time =    1.000,"PART-1-1",            46,          -15.,        1.5625,            0.,NA,NA,"",   810.944E-03,  -597.655E-03,  -548.123E-03,   5.83357E-09
C:/temp/dataset/4/30_15.odb,Step-1,Increment      1: Step Time =    1.000,"PART-1-1",            47,          -15.,     -625.E-03,            0.,NA,NA,"",   776.121E-03,  -549.994E-03,  -547.604E-03,   5.02087E-09
C:/temp/dataset/4/30_15.odb,Step-1,Increment      1: Step Time =    1.000,"PART-1-1",            48,          -15.,       -2.8125,            0.,NA,NA,"",   742.725E-03,  -502.333E-03,  -547.085E-03,   2.48260E-09
C:/temp/dataset/4/30_15.odb,Step-1,Increment      1: Step Time =    1.000,"PART-1-1",            49,         -12.5,           -5.,            0.,NA,NA,"",   670.391E-03,  -455.265E-03,  -492.095E-03,   2.75354E-09
C:/temp/dataset/4/30_15.odb,Step-1,Increment      1: Step Time =    1.000,"PART-1-1",            50,          -7.5,           -5.,            0.,NA,NA,"",   595.950E-03,  -456.452E-03,  -383.155E-03,   84.6019E-09
C:/temp/dataset/4/30_15.odb,Step-1,Increment      1: Step Time =    1.000,"PART-1-1",            51,          -2.5,           -5.,            0.,NA,NA,"",   533.507E-03,  -457.641E-03,  -274.216E-03,   1.10259E-06
C:/temp/dataset/4/30_15.odb,Step-1,Increment      1: Step Time =    1.000,"PART-1-1",            52,           2.5,           -5.,            0.,NA,NA,"",   487.703E-03,  -458.835E-03,  -165.301E-03,   20.9293E-06
C:/temp/dataset/4/30_15.odb,Step-1,Increment      1: Step Time =    1.000,"PART-1-1",            53,            5.,      -7.08333,            0.,NA,NA,"",   428.045E-03,  -413.456E-03,  -110.797E-03,   154.620E-06
C:/temp/dataset/4/30_15.odb,Step-1,Increment      1: Step Time =    1.000,"PART-1-1",            54,            5.,      -9.16667,            0.,NA,NA,"",   383.161E-03,  -366.909E-03,  -110.408E-03,   61.6523E-06
C:/temp/dataset/4/30_15.odb,Step-1,Increment      1: Step Time =    1.000,"PART-1-1",            55,            5.,      -13.3333,            0.,NA,NA,"",   292.310E-03,  -272.016E-03,  -107.015E-03,   1.46593E-03
C:/temp/dataset/4/30_15.odb,Step-1,Increment      1: Step Time =    1.000,"PART-1-1",            56,            5.,      -15.4167,            0.,NA,NA,"",   247.116E-03,  -224.777E-03,  -102.674E-03,   2.67544E-03
C:/temp/dataset/4/30_15.odb,Step-1,Increment      1: Step Time =    1.000,"PART-1-1",            57,            5.,      -19.5833,            0.,NA,NA,"",   161.545E-03,  -136.453E-03,  -86.4714E-03,   5.53312E-03
C:/temp/dataset/4/30_15.odb,Step-1,Increment      1: Step Time =    1.000,"PART-1-1",            58,            5.,      -21.6667,            0.,NA,NA,"",   123.056E-03,  -98.0071E-03,  -74.4131E-03,   6.97161E-03
C:/temp/dataset/4/30_15.odb,Step-1,Increment      1: Step Time =    1.000,"PART-1-1",            59,            5.,      -25.8333,            0.,NA,NA,"",   57.4078E-03,  -38.3640E-03,  -42.7066E-03,   9.56429E-03
C:/temp/dataset/4/30_15.odb,Step-1,Increment      1: Step Time =    1.000,"PART-1-1",            60,            5.,      -27.9167,            0.,NA,NA,"",   29.9860E-03,  -18.6247E-03,  -23.5007E-03,   11.8004E-03
C:/temp/dataset/4/30_15.odb,Step-1,Increment      1: Step Time =    1.000,"PART-1-1",            61,           7.5,          -30.,            0.,NA,NA,"",            0.,  -2.05425E-39,  -7.47160E-39,   3.85162E-03
C:/temp/dataset/4/30_15.odb,Step-1,Increment      1: Step Time =    1.000,"PART-1-1",            62,           10.,          -30.,            0.,NA,NA,"",            0.,   15.3919E-42,  -493.556E-42,   225.050E-06
C:/temp/dataset/4/30_15.odb,Step-1,Increment      1: Step Time =    1.000,"PART-1-1",            63,          12.5,          -30.,            0.,NA,NA,"",            0.,  -3.99582E-39,   8.08760E-39,   4.05779E-03
C:/temp/dataset/4/30_15.odb,Step-1,Increment      1: Step Time =    1.000,"PART-1-1",            64,           15.,         -27.5,            0.,NA,NA,"",   35.2352E-03,  -22.2300E-03,   27.3377E-03,   11.3110E-03
C:/temp/dataset/4/30_15.odb,Step-1,Increment      1: Step Time =    1.000,"PART-1-1",            65,           15.,          -25.,            0.,NA,NA,"",   69.5011E-03,  -48.7187E-03,   49.5670E-03,   9.03384E-03
C:/temp/dataset/4/30_15.odb,Step-1,Increment      1: Step Time =    1.000,"PART-1-1",            66,           15.,          -20.,            0.,NA,NA,"",   154.124E-03,  -129.819E-03,   83.0742E-03,   5.98569E-03
C:/temp/dataset/4/30_15.odb,Step-1,Increment      1: Step Time =    1.000,"PART-1-1",            67,           15.,         -17.5,            0.,NA,NA,"",   204.481E-03,  -181.473E-03,   94.2345E-03,   4.47759E-03
C:/temp/dataset/4/30_15.odb,Step-1,Increment      1: Step Time =    1.000,"PART-1-1",            68,           15.,         -12.5,            0.,NA,NA,"",   317.648E-03,  -299.686E-03,   105.302E-03,   1.92044E-03
C:/temp/dataset/4/30_15.odb,Step-1,Increment      1: Step Time =    1.000,"PART-1-1",            69,           15.,          -10.,            0.,NA,NA,"",   372.324E-03,  -356.759E-03,   106.527E-03,   1.50731E-03
C:/temp/dataset/4/30_15.odb,Step-1,Increment      1: Step Time =    1.000,"PART-1-1",            70,           15.,           -5.,            0.,NA,NA,"",   474.301E-03,  -462.195E-03,   106.476E-03,   341.592E-06
C:/temp/dataset/4/30_15.odb,Step-1,Increment      1: Step Time =    1.000,"PART-1-1",            71,           15.,          -2.5,            0.,NA,NA,"",   527.105E-03,  -516.292E-03,   106.216E-03,   102.033E-06
C:/temp/dataset/4/30_15.odb,Step-1,Increment      1: Step Time =    1.000,"PART-1-1",            72,           15.,           2.5,            0.,NA,NA,"",   633.950E-03,  -625.154E-03,   105.237E-03,   11.7457E-06
C:/temp/dataset/4/30_15.odb,Step-1,Increment      1: Step Time =    1.000,"PART-1-1",            73,           15.,            5.,            0.,NA,NA,"",   687.629E-03,  -679.618E-03,   104.659E-03,   2.42468E-06
C:/temp/dataset/4/30_15.odb,Step-1,Increment      1: Step Time =    1.000,"PART-1-1",            74,           15.,           10.,            0.,NA,NA,"",   795.288E-03,  -788.528E-03,   103.473E-03,   541.479E-09
C:/temp/dataset/4/30_15.odb,Step-1,Increment      1: Step Time =    1.000,"PART-1-1",            75,           15.,          12.5,            0.,NA,NA,"",   849.232E-03,  -842.977E-03,   102.879E-03,   295.180E-09
C:/temp/dataset/4/30_15.odb,Step-1,Increment      1: Step Time =    1.000,"PART-1-1",            76,           15.,          17.5,            0.,NA,NA,"",   957.291E-03,  -951.874E-03,   101.693E-03,   27.2312E-09
C:/temp/dataset/4/30_15.odb,Step-1,Increment      1: Step Time =    1.000,"PART-1-1",            77,           15.,           20.,            0.,NA,NA,"",       1.01139,      -1.00632,   101.100E-03,   3.12029E-09
C:/temp/dataset/4/30_15.odb,Step-1,Increment      1: Step Time =    1.000,"PART-1-1",            78,           15.,           25.,            0.,NA,NA,"",       1.11969,      -1.11522,   99.9137E-03,   2.06542E-09
C:/temp/dataset/4/30_15.odb,Step-1,Increment      1: Step Time =    1.000,"PART-1-1",            79,           15.,          27.5,            0.,NA,NA,"",       1.17388,      -1.16967,   99.3207E-03,   1.33638E-09
C:/temp/dataset/4/30_15.odb,Step-1,Increment      1: Step Time =    1.000,"PART-1-1",            80,          12.5,           30.,            0.,NA,NA,"",       1.22432,      -1.22352,   44.2793E-03,   1.27306E-09
C:/temp/dataset/4/30_15.odb,Step-1,Increment      1: Step Time =    1.000,"PART-1-1",            81,           10.,           30.,            0.,NA,NA,"",       1.22297,      -1.22293,  -10.1692E-03,   1.48943E-09
C:/temp/dataset/4/30_15.odb,Step-1,Increment      1: Step Time =    1.000,"PART-1-1",            82,           7.5,           30.,            0.,NA,NA,"",       1.22404,      -1.22234,  -64.6178E-03,   1.29560E-09
C:/temp/dataset/4/30_15.odb,Step-1,Increment      1: Step Time =    1.000,"PART-1-1",            83,            5.,       27.9167,            0.,NA,NA,"",       1.18233,      -1.17637,  -118.572E-03,   1.22455E-09
C:/temp/dataset/4/30_15.odb,Step-1,Increment      1: Step Time =    1.000,"PART-1-1",            84,            5.,       25.8333,            0.,NA,NA,"",       1.13714,      -1.13100,  -118.078E-03,   1.70563E-09
C:/temp/dataset/4/30_15.odb,Step-1,Increment      1: Step Time =    1.000,"PART-1-1",            85,            5.,       21.6667,            0.,NA,NA,"",       1.04682,      -1.04025,  -117.090E-03,   1.79239E-09
C:/temp/dataset/4/30_15.odb,Step-1,Increment      1: Step Time =    1.000,"PART-1-1",            86,            5.,       19.5833,            0.,NA,NA,"",       1.00168,  -994.876E-03,  -116.595E-03,   5.38873E-09
C:/temp/dataset/4/30_15.odb,Step-1,Increment      1: Step Time =    1.000,"PART-1-1",            87,            5.,       15.4167,            0.,NA,NA,"",   911.489E-03,  -904.128E-03,  -115.607E-03,   91.8686E-09
C:/temp/dataset/4/30_15.odb,Step-1,Increment      1: Step Time =    1.000,"PART-1-1",            88,            5.,       13.3333,            0.,NA,NA,"",   866.435E-03,  -858.755E-03,  -115.113E-03,   242.878E-09
C:/temp/dataset/4/30_15.odb,Step-1,Increment      1: Step Time =    1.000,"PART-1-1",            89,            5.,       9.16667,            0.,NA,NA,"",   776.442E-03,  -768.009E-03,  -114.123E-03,   848.679E-09
C:/temp/dataset/4/30_15.odb,Step-1,Increment      1: Step Time =    1.000,"PART-1-1",            90,            5.,       7.08333,            0.,NA,NA,"",   731.520E-03,  -722.642E-03,  -113.627E-03,   3.01090E-06
C:/temp/dataset/4/30_15.odb,Step-1,Increment      1: Step Time =    1.000,"PART-1-1",            91,           2.5,            5.,            0.,NA,NA,"",   697.165E-03,  -676.711E-03,  -167.635E-03,   3.12318E-06
C:/temp/dataset/4/30_15.odb,Step-1,Increment      1: Step Time =    1.000,"PART-1-1",            92,          -2.5,            5.,            0.,NA,NA,"",   729.952E-03,  -675.520E-03,  -276.589E-03,   750.102E-09
C:/temp/dataset/4/30_15.odb,Step-1,Increment      1: Step Time =    1.000,"PART-1-1",            93,           -5.,       7.08333,            0.,NA,NA,"",   792.959E-03,  -720.317E-03,  -331.554E-03,   50.2849E-09
C:/temp/dataset/4/30_15.odb,Step-1,Increment      1: Step Time =    1.000,"PART-1-1",            94,           -5.,       9.16667,            0.,NA,NA,"",   834.605E-03,  -765.708E-03,  -332.049E-03,   14.0793E-09
C:/temp/dataset/4/30_15.odb,Step-1,Increment      1: Step Time =    1.000,"PART-1-1",            95,           -5.,       13.3333,            0.,NA,NA,"",   918.962E-03,  -856.491E-03,  -333.038E-03,   2.45295E-09
C:/temp/dataset/4/30_15.odb,Step-1,Increment      1: Step Time =    1.000,"PART-1-1",            96,           -5.,       15.4167,            0.,NA,NA,"",   961.580E-03,  -901.883E-03,  -333.533E-03,   1.92924E-09
C:/temp/dataset/4/30_15.odb,Step-1,Increment      1: Step Time =    1.000,"PART-1-1",            97,           -5.,       19.5833,            0.,NA,NA,"",       1.04752,  -992.666E-03,  -334.522E-03,   1.74840E-09
C:/temp/dataset/4/30_15.odb,Step-1,Increment      1: Step Time =    1.000,"PART-1-1",            98,           -5.,       21.6667,            0.,NA,NA,"",       1.09078,      -1.03806,  -335.016E-03,   1.75501E-09
C:/temp/dataset/4/30_15.odb,Step-1,Increment      1: Step Time =    1.000,"PART-1-1",            99,           -5.,       25.8333,            0.,NA,NA,"",       1.17779,      -1.12884,  -336.005E-03,   1.76589E-09
C:/temp/dataset/4/30_15.odb,Step-1,Increment      1: Step Time =    1.000,"PART-1-1",           100,           -5.,       27.9167,            0.,NA,NA,"",       1.22150,      -1.17423,  -336.500E-03,   1.76661E-09
C:/temp/dataset/4/30_15.odb,Step-1,Increment      1: Step Time =    1.000,"PART-1-1",           101,       6.93475,       11.1046,            0.,NA,NA,"",   813.903E-03,  -810.672E-03,  -72.4466E-03,   170.261E-09
C:/temp/dataset/4/30_15.odb,Step-1,Increment      1: Step Time =    1.000,"PART-1-1",           102,       7.10183,      -21.7370,            0.,NA,NA,"",   100.353E-03,  -91.8019E-03,  -40.5365E-03,   4.59271E-03
C:/temp/dataset/4/30_15.odb,Step-1,Increment      1: Step Time =    1.000,"PART-1-1",           103,      -7.18606,       25.6133,            0.,NA,NA,"",       1.18720,      -1.12353,  -383.583E-03,   1.74447E-09
C:/temp/dataset/4/30_15.odb,Step-1,Increment      1: Step Time =    1.000,"PART-1-1",           104,       7.08931,      -17.4629,            0.,NA,NA,"",   185.390E-03,  -177.315E-03,  -54.1181E-03,   3.16677E-03
C:/temp/dataset/4/30_15.odb,Step-1,Increment      1: Step Time =    1.000,"PART-1-1",           105,       7.11844,      -23.8299,            0.,NA,NA,"",   65.7898E-03,  -57.6934E-03,  -31.6192E-03,   5.29181E-03
C:/temp/dataset/4/30_15.odb,Step-1,Increment      1: Step Time =    1.000,"PART-1-1",           106,       7.34845,      -27.9642,            0.,NA,NA,"",   14.1689E-03,  -10.3880E-03,  -9.63573E-03,   6.45665E-03
C:/temp/dataset/4/30_15.odb,Step-1,Increment      1: Step Time =    1.000,"PART-1-1",           107,       7.18399,      -25.9216,            0.,NA,NA,"",   36.4894E-03,  -30.0322E-03,  -20.7255E-03,   6.19577E-03
C:/temp/dataset/4/30_15.odb,Step-1,Increment      1: Step Time =    1.000,"PART-1-1",           108,       7.00226,      -10.9532,            0.,NA,NA,"",   333.008E-03,  -326.572E-03,  -65.1553E-03,   995.024E-06
C:/temp/dataset/4/30_15.odb,Step-1,Increment      1: Step Time =    1.000,"PART-1-1",           109,       6.93148,       25.8450,            0.,NA,NA,"",       1.13426,      -1.13171,  -76.0141E-03,   1.22226E-09
C:/temp/dataset/4/30_15.odb,Step-1,Increment      1: Step Time =    1.000,"PART-1-1",           110,       6.95256,       21.7727,            0.,NA,NA,"",       1.04569,      -1.04302,  -74.5891E-03,   3.52333E-09
C:/temp/dataset/4/30_15.odb,Step-1,Increment      1: Step Time =    1.000,"PART-1-1",           111,       6.99069,       19.6693,            0.,NA,NA,"",   999.907E-03,  -997.220E-03,  -73.2599E-03,   14.8055E-09
C:/temp/dataset/4/30_15.odb,Step-1,Increment      1: Step Time =    1.000,"PART-1-1",           112,       6.98342,       13.2435,            0.,NA,NA,"",   860.277E-03,  -857.268E-03,  -71.8939E-03,   166.178E-09
C:/temp/dataset/4/30_15.odb,Step-1,Increment      1: Step Time =    1.000,"PART-1-1",           113,       6.84904,       8.98858,            0.,NA,NA,"",   768.124E-03,  -764.569E-03,  -73.8114E-03,   681.283E-09
C:/temp/dataset/4/30_15.odb,Step-1,Increment      1: Step Time =    1.000,"PART-1-1",           114,      -7.00061,       11.3966,            0.,NA,NA,"",   896.552E-03,  -813.820E-03,  -376.167E-03,   3.23363E-09
C:/temp/dataset/4/30_15.odb,Step-1,Increment      1: Step Time =    1.000,"PART-1-1",           115,      -6.87185,       17.5946,            0.,NA,NA,"",       1.02024,  -948.890E-03,  -374.833E-03,   1.76633E-09
C:/temp/dataset/4/30_15.odb,Step-1,Increment      1: Step Time =    1.000,"PART-1-1",           116,      -6.78696,       21.5686,            0.,NA,NA,"",       1.10094,      -1.03550,  -373.927E-03,   1.74071E-09
C:/temp/dataset/4/30_15.odb,Step-1,Increment      1: Step Time =    1.000,"PART-1-1",           117,      -6.92081,       23.5666,            0.,NA,NA,"",       1.14307,      -1.07900,  -377.318E-03,   1.74354E-09
C:/temp/dataset/4/30_15.odb,Step-1,Increment      1: Step Time =    1.000,"PART-1-1",           118,      -7.47694,       27.7553,            0.,NA,NA,"",       1.23355,      -1.17013,  -390.429E-03,   1.74119E-09
C:/temp/dataset/4/30_15.odb,Step-1,Increment      1: Step Time =    1.000,"PART-1-1",           119,       6.62973,      -6.72562,            0.,NA,NA,"",   428.426E-03,  -421.828E-03,  -74.8983E-03,   98.8973E-06
C:/temp/dataset/4/30_15.odb,Step-1,Increment      1: Step Time =    1.000,"PART-1-1",           120,       7.00244,       17.5390,            0.,NA,NA,"",   953.585E-03,  -950.825E-03,  -72.4986E-03,   42.7314E-09
C:/temp/dataset/4/30_15.odb,Step-1,Increment      1: Step Time =    1.000,"PART-1-1",           121,       7.05765,      -13.1226,            0.,NA,NA,"",   283.235E-03,  -276.323E-03,  -62.1927E-03,   1.70732E-03
C:/temp/dataset/4/30_15.odb,Step-1,Increment      1: Step Time =    1.000,"PART-1-1",           122,      -6.97858,       13.4860,            0.,NA,NA,"",   938.079E-03,  -859.348E-03,  -376.183E-03,   2.27353E-09
C:/temp/dataset/4/30_15.odb,Step-1,Increment      1: Step Time =    1.000,"PART-1-1",           123,      -7.06135,       7.11796,            0.,NA,NA,"",   813.002E-03,  -720.582E-03,  -376.475E-03,   28.8873E-09
C:/temp/dataset/4/30_15.odb,Step-1,Increment      1: Step Time =    1.000,"PART-1-1",           124,       6.87626,      -8.81940,            0.,NA,NA,"",   381.424E-03,  -375.152E-03,  -68.8832E-03,   432.187E-06
C:/temp/dataset/4/30_15.odb,Step-1,Increment      1: Step Time =    1.000,"PART-1-1",           125,       7.08495,      -15.2974,            0.,NA,NA,"",   233.458E-03,  -225.972E-03,  -58.6483E-03,   2.44739E-03
C:/temp/dataset/4/30_15.odb,Step-1,Increment      1: Step Time =    1.000,"PART-1-1",           126,       7.00715,       15.3887,            0.,NA,NA,"",   906.848E-03,  -903.994E-03,  -71.8858E-03,   99.5325E-09
C:/temp/dataset/4/30_15.odb,Step-1,Increment      1: Step Time =    1.000,"PART-1-1",           127,      -7.01992,       9.30136,            0.,NA,NA,"",   855.289E-03,  -768.164E-03,  -376.091E-03,   7.10137E-09
C:/temp/dataset/4/30_15.odb,Step-1,Increment      1: Step Time =    1.000,"PART-1-1",           128,      -6.93369,       15.5639,            0.,NA,NA,"",   979.545E-03,  -904.632E-03,  -375.699E-03,   1.87344E-09
C:/temp/dataset/4/30_15.odb,Step-1,Increment      1: Step Time =    1.000,"PART-1-1",           129,      -6.79206,       19.5889,            0.,NA,NA,"",       1.06035,  -992.362E-03,  -373.568E-03,   1.74182E-09
C:/temp/dataset/4/30_15.odb,Step-1,Increment      1: Step Time =    1.000,"PART-1-1",           130,       7.09662,      -19.6136,            0.,NA,NA,"",   140.510E-03,  -132.049E-03,  -48.0214E-03,   3.87048E-03
C:/temp/dataset/4/30_15.odb,Step-1,Increment      1: Step Time =    1.000,"PART-1-1",           131,       6.89670,       23.8203,            0.,NA,NA,"",       1.09028,      -1.08760,  -76.2915E-03,   803.647E-12
C:/temp/dataset/4/30_15.odb,Step-1,Increment      1: Step Time =    1.000,"PART-1-1",           132,       6.67676,       6.98748,            0.,NA,NA,"",   725.061E-03,  -720.951E-03,  -77.0885E-03,   4.44575E-06
C:/temp/dataset/4/30_15.odb,Step-1,Increment      1: Step Time =    1.000,"PART-1-1",           133,      -13.0361,       12.2042,            0.,NA,NA,"",   973.033E-03,  -829.982E-03,  -507.861E-03,   2.36938E-09
C:/temp/dataset/4/30_15.odb,Step-1,Increment      1: Step Time =    1.000,"PART-1-1",           134,      -13.0483,       3.72302,            0.,NA,NA,"",   820.014E-03,  -645.192E-03,  -506.112E-03,   10.6770E-09
C:/temp/dataset/4/30_15.odb,Step-1,Increment      1: Step Time =    1.000,"PART-1-1",           135,      -13.0740,       10.0823,            0.,NA,NA,"",   934.078E-03,  -783.742E-03,  -508.183E-03,   2.91035E-09
C:/temp/dataset/4/30_15.odb,Step-1,Increment      1: Step Time =    1.000,"PART-1-1",           136,      -13.0017,       14.3509,            0.,NA,NA,"",       1.01311,  -876.762E-03,  -507.619E-03,   1.87299E-09
C:/temp/dataset/4/30_15.odb,Step-1,Increment      1: Step Time =    1.000,"PART-1-1",           137,      -12.4480,       21.2307,            0.,NA,NA,"",       1.14083,      -1.02679,  -497.190E-03,   1.67473E-09
C:/temp/dataset/4/30_15.odb,Step-1,Increment      1: Step Time =    1.000,"PART-1-1",           138,      -13.0426,       25.7965,            0.,NA,NA,"",       1.23674,      -1.12613,  -511.228E-03,   1.71185E-09
C:/temp/dataset/4/30_15.odb,Step-1,Increment      1: Step Time =    1.000,"PART-1-1",           139,      -12.9478,       23.6552,            0.,NA,NA,"",       1.19333,      -1.07950,  -508.654E-03,   1.69144E-09
C:/temp/dataset/4/30_15.odb,Step-1,Increment      1: Step Time =    1.000,"PART-1-1",           140,      -12.8307,       18.7376,            0.,NA,NA,"",       1.09567,  -972.380E-03,  -504.935E-03,   1.65600E-09
C:/temp/dataset/4/30_15.odb,Step-1,Increment      1: Step Time =    1.000,"PART-1-1",           141,      -12.9472,       16.5227,            0.,NA,NA,"",       1.05401,  -924.094E-03,  -506.949E-03,   1.68840E-09
C:/temp/dataset/4/30_15.odb,Step-1,Increment      1: Step Time =    1.000,"PART-1-1",           142,      -13.1112,       7.97345,            0.,NA,NA,"",   896.041E-03,  -737.785E-03,  -508.491E-03,   1.85013E-09
C:/temp/dataset/4/30_15.odb,Step-1,Increment      1: Step Time =    1.000,"PART-1-1",           143,      -13.1276,       5.86243,            0.,NA,NA,"",   858.479E-03,  -691.786E-03,  -508.349E-03,   4.44345E-09
C:/temp/dataset/4/30_15.odb,Step-1,Increment      1: Step Time =    1.000,"PART-1-1",           144,      -12.8109,       1.56310,            0.,NA,NA,"",   779.908E-03,  -598.188E-03,  -500.428E-03,   14.5448E-09
C:/temp/dataset/4/30_15.odb,Step-1,Increment      1: Step Time =    1.000,"PART-1-1",           145,      -12.5511,  -622.366E-03,            0.,NA,NA,"",   739.918E-03,  -550.633E-03,  -494.249E-03,   15.1464E-09
C:/temp/dataset/4/30_15.odb,Step-1,Increment      1: Step Time =    1.000,"PART-1-1",           146,      -7.69124,      -3.05836,            0.,NA,NA,"",   631.735E-03,  -498.711E-03,  -387.783E-03,   129.697E-09
C:/temp/dataset/4/30_15.odb,Step-1,Increment      1: Step Time =    1.000,"PART-1-1",           147,      -2.59391,      -3.27074,            0.,NA,NA,"",   567.331E-03,  -495.294E-03,  -276.672E-03,   707.803E-09
C:/temp/dataset/4/30_15.odb,Step-1,Increment      1: Step Time =    1.000,"PART-1-1",           148,      -2.06699,       2.95135,            0.,NA,NA,"",   685.022E-03,  -630.986E-03,  -266.669E-03,   339.651E-09
C:/temp/dataset/4/30_15.odb,Step-1,Increment      1: Step Time =    1.000,"PART-1-1",           149,       1.86882,      -3.06513,            0.,NA,NA,"",   532.031E-03,  -500.837E-03,  -179.498E-03,   13.7706E-06
C:/temp/dataset/4/30_15.odb,Step-1,Increment      1: Step Time =    1.000,"PART-1-1",           150,       2.79073,       3.02834,            0.,NA,NA,"",   653.905E-03,  -633.818E-03,  -160.832E-03,   7.61890E-06
C:/temp/dataset/4/30_15.odb,Step-1,Increment      1: Step Time =    1.000,"PART-1-1",           151,       12.5379,       2.72923,            0.,NA,NA,"",   631.669E-03,  -629.560E-03,   51.5742E-03,   14.8875E-06
C:/temp/dataset/4/30_15.odb,Step-1,Increment      1: Step Time =    1.000,"PART-1-1",           152,       12.9313,       10.2835,            0.,NA,NA,"",   796.351E-03,  -794.211E-03,   58.3505E-03,   121.818E-09
C:/temp/dataset/4/30_15.odb,Step-1,Increment      1: Step Time =    1.000,"PART-1-1",           153,       12.7723,       24.8557,            0.,NA,NA,"",       1.11274,      -1.11155,   51.4308E-03,   1.05268E-09
C:/temp/dataset/4/30_15.odb,Step-1,Increment      1: Step Time =    1.000,"PART-1-1",           154,       12.5268,       27.4001,            0.,NA,NA,"",       1.16779,      -1.16690,   45.4797E-03,   1.29500E-09
C:/temp/dataset/4/30_15.odb,Step-1,Increment      1: Step Time =    1.000,"PART-1-1",           155,       12.7627,      -5.01238,            0.,NA,NA,"",   464.899E-03,  -461.222E-03,   58.3621E-03,   151.292E-06
C:/temp/dataset/4/30_15.odb,Step-1,Increment      1: Step Time =    1.000,"PART-1-1",           156,       13.0118,      -12.5921,            0.,NA,NA,"",   300.141E-03,  -293.908E-03,   60.8516E-03,   2.42079E-03
C:/temp/dataset/4/30_15.odb,Step-1,Increment      1: Step Time =    1.000,"PART-1-1",           157,       9.69976,      -27.8547,            0.,NA,NA,"",   8.22991E-03,  -8.17118E-03,  -981.387E-06,   2.91643E-03
C:/temp/dataset/4/30_15.odb,Step-1,Increment      1: Step Time =    1.000,"PART-1-1",           158,       13.0855,      -17.4497,            0.,NA,NA,"",   187.363E-03,  -179.070E-03,   55.1264E-03,   3.09888E-03
C:/temp/dataset/4/30_15.odb,Step-1,Increment      1: Step Time =    1.000,"PART-1-1",           159,       12.9366,       22.3763,            0.,NA,NA,"",       1.05905,      -1.05759,   55.5969E-03,   2.01622E-09
C:/temp/dataset/4/30_15.odb,Step-1,Increment      1: Step Time =    1.000,"PART-1-1",           160,       13.0248,       17.5365,            0.,NA,NA,"",   954.006E-03,  -952.200E-03,   58.6658E-03,   42.0609E-09
C:/temp/dataset/4/30_15.odb,Step-1,Increment      1: Step Time =    1.000,"PART-1-1",           161,      -10.1545,       27.3700,            0.,NA,NA,"",       1.24477,      -1.16110,  -448.676E-03,   1.72889E-09
C:/temp/dataset/4/30_15.odb,Step-1,Increment      1: Step Time =    1.000,"PART-1-1",           162,      -10.0546,      -2.87755,            0.,NA,NA,"",   667.154E-03,  -502.090E-03,  -439.318E-03,   44.8584E-09
C:/temp/dataset/4/30_15.odb,Step-1,Increment      1: Step Time =    1.000,"PART-1-1",           163,      -5.07747,      -2.66322,            0.,NA,NA,"",   606.232E-03,  -507.941E-03,  -330.928E-03,   311.572E-09
C:/temp/dataset/4/30_15.odb,Step-1,Increment      1: Step Time =    1.000,"PART-1-1",           164,  -330.659E-03,      -3.26262,            0.,NA,NA,"",   545.636E-03,  -496.008E-03,  -227.365E-03,   3.22308E-06
C:/temp/dataset/4/30_15.odb,Step-1,Increment      1: Step Time =    1.000,"PART-1-1",           165,       3.93161,      -2.75002,            0.,NA,NA,"",   525.734E-03,  -508.200E-03,  -134.646E-03,   26.9288E-06
C:/temp/dataset/4/30_15.odb,Step-1,Increment      1: Step Time =    1.000,"PART-1-1",           166,       12.9585,      -10.1304,            0.,NA,NA,"",   356.149E-03,  -350.750E-03,   61.7784E-03,   1.75973E-03
C:/temp/dataset/4/30_15.odb,Step-1,Increment      1: Step Time =    1.000,"PART-1-1",           167,       13.1106,      -19.8561,            0.,NA,NA,"",   137.451E-03,  -128.255E-03,   49.4290E-03,   4.05419E-03
C:/temp/dataset/4/30_15.odb,Step-1,Increment      1: Step Time =    1.000,"PART-1-1",           168,       12.2637,      -27.1930,            0.,NA,NA,"",   19.8501E-03,  -16.2720E-03,   11.3687E-03,   5.74396E-03
C:/temp/dataset/4/30_15.odb,Step-1,Increment      1: Step Time =    1.000,"PART-1-1",           169,       13.0974,      -22.2394,            0.,NA,NA,"",   93.4066E-03,  -84.0164E-03,   40.8171E-03,   4.94511E-03
C:/temp/dataset/4/30_15.odb,Step-1,Increment      1: Step Time =    1.000,"PART-1-1",           170,       13.0625,      -15.0302,            0.,NA,NA,"",   242.721E-03,  -235.501E-03,   58.7640E-03,   3.08948E-03
C:/temp/dataset/4/30_15.odb,Step-1,Increment      1: Step Time =    1.000,"PART-1-1",           171,       12.8638,      -7.61343,            0.,NA,NA,"",   410.263E-03,  -405.731E-03,   60.8135E-03,   874.247E-06
C:/temp/dataset/4/30_15.odb,Step-1,Increment      1: Step Time =    1.000,"PART-1-1",           172,       12.8109,      -2.41519,            0.,NA,NA,"",   520.893E-03,  -517.571E-03,   58.7317E-03,   56.3934E-06
C:/temp/dataset/4/30_15.odb,Step-1,Increment      1: Step Time =    1.000,"PART-1-1",           173,       12.7001,   168.481E-03,            0.,NA,NA,"",   576.501E-03,  -573.802E-03,   55.7140E-03,   34.6908E-06
C:/temp/dataset/4/30_15.odb,Step-1,Increment      1: Step Time =    1.000,"PART-1-1",           174,       12.6773,       5.28127,            0.,NA,NA,"",   687.318E-03,  -685.193E-03,   54.0034E-03,   5.41828E-06
C:/temp/dataset/4/30_15.odb,Step-1,Increment      1: Step Time =    1.000,"PART-1-1",           175,       12.8405,       7.80961,            0.,NA,NA,"",   742.495E-03,  -740.307E-03,   56.9593E-03,   1.18640E-06
C:/temp/dataset/4/30_15.odb,Step-1,Increment      1: Step Time =    1.000,"PART-1-1",           176,       12.9955,       12.7023,            0.,NA,NA,"",   848.972E-03,  -846.907E-03,   59.1745E-03,   178.396E-09
C:/temp/dataset/4/30_15.odb,Step-1,Increment      1: Step Time =    1.000,"PART-1-1",           177,       13.0102,       19.9477,            0.,NA,NA,"",       1.00637,      -1.00471,   57.7745E-03,   12.2079E-09
C:/temp/dataset/4/30_15.odb,Step-1,Increment      1: Step Time =    1.000,"PART-1-1",           178,       9.88408,       27.1269,            0.,NA,NA,"",       1.16039,      -1.16033,  -12.0125E-03,   1.05660E-09
C:/temp/dataset/4/30_15.odb,Step-1,Increment      1: Step Time =    1.000,"PART-1-1",           179,       13.0301,       15.1161,            0.,NA,NA,"",   901.443E-03,  -899.487E-03,   59.3550E-03,   105.510E-09
C:/temp/dataset/4/30_15.odb,Step-1,Increment      1: Step Time =    1.000,"PART-1-1",           180,   300.490E-03,       3.00528,            0.,NA,NA,"",   668.285E-03,  -632.723E-03,  -215.095E-03,   1.32568E-06
C:/temp/dataset/4/30_15.odb,Step-1,Increment      1: Step Time =    1.000,"PART-1-1",           181,      -4.18418,       2.89078,            0.,NA,NA,"",   702.624E-03,  -629.163E-03,  -312.784E-03,   318.366E-09
C:/temp/dataset/4/30_15.odb,Step-1,Increment      1: Step Time =    1.000,"PART-1-1",           182,      -8.75093,       23.2164,            0.,NA,NA,"",       1.14929,      -1.07093,  -417.109E-03,   1.72636E-09
C:/temp/dataset/4/30_15.odb,Step-1,Increment      1: Step Time =    1.000,"PART-1-1",           183,       9.13120,      -23.8882,            0.,NA,NA,"",   54.8225E-03,  -54.0515E-03,  -9.16248E-03,   3.32417E-03
C:/temp/dataset/4/30_15.odb,Step-1,Increment      1: Step Time =    1.000,"PART-1-1",           184,       8.76025,       8.63504,            0.,NA,NA,"",   758.002E-03,  -757.322E-03,  -32.1029E-03,   1.12333E-06
C:/temp/dataset/4/30_15.odb,Step-1,Increment      1: Step Time =    1.000,"PART-1-1",           185,       8.81891,       23.9948,            0.,NA,NA,"",       1.09241,      -1.09186,  -34.4682E-03,   663.088E-12
C:/temp/dataset/4/30_15.odb,Step-1,Increment      1: Step Time =    1.000,"PART-1-1",           186,       9.00734,       17.5557,            0.,NA,NA,"",   952.103E-03,  -951.666E-03,  -28.8371E-03,   50.1929E-09
C:/temp/dataset/4/30_15.odb,Step-1,Increment      1: Step Time =    1.000,"PART-1-1",           187,      -8.59230,       19.6811,            0.,NA,NA,"",       1.07626,  -993.944E-03,  -412.814E-03,   1.72354E-09
C:/temp/dataset/4/30_15.odb,Step-1,Increment      1: Step Time =    1.000,"PART-1-1",           188,       9.06266,      -12.9142,            0.,NA,NA,"",   282.359E-03,  -281.588E-03,  -20.8425E-03,   2.09274E-03
C:/temp/dataset/4/30_15.odb,Step-1,Increment      1: Step Time =    1.000,"PART-1-1",           189,       9.13987,      -19.6571,            0.,NA,NA,"",   130.288E-03,  -129.484E-03,  -14.4534E-03,   3.12239E-03
C:/temp/dataset/4/30_15.odb,Step-1,Increment      1: Step Time =    1.000,"PART-1-1",           190,       9.00941,       15.3265,            0.,NA,NA,"",   903.557E-03,  -903.115E-03,  -28.2634E-03,   110.527E-09
C:/temp/dataset/4/30_15.odb,Step-1,Increment      1: Step Time =    1.000,"PART-1-1",           191,      -8.96967,       13.7142,            0.,NA,NA,"",   960.370E-03,  -863.846E-03,  -419.619E-03,   2.05041E-09
C:/temp/dataset/4/30_15.odb,Step-1,Increment      1: Step Time =    1.000,"PART-1-1",           192,       9.12973,      -17.4386,            0.,NA,NA,"",   177.621E-03,  -176.819E-03,  -16.8620E-03,   3.01218E-03
C:/temp/dataset/4/30_15.odb,Step-1,Increment      1: Step Time =    1.000,"PART-1-1",           193,       8.94484,       21.9321,            0.,NA,NA,"",       1.04743,      -1.04697,  -31.2363E-03,   4.71336E-09
C:/temp/dataset/4/30_15.odb,Step-1,Increment      1: Step Time =    1.000,"PART-1-1",           194,      -8.78258,       17.8115,            0.,NA,NA,"",       1.04019,  -953.163E-03,  -416.516E-03,   1.73244E-09
C:/temp/dataset/4/30_15.odb,Step-1,Increment      1: Step Time =    1.000,"PART-1-1",           195,       8.90333,       10.8666,            0.,NA,NA,"",   806.497E-03,  -805.957E-03,  -29.5162E-03,   224.734E-09
C:/temp/dataset/4/30_15.odb,Step-1,Increment      1: Step Time =    1.000,"PART-1-1",           196,      -9.00437,       11.6266,            0.,NA,NA,"",   919.784E-03,  -818.354E-03,  -419.880E-03,   2.84321E-09
C:/temp/dataset/4/30_15.odb,Step-1,Increment      1: Step Time =    1.000,"PART-1-1",           197,      -9.03622,       9.53759,            0.,NA,NA,"",   879.622E-03,  -772.832E-03,  -420.078E-03,   2.70285E-09
C:/temp/dataset/4/30_15.odb,Step-1,Increment      1: Step Time =    1.000,"PART-1-1",           198,       8.99264,      -10.6281,            0.,NA,NA,"",   335.582E-03,  -334.812E-03,  -22.7339E-03,   1.29273E-03
C:/temp/dataset/4/30_15.odb,Step-1,Increment      1: Step Time =    1.000,"PART-1-1",           199,       8.82192,      -8.34759,            0.,NA,NA,"",   387.416E-03,  -386.498E-03,  -26.6583E-03,   571.677E-06
C:/temp/dataset/4/30_15.odb,Step-1,Increment      1: Step Time =    1.000,"PART-1-1",           200,       8.98411,       13.0928,            0.,NA,NA,"",   854.929E-03,  -854.461E-03,  -28.2849E-03,   178.504E-09
C:/temp/dataset/4/30_15.odb,Step-1,Increment      1: Step Time =    1.000,"PART-1-1",           201,       7.30685,       27.8134,            0.,NA,NA,"",       1.17665,      -1.17467,  -68.3059E-03,   1.26591E-09
C:/temp/dataset/4/30_15.odb,Step-1,Increment      1: Step Time =    1.000,"PART-1-1",           202,      -8.46063,       21.4565,            0.,NA,NA,"",       1.11121,      -1.03266,  -410.366E-03,   1.72483E-09
C:/temp/dataset/4/30_15.odb,Step-1,Increment      1: Step Time =    1.000,"PART-1-1",           203,       9.11250,      -15.1896,            0.,NA,NA,"",   228.971E-03,  -228.192E-03,  -18.8742E-03,   2.70013E-03
C:/temp/dataset/4/30_15.odb,Step-1,Increment      1: Step Time =    1.000,"PART-1-1",           204,       9.14200,      -21.8221,            0.,NA,NA,"",   88.8144E-03,  -88.0224E-03,  -11.8340E-03,   3.21402E-03
C:/temp/dataset/4/30_15.odb,Step-1,Increment      1: Step Time =    1.000,"PART-1-1",           205,      -8.90436,       15.8055,            0.,NA,NA,"",       1.00118,  -909.429E-03,  -418.693E-03,   1.79350E-09
C:/temp/dataset/4/30_15.odb,Step-1,Increment      1: Step Time =    1.000,"PART-1-1",           206,       9.00445,       19.7587,            0.,NA,NA,"",       1.00008,  -999.644E-03,  -29.4225E-03,   17.9493E-09
C:/temp/dataset/4/30_15.odb,Step-1,Increment      1: Step Time =    1.000,"PART-1-1",           207,       8.39742,      -6.16188,            0.,NA,NA,"",   436.307E-03,  -434.792E-03,  -36.3198E-03,   132.835E-06
C:/temp/dataset/4/30_15.odb,Step-1,Increment      1: Step Time =    1.000,"PART-1-1",           208,      -9.10294,       7.45394,            0.,NA,NA,"",   840.481E-03,  -727.418E-03,  -421.037E-03,   7.55685E-09
C:/temp/dataset/4/30_15.odb,Step-1,Increment      1: Step Time =    1.000,"PART-1-1",           209,       8.43260,       6.43235,            0.,NA,NA,"",   710.330E-03,  -709.274E-03,  -38.7132E-03,   5.27071E-06
C:/temp/dataset/4/30_15.odb,Step-1,Increment      1: Step Time =    1.000,"PART-1-1",           210,       5.64784,       2.93298,            0.,NA,NA,"",   640.048E-03,  -632.418E-03,  -98.5368E-03,   8.05400E-06
C:/temp/dataset/4/30_15.odb,Step-1,Increment      1: Step Time =    1.000,"PART-1-1",           211,      -10.7213,       1.88644,            0.,NA,NA,"",   757.569E-03,  -605.729E-03,  -454.976E-03,   37.5567E-09
C:/temp/dataset/4/30_15.odb,Step-1,Increment      1: Step Time =    1.000,"PART-1-1",           212,      -12.7178,       27.8380,            0.,NA,NA,"",       1.27482,      -1.17068,  -504.637E-03,   1.73187E-09
C:/temp/dataset/4/30_15.odb,Step-1,Increment      1: Step Time =    1.000,"PART-1-1",           213,      -11.0298,       24.2524,            0.,NA,NA,"",       1.18856,      -1.09296,  -467.006E-03,   1.71169E-09
C:/temp/dataset/4/30_15.odb,Step-1,Increment      1: Step Time =    1.000,"PART-1-1",           214,      -10.4500,       20.0822,            0.,NA,NA,"",       1.10002,      -1.00224,  -453.384E-03,   1.69794E-09
C:/temp/dataset/4/30_15.odb,Step-1,Increment      1: Step Time =    1.000,"PART-1-1",           215,      -10.9919,       14.0243,            0.,NA,NA,"",   985.992E-03,  -870.123E-03,  -463.753E-03,   1.96665E-09
C:/temp/dataset/4/30_15.odb,Step-1,Increment      1: Step Time =    1.000,"PART-1-1",           216,      -11.0796,       9.82104,            0.,NA,NA,"",   906.649E-03,  -778.523E-03,  -464.667E-03,   2.75551E-09
C:/temp/dataset/4/30_15.odb,Step-1,Increment      1: Step Time =    1.000,"PART-1-1",           217,      -11.0365,       11.9204,            0.,NA,NA,"",   946.009E-03,  -824.275E-03,  -464.225E-03,   2.51240E-09
C:/temp/dataset/4/30_15.odb,Step-1,Increment      1: Step Time =    1.000,"PART-1-1",           218,      -10.5491,       22.5446,            0.,NA,NA,"",       1.15018,      -1.05587,  -456.127E-03,   1.70672E-09
C:/temp/dataset/4/30_15.odb,Step-1,Increment      1: Step Time =    1.000,"PART-1-1",           219,      -10.9277,       16.1478,            0.,NA,NA,"",       1.02666,  -916.405E-03,  -462.858E-03,   1.73121E-09
C:/temp/dataset/4/30_15.odb,Step-1,Increment      1: Step Time =    1.000,"PART-1-1",           220,      -10.7891,       18.2216,            0.,NA,NA,"",       1.06612,  -961.622E-03,  -460.331E-03,   1.69725E-09
C:/temp/dataset/4/30_15.odb,Step-1,Increment      1: Step Time =    1.000,"PART-1-1",           221,      -11.1555,       7.76515,            0.,NA,NA,"",   869.097E-03,  -733.711E-03,  -465.831E-03,   2.41540E-09
C:/temp/dataset/4/30_15.odb,Step-1,Increment      1: Step Time =    1.000,"PART-1-1",           222,      -9.80329,       4.04682,            0.,NA,NA,"",   784.908E-03,  -653.017E-03,  -435.487E-03,   33.1064E-09
C:/temp/dataset/4/30_15.odb,Step-1,Increment      1: Step Time =    1.000,"PART-1-1",           223,       9.22674,      -25.9093,            0.,NA,NA,"",   27.5216E-03,  -26.9883E-03,  -5.39129E-03,   3.27979E-03
C:/temp/dataset/4/30_15.odb,Step-1,Increment      1: Step Time =    1.000,"PART-1-1",           224,      -9.21421,       25.1107,            0.,NA,NA,"",       1.19149,      -1.11210,  -427.653E-03,   1.72797E-09
C:/temp/dataset/4/30_15.odb,Step-1,Increment      1: Step Time =    1.000,"PART-1-1",           225,       6.25241,      -4.60112,            0.,NA,NA,"",   475.843E-03,  -468.434E-03,  -83.6459E-03,   64.0438E-06
C:/temp/dataset/4/30_15.odb,Step-1,Increment      1: Step Time =    1.000,"PART-1-1",           226,      -7.19550,       4.55405,            0.,NA,NA,"",   765.043E-03,  -664.688E-03,  -378.789E-03,   95.3198E-09
C:/temp/dataset/4/30_15.odb,Step-1,Increment      1: Step Time =    1.000,"PART-1-1",           227,       12.9551,      -24.6090,            0.,NA,NA,"",   55.1396E-03,  -47.1918E-03,   28.5187E-03,   5.92144E-03
C:/temp/dataset/4/30_15.odb,Step-1,Increment      1: Step Time =    1.000,"PART-1-1",           228,       10.9241,       22.1645,            0.,NA,NA,"",       1.05256,      -1.05250,   11.8162E-03,   3.92683E-09
C:/temp/dataset/4/30_15.odb,Step-1,Increment      1: Step Time =    1.000,"PART-1-1",           229,      -4.91288,   464.762E-03,            0.,NA,NA,"",   662.999E-03,  -576.132E-03,  -328.085E-03,   322.743E-09
C:/temp/dataset/4/30_15.odb,Step-1,Increment      1: Step Time =    1.000,"PART-1-1",           230,  -831.143E-03,      -1.35374,            0.,NA,NA,"",   588.108E-03,  -537.478E-03,  -238.722E-03,   1.04410E-06
C:/temp/dataset/4/30_15.odb,Step-1,Increment      1: Step Time =    1.000,"PART-1-1",           231,       11.1616,      -19.7398,            0.,NA,NA,"",   129.385E-03,  -128.189E-03,   17.5488E-03,   3.09708E-03
C:/temp/dataset/4/30_15.odb,Step-1,Increment      1: Step Time =    1.000,"PART-1-1",           232,       10.9730,      -10.3410,            0.,NA,NA,"",   343.706E-03,  -343.169E-03,   19.2081E-03,   1.53441E-03
C:/temp/dataset/4/30_15.odb,Step-1,Increment      1: Step Time =    1.000,"PART-1-1",           233,       10.4844,      -5.04269,            0.,NA,NA,"",   460.026E-03,  -459.939E-03,   8.93971E-03,   100.083E-06
C:/temp/dataset/4/30_15.odb,Step-1,Increment      1: Step Time =    1.000,"PART-1-1",           234,       10.9074,       10.5689,            0.,NA,NA,"",   800.073E-03,  -799.947E-03,   14.2020E-03,   243.184E-09
C:/temp/dataset/4/30_15.odb,Step-1,Increment      1: Step Time =    1.000,"PART-1-1",           235,       11.0515,      -12.7377,            0.,NA,NA,"",   288.124E-03,  -287.448E-03,   19.7330E-03,   2.39945E-03
C:/temp/dataset/4/30_15.odb,Step-1,Increment      1: Step Time =    1.000,"PART-1-1",           236,       10.9936,       12.8990,            0.,NA,NA,"",   850.859E-03,  -850.718E-03,   15.5257E-03,   176.124E-09
C:/temp/dataset/4/30_15.odb,Step-1,Increment      1: Step Time =    1.000,"PART-1-1",           237,      -9.84553,  -403.770E-03,            0.,NA,NA,"",   706.193E-03,  -556.038E-03,  -435.351E-03,   58.0520E-09
C:/temp/dataset/4/30_15.odb,Step-1,Increment      1: Step Time =    1.000,"PART-1-1",           238,      -6.42098,  -599.403E-03,            0.,NA,NA,"",   659.887E-03,  -552.588E-03,  -360.691E-03,   207.850E-09
C:/temp/dataset/4/30_15.odb,Step-1,Increment      1: Step Time =    1.000,"PART-1-1",           239,      -2.35214,      -1.85066,            0.,NA,NA,"",   592.306E-03,  -526.291E-03,  -271.742E-03,   388.767E-09
C:/temp/dataset/4/30_15.odb,Step-1,Increment      1: Step Time =    1.000,"PART-1-1",           240,       11.1625,      -21.9830,            0.,NA,NA,"",   86.8372E-03,  -85.5361E-03,   14.9758E-03,   3.29796E-03
C:/temp/dataset/4/30_15.odb,Step-1,Increment      1: Step Time =    1.000,"PART-1-1",           241,       11.1073,      -15.0998,            0.,NA,NA,"",   232.250E-03,  -231.422E-03,   19.5927E-03,   2.95281E-03
C:/temp/dataset/4/30_15.odb,Step-1,Increment      1: Step Time =    1.000,"PART-1-1",           242,       11.1457,      -17.4375,            0.,NA,NA,"",   178.430E-03,  -177.408E-03,   19.0699E-03,   3.04159E-03
C:/temp/dataset/4/30_15.odb,Step-1,Increment      1: Step Time =    1.000,"PART-1-1",           243,       10.8340,      -7.85693,            0.,NA,NA,"",   399.059E-03,  -398.703E-03,   16.8457E-03,   631.153E-06
C:/temp/dataset/4/30_15.odb,Step-1,Increment      1: Step Time =    1.000,"PART-1-1",           244,       10.5842,   120.255E-03,            0.,NA,NA,"",   572.365E-03,  -572.283E-03,   9.70409E-03,   31.2858E-06
C:/temp/dataset/4/30_15.odb,Step-1,Increment      1: Step Time =    1.000,"PART-1-1",           245,       10.8633,      -2.34188,            0.,NA,NA,"",   519.006E-03,  -518.745E-03,   16.4446E-03,   64.6363E-06
C:/temp/dataset/4/30_15.odb,Step-1,Increment      1: Step Time =    1.000,"PART-1-1",           246,       9.78574,       2.89226,            0.,NA,NA,"",   632.537E-03,  -632.482E-03,  -8.38019E-03,   15.4159E-06
C:/temp/dataset/4/30_15.odb,Step-1,Increment      1: Step Time =    1.000,"PART-1-1",           247,       10.7685,       8.18214,            0.,NA,NA,"",   748.024E-03,  -747.932E-03,   11.7444E-03,   1.51697E-06
C:/temp/dataset/4/30_15.odb,Step-1,Increment      1: Step Time =    1.000,"PART-1-1",           248,       10.4587,       5.69287,            0.,NA,NA,"",   693.663E-03,  -693.640E-03,   5.59104E-03,   5.86663E-06
C:/temp/dataset/4/30_15.odb,Step-1,Increment      1: Step Time =    1.000,"PART-1-1",           249,       11.0104,       19.8565,            0.,NA,NA,"",       1.00235,      -1.00225,   14.2434E-03,   16.7799E-09
C:/temp/dataset/4/30_15.odb,Step-1,Increment      1: Step Time =    1.000,"PART-1-1",           250,       11.0363,       17.5467,            0.,NA,NA,"",   952.074E-03,  -951.950E-03,   15.3536E-03,   49.8922E-09
C:/temp/dataset/4/30_15.odb,Step-1,Increment      1: Step Time =    1.000,"PART-1-1",           251,       11.0403,       15.2208,            0.,NA,NA,"",   901.438E-03,  -901.296E-03,   15.9936E-03,   113.191E-09
C:/temp/dataset/4/30_15.odb,Step-1,Increment      1: Step Time =    1.000,"PART-1-1",           252,       1.19009,      -1.06873,            0.,NA,NA,"",   577.970E-03,  -544.169E-03,  -194.754E-03,   5.38002E-06
C:/temp/dataset/4/30_15.odb,Step-1,Increment      1: Step Time =    1.000,"PART-1-1",           253,       10.6932,       24.5073,            0.,NA,NA,"",       1.10349,      -1.10347,   6.23111E-03,   493.576E-12
C:/temp/dataset/4/30_15.odb,Step-1,Increment      1: Step Time =    1.000,"PART-1-1",           254,       8.51128,       25.6419,            0.,NA,NA,"",       1.12843,      -1.12766,  -41.5590E-03,   858.244E-12
C:/temp/dataset/4/30_15.odb,Step-1,Increment      1: Step Time =    1.000,"PART-1-1",           255,      -9.32324,       5.48290,            0.,NA,NA,"",   805.835E-03,  -684.420E-03,  -425.369E-03,   21.5269E-09
C:/temp/dataset/4/30_15.odb,Step-1,Increment      1: Step Time =    1.000,"PART-1-1",           256,      -11.4569,       25.7537,            0.,NA,NA,"",       1.22235,      -1.12557,  -476.670E-03,   1.71860E-09
C:/temp/dataset/4/30_15.odb,Step-1,Increment      1: Step Time =    1.000,"PART-1-1",           257,      -8.85145,       2.84717,            0.,NA,NA,"",   751.692E-03,  -627.105E-03,  -414.464E-03,   73.5386E-09
C:/temp/dataset/4/30_15.odb,Step-1,Increment      1: Step Time =    1.000,"PART-1-1",           258,       11.0896,      -24.0706,            0.,NA,NA,"",   52.7382E-03,  -51.5887E-03,   10.9510E-03,   3.46614E-03
C:/temp/dataset/4/30_15.odb,Step-1,Increment      1: Step Time =    1.000,"PART-1-1",           259,       5.69240,      -2.12345,            0.,NA,NA,"",   531.125E-03,  -522.304E-03,  -96.3974E-03,   43.4710E-06
C:/temp/dataset/4/30_15.odb,Step-1,Increment      1: Step Time =    1.000,"PART-1-1",           260,       7.72467,       1.38687,            0.,NA,NA,"",   601.561E-03,  -599.230E-03,  -52.9031E-03,   17.1173E-06
C:/temp/dataset/4/30_15.odb,Step-1,Increment      1: Step Time =    1.000,"PART-1-1",           261,       8.83369,  -368.727E-03,            0.,NA,NA,"",   561.969E-03,  -561.257E-03,  -28.2885E-03,   33.6532E-06
C:/temp/dataset/4/30_15.odb,Step-1,Increment      1: Step Time =    1.000,"PART-1-1",           262,       7.58912,       4.39900,            0.,NA,NA,"",   667.201E-03,  -664.797E-03,  -56.5944E-03,   9.99520E-06
C:/temp/dataset/4/30_15.odb,Step-1,Increment      1: Step Time =    1.000,"PART-1-1",           263,      -6.02595,       2.23751,            0.,NA,NA,"",   708.547E-03,  -614.492E-03,  -352.757E-03,   234.392E-09
C:/temp/dataset/4/30_15.odb,Step-1,Increment      1: Step Time =    1.000,"PART-1-1",           264,       4.92391,   813.983E-03,            0.,NA,NA,"",   597.043E-03,  -586.094E-03,  -113.817E-03,   14.8100E-06
C:/temp/dataset/4/30_15.odb,Step-1,Increment      1: Step Time =    1.000,"PART-1-1",           265,      -7.77287,       1.11371,            0.,NA,NA,"",   707.213E-03,  -589.592E-03,  -390.552E-03,   134.450E-09
C:/temp/dataset/4/30_15.odb,Step-1,Increment      1: Step Time =    1.000,"PART-1-1",           266,      -3.71710,       1.36231,            0.,NA,NA,"",   668.232E-03,  -595.971E-03,  -302.245E-03,   341.980E-09
C:/temp/dataset/4/30_15.odb,Step-1,Increment      1: Step Time =    1.000,"PART-1-1",           267,       2.85817,       1.10052,            0.,NA,NA,"",   612.797E-03,  -591.835E-03,  -158.910E-03,   8.90405E-06
C:/temp/dataset/4/30_15.odb,Step-1,Increment      1: Step Time =    1.000,"PART-1-1",           268,       7.51165,      -2.37377,            0.,NA,NA,"",   520.399E-03,  -517.309E-03,  -56.6183E-03,   49.2329E-06
C:/temp/dataset/4/30_15.odb,Step-1,Increment      1: Step Time =    1.000,"PART-1-1",           269,      -1.84913,   666.939E-03,            0.,NA,NA,"",   637.328E-03,  -581.263E-03,  -261.380E-03,   610.499E-09
C:/temp/dataset/4/30_15.odb,Step-1,Increment      1: Step Time =    1.000,"PART-1-1",           270,   621.955E-03,   989.730E-03,            0.,NA,NA,"",   624.410E-03,  -588.884E-03,  -207.614E-03,   2.60485E-06
C:/temp/dataset/4/30_15.odb,Step-1,Increment      1: Step Time =    1.000,"PART-1-1",           271,       7.77182,      -4.29185,            0.,NA,NA,"",   478.245E-03,  -475.576E-03,  -50.4546E-03,   53.3733E-06
C:/temp/dataset/4/30_15.odb,Step-1,Increment      1: Step Time =    1.000,"PART-1-1",           272,       6.40836,       5.42027,            0.,NA,NA,"",   691.708E-03,  -686.764E-03,  -82.5613E-03,   8.31645E-06
C:/temp/dataset/4/30_15.odb,Step-1,Increment      1: Step Time =    1.000,"PART-1-1",           273,      -12.5139,      -2.82358,            0.,NA,NA,"",   704.027E-03,  -502.682E-03,  -492.915E-03,   12.0495E-09
C:/temp/dataset/4/30_15.odb,Step-1,Increment      1: Step Time =    1.000,"PART-1-1",           274,       10.8188,      -25.6946,            0.,NA,NA,"",   30.3362E-03,  -29.7229E-03,   6.06872E-03,   3.27524E-03
C:/temp/dataset/4/30_15.odb,Step-1,Increment      1: Step Time =    1.000,"PART-1-1",           275,       6.49302,  -163.532E-03,            0.,NA,NA,"",   570.732E-03,  -565.185E-03,  -79.3775E-03,   23.7937E-06
C:/temp/dataset/4/30_15.odb,Step-1,Increment      1: Step Time =    1.000,"PART-1-1",           276,       7.60941,  -936.337E-03,            0.,NA,NA,"",   551.360E-03,  -548.626E-03,  -54.8402E-03,   33.2408E-06
C:/temp/dataset/4/30_15.odb,Step-1,Increment      1: Step Time =    1.000,"PART-1-1",           277,       9.17282,      -2.25688,            0.,NA,NA,"",   520.633E-03,  -520.233E-03,  -20.3934E-03,   50.8351E-06
C:/temp/dataset/4/30_15.odb,Step-1,Increment      1: Step Time =    1.000,"PART-1-1",           278,       9.10690,      -3.89703,            0.,NA,NA,"",   484.981E-03,  -484.509E-03,  -21.3857E-03,   55.1667E-06
C:/temp/dataset/4/30_15.odb,Step-1,Increment      1: Step Time =    1.000,"PART-1-1",           279,      -7.91199,      -1.40732,            0.,NA,NA,"",   663.527E-03,  -534.632E-03,  -392.985E-03,   134.624E-09
C:/temp/dataset/4/30_15.odb,Step-1,Increment      1: Step Time =    1.000,"PART-1-1",           280,      -9.83927,       21.3699,            0.,NA,NA,"",       1.12060,      -1.03044,  -440.383E-03,   1.70933E-09
C:/temp/dataset/4/30_15.odb,Step-1,Increment      1: Step Time =    1.000,"PART-1-1",           281,      -11.2653,       5.77953,            0.,NA,NA,"",   833.951E-03,  -690.422E-03,  -467.752E-03,   9.52397E-09
C:/temp/dataset/4/30_15.odb,Step-1,Increment      1: Step Time =    1.000,"PART-1-1",           282,      -11.2487,       3.84080,            0.,NA,NA,"",   798.854E-03,  -648.185E-03,  -466.931E-03,   22.5882E-09
C:/temp/dataset/4/30_15.odb,Step-1,Increment      1: Step Time =    1.000,"PART-1-1",           283,       3.11059,  -868.354E-03,            0.,NA,NA,"",   569.910E-03,  -549.000E-03,  -152.958E-03,   11.8574E-06
C:/temp/dataset/4/30_15.odb,Step-1,Increment      1: Step Time =    1.000,"PART-1-1",           284,       4.50766,  -682.768E-03,            0.,NA,NA,"",   566.797E-03,  -553.390E-03,  -122.552E-03,   17.6741E-06
C:/temp/dataset/4/30_15.odb,Step-1,Increment      1: Step Time =    1.000,"PART-1-1",           285,      -3.56662,  -854.847E-03,            0.,NA,NA,"",   623.731E-03,  -547.699E-03,  -298.439E-03,   497.932E-09
C:/temp/dataset/4/30_15.odb,Step-1,Increment      1: Step Time =    1.000,"PART-1-1",           286,      -7.33150,       26.6843,            0.,NA,NA,"",       1.21037,      -1.14683,  -387.006E-03,   1.74241E-09
C:/temp/dataset/4/30_15.odb,Step-1,Increment      1: Step Time =    1.000,"PART-1-1",           287,      -6.09303,       25.7233,            0.,NA,NA,"",       1.18226,      -1.12618,  -359.794E-03,   1.75480E-09
C:/temp/dataset/4/30_15.odb,Step-1,Increment      1: Step Time =    1.000,"PART-1-1",           288,           -5.,        26.875,            0.,NA,NA,"",       1.19963,      -1.15154,  -336.253E-03,   1.76503E-09
C:/temp/dataset/4/30_15.odb,Step-1,Increment      1: Step Time =    1.000,"PART-1-1",           289,      -6.23847,       27.8360,            0.,NA,NA,"",       1.22724,      -1.17218,  -363.464E-03,   1.75458E-09
C:/temp/dataset/4/30_15.odb,Step-1,Increment      1: Step Time =    1.000,"PART-1-1",           290,      -8.20013,       25.3620,            0.,NA,NA,"",       1.18913,      -1.11781,  -405.618E-03,   1.73633E-09
C:/temp/dataset/4/30_15.odb,Step-1,Increment      1: Step Time =    1.000,"PART-1-1",           291,      -8.98257,       24.1636,            0.,NA,NA,"",       1.17039,      -1.09151,  -422.381E-03,   1.72715E-09
C:/temp/dataset/4/30_15.odb,Step-1,Increment      1: Step Time =    1.000,"PART-1-1",           292,      -7.83587,       23.3915,            0.,NA,NA,"",       1.14601,      -1.07497,  -397.213E-03,   1.73484E-09
C:/temp/dataset/4/30_15.odb,Step-1,Increment      1: Step Time =    1.000,"PART-1-1",           293,      -7.05344,       24.5900,            0.,NA,NA,"",       1.16513,      -1.10126,  -380.450E-03,   1.74399E-09
C:/temp/dataset/4/30_15.odb,Step-1,Increment      1: Step Time =    1.000,"PART-1-1",           294,      -6.78951,       20.5788,            0.,NA,NA,"",       1.08062,      -1.01393,  -373.748E-03,   1.74102E-09
C:/temp/dataset/4/30_15.odb,Step-1,Increment      1: Step Time =    1.000,"PART-1-1",           295,      -5.89603,       19.5861,            0.,NA,NA,"",       1.05377,  -992.514E-03,  -354.045E-03,   1.74488E-09
C:/temp/dataset/4/30_15.odb,Step-1,Increment      1: Step Time =    1.000,"PART-1-1",           296,           -5.,        20.625,            0.,NA,NA,"",       1.06913,      -1.01536,  -334.769E-03,   1.75274E-09
C:/temp/dataset/4/30_15.odb,Step-1,Increment      1: Step Time =    1.000,"PART-1-1",           297,      -5.89348,       21.6177,            0.,NA,NA,"",       1.09570,      -1.03678,  -354.472E-03,   1.74819E-09
C:/temp/dataset/4/30_15.odb,Step-1,Increment      1: Step Time =    1.000,"PART-1-1",           298,      -7.97413,       13.6001,            0.,NA,NA,"",   949.039E-03,  -861.597E-03,  -397.901E-03,   2.02660E-09
C:/temp/dataset/4/30_15.odb,Step-1,Increment      1: Step Time =    1.000,"PART-1-1",           299,      -8.98702,       12.6704,            0.,NA,NA,"",   940.021E-03,  -841.100E-03,  -419.750E-03,   2.32883E-09
C:/temp/dataset/4/30_15.odb,Step-1,Increment      1: Step Time =    1.000,"PART-1-1",           300,      -8.00249,       11.5116,            0.,NA,NA,"",   907.976E-03,  -816.087E-03,  -398.024E-03,   2.71973E-09
C:/temp/dataset/4/30_15.odb,Step-1,Increment      1: Step Time =    1.000,"PART-1-1",           301,      -6.98959,       12.4413,            0.,NA,NA,"",   917.268E-03,  -836.584E-03,  -376.175E-03,   2.72583E-09
C:/temp/dataset/4/30_15.odb,Step-1,Increment      1: Step Time =    1.000,"PART-1-1",           302,      -9.95004,      -1.64066,            0.,NA,NA,"",   686.418E-03,  -529.064E-03,  -437.334E-03,   45.5306E-09
C:/temp/dataset/4/30_15.odb,Step-1,Increment      1: Step Time =    1.000,"PART-1-1",           303,      -11.1983,  -513.068E-03,            0.,NA,NA,"",   722.647E-03,  -553.335E-03,  -464.800E-03,   35.7011E-09
C:/temp/dataset/4/30_15.odb,Step-1,Increment      1: Step Time =    1.000,"PART-1-1",           304,      -12.5325,      -1.72297,            0.,NA,NA,"",   721.797E-03,  -526.657E-03,  -493.582E-03,   13.1350E-09
C:/temp/dataset/4/30_15.odb,Step-1,Increment      1: Step Time =    1.000,"PART-1-1",           305,      -11.2842,      -2.85056,            0.,NA,NA,"",   685.314E-03,  -502.386E-03,  -466.116E-03,   27.8422E-09
C:/temp/dataset/4/30_15.odb,Step-1,Increment      1: Step Time =    1.000,"PART-1-1",           306,      -10.2834,   741.336E-03,            0.,NA,NA,"",   731.844E-03,  -580.883E-03,  -445.163E-03,   44.0817E-09
C:/temp/dataset/4/30_15.odb,Step-1,Increment      1: Step Time =    1.000,"PART-1-1",           307,      -11.7661,       1.72477,            0.,NA,NA,"",   768.475E-03,  -601.959E-03,  -477.702E-03,   24.6345E-09
C:/temp/dataset/4/30_15.odb,Step-1,Increment      1: Step Time =    1.000,"PART-1-1",           308,      -12.6810,   470.366E-03,            0.,NA,NA,"",   759.798E-03,  -574.410E-03,  -497.339E-03,   13.7330E-09
C:/temp/dataset/4/30_15.odb,Step-1,Increment      1: Step Time =    1.000,"PART-1-1",           309,         -1.25,           -5.,            0.,NA,NA,"",   520.296E-03,  -457.939E-03,  -246.983E-03,   2.05491E-06
C:/temp/dataset/4/30_15.odb,Step-1,Increment      1: Step Time =    1.000,"PART-1-1",           310,  -165.329E-03,      -4.13131,            0.,NA,NA,"",   526.901E-03,  -477.123E-03,  -223.557E-03,   1.47162E-06
C:/temp/dataset/4/30_15.odb,Step-1,Increment      1: Step Time =    1.000,"PART-1-1",           311,      -1.46228,      -3.26668,            0.,NA,NA,"",   556.043E-03,  -495.651E-03,  -252.019E-03,   905.978E-09
C:/temp/dataset/4/30_15.odb,Step-1,Increment      1: Step Time =    1.000,"PART-1-1",           312,      -2.54695,      -4.13537,            0.,NA,NA,"",   550.355E-03,  -476.468E-03,  -275.445E-03,   521.417E-09
C:/temp/dataset/4/30_15.odb,Step-1,Increment      1: Step Time =    1.000,"PART-1-1",           313,   769.081E-03,      -3.16387,            0.,NA,NA,"",   538.338E-03,  -498.421E-03,  -203.432E-03,   4.65689E-06
C:/temp/dataset/4/30_15.odb,Step-1,Increment      1: Step Time =    1.000,"PART-1-1",           314,          1.25,           -5.,            0.,NA,NA,"",   497.315E-03,  -458.539E-03,  -192.521E-03,   3.88515E-06
C:/temp/dataset/4/30_15.odb,Step-1,Increment      1: Step Time =    1.000,"PART-1-1",           315,       2.18441,      -4.03256,            0.,NA,NA,"",   509.862E-03,  -479.829E-03,  -172.403E-03,   8.80293E-06
C:/temp/dataset/4/30_15.odb,Step-1,Increment      1: Step Time =    1.000,"PART-1-1",           316,       1.54561,       3.01681,            0.,NA,NA,"",   660.577E-03,  -633.270E-03,  -187.964E-03,   3.89208E-06
C:/temp/dataset/4/30_15.odb,Step-1,Increment      1: Step Time =    1.000,"PART-1-1",           317,       2.64536,       4.01417,            0.,NA,NA,"",   675.529E-03,  -655.261E-03,  -164.232E-03,   3.71953E-06
C:/temp/dataset/4/30_15.odb,Step-1,Increment      1: Step Time =    1.000,"PART-1-1",           318,          1.25,            5.,            0.,NA,NA,"",   703.927E-03,  -676.414E-03,  -194.877E-03,   760.296E-09
C:/temp/dataset/4/30_15.odb,Step-1,Increment      1: Step Time =    1.000,"PART-1-1",           319,   150.245E-03,       4.00264,            0.,NA,NA,"",   689.966E-03,  -654.419E-03,  -218.606E-03,   573.573E-09
C:/temp/dataset/4/30_15.odb,Step-1,Increment      1: Step Time =    1.000,"PART-1-1",           320,   179.474E-03,      -1.21124,            0.,NA,NA,"",   582.636E-03,  -540.824E-03,  -216.737E-03,   2.31725E-06
C:/temp/dataset/4/30_15.odb,Step-1,Increment      1: Step Time =    1.000,"PART-1-1",           321,  -580.901E-03,      -2.30818,            0.,NA,NA,"",   566.862E-03,  -516.743E-03,  -233.044E-03,   1.15955E-06
C:/temp/dataset/4/30_15.odb,Step-1,Increment      1: Step Time =    1.000,"PART-1-1",           322,       1.52946,      -2.06693,            0.,NA,NA,"",   554.999E-03,  -522.501E-03,  -187.126E-03,   5.99916E-06
C:/temp/dataset/4/30_15.odb,Step-1,Increment      1: Step Time =    1.000,"PART-1-1",           323,       12.7868,      -3.71378,            0.,NA,NA,"",   492.839E-03,  -489.350E-03,   58.5385E-03,   66.6417E-06
C:/temp/dataset/4/30_15.odb,Step-1,Increment      1: Step Time =    1.000,"PART-1-1",           324,       13.8814,      -5.00619,            0.,NA,NA,"",   468.971E-03,  -461.679E-03,   82.3761E-03,   161.260E-06
C:/temp/dataset/4/30_15.odb,Step-1,Increment      1: Step Time =    1.000,"PART-1-1",           325,           15.,         -3.75,            0.,NA,NA,"",   500.592E-03,  -489.157E-03,   106.384E-03,   156.448E-06
C:/temp/dataset/4/30_15.odb,Step-1,Increment      1: Step Time =    1.000,"PART-1-1",           326,       13.9054,      -2.45760,            0.,NA,NA,"",   523.455E-03,  -516.918E-03,   82.4722E-03,   63.7070E-06
C:/temp/dataset/4/30_15.odb,Step-1,Increment      1: Step Time =    1.000,"PART-1-1",           327,       5.10003,      -1.40311,            0.,NA,NA,"",   548.874E-03,  -537.845E-03,  -109.476E-03,   27.7157E-06
C:/temp/dataset/4/30_15.odb,Step-1,Increment      1: Step Time =    1.000,"PART-1-1",           328,       3.80913,  -775.561E-03,            0.,NA,NA,"",   568.147E-03,  -551.194E-03,  -137.755E-03,   15.0214E-06
C:/temp/dataset/4/30_15.odb,Step-1,Increment      1: Step Time =    1.000,"PART-1-1",           329,       3.52110,      -1.80919,            0.,NA,NA,"",   547.812E-03,  -528.602E-03,  -143.799E-03,   17.5106E-06
C:/temp/dataset/4/30_15.odb,Step-1,Increment      1: Step Time =    1.000,"PART-1-1",           330,       4.81200,      -2.43673,            0.,NA,NA,"",   528.044E-03,  -515.250E-03,  -115.532E-03,   28.9984E-06
C:/temp/dataset/4/30_15.odb,Step-1,Increment      1: Step Time =    1.000,"PART-1-1",           331,           15.,          3.75,            0.,NA,NA,"",   660.775E-03,  -652.387E-03,   104.951E-03,   7.30010E-06
C:/temp/dataset/4/30_15.odb,Step-1,Increment      1: Step Time =    1.000,"PART-1-1",           332,       13.8386,       5.14064,            0.,NA,NA,"",   687.001E-03,  -682.405E-03,   79.3291E-03,   3.34488E-06
C:/temp/dataset/4/30_15.odb,Step-1,Increment      1: Step Time =    1.000,"PART-1-1",           333,       12.6076,       4.00525,            0.,NA,NA,"",   659.494E-03,  -657.378E-03,   52.7883E-03,   10.0562E-06
C:/temp/dataset/4/30_15.odb,Step-1,Increment      1: Step Time =    1.000,"PART-1-1",           334,       13.7689,       2.61462,            0.,NA,NA,"",   632.235E-03,  -627.355E-03,   78.4015E-03,   10.4795E-06
C:/temp/dataset/4/30_15.odb,Step-1,Increment      1: Step Time =    1.000,"PART-1-1",           335,       9.76439,       8.40859,            0.,NA,NA,"",   752.696E-03,  -752.627E-03,  -10.1792E-03,   1.27501E-06
C:/temp/dataset/4/30_15.odb,Step-1,Increment      1: Step Time =    1.000,"PART-1-1",           336,       8.59642,       7.53369,            0.,NA,NA,"",   734.152E-03,  -733.298E-03,  -35.4086E-03,   3.03157E-06
C:/temp/dataset/4/30_15.odb,Step-1,Increment      1: Step Time =    1.000,"PART-1-1",           337,       9.44563,       6.06261,            0.,NA,NA,"",   701.653E-03,  -701.458E-03,  -16.5604E-03,   5.01641E-06
C:/temp/dataset/4/30_15.odb,Step-1,Increment      1: Step Time =    1.000,"PART-1-1",           338,       10.6136,       6.93751,            0.,NA,NA,"",   720.838E-03,  -720.786E-03,   8.66673E-03,   3.59596E-06
C:/temp/dataset/4/30_15.odb,Step-1,Increment      1: Step Time =    1.000,"PART-1-1",           339,       5.92452,       9.07762,            0.,NA,NA,"",   772.029E-03,  -766.289E-03,  -93.9669E-03,   294.265E-09
C:/temp/dataset/4/30_15.odb,Step-1,Increment      1: Step Time =    1.000,"PART-1-1",           340,            5.,         8.125,            0.,NA,NA,"",   753.973E-03,  -745.324E-03,  -113.874E-03,   562.739E-09
C:/temp/dataset/4/30_15.odb,Step-1,Increment      1: Step Time =    1.000,"PART-1-1",           341,       5.83838,       7.03541,            0.,NA,NA,"",   728.069E-03,  -721.797E-03,  -95.3595E-03,   1.53553E-06
C:/temp/dataset/4/30_15.odb,Step-1,Increment      1: Step Time =    1.000,"PART-1-1",           342,       6.76290,       7.98803,            0.,NA,NA,"",   746.582E-03,  -742.760E-03,  -75.4500E-03,   2.11491E-06
C:/temp/dataset/4/30_15.odb,Step-1,Increment      1: Step Time =    1.000,"PART-1-1",           343,       6.00358,       15.4027,            0.,NA,NA,"",   908.909E-03,  -904.061E-03,  -93.7464E-03,   74.4842E-09
C:/temp/dataset/4/30_15.odb,Step-1,Increment      1: Step Time =    1.000,"PART-1-1",           344,            5.,        14.375,            0.,NA,NA,"",   888.958E-03,  -881.441E-03,  -115.360E-03,   165.251E-09
C:/temp/dataset/4/30_15.odb,Step-1,Increment      1: Step Time =    1.000,"PART-1-1",           345,       5.99171,       13.2884,            0.,NA,NA,"",   863.091E-03,  -858.011E-03,  -93.5031E-03,   162.468E-09
C:/temp/dataset/4/30_15.odb,Step-1,Increment      1: Step Time =    1.000,"PART-1-1",           346,       6.99529,       14.3161,            0.,NA,NA,"",   883.560E-03,  -880.631E-03,  -71.8898E-03,   129.781E-09
C:/temp/dataset/4/30_15.odb,Step-1,Increment      1: Step Time =    1.000,"PART-1-1",           347,       11.7328,       24.6815,            0.,NA,NA,"",       1.10788,      -1.10751,   28.8310E-03,   728.452E-12
C:/temp/dataset/4/30_15.odb,Step-1,Increment      1: Step Time =    1.000,"PART-1-1",           348,       12.6496,       26.1279,            0.,NA,NA,"",       1.14026,      -1.13923,   48.4553E-03,   1.11970E-09
C:/temp/dataset/4/30_15.odb,Step-1,Increment      1: Step Time =    1.000,"PART-1-1",           349,       11.2054,       27.2635,            0.,NA,NA,"",       1.16374,      -1.16362,   16.7336E-03,   1.13417E-09
C:/temp/dataset/4/30_15.odb,Step-1,Increment      1: Step Time =    1.000,"PART-1-1",           350,       10.2886,       25.8171,            0.,NA,NA,"",       1.13190,      -1.13190,  -2.89071E-03,   733.659E-12
C:/temp/dataset/4/30_15.odb,Step-1,Increment      1: Step Time =    1.000,"PART-1-1",           351,       12.5134,       28.7000,            0.,NA,NA,"",       1.19606,      -1.19521,   44.8795E-03,   1.24944E-09
C:/temp/dataset/4/30_15.odb,Step-1,Increment      1: Step Time =    1.000,"PART-1-1",           352,       13.7634,       27.4500,            0.,NA,NA,"",       1.17053,      -1.16829,   72.4002E-03,   1.27848E-09
C:/temp/dataset/4/30_15.odb,Step-1,Increment      1: Step Time =    1.000,"PART-1-1",           353,           15.,         28.75,            0.,NA,NA,"",       1.20098,      -1.19689,   99.0243E-03,   1.19291E-09
C:/temp/dataset/4/30_15.odb,Step-1,Increment      1: Step Time =    1.000,"PART-1-1",           354,         13.75,           30.,            0.,NA,NA,"",       1.22591,      -1.22382,   71.5035E-03,   1.15731E-09
C:/temp/dataset/4/30_15.odb,Step-1,Increment      1: Step Time =    1.000,"PART-1-1",           355,      -3.83569,      -2.96698,            0.,NA,NA,"",   586.442E-03,  -501.617E-03,  -303.800E-03,   453.226E-09
C:/temp/dataset/4/30_15.odb,Step-1,Increment      1: Step Time =    1.000,"PART-1-1",           356,      -2.47303,      -2.56070,            0.,NA,NA,"",   579.740E-03,  -510.792E-03,  -274.207E-03,   323.794E-09
C:/temp/dataset/4/30_15.odb,Step-1,Increment      1: Step Time =    1.000,"PART-1-1",           357,      -2.95938,      -1.35275,            0.,NA,NA,"",   607.981E-03,  -536.995E-03,  -285.091E-03,   415.861E-09
C:/temp/dataset/4/30_15.odb,Step-1,Increment      1: Step Time =    1.000,"PART-1-1",           358,      -4.32205,      -1.75903,            0.,NA,NA,"",   614.508E-03,  -527.820E-03,  -314.684E-03,   299.519E-09
C:/temp/dataset/4/30_15.odb,Step-1,Increment      1: Step Time =    1.000,"PART-1-1",           359,       8.60967,      -7.25473,            0.,NA,NA,"",   411.955E-03,  -410.752E-03,  -31.4571E-03,   337.013E-06
C:/temp/dataset/4/30_15.odb,Step-1,Increment      1: Step Time =    1.000,"PART-1-1",           360,       7.51358,      -6.44375,            0.,NA,NA,"",   431.903E-03,  -428.312E-03,  -55.5771E-03,   108.903E-06
C:/temp/dataset/4/30_15.odb,Step-1,Increment      1: Step Time =    1.000,"PART-1-1",           361,       6.75300,      -7.77251,            0.,NA,NA,"",   405.041E-03,  -398.604E-03,  -71.9206E-03,   258.358E-06
C:/temp/dataset/4/30_15.odb,Step-1,Increment      1: Step Time =    1.000,"PART-1-1",           362,       7.84909,      -8.58350,            0.,NA,NA,"",   383.754E-03,  -380.775E-03,  -47.7228E-03,   481.901E-06
C:/temp/dataset/4/30_15.odb,Step-1,Increment      1: Step Time =    1.000,"PART-1-1",           363,       7.07130,      -14.2100,            0.,NA,NA,"",   258.269E-03,  -251.062E-03,  -60.5871E-03,   2.07294E-03
C:/temp/dataset/4/30_15.odb,Step-1,Increment      1: Step Time =    1.000,"PART-1-1",           364,       6.02882,      -13.2279,            0.,NA,NA,"",   286.712E-03,  -274.081E-03,  -84.1626E-03,   1.41326E-03
C:/temp/dataset/4/30_15.odb,Step-1,Increment      1: Step Time =    1.000,"PART-1-1",           365,            5.,       -14.375,            0.,NA,NA,"",   269.616E-03,  -248.278E-03,  -105.123E-03,   2.06951E-03
C:/temp/dataset/4/30_15.odb,Step-1,Increment      1: Step Time =    1.000,"PART-1-1",           366,       6.04247,      -15.3570,            0.,NA,NA,"",   239.055E-03,  -225.240E-03,  -80.0909E-03,   2.35405E-03
C:/temp/dataset/4/30_15.odb,Step-1,Increment      1: Step Time =    1.000,"PART-1-1",           367,       7.02995,      -12.0379,            0.,NA,NA,"",   308.188E-03,  -301.513E-03,  -63.7951E-03,   1.34761E-03
C:/temp/dataset/4/30_15.odb,Step-1,Increment      1: Step Time =    1.000,"PART-1-1",           368,       6.00113,      -11.1016,            0.,NA,NA,"",   334.577E-03,  -323.073E-03,  -86.9806E-03,   687.210E-06
C:/temp/dataset/4/30_15.odb,Step-1,Increment      1: Step Time =    1.000,"PART-1-1",           369,            5.,      -12.2917,            0.,NA,NA,"",   315.087E-03,  -295.852E-03,  -108.404E-03,   1.01662E-03
C:/temp/dataset/4/30_15.odb,Step-1,Increment      1: Step Time =    1.000,"PART-1-1",           370,            5.,      -22.7083,            0.,NA,NA,"",   105.202E-03,  -80.7651E-03,  -67.4127E-03,   7.69585E-03
C:/temp/dataset/4/30_15.odb,Step-1,Increment      1: Step Time =    1.000,"PART-1-1",           371,       6.05922,      -23.7899,            0.,NA,NA,"",   75.6958E-03,  -60.9210E-03,  -44.9275E-03,   6.73833E-03
C:/temp/dataset/4/30_15.odb,Step-1,Increment      1: Step Time =    1.000,"PART-1-1",           372,       7.11013,      -22.7834,            0.,NA,NA,"",   82.3868E-03,  -73.9872E-03,  -36.2419E-03,   4.93874E-03
C:/temp/dataset/4/30_15.odb,Step-1,Increment      1: Step Time =    1.000,"PART-1-1",           373,       6.05091,      -21.7018,            0.,NA,NA,"",   110.304E-03,  -94.5853E-03,  -56.7498E-03,   5.63691E-03
C:/temp/dataset/4/30_15.odb,Step-1,Increment      1: Step Time =    1.000,"PART-1-1",           374,          8.75,          -30.,            0.,NA,NA,"",            0.,  -88.3196E-42,  -4.39020E-39,   2.10460E-03
C:/temp/dataset/4/30_15.odb,Step-1,Increment      1: Step Time =    1.000,"PART-1-1",           375,       9.84988,      -28.9274,            0.,NA,NA,"",   2.17771E-03,  -2.17020E-03,  -180.698E-06,   1.44408E-03
C:/temp/dataset/4/30_15.odb,Step-1,Increment      1: Step Time =    1.000,"PART-1-1",           376,       8.52411,      -27.9095,            0.,NA,NA,"",   9.98756E-03,  -8.67575E-03,  -4.94799E-03,   4.10434E-03
C:/temp/dataset/4/30_15.odb,Step-1,Increment      1: Step Time =    1.000,"PART-1-1",           377,       7.42422,      -28.9821,            0.,NA,NA,"",   5.09956E-03,  -2.94400E-03,  -4.16393E-03,   5.16890E-03
C:/temp/dataset/4/30_15.odb,Step-1,Increment      1: Step Time =    1.000,"PART-1-1",           378,       10.1104,      -23.9794,            0.,NA,NA,"",   52.4349E-03,  -52.4246E-03,   1.03805E-03,   2.92614E-03
C:/temp/dataset/4/30_15.odb,Step-1,Increment      1: Step Time =    1.000,"PART-1-1",           379,       11.1261,      -23.0268,            0.,NA,NA,"",   69.0355E-03,  -67.8005E-03,   12.9995E-03,   3.38259E-03
C:/temp/dataset/4/30_15.odb,Step-1,Increment      1: Step Time =    1.000,"PART-1-1",           380,       10.1523,      -21.9025,            0.,NA,NA,"",   86.4567E-03,  -86.4413E-03,   1.63453E-03,   2.90296E-03
C:/temp/dataset/4/30_15.odb,Step-1,Increment      1: Step Time =    1.000,"PART-1-1",           381,       9.13660,      -22.8552,            0.,NA,NA,"",   71.0653E-03,  -70.2775E-03,  -10.5527E-03,   3.26568E-03
C:/temp/dataset/4/30_15.odb,Step-1,Increment      1: Step Time =    1.000,"PART-1-1",           382,       7.09296,      -18.5383,            0.,NA,NA,"",   162.503E-03,  -154.206E-03,  -51.2607E-03,   3.51213E-03
C:/temp/dataset/4/30_15.odb,Step-1,Increment      1: Step Time =    1.000,"PART-1-1",           383,       6.04465,      -17.4814,            0.,NA,NA,"",   192.944E-03,  -178.040E-03,  -74.3585E-03,   3.42029E-03
C:/temp/dataset/4/30_15.odb,Step-1,Increment      1: Step Time =    1.000,"PART-1-1",           384,            5.,      -18.5417,            0.,NA,NA,"",   182.021E-03,  -157.344E-03,  -91.5126E-03,   4.80416E-03
C:/temp/dataset/4/30_15.odb,Step-1,Increment      1: Step Time =    1.000,"PART-1-1",           385,       6.04831,      -19.5985,            0.,NA,NA,"",   149.612E-03,  -133.996E-03,  -66.5508E-03,   4.53062E-03
C:/temp/dataset/4/30_15.odb,Step-1,Increment      1: Step Time =    1.000,"PART-1-1",           386,       8.88188,       22.9635,            0.,NA,NA,"",       1.06992,      -1.06941,  -32.8522E-03,   2.71307E-09
C:/temp/dataset/4/30_15.odb,Step-1,Increment      1: Step Time =    1.000,"PART-1-1",           387,       9.93448,       22.0483,            0.,NA,NA,"",       1.04978,      -1.04973,  -9.71005E-03,   4.00367E-09
C:/temp/dataset/4/30_15.odb,Step-1,Increment      1: Step Time =    1.000,"PART-1-1",           388,       10.8087,       23.3359,            0.,NA,NA,"",       1.07802,      -1.07798,   9.02365E-03,   2.10070E-09
C:/temp/dataset/4/30_15.odb,Step-1,Increment      1: Step Time =    1.000,"PART-1-1",           389,       9.75606,       24.2511,            0.,NA,NA,"",       1.09776,      -1.09766,  -14.1185E-03,   572.509E-12
C:/temp/dataset/4/30_15.odb,Step-1,Increment      1: Step Time =    1.000,"PART-1-1",           390,       10.0218,       17.5512,            0.,NA,NA,"",   951.832E-03,  -951.808E-03,  -6.74178E-03,   45.4915E-09
C:/temp/dataset/4/30_15.odb,Step-1,Increment      1: Step Time =    1.000,"PART-1-1",           391,       9.00837,       16.4411,            0.,NA,NA,"",   927.830E-03,  -927.390E-03,  -28.5502E-03,   78.1841E-09
C:/temp/dataset/4/30_15.odb,Step-1,Increment      1: Step Time =    1.000,"PART-1-1",           392,       10.0249,       15.2736,            0.,NA,NA,"",   902.226E-03,  -902.205E-03,  -6.13493E-03,   101.544E-09
C:/temp/dataset/4/30_15.odb,Step-1,Increment      1: Step Time =    1.000,"PART-1-1",           393,       11.0383,       16.3837,            0.,NA,NA,"",   926.756E-03,  -926.623E-03,   15.6736E-03,   79.0490E-09
C:/temp/dataset/4/30_15.odb,Step-1,Increment      1: Step Time =    1.000,"PART-1-1",           394,      -14.0638,       5.89996,            0.,NA,NA,"",   871.192E-03,  -692.382E-03,  -528.755E-03,   3.77180E-09
C:/temp/dataset/4/30_15.odb,Step-1,Increment      1: Step Time =    1.000,"PART-1-1",           395,      -13.1194,       6.91794,            0.,NA,NA,"",   877.160E-03,  -714.786E-03,  -508.420E-03,   2.20660E-09
C:/temp/dataset/4/30_15.odb,Step-1,Increment      1: Step Time =    1.000,"PART-1-1",           396,      -14.0556,       8.04923,            0.,NA,NA,"",   909.047E-03,  -739.212E-03,  -529.086E-03,   3.94151E-09
C:/temp/dataset/4/30_15.odb,Step-1,Increment      1: Step Time =    1.000,"PART-1-1",           397,          -15.,       7.03125,            0.,NA,NA,"",   903.149E-03,  -716.808E-03,  -549.421E-03,   5.88070E-09
C:/temp/dataset/4/30_15.odb,Step-1,Increment      1: Step Time =    1.000,"PART-1-1",           398,      -14.0181,       12.3521,            0.,NA,NA,"",   986.909E-03,  -832.971E-03,  -529.290E-03,   2.25481E-09
C:/temp/dataset/4/30_15.odb,Step-1,Increment      1: Step Time =    1.000,"PART-1-1",           399,      -13.0189,       13.2775,            0.,NA,NA,"",   992.997E-03,  -853.372E-03,  -507.740E-03,   2.09590E-09
C:/temp/dataset/4/30_15.odb,Step-1,Increment      1: Step Time =    1.000,"PART-1-1",           400,      -14.0008,       14.5192,            0.,NA,NA,"",       1.02715,  -880.192E-03,  -529.429E-03,   1.77857E-09
C:/temp/dataset/4/30_15.odb,Step-1,Increment      1: Step Time =    1.000,"PART-1-1",           401,          -15.,       13.5938,            0.,NA,NA,"",       1.02119,  -859.792E-03,  -550.979E-03,   2.07003E-09
C:/temp/dataset/4/30_15.odb,Step-1,Increment      1: Step Time =    1.000,"PART-1-1",           402,      -10.1942,       21.9572,            0.,NA,NA,"",       1.13539,      -1.04316,  -448.255E-03,   1.70800E-09
C:/temp/dataset/4/30_15.odb,Step-1,Increment      1: Step Time =    1.000,"PART-1-1",           403,      -9.14995,       21.4132,            0.,NA,NA,"",       1.11581,      -1.03155,  -425.375E-03,   1.71697E-09
C:/temp/dataset/4/30_15.odb,Step-1,Increment      1: Step Time =    1.000,"PART-1-1",           404,      -8.60578,       22.3365,            0.,NA,NA,"",       1.13024,      -1.05179,  -413.738E-03,   1.72541E-09
C:/temp/dataset/4/30_15.odb,Step-1,Increment      1: Step Time =    1.000,"PART-1-1",           405,      -9.65000,       22.8805,            0.,NA,NA,"",       1.14955,      -1.06340,  -436.618E-03,   1.71618E-09
C:/temp/dataset/4/30_15.odb,Step-1,Increment      1: Step Time =    1.000,"PART-1-1",           406,      -14.0213,       25.7108,            0.,NA,NA,"",       1.24380,      -1.12403,  -532.532E-03,   1.70776E-09
C:/temp/dataset/4/30_15.odb,Step-1,Increment      1: Step Time =    1.000,"PART-1-1",           407,      -12.8802,       26.8172,            0.,NA,NA,"",       1.25572,      -1.14841,  -507.932E-03,   1.72094E-09
C:/temp/dataset/4/30_15.odb,Step-1,Increment      1: Step Time =    1.000,"PART-1-1",           408,      -13.8589,       27.8252,            0.,NA,NA,"",       1.28436,      -1.17014,  -529.496E-03,   1.72800E-09
C:/temp/dataset/4/30_15.odb,Step-1,Increment      1: Step Time =    1.000,"PART-1-1",           409,          -15.,       26.7188,            0.,NA,NA,"",       1.27271,      -1.14576,  -554.095E-03,   1.71701E-09
C:/temp/dataset/4/30_15.odb,Step-1,Increment      1: Step Time =    1.000,"PART-1-1",           410,        -13.75,           30.,            0.,NA,NA,"",       1.32696,      -1.21755,  -527.639E-03,   1.76827E-09
C:/temp/dataset/4/30_15.odb,Step-1,Increment      1: Step Time =    1.000,"PART-1-1",           411,          -15.,       28.9063,            0.,NA,NA,"",       1.31600,      -1.19342,  -554.614E-03,   1.74877E-09
C:/temp/dataset/4/30_15.odb,Step-1,Increment      1: Step Time =    1.000,"PART-1-1",           412,      -12.6089,       28.9190,            0.,NA,NA,"",       1.29568,      -1.19426,  -502.520E-03,   1.74228E-09
C:/temp/dataset/4/30_15.odb,Step-1,Increment      1: Step Time =    1.000,"PART-1-1",           413,      -11.4362,       27.6040,            0.,NA,NA,"",       1.25957,      -1.16589,  -476.656E-03,   1.72994E-09
C:/temp/dataset/4/30_15.odb,Step-1,Increment      1: Step Time =    1.000,"PART-1-1",           414,      -10.0773,       28.6850,            0.,NA,NA,"",       1.27107,      -1.18977,  -447.305E-03,   1.72654E-09
C:/temp/dataset/4/30_15.odb,Step-1,Increment      1: Step Time =    1.000,"PART-1-1",           415,        -11.25,           30.,            0.,NA,NA,"",       1.30681,      -1.21814,  -473.169E-03,   1.73582E-09
C:/temp/dataset/4/30_15.odb,Step-1,Increment      1: Step Time =    1.000,"PART-1-1",           416,      -13.7240,       21.2404,            0.,NA,NA,"",       1.15314,      -1.02670,  -524.993E-03,   1.65596E-09
C:/temp/dataset/4/30_15.odb,Step-1,Increment      1: Step Time =    1.000,"PART-1-1",           417,      -12.6979,       22.4429,            0.,NA,NA,"",       1.16707,      -1.05314,  -502.922E-03,   1.68316E-09
C:/temp/dataset/4/30_15.odb,Step-1,Increment      1: Step Time =    1.000,"PART-1-1",           418,      -13.9739,       23.5463,            0.,NA,NA,"",       1.20067,      -1.07688,  -530.985E-03,   1.68274E-09
C:/temp/dataset/4/30_15.odb,Step-1,Increment      1: Step Time =    1.000,"PART-1-1",           419,          -15.,       22.3438,            0.,NA,NA,"",       1.18713,      -1.05044,  -553.056E-03,   1.65632E-09
C:/temp/dataset/4/30_15.odb,Step-1,Increment      1: Step Time =    1.000,"PART-1-1",           420,      -11.9375,       16.3352,            0.,NA,NA,"",       1.04019,  -920.250E-03,  -484.903E-03,   1.70621E-09
C:/temp/dataset/4/30_15.odb,Step-1,Increment      1: Step Time =    1.000,"PART-1-1",           421,      -10.8584,       17.1847,            0.,NA,NA,"",       1.04633,  -939.014E-03,  -461.594E-03,   1.70422E-09
C:/temp/dataset/4/30_15.odb,Step-1,Increment      1: Step Time =    1.000,"PART-1-1",           422,      -11.8099,       18.4796,            0.,NA,NA,"",       1.08075,  -967.001E-03,  -482.633E-03,   1.67468E-09
C:/temp/dataset/4/30_15.odb,Step-1,Increment      1: Step Time =    1.000,"PART-1-1",           423,      -12.8889,       17.6301,            0.,NA,NA,"",       1.07477,  -948.237E-03,  -505.942E-03,   1.66877E-09
C:/temp/dataset/4/30_15.odb,Step-1,Increment      1: Step Time =    1.000,"PART-1-1",           424,      -9.98079,       13.8692,            0.,NA,NA,"",   973.010E-03,  -866.985E-03,  -441.686E-03,   1.94176E-09
C:/temp/dataset/4/30_15.odb,Step-1,Increment      1: Step Time =    1.000,"PART-1-1",           425,      -11.0142,       12.9724,            0.,NA,NA,"",   965.936E-03,  -847.199E-03,  -463.989E-03,   2.10264E-09
C:/temp/dataset/4/30_15.odb,Step-1,Increment      1: Step Time =    1.000,"PART-1-1",           426,      -10.0204,       11.7735,            0.,NA,NA,"",   932.720E-03,  -821.314E-03,  -442.052E-03,   2.51833E-09
C:/temp/dataset/4/30_15.odb,Step-1,Increment      1: Step Time =    1.000,"PART-1-1",           427,      -6.95613,       14.5250,            0.,NA,NA,"",   958.769E-03,  -881.990E-03,  -375.941E-03,   2.04735E-09
C:/temp/dataset/4/30_15.odb,Step-1,Increment      1: Step Time =    1.000,"PART-1-1",           428,      -5.98929,       13.4097,            0.,NA,NA,"",   928.318E-03,  -857.920E-03,  -354.611E-03,   2.28046E-09
C:/temp/dataset/4/30_15.odb,Step-1,Increment      1: Step Time =    1.000,"PART-1-1",           429,           -5.,        14.375,            0.,NA,NA,"",   940.239E-03,  -879.187E-03,  -333.285E-03,   2.18460E-09
C:/temp/dataset/4/30_15.odb,Step-1,Increment      1: Step Time =    1.000,"PART-1-1",           430,      -5.96684,       15.4903,            0.,NA,NA,"",   970.374E-03,  -903.258E-03,  -354.616E-03,   1.87403E-09
C:/temp/dataset/4/30_15.odb,Step-1,Increment      1: Step Time =    1.000,"PART-1-1",           431,      -11.0581,       10.8707,            0.,NA,NA,"",   926.256E-03,  -801.399E-03,  -464.446E-03,   2.26649E-09
C:/temp/dataset/4/30_15.odb,Step-1,Increment      1: Step Time =    1.000,"PART-1-1",           432,      -10.0579,       9.67932,            0.,NA,NA,"",   892.955E-03,  -775.677E-03,  -442.372E-03,   2.15034E-09
C:/temp/dataset/4/30_15.odb,Step-1,Increment      1: Step Time =    1.000,"PART-1-1",           433,      -9.02030,       10.5821,            0.,NA,NA,"",   899.639E-03,  -795.593E-03,  -419.979E-03,   2.53309E-09
C:/temp/dataset/4/30_15.odb,Step-1,Increment      1: Step Time =    1.000,"PART-1-1",           434,      -7.04064,       8.20966,            0.,NA,NA,"",   834.074E-03,  -744.373E-03,  -376.283E-03,   6.83835E-09
C:/temp/dataset/4/30_15.odb,Step-1,Increment      1: Step Time =    1.000,"PART-1-1",           435,      -6.03068,       7.10065,            0.,NA,NA,"",   802.729E-03,  -720.449E-03,  -354.015E-03,   21.9116E-09
C:/temp/dataset/4/30_15.odb,Step-1,Increment      1: Step Time =    1.000,"PART-1-1",           436,           -5.,         8.125,            0.,NA,NA,"",   813.732E-03,  -743.013E-03,  -331.802E-03,   12.2939E-09
C:/temp/dataset/4/30_15.odb,Step-1,Increment      1: Step Time =    1.000,"PART-1-1",           437,      -6.00996,       9.23401,            0.,NA,NA,"",   844.723E-03,  -766.936E-03,  -354.070E-03,   6.49162E-09
C:/temp/dataset/4/30_15.odb,Step-1,Increment      1: Step Time =    1.000,"PART-1-1",           438,      -13.0926,       9.02789,            0.,NA,NA,"",   914.969E-03,  -760.764E-03,  -508.337E-03,   2.31908E-09
C:/temp/dataset/4/30_15.odb,Step-1,Increment      1: Step Time =    1.000,"PART-1-1",           439,      -14.0370,       10.1974,            0.,NA,NA,"",   947.562E-03,  -786.021E-03,  -529.192E-03,   3.20624E-09
C:/temp/dataset/4/30_15.odb,Step-1,Increment      1: Step Time =    1.000,"PART-1-1",           440,          -15.,       9.21875,            0.,NA,NA,"",   941.726E-03,  -764.469E-03,  -549.941E-03,   5.09630E-09
C:/temp/dataset/4/30_15.odb,Step-1,Increment      1: Step Time =    1.000,"PART-1-1",           441,      -13.9055,       1.56280,            0.,NA,NA,"",   795.220E-03,  -597.922E-03,  -524.276E-03,   9.99866E-09
C:/temp/dataset/4/30_15.odb,Step-1,Increment      1: Step Time =    1.000,"PART-1-1",           442,      -12.9296,       2.64306,            0.,NA,NA,"",   799.862E-03,  -621.690E-03,  -503.270E-03,   11.8383E-09
C:/temp/dataset/4/30_15.odb,Step-1,Increment      1: Step Time =    1.000,"PART-1-1",           443,      -14.0241,       3.73651,            0.,NA,NA,"",   833.355E-03,  -645.254E-03,  -527.377E-03,   5.76560E-09
C:/temp/dataset/4/30_15.odb,Step-1,Increment      1: Step Time =    1.000,"PART-1-1",           444,          -15.,       2.65625,            0.,NA,NA,"",   828.836E-03,  -621.486E-03,  -548.383E-03,   3.23071E-09
C:/temp/dataset/4/30_15.odb,Step-1,Increment      1: Step Time =    1.000,"PART-1-1",           445,      -13.7570,      -2.81804,            0.,NA,NA,"",   723.127E-03,  -502.507E-03,  -520.000E-03,   5.77074E-09
C:/temp/dataset/4/30_15.odb,Step-1,Increment      1: Step Time =    1.000,"PART-1-1",           446,      -13.7756,  -623.683E-03,            0.,NA,NA,"",   757.766E-03,  -550.314E-03,  -520.926E-03,   10.0018E-09
C:/temp/dataset/4/30_15.odb,Step-1,Increment      1: Step Time =    1.000,"PART-1-1",           447,          -15.,      -1.71875,            0.,NA,NA,"",   759.232E-03,  -526.164E-03,  -547.344E-03,   2.52324E-09
C:/temp/dataset/4/30_15.odb,Step-1,Increment      1: Step Time =    1.000,"PART-1-1",           448,        -13.75,           -5.,            0.,NA,NA,"",   690.435E-03,  -454.969E-03,  -519.330E-03,   1.22356E-09
C:/temp/dataset/4/30_15.odb,Step-1,Increment      1: Step Time =    1.000,"PART-1-1",           449,      -12.5070,      -3.91179,            0.,NA,NA,"",   687.006E-03,  -478.974E-03,  -492.505E-03,   4.99861E-09
C:/temp/dataset/4/30_15.odb,Step-1,Increment      1: Step Time =    1.000,"PART-1-1",           450,          -15.,      -3.90625,            0.,NA,NA,"",   726.624E-03,  -478.502E-03,  -546.825E-03,   1.82011E-09
C:/temp/dataset/4/30_15.odb,Step-1,Increment      1: Step Time =    1.000,"PART-1-1",           451,          -15.,    468.75E-03,            0.,NA,NA,"",   793.366E-03,  -573.825E-03,  -547.863E-03,   5.51876E-09
C:/temp/dataset/4/30_15.odb,Step-1,Increment      1: Step Time =    1.000,"PART-1-1",           452,      -5.10506,       2.56414,            0.,NA,NA,"",   705.270E-03,  -621.828E-03,  -332.771E-03,   272.647E-09
C:/temp/dataset/4/30_15.odb,Step-1,Increment      1: Step Time =    1.000,"PART-1-1",           453,      -4.59209,       3.94539,            0.,NA,NA,"",   727.184E-03,  -652.045E-03,  -321.922E-03,   249.176E-09
C:/temp/dataset/4/30_15.odb,Step-1,Increment      1: Step Time =    1.000,"PART-1-1",           454,      -6.09775,       4.77703,            0.,NA,NA,"",   758.032E-03,  -669.807E-03,  -354.925E-03,   158.315E-09
C:/temp/dataset/4/30_15.odb,Step-1,Increment      1: Step Time =    1.000,"PART-1-1",           455,      -6.61072,       3.39578,            0.,NA,NA,"",   736.794E-03,  -639.590E-03,  -365.773E-03,   143.372E-09
C:/temp/dataset/4/30_15.odb,Step-1,Increment      1: Step Time =    1.000,"PART-1-1",           456,       9.44090,      -5.60228,            0.,NA,NA,"",   447.623E-03,  -447.415E-03,  -13.6635E-03,   102.749E-06
C:/temp/dataset/4/30_15.odb,Step-1,Increment      1: Step Time =    1.000,"PART-1-1",           457,       9.79564,      -4.46986,            0.,NA,NA,"",   472.247E-03,  -472.206E-03,  -6.21043E-03,   59.8020E-06
C:/temp/dataset/4/30_15.odb,Step-1,Increment      1: Step Time =    1.000,"PART-1-1",           458,       8.43936,      -4.09444,            0.,NA,NA,"",   481.383E-03,  -480.042E-03,  -35.9088E-03,   51.2384E-06
C:/temp/dataset/4/30_15.odb,Step-1,Increment      1: Step Time =    1.000,"PART-1-1",           459,       8.08462,      -5.22686,            0.,NA,NA,"",   457.276E-03,  -455.214E-03,  -43.3773E-03,   65.7560E-06
C:/temp/dataset/4/30_15.odb,Step-1,Increment      1: Step Time =    1.000,"PART-1-1",           460,       6.93926,      -9.88629,            0.,NA,NA,"",   357.342E-03,  -350.988E-03,  -67.0861E-03,   708.596E-06
C:/temp/dataset/4/30_15.odb,Step-1,Increment      1: Step Time =    1.000,"PART-1-1",           461,       5.93813,      -8.99303,            0.,NA,NA,"",   381.669E-03,  -371.023E-03,  -89.5146E-03,   231.688E-06
C:/temp/dataset/4/30_15.odb,Step-1,Increment      1: Step Time =    1.000,"PART-1-1",           462,            5.,      -10.2083,            0.,NA,NA,"",   360.564E-03,  -343.369E-03,  -110.017E-03,   313.682E-06
C:/temp/dataset/4/30_15.odb,Step-1,Increment      1: Step Time =    1.000,"PART-1-1",           463,       12.9852,      -11.3613,            0.,NA,NA,"",   328.403E-03,  -322.601E-03,   61.4557E-03,   2.00653E-03
C:/temp/dataset/4/30_15.odb,Step-1,Increment      1: Step Time =    1.000,"PART-1-1",           464,       14.0059,      -12.5461,            0.,NA,NA,"",   308.110E-03,  -296.797E-03,   82.7256E-03,   2.06791E-03
C:/temp/dataset/4/30_15.odb,Step-1,Increment      1: Step Time =    1.000,"PART-1-1",           465,           15.,        -11.25,            0.,NA,NA,"",   345.279E-03,  -328.562E-03,   106.134E-03,   1.56162E-03
C:/temp/dataset/4/30_15.odb,Step-1,Increment      1: Step Time =    1.000,"PART-1-1",           466,       13.9793,      -10.0652,            0.,NA,NA,"",   363.596E-03,  -353.785E-03,   83.8952E-03,   1.58608E-03
C:/temp/dataset/4/30_15.odb,Step-1,Increment      1: Step Time =    1.000,"PART-1-1",           467,       7.08713,      -16.3801,            0.,NA,NA,"",   209.156E-03,  -201.359E-03,  -56.5749E-03,   2.80003E-03
C:/temp/dataset/4/30_15.odb,Step-1,Increment      1: Step Time =    1.000,"PART-1-1",           468,            5.,      -16.4583,            0.,NA,NA,"",   224.929E-03,  -201.675E-03,  -99.6009E-03,   3.37428E-03
C:/temp/dataset/4/30_15.odb,Step-1,Increment      1: Step Time =    1.000,"PART-1-1",           469,       13.0372,      -13.8111,            0.,NA,NA,"",   271.510E-03,  -264.815E-03,   59.9223E-03,   2.81406E-03
C:/temp/dataset/4/30_15.odb,Step-1,Increment      1: Step Time =    1.000,"PART-1-1",           470,       14.0313,      -15.0151,            0.,NA,NA,"",   250.402E-03,  -237.483E-03,   79.3891E-03,   2.82854E-03
C:/temp/dataset/4/30_15.odb,Step-1,Increment      1: Step Time =    1.000,"PART-1-1",           471,           15.,        -13.75,            0.,NA,NA,"",   289.776E-03,  -270.449E-03,   104.055E-03,   2.34528E-03
C:/temp/dataset/4/30_15.odb,Step-1,Increment      1: Step Time =    1.000,"PART-1-1",           472,       13.0981,      -18.6529,            0.,NA,NA,"",   161.761E-03,  -152.974E-03,   52.5884E-03,   3.57709E-03
C:/temp/dataset/4/30_15.odb,Step-1,Increment      1: Step Time =    1.000,"PART-1-1",           473,       14.0553,      -19.9280,            0.,NA,NA,"",   144.609E-03,  -128.778E-03,   65.7877E-03,   4.89754E-03
C:/temp/dataset/4/30_15.odb,Step-1,Increment      1: Step Time =    1.000,"PART-1-1",           474,           15.,        -18.75,            0.,NA,NA,"",   178.656E-03,  -154.854E-03,   89.0971E-03,   5.21826E-03
C:/temp/dataset/4/30_15.odb,Step-1,Increment      1: Step Time =    1.000,"PART-1-1",           475,       14.0427,      -17.4749,            0.,NA,NA,"",   194.748E-03,  -180.059E-03,   74.2005E-03,   3.57475E-03
C:/temp/dataset/4/30_15.odb,Step-1,Increment      1: Step Time =    1.000,"PART-1-1",           476,       6.17422,      -27.9405,            0.,NA,NA,"",   19.8661E-03,  -13.1795E-03,  -14.8649E-03,   8.78461E-03
C:/temp/dataset/4/30_15.odb,Step-1,Increment      1: Step Time =    1.000,"PART-1-1",           477,            5.,      -28.9583,            0.,NA,NA,"",   15.8240E-03,  -10.6051E-03,  -11.7444E-03,   12.3970E-03
C:/temp/dataset/4/30_15.odb,Step-1,Increment      1: Step Time =    1.000,"PART-1-1",           478,          6.25,          -30.,            0.,NA,NA,"",            0.,  -4.30759E-42,  -13.6718E-39,   8.99600E-03
C:/temp/dataset/4/30_15.odb,Step-1,Increment      1: Step Time =    1.000,"PART-1-1",           479,       9.46325,      -26.8820,            0.,NA,NA,"",   16.8773E-03,  -16.6473E-03,  -2.77700E-03,   3.13805E-03
C:/temp/dataset/4/30_15.odb,Step-1,Increment      1: Step Time =    1.000,"PART-1-1",           480,       8.20536,      -25.9154,            0.,NA,NA,"",   30.8509E-03,  -28.0479E-03,  -12.8488E-03,   4.47034E-03
C:/temp/dataset/4/30_15.odb,Step-1,Increment      1: Step Time =    1.000,"PART-1-1",           481,       7.26622,      -26.9429,            0.,NA,NA,"",   24.2328E-03,  -19.0348E-03,  -14.9969E-03,   6.11449E-03
C:/temp/dataset/4/30_15.odb,Step-1,Increment      1: Step Time =    1.000,"PART-1-1",           482,       13.6319,      -27.3465,            0.,NA,NA,"",   25.4964E-03,  -17.8225E-03,   18.2326E-03,   8.16170E-03
C:/temp/dataset/4/30_15.odb,Step-1,Increment      1: Step Time =    1.000,"PART-1-1",           483,       12.3819,      -28.5965,            0.,NA,NA,"",   7.32384E-03,  -4.97360E-03,   5.37605E-03,   4.99845E-03
C:/temp/dataset/4/30_15.odb,Step-1,Increment      1: Step Time =    1.000,"PART-1-1",           484,         13.75,          -30.,            0.,NA,NA,"",            0.,   236.124E-42,   13.5504E-39,   9.15194E-03
C:/temp/dataset/4/30_15.odb,Step-1,Increment      1: Step Time =    1.000,"PART-1-1",           485,           15.,        -28.75,            0.,NA,NA,"",   18.8785E-03,  -12.6885E-03,   13.9785E-03,   12.1403E-03
C:/temp/dataset/4/30_15.odb,Step-1,Increment      1: Step Time =    1.000,"PART-1-1",           486,         11.25,          -30.,            0.,NA,NA,"",            0.,  -120.778E-42,   4.39468E-39,   2.17562E-03
C:/temp/dataset/4/30_15.odb,Step-1,Increment      1: Step Time =    1.000,"PART-1-1",           487,       10.9817,      -27.5238,            0.,NA,NA,"",   11.8777E-03,  -11.1858E-03,   3.99485E-03,   3.58659E-03
C:/temp/dataset/4/30_15.odb,Step-1,Increment      1: Step Time =    1.000,"PART-1-1",           488,       10.1507,      -19.6985,            0.,NA,NA,"",   128.585E-03,  -128.576E-03,   1.55374E-03,   2.89459E-03
C:/temp/dataset/4/30_15.odb,Step-1,Increment      1: Step Time =    1.000,"PART-1-1",           489,       9.14094,      -20.7396,            0.,NA,NA,"",   108.888E-03,  -108.086E-03,  -13.1900E-03,   3.16311E-03
C:/temp/dataset/4/30_15.odb,Step-1,Increment      1: Step Time =    1.000,"PART-1-1",           490,       11.1621,      -20.8614,            0.,NA,NA,"",   107.383E-03,  -106.126E-03,   16.3792E-03,   3.19363E-03
C:/temp/dataset/4/30_15.odb,Step-1,Increment      1: Step Time =    1.000,"PART-1-1",           491,       7.09922,      -20.6753,            0.,NA,NA,"",   119.845E-03,  -111.291E-03,  -44.4644E-03,   4.22580E-03
C:/temp/dataset/4/30_15.odb,Step-1,Increment      1: Step Time =    1.000,"PART-1-1",           492,            5.,       -20.625,            0.,NA,NA,"",   141.860E-03,  -116.622E-03,  -80.7673E-03,   6.25349E-03
C:/temp/dataset/4/30_15.odb,Step-1,Increment      1: Step Time =    1.000,"PART-1-1",           493,       9.08758,      -14.0519,            0.,NA,NA,"",   255.615E-03,  -254.836E-03,  -19.9358E-03,   2.39418E-03
C:/temp/dataset/4/30_15.odb,Step-1,Increment      1: Step Time =    1.000,"PART-1-1",           494,       10.1099,      -15.1447,            0.,NA,NA,"",   229.628E-03,  -229.628E-03,   312.803E-06,   2.75338E-03
C:/temp/dataset/4/30_15.odb,Step-1,Increment      1: Step Time =    1.000,"PART-1-1",           495,       11.0794,      -13.9187,            0.,NA,NA,"",   260.177E-03,  -259.434E-03,   19.6599E-03,   2.67566E-03
C:/temp/dataset/4/30_15.odb,Step-1,Increment      1: Step Time =    1.000,"PART-1-1",           496,       10.0571,      -12.8260,            0.,NA,NA,"",   284.338E-03,  -284.337E-03,  -607.099E-06,   2.18881E-03
C:/temp/dataset/4/30_15.odb,Step-1,Increment      1: Step Time =    1.000,"PART-1-1",           497,       9.02765,      -11.7712,            0.,NA,NA,"",   309.104E-03,  -308.332E-03,  -21.8292E-03,   1.68689E-03
C:/temp/dataset/4/30_15.odb,Step-1,Increment      1: Step Time =    1.000,"PART-1-1",           498,       11.0123,      -11.5393,            0.,NA,NA,"",   316.148E-03,  -315.545E-03,   19.5168E-03,   1.94312E-03
C:/temp/dataset/4/30_15.odb,Step-1,Increment      1: Step Time =    1.000,"PART-1-1",           499,       9.98284,      -10.4845,            0.,NA,NA,"",   338.863E-03,  -338.858E-03,  -1.78625E-03,   1.37100E-03
C:/temp/dataset/4/30_15.odb,Step-1,Increment      1: Step Time =    1.000,"PART-1-1",           500,       12.6190,       1.44886,            0.,NA,NA,"",   604.068E-03,  -601.681E-03,   53.6442E-03,   24.4830E-06
C:/temp/dataset/4/30_15.odb,Step-1,Increment      1: Step Time =    1.000,"PART-1-1",           501,       13.8500,   84.2405E-03,            0.,NA,NA,"",   577.907E-03,  -572.240E-03,   80.7351E-03,   27.6552E-06
C:/temp/dataset/4/30_15.odb,Step-1,Increment      1: Step Time =    1.000,"PART-1-1",           502,           15.,          1.25,            0.,NA,NA,"",   607.161E-03,  -597.922E-03,   105.518E-03,   24.4471E-06
C:/temp/dataset/4/30_15.odb,Step-1,Increment      1: Step Time =    1.000,"PART-1-1",           503,       10.0180,      -2.29938,            0.,NA,NA,"",   519.498E-03,  -519.494E-03,  -1.96240E-03,   53.0231E-06
C:/temp/dataset/4/30_15.odb,Step-1,Increment      1: Step Time =    1.000,"PART-1-1",           504,       9.13986,      -3.07696,            0.,NA,NA,"",   502.814E-03,  -502.380E-03,  -20.8900E-03,   50.1910E-06
C:/temp/dataset/4/30_15.odb,Step-1,Increment      1: Step Time =    1.000,"PART-1-1",           505,       10.6738,      -3.69229,            0.,NA,NA,"",   489.506E-03,  -489.342E-03,   12.7058E-03,   58.6158E-06
C:/temp/dataset/4/30_15.odb,Step-1,Increment      1: Step Time =    1.000,"PART-1-1",           506,       12.7589,       6.54544,            0.,NA,NA,"",   714.908E-03,  -712.751E-03,   55.4813E-03,   3.27269E-06
C:/temp/dataset/4/30_15.odb,Step-1,Increment      1: Step Time =    1.000,"PART-1-1",           507,           15.,          6.25,            0.,NA,NA,"",   714.511E-03,  -706.848E-03,   104.364E-03,   1.19839E-06
C:/temp/dataset/4/30_15.odb,Step-1,Increment      1: Step Time =    1.000,"PART-1-1",           508,       13.9203,       7.65480,            0.,NA,NA,"",   741.575E-03,  -737.191E-03,   80.5129E-03,   572.366E-09
C:/temp/dataset/4/30_15.odb,Step-1,Increment      1: Step Time =    1.000,"PART-1-1",           509,       13.0275,       16.3263,            0.,NA,NA,"",   927.722E-03,  -925.844E-03,   59.0104E-03,   70.8376E-09
C:/temp/dataset/4/30_15.odb,Step-1,Increment      1: Step Time =    1.000,"PART-1-1",           510,       14.0150,       15.0581,            0.,NA,NA,"",   902.084E-03,  -898.456E-03,   80.8205E-03,   84.2441E-09
C:/temp/dataset/4/30_15.odb,Step-1,Increment      1: Step Time =    1.000,"PART-1-1",           511,           15.,         16.25,            0.,NA,NA,"",   930.258E-03,  -924.650E-03,   101.989E-03,   66.9187E-09
C:/temp/dataset/4/30_15.odb,Step-1,Increment      1: Step Time =    1.000,"PART-1-1",           512,       14.0124,       17.5182,            0.,NA,NA,"",   955.408E-03,  -952.037E-03,   80.1793E-03,   27.6566E-09
C:/temp/dataset/4/30_15.odb,Step-1,Increment      1: Step Time =    1.000,"PART-1-1",           513,       13.0175,       18.7421,            0.,NA,NA,"",   980.186E-03,  -978.455E-03,   58.2202E-03,   26.6312E-09
C:/temp/dataset/4/30_15.odb,Step-1,Increment      1: Step Time =    1.000,"PART-1-1",           514,           15.,         18.75,            0.,NA,NA,"",   984.335E-03,  -979.098E-03,   101.396E-03,   15.3119E-09
C:/temp/dataset/4/30_15.odb,Step-1,Increment      1: Step Time =    1.000,"PART-1-1",           515,       14.0051,       19.9738,            0.,NA,NA,"",       1.00865,      -1.00552,   79.4371E-03,   6.28710E-09
C:/temp/dataset/4/30_15.odb,Step-1,Increment      1: Step Time =    1.000,"PART-1-1",           516,       5.97628,       21.7197,            0.,NA,NA,"",       1.04604,      -1.04164,  -95.8394E-03,   1.80139E-09
C:/temp/dataset/4/30_15.odb,Step-1,Increment      1: Step Time =    1.000,"PART-1-1",           517,       6.92463,       22.7965,            0.,NA,NA,"",       1.06798,      -1.06531,  -75.4403E-03,   1.89379E-09
C:/temp/dataset/4/30_15.odb,Step-1,Increment      1: Step Time =    1.000,"PART-1-1",           518,       5.94835,       23.7852,            0.,NA,NA,"",       1.09093,      -1.08661,  -96.9376E-03,   1.44764E-09
C:/temp/dataset/4/30_15.odb,Step-1,Increment      1: Step Time =    1.000,"PART-1-1",           519,            5.,       22.7083,            0.,NA,NA,"",       1.06939,      -1.06294,  -117.337E-03,   1.85919E-09
C:/temp/dataset/4/30_15.odb,Step-1,Increment      1: Step Time =    1.000,"PART-1-1",           520,       13.8862,       24.9278,            0.,NA,NA,"",       1.11595,      -1.11338,   75.6723E-03,   1.47615E-09
C:/temp/dataset/4/30_15.odb,Step-1,Increment      1: Step Time =    1.000,"PART-1-1",           521,           15.,         26.25,            0.,NA,NA,"",       1.14678,      -1.14244,   99.6173E-03,   1.64681E-09
C:/temp/dataset/4/30_15.odb,Step-1,Increment      1: Step Time =    1.000,"PART-1-1",           522,       6.15342,       27.8650,            0.,NA,NA,"",       1.17923,      -1.17552,  -93.4390E-03,   1.22646E-09
C:/temp/dataset/4/30_15.odb,Step-1,Increment      1: Step Time =    1.000,"PART-1-1",           523,       7.40342,       28.9067,            0.,NA,NA,"",       1.20034,      -1.19850,  -66.4618E-03,   1.25621E-09
C:/temp/dataset/4/30_15.odb,Step-1,Increment      1: Step Time =    1.000,"PART-1-1",           524,          6.25,           30.,            0.,NA,NA,"",       1.22549,      -1.22204,  -91.8420E-03,   1.17908E-09
C:/temp/dataset/4/30_15.odb,Step-1,Increment      1: Step Time =    1.000,"PART-1-1",           525,            5.,       28.9583,            0.,NA,NA,"",       1.20493,      -1.19906,  -118.819E-03,   1.15097E-09
C:/temp/dataset/4/30_15.odb,Step-1,Increment      1: Step Time =    1.000,"PART-1-1",           526,       7.11917,       26.8292,            0.,NA,NA,"",       1.15544,      -1.15319,  -72.1600E-03,   1.21808E-09
C:/temp/dataset/4/30_15.odb,Step-1,Increment      1: Step Time =    1.000,"PART-1-1",           527,            5.,        26.875,            0.,NA,NA,"",       1.15974,      -1.15368,  -118.325E-03,   1.44428E-09
C:/temp/dataset/4/30_15.odb,Step-1,Increment      1: Step Time =    1.000,"PART-1-1",           528,       5.96574,       25.8392,            0.,NA,NA,"",       1.13551,      -1.13135,  -97.0460E-03,   1.39738E-09
C:/temp/dataset/4/30_15.odb,Step-1,Increment      1: Step Time =    1.000,"PART-1-1",           529,       8.59546,       27.4701,            0.,NA,NA,"",       1.16819,      -1.16750,  -40.1592E-03,   1.11584E-09
C:/temp/dataset/4/30_15.odb,Step-1,Increment      1: Step Time =    1.000,"PART-1-1",           530,       9.94204,       28.5635,            0.,NA,NA,"",       1.19168,      -1.19163,  -11.0909E-03,   1.26138E-09
C:/temp/dataset/4/30_15.odb,Step-1,Increment      1: Step Time =    1.000,"PART-1-1",           531,          8.75,           30.,            0.,NA,NA,"",       1.22321,      -1.22263,  -37.3935E-03,   1.41152E-09
C:/temp/dataset/4/30_15.odb,Step-1,Increment      1: Step Time =    1.000,"PART-1-1",           532,            5.,       24.7917,            0.,NA,NA,"",       1.11456,      -1.10831,  -117.831E-03,   1.92471E-09
C:/temp/dataset/4/30_15.odb,Step-1,Increment      1: Step Time =    1.000,"PART-1-1",           533,       6.91409,       24.8327,            0.,NA,NA,"",       1.11227,      -1.10966,  -76.1528E-03,   935.942E-12
C:/temp/dataset/4/30_15.odb,Step-1,Increment      1: Step Time =    1.000,"PART-1-1",           534,            5.,        20.625,            0.,NA,NA,"",       1.02425,      -1.01756,  -116.843E-03,   2.53702E-09
C:/temp/dataset/4/30_15.odb,Step-1,Increment      1: Step Time =    1.000,"PART-1-1",           535,       5.99534,       19.6263,            0.,NA,NA,"",       1.00056,  -996.048E-03,  -94.9277E-03,   8.34565E-09
C:/temp/dataset/4/30_15.odb,Step-1,Increment      1: Step Time =    1.000,"PART-1-1",           536,       6.97162,       20.7210,            0.,NA,NA,"",       1.02280,      -1.02012,  -73.9245E-03,   9.18341E-09
C:/temp/dataset/4/30_15.odb,Step-1,Increment      1: Step Time =    1.000,"PART-1-1",           537,       9.90537,       10.7177,            0.,NA,NA,"",   802.989E-03,  -802.952E-03,  -7.65721E-03,   211.599E-09
C:/temp/dataset/4/30_15.odb,Step-1,Increment      1: Step Time =    1.000,"PART-1-1",           538,       8.83179,       9.75083,            0.,NA,NA,"",   782.246E-03,  -781.639E-03,  -30.8097E-03,   608.996E-09
C:/temp/dataset/4/30_15.odb,Step-1,Increment      1: Step Time =    1.000,"PART-1-1",           539,       10.8380,       9.37550,            0.,NA,NA,"",   774.048E-03,  -773.939E-03,   12.9730E-03,   826.255E-09
C:/temp/dataset/4/30_15.odb,Step-1,Increment      1: Step Time =    1.000,"PART-1-1",           540,       5.96737,       11.1773,            0.,NA,NA,"",   817.396E-03,  -812.027E-03,  -93.5321E-03,   247.641E-09
C:/temp/dataset/4/30_15.odb,Step-1,Increment      1: Step Time =    1.000,"PART-1-1",           541,       6.95908,       12.1740,            0.,NA,NA,"",   837.087E-03,  -833.970E-03,  -72.1702E-03,   142.642E-09
C:/temp/dataset/4/30_15.odb,Step-1,Increment      1: Step Time =    1.000,"PART-1-1",           542,            5.,       12.2917,            0.,NA,NA,"",   843.921E-03,  -836.068E-03,  -114.865E-03,   337.561E-09
C:/temp/dataset/4/30_15.odb,Step-1,Increment      1: Step Time =    1.000,"PART-1-1",           543,       6.89189,       10.0466,            0.,NA,NA,"",   791.008E-03,  -787.620E-03,  -73.1289E-03,   199.733E-09
C:/temp/dataset/4/30_15.odb,Step-1,Increment      1: Step Time =    1.000,"PART-1-1",           544,            5.,       10.2083,            0.,NA,NA,"",   798.924E-03,  -790.695E-03,  -114.370E-03,   580.578E-09
C:/temp/dataset/4/30_15.odb,Step-1,Increment      1: Step Time =    1.000,"PART-1-1",           545,  -883.251E-03,       2.97832,            0.,NA,NA,"",   676.213E-03,  -631.854E-03,  -240.883E-03,   401.676E-09
C:/temp/dataset/4/30_15.odb,Step-1,Increment      1: Step Time =    1.000,"PART-1-1",           546,         -1.25,            5.,            0.,NA,NA,"",   720.352E-03,  -675.818E-03,  -249.353E-03,   957.658E-09
C:/temp/dataset/4/30_15.odb,Step-1,Increment      1: Step Time =    1.000,"PART-1-1",           547,      -2.28350,       3.97568,            0.,NA,NA,"",   707.476E-03,  -653.253E-03,  -271.629E-03,   478.494E-09
C:/temp/dataset/4/30_15.odb,Step-1,Increment      1: Step Time =    1.000,"PART-1-1",           548,      -3.12559,       2.92107,            0.,NA,NA,"",   693.495E-03,  -630.074E-03,  -289.727E-03,   287.209E-09
C:/temp/dataset/4/30_15.odb,Step-1,Increment      1: Step Time =    1.000,"PART-1-1",           549,         -3.75,            5.,            0.,NA,NA,"",   740.429E-03,  -675.223E-03,  -303.825E-03,   584.239E-09
C:/temp/dataset/4/30_15.odb,Step-1,Increment      1: Step Time =    1.000,"PART-1-1",           550,      -7.01026,       10.3490,            0.,NA,NA,"",   875.866E-03,  -790.992E-03,  -376.129E-03,   4.30438E-09
C:/temp/dataset/4/30_15.odb,Step-1,Increment      1: Step Time =    1.000,"PART-1-1",           551,           -5.,       10.2083,            0.,NA,NA,"",   855.571E-03,  -788.404E-03,  -332.296E-03,   7.90284E-09
C:/temp/dataset/4/30_15.odb,Step-1,Increment      1: Step Time =    1.000,"PART-1-1",           552,      -6.00030,       11.3233,            0.,NA,NA,"",   886.374E-03,  -812.460E-03,  -354.355E-03,   3.43237E-09
C:/temp/dataset/4/30_15.odb,Step-1,Increment      1: Step Time =    1.000,"PART-1-1",           553,      -6.90277,       16.5792,            0.,NA,NA,"",   999.856E-03,  -926.761E-03,  -375.266E-03,   1.81075E-09
C:/temp/dataset/4/30_15.odb,Step-1,Increment      1: Step Time =    1.000,"PART-1-1",           554,           -5.,       16.4583,            0.,NA,NA,"",   982.983E-03,  -924.579E-03,  -333.780E-03,   1.83680E-09
C:/temp/dataset/4/30_15.odb,Step-1,Increment      1: Step Time =    1.000,"PART-1-1",           555,      -5.93592,       17.5473,            0.,NA,NA,"",       1.01217,  -948.082E-03,  -354.430E-03,   1.76329E-09
C:/temp/dataset/4/30_15.odb,Step-1,Increment      1: Step Time =    1.000,"PART-1-1",           556,      -5.96041,       23.6583,            0.,NA,NA,"",       1.13845,      -1.08122,  -356.414E-03,   1.75347E-09
C:/temp/dataset/4/30_15.odb,Step-1,Increment      1: Step Time =    1.000,"PART-1-1",           557,           -5.,       24.7917,            0.,NA,NA,"",       1.15598,      -1.10614,  -335.758E-03,   1.76468E-09
C:/temp/dataset/4/30_15.odb,Step-1,Increment      1: Step Time =    1.000,"PART-1-1",           558,      -7.48847,       28.8776,            0.,NA,NA,"",       1.25692,      -1.19458,  -390.947E-03,   1.72911E-09
C:/temp/dataset/4/30_15.odb,Step-1,Increment      1: Step Time =    1.000,"PART-1-1",           559,           -5.,       28.9583,            0.,NA,NA,"",       1.24340,      -1.19693,  -336.747E-03,   1.77307E-09
C:/temp/dataset/4/30_15.odb,Step-1,Increment      1: Step Time =    1.000,"PART-1-1",           560,         -6.25,           30.,            0.,NA,NA,"",       1.27256,      -1.21933,  -364.229E-03,   1.74326E-09
C:/temp/dataset/4/30_15.odb,Step-1,Increment      1: Step Time =    1.000,"PART-1-1",           561,       12.9634,       11.4929,            0.,NA,NA,"",   822.660E-03,  -820.559E-03,   58.7625E-03,   94.0994E-09
C:/temp/dataset/4/30_15.odb,Step-1,Increment      1: Step Time =    1.000,"PART-1-1",           562,       13.9657,       10.1417,            0.,NA,NA,"",   795.495E-03,  -791.369E-03,   80.9118E-03,   258.280E-09
C:/temp/dataset/4/30_15.odb,Step-1,Increment      1: Step Time =    1.000,"PART-1-1",           563,           15.,         11.25,            0.,NA,NA,"",   822.251E-03,  -815.753E-03,   103.176E-03,   396.639E-09
C:/temp/dataset/4/30_15.odb,Step-1,Increment      1: Step Time =    1.000,"PART-1-1",           564,       13.9978,       12.6011,            0.,NA,NA,"",   848.818E-03,  -844.942E-03,   81.0270E-03,   185.869E-09
C:/temp/dataset/4/30_15.odb,Step-1,Increment      1: Step Time =    1.000,"PART-1-1",           565,       9.13480,      -18.5479,            0.,NA,NA,"",   153.438E-03,  -152.631E-03,  -15.7160E-03,   3.06398E-03
C:/temp/dataset/4/30_15.odb,Step-1,Increment      1: Step Time =    1.000,"PART-1-1",           566,       11.1537,      -18.5886,            0.,NA,NA,"",   153.301E-03,  -152.191E-03,   18.4116E-03,   3.05610E-03
C:/temp/dataset/4/30_15.odb,Step-1,Increment      1: Step Time =    1.000,"PART-1-1",           567,       10.1377,      -17.4381,            0.,NA,NA,"",   176.927E-03,  -176.924E-03,   1.05301E-03,   2.90822E-03
C:/temp/dataset/4/30_15.odb,Step-1,Increment      1: Step Time =    1.000,"PART-1-1",           568,      -8.81573,       27.5627,            0.,NA,NA,"",       1.23882,      -1.16561,  -419.553E-03,   1.73397E-09
C:/temp/dataset/4/30_15.odb,Step-1,Increment      1: Step Time =    1.000,"PART-1-1",           569,         -8.75,           30.,            0.,NA,NA,"",       1.28865,      -1.21873,  -418.699E-03,   1.72282E-09
C:/temp/dataset/4/30_15.odb,Step-1,Increment      1: Step Time =    1.000,"PART-1-1",           570,            5.,      -24.7917,            0.,NA,NA,"",   72.3687E-03,  -50.8607E-03,  -51.4822E-03,   8.98760E-03
C:/temp/dataset/4/30_15.odb,Step-1,Increment      1: Step Time =    1.000,"PART-1-1",           571,       6.09200,      -25.8775,            0.,NA,NA,"",   45.9070E-03,  -33.8603E-03,  -30.9990E-03,   7.76032E-03
C:/temp/dataset/4/30_15.odb,Step-1,Increment      1: Step Time =    1.000,"PART-1-1",           572,       7.15121,      -24.8757,            0.,NA,NA,"",   50.3977E-03,  -42.9721E-03,  -26.3311E-03,   5.69767E-03
C:/temp/dataset/4/30_15.odb,Step-1,Increment      1: Step Time =    1.000,"PART-1-1",           573,       13.1040,      -21.0477,            0.,NA,NA,"",   114.650E-03,  -105.282E-03,   45.3897E-03,   4.48958E-03
C:/temp/dataset/4/30_15.odb,Step-1,Increment      1: Step Time =    1.000,"PART-1-1",           574,       14.0487,      -22.3697,            0.,NA,NA,"",   100.062E-03,  -84.1712E-03,   54.1074E-03,   6.19682E-03
C:/temp/dataset/4/30_15.odb,Step-1,Increment      1: Step Time =    1.000,"PART-1-1",           575,           15.,        -21.25,            0.,NA,NA,"",   130.874E-03,  -106.485E-03,   76.0853E-03,   6.81909E-03
C:/temp/dataset/4/30_15.odb,Step-1,Increment      1: Step Time =    1.000,"PART-1-1",           576,            5.,       -26.875,            0.,NA,NA,"",   43.6925E-03,  -27.9930E-03,  -33.5474E-03,   10.5238E-03
C:/temp/dataset/4/30_15.odb,Step-1,Increment      1: Step Time =    1.000,"PART-1-1",           577,       12.8133,      -6.31290,            0.,NA,NA,"",   437.523E-03,  -433.426E-03,   59.7323E-03,   356.684E-06
C:/temp/dataset/4/30_15.odb,Step-1,Increment      1: Step Time =    1.000,"PART-1-1",           578,       13.9319,      -7.55671,            0.,NA,NA,"",   416.458E-03,  -407.910E-03,   83.9468E-03,   864.902E-06
C:/temp/dataset/4/30_15.odb,Step-1,Increment      1: Step Time =    1.000,"PART-1-1",           579,           15.,         -6.25,            0.,NA,NA,"",   448.159E-03,  -435.365E-03,   106.318E-03,   248.411E-06
C:/temp/dataset/4/30_15.odb,Step-1,Increment      1: Step Time =    1.000,"PART-1-1",           580,            5.,       18.5417,            0.,NA,NA,"",   979.126E-03,  -972.189E-03,  -116.348E-03,   17.7563E-09
C:/temp/dataset/4/30_15.odb,Step-1,Increment      1: Step Time =    1.000,"PART-1-1",           581,       6.00122,       17.5195,            0.,NA,NA,"",   954.832E-03,  -950.164E-03,  -94.2999E-03,   28.8996E-09
C:/temp/dataset/4/30_15.odb,Step-1,Increment      1: Step Time =    1.000,"PART-1-1",           582,       6.99656,       18.6041,            0.,NA,NA,"",   976.745E-03,  -974.023E-03,  -72.8793E-03,   28.5321E-09
C:/temp/dataset/4/30_15.odb,Step-1,Increment      1: Step Time =    1.000,"PART-1-1",           583,       12.8545,       23.6160,            0.,NA,NA,"",       1.08589,      -1.08457,   53.5139E-03,   1.01397E-09
C:/temp/dataset/4/30_15.odb,Step-1,Increment      1: Step Time =    1.000,"PART-1-1",           584,       13.9683,       22.4382,            0.,NA,NA,"",       1.06205,      -1.05918,   78.0518E-03,   1.52096E-09
C:/temp/dataset/4/30_15.odb,Step-1,Increment      1: Step Time =    1.000,"PART-1-1",           585,           15.,         23.75,            0.,NA,NA,"",       1.09260,      -1.08800,   100.210E-03,   2.09831E-09
C:/temp/dataset/4/30_15.odb,Step-1,Increment      1: Step Time =    1.000,"PART-1-1",           586,            5.,       16.4583,            0.,NA,NA,"",   934.028E-03,  -926.815E-03,  -115.854E-03,   60.5911E-09
C:/temp/dataset/4/30_15.odb,Step-1,Increment      1: Step Time =    1.000,"PART-1-1",           587,       7.00480,       16.4638,            0.,NA,NA,"",   930.215E-03,  -927.410E-03,  -72.1922E-03,   69.5726E-09
C:/temp/dataset/4/30_15.odb,Step-1,Increment      1: Step Time =    1.000,"PART-1-1",           588,       12.9734,       21.1620,            0.,NA,NA,"",       1.03271,      -1.03115,   56.6857E-03,   7.07205E-09
C:/temp/dataset/4/30_15.odb,Step-1,Increment      1: Step Time =    1.000,"PART-1-1",           589,           15.,         21.25,            0.,NA,NA,"",       1.03845,      -1.03355,   100.803E-03,   1.34102E-09
C:/temp/dataset/4/30_15.odb,Step-1,Increment      1: Step Time =    1.000,"PART-1-1",           590,            5.,       6.04167,            0.,NA,NA,"",   709.084E-03,  -699.960E-03,  -113.382E-03,   7.19606E-06
C:/temp/dataset/4/30_15.odb,Step-1,Increment      1: Step Time =    1.000,"PART-1-1",           591,       5.70418,       5.21013,            0.,NA,NA,"",   689.010E-03,  -682.026E-03,  -97.8514E-03,   10.4792E-06
C:/temp/dataset/4/30_15.odb,Step-1,Increment      1: Step Time =    1.000,"PART-1-1",           592,       6.54256,       6.20387,            0.,NA,NA,"",   708.370E-03,  -703.857E-03,  -79.8259E-03,   5.87025E-06
C:/temp/dataset/4/30_15.odb,Step-1,Increment      1: Step Time =    1.000,"PART-1-1",           593,       7.80464,       8.81181,            0.,NA,NA,"",   762.786E-03,  -760.946E-03,  -52.9572E-03,   913.354E-09
C:/temp/dataset/4/30_15.odb,Step-1,Increment      1: Step Time =    1.000,"PART-1-1",           594,       7.55468,       6.70991,            0.,NA,NA,"",   717.454E-03,  -715.113E-03,  -57.9012E-03,   4.06704E-06
C:/temp/dataset/4/30_15.odb,Step-1,Increment      1: Step Time =    1.000,"PART-1-1",           595,           -5.,       12.2917,            0.,NA,NA,"",   897.755E-03,  -833.796E-03,  -332.791E-03,   3.30589E-09
C:/temp/dataset/4/30_15.odb,Step-1,Increment      1: Step Time =    1.000,"PART-1-1",           596,      -13.0551,       11.1433,            0.,NA,NA,"",   953.474E-03,  -806.862E-03,  -508.022E-03,   2.55672E-09
C:/temp/dataset/4/30_15.odb,Step-1,Increment      1: Step Time =    1.000,"PART-1-1",           597,          -15.,       11.4063,            0.,NA,NA,"",   981.102E-03,  -812.130E-03,  -550.460E-03,   3.24612E-09
C:/temp/dataset/4/30_15.odb,Step-1,Increment      1: Step Time =    1.000,"PART-1-1",           598,           -5.,       18.5417,            0.,NA,NA,"",       1.02595,  -969.970E-03,  -334.274E-03,   1.75632E-09
C:/temp/dataset/4/30_15.odb,Step-1,Increment      1: Step Time =    1.000,"PART-1-1",           599,      -6.83195,       18.5917,            0.,NA,NA,"",       1.04026,  -970.626E-03,  -374.201E-03,   1.75325E-09
C:/temp/dataset/4/30_15.odb,Step-1,Increment      1: Step Time =    1.000,"PART-1-1",           600,      -12.9744,       15.4368,            0.,NA,NA,"",       1.03349,  -900.428E-03,  -507.284E-03,   1.76254E-09
C:/temp/dataset/4/30_15.odb,Step-1,Increment      1: Step Time =    1.000,"PART-1-1",           601,      -13.9736,       16.6988,            0.,NA,NA,"",       1.06809,  -927.689E-03,  -529.353E-03,   1.63937E-09
C:/temp/dataset/4/30_15.odb,Step-1,Increment      1: Step Time =    1.000,"PART-1-1",           602,          -15.,       15.7813,            0.,NA,NA,"",       1.06189,  -907.453E-03,  -551.498E-03,   1.66614E-09
C:/temp/dataset/4/30_15.odb,Step-1,Increment      1: Step Time =    1.000,"PART-1-1",           603,      -6.85389,       22.5676,            0.,NA,NA,"",       1.12199,      -1.05725,  -375.622E-03,   1.74236E-09
C:/temp/dataset/4/30_15.odb,Step-1,Increment      1: Step Time =    1.000,"PART-1-1",           604,           -5.,       22.7083,            0.,NA,NA,"",       1.11247,      -1.06075,  -335.263E-03,   1.75986E-09
C:/temp/dataset/4/30_15.odb,Step-1,Increment      1: Step Time =    1.000,"PART-1-1",           605,      -7.62380,       21.5126,            0.,NA,NA,"",       1.10594,      -1.03408,  -392.147E-03,   1.73246E-09
C:/temp/dataset/4/30_15.odb,Step-1,Increment      1: Step Time =    1.000,"PART-1-1",           606,      -11.2433,       25.0031,            0.,NA,NA,"",       1.20545,      -1.10927,  -471.838E-03,   1.71498E-09
C:/temp/dataset/4/30_15.odb,Step-1,Increment      1: Step Time =    1.000,"PART-1-1",           607,      -10.1220,       24.6816,            0.,NA,NA,"",       1.18982,      -1.10253,  -447.329E-03,   1.71973E-09
C:/temp/dataset/4/30_15.odb,Step-1,Increment      1: Step Time =    1.000,"PART-1-1",           608,      -9.68436,       26.2404,            0.,NA,NA,"",       1.21813,      -1.13660,  -438.165E-03,   1.72811E-09
C:/temp/dataset/4/30_15.odb,Step-1,Increment      1: Step Time =    1.000,"PART-1-1",           609,      -10.8057,       26.5619,            0.,NA,NA,"",       1.23340,      -1.14334,  -462.673E-03,   1.72441E-09
C:/temp/dataset/4/30_15.odb,Step-1,Increment      1: Step Time =    1.000,"PART-1-1",           610,            5.,      -6.04167,            0.,NA,NA,"",   450.349E-03,  -436.483E-03,  -110.889E-03,   166.279E-06
C:/temp/dataset/4/30_15.odb,Step-1,Increment      1: Step Time =    1.000,"PART-1-1",           611,       5.81487,      -6.90448,            0.,NA,NA,"",   427.844E-03,  -417.659E-03,  -92.8002E-03,   86.1481E-06
C:/temp/dataset/4/30_15.odb,Step-1,Increment      1: Step Time =    1.000,"PART-1-1",           612,       6.44107,      -5.66337,            0.,NA,NA,"",   452.217E-03,  -445.213E-03,  -79.2833E-03,   25.9729E-06
C:/temp/dataset/4/30_15.odb,Step-1,Increment      1: Step Time =    1.000,"PART-1-1",           613,       5.62621,      -4.80056,            0.,NA,NA,"",   474.019E-03,  -463.921E-03,  -97.3210E-03,   86.2180E-06
C:/temp/dataset/4/30_15.odb,Step-1,Increment      1: Step Time =    1.000,"PART-1-1",           614,            5.,        -8.125,            0.,NA,NA,"",   405.654E-03,  -390.269E-03,  -110.658E-03,   49.8379E-06
C:/temp/dataset/4/30_15.odb,Step-1,Increment      1: Step Time =    1.000,"PART-1-1",           615,       8.00489,       17.5473,            0.,NA,NA,"",   952.594E-03,  -951.246E-03,  -50.6679E-03,   41.7127E-09
C:/temp/dataset/4/30_15.odb,Step-1,Increment      1: Step Time =    1.000,"PART-1-1",           616,       8.00828,       15.3576,            0.,NA,NA,"",   904.941E-03,  -903.554E-03,  -50.0746E-03,   91.6962E-09
C:/temp/dataset/4/30_15.odb,Step-1,Increment      1: Step Time =    1.000,"PART-1-1",           617,       11.1265,      -16.2686,            0.,NA,NA,"",   204.971E-03,  -204.055E-03,   19.3607E-03,   2.99407E-03
C:/temp/dataset/4/30_15.odb,Step-1,Increment      1: Step Time =    1.000,"PART-1-1",           618,       9.12111,      -16.3141,            0.,NA,NA,"",   202.998E-03,  -202.202E-03,  -17.9506E-03,   2.85449E-03
C:/temp/dataset/4/30_15.odb,Step-1,Increment      1: Step Time =    1.000,"PART-1-1",           619,      -9.91602,       15.9767,            0.,NA,NA,"",       1.01376,  -912.917E-03,  -440.775E-03,   1.75556E-09
C:/temp/dataset/4/30_15.odb,Step-1,Increment      1: Step Time =    1.000,"PART-1-1",           620,      -10.9598,       15.0860,            0.,NA,NA,"",       1.00627,  -893.264E-03,  -463.306E-03,   1.81896E-09
C:/temp/dataset/4/30_15.odb,Step-1,Increment      1: Step Time =    1.000,"PART-1-1",           621,      -8.93702,       14.7598,            0.,NA,NA,"",   980.723E-03,  -886.637E-03,  -419.156E-03,   1.87404E-09
C:/temp/dataset/4/30_15.odb,Step-1,Increment      1: Step Time =    1.000,"PART-1-1",           622,      -13.0880,       4.79273,            0.,NA,NA,"",   839.143E-03,  -668.489E-03,  -507.230E-03,   7.35865E-09
C:/temp/dataset/4/30_15.odb,Step-1,Increment      1: Step Time =    1.000,"PART-1-1",           623,          -15.,       4.84375,            0.,NA,NA,"",   865.477E-03,  -669.147E-03,  -548.902E-03,   3.08970E-09
C:/temp/dataset/4/30_15.odb,Step-1,Increment      1: Step Time =    1.000,"PART-1-1",           624,           -5.,       6.04167,            0.,NA,NA,"",   772.295E-03,  -697.621E-03,  -331.307E-03,   64.4909E-09
C:/temp/dataset/4/30_15.odb,Step-1,Increment      1: Step Time =    1.000,"PART-1-1",           625,      -7.12843,       5.83601,            0.,NA,NA,"",   788.891E-03,  -692.635E-03,  -377.632E-03,   25.2831E-09
C:/temp/dataset/4/30_15.odb,Step-1,Increment      1: Step Time =    1.000,"PART-1-1",           626,       12.9112,      -8.87192,            0.,NA,NA,"",   383.542E-03,  -378.587E-03,   61.4551E-03,   1.31719E-03
C:/temp/dataset/4/30_15.odb,Step-1,Increment      1: Step Time =    1.000,"PART-1-1",           627,           15.,         -8.75,            0.,NA,NA,"",   398.795E-03,  -384.351E-03,   106.358E-03,   1.28710E-03
C:/temp/dataset/4/30_15.odb,Step-1,Increment      1: Step Time =    1.000,"PART-1-1",           628,       13.0740,      -16.2399,            0.,NA,NA,"",   214.522E-03,  -206.777E-03,   57.1212E-03,   2.99798E-03
C:/temp/dataset/4/30_15.odb,Step-1,Increment      1: Step Time =    1.000,"PART-1-1",           629,           15.,        -16.25,            0.,NA,NA,"",   231.480E-03,  -209.411E-03,   98.6412E-03,   3.63341E-03
C:/temp/dataset/4/30_15.odb,Step-1,Increment      1: Step Time =    1.000,"PART-1-1",           630,       13.0128,       13.9092,            0.,NA,NA,"",   875.206E-03,  -873.197E-03,   59.2647E-03,   132.791E-09
C:/temp/dataset/4/30_15.odb,Step-1,Increment      1: Step Time =    1.000,"PART-1-1",           631,           15.,         13.75,            0.,NA,NA,"",   876.227E-03,  -870.202E-03,   102.583E-03,   194.222E-09
C:/temp/dataset/4/30_15.odb,Step-1,Increment      1: Step Time =    1.000,"PART-1-1",           632,       10.9505,       11.7339,            0.,NA,NA,"",   825.466E-03,  -825.332E-03,   14.8639E-03,   149.211E-09
C:/temp/dataset/4/30_15.odb,Step-1,Increment      1: Step Time =    1.000,"PART-1-1",           633,       9.98883,       12.9959,            0.,NA,NA,"",   852.613E-03,  -852.589E-03,  -6.37962E-03,   159.879E-09
C:/temp/dataset/4/30_15.odb,Step-1,Increment      1: Step Time =    1.000,"PART-1-1",           634,       8.94372,       11.9797,            0.,NA,NA,"",   830.712E-03,  -830.209E-03,  -28.9006E-03,   152.194E-09
C:/temp/dataset/4/30_15.odb,Step-1,Increment      1: Step Time =    1.000,"PART-1-1",           635,      -13.9153,       18.9000,            0.,NA,NA,"",       1.10966,  -975.662E-03,  -528.606E-03,   1.62953E-09
C:/temp/dataset/4/30_15.odb,Step-1,Increment      1: Step Time =    1.000,"PART-1-1",           636,      -12.6393,       19.9841,            0.,NA,NA,"",       1.11814,  -999.585E-03,  -501.062E-03,   1.66524E-09
C:/temp/dataset/4/30_15.odb,Step-1,Increment      1: Step Time =    1.000,"PART-1-1",           637,          -15.,       20.1563,            0.,NA,NA,"",       1.14493,      -1.00277,  -552.537E-03,   1.62129E-09
C:/temp/dataset/4/30_15.odb,Step-1,Increment      1: Step Time =    1.000,"PART-1-1",           638,       8.12191,      -21.7795,            0.,NA,NA,"",   93.2460E-03,  -89.5954E-03,  -25.8360E-03,   3.67011E-03
C:/temp/dataset/4/30_15.odb,Step-1,Increment      1: Step Time =    1.000,"PART-1-1",           639,       8.12482,      -23.8590,            0.,NA,NA,"",   58.9762E-03,  -55.4791E-03,  -20.0066E-03,   4.04860E-03
C:/temp/dataset/4/30_15.odb,Step-1,Increment      1: Step Time =    1.000,"PART-1-1",           640,       8.11825,      -19.6354,            0.,NA,NA,"",   134.126E-03,  -130.513E-03,  -30.9213E-03,   3.30207E-03
C:/temp/dataset/4/30_15.odb,Step-1,Increment      1: Step Time =    1.000,"PART-1-1",           641,       8.10952,      -17.4508,            0.,NA,NA,"",   180.342E-03,  -176.869E-03,  -35.2215E-03,   2.93419E-03
C:/temp/dataset/4/30_15.odb,Step-1,Increment      1: Step Time =    1.000,"PART-1-1",           642,       7.85781,       23.9076,            0.,NA,NA,"",       1.09114,      -1.08973,  -55.3798E-03,   704.543E-12
C:/temp/dataset/4/30_15.odb,Step-1,Increment      1: Step Time =    1.000,"PART-1-1",           643,       7.94870,       21.8524,            0.,NA,NA,"",       1.04633,      -1.04499,  -52.9127E-03,   3.88877E-09
C:/temp/dataset/4/30_15.odb,Step-1,Increment      1: Step Time =    1.000,"PART-1-1",           644,       4.21929,       2.98066,            0.,NA,NA,"",   646.263E-03,  -633.118E-03,  -129.682E-03,   8.46652E-06
C:/temp/dataset/4/30_15.odb,Step-1,Increment      1: Step Time =    1.000,"PART-1-1",           645,       5.32392,       3.96649,            0.,NA,NA,"",   663.350E-03,  -654.852E-03,  -105.839E-03,   9.17185E-06
C:/temp/dataset/4/30_15.odb,Step-1,Increment      1: Step Time =    1.000,"PART-1-1",           646,          3.75,            5.,            0.,NA,NA,"",   691.405E-03,  -677.002E-03,  -140.391E-03,   8.26823E-06
C:/temp/dataset/4/30_15.odb,Step-1,Increment      1: Step Time =    1.000,"PART-1-1",           647,       12.8859,       9.04653,            0.,NA,NA,"",   769.423E-03,  -767.260E-03,   57.6549E-03,   625.457E-09
C:/temp/dataset/4/30_15.odb,Step-1,Increment      1: Step Time =    1.000,"PART-1-1",           648,           15.,          8.75,            0.,NA,NA,"",   768.342E-03,  -761.302E-03,   103.770E-03,   342.744E-09
C:/temp/dataset/4/30_15.odb,Step-1,Increment      1: Step Time =    1.000,"PART-1-1",           649,      -8.02807,       9.41948,            0.,NA,NA,"",   867.259E-03,  -770.498E-03,  -398.084E-03,   2.78299E-09
C:/temp/dataset/4/30_15.odb,Step-1,Increment      1: Step Time =    1.000,"PART-1-1",           650,      -8.84347,       16.8085,            0.,NA,NA,"",       1.02064,  -931.296E-03,  -417.604E-03,   1.75348E-09
C:/temp/dataset/4/30_15.odb,Step-1,Increment      1: Step Time =    1.000,"PART-1-1",           651,      -9.78583,       18.0165,            0.,NA,NA,"",       1.05300,  -957.393E-03,  -438.423E-03,   1.71184E-09
C:/temp/dataset/4/30_15.odb,Step-1,Increment      1: Step Time =    1.000,"PART-1-1",           652,          -15.,       17.9688,            0.,NA,NA,"",       1.10316,  -955.114E-03,  -552.018E-03,   1.60234E-09
C:/temp/dataset/4/30_15.odb,Step-1,Increment      1: Step Time =    1.000,"PART-1-1",           653,          -15.,       24.5313,            0.,NA,NA,"",       1.22974,      -1.09810,  -553.576E-03,   1.68976E-09
C:/temp/dataset/4/30_15.odb,Step-1,Increment      1: Step Time =    1.000,"PART-1-1",           654,      -12.9952,       24.7258,            0.,NA,NA,"",       1.21500,      -1.10281,  -509.941E-03,   1.70182E-09
C:/temp/dataset/4/30_15.odb,Step-1,Increment      1: Step Time =    1.000,"PART-1-1",           655,      -11.4985,       21.8877,            0.,NA,NA,"",       1.14524,      -1.04133,  -476.658E-03,   1.69156E-09
C:/temp/dataset/4/30_15.odb,Step-1,Increment      1: Step Time =    1.000,"PART-1-1",           656,      -11.4490,       20.6565,            0.,NA,NA,"",       1.12033,      -1.01452,  -475.287E-03,   1.68594E-09
C:/temp/dataset/4/30_15.odb,Step-1,Increment      1: Step Time =    1.000,"PART-1-1",           657,      -10.1446,       20.7260,            0.,NA,NA,"",       1.11025,      -1.01634,  -446.884E-03,   1.70321E-09
C:/temp/dataset/4/30_15.odb,Step-1,Increment      1: Step Time =    1.000,"PART-1-1",           658,      -7.69218,       19.6350,            0.,NA,NA,"",       1.06815,  -993.153E-03,  -393.191E-03,   1.73179E-09
C:/temp/dataset/4/30_15.odb,Step-1,Increment      1: Step Time =    1.000,"PART-1-1",           659,      -8.68744,       18.7463,            0.,NA,NA,"",       1.05818,  -973.554E-03,  -414.665E-03,   1.72442E-09
C:/temp/dataset/4/30_15.odb,Step-1,Increment      1: Step Time =    1.000,"PART-1-1",           660,      -7.82721,       17.7030,            0.,NA,NA,"",       1.03005,  -951.027E-03,  -395.674E-03,   1.74303E-09
C:/temp/dataset/4/30_15.odb,Step-1,Increment      1: Step Time =    1.000,"PART-1-1",           661,      -9.52114,       19.8817,            0.,NA,NA,"",       1.08801,  -998.093E-03,  -433.099E-03,   1.71049E-09
C:/temp/dataset/4/30_15.odb,Step-1,Increment      1: Step Time =    1.000,"PART-1-1",           662,      -10.6195,       19.1519,            0.,NA,NA,"",       1.08301,  -981.932E-03,  -456.857E-03,   1.69608E-09
C:/temp/dataset/4/30_15.odb,Step-1,Increment      1: Step Time =    1.000,"PART-1-1",           663,      -12.1485,       3.78191,            0.,NA,NA,"",   809.265E-03,  -646.689E-03,  -486.521E-03,   16.0158E-09
C:/temp/dataset/4/30_15.odb,Step-1,Increment      1: Step Time =    1.000,"PART-1-1",           664,      -10.9850,       2.86362,            0.,NA,NA,"",   778.173E-03,  -626.957E-03,  -460.953E-03,   27.7829E-09
C:/temp/dataset/4/30_15.odb,Step-1,Increment      1: Step Time =    1.000,"PART-1-1",           665,      -9.06958,       8.49577,            0.,NA,NA,"",   859.974E-03,  -750.125E-03,  -420.557E-03,   2.99548E-09
C:/temp/dataset/4/30_15.odb,Step-1,Increment      1: Step Time =    1.000,"PART-1-1",           666,      -8.08215,       7.28595,            0.,NA,NA,"",   826.548E-03,  -724.000E-03,  -398.756E-03,   10.9378E-09
C:/temp/dataset/4/30_15.odb,Step-1,Increment      1: Step Time =    1.000,"PART-1-1",           667,      -10.1292,       7.60955,            0.,NA,NA,"",   854.610E-03,  -730.564E-03,  -443.434E-03,   4.15839E-09
C:/temp/dataset/4/30_15.odb,Step-1,Increment      1: Step Time =    1.000,"PART-1-1",           668,      -11.2104,       6.77234,            0.,NA,NA,"",   851.430E-03,  -712.067E-03,  -466.791E-03,   5.12540E-09
C:/temp/dataset/4/30_15.odb,Step-1,Increment      1: Step Time =    1.000,"PART-1-1",           669,      -10.2942,       5.63122,            0.,NA,NA,"",   819.734E-03,  -687.421E-03,  -446.560E-03,   15.6429E-09
C:/temp/dataset/4/30_15.odb,Step-1,Increment      1: Step Time =    1.000,"PART-1-1",           670,      -9.21309,       6.46842,            0.,NA,NA,"",   823.057E-03,  -705.919E-03,  -423.203E-03,   13.3749E-09
C:/temp/dataset/4/30_15.odb,Step-1,Increment      1: Step Time =    1.000,"PART-1-1",           671,        -11.25,           -5.,            0.,NA,NA,"",   650.870E-03,  -455.562E-03,  -464.860E-03,   15.1014E-09
C:/temp/dataset/4/30_15.odb,Step-1,Increment      1: Step Time =    1.000,"PART-1-1",           672,      -10.0273,      -3.93877,            0.,NA,NA,"",   649.364E-03,  -478.974E-03,  -438.472E-03,   27.5213E-09
C:/temp/dataset/4/30_15.odb,Step-1,Increment      1: Step Time =    1.000,"PART-1-1",           673,         -8.75,           -5.,            0.,NA,NA,"",   613.594E-03,  -456.156E-03,  -410.390E-03,   56.5153E-09
C:/temp/dataset/4/30_15.odb,Step-1,Increment      1: Step Time =    1.000,"PART-1-1",           674,      -7.59562,      -4.02918,            0.,NA,NA,"",   613.735E-03,  -477.582E-03,  -385.469E-03,   87.1074E-09
C:/temp/dataset/4/30_15.odb,Step-1,Increment      1: Step Time =    1.000,"PART-1-1",           675,      -8.87289,      -2.96795,            0.,NA,NA,"",   649.172E-03,  -500.400E-03,  -413.550E-03,   80.4044E-09
C:/temp/dataset/4/30_15.odb,Step-1,Increment      1: Step Time =    1.000,"PART-1-1",           676,         -6.25,           -5.,            0.,NA,NA,"",   579.050E-03,  -456.749E-03,  -355.920E-03,   261.598E-09
C:/temp/dataset/4/30_15.odb,Step-1,Increment      1: Step Time =    1.000,"PART-1-1",           677,      -5.03874,      -3.83161,            0.,NA,NA,"",   584.442E-03,  -482.494E-03,  -329.807E-03,   268.343E-09
C:/temp/dataset/4/30_15.odb,Step-1,Increment      1: Step Time =    1.000,"PART-1-1",           678,      -6.38435,      -2.86079,            0.,NA,NA,"",   618.444E-03,  -503.326E-03,  -359.356E-03,   220.900E-09
C:/temp/dataset/4/30_15.odb,Step-1,Increment      1: Step Time =    1.000,"PART-1-1",           679,      -8.31216,       1.98044,            0.,NA,NA,"",   729.452E-03,  -608.349E-03,  -402.508E-03,   95.3472E-09
C:/temp/dataset/4/30_15.odb,Step-1,Increment      1: Step Time =    1.000,"PART-1-1",           680,      -6.89941,       1.67561,            0.,NA,NA,"",   707.518E-03,  -602.042E-03,  -371.655E-03,   169.090E-09
C:/temp/dataset/4/30_15.odb,Step-1,Increment      1: Step Time =    1.000,"PART-1-1",           681,      -8.02347,       3.70061,            0.,NA,NA,"",   757.954E-03,  -645.896E-03,  -396.627E-03,   73.5696E-09
C:/temp/dataset/4/30_15.odb,Step-1,Increment      1: Step Time =    1.000,"PART-1-1",           682,      -9.78636,       2.36681,            0.,NA,NA,"",   754.288E-03,  -616.417E-03,  -434.720E-03,   51.6022E-09
C:/temp/dataset/4/30_15.odb,Step-1,Increment      1: Step Time =    1.000,"PART-1-1",           683,      -8.80920,   354.969E-03,            0.,NA,NA,"",   706.149E-03,  -572.815E-03,  -412.952E-03,   88.2456E-09
C:/temp/dataset/4/30_15.odb,Step-1,Increment      1: Step Time =    1.000,"PART-1-1",           684,         -3.75,           -5.,            0.,NA,NA,"",   547.755E-03,  -457.344E-03,  -301.451E-03,   537.348E-09
C:/temp/dataset/4/30_15.odb,Step-1,Increment      1: Step Time =    1.000,"PART-1-1",           685,          3.75,           -5.,            0.,NA,NA,"",   479.442E-03,  -459.126E-03,  -138.086E-03,   30.9100E-06
C:/temp/dataset/4/30_15.odb,Step-1,Increment      1: Step Time =    1.000,"PART-1-1",           686,       4.46580,      -3.87501,            0.,NA,NA,"",   499.138E-03,  -483.800E-03,  -122.787E-03,   57.4572E-06
C:/temp/dataset/4/30_15.odb,Step-1,Increment      1: Step Time =    1.000,"PART-1-1",           687,       2.90021,      -2.90757,            0.,NA,NA,"",   528.398E-03,  -504.510E-03,  -157.081E-03,   11.9146E-06
C:/temp/dataset/4/30_15.odb,Step-1,Increment      1: Step Time =    1.000,"PART-1-1",           688,       11.1618,       2.81075,            0.,NA,NA,"",   631.388E-03,  -631.018E-03,   21.6004E-03,   13.3938E-06
C:/temp/dataset/4/30_15.odb,Step-1,Increment      1: Step Time =    1.000,"PART-1-1",           689,       10.1850,       1.50626,            0.,NA,NA,"",   602.382E-03,  -602.382E-03,   659.136E-06,   23.1112E-06
C:/temp/dataset/4/30_15.odb,Step-1,Increment      1: Step Time =    1.000,"PART-1-1",           690,       11.6421,   144.368E-03,            0.,NA,NA,"",   573.973E-03,  -573.040E-03,   32.7137E-03,   27.9860E-06
C:/temp/dataset/4/30_15.odb,Step-1,Increment      1: Step Time =    1.000,"PART-1-1",           691,         11.25,           30.,            0.,NA,NA,"",       1.22335,      -1.22323,   17.0550E-03,   1.39782E-09
C:/temp/dataset/4/30_15.odb,Step-1,Increment      1: Step Time =    1.000,"PART-1-1",           692,       9.19768,       26.3844,            0.,NA,NA,"",       1.14431,      -1.14400,  -26.7857E-03,   960.091E-12
C:/temp/dataset/4/30_15.odb,Step-1,Increment      1: Step Time =    1.000,"PART-1-1",           693,       7.72138,       25.7435,            0.,NA,NA,"",       1.13121,      -1.12969,  -58.7865E-03,   1.01980E-09
C:/temp/dataset/4/30_15.odb,Step-1,Increment      1: Step Time =    1.000,"PART-1-1",           694,       9.17897,      -24.8987,            0.,NA,NA,"",   40.3334E-03,  -39.6817E-03,  -7.22094E-03,   3.31182E-03
C:/temp/dataset/4/30_15.odb,Step-1,Increment      1: Step Time =    1.000,"PART-1-1",           695,       9.00589,       18.6572,            0.,NA,NA,"",   976.090E-03,  -975.655E-03,  -29.1298E-03,   33.7254E-09
C:/temp/dataset/4/30_15.odb,Step-1,Increment      1: Step Time =    1.000,"PART-1-1",           696,       7.99757,       19.7140,            0.,NA,NA,"",   999.751E-03,  -998.432E-03,  -51.3412E-03,   14.9075E-09
C:/temp/dataset/4/30_15.odb,Step-1,Increment      1: Step Time =    1.000,"PART-1-1",           697,      -12.2498,       25.7751,            0.,NA,NA,"",       1.22944,      -1.12585,  -493.949E-03,   1.71510E-09
C:/temp/dataset/4/30_15.odb,Step-1,Increment      1: Step Time =    1.000,"PART-1-1",           698,      -11.9888,       23.9538,            0.,NA,NA,"",       1.19075,      -1.08623,  -487.830E-03,   1.70136E-09
C:/temp/dataset/4/30_15.odb,Step-1,Increment      1: Step Time =    1.000,"PART-1-1",           699,      -1.59164,      -1.60220,            0.,NA,NA,"",   589.953E-03,  -531.885E-03,  -255.232E-03,   420.304E-09
C:/temp/dataset/4/30_15.odb,Step-1,Increment      1: Step Time =    1.000,"PART-1-1",           700,      -1.34014,  -343.401E-03,            0.,NA,NA,"",   612.716E-03,  -559.371E-03,  -250.051E-03,   580.582E-09
C:/temp/dataset/4/30_15.odb,Step-1,Increment      1: Step Time =    1.000,"PART-1-1",           701,      -2.70787,  -93.9540E-03,            0.,NA,NA,"",   630.070E-03,  -564.481E-03,  -279.910E-03,   312.384E-09
C:/temp/dataset/4/30_15.odb,Step-1,Increment      1: Step Time =    1.000,"PART-1-1",           702,       8.06015,      -13.0184,            0.,NA,NA,"",   281.849E-03,  -278.799E-03,  -41.3566E-03,   1.82082E-03
C:/temp/dataset/4/30_15.odb,Step-1,Increment      1: Step Time =    1.000,"PART-1-1",           703,       7.99745,      -10.7906,            0.,NA,NA,"",   333.470E-03,  -330.575E-03,  -43.8420E-03,   1.09966E-03
C:/temp/dataset/4/30_15.odb,Step-1,Increment      1: Step Time =    1.000,"PART-1-1",           704,           15.,        -26.25,            0.,NA,NA,"",   52.1506E-03,  -34.5226E-03,   39.0880E-03,   10.0589E-03
C:/temp/dataset/4/30_15.odb,Step-1,Increment      1: Step Time =    1.000,"PART-1-1",           705,       13.9776,      -24.8045,            0.,NA,NA,"",   61.4431E-03,  -47.6275E-03,   38.8184E-03,   7.36942E-03
C:/temp/dataset/4/30_15.odb,Step-1,Increment      1: Step Time =    1.000,"PART-1-1",           706,       12.6094,      -25.9010,            0.,NA,NA,"",   35.6474E-03,  -30.0490E-03,   19.1781E-03,   5.64084E-03
C:/temp/dataset/4/30_15.odb,Step-1,Increment      1: Step Time =    1.000,"PART-1-1",           707,       12.0224,      -24.3398,            0.,NA,NA,"",   52.8525E-03,  -48.9587E-03,   19.9105E-03,   4.48405E-03
C:/temp/dataset/4/30_15.odb,Step-1,Increment      1: Step Time =    1.000,"PART-1-1",           708,       13.0263,      -23.4242,            0.,NA,NA,"",   73.3694E-03,  -64.5648E-03,   34.8490E-03,   5.36587E-03
C:/temp/dataset/4/30_15.odb,Step-1,Increment      1: Step Time =    1.000,"PART-1-1",           709,       12.1300,      -22.1112,            0.,NA,NA,"",   88.8726E-03,  -84.4352E-03,   27.7315E-03,   3.90490E-03
C:/temp/dataset/4/30_15.odb,Step-1,Increment      1: Step Time =    1.000,"PART-1-1",           710,           15.,        -23.75,            0.,NA,NA,"",   88.5661E-03,  -65.8248E-03,   59.2540E-03,   8.35316E-03
C:/temp/dataset/4/30_15.odb,Step-1,Increment      1: Step Time =    1.000,"PART-1-1",           711,       10.9035,      -9.09896,            0.,NA,NA,"",   371.637E-03,  -371.194E-03,   18.1382E-03,   1.07178E-03
C:/temp/dataset/4/30_15.odb,Step-1,Increment      1: Step Time =    1.000,"PART-1-1",           712,       9.82794,      -8.10226,            0.,NA,NA,"",   392.597E-03,  -392.566E-03,  -4.92295E-03,   571.337E-06
C:/temp/dataset/4/30_15.odb,Step-1,Increment      1: Step Time =    1.000,"PART-1-1",           713,       8.90728,      -9.48784,            0.,NA,NA,"",   361.674E-03,  -360.830E-03,  -24.6850E-03,   925.877E-06
C:/temp/dataset/4/30_15.odb,Step-1,Increment      1: Step Time =    1.000,"PART-1-1",           714,           15.,         -1.25,            0.,NA,NA,"",   553.716E-03,  -543.472E-03,   106.017E-03,   68.3054E-06
C:/temp/dataset/4/30_15.odb,Step-1,Increment      1: Step Time =    1.000,"PART-1-1",           715,       12.7555,      -1.12336,            0.,NA,NA,"",   548.669E-03,  -545.677E-03,   57.2239E-03,   43.8527E-06
C:/temp/dataset/4/30_15.odb,Step-1,Increment      1: Step Time =    1.000,"PART-1-1",           716,       11.5680,       5.48707,            0.,NA,NA,"",   690.060E-03,  -689.416E-03,   29.7972E-03,   5.23348E-06
C:/temp/dataset/4/30_15.odb,Step-1,Increment      1: Step Time =    1.000,"PART-1-1",           717,       10.1222,       4.29256,            0.,NA,NA,"",   663.062E-03,  -663.060E-03,  -1.39758E-03,   10.3476E-06
C:/temp/dataset/4/30_15.odb,Step-1,Increment      1: Step Time =    1.000,"PART-1-1",           718,       8.27918,   509.070E-03,            0.,NA,NA,"",   581.662E-03,  -580.244E-03,  -40.5993E-03,   24.7226E-06
C:/temp/dataset/4/30_15.odb,Step-1,Increment      1: Step Time =    1.000,"PART-1-1",           719,       9.70893,  -124.236E-03,            0.,NA,NA,"",   566.845E-03,  -566.769E-03,  -9.28510E-03,   29.4476E-06
C:/temp/dataset/4/30_15.odb,Step-1,Increment      1: Step Time =    1.000,"PART-1-1",           720,       8.75521,       2.13956,            0.,NA,NA,"",   616.617E-03,  -615.855E-03,  -30.6374E-03,   14.5978E-06
C:/temp/dataset/4/30_15.odb,Step-1,Increment      1: Step Time =    1.000,"PART-1-1",           721,       6.99874,       4.90963,            0.,NA,NA,"",   679.354E-03,  -675.781E-03,  -69.5785E-03,   8.83597E-06
C:/temp/dataset/4/30_15.odb,Step-1,Increment      1: Step Time =    1.000,"PART-1-1",           722,       8.01086,       5.41567,            0.,NA,NA,"",   688.686E-03,  -687.035E-03,  -47.6538E-03,   7.52975E-06
C:/temp/dataset/4/30_15.odb,Step-1,Increment      1: Step Time =    1.000,"PART-1-1",           723,       11.8045,       7.99587,            0.,NA,NA,"",   744.912E-03,  -744.119E-03,   34.3518E-03,   1.26278E-06
C:/temp/dataset/4/30_15.odb,Step-1,Increment      1: Step Time =    1.000,"PART-1-1",           724,       7.91904,       10.9856,            0.,NA,NA,"",   809.921E-03,  -808.315E-03,  -50.9815E-03,   131.287E-09
C:/temp/dataset/4/30_15.odb,Step-1,Increment      1: Step Time =    1.000,"PART-1-1",           725,       11.0233,       18.7016,            0.,NA,NA,"",   977.213E-03,  -977.101E-03,   14.7985E-03,   32.9398E-09
C:/temp/dataset/4/30_15.odb,Step-1,Increment      1: Step Time =    1.000,"PART-1-1",           726,       10.0074,       19.8076,            0.,NA,NA,"",       1.00098,      -1.00095,  -7.58959E-03,   15.9464E-09
C:/temp/dataset/4/30_15.odb,Step-1,Increment      1: Step Time =    1.000,"PART-1-1",           727,       10.9673,       21.0105,            0.,NA,NA,"",       1.02746,      -1.02737,   13.0298E-03,   10.3935E-09
C:/temp/dataset/4/30_15.odb,Step-1,Increment      1: Step Time =    1.000,"PART-1-1",           728,       8.97465,       20.8454,            0.,NA,NA,"",       1.02375,      -1.02331,  -30.3294E-03,   11.3559E-09
C:/temp/dataset/4/30_15.odb,Step-1,Increment      1: Step Time =    1.000,"PART-1-1",           729,       8.66510,       24.8184,            0.,NA,NA,"",       1.11041,      -1.10976,  -38.0136E-03,   601.284E-12
C:/temp/dataset/4/30_15.odb,Step-1,Increment      1: Step Time =    1.000,"PART-1-1",           730,       7.98376,       13.1681,            0.,NA,NA,"",   857.329E-03,  -855.864E-03,  -50.0894E-03,   144.624E-09
C:/temp/dataset/4/30_15.odb,Step-1,Increment      1: Step Time =    1.000,"PART-1-1",           731,      -1.95806,       1.80915,            0.,NA,NA,"",   661.132E-03,  -606.124E-03,  -264.024E-03,   356.793E-09
C:/temp/dataset/4/30_15.odb,Step-1,Increment      1: Step Time =    1.000,"PART-1-1",           732,  -613.587E-03,   828.335E-03,            0.,NA,NA,"",   630.317E-03,  -585.073E-03,  -234.498E-03,   1.26204E-06
C:/temp/dataset/4/30_15.odb,Step-1,Increment      1: Step Time =    1.000,"PART-1-1",           733,   461.223E-03,       1.99751,            0.,NA,NA,"",   646.337E-03,  -610.803E-03,  -211.354E-03,   1.93604E-06
C:/temp/dataset/4/30_15.odb,Step-1,Increment      1: Step Time =    1.000,"PART-1-1",           734,       1.74006,       1.04512,            0.,NA,NA,"",   618.149E-03,  -590.358E-03,  -183.264E-03,   5.47821E-06
C:/temp/dataset/4/30_15.odb,Step-1,Increment      1: Step Time =    1.000,"PART-1-1",           735,   906.022E-03,  -39.5003E-03,            0.,NA,NA,"",   601.188E-03,  -566.527E-03,  -201.184E-03,   3.35664E-06
C:/temp/dataset/4/30_15.odb,Step-1,Increment      1: Step Time =    1.000,"PART-1-1",           736,       2.15034,  -968.542E-03,            0.,NA,NA,"",   573.568E-03,  -546.584E-03,  -173.856E-03,   8.24744E-06
C:/temp/dataset/4/30_15.odb,Step-1,Increment      1: Step Time =    1.000,"PART-1-1",           737,       2.98438,   116.081E-03,            0.,NA,NA,"",   591.348E-03,  -570.418E-03,  -155.933E-03,   9.81515E-06
C:/temp/dataset/4/30_15.odb,Step-1,Increment      1: Step Time =    1.000,"PART-1-1",           738,      -8.25937,       5.01848,            0.,NA,NA,"",   785.297E-03,  -674.554E-03,  -402.079E-03,   50.9367E-09
C:/temp/dataset/4/30_15.odb,Step-1,Increment      1: Step Time =    1.000,"PART-1-1",           739,      -2.78312,       1.01462,            0.,NA,NA,"",   652.601E-03,  -588.617E-03,  -281.812E-03,   275.544E-09
C:/temp/dataset/4/30_15.odb,Step-1,Increment      1: Step Time =    1.000,"PART-1-1",           740,      -4.31499,   913.536E-03,            0.,NA,NA,"",   665.421E-03,  -586.051E-03,  -315.165E-03,   338.520E-09
C:/temp/dataset/4/30_15.odb,Step-1,Increment      1: Step Time =    1.000,"PART-1-1",           741,      -4.23975,  -195.042E-03,            0.,NA,NA,"",   643.337E-03,  -561.915E-03,  -313.262E-03,   398.884E-09
C:/temp/dataset/4/30_15.odb,Step-1,Increment      1: Step Time =    1.000,"PART-1-1",           742,      -8.52646,       20.5688,            0.,NA,NA,"",       1.09370,      -1.01330,  -411.590E-03,   1.72368E-09
C:/temp/dataset/4/30_15.odb,Step-1,Increment      1: Step Time =    1.000,"PART-1-1",           743,       8.09873,      -15.2435,            0.,NA,NA,"",   230.158E-03,  -226.909E-03,  -38.5359E-03,   2.46158E-03
C:/temp/dataset/4/30_15.odb,Step-1,Increment      1: Step Time =    1.000,"PART-1-1",           744,       8.99676,       14.2096,            0.,NA,NA,"",   879.243E-03,  -878.788E-03,  -28.2741E-03,   138.147E-09
C:/temp/dataset/4/30_15.odb,Step-1,Increment      1: Step Time =    1.000,"PART-1-1",           745,       11.0169,       14.0599,            0.,NA,NA,"",   876.149E-03,  -876.007E-03,   15.7597E-03,   135.345E-09
C:/temp/dataset/4/30_15.odb,Step-1,Increment      1: Step Time =    1.000,"PART-1-1",           746,      -7.91902,       15.6847,            0.,NA,NA,"",   990.186E-03,  -907.030E-03,  -397.196E-03,   1.81998E-09
C:/temp/dataset/4/30_15.odb,Step-1,Increment      1: Step Time =    1.000,"PART-1-1",           747,      -11.9968,       14.1876,            0.,NA,NA,"",   999.396E-03,  -873.443E-03,  -485.686E-03,   1.86451E-09
C:/temp/dataset/4/30_15.odb,Step-1,Increment      1: Step Time =    1.000,"PART-1-1",           748,      -11.1175,       8.79310,            0.,NA,NA,"",   887.789E-03,  -756.117E-03,  -465.249E-03,   775.166E-12
C:/temp/dataset/4/30_15.odb,Step-1,Increment      1: Step Time =    1.000,"PART-1-1",           749,       10.6592,      -6.44981,            0.,NA,NA,"",   429.600E-03,  -429.403E-03,   13.0130E-03,   317.790E-06
C:/temp/dataset/4/30_15.odb,Step-1,Increment      1: Step Time =    1.000,"PART-1-1",           750,      -10.7894,       23.3985,            0.,NA,NA,"",       1.16937,      -1.07442,  -461.567E-03,   1.70900E-09
C:/temp/dataset/4/30_15.odb,Step-1,Increment      1: Step Time =    1.000,"PART-1-1",           751,       10.0228,      -25.8019,            0.,NA,NA,"",   28.1238E-03,  -28.1231E-03,   199.770E-06,   2.94006E-03
C:/temp/dataset/4/30_15.odb,Step-1,Increment      1: Step Time =    1.000,"PART-1-1",           752,       10.9542,      -24.8826,            0.,NA,NA,"",   40.9865E-03,  -40.1141E-03,   8.41116E-03,   3.37449E-03
C:/temp/dataset/4/30_15.odb,Step-1,Increment      1: Step Time =    1.000,"PART-1-1",           753,       11.8371,      -2.37854,            0.,NA,NA,"",   519.512E-03,  -518.149E-03,   37.6053E-03,   52.8366E-06
C:/temp/dataset/4/30_15.odb,Step-1,Increment      1: Step Time =    1.000,"PART-1-1",           754,       11.6235,      -5.02753,            0.,NA,NA,"",   461.837E-03,  -460.606E-03,   33.6999E-03,   93.1014E-06
C:/temp/dataset/4/30_15.odb,Step-1,Increment      1: Step Time =    1.000,"PART-1-1",           755,      -12.1333,       7.86930,            0.,NA,NA,"",   882.412E-03,  -735.748E-03,  -487.161E-03,   1.43605E-09
C:/temp/dataset/4/30_15.odb,Step-1,Increment      1: Step Time =    1.000,"PART-1-1",           756,      -12.0768,       9.95169,            0.,NA,NA,"",   920.205E-03,  -781.132E-03,  -486.425E-03,   2.38299E-09
C:/temp/dataset/4/30_15.odb,Step-1,Increment      1: Step Time =    1.000,"PART-1-1",           757,       8.68743,       3.64563,            0.,NA,NA,"",   649.454E-03,  -648.641E-03,  -32.4861E-03,   11.8987E-06
C:/temp/dataset/4/30_15.odb,Step-1,Increment      1: Step Time =    1.000,"PART-1-1",           758,       6.61848,       3.66599,            0.,NA,NA,"",   653.231E-03,  -648.610E-03,  -77.5623E-03,   7.44702E-06
C:/temp/dataset/4/30_15.odb,Step-1,Increment      1: Step Time =    1.000,"PART-1-1",           759,       4.71579,   65.6079E-03,            0.,NA,NA,"",   581.871E-03,  -569.743E-03,  -118.184E-03,   16.2556E-06
C:/temp/dataset/4/30_15.odb,Step-1,Increment      1: Step Time =    1.000,"PART-1-1",           760,       3.89104,   957.250E-03,            0.,NA,NA,"",   604.545E-03,  -588.964E-03,  -136.366E-03,   11.7138E-06
C:/temp/dataset/4/30_15.odb,Step-1,Increment      1: Step Time =    1.000,"PART-1-1",           761,      -12.0363,       12.0623,            0.,NA,NA,"",   959.364E-03,  -827.128E-03,  -486.043E-03,   2.24960E-09
C:/temp/dataset/4/30_15.odb,Step-1,Increment      1: Step Time =    1.000,"PART-1-1",           762,      -12.1964,       5.82098,            0.,NA,NA,"",   846.060E-03,  -691.104E-03,  -488.050E-03,   7.29222E-09
C:/temp/dataset/4/30_15.odb,Step-1,Increment      1: Step Time =    1.000,"PART-1-1",           763,      -11.2570,       4.81016,            0.,NA,NA,"",   816.318E-03,  -669.304E-03,  -467.341E-03,   14.5878E-09
C:/temp/dataset/4/30_15.odb,Step-1,Increment      1: Step Time =    1.000,"PART-1-1",           764,      -10.5260,       3.94381,            0.,NA,NA,"",   791.752E-03,  -650.601E-03,  -451.209E-03,   27.0967E-09
C:/temp/dataset/4/30_15.odb,Step-1,Increment      1: Step Time =    1.000,"PART-1-1",           765,      -9.56326,       4.76486,            0.,NA,NA,"",   795.269E-03,  -668.719E-03,  -430.428E-03,   28.1565E-09
C:/temp/dataset/4/30_15.odb,Step-1,Increment      1: Step Time =    1.000,"PART-1-1",           766,      -9.32737,       3.44699,            0.,NA,NA,"",   768.298E-03,  -640.061E-03,  -424.976E-03,   48.4646E-09
C:/temp/dataset/4/30_15.odb,Step-1,Increment      1: Step Time =    1.000,"PART-1-1",           767,       11.5413,      -26.4438,            0.,NA,NA,"",   24.2785E-03,  -22.2553E-03,   9.70280E-03,   4.05605E-03
C:/temp/dataset/4/30_15.odb,Step-1,Increment      1: Step Time =    1.000,"PART-1-1",           768,       5.97241,      -3.36228,            0.,NA,NA,"",   503.502E-03,  -495.388E-03,  -90.0274E-03,   53.4225E-06
C:/temp/dataset/4/30_15.odb,Step-1,Increment      1: Step Time =    1.000,"PART-1-1",           769,       11.9304,       22.2704,            0.,NA,NA,"",       1.05558,      -1.05504,   33.7065E-03,   2.77274E-09
C:/temp/dataset/4/30_15.odb,Step-1,Increment      1: Step Time =    1.000,"PART-1-1",           770,      -3.95064,       2.12654,            0.,NA,NA,"",   685.422E-03,  -612.567E-03,  -307.514E-03,   281.003E-09
C:/temp/dataset/4/30_15.odb,Step-1,Increment      1: Step Time =    1.000,"PART-1-1",           771,       12.1361,      -19.7979,            0.,NA,NA,"",   132.199E-03,  -127.954E-03,   33.2352E-03,   3.36576E-03
C:/temp/dataset/4/30_15.odb,Step-1,Increment      1: Step Time =    1.000,"PART-1-1",           772,       12.1156,      -17.4436,            0.,NA,NA,"",   181.835E-03,  -178.082E-03,   36.7534E-03,   2.95928E-03
C:/temp/dataset/4/30_15.odb,Step-1,Increment      1: Step Time =    1.000,"PART-1-1",           773,       11.8489,      -7.73518,            0.,NA,NA,"",   404.069E-03,  -402.198E-03,   38.8396E-03,   687.396E-06
C:/temp/dataset/4/30_15.odb,Step-1,Increment      1: Step Time =    1.000,"PART-1-1",           774,       11.9658,      -10.2357,            0.,NA,NA,"",   349.207E-03,  -346.862E-03,   40.4000E-03,   1.59239E-03
C:/temp/dataset/4/30_15.odb,Step-1,Increment      1: Step Time =    1.000,"PART-1-1",           775,       10.7237,      -1.11081,            0.,NA,NA,"",   545.664E-03,  -545.508E-03,   13.0670E-03,   45.1594E-06
C:/temp/dataset/4/30_15.odb,Step-1,Increment      1: Step Time =    1.000,"PART-1-1",           776,       11.9194,       10.4262,            0.,NA,NA,"",   797.904E-03,  -797.079E-03,   36.2762E-03,   163.881E-09
C:/temp/dataset/4/30_15.odb,Step-1,Increment      1: Step Time =    1.000,"PART-1-1",           777,       11.9945,       12.8006,            0.,NA,NA,"",   849.634E-03,  -848.812E-03,   37.3501E-03,   145.924E-09
C:/temp/dataset/4/30_15.odb,Step-1,Increment      1: Step Time =    1.000,"PART-1-1",           778,       12.0317,      -12.6649,            0.,NA,NA,"",   293.271E-03,  -290.525E-03,   40.0392E-03,   2.36872E-03
C:/temp/dataset/4/30_15.odb,Step-1,Increment      1: Step Time =    1.000,"PART-1-1",           779,       12.0352,       15.1685,            0.,NA,NA,"",   901.180E-03,  -900.392E-03,   37.6743E-03,   95.9541E-09
C:/temp/dataset/4/30_15.odb,Step-1,Increment      1: Step Time =    1.000,"PART-1-1",           780,      -7.80161,      -2.23284,            0.,NA,NA,"",   647.572E-03,  -516.671E-03,  -390.384E-03,   118.484E-09
C:/temp/dataset/4/30_15.odb,Step-1,Increment      1: Step Time =    1.000,"PART-1-1",           781,      -8.87876,  -905.543E-03,            0.,NA,NA,"",   684.781E-03,  -545.335E-03,  -414.168E-03,   93.6041E-09
C:/temp/dataset/4/30_15.odb,Step-1,Increment      1: Step Time =    1.000,"PART-1-1",           782,      -7.16649,      -1.00336,            0.,NA,NA,"",   661.452E-03,  -543.610E-03,  -376.838E-03,   157.489E-09
C:/temp/dataset/4/30_15.odb,Step-1,Increment      1: Step Time =    1.000,"PART-1-1",           783,      -7.09692,   257.153E-03,            0.,NA,NA,"",   683.546E-03,  -571.090E-03,  -375.621E-03,   163.212E-09
C:/temp/dataset/4/30_15.odb,Step-1,Increment      1: Step Time =    1.000,"PART-1-1",           784,      -5.74923,      -1.63131,            0.,NA,NA,"",   633.060E-03,  -530.264E-03,  -345.809E-03,   208.252E-09
C:/temp/dataset/4/30_15.odb,Step-1,Increment      1: Step Time =    1.000,"PART-1-1",           785,      -5.66693,  -67.3201E-03,            0.,NA,NA,"",   661.139E-03,  -564.360E-03,  -344.388E-03,   266.330E-09
C:/temp/dataset/4/30_15.odb,Step-1,Increment      1: Step Time =    1.000,"PART-1-1",           786,      -5.46941,       1.35113,            0.,NA,NA,"",   685.772E-03,  -595.312E-03,  -340.421E-03,   252.523E-09
C:/temp/dataset/4/30_15.odb,Step-1,Increment      1: Step Time =    1.000,"PART-1-1",           787,       12.0849,      -15.0650,            0.,NA,NA,"",   236.515E-03,  -233.304E-03,   38.8391E-03,   2.90662E-03
C:/temp/dataset/4/30_15.odb,Step-1,Increment      1: Step Time =    1.000,"PART-1-1",           788,       7.01212,      -4.44648,            0.,NA,NA,"",   476.744E-03,  -472.006E-03,  -67.0480E-03,   48.2512E-06
C:/temp/dataset/4/30_15.odb,Step-1,Increment      1: Step Time =    1.000,"PART-1-1",           789,       7.64174,      -3.33281,            0.,NA,NA,"",   499.332E-03,  -496.453E-03,  -53.5387E-03,   49.6693E-06
C:/temp/dataset/4/30_15.odb,Step-1,Increment      1: Step Time =    1.000,"PART-1-1",           790,       6.60203,      -2.24861,            0.,NA,NA,"",   525.414E-03,  -519.812E-03,  -76.5144E-03,   41.8561E-06
C:/temp/dataset/4/30_15.odb,Step-1,Increment      1: Step Time =    1.000,"PART-1-1",           791,       6.68626,       2.15992,            0.,NA,NA,"",   620.463E-03,  -615.825E-03,  -75.7221E-03,   12.0604E-06
C:/temp/dataset/4/30_15.odb,Step-1,Increment      1: Step Time =    1.000,"PART-1-1",           792,       12.0103,       19.9021,            0.,NA,NA,"",       1.00413,      -1.00348,   36.0090E-03,   13.3025E-09
C:/temp/dataset/4/30_15.odb,Step-1,Increment      1: Step Time =    1.000,"PART-1-1",           793,       12.0305,       17.5416,            0.,NA,NA,"",   952.794E-03,  -952.075E-03,   37.0097E-03,   41.3154E-09
C:/temp/dataset/4/30_15.odb,Step-1,Increment      1: Step Time =    1.000,"PART-1-1",           794,       6.09271,      -1.14349,            0.,NA,NA,"",   550.805E-03,  -543.749E-03,  -87.8805E-03,   28.4669E-06
C:/temp/dataset/4/30_15.odb,Step-1,Increment      1: Step Time =    1.000,"PART-1-1",           795,       7.56053,      -1.65505,            0.,NA,NA,"",   535.873E-03,  -532.968E-03,  -55.7283E-03,   40.4659E-06
C:/temp/dataset/4/30_15.odb,Step-1,Increment      1: Step Time =    1.000,"PART-1-1",           796,       7.05122,  -549.935E-03,            0.,NA,NA,"",   560.934E-03,  -556.905E-03,  -67.1103E-03,   28.1328E-06
C:/temp/dataset/4/30_15.odb,Step-1,Increment      1: Step Time =    1.000,"PART-1-1",           797,       5.28588,       1.87348,            0.,NA,NA,"",   618.439E-03,  -609.257E-03,  -106.175E-03,   11.1799E-06
C:/temp/dataset/4/30_15.odb,Step-1,Increment      1: Step Time =    1.000,"PART-1-1",           798,       5.70847,   325.226E-03,            0.,NA,NA,"",   583.688E-03,  -575.639E-03,  -96.6005E-03,   18.1938E-06
C:/temp/dataset/4/30_15.odb,Step-1,Increment      1: Step Time =    1.000,"PART-1-1",           799,       7.10885,   611.668E-03,            0.,NA,NA,"",   585.954E-03,  -582.209E-03,  -66.1356E-03,   18.3252E-06
C:/temp/dataset/4/30_15.odb,Step-1,Increment      1: Step Time =    1.000,"PART-1-1",           800,       9.00326,      -1.31280,            0.,NA,NA,"",   541.292E-03,  -540.744E-03,  -24.3439E-03,   40.8837E-06
C:/temp/dataset/4/30_15.odb,Step-1,Increment      1: Step Time =    1.000,"PART-1-1",           801,       8.22155,  -652.532E-03,            0.,NA,NA,"",   556.497E-03,  -554.943E-03,  -41.5605E-03,   31.7679E-06
C:/temp/dataset/4/30_15.odb,Step-1,Increment      1: Step Time =    1.000,"PART-1-1",           802,       8.34224,      -2.31533,            0.,NA,NA,"",   520.203E-03,  -518.776E-03,  -38.4979E-03,   46.1926E-06
C:/temp/dataset/4/30_15.odb,Step-1,Increment      1: Step Time =    1.000,"PART-1-1",           803,       2.82445,       2.06443,            0.,NA,NA,"",   633.335E-03,  -612.826E-03,  -159.870E-03,   7.36059E-06
