ODB Name,Step,Frame,Part Instance Name,    êﬂì_ÉâÉxÉã,X,Y,Z,Section Name,Material Name,Section Point,   U-Magnitude,          U-U1,          U-U2,       S-Mises
C:/temp/dataset/4/32_25.odb,Step-1,Increment      1: Step Time =    1.000,"PART-1-1",             1,           -5.,           30.,            0.,NA,NA,"",   172.660E-03,  -168.957E-03,  -35.5657E-03,   64.2619E-12
C:/temp/dataset/4/32_25.odb,Step-1,Increment      1: Step Time =    1.000,"PART-1-1",             2,          -15.,           30.,            0.,NA,NA,"",   179.734E-03,  -168.924E-03,  -61.3922E-03,   58.7080E-12
C:/temp/dataset/4/32_25.odb,Step-1,Increment      1: Step Time =    1.000,"PART-1-1",             3,          -15.,         21.25,            0.,NA,NA,"",   158.672E-03,  -146.326E-03,  -61.3630E-03,   167.940E-12
C:/temp/dataset/4/32_25.odb,Step-1,Increment      1: Step Time =    1.000,"PART-1-1",             4,          -15.,          12.5,            0.,NA,NA,"",   138.096E-03,  -123.728E-03,  -61.3338E-03,   306.251E-12
C:/temp/dataset/4/32_25.odb,Step-1,Increment      1: Step Time =    1.000,"PART-1-1",             5,          -15.,          3.75,            0.,NA,NA,"",   118.260E-03,  -101.130E-03,  -61.3046E-03,   340.775E-12
C:/temp/dataset/4/32_25.odb,Step-1,Increment      1: Step Time =    1.000,"PART-1-1",             6,          -15.,           -5.,            0.,NA,NA,"",   99.6086E-03,  -78.5315E-03,  -61.2754E-03,   58.5535E-12
C:/temp/dataset/4/32_25.odb,Step-1,Increment      1: Step Time =    1.000,"PART-1-1",             7,          -10.,           -5.,            0.,NA,NA,"",   92.2427E-03,  -78.5481E-03,  -48.3622E-03,   184.618E-12
C:/temp/dataset/4/32_25.odb,Step-1,Increment      1: Step Time =    1.000,"PART-1-1",             8,           -5.,           -5.,            0.,NA,NA,"",   86.1920E-03,  -78.5648E-03,  -35.4490E-03,   1.21132E-09
C:/temp/dataset/4/32_25.odb,Step-1,Increment      1: Step Time =    1.000,"PART-1-1",             9,            0.,           -5.,            0.,NA,NA,"",   81.7490E-03,  -78.5815E-03,  -22.5357E-03,   17.4070E-09
C:/temp/dataset/4/32_25.odb,Step-1,Increment      1: Step Time =    1.000,"PART-1-1",            10,            5.,           -5.,            0.,NA,NA,"",   79.1849E-03,  -78.5982E-03,  -9.62195E-03,   507.832E-09
C:/temp/dataset/4/32_25.odb,Step-1,Increment      1: Step Time =    1.000,"PART-1-1",            11,            5.,        -11.25,            0.,NA,NA,"",   63.2097E-03,  -62.4764E-03,  -9.60044E-03,   3.80773E-06
C:/temp/dataset/4/32_25.odb,Step-1,Increment      1: Step Time =    1.000,"PART-1-1",            12,            5.,         -17.5,            0.,NA,NA,"",   47.3641E-03,  -46.3358E-03,  -9.81594E-03,   121.480E-06
C:/temp/dataset/4/32_25.odb,Step-1,Increment      1: Step Time =    1.000,"PART-1-1",            13,            5.,        -23.75,            0.,NA,NA,"",   29.4827E-03,  -27.4441E-03,  -10.7729E-03,   105.065E-06
C:/temp/dataset/4/32_25.odb,Step-1,Increment      1: Step Time =    1.000,"PART-1-1",            14,            5.,          -30.,            0.,NA,NA,"",            0.,  -1.71486E-39,  -2.94314E-39,   5.85289E-03
C:/temp/dataset/4/32_25.odb,Step-1,Increment      1: Step Time =    1.000,"PART-1-1",            15,           15.,          -30.,            0.,NA,NA,"",            0.,  -3.01225E-39,   4.70091E-39,   9.71388E-03
C:/temp/dataset/4/32_25.odb,Step-1,Increment      1: Step Time =    1.000,"PART-1-1",            16,           15.,         -22.5,            0.,NA,NA,"",   40.1611E-03,  -37.6190E-03,   14.0615E-03,   1.35477E-03
C:/temp/dataset/4/32_25.odb,Step-1,Increment      1: Step Time =    1.000,"PART-1-1",            17,           15.,          -15.,            0.,NA,NA,"",   55.1665E-03,  -52.7404E-03,   16.1798E-03,   45.6258E-06
C:/temp/dataset/4/32_25.odb,Step-1,Increment      1: Step Time =    1.000,"PART-1-1",            18,           15.,          -7.5,            0.,NA,NA,"",   73.9708E-03,  -72.1716E-03,   16.2154E-03,   947.689E-09
C:/temp/dataset/4/32_25.odb,Step-1,Increment      1: Step Time =    1.000,"PART-1-1",            19,           15.,            0.,            0.,NA,NA,"",   92.9651E-03,  -91.5449E-03,   16.1873E-03,   96.7511E-09
C:/temp/dataset/4/32_25.odb,Step-1,Increment      1: Step Time =    1.000,"PART-1-1",            20,           15.,           7.5,            0.,NA,NA,"",   112.086E-03,  -110.915E-03,   16.1622E-03,   1.73447E-09
C:/temp/dataset/4/32_25.odb,Step-1,Increment      1: Step Time =    1.000,"PART-1-1",            21,           15.,           15.,            0.,NA,NA,"",   131.280E-03,  -130.285E-03,   16.1372E-03,   477.873E-12
C:/temp/dataset/4/32_25.odb,Step-1,Increment      1: Step Time =    1.000,"PART-1-1",            22,           15.,          22.5,            0.,NA,NA,"",   150.519E-03,  -149.654E-03,   16.1121E-03,   95.0569E-12
C:/temp/dataset/4/32_25.odb,Step-1,Increment      1: Step Time =    1.000,"PART-1-1",            23,           15.,           30.,            0.,NA,NA,"",   169.788E-03,  -169.024E-03,   16.0871E-03,   63.2383E-12
C:/temp/dataset/4/32_25.odb,Step-1,Increment      1: Step Time =    1.000,"PART-1-1",            24,            5.,           30.,            0.,NA,NA,"",   169.271E-03,  -168.991E-03,  -9.73939E-03,   58.3040E-12
C:/temp/dataset/4/32_25.odb,Step-1,Increment      1: Step Time =    1.000,"PART-1-1",            25,            5.,         23.75,            0.,NA,NA,"",   153.158E-03,  -152.849E-03,  -9.71855E-03,   138.455E-12
C:/temp/dataset/4/32_25.odb,Step-1,Increment      1: Step Time =    1.000,"PART-1-1",            26,            5.,          17.5,            0.,NA,NA,"",   137.051E-03,  -136.708E-03,  -9.69770E-03,   158.213E-12
C:/temp/dataset/4/32_25.odb,Step-1,Increment      1: Step Time =    1.000,"PART-1-1",            27,            5.,         11.25,            0.,NA,NA,"",   120.954E-03,  -120.566E-03,  -9.67686E-03,   990.195E-12
C:/temp/dataset/4/32_25.odb,Step-1,Increment      1: Step Time =    1.000,"PART-1-1",            28,            5.,            5.,            0.,NA,NA,"",   104.870E-03,  -104.425E-03,  -9.65600E-03,   35.5621E-09
C:/temp/dataset/4/32_25.odb,Step-1,Increment      1: Step Time =    1.000,"PART-1-1",            29,            0.,            5.,            0.,NA,NA,"",   106.819E-03,  -104.408E-03,  -22.5691E-03,   5.91024E-09
C:/temp/dataset/4/32_25.odb,Step-1,Increment      1: Step Time =    1.000,"PART-1-1",            30,           -5.,            5.,            0.,NA,NA,"",   110.257E-03,  -104.391E-03,  -35.4823E-03,   1.47093E-09
C:/temp/dataset/4/32_25.odb,Step-1,Increment      1: Step Time =    1.000,"PART-1-1",            31,           -5.,         11.25,            0.,NA,NA,"",   125.653E-03,  -120.533E-03,  -35.5032E-03,   241.151E-12
C:/temp/dataset/4/32_25.odb,Step-1,Increment      1: Step Time =    1.000,"PART-1-1",            32,           -5.,          17.5,            0.,NA,NA,"",   141.216E-03,  -136.674E-03,  -35.5240E-03,   164.933E-12
C:/temp/dataset/4/32_25.odb,Step-1,Increment      1: Step Time =    1.000,"PART-1-1",            33,           -5.,         23.75,            0.,NA,NA,"",   156.895E-03,  -152.816E-03,  -35.5449E-03,   84.3240E-12
C:/temp/dataset/4/32_25.odb,Step-1,Increment      1: Step Time =    1.000,"PART-1-1",            34,          -7.5,           30.,            0.,NA,NA,"",   174.097E-03,  -168.949E-03,  -42.0223E-03,   85.8477E-12
C:/temp/dataset/4/32_25.odb,Step-1,Increment      1: Step Time =    1.000,"PART-1-1",            35,          -10.,           30.,            0.,NA,NA,"",   175.759E-03,  -168.941E-03,  -48.4789E-03,   64.8015E-12
C:/temp/dataset/4/32_25.odb,Step-1,Increment      1: Step Time =    1.000,"PART-1-1",            36,         -12.5,           30.,            0.,NA,NA,"",   177.640E-03,  -168.932E-03,  -54.9355E-03,   55.7642E-12
C:/temp/dataset/4/32_25.odb,Step-1,Increment      1: Step Time =    1.000,"PART-1-1",            37,          -15.,       27.8125,            0.,NA,NA,"",   174.432E-03,  -163.275E-03,  -61.3849E-03,   93.1158E-12
C:/temp/dataset/4/32_25.odb,Step-1,Increment      1: Step Time =    1.000,"PART-1-1",            38,          -15.,        25.625,            0.,NA,NA,"",   169.153E-03,  -157.625E-03,  -61.3776E-03,   110.476E-12
C:/temp/dataset/4/32_25.odb,Step-1,Increment      1: Step Time =    1.000,"PART-1-1",            39,          -15.,       23.4375,            0.,NA,NA,"",   163.899E-03,  -151.975E-03,  -61.3703E-03,   137.686E-12
C:/temp/dataset/4/32_25.odb,Step-1,Increment      1: Step Time =    1.000,"PART-1-1",            40,          -15.,       19.0625,            0.,NA,NA,"",   153.474E-03,  -140.676E-03,  -61.3557E-03,   199.758E-12
C:/temp/dataset/4/32_25.odb,Step-1,Increment      1: Step Time =    1.000,"PART-1-1",            41,          -15.,        16.875,            0.,NA,NA,"",   148.310E-03,  -135.027E-03,  -61.3484E-03,   232.142E-12
C:/temp/dataset/4/32_25.odb,Step-1,Increment      1: Step Time =    1.000,"PART-1-1",            42,          -15.,       14.6875,            0.,NA,NA,"",   143.182E-03,  -129.377E-03,  -61.3411E-03,   266.970E-12
C:/temp/dataset/4/32_25.odb,Step-1,Increment      1: Step Time =    1.000,"PART-1-1",            43,          -15.,       10.3125,            0.,NA,NA,"",   133.054E-03,  -118.078E-03,  -61.3265E-03,   350.237E-12
C:/temp/dataset/4/32_25.odb,Step-1,Increment      1: Step Time =    1.000,"PART-1-1",            44,          -15.,         8.125,            0.,NA,NA,"",   128.063E-03,  -112.429E-03,  -61.3192E-03,   389.878E-12
C:/temp/dataset/4/32_25.odb,Step-1,Increment      1: Step Time =    1.000,"PART-1-1",            45,          -15.,        5.9375,            0.,NA,NA,"",   123.130E-03,  -106.779E-03,  -61.3119E-03,   396.943E-12
C:/temp/dataset/4/32_25.odb,Step-1,Increment      1: Step Time =    1.000,"PART-1-1",            46,          -15.,        1.5625,            0.,NA,NA,"",   113.463E-03,  -95.4801E-03,  -61.2973E-03,   231.795E-12
C:/temp/dataset/4/32_25.odb,Step-1,Increment      1: Step Time =    1.000,"PART-1-1",            47,          -15.,     -625.E-03,            0.,NA,NA,"",   108.747E-03,  -89.8305E-03,  -61.2900E-03,   116.951E-12
C:/temp/dataset/4/32_25.odb,Step-1,Increment      1: Step Time =    1.000,"PART-1-1",            48,          -15.,       -2.8125,            0.,NA,NA,"",   104.125E-03,  -84.1810E-03,  -61.2827E-03,   59.7933E-12
C:/temp/dataset/4/32_25.odb,Step-1,Increment      1: Step Time =    1.000,"PART-1-1",            49,         -12.5,           -5.,            0.,NA,NA,"",   95.7789E-03,  -78.5398E-03,  -54.8188E-03,   115.443E-12
C:/temp/dataset/4/32_25.odb,Step-1,Increment      1: Step Time =    1.000,"PART-1-1",            50,          -7.5,           -5.,            0.,NA,NA,"",   89.0348E-03,  -78.5565E-03,  -41.9056E-03,   235.793E-12
C:/temp/dataset/4/32_25.odb,Step-1,Increment      1: Step Time =    1.000,"PART-1-1",            51,          -2.5,           -5.,            0.,NA,NA,"",   83.7514E-03,  -78.5731E-03,  -28.9924E-03,   3.63668E-09
C:/temp/dataset/4/32_25.odb,Step-1,Increment      1: Step Time =    1.000,"PART-1-1",            52,           2.5,           -5.,            0.,NA,NA,"",   80.2178E-03,  -78.5898E-03,  -16.0791E-03,   79.2060E-09
C:/temp/dataset/4/32_25.odb,Step-1,Increment      1: Step Time =    1.000,"PART-1-1",            53,            5.,      -7.08333,            0.,NA,NA,"",   73.8479E-03,  -73.2195E-03,  -9.61338E-03,   956.402E-09
C:/temp/dataset/4/32_25.odb,Step-1,Increment      1: Step Time =    1.000,"PART-1-1",            54,            5.,      -9.16667,            0.,NA,NA,"",   68.5210E-03,  -67.8445E-03,  -9.60506E-03,   413.543E-09
C:/temp/dataset/4/32_25.odb,Step-1,Increment      1: Step Time =    1.000,"PART-1-1",            55,            5.,      -13.3333,            0.,NA,NA,"",   57.9201E-03,  -57.1171E-03,  -9.61122E-03,   17.9096E-06
C:/temp/dataset/4/32_25.odb,Step-1,Increment      1: Step Time =    1.000,"PART-1-1",            56,            5.,      -15.4167,            0.,NA,NA,"",   52.6505E-03,  -51.7557E-03,  -9.66582E-03,   53.7829E-06
C:/temp/dataset/4/32_25.odb,Step-1,Increment      1: Step Time =    1.000,"PART-1-1",            57,            5.,      -19.5833,            0.,NA,NA,"",   41.9389E-03,  -40.7005E-03,  -10.1162E-03,   202.449E-06
C:/temp/dataset/4/32_25.odb,Step-1,Increment      1: Step Time =    1.000,"PART-1-1",            58,            5.,      -21.6667,            0.,NA,NA,"",   36.1035E-03,  -34.5315E-03,  -10.5374E-03,   209.404E-06
C:/temp/dataset/4/32_25.odb,Step-1,Increment      1: Step Time =    1.000,"PART-1-1",            59,            5.,      -25.8333,            0.,NA,NA,"",   21.6653E-03,  -19.1607E-03,  -10.1121E-03,   769.001E-06
C:/temp/dataset/4/32_25.odb,Step-1,Increment      1: Step Time =    1.000,"PART-1-1",            60,            5.,      -27.9167,            0.,NA,NA,"",   12.5500E-03,  -10.0382E-03,  -7.53241E-03,   2.66204E-03
C:/temp/dataset/4/32_25.odb,Step-1,Increment      1: Step Time =    1.000,"PART-1-1",            61,           7.5,          -30.,            0.,NA,NA,"",            0.,  -2.08681E-39,  -756.187E-42,   2.01132E-03
C:/temp/dataset/4/32_25.odb,Step-1,Increment      1: Step Time =    1.000,"PART-1-1",            62,           10.,          -30.,            0.,NA,NA,"",            0.,  -1.94503E-39,  -999.339E-42,   2.70480E-03
C:/temp/dataset/4/32_25.odb,Step-1,Increment      1: Step Time =    1.000,"PART-1-1",            63,          12.5,          -30.,            0.,NA,NA,"",            0.,  -3.47309E-39,   1.40115E-39,   3.26862E-03
C:/temp/dataset/4/32_25.odb,Step-1,Increment      1: Step Time =    1.000,"PART-1-1",            64,           15.,         -27.5,            0.,NA,NA,"",   23.5552E-03,  -20.7441E-03,   11.1594E-03,   4.27812E-03
C:/temp/dataset/4/32_25.odb,Step-1,Increment      1: Step Time =    1.000,"PART-1-1",            65,           15.,          -25.,            0.,NA,NA,"",   35.5918E-03,  -32.7582E-03,   13.9168E-03,   2.31681E-03
C:/temp/dataset/4/32_25.odb,Step-1,Increment      1: Step Time =    1.000,"PART-1-1",            66,           15.,          -20.,            0.,NA,NA,"",   43.2628E-03,  -40.3930E-03,   15.4943E-03,   548.375E-06
C:/temp/dataset/4/32_25.odb,Step-1,Increment      1: Step Time =    1.000,"PART-1-1",            67,           15.,         -17.5,            0.,NA,NA,"",   49.0117E-03,  -46.3419E-03,   15.9554E-03,   163.772E-06
C:/temp/dataset/4/32_25.odb,Step-1,Increment      1: Step Time =    1.000,"PART-1-1",            68,           15.,         -12.5,            0.,NA,NA,"",   61.4103E-03,  -59.2290E-03,   16.2220E-03,   10.4906E-06
C:/temp/dataset/4/32_25.odb,Step-1,Increment      1: Step Time =    1.000,"PART-1-1",            69,           15.,          -10.,            0.,NA,NA,"",   67.6795E-03,  -65.7059E-03,   16.2251E-03,   663.023E-09
C:/temp/dataset/4/32_25.odb,Step-1,Increment      1: Step Time =    1.000,"PART-1-1",            70,           15.,           -5.,            0.,NA,NA,"",   80.2836E-03,  -78.6310E-03,   16.2054E-03,   620.342E-09
C:/temp/dataset/4/32_25.odb,Step-1,Increment      1: Step Time =    1.000,"PART-1-1",            71,           15.,          -2.5,            0.,NA,NA,"",   86.6160E-03,  -85.0883E-03,   16.1960E-03,   272.820E-09
C:/temp/dataset/4/32_25.odb,Step-1,Increment      1: Step Time =    1.000,"PART-1-1",            72,           15.,           2.5,            0.,NA,NA,"",   99.3280E-03,  -98.0015E-03,   16.1789E-03,   28.7424E-09
C:/temp/dataset/4/32_25.odb,Step-1,Increment      1: Step Time =    1.000,"PART-1-1",            73,           15.,            5.,            0.,NA,NA,"",   105.702E-03,  -104.458E-03,   16.1705E-03,   4.32429E-09
C:/temp/dataset/4/32_25.odb,Step-1,Increment      1: Step Time =    1.000,"PART-1-1",            74,           15.,           10.,            0.,NA,NA,"",   118.478E-03,  -117.371E-03,   16.1538E-03,   1.91115E-09
C:/temp/dataset/4/32_25.odb,Step-1,Increment      1: Step Time =    1.000,"PART-1-1",            75,           15.,          12.5,            0.,NA,NA,"",   124.876E-03,  -123.828E-03,   16.1455E-03,   1.04242E-09
C:/temp/dataset/4/32_25.odb,Step-1,Increment      1: Step Time =    1.000,"PART-1-1",            76,           15.,          17.5,            0.,NA,NA,"",   137.689E-03,  -136.741E-03,   16.1288E-03,   229.049E-12
C:/temp/dataset/4/32_25.odb,Step-1,Increment      1: Step Time =    1.000,"PART-1-1",            77,           15.,           20.,            0.,NA,NA,"",   144.102E-03,  -143.198E-03,   16.1205E-03,   135.885E-12
C:/temp/dataset/4/32_25.odb,Step-1,Increment      1: Step Time =    1.000,"PART-1-1",            78,           15.,           25.,            0.,NA,NA,"",   156.939E-03,  -156.111E-03,   16.1038E-03,   68.9726E-12
C:/temp/dataset/4/32_25.odb,Step-1,Increment      1: Step Time =    1.000,"PART-1-1",            79,           15.,          27.5,            0.,NA,NA,"",   163.363E-03,  -162.568E-03,   16.0955E-03,   57.6148E-12
C:/temp/dataset/4/32_25.odb,Step-1,Increment      1: Step Time =    1.000,"PART-1-1",            80,          12.5,           30.,            0.,NA,NA,"",   169.290E-03,  -169.016E-03,   9.63050E-03,   85.5237E-12
C:/temp/dataset/4/32_25.odb,Step-1,Increment      1: Step Time =    1.000,"PART-1-1",            81,           10.,           30.,            0.,NA,NA,"",   169.037E-03,  -169.008E-03,   3.17387E-03,   65.9847E-12
C:/temp/dataset/4/32_25.odb,Step-1,Increment      1: Step Time =    1.000,"PART-1-1",            82,           7.5,           30.,            0.,NA,NA,"",   169.031E-03,  -168.999E-03,  -3.28276E-03,   55.9456E-12
C:/temp/dataset/4/32_25.odb,Step-1,Increment      1: Step Time =    1.000,"PART-1-1",            83,            5.,       27.9167,            0.,NA,NA,"",   163.900E-03,  -163.610E-03,  -9.73244E-03,   92.7160E-12
C:/temp/dataset/4/32_25.odb,Step-1,Increment      1: Step Time =    1.000,"PART-1-1",            84,            5.,       25.8333,            0.,NA,NA,"",   158.529E-03,  -158.230E-03,  -9.72549E-03,   110.664E-12
C:/temp/dataset/4/32_25.odb,Step-1,Increment      1: Step Time =    1.000,"PART-1-1",            85,            5.,       21.6667,            0.,NA,NA,"",   147.788E-03,  -147.469E-03,  -9.71160E-03,   166.437E-12
C:/temp/dataset/4/32_25.odb,Step-1,Increment      1: Step Time =    1.000,"PART-1-1",            86,            5.,       19.5833,            0.,NA,NA,"",   142.419E-03,  -142.088E-03,  -9.70465E-03,   182.631E-12
C:/temp/dataset/4/32_25.odb,Step-1,Increment      1: Step Time =    1.000,"PART-1-1",            87,            5.,       15.4167,            0.,NA,NA,"",   131.684E-03,  -131.327E-03,  -9.69075E-03,   72.8193E-12
C:/temp/dataset/4/32_25.odb,Step-1,Increment      1: Step Time =    1.000,"PART-1-1",            88,            5.,       13.3333,            0.,NA,NA,"",   126.319E-03,  -125.947E-03,  -9.68381E-03,   393.489E-12
C:/temp/dataset/4/32_25.odb,Step-1,Increment      1: Step Time =    1.000,"PART-1-1",            89,            5.,       9.16667,            0.,NA,NA,"",   115.591E-03,  -115.186E-03,  -9.66991E-03,   2.17146E-09
C:/temp/dataset/4/32_25.odb,Step-1,Increment      1: Step Time =    1.000,"PART-1-1",            90,            5.,       7.08333,            0.,NA,NA,"",   110.230E-03,  -109.805E-03,  -9.66297E-03,   7.14995E-09
C:/temp/dataset/4/32_25.odb,Step-1,Increment      1: Step Time =    1.000,"PART-1-1",            91,           2.5,            5.,            0.,NA,NA,"",   105.652E-03,  -104.416E-03,  -16.1125E-03,   5.25442E-09
C:/temp/dataset/4/32_25.odb,Step-1,Increment      1: Step Time =    1.000,"PART-1-1",            92,          -2.5,            5.,            0.,NA,NA,"",   108.359E-03,  -104.400E-03,  -29.0257E-03,   3.26102E-09
C:/temp/dataset/4/32_25.odb,Step-1,Increment      1: Step Time =    1.000,"PART-1-1",            93,           -5.,       7.08333,            0.,NA,NA,"",   115.366E-03,  -109.772E-03,  -35.4893E-03,   493.627E-12
C:/temp/dataset/4/32_25.odb,Step-1,Increment      1: Step Time =    1.000,"PART-1-1",            94,           -5.,       9.16667,            0.,NA,NA,"",   120.499E-03,  -115.152E-03,  -35.4962E-03,   221.085E-12
C:/temp/dataset/4/32_25.odb,Step-1,Increment      1: Step Time =    1.000,"PART-1-1",            95,           -5.,       13.3333,            0.,NA,NA,"",   130.825E-03,  -125.913E-03,  -35.5101E-03,   214.735E-12
C:/temp/dataset/4/32_25.odb,Step-1,Increment      1: Step Time =    1.000,"PART-1-1",            96,           -5.,       15.4167,            0.,NA,NA,"",   136.013E-03,  -131.294E-03,  -35.5171E-03,   192.703E-12
C:/temp/dataset/4/32_25.odb,Step-1,Increment      1: Step Time =    1.000,"PART-1-1",            97,           -5.,       19.5833,            0.,NA,NA,"",   146.431E-03,  -142.055E-03,  -35.5310E-03,   136.896E-12
C:/temp/dataset/4/32_25.odb,Step-1,Increment      1: Step Time =    1.000,"PART-1-1",            98,           -5.,       21.6667,            0.,NA,NA,"",   151.658E-03,  -147.435E-03,  -35.5379E-03,   109.420E-12
C:/temp/dataset/4/32_25.odb,Step-1,Increment      1: Step Time =    1.000,"PART-1-1",            99,           -5.,       25.8333,            0.,NA,NA,"",   162.142E-03,  -158.196E-03,  -35.5518E-03,   64.7277E-12
C:/temp/dataset/4/32_25.odb,Step-1,Increment      1: Step Time =    1.000,"PART-1-1",           100,           -5.,       27.9167,            0.,NA,NA,"",   167.397E-03,  -163.577E-03,  -35.5587E-03,   56.5541E-12
C:/temp/dataset/4/32_25.odb,Step-1,Increment      1: Step Time =    1.000,"PART-1-1",           101,       6.93475,       11.1046,            0.,NA,NA,"",   120.288E-03,  -120.197E-03,  -4.67959E-03,   606.160E-12
C:/temp/dataset/4/32_25.odb,Step-1,Increment      1: Step Time =    1.000,"PART-1-1",           102,       7.10183,      -21.7370,            0.,NA,NA,"",   34.6968E-03,  -34.4417E-03,  -4.19942E-03,   224.318E-06
C:/temp/dataset/4/32_25.odb,Step-1,Increment      1: Step Time =    1.000,"PART-1-1",           103,      -7.18606,       25.6133,            0.,NA,NA,"",   162.916E-03,  -157.621E-03,  -41.1969E-03,   55.0454E-12
C:/temp/dataset/4/32_25.odb,Step-1,Increment      1: Step Time =    1.000,"PART-1-1",           104,       7.08931,      -17.4629,            0.,NA,NA,"",   46.6860E-03,  -46.4972E-03,  -4.19499E-03,   78.4977E-06
C:/temp/dataset/4/32_25.odb,Step-1,Increment      1: Step Time =    1.000,"PART-1-1",           105,       7.11844,      -23.8299,            0.,NA,NA,"",   27.4093E-03,  -27.1076E-03,  -4.05535E-03,   788.928E-06
C:/temp/dataset/4/32_25.odb,Step-1,Increment      1: Step Time =    1.000,"PART-1-1",           106,       7.34845,      -27.9642,            0.,NA,NA,"",   8.86221E-03,  -8.65867E-03,  -1.88843E-03,   2.90102E-03
C:/temp/dataset/4/32_25.odb,Step-1,Increment      1: Step Time =    1.000,"PART-1-1",           107,       7.18399,      -25.9216,            0.,NA,NA,"",   18.5252E-03,  -18.2476E-03,  -3.19492E-03,   1.78450E-03
C:/temp/dataset/4/32_25.odb,Step-1,Increment      1: Step Time =    1.000,"PART-1-1",           108,       7.00226,      -10.9532,            0.,NA,NA,"",   63.4033E-03,  -63.2482E-03,  -4.43214E-03,   8.18445E-06
C:/temp/dataset/4/32_25.odb,Step-1,Increment      1: Step Time =    1.000,"PART-1-1",           109,       6.93148,       25.8450,            0.,NA,NA,"",   158.337E-03,  -158.267E-03,  -4.73718E-03,   85.7506E-12
C:/temp/dataset/4/32_25.odb,Step-1,Increment      1: Step Time =    1.000,"PART-1-1",           110,       6.95256,       21.7727,            0.,NA,NA,"",   147.823E-03,  -147.749E-03,  -4.66916E-03,   113.775E-12
C:/temp/dataset/4/32_25.odb,Step-1,Increment      1: Step Time =    1.000,"PART-1-1",           111,       6.99069,       19.6693,            0.,NA,NA,"",   142.390E-03,  -142.317E-03,  -4.56369E-03,   125.844E-12
C:/temp/dataset/4/32_25.odb,Step-1,Increment      1: Step Time =    1.000,"PART-1-1",           112,       6.98342,       13.2435,            0.,NA,NA,"",   125.804E-03,  -125.721E-03,  -4.56102E-03,   502.840E-12
C:/temp/dataset/4/32_25.odb,Step-1,Increment      1: Step Time =    1.000,"PART-1-1",           113,       6.84904,       8.98858,            0.,NA,NA,"",   114.836E-03,  -114.732E-03,  -4.89388E-03,   1.55894E-09
C:/temp/dataset/4/32_25.odb,Step-1,Increment      1: Step Time =    1.000,"PART-1-1",           114,      -7.00061,       11.3966,            0.,NA,NA,"",   127.562E-03,  -120.905E-03,  -40.6705E-03,   145.237E-12
C:/temp/dataset/4/32_25.odb,Step-1,Increment      1: Step Time =    1.000,"PART-1-1",           115,      -6.87185,       17.5946,            0.,NA,NA,"",   142.737E-03,  -136.912E-03,  -40.3586E-03,   101.464E-12
C:/temp/dataset/4/32_25.odb,Step-1,Increment      1: Step Time =    1.000,"PART-1-1",           116,      -6.78696,       21.5686,            0.,NA,NA,"",   152.555E-03,  -147.176E-03,  -40.1527E-03,   74.0637E-12
C:/temp/dataset/4/32_25.odb,Step-1,Increment      1: Step Time =    1.000,"PART-1-1",           117,      -6.92081,       23.5666,            0.,NA,NA,"",   157.629E-03,  -152.336E-03,  -40.5050E-03,   61.4471E-12
C:/temp/dataset/4/32_25.odb,Step-1,Increment      1: Step Time =    1.000,"PART-1-1",           118,      -7.47694,       27.7553,            0.,NA,NA,"",   168.460E-03,  -163.152E-03,  -41.9553E-03,   61.3855E-12
C:/temp/dataset/4/32_25.odb,Step-1,Increment      1: Step Time =    1.000,"PART-1-1",           119,       6.62973,      -6.72562,            0.,NA,NA,"",   74.3450E-03,  -74.1480E-03,  -5.40772E-03,   164.292E-09
C:/temp/dataset/4/32_25.odb,Step-1,Increment      1: Step Time =    1.000,"PART-1-1",           120,       7.00244,       17.5390,            0.,NA,NA,"",   136.890E-03,  -136.815E-03,  -4.52624E-03,   161.578E-12
C:/temp/dataset/4/32_25.odb,Step-1,Increment      1: Step Time =    1.000,"PART-1-1",           121,       7.05765,      -13.1226,            0.,NA,NA,"",   57.8307E-03,  -57.6719E-03,  -4.28198E-03,   23.5162E-06
C:/temp/dataset/4/32_25.odb,Step-1,Increment      1: Step Time =    1.000,"PART-1-1",           122,      -6.97858,       13.4860,            0.,NA,NA,"",   132.672E-03,  -126.301E-03,  -40.6206E-03,   131.237E-12
C:/temp/dataset/4/32_25.odb,Step-1,Increment      1: Step Time =    1.000,"PART-1-1",           123,      -7.06135,       7.11796,            0.,NA,NA,"",   117.191E-03,  -109.854E-03,  -40.8131E-03,   269.562E-12
C:/temp/dataset/4/32_25.odb,Step-1,Increment      1: Step Time =    1.000,"PART-1-1",           124,       6.87626,      -8.81940,            0.,NA,NA,"",   68.9110E-03,  -68.7461E-03,  -4.76432E-03,   1.96958E-06
C:/temp/dataset/4/32_25.odb,Step-1,Increment      1: Step Time =    1.000,"PART-1-1",           125,       7.08495,      -15.2974,            0.,NA,NA,"",   52.2613E-03,  -52.0918E-03,  -4.20536E-03,   52.1816E-06
C:/temp/dataset/4/32_25.odb,Step-1,Increment      1: Step Time =    1.000,"PART-1-1",           126,       7.00715,       15.3887,            0.,NA,NA,"",   131.339E-03,  -131.262E-03,  -4.50688E-03,   287.869E-12
C:/temp/dataset/4/32_25.odb,Step-1,Increment      1: Step Time =    1.000,"PART-1-1",           127,      -7.01992,       9.30136,            0.,NA,NA,"",   122.459E-03,  -115.493E-03,  -40.7134E-03,   199.074E-12
C:/temp/dataset/4/32_25.odb,Step-1,Increment      1: Step Time =    1.000,"PART-1-1",           128,      -6.93369,       15.5639,            0.,NA,NA,"",   137.759E-03,  -131.668E-03,  -40.5116E-03,   115.200E-12
C:/temp/dataset/4/32_25.odb,Step-1,Increment      1: Step Time =    1.000,"PART-1-1",           129,      -6.79206,       19.5889,            0.,NA,NA,"",   147.630E-03,  -142.063E-03,  -40.1592E-03,   88.1250E-12
C:/temp/dataset/4/32_25.odb,Step-1,Increment      1: Step Time =    1.000,"PART-1-1",           130,       7.09662,      -19.6136,            0.,NA,NA,"",   40.9477E-03,  -40.7323E-03,  -4.19461E-03,   50.1417E-06
C:/temp/dataset/4/32_25.odb,Step-1,Increment      1: Step Time =    1.000,"PART-1-1",           131,       6.89670,       23.8203,            0.,NA,NA,"",   153.113E-03,  -153.037E-03,  -4.82027E-03,   101.127E-12
C:/temp/dataset/4/32_25.odb,Step-1,Increment      1: Step Time =    1.000,"PART-1-1",           132,       6.67676,       6.98748,            0.,NA,NA,"",   109.693E-03,  -109.563E-03,  -5.33216E-03,   10.7744E-09
C:/temp/dataset/4/32_25.odb,Step-1,Increment      1: Step Time =    1.000,"PART-1-1",           133,      -13.0361,       12.2042,            0.,NA,NA,"",   135.229E-03,  -122.970E-03,  -56.2609E-03,   200.911E-12
C:/temp/dataset/4/32_25.odb,Step-1,Increment      1: Step Time =    1.000,"PART-1-1",           134,      -13.0483,       3.72302,            0.,NA,NA,"",   115.672E-03,  -101.066E-03,  -56.2639E-03,   242.532E-12
C:/temp/dataset/4/32_25.odb,Step-1,Increment      1: Step Time =    1.000,"PART-1-1",           135,      -13.0740,       10.0823,            0.,NA,NA,"",   130.305E-03,  -117.490E-03,  -56.3517E-03,   222.690E-12
C:/temp/dataset/4/32_25.odb,Step-1,Increment      1: Step Time =    1.000,"PART-1-1",           136,      -13.0017,       14.3509,            0.,NA,NA,"",   140.257E-03,  -128.515E-03,  -56.1790E-03,   179.371E-12
C:/temp/dataset/4/32_25.odb,Step-1,Increment      1: Step Time =    1.000,"PART-1-1",           137,      -12.4480,       21.2307,            0.,NA,NA,"",   156.202E-03,  -146.285E-03,  -54.7720E-03,   109.917E-12
C:/temp/dataset/4/32_25.odb,Step-1,Increment      1: Step Time =    1.000,"PART-1-1",           138,      -13.0426,       25.7965,            0.,NA,NA,"",   167.809E-03,  -158.074E-03,  -56.3228E-03,   85.4472E-12
C:/temp/dataset/4/32_25.odb,Step-1,Increment      1: Step Time =    1.000,"PART-1-1",           139,      -12.9478,       23.6552,            0.,NA,NA,"",   162.523E-03,  -152.545E-03,  -56.0708E-03,   100.883E-12
C:/temp/dataset/4/32_25.odb,Step-1,Increment      1: Step Time =    1.000,"PART-1-1",           140,      -12.8307,       18.7376,            0.,NA,NA,"",   150.548E-03,  -139.844E-03,  -55.7520E-03,   136.237E-12
C:/temp/dataset/4/32_25.odb,Step-1,Increment      1: Step Time =    1.000,"PART-1-1",           141,      -12.9472,       16.5227,            0.,NA,NA,"",   145.363E-03,  -134.124E-03,  -56.0456E-03,   158.116E-12
C:/temp/dataset/4/32_25.odb,Step-1,Increment      1: Step Time =    1.000,"PART-1-1",           142,      -13.1112,       7.97345,            0.,NA,NA,"",   125.456E-03,  -112.044E-03,  -56.4405E-03,   238.865E-12
C:/temp/dataset/4/32_25.odb,Step-1,Increment      1: Step Time =    1.000,"PART-1-1",           143,      -13.1276,       5.86243,            0.,NA,NA,"",   120.629E-03,  -106.592E-03,  -56.4760E-03,   246.571E-12
C:/temp/dataset/4/32_25.odb,Step-1,Increment      1: Step Time =    1.000,"PART-1-1",           144,      -12.8109,       1.56310,            0.,NA,NA,"",   110.519E-03,  -95.4889E-03,  -55.6437E-03,   228.016E-12
C:/temp/dataset/4/32_25.odb,Step-1,Increment      1: Step Time =    1.000,"PART-1-1",           145,      -12.5511,  -622.366E-03,            0.,NA,NA,"",   105.325E-03,  -89.8455E-03,  -54.9655E-03,   189.136E-12
C:/temp/dataset/4/32_25.odb,Step-1,Increment      1: Step Time =    1.000,"PART-1-1",           146,      -7.69124,      -3.05836,            0.,NA,NA,"",   93.7138E-03,  -83.5704E-03,  -42.4060E-03,   287.968E-12
C:/temp/dataset/4/32_25.odb,Step-1,Increment      1: Step Time =    1.000,"PART-1-1",           147,      -2.59391,      -3.27074,            0.,NA,NA,"",   88.0368E-03,  -83.0389E-03,  -29.2407E-03,   2.70865E-09
C:/temp/dataset/4/32_25.odb,Step-1,Increment      1: Step Time =    1.000,"PART-1-1",           148,      -2.06699,       2.95135,            0.,NA,NA,"",   102.962E-03,  -99.1101E-03,  -27.9006E-03,   1.84468E-09
C:/temp/dataset/4/32_25.odb,Step-1,Increment      1: Step Time =    1.000,"PART-1-1",           149,       1.86882,      -3.06513,            0.,NA,NA,"",   85.4416E-03,  -83.5848E-03,  -17.7157E-03,   46.5025E-09
C:/temp/dataset/4/32_25.odb,Step-1,Increment      1: Step Time =    1.000,"PART-1-1",           150,       2.79073,       3.02834,            0.,NA,NA,"",   100.505E-03,  -99.3251E-03,  -15.3551E-03,   19.7230E-09
C:/temp/dataset/4/32_25.odb,Step-1,Increment      1: Step Time =    1.000,"PART-1-1",           151,       12.5379,       2.72923,            0.,NA,NA,"",   99.0731E-03,  -98.5853E-03,   9.81929E-03,   42.0838E-09
C:/temp/dataset/4/32_25.odb,Step-1,Increment      1: Step Time =    1.000,"PART-1-1",           152,       12.9313,       10.2835,            0.,NA,NA,"",   118.590E-03,  -118.096E-03,   10.8103E-03,   485.574E-12
C:/temp/dataset/4/32_25.odb,Step-1,Increment      1: Step Time =    1.000,"PART-1-1",           153,       12.7723,       24.8557,            0.,NA,NA,"",   156.075E-03,  -155.731E-03,   10.3510E-03,   56.4343E-12
C:/temp/dataset/4/32_25.odb,Step-1,Increment      1: Step Time =    1.000,"PART-1-1",           154,       12.5268,       27.4001,            0.,NA,NA,"",   162.591E-03,  -162.301E-03,   9.70839E-03,   58.1666E-12
C:/temp/dataset/4/32_25.odb,Step-1,Increment      1: Step Time =    1.000,"PART-1-1",           155,       12.7627,      -5.01238,            0.,NA,NA,"",   79.2803E-03,  -78.5918E-03,   10.4257E-03,   261.763E-09
C:/temp/dataset/4/32_25.odb,Step-1,Increment      1: Step Time =    1.000,"PART-1-1",           156,       13.0118,      -12.5921,            0.,NA,NA,"",   60.0123E-03,  -58.9781E-03,   11.0933E-03,   17.8908E-06
C:/temp/dataset/4/32_25.odb,Step-1,Increment      1: Step Time =    1.000,"PART-1-1",           157,       9.69976,      -27.8547,            0.,NA,NA,"",   9.69317E-03,  -9.69171E-03,   168.556E-06,   3.08004E-03
C:/temp/dataset/4/32_25.odb,Step-1,Increment      1: Step Time =    1.000,"PART-1-1",           158,       13.0855,      -17.4497,            0.,NA,NA,"",   47.7332E-03,  -46.3796E-03,   11.2867E-03,   87.9954E-06
C:/temp/dataset/4/32_25.odb,Step-1,Increment      1: Step Time =    1.000,"PART-1-1",           159,       12.9366,       22.3763,            0.,NA,NA,"",   149.717E-03,  -149.328E-03,   10.7836E-03,   66.2884E-12
C:/temp/dataset/4/32_25.odb,Step-1,Increment      1: Step Time =    1.000,"PART-1-1",           160,       13.0248,       17.5365,            0.,NA,NA,"",   137.272E-03,  -136.829E-03,   11.0275E-03,   159.438E-12
C:/temp/dataset/4/32_25.odb,Step-1,Increment      1: Step Time =    1.000,"PART-1-1",           161,      -10.1545,       27.3700,            0.,NA,NA,"",   169.352E-03,  -162.148E-03,  -48.8692E-03,   77.8286E-12
C:/temp/dataset/4/32_25.odb,Step-1,Increment      1: Step Time =    1.000,"PART-1-1",           162,      -10.0546,      -2.87755,            0.,NA,NA,"",   97.0268E-03,  -84.0295E-03,  -48.5102E-03,   163.530E-12
C:/temp/dataset/4/32_25.odb,Step-1,Increment      1: Step Time =    1.000,"PART-1-1",           163,      -5.07747,      -2.66322,            0.,NA,NA,"",   91.8069E-03,  -84.5996E-03,  -35.6569E-03,   1.15520E-09
C:/temp/dataset/4/32_25.odb,Step-1,Increment      1: Step Time =    1.000,"PART-1-1",           164,  -330.659E-03,      -3.26262,            0.,NA,NA,"",   86.2992E-03,  -83.0674E-03,  -23.3955E-03,   11.0426E-09
C:/temp/dataset/4/32_25.odb,Step-1,Increment      1: Step Time =    1.000,"PART-1-1",           165,       3.93161,      -2.75002,            0.,NA,NA,"",   85.3099E-03,  -84.4055E-03,  -12.3892E-03,   83.3720E-09
C:/temp/dataset/4/32_25.odb,Step-1,Increment      1: Step Time =    1.000,"PART-1-1",           166,       12.9585,      -10.1304,            0.,NA,NA,"",   66.2719E-03,  -65.3612E-03,   10.9489E-03,   5.00976E-06
C:/temp/dataset/4/32_25.odb,Step-1,Increment      1: Step Time =    1.000,"PART-1-1",           167,       13.1106,      -19.8561,            0.,NA,NA,"",   42.0057E-03,  -40.4354E-03,   11.3781E-03,   232.210E-06
C:/temp/dataset/4/32_25.odb,Step-1,Increment      1: Step Time =    1.000,"PART-1-1",           168,       12.2637,      -27.1930,            0.,NA,NA,"",   17.0089E-03,  -16.6591E-03,   3.43208E-03,   3.89388E-03
C:/temp/dataset/4/32_25.odb,Step-1,Increment      1: Step Time =    1.000,"PART-1-1",           169,       13.0974,      -22.2394,            0.,NA,NA,"",   37.7074E-03,  -36.0266E-03,   11.1326E-03,   1.19945E-03
C:/temp/dataset/4/32_25.odb,Step-1,Increment      1: Step Time =    1.000,"PART-1-1",           170,       13.0625,      -15.0302,            0.,NA,NA,"",   53.8200E-03,  -52.6351E-03,   11.2311E-03,   52.9952E-06
C:/temp/dataset/4/32_25.odb,Step-1,Increment      1: Step Time =    1.000,"PART-1-1",           171,       12.8638,      -7.61343,            0.,NA,NA,"",   72.6632E-03,  -71.8717E-03,   10.6956E-03,   670.259E-09
C:/temp/dataset/4/32_25.odb,Step-1,Increment      1: Step Time =    1.000,"PART-1-1",           172,       12.8109,      -2.41519,            0.,NA,NA,"",   85.9490E-03,  -85.3001E-03,   10.5414E-03,   210.799E-09
C:/temp/dataset/4/32_25.odb,Step-1,Increment      1: Step Time =    1.000,"PART-1-1",           173,       12.7001,   168.481E-03,            0.,NA,NA,"",   92.5414E-03,  -91.9724E-03,   10.2467E-03,   100.279E-09
C:/temp/dataset/4/32_25.odb,Step-1,Increment      1: Step Time =    1.000,"PART-1-1",           174,       12.6773,       5.28127,            0.,NA,NA,"",   105.667E-03,  -105.177E-03,   10.1707E-03,   13.5528E-09
C:/temp/dataset/4/32_25.odb,Step-1,Increment      1: Step Time =    1.000,"PART-1-1",           175,       12.8405,       7.80961,            0.,NA,NA,"",   112.207E-03,  -111.707E-03,   10.5840E-03,   2.56744E-09
C:/temp/dataset/4/32_25.odb,Step-1,Increment      1: Step Time =    1.000,"PART-1-1",           176,       12.9955,       12.7023,            0.,NA,NA,"",   124.826E-03,  -124.344E-03,   10.9680E-03,   586.195E-12
C:/temp/dataset/4/32_25.odb,Step-1,Increment      1: Step Time =    1.000,"PART-1-1",           177,       13.0102,       19.9477,            0.,NA,NA,"",   143.477E-03,  -143.056E-03,   10.9816E-03,   90.9187E-12
C:/temp/dataset/4/32_25.odb,Step-1,Increment      1: Step Time =    1.000,"PART-1-1",           178,       9.88408,       27.1269,            0.,NA,NA,"",   161.613E-03,  -161.587E-03,   2.88406E-03,   78.0878E-12
C:/temp/dataset/4/32_25.odb,Step-1,Increment      1: Step Time =    1.000,"PART-1-1",           179,       13.0301,       15.1161,            0.,NA,NA,"",   131.044E-03,  -130.578E-03,   11.0492E-03,   335.012E-12
C:/temp/dataset/4/32_25.odb,Step-1,Increment      1: Step Time =    1.000,"PART-1-1",           180,   300.490E-03,       3.00528,            0.,NA,NA,"",   101.620E-03,  -99.2573E-03,  -21.7864E-03,   2.31523E-09
C:/temp/dataset/4/32_25.odb,Step-1,Increment      1: Step Time =    1.000,"PART-1-1",           181,      -4.18418,       2.89078,            0.,NA,NA,"",   104.422E-03,  -98.9466E-03,  -33.3683E-03,   1.28782E-09
C:/temp/dataset/4/32_25.odb,Step-1,Increment      1: Step Time =    1.000,"PART-1-1",           182,      -8.75093,       23.2164,            0.,NA,NA,"",   158.036E-03,  -151.425E-03,  -45.2304E-03,   64.8173E-12
C:/temp/dataset/4/32_25.odb,Step-1,Increment      1: Step Time =    1.000,"PART-1-1",           183,       9.13120,      -23.8882,            0.,NA,NA,"",   27.5559E-03,  -27.5434E-03,   829.823E-06,   1.22734E-03
C:/temp/dataset/4/32_25.odb,Step-1,Increment      1: Step Time =    1.000,"PART-1-1",           184,       8.76025,       8.63504,            0.,NA,NA,"",   113.825E-03,  -113.825E-03,   43.2694E-06,   2.51825E-09
C:/temp/dataset/4/32_25.odb,Step-1,Increment      1: Step Time =    1.000,"PART-1-1",           185,       8.81891,       23.9948,            0.,NA,NA,"",   153.494E-03,  -153.494E-03,   143.563E-06,   80.3937E-12
C:/temp/dataset/4/32_25.odb,Step-1,Increment      1: Step Time =    1.000,"PART-1-1",           186,       9.00734,       17.5557,            0.,NA,NA,"",   136.867E-03,  -136.865E-03,   651.672E-06,   164.802E-12
C:/temp/dataset/4/32_25.odb,Step-1,Increment      1: Step Time =    1.000,"PART-1-1",           187,      -8.59230,       19.6811,            0.,NA,NA,"",   149.184E-03,  -142.295E-03,  -44.8089E-03,   65.4877E-12
C:/temp/dataset/4/32_25.odb,Step-1,Increment      1: Step Time =    1.000,"PART-1-1",           188,       9.06266,      -12.9142,            0.,NA,NA,"",   58.1976E-03,  -58.1903E-03,   926.105E-06,   25.6684E-06
C:/temp/dataset/4/32_25.odb,Step-1,Increment      1: Step Time =    1.000,"PART-1-1",           189,       9.13987,      -19.6571,            0.,NA,NA,"",   40.7371E-03,  -40.7125E-03,   1.41663E-03,   99.1790E-06
C:/temp/dataset/4/32_25.odb,Step-1,Increment      1: Step Time =    1.000,"PART-1-1",           190,       9.00941,       15.3265,            0.,NA,NA,"",   131.109E-03,  -131.108E-03,   664.450E-06,   342.227E-12
C:/temp/dataset/4/32_25.odb,Step-1,Increment      1: Step Time =    1.000,"PART-1-1",           191,      -8.96967,       13.7142,            0.,NA,NA,"",   134.884E-03,  -126.884E-03,  -45.7636E-03,   71.5012E-12
C:/temp/dataset/4/32_25.odb,Step-1,Increment      1: Step Time =    1.000,"PART-1-1",           192,       9.12973,      -17.4386,            0.,NA,NA,"",   46.5511E-03,  -46.5334E-03,   1.28440E-03,   86.8218E-06
C:/temp/dataset/4/32_25.odb,Step-1,Increment      1: Step Time =    1.000,"PART-1-1",           193,       8.94484,       21.9321,            0.,NA,NA,"",   148.168E-03,  -148.168E-03,   475.668E-06,   81.3513E-12
C:/temp/dataset/4/32_25.odb,Step-1,Increment      1: Step Time =    1.000,"PART-1-1",           194,      -8.78258,       17.8115,            0.,NA,NA,"",   144.736E-03,  -137.466E-03,  -45.2941E-03,   66.9909E-12
C:/temp/dataset/4/32_25.odb,Step-1,Increment      1: Step Time =    1.000,"PART-1-1",           195,       8.90333,       10.8666,            0.,NA,NA,"",   119.590E-03,  -119.589E-03,   405.365E-06,   715.045E-12
C:/temp/dataset/4/32_25.odb,Step-1,Increment      1: Step Time =    1.000,"PART-1-1",           196,      -9.00437,       11.6266,            0.,NA,NA,"",   129.854E-03,  -121.492E-03,  -45.8463E-03,   76.9681E-12
C:/temp/dataset/4/32_25.odb,Step-1,Increment      1: Step Time =    1.000,"PART-1-1",           197,      -9.03622,       9.53759,            0.,NA,NA,"",   124.849E-03,  -116.097E-03,  -45.9216E-03,   66.2759E-12
C:/temp/dataset/4/32_25.odb,Step-1,Increment      1: Step Time =    1.000,"PART-1-1",           198,       8.99264,      -10.6281,            0.,NA,NA,"",   64.0870E-03,  -64.0830E-03,   714.012E-06,   8.67206E-06
C:/temp/dataset/4/32_25.odb,Step-1,Increment      1: Step Time =    1.000,"PART-1-1",           199,       8.82192,      -8.34759,            0.,NA,NA,"",   69.9678E-03,  -69.9673E-03,   259.068E-06,   2.12052E-06
C:/temp/dataset/4/32_25.odb,Step-1,Increment      1: Step Time =    1.000,"PART-1-1",           200,       8.98411,       13.0928,            0.,NA,NA,"",   125.340E-03,  -125.339E-03,   606.554E-06,   592.727E-12
C:/temp/dataset/4/32_25.odb,Step-1,Increment      1: Step Time =    1.000,"PART-1-1",           201,       7.30685,       27.8134,            0.,NA,NA,"",   163.395E-03,  -163.351E-03,  -3.77432E-03,   71.3089E-12
C:/temp/dataset/4/32_25.odb,Step-1,Increment      1: Step Time =    1.000,"PART-1-1",           202,      -8.46063,       21.4565,            0.,NA,NA,"",   153.467E-03,  -146.881E-03,  -44.4748E-03,   63.8792E-12
C:/temp/dataset/4/32_25.odb,Step-1,Increment      1: Step Time =    1.000,"PART-1-1",           203,       9.11250,      -15.1896,            0.,NA,NA,"",   52.3434E-03,  -52.3314E-03,   1.12159E-03,   57.7389E-06
C:/temp/dataset/4/32_25.odb,Step-1,Increment      1: Step Time =    1.000,"PART-1-1",           204,       9.14200,      -21.8221,            0.,NA,NA,"",   34.5931E-03,  -34.5677E-03,   1.32603E-03,   459.761E-06
C:/temp/dataset/4/32_25.odb,Step-1,Increment      1: Step Time =    1.000,"PART-1-1",           205,      -8.90436,       15.8055,            0.,NA,NA,"",   139.925E-03,  -132.285E-03,  -45.6019E-03,   68.7320E-12
C:/temp/dataset/4/32_25.odb,Step-1,Increment      1: Step Time =    1.000,"PART-1-1",           206,       9.00445,       19.7587,            0.,NA,NA,"",   142.556E-03,  -142.555E-03,   636.862E-06,   93.7627E-12
C:/temp/dataset/4/32_25.odb,Step-1,Increment      1: Step Time =    1.000,"PART-1-1",           207,       8.39742,      -6.16188,            0.,NA,NA,"",   75.6137E-03,  -75.6090E-03,  -845.301E-06,   347.239E-09
C:/temp/dataset/4/32_25.odb,Step-1,Increment      1: Step Time =    1.000,"PART-1-1",           208,      -9.10294,       7.45394,            0.,NA,NA,"",   119.924E-03,  -110.715E-03,  -46.0869E-03,   73.1479E-12
C:/temp/dataset/4/32_25.odb,Step-1,Increment      1: Step Time =    1.000,"PART-1-1",           209,       8.43260,       6.43235,            0.,NA,NA,"",   108.138E-03,  -108.135E-03,  -795.583E-06,   13.2275E-09
C:/temp/dataset/4/32_25.odb,Step-1,Increment      1: Step Time =    1.000,"PART-1-1",           210,       5.64784,       2.93298,            0.,NA,NA,"",   99.4089E-03,  -99.0884E-03,  -7.97596E-03,   25.2190E-09
C:/temp/dataset/4/32_25.odb,Step-1,Increment      1: Step Time =    1.000,"PART-1-1",           211,      -10.7213,       1.88644,            0.,NA,NA,"",   108.649E-03,  -96.3310E-03,  -50.2480E-03,   290.217E-12
C:/temp/dataset/4/32_25.odb,Step-1,Increment      1: Step Time =    1.000,"PART-1-1",           212,      -12.7178,       27.8380,            0.,NA,NA,"",   172.516E-03,  -163.348E-03,  -55.4909E-03,   70.2675E-12
C:/temp/dataset/4/32_25.odb,Step-1,Increment      1: Step Time =    1.000,"PART-1-1",           213,      -11.0298,       24.2524,            0.,NA,NA,"",   162.351E-03,  -154.093E-03,  -51.1193E-03,   80.5995E-12
C:/temp/dataset/4/32_25.odb,Step-1,Increment      1: Step Time =    1.000,"PART-1-1",           214,      -10.4500,       20.0822,            0.,NA,NA,"",   151.668E-03,  -143.325E-03,  -49.6080E-03,   79.9144E-12
C:/temp/dataset/4/32_25.odb,Step-1,Increment      1: Step Time =    1.000,"PART-1-1",           215,      -10.9919,       14.0243,            0.,NA,NA,"",   137.482E-03,  -127.678E-03,  -50.9874E-03,   99.7792E-12
C:/temp/dataset/4/32_25.odb,Step-1,Increment      1: Step Time =    1.000,"PART-1-1",           216,      -11.0796,       9.82104,            0.,NA,NA,"",   127.549E-03,  -116.822E-03,  -51.1999E-03,   107.400E-12
C:/temp/dataset/4/32_25.odb,Step-1,Increment      1: Step Time =    1.000,"PART-1-1",           217,      -11.0365,       11.9204,            0.,NA,NA,"",   132.493E-03,  -122.244E-03,  -51.0955E-03,   104.994E-12
C:/temp/dataset/4/32_25.odb,Step-1,Increment      1: Step Time =    1.000,"PART-1-1",           218,      -10.5491,       22.5446,            0.,NA,NA,"",   157.774E-03,  -149.684E-03,  -49.8721E-03,   78.2899E-12
C:/temp/dataset/4/32_25.odb,Step-1,Increment      1: Step Time =    1.000,"PART-1-1",           219,      -10.9277,       16.1478,            0.,NA,NA,"",   142.533E-03,  -133.162E-03,  -50.8286E-03,   94.3787E-12
C:/temp/dataset/4/32_25.odb,Step-1,Increment      1: Step Time =    1.000,"PART-1-1",           220,      -10.7891,       18.2216,            0.,NA,NA,"",   147.429E-03,  -138.519E-03,  -50.4776E-03,   87.6309E-12
C:/temp/dataset/4/32_25.odb,Step-1,Increment      1: Step Time =    1.000,"PART-1-1",           221,      -11.1555,       7.76515,            0.,NA,NA,"",   122.783E-03,  -111.512E-03,  -51.3889E-03,   122.502E-12
C:/temp/dataset/4/32_25.odb,Step-1,Increment      1: Step Time =    1.000,"PART-1-1",           222,      -9.80329,       4.04682,            0.,NA,NA,"",   112.602E-03,  -101.914E-03,  -47.8843E-03,   253.837E-12
C:/temp/dataset/4/32_25.odb,Step-1,Increment      1: Step Time =    1.000,"PART-1-1",           223,       9.22674,      -25.9093,            0.,NA,NA,"",   18.9570E-03,  -18.9543E-03,   318.213E-06,   2.25488E-03
C:/temp/dataset/4/32_25.odb,Step-1,Increment      1: Step Time =    1.000,"PART-1-1",           224,      -9.21421,       25.1107,            0.,NA,NA,"",   163.067E-03,  -156.316E-03,  -46.4332E-03,   69.9612E-12
C:/temp/dataset/4/32_25.odb,Step-1,Increment      1: Step Time =    1.000,"PART-1-1",           225,       6.25241,      -4.60112,            0.,NA,NA,"",   79.8883E-03,  -79.6324E-03,  -6.38923E-03,   349.222E-09
C:/temp/dataset/4/32_25.odb,Step-1,Increment      1: Step Time =    1.000,"PART-1-1",           226,      -7.19550,       4.55405,            0.,NA,NA,"",   111.132E-03,  -103.232E-03,  -41.1510E-03,   482.989E-12
C:/temp/dataset/4/32_25.odb,Step-1,Increment      1: Step Time =    1.000,"PART-1-1",           227,       12.9551,      -24.6090,            0.,NA,NA,"",   31.2728E-03,  -30.1351E-03,   8.35864E-03,   2.99645E-03
C:/temp/dataset/4/32_25.odb,Step-1,Increment      1: Step Time =    1.000,"PART-1-1",           228,       10.9241,       22.1645,            0.,NA,NA,"",   148.879E-03,  -148.774E-03,   5.58669E-03,   63.9780E-12
C:/temp/dataset/4/32_25.odb,Step-1,Increment      1: Step Time =    1.000,"PART-1-1",           229,      -4.91288,   464.762E-03,            0.,NA,NA,"",   99.1531E-03,  -92.6786E-03,  -35.2422E-03,   1.37945E-09
C:/temp/dataset/4/32_25.odb,Step-1,Increment      1: Step Time =    1.000,"PART-1-1",           230,  -831.143E-03,      -1.35374,            0.,NA,NA,"",   91.3951E-03,  -87.9957E-03,  -24.6945E-03,   3.55654E-09
C:/temp/dataset/4/32_25.odb,Step-1,Increment      1: Step Time =    1.000,"PART-1-1",           231,       11.1616,      -19.7398,            0.,NA,NA,"",   41.2006E-03,  -40.6547E-03,   6.68464E-03,   148.666E-06
C:/temp/dataset/4/32_25.odb,Step-1,Increment      1: Step Time =    1.000,"PART-1-1",           232,       10.9730,      -10.3410,            0.,NA,NA,"",   65.0788E-03,  -64.8175E-03,   5.82664E-03,   7.44800E-06
C:/temp/dataset/4/32_25.odb,Step-1,Increment      1: Step Time =    1.000,"PART-1-1",           233,       10.4844,      -5.04269,            0.,NA,NA,"",   78.6372E-03,  -78.5060E-03,   4.54078E-03,   298.098E-09
C:/temp/dataset/4/32_25.odb,Step-1,Increment      1: Step Time =    1.000,"PART-1-1",           234,       10.9074,       10.5689,            0.,NA,NA,"",   118.958E-03,  -118.827E-03,   5.58220E-03,   672.253E-12
C:/temp/dataset/4/32_25.odb,Step-1,Increment      1: Step Time =    1.000,"PART-1-1",           235,       11.0515,      -12.7377,            0.,NA,NA,"",   58.9282E-03,  -58.6159E-03,   6.05898E-03,   23.8491E-06
C:/temp/dataset/4/32_25.odb,Step-1,Increment      1: Step Time =    1.000,"PART-1-1",           236,       10.9936,       12.8990,            0.,NA,NA,"",   124.980E-03,  -124.845E-03,   5.79691E-03,   534.659E-12
C:/temp/dataset/4/32_25.odb,Step-1,Increment      1: Step Time =    1.000,"PART-1-1",           237,      -9.84553,  -403.770E-03,            0.,NA,NA,"",   102.360E-03,  -90.4191E-03,  -47.9786E-03,   258.420E-12
C:/temp/dataset/4/32_25.odb,Step-1,Increment      1: Step Time =    1.000,"PART-1-1",           238,      -6.42098,  -599.403E-03,            0.,NA,NA,"",   98.0713E-03,  -89.9253E-03,  -39.1335E-03,   838.852E-12
C:/temp/dataset/4/32_25.odb,Step-1,Increment      1: Step Time =    1.000,"PART-1-1",           239,      -2.35214,      -1.85066,            0.,NA,NA,"",   91.3089E-03,  -86.7073E-03,  -28.6210E-03,   1.84124E-09
C:/temp/dataset/4/32_25.odb,Step-1,Increment      1: Step Time =    1.000,"PART-1-1",           240,       11.1625,      -21.9830,            0.,NA,NA,"",   35.6907E-03,  -35.1066E-03,   6.43077E-03,   722.646E-06
C:/temp/dataset/4/32_25.odb,Step-1,Increment      1: Step Time =    1.000,"PART-1-1",           241,       11.1073,      -15.0998,            0.,NA,NA,"",   52.8704E-03,  -52.4973E-03,   6.27001E-03,   58.0147E-06
C:/temp/dataset/4/32_25.odb,Step-1,Increment      1: Step Time =    1.000,"PART-1-1",           242,       11.1457,      -17.4375,            0.,NA,NA,"",   46.9281E-03,  -46.4746E-03,   6.50852E-03,   99.8958E-06
C:/temp/dataset/4/32_25.odb,Step-1,Increment      1: Step Time =    1.000,"PART-1-1",           243,       10.8340,      -7.85693,            0.,NA,NA,"",   71.4460E-03,  -71.2375E-03,   5.45353E-03,   1.44383E-06
C:/temp/dataset/4/32_25.odb,Step-1,Increment      1: Step Time =    1.000,"PART-1-1",           244,       10.5842,   120.255E-03,            0.,NA,NA,"",   91.9651E-03,  -91.8407E-03,   4.78203E-03,   100.902E-09
C:/temp/dataset/4/32_25.odb,Step-1,Increment      1: Step Time =    1.000,"PART-1-1",           245,       10.8633,      -2.34188,            0.,NA,NA,"",   85.6603E-03,  -85.4828E-03,   5.51083E-03,   209.442E-09
C:/temp/dataset/4/32_25.odb,Step-1,Increment      1: Step Time =    1.000,"PART-1-1",           246,       9.78574,       2.89226,            0.,NA,NA,"",   99.0342E-03,  -98.9971E-03,   2.71085E-03,   43.7416E-09
C:/temp/dataset/4/32_25.odb,Step-1,Increment      1: Step Time =    1.000,"PART-1-1",           247,       10.7685,       8.18214,            0.,NA,NA,"",   112.784E-03,  -112.662E-03,   5.23151E-03,   3.61177E-09
C:/temp/dataset/4/32_25.odb,Step-1,Increment      1: Step Time =    1.000,"PART-1-1",           248,       10.4587,       5.69287,            0.,NA,NA,"",   106.325E-03,  -106.232E-03,   4.43949E-03,   14.7693E-09
C:/temp/dataset/4/32_25.odb,Step-1,Increment      1: Step Time =    1.000,"PART-1-1",           249,       11.0104,       19.8565,            0.,NA,NA,"",   142.932E-03,  -142.814E-03,   5.81729E-03,   70.7094E-12
C:/temp/dataset/4/32_25.odb,Step-1,Increment      1: Step Time =    1.000,"PART-1-1",           250,       11.0363,       17.5467,            0.,NA,NA,"",   136.975E-03,  -136.848E-03,   5.89168E-03,   136.221E-12
C:/temp/dataset/4/32_25.odb,Step-1,Increment      1: Step Time =    1.000,"PART-1-1",           251,       11.0403,       15.2208,            0.,NA,NA,"",   130.975E-03,  -130.842E-03,   5.90993E-03,   313.174E-12
C:/temp/dataset/4/32_25.odb,Step-1,Increment      1: Step Time =    1.000,"PART-1-1",           252,       1.19009,      -1.06873,            0.,NA,NA,"",   90.8505E-03,  -88.7385E-03,  -19.4753E-03,   14.8898E-09
C:/temp/dataset/4/32_25.odb,Step-1,Increment      1: Step Time =    1.000,"PART-1-1",           253,       10.6932,       24.5073,            0.,NA,NA,"",   154.904E-03,  -154.824E-03,   4.98248E-03,   68.3571E-12
C:/temp/dataset/4/32_25.odb,Step-1,Increment      1: Step Time =    1.000,"PART-1-1",           254,       8.51128,       25.6419,            0.,NA,NA,"",   157.749E-03,  -157.747E-03,  -656.445E-06,   78.8700E-12
C:/temp/dataset/4/32_25.odb,Step-1,Increment      1: Step Time =    1.000,"PART-1-1",           255,      -9.32324,       5.48290,            0.,NA,NA,"",   115.467E-03,  -105.624E-03,  -46.6493E-03,   153.098E-12
C:/temp/dataset/4/32_25.odb,Step-1,Increment      1: Step Time =    1.000,"PART-1-1",           256,      -11.4569,       25.7537,            0.,NA,NA,"",   166.379E-03,  -157.969E-03,  -52.2275E-03,   78.8068E-12
C:/temp/dataset/4/32_25.odb,Step-1,Increment      1: Step Time =    1.000,"PART-1-1",           257,      -8.85145,       2.84717,            0.,NA,NA,"",   108.758E-03,  -98.8184E-03,  -45.4221E-03,   423.893E-12
C:/temp/dataset/4/32_25.odb,Step-1,Increment      1: Step Time =    1.000,"PART-1-1",           258,       11.0896,      -24.0706,            0.,NA,NA,"",   29.1335E-03,  -28.7151E-03,   4.91957E-03,   1.73899E-03
C:/temp/dataset/4/32_25.odb,Step-1,Increment      1: Step Time =    1.000,"PART-1-1",           259,       5.69240,      -2.12345,            0.,NA,NA,"",   86.3863E-03,  -86.0295E-03,  -7.84393E-03,   151.631E-09
C:/temp/dataset/4/32_25.odb,Step-1,Increment      1: Step Time =    1.000,"PART-1-1",           260,       7.72467,       1.38687,            0.,NA,NA,"",   95.1380E-03,  -95.1023E-03,  -2.60718E-03,   55.6172E-09
C:/temp/dataset/4/32_25.odb,Step-1,Increment      1: Step Time =    1.000,"PART-1-1",           261,       8.83369,  -368.727E-03,            0.,NA,NA,"",   90.5723E-03,  -90.5719E-03,   262.752E-06,   110.132E-09
C:/temp/dataset/4/32_25.odb,Step-1,Increment      1: Step Time =    1.000,"PART-1-1",           262,       7.58912,       4.39900,            0.,NA,NA,"",   102.924E-03,  -102.881E-03,  -2.96724E-03,   26.9672E-09
C:/temp/dataset/4/32_25.odb,Step-1,Increment      1: Step Time =    1.000,"PART-1-1",           263,      -6.02595,       2.23751,            0.,NA,NA,"",   104.458E-03,  -97.2533E-03,  -38.1228E-03,   1.00299E-09
C:/temp/dataset/4/32_25.odb,Step-1,Increment      1: Step Time =    1.000,"PART-1-1",           264,       4.92391,   813.983E-03,            0.,NA,NA,"",   94.1289E-03,  -93.6133E-03,  -9.83851E-03,   46.3826E-09
C:/temp/dataset/4/32_25.odb,Step-1,Increment      1: Step Time =    1.000,"PART-1-1",           265,      -7.77287,       1.11371,            0.,NA,NA,"",   103.530E-03,  -94.3451E-03,  -42.6307E-03,   613.491E-12
C:/temp/dataset/4/32_25.odb,Step-1,Increment      1: Step Time =    1.000,"PART-1-1",           266,      -3.71710,       1.36231,            0.,NA,NA,"",   100.296E-03,  -95.0007E-03,  -32.1569E-03,   1.48609E-09
C:/temp/dataset/4/32_25.odb,Step-1,Increment      1: Step Time =    1.000,"PART-1-1",           267,       2.85817,       1.10052,            0.,NA,NA,"",   95.5590E-03,  -94.3465E-03,  -15.1745E-03,   24.5776E-09
C:/temp/dataset/4/32_25.odb,Step-1,Increment      1: Step Time =    1.000,"PART-1-1",           268,       7.51165,      -2.37377,            0.,NA,NA,"",   85.4469E-03,  -85.3890E-03,  -3.14493E-03,   190.770E-09
C:/temp/dataset/4/32_25.odb,Step-1,Increment      1: Step Time =    1.000,"PART-1-1",           269,      -1.84913,   666.939E-03,            0.,NA,NA,"",   97.1352E-03,  -93.2110E-03,  -27.3303E-03,   2.52698E-09
C:/temp/dataset/4/32_25.odb,Step-1,Increment      1: Step Time =    1.000,"PART-1-1",           270,   621.955E-03,   989.730E-03,            0.,NA,NA,"",   96.3578E-03,  -94.0529E-03,  -20.9494E-03,   6.46714E-09
C:/temp/dataset/4/32_25.odb,Step-1,Increment      1: Step Time =    1.000,"PART-1-1",           271,       7.77182,      -4.29185,            0.,NA,NA,"",   80.4739E-03,  -80.4361E-03,  -2.46682E-03,   273.775E-09
C:/temp/dataset/4/32_25.odb,Step-1,Increment      1: Step Time =    1.000,"PART-1-1",           272,       6.40836,       5.42027,            0.,NA,NA,"",   105.686E-03,  -105.515E-03,  -6.02010E-03,   21.0354E-09
C:/temp/dataset/4/32_25.odb,Step-1,Increment      1: Step Time =    1.000,"PART-1-1",           273,      -12.5139,      -2.82358,            0.,NA,NA,"",   100.463E-03,  -84.1607E-03,  -54.8620E-03,   120.473E-12
C:/temp/dataset/4/32_25.odb,Step-1,Increment      1: Step Time =    1.000,"PART-1-1",           274,       10.8188,      -25.6946,            0.,NA,NA,"",   21.8890E-03,  -21.7000E-03,   2.87029E-03,   2.51005E-03
C:/temp/dataset/4/32_25.odb,Step-1,Increment      1: Step Time =    1.000,"PART-1-1",           275,       6.49302,  -163.532E-03,            0.,NA,NA,"",   91.2773E-03,  -91.0939E-03,  -5.78288E-03,   80.3569E-09
C:/temp/dataset/4/32_25.odb,Step-1,Increment      1: Step Time =    1.000,"PART-1-1",           276,       7.60941,  -936.337E-03,            0.,NA,NA,"",   89.1488E-03,  -89.1018E-03,  -2.89721E-03,   117.047E-09
C:/temp/dataset/4/32_25.odb,Step-1,Increment      1: Step Time =    1.000,"PART-1-1",           277,       9.17282,      -2.25688,            0.,NA,NA,"",   85.7042E-03,  -85.6965E-03,   1.14467E-03,   197.929E-09
C:/temp/dataset/4/32_25.odb,Step-1,Increment      1: Step Time =    1.000,"PART-1-1",           278,       9.10690,      -3.89703,            0.,NA,NA,"",   81.4662E-03,  -81.4603E-03,   979.622E-06,   249.592E-09
C:/temp/dataset/4/32_25.odb,Step-1,Increment      1: Step Time =    1.000,"PART-1-1",           279,      -7.91199,      -1.40732,            0.,NA,NA,"",   97.7864E-03,  -87.8337E-03,  -42.9816E-03,   477.827E-12
C:/temp/dataset/4/32_25.odb,Step-1,Increment      1: Step Time =    1.000,"PART-1-1",           280,      -9.83927,       21.3699,            0.,NA,NA,"",   154.319E-03,  -146.653E-03,  -48.0350E-03,   71.4750E-12
C:/temp/dataset/4/32_25.odb,Step-1,Increment      1: Step Time =    1.000,"PART-1-1",           281,      -11.2653,       5.77953,            0.,NA,NA,"",   118.266E-03,  -106.384E-03,  -51.6658E-03,   168.702E-12
C:/temp/dataset/4/32_25.odb,Step-1,Increment      1: Step Time =    1.000,"PART-1-1",           282,      -11.2487,       3.84080,            0.,NA,NA,"",   113.761E-03,  -101.377E-03,  -51.6166E-03,   237.726E-12
C:/temp/dataset/4/32_25.odb,Step-1,Increment      1: Step Time =    1.000,"PART-1-1",           283,       3.11059,  -868.354E-03,            0.,NA,NA,"",   90.4350E-03,  -89.2624E-03,  -14.5160E-03,   35.5056E-09
C:/temp/dataset/4/32_25.odb,Step-1,Increment      1: Step Time =    1.000,"PART-1-1",           284,       4.50766,  -682.768E-03,            0.,NA,NA,"",   90.4069E-03,  -89.7463E-03,  -10.9085E-03,   53.6339E-09
C:/temp/dataset/4/32_25.odb,Step-1,Increment      1: Step Time =    1.000,"PART-1-1",           285,      -3.56662,  -854.847E-03,            0.,NA,NA,"",   94.7565E-03,  -89.2751E-03,  -31.7609E-03,   2.24435E-09
C:/temp/dataset/4/32_25.odb,Step-1,Increment      1: Step Time =    1.000,"PART-1-1",           286,      -7.33150,       26.6843,            0.,NA,NA,"",   165.688E-03,  -160.386E-03,  -41.5761E-03,   55.9317E-12
C:/temp/dataset/4/32_25.odb,Step-1,Increment      1: Step Time =    1.000,"PART-1-1",           287,      -6.09303,       25.7233,            0.,NA,NA,"",   162.505E-03,  -157.909E-03,  -38.3743E-03,   53.8981E-12
C:/temp/dataset/4/32_25.odb,Step-1,Increment      1: Step Time =    1.000,"PART-1-1",           288,           -5.,        26.875,            0.,NA,NA,"",   164.769E-03,  -160.887E-03,  -35.5553E-03,   59.7436E-12
C:/temp/dataset/4/32_25.odb,Step-1,Increment      1: Step Time =    1.000,"PART-1-1",           289,      -6.23847,       27.8360,            0.,NA,NA,"",   167.899E-03,  -163.364E-03,  -38.7570E-03,   47.6630E-12
C:/temp/dataset/4/32_25.odb,Step-1,Increment      1: Step Time =    1.000,"PART-1-1",           290,      -8.20013,       25.3620,            0.,NA,NA,"",   162.969E-03,  -156.969E-03,  -43.8150E-03,   60.6067E-12
C:/temp/dataset/4/32_25.odb,Step-1,Increment      1: Step Time =    1.000,"PART-1-1",           291,      -8.98257,       24.1636,            0.,NA,NA,"",   160.551E-03,  -153.871E-03,  -45.8318E-03,   66.6809E-12
C:/temp/dataset/4/32_25.odb,Step-1,Increment      1: Step Time =    1.000,"PART-1-1",           292,      -7.83587,       23.3915,            0.,NA,NA,"",   157.814E-03,  -151.881E-03,  -42.8677E-03,   59.7894E-12
C:/temp/dataset/4/32_25.odb,Step-1,Increment      1: Step Time =    1.000,"PART-1-1",           293,      -7.05344,       24.5900,            0.,NA,NA,"",   160.272E-03,  -154.978E-03,  -40.8510E-03,   57.2895E-12
C:/temp/dataset/4/32_25.odb,Step-1,Increment      1: Step Time =    1.000,"PART-1-1",           294,      -6.78951,       20.5788,            0.,NA,NA,"",   150.091E-03,  -144.620E-03,  -40.1560E-03,   80.8658E-12
C:/temp/dataset/4/32_25.odb,Step-1,Increment      1: Step Time =    1.000,"PART-1-1",           295,      -5.89603,       19.5861,            0.,NA,NA,"",   147.014E-03,  -142.059E-03,  -37.8451E-03,   110.153E-12
C:/temp/dataset/4/32_25.odb,Step-1,Increment      1: Step Time =    1.000,"PART-1-1",           296,           -5.,        20.625,            0.,NA,NA,"",   149.043E-03,  -144.745E-03,  -35.5344E-03,   122.966E-12
C:/temp/dataset/4/32_25.odb,Step-1,Increment      1: Step Time =    1.000,"PART-1-1",           297,      -5.89348,       21.6177,            0.,NA,NA,"",   152.090E-03,  -147.306E-03,  -37.8453E-03,   88.8759E-12
C:/temp/dataset/4/32_25.odb,Step-1,Increment      1: Step Time =    1.000,"PART-1-1",           298,      -7.97413,       13.6001,            0.,NA,NA,"",   133.758E-03,  -126.592E-03,  -43.1921E-03,   94.3678E-12
C:/temp/dataset/4/32_25.odb,Step-1,Increment      1: Step Time =    1.000,"PART-1-1",           299,      -8.98702,       12.6704,            0.,NA,NA,"",   132.366E-03,  -124.188E-03,  -45.8050E-03,   74.0672E-12
C:/temp/dataset/4/32_25.odb,Step-1,Increment      1: Step Time =    1.000,"PART-1-1",           300,      -8.00249,       11.5116,            0.,NA,NA,"",   128.687E-03,  -121.198E-03,  -43.2584E-03,   105.294E-12
C:/temp/dataset/4/32_25.odb,Step-1,Increment      1: Step Time =    1.000,"PART-1-1",           301,      -6.98959,       12.4413,            0.,NA,NA,"",   130.114E-03,  -123.603E-03,  -40.6456E-03,   137.494E-12
C:/temp/dataset/4/32_25.odb,Step-1,Increment      1: Step Time =    1.000,"PART-1-1",           302,      -9.95004,      -1.64066,            0.,NA,NA,"",   99.6775E-03,  -87.2243E-03,  -48.2444E-03,   200.626E-12
C:/temp/dataset/4/32_25.odb,Step-1,Increment      1: Step Time =    1.000,"PART-1-1",           303,      -11.1983,  -513.068E-03,            0.,NA,NA,"",   103.794E-03,  -90.1323E-03,  -51.4721E-03,   208.625E-12
C:/temp/dataset/4/32_25.odb,Step-1,Increment      1: Step Time =    1.000,"PART-1-1",           304,      -12.5325,      -1.72297,            0.,NA,NA,"",   102.884E-03,  -87.0031E-03,  -54.9137E-03,   151.148E-12
C:/temp/dataset/4/32_25.odb,Step-1,Increment      1: Step Time =    1.000,"PART-1-1",           305,      -11.2842,      -2.85056,            0.,NA,NA,"",   98.7088E-03,  -84.0951E-03,  -51.6861E-03,   127.338E-12
C:/temp/dataset/4/32_25.odb,Step-1,Increment      1: Step Time =    1.000,"PART-1-1",           306,      -10.2834,   741.336E-03,            0.,NA,NA,"",   105.504E-03,  -93.3750E-03,  -49.1133E-03,   270.940E-12
C:/temp/dataset/4/32_25.odb,Step-1,Increment      1: Step Time =    1.000,"PART-1-1",           307,      -11.7661,       1.72477,            0.,NA,NA,"",   109.554E-03,  -95.9099E-03,  -52.9459E-03,   251.170E-12
C:/temp/dataset/4/32_25.odb,Step-1,Increment      1: Step Time =    1.000,"PART-1-1",           308,      -12.6810,   470.366E-03,            0.,NA,NA,"",   107.916E-03,  -92.6672E-03,  -55.3046E-03,   205.770E-12
C:/temp/dataset/4/32_25.odb,Step-1,Increment      1: Step Time =    1.000,"PART-1-1",           309,         -1.25,           -5.,            0.,NA,NA,"",   82.6933E-03,  -78.5773E-03,  -25.7641E-03,   7.60833E-09
C:/temp/dataset/4/32_25.odb,Step-1,Increment      1: Step Time =    1.000,"PART-1-1",           310,  -165.329E-03,      -4.13131,            0.,NA,NA,"",   84.0239E-03,  -80.8244E-03,  -22.9656E-03,   5.71699E-09
C:/temp/dataset/4/32_25.odb,Step-1,Increment      1: Step Time =    1.000,"PART-1-1",           311,      -1.46228,      -3.26668,            0.,NA,NA,"",   87.1233E-03,  -83.0532E-03,  -26.3181E-03,   3.70748E-09
C:/temp/dataset/4/32_25.odb,Step-1,Increment      1: Step Time =    1.000,"PART-1-1",           312,      -2.54695,      -4.13537,            0.,NA,NA,"",   85.8917E-03,  -80.8060E-03,  -29.1165E-03,   1.77654E-09
C:/temp/dataset/4/32_25.odb,Step-1,Increment      1: Step Time =    1.000,"PART-1-1",           313,   769.081E-03,      -3.16387,            0.,NA,NA,"",   85.8241E-03,  -83.3261E-03,  -20.5556E-03,   13.4734E-09
C:/temp/dataset/4/32_25.odb,Step-1,Increment      1: Step Time =    1.000,"PART-1-1",           314,          1.25,           -5.,            0.,NA,NA,"",   80.9227E-03,  -78.5856E-03,  -19.3074E-03,   13.9829E-09
C:/temp/dataset/4/32_25.odb,Step-1,Increment      1: Step Time =    1.000,"PART-1-1",           315,       2.18441,      -4.03256,            0.,NA,NA,"",   82.8292E-03,  -81.0873E-03,  -16.8974E-03,   33.9962E-09
C:/temp/dataset/4/32_25.odb,Step-1,Increment      1: Step Time =    1.000,"PART-1-1",           316,       1.54561,       3.01681,            0.,NA,NA,"",   101.013E-03,  -99.2912E-03,  -18.5708E-03,   9.38126E-09
C:/temp/dataset/4/32_25.odb,Step-1,Increment      1: Step Time =    1.000,"PART-1-1",           317,       2.64536,       4.01417,            0.,NA,NA,"",   103.079E-03,  -101.871E-03,  -15.7338E-03,   8.92916E-09
C:/temp/dataset/4/32_25.odb,Step-1,Increment      1: Step Time =    1.000,"PART-1-1",           318,          1.25,            5.,            0.,NA,NA,"",   106.188E-03,  -104.412E-03,  -19.3408E-03,   3.15697E-09
C:/temp/dataset/4/32_25.odb,Step-1,Increment      1: Step Time =    1.000,"PART-1-1",           319,   150.245E-03,       4.00264,            0.,NA,NA,"",   104.220E-03,  -101.833E-03,  -22.1778E-03,   2.84806E-09
C:/temp/dataset/4/32_25.odb,Step-1,Increment      1: Step Time =    1.000,"PART-1-1",           320,   179.474E-03,      -1.21124,            0.,NA,NA,"",   91.0851E-03,  -88.3671E-03,  -22.0849E-03,   6.02512E-09
C:/temp/dataset/4/32_25.odb,Step-1,Increment      1: Step Time =    1.000,"PART-1-1",           321,  -580.901E-03,      -2.30818,            0.,NA,NA,"",   88.8471E-03,  -85.5316E-03,  -24.0450E-03,   3.72470E-09
C:/temp/dataset/4/32_25.odb,Step-1,Increment      1: Step Time =    1.000,"PART-1-1",           322,       1.52946,      -2.06693,            0.,NA,NA,"",   88.1455E-03,  -86.1617E-03,  -18.5955E-03,   17.6329E-09
C:/temp/dataset/4/32_25.odb,Step-1,Increment      1: Step Time =    1.000,"PART-1-1",           323,       12.7868,      -3.71378,            0.,NA,NA,"",   82.6140E-03,  -81.9461E-03,   10.4836E-03,   201.709E-09
C:/temp/dataset/4/32_25.odb,Step-1,Increment      1: Step Time =    1.000,"PART-1-1",           324,       13.8814,      -5.00619,            0.,NA,NA,"",   79.7312E-03,  -78.6115E-03,   13.3156E-03,   339.039E-09
C:/temp/dataset/4/32_25.odb,Step-1,Increment      1: Step Time =    1.000,"PART-1-1",           325,           15.,         -3.75,            0.,NA,NA,"",   83.4475E-03,  -81.8598E-03,   16.2006E-03,   427.861E-09
C:/temp/dataset/4/32_25.odb,Step-1,Increment      1: Step Time =    1.000,"PART-1-1",           326,       13.9054,      -2.45760,            0.,NA,NA,"",   86.2368E-03,  -85.1942E-03,   13.3688E-03,   186.820E-09
C:/temp/dataset/4/32_25.odb,Step-1,Increment      1: Step Time =    1.000,"PART-1-1",           327,       5.10003,      -1.40311,            0.,NA,NA,"",   88.3866E-03,  -87.8879E-03,  -9.37621E-03,   92.6700E-09
C:/temp/dataset/4/32_25.odb,Step-1,Increment      1: Step Time =    1.000,"PART-1-1",           328,       3.80913,  -775.561E-03,            0.,NA,NA,"",   90.4026E-03,  -89.5044E-03,  -12.7122E-03,   45.5086E-09
C:/temp/dataset/4/32_25.odb,Step-1,Increment      1: Step Time =    1.000,"PART-1-1",           329,       3.52110,      -1.80919,            0.,NA,NA,"",   87.8698E-03,  -86.8339E-03,  -13.4526E-03,   54.0762E-09
C:/temp/dataset/4/32_25.odb,Step-1,Increment      1: Step Time =    1.000,"PART-1-1",           330,       4.81200,      -2.43673,            0.,NA,NA,"",   85.8159E-03,  -85.2175E-03,  -10.1165E-03,   95.0601E-09
C:/temp/dataset/4/32_25.odb,Step-1,Increment      1: Step Time =    1.000,"PART-1-1",           331,           15.,          3.75,            0.,NA,NA,"",   102.514E-03,  -101.230E-03,   16.1747E-03,   16.7213E-09
C:/temp/dataset/4/32_25.odb,Step-1,Increment      1: Step Time =    1.000,"PART-1-1",           332,       13.8386,       5.14064,            0.,NA,NA,"",   105.642E-03,  -104.817E-03,   13.1706E-03,   7.76857E-09
C:/temp/dataset/4/32_25.odb,Step-1,Increment      1: Step Time =    1.000,"PART-1-1",           333,       12.6076,       4.00525,            0.,NA,NA,"",   102.370E-03,  -101.881E-03,   9.99500E-03,   27.4900E-09
C:/temp/dataset/4/32_25.odb,Step-1,Increment      1: Step Time =    1.000,"PART-1-1",           334,       13.7689,       2.61462,            0.,NA,NA,"",   99.1492E-03,  -98.2934E-03,   12.9991E-03,   27.7081E-09
C:/temp/dataset/4/32_25.odb,Step-1,Increment      1: Step Time =    1.000,"PART-1-1",           335,       9.76439,       8.40859,            0.,NA,NA,"",   113.274E-03,  -113.244E-03,   2.63739E-03,   2.97020E-09
C:/temp/dataset/4/32_25.odb,Step-1,Increment      1: Step Time =    1.000,"PART-1-1",           336,       8.59642,       7.53369,            0.,NA,NA,"",   110.981E-03,  -110.980E-03,  -376.155E-06,   7.49690E-09
C:/temp/dataset/4/32_25.odb,Step-1,Increment      1: Step Time =    1.000,"PART-1-1",           337,       9.44563,       6.06261,            0.,NA,NA,"",   107.199E-03,  -107.184E-03,   1.82195E-03,   12.6909E-09
C:/temp/dataset/4/32_25.odb,Step-1,Increment      1: Step Time =    1.000,"PART-1-1",           338,       10.6136,       6.93751,            0.,NA,NA,"",   109.554E-03,  -109.447E-03,   4.83551E-03,   8.91843E-09
C:/temp/dataset/4/32_25.odb,Step-1,Increment      1: Step Time =    1.000,"PART-1-1",           339,       5.92452,       9.07762,            0.,NA,NA,"",   115.189E-03,  -114.959E-03,  -7.28190E-03,   691.868E-12
C:/temp/dataset/4/32_25.odb,Step-1,Increment      1: Step Time =    1.000,"PART-1-1",           340,            5.,         8.125,            0.,NA,NA,"",   112.910E-03,  -112.495E-03,  -9.66644E-03,   1.49768E-09
C:/temp/dataset/4/32_25.odb,Step-1,Increment      1: Step Time =    1.000,"PART-1-1",           341,       5.83838,       7.03541,            0.,NA,NA,"",   109.940E-03,  -109.684E-03,  -7.49756E-03,   3.60606E-09
C:/temp/dataset/4/32_25.odb,Step-1,Increment      1: Step Time =    1.000,"PART-1-1",           342,       6.76290,       7.98803,            0.,NA,NA,"",   112.264E-03,  -112.148E-03,  -5.11302E-03,   5.00816E-09
C:/temp/dataset/4/32_25.odb,Step-1,Increment      1: Step Time =    1.000,"PART-1-1",           343,       6.00358,       15.4027,            0.,NA,NA,"",   131.486E-03,  -131.294E-03,  -7.09882E-03,   166.812E-12
C:/temp/dataset/4/32_25.odb,Step-1,Increment      1: Step Time =    1.000,"PART-1-1",           344,            5.,        14.375,            0.,NA,NA,"",   129.001E-03,  -128.637E-03,  -9.68728E-03,   202.558E-12
C:/temp/dataset/4/32_25.odb,Step-1,Increment      1: Step Time =    1.000,"PART-1-1",           345,       5.99171,       13.2884,            0.,NA,NA,"",   126.035E-03,  -125.834E-03,  -7.12241E-03,   323.773E-12
C:/temp/dataset/4/32_25.odb,Step-1,Increment      1: Step Time =    1.000,"PART-1-1",           346,       6.99529,       14.3161,            0.,NA,NA,"",   128.571E-03,  -128.491E-03,  -4.53395E-03,   387.266E-12
C:/temp/dataset/4/32_25.odb,Step-1,Increment      1: Step Time =    1.000,"PART-1-1",           347,       11.7328,       24.6815,            0.,NA,NA,"",   155.467E-03,  -155.278E-03,   7.66674E-03,   59.5947E-12
C:/temp/dataset/4/32_25.odb,Step-1,Increment      1: Step Time =    1.000,"PART-1-1",           348,       12.6496,       26.1279,            0.,NA,NA,"",   159.332E-03,  -159.016E-03,   10.0297E-03,   54.6848E-12
C:/temp/dataset/4/32_25.odb,Step-1,Increment      1: Step Time =    1.000,"PART-1-1",           349,       11.2054,       27.2635,            0.,NA,NA,"",   162.067E-03,  -161.944E-03,   6.29622E-03,   69.0499E-12
C:/temp/dataset/4/32_25.odb,Step-1,Increment      1: Step Time =    1.000,"PART-1-1",           350,       10.2886,       25.8171,            0.,NA,NA,"",   158.255E-03,  -158.206E-03,   3.93327E-03,   73.0399E-12
C:/temp/dataset/4/32_25.odb,Step-1,Increment      1: Step Time =    1.000,"PART-1-1",           351,       12.5134,       28.7000,            0.,NA,NA,"",   165.941E-03,  -165.659E-03,   9.66944E-03,   71.6558E-12
C:/temp/dataset/4/32_25.odb,Step-1,Increment      1: Step Time =    1.000,"PART-1-1",           352,       13.7634,       27.4500,            0.,NA,NA,"",   162.946E-03,  -162.435E-03,   12.9019E-03,   46.9020E-12
C:/temp/dataset/4/32_25.odb,Step-1,Increment      1: Step Time =    1.000,"PART-1-1",           353,           15.,         28.75,            0.,NA,NA,"",   166.575E-03,  -165.796E-03,   16.0913E-03,   54.5554E-12
C:/temp/dataset/4/32_25.odb,Step-1,Increment      1: Step Time =    1.000,"PART-1-1",           354,         13.75,           30.,            0.,NA,NA,"",   169.509E-03,  -169.020E-03,   12.8588E-03,   76.0519E-12
C:/temp/dataset/4/32_25.odb,Step-1,Increment      1: Step Time =    1.000,"PART-1-1",           355,      -3.83569,      -2.96698,            0.,NA,NA,"",   89.8810E-03,  -83.8193E-03,  -32.4488E-03,   1.84457E-09
C:/temp/dataset/4/32_25.odb,Step-1,Increment      1: Step Time =    1.000,"PART-1-1",           356,      -2.47303,      -2.56070,            0.,NA,NA,"",   89.6685E-03,  -84.8731E-03,  -28.9308E-03,   1.76299E-09
C:/temp/dataset/4/32_25.odb,Step-1,Increment      1: Step Time =    1.000,"PART-1-1",           357,      -2.95938,      -1.35275,            0.,NA,NA,"",   93.0265E-03,  -87.9912E-03,  -30.1910E-03,   2.12406E-09
C:/temp/dataset/4/32_25.odb,Step-1,Increment      1: Step Time =    1.000,"PART-1-1",           358,      -4.32205,      -1.75903,            0.,NA,NA,"",   93.2437E-03,  -86.9373E-03,  -33.7089E-03,   1.38961E-09
C:/temp/dataset/4/32_25.odb,Step-1,Increment      1: Step Time =    1.000,"PART-1-1",           359,       8.60967,      -7.25473,            0.,NA,NA,"",   72.7885E-03,  -72.7879E-03,  -293.492E-06,   1.15396E-06
C:/temp/dataset/4/32_25.odb,Step-1,Increment      1: Step Time =    1.000,"PART-1-1",           360,       7.51358,      -6.44375,            0.,NA,NA,"",   74.9437E-03,  -74.8785E-03,  -3.12667E-03,   205.304E-09
C:/temp/dataset/4/32_25.odb,Step-1,Increment      1: Step Time =    1.000,"PART-1-1",           361,       6.75300,      -7.77251,            0.,NA,NA,"",   71.6271E-03,  -71.4464E-03,  -5.08596E-03,   1.04611E-06
C:/temp/dataset/4/32_25.odb,Step-1,Increment      1: Step Time =    1.000,"PART-1-1",           362,       7.84909,      -8.58350,            0.,NA,NA,"",   69.3934E-03,  -69.3568E-03,  -2.25282E-03,   1.94557E-06
C:/temp/dataset/4/32_25.odb,Step-1,Increment      1: Step Time =    1.000,"PART-1-1",           363,       7.07130,      -14.2100,            0.,NA,NA,"",   55.0455E-03,  -54.8817E-03,  -4.24361E-03,   37.1308E-06
C:/temp/dataset/4/32_25.odb,Step-1,Increment      1: Step Time =    1.000,"PART-1-1",           364,       6.02882,      -13.2279,            0.,NA,NA,"",   57.8171E-03,  -57.3975E-03,  -6.95342E-03,   16.5806E-06
C:/temp/dataset/4/32_25.odb,Step-1,Increment      1: Step Time =    1.000,"PART-1-1",           365,            5.,       -14.375,            0.,NA,NA,"",   55.2835E-03,  -54.4383E-03,  -9.62989E-03,   35.5011E-06
C:/temp/dataset/4/32_25.odb,Step-1,Increment      1: Step Time =    1.000,"PART-1-1",           366,       6.04247,      -15.3570,            0.,NA,NA,"",   52.3944E-03,  -51.9315E-03,  -6.94985E-03,   41.3495E-06
C:/temp/dataset/4/32_25.odb,Step-1,Increment      1: Step Time =    1.000,"PART-1-1",           367,       7.02995,      -12.0379,            0.,NA,NA,"",   60.6148E-03,  -60.4580E-03,  -4.35705E-03,   15.7111E-06
C:/temp/dataset/4/32_25.odb,Step-1,Increment      1: Step Time =    1.000,"PART-1-1",           368,       6.00113,      -11.1016,            0.,NA,NA,"",   63.2537E-03,  -62.8631E-03,  -7.01879E-03,   5.04365E-06
C:/temp/dataset/4/32_25.odb,Step-1,Increment      1: Step Time =    1.000,"PART-1-1",           369,            5.,      -12.2917,            0.,NA,NA,"",   60.5618E-03,  -59.7957E-03,  -9.60221E-03,   10.9789E-06
C:/temp/dataset/4/32_25.odb,Step-1,Increment      1: Step Time =    1.000,"PART-1-1",           370,            5.,      -22.7083,            0.,NA,NA,"",   32.9247E-03,  -31.1276E-03,  -10.7289E-03,   73.4223E-06
C:/temp/dataset/4/32_25.odb,Step-1,Increment      1: Step Time =    1.000,"PART-1-1",           371,       6.05922,      -23.7899,            0.,NA,NA,"",   28.1641E-03,  -27.2396E-03,  -7.15697E-03,   412.417E-06
C:/temp/dataset/4/32_25.odb,Step-1,Increment      1: Step Time =    1.000,"PART-1-1",           372,       7.11013,      -22.7834,            0.,NA,NA,"",   31.2288E-03,  -30.9499E-03,  -4.16452E-03,   499.196E-06
C:/temp/dataset/4/32_25.odb,Step-1,Increment      1: Step Time =    1.000,"PART-1-1",           373,       6.05091,      -21.7018,            0.,NA,NA,"",   35.2624E-03,  -34.4980E-03,  -7.30236E-03,   130.104E-06
C:/temp/dataset/4/32_25.odb,Step-1,Increment      1: Step Time =    1.000,"PART-1-1",           374,          8.75,          -30.,            0.,NA,NA,"",            0.,  -2.21354E-39,  -1.14952E-39,   2.39096E-03
C:/temp/dataset/4/32_25.odb,Step-1,Increment      1: Step Time =    1.000,"PART-1-1",           375,       9.84988,      -28.9274,            0.,NA,NA,"",   4.67633E-03,  -4.67614E-03,   41.5492E-06,   2.82384E-03
C:/temp/dataset/4/32_25.odb,Step-1,Increment      1: Step Time =    1.000,"PART-1-1",           376,       8.52411,      -27.9095,            0.,NA,NA,"",   9.00219E-03,  -8.98084E-03,  -619.697E-06,   2.73163E-03
C:/temp/dataset/4/32_25.odb,Step-1,Increment      1: Step Time =    1.000,"PART-1-1",           377,       7.42422,      -28.9821,            0.,NA,NA,"",   3.82807E-03,  -3.73288E-03,  -848.355E-06,   2.54721E-03
C:/temp/dataset/4/32_25.odb,Step-1,Increment      1: Step Time =    1.000,"PART-1-1",           378,       10.1104,      -23.9794,            0.,NA,NA,"",   28.0908E-03,  -27.9393E-03,   2.91289E-03,   1.44590E-03
C:/temp/dataset/4/32_25.odb,Step-1,Increment      1: Step Time =    1.000,"PART-1-1",           379,       11.1261,      -23.0268,            0.,NA,NA,"",   32.6771E-03,  -32.1586E-03,   5.79768E-03,   1.21866E-03
C:/temp/dataset/4/32_25.odb,Step-1,Increment      1: Step Time =    1.000,"PART-1-1",           380,       10.1523,      -21.9025,            0.,NA,NA,"",   34.9671E-03,  -34.7500E-03,   3.89107E-03,   564.109E-06
C:/temp/dataset/4/32_25.odb,Step-1,Increment      1: Step Time =    1.000,"PART-1-1",           381,       9.13660,      -22.8552,            0.,NA,NA,"",   31.2666E-03,  -31.2466E-03,   1.11748E-03,   834.190E-06
C:/temp/dataset/4/32_25.odb,Step-1,Increment      1: Step Time =    1.000,"PART-1-1",           382,       7.09296,      -18.5383,            0.,NA,NA,"",   43.8634E-03,  -43.6624E-03,  -4.19470E-03,   59.3761E-06
C:/temp/dataset/4/32_25.odb,Step-1,Increment      1: Step Time =    1.000,"PART-1-1",           383,       6.04465,      -17.4814,            0.,NA,NA,"",   46.9595E-03,  -46.4309E-03,  -7.02630E-03,   79.9396E-06
C:/temp/dataset/4/32_25.odb,Step-1,Increment      1: Step Time =    1.000,"PART-1-1",           384,            5.,      -18.5417,            0.,NA,NA,"",   44.6820E-03,  -43.5602E-03,  -9.94955E-03,   159.424E-06
C:/temp/dataset/4/32_25.odb,Step-1,Increment      1: Step Time =    1.000,"PART-1-1",           385,       6.04831,      -19.5985,            0.,NA,NA,"",   41.3574E-03,  -40.7325E-03,  -7.16261E-03,   110.380E-06
C:/temp/dataset/4/32_25.odb,Step-1,Increment      1: Step Time =    1.000,"PART-1-1",           386,       8.88188,       22.9635,            0.,NA,NA,"",   150.831E-03,  -150.831E-03,   309.616E-06,   80.7733E-12
C:/temp/dataset/4/32_25.odb,Step-1,Increment      1: Step Time =    1.000,"PART-1-1",           387,       9.93448,       22.0483,            0.,NA,NA,"",   148.502E-03,  -148.471E-03,   3.03118E-03,   69.2441E-12
C:/temp/dataset/4/32_25.odb,Step-1,Increment      1: Step Time =    1.000,"PART-1-1",           388,       10.8087,       23.3359,            0.,NA,NA,"",   151.891E-03,  -151.799E-03,   5.28459E-03,   65.8843E-12
C:/temp/dataset/4/32_25.odb,Step-1,Increment      1: Step Time =    1.000,"PART-1-1",           389,       9.75606,       24.2511,            0.,NA,NA,"",   154.181E-03,  -154.159E-03,   2.56302E-03,   73.1818E-12
C:/temp/dataset/4/32_25.odb,Step-1,Increment      1: Step Time =    1.000,"PART-1-1",           390,       10.0218,       17.5512,            0.,NA,NA,"",   136.896E-03,  -136.857E-03,   3.27168E-03,   135.898E-12
C:/temp/dataset/4/32_25.odb,Step-1,Increment      1: Step Time =    1.000,"PART-1-1",           391,       9.00837,       16.4411,            0.,NA,NA,"",   133.988E-03,  -133.986E-03,   658.062E-06,   248.234E-12
C:/temp/dataset/4/32_25.odb,Step-1,Increment      1: Step Time =    1.000,"PART-1-1",           392,       10.0249,       15.2736,            0.,NA,NA,"",   131.016E-03,  -130.975E-03,   3.28719E-03,   296.350E-12
C:/temp/dataset/4/32_25.odb,Step-1,Increment      1: Step Time =    1.000,"PART-1-1",           393,       11.0383,       16.3837,            0.,NA,NA,"",   133.975E-03,  -133.845E-03,   5.90081E-03,   218.655E-12
C:/temp/dataset/4/32_25.odb,Step-1,Increment      1: Step Time =    1.000,"PART-1-1",           394,      -14.0638,       5.89996,            0.,NA,NA,"",   121.862E-03,  -106.685E-03,  -58.8939E-03,   319.865E-12
C:/temp/dataset/4/32_25.odb,Step-1,Increment      1: Step Time =    1.000,"PART-1-1",           395,      -13.1194,       6.91794,            0.,NA,NA,"",   123.036E-03,  -109.318E-03,  -56.4582E-03,   241.741E-12
C:/temp/dataset/4/32_25.odb,Step-1,Increment      1: Step Time =    1.000,"PART-1-1",           396,      -14.0556,       8.04923,            0.,NA,NA,"",   126.743E-03,  -112.236E-03,  -58.8799E-03,   313.554E-12
C:/temp/dataset/4/32_25.odb,Step-1,Increment      1: Step Time =    1.000,"PART-1-1",           397,          -15.,       7.03125,            0.,NA,NA,"",   125.589E-03,  -109.604E-03,  -61.3156E-03,   393.268E-12
C:/temp/dataset/4/32_25.odb,Step-1,Increment      1: Step Time =    1.000,"PART-1-1",           398,      -14.0181,       12.3521,            0.,NA,NA,"",   136.646E-03,  -123.349E-03,  -58.7973E-03,   252.101E-12
C:/temp/dataset/4/32_25.odb,Step-1,Increment      1: Step Time =    1.000,"PART-1-1",           399,      -13.0189,       13.2775,            0.,NA,NA,"",   137.738E-03,  -125.742E-03,  -56.2199E-03,   189.906E-12
C:/temp/dataset/4/32_25.odb,Step-1,Increment      1: Step Time =    1.000,"PART-1-1",           400,      -14.0008,       14.5192,            0.,NA,NA,"",   141.703E-03,  -128.946E-03,  -58.7600E-03,   221.672E-12
C:/temp/dataset/4/32_25.odb,Step-1,Increment      1: Step Time =    1.000,"PART-1-1",           401,          -15.,       13.5938,            0.,NA,NA,"",   140.634E-03,  -126.553E-03,  -61.3374E-03,   286.635E-12
C:/temp/dataset/4/32_25.odb,Step-1,Increment      1: Step Time =    1.000,"PART-1-1",           402,      -10.1942,       21.9572,            0.,NA,NA,"",   156.046E-03,  -148.168E-03,  -48.9536E-03,   75.0274E-12
C:/temp/dataset/4/32_25.odb,Step-1,Increment      1: Step Time =    1.000,"PART-1-1",           403,      -9.14995,       21.4132,            0.,NA,NA,"",   153.883E-03,  -146.767E-03,  -46.2549E-03,   65.3206E-12
C:/temp/dataset/4/32_25.odb,Step-1,Increment      1: Step Time =    1.000,"PART-1-1",           404,      -8.60578,       22.3365,            0.,NA,NA,"",   155.751E-03,  -149.153E-03,  -44.8526E-03,   63.8781E-12
C:/temp/dataset/4/32_25.odb,Step-1,Increment      1: Step Time =    1.000,"PART-1-1",           405,      -9.65000,       22.8805,            0.,NA,NA,"",   157.886E-03,  -150.555E-03,  -47.5513E-03,   69.6042E-12
C:/temp/dataset/4/32_25.odb,Step-1,Increment      1: Step Time =    1.000,"PART-1-1",           406,      -14.0213,       25.7108,            0.,NA,NA,"",   168.463E-03,  -157.850E-03,  -58.8502E-03,   95.4832E-12
C:/temp/dataset/4/32_25.odb,Step-1,Increment      1: Step Time =    1.000,"PART-1-1",           407,      -12.8802,       26.8172,            0.,NA,NA,"",   170.158E-03,  -160.711E-03,  -55.9069E-03,   76.7702E-12
C:/temp/dataset/4/32_25.odb,Step-1,Increment      1: Step Time =    1.000,"PART-1-1",           408,      -13.8589,       27.8252,            0.,NA,NA,"",   173.452E-03,  -163.311E-03,  -58.4379E-03,   75.9899E-12
C:/temp/dataset/4/32_25.odb,Step-1,Increment      1: Step Time =    1.000,"PART-1-1",           409,          -15.,       26.7188,            0.,NA,NA,"",   171.790E-03,  -160.450E-03,  -61.3812E-03,   98.9127E-12
C:/temp/dataset/4/32_25.odb,Step-1,Increment      1: Step Time =    1.000,"PART-1-1",           410,        -13.75,           30.,            0.,NA,NA,"",   178.661E-03,  -168.928E-03,  -58.1639E-03,   52.7290E-12
C:/temp/dataset/4/32_25.odb,Step-1,Increment      1: Step Time =    1.000,"PART-1-1",           411,          -15.,       28.9063,            0.,NA,NA,"",   177.081E-03,  -166.099E-03,  -61.3885E-03,   77.5634E-12
C:/temp/dataset/4/32_25.odb,Step-1,Increment      1: Step Time =    1.000,"PART-1-1",           412,      -12.6089,       28.9190,            0.,NA,NA,"",   175.074E-03,  -166.140E-03,  -55.2132E-03,   61.3239E-12
C:/temp/dataset/4/32_25.odb,Step-1,Increment      1: Step Time =    1.000,"PART-1-1",           413,      -11.4362,       27.6040,            0.,NA,NA,"",   170.908E-03,  -162.748E-03,  -52.1801E-03,   73.8044E-12
C:/temp/dataset/4/32_25.odb,Step-1,Increment      1: Step Time =    1.000,"PART-1-1",           414,      -10.0773,       28.6850,            0.,NA,NA,"",   172.552E-03,  -165.544E-03,  -48.6741E-03,   71.2299E-12
C:/temp/dataset/4/32_25.odb,Step-1,Increment      1: Step Time =    1.000,"PART-1-1",           415,        -11.25,           30.,            0.,NA,NA,"",   176.673E-03,  -168.937E-03,  -51.7072E-03,   58.6211E-12
C:/temp/dataset/4/32_25.odb,Step-1,Increment      1: Step Time =    1.000,"PART-1-1",           416,      -13.7240,       21.2404,            0.,NA,NA,"",   157.407E-03,  -146.305E-03,  -58.0675E-03,   135.911E-12
C:/temp/dataset/4/32_25.odb,Step-1,Increment      1: Step Time =    1.000,"PART-1-1",           417,      -12.6979,       22.4429,            0.,NA,NA,"",   159.362E-03,  -149.415E-03,  -55.4214E-03,   105.604E-12
C:/temp/dataset/4/32_25.odb,Step-1,Increment      1: Step Time =    1.000,"PART-1-1",           418,      -13.9739,       23.5463,            0.,NA,NA,"",   163.191E-03,  -152.260E-03,  -58.7206E-03,   117.161E-12
C:/temp/dataset/4/32_25.odb,Step-1,Increment      1: Step Time =    1.000,"PART-1-1",           419,          -15.,       22.3438,            0.,NA,NA,"",   161.282E-03,  -149.151E-03,  -61.3666E-03,   152.623E-12
C:/temp/dataset/4/32_25.odb,Step-1,Increment      1: Step Time =    1.000,"PART-1-1",           420,      -11.9375,       16.3352,            0.,NA,NA,"",   143.930E-03,  -133.643E-03,  -53.4371E-03,   123.142E-12
C:/temp/dataset/4/32_25.odb,Step-1,Increment      1: Step Time =    1.000,"PART-1-1",           421,      -10.8584,       17.1847,            0.,NA,NA,"",   144.977E-03,  -135.840E-03,  -50.6531E-03,   90.9946E-12
C:/temp/dataset/4/32_25.odb,Step-1,Increment      1: Step Time =    1.000,"PART-1-1",           422,      -11.8099,       18.4796,            0.,NA,NA,"",   148.972E-03,  -139.182E-03,  -53.1148E-03,   109.218E-12
C:/temp/dataset/4/32_25.odb,Step-1,Increment      1: Step Time =    1.000,"PART-1-1",           423,      -12.8889,       17.6301,            0.,NA,NA,"",   147.950E-03,  -136.984E-03,  -55.8988E-03,   147.188E-12
C:/temp/dataset/4/32_25.odb,Step-1,Increment      1: Step Time =    1.000,"PART-1-1",           424,      -9.98079,       13.8692,            0.,NA,NA,"",   136.164E-03,  -127.281E-03,  -48.3755E-03,   71.7970E-12
C:/temp/dataset/4/32_25.odb,Step-1,Increment      1: Step Time =    1.000,"PART-1-1",           425,      -11.0142,       12.9724,            0.,NA,NA,"",   134.983E-03,  -124.961E-03,  -51.0414E-03,   102.004E-12
C:/temp/dataset/4/32_25.odb,Step-1,Increment      1: Step Time =    1.000,"PART-1-1",           426,      -10.0204,       11.7735,            0.,NA,NA,"",   131.154E-03,  -121.868E-03,  -48.4709E-03,   71.5175E-12
C:/temp/dataset/4/32_25.odb,Step-1,Increment      1: Step Time =    1.000,"PART-1-1",           427,      -6.95613,       14.5250,            0.,NA,NA,"",   135.213E-03,  -128.984E-03,  -40.5661E-03,   123.191E-12
C:/temp/dataset/4/32_25.odb,Step-1,Increment      1: Step Time =    1.000,"PART-1-1",           428,      -5.98929,       13.4097,            0.,NA,NA,"",   131.727E-03,  -126.107E-03,  -38.0654E-03,   171.343E-12
C:/temp/dataset/4/32_25.odb,Step-1,Increment      1: Step Time =    1.000,"PART-1-1",           429,           -5.,        14.375,            0.,NA,NA,"",   133.417E-03,  -128.604E-03,  -35.5136E-03,   203.650E-12
C:/temp/dataset/4/32_25.odb,Step-1,Increment      1: Step Time =    1.000,"PART-1-1",           430,      -5.96684,       15.4903,            0.,NA,NA,"",   136.866E-03,  -131.481E-03,  -38.0143E-03,   151.999E-12
C:/temp/dataset/4/32_25.odb,Step-1,Increment      1: Step Time =    1.000,"PART-1-1",           431,      -11.0581,       10.8707,            0.,NA,NA,"",   130.016E-03,  -119.533E-03,  -51.1477E-03,   106.572E-12
C:/temp/dataset/4/32_25.odb,Step-1,Increment      1: Step Time =    1.000,"PART-1-1",           432,      -10.0579,       9.67932,            0.,NA,NA,"",   126.178E-03,  -116.459E-03,  -48.5608E-03,   68.3296E-12
C:/temp/dataset/4/32_25.odb,Step-1,Increment      1: Step Time =    1.000,"PART-1-1",           433,      -9.02030,       10.5821,            0.,NA,NA,"",   127.348E-03,  -118.794E-03,  -45.8839E-03,   74.4859E-12
C:/temp/dataset/4/32_25.odb,Step-1,Increment      1: Step Time =    1.000,"PART-1-1",           434,      -7.04064,       8.20966,            0.,NA,NA,"",   119.821E-03,  -112.674E-03,  -40.7633E-03,   162.416E-12
C:/temp/dataset/4/32_25.odb,Step-1,Increment      1: Step Time =    1.000,"PART-1-1",           435,      -6.03068,       7.10065,            0.,NA,NA,"",   116.252E-03,  -109.813E-03,  -38.1512E-03,   293.619E-12
C:/temp/dataset/4/32_25.odb,Step-1,Increment      1: Step Time =    1.000,"PART-1-1",           436,           -5.,         8.125,            0.,NA,NA,"",   117.930E-03,  -112.462E-03,  -35.4927E-03,   272.888E-12
C:/temp/dataset/4/32_25.odb,Step-1,Increment      1: Step Time =    1.000,"PART-1-1",           437,      -6.00996,       9.23401,            0.,NA,NA,"",   121.455E-03,  -115.323E-03,  -38.1048E-03,   210.500E-12
C:/temp/dataset/4/32_25.odb,Step-1,Increment      1: Step Time =    1.000,"PART-1-1",           438,      -13.0926,       9.02789,            0.,NA,NA,"",   127.875E-03,  -114.767E-03,  -56.3961E-03,   230.520E-12
C:/temp/dataset/4/32_25.odb,Step-1,Increment      1: Step Time =    1.000,"PART-1-1",           439,      -14.0370,       10.1974,            0.,NA,NA,"",   131.663E-03,  -117.784E-03,  -58.8391E-03,   285.073E-12
C:/temp/dataset/4/32_25.odb,Step-1,Increment      1: Step Time =    1.000,"PART-1-1",           440,          -15.,       9.21875,            0.,NA,NA,"",   130.552E-03,  -115.253E-03,  -61.3229E-03,   369.576E-12
C:/temp/dataset/4/32_25.odb,Step-1,Increment      1: Step Time =    1.000,"PART-1-1",           441,      -13.9055,       1.56280,            0.,NA,NA,"",   111.965E-03,  -95.4845E-03,  -58.4705E-03,   209.054E-12
C:/temp/dataset/4/32_25.odb,Step-1,Increment      1: Step Time =    1.000,"PART-1-1",           442,      -12.9296,       2.64306,            0.,NA,NA,"",   113.090E-03,  -98.2777E-03,  -55.9538E-03,   230.934E-12
C:/temp/dataset/4/32_25.odb,Step-1,Increment      1: Step Time =    1.000,"PART-1-1",           443,      -14.0241,       3.73651,            0.,NA,NA,"",   116.946E-03,  -101.098E-03,  -58.7843E-03,   281.904E-12
C:/temp/dataset/4/32_25.odb,Step-1,Increment      1: Step Time =    1.000,"PART-1-1",           444,          -15.,       2.65625,            0.,NA,NA,"",   115.852E-03,  -98.3048E-03,  -61.3010E-03,   286.260E-12
C:/temp/dataset/4/32_25.odb,Step-1,Increment      1: Step Time =    1.000,"PART-1-1",           445,      -13.7570,      -2.81804,            0.,NA,NA,"",   102.260E-03,  -84.1708E-03,  -58.0724E-03,   88.7070E-12
C:/temp/dataset/4/32_25.odb,Step-1,Increment      1: Step Time =    1.000,"PART-1-1",           446,      -13.7756,  -623.683E-03,            0.,NA,NA,"",   107.003E-03,  -89.8380E-03,  -58.1278E-03,   140.923E-12
C:/temp/dataset/4/32_25.odb,Step-1,Increment      1: Step Time =    1.000,"PART-1-1",           447,          -15.,      -1.71875,            0.,NA,NA,"",   106.424E-03,  -87.0058E-03,  -61.2864E-03,   83.6542E-12
C:/temp/dataset/4/32_25.odb,Step-1,Increment      1: Step Time =    1.000,"PART-1-1",           448,        -13.75,           -5.,            0.,NA,NA,"",   97.6592E-03,  -78.5356E-03,  -58.0471E-03,   85.0675E-12
C:/temp/dataset/4/32_25.odb,Step-1,Increment      1: Step Time =    1.000,"PART-1-1",           449,      -12.5070,      -3.91179,            0.,NA,NA,"",   98.1088E-03,  -81.3502E-03,  -54.8404E-03,   102.957E-12
C:/temp/dataset/4/32_25.odb,Step-1,Increment      1: Step Time =    1.000,"PART-1-1",           450,          -15.,      -3.90625,            0.,NA,NA,"",   101.853E-03,  -81.3562E-03,  -61.2791E-03,   51.3699E-12
C:/temp/dataset/4/32_25.odb,Step-1,Increment      1: Step Time =    1.000,"PART-1-1",           451,          -15.,    468.75E-03,            0.,NA,NA,"",   111.094E-03,  -92.6553E-03,  -61.2937E-03,   173.679E-12
C:/temp/dataset/4/32_25.odb,Step-1,Increment      1: Step Time =    1.000,"PART-1-1",           452,      -5.10506,       2.56414,            0.,NA,NA,"",   104.410E-03,  -98.1000E-03,  -35.7455E-03,   1.12286E-09
C:/temp/dataset/4/32_25.odb,Step-1,Increment      1: Step Time =    1.000,"PART-1-1",           453,      -4.59209,       3.94539,            0.,NA,NA,"",   107.339E-03,  -101.669E-03,  -34.4253E-03,   1.04585E-09
C:/temp/dataset/4/32_25.odb,Step-1,Increment      1: Step Time =    1.000,"PART-1-1",           454,      -6.09775,       4.77703,            0.,NA,NA,"",   110.657E-03,  -103.812E-03,  -38.3167E-03,   752.520E-12
C:/temp/dataset/4/32_25.odb,Step-1,Increment      1: Step Time =    1.000,"PART-1-1",           455,      -6.61072,       3.39578,            0.,NA,NA,"",   107.795E-03,  -100.243E-03,  -39.6369E-03,   647.668E-12
C:/temp/dataset/4/32_25.odb,Step-1,Increment      1: Step Time =    1.000,"PART-1-1",           456,       9.44090,      -5.60228,            0.,NA,NA,"",   77.0795E-03,  -77.0574E-03,   1.84759E-03,   292.960E-09
C:/temp/dataset/4/32_25.odb,Step-1,Increment      1: Step Time =    1.000,"PART-1-1",           457,       9.79564,      -4.46986,            0.,NA,NA,"",   80.0308E-03,  -79.9832E-03,   2.76015E-03,   239.187E-09
C:/temp/dataset/4/32_25.odb,Step-1,Increment      1: Step Time =    1.000,"PART-1-1",           458,       8.43936,      -4.09444,            0.,NA,NA,"",   80.9516E-03,  -80.9482E-03,  -743.642E-06,   247.350E-09
C:/temp/dataset/4/32_25.odb,Step-1,Increment      1: Step Time =    1.000,"PART-1-1",           459,       8.08462,      -5.22686,            0.,NA,NA,"",   78.0401E-03,  -78.0225E-03,  -1.65608E-03,   210.276E-09
C:/temp/dataset/4/32_25.odb,Step-1,Increment      1: Step Time =    1.000,"PART-1-1",           460,       6.93926,      -9.88629,            0.,NA,NA,"",   66.1557E-03,  -65.9957E-03,  -4.59820E-03,   5.07789E-06
C:/temp/dataset/4/32_25.odb,Step-1,Increment      1: Step Time =    1.000,"PART-1-1",           461,       5.93813,      -8.99303,            0.,NA,NA,"",   68.6723E-03,  -68.2953E-03,  -7.18541E-03,   965.431E-09
C:/temp/dataset/4/32_25.odb,Step-1,Increment      1: Step Time =    1.000,"PART-1-1",           462,            5.,      -10.2083,            0.,NA,NA,"",   65.8629E-03,  -65.1593E-03,  -9.60160E-03,   1.85989E-06
C:/temp/dataset/4/32_25.odb,Step-1,Increment      1: Step Time =    1.000,"PART-1-1",           463,       12.9852,      -11.3613,            0.,NA,NA,"",   63.1420E-03,  -62.1727E-03,   11.0215E-03,   11.4199E-06
C:/temp/dataset/4/32_25.odb,Step-1,Increment      1: Step Time =    1.000,"PART-1-1",           464,       14.0059,      -12.5461,            0.,NA,NA,"",   60.6583E-03,  -59.1017E-03,   13.6537E-03,   11.6099E-06
C:/temp/dataset/4/32_25.odb,Step-1,Increment      1: Step Time =    1.000,"PART-1-1",           465,           15.,        -11.25,            0.,NA,NA,"",   64.5415E-03,  -62.4683E-03,   16.2268E-03,   5.95533E-06
C:/temp/dataset/4/32_25.odb,Step-1,Increment      1: Step Time =    1.000,"PART-1-1",           466,       13.9793,      -10.0652,            0.,NA,NA,"",   66.9265E-03,  -65.5332E-03,   13.5850E-03,   2.56356E-06
C:/temp/dataset/4/32_25.odb,Step-1,Increment      1: Step Time =    1.000,"PART-1-1",           467,       7.08713,      -16.3801,            0.,NA,NA,"",   49.4853E-03,  -49.3068E-03,  -4.19938E-03,   63.5969E-06
C:/temp/dataset/4/32_25.odb,Step-1,Increment      1: Step Time =    1.000,"PART-1-1",           468,            5.,      -16.4583,            0.,NA,NA,"",   50.0139E-03,  -49.0592E-03,  -9.72559E-03,   86.2904E-06
C:/temp/dataset/4/32_25.odb,Step-1,Increment      1: Step Time =    1.000,"PART-1-1",           469,       13.0372,      -13.8111,            0.,NA,NA,"",   56.9146E-03,  -55.8092E-03,   11.1625E-03,   36.0634E-06
C:/temp/dataset/4/32_25.odb,Step-1,Increment      1: Step Time =    1.000,"PART-1-1",           470,       14.0313,      -15.0151,            0.,NA,NA,"",   54.4303E-03,  -52.6820E-03,   13.6844E-03,   38.9156E-06
C:/temp/dataset/4/32_25.odb,Step-1,Increment      1: Step Time =    1.000,"PART-1-1",           471,           15.,        -13.75,            0.,NA,NA,"",   58.2850E-03,  -55.9849E-03,   16.2119E-03,   27.9055E-06
C:/temp/dataset/4/32_25.odb,Step-1,Increment      1: Step Time =    1.000,"PART-1-1",           472,       13.0981,      -18.6529,            0.,NA,NA,"",   44.8096E-03,  -43.3532E-03,   11.3313E-03,   119.687E-06
C:/temp/dataset/4/32_25.odb,Step-1,Increment      1: Step Time =    1.000,"PART-1-1",           473,       14.0553,      -19.9280,            0.,NA,NA,"",   42.5537E-03,  -40.4012E-03,   13.3625E-03,   280.438E-06
C:/temp/dataset/4/32_25.odb,Step-1,Increment      1: Step Time =    1.000,"PART-1-1",           474,           15.,        -18.75,            0.,NA,NA,"",   46.0165E-03,  -43.2285E-03,   15.7738E-03,   232.890E-06
C:/temp/dataset/4/32_25.odb,Step-1,Increment      1: Step Time =    1.000,"PART-1-1",           475,       14.0427,      -17.4749,            0.,NA,NA,"",   48.2980E-03,  -46.3381E-03,   13.6188E-03,   104.527E-06
C:/temp/dataset/4/32_25.odb,Step-1,Increment      1: Step Time =    1.000,"PART-1-1",           476,       6.17422,      -27.9405,            0.,NA,NA,"",   9.46225E-03,  -8.83904E-03,  -3.37721E-03,   2.26923E-03
C:/temp/dataset/4/32_25.odb,Step-1,Increment      1: Step Time =    1.000,"PART-1-1",           477,            5.,      -28.9583,            0.,NA,NA,"",   6.67934E-03,  -5.25446E-03,  -4.12362E-03,   3.91322E-03
C:/temp/dataset/4/32_25.odb,Step-1,Increment      1: Step Time =    1.000,"PART-1-1",           478,          6.25,          -30.,            0.,NA,NA,"",            0.,  -948.075E-42,  -3.90875E-39,   3.59416E-03
C:/temp/dataset/4/32_25.odb,Step-1,Increment      1: Step Time =    1.000,"PART-1-1",           479,       9.46325,      -26.8820,            0.,NA,NA,"",   14.5067E-03,  -14.5040E-03,   276.648E-06,   2.69991E-03
C:/temp/dataset/4/32_25.odb,Step-1,Increment      1: Step Time =    1.000,"PART-1-1",           480,       8.20536,      -25.9154,            0.,NA,NA,"",   18.4479E-03,  -18.4016E-03,  -1.30597E-03,   1.96003E-03
C:/temp/dataset/4/32_25.odb,Step-1,Increment      1: Step Time =    1.000,"PART-1-1",           481,       7.26622,      -26.9429,            0.,NA,NA,"",   13.6370E-03,  -13.3984E-03,  -2.53987E-03,   2.27573E-03
C:/temp/dataset/4/32_25.odb,Step-1,Increment      1: Step Time =    1.000,"PART-1-1",           482,       13.6319,      -27.3465,            0.,NA,NA,"",   18.7919E-03,  -17.9919E-03,   5.42464E-03,   3.46405E-03
C:/temp/dataset/4/32_25.odb,Step-1,Increment      1: Step Time =    1.000,"PART-1-1",           483,       12.3819,      -28.5965,            0.,NA,NA,"",   7.94441E-03,  -7.86038E-03,   1.15240E-03,   3.68084E-03
C:/temp/dataset/4/32_25.odb,Step-1,Increment      1: Step Time =    1.000,"PART-1-1",           484,         13.75,          -30.,            0.,NA,NA,"",            0.,  -1.64662E-39,   3.22095E-39,   5.95242E-03
C:/temp/dataset/4/32_25.odb,Step-1,Increment      1: Step Time =    1.000,"PART-1-1",           485,           15.,        -28.75,            0.,NA,NA,"",   14.3537E-03,  -12.7577E-03,   6.57789E-03,   5.34515E-03
C:/temp/dataset/4/32_25.odb,Step-1,Increment      1: Step Time =    1.000,"PART-1-1",           486,         11.25,          -30.,            0.,NA,NA,"",            0.,  -2.90276E-39,   575.934E-42,   3.02974E-03
C:/temp/dataset/4/32_25.odb,Step-1,Increment      1: Step Time =    1.000,"PART-1-1",           487,       10.9817,      -27.5238,            0.,NA,NA,"",   12.6643E-03,  -12.6022E-03,   1.25259E-03,   3.36385E-03
C:/temp/dataset/4/32_25.odb,Step-1,Increment      1: Step Time =    1.000,"PART-1-1",           488,       10.1507,      -19.6985,            0.,NA,NA,"",   40.8941E-03,  -40.6880E-03,   4.09987E-03,   114.764E-06
C:/temp/dataset/4/32_25.odb,Step-1,Increment      1: Step Time =    1.000,"PART-1-1",           489,       9.14094,      -20.7396,            0.,NA,NA,"",   37.7740E-03,  -37.7476E-03,   1.41104E-03,   246.553E-06
C:/temp/dataset/4/32_25.odb,Step-1,Increment      1: Step Time =    1.000,"PART-1-1",           490,       11.1621,      -20.8614,            0.,NA,NA,"",   38.5122E-03,  -37.9291E-03,   6.67662E-03,   357.060E-06
C:/temp/dataset/4/32_25.odb,Step-1,Increment      1: Step Time =    1.000,"PART-1-1",           491,       7.09922,      -20.6753,            0.,NA,NA,"",   37.9331E-03,  -37.6991E-03,  -4.20680E-03,   98.0471E-06
C:/temp/dataset/4/32_25.odb,Step-1,Increment      1: Step Time =    1.000,"PART-1-1",           492,            5.,       -20.625,            0.,NA,NA,"",   39.0965E-03,  -37.7071E-03,  -10.3300E-03,   203.566E-06
C:/temp/dataset/4/32_25.odb,Step-1,Increment      1: Step Time =    1.000,"PART-1-1",           493,       9.08758,      -14.0519,            0.,NA,NA,"",   55.2702E-03,  -55.2609E-03,   1.01732E-03,   40.0822E-06
C:/temp/dataset/4/32_25.odb,Step-1,Increment      1: Step Time =    1.000,"PART-1-1",           494,       10.1099,      -15.1447,            0.,NA,NA,"",   52.5463E-03,  -52.4151E-03,   3.71078E-03,   52.2495E-06
C:/temp/dataset/4/32_25.odb,Step-1,Increment      1: Step Time =    1.000,"PART-1-1",           495,       11.0794,      -13.9187,            0.,NA,NA,"",   55.8956E-03,  -55.5555E-03,   6.15711E-03,   39.4447E-06
C:/temp/dataset/4/32_25.odb,Step-1,Increment      1: Step Time =    1.000,"PART-1-1",           496,       10.0571,      -12.8260,            0.,NA,NA,"",   58.5069E-03,  -58.4023E-03,   3.49656E-03,   22.6501E-06
C:/temp/dataset/4/32_25.odb,Step-1,Increment      1: Step Time =    1.000,"PART-1-1",           497,       9.02765,      -11.7712,            0.,NA,NA,"",   61.1412E-03,  -61.1358E-03,   816.514E-06,   16.8753E-06
C:/temp/dataset/4/32_25.odb,Step-1,Increment      1: Step Time =    1.000,"PART-1-1",           498,       11.0123,      -11.5393,            0.,NA,NA,"",   62.0027E-03,  -61.7176E-03,   5.93935E-03,   15.3633E-06
C:/temp/dataset/4/32_25.odb,Step-1,Increment      1: Step Time =    1.000,"PART-1-1",           499,       9.98284,      -10.4845,            0.,NA,NA,"",   64.5328E-03,  -64.4498E-03,   3.27130E-03,   7.37581E-06
C:/temp/dataset/4/32_25.odb,Step-1,Increment      1: Step Time =    1.000,"PART-1-1",           500,       12.6190,       1.44886,            0.,NA,NA,"",   95.8057E-03,  -95.2789E-03,   10.0330E-03,   69.0014E-09
C:/temp/dataset/4/32_25.odb,Step-1,Increment      1: Step Time =    1.000,"PART-1-1",           501,       13.8500,   84.2405E-03,            0.,NA,NA,"",   92.7057E-03,  -91.7587E-03,   13.2170E-03,   76.3347E-09
C:/temp/dataset/4/32_25.odb,Step-1,Increment      1: Step Time =    1.000,"PART-1-1",           502,           15.,          1.25,            0.,NA,NA,"",   96.1450E-03,  -94.7732E-03,   16.1831E-03,   62.9684E-09
C:/temp/dataset/4/32_25.odb,Step-1,Increment      1: Step Time =    1.000,"PART-1-1",           503,       10.0180,      -2.29938,            0.,NA,NA,"",   85.6543E-03,  -85.5897E-03,   3.32770E-03,   184.781E-09
C:/temp/dataset/4/32_25.odb,Step-1,Increment      1: Step Time =    1.000,"PART-1-1",           504,       9.13986,      -3.07696,            0.,NA,NA,"",   83.5851E-03,  -83.5784E-03,   1.06215E-03,   219.972E-09
C:/temp/dataset/4/32_25.odb,Step-1,Increment      1: Step Time =    1.000,"PART-1-1",           505,       10.6738,      -3.69229,            0.,NA,NA,"",   82.1483E-03,  -81.9944E-03,   5.02581E-03,   213.505E-09
C:/temp/dataset/4/32_25.odb,Step-1,Increment      1: Step Time =    1.000,"PART-1-1",           506,       12.7589,       6.54544,            0.,NA,NA,"",   108.937E-03,  -108.442E-03,   10.3773E-03,   7.94427E-09
C:/temp/dataset/4/32_25.odb,Step-1,Increment      1: Step Time =    1.000,"PART-1-1",           507,           15.,          6.25,            0.,NA,NA,"",   108.893E-03,  -107.686E-03,   16.1663E-03,   1.73834E-09
C:/temp/dataset/4/32_25.odb,Step-1,Increment      1: Step Time =    1.000,"PART-1-1",           508,       13.9203,       7.65480,            0.,NA,NA,"",   112.111E-03,  -111.311E-03,   13.3731E-03,   1.35711E-09
C:/temp/dataset/4/32_25.odb,Step-1,Increment      1: Step Time =    1.000,"PART-1-1",           509,       13.0275,       16.3263,            0.,NA,NA,"",   134.158E-03,  -133.703E-03,   11.0383E-03,   238.396E-12
C:/temp/dataset/4/32_25.odb,Step-1,Increment      1: Step Time =    1.000,"PART-1-1",           510,       14.0150,       15.0581,            0.,NA,NA,"",   131.138E-03,  -130.431E-03,   13.5932E-03,   350.659E-12
C:/temp/dataset/4/32_25.odb,Step-1,Increment      1: Step Time =    1.000,"PART-1-1",           511,           15.,         16.25,            0.,NA,NA,"",   134.484E-03,  -133.513E-03,   16.1330E-03,   351.208E-12
C:/temp/dataset/4/32_25.odb,Step-1,Increment      1: Step Time =    1.000,"PART-1-1",           512,       14.0124,       17.5182,            0.,NA,NA,"",   137.457E-03,  -136.785E-03,   13.5782E-03,   175.772E-12
C:/temp/dataset/4/32_25.odb,Step-1,Increment      1: Step Time =    1.000,"PART-1-1",           513,       13.0175,       18.7421,            0.,NA,NA,"",   140.374E-03,  -139.942E-03,   11.0045E-03,   122.085E-12
C:/temp/dataset/4/32_25.odb,Step-1,Increment      1: Step Time =    1.000,"PART-1-1",           514,           15.,         18.75,            0.,NA,NA,"",   140.895E-03,  -139.969E-03,   16.1246E-03,   182.917E-12
C:/temp/dataset/4/32_25.odb,Step-1,Increment      1: Step Time =    1.000,"PART-1-1",           515,       14.0051,       19.9738,            0.,NA,NA,"",   143.767E-03,  -143.127E-03,   13.5510E-03,   107.208E-12
C:/temp/dataset/4/32_25.odb,Step-1,Increment      1: Step Time =    1.000,"PART-1-1",           516,       5.97628,       21.7197,            0.,NA,NA,"",   147.784E-03,  -147.609E-03,  -7.19038E-03,   138.503E-12
C:/temp/dataset/4/32_25.odb,Step-1,Increment      1: Step Time =    1.000,"PART-1-1",           517,       6.92463,       22.7965,            0.,NA,NA,"",   150.468E-03,  -150.393E-03,  -4.74472E-03,   107.237E-12
C:/temp/dataset/4/32_25.odb,Step-1,Increment      1: Step Time =    1.000,"PART-1-1",           518,       5.94835,       23.7852,            0.,NA,NA,"",   153.116E-03,  -152.943E-03,  -7.26941E-03,   117.723E-12
C:/temp/dataset/4/32_25.odb,Step-1,Increment      1: Step Time =    1.000,"PART-1-1",           519,            5.,       22.7083,            0.,NA,NA,"",   150.473E-03,  -150.159E-03,  -9.71507E-03,   151.938E-12
C:/temp/dataset/4/32_25.odb,Step-1,Increment      1: Step Time =    1.000,"PART-1-1",           520,       13.8862,       24.9278,            0.,NA,NA,"",   156.481E-03,  -155.921E-03,   13.2274E-03,   57.1083E-12
C:/temp/dataset/4/32_25.odb,Step-1,Increment      1: Step Time =    1.000,"PART-1-1",           521,           15.,         26.25,            0.,NA,NA,"",   160.151E-03,  -159.339E-03,   16.0996E-03,   62.3509E-12
C:/temp/dataset/4/32_25.odb,Step-1,Increment      1: Step Time =    1.000,"PART-1-1",           522,       6.15342,       27.8650,            0.,NA,NA,"",   163.620E-03,  -163.481E-03,  -6.75338E-03,   75.8317E-12
C:/temp/dataset/4/32_25.odb,Step-1,Increment      1: Step Time =    1.000,"PART-1-1",           523,       7.40342,       28.9067,            0.,NA,NA,"",   166.213E-03,  -166.175E-03,  -3.52854E-03,   61.9994E-12
C:/temp/dataset/4/32_25.odb,Step-1,Increment      1: Step Time =    1.000,"PART-1-1",           524,          6.25,           30.,            0.,NA,NA,"",   169.121E-03,  -168.995E-03,  -6.51108E-03,   52.8589E-12
C:/temp/dataset/4/32_25.odb,Step-1,Increment      1: Step Time =    1.000,"PART-1-1",           525,            5.,       28.9583,            0.,NA,NA,"",   166.585E-03,  -166.301E-03,  -9.73592E-03,   77.1603E-12
C:/temp/dataset/4/32_25.odb,Step-1,Increment      1: Step Time =    1.000,"PART-1-1",           526,       7.11917,       26.8292,            0.,NA,NA,"",   160.865E-03,  -160.809E-03,  -4.25575E-03,   77.3330E-12
C:/temp/dataset/4/32_25.odb,Step-1,Increment      1: Step Time =    1.000,"PART-1-1",           527,            5.,        26.875,            0.,NA,NA,"",   161.214E-03,  -160.920E-03,  -9.72897E-03,   98.6758E-12
C:/temp/dataset/4/32_25.odb,Step-1,Increment      1: Step Time =    1.000,"PART-1-1",           528,       5.96574,       25.8392,            0.,NA,NA,"",   158.413E-03,  -158.248E-03,  -7.23134E-03,   95.4560E-12
C:/temp/dataset/4/32_25.odb,Step-1,Increment      1: Step Time =    1.000,"PART-1-1",           529,       8.59546,       27.4701,            0.,NA,NA,"",   162.470E-03,  -162.469E-03,  -445.130E-06,   74.7219E-12
C:/temp/dataset/4/32_25.odb,Step-1,Increment      1: Step Time =    1.000,"PART-1-1",           530,       9.94204,       28.5635,            0.,NA,NA,"",   165.325E-03,  -165.297E-03,   3.02896E-03,   72.0779E-12
C:/temp/dataset/4/32_25.odb,Step-1,Increment      1: Step Time =    1.000,"PART-1-1",           531,          8.75,           30.,            0.,NA,NA,"",   169.004E-03,  -169.003E-03,  -54.4466E-06,   59.1372E-12
C:/temp/dataset/4/32_25.odb,Step-1,Increment      1: Step Time =    1.000,"PART-1-1",           532,            5.,       24.7917,            0.,NA,NA,"",   155.843E-03,  -155.540E-03,  -9.72202E-03,   123.932E-12
C:/temp/dataset/4/32_25.odb,Step-1,Increment      1: Step Time =    1.000,"PART-1-1",           533,       6.91409,       24.8327,            0.,NA,NA,"",   155.725E-03,  -155.652E-03,  -4.77873E-03,   93.1387E-12
C:/temp/dataset/4/32_25.odb,Step-1,Increment      1: Step Time =    1.000,"PART-1-1",           534,            5.,        20.625,            0.,NA,NA,"",   145.104E-03,  -144.779E-03,  -9.70812E-03,   173.793E-12
C:/temp/dataset/4/32_25.odb,Step-1,Increment      1: Step Time =    1.000,"PART-1-1",           535,       5.99534,       19.6263,            0.,NA,NA,"",   142.382E-03,  -142.203E-03,  -7.13417E-03,   152.848E-12
C:/temp/dataset/4/32_25.odb,Step-1,Increment      1: Step Time =    1.000,"PART-1-1",           536,       6.97162,       20.7210,            0.,NA,NA,"",   145.107E-03,  -145.033E-03,  -4.61643E-03,   118.811E-12
C:/temp/dataset/4/32_25.odb,Step-1,Increment      1: Step Time =    1.000,"PART-1-1",           537,       9.90537,       10.7177,            0.,NA,NA,"",   119.246E-03,  -119.208E-03,   2.99378E-03,   639.022E-12
C:/temp/dataset/4/32_25.odb,Step-1,Increment      1: Step Time =    1.000,"PART-1-1",           538,       8.83179,       9.75083,            0.,NA,NA,"",   116.707E-03,  -116.707E-03,   224.316E-06,   1.36222E-09
C:/temp/dataset/4/32_25.odb,Step-1,Increment      1: Step Time =    1.000,"PART-1-1",           539,       10.8380,       9.37550,            0.,NA,NA,"",   115.871E-03,  -115.745E-03,   5.40686E-03,   1.91080E-09
C:/temp/dataset/4/32_25.odb,Step-1,Increment      1: Step Time =    1.000,"PART-1-1",           540,       5.96737,       11.1773,            0.,NA,NA,"",   120.595E-03,  -120.382E-03,  -7.17823E-03,   547.017E-12
C:/temp/dataset/4/32_25.odb,Step-1,Increment      1: Step Time =    1.000,"PART-1-1",           541,       6.95908,       12.1740,            0.,NA,NA,"",   123.046E-03,  -122.959E-03,  -4.62031E-03,   504.184E-12
C:/temp/dataset/4/32_25.odb,Step-1,Increment      1: Step Time =    1.000,"PART-1-1",           542,            5.,       12.2917,            0.,NA,NA,"",   123.636E-03,  -123.257E-03,  -9.68033E-03,   667.264E-12
C:/temp/dataset/4/32_25.odb,Step-1,Increment      1: Step Time =    1.000,"PART-1-1",           543,       6.89189,       10.0466,            0.,NA,NA,"",   117.562E-03,  -117.465E-03,  -4.78674E-03,   589.346E-12
C:/temp/dataset/4/32_25.odb,Step-1,Increment      1: Step Time =    1.000,"PART-1-1",           544,            5.,       10.2083,            0.,NA,NA,"",   118.272E-03,  -117.876E-03,  -9.67339E-03,   1.41784E-09
C:/temp/dataset/4/32_25.odb,Step-1,Increment      1: Step Time =    1.000,"PART-1-1",           545,  -883.251E-03,       2.97832,            0.,NA,NA,"",   102.248E-03,  -99.1837E-03,  -24.8435E-03,   1.01891E-09
C:/temp/dataset/4/32_25.odb,Step-1,Increment      1: Step Time =    1.000,"PART-1-1",           546,         -1.25,            5.,            0.,NA,NA,"",   107.544E-03,  -104.404E-03,  -25.7974E-03,   4.45241E-09
C:/temp/dataset/4/32_25.odb,Step-1,Increment      1: Step Time =    1.000,"PART-1-1",           547,      -2.28350,       3.97568,            0.,NA,NA,"",   105.661E-03,  -101.755E-03,  -28.4631E-03,   2.29734E-09
C:/temp/dataset/4/32_25.odb,Step-1,Increment      1: Step Time =    1.000,"PART-1-1",           548,      -3.12559,       2.92107,            0.,NA,NA,"",   103.659E-03,  -99.0284E-03,  -30.6344E-03,   1.45123E-09
C:/temp/dataset/4/32_25.odb,Step-1,Increment      1: Step Time =    1.000,"PART-1-1",           549,         -3.75,            5.,            0.,NA,NA,"",   109.264E-03,  -104.395E-03,  -32.2540E-03,   2.64358E-09
C:/temp/dataset/4/32_25.odb,Step-1,Increment      1: Step Time =    1.000,"PART-1-1",           550,      -7.01026,       10.3490,            0.,NA,NA,"",   125.007E-03,  -118.199E-03,  -40.6920E-03,   165.236E-12
C:/temp/dataset/4/32_25.odb,Step-1,Increment      1: Step Time =    1.000,"PART-1-1",           551,           -5.,       10.2083,            0.,NA,NA,"",   123.074E-03,  -117.843E-03,  -35.4997E-03,   225.812E-12
C:/temp/dataset/4/32_25.odb,Step-1,Increment      1: Step Time =    1.000,"PART-1-1",           552,      -6.00030,       11.3233,            0.,NA,NA,"",   126.585E-03,  -120.719E-03,  -38.0868E-03,   191.518E-12
C:/temp/dataset/4/32_25.odb,Step-1,Increment      1: Step Time =    1.000,"PART-1-1",           553,      -6.90277,       16.5792,            0.,NA,NA,"",   140.245E-03,  -134.290E-03,  -40.4351E-03,   108.231E-12
C:/temp/dataset/4/32_25.odb,Step-1,Increment      1: Step Time =    1.000,"PART-1-1",           554,           -5.,       16.4583,            0.,NA,NA,"",   138.613E-03,  -133.984E-03,  -35.5205E-03,   178.712E-12
C:/temp/dataset/4/32_25.odb,Step-1,Increment      1: Step Time =    1.000,"PART-1-1",           555,      -5.93592,       17.5473,            0.,NA,NA,"",   141.958E-03,  -136.793E-03,  -37.9413E-03,   131.021E-12
C:/temp/dataset/4/32_25.odb,Step-1,Increment      1: Step Time =    1.000,"PART-1-1",           556,      -5.96041,       23.6583,            0.,NA,NA,"",   157.243E-03,  -152.576E-03,  -38.0249E-03,   68.8870E-12
C:/temp/dataset/4/32_25.odb,Step-1,Increment      1: Step Time =    1.000,"PART-1-1",           557,           -5.,       24.7917,            0.,NA,NA,"",   159.518E-03,  -155.506E-03,  -35.5483E-03,   73.7588E-12
C:/temp/dataset/4/32_25.odb,Step-1,Increment      1: Step Time =    1.000,"PART-1-1",           558,      -7.48847,       28.8776,            0.,NA,NA,"",   171.277E-03,  -166.050E-03,  -41.9888E-03,   73.2445E-12
C:/temp/dataset/4/32_25.odb,Step-1,Increment      1: Step Time =    1.000,"PART-1-1",           559,           -5.,       28.9583,            0.,NA,NA,"",   170.028E-03,  -166.267E-03,  -35.5622E-03,   54.8612E-12
C:/temp/dataset/4/32_25.odb,Step-1,Increment      1: Step Time =    1.000,"PART-1-1",           560,         -6.25,           30.,            0.,NA,NA,"",   173.350E-03,  -168.953E-03,  -38.7940E-03,   77.3423E-12
C:/temp/dataset/4/32_25.odb,Step-1,Increment      1: Step Time =    1.000,"PART-1-1",           561,       12.9634,       11.4929,            0.,NA,NA,"",   121.708E-03,  -121.220E-03,   10.8891E-03,   439.947E-12
C:/temp/dataset/4/32_25.odb,Step-1,Increment      1: Step Time =    1.000,"PART-1-1",           562,       13.9657,       10.1417,            0.,NA,NA,"",   118.503E-03,  -117.734E-03,   13.4820E-03,   1.02859E-09
C:/temp/dataset/4/32_25.odb,Step-1,Increment      1: Step Time =    1.000,"PART-1-1",           563,           15.,         11.25,            0.,NA,NA,"",   121.676E-03,  -120.600E-03,   16.1497E-03,   1.41934E-09
C:/temp/dataset/4/32_25.odb,Step-1,Increment      1: Step Time =    1.000,"PART-1-1",           564,       13.9978,       12.6011,            0.,NA,NA,"",   124.824E-03,  -124.086E-03,   13.5567E-03,   683.375E-12
C:/temp/dataset/4/32_25.odb,Step-1,Increment      1: Step Time =    1.000,"PART-1-1",           565,       9.13480,      -18.5479,            0.,NA,NA,"",   43.6731E-03,  -43.6518E-03,   1.36231E-03,   74.3870E-06
C:/temp/dataset/4/32_25.odb,Step-1,Increment      1: Step Time =    1.000,"PART-1-1",           566,       11.1537,      -18.5886,            0.,NA,NA,"",   44.0329E-03,  -43.5346E-03,   6.60578E-03,   88.5892E-06
C:/temp/dataset/4/32_25.odb,Step-1,Increment      1: Step Time =    1.000,"PART-1-1",           567,       10.1377,      -17.4381,            0.,NA,NA,"",   46.6708E-03,  -46.5056E-03,   3.92290E-03,   82.9794E-06
C:/temp/dataset/4/32_25.odb,Step-1,Increment      1: Step Time =    1.000,"PART-1-1",           568,      -8.81573,       27.5627,            0.,NA,NA,"",   168.871E-03,  -162.650E-03,  -45.4122E-03,   70.6440E-12
C:/temp/dataset/4/32_25.odb,Step-1,Increment      1: Step Time =    1.000,"PART-1-1",           569,         -8.75,           30.,            0.,NA,NA,"",   174.900E-03,  -168.945E-03,  -45.2506E-03,   71.0739E-12
C:/temp/dataset/4/32_25.odb,Step-1,Increment      1: Step Time =    1.000,"PART-1-1",           570,            5.,      -24.7917,            0.,NA,NA,"",   25.7378E-03,  -23.4522E-03,  -10.6033E-03,   422.293E-06
C:/temp/dataset/4/32_25.odb,Step-1,Increment      1: Step Time =    1.000,"PART-1-1",           571,       6.09200,      -25.8775,            0.,NA,NA,"",   19.6976E-03,  -18.7048E-03,  -6.17456E-03,   1.09679E-03
C:/temp/dataset/4/32_25.odb,Step-1,Increment      1: Step Time =    1.000,"PART-1-1",           572,       7.15121,      -24.8757,            0.,NA,NA,"",   23.1579E-03,  -22.8555E-03,  -3.73047E-03,   1.23977E-03
C:/temp/dataset/4/32_25.odb,Step-1,Increment      1: Step Time =    1.000,"PART-1-1",           573,       13.1040,      -21.0477,            0.,NA,NA,"",   39.7659E-03,  -38.0995E-03,   11.3908E-03,   455.699E-06
C:/temp/dataset/4/32_25.odb,Step-1,Increment      1: Step Time =    1.000,"PART-1-1",           574,       14.0487,      -22.3697,            0.,NA,NA,"",   39.0141E-03,  -36.6827E-03,   13.2845E-03,   1.28318E-03
C:/temp/dataset/4/32_25.odb,Step-1,Increment      1: Step Time =    1.000,"PART-1-1",           575,           15.,        -21.25,            0.,NA,NA,"",   40.6004E-03,  -37.8188E-03,   14.7692E-03,   443.811E-06
C:/temp/dataset/4/32_25.odb,Step-1,Increment      1: Step Time =    1.000,"PART-1-1",           576,            5.,       -26.875,            0.,NA,NA,"",   17.4733E-03,  -14.8317E-03,  -9.23776E-03,   1.64460E-03
C:/temp/dataset/4/32_25.odb,Step-1,Increment      1: Step Time =    1.000,"PART-1-1",           577,       12.8133,      -6.31290,            0.,NA,NA,"",   75.9700E-03,  -75.2323E-03,   10.5607E-03,   281.159E-09
C:/temp/dataset/4/32_25.odb,Step-1,Increment      1: Step Time =    1.000,"PART-1-1",           578,       13.9319,      -7.55671,            0.,NA,NA,"",   73.2678E-03,  -72.0217E-03,   13.4554E-03,   420.766E-09
C:/temp/dataset/4/32_25.odb,Step-1,Increment      1: Step Time =    1.000,"PART-1-1",           579,           15.,         -6.25,            0.,NA,NA,"",   77.1245E-03,  -75.4017E-03,   16.2103E-03,   696.326E-09
C:/temp/dataset/4/32_25.odb,Step-1,Increment      1: Step Time =    1.000,"PART-1-1",           580,            5.,       18.5417,            0.,NA,NA,"",   139.735E-03,  -139.398E-03,  -9.70118E-03,   168.933E-12
C:/temp/dataset/4/32_25.odb,Step-1,Increment      1: Step Time =    1.000,"PART-1-1",           581,       6.00122,       17.5195,            0.,NA,NA,"",   136.946E-03,  -136.761E-03,  -7.11197E-03,   152.665E-12
C:/temp/dataset/4/32_25.odb,Step-1,Increment      1: Step Time =    1.000,"PART-1-1",           582,       6.99656,       18.6041,            0.,NA,NA,"",   139.640E-03,  -139.566E-03,  -4.54496E-03,   139.575E-12
C:/temp/dataset/4/32_25.odb,Step-1,Increment      1: Step Time =    1.000,"PART-1-1",           583,       12.8545,       23.6160,            0.,NA,NA,"",   152.895E-03,  -152.530E-03,   10.5673E-03,   60.5249E-12
C:/temp/dataset/4/32_25.odb,Step-1,Increment      1: Step Time =    1.000,"PART-1-1",           584,       13.9683,       22.4382,            0.,NA,NA,"",   150.095E-03,  -149.491E-03,   13.4478E-03,   76.2859E-12
C:/temp/dataset/4/32_25.odb,Step-1,Increment      1: Step Time =    1.000,"PART-1-1",           585,           15.,         23.75,            0.,NA,NA,"",   153.729E-03,  -152.883E-03,   16.1080E-03,   81.4671E-12
C:/temp/dataset/4/32_25.odb,Step-1,Increment      1: Step Time =    1.000,"PART-1-1",           586,            5.,       16.4583,            0.,NA,NA,"",   134.368E-03,  -134.018E-03,  -9.69423E-03,   102.189E-12
C:/temp/dataset/4/32_25.odb,Step-1,Increment      1: Step Time =    1.000,"PART-1-1",           587,       7.00480,       16.4638,            0.,NA,NA,"",   134.114E-03,  -134.038E-03,  -4.51656E-03,   216.524E-12
C:/temp/dataset/4/32_25.odb,Step-1,Increment      1: Step Time =    1.000,"PART-1-1",           588,       12.9734,       21.1620,            0.,NA,NA,"",   146.597E-03,  -146.192E-03,   10.8826E-03,   77.6347E-12
C:/temp/dataset/4/32_25.odb,Step-1,Increment      1: Step Time =    1.000,"PART-1-1",           589,           15.,         21.25,            0.,NA,NA,"",   147.310E-03,  -146.426E-03,   16.1163E-03,   115.571E-12
C:/temp/dataset/4/32_25.odb,Step-1,Increment      1: Step Time =    1.000,"PART-1-1",           590,            5.,       6.04167,            0.,NA,NA,"",   107.550E-03,  -107.115E-03,  -9.65949E-03,   17.2215E-09
C:/temp/dataset/4/32_25.odb,Step-1,Increment      1: Step Time =    1.000,"PART-1-1",           591,       5.70418,       5.21013,            0.,NA,NA,"",   105.262E-03,  -104.970E-03,  -7.83805E-03,   25.7763E-09
C:/temp/dataset/4/32_25.odb,Step-1,Increment      1: Step Time =    1.000,"PART-1-1",           592,       6.54256,       6.20387,            0.,NA,NA,"",   107.689E-03,  -107.539E-03,  -5.67613E-03,   14.6961E-09
C:/temp/dataset/4/32_25.odb,Step-1,Increment      1: Step Time =    1.000,"PART-1-1",           593,       7.80464,       8.81181,            0.,NA,NA,"",   114.304E-03,  -114.279E-03,  -2.42531E-03,   2.05540E-09
C:/temp/dataset/4/32_25.odb,Step-1,Increment      1: Step Time =    1.000,"PART-1-1",           594,       7.55468,       6.70991,            0.,NA,NA,"",   108.892E-03,  -108.849E-03,  -3.06387E-03,   10.0220E-09
C:/temp/dataset/4/32_25.odb,Step-1,Increment      1: Step Time =    1.000,"PART-1-1",           595,           -5.,       12.2917,            0.,NA,NA,"",   128.237E-03,  -123.223E-03,  -35.5066E-03,   227.232E-12
C:/temp/dataset/4/32_25.odb,Step-1,Increment      1: Step Time =    1.000,"PART-1-1",           596,      -13.0551,       11.1433,            0.,NA,NA,"",   132.762E-03,  -120.230E-03,  -56.3063E-03,   211.047E-12
C:/temp/dataset/4/32_25.odb,Step-1,Increment      1: Step Time =    1.000,"PART-1-1",           597,          -15.,       11.4063,            0.,NA,NA,"",   135.569E-03,  -120.903E-03,  -61.3301E-03,   328.031E-12
C:/temp/dataset/4/32_25.odb,Step-1,Increment      1: Step Time =    1.000,"PART-1-1",           598,           -5.,       18.5417,            0.,NA,NA,"",   143.822E-03,  -139.365E-03,  -35.5275E-03,   150.794E-12
C:/temp/dataset/4/32_25.odb,Step-1,Increment      1: Step Time =    1.000,"PART-1-1",           599,      -6.83195,       18.5917,            0.,NA,NA,"",   145.181E-03,  -139.488E-03,  -40.2589E-03,   94.6996E-12
C:/temp/dataset/4/32_25.odb,Step-1,Increment      1: Step Time =    1.000,"PART-1-1",           600,      -12.9744,       15.4368,            0.,NA,NA,"",   142.805E-03,  -131.319E-03,  -56.1123E-03,   168.707E-12
C:/temp/dataset/4/32_25.odb,Step-1,Increment      1: Step Time =    1.000,"PART-1-1",           601,      -13.9736,       16.6988,            0.,NA,NA,"",   146.819E-03,  -134.575E-03,  -58.6970E-03,   193.519E-12
C:/temp/dataset/4/32_25.odb,Step-1,Increment      1: Step Time =    1.000,"PART-1-1",           602,          -15.,       15.7813,            0.,NA,NA,"",   145.741E-03,  -132.202E-03,  -61.3447E-03,   249.541E-12
C:/temp/dataset/4/32_25.odb,Step-1,Increment      1: Step Time =    1.000,"PART-1-1",           603,      -6.85389,       22.5676,            0.,NA,NA,"",   155.091E-03,  -149.756E-03,  -40.3288E-03,   67.1699E-12
C:/temp/dataset/4/32_25.odb,Step-1,Increment      1: Step Time =    1.000,"PART-1-1",           604,           -5.,       22.7083,            0.,NA,NA,"",   154.275E-03,  -150.126E-03,  -35.5414E-03,   96.4888E-12
C:/temp/dataset/4/32_25.odb,Step-1,Increment      1: Step Time =    1.000,"PART-1-1",           605,      -7.62380,       21.5126,            0.,NA,NA,"",   152.996E-03,  -147.029E-03,  -42.3137E-03,   65.2575E-12
C:/temp/dataset/4/32_25.odb,Step-1,Increment      1: Step Time =    1.000,"PART-1-1",           606,      -11.2433,       25.0031,            0.,NA,NA,"",   164.365E-03,  -156.031E-03,  -51.6734E-03,   79.6564E-12
C:/temp/dataset/4/32_25.odb,Step-1,Increment      1: Step Time =    1.000,"PART-1-1",           607,      -10.1220,       24.6816,            0.,NA,NA,"",   162.689E-03,  -155.205E-03,  -48.7762E-03,   74.1680E-12
C:/temp/dataset/4/32_25.odb,Step-1,Increment      1: Step Time =    1.000,"PART-1-1",           608,      -9.68436,       26.2404,            0.,NA,NA,"",   166.209E-03,  -159.232E-03,  -47.6512E-03,   73.7661E-12
C:/temp/dataset/4/32_25.odb,Step-1,Increment      1: Step Time =    1.000,"PART-1-1",           609,      -10.8057,       26.5619,            0.,NA,NA,"",   167.851E-03,  -160.059E-03,  -50.5484E-03,   76.8628E-12
C:/temp/dataset/4/32_25.odb,Step-1,Increment      1: Step Time =    1.000,"PART-1-1",           610,            5.,      -6.04167,            0.,NA,NA,"",   76.5155E-03,  -75.9086E-03,  -9.61769E-03,   796.390E-09
C:/temp/dataset/4/32_25.odb,Step-1,Increment      1: Step Time =    1.000,"PART-1-1",           611,       5.81487,      -6.90448,            0.,NA,NA,"",   74.0655E-03,  -73.6837E-03,  -7.51068E-03,   461.349E-09
C:/temp/dataset/4/32_25.odb,Step-1,Increment      1: Step Time =    1.000,"PART-1-1",           612,       6.44107,      -5.66337,            0.,NA,NA,"",   77.1158E-03,  -76.8899E-03,  -5.89843E-03,   128.576E-09
C:/temp/dataset/4/32_25.odb,Step-1,Increment      1: Step Time =    1.000,"PART-1-1",           613,       5.62621,      -4.80056,            0.,NA,NA,"",   79.5192E-03,  -79.1152E-03,  -8.00550E-03,   360.739E-09
C:/temp/dataset/4/32_25.odb,Step-1,Increment      1: Step Time =    1.000,"PART-1-1",           614,            5.,        -8.125,            0.,NA,NA,"",   71.1829E-03,  -70.5314E-03,  -9.60899E-03,   575.068E-09
C:/temp/dataset/4/32_25.odb,Step-1,Increment      1: Step Time =    1.000,"PART-1-1",           615,       8.00489,       17.5473,            0.,NA,NA,"",   136.854E-03,  -136.840E-03,  -1.93728E-03,   160.785E-12
C:/temp/dataset/4/32_25.odb,Step-1,Increment      1: Step Time =    1.000,"PART-1-1",           616,       8.00828,       15.3576,            0.,NA,NA,"",   131.199E-03,  -131.185E-03,  -1.92121E-03,   297.990E-12
C:/temp/dataset/4/32_25.odb,Step-1,Increment      1: Step Time =    1.000,"PART-1-1",           617,       11.1265,      -16.2686,            0.,NA,NA,"",   49.8828E-03,  -49.4734E-03,   6.37812E-03,   75.8575E-06
C:/temp/dataset/4/32_25.odb,Step-1,Increment      1: Step Time =    1.000,"PART-1-1",           618,       9.12111,      -16.3141,            0.,NA,NA,"",   49.4533E-03,  -49.4388E-03,   1.19810E-03,   69.0123E-06
C:/temp/dataset/4/32_25.odb,Step-1,Increment      1: Step Time =    1.000,"PART-1-1",           619,      -9.91602,       15.9767,            0.,NA,NA,"",   141.210E-03,  -132.724E-03,  -48.2153E-03,   70.8086E-12
C:/temp/dataset/4/32_25.odb,Step-1,Increment      1: Step Time =    1.000,"PART-1-1",           620,      -10.9598,       15.0860,            0.,NA,NA,"",   140.004E-03,  -130.420E-03,  -50.9080E-03,   97.1405E-12
C:/temp/dataset/4/32_25.odb,Step-1,Increment      1: Step Time =    1.000,"PART-1-1",           621,      -8.93702,       14.7598,            0.,NA,NA,"",   137.401E-03,  -129.584E-03,  -45.6828E-03,   70.0713E-12
C:/temp/dataset/4/32_25.odb,Step-1,Increment      1: Step Time =    1.000,"PART-1-1",           622,      -13.0880,       4.79273,            0.,NA,NA,"",   118.144E-03,  -103.829E-03,  -56.3700E-03,   241.235E-12
C:/temp/dataset/4/32_25.odb,Step-1,Increment      1: Step Time =    1.000,"PART-1-1",           623,          -15.,       4.84375,            0.,NA,NA,"",   120.686E-03,  -103.954E-03,  -61.3083E-03,   369.825E-12
C:/temp/dataset/4/32_25.odb,Step-1,Increment      1: Step Time =    1.000,"PART-1-1",           624,           -5.,       6.04167,            0.,NA,NA,"",   112.808E-03,  -107.082E-03,  -35.4858E-03,   474.415E-12
C:/temp/dataset/4/32_25.odb,Step-1,Increment      1: Step Time =    1.000,"PART-1-1",           625,      -7.12843,       5.83601,            0.,NA,NA,"",   114.153E-03,  -106.543E-03,  -40.9821E-03,   146.347E-12
C:/temp/dataset/4/32_25.odb,Step-1,Increment      1: Step Time =    1.000,"PART-1-1",           626,       12.9112,      -8.87192,            0.,NA,NA,"",   69.4662E-03,  -68.6180E-03,   10.8223E-03,   2.94084E-06
C:/temp/dataset/4/32_25.odb,Step-1,Increment      1: Step Time =    1.000,"PART-1-1",           627,           15.,         -8.75,            0.,NA,NA,"",   70.8225E-03,  -68.9399E-03,   16.2209E-03,   235.337E-09
C:/temp/dataset/4/32_25.odb,Step-1,Increment      1: Step Time =    1.000,"PART-1-1",           628,       13.0740,      -16.2399,            0.,NA,NA,"",   50.7631E-03,  -49.4990E-03,   11.2583E-03,   69.9916E-06
C:/temp/dataset/4/32_25.odb,Step-1,Increment      1: Step Time =    1.000,"PART-1-1",           629,           15.,        -16.25,            0.,NA,NA,"",   52.0572E-03,  -49.5052E-03,   16.0994E-03,   100.635E-06
C:/temp/dataset/4/32_25.odb,Step-1,Increment      1: Step Time =    1.000,"PART-1-1",           630,       13.0128,       13.9092,            0.,NA,NA,"",   127.935E-03,  -127.461E-03,   11.0086E-03,   436.362E-12
C:/temp/dataset/4/32_25.odb,Step-1,Increment      1: Step Time =    1.000,"PART-1-1",           631,           15.,         13.75,            0.,NA,NA,"",   128.077E-03,  -127.056E-03,   16.1413E-03,   742.808E-12
C:/temp/dataset/4/32_25.odb,Step-1,Increment      1: Step Time =    1.000,"PART-1-1",           632,       10.9505,       11.7339,            0.,NA,NA,"",   121.969E-03,  -121.836E-03,   5.68956E-03,   484.036E-12
C:/temp/dataset/4/32_25.odb,Step-1,Increment      1: Step Time =    1.000,"PART-1-1",           633,       9.98883,       12.9959,            0.,NA,NA,"",   125.133E-03,  -125.092E-03,   3.20173E-03,   512.018E-12
C:/temp/dataset/4/32_25.odb,Step-1,Increment      1: Step Time =    1.000,"PART-1-1",           634,       8.94372,       11.9797,            0.,NA,NA,"",   122.465E-03,  -122.464E-03,   505.960E-06,   563.373E-12
C:/temp/dataset/4/32_25.odb,Step-1,Increment      1: Step Time =    1.000,"PART-1-1",           635,      -13.9153,       18.9000,            0.,NA,NA,"",   151.992E-03,  -140.260E-03,  -58.5538E-03,   165.952E-12
C:/temp/dataset/4/32_25.odb,Step-1,Increment      1: Step Time =    1.000,"PART-1-1",           636,      -12.6393,       19.9841,            0.,NA,NA,"",   153.367E-03,  -143.065E-03,  -55.2620E-03,   122.731E-12
C:/temp/dataset/4/32_25.odb,Step-1,Increment      1: Step Time =    1.000,"PART-1-1",           637,          -15.,       20.1563,            0.,NA,NA,"",   156.069E-03,  -143.501E-03,  -61.3593E-03,   183.797E-12
C:/temp/dataset/4/32_25.odb,Step-1,Increment      1: Step Time =    1.000,"PART-1-1",           638,       8.12191,      -21.7795,            0.,NA,NA,"",   34.4729E-03,  -34.4453E-03,  -1.37747E-03,   332.373E-06
C:/temp/dataset/4/32_25.odb,Step-1,Increment      1: Step Time =    1.000,"PART-1-1",           639,       8.12482,      -23.8590,            0.,NA,NA,"",   27.2247E-03,  -27.1849E-03,  -1.47151E-03,   975.738E-06
C:/temp/dataset/4/32_25.odb,Step-1,Increment      1: Step Time =    1.000,"PART-1-1",           640,       8.11825,      -19.6354,            0.,NA,NA,"",   40.7389E-03,  -40.7163E-03,  -1.35627E-03,   61.5730E-06
C:/temp/dataset/4/32_25.odb,Step-1,Increment      1: Step Time =    1.000,"PART-1-1",           641,       8.10952,      -17.4508,            0.,NA,NA,"",   46.5477E-03,  -46.5254E-03,  -1.44027E-03,   70.3103E-06
C:/temp/dataset/4/32_25.odb,Step-1,Increment      1: Step Time =    1.000,"PART-1-1",           642,       7.85781,       23.9076,            0.,NA,NA,"",   153.284E-03,  -153.266E-03,  -2.33835E-03,   88.8769E-12
C:/temp/dataset/4/32_25.odb,Step-1,Increment      1: Step Time =    1.000,"PART-1-1",           643,       7.94870,       21.8524,            0.,NA,NA,"",   147.973E-03,  -147.958E-03,  -2.09675E-03,   95.8375E-12
C:/temp/dataset/4/32_25.odb,Step-1,Increment      1: Step Time =    1.000,"PART-1-1",           644,       4.21929,       2.98066,            0.,NA,NA,"",   99.8903E-03,  -99.2068E-03,  -11.6655E-03,   24.0249E-09
C:/temp/dataset/4/32_25.odb,Step-1,Increment      1: Step Time =    1.000,"PART-1-1",           645,       5.32392,       3.96649,            0.,NA,NA,"",   102.138E-03,  -101.757E-03,  -8.81598E-03,   24.7108E-09
C:/temp/dataset/4/32_25.odb,Step-1,Increment      1: Step Time =    1.000,"PART-1-1",           646,          3.75,            5.,            0.,NA,NA,"",   105.212E-03,  -104.420E-03,  -12.8843E-03,   17.9417E-09
C:/temp/dataset/4/32_25.odb,Step-1,Increment      1: Step Time =    1.000,"PART-1-1",           647,       12.8859,       9.04653,            0.,NA,NA,"",   115.399E-03,  -114.902E-03,   10.6971E-03,   1.27489E-09
C:/temp/dataset/4/32_25.odb,Step-1,Increment      1: Step Time =    1.000,"PART-1-1",           648,           15.,          8.75,            0.,NA,NA,"",   115.281E-03,  -114.143E-03,   16.1580E-03,   1.62615E-09
C:/temp/dataset/4/32_25.odb,Step-1,Increment      1: Step Time =    1.000,"PART-1-1",           649,      -8.02807,       9.41948,            0.,NA,NA,"",   123.632E-03,  -115.795E-03,  -43.3175E-03,   119.867E-12
C:/temp/dataset/4/32_25.odb,Step-1,Increment      1: Step Time =    1.000,"PART-1-1",           650,      -8.84347,       16.8085,            0.,NA,NA,"",   142.327E-03,  -134.876E-03,  -45.4480E-03,   67.8283E-12
C:/temp/dataset/4/32_25.odb,Step-1,Increment      1: Step Time =    1.000,"PART-1-1",           651,      -9.78583,       18.0165,            0.,NA,NA,"",   146.065E-03,  -137.992E-03,  -47.8858E-03,   69.1472E-12
C:/temp/dataset/4/32_25.odb,Step-1,Increment      1: Step Time =    1.000,"PART-1-1",           652,          -15.,       17.9688,            0.,NA,NA,"",   150.888E-03,  -137.852E-03,  -61.3520E-03,   215.891E-12
C:/temp/dataset/4/32_25.odb,Step-1,Increment      1: Step Time =    1.000,"PART-1-1",           653,          -15.,       24.5313,            0.,NA,NA,"",   166.523E-03,  -154.800E-03,  -61.3739E-03,   123.801E-12
C:/temp/dataset/4/32_25.odb,Step-1,Increment      1: Step Time =    1.000,"PART-1-1",           654,      -12.9952,       24.7258,            0.,NA,NA,"",   165.164E-03,  -155.309E-03,  -56.1968E-03,   92.7998E-12
C:/temp/dataset/4/32_25.odb,Step-1,Increment      1: Step Time =    1.000,"PART-1-1",           655,      -11.4985,       21.8877,            0.,NA,NA,"",   156.962E-03,  -147.984E-03,  -52.3221E-03,   91.3691E-12
C:/temp/dataset/4/32_25.odb,Step-1,Increment      1: Step Time =    1.000,"PART-1-1",           656,      -11.4490,       20.6565,            0.,NA,NA,"",   153.923E-03,  -144.805E-03,  -52.1900E-03,   92.3898E-12
C:/temp/dataset/4/32_25.odb,Step-1,Increment      1: Step Time =    1.000,"PART-1-1",           657,      -10.1446,       20.7260,            0.,NA,NA,"",   152.988E-03,  -144.989E-03,  -48.8215E-03,   74.9884E-12
C:/temp/dataset/4/32_25.odb,Step-1,Increment      1: Step Time =    1.000,"PART-1-1",           658,      -7.69218,       19.6350,            0.,NA,NA,"",   148.391E-03,  -142.179E-03,  -42.4841E-03,   71.7258E-12
C:/temp/dataset/4/32_25.odb,Step-1,Increment      1: Step Time =    1.000,"PART-1-1",           659,      -8.68744,       18.7463,            0.,NA,NA,"",   146.957E-03,  -139.881E-03,  -45.0515E-03,   66.1981E-12
C:/temp/dataset/4/32_25.odb,Step-1,Increment      1: Step Time =    1.000,"PART-1-1",           660,      -7.82721,       17.7030,            0.,NA,NA,"",   143.718E-03,  -137.189E-03,  -42.8264E-03,   77.6960E-12
C:/temp/dataset/4/32_25.odb,Step-1,Increment      1: Step Time =    1.000,"PART-1-1",           661,      -9.52114,       19.8817,            0.,NA,NA,"",   150.411E-03,  -142.810E-03,  -47.2085E-03,   67.2742E-12
C:/temp/dataset/4/32_25.odb,Step-1,Increment      1: Step Time =    1.000,"PART-1-1",           662,      -10.6195,       19.1519,            0.,NA,NA,"",   149.543E-03,  -140.922E-03,  -50.0428E-03,   83.3936E-12
C:/temp/dataset/4/32_25.odb,Step-1,Increment      1: Step Time =    1.000,"PART-1-1",           663,      -12.1485,       3.78191,            0.,NA,NA,"",   114.697E-03,  -101.222E-03,  -53.9403E-03,   233.755E-12
C:/temp/dataset/4/32_25.odb,Step-1,Increment      1: Step Time =    1.000,"PART-1-1",           664,      -10.9850,       2.86362,            0.,NA,NA,"",   111.203E-03,  -98.8538E-03,  -50.9323E-03,   255.224E-12
C:/temp/dataset/4/32_25.odb,Step-1,Increment      1: Step Time =    1.000,"PART-1-1",           665,      -9.06958,       8.49577,            0.,NA,NA,"",   122.382E-03,  -113.406E-03,  -46.0043E-03,   62.3466E-12
C:/temp/dataset/4/32_25.odb,Step-1,Increment      1: Step Time =    1.000,"PART-1-1",           666,      -8.08215,       7.28595,            0.,NA,NA,"",   118.535E-03,  -110.285E-03,  -43.4500E-03,   132.886E-12
C:/temp/dataset/4/32_25.odb,Step-1,Increment      1: Step Time =    1.000,"PART-1-1",           667,      -10.1292,       7.60955,            0.,NA,NA,"",   121.333E-03,  -111.114E-03,  -48.7379E-03,   73.5232E-12
C:/temp/dataset/4/32_25.odb,Step-1,Increment      1: Step Time =    1.000,"PART-1-1",           668,      -11.2104,       6.77234,            0.,NA,NA,"",   120.519E-03,  -108.948E-03,  -51.5274E-03,   134.909E-12
C:/temp/dataset/4/32_25.odb,Step-1,Increment      1: Step Time =    1.000,"PART-1-1",           669,      -10.2942,       5.63122,            0.,NA,NA,"",   116.847E-03,  -106.004E-03,  -49.1576E-03,   151.380E-12
C:/temp/dataset/4/32_25.odb,Step-1,Increment      1: Step Time =    1.000,"PART-1-1",           670,      -9.21309,       6.46842,            0.,NA,NA,"",   117.689E-03,  -108.170E-03,  -46.3681E-03,   89.9337E-12
C:/temp/dataset/4/32_25.odb,Step-1,Increment      1: Step Time =    1.000,"PART-1-1",           671,        -11.25,           -5.,            0.,NA,NA,"",   93.9720E-03,  -78.5440E-03,  -51.5905E-03,   143.328E-12
C:/temp/dataset/4/32_25.odb,Step-1,Increment      1: Step Time =    1.000,"PART-1-1",           672,      -10.0273,      -3.93877,            0.,NA,NA,"",   94.6252E-03,  -81.2888E-03,  -48.4362E-03,   154.577E-12
C:/temp/dataset/4/32_25.odb,Step-1,Increment      1: Step Time =    1.000,"PART-1-1",           673,         -8.75,           -5.,            0.,NA,NA,"",   90.5954E-03,  -78.5523E-03,  -45.1339E-03,   171.402E-12
C:/temp/dataset/4/32_25.odb,Step-1,Increment      1: Step Time =    1.000,"PART-1-1",           674,      -7.59562,      -4.02918,            0.,NA,NA,"",   91.3695E-03,  -81.0634E-03,  -42.1558E-03,   203.994E-12
C:/temp/dataset/4/32_25.odb,Step-1,Increment      1: Step Time =    1.000,"PART-1-1",           675,      -8.87289,      -2.96795,            0.,NA,NA,"",   95.3356E-03,  -83.8000E-03,  -45.4581E-03,   179.659E-12
C:/temp/dataset/4/32_25.odb,Step-1,Increment      1: Step Time =    1.000,"PART-1-1",           676,         -6.25,           -5.,            0.,NA,NA,"",   87.5654E-03,  -78.5606E-03,  -38.6773E-03,   474.634E-12
C:/temp/dataset/4/32_25.odb,Step-1,Increment      1: Step Time =    1.000,"PART-1-1",           677,      -5.03874,      -3.83161,            0.,NA,NA,"",   88.9925E-03,  -81.5822E-03,  -35.5529E-03,   711.560E-12
C:/temp/dataset/4/32_25.odb,Step-1,Increment      1: Step Time =    1.000,"PART-1-1",           678,      -6.38435,      -2.86079,            0.,NA,NA,"",   92.7024E-03,  -84.0850E-03,  -39.0314E-03,   748.181E-12
C:/temp/dataset/4/32_25.odb,Step-1,Increment      1: Step Time =    1.000,"PART-1-1",           679,      -8.31216,       1.98044,            0.,NA,NA,"",   106.143E-03,  -96.5818E-03,  -44.0264E-03,   484.663E-12
C:/temp/dataset/4/32_25.odb,Step-1,Increment      1: Step Time =    1.000,"PART-1-1",           680,      -6.89941,       1.67561,            0.,NA,NA,"",   103.960E-03,  -95.7992E-03,  -40.3767E-03,   775.332E-12
C:/temp/dataset/4/32_25.odb,Step-1,Increment      1: Step Time =    1.000,"PART-1-1",           681,      -8.02347,       3.70061,            0.,NA,NA,"",   109.908E-03,  -101.025E-03,  -43.2866E-03,   399.764E-12
C:/temp/dataset/4/32_25.odb,Step-1,Increment      1: Step Time =    1.000,"PART-1-1",           682,      -9.78636,       2.36681,            0.,NA,NA,"",   108.669E-03,  -97.5747E-03,  -47.8350E-03,   347.925E-12
C:/temp/dataset/4/32_25.odb,Step-1,Increment      1: Step Time =    1.000,"PART-1-1",           683,      -8.80920,   354.969E-03,            0.,NA,NA,"",   102.893E-03,  -92.3821E-03,  -45.3046E-03,   427.263E-12
C:/temp/dataset/4/32_25.odb,Step-1,Increment      1: Step Time =    1.000,"PART-1-1",           684,         -3.75,           -5.,            0.,NA,NA,"",   84.9191E-03,  -78.5690E-03,  -32.2207E-03,   1.32404E-09
C:/temp/dataset/4/32_25.odb,Step-1,Increment      1: Step Time =    1.000,"PART-1-1",           685,          3.75,           -5.,            0.,NA,NA,"",   79.6376E-03,  -78.5939E-03,  -12.8507E-03,   97.9882E-09
C:/temp/dataset/4/32_25.odb,Step-1,Increment      1: Step Time =    1.000,"PART-1-1",           686,       4.46580,      -3.87501,            0.,NA,NA,"",   82.2416E-03,  -81.5018E-03,  -11.0057E-03,   206.948E-09
C:/temp/dataset/4/32_25.odb,Step-1,Increment      1: Step Time =    1.000,"PART-1-1",           687,       2.90021,      -2.90757,            0.,NA,NA,"",   85.3332E-03,  -83.9952E-03,  -15.0524E-03,   31.5400E-09
C:/temp/dataset/4/32_25.odb,Step-1,Increment      1: Step Time =    1.000,"PART-1-1",           688,       11.1618,       2.81075,            0.,NA,NA,"",   98.9897E-03,  -98.7912E-03,   6.26506E-03,   37.4011E-09
C:/temp/dataset/4/32_25.odb,Step-1,Increment      1: Step Time =    1.000,"PART-1-1",           689,       10.1850,       1.50626,            0.,NA,NA,"",   95.4924E-03,  -95.4189E-03,   3.74645E-03,   71.3654E-09
C:/temp/dataset/4/32_25.odb,Step-1,Increment      1: Step Time =    1.000,"PART-1-1",           690,       11.6421,   144.368E-03,            0.,NA,NA,"",   92.2133E-03,  -91.9066E-03,   7.51433E-03,   89.3344E-09
C:/temp/dataset/4/32_25.odb,Step-1,Increment      1: Step Time =    1.000,"PART-1-1",           691,         11.25,           30.,            0.,NA,NA,"",   169.133E-03,  -169.012E-03,   6.40218E-03,   72.1710E-12
C:/temp/dataset/4/32_25.odb,Step-1,Increment      1: Step Time =    1.000,"PART-1-1",           692,       9.19768,       26.3844,            0.,NA,NA,"",   159.671E-03,  -159.667E-03,   1.11381E-03,   76.8892E-12
C:/temp/dataset/4/32_25.odb,Step-1,Increment      1: Step Time =    1.000,"PART-1-1",           693,       7.72138,       25.7435,            0.,NA,NA,"",   158.030E-03,  -158.007E-03,  -2.69681E-03,   81.2671E-12
C:/temp/dataset/4/32_25.odb,Step-1,Increment      1: Step Time =    1.000,"PART-1-1",           694,       9.17897,      -24.8987,            0.,NA,NA,"",   23.4894E-03,  -23.4816E-03,   603.620E-06,   1.74114E-03
C:/temp/dataset/4/32_25.odb,Step-1,Increment      1: Step Time =    1.000,"PART-1-1",           695,       9.00589,       18.6572,            0.,NA,NA,"",   139.711E-03,  -139.710E-03,   644.267E-06,   125.757E-12
C:/temp/dataset/4/32_25.odb,Step-1,Increment      1: Step Time =    1.000,"PART-1-1",           696,       7.99757,       19.7140,            0.,NA,NA,"",   142.449E-03,  -142.436E-03,  -1.96341E-03,   108.854E-12
C:/temp/dataset/4/32_25.odb,Step-1,Increment      1: Step Time =    1.000,"PART-1-1",           697,      -12.2498,       25.7751,            0.,NA,NA,"",   167.083E-03,  -158.022E-03,  -54.2752E-03,   80.8533E-12
C:/temp/dataset/4/32_25.odb,Step-1,Increment      1: Step Time =    1.000,"PART-1-1",           698,      -11.9888,       23.9538,            0.,NA,NA,"",   162.417E-03,  -153.319E-03,  -53.5951E-03,   88.5565E-12
C:/temp/dataset/4/32_25.odb,Step-1,Increment      1: Step Time =    1.000,"PART-1-1",           699,      -1.59164,      -1.60220,            0.,NA,NA,"",   91.3286E-03,  -87.3515E-03,  -26.6577E-03,   2.11225E-09
C:/temp/dataset/4/32_25.odb,Step-1,Increment      1: Step Time =    1.000,"PART-1-1",           700,      -1.34014,  -343.401E-03,            0.,NA,NA,"",   94.2635E-03,  -90.6034E-03,  -26.0124E-03,   1.76752E-09
C:/temp/dataset/4/32_25.odb,Step-1,Increment      1: Step Time =    1.000,"PART-1-1",           701,      -2.70787,  -93.9540E-03,            0.,NA,NA,"",   95.9074E-03,  -91.2430E-03,  -29.5456E-03,   1.59495E-09
C:/temp/dataset/4/32_25.odb,Step-1,Increment      1: Step Time =    1.000,"PART-1-1",           702,       8.06015,      -13.0184,            0.,NA,NA,"",   57.9583E-03,  -57.9340E-03,  -1.67608E-03,   22.0616E-06
C:/temp/dataset/4/32_25.odb,Step-1,Increment      1: Step Time =    1.000,"PART-1-1",           703,       7.99745,      -10.7906,            0.,NA,NA,"",   63.6937E-03,  -63.6666E-03,  -1.85870E-03,   7.72453E-06
C:/temp/dataset/4/32_25.odb,Step-1,Increment      1: Step Time =    1.000,"PART-1-1",           704,           15.,        -26.25,            0.,NA,NA,"",   30.8055E-03,  -27.7942E-03,   13.2838E-03,   2.93634E-03
C:/temp/dataset/4/32_25.odb,Step-1,Increment      1: Step Time =    1.000,"PART-1-1",           705,       13.9776,      -24.8045,            0.,NA,NA,"",   33.4824E-03,  -31.6914E-03,   10.8037E-03,   2.61613E-03
C:/temp/dataset/4/32_25.odb,Step-1,Increment      1: Step Time =    1.000,"PART-1-1",           706,       12.6094,      -25.9010,            0.,NA,NA,"",   24.4759E-03,  -23.8086E-03,   5.67609E-03,   3.09877E-03
C:/temp/dataset/4/32_25.odb,Step-1,Increment      1: Step Time =    1.000,"PART-1-1",           707,       12.0224,      -24.3398,            0.,NA,NA,"",   29.9304E-03,  -29.1779E-03,   6.66913E-03,   2.24168E-03
C:/temp/dataset/4/32_25.odb,Step-1,Increment      1: Step Time =    1.000,"PART-1-1",           708,       13.0263,      -23.4242,            0.,NA,NA,"",   35.0818E-03,  -33.6055E-03,   10.0699E-03,   2.00648E-03
C:/temp/dataset/4/32_25.odb,Step-1,Increment      1: Step Time =    1.000,"PART-1-1",           709,       12.1300,      -22.1112,            0.,NA,NA,"",   36.5605E-03,  -35.4871E-03,   8.79406E-03,   874.466E-06
C:/temp/dataset/4/32_25.odb,Step-1,Increment      1: Step Time =    1.000,"PART-1-1",           710,           15.,        -23.75,            0.,NA,NA,"",   39.4920E-03,  -36.9021E-03,   14.0660E-03,   1.99601E-03
C:/temp/dataset/4/32_25.odb,Step-1,Increment      1: Step Time =    1.000,"PART-1-1",           711,       10.9035,      -9.09896,            0.,NA,NA,"",   68.2615E-03,  -68.0282E-03,   5.63886E-03,   4.41308E-06
C:/temp/dataset/4/32_25.odb,Step-1,Increment      1: Step Time =    1.000,"PART-1-1",           712,       9.82794,      -8.10226,            0.,NA,NA,"",   70.6599E-03,  -70.6021E-03,   2.85628E-03,   1.64755E-06
C:/temp/dataset/4/32_25.odb,Step-1,Increment      1: Step Time =    1.000,"PART-1-1",           713,       8.90728,      -9.48784,            0.,NA,NA,"",   67.0264E-03,  -67.0247E-03,   485.164E-06,   5.36688E-06
C:/temp/dataset/4/32_25.odb,Step-1,Increment      1: Step Time =    1.000,"PART-1-1",           714,           15.,         -1.25,            0.,NA,NA,"",   89.7886E-03,  -88.3166E-03,   16.1916E-03,   180.980E-09
C:/temp/dataset/4/32_25.odb,Step-1,Increment      1: Step Time =    1.000,"PART-1-1",           715,       12.7555,      -1.12336,            0.,NA,NA,"",   89.2436E-03,  -88.6363E-03,   10.3941E-03,   144.713E-09
C:/temp/dataset/4/32_25.odb,Step-1,Increment      1: Step Time =    1.000,"PART-1-1",           716,       11.5680,       5.48707,            0.,NA,NA,"",   105.957E-03,  -105.705E-03,   7.30511E-03,   13.4145E-09
C:/temp/dataset/4/32_25.odb,Step-1,Increment      1: Step Time =    1.000,"PART-1-1",           717,       10.1222,       4.29256,            0.,NA,NA,"",   102.677E-03,  -102.615E-03,   3.57518E-03,   28.4177E-09
C:/temp/dataset/4/32_25.odb,Step-1,Increment      1: Step Time =    1.000,"PART-1-1",           718,       8.27918,   509.070E-03,            0.,NA,NA,"",   92.8445E-03,  -92.8371E-03,  -1.17220E-03,   81.6301E-09
C:/temp/dataset/4/32_25.odb,Step-1,Increment      1: Step Time =    1.000,"PART-1-1",           719,       9.70893,  -124.236E-03,            0.,NA,NA,"",   91.2412E-03,  -91.2063E-03,   2.52237E-03,   98.1633E-09
C:/temp/dataset/4/32_25.odb,Step-1,Increment      1: Step Time =    1.000,"PART-1-1",           720,       8.75521,       2.13956,            0.,NA,NA,"",   97.0497E-03,  -97.0497E-03,   51.8246E-06,   44.5701E-09
C:/temp/dataset/4/32_25.odb,Step-1,Increment      1: Step Time =    1.000,"PART-1-1",           721,       6.99874,       4.90963,            0.,NA,NA,"",   104.295E-03,  -104.198E-03,  -4.49367E-03,   23.0584E-09
C:/temp/dataset/4/32_25.odb,Step-1,Increment      1: Step Time =    1.000,"PART-1-1",           722,       8.01086,       5.41567,            0.,NA,NA,"",   105.525E-03,  -105.508E-03,  -1.88141E-03,   19.6624E-09
C:/temp/dataset/4/32_25.odb,Step-1,Increment      1: Step Time =    1.000,"PART-1-1",           723,       11.8045,       7.99587,            0.,NA,NA,"",   112.463E-03,  -112.185E-03,   7.90774E-03,   2.86884E-09
C:/temp/dataset/4/32_25.odb,Step-1,Increment      1: Step Time =    1.000,"PART-1-1",           724,       7.91904,       10.9856,            0.,NA,NA,"",   119.912E-03,  -119.893E-03,  -2.13711E-03,   535.424E-12
C:/temp/dataset/4/32_25.odb,Step-1,Increment      1: Step Time =    1.000,"PART-1-1",           725,       11.0233,       18.7016,            0.,NA,NA,"",   139.954E-03,  -139.831E-03,   5.85449E-03,   99.6222E-12
C:/temp/dataset/4/32_25.odb,Step-1,Increment      1: Step Time =    1.000,"PART-1-1",           726,       10.0074,       19.8076,            0.,NA,NA,"",   142.721E-03,  -142.684E-03,   3.22708E-03,   75.1424E-12
C:/temp/dataset/4/32_25.odb,Step-1,Increment      1: Step Time =    1.000,"PART-1-1",           727,       10.9673,       21.0105,            0.,NA,NA,"",   145.906E-03,  -145.794E-03,   5.70199E-03,   66.2720E-12
C:/temp/dataset/4/32_25.odb,Step-1,Increment      1: Step Time =    1.000,"PART-1-1",           728,       8.97465,       20.8454,            0.,NA,NA,"",   145.362E-03,  -145.361E-03,   556.266E-06,   85.9932E-12
C:/temp/dataset/4/32_25.odb,Step-1,Increment      1: Step Time =    1.000,"PART-1-1",           729,       8.66510,       24.8184,            0.,NA,NA,"",   155.621E-03,  -155.621E-03,  -256.442E-06,   79.6051E-12
C:/temp/dataset/4/32_25.odb,Step-1,Increment      1: Step Time =    1.000,"PART-1-1",           730,       7.98376,       13.1681,            0.,NA,NA,"",   125.546E-03,  -125.530E-03,  -1.97723E-03,   497.708E-12
C:/temp/dataset/4/32_25.odb,Step-1,Increment      1: Step Time =    1.000,"PART-1-1",           731,      -1.95806,       1.80915,            0.,NA,NA,"",   100.047E-03,  -96.1606E-03,  -27.6154E-03,   1.66973E-09
C:/temp/dataset/4/32_25.odb,Step-1,Increment      1: Step Time =    1.000,"PART-1-1",           732,  -613.587E-03,   828.335E-03,            0.,NA,NA,"",   96.6937E-03,  -93.6320E-03,  -24.1399E-03,   2.60598E-09
C:/temp/dataset/4/32_25.odb,Step-1,Increment      1: Step Time =    1.000,"PART-1-1",           733,   461.223E-03,       1.99751,            0.,NA,NA,"",   98.9889E-03,  -96.6551E-03,  -21.3679E-03,   4.36889E-09
C:/temp/dataset/4/32_25.odb,Step-1,Increment      1: Step Time =    1.000,"PART-1-1",           734,       1.74006,       1.04512,            0.,NA,NA,"",   95.9157E-03,  -94.1997E-03,  -18.0620E-03,   14.4113E-09
C:/temp/dataset/4/32_25.odb,Step-1,Increment      1: Step Time =    1.000,"PART-1-1",           735,   906.022E-03,  -39.5003E-03,            0.,NA,NA,"",   93.6040E-03,  -91.3957E-03,  -20.2124E-03,   8.37173E-09
C:/temp/dataset/4/32_25.odb,Step-1,Increment      1: Step Time =    1.000,"PART-1-1",           736,       2.15034,  -968.542E-03,            0.,NA,NA,"",   90.6087E-03,  -89.0005E-03,  -16.9956E-03,   23.0478E-09
C:/temp/dataset/4/32_25.odb,Step-1,Increment      1: Step Time =    1.000,"PART-1-1",           737,       2.98438,   116.081E-03,            0.,NA,NA,"",   92.9970E-03,  -91.8044E-03,  -14.8452E-03,   28.5106E-09
C:/temp/dataset/4/32_25.odb,Step-1,Increment      1: Step Time =    1.000,"PART-1-1",           738,      -8.25937,       5.01848,            0.,NA,NA,"",   113.280E-03,  -104.428E-03,  -43.9002E-03,   273.646E-12
C:/temp/dataset/4/32_25.odb,Step-1,Increment      1: Step Time =    1.000,"PART-1-1",           739,      -2.78312,       1.01462,            0.,NA,NA,"",   98.6944E-03,  -94.1058E-03,  -29.7436E-03,   1.40576E-09
C:/temp/dataset/4/32_25.odb,Step-1,Increment      1: Step Time =    1.000,"PART-1-1",           740,      -4.31499,   913.536E-03,            0.,NA,NA,"",   99.7073E-03,  -93.8397E-03,  -33.6996E-03,   1.44987E-09
C:/temp/dataset/4/32_25.odb,Step-1,Increment      1: Step Time =    1.000,"PART-1-1",           741,      -4.23975,  -195.042E-03,            0.,NA,NA,"",   96.9492E-03,  -90.9768E-03,  -33.5015E-03,   1.73468E-09
C:/temp/dataset/4/32_25.odb,Step-1,Increment      1: Step Time =    1.000,"PART-1-1",           742,      -8.52646,       20.5688,            0.,NA,NA,"",   151.323E-03,  -144.588E-03,  -44.6419E-03,   64.7783E-12
C:/temp/dataset/4/32_25.odb,Step-1,Increment      1: Step Time =    1.000,"PART-1-1",           743,       8.09873,      -15.2435,            0.,NA,NA,"",   52.2413E-03,  -52.2187E-03,  -1.53440E-03,   48.0632E-06
C:/temp/dataset/4/32_25.odb,Step-1,Increment      1: Step Time =    1.000,"PART-1-1",           744,       8.99676,       14.2096,            0.,NA,NA,"",   128.225E-03,  -128.223E-03,   635.500E-06,   453.901E-12
C:/temp/dataset/4/32_25.odb,Step-1,Increment      1: Step Time =    1.000,"PART-1-1",           745,       11.0169,       14.0599,            0.,NA,NA,"",   127.977E-03,  -127.843E-03,   5.85342E-03,   402.218E-12
C:/temp/dataset/4/32_25.odb,Step-1,Increment      1: Step Time =    1.000,"PART-1-1",           746,      -7.91902,       15.6847,            0.,NA,NA,"",   138.822E-03,  -131.976E-03,  -43.0568E-03,   84.8517E-12
C:/temp/dataset/4/32_25.odb,Step-1,Increment      1: Step Time =    1.000,"PART-1-1",           747,      -11.9968,       14.1876,            0.,NA,NA,"",   138.852E-03,  -128.096E-03,  -53.5832E-03,   136.118E-12
C:/temp/dataset/4/32_25.odb,Step-1,Increment      1: Step Time =    1.000,"PART-1-1",           748,      -11.1175,       8.79310,            0.,NA,NA,"",   125.161E-03,  -114.167E-03,  -51.2944E-03,   112.695E-12
C:/temp/dataset/4/32_25.odb,Step-1,Increment      1: Step Time =    1.000,"PART-1-1",           749,       10.6592,      -6.44981,            0.,NA,NA,"",   75.0386E-03,  -74.8721E-03,   4.99682E-03,   716.867E-09
C:/temp/dataset/4/32_25.odb,Step-1,Increment      1: Step Time =    1.000,"PART-1-1",           750,      -10.7894,       23.3985,            0.,NA,NA,"",   160.063E-03,  -151.889E-03,  -50.4957E-03,   79.4832E-12
C:/temp/dataset/4/32_25.odb,Step-1,Increment      1: Step Time =    1.000,"PART-1-1",           751,       10.0228,      -25.8019,            0.,NA,NA,"",   20.3039E-03,  -20.2422E-03,   1.58156E-03,   2.37917E-03
C:/temp/dataset/4/32_25.odb,Step-1,Increment      1: Step Time =    1.000,"PART-1-1",           752,       10.9542,      -24.8826,            0.,NA,NA,"",   25.7114E-03,  -25.4106E-03,   3.92167E-03,   2.09990E-03
C:/temp/dataset/4/32_25.odb,Step-1,Increment      1: Step Time =    1.000,"PART-1-1",           753,       11.8371,      -2.37854,            0.,NA,NA,"",   85.7679E-03,  -85.3915E-03,   8.02611E-03,   177.616E-09
C:/temp/dataset/4/32_25.odb,Step-1,Increment      1: Step Time =    1.000,"PART-1-1",           754,       11.6235,      -5.02753,            0.,NA,NA,"",   78.9046E-03,  -78.5489E-03,   7.48311E-03,   233.337E-09
C:/temp/dataset/4/32_25.odb,Step-1,Increment      1: Step Time =    1.000,"PART-1-1",           755,      -12.1333,       7.86930,            0.,NA,NA,"",   124.101E-03,  -111.778E-03,  -53.9147E-03,   180.738E-12
C:/temp/dataset/4/32_25.odb,Step-1,Increment      1: Step Time =    1.000,"PART-1-1",           756,      -12.0768,       9.95169,            0.,NA,NA,"",   128.908E-03,  -117.156E-03,  -53.7758E-03,   161.549E-12
C:/temp/dataset/4/32_25.odb,Step-1,Increment      1: Step Time =    1.000,"PART-1-1",           757,       8.68743,       3.64563,            0.,NA,NA,"",   100.939E-03,  -100.939E-03,  -128.198E-06,   33.3032E-09
C:/temp/dataset/4/32_25.odb,Step-1,Increment      1: Step Time =    1.000,"PART-1-1",           758,       6.61848,       3.66599,            0.,NA,NA,"",   101.133E-03,  -100.985E-03,  -5.47161E-03,   22.0046E-09
C:/temp/dataset/4/32_25.odb,Step-1,Increment      1: Step Time =    1.000,"PART-1-1",           759,       4.71579,   65.6079E-03,            0.,NA,NA,"",   92.2648E-03,  -91.6798E-03,  -10.3735E-03,   50.3820E-09
C:/temp/dataset/4/32_25.odb,Step-1,Increment      1: Step Time =    1.000,"PART-1-1",           760,       3.89104,   957.250E-03,            0.,NA,NA,"",   94.8084E-03,  -93.9799E-03,  -12.5065E-03,   34.7876E-09
C:/temp/dataset/4/32_25.odb,Step-1,Increment      1: Step Time =    1.000,"PART-1-1",           761,      -12.0363,       12.0623,            0.,NA,NA,"",   133.843E-03,  -122.607E-03,  -53.6782E-03,   148.870E-12
C:/temp/dataset/4/32_25.odb,Step-1,Increment      1: Step Time =    1.000,"PART-1-1",           762,      -12.1964,       5.82098,            0.,NA,NA,"",   119.429E-03,  -106.488E-03,  -54.0709E-03,   206.844E-12
C:/temp/dataset/4/32_25.odb,Step-1,Increment      1: Step Time =    1.000,"PART-1-1",           763,      -11.2570,       4.81016,            0.,NA,NA,"",   116.008E-03,  -103.880E-03,  -51.6412E-03,   193.659E-12
C:/temp/dataset/4/32_25.odb,Step-1,Increment      1: Step Time =    1.000,"PART-1-1",           764,      -10.5260,       3.94381,            0.,NA,NA,"",   113.167E-03,  -101.645E-03,  -49.7505E-03,   241.106E-12
C:/temp/dataset/4/32_25.odb,Step-1,Increment      1: Step Time =    1.000,"PART-1-1",           765,      -9.56326,       4.76486,            0.,NA,NA,"",   114.027E-03,  -103.769E-03,  -47.2668E-03,   206.832E-12
C:/temp/dataset/4/32_25.odb,Step-1,Increment      1: Step Time =    1.000,"PART-1-1",           766,      -9.32737,       3.44699,            0.,NA,NA,"",   110.679E-03,  -100.366E-03,  -46.6532E-03,   313.683E-12
C:/temp/dataset/4/32_25.odb,Step-1,Increment      1: Step Time =    1.000,"PART-1-1",           767,       11.5413,      -26.4438,            0.,NA,NA,"",   19.5824E-03,  -19.3057E-03,   3.28046E-03,   2.97392E-03
C:/temp/dataset/4/32_25.odb,Step-1,Increment      1: Step Time =    1.000,"PART-1-1",           768,       5.97241,      -3.36228,            0.,NA,NA,"",   83.1360E-03,  -82.8309E-03,  -7.11656E-03,   231.994E-09
C:/temp/dataset/4/32_25.odb,Step-1,Increment      1: Step Time =    1.000,"PART-1-1",           769,       11.9304,       22.2704,            0.,NA,NA,"",   149.276E-03,  -149.051E-03,   8.18513E-03,   59.6785E-12
C:/temp/dataset/4/32_25.odb,Step-1,Increment      1: Step Time =    1.000,"PART-1-1",           770,      -3.95064,       2.12654,            0.,NA,NA,"",   102.359E-03,  -96.9736E-03,  -32.7626E-03,   1.20386E-09
C:/temp/dataset/4/32_25.odb,Step-1,Increment      1: Step Time =    1.000,"PART-1-1",           771,       12.1361,      -19.7979,            0.,NA,NA,"",   41.5878E-03,  -40.5765E-03,   9.11556E-03,   108.118E-06
C:/temp/dataset/4/32_25.odb,Step-1,Increment      1: Step Time =    1.000,"PART-1-1",           772,       12.1156,      -17.4436,            0.,NA,NA,"",   47.2603E-03,  -46.4114E-03,   8.91732E-03,   85.7915E-06
C:/temp/dataset/4/32_25.odb,Step-1,Increment      1: Step Time =    1.000,"PART-1-1",           773,       11.8489,      -7.73518,            0.,NA,NA,"",   72.0085E-03,  -71.5544E-03,   8.07436E-03,   1.01326E-06
C:/temp/dataset/4/32_25.odb,Step-1,Increment      1: Step Time =    1.000,"PART-1-1",           774,       11.9658,      -10.2357,            0.,NA,NA,"",   65.6264E-03,  -65.0882E-03,   8.38729E-03,   5.58415E-06
C:/temp/dataset/4/32_25.odb,Step-1,Increment      1: Step Time =    1.000,"PART-1-1",           775,       10.7237,      -1.11081,            0.,NA,NA,"",   88.8110E-03,  -88.6618E-03,   5.14645E-03,   149.135E-09
C:/temp/dataset/4/32_25.odb,Step-1,Increment      1: Step Time =    1.000,"PART-1-1",           776,       11.9194,       10.4262,            0.,NA,NA,"",   118.745E-03,  -118.462E-03,   8.19623E-03,   455.551E-12
C:/temp/dataset/4/32_25.odb,Step-1,Increment      1: Step Time =    1.000,"PART-1-1",           777,       11.9945,       12.8006,            0.,NA,NA,"",   124.876E-03,  -124.594E-03,   8.38243E-03,   447.047E-12
C:/temp/dataset/4/32_25.odb,Step-1,Increment      1: Step Time =    1.000,"PART-1-1",           778,       12.0317,      -12.6649,            0.,NA,NA,"",   59.4158E-03,  -58.7935E-03,   8.57650E-03,   19.2986E-06
C:/temp/dataset/4/32_25.odb,Step-1,Increment      1: Step Time =    1.000,"PART-1-1",           779,       12.0352,       15.1685,            0.,NA,NA,"",   130.985E-03,  -130.710E-03,   8.47957E-03,   265.320E-12
C:/temp/dataset/4/32_25.odb,Step-1,Increment      1: Step Time =    1.000,"PART-1-1",           780,      -7.80161,      -2.23284,            0.,NA,NA,"",   95.7476E-03,  -85.7021E-03,  -42.6938E-03,   352.751E-12
C:/temp/dataset/4/32_25.odb,Step-1,Increment      1: Step Time =    1.000,"PART-1-1",           781,      -8.87876,  -905.543E-03,            0.,NA,NA,"",   100.060E-03,  -89.1264E-03,  -45.4801E-03,   329.695E-12
C:/temp/dataset/4/32_25.odb,Step-1,Increment      1: Step Time =    1.000,"PART-1-1",           782,      -7.16649,      -1.00336,            0.,NA,NA,"",   97.9045E-03,  -88.8795E-03,  -41.0576E-03,   615.001E-12
C:/temp/dataset/4/32_25.odb,Step-1,Increment      1: Step Time =    1.000,"PART-1-1",           783,      -7.09692,   257.153E-03,            0.,NA,NA,"",   100.798E-03,  -92.1352E-03,  -40.8821E-03,   676.699E-12
C:/temp/dataset/4/32_25.odb,Step-1,Increment      1: Step Time =    1.000,"PART-1-1",           784,      -5.74923,      -1.63131,            0.,NA,NA,"",   94.9375E-03,  -87.2624E-03,  -37.3952E-03,   822.882E-12
C:/temp/dataset/4/32_25.odb,Step-1,Increment      1: Step Time =    1.000,"PART-1-1",           785,      -5.66693,  -67.3201E-03,            0.,NA,NA,"",   98.5849E-03,  -91.3019E-03,  -37.1879E-03,   1.11398E-09
C:/temp/dataset/4/32_25.odb,Step-1,Increment      1: Step Time =    1.000,"PART-1-1",           786,      -5.46941,       1.35113,            0.,NA,NA,"",   101.804E-03,  -94.9660E-03,  -36.6825E-03,   1.08456E-09
C:/temp/dataset/4/32_25.odb,Step-1,Increment      1: Step Time =    1.000,"PART-1-1",           787,       12.0849,      -15.0650,            0.,NA,NA,"",   53.2843E-03,  -52.5602E-03,   8.75474E-03,   46.8932E-06
C:/temp/dataset/4/32_25.odb,Step-1,Increment      1: Step Time =    1.000,"PART-1-1",           788,       7.01212,      -4.44648,            0.,NA,NA,"",   80.1566E-03,  -80.0342E-03,  -4.42804E-03,   266.179E-09
C:/temp/dataset/4/32_25.odb,Step-1,Increment      1: Step Time =    1.000,"PART-1-1",           789,       7.64174,      -3.33281,            0.,NA,NA,"",   82.9600E-03,  -82.9125E-03,  -2.80585E-03,   225.385E-09
C:/temp/dataset/4/32_25.odb,Step-1,Increment      1: Step Time =    1.000,"PART-1-1",           790,       6.60203,      -2.24861,            0.,NA,NA,"",   85.8851E-03,  -85.7092E-03,  -5.49440E-03,   153.697E-09
C:/temp/dataset/4/32_25.odb,Step-1,Increment      1: Step Time =    1.000,"PART-1-1",           791,       6.68626,       2.15992,            0.,NA,NA,"",   97.2394E-03,  -97.0953E-03,  -5.29156E-03,   38.8233E-09
C:/temp/dataset/4/32_25.odb,Step-1,Increment      1: Step Time =    1.000,"PART-1-1",           792,       12.0103,       19.9021,            0.,NA,NA,"",   143.182E-03,  -142.935E-03,   8.39943E-03,   68.1414E-12
C:/temp/dataset/4/32_25.odb,Step-1,Increment      1: Step Time =    1.000,"PART-1-1",           793,       12.0305,       17.5416,            0.,NA,NA,"",   137.100E-03,  -136.839E-03,   8.45958E-03,   119.437E-12
C:/temp/dataset/4/32_25.odb,Step-1,Increment      1: Step Time =    1.000,"PART-1-1",           794,       6.09271,      -1.14349,            0.,NA,NA,"",   88.8234E-03,  -88.5617E-03,  -6.81343E-03,   98.9410E-09
C:/temp/dataset/4/32_25.odb,Step-1,Increment      1: Step Time =    1.000,"PART-1-1",           795,       7.56053,      -1.65505,            0.,NA,NA,"",   87.2977E-03,  -87.2454E-03,  -3.02107E-03,   152.702E-09
C:/temp/dataset/4/32_25.odb,Step-1,Increment      1: Step Time =    1.000,"PART-1-1",           796,       7.05122,  -549.935E-03,            0.,NA,NA,"",   90.2023E-03,  -90.0979E-03,  -4.34004E-03,   97.1585E-09
C:/temp/dataset/4/32_25.odb,Step-1,Increment      1: Step Time =    1.000,"PART-1-1",           797,       5.28588,       1.87348,            0.,NA,NA,"",   96.7617E-03,  -96.3509E-03,  -8.90724E-03,   34.9084E-09
C:/temp/dataset/4/32_25.odb,Step-1,Increment      1: Step Time =    1.000,"PART-1-1",           798,       5.70847,   325.226E-03,            0.,NA,NA,"",   92.6833E-03,  -92.3536E-03,  -7.81068E-03,   58.9991E-09
C:/temp/dataset/4/32_25.odb,Step-1,Increment      1: Step Time =    1.000,"PART-1-1",           799,       7.10885,   611.668E-03,            0.,NA,NA,"",   93.1926E-03,  -93.0981E-03,  -4.19505E-03,   61.4820E-09
C:/temp/dataset/4/32_25.odb,Step-1,Increment      1: Step Time =    1.000,"PART-1-1",           800,       9.00326,      -1.31280,            0.,NA,NA,"",   88.1370E-03,  -88.1342E-03,   703.729E-06,   148.548E-09
C:/temp/dataset/4/32_25.odb,Step-1,Increment      1: Step Time =    1.000,"PART-1-1",           801,       8.22155,  -652.532E-03,            0.,NA,NA,"",   89.8465E-03,  -89.8368E-03,  -1.31724E-03,   108.953E-09
C:/temp/dataset/4/32_25.odb,Step-1,Increment      1: Step Time =    1.000,"PART-1-1",           802,       8.34224,      -2.31533,            0.,NA,NA,"",   85.5486E-03,  -85.5427E-03,  -1.00016E-03,   176.849E-09
C:/temp/dataset/4/32_25.odb,Step-1,Increment      1: Step Time =    1.000,"PART-1-1",           803,       2.82445,       2.06443,            0.,NA,NA,"",   98.0316E-03,  -96.8358E-03,  -15.2648E-03,   20.1415E-09
