ODB Name,Step,Frame,Part Instance Name,    êﬂì_ÉâÉxÉã,X,Y,Z,Section Name,Material Name,Section Point,   U-Magnitude,          U-U1,          U-U2,       S-Mises
C:/temp/dataset/4/3_05.odb,Step-1,Increment      1: Step Time =    1.000,"PART-1-1",             1,           -5.,           30.,            0.,NA,NA,"",       1.89278,       1.83131,   478.468E-03,   7.50262E-09
C:/temp/dataset/4/3_05.odb,Step-1,Increment      1: Step Time =    1.000,"PART-1-1",             2,          -15.,           30.,            0.,NA,NA,"",       2.03654,       1.83916,   874.634E-03,   9.69402E-09
C:/temp/dataset/4/3_05.odb,Step-1,Increment      1: Step Time =    1.000,"PART-1-1",             3,          -15.,         21.25,            0.,NA,NA,"",       1.73338,       1.49251,   881.499E-03,   4.90573E-06
C:/temp/dataset/4/3_05.odb,Step-1,Increment      1: Step Time =    1.000,"PART-1-1",             4,          -15.,          12.5,            0.,NA,NA,"",       1.45018,       1.14667,   887.801E-03,   293.142E-06
C:/temp/dataset/4/3_05.odb,Step-1,Increment      1: Step Time =    1.000,"PART-1-1",             5,          -15.,          3.75,            0.,NA,NA,"",       1.19731,   799.308E-03,   891.436E-03,   854.863E-06
C:/temp/dataset/4/3_05.odb,Step-1,Increment      1: Step Time =    1.000,"PART-1-1",             6,          -15.,           -5.,            0.,NA,NA,"",       1.00587,   459.661E-03,   894.700E-03,   31.1635E-06
C:/temp/dataset/4/3_05.odb,Step-1,Increment      1: Step Time =    1.000,"PART-1-1",             7,          -10.,           -5.,            0.,NA,NA,"",   836.343E-03,   456.601E-03,   700.704E-03,   520.142E-06
C:/temp/dataset/4/3_05.odb,Step-1,Increment      1: Step Time =    1.000,"PART-1-1",             8,           -5.,           -5.,            0.,NA,NA,"",   684.233E-03,   457.399E-03,   508.882E-03,   1.39396E-03
C:/temp/dataset/4/3_05.odb,Step-1,Increment      1: Step Time =    1.000,"PART-1-1",             9,            0.,           -5.,            0.,NA,NA,"",   564.337E-03,   461.056E-03,   325.428E-03,   1.53687E-03
C:/temp/dataset/4/3_05.odb,Step-1,Increment      1: Step Time =    1.000,"PART-1-1",            10,            5.,           -5.,            0.,NA,NA,"",   488.102E-03,   465.619E-03,   146.431E-03,   4.29975E-03
C:/temp/dataset/4/3_05.odb,Step-1,Increment      1: Step Time =    1.000,"PART-1-1",            11,            5.,        -11.25,            0.,NA,NA,"",   314.149E-03,   288.872E-03,   123.462E-03,   5.04070E-03
C:/temp/dataset/4/3_05.odb,Step-1,Increment      1: Step Time =    1.000,"PART-1-1",            12,            5.,         -17.5,            0.,NA,NA,"",   171.143E-03,   144.212E-03,   92.1572E-03,   6.70683E-03
C:/temp/dataset/4/3_05.odb,Step-1,Increment      1: Step Time =    1.000,"PART-1-1",            13,            5.,        -23.75,            0.,NA,NA,"",   68.8992E-03,   46.6915E-03,   50.6655E-03,   8.35248E-03
C:/temp/dataset/4/3_05.odb,Step-1,Increment      1: Step Time =    1.000,"PART-1-1",            14,            5.,          -30.,            0.,NA,NA,"",            0.,   3.07564E-39,   5.81977E-39,   11.3470E-03
C:/temp/dataset/4/3_05.odb,Step-1,Increment      1: Step Time =    1.000,"PART-1-1",            15,           15.,          -30.,            0.,NA,NA,"",            0.,   3.09186E-39,  -5.84484E-39,   11.0987E-03
C:/temp/dataset/4/3_05.odb,Step-1,Increment      1: Step Time =    1.000,"PART-1-1",            16,           15.,         -22.5,            0.,NA,NA,"",   85.6646E-03,   60.9922E-03,  -60.1529E-03,   8.02691E-03
C:/temp/dataset/4/3_05.odb,Step-1,Increment      1: Step Time =    1.000,"PART-1-1",            17,           15.,          -15.,            0.,NA,NA,"",   223.022E-03,   194.707E-03,  -108.756E-03,   6.05519E-03
C:/temp/dataset/4/3_05.odb,Step-1,Increment      1: Step Time =    1.000,"PART-1-1",            18,           15.,          -7.5,            0.,NA,NA,"",   416.187E-03,   389.917E-03,  -145.521E-03,   4.03751E-03
C:/temp/dataset/4/3_05.odb,Step-1,Increment      1: Step Time =    1.000,"PART-1-1",            19,           15.,            0.,            0.,NA,NA,"",   648.319E-03,   626.452E-03,  -166.961E-03,   1.12564E-03
C:/temp/dataset/4/3_05.odb,Step-1,Increment      1: Step Time =    1.000,"PART-1-1",            20,           15.,           7.5,            0.,NA,NA,"",   888.740E-03,   871.809E-03,  -172.649E-03,   111.468E-06
C:/temp/dataset/4/3_05.odb,Step-1,Increment      1: Step Time =    1.000,"PART-1-1",            21,           15.,           15.,            0.,NA,NA,"",       1.12711,       1.11325,  -176.167E-03,   8.05771E-06
C:/temp/dataset/4/3_05.odb,Step-1,Increment      1: Step Time =    1.000,"PART-1-1",            22,           15.,          22.5,            0.,NA,NA,"",       1.36627,       1.35436,  -180.035E-03,   350.505E-09
C:/temp/dataset/4/3_05.odb,Step-1,Increment      1: Step Time =    1.000,"PART-1-1",            23,           15.,           30.,            0.,NA,NA,"",       1.60604,       1.59548,  -183.913E-03,   7.13389E-09
C:/temp/dataset/4/3_05.odb,Step-1,Increment      1: Step Time =    1.000,"PART-1-1",            24,            5.,           30.,            0.,NA,NA,"",       1.60655,       1.60065,   137.583E-03,   4.57284E-09
C:/temp/dataset/4/3_05.odb,Step-1,Increment      1: Step Time =    1.000,"PART-1-1",            25,            5.,         23.75,            0.,NA,NA,"",       1.40678,       1.39971,   140.815E-03,   245.062E-09
C:/temp/dataset/4/3_05.odb,Step-1,Increment      1: Step Time =    1.000,"PART-1-1",            26,            5.,          17.5,            0.,NA,NA,"",       1.20739,       1.19877,   144.047E-03,   1.29059E-06
C:/temp/dataset/4/3_05.odb,Step-1,Increment      1: Step Time =    1.000,"PART-1-1",            27,            5.,         11.25,            0.,NA,NA,"",       1.00861,   997.815E-03,   147.177E-03,   55.3028E-06
C:/temp/dataset/4/3_05.odb,Step-1,Increment      1: Step Time =    1.000,"PART-1-1",            28,            5.,            5.,            0.,NA,NA,"",   814.663E-03,   800.794E-03,   149.685E-03,   2.33775E-03
C:/temp/dataset/4/3_05.odb,Step-1,Increment      1: Step Time =    1.000,"PART-1-1",            29,            0.,            5.,            0.,NA,NA,"",   877.148E-03,   816.344E-03,   320.892E-03,   2.57487E-03
C:/temp/dataset/4/3_05.odb,Step-1,Increment      1: Step Time =    1.000,"PART-1-1",            30,           -5.,            5.,            0.,NA,NA,"",   971.556E-03,   833.151E-03,   499.782E-03,   3.43854E-03
C:/temp/dataset/4/3_05.odb,Step-1,Increment      1: Step Time =    1.000,"PART-1-1",            31,           -5.,         11.25,            0.,NA,NA,"",       1.19432,       1.08792,   492.788E-03,   71.4895E-06
C:/temp/dataset/4/3_05.odb,Step-1,Increment      1: Step Time =    1.000,"PART-1-1",            32,           -5.,          17.5,            0.,NA,NA,"",       1.42253,       1.33612,   488.231E-03,   28.1596E-06
C:/temp/dataset/4/3_05.odb,Step-1,Increment      1: Step Time =    1.000,"PART-1-1",            33,           -5.,         23.75,            0.,NA,NA,"",       1.65584,       1.58371,   483.375E-03,   510.097E-09
C:/temp/dataset/4/3_05.odb,Step-1,Increment      1: Step Time =    1.000,"PART-1-1",            34,          -7.5,           30.,            0.,NA,NA,"",       1.92209,       1.83327,   577.509E-03,   128.237E-09
C:/temp/dataset/4/3_05.odb,Step-1,Increment      1: Step Time =    1.000,"PART-1-1",            35,          -10.,           30.,            0.,NA,NA,"",       1.95597,       1.83524,   676.550E-03,   223.029E-09
C:/temp/dataset/4/3_05.odb,Step-1,Increment      1: Step Time =    1.000,"PART-1-1",            36,         -12.5,           30.,            0.,NA,NA,"",       1.99420,       1.83720,   775.592E-03,   121.242E-09
C:/temp/dataset/4/3_05.odb,Step-1,Increment      1: Step Time =    1.000,"PART-1-1",            37,          -15.,       27.8125,            0.,NA,NA,"",       1.95940,       1.75250,   876.351E-03,   133.201E-09
C:/temp/dataset/4/3_05.odb,Step-1,Increment      1: Step Time =    1.000,"PART-1-1",            38,          -15.,        25.625,            0.,NA,NA,"",       1.88309,       1.66584,   878.069E-03,   179.126E-09
C:/temp/dataset/4/3_05.odb,Step-1,Increment      1: Step Time =    1.000,"PART-1-1",            39,          -15.,       23.4375,            0.,NA,NA,"",       1.80771,       1.57917,   879.786E-03,   581.113E-09
C:/temp/dataset/4/3_05.odb,Step-1,Increment      1: Step Time =    1.000,"PART-1-1",            40,          -15.,       19.0625,            0.,NA,NA,"",       1.66025,       1.40583,   883.200E-03,   17.0526E-06
C:/temp/dataset/4/3_05.odb,Step-1,Increment      1: Step Time =    1.000,"PART-1-1",            41,          -15.,        16.875,            0.,NA,NA,"",       1.58846,       1.31918,   884.858E-03,   44.8064E-06
C:/temp/dataset/4/3_05.odb,Step-1,Increment      1: Step Time =    1.000,"PART-1-1",            42,          -15.,       14.6875,            0.,NA,NA,"",       1.51827,       1.23263,   886.438E-03,   133.873E-06
C:/temp/dataset/4/3_05.odb,Step-1,Increment      1: Step Time =    1.000,"PART-1-1",            43,          -15.,       10.3125,            0.,NA,NA,"",       1.38409,       1.06054,   889.351E-03,   518.898E-06
C:/temp/dataset/4/3_05.odb,Step-1,Increment      1: Step Time =    1.000,"PART-1-1",            44,          -15.,         8.125,            0.,NA,NA,"",       1.31935,   973.540E-03,   890.454E-03,   621.375E-06
C:/temp/dataset/4/3_05.odb,Step-1,Increment      1: Step Time =    1.000,"PART-1-1",            45,          -15.,        5.9375,            0.,NA,NA,"",       1.25691,   886.463E-03,   891.076E-03,   818.230E-06
C:/temp/dataset/4/3_05.odb,Step-1,Increment      1: Step Time =    1.000,"PART-1-1",            46,          -15.,        1.5625,            0.,NA,NA,"",       1.14154,   713.091E-03,   891.405E-03,   740.065E-06
C:/temp/dataset/4/3_05.odb,Step-1,Increment      1: Step Time =    1.000,"PART-1-1",            47,          -15.,     -625.E-03,            0.,NA,NA,"",       1.09105,   628.408E-03,   891.902E-03,   400.560E-06
C:/temp/dataset/4/3_05.odb,Step-1,Increment      1: Step Time =    1.000,"PART-1-1",            48,          -15.,       -2.8125,            0.,NA,NA,"",       1.04579,   544.144E-03,   893.080E-03,   85.6526E-06
C:/temp/dataset/4/3_05.odb,Step-1,Increment      1: Step Time =    1.000,"PART-1-1",            49,         -12.5,           -5.,            0.,NA,NA,"",   919.873E-03,   457.818E-03,   797.853E-03,   111.447E-06
C:/temp/dataset/4/3_05.odb,Step-1,Increment      1: Step Time =    1.000,"PART-1-1",            50,          -7.5,           -5.,            0.,NA,NA,"",   757.116E-03,   456.451E-03,   604.050E-03,   1.00933E-03
C:/temp/dataset/4/3_05.odb,Step-1,Increment      1: Step Time =    1.000,"PART-1-1",            51,          -2.5,           -5.,            0.,NA,NA,"",   619.491E-03,   459.093E-03,   415.935E-03,   1.61849E-03
C:/temp/dataset/4/3_05.odb,Step-1,Increment      1: Step Time =    1.000,"PART-1-1",            52,           2.5,           -5.,            0.,NA,NA,"",   519.966E-03,   462.866E-03,   236.897E-03,   1.64438E-03
C:/temp/dataset/4/3_05.odb,Step-1,Increment      1: Step Time =    1.000,"PART-1-1",            53,            5.,      -7.08333,            0.,NA,NA,"",   427.843E-03,   404.804E-03,   138.504E-03,   4.39206E-03
C:/temp/dataset/4/3_05.odb,Step-1,Increment      1: Step Time =    1.000,"PART-1-1",            54,            5.,      -9.16667,            0.,NA,NA,"",   369.596E-03,   345.368E-03,   131.615E-03,   4.45916E-03
C:/temp/dataset/4/3_05.odb,Step-1,Increment      1: Step Time =    1.000,"PART-1-1",            55,            5.,      -13.3333,            0.,NA,NA,"",   262.318E-03,   236.164E-03,   114.181E-03,   5.58947E-03
C:/temp/dataset/4/3_05.odb,Step-1,Increment      1: Step Time =    1.000,"PART-1-1",            56,            5.,      -15.4167,            0.,NA,NA,"",   214.541E-03,   187.791E-03,   103.742E-03,   6.15293E-03
C:/temp/dataset/4/3_05.odb,Step-1,Increment      1: Step Time =    1.000,"PART-1-1",            57,            5.,      -19.5833,            0.,NA,NA,"",   132.363E-03,   105.877E-03,   79.4364E-03,   7.25925E-03
C:/temp/dataset/4/3_05.odb,Step-1,Increment      1: Step Time =    1.000,"PART-1-1",            58,            5.,      -21.6667,            0.,NA,NA,"",   98.3062E-03,   73.2169E-03,   65.6002E-03,   7.79641E-03
C:/temp/dataset/4/3_05.odb,Step-1,Increment      1: Step Time =    1.000,"PART-1-1",            59,            5.,      -25.8333,            0.,NA,NA,"",   43.7595E-03,   26.5400E-03,   34.7926E-03,   8.67325E-03
C:/temp/dataset/4/3_05.odb,Step-1,Increment      1: Step Time =    1.000,"PART-1-1",            60,            5.,      -27.9167,            0.,NA,NA,"",   22.2806E-03,   12.7692E-03,   18.2586E-03,   9.69011E-03
C:/temp/dataset/4/3_05.odb,Step-1,Increment      1: Step Time =    1.000,"PART-1-1",            61,           7.5,          -30.,            0.,NA,NA,"",            0.,   674.714E-42,   8.34608E-39,   3.42713E-03
C:/temp/dataset/4/3_05.odb,Step-1,Increment      1: Step Time =    1.000,"PART-1-1",            62,           10.,          -30.,            0.,NA,NA,"",            0.,  -1.21142E-39,  -2.48450E-42,   959.486E-06
C:/temp/dataset/4/3_05.odb,Step-1,Increment      1: Step Time =    1.000,"PART-1-1",            63,          12.5,          -30.,            0.,NA,NA,"",            0.,   3.20886E-39,  -7.80912E-39,   3.49432E-03
C:/temp/dataset/4/3_05.odb,Step-1,Increment      1: Step Time =    1.000,"PART-1-1",            64,           15.,         -27.5,            0.,NA,NA,"",   26.0613E-03,   14.7090E-03,  -21.5137E-03,   9.50855E-03
C:/temp/dataset/4/3_05.odb,Step-1,Increment      1: Step Time =    1.000,"PART-1-1",            65,           15.,          -25.,            0.,NA,NA,"",   53.0886E-03,   33.2206E-03,  -41.4100E-03,   8.47957E-03
C:/temp/dataset/4/3_05.odb,Step-1,Increment      1: Step Time =    1.000,"PART-1-1",            66,           15.,          -20.,            0.,NA,NA,"",   124.710E-03,   97.5548E-03,  -77.6894E-03,   7.34653E-03
C:/temp/dataset/4/3_05.odb,Step-1,Increment      1: Step Time =    1.000,"PART-1-1",            67,           15.,         -17.5,            0.,NA,NA,"",   170.540E-03,   142.377E-03,  -93.8759E-03,   6.70493E-03
C:/temp/dataset/4/3_05.odb,Step-1,Increment      1: Step Time =    1.000,"PART-1-1",            68,           15.,         -12.5,            0.,NA,NA,"",   281.787E-03,   253.847E-03,  -122.334E-03,   5.41321E-03
C:/temp/dataset/4/3_05.odb,Step-1,Increment      1: Step Time =    1.000,"PART-1-1",            69,           15.,          -10.,            0.,NA,NA,"",   346.357E-03,   319.126E-03,  -134.616E-03,   4.76108E-03
C:/temp/dataset/4/3_05.odb,Step-1,Increment      1: Step Time =    1.000,"PART-1-1",            70,           15.,           -5.,            0.,NA,NA,"",   490.570E-03,   465.510E-03,  -154.789E-03,   3.15594E-03
C:/temp/dataset/4/3_05.odb,Step-1,Increment      1: Step Time =    1.000,"PART-1-1",            71,           15.,          -2.5,            0.,NA,NA,"",   568.431E-03,   544.854E-03,  -162.015E-03,   2.12598E-03
C:/temp/dataset/4/3_05.odb,Step-1,Increment      1: Step Time =    1.000,"PART-1-1",            72,           15.,           2.5,            0.,NA,NA,"",   728.813E-03,   708.734E-03,  -169.892E-03,   378.075E-06
C:/temp/dataset/4/3_05.odb,Step-1,Increment      1: Step Time =    1.000,"PART-1-1",            73,           15.,            5.,            0.,NA,NA,"",   809.023E-03,   790.630E-03,  -171.529E-03,   25.9923E-06
C:/temp/dataset/4/3_05.odb,Step-1,Increment      1: Step Time =    1.000,"PART-1-1",            74,           15.,           10.,            0.,NA,NA,"",   968.178E-03,   952.463E-03,  -173.732E-03,   73.8186E-06
C:/temp/dataset/4/3_05.odb,Step-1,Increment      1: Step Time =    1.000,"PART-1-1",            75,           15.,          12.5,            0.,NA,NA,"",       1.04759,       1.03289,  -174.914E-03,   29.6915E-06
C:/temp/dataset/4/3_05.odb,Step-1,Increment      1: Step Time =    1.000,"PART-1-1",            76,           15.,          17.5,            0.,NA,NA,"",       1.20674,       1.19362,  -177.450E-03,   1.07576E-06
C:/temp/dataset/4/3_05.odb,Step-1,Increment      1: Step Time =    1.000,"PART-1-1",            77,           15.,           20.,            0.,NA,NA,"",       1.28646,       1.27399,  -178.742E-03,   387.279E-09
C:/temp/dataset/4/3_05.odb,Step-1,Increment      1: Step Time =    1.000,"PART-1-1",            78,           15.,           25.,            0.,NA,NA,"",       1.44614,       1.43473,  -181.328E-03,   154.748E-09
C:/temp/dataset/4/3_05.odb,Step-1,Increment      1: Step Time =    1.000,"PART-1-1",            79,           15.,          27.5,            0.,NA,NA,"",       1.52607,       1.51511,  -182.621E-03,   35.2849E-09
C:/temp/dataset/4/3_05.odb,Step-1,Increment      1: Step Time =    1.000,"PART-1-1",            80,          12.5,           30.,            0.,NA,NA,"",       1.60012,       1.59677,  -103.539E-03,   27.9576E-09
C:/temp/dataset/4/3_05.odb,Step-1,Increment      1: Step Time =    1.000,"PART-1-1",            81,           10.,           30.,            0.,NA,NA,"",       1.59823,       1.59806,  -23.1650E-03,   57.5000E-09
C:/temp/dataset/4/3_05.odb,Step-1,Increment      1: Step Time =    1.000,"PART-1-1",            82,           7.5,           30.,            0.,NA,NA,"",       1.60038,       1.59936,   57.2092E-03,   29.1300E-09
C:/temp/dataset/4/3_05.odb,Step-1,Increment      1: Step Time =    1.000,"PART-1-1",            83,            5.,       27.9167,            0.,NA,NA,"",       1.53993,       1.53367,   138.660E-03,   23.5487E-09
C:/temp/dataset/4/3_05.odb,Step-1,Increment      1: Step Time =    1.000,"PART-1-1",            84,            5.,       25.8333,            0.,NA,NA,"",       1.47333,       1.46669,   139.737E-03,   103.457E-09
C:/temp/dataset/4/3_05.odb,Step-1,Increment      1: Step Time =    1.000,"PART-1-1",            85,            5.,       21.6667,            0.,NA,NA,"",       1.34027,       1.33273,   141.892E-03,   394.597E-09
C:/temp/dataset/4/3_05.odb,Step-1,Increment      1: Step Time =    1.000,"PART-1-1",            86,            5.,       19.5833,            0.,NA,NA,"",       1.27380,       1.26575,   142.970E-03,   282.707E-09
C:/temp/dataset/4/3_05.odb,Step-1,Increment      1: Step Time =    1.000,"PART-1-1",            87,            5.,       15.4167,            0.,NA,NA,"",       1.14105,       1.13178,   145.118E-03,   6.46512E-06
C:/temp/dataset/4/3_05.odb,Step-1,Increment      1: Step Time =    1.000,"PART-1-1",            88,            5.,       13.3333,            0.,NA,NA,"",       1.07478,       1.06479,   146.170E-03,   23.6072E-06
C:/temp/dataset/4/3_05.odb,Step-1,Increment      1: Step Time =    1.000,"PART-1-1",            89,            5.,       9.16667,            0.,NA,NA,"",   942.657E-03,   930.955E-03,   148.070E-03,   157.918E-06
C:/temp/dataset/4/3_05.odb,Step-1,Increment      1: Step Time =    1.000,"PART-1-1",            90,            5.,       7.08333,            0.,NA,NA,"",   877.252E-03,   864.552E-03,   148.734E-03,   550.191E-06
C:/temp/dataset/4/3_05.odb,Step-1,Increment      1: Step Time =    1.000,"PART-1-1",            91,           2.5,            5.,            0.,NA,NA,"",   842.052E-03,   808.920E-03,   233.880E-03,   2.81431E-03
C:/temp/dataset/4/3_05.odb,Step-1,Increment      1: Step Time =    1.000,"PART-1-1",            92,          -2.5,            5.,            0.,NA,NA,"",   920.057E-03,   823.658E-03,   409.990E-03,   2.70531E-03
C:/temp/dataset/4/3_05.odb,Step-1,Increment      1: Step Time =    1.000,"PART-1-1",            93,           -5.,       7.08333,            0.,NA,NA,"",       1.04545,   920.226E-03,   496.125E-03,   860.490E-06
C:/temp/dataset/4/3_05.odb,Step-1,Increment      1: Step Time =    1.000,"PART-1-1",            94,           -5.,       9.16667,            0.,NA,NA,"",       1.11958,       1.00453,   494.361E-03,   127.339E-06
C:/temp/dataset/4/3_05.odb,Step-1,Increment      1: Step Time =    1.000,"PART-1-1",            95,           -5.,       13.3333,            0.,NA,NA,"",       1.26975,       1.17085,   491.301E-03,   83.1200E-06
C:/temp/dataset/4/3_05.odb,Step-1,Increment      1: Step Time =    1.000,"PART-1-1",            96,           -5.,       15.4167,            0.,NA,NA,"",       1.34583,       1.25354,   489.792E-03,   54.4882E-06
C:/temp/dataset/4/3_05.odb,Step-1,Increment      1: Step Time =    1.000,"PART-1-1",            97,           -5.,       19.5833,            0.,NA,NA,"",       1.49980,       1.41866,   486.631E-03,   11.0073E-06
C:/temp/dataset/4/3_05.odb,Step-1,Increment      1: Step Time =    1.000,"PART-1-1",            98,           -5.,       21.6667,            0.,NA,NA,"",       1.57759,       1.50118,   485.007E-03,   3.23380E-06
C:/temp/dataset/4/3_05.odb,Step-1,Increment      1: Step Time =    1.000,"PART-1-1",            99,           -5.,       25.8333,            0.,NA,NA,"",       1.73449,       1.66624,   481.740E-03,   145.190E-09
C:/temp/dataset/4/3_05.odb,Step-1,Increment      1: Step Time =    1.000,"PART-1-1",           100,           -5.,       27.9167,            0.,NA,NA,"",       1.81348,       1.74878,   480.104E-03,   108.794E-09
C:/temp/dataset/4/3_05.odb,Step-1,Increment      1: Step Time =    1.000,"PART-1-1",           101,       6.93475,       11.1046,            0.,NA,NA,"",   995.766E-03,   992.119E-03,   85.1453E-03,   46.3561E-06
C:/temp/dataset/4/3_05.odb,Step-1,Increment      1: Step Time =    1.000,"PART-1-1",           102,       7.10183,      -21.7370,            0.,NA,NA,"",   75.7194E-03,   66.1956E-03,   36.7636E-03,   4.62405E-03
C:/temp/dataset/4/3_05.odb,Step-1,Increment      1: Step Time =    1.000,"PART-1-1",           103,      -7.18606,       25.6133,            0.,NA,NA,"",       1.75394,       1.65925,   568.515E-03,   533.674E-09
C:/temp/dataset/4/3_05.odb,Step-1,Increment      1: Step Time =    1.000,"PART-1-1",           104,       7.08931,      -17.4629,            0.,NA,NA,"",   149.168E-03,   139.594E-03,   52.5795E-03,   3.98720E-03
C:/temp/dataset/4/3_05.odb,Step-1,Increment      1: Step Time =    1.000,"PART-1-1",           105,       7.11844,      -23.8299,            0.,NA,NA,"",   48.2864E-03,   39.4026E-03,   27.9108E-03,   4.91231E-03
C:/temp/dataset/4/3_05.odb,Step-1,Increment      1: Step Time =    1.000,"PART-1-1",           106,       7.34845,      -27.9642,            0.,NA,NA,"",   10.0059E-03,   5.75580E-03,   8.18471E-03,   5.22606E-03
C:/temp/dataset/4/3_05.odb,Step-1,Increment      1: Step Time =    1.000,"PART-1-1",           107,       7.18399,      -25.9216,            0.,NA,NA,"",   26.1650E-03,   19.0269E-03,   17.9607E-03,   5.30659E-03
C:/temp/dataset/4/3_05.odb,Step-1,Increment      1: Step Time =    1.000,"PART-1-1",           108,       7.00226,      -10.9532,            0.,NA,NA,"",   301.424E-03,   292.469E-03,   72.9275E-03,   3.08290E-03
C:/temp/dataset/4/3_05.odb,Step-1,Increment      1: Step Time =    1.000,"PART-1-1",           109,       6.93148,       25.8450,            0.,NA,NA,"",       1.46812,       1.46607,   77.6346E-03,   105.212E-09
C:/temp/dataset/4/3_05.odb,Step-1,Increment      1: Step Time =    1.000,"PART-1-1",           110,       6.95256,       21.7727,            0.,NA,NA,"",       1.33747,       1.33513,   79.0621E-03,   86.8723E-09
C:/temp/dataset/4/3_05.odb,Step-1,Increment      1: Step Time =    1.000,"PART-1-1",           111,       6.99069,       19.6693,            0.,NA,NA,"",       1.26994,       1.26749,   78.9239E-03,   857.387E-09
C:/temp/dataset/4/3_05.odb,Step-1,Increment      1: Step Time =    1.000,"PART-1-1",           112,       6.98342,       13.2435,            0.,NA,NA,"",       1.06407,       1.06087,   82.4797E-03,   24.1562E-06
C:/temp/dataset/4/3_05.odb,Step-1,Increment      1: Step Time =    1.000,"PART-1-1",           113,       6.84904,       8.98858,            0.,NA,NA,"",   928.509E-03,   924.234E-03,   89.0021E-03,   61.8466E-06
C:/temp/dataset/4/3_05.odb,Step-1,Increment      1: Step Time =    1.000,"PART-1-1",           114,      -7.00061,       11.3966,            0.,NA,NA,"",       1.23589,       1.09538,   572.334E-03,   99.1250E-06
C:/temp/dataset/4/3_05.odb,Step-1,Increment      1: Step Time =    1.000,"PART-1-1",           115,      -6.87185,       17.5946,            0.,NA,NA,"",       1.45446,       1.34135,   562.353E-03,   22.0166E-06
C:/temp/dataset/4/3_05.odb,Step-1,Increment      1: Step Time =    1.000,"PART-1-1",           116,      -6.78696,       21.5686,            0.,NA,NA,"",       1.59847,       1.49871,   555.878E-03,   5.48886E-06
C:/temp/dataset/4/3_05.odb,Step-1,Increment      1: Step Time =    1.000,"PART-1-1",           117,      -6.92081,       23.5666,            0.,NA,NA,"",       1.67425,       1.57796,   559.614E-03,   2.05512E-06
C:/temp/dataset/4/3_05.odb,Step-1,Increment      1: Step Time =    1.000,"PART-1-1",           118,      -7.47694,       27.7553,            0.,NA,NA,"",       1.83771,       1.74433,   578.357E-03,   87.1477E-09
C:/temp/dataset/4/3_05.odb,Step-1,Increment      1: Step Time =    1.000,"PART-1-1",           119,       6.62973,      -6.72562,            0.,NA,NA,"",   422.776E-03,   412.647E-03,   91.9898E-03,   2.62127E-03
C:/temp/dataset/4/3_05.odb,Step-1,Increment      1: Step Time =    1.000,"PART-1-1",           120,       7.00244,       17.5390,            0.,NA,NA,"",       1.20163,       1.19899,   79.6474E-03,   3.51265E-06
C:/temp/dataset/4/3_05.odb,Step-1,Increment      1: Step Time =    1.000,"PART-1-1",           121,       7.05765,      -13.1226,            0.,NA,NA,"",   245.734E-03,   236.654E-03,   66.1825E-03,   3.36830E-03
C:/temp/dataset/4/3_05.odb,Step-1,Increment      1: Step Time =    1.000,"PART-1-1",           122,      -6.97858,       13.4860,            0.,NA,NA,"",       1.30903,       1.17852,   569.800E-03,   11.3550E-06
C:/temp/dataset/4/3_05.odb,Step-1,Increment      1: Step Time =    1.000,"PART-1-1",           123,      -7.06135,       7.11796,            0.,NA,NA,"",       1.08979,   923.552E-03,   578.521E-03,   1.10615E-03
C:/temp/dataset/4/3_05.odb,Step-1,Increment      1: Step Time =    1.000,"PART-1-1",           124,       6.87626,      -8.81940,            0.,NA,NA,"",   360.645E-03,   351.424E-03,   81.0287E-03,   2.87378E-03
C:/temp/dataset/4/3_05.odb,Step-1,Increment      1: Step Time =    1.000,"PART-1-1",           125,       7.08495,      -15.2974,            0.,NA,NA,"",   194.717E-03,   185.413E-03,   59.4701E-03,   3.66533E-03
C:/temp/dataset/4/3_05.odb,Step-1,Increment      1: Step Time =    1.000,"PART-1-1",           126,       7.00715,       15.3887,            0.,NA,NA,"",       1.13271,       1.12984,   80.6073E-03,   10.6100E-06
C:/temp/dataset/4/3_05.odb,Step-1,Increment      1: Step Time =    1.000,"PART-1-1",           127,      -7.01992,       9.30136,            0.,NA,NA,"",       1.16354,       1.01156,   574.951E-03,   371.455E-06
C:/temp/dataset/4/3_05.odb,Step-1,Increment      1: Step Time =    1.000,"PART-1-1",           128,      -6.93369,       15.5639,            0.,NA,NA,"",       1.38230,       1.26093,   566.390E-03,   26.2477E-06
C:/temp/dataset/4/3_05.odb,Step-1,Increment      1: Step Time =    1.000,"PART-1-1",           129,      -6.79206,       19.5889,            0.,NA,NA,"",       1.52584,       1.42029,   557.631E-03,   12.3546E-06
C:/temp/dataset/4/3_05.odb,Step-1,Increment      1: Step Time =    1.000,"PART-1-1",           130,       7.09662,      -19.6136,            0.,NA,NA,"",   109.343E-03,   99.6730E-03,   44.9581E-03,   4.30261E-03
C:/temp/dataset/4/3_05.odb,Step-1,Increment      1: Step Time =    1.000,"PART-1-1",           131,       6.89670,       23.8203,            0.,NA,NA,"",       1.40326,       1.40099,   79.7997E-03,   129.569E-09
C:/temp/dataset/4/3_05.odb,Step-1,Increment      1: Step Time =    1.000,"PART-1-1",           132,       6.67676,       6.98748,            0.,NA,NA,"",   865.684E-03,   860.402E-03,   95.4874E-03,   311.764E-06
C:/temp/dataset/4/3_05.odb,Step-1,Increment      1: Step Time =    1.000,"PART-1-1",           133,      -13.0361,       12.2042,            0.,NA,NA,"",       1.39318,       1.13304,   810.662E-03,   319.672E-06
C:/temp/dataset/4/3_05.odb,Step-1,Increment      1: Step Time =    1.000,"PART-1-1",           134,      -13.0483,       3.72302,            0.,NA,NA,"",       1.13866,   795.763E-03,   814.438E-03,   662.293E-06
C:/temp/dataset/4/3_05.odb,Step-1,Increment      1: Step Time =    1.000,"PART-1-1",           135,      -13.0740,       10.0823,            0.,NA,NA,"",       1.32740,       1.04903,   813.333E-03,   584.291E-06
C:/temp/dataset/4/3_05.odb,Step-1,Increment      1: Step Time =    1.000,"PART-1-1",           136,      -13.0017,       14.3509,            0.,NA,NA,"",       1.46126,       1.21770,   807.767E-03,   53.8716E-06
C:/temp/dataset/4/3_05.odb,Step-1,Increment      1: Step Time =    1.000,"PART-1-1",           137,      -12.4480,       21.2307,            0.,NA,NA,"",       1.68178,       1.48974,   780.420E-03,   7.66882E-06
C:/temp/dataset/4/3_05.odb,Step-1,Increment      1: Step Time =    1.000,"PART-1-1",           138,      -13.0426,       25.7965,            0.,NA,NA,"",       1.85289,       1.67110,   800.387E-03,   398.497E-09
C:/temp/dataset/4/3_05.odb,Step-1,Increment      1: Step Time =    1.000,"PART-1-1",           139,      -12.9478,       23.6552,            0.,NA,NA,"",       1.77575,       1.58619,   798.312E-03,   1.95211E-06
C:/temp/dataset/4/3_05.odb,Step-1,Increment      1: Step Time =    1.000,"PART-1-1",           140,      -12.8307,       18.7376,            0.,NA,NA,"",       1.60364,       1.39125,   797.538E-03,   19.5275E-06
C:/temp/dataset/4/3_05.odb,Step-1,Increment      1: Step Time =    1.000,"PART-1-1",           141,      -12.9472,       16.5227,            0.,NA,NA,"",       1.53154,       1.30360,   803.893E-03,   31.5371E-06
C:/temp/dataset/4/3_05.odb,Step-1,Increment      1: Step Time =    1.000,"PART-1-1",           142,      -13.1112,       7.97345,            0.,NA,NA,"",       1.26359,   965.002E-03,   815.741E-03,   699.137E-06
C:/temp/dataset/4/3_05.odb,Step-1,Increment      1: Step Time =    1.000,"PART-1-1",           143,      -13.1276,       5.86243,            0.,NA,NA,"",       1.20145,   880.860E-03,   817.047E-03,   828.660E-06
C:/temp/dataset/4/3_05.odb,Step-1,Increment      1: Step Time =    1.000,"PART-1-1",           144,      -12.8109,       1.56310,            0.,NA,NA,"",       1.07459,   710.849E-03,   805.880E-03,   430.143E-06
C:/temp/dataset/4/3_05.odb,Step-1,Increment      1: Step Time =    1.000,"PART-1-1",           145,      -12.5511,  -622.366E-03,            0.,NA,NA,"",       1.01346,   626.322E-03,   796.763E-03,   514.980E-06
C:/temp/dataset/4/3_05.odb,Step-1,Increment      1: Step Time =    1.000,"PART-1-1",           146,      -7.69124,      -3.05836,            0.,NA,NA,"",   807.839E-03,   530.391E-03,   609.335E-03,   708.921E-06
C:/temp/dataset/4/3_05.odb,Step-1,Increment      1: Step Time =    1.000,"PART-1-1",           147,      -2.59391,      -3.27074,            0.,NA,NA,"",   668.464E-03,   522.256E-03,   417.245E-03,   908.209E-06
C:/temp/dataset/4/3_05.odb,Step-1,Increment      1: Step Time =    1.000,"PART-1-1",           148,      -2.06699,       2.95135,            0.,NA,NA,"",   845.591E-03,   748.161E-03,   394.055E-03,   1.78592E-03
C:/temp/dataset/4/3_05.odb,Step-1,Increment      1: Step Time =    1.000,"PART-1-1",           149,       1.86882,      -3.06513,            0.,NA,NA,"",   589.293E-03,   530.226E-03,   257.150E-03,   1.05485E-03
C:/temp/dataset/4/3_05.odb,Step-1,Increment      1: Step Time =    1.000,"PART-1-1",           150,       2.79073,       3.02834,            0.,NA,NA,"",   773.553E-03,   740.624E-03,   223.295E-03,   1.62418E-03
C:/temp/dataset/4/3_05.odb,Step-1,Increment      1: Step Time =    1.000,"PART-1-1",           151,       12.5379,       2.72923,            0.,NA,NA,"",   722.985E-03,   717.316E-03,  -90.3597E-03,   778.035E-06
C:/temp/dataset/4/3_05.odb,Step-1,Increment      1: Step Time =    1.000,"PART-1-1",           152,       12.9313,       10.2835,            0.,NA,NA,"",   968.648E-03,   962.696E-03,  -107.223E-03,   39.4383E-06
C:/temp/dataset/4/3_05.odb,Step-1,Increment      1: Step Time =    1.000,"PART-1-1",           153,       12.7723,       24.8557,            0.,NA,NA,"",       1.43544,       1.43124,  -109.635E-03,   129.717E-09
C:/temp/dataset/4/3_05.odb,Step-1,Increment      1: Step Time =    1.000,"PART-1-1",           154,       12.5268,       27.4001,            0.,NA,NA,"",       1.51668,       1.51317,  -103.057E-03,   77.9462E-09
C:/temp/dataset/4/3_05.odb,Step-1,Increment      1: Step Time =    1.000,"PART-1-1",           155,       12.7627,      -5.01238,            0.,NA,NA,"",   471.699E-03,   463.649E-03,  -86.7723E-03,   2.14956E-03
C:/temp/dataset/4/3_05.odb,Step-1,Increment      1: Step Time =    1.000,"PART-1-1",           156,       13.0118,      -12.5921,            0.,NA,NA,"",   258.815E-03,   248.263E-03,  -73.1503E-03,   3.34282E-03
C:/temp/dataset/4/3_05.odb,Step-1,Increment      1: Step Time =    1.000,"PART-1-1",           157,       9.69976,      -27.8547,            0.,NA,NA,"",   3.54206E-03,   3.42022E-03,   921.031E-06,   1.34989E-03
C:/temp/dataset/4/3_05.odb,Step-1,Increment      1: Step Time =    1.000,"PART-1-1",           158,       13.0855,      -17.4497,            0.,NA,NA,"",   150.440E-03,   139.054E-03,  -57.4129E-03,   4.18130E-03
C:/temp/dataset/4/3_05.odb,Step-1,Increment      1: Step Time =    1.000,"PART-1-1",           159,       12.9366,       22.3763,            0.,NA,NA,"",       1.35622,       1.35145,  -113.635E-03,   98.1695E-09
C:/temp/dataset/4/3_05.odb,Step-1,Increment      1: Step Time =    1.000,"PART-1-1",           160,       13.0248,       17.5365,            0.,NA,NA,"",       1.20123,       1.19581,  -113.969E-03,   3.40386E-06
C:/temp/dataset/4/3_05.odb,Step-1,Increment      1: Step Time =    1.000,"PART-1-1",           161,      -10.1545,       27.3700,            0.,NA,NA,"",       1.86167,       1.73117,   684.736E-03,   253.352E-09
C:/temp/dataset/4/3_05.odb,Step-1,Increment      1: Step Time =    1.000,"PART-1-1",           162,      -10.0546,      -2.87755,            0.,NA,NA,"",   883.706E-03,   538.241E-03,   700.880E-03,   587.914E-06
C:/temp/dataset/4/3_05.odb,Step-1,Increment      1: Step Time =    1.000,"PART-1-1",           163,      -5.07747,      -2.66322,            0.,NA,NA,"",   745.545E-03,   544.672E-03,   509.087E-03,   720.003E-06
C:/temp/dataset/4/3_05.odb,Step-1,Increment      1: Step Time =    1.000,"PART-1-1",           164,  -330.659E-03,      -3.26262,            0.,NA,NA,"",   621.195E-03,   522.993E-03,   335.204E-03,   993.051E-06
C:/temp/dataset/4/3_05.odb,Step-1,Increment      1: Step Time =    1.000,"PART-1-1",           165,       3.93161,      -2.75002,            0.,NA,NA,"",   571.839E-03,   541.070E-03,   185.050E-03,   710.456E-06
C:/temp/dataset/4/3_05.odb,Step-1,Increment      1: Step Time =    1.000,"PART-1-1",           166,       12.9585,      -10.1304,            0.,NA,NA,"",   322.722E-03,   312.808E-03,  -79.3746E-03,   2.93024E-03
C:/temp/dataset/4/3_05.odb,Step-1,Increment      1: Step Time =    1.000,"PART-1-1",           167,       13.1106,      -19.8561,            0.,NA,NA,"",   106.584E-03,   95.1259E-03,  -48.0751E-03,   4.60314E-03
C:/temp/dataset/4/3_05.odb,Step-1,Increment      1: Step Time =    1.000,"PART-1-1",           168,       12.2637,      -27.1930,            0.,NA,NA,"",   13.2474E-03,   9.02568E-03,  -9.69695E-03,   4.51438E-03
C:/temp/dataset/4/3_05.odb,Step-1,Increment      1: Step Time =    1.000,"PART-1-1",           169,       13.0974,      -22.2394,            0.,NA,NA,"",   69.9584E-03,   59.0527E-03,  -37.5094E-03,   4.95232E-03
C:/temp/dataset/4/3_05.odb,Step-1,Increment      1: Step Time =    1.000,"PART-1-1",           170,       13.0625,      -15.0302,            0.,NA,NA,"",   201.366E-03,   190.245E-03,  -65.9919E-03,   3.77416E-03
C:/temp/dataset/4/3_05.odb,Step-1,Increment      1: Step Time =    1.000,"PART-1-1",           171,       12.8638,      -7.61343,            0.,NA,NA,"",   393.380E-03,   384.383E-03,  -83.6474E-03,   2.52066E-03
C:/temp/dataset/4/3_05.odb,Step-1,Increment      1: Step Time =    1.000,"PART-1-1",           172,       12.8109,      -2.41519,            0.,NA,NA,"",   554.918E-03,   547.046E-03,  -93.1334E-03,   1.77054E-03
C:/temp/dataset/4/3_05.odb,Step-1,Increment      1: Step Time =    1.000,"PART-1-1",           173,       12.7001,   168.481E-03,            0.,NA,NA,"",   639.166E-03,   632.332E-03,  -93.2187E-03,   1.29415E-03
C:/temp/dataset/4/3_05.odb,Step-1,Increment      1: Step Time =    1.000,"PART-1-1",           174,       12.6773,       5.28127,            0.,NA,NA,"",   806.837E-03,   801.055E-03,  -96.4217E-03,   274.963E-06
C:/temp/dataset/4/3_05.odb,Step-1,Increment      1: Step Time =    1.000,"PART-1-1",           175,       12.8405,       7.80961,            0.,NA,NA,"",   889.000E-03,   883.010E-03,  -103.025E-03,   29.1480E-06
C:/temp/dataset/4/3_05.odb,Step-1,Increment      1: Step Time =    1.000,"PART-1-1",           176,       12.9955,       12.7023,            0.,NA,NA,"",       1.04629,       1.04044,  -110.533E-03,   26.6478E-06
C:/temp/dataset/4/3_05.odb,Step-1,Increment      1: Step Time =    1.000,"PART-1-1",           177,       13.0102,       19.9477,            0.,NA,NA,"",       1.27849,       1.27333,  -114.744E-03,   645.776E-09
C:/temp/dataset/4/3_05.odb,Step-1,Increment      1: Step Time =    1.000,"PART-1-1",           178,       9.88408,       27.1269,            0.,NA,NA,"",       1.50586,       1.50576,  -17.9530E-03,   66.5554E-09
C:/temp/dataset/4/3_05.odb,Step-1,Increment      1: Step Time =    1.000,"PART-1-1",           179,       13.0301,       15.1161,            0.,NA,NA,"",       1.12369,       1.11801,  -112.889E-03,   11.3306E-06
C:/temp/dataset/4/3_05.odb,Step-1,Increment      1: Step Time =    1.000,"PART-1-1",           180,   300.490E-03,       3.00528,            0.,NA,NA,"",   806.840E-03,   745.062E-03,   309.634E-03,   1.78669E-03
C:/temp/dataset/4/3_05.odb,Step-1,Increment      1: Step Time =    1.000,"PART-1-1",           181,      -4.18418,       2.89078,            0.,NA,NA,"",   885.891E-03,   750.148E-03,   471.253E-03,   1.12333E-03
C:/temp/dataset/4/3_05.odb,Step-1,Increment      1: Step Time =    1.000,"PART-1-1",           182,      -8.75093,       23.2164,            0.,NA,NA,"",       1.68842,       1.56552,   632.394E-03,   3.29724E-06
C:/temp/dataset/4/3_05.odb,Step-1,Increment      1: Step Time =    1.000,"PART-1-1",           183,       9.13120,      -23.8882,            0.,NA,NA,"",   36.6425E-03,   35.7172E-03,   8.18244E-03,   1.91414E-03
C:/temp/dataset/4/3_05.odb,Step-1,Increment      1: Step Time =    1.000,"PART-1-1",           184,       8.76025,       8.63504,            0.,NA,NA,"",   912.327E-03,   911.900E-03,   27.9007E-03,   55.6171E-06
C:/temp/dataset/4/3_05.odb,Step-1,Increment      1: Step Time =    1.000,"PART-1-1",           185,       8.81891,       23.9948,            0.,NA,NA,"",       1.40572,       1.40561,   17.9105E-03,   120.595E-09
C:/temp/dataset/4/3_05.odb,Step-1,Increment      1: Step Time =    1.000,"PART-1-1",           186,       9.00734,       17.5557,            0.,NA,NA,"",       1.19859,       1.19849,   15.1853E-03,   4.45454E-06
C:/temp/dataset/4/3_05.odb,Step-1,Increment      1: Step Time =    1.000,"PART-1-1",           187,      -8.59230,       19.6811,            0.,NA,NA,"",       1.55793,       1.42535,   628.899E-03,   13.9078E-06
C:/temp/dataset/4/3_05.odb,Step-1,Increment      1: Step Time =    1.000,"PART-1-1",           188,       9.06266,      -12.9142,            0.,NA,NA,"",   240.150E-03,   239.322E-03,   19.9259E-03,   1.54011E-03
C:/temp/dataset/4/3_05.odb,Step-1,Increment      1: Step Time =    1.000,"PART-1-1",           189,       9.13987,      -19.6571,            0.,NA,NA,"",   96.9870E-03,   96.1247E-03,   12.9039E-03,   1.70473E-03
C:/temp/dataset/4/3_05.odb,Step-1,Increment      1: Step Time =    1.000,"PART-1-1",           190,       9.00941,       15.3265,            0.,NA,NA,"",       1.12694,       1.12682,   16.2825E-03,   12.7219E-06
C:/temp/dataset/4/3_05.odb,Step-1,Increment      1: Step Time =    1.000,"PART-1-1",           191,      -8.96967,       13.7142,            0.,NA,NA,"",       1.35457,       1.18918,   648.625E-03,   44.2035E-06
C:/temp/dataset/4/3_05.odb,Step-1,Increment      1: Step Time =    1.000,"PART-1-1",           192,       9.12973,      -17.4386,            0.,NA,NA,"",   138.209E-03,   137.378E-03,   15.1351E-03,   1.63903E-03
C:/temp/dataset/4/3_05.odb,Step-1,Increment      1: Step Time =    1.000,"PART-1-1",           193,       8.94484,       21.9321,            0.,NA,NA,"",       1.33931,       1.33923,   14.9282E-03,   215.158E-09
C:/temp/dataset/4/3_05.odb,Step-1,Increment      1: Step Time =    1.000,"PART-1-1",           194,      -8.78258,       17.8115,            0.,NA,NA,"",       1.49443,       1.35143,   637.927E-03,   23.6683E-06
C:/temp/dataset/4/3_05.odb,Step-1,Increment      1: Step Time =    1.000,"PART-1-1",           195,       8.90333,       10.8666,            0.,NA,NA,"",   983.738E-03,   983.490E-03,   22.0824E-03,   47.4242E-06
C:/temp/dataset/4/3_05.odb,Step-1,Increment      1: Step Time =    1.000,"PART-1-1",           196,      -9.00437,       11.6266,            0.,NA,NA,"",       1.28388,       1.10622,   651.633E-03,   185.475E-06
C:/temp/dataset/4/3_05.odb,Step-1,Increment      1: Step Time =    1.000,"PART-1-1",           197,      -9.03622,       9.53759,            0.,NA,NA,"",       1.21426,       1.02277,   654.498E-03,   434.008E-06
C:/temp/dataset/4/3_05.odb,Step-1,Increment      1: Step Time =    1.000,"PART-1-1",           198,       8.99264,      -10.6281,            0.,NA,NA,"",   299.683E-03,   298.804E-03,   22.9372E-03,   1.48311E-03
C:/temp/dataset/4/3_05.odb,Step-1,Increment      1: Step Time =    1.000,"PART-1-1",           199,       8.82192,      -8.34759,            0.,NA,NA,"",   363.832E-03,   362.714E-03,   28.5045E-03,   1.39938E-03
C:/temp/dataset/4/3_05.odb,Step-1,Increment      1: Step Time =    1.000,"PART-1-1",           200,       8.98411,       13.0928,            0.,NA,NA,"",       1.05517,       1.05501,   18.2811E-03,   28.5490E-06
C:/temp/dataset/4/3_05.odb,Step-1,Increment      1: Step Time =    1.000,"PART-1-1",           201,       7.30685,       27.8134,            0.,NA,NA,"",       1.53052,       1.52916,   64.5493E-03,   67.7671E-09
C:/temp/dataset/4/3_05.odb,Step-1,Increment      1: Step Time =    1.000,"PART-1-1",           202,      -8.46063,       21.4565,            0.,NA,NA,"",       1.61987,       1.49557,   622.279E-03,   6.95912E-06
C:/temp/dataset/4/3_05.odb,Step-1,Increment      1: Step Time =    1.000,"PART-1-1",           203,       9.11250,      -15.1896,            0.,NA,NA,"",   186.046E-03,   185.243E-03,   17.2699E-03,   1.58009E-03
C:/temp/dataset/4/3_05.odb,Step-1,Increment      1: Step Time =    1.000,"PART-1-1",           204,       9.14200,      -21.8221,            0.,NA,NA,"",   62.9530E-03,   62.0602E-03,   10.5644E-03,   1.79184E-03
C:/temp/dataset/4/3_05.odb,Step-1,Increment      1: Step Time =    1.000,"PART-1-1",           205,      -8.90436,       15.8055,            0.,NA,NA,"",       1.42595,       1.27205,   644.362E-03,   26.9162E-06
C:/temp/dataset/4/3_05.odb,Step-1,Increment      1: Step Time =    1.000,"PART-1-1",           206,       9.00445,       19.7587,            0.,NA,NA,"",       1.26940,       1.26932,   14.1359E-03,   1.20554E-06
C:/temp/dataset/4/3_05.odb,Step-1,Increment      1: Step Time =    1.000,"PART-1-1",           207,       8.39742,      -6.16188,            0.,NA,NA,"",   429.923E-03,   427.949E-03,   41.1572E-03,   1.31953E-03
C:/temp/dataset/4/3_05.odb,Step-1,Increment      1: Step Time =    1.000,"PART-1-1",           208,      -9.10294,       7.45394,            0.,NA,NA,"",       1.14704,   939.114E-03,   658.611E-03,   842.553E-06
C:/temp/dataset/4/3_05.odb,Step-1,Increment      1: Step Time =    1.000,"PART-1-1",           209,       8.43260,       6.43235,            0.,NA,NA,"",   842.414E-03,   841.491E-03,   39.4276E-03,   358.967E-06
C:/temp/dataset/4/3_05.odb,Step-1,Increment      1: Step Time =    1.000,"PART-1-1",           210,       5.64784,       2.93298,            0.,NA,NA,"",   743.240E-03,   732.041E-03,   128.535E-03,   1.57983E-03
C:/temp/dataset/4/3_05.odb,Step-1,Increment      1: Step Time =    1.000,"PART-1-1",           211,      -10.7213,       1.88644,            0.,NA,NA,"",       1.02184,   721.139E-03,   723.956E-03,   569.848E-06
C:/temp/dataset/4/3_05.odb,Step-1,Increment      1: Step Time =    1.000,"PART-1-1",           212,      -12.7178,       27.8380,            0.,NA,NA,"",       1.91994,       1.75172,   785.918E-03,   75.5883E-09
C:/temp/dataset/4/3_05.odb,Step-1,Increment      1: Step Time =    1.000,"PART-1-1",           213,      -11.0298,       24.2524,            0.,NA,NA,"",       1.76291,       1.60835,   721.859E-03,   2.04282E-06
C:/temp/dataset/4/3_05.odb,Step-1,Increment      1: Step Time =    1.000,"PART-1-1",           214,      -10.4500,       20.0822,            0.,NA,NA,"",       1.60449,       1.44268,   702.183E-03,   12.9670E-06
C:/temp/dataset/4/3_05.odb,Step-1,Increment      1: Step Time =    1.000,"PART-1-1",           215,      -10.9919,       14.0243,            0.,NA,NA,"",       1.40651,       1.20314,   728.498E-03,   56.2423E-06
C:/temp/dataset/4/3_05.odb,Step-1,Increment      1: Step Time =    1.000,"PART-1-1",           216,      -11.0796,       9.82104,            0.,NA,NA,"",       1.27037,       1.03626,   734.837E-03,   512.819E-06
C:/temp/dataset/4/3_05.odb,Step-1,Increment      1: Step Time =    1.000,"PART-1-1",           217,      -11.0365,       11.9204,            0.,NA,NA,"",       1.33771,       1.11979,   731.811E-03,   236.728E-06
C:/temp/dataset/4/3_05.odb,Step-1,Increment      1: Step Time =    1.000,"PART-1-1",           218,      -10.5491,       22.5446,            0.,NA,NA,"",       1.69363,       1.54031,   704.160E-03,   4.92612E-06
C:/temp/dataset/4/3_05.odb,Step-1,Increment      1: Step Time =    1.000,"PART-1-1",           219,      -10.9277,       16.1478,            0.,NA,NA,"",       1.47696,       1.28719,   724.261E-03,   33.4154E-06
C:/temp/dataset/4/3_05.odb,Step-1,Increment      1: Step Time =    1.000,"PART-1-1",           220,      -10.7891,       18.2216,            0.,NA,NA,"",       1.54565,       1.36923,   717.101E-03,   23.0554E-06
C:/temp/dataset/4/3_05.odb,Step-1,Increment      1: Step Time =    1.000,"PART-1-1",           221,      -11.1555,       7.76515,            0.,NA,NA,"",       1.20680,   954.150E-03,   738.902E-03,   753.155E-06
C:/temp/dataset/4/3_05.odb,Step-1,Increment      1: Step Time =    1.000,"PART-1-1",           222,      -9.80329,       4.04682,            0.,NA,NA,"",       1.05793,   804.213E-03,   687.349E-03,   851.949E-06
C:/temp/dataset/4/3_05.odb,Step-1,Increment      1: Step Time =    1.000,"PART-1-1",           223,       9.22674,      -25.9093,            0.,NA,NA,"",   16.7203E-03,   16.0066E-03,   4.83313E-03,   1.84295E-03
C:/temp/dataset/4/3_05.odb,Step-1,Increment      1: Step Time =    1.000,"PART-1-1",           224,      -9.21421,       25.1107,            0.,NA,NA,"",       1.76470,       1.64093,   649.258E-03,   1.16579E-06
C:/temp/dataset/4/3_05.odb,Step-1,Increment      1: Step Time =    1.000,"PART-1-1",           225,       6.25241,      -4.60112,            0.,NA,NA,"",   489.607E-03,   477.918E-03,   106.344E-03,   1.78395E-03
C:/temp/dataset/4/3_05.odb,Step-1,Increment      1: Step Time =    1.000,"PART-1-1",           226,      -7.19550,       4.55405,            0.,NA,NA,"",       1.00760,   819.987E-03,   585.553E-03,   1.46955E-03
C:/temp/dataset/4/3_05.odb,Step-1,Increment      1: Step Time =    1.000,"PART-1-1",           227,       12.9551,      -24.6090,            0.,NA,NA,"",   39.7883E-03,   30.8822E-03,  -25.0879E-03,   5.26867E-03
C:/temp/dataset/4/3_05.odb,Step-1,Increment      1: Step Time =    1.000,"PART-1-1",           228,       10.9241,       22.1645,            0.,NA,NA,"",       1.34656,       1.34568,  -48.8253E-03,   183.750E-09
C:/temp/dataset/4/3_05.odb,Step-1,Increment      1: Step Time =    1.000,"PART-1-1",           229,      -4.91288,   464.762E-03,            0.,NA,NA,"",   828.614E-03,   660.688E-03,   500.091E-03,   495.460E-06
C:/temp/dataset/4/3_05.odb,Step-1,Increment      1: Step Time =    1.000,"PART-1-1",           230,  -831.143E-03,      -1.35374,            0.,NA,NA,"",   687.905E-03,   591.402E-03,   351.365E-03,   222.624E-06
C:/temp/dataset/4/3_05.odb,Step-1,Increment      1: Step Time =    1.000,"PART-1-1",           231,       11.1616,      -19.7398,            0.,NA,NA,"",   96.3416E-03,   94.6178E-03,  -18.1433E-03,   2.00504E-03
C:/temp/dataset/4/3_05.odb,Step-1,Increment      1: Step Time =    1.000,"PART-1-1",           232,       10.9730,      -10.3410,            0.,NA,NA,"",   307.238E-03,   306.004E-03,  -27.5114E-03,   1.47553E-03
C:/temp/dataset/4/3_05.odb,Step-1,Increment      1: Step Time =    1.000,"PART-1-1",           233,       10.4844,      -5.04269,            0.,NA,NA,"",   462.740E-03,   462.316E-03,  -19.8097E-03,   1.73718E-03
C:/temp/dataset/4/3_05.odb,Step-1,Increment      1: Step Time =    1.000,"PART-1-1",           234,       10.9074,       10.5689,            0.,NA,NA,"",   973.828E-03,   972.914E-03,  -42.1927E-03,   45.2962E-06
C:/temp/dataset/4/3_05.odb,Step-1,Increment      1: Step Time =    1.000,"PART-1-1",           235,       11.0515,      -12.7377,            0.,NA,NA,"",   244.658E-03,   243.232E-03,  -26.3773E-03,   1.58845E-03
C:/temp/dataset/4/3_05.odb,Step-1,Increment      1: Step Time =    1.000,"PART-1-1",           236,       10.9936,       12.8990,            0.,NA,NA,"",       1.04880,       1.04778,  -46.2224E-03,   28.8237E-06
C:/temp/dataset/4/3_05.odb,Step-1,Increment      1: Step Time =    1.000,"PART-1-1",           237,      -9.84553,  -403.770E-03,            0.,NA,NA,"",   936.619E-03,   632.367E-03,   690.918E-03,   658.626E-06
C:/temp/dataset/4/3_05.odb,Step-1,Increment      1: Step Time =    1.000,"PART-1-1",           238,      -6.42098,  -599.403E-03,            0.,NA,NA,"",   835.993E-03,   622.222E-03,   558.322E-03,   620.974E-06
C:/temp/dataset/4/3_05.odb,Step-1,Increment      1: Step Time =    1.000,"PART-1-1",           239,      -2.35214,      -1.85066,            0.,NA,NA,"",   703.607E-03,   573.983E-03,   406.947E-03,   452.656E-06
C:/temp/dataset/4/3_05.odb,Step-1,Increment      1: Step Time =    1.000,"PART-1-1",           240,       11.1625,      -21.9830,            0.,NA,NA,"",   61.5015E-03,   59.7987E-03,  -14.3715E-03,   2.13821E-03
C:/temp/dataset/4/3_05.odb,Step-1,Increment      1: Step Time =    1.000,"PART-1-1",           241,       11.1073,      -15.0998,            0.,NA,NA,"",   188.496E-03,   186.918E-03,  -24.3354E-03,   1.72885E-03
C:/temp/dataset/4/3_05.odb,Step-1,Increment      1: Step Time =    1.000,"PART-1-1",           242,       11.1457,      -17.4375,            0.,NA,NA,"",   138.876E-03,   137.190E-03,  -21.5761E-03,   1.87586E-03
C:/temp/dataset/4/3_05.odb,Step-1,Increment      1: Step Time =    1.000,"PART-1-1",           243,       10.8340,      -7.85693,            0.,NA,NA,"",   377.414E-03,   376.465E-03,  -26.7464E-03,   1.48814E-03
C:/temp/dataset/4/3_05.odb,Step-1,Increment      1: Step Time =    1.000,"PART-1-1",           244,       10.5842,   120.255E-03,            0.,NA,NA,"",   632.260E-03,   631.682E-03,  -27.0386E-03,   1.60556E-03
C:/temp/dataset/4/3_05.odb,Step-1,Increment      1: Step Time =    1.000,"PART-1-1",           245,       10.8633,      -2.34188,            0.,NA,NA,"",   550.693E-03,   549.658E-03,  -33.7503E-03,   1.84086E-03
C:/temp/dataset/4/3_05.odb,Step-1,Increment      1: Step Time =    1.000,"PART-1-1",           246,       9.78574,       2.89226,            0.,NA,NA,"",   724.796E-03,   724.789E-03,  -3.05732E-03,   1.15754E-03
C:/temp/dataset/4/3_05.odb,Step-1,Increment      1: Step Time =    1.000,"PART-1-1",           247,       10.7685,       8.18214,            0.,NA,NA,"",   896.923E-03,   896.182E-03,  -36.4455E-03,   65.7859E-06
C:/temp/dataset/4/3_05.odb,Step-1,Increment      1: Step Time =    1.000,"PART-1-1",           248,       10.4587,       5.69287,            0.,NA,NA,"",   816.321E-03,   815.928E-03,  -25.3316E-03,   374.612E-06
C:/temp/dataset/4/3_05.odb,Step-1,Increment      1: Step Time =    1.000,"PART-1-1",           249,       11.0104,       19.8565,            0.,NA,NA,"",       1.27243,       1.27143,  -50.4064E-03,   1.09584E-06
C:/temp/dataset/4/3_05.odb,Step-1,Increment      1: Step Time =    1.000,"PART-1-1",           250,       11.0363,       17.5467,            0.,NA,NA,"",       1.19821,       1.19716,  -50.0392E-03,   4.42868E-06
C:/temp/dataset/4/3_05.odb,Step-1,Increment      1: Step Time =    1.000,"PART-1-1",           251,       11.0403,       15.2208,            0.,NA,NA,"",       1.12346,       1.12239,  -48.9562E-03,   12.9290E-06
C:/temp/dataset/4/3_05.odb,Step-1,Increment      1: Step Time =    1.000,"PART-1-1",           252,       1.19009,      -1.06873,            0.,NA,NA,"",   662.281E-03,   600.482E-03,   279.352E-03,   101.708E-06
C:/temp/dataset/4/3_05.odb,Step-1,Increment      1: Step Time =    1.000,"PART-1-1",           253,       10.6932,       24.5073,            0.,NA,NA,"",       1.42176,       1.42112,  -42.6121E-03,   123.305E-09
C:/temp/dataset/4/3_05.odb,Step-1,Increment      1: Step Time =    1.000,"PART-1-1",           254,       8.51128,       25.6419,            0.,NA,NA,"",       1.45897,       1.45872,   26.9496E-03,   101.796E-09
C:/temp/dataset/4/3_05.odb,Step-1,Increment      1: Step Time =    1.000,"PART-1-1",           255,      -9.32324,       5.48290,            0.,NA,NA,"",       1.08933,   860.349E-03,   668.167E-03,   966.023E-06
C:/temp/dataset/4/3_05.odb,Step-1,Increment      1: Step Time =    1.000,"PART-1-1",           256,      -11.4569,       25.7537,            0.,NA,NA,"",       1.82395,       1.66816,   737.602E-03,   666.351E-09
C:/temp/dataset/4/3_05.odb,Step-1,Increment      1: Step Time =    1.000,"PART-1-1",           257,      -8.85145,       2.84717,            0.,NA,NA,"",   997.278E-03,   755.888E-03,   650.536E-03,   841.874E-06
C:/temp/dataset/4/3_05.odb,Step-1,Increment      1: Step Time =    1.000,"PART-1-1",           258,       11.0896,      -24.0706,            0.,NA,NA,"",   35.1120E-03,   33.6682E-03,  -9.96518E-03,   2.15696E-03
C:/temp/dataset/4/3_05.odb,Step-1,Increment      1: Step Time =    1.000,"PART-1-1",           259,       5.69240,      -2.12345,            0.,NA,NA,"",   574.823E-03,   560.843E-03,   126.006E-03,   1.53604E-03
C:/temp/dataset/4/3_05.odb,Step-1,Increment      1: Step Time =    1.000,"PART-1-1",           260,       7.72467,       1.38687,            0.,NA,NA,"",   679.869E-03,   677.031E-03,   62.0502E-03,   1.66217E-03
C:/temp/dataset/4/3_05.odb,Step-1,Increment      1: Step Time =    1.000,"PART-1-1",           261,       8.83369,  -368.727E-03,            0.,NA,NA,"",   617.301E-03,   616.694E-03,   27.3778E-03,   1.80415E-03
C:/temp/dataset/4/3_05.odb,Step-1,Increment      1: Step Time =    1.000,"PART-1-1",           262,       7.58912,       4.39900,            0.,NA,NA,"",   779.842E-03,   776.980E-03,   66.7518E-03,   1.18420E-03
C:/temp/dataset/4/3_05.odb,Step-1,Increment      1: Step Time =    1.000,"PART-1-1",           263,      -6.02595,       2.23751,            0.,NA,NA,"",   907.392E-03,   728.307E-03,   541.229E-03,   968.806E-06
C:/temp/dataset/4/3_05.odb,Step-1,Increment      1: Step Time =    1.000,"PART-1-1",           264,       4.92391,   813.983E-03,            0.,NA,NA,"",   678.741E-03,   661.539E-03,   151.839E-03,   1.27029E-03
C:/temp/dataset/4/3_05.odb,Step-1,Increment      1: Step Time =    1.000,"PART-1-1",           265,      -7.77287,       1.11371,            0.,NA,NA,"",   918.999E-03,   687.989E-03,   609.287E-03,   753.098E-06
C:/temp/dataset/4/3_05.odb,Step-1,Increment      1: Step Time =    1.000,"PART-1-1",           266,      -3.71710,       1.36231,            0.,NA,NA,"",   828.634E-03,   692.694E-03,   454.762E-03,   721.895E-06
C:/temp/dataset/4/3_05.odb,Step-1,Increment      1: Step Time =    1.000,"PART-1-1",           267,       2.85817,       1.10052,            0.,NA,NA,"",   709.469E-03,   674.189E-03,   220.941E-03,   927.177E-06
C:/temp/dataset/4/3_05.odb,Step-1,Increment      1: Step Time =    1.000,"PART-1-1",           268,       7.51165,      -2.37377,            0.,NA,NA,"",   554.780E-03,   550.564E-03,   68.2653E-03,   1.88472E-03
C:/temp/dataset/4/3_05.odb,Step-1,Increment      1: Step Time =    1.000,"PART-1-1",           269,      -1.84913,   666.939E-03,            0.,NA,NA,"",   769.286E-03,   664.997E-03,   386.757E-03,   520.170E-06
C:/temp/dataset/4/3_05.odb,Step-1,Increment      1: Step Time =    1.000,"PART-1-1",           270,   621.955E-03,   989.730E-03,            0.,NA,NA,"",   736.598E-03,   673.426E-03,   298.454E-03,   789.142E-06
C:/temp/dataset/4/3_05.odb,Step-1,Increment      1: Step Time =    1.000,"PART-1-1",           271,       7.77182,      -4.29185,            0.,NA,NA,"",   490.790E-03,   487.108E-03,   60.0082E-03,   1.72800E-03
C:/temp/dataset/4/3_05.odb,Step-1,Increment      1: Step Time =    1.000,"PART-1-1",           272,       6.40836,       5.42027,            0.,NA,NA,"",   817.984E-03,   811.265E-03,   104.628E-03,   965.854E-06
C:/temp/dataset/4/3_05.odb,Step-1,Increment      1: Step Time =    1.000,"PART-1-1",           273,      -12.5139,      -2.82358,            0.,NA,NA,"",   963.491E-03,   541.828E-03,   796.704E-03,   377.515E-06
C:/temp/dataset/4/3_05.odb,Step-1,Increment      1: Step Time =    1.000,"PART-1-1",           274,       10.8188,      -25.6946,            0.,NA,NA,"",   18.5634E-03,   17.7762E-03,  -5.34840E-03,   1.84125E-03
C:/temp/dataset/4/3_05.odb,Step-1,Increment      1: Step Time =    1.000,"PART-1-1",           275,       6.49302,  -163.532E-03,            0.,NA,NA,"",   634.339E-03,   626.267E-03,   100.870E-03,   1.61460E-03
C:/temp/dataset/4/3_05.odb,Step-1,Increment      1: Step Time =    1.000,"PART-1-1",           276,       7.60941,  -936.337E-03,            0.,NA,NA,"",   602.357E-03,   598.791E-03,   65.4425E-03,   1.81547E-03
C:/temp/dataset/4/3_05.odb,Step-1,Increment      1: Step Time =    1.000,"PART-1-1",           277,       9.17282,      -2.25688,            0.,NA,NA,"",   553.491E-03,   553.217E-03,   17.4250E-03,   1.89901E-03
C:/temp/dataset/4/3_05.odb,Step-1,Increment      1: Step Time =    1.000,"PART-1-1",           278,       9.10690,      -3.89703,            0.,NA,NA,"",   499.702E-03,   499.301E-03,   20.0071E-03,   1.78761E-03
C:/temp/dataset/4/3_05.odb,Step-1,Increment      1: Step Time =    1.000,"PART-1-1",           279,      -7.91199,      -1.40732,            0.,NA,NA,"",   855.252E-03,   592.856E-03,   616.423E-03,   668.611E-06
C:/temp/dataset/4/3_05.odb,Step-1,Increment      1: Step Time =    1.000,"PART-1-1",           280,      -9.83927,       21.3699,            0.,NA,NA,"",       1.63951,       1.49322,   676.968E-03,   7.88139E-06
C:/temp/dataset/4/3_05.odb,Step-1,Increment      1: Step Time =    1.000,"PART-1-1",           281,      -11.2653,       5.77953,            0.,NA,NA,"",       1.14850,   874.961E-03,   743.969E-03,   853.639E-06
C:/temp/dataset/4/3_05.odb,Step-1,Increment      1: Step Time =    1.000,"PART-1-1",           282,      -11.2487,       3.84080,            0.,NA,NA,"",       1.09104,   798.107E-03,   743.899E-03,   700.115E-06
C:/temp/dataset/4/3_05.odb,Step-1,Increment      1: Step Time =    1.000,"PART-1-1",           283,       3.11059,  -868.354E-03,            0.,NA,NA,"",   642.307E-03,   606.093E-03,   212.625E-03,   458.819E-06
C:/temp/dataset/4/3_05.odb,Step-1,Increment      1: Step Time =    1.000,"PART-1-1",           284,       4.50766,  -682.768E-03,            0.,NA,NA,"",   633.031E-03,   611.037E-03,   165.415E-03,   911.264E-06
C:/temp/dataset/4/3_05.odb,Step-1,Increment      1: Step Time =    1.000,"PART-1-1",           285,      -3.56662,  -854.847E-03,            0.,NA,NA,"",   759.252E-03,   610.920E-03,   450.822E-03,   324.314E-06
C:/temp/dataset/4/3_05.odb,Step-1,Increment      1: Step Time =    1.000,"PART-1-1",           286,      -7.33150,       26.6843,            0.,NA,NA,"",       1.79580,       1.70179,   573.436E-03,   272.960E-09
C:/temp/dataset/4/3_05.odb,Step-1,Increment      1: Step Time =    1.000,"PART-1-1",           287,      -6.09303,       25.7233,            0.,NA,NA,"",       1.74370,       1.66275,   525.127E-03,   222.767E-09
C:/temp/dataset/4/3_05.odb,Step-1,Increment      1: Step Time =    1.000,"PART-1-1",           288,           -5.,        26.875,            0.,NA,NA,"",       1.77394,       1.70751,   480.922E-03,   115.298E-09
C:/temp/dataset/4/3_05.odb,Step-1,Increment      1: Step Time =    1.000,"PART-1-1",           289,      -6.23847,       27.8360,            0.,NA,NA,"",       1.82498,       1.74655,   529.231E-03,   79.7747E-09
C:/temp/dataset/4/3_05.odb,Step-1,Increment      1: Step Time =    1.000,"PART-1-1",           290,      -8.20013,       25.3620,            0.,NA,NA,"",       1.75884,       1.65009,   608.887E-03,   801.143E-09
C:/temp/dataset/4/3_05.odb,Step-1,Increment      1: Step Time =    1.000,"PART-1-1",           291,      -8.98257,       24.1636,            0.,NA,NA,"",       1.72655,       1.60322,   640.826E-03,   2.22815E-06
C:/temp/dataset/4/3_05.odb,Step-1,Increment      1: Step Time =    1.000,"PART-1-1",           292,      -7.83587,       23.3915,            0.,NA,NA,"",       1.68095,       1.57174,   596.003E-03,   2.43129E-06
C:/temp/dataset/4/3_05.odb,Step-1,Increment      1: Step Time =    1.000,"PART-1-1",           293,      -7.05344,       24.5900,            0.,NA,NA,"",       1.71407,       1.61860,   564.064E-03,   1.28898E-06
C:/temp/dataset/4/3_05.odb,Step-1,Increment      1: Step Time =    1.000,"PART-1-1",           294,      -6.78951,       20.5788,            0.,NA,NA,"",       1.56208,       1.45950,   556.755E-03,   8.83500E-06
C:/temp/dataset/4/3_05.odb,Step-1,Increment      1: Step Time =    1.000,"PART-1-1",           295,      -5.89603,       19.5861,            0.,NA,NA,"",       1.51246,       1.41947,   522.128E-03,   9.61932E-06
C:/temp/dataset/4/3_05.odb,Step-1,Increment      1: Step Time =    1.000,"PART-1-1",           296,           -5.,        20.625,            0.,NA,NA,"",       1.53863,       1.45992,   485.821E-03,   7.12452E-06
C:/temp/dataset/4/3_05.odb,Step-1,Increment      1: Step Time =    1.000,"PART-1-1",           297,      -5.89348,       21.6177,            0.,NA,NA,"",       1.58767,       1.49995,   520.441E-03,   3.60990E-06
C:/temp/dataset/4/3_05.odb,Step-1,Increment      1: Step Time =    1.000,"PART-1-1",           298,      -7.97413,       13.6001,            0.,NA,NA,"",       1.33141,       1.18385,   609.226E-03,   27.6518E-06
C:/temp/dataset/4/3_05.odb,Step-1,Increment      1: Step Time =    1.000,"PART-1-1",           299,      -8.98702,       12.6704,            0.,NA,NA,"",       1.31908,       1.14774,   650.132E-03,   111.351E-06
C:/temp/dataset/4/3_05.odb,Step-1,Increment      1: Step Time =    1.000,"PART-1-1",           300,      -8.00249,       11.5116,            0.,NA,NA,"",       1.25948,       1.10078,   612.027E-03,   135.694E-06
C:/temp/dataset/4/3_05.odb,Step-1,Increment      1: Step Time =    1.000,"PART-1-1",           301,      -6.98959,       12.4413,            0.,NA,NA,"",       1.27234,       1.13699,   571.058E-03,   51.0169E-06
C:/temp/dataset/4/3_05.odb,Step-1,Increment      1: Step Time =    1.000,"PART-1-1",           302,      -9.95004,      -1.64066,            0.,NA,NA,"",   909.292E-03,   585.341E-03,   695.836E-03,   593.300E-06
C:/temp/dataset/4/3_05.odb,Step-1,Increment      1: Step Time =    1.000,"PART-1-1",           303,      -11.1983,  -513.068E-03,            0.,NA,NA,"",   974.363E-03,   629.353E-03,   743.840E-03,   574.489E-06
C:/temp/dataset/4/3_05.odb,Step-1,Increment      1: Step Time =    1.000,"PART-1-1",           304,      -12.5325,      -1.72297,            0.,NA,NA,"",   987.862E-03,   584.082E-03,   796.693E-03,   438.708E-06
C:/temp/dataset/4/3_05.odb,Step-1,Increment      1: Step Time =    1.000,"PART-1-1",           305,      -11.2842,      -2.85056,            0.,NA,NA,"",   923.189E-03,   539.978E-03,   748.801E-03,   476.141E-06
C:/temp/dataset/4/3_05.odb,Step-1,Increment      1: Step Time =    1.000,"PART-1-1",           306,      -10.2834,   741.336E-03,            0.,NA,NA,"",   978.817E-03,   676.547E-03,   707.367E-03,   563.835E-06
C:/temp/dataset/4/3_05.odb,Step-1,Increment      1: Step Time =    1.000,"PART-1-1",           307,      -11.7661,       1.72477,            0.,NA,NA,"",       1.04777,   716.047E-03,   764.913E-03,   490.783E-06
C:/temp/dataset/4/3_05.odb,Step-1,Increment      1: Step Time =    1.000,"PART-1-1",           308,      -12.6810,   470.366E-03,            0.,NA,NA,"",       1.04351,   668.473E-03,   801.287E-03,   471.610E-06
C:/temp/dataset/4/3_05.odb,Step-1,Increment      1: Step Time =    1.000,"PART-1-1",           309,         -1.25,           -5.,            0.,NA,NA,"",   590.657E-03,   460.082E-03,   370.406E-03,   1.58402E-03
C:/temp/dataset/4/3_05.odb,Step-1,Increment      1: Step Time =    1.000,"PART-1-1",           310,  -165.329E-03,      -4.13131,            0.,NA,NA,"",   592.535E-03,   491.939E-03,   330.293E-03,   1.26204E-03
C:/temp/dataset/4/3_05.odb,Step-1,Increment      1: Step Time =    1.000,"PART-1-1",           311,      -1.46228,      -3.26668,            0.,NA,NA,"",   643.785E-03,   522.604E-03,   375.959E-03,   933.972E-06
C:/temp/dataset/4/3_05.odb,Step-1,Increment      1: Step Time =    1.000,"PART-1-1",           312,      -2.54695,      -4.13537,            0.,NA,NA,"",   643.629E-03,   490.686E-03,   416.516E-03,   1.25697E-03
C:/temp/dataset/4/3_05.odb,Step-1,Increment      1: Step Time =    1.000,"PART-1-1",           313,   769.081E-03,      -3.16387,            0.,NA,NA,"",   604.127E-03,   526.686E-03,   295.924E-03,   889.972E-06
C:/temp/dataset/4/3_05.odb,Step-1,Increment      1: Step Time =    1.000,"PART-1-1",           314,          1.25,           -5.,            0.,NA,NA,"",   540.722E-03,   461.921E-03,   281.084E-03,   1.58058E-03
C:/temp/dataset/4/3_05.odb,Step-1,Increment      1: Step Time =    1.000,"PART-1-1",           315,       2.18441,      -4.03256,            0.,NA,NA,"",   554.605E-03,   496.662E-03,   246.807E-03,   1.25519E-03
C:/temp/dataset/4/3_05.odb,Step-1,Increment      1: Step Time =    1.000,"PART-1-1",           316,       1.54561,       3.01681,            0.,NA,NA,"",   789.002E-03,   742.784E-03,   266.073E-03,   1.69002E-03
C:/temp/dataset/4/3_05.odb,Step-1,Increment      1: Step Time =    1.000,"PART-1-1",           317,       2.64536,       4.01417,            0.,NA,NA,"",   807.517E-03,   774.545E-03,   228.393E-03,   2.19381E-03
C:/temp/dataset/4/3_05.odb,Step-1,Increment      1: Step Time =    1.000,"PART-1-1",           318,          1.25,            5.,            0.,NA,NA,"",   858.628E-03,   812.668E-03,   277.150E-03,   2.67662E-03
C:/temp/dataset/4/3_05.odb,Step-1,Increment      1: Step Time =    1.000,"PART-1-1",           319,   150.245E-03,       4.00264,            0.,NA,NA,"",   841.868E-03,   780.632E-03,   315.208E-03,   2.19813E-03
C:/temp/dataset/4/3_05.odb,Step-1,Increment      1: Step Time =    1.000,"PART-1-1",           320,   179.474E-03,      -1.21124,            0.,NA,NA,"",   674.189E-03,   595.985E-03,   315.171E-03,   154.976E-06
C:/temp/dataset/4/3_05.odb,Step-1,Increment      1: Step Time =    1.000,"PART-1-1",           321,  -580.901E-03,      -2.30818,            0.,NA,NA,"",   654.341E-03,   557.107E-03,   343.212E-03,   598.832E-06
C:/temp/dataset/4/3_05.odb,Step-1,Increment      1: Step Time =    1.000,"PART-1-1",           322,       1.52946,      -2.06693,            0.,NA,NA,"",   625.691E-03,   565.317E-03,   268.153E-03,   524.348E-06
C:/temp/dataset/4/3_05.odb,Step-1,Increment      1: Step Time =    1.000,"PART-1-1",           323,       12.7868,      -3.71378,            0.,NA,NA,"",   512.910E-03,   504.936E-03,  -90.0914E-03,   1.95492E-03
C:/temp/dataset/4/3_05.odb,Step-1,Increment      1: Step Time =    1.000,"PART-1-1",           324,       13.8814,      -5.00619,            0.,NA,NA,"",   479.774E-03,   464.430E-03,  -120.366E-03,   2.54695E-03
C:/temp/dataset/4/3_05.odb,Step-1,Increment      1: Step Time =    1.000,"PART-1-1",           325,           15.,         -3.75,            0.,NA,NA,"",   529.150E-03,   504.798E-03,  -158.676E-03,   2.64331E-03
C:/temp/dataset/4/3_05.odb,Step-1,Increment      1: Step Time =    1.000,"PART-1-1",           326,       13.9054,      -2.45760,            0.,NA,NA,"",   560.465E-03,   545.849E-03,  -127.161E-03,   1.81059E-03
C:/temp/dataset/4/3_05.odb,Step-1,Increment      1: Step Time =    1.000,"PART-1-1",           327,       5.10003,      -1.40311,            0.,NA,NA,"",   603.726E-03,   585.884E-03,   145.689E-03,   1.18969E-03
C:/temp/dataset/4/3_05.odb,Step-1,Increment      1: Step Time =    1.000,"PART-1-1",           328,       3.80913,  -775.561E-03,            0.,NA,NA,"",   637.259E-03,   608.613E-03,   188.916E-03,   694.528E-06
C:/temp/dataset/4/3_05.odb,Step-1,Increment      1: Step Time =    1.000,"PART-1-1",           329,       3.52110,      -1.80919,            0.,NA,NA,"",   606.905E-03,   573.395E-03,   198.875E-03,   457.725E-06
C:/temp/dataset/4/3_05.odb,Step-1,Increment      1: Step Time =    1.000,"PART-1-1",           330,       4.81200,      -2.43673,            0.,NA,NA,"",   572.556E-03,   551.189E-03,   154.955E-03,   884.135E-06
C:/temp/dataset/4/3_05.odb,Step-1,Increment      1: Step Time =    1.000,"PART-1-1",           331,           15.,          3.75,            0.,NA,NA,"",   768.985E-03,   749.771E-03,  -170.826E-03,   178.717E-06
C:/temp/dataset/4/3_05.odb,Step-1,Increment      1: Step Time =    1.000,"PART-1-1",           332,       13.8386,       5.14064,            0.,NA,NA,"",   807.015E-03,   795.834E-03,  -133.869E-03,   139.964E-06
C:/temp/dataset/4/3_05.odb,Step-1,Increment      1: Step Time =    1.000,"PART-1-1",           333,       12.6076,       4.00525,            0.,NA,NA,"",   765.049E-03,   759.320E-03,  -93.4479E-03,   521.038E-06
C:/temp/dataset/4/3_05.odb,Step-1,Increment      1: Step Time =    1.000,"PART-1-1",           334,       13.7689,       2.61462,            0.,NA,NA,"",   724.705E-03,   712.978E-03,  -129.847E-03,   497.212E-06
C:/temp/dataset/4/3_05.odb,Step-1,Increment      1: Step Time =    1.000,"PART-1-1",           335,       9.76439,       8.40859,            0.,NA,NA,"",   904.063E-03,   904.053E-03,  -4.25196E-03,   55.7576E-06
C:/temp/dataset/4/3_05.odb,Step-1,Increment      1: Step Time =    1.000,"PART-1-1",           336,       8.59642,       7.53369,            0.,NA,NA,"",   877.297E-03,   876.649E-03,   33.7210E-03,   182.010E-06
C:/temp/dataset/4/3_05.odb,Step-1,Increment      1: Step Time =    1.000,"PART-1-1",           337,       9.44563,       6.06261,            0.,NA,NA,"",   828.769E-03,   828.739E-03,   7.04617E-03,   341.536E-06
C:/temp/dataset/4/3_05.odb,Step-1,Increment      1: Step Time =    1.000,"PART-1-1",           338,       10.6136,       6.93751,            0.,NA,NA,"",   856.697E-03,   856.142E-03,  -30.8415E-03,   198.654E-06
C:/temp/dataset/4/3_05.odb,Step-1,Increment      1: Step Time =    1.000,"PART-1-1",           339,       5.92452,       9.07762,            0.,NA,NA,"",   935.103E-03,   927.562E-03,   118.513E-03,   79.8207E-06
C:/temp/dataset/4/3_05.odb,Step-1,Increment      1: Step Time =    1.000,"PART-1-1",           340,            5.,         8.125,            0.,NA,NA,"",   909.775E-03,   897.587E-03,   148.419E-03,   172.394E-06
C:/temp/dataset/4/3_05.odb,Step-1,Increment      1: Step Time =    1.000,"PART-1-1",           341,       5.83838,       7.03541,            0.,NA,NA,"",   871.147E-03,   862.531E-03,   122.221E-03,   243.007E-06
C:/temp/dataset/4/3_05.odb,Step-1,Increment      1: Step Time =    1.000,"PART-1-1",           342,       6.76290,       7.98803,            0.,NA,NA,"",   897.027E-03,   892.271E-03,   92.2542E-03,   83.2045E-06
C:/temp/dataset/4/3_05.odb,Step-1,Increment      1: Step Time =    1.000,"PART-1-1",           343,       6.00358,       15.4027,            0.,NA,NA,"",       1.13643,       1.13081,   112.859E-03,   6.80967E-06
C:/temp/dataset/4/3_05.odb,Step-1,Increment      1: Step Time =    1.000,"PART-1-1",           344,            5.,        14.375,            0.,NA,NA,"",       1.10790,       1.09829,   145.648E-03,   15.1929E-06
C:/temp/dataset/4/3_05.odb,Step-1,Increment      1: Step Time =    1.000,"PART-1-1",           345,       5.99171,       13.2884,            0.,NA,NA,"",       1.06896,       1.06283,   114.317E-03,   19.0145E-06
C:/temp/dataset/4/3_05.odb,Step-1,Increment      1: Step Time =    1.000,"PART-1-1",           346,       6.99529,       14.3161,            0.,NA,NA,"",       1.09839,       1.09535,   81.5434E-03,   17.3147E-06
C:/temp/dataset/4/3_05.odb,Step-1,Increment      1: Step Time =    1.000,"PART-1-1",           347,       11.7328,       24.6815,            0.,NA,NA,"",       1.42821,       1.42618,  -76.1238E-03,   107.366E-09
C:/temp/dataset/4/3_05.odb,Step-1,Increment      1: Step Time =    1.000,"PART-1-1",           348,       12.6496,       26.1279,            0.,NA,NA,"",       1.47604,       1.47221,  -106.346E-03,   96.7613E-09
C:/temp/dataset/4/3_05.odb,Step-1,Increment      1: Step Time =    1.000,"PART-1-1",           349,       11.2054,       27.2635,            0.,NA,NA,"",       1.51067,       1.50946,  -60.5049E-03,   59.0752E-09
C:/temp/dataset/4/3_05.odb,Step-1,Increment      1: Step Time =    1.000,"PART-1-1",           350,       10.2886,       25.8171,            0.,NA,NA,"",       1.46375,       1.46344,  -30.2825E-03,   87.5700E-09
C:/temp/dataset/4/3_05.odb,Step-1,Increment      1: Step Time =    1.000,"PART-1-1",           351,       12.5134,       28.7000,            0.,NA,NA,"",       1.55840,       1.55497,  -103.298E-03,   46.9744E-09
C:/temp/dataset/4/3_05.odb,Step-1,Increment      1: Step Time =    1.000,"PART-1-1",           352,       13.7634,       27.4500,            0.,NA,NA,"",       1.52086,       1.51414,  -142.839E-03,   46.6318E-09
C:/temp/dataset/4/3_05.odb,Step-1,Increment      1: Step Time =    1.000,"PART-1-1",           353,           15.,         28.75,            0.,NA,NA,"",       1.56605,       1.55529,  -183.267E-03,   13.8265E-09
C:/temp/dataset/4/3_05.odb,Step-1,Increment      1: Step Time =    1.000,"PART-1-1",           354,         13.75,           30.,            0.,NA,NA,"",       1.60258,       1.59613,  -143.726E-03,   10.2618E-09
C:/temp/dataset/4/3_05.odb,Step-1,Increment      1: Step Time =    1.000,"PART-1-1",           355,      -3.83569,      -2.96698,            0.,NA,NA,"",   706.154E-03,   533.320E-03,   462.843E-03,   793.380E-06
C:/temp/dataset/4/3_05.odb,Step-1,Increment      1: Step Time =    1.000,"PART-1-1",           356,      -2.47303,      -2.56070,            0.,NA,NA,"",   685.779E-03,   548.172E-03,   412.068E-03,   675.428E-06
C:/temp/dataset/4/3_05.odb,Step-1,Increment      1: Step Time =    1.000,"PART-1-1",           357,      -2.95938,      -1.35275,            0.,NA,NA,"",   731.277E-03,   592.362E-03,   428.805E-03,   353.225E-06
C:/temp/dataset/4/3_05.odb,Step-1,Increment      1: Step Time =    1.000,"PART-1-1",           358,      -4.32205,      -1.75903,            0.,NA,NA,"",   751.177E-03,   577.978E-03,   479.799E-03,   497.204E-06
C:/temp/dataset/4/3_05.odb,Step-1,Increment      1: Step Time =    1.000,"PART-1-1",           359,       8.60967,      -7.25473,            0.,NA,NA,"",   396.443E-03,   394.912E-03,   34.8044E-03,   1.35270E-03
C:/temp/dataset/4/3_05.odb,Step-1,Increment      1: Step Time =    1.000,"PART-1-1",           360,       7.51358,      -6.44375,            0.,NA,NA,"",   425.263E-03,   420.006E-03,   66.6584E-03,   1.74014E-03
C:/temp/dataset/4/3_05.odb,Step-1,Increment      1: Step Time =    1.000,"PART-1-1",           361,       6.75300,      -7.77251,            0.,NA,NA,"",   391.292E-03,   381.604E-03,   86.5315E-03,   2.69404E-03
C:/temp/dataset/4/3_05.odb,Step-1,Increment      1: Step Time =    1.000,"PART-1-1",           362,       7.84909,      -8.58350,            0.,NA,NA,"",   361.025E-03,   356.837E-03,   54.8294E-03,   2.01016E-03
C:/temp/dataset/4/3_05.odb,Step-1,Increment      1: Step Time =    1.000,"PART-1-1",           363,       7.07130,      -14.2100,            0.,NA,NA,"",   219.619E-03,   210.416E-03,   62.9074E-03,   3.51670E-03
C:/temp/dataset/4/3_05.odb,Step-1,Increment      1: Step Time =    1.000,"PART-1-1",           364,       6.02882,      -13.2279,            0.,NA,NA,"",   252.720E-03,   236.133E-03,   90.0476E-03,   4.45209E-03
C:/temp/dataset/4/3_05.odb,Step-1,Increment      1: Step Time =    1.000,"PART-1-1",           365,            5.,       -14.375,            0.,NA,NA,"",   237.901E-03,   211.406E-03,   109.107E-03,   5.87121E-03
C:/temp/dataset/4/3_05.odb,Step-1,Increment      1: Step Time =    1.000,"PART-1-1",           366,       6.04247,      -15.3570,            0.,NA,NA,"",   203.314E-03,   186.295E-03,   81.4291E-03,   4.88351E-03
C:/temp/dataset/4/3_05.odb,Step-1,Increment      1: Step Time =    1.000,"PART-1-1",           367,       7.02995,      -12.0379,            0.,NA,NA,"",   273.041E-03,   264.015E-03,   69.6245E-03,   3.22658E-03
C:/temp/dataset/4/3_05.odb,Step-1,Increment      1: Step Time =    1.000,"PART-1-1",           368,       6.00113,      -11.1016,            0.,NA,NA,"",   306.539E-03,   290.413E-03,   98.1156E-03,   4.03324E-03
C:/temp/dataset/4/3_05.odb,Step-1,Increment      1: Step Time =    1.000,"PART-1-1",           369,            5.,      -12.2917,            0.,NA,NA,"",   287.754E-03,   262.011E-03,   118.964E-03,   5.31409E-03
C:/temp/dataset/4/3_05.odb,Step-1,Increment      1: Step Time =    1.000,"PART-1-1",           370,            5.,      -22.7083,            0.,NA,NA,"",   83.0405E-03,   59.1622E-03,   58.2715E-03,   8.07170E-03
C:/temp/dataset/4/3_05.odb,Step-1,Increment      1: Step Time =    1.000,"PART-1-1",           371,       6.05922,      -23.7899,            0.,NA,NA,"",   57.7492E-03,   42.6177E-03,   38.9705E-03,   6.61380E-03
C:/temp/dataset/4/3_05.odb,Step-1,Increment      1: Step Time =    1.000,"PART-1-1",           372,       7.11013,      -22.7834,            0.,NA,NA,"",   61.2748E-03,   52.0019E-03,   32.4100E-03,   4.76782E-03
C:/temp/dataset/4/3_05.odb,Step-1,Increment      1: Step Time =    1.000,"PART-1-1",           373,       6.05091,      -21.7018,            0.,NA,NA,"",   86.0018E-03,   69.3326E-03,   50.8851E-03,   6.18906E-03
C:/temp/dataset/4/3_05.odb,Step-1,Increment      1: Step Time =    1.000,"PART-1-1",           374,          8.75,          -30.,            0.,NA,NA,"",            0.,  -866.972E-42,   3.66404E-39,   1.91177E-03
C:/temp/dataset/4/3_05.odb,Step-1,Increment      1: Step Time =    1.000,"PART-1-1",           375,       9.84988,      -28.9274,            0.,NA,NA,"",   202.547E-06,   95.2039E-06,   178.778E-06,   292.985E-06
C:/temp/dataset/4/3_05.odb,Step-1,Increment      1: Step Time =    1.000,"PART-1-1",           376,       8.52411,      -27.9095,            0.,NA,NA,"",   5.95164E-03,   4.04556E-03,   4.36525E-03,   3.02469E-03
C:/temp/dataset/4/3_05.odb,Step-1,Increment      1: Step Time =    1.000,"PART-1-1",           377,       7.42422,      -28.9821,            0.,NA,NA,"",   3.71238E-03,   1.12962E-03,   3.53634E-03,   4.26790E-03
C:/temp/dataset/4/3_05.odb,Step-1,Increment      1: Step Time =    1.000,"PART-1-1",           378,       10.1104,      -23.9794,            0.,NA,NA,"",   34.3225E-03,   34.3070E-03,  -1.03031E-03,   1.16705E-03
C:/temp/dataset/4/3_05.odb,Step-1,Increment      1: Step Time =    1.000,"PART-1-1",           379,       11.1261,      -23.0268,            0.,NA,NA,"",   47.5255E-03,   45.9508E-03,  -12.1327E-03,   2.15173E-03
C:/temp/dataset/4/3_05.odb,Step-1,Increment      1: Step Time =    1.000,"PART-1-1",           380,       10.1523,      -21.9025,            0.,NA,NA,"",   60.5925E-03,   60.5597E-03,  -1.99564E-03,   1.15349E-03
C:/temp/dataset/4/3_05.odb,Step-1,Increment      1: Step Time =    1.000,"PART-1-1",           381,       9.13660,      -22.8552,            0.,NA,NA,"",   49.0203E-03,   48.1060E-03,   9.42314E-03,   1.85371E-03
C:/temp/dataset/4/3_05.odb,Step-1,Increment      1: Step Time =    1.000,"PART-1-1",           382,       7.09296,      -18.5383,            0.,NA,NA,"",   128.553E-03,   118.907E-03,   48.8578E-03,   4.14488E-03
C:/temp/dataset/4/3_05.odb,Step-1,Increment      1: Step Time =    1.000,"PART-1-1",           383,       6.04465,      -17.4814,            0.,NA,NA,"",   158.897E-03,   141.574E-03,   72.1453E-03,   5.32354E-03
C:/temp/dataset/4/3_05.odb,Step-1,Increment      1: Step Time =    1.000,"PART-1-1",           384,            5.,      -18.5417,            0.,NA,NA,"",   151.166E-03,   124.361E-03,   85.9388E-03,   6.98295E-03
C:/temp/dataset/4/3_05.odb,Step-1,Increment      1: Step Time =    1.000,"PART-1-1",           385,       6.04831,      -19.5985,            0.,NA,NA,"",   119.687E-03,   102.419E-03,   61.9296E-03,   5.75944E-03
C:/temp/dataset/4/3_05.odb,Step-1,Increment      1: Step Time =    1.000,"PART-1-1",           386,       8.88188,       22.9635,            0.,NA,NA,"",       1.37252,       1.37242,   16.4193E-03,   121.420E-09
C:/temp/dataset/4/3_05.odb,Step-1,Increment      1: Step Time =    1.000,"PART-1-1",           387,       9.93448,       22.0483,            0.,NA,NA,"",       1.34256,       1.34245,  -16.9486E-03,   191.246E-09
C:/temp/dataset/4/3_05.odb,Step-1,Increment      1: Step Time =    1.000,"PART-1-1",           388,       10.8087,       23.3359,            0.,NA,NA,"",       1.38415,       1.38340,  -45.7187E-03,   109.344E-09
C:/temp/dataset/4/3_05.odb,Step-1,Increment      1: Step Time =    1.000,"PART-1-1",           389,       9.75606,       24.2511,            0.,NA,NA,"",       1.41342,       1.41336,  -12.3508E-03,   109.733E-09
C:/temp/dataset/4/3_05.odb,Step-1,Increment      1: Step Time =    1.000,"PART-1-1",           390,       10.0218,       17.5512,            0.,NA,NA,"",       1.19795,       1.19783,  -17.4264E-03,   4.06552E-06
C:/temp/dataset/4/3_05.odb,Step-1,Increment      1: Step Time =    1.000,"PART-1-1",           391,       9.00837,       16.4411,            0.,NA,NA,"",       1.16276,       1.16266,   15.7322E-03,   8.43976E-06
C:/temp/dataset/4/3_05.odb,Step-1,Increment      1: Step Time =    1.000,"PART-1-1",           392,       10.0249,       15.2736,            0.,NA,NA,"",       1.12472,       1.12461,  -16.3341E-03,   11.6961E-06
C:/temp/dataset/4/3_05.odb,Step-1,Increment      1: Step Time =    1.000,"PART-1-1",           393,       11.0383,       16.3837,            0.,NA,NA,"",       1.16083,       1.15978,  -49.4994E-03,   8.52400E-06
C:/temp/dataset/4/3_05.odb,Step-1,Increment      1: Step Time =    1.000,"PART-1-1",           394,      -14.0638,       5.89996,            0.,NA,NA,"",       1.22889,   883.656E-03,   853.998E-03,   811.157E-06
C:/temp/dataset/4/3_05.odb,Step-1,Increment      1: Step Time =    1.000,"PART-1-1",           395,      -13.1194,       6.91794,            0.,NA,NA,"",       1.23220,   922.904E-03,   816.430E-03,   747.637E-06
C:/temp/dataset/4/3_05.odb,Step-1,Increment      1: Step Time =    1.000,"PART-1-1",           396,      -14.0556,       8.04923,            0.,NA,NA,"",       1.29117,   969.271E-03,   853.010E-03,   646.458E-06
C:/temp/dataset/4/3_05.odb,Step-1,Increment      1: Step Time =    1.000,"PART-1-1",           397,          -15.,       7.03125,            0.,NA,NA,"",       1.28780,   929.993E-03,   890.817E-03,   703.231E-06
C:/temp/dataset/4/3_05.odb,Step-1,Increment      1: Step Time =    1.000,"PART-1-1",           398,      -14.0181,       12.3521,            0.,NA,NA,"",       1.42155,       1.13989,   849.375E-03,   312.758E-06
C:/temp/dataset/4/3_05.odb,Step-1,Increment      1: Step Time =    1.000,"PART-1-1",           399,      -13.0189,       13.2775,            0.,NA,NA,"",       1.42702,       1.17537,   809.260E-03,   143.730E-06
C:/temp/dataset/4/3_05.odb,Step-1,Increment      1: Step Time =    1.000,"PART-1-1",           400,      -14.0008,       14.5192,            0.,NA,NA,"",       1.48948,       1.22515,   847.081E-03,   59.1061E-06
C:/temp/dataset/4/3_05.odb,Step-1,Increment      1: Step Time =    1.000,"PART-1-1",           401,          -15.,       13.5938,            0.,NA,NA,"",       1.48384,       1.18943,   887.138E-03,   112.401E-06
C:/temp/dataset/4/3_05.odb,Step-1,Increment      1: Step Time =    1.000,"PART-1-1",           402,      -10.1942,       21.9572,            0.,NA,NA,"",       1.66657,       1.51676,   690.563E-03,   6.29600E-06
C:/temp/dataset/4/3_05.odb,Step-1,Increment      1: Step Time =    1.000,"PART-1-1",           403,      -9.14995,       21.4132,            0.,NA,NA,"",       1.62949,       1.49440,   649.623E-03,   7.17255E-06
C:/temp/dataset/4/3_05.odb,Step-1,Increment      1: Step Time =    1.000,"PART-1-1",           404,      -8.60578,       22.3365,            0.,NA,NA,"",       1.65412,       1.53055,   627.336E-03,   5.12998E-06
C:/temp/dataset/4/3_05.odb,Step-1,Increment      1: Step Time =    1.000,"PART-1-1",           405,      -9.65000,       22.8805,            0.,NA,NA,"",       1.69060,       1.55291,   668.277E-03,   3.72110E-06
C:/temp/dataset/4/3_05.odb,Step-1,Increment      1: Step Time =    1.000,"PART-1-1",           406,      -14.0213,       25.7108,            0.,NA,NA,"",       1.86764,       1.66847,   839.228E-03,   157.783E-09
C:/temp/dataset/4/3_05.odb,Step-1,Increment      1: Step Time =    1.000,"PART-1-1",           407,      -12.8802,       26.8172,            0.,NA,NA,"",       1.88627,       1.71141,   793.153E-03,   206.531E-09
C:/temp/dataset/4/3_05.odb,Step-1,Increment      1: Step Time =    1.000,"PART-1-1",           408,      -13.8589,       27.8252,            0.,NA,NA,"",       1.93925,       1.75211,   831.135E-03,   82.6120E-09
C:/temp/dataset/4/3_05.odb,Step-1,Increment      1: Step Time =    1.000,"PART-1-1",           409,          -15.,       26.7188,            0.,NA,NA,"",       1.92113,       1.70917,   877.210E-03,   119.732E-09
C:/temp/dataset/4/3_05.odb,Step-1,Increment      1: Step Time =    1.000,"PART-1-1",           410,        -13.75,           30.,            0.,NA,NA,"",       2.01488,       1.83818,   825.113E-03,   60.1840E-09
C:/temp/dataset/4/3_05.odb,Step-1,Increment      1: Step Time =    1.000,"PART-1-1",           411,          -15.,       28.9063,            0.,NA,NA,"",       1.99787,       1.79583,   875.493E-03,   55.4093E-09
C:/temp/dataset/4/3_05.odb,Step-1,Increment      1: Step Time =    1.000,"PART-1-1",           412,      -12.6089,       28.9190,            0.,NA,NA,"",       1.95695,       1.79446,   780.755E-03,   68.4470E-09
C:/temp/dataset/4/3_05.odb,Step-1,Increment      1: Step Time =    1.000,"PART-1-1",           413,      -11.4362,       27.6040,            0.,NA,NA,"",       1.89033,       1.74144,   735.327E-03,   150.708E-09
C:/temp/dataset/4/3_05.odb,Step-1,Increment      1: Step Time =    1.000,"PART-1-1",           414,      -10.0773,       28.6850,            0.,NA,NA,"",       1.90869,       1.78320,   680.643E-03,   24.1613E-09
C:/temp/dataset/4/3_05.odb,Step-1,Increment      1: Step Time =    1.000,"PART-1-1",           415,        -11.25,           30.,            0.,NA,NA,"",       1.97456,       1.83622,   726.070E-03,   174.758E-09
C:/temp/dataset/4/3_05.odb,Step-1,Increment      1: Step Time =    1.000,"PART-1-1",           416,      -13.7240,       21.2404,            0.,NA,NA,"",       1.70702,       1.49112,   830.957E-03,   4.74352E-06
C:/temp/dataset/4/3_05.odb,Step-1,Increment      1: Step Time =    1.000,"PART-1-1",           417,      -12.6979,       22.4429,            0.,NA,NA,"",       1.72871,       1.53796,   789.365E-03,   4.61657E-06
C:/temp/dataset/4/3_05.odb,Step-1,Increment      1: Step Time =    1.000,"PART-1-1",           418,      -13.9739,       23.5463,            0.,NA,NA,"",       1.79133,       1.58268,   839.049E-03,   1.15134E-06
C:/temp/dataset/4/3_05.odb,Step-1,Increment      1: Step Time =    1.000,"PART-1-1",           419,          -15.,       22.3438,            0.,NA,NA,"",       1.77041,       1.53584,   880.644E-03,   2.87147E-06
C:/temp/dataset/4/3_05.odb,Step-1,Increment      1: Step Time =    1.000,"PART-1-1",           420,      -11.9375,       16.3352,            0.,NA,NA,"",       1.50395,       1.29539,   764.087E-03,   27.3088E-06
C:/temp/dataset/4/3_05.odb,Step-1,Increment      1: Step Time =    1.000,"PART-1-1",           421,      -10.8584,       17.1847,            0.,NA,NA,"",       1.51113,       1.32821,   720.679E-03,   26.7340E-06
C:/temp/dataset/4/3_05.odb,Step-1,Increment      1: Step Time =    1.000,"PART-1-1",           422,      -11.8099,       18.4796,            0.,NA,NA,"",       1.57436,       1.38024,   757.321E-03,   18.4559E-06
C:/temp/dataset/4/3_05.odb,Step-1,Increment      1: Step Time =    1.000,"PART-1-1",           423,      -12.8889,       17.6301,            0.,NA,NA,"",       1.56738,       1.34742,   800.716E-03,   24.9841E-06
C:/temp/dataset/4/3_05.odb,Step-1,Increment      1: Step Time =    1.000,"PART-1-1",           424,      -9.98079,       13.8692,            0.,NA,NA,"",       1.38019,       1.19616,   688.574E-03,   48.3372E-06
C:/temp/dataset/4/3_05.odb,Step-1,Increment      1: Step Time =    1.000,"PART-1-1",           425,      -11.0142,       12.9724,            0.,NA,NA,"",       1.37194,       1.16149,   730.180E-03,   137.249E-06
C:/temp/dataset/4/3_05.odb,Step-1,Increment      1: Step Time =    1.000,"PART-1-1",           426,      -10.0204,       11.7735,            0.,NA,NA,"",       1.31043,       1.11298,   691.735E-03,   198.888E-06
C:/temp/dataset/4/3_05.odb,Step-1,Increment      1: Step Time =    1.000,"PART-1-1",           427,      -6.95613,       14.5250,            0.,NA,NA,"",       1.34555,       1.21974,   568.092E-03,   13.9860E-06
C:/temp/dataset/4/3_05.odb,Step-1,Increment      1: Step Time =    1.000,"PART-1-1",           428,      -5.98929,       13.4097,            0.,NA,NA,"",       1.28895,       1.17469,   530.553E-03,   40.9411E-06
C:/temp/dataset/4/3_05.odb,Step-1,Increment      1: Step Time =    1.000,"PART-1-1",           429,           -5.,        14.375,            0.,NA,NA,"",       1.30771,       1.21222,   490.551E-03,   68.1754E-06
C:/temp/dataset/4/3_05.odb,Step-1,Increment      1: Step Time =    1.000,"PART-1-1",           430,      -5.96684,       15.4903,            0.,NA,NA,"",       1.36365,       1.25724,   528.086E-03,   34.0619E-06
C:/temp/dataset/4/3_05.odb,Step-1,Increment      1: Step Time =    1.000,"PART-1-1",           431,      -11.0581,       10.8707,            0.,NA,NA,"",       1.30386,       1.07807,   733.354E-03,   374.064E-06
C:/temp/dataset/4/3_05.odb,Step-1,Increment      1: Step Time =    1.000,"PART-1-1",           432,      -10.0579,       9.67932,            0.,NA,NA,"",       1.24194,       1.02948,   694.678E-03,   466.586E-06
C:/temp/dataset/4/3_05.odb,Step-1,Increment      1: Step Time =    1.000,"PART-1-1",           433,      -9.02030,       10.5821,            0.,NA,NA,"",       1.24892,       1.06456,   653.074E-03,   313.789E-06
C:/temp/dataset/4/3_05.odb,Step-1,Increment      1: Step Time =    1.000,"PART-1-1",           434,      -7.04064,       8.20966,            0.,NA,NA,"",       1.12644,   967.576E-03,   576.762E-03,   594.088E-06
C:/temp/dataset/4/3_05.odb,Step-1,Increment      1: Step Time =    1.000,"PART-1-1",           435,      -6.03068,       7.10065,            0.,NA,NA,"",       1.06717,   921.733E-03,   537.838E-03,   625.212E-06
C:/temp/dataset/4/3_05.odb,Step-1,Increment      1: Step Time =    1.000,"PART-1-1",           436,           -5.,         8.125,            0.,NA,NA,"",       1.08255,   962.693E-03,   495.119E-03,   217.769E-06
C:/temp/dataset/4/3_05.odb,Step-1,Increment      1: Step Time =    1.000,"PART-1-1",           437,      -6.00996,       9.23401,            0.,NA,NA,"",       1.14112,       1.00809,   534.716E-03,   153.416E-06
C:/temp/dataset/4/3_05.odb,Step-1,Increment      1: Step Time =    1.000,"PART-1-1",           438,      -13.0926,       9.02789,            0.,NA,NA,"",       1.29524,       1.00705,   814.562E-03,   631.946E-06
C:/temp/dataset/4/3_05.odb,Step-1,Increment      1: Step Time =    1.000,"PART-1-1",           439,      -14.0370,       10.1974,            0.,NA,NA,"",       1.35545,       1.05479,   851.277E-03,   543.253E-06
C:/temp/dataset/4/3_05.odb,Step-1,Increment      1: Step Time =    1.000,"PART-1-1",           440,          -15.,       9.21875,            0.,NA,NA,"",       1.35147,       1.01708,   889.956E-03,   545.419E-06
C:/temp/dataset/4/3_05.odb,Step-1,Increment      1: Step Time =    1.000,"PART-1-1",           441,      -13.9055,       1.56280,            0.,NA,NA,"",       1.10779,   711.947E-03,   848.728E-03,   550.454E-06
C:/temp/dataset/4/3_05.odb,Step-1,Increment      1: Step Time =    1.000,"PART-1-1",           442,      -12.9296,       2.64306,            0.,NA,NA,"",       1.10611,   753.121E-03,   810.117E-03,   448.995E-06
C:/temp/dataset/4/3_05.odb,Step-1,Increment      1: Step Time =    1.000,"PART-1-1",           443,      -14.0241,       3.73651,            0.,NA,NA,"",       1.16757,   797.511E-03,   852.754E-03,   752.393E-06
C:/temp/dataset/4/3_05.odb,Step-1,Increment      1: Step Time =    1.000,"PART-1-1",           444,          -15.,       2.65625,            0.,NA,NA,"",       1.16872,   755.845E-03,   891.409E-03,   785.910E-06
C:/temp/dataset/4/3_05.odb,Step-1,Increment      1: Step Time =    1.000,"PART-1-1",           445,      -13.7570,      -2.81804,            0.,NA,NA,"",       1.00442,   542.962E-03,   845.017E-03,   206.905E-06
C:/temp/dataset/4/3_05.odb,Step-1,Increment      1: Step Time =    1.000,"PART-1-1",           446,      -13.7756,  -623.683E-03,            0.,NA,NA,"",       1.05201,   627.346E-03,   844.495E-03,   402.636E-06
C:/temp/dataset/4/3_05.odb,Step-1,Increment      1: Step Time =    1.000,"PART-1-1",           447,          -15.,      -1.71875,            0.,NA,NA,"",       1.06777,   586.275E-03,   892.418E-03,   243.860E-06
C:/temp/dataset/4/3_05.odb,Step-1,Increment      1: Step Time =    1.000,"PART-1-1",           448,        -13.75,           -5.,            0.,NA,NA,"",   962.642E-03,   458.709E-03,   846.325E-03,   40.1869E-06
C:/temp/dataset/4/3_05.odb,Step-1,Increment      1: Step Time =    1.000,"PART-1-1",           449,      -12.5070,      -3.91179,            0.,NA,NA,"",   941.036E-03,   499.934E-03,   797.255E-03,   214.056E-06
C:/temp/dataset/4/3_05.odb,Step-1,Increment      1: Step Time =    1.000,"PART-1-1",           450,          -15.,      -3.90625,            0.,NA,NA,"",       1.02515,   501.934E-03,   893.869E-03,   35.4325E-06
C:/temp/dataset/4/3_05.odb,Step-1,Increment      1: Step Time =    1.000,"PART-1-1",           451,          -15.,    468.75E-03,            0.,NA,NA,"",       1.11565,   670.639E-03,   891.579E-03,   565.141E-06
C:/temp/dataset/4/3_05.odb,Step-1,Increment      1: Step Time =    1.000,"PART-1-1",           452,      -5.10506,       2.56414,            0.,NA,NA,"",   895.816E-03,   739.377E-03,   505.775E-03,   1.03144E-03
C:/temp/dataset/4/3_05.odb,Step-1,Increment      1: Step Time =    1.000,"PART-1-1",           453,      -4.59209,       3.94539,            0.,NA,NA,"",   927.889E-03,   790.799E-03,   485.402E-03,   2.13214E-03
C:/temp/dataset/4/3_05.odb,Step-1,Increment      1: Step Time =    1.000,"PART-1-1",           454,      -6.09775,       4.77703,            0.,NA,NA,"",   988.733E-03,   826.404E-03,   542.815E-03,   1.98408E-03
C:/temp/dataset/4/3_05.odb,Step-1,Increment      1: Step Time =    1.000,"PART-1-1",           455,      -6.61072,       3.39578,            0.,NA,NA,"",   956.781E-03,   773.510E-03,   563.127E-03,   1.17807E-03
C:/temp/dataset/4/3_05.odb,Step-1,Increment      1: Step Time =    1.000,"PART-1-1",           456,       9.44090,      -5.60228,            0.,NA,NA,"",   445.029E-03,   444.896E-03,   10.8991E-03,   1.40777E-03
C:/temp/dataset/4/3_05.odb,Step-1,Increment      1: Step Time =    1.000,"PART-1-1",           457,       9.79564,      -4.46986,            0.,NA,NA,"",   480.648E-03,   480.648E-03,  -109.610E-06,   1.71742E-03
C:/temp/dataset/4/3_05.odb,Step-1,Increment      1: Step Time =    1.000,"PART-1-1",           458,       8.43936,      -4.09444,            0.,NA,NA,"",   494.804E-03,   493.189E-03,   39.9529E-03,   1.69536E-03
C:/temp/dataset/4/3_05.odb,Step-1,Increment      1: Step Time =    1.000,"PART-1-1",           459,       8.08462,      -5.22686,            0.,NA,NA,"",   459.928E-03,   457.153E-03,   50.4445E-03,   1.52436E-03
C:/temp/dataset/4/3_05.odb,Step-1,Increment      1: Step Time =    1.000,"PART-1-1",           460,       6.93926,      -9.88629,            0.,NA,NA,"",   330.590E-03,   321.496E-03,   77.0058E-03,   2.97885E-03
C:/temp/dataset/4/3_05.odb,Step-1,Increment      1: Step Time =    1.000,"PART-1-1",           461,       5.93813,      -8.99303,            0.,NA,NA,"",   364.071E-03,   348.232E-03,   106.218E-03,   3.67488E-03
C:/temp/dataset/4/3_05.odb,Step-1,Increment      1: Step Time =    1.000,"PART-1-1",           462,            5.,      -10.2083,            0.,NA,NA,"",   341.452E-03,   316.677E-03,   127.692E-03,   4.74054E-03
C:/temp/dataset/4/3_05.odb,Step-1,Increment      1: Step Time =    1.000,"PART-1-1",           463,       12.9852,      -11.3613,            0.,NA,NA,"",   290.061E-03,   279.824E-03,  -76.3802E-03,   3.13435E-03
C:/temp/dataset/4/3_05.odb,Step-1,Increment      1: Step Time =    1.000,"PART-1-1",           464,       14.0059,      -12.5461,            0.,NA,NA,"",   269.088E-03,   250.819E-03,  -97.4576E-03,   4.35204E-03
C:/temp/dataset/4/3_05.odb,Step-1,Increment      1: Step Time =    1.000,"PART-1-1",           465,           15.,        -11.25,            0.,NA,NA,"",   313.377E-03,   285.757E-03,  -128.640E-03,   5.08640E-03
C:/temp/dataset/4/3_05.odb,Step-1,Increment      1: Step Time =    1.000,"PART-1-1",           466,       13.9793,      -10.0652,            0.,NA,NA,"",   333.287E-03,   315.754E-03,  -106.677E-03,   3.81058E-03
C:/temp/dataset/4/3_05.odb,Step-1,Increment      1: Step Time =    1.000,"PART-1-1",           467,       7.08713,      -16.3801,            0.,NA,NA,"",   171.282E-03,   161.828E-03,   56.1181E-03,   3.82595E-03
C:/temp/dataset/4/3_05.odb,Step-1,Increment      1: Step Time =    1.000,"PART-1-1",           468,            5.,      -16.4583,            0.,NA,NA,"",   192.278E-03,   165.374E-03,   98.0926E-03,   6.42982E-03
C:/temp/dataset/4/3_05.odb,Step-1,Increment      1: Step Time =    1.000,"PART-1-1",           469,       13.0372,      -13.8111,            0.,NA,NA,"",   229.326E-03,   218.480E-03,  -69.6900E-03,   3.55816E-03
C:/temp/dataset/4/3_05.odb,Step-1,Increment      1: Step Time =    1.000,"PART-1-1",           470,       14.0313,      -15.0151,            0.,NA,NA,"",   211.047E-03,   192.223E-03,  -87.1285E-03,   4.89302E-03
C:/temp/dataset/4/3_05.odb,Step-1,Increment      1: Step Time =    1.000,"PART-1-1",           471,           15.,        -13.75,            0.,NA,NA,"",   251.647E-03,   223.469E-03,  -115.707E-03,   5.73363E-03
C:/temp/dataset/4/3_05.odb,Step-1,Increment      1: Step Time =    1.000,"PART-1-1",           472,       13.0981,      -18.6529,            0.,NA,NA,"",   127.635E-03,   116.178E-03,  -52.8523E-03,   4.39197E-03
C:/temp/dataset/4/3_05.odb,Step-1,Increment      1: Step Time =    1.000,"PART-1-1",           473,       14.0553,      -19.9280,            0.,NA,NA,"",   114.723E-03,   96.0395E-03,  -62.7516E-03,   5.95669E-03
C:/temp/dataset/4/3_05.odb,Step-1,Increment      1: Step Time =    1.000,"PART-1-1",           474,           15.,        -18.75,            0.,NA,NA,"",   146.779E-03,   118.985E-03,  -85.9445E-03,   7.02533E-03
C:/temp/dataset/4/3_05.odb,Step-1,Increment      1: Step Time =    1.000,"PART-1-1",           475,       14.0427,      -17.4749,            0.,NA,NA,"",   159.419E-03,   140.434E-03,  -75.4482E-03,   5.42424E-03
C:/temp/dataset/4/3_05.odb,Step-1,Increment      1: Step Time =    1.000,"PART-1-1",           476,       6.17422,      -27.9405,            0.,NA,NA,"",   14.8521E-03,   8.28501E-03,   12.3265E-03,   7.33260E-03
C:/temp/dataset/4/3_05.odb,Step-1,Increment      1: Step Time =    1.000,"PART-1-1",           477,            5.,      -28.9583,            0.,NA,NA,"",   11.7185E-03,   7.52978E-03,   8.97916E-03,   9.75396E-03
C:/temp/dataset/4/3_05.odb,Step-1,Increment      1: Step Time =    1.000,"PART-1-1",           478,          6.25,          -30.,            0.,NA,NA,"",            0.,  -350.319E-42,   10.9500E-39,   6.91520E-03
C:/temp/dataset/4/3_05.odb,Step-1,Increment      1: Step Time =    1.000,"PART-1-1",           479,       9.46325,      -26.8820,            0.,NA,NA,"",   9.24599E-03,   8.89762E-03,   2.51409E-03,   1.60440E-03
C:/temp/dataset/4/3_05.odb,Step-1,Increment      1: Step Time =    1.000,"PART-1-1",           480,       8.20536,      -25.9154,            0.,NA,NA,"",   20.5163E-03,   17.1055E-03,   11.3278E-03,   3.48883E-03
C:/temp/dataset/4/3_05.odb,Step-1,Increment      1: Step Time =    1.000,"PART-1-1",           481,       7.26622,      -26.9429,            0.,NA,NA,"",   17.2228E-03,   11.4067E-03,   12.9039E-03,   5.12308E-03
C:/temp/dataset/4/3_05.odb,Step-1,Increment      1: Step Time =    1.000,"PART-1-1",           482,       13.6319,      -27.3465,            0.,NA,NA,"",   18.6069E-03,   10.7360E-03,  -15.1972E-03,   6.87839E-03
C:/temp/dataset/4/3_05.odb,Step-1,Increment      1: Step Time =    1.000,"PART-1-1",           483,       12.3819,      -28.5965,            0.,NA,NA,"",   4.96671E-03,   1.99014E-03,  -4.55055E-03,   4.02292E-03
C:/temp/dataset/4/3_05.odb,Step-1,Increment      1: Step Time =    1.000,"PART-1-1",           484,         13.75,          -30.,            0.,NA,NA,"",            0.,  -548.987E-42,  -10.8346E-39,   6.94279E-03
C:/temp/dataset/4/3_05.odb,Step-1,Increment      1: Step Time =    1.000,"PART-1-1",           485,           15.,        -28.75,            0.,NA,NA,"",   13.8095E-03,   8.71876E-03,  -10.7091E-03,   9.57714E-03
C:/temp/dataset/4/3_05.odb,Step-1,Increment      1: Step Time =    1.000,"PART-1-1",           486,         11.25,          -30.,            0.,NA,NA,"",            0.,  -899.046E-42,  -3.70394E-39,   1.90321E-03
C:/temp/dataset/4/3_05.odb,Step-1,Increment      1: Step Time =    1.000,"PART-1-1",           487,       10.9817,      -27.5238,            0.,NA,NA,"",   6.32752E-03,   5.31092E-03,  -3.43972E-03,   2.25146E-03
C:/temp/dataset/4/3_05.odb,Step-1,Increment      1: Step Time =    1.000,"PART-1-1",           488,       10.1507,      -19.6985,            0.,NA,NA,"",   95.0722E-03,   95.0349E-03,  -2.66088E-03,   1.13964E-03
C:/temp/dataset/4/3_05.odb,Step-1,Increment      1: Step Time =    1.000,"PART-1-1",           489,       9.14094,      -20.7396,            0.,NA,NA,"",   79.1783E-03,   78.2983E-03,   11.7721E-03,   1.74752E-03
C:/temp/dataset/4/3_05.odb,Step-1,Increment      1: Step Time =    1.000,"PART-1-1",           490,       11.1621,      -20.8614,            0.,NA,NA,"",   78.0728E-03,   76.3561E-03,  -16.2825E-03,   2.07130E-03
C:/temp/dataset/4/3_05.odb,Step-1,Increment      1: Step Time =    1.000,"PART-1-1",           491,       7.09922,      -20.6753,            0.,NA,NA,"",   91.8069E-03,   82.1687E-03,   40.9490E-03,   4.46255E-03
C:/temp/dataset/4/3_05.odb,Step-1,Increment      1: Step Time =    1.000,"PART-1-1",           492,            5.,       -20.625,            0.,NA,NA,"",   114.743E-03,   88.8095E-03,   72.6554E-03,   7.52764E-03
C:/temp/dataset/4/3_05.odb,Step-1,Increment      1: Step Time =    1.000,"PART-1-1",           493,       9.08758,      -14.0519,            0.,NA,NA,"",   212.428E-03,   211.611E-03,   18.6135E-03,   1.55924E-03
C:/temp/dataset/4/3_05.odb,Step-1,Increment      1: Step Time =    1.000,"PART-1-1",           494,       10.1099,      -15.1447,            0.,NA,NA,"",   185.841E-03,   185.809E-03,  -3.46722E-03,   1.12662E-03
C:/temp/dataset/4/3_05.odb,Step-1,Increment      1: Step Time =    1.000,"PART-1-1",           495,       11.0794,      -13.9187,            0.,NA,NA,"",   215.850E-03,   214.349E-03,  -25.4069E-03,   1.65838E-03
C:/temp/dataset/4/3_05.odb,Step-1,Increment      1: Step Time =    1.000,"PART-1-1",           496,       10.0571,      -12.8260,            0.,NA,NA,"",   241.053E-03,   241.032E-03,  -3.12568E-03,   1.12102E-03
C:/temp/dataset/4/3_05.odb,Step-1,Increment      1: Step Time =    1.000,"PART-1-1",           497,       9.02765,      -11.7712,            0.,NA,NA,"",   269.316E-03,   268.460E-03,   21.4469E-03,   1.50790E-03
C:/temp/dataset/4/3_05.odb,Step-1,Increment      1: Step Time =    1.000,"PART-1-1",           498,       11.0123,      -11.5393,            0.,NA,NA,"",   275.271E-03,   273.944E-03,  -26.9965E-03,   1.53348E-03
C:/temp/dataset/4/3_05.odb,Step-1,Increment      1: Step Time =    1.000,"PART-1-1",           499,       9.98284,      -10.4845,            0.,NA,NA,"",   302.189E-03,   302.181E-03,  -2.14920E-03,   1.12112E-03
C:/temp/dataset/4/3_05.odb,Step-1,Increment      1: Step Time =    1.000,"PART-1-1",           500,       12.6190,       1.44886,            0.,NA,NA,"",   681.097E-03,   674.866E-03,  -91.9166E-03,   1.03000E-03
C:/temp/dataset/4/3_05.odb,Step-1,Increment      1: Step Time =    1.000,"PART-1-1",           501,       13.8500,   84.2405E-03,            0.,NA,NA,"",   642.541E-03,   629.314E-03,  -129.702E-03,   1.06639E-03
C:/temp/dataset/4/3_05.odb,Step-1,Increment      1: Step Time =    1.000,"PART-1-1",           502,           15.,          1.25,            0.,NA,NA,"",   688.560E-03,   667.591E-03,  -168.633E-03,   748.349E-06
C:/temp/dataset/4/3_05.odb,Step-1,Increment      1: Step Time =    1.000,"PART-1-1",           503,       10.0180,      -2.29938,            0.,NA,NA,"",   551.433E-03,   551.372E-03,  -8.17715E-03,   1.83956E-03
C:/temp/dataset/4/3_05.odb,Step-1,Increment      1: Step Time =    1.000,"PART-1-1",           504,       9.13986,      -3.07696,            0.,NA,NA,"",   526.443E-03,   526.110E-03,   18.7106E-03,   1.83488E-03
C:/temp/dataset/4/3_05.odb,Step-1,Increment      1: Step Time =    1.000,"PART-1-1",           505,       10.6738,      -3.69229,            0.,NA,NA,"",   506.240E-03,   505.533E-03,  -26.7434E-03,   1.79153E-03
C:/temp/dataset/4/3_05.odb,Step-1,Increment      1: Step Time =    1.000,"PART-1-1",           506,       12.7589,       6.54544,            0.,NA,NA,"",   848.017E-03,   842.131E-03,  -99.7394E-03,   142.920E-06
C:/temp/dataset/4/3_05.odb,Step-1,Increment      1: Step Time =    1.000,"PART-1-1",           507,           15.,          6.25,            0.,NA,NA,"",   848.940E-03,   831.308E-03,  -172.123E-03,   65.2040E-06
C:/temp/dataset/4/3_05.odb,Step-1,Increment      1: Step Time =    1.000,"PART-1-1",           508,       13.9203,       7.65480,            0.,NA,NA,"",   888.178E-03,   877.420E-03,  -137.820E-03,   55.4494E-06
C:/temp/dataset/4/3_05.odb,Step-1,Increment      1: Step Time =    1.000,"PART-1-1",           509,       13.0275,       16.3263,            0.,NA,NA,"",       1.16246,       1.15691,  -113.429E-03,   7.23257E-06
C:/temp/dataset/4/3_05.odb,Step-1,Increment      1: Step Time =    1.000,"PART-1-1",           510,       14.0150,       15.0581,            0.,NA,NA,"",       1.12496,       1.11563,  -144.531E-03,   7.78454E-06
C:/temp/dataset/4/3_05.odb,Step-1,Increment      1: Step Time =    1.000,"PART-1-1",           511,           15.,         16.25,            0.,NA,NA,"",       1.16691,       1.15343,  -176.807E-03,   4.62273E-06
C:/temp/dataset/4/3_05.odb,Step-1,Increment      1: Step Time =    1.000,"PART-1-1",           512,       14.0124,       17.5182,            0.,NA,NA,"",       1.20357,       1.19471,  -145.711E-03,   1.89914E-06
C:/temp/dataset/4/3_05.odb,Step-1,Increment      1: Step Time =    1.000,"PART-1-1",           513,       13.0175,       18.7421,            0.,NA,NA,"",       1.23985,       1.23457,  -114.357E-03,   2.02660E-06
C:/temp/dataset/4/3_05.odb,Step-1,Increment      1: Step Time =    1.000,"PART-1-1",           514,           15.,         18.75,            0.,NA,NA,"",       1.24659,       1.23380,  -178.096E-03,   438.008E-09
C:/temp/dataset/4/3_05.odb,Step-1,Increment      1: Step Time =    1.000,"PART-1-1",           515,       14.0051,       19.9738,            0.,NA,NA,"",       1.28208,       1.27366,  -146.743E-03,   297.944E-09
C:/temp/dataset/4/3_05.odb,Step-1,Increment      1: Step Time =    1.000,"PART-1-1",           516,       5.97628,       21.7197,            0.,NA,NA,"",       1.33850,       1.33393,   110.477E-03,   182.785E-09
C:/temp/dataset/4/3_05.odb,Step-1,Increment      1: Step Time =    1.000,"PART-1-1",           517,       6.92463,       22.7965,            0.,NA,NA,"",       1.37037,       1.36806,   79.4309E-03,   63.9752E-09
C:/temp/dataset/4/3_05.odb,Step-1,Increment      1: Step Time =    1.000,"PART-1-1",           518,       5.94835,       23.7852,            0.,NA,NA,"",       1.40469,       1.40035,   110.307E-03,   150.774E-09
C:/temp/dataset/4/3_05.odb,Step-1,Increment      1: Step Time =    1.000,"PART-1-1",           519,            5.,       22.7083,            0.,NA,NA,"",       1.37352,       1.36622,   141.353E-03,   305.903E-09
C:/temp/dataset/4/3_05.odb,Step-1,Increment      1: Step Time =    1.000,"PART-1-1",           520,       13.8862,       24.9278,            0.,NA,NA,"",       1.44035,       1.43299,  -145.482E-03,   107.325E-09
C:/temp/dataset/4/3_05.odb,Step-1,Increment      1: Step Time =    1.000,"PART-1-1",           521,           15.,         26.25,            0.,NA,NA,"",       1.48610,       1.47492,  -181.975E-03,   92.6831E-09
C:/temp/dataset/4/3_05.odb,Step-1,Increment      1: Step Time =    1.000,"PART-1-1",           522,       6.15342,       27.8650,            0.,NA,NA,"",       1.53478,       1.53141,   101.605E-03,   38.4209E-09
C:/temp/dataset/4/3_05.odb,Step-1,Increment      1: Step Time =    1.000,"PART-1-1",           523,       7.40342,       28.9067,            0.,NA,NA,"",       1.56544,       1.56426,   60.8792E-03,   42.7010E-09
C:/temp/dataset/4/3_05.odb,Step-1,Increment      1: Step Time =    1.000,"PART-1-1",           524,          6.25,           30.,            0.,NA,NA,"",       1.60296,       1.60000,   97.3963E-03,   10.1741E-09
C:/temp/dataset/4/3_05.odb,Step-1,Increment      1: Step Time =    1.000,"PART-1-1",           525,            5.,       28.9583,            0.,NA,NA,"",       1.57323,       1.56716,   138.122E-03,   9.89584E-09
C:/temp/dataset/4/3_05.odb,Step-1,Increment      1: Step Time =    1.000,"PART-1-1",           526,       7.11917,       26.8292,            0.,NA,NA,"",       1.49930,       1.49761,   71.0920E-03,   83.0303E-09
C:/temp/dataset/4/3_05.odb,Step-1,Increment      1: Step Time =    1.000,"PART-1-1",           527,            5.,        26.875,            0.,NA,NA,"",       1.50663,       1.50018,   139.199E-03,   63.9353E-09
C:/temp/dataset/4/3_05.odb,Step-1,Increment      1: Step Time =    1.000,"PART-1-1",           528,       5.96574,       25.8392,            0.,NA,NA,"",       1.47040,       1.46638,   108.686E-03,   82.7211E-09
C:/temp/dataset/4/3_05.odb,Step-1,Increment      1: Step Time =    1.000,"PART-1-1",           529,       8.59546,       27.4701,            0.,NA,NA,"",       1.51763,       1.51746,   23.2981E-03,   56.2970E-09
C:/temp/dataset/4/3_05.odb,Step-1,Increment      1: Step Time =    1.000,"PART-1-1",           530,       9.94204,       28.5635,            0.,NA,NA,"",       1.55205,       1.55191,  -20.5590E-03,   55.9444E-09
C:/temp/dataset/4/3_05.odb,Step-1,Increment      1: Step Time =    1.000,"PART-1-1",           531,          8.75,           30.,            0.,NA,NA,"",       1.59880,       1.59871,   17.0221E-03,   46.2435E-09
C:/temp/dataset/4/3_05.odb,Step-1,Increment      1: Step Time =    1.000,"PART-1-1",           532,            5.,       24.7917,            0.,NA,NA,"",       1.44005,       1.43320,   140.276E-03,   170.164E-09
C:/temp/dataset/4/3_05.odb,Step-1,Increment      1: Step Time =    1.000,"PART-1-1",           533,       6.91409,       24.8327,            0.,NA,NA,"",       1.43569,       1.43353,   78.7171E-03,   111.843E-09
C:/temp/dataset/4/3_05.odb,Step-1,Increment      1: Step Time =    1.000,"PART-1-1",           534,            5.,        20.625,            0.,NA,NA,"",       1.30703,       1.29924,   142.431E-03,   305.295E-09
C:/temp/dataset/4/3_05.odb,Step-1,Increment      1: Step Time =    1.000,"PART-1-1",           535,       5.99534,       19.6263,            0.,NA,NA,"",       1.27147,       1.26662,   110.947E-03,   397.729E-09
C:/temp/dataset/4/3_05.odb,Step-1,Increment      1: Step Time =    1.000,"PART-1-1",           536,       6.97162,       20.7210,            0.,NA,NA,"",       1.30371,       1.30131,   78.9930E-03,   464.831E-09
C:/temp/dataset/4/3_05.odb,Step-1,Increment      1: Step Time =    1.000,"PART-1-1",           537,       9.90537,       10.7177,            0.,NA,NA,"",   978.257E-03,   978.205E-03,  -10.0376E-03,   41.6663E-06
C:/temp/dataset/4/3_05.odb,Step-1,Increment      1: Step Time =    1.000,"PART-1-1",           538,       8.83179,       9.75083,            0.,NA,NA,"",   948.003E-03,   947.674E-03,   24.9979E-03,   40.3492E-06
C:/temp/dataset/4/3_05.odb,Step-1,Increment      1: Step Time =    1.000,"PART-1-1",           539,       10.8380,       9.37550,            0.,NA,NA,"",   935.398E-03,   934.572E-03,  -39.3095E-03,   35.6528E-06
C:/temp/dataset/4/3_05.odb,Step-1,Increment      1: Step Time =    1.000,"PART-1-1",           540,       5.96737,       11.1773,            0.,NA,NA,"",       1.00172,   994.964E-03,   116.149E-03,   39.3744E-06
C:/temp/dataset/4/3_05.odb,Step-1,Increment      1: Step Time =    1.000,"PART-1-1",           541,       6.95908,       12.1740,            0.,NA,NA,"",       1.02991,       1.02649,   83.8127E-03,   34.3799E-06
C:/temp/dataset/4/3_05.odb,Step-1,Increment      1: Step Time =    1.000,"PART-1-1",           542,            5.,       12.2917,            0.,NA,NA,"",       1.04168,       1.03130,   146.681E-03,   39.4812E-06
C:/temp/dataset/4/3_05.odb,Step-1,Increment      1: Step Time =    1.000,"PART-1-1",           543,       6.89189,       10.0466,            0.,NA,NA,"",   962.103E-03,   958.155E-03,   87.0693E-03,   48.0010E-06
C:/temp/dataset/4/3_05.odb,Step-1,Increment      1: Step Time =    1.000,"PART-1-1",           544,            5.,       10.2083,            0.,NA,NA,"",   975.596E-03,   964.359E-03,   147.648E-03,   102.169E-06
C:/temp/dataset/4/3_05.odb,Step-1,Increment      1: Step Time =    1.000,"PART-1-1",           545,  -883.251E-03,       2.97832,            0.,NA,NA,"",   825.278E-03,   746.656E-03,   351.552E-03,   1.71134E-03
C:/temp/dataset/4/3_05.odb,Step-1,Increment      1: Step Time =    1.000,"PART-1-1",           546,         -1.25,            5.,            0.,NA,NA,"",   897.657E-03,   819.947E-03,   365.343E-03,   2.64083E-03
C:/temp/dataset/4/3_05.odb,Step-1,Increment      1: Step Time =    1.000,"PART-1-1",           547,      -2.28350,       3.97568,            0.,NA,NA,"",   882.854E-03,   786.118E-03,   401.806E-03,   2.17276E-03
C:/temp/dataset/4/3_05.odb,Step-1,Increment      1: Step Time =    1.000,"PART-1-1",           548,      -3.12559,       2.92107,            0.,NA,NA,"",   865.122E-03,   749.410E-03,   432.227E-03,   1.35129E-03
C:/temp/dataset/4/3_05.odb,Step-1,Increment      1: Step Time =    1.000,"PART-1-1",           549,         -3.75,            5.,            0.,NA,NA,"",   944.976E-03,   828.065E-03,   455.290E-03,   3.37855E-03
C:/temp/dataset/4/3_05.odb,Step-1,Increment      1: Step Time =    1.000,"PART-1-1",           550,      -7.01026,       10.3490,            0.,NA,NA,"",       1.19957,       1.05354,   573.610E-03,   200.091E-06
C:/temp/dataset/4/3_05.odb,Step-1,Increment      1: Step Time =    1.000,"PART-1-1",           551,           -5.,       10.2083,            0.,NA,NA,"",       1.15687,       1.04630,   493.562E-03,   57.6206E-06
C:/temp/dataset/4/3_05.odb,Step-1,Increment      1: Step Time =    1.000,"PART-1-1",           552,      -6.00030,       11.3233,            0.,NA,NA,"",       1.21465,       1.09165,   532.605E-03,   41.9479E-06
C:/temp/dataset/4/3_05.odb,Step-1,Increment      1: Step Time =    1.000,"PART-1-1",           553,      -6.90277,       16.5792,            0.,NA,NA,"",       1.41827,       1.30115,   564.371E-03,   23.6713E-06
C:/temp/dataset/4/3_05.odb,Step-1,Increment      1: Step Time =    1.000,"PART-1-1",           554,           -5.,       16.4583,            0.,NA,NA,"",       1.38411,       1.29484,   489.017E-03,   40.8836E-06
C:/temp/dataset/4/3_05.odb,Step-1,Increment      1: Step Time =    1.000,"PART-1-1",           555,      -5.93592,       17.5473,            0.,NA,NA,"",       1.43811,       1.33874,   525.287E-03,   20.6651E-06
C:/temp/dataset/4/3_05.odb,Step-1,Increment      1: Step Time =    1.000,"PART-1-1",           556,      -5.96041,       23.6583,            0.,NA,NA,"",       1.66463,       1.58084,   521.494E-03,   1.08282E-06
C:/temp/dataset/4/3_05.odb,Step-1,Increment      1: Step Time =    1.000,"PART-1-1",           557,           -5.,       24.7917,            0.,NA,NA,"",       1.69512,       1.62498,   482.557E-03,   215.427E-09
C:/temp/dataset/4/3_05.odb,Step-1,Increment      1: Step Time =    1.000,"PART-1-1",           558,      -7.48847,       28.8776,            0.,NA,NA,"",       1.87985,       1.78880,   577.933E-03,   57.5544E-09
C:/temp/dataset/4/3_05.odb,Step-1,Increment      1: Step Time =    1.000,"PART-1-1",           559,           -5.,       28.9583,            0.,NA,NA,"",       1.85310,       1.79004,   479.286E-03,   46.7234E-09
C:/temp/dataset/4/3_05.odb,Step-1,Increment      1: Step Time =    1.000,"PART-1-1",           560,         -6.25,           30.,            0.,NA,NA,"",       1.90685,       1.83229,   527.988E-03,   57.9261E-09
C:/temp/dataset/4/3_05.odb,Step-1,Increment      1: Step Time =    1.000,"PART-1-1",           561,       12.9634,       11.4929,            0.,NA,NA,"",       1.00748,       1.00158,  -108.878E-03,   32.0156E-06
C:/temp/dataset/4/3_05.odb,Step-1,Increment      1: Step Time =    1.000,"PART-1-1",           562,       13.9657,       10.1417,            0.,NA,NA,"",   967.838E-03,   957.588E-03,  -140.485E-03,   45.5267E-06
C:/temp/dataset/4/3_05.odb,Step-1,Increment      1: Step Time =    1.000,"PART-1-1",           563,           15.,         11.25,            0.,NA,NA,"",       1.00788,   992.689E-03,  -174.312E-03,   50.2093E-06
C:/temp/dataset/4/3_05.odb,Step-1,Increment      1: Step Time =    1.000,"PART-1-1",           564,       13.9978,       12.6011,            0.,NA,NA,"",       1.04645,       1.03667,  -142.730E-03,   22.4119E-06
C:/temp/dataset/4/3_05.odb,Step-1,Increment      1: Step Time =    1.000,"PART-1-1",           565,       9.13480,      -18.5479,            0.,NA,NA,"",   116.828E-03,   115.979E-03,   14.0532E-03,   1.67179E-03
C:/temp/dataset/4/3_05.odb,Step-1,Increment      1: Step Time =    1.000,"PART-1-1",           566,       11.1537,      -18.5886,            0.,NA,NA,"",   116.780E-03,   115.074E-03,  -19.8907E-03,   1.94138E-03
C:/temp/dataset/4/3_05.odb,Step-1,Increment      1: Step Time =    1.000,"PART-1-1",           567,       10.1377,      -17.4381,            0.,NA,NA,"",   137.016E-03,   136.979E-03,  -3.20226E-03,   1.13287E-03
C:/temp/dataset/4/3_05.odb,Step-1,Increment      1: Step Time =    1.000,"PART-1-1",           568,      -8.81573,       27.5627,            0.,NA,NA,"",       1.84895,       1.73775,   631.546E-03,   159.221E-09
C:/temp/dataset/4/3_05.odb,Step-1,Increment      1: Step Time =    1.000,"PART-1-1",           569,         -8.75,           30.,            0.,NA,NA,"",       1.93847,       1.83426,   627.029E-03,   173.772E-09
C:/temp/dataset/4/3_05.odb,Step-1,Increment      1: Step Time =    1.000,"PART-1-1",           570,            5.,      -24.7917,            0.,NA,NA,"",   55.8089E-03,   35.8087E-03,   42.8062E-03,   8.50774E-03
C:/temp/dataset/4/3_05.odb,Step-1,Increment      1: Step Time =    1.000,"PART-1-1",           571,       6.09200,      -25.8775,            0.,NA,NA,"",   34.4335E-03,   22.4562E-03,   26.1033E-03,   6.97332E-03
C:/temp/dataset/4/3_05.odb,Step-1,Increment      1: Step Time =    1.000,"PART-1-1",           572,       7.15121,      -24.8757,            0.,NA,NA,"",   36.5215E-03,   28.3699E-03,   22.9992E-03,   5.08638E-03
C:/temp/dataset/4/3_05.odb,Step-1,Increment      1: Step Time =    1.000,"PART-1-1",           573,       13.1040,      -21.0477,            0.,NA,NA,"",   87.3544E-03,   76.1141E-03,  -42.8653E-03,   4.77507E-03
C:/temp/dataset/4/3_05.odb,Step-1,Increment      1: Step Time =    1.000,"PART-1-1",           574,       14.0487,      -22.3697,            0.,NA,NA,"",   77.0549E-03,   59.6451E-03,  -48.7844E-03,   6.47339E-03
C:/temp/dataset/4/3_05.odb,Step-1,Increment      1: Step Time =    1.000,"PART-1-1",           575,           15.,        -21.25,            0.,NA,NA,"",   104.348E-03,   78.1948E-03,  -69.0940E-03,   7.68503E-03
C:/temp/dataset/4/3_05.odb,Step-1,Increment      1: Step Time =    1.000,"PART-1-1",           576,            5.,       -26.875,            0.,NA,NA,"",   32.8674E-03,   19.1494E-03,   26.7126E-03,   9.06835E-03
C:/temp/dataset/4/3_05.odb,Step-1,Increment      1: Step Time =    1.000,"PART-1-1",           577,       12.8133,      -6.31290,            0.,NA,NA,"",   431.923E-03,   423.402E-03,  -85.3739E-03,   2.32576E-03
C:/temp/dataset/4/3_05.odb,Step-1,Increment      1: Step Time =    1.000,"PART-1-1",           578,       13.9319,      -7.55671,            0.,NA,NA,"",   403.469E-03,   386.964E-03,  -114.222E-03,   3.22129E-03
C:/temp/dataset/4/3_05.odb,Step-1,Increment      1: Step Time =    1.000,"PART-1-1",           579,           15.,         -6.25,            0.,NA,NA,"",   452.865E-03,   427.166E-03,  -150.386E-03,   3.60018E-03
C:/temp/dataset/4/3_05.odb,Step-1,Increment      1: Step Time =    1.000,"PART-1-1",           580,            5.,       18.5417,            0.,NA,NA,"",       1.24059,       1.23226,   143.509E-03,   574.604E-09
C:/temp/dataset/4/3_05.odb,Step-1,Increment      1: Step Time =    1.000,"PART-1-1",           581,       6.00122,       17.5195,            0.,NA,NA,"",       1.20408,       1.19888,   111.846E-03,   2.02230E-06
C:/temp/dataset/4/3_05.odb,Step-1,Increment      1: Step Time =    1.000,"PART-1-1",           582,       6.99656,       18.6041,            0.,NA,NA,"",       1.23578,       1.23324,   79.2857E-03,   2.20116E-06
C:/temp/dataset/4/3_05.odb,Step-1,Increment      1: Step Time =    1.000,"PART-1-1",           583,       12.8545,       23.6160,            0.,NA,NA,"",       1.39582,       1.39135,  -111.635E-03,   91.8633E-09
C:/temp/dataset/4/3_05.odb,Step-1,Increment      1: Step Time =    1.000,"PART-1-1",           584,       13.9683,       22.4382,            0.,NA,NA,"",       1.36085,       1.35290,  -146.835E-03,   176.640E-09
C:/temp/dataset/4/3_05.odb,Step-1,Increment      1: Step Time =    1.000,"PART-1-1",           585,           15.,         23.75,            0.,NA,NA,"",       1.40620,       1.39454,  -180.682E-03,   238.033E-09
C:/temp/dataset/4/3_05.odb,Step-1,Increment      1: Step Time =    1.000,"PART-1-1",           586,            5.,       16.4583,            0.,NA,NA,"",       1.17421,       1.16528,   144.584E-03,   3.96904E-06
C:/temp/dataset/4/3_05.odb,Step-1,Increment      1: Step Time =    1.000,"PART-1-1",           587,       7.00480,       16.4638,            0.,NA,NA,"",       1.16717,       1.16441,   80.1274E-03,   7.05126E-06
C:/temp/dataset/4/3_05.odb,Step-1,Increment      1: Step Time =    1.000,"PART-1-1",           588,       12.9734,       21.1620,            0.,NA,NA,"",       1.31735,       1.31239,  -114.190E-03,   316.438E-09
C:/temp/dataset/4/3_05.odb,Step-1,Increment      1: Step Time =    1.000,"PART-1-1",           589,           15.,         21.25,            0.,NA,NA,"",       1.32636,       1.31417,  -179.389E-03,   322.499E-09
C:/temp/dataset/4/3_05.odb,Step-1,Increment      1: Step Time =    1.000,"PART-1-1",           590,            5.,       6.04167,            0.,NA,NA,"",   844.956E-03,   831.691E-03,   149.135E-03,   618.593E-06
C:/temp/dataset/4/3_05.odb,Step-1,Increment      1: Step Time =    1.000,"PART-1-1",           591,       5.70418,       5.21013,            0.,NA,NA,"",   815.878E-03,   805.891E-03,   127.266E-03,   1.46662E-03
C:/temp/dataset/4/3_05.odb,Step-1,Increment      1: Step Time =    1.000,"PART-1-1",           592,       6.54256,       6.20387,            0.,NA,NA,"",   841.843E-03,   835.861E-03,   100.179E-03,   500.942E-06
C:/temp/dataset/4/3_05.odb,Step-1,Increment      1: Step Time =    1.000,"PART-1-1",           593,       7.80464,       8.81181,            0.,NA,NA,"",   919.924E-03,   918.065E-03,   58.4647E-03,   40.8613E-06
C:/temp/dataset/4/3_05.odb,Step-1,Increment      1: Step Time =    1.000,"PART-1-1",           594,       7.55468,       6.70991,            0.,NA,NA,"",   853.701E-03,   851.027E-03,   67.5179E-03,   287.885E-06
C:/temp/dataset/4/3_05.odb,Step-1,Increment      1: Step Time =    1.000,"PART-1-1",           595,           -5.,       12.2917,            0.,NA,NA,"",       1.23195,       1.12942,   492.037E-03,   74.5688E-06
C:/temp/dataset/4/3_05.odb,Step-1,Increment      1: Step Time =    1.000,"PART-1-1",           596,      -13.0551,       11.1433,            0.,NA,NA,"",       1.36012,       1.09111,   812.033E-03,   458.276E-06
C:/temp/dataset/4/3_05.odb,Step-1,Increment      1: Step Time =    1.000,"PART-1-1",           597,          -15.,       11.4063,            0.,NA,NA,"",       1.41707,       1.10386,   888.585E-03,   437.065E-06
C:/temp/dataset/4/3_05.odb,Step-1,Increment      1: Step Time =    1.000,"PART-1-1",           598,           -5.,       18.5417,            0.,NA,NA,"",       1.46110,       1.37739,   487.435E-03,   19.4107E-06
C:/temp/dataset/4/3_05.odb,Step-1,Increment      1: Step Time =    1.000,"PART-1-1",           599,      -6.83195,       18.5917,            0.,NA,NA,"",       1.49005,       1.38082,   559.992E-03,   16.9432E-06
C:/temp/dataset/4/3_05.odb,Step-1,Increment      1: Step Time =    1.000,"PART-1-1",           600,      -12.9744,       15.4368,            0.,NA,NA,"",       1.49618,       1.26063,   805.828E-03,   29.7577E-06
C:/temp/dataset/4/3_05.odb,Step-1,Increment      1: Step Time =    1.000,"PART-1-1",           601,      -13.9736,       16.6988,            0.,NA,NA,"",       1.55971,       1.31138,   844.367E-03,   30.0119E-06
C:/temp/dataset/4/3_05.odb,Step-1,Increment      1: Step Time =    1.000,"PART-1-1",           602,          -15.,       15.7813,            0.,NA,NA,"",       1.55315,       1.27588,   885.664E-03,   72.6284E-06
C:/temp/dataset/4/3_05.odb,Step-1,Increment      1: Step Time =    1.000,"PART-1-1",           603,      -6.85389,       22.5676,            0.,NA,NA,"",       1.63632,       1.53833,   557.746E-03,   3.75756E-06
C:/temp/dataset/4/3_05.odb,Step-1,Increment      1: Step Time =    1.000,"PART-1-1",           604,           -5.,       22.7083,            0.,NA,NA,"",       1.61666,       1.54245,   484.192E-03,   1.91838E-06
C:/temp/dataset/4/3_05.odb,Step-1,Increment      1: Step Time =    1.000,"PART-1-1",           605,      -7.62380,       21.5126,            0.,NA,NA,"",       1.60886,       1.49714,   589.078E-03,   5.79673E-06
C:/temp/dataset/4/3_05.odb,Step-1,Increment      1: Step Time =    1.000,"PART-1-1",           606,      -11.2433,       25.0031,            0.,NA,NA,"",       1.79343,       1.63825,   729.730E-03,   1.36941E-06
C:/temp/dataset/4/3_05.odb,Step-1,Increment      1: Step Time =    1.000,"PART-1-1",           607,      -10.1220,       24.6816,            0.,NA,NA,"",       1.76336,       1.62464,   685.559E-03,   1.45090E-06
C:/temp/dataset/4/3_05.odb,Step-1,Increment      1: Step Time =    1.000,"PART-1-1",           608,      -9.68436,       26.2404,            0.,NA,NA,"",       1.81318,       1.68605,   666.997E-03,   674.922E-09
C:/temp/dataset/4/3_05.odb,Step-1,Increment      1: Step Time =    1.000,"PART-1-1",           609,      -10.8057,       26.5619,            0.,NA,NA,"",       1.84245,       1.69966,   711.169E-03,   449.035E-09
C:/temp/dataset/4/3_05.odb,Step-1,Increment      1: Step Time =    1.000,"PART-1-1",           610,            5.,      -6.04167,            0.,NA,NA,"",   458.261E-03,   435.559E-03,   142.450E-03,   4.64247E-03
C:/temp/dataset/4/3_05.odb,Step-1,Increment      1: Step Time =    1.000,"PART-1-1",           611,       5.81487,      -6.90448,            0.,NA,NA,"",   424.466E-03,   408.419E-03,   115.606E-03,   3.42276E-03
C:/temp/dataset/4/3_05.odb,Step-1,Increment      1: Step Time =    1.000,"PART-1-1",           612,       6.44107,      -5.66337,            0.,NA,NA,"",   455.431E-03,   444.440E-03,   99.4494E-03,   1.95959E-03
C:/temp/dataset/4/3_05.odb,Step-1,Increment      1: Step Time =    1.000,"PART-1-1",           613,       5.62621,      -4.80056,            0.,NA,NA,"",   488.121E-03,   471.582E-03,   125.986E-03,   2.78036E-03
C:/temp/dataset/4/3_05.odb,Step-1,Increment      1: Step Time =    1.000,"PART-1-1",           614,            5.,        -8.125,            0.,NA,NA,"",   398.582E-03,   374.967E-03,   135.156E-03,   4.30306E-03
C:/temp/dataset/4/3_05.odb,Step-1,Increment      1: Step Time =    1.000,"PART-1-1",           615,       8.00489,       17.5473,            0.,NA,NA,"",       1.19968,       1.19874,   47.4163E-03,   3.66679E-06
C:/temp/dataset/4/3_05.odb,Step-1,Increment      1: Step Time =    1.000,"PART-1-1",           616,       8.00828,       15.3576,            0.,NA,NA,"",       1.12937,       1.12833,   48.4457E-03,   10.3682E-06
C:/temp/dataset/4/3_05.odb,Step-1,Increment      1: Step Time =    1.000,"PART-1-1",           617,       11.1265,      -16.2686,            0.,NA,NA,"",   162.902E-03,   161.270E-03,  -23.0006E-03,   1.80189E-03
C:/temp/dataset/4/3_05.odb,Step-1,Increment      1: Step Time =    1.000,"PART-1-1",           618,       9.12111,      -16.3141,            0.,NA,NA,"",   161.403E-03,   160.584E-03,   16.2337E-03,   1.60881E-03
C:/temp/dataset/4/3_05.odb,Step-1,Increment      1: Step Time =    1.000,"PART-1-1",           619,      -9.91602,       15.9767,            0.,NA,NA,"",       1.45112,       1.27962,   684.323E-03,   27.7291E-06
C:/temp/dataset/4/3_05.odb,Step-1,Increment      1: Step Time =    1.000,"PART-1-1",           620,      -10.9598,       15.0860,            0.,NA,NA,"",       1.44155,       1.24516,   726.389E-03,   30.8879E-06
C:/temp/dataset/4/3_05.odb,Step-1,Increment      1: Step Time =    1.000,"PART-1-1",           621,      -8.93702,       14.7598,            0.,NA,NA,"",       1.39011,       1.23063,   646.496E-03,   26.1210E-06
C:/temp/dataset/4/3_05.odb,Step-1,Increment      1: Step Time =    1.000,"PART-1-1",           622,      -13.0880,       4.79273,            0.,NA,NA,"",       1.16963,   838.224E-03,   815.730E-03,   781.961E-06
C:/temp/dataset/4/3_05.odb,Step-1,Increment      1: Step Time =    1.000,"PART-1-1",           623,          -15.,       4.84375,            0.,NA,NA,"",       1.22681,   843.012E-03,   891.285E-03,   840.574E-06
C:/temp/dataset/4/3_05.odb,Step-1,Increment      1: Step Time =    1.000,"PART-1-1",           624,           -5.,       6.04167,            0.,NA,NA,"",       1.00909,   877.734E-03,   497.849E-03,   1.48723E-03
C:/temp/dataset/4/3_05.odb,Step-1,Increment      1: Step Time =    1.000,"PART-1-1",           625,      -7.12843,       5.83601,            0.,NA,NA,"",       1.04796,   871.212E-03,   582.411E-03,   1.10531E-03
C:/temp/dataset/4/3_05.odb,Step-1,Increment      1: Step Time =    1.000,"PART-1-1",           626,       12.9112,      -8.87192,            0.,NA,NA,"",   357.378E-03,   347.925E-03,  -81.6534E-03,   2.71889E-03
C:/temp/dataset/4/3_05.odb,Step-1,Increment      1: Step Time =    1.000,"PART-1-1",           627,           15.,         -8.75,            0.,NA,NA,"",   380.650E-03,   353.869E-03,  -140.255E-03,   4.39998E-03
C:/temp/dataset/4/3_05.odb,Step-1,Increment      1: Step Time =    1.000,"PART-1-1",           628,       13.0740,      -16.2399,            0.,NA,NA,"",   175.082E-03,   163.810E-03,  -61.8051E-03,   3.97768E-03
C:/temp/dataset/4/3_05.odb,Step-1,Increment      1: Step Time =    1.000,"PART-1-1",           629,           15.,        -16.25,            0.,NA,NA,"",   195.968E-03,   167.647E-03,  -101.479E-03,   6.37975E-03
C:/temp/dataset/4/3_05.odb,Step-1,Increment      1: Step Time =    1.000,"PART-1-1",           630,       13.0128,       13.9092,            0.,NA,NA,"",       1.08499,       1.07922,  -111.711E-03,   18.5069E-06
C:/temp/dataset/4/3_05.odb,Step-1,Increment      1: Step Time =    1.000,"PART-1-1",           631,           15.,         13.75,            0.,NA,NA,"",       1.08734,       1.07307,  -175.535E-03,   18.5635E-06
C:/temp/dataset/4/3_05.odb,Step-1,Increment      1: Step Time =    1.000,"PART-1-1",           632,       10.9505,       11.7339,            0.,NA,NA,"",       1.01132,       1.01035,  -44.2104E-03,   34.0194E-06
C:/temp/dataset/4/3_05.odb,Step-1,Increment      1: Step Time =    1.000,"PART-1-1",           633,       9.98883,       12.9959,            0.,NA,NA,"",       1.05149,       1.05140,  -13.9643E-03,   25.8288E-06
C:/temp/dataset/4/3_05.odb,Step-1,Increment      1: Step Time =    1.000,"PART-1-1",           634,       8.94372,       11.9797,            0.,NA,NA,"",       1.01945,       1.01925,   20.1780E-03,   34.6849E-06
C:/temp/dataset/4/3_05.odb,Step-1,Increment      1: Step Time =    1.000,"PART-1-1",           635,      -13.9153,       18.9000,            0.,NA,NA,"",       1.63160,       1.39854,   840.361E-03,   13.6958E-06
C:/temp/dataset/4/3_05.odb,Step-1,Increment      1: Step Time =    1.000,"PART-1-1",           636,      -12.6393,       19.9841,            0.,NA,NA,"",       1.64241,       1.44050,   788.979E-03,   13.4097E-06
C:/temp/dataset/4/3_05.odb,Step-1,Increment      1: Step Time =    1.000,"PART-1-1",           637,          -15.,       20.1563,            0.,NA,NA,"",       1.69666,       1.44917,   882.353E-03,   10.9365E-06
C:/temp/dataset/4/3_05.odb,Step-1,Increment      1: Step Time =    1.000,"PART-1-1",           638,       8.12191,      -21.7795,            0.,NA,NA,"",   67.9579E-03,   63.7671E-03,   23.4955E-03,   3.12079E-03
C:/temp/dataset/4/3_05.odb,Step-1,Increment      1: Step Time =    1.000,"PART-1-1",           639,       8.12482,      -23.8590,            0.,NA,NA,"",   41.2417E-03,   37.1733E-03,   17.8612E-03,   3.32452E-03
C:/temp/dataset/4/3_05.odb,Step-1,Increment      1: Step Time =    1.000,"PART-1-1",           640,       8.11825,      -19.6354,            0.,NA,NA,"",   101.719E-03,   97.5591E-03,   28.7915E-03,   2.91423E-03
C:/temp/dataset/4/3_05.odb,Step-1,Increment      1: Step Time =    1.000,"PART-1-1",           641,       8.10952,      -17.4508,            0.,NA,NA,"",   142.239E-03,   138.174E-03,   33.7647E-03,   2.72091E-03
C:/temp/dataset/4/3_05.odb,Step-1,Increment      1: Step Time =    1.000,"PART-1-1",           642,       7.85781,       23.9076,            0.,NA,NA,"",       1.40415,       1.40330,   48.8551E-03,   101.368E-09
C:/temp/dataset/4/3_05.odb,Step-1,Increment      1: Step Time =    1.000,"PART-1-1",           643,       7.94870,       21.8524,            0.,NA,NA,"",       1.33801,       1.33718,   46.9951E-03,   145.981E-09
C:/temp/dataset/4/3_05.odb,Step-1,Increment      1: Step Time =    1.000,"PART-1-1",           644,       4.21929,       2.98066,            0.,NA,NA,"",   756.688E-03,   736.138E-03,   175.150E-03,   1.42389E-03
C:/temp/dataset/4/3_05.odb,Step-1,Increment      1: Step Time =    1.000,"PART-1-1",           645,       5.32392,       3.96649,            0.,NA,NA,"",   779.374E-03,   766.876E-03,   139.012E-03,   1.79387E-03
C:/temp/dataset/4/3_05.odb,Step-1,Increment      1: Step Time =    1.000,"PART-1-1",           646,          3.75,            5.,            0.,NA,NA,"",   827.222E-03,   804.778E-03,   191.387E-03,   2.80318E-03
C:/temp/dataset/4/3_05.odb,Step-1,Increment      1: Step Time =    1.000,"PART-1-1",           647,       12.8859,       9.04653,            0.,NA,NA,"",   928.861E-03,   922.893E-03,  -105.127E-03,   19.2268E-06
C:/temp/dataset/4/3_05.odb,Step-1,Increment      1: Step Time =    1.000,"PART-1-1",           648,           15.,          8.75,            0.,NA,NA,"",   928.477E-03,   912.182E-03,  -173.185E-03,   90.0874E-06
C:/temp/dataset/4/3_05.odb,Step-1,Increment      1: Step Time =    1.000,"PART-1-1",           649,      -8.02807,       9.41948,            0.,NA,NA,"",       1.18848,       1.01712,   614.762E-03,   402.434E-06
C:/temp/dataset/4/3_05.odb,Step-1,Increment      1: Step Time =    1.000,"PART-1-1",           650,      -8.84347,       16.8085,            0.,NA,NA,"",       1.46005,       1.31175,   641.143E-03,   24.1926E-06
C:/temp/dataset/4/3_05.odb,Step-1,Increment      1: Step Time =    1.000,"PART-1-1",           651,      -9.78583,       18.0165,            0.,NA,NA,"",       1.51972,       1.36033,   677.520E-03,   21.0257E-06
C:/temp/dataset/4/3_05.odb,Step-1,Increment      1: Step Time =    1.000,"PART-1-1",           652,          -15.,       17.9688,            0.,NA,NA,"",       1.62417,       1.36250,   884.036E-03,   30.8929E-06
C:/temp/dataset/4/3_05.odb,Step-1,Increment      1: Step Time =    1.000,"PART-1-1",           653,          -15.,       24.5313,            0.,NA,NA,"",       1.84528,       1.62251,   878.928E-03,   265.467E-09
C:/temp/dataset/4/3_05.odb,Step-1,Increment      1: Step Time =    1.000,"PART-1-1",           654,      -12.9952,       24.7258,            0.,NA,NA,"",       1.81423,       1.62864,   799.350E-03,   1.15181E-06
C:/temp/dataset/4/3_05.odb,Step-1,Increment      1: Step Time =    1.000,"PART-1-1",           655,      -11.4985,       21.8877,            0.,NA,NA,"",       1.68710,       1.51502,   742.291E-03,   5.77272E-06
C:/temp/dataset/4/3_05.odb,Step-1,Increment      1: Step Time =    1.000,"PART-1-1",           656,      -11.4490,       20.6565,            0.,NA,NA,"",       1.64295,       1.46621,   741.301E-03,   9.46877E-06
C:/temp/dataset/4/3_05.odb,Step-1,Increment      1: Step Time =    1.000,"PART-1-1",           657,      -10.1446,       20.7260,            0.,NA,NA,"",       1.62185,       1.46795,   689.575E-03,   10.2007E-06
C:/temp/dataset/4/3_05.odb,Step-1,Increment      1: Step Time =    1.000,"PART-1-1",           658,      -7.69218,       19.6350,            0.,NA,NA,"",       1.54155,       1.42282,   593.265E-03,   11.8483E-06
C:/temp/dataset/4/3_05.odb,Step-1,Increment      1: Step Time =    1.000,"PART-1-1",           659,      -8.68744,       18.7463,            0.,NA,NA,"",       1.52605,       1.38839,   633.411E-03,   18.2379E-06
C:/temp/dataset/4/3_05.odb,Step-1,Increment      1: Step Time =    1.000,"PART-1-1",           660,      -7.82721,       17.7030,            0.,NA,NA,"",       1.47409,       1.34640,   600.143E-03,   19.7775E-06
C:/temp/dataset/4/3_05.odb,Step-1,Increment      1: Step Time =    1.000,"PART-1-1",           661,      -9.52114,       19.8817,            0.,NA,NA,"",       1.58093,       1.43401,   665.543E-03,   12.4129E-06
C:/temp/dataset/4/3_05.odb,Step-1,Increment      1: Step Time =    1.000,"PART-1-1",           662,      -10.6195,       19.1519,            0.,NA,NA,"",       1.57490,       1.40595,   709.640E-03,   17.5344E-06
C:/temp/dataset/4/3_05.odb,Step-1,Increment      1: Step Time =    1.000,"PART-1-1",           663,      -12.1485,       3.78191,            0.,NA,NA,"",       1.11454,   796.959E-03,   779.139E-03,   670.261E-06
C:/temp/dataset/4/3_05.odb,Step-1,Increment      1: Step Time =    1.000,"PART-1-1",           664,      -10.9850,       2.86362,            0.,NA,NA,"",       1.05611,   759.448E-03,   733.901E-03,   587.874E-06
C:/temp/dataset/4/3_05.odb,Step-1,Increment      1: Step Time =    1.000,"PART-1-1",           665,      -9.06958,       8.49577,            0.,NA,NA,"",       1.18046,   981.019E-03,   656.570E-03,   628.288E-06
C:/temp/dataset/4/3_05.odb,Step-1,Increment      1: Step Time =    1.000,"PART-1-1",           666,      -8.08215,       7.28595,            0.,NA,NA,"",       1.11806,   931.298E-03,   618.658E-03,   850.210E-06
C:/temp/dataset/4/3_05.odb,Step-1,Increment      1: Step Time =    1.000,"PART-1-1",           667,      -10.1292,       7.60955,            0.,NA,NA,"",       1.17656,   946.615E-03,   698.726E-03,   775.151E-06
C:/temp/dataset/4/3_05.odb,Step-1,Increment      1: Step Time =    1.000,"PART-1-1",           668,      -11.2104,       6.77234,            0.,NA,NA,"",       1.17733,   914.504E-03,   741.475E-03,   799.081E-06
C:/temp/dataset/4/3_05.odb,Step-1,Increment      1: Step Time =    1.000,"PART-1-1",           669,      -10.2942,       5.63122,            0.,NA,NA,"",       1.11864,   867.679E-03,   706.041E-03,   908.972E-06
C:/temp/dataset/4/3_05.odb,Step-1,Increment      1: Step Time =    1.000,"PART-1-1",           670,      -9.21309,       6.46842,            0.,NA,NA,"",       1.11784,   899.692E-03,   663.424E-03,   921.220E-06
C:/temp/dataset/4/3_05.odb,Step-1,Increment      1: Step Time =    1.000,"PART-1-1",           671,        -11.25,           -5.,            0.,NA,NA,"",   877.698E-03,   457.100E-03,   749.275E-03,   317.695E-06
C:/temp/dataset/4/3_05.odb,Step-1,Increment      1: Step Time =    1.000,"PART-1-1",           672,      -10.0273,      -3.93877,            0.,NA,NA,"",   859.441E-03,   497.582E-03,   700.751E-03,   483.642E-06
C:/temp/dataset/4/3_05.odb,Step-1,Increment      1: Step Time =    1.000,"PART-1-1",           673,         -8.75,           -5.,            0.,NA,NA,"",   796.063E-03,   456.387E-03,   652.247E-03,   766.608E-06
C:/temp/dataset/4/3_05.odb,Step-1,Increment      1: Step Time =    1.000,"PART-1-1",           674,      -7.59562,      -4.02918,            0.,NA,NA,"",   782.042E-03,   493.546E-03,   606.632E-03,   802.210E-06
C:/temp/dataset/4/3_05.odb,Step-1,Increment      1: Step Time =    1.000,"PART-1-1",           675,      -8.87289,      -2.96795,            0.,NA,NA,"",   845.246E-03,   534.243E-03,   655.000E-03,   635.890E-06
C:/temp/dataset/4/3_05.odb,Step-1,Increment      1: Step Time =    1.000,"PART-1-1",           676,         -6.25,           -5.,            0.,NA,NA,"",   719.760E-03,   456.809E-03,   556.219E-03,   1.20393E-03
C:/temp/dataset/4/3_05.odb,Step-1,Increment      1: Step Time =    1.000,"PART-1-1",           677,      -5.03874,      -3.83161,            0.,NA,NA,"",   714.222E-03,   501.141E-03,   508.892E-03,   1.01692E-03
C:/temp/dataset/4/3_05.odb,Step-1,Increment      1: Step Time =    1.000,"PART-1-1",           678,      -6.38435,      -2.86079,            0.,NA,NA,"",   775.477E-03,   537.531E-03,   558.951E-03,   714.778E-06
C:/temp/dataset/4/3_05.odb,Step-1,Increment      1: Step Time =    1.000,"PART-1-1",           679,      -8.31216,       1.98044,            0.,NA,NA,"",   957.931E-03,   721.743E-03,   629.857E-03,   779.451E-06
C:/temp/dataset/4/3_05.odb,Step-1,Increment      1: Step Time =    1.000,"PART-1-1",           680,      -6.89941,       1.67561,            0.,NA,NA,"",   912.377E-03,   708.259E-03,   575.154E-03,   834.990E-06
C:/temp/dataset/4/3_05.odb,Step-1,Increment      1: Step Time =    1.000,"PART-1-1",           681,      -8.02347,       3.70061,            0.,NA,NA,"",       1.00132,   787.829E-03,   618.034E-03,   1.05595E-03
C:/temp/dataset/4/3_05.odb,Step-1,Increment      1: Step Time =    1.000,"PART-1-1",           682,      -9.78636,       2.36681,            0.,NA,NA,"",       1.00884,   738.575E-03,   687.216E-03,   688.278E-06
C:/temp/dataset/4/3_05.odb,Step-1,Increment      1: Step Time =    1.000,"PART-1-1",           683,      -8.80920,   354.969E-03,            0.,NA,NA,"",   926.558E-03,   660.280E-03,   650.030E-03,   682.430E-06
C:/temp/dataset/4/3_05.odb,Step-1,Increment      1: Step Time =    1.000,"PART-1-1",           684,         -3.75,           -5.,            0.,NA,NA,"",   650.733E-03,   458.167E-03,   462.101E-03,   1.50764E-03
C:/temp/dataset/4/3_05.odb,Step-1,Increment      1: Step Time =    1.000,"PART-1-1",           685,          3.75,           -5.,            0.,NA,NA,"",   502.490E-03,   463.943E-03,   193.011E-03,   2.11239E-03
C:/temp/dataset/4/3_05.odb,Step-1,Increment      1: Step Time =    1.000,"PART-1-1",           686,       4.46580,      -3.87501,            0.,NA,NA,"",   529.772E-03,   503.041E-03,   166.159E-03,   1.94033E-03
C:/temp/dataset/4/3_05.odb,Step-1,Increment      1: Step Time =    1.000,"PART-1-1",           687,       2.90021,      -2.90757,            0.,NA,NA,"",   579.619E-03,   535.992E-03,   220.615E-03,   654.445E-06
C:/temp/dataset/4/3_05.odb,Step-1,Increment      1: Step Time =    1.000,"PART-1-1",           688,       11.1618,       2.81075,            0.,NA,NA,"",   722.381E-03,   720.876E-03,  -46.6068E-03,   912.270E-06
C:/temp/dataset/4/3_05.odb,Step-1,Increment      1: Step Time =    1.000,"PART-1-1",           689,       10.1850,       1.50626,            0.,NA,NA,"",   678.479E-03,   678.308E-03,  -15.2295E-03,   1.35742E-03
C:/temp/dataset/4/3_05.odb,Step-1,Increment      1: Step Time =    1.000,"PART-1-1",           690,       11.6421,   144.368E-03,            0.,NA,NA,"",   634.748E-03,   631.907E-03,  -59.9826E-03,   1.39885E-03
C:/temp/dataset/4/3_05.odb,Step-1,Increment      1: Step Time =    1.000,"PART-1-1",           691,         11.25,           30.,            0.,NA,NA,"",       1.59867,       1.59742,  -63.3521E-03,   46.3673E-09
C:/temp/dataset/4/3_05.odb,Step-1,Increment      1: Step Time =    1.000,"PART-1-1",           692,       9.19768,       26.3844,            0.,NA,NA,"",       1.48225,       1.48224,   4.49826E-03,   81.2676E-09
C:/temp/dataset/4/3_05.odb,Step-1,Increment      1: Step Time =    1.000,"PART-1-1",           693,       7.72138,       25.7435,            0.,NA,NA,"",       1.46333,       1.46240,   52.2921E-03,   92.9148E-09
C:/temp/dataset/4/3_05.odb,Step-1,Increment      1: Step Time =    1.000,"PART-1-1",           694,       9.17897,      -24.8987,            0.,NA,NA,"",   25.8962E-03,   25.0773E-03,   6.46063E-03,   1.88302E-03
C:/temp/dataset/4/3_05.odb,Step-1,Increment      1: Step Time =    1.000,"PART-1-1",           695,       9.00589,       18.6572,            0.,NA,NA,"",       1.23400,       1.23391,   14.6600E-03,   2.82181E-06
C:/temp/dataset/4/3_05.odb,Step-1,Increment      1: Step Time =    1.000,"PART-1-1",           696,       7.99757,       19.7140,            0.,NA,NA,"",       1.26926,       1.26840,   46.5298E-03,   968.709E-09
C:/temp/dataset/4/3_05.odb,Step-1,Increment      1: Step Time =    1.000,"PART-1-1",           697,      -12.2498,       25.7751,            0.,NA,NA,"",       1.83821,       1.66963,   768.995E-03,   525.545E-09
C:/temp/dataset/4/3_05.odb,Step-1,Increment      1: Step Time =    1.000,"PART-1-1",           698,      -11.9888,       23.9538,            0.,NA,NA,"",       1.76890,       1.59727,   760.086E-03,   1.87001E-06
C:/temp/dataset/4/3_05.odb,Step-1,Increment      1: Step Time =    1.000,"PART-1-1",           699,      -1.59164,      -1.60220,            0.,NA,NA,"",   695.177E-03,   582.760E-03,   379.028E-03,   344.258E-06
C:/temp/dataset/4/3_05.odb,Step-1,Increment      1: Step Time =    1.000,"PART-1-1",           700,      -1.34014,  -343.401E-03,            0.,NA,NA,"",   728.379E-03,   628.015E-03,   368.963E-03,   194.597E-06
C:/temp/dataset/4/3_05.odb,Step-1,Increment      1: Step Time =    1.000,"PART-1-1",           701,      -2.70787,  -93.9540E-03,            0.,NA,NA,"",   763.175E-03,   638.169E-03,   418.541E-03,   282.803E-06
C:/temp/dataset/4/3_05.odb,Step-1,Increment      1: Step Time =    1.000,"PART-1-1",           702,       8.06015,      -13.0184,            0.,NA,NA,"",   241.598E-03,   237.731E-03,   43.0518E-03,   2.36345E-03
C:/temp/dataset/4/3_05.odb,Step-1,Increment      1: Step Time =    1.000,"PART-1-1",           703,       7.99745,      -10.7906,            0.,NA,NA,"",   299.262E-03,   295.389E-03,   47.9868E-03,   2.19651E-03
C:/temp/dataset/4/3_05.odb,Step-1,Increment      1: Step Time =    1.000,"PART-1-1",           704,           15.,        -26.25,            0.,NA,NA,"",   39.2186E-03,   23.0602E-03,  -31.7226E-03,   8.90385E-03
C:/temp/dataset/4/3_05.odb,Step-1,Increment      1: Step Time =    1.000,"PART-1-1",           705,       13.9776,      -24.8045,            0.,NA,NA,"",   46.0206E-03,   31.7145E-03,  -33.3479E-03,   6.85209E-03
C:/temp/dataset/4/3_05.odb,Step-1,Increment      1: Step Time =    1.000,"PART-1-1",           706,       12.6094,      -25.9010,            0.,NA,NA,"",   24.8414E-03,   18.4581E-03,  -16.6250E-03,   4.73690E-03
C:/temp/dataset/4/3_05.odb,Step-1,Increment      1: Step Time =    1.000,"PART-1-1",           707,       12.0224,      -24.3398,            0.,NA,NA,"",   36.5201E-03,   31.8742E-03,  -17.8255E-03,   3.65824E-03
C:/temp/dataset/4/3_05.odb,Step-1,Increment      1: Step Time =    1.000,"PART-1-1",           708,       13.0263,      -23.4242,            0.,NA,NA,"",   53.9259E-03,   43.9232E-03,  -31.2851E-03,   5.07155E-03
C:/temp/dataset/4/3_05.odb,Step-1,Increment      1: Step Time =    1.000,"PART-1-1",           709,       12.1300,      -22.1112,            0.,NA,NA,"",   64.5277E-03,   59.0696E-03,  -25.9730E-03,   3.48301E-03
C:/temp/dataset/4/3_05.odb,Step-1,Increment      1: Step Time =    1.000,"PART-1-1",           710,           15.,        -23.75,            0.,NA,NA,"",   68.6136E-03,   46.0170E-03,  -50.8946E-03,   8.25740E-03
C:/temp/dataset/4/3_05.odb,Step-1,Increment      1: Step Time =    1.000,"PART-1-1",           711,       10.9035,      -9.09896,            0.,NA,NA,"",   341.649E-03,   340.566E-03,  -27.1824E-03,   1.47947E-03
C:/temp/dataset/4/3_05.odb,Step-1,Increment      1: Step Time =    1.000,"PART-1-1",           712,       9.82794,      -8.10226,            0.,NA,NA,"",   369.368E-03,   369.366E-03,   1.05190E-03,   1.15544E-03
C:/temp/dataset/4/3_05.odb,Step-1,Increment      1: Step Time =    1.000,"PART-1-1",           713,       8.90728,      -9.48784,            0.,NA,NA,"",   331.244E-03,   330.244E-03,   25.7204E-03,   1.43485E-03
C:/temp/dataset/4/3_05.odb,Step-1,Increment      1: Step Time =    1.000,"PART-1-1",           714,           15.,         -1.25,            0.,NA,NA,"",   608.215E-03,   585.474E-03,  -164.758E-03,   1.62493E-03
C:/temp/dataset/4/3_05.odb,Step-1,Increment      1: Step Time =    1.000,"PART-1-1",           715,       12.7555,      -1.12336,            0.,NA,NA,"",   596.866E-03,   589.521E-03,  -93.3505E-03,   1.52129E-03
C:/temp/dataset/4/3_05.odb,Step-1,Increment      1: Step Time =    1.000,"PART-1-1",           716,       11.5680,       5.48707,            0.,NA,NA,"",   810.738E-03,   808.451E-03,  -60.8492E-03,   304.920E-06
C:/temp/dataset/4/3_05.odb,Step-1,Increment      1: Step Time =    1.000,"PART-1-1",           717,       10.1222,       4.29256,            0.,NA,NA,"",   770.707E-03,   770.579E-03,  -14.0893E-03,   740.559E-06
C:/temp/dataset/4/3_05.odb,Step-1,Increment      1: Step Time =    1.000,"PART-1-1",           718,       8.27918,   509.070E-03,            0.,NA,NA,"",   648.335E-03,   646.801E-03,   44.5769E-03,   1.70660E-03
C:/temp/dataset/4/3_05.odb,Step-1,Increment      1: Step Time =    1.000,"PART-1-1",           719,       9.70893,  -124.236E-03,            0.,NA,NA,"",   624.133E-03,   624.133E-03,   212.424E-06,   1.68903E-03
C:/temp/dataset/4/3_05.odb,Step-1,Increment      1: Step Time =    1.000,"PART-1-1",           720,       8.75521,       2.13956,            0.,NA,NA,"",   701.531E-03,   700.907E-03,   29.5809E-03,   1.42345E-03
C:/temp/dataset/4/3_05.odb,Step-1,Increment      1: Step Time =    1.000,"PART-1-1",           721,       6.99874,       4.90963,            0.,NA,NA,"",   798.877E-03,   794.267E-03,   85.6933E-03,   1.05466E-03
C:/temp/dataset/4/3_05.odb,Step-1,Increment      1: Step Time =    1.000,"PART-1-1",           722,       8.01086,       5.41567,            0.,NA,NA,"",   811.001E-03,   809.254E-03,   53.2171E-03,   718.471E-06
C:/temp/dataset/4/3_05.odb,Step-1,Increment      1: Step Time =    1.000,"PART-1-1",           723,       11.8045,       7.99587,            0.,NA,NA,"",   892.324E-03,   889.597E-03,  -69.7154E-03,   46.9674E-06
C:/temp/dataset/4/3_05.odb,Step-1,Increment      1: Step Time =    1.000,"PART-1-1",           724,       7.91904,       10.9856,            0.,NA,NA,"",   989.257E-03,   987.803E-03,   53.6255E-03,   38.7565E-06
C:/temp/dataset/4/3_05.odb,Step-1,Increment      1: Step Time =    1.000,"PART-1-1",           725,       11.0233,       18.7016,            0.,NA,NA,"",       1.23532,       1.23430,  -50.2235E-03,   2.75291E-06
C:/temp/dataset/4/3_05.odb,Step-1,Increment      1: Step Time =    1.000,"PART-1-1",           726,       10.0074,       19.8076,            0.,NA,NA,"",       1.27051,       1.27038,  -18.1352E-03,   1.07117E-06
C:/temp/dataset/4/3_05.odb,Step-1,Increment      1: Step Time =    1.000,"PART-1-1",           727,       10.9673,       21.0105,            0.,NA,NA,"",       1.30950,       1.30856,  -49.6160E-03,   618.864E-09
C:/temp/dataset/4/3_05.odb,Step-1,Increment      1: Step Time =    1.000,"PART-1-1",           728,       8.97465,       20.8454,            0.,NA,NA,"",       1.30436,       1.30428,   14.5318E-03,   697.393E-09
C:/temp/dataset/4/3_05.odb,Step-1,Increment      1: Step Time =    1.000,"PART-1-1",           729,       8.66510,       24.8184,            0.,NA,NA,"",       1.43234,       1.43217,   22.4300E-03,   101.011E-09
C:/temp/dataset/4/3_05.odb,Step-1,Increment      1: Step Time =    1.000,"PART-1-1",           730,       7.98376,       13.1681,            0.,NA,NA,"",       1.05914,       1.05794,   50.3819E-03,   23.1936E-06
C:/temp/dataset/4/3_05.odb,Step-1,Increment      1: Step Time =    1.000,"PART-1-1",           731,      -1.95806,       1.80915,            0.,NA,NA,"",   807.140E-03,   706.529E-03,   390.246E-03,   1.15183E-03
C:/temp/dataset/4/3_05.odb,Step-1,Increment      1: Step Time =    1.000,"PART-1-1",           732,  -613.587E-03,   828.335E-03,            0.,NA,NA,"",   751.756E-03,   669.307E-03,   342.294E-03,   688.821E-06
C:/temp/dataset/4/3_05.odb,Step-1,Increment      1: Step Time =    1.000,"PART-1-1",           733,   461.223E-03,       1.99751,            0.,NA,NA,"",   771.580E-03,   709.193E-03,   303.943E-03,   1.26580E-03
C:/temp/dataset/4/3_05.odb,Step-1,Increment      1: Step Time =    1.000,"PART-1-1",           734,       1.74006,       1.04512,            0.,NA,NA,"",   722.056E-03,   673.854E-03,   259.396E-03,   870.320E-06
C:/temp/dataset/4/3_05.odb,Step-1,Increment      1: Step Time =    1.000,"PART-1-1",           735,   906.022E-03,  -39.5003E-03,            0.,NA,NA,"",   699.295E-03,   636.868E-03,   288.812E-03,   384.243E-06
C:/temp/dataset/4/3_05.odb,Step-1,Increment      1: Step Time =    1.000,"PART-1-1",           736,       2.15034,  -968.542E-03,            0.,NA,NA,"",   651.476E-03,   603.331E-03,   245.789E-03,   228.599E-06
C:/temp/dataset/4/3_05.odb,Step-1,Increment      1: Step Time =    1.000,"PART-1-1",           737,       2.98438,   116.081E-03,            0.,NA,NA,"",   675.827E-03,   640.122E-03,   216.763E-03,   651.153E-06
C:/temp/dataset/4/3_05.odb,Step-1,Increment      1: Step Time =    1.000,"PART-1-1",           738,      -8.25937,       5.01848,            0.,NA,NA,"",       1.04829,   840.252E-03,   626.812E-03,   1.14430E-03
C:/temp/dataset/4/3_05.odb,Step-1,Increment      1: Step Time =    1.000,"PART-1-1",           739,      -2.78312,       1.01462,            0.,NA,NA,"",   798.450E-03,   678.703E-03,   420.576E-03,   612.377E-06
C:/temp/dataset/4/3_05.odb,Step-1,Increment      1: Step Time =    1.000,"PART-1-1",           740,      -4.31499,   913.536E-03,            0.,NA,NA,"",   828.159E-03,   676.759E-03,   477.331E-03,   546.773E-06
C:/temp/dataset/4/3_05.odb,Step-1,Increment      1: Step Time =    1.000,"PART-1-1",           741,      -4.23975,  -195.042E-03,            0.,NA,NA,"",   793.748E-03,   635.674E-03,   475.346E-03,   373.074E-06
C:/temp/dataset/4/3_05.odb,Step-1,Increment      1: Step Time =    1.000,"PART-1-1",           742,      -8.52646,       20.5688,            0.,NA,NA,"",       1.58881,       1.46046,   625.588E-03,   10.2975E-06
C:/temp/dataset/4/3_05.odb,Step-1,Increment      1: Step Time =    1.000,"PART-1-1",           743,       8.09873,      -15.2435,            0.,NA,NA,"",   188.970E-03,   185.043E-03,   38.3249E-03,   2.52970E-03
C:/temp/dataset/4/3_05.odb,Step-1,Increment      1: Step Time =    1.000,"PART-1-1",           744,       8.99676,       14.2096,            0.,NA,NA,"",       1.09105,       1.09092,   17.2785E-03,   20.0270E-06
C:/temp/dataset/4/3_05.odb,Step-1,Increment      1: Step Time =    1.000,"PART-1-1",           745,       11.0169,       14.0599,            0.,NA,NA,"",       1.08613,       1.08509,  -47.5926E-03,   20.1616E-06
C:/temp/dataset/4/3_05.odb,Step-1,Increment      1: Step Time =    1.000,"PART-1-1",           746,      -7.91902,       15.6847,            0.,NA,NA,"",       1.40375,       1.26650,   605.384E-03,   21.4636E-06
C:/temp/dataset/4/3_05.odb,Step-1,Increment      1: Step Time =    1.000,"PART-1-1",           747,      -11.9968,       14.1876,            0.,NA,NA,"",       1.43360,       1.21044,   768.149E-03,   42.7920E-06
C:/temp/dataset/4/3_05.odb,Step-1,Increment      1: Step Time =    1.000,"PART-1-1",           748,      -11.1175,       8.79310,            0.,NA,NA,"",       1.23835,   995.220E-03,   736.911E-03,   629.421E-06
C:/temp/dataset/4/3_05.odb,Step-1,Increment      1: Step Time =    1.000,"PART-1-1",           749,       10.6592,      -6.44981,            0.,NA,NA,"",   419.263E-03,   418.610E-03,  -23.3983E-03,   1.58927E-03
C:/temp/dataset/4/3_05.odb,Step-1,Increment      1: Step Time =    1.000,"PART-1-1",           750,      -10.7894,       23.3985,            0.,NA,NA,"",       1.72826,       1.57433,   713.009E-03,   3.30742E-06
C:/temp/dataset/4/3_05.odb,Step-1,Increment      1: Step Time =    1.000,"PART-1-1",           751,       10.0228,      -25.8019,            0.,NA,NA,"",   16.6715E-03,   16.6711E-03,  -120.750E-06,   1.19375E-03
C:/temp/dataset/4/3_05.odb,Step-1,Increment      1: Step Time =    1.000,"PART-1-1",           752,       10.9542,      -24.8826,            0.,NA,NA,"",   26.3155E-03,   25.2179E-03,  -7.52086E-03,   1.99682E-03
C:/temp/dataset/4/3_05.odb,Step-1,Increment      1: Step Time =    1.000,"PART-1-1",           753,       11.8371,      -2.37854,            0.,NA,NA,"",   551.909E-03,   548.266E-03,  -63.3079E-03,   1.73840E-03
C:/temp/dataset/4/3_05.odb,Step-1,Increment      1: Step Time =    1.000,"PART-1-1",           754,       11.6235,      -5.02753,            0.,NA,NA,"",   465.899E-03,   462.859E-03,  -53.1337E-03,   1.84228E-03
C:/temp/dataset/4/3_05.odb,Step-1,Increment      1: Step Time =    1.000,"PART-1-1",           755,      -12.1333,       7.86930,            0.,NA,NA,"",       1.23488,   959.568E-03,   777.273E-03,   720.112E-06
C:/temp/dataset/4/3_05.odb,Step-1,Increment      1: Step Time =    1.000,"PART-1-1",           756,      -12.0768,       9.95169,            0.,NA,NA,"",       1.29856,       1.04262,   774.071E-03,   529.718E-06
C:/temp/dataset/4/3_05.odb,Step-1,Increment      1: Step Time =    1.000,"PART-1-1",           757,       8.68743,       3.64563,            0.,NA,NA,"",   751.576E-03,   750.907E-03,   31.7023E-03,   1.07944E-03
C:/temp/dataset/4/3_05.odb,Step-1,Increment      1: Step Time =    1.000,"PART-1-1",           758,       6.61848,       3.66599,            0.,NA,NA,"",   760.936E-03,   754.654E-03,   97.5771E-03,   1.44595E-03
C:/temp/dataset/4/3_05.odb,Step-1,Increment      1: Step Time =    1.000,"PART-1-1",           759,       4.71579,   65.6079E-03,            0.,NA,NA,"",   655.787E-03,   636.319E-03,   158.602E-03,   1.09169E-03
C:/temp/dataset/4/3_05.odb,Step-1,Increment      1: Step Time =    1.000,"PART-1-1",           760,       3.89104,   957.250E-03,            0.,NA,NA,"",   693.312E-03,   667.872E-03,   186.089E-03,   1.04441E-03
C:/temp/dataset/4/3_05.odb,Step-1,Increment      1: Step Time =    1.000,"PART-1-1",           761,      -12.0363,       12.0623,            0.,NA,NA,"",       1.36514,       1.12641,   771.242E-03,   258.704E-06
C:/temp/dataset/4/3_05.odb,Step-1,Increment      1: Step Time =    1.000,"PART-1-1",           762,      -12.1964,       5.82098,            0.,NA,NA,"",       1.17466,   877.905E-03,   780.454E-03,   837.089E-06
C:/temp/dataset/4/3_05.odb,Step-1,Increment      1: Step Time =    1.000,"PART-1-1",           763,      -11.2570,       4.81016,            0.,NA,NA,"",       1.11939,   836.421E-03,   743.935E-03,   773.954E-06
C:/temp/dataset/4/3_05.odb,Step-1,Increment      1: Step Time =    1.000,"PART-1-1",           764,      -10.5260,       3.94381,            0.,NA,NA,"",       1.07424,   801.183E-03,   715.609E-03,   769.472E-06
C:/temp/dataset/4/3_05.odb,Step-1,Increment      1: Step Time =    1.000,"PART-1-1",           765,      -9.56326,       4.76486,            0.,NA,NA,"",       1.07327,   832.187E-03,   677.772E-03,   870.761E-06
C:/temp/dataset/4/3_05.odb,Step-1,Increment      1: Step Time =    1.000,"PART-1-1",           766,      -9.32737,       3.44699,            0.,NA,NA,"",       1.02752,   779.943E-03,   668.942E-03,   823.704E-06
C:/temp/dataset/4/3_05.odb,Step-1,Increment      1: Step Time =    1.000,"PART-1-1",           767,       11.5413,      -26.4438,            0.,NA,NA,"",   15.2698E-03,   12.7387E-03,  -8.41968E-03,   2.95289E-03
C:/temp/dataset/4/3_05.odb,Step-1,Increment      1: Step Time =    1.000,"PART-1-1",           768,       5.97241,      -3.36228,            0.,NA,NA,"",   531.766E-03,   518.931E-03,   116.130E-03,   1.70917E-03
C:/temp/dataset/4/3_05.odb,Step-1,Increment      1: Step Time =    1.000,"PART-1-1",           769,       11.9304,       22.2704,            0.,NA,NA,"",       1.35101,       1.34856,  -81.2303E-03,   110.414E-09
C:/temp/dataset/4/3_05.odb,Step-1,Increment      1: Step Time =    1.000,"PART-1-1",           770,      -3.95064,       2.12654,            0.,NA,NA,"",   857.097E-03,   721.272E-03,   463.015E-03,   903.835E-06
C:/temp/dataset/4/3_05.odb,Step-1,Increment      1: Step Time =    1.000,"PART-1-1",           771,       12.1361,      -19.7979,            0.,NA,NA,"",   100.167E-03,   94.5536E-03,  -33.0619E-03,   3.24250E-03
C:/temp/dataset/4/3_05.odb,Step-1,Increment      1: Step Time =    1.000,"PART-1-1",           772,       12.1156,      -17.4436,            0.,NA,NA,"",   143.352E-03,   137.838E-03,  -39.3753E-03,   2.96151E-03
C:/temp/dataset/4/3_05.odb,Step-1,Increment      1: Step Time =    1.000,"PART-1-1",           773,       11.8489,      -7.73518,            0.,NA,NA,"",   384.214E-03,   380.259E-03,  -54.9844E-03,   1.91463E-03
C:/temp/dataset/4/3_05.odb,Step-1,Increment      1: Step Time =    1.000,"PART-1-1",           774,       11.9658,      -10.2357,            0.,NA,NA,"",   313.750E-03,   309.202E-03,  -53.2279E-03,   2.11770E-03
C:/temp/dataset/4/3_05.odb,Step-1,Increment      1: Step Time =    1.000,"PART-1-1",           775,       10.7237,      -1.11081,            0.,NA,NA,"",   591.309E-03,   590.520E-03,  -30.5282E-03,   1.70012E-03
C:/temp/dataset/4/3_05.odb,Step-1,Increment      1: Step Time =    1.000,"PART-1-1",           776,       11.9194,       10.4262,            0.,NA,NA,"",   970.688E-03,   967.810E-03,  -74.6972E-03,   35.0829E-06
C:/temp/dataset/4/3_05.odb,Step-1,Increment      1: Step Time =    1.000,"PART-1-1",           777,       11.9945,       12.8006,            0.,NA,NA,"",       1.04705,       1.04411,  -78.3742E-03,   24.2770E-06
C:/temp/dataset/4/3_05.odb,Step-1,Increment      1: Step Time =    1.000,"PART-1-1",           778,       12.0317,      -12.6649,            0.,NA,NA,"",   250.470E-03,   245.516E-03,  -49.5688E-03,   2.38476E-03
C:/temp/dataset/4/3_05.odb,Step-1,Increment      1: Step Time =    1.000,"PART-1-1",           779,       12.0352,       15.1685,            0.,NA,NA,"",       1.12312,       1.12020,  -80.9220E-03,   10.8884E-06
C:/temp/dataset/4/3_05.odb,Step-1,Increment      1: Step Time =    1.000,"PART-1-1",           780,      -7.80161,      -2.23284,            0.,NA,NA,"",   831.283E-03,   561.648E-03,   612.848E-03,   656.229E-06
C:/temp/dataset/4/3_05.odb,Step-1,Increment      1: Step Time =    1.000,"PART-1-1",           781,      -8.87876,  -905.543E-03,            0.,NA,NA,"",   895.717E-03,   612.507E-03,   653.562E-03,   647.729E-06
C:/temp/dataset/4/3_05.odb,Step-1,Increment      1: Step Time =    1.000,"PART-1-1",           782,      -7.16649,      -1.00336,            0.,NA,NA,"",   845.041E-03,   607.594E-03,   587.302E-03,   637.568E-06
C:/temp/dataset/4/3_05.odb,Step-1,Increment      1: Step Time =    1.000,"PART-1-1",           783,      -7.09692,   257.153E-03,            0.,NA,NA,"",   877.273E-03,   654.924E-03,   583.679E-03,   645.058E-06
C:/temp/dataset/4/3_05.odb,Step-1,Increment      1: Step Time =    1.000,"PART-1-1",           784,      -5.74923,      -1.63131,            0.,NA,NA,"",   790.521E-03,   583.295E-03,   533.564E-03,   585.941E-06
C:/temp/dataset/4/3_05.odb,Step-1,Increment      1: Step Time =    1.000,"PART-1-1",           785,      -5.66693,  -67.3201E-03,            0.,NA,NA,"",   831.556E-03,   641.514E-03,   529.098E-03,   549.198E-06
C:/temp/dataset/4/3_05.odb,Step-1,Increment      1: Step Time =    1.000,"PART-1-1",           786,      -5.46941,       1.35113,            0.,NA,NA,"",   867.745E-03,   694.292E-03,   520.519E-03,   706.094E-06
C:/temp/dataset/4/3_05.odb,Step-1,Increment      1: Step Time =    1.000,"PART-1-1",           787,       12.0849,      -15.0650,            0.,NA,NA,"",   193.625E-03,   188.323E-03,  -45.0008E-03,   2.67818E-03
C:/temp/dataset/4/3_05.odb,Step-1,Increment      1: Step Time =    1.000,"PART-1-1",           788,       7.01212,      -4.44648,            0.,NA,NA,"",   489.608E-03,   482.535E-03,   82.9210E-03,   1.65277E-03
C:/temp/dataset/4/3_05.odb,Step-1,Increment      1: Step Time =    1.000,"PART-1-1",           789,       7.64174,      -3.33281,            0.,NA,NA,"",   522.498E-03,   518.550E-03,   64.1140E-03,   1.79809E-03
C:/temp/dataset/4/3_05.odb,Step-1,Increment      1: Step Time =    1.000,"PART-1-1",           790,       6.60203,      -2.24861,            0.,NA,NA,"",   563.978E-03,   555.617E-03,   96.7546E-03,   1.66370E-03
C:/temp/dataset/4/3_05.odb,Step-1,Increment      1: Step Time =    1.000,"PART-1-1",           791,       6.68626,       2.15992,            0.,NA,NA,"",   710.848E-03,   704.456E-03,   95.1073E-03,   1.59261E-03
C:/temp/dataset/4/3_05.odb,Step-1,Increment      1: Step Time =    1.000,"PART-1-1",           792,       12.0103,       19.9021,            0.,NA,NA,"",       1.27506,       1.27238,  -82.5754E-03,   825.266E-09
C:/temp/dataset/4/3_05.odb,Step-1,Increment      1: Step Time =    1.000,"PART-1-1",           793,       12.0305,       17.5416,            0.,NA,NA,"",       1.19929,       1.19649,  -82.0044E-03,   3.59445E-06
C:/temp/dataset/4/3_05.odb,Step-1,Increment      1: Step Time =    1.000,"PART-1-1",           794,       6.09271,      -1.14349,            0.,NA,NA,"",   604.289E-03,   593.544E-03,   113.448E-03,   1.48108E-03
C:/temp/dataset/4/3_05.odb,Step-1,Increment      1: Step Time =    1.000,"PART-1-1",           795,       7.56053,      -1.65505,            0.,NA,NA,"",   578.513E-03,   574.633E-03,   66.8886E-03,   1.83462E-03
C:/temp/dataset/4/3_05.odb,Step-1,Increment      1: Step Time =    1.000,"PART-1-1",           796,       7.05122,  -549.935E-03,            0.,NA,NA,"",   618.100E-03,   612.493E-03,   83.0693E-03,   1.71508E-03
C:/temp/dataset/4/3_05.odb,Step-1,Increment      1: Step Time =    1.000,"PART-1-1",           797,       5.28588,       1.87348,            0.,NA,NA,"",   710.942E-03,   696.995E-03,   140.129E-03,   1.38269E-03
C:/temp/dataset/4/3_05.odb,Step-1,Increment      1: Step Time =    1.000,"PART-1-1",           798,       5.70847,   325.226E-03,            0.,NA,NA,"",   656.107E-03,   643.859E-03,   126.181E-03,   1.43395E-03
C:/temp/dataset/4/3_05.odb,Step-1,Increment      1: Step Time =    1.000,"PART-1-1",           799,       7.10885,   611.668E-03,            0.,NA,NA,"",   656.761E-03,   651.693E-03,   81.4313E-03,   1.63490E-03
C:/temp/dataset/4/3_05.odb,Step-1,Increment      1: Step Time =    1.000,"PART-1-1",           800,       9.00326,      -1.31280,            0.,NA,NA,"",   585.277E-03,   584.851E-03,   22.3288E-03,   1.84298E-03
C:/temp/dataset/4/3_05.odb,Step-1,Increment      1: Step Time =    1.000,"PART-1-1",           801,       8.22155,  -652.532E-03,            0.,NA,NA,"",   609.500E-03,   607.732E-03,   46.3954E-03,   1.79891E-03
C:/temp/dataset/4/3_05.odb,Step-1,Increment      1: Step Time =    1.000,"PART-1-1",           802,       8.34224,      -2.31533,            0.,NA,NA,"",   553.493E-03,   551.840E-03,   42.7436E-03,   1.85290E-03
C:/temp/dataset/4/3_05.odb,Step-1,Increment      1: Step Time =    1.000,"PART-1-1",           803,       2.82445,       2.06443,            0.,NA,NA,"",   741.485E-03,   707.448E-03,   222.072E-03,   1.27558E-03
