ODB Name,Step,Frame,Part Instance Name,    êﬂì_ÉâÉxÉã,X,Y,Z,Section Name,Material Name,Section Point,   U-Magnitude,          U-U1,          U-U2,       S-Mises
C:/temp/dataset/4/3_2.odb,Step-1,Increment      1: Step Time =    1.000,"PART-1-1",             1,           -5.,           30.,            0.,NA,NA,"",       7.48420,       7.32869,       1.51778,   30.2339E-09
C:/temp/dataset/4/3_2.odb,Step-1,Increment      1: Step Time =    1.000,"PART-1-1",             2,          -15.,           30.,            0.,NA,NA,"",       8.06261,       7.45138,       3.07940,   38.9144E-09
C:/temp/dataset/4/3_2.odb,Step-1,Increment      1: Step Time =    1.000,"PART-1-1",             3,          -15.,         21.25,            0.,NA,NA,"",       6.86887,       6.08490,       3.18674,   19.5850E-06
C:/temp/dataset/4/3_2.odb,Step-1,Increment      1: Step Time =    1.000,"PART-1-1",             4,          -15.,          12.5,            0.,NA,NA,"",       5.75547,       4.72141,       3.29146,   1.17254E-03
C:/temp/dataset/4/3_2.odb,Step-1,Increment      1: Step Time =    1.000,"PART-1-1",             5,          -15.,          3.75,            0.,NA,NA,"",       4.76378,       3.35068,       3.38623,   3.42863E-03
C:/temp/dataset/4/3_2.odb,Step-1,Increment      1: Step Time =    1.000,"PART-1-1",             6,          -15.,           -5.,            0.,NA,NA,"",       4.01557,       2.01061,       3.47596,   124.830E-06
C:/temp/dataset/4/3_2.odb,Step-1,Increment      1: Step Time =    1.000,"PART-1-1",             7,          -10.,           -5.,            0.,NA,NA,"",       3.34227,       1.95463,       2.71113,   2.08667E-03
C:/temp/dataset/4/3_2.odb,Step-1,Increment      1: Step Time =    1.000,"PART-1-1",             8,           -5.,           -5.,            0.,NA,NA,"",       2.73542,       1.91499,       1.95329,   5.56988E-03
C:/temp/dataset/4/3_2.odb,Step-1,Increment      1: Step Time =    1.000,"PART-1-1",             9,            0.,           -5.,            0.,NA,NA,"",       2.25394,       1.89030,       1.22760,   6.10808E-03
C:/temp/dataset/4/3_2.odb,Step-1,Increment      1: Step Time =    1.000,"PART-1-1",            10,            5.,           -5.,            0.,NA,NA,"",       1.94190,       1.87102,   519.872E-03,   16.8114E-03
C:/temp/dataset/4/3_2.odb,Step-1,Increment      1: Step Time =    1.000,"PART-1-1",            11,            5.,        -11.25,            0.,NA,NA,"",       1.25094,       1.16369,   458.993E-03,   19.9325E-03
C:/temp/dataset/4/3_2.odb,Step-1,Increment      1: Step Time =    1.000,"PART-1-1",            12,            5.,         -17.5,            0.,NA,NA,"",   682.223E-03,   582.595E-03,   354.981E-03,   26.6235E-03
C:/temp/dataset/4/3_2.odb,Step-1,Increment      1: Step Time =    1.000,"PART-1-1",            13,            5.,        -23.75,            0.,NA,NA,"",   274.844E-03,   189.100E-03,   199.450E-03,   33.1913E-03
C:/temp/dataset/4/3_2.odb,Step-1,Increment      1: Step Time =    1.000,"PART-1-1",            14,            5.,          -30.,            0.,NA,NA,"",            0.,   12.3777E-39,   23.2200E-39,   45.3504E-03
C:/temp/dataset/4/3_2.odb,Step-1,Increment      1: Step Time =    1.000,"PART-1-1",            15,           15.,          -30.,            0.,NA,NA,"",            0.,   12.0114E-39,  -22.9233E-39,   43.7042E-03
C:/temp/dataset/4/3_2.odb,Step-1,Increment      1: Step Time =    1.000,"PART-1-1",            16,           15.,         -22.5,            0.,NA,NA,"",   337.822E-03,   236.856E-03,  -240.881E-03,   31.7678E-03
C:/temp/dataset/4/3_2.odb,Step-1,Increment      1: Step Time =    1.000,"PART-1-1",            17,           15.,          -15.,            0.,NA,NA,"",   880.036E-03,   757.979E-03,  -447.136E-03,   23.9129E-03
C:/temp/dataset/4/3_2.odb,Step-1,Increment      1: Step Time =    1.000,"PART-1-1",            18,           15.,          -7.5,            0.,NA,NA,"",       1.64302,       1.52084,  -621.757E-03,   15.8694E-03
C:/temp/dataset/4/3_2.odb,Step-1,Increment      1: Step Time =    1.000,"PART-1-1",            19,           15.,            0.,            0.,NA,NA,"",       2.56088,       2.44882,  -749.257E-03,   4.37626E-03
C:/temp/dataset/4/3_2.odb,Step-1,Increment      1: Step Time =    1.000,"PART-1-1",            20,           15.,           7.5,            0.,NA,NA,"",       3.51258,       3.41593,  -818.321E-03,   444.074E-06
C:/temp/dataset/4/3_2.odb,Step-1,Increment      1: Step Time =    1.000,"PART-1-1",            21,           15.,           15.,            0.,NA,NA,"",       4.45567,       4.36839,  -877.578E-03,   31.4313E-06
C:/temp/dataset/4/3_2.odb,Step-1,Increment      1: Step Time =    1.000,"PART-1-1",            22,           15.,          22.5,            0.,NA,NA,"",       5.40148,       5.31940,  -938.084E-03,   1.38798E-06
C:/temp/dataset/4/3_2.odb,Step-1,Increment      1: Step Time =    1.000,"PART-1-1",            23,           15.,           30.,            0.,NA,NA,"",       6.34949,       6.27047,  -998.635E-03,   28.2584E-09
C:/temp/dataset/4/3_2.odb,Step-1,Increment      1: Step Time =    1.000,"PART-1-1",            24,            5.,           30.,            0.,NA,NA,"",       6.35692,       6.35120,   269.468E-03,   18.1390E-09
C:/temp/dataset/4/3_2.odb,Step-1,Increment      1: Step Time =    1.000,"PART-1-1",            25,            5.,         23.75,            0.,NA,NA,"",       5.56784,       5.55864,   319.926E-03,   967.516E-09
C:/temp/dataset/4/3_2.odb,Step-1,Increment      1: Step Time =    1.000,"PART-1-1",            26,            5.,          17.5,            0.,NA,NA,"",       4.78041,       4.76604,   370.390E-03,   4.95089E-06
C:/temp/dataset/4/3_2.odb,Step-1,Increment      1: Step Time =    1.000,"PART-1-1",            27,            5.,         11.25,            0.,NA,NA,"",       3.99555,       3.97336,   420.461E-03,   217.709E-06
C:/temp/dataset/4/3_2.odb,Step-1,Increment      1: Step Time =    1.000,"PART-1-1",            28,            5.,            5.,            0.,NA,NA,"",       3.22970,       3.19582,   466.546E-03,   9.15821E-03
C:/temp/dataset/4/3_2.odb,Step-1,Increment      1: Step Time =    1.000,"PART-1-1",            29,            0.,            5.,            0.,NA,NA,"",       3.48155,       3.29099,       1.13603,   10.1893E-03
C:/temp/dataset/4/3_2.odb,Step-1,Increment      1: Step Time =    1.000,"PART-1-1",            30,           -5.,            5.,            0.,NA,NA,"",       3.85867,       3.39457,       1.83474,   13.7144E-03
C:/temp/dataset/4/3_2.odb,Step-1,Increment      1: Step Time =    1.000,"PART-1-1",            31,           -5.,         11.25,            0.,NA,NA,"",       4.73223,       4.39815,       1.74649,   287.798E-06
C:/temp/dataset/4/3_2.odb,Step-1,Increment      1: Step Time =    1.000,"PART-1-1",            32,           -5.,          17.5,            0.,NA,NA,"",       5.63035,       5.37670,       1.67093,   112.520E-06
C:/temp/dataset/4/3_2.odb,Step-1,Increment      1: Step Time =    1.000,"PART-1-1",            33,           -5.,         23.75,            0.,NA,NA,"",       6.54973,       6.35269,       1.59445,   2.02855E-06
C:/temp/dataset/4/3_2.odb,Step-1,Increment      1: Step Time =    1.000,"PART-1-1",            34,          -7.5,           30.,            0.,NA,NA,"",       7.60272,       7.35936,       1.90818,   513.136E-09
C:/temp/dataset/4/3_2.odb,Step-1,Increment      1: Step Time =    1.000,"PART-1-1",            35,          -10.,           30.,            0.,NA,NA,"",       7.73925,       7.39003,       2.29858,   893.036E-09
C:/temp/dataset/4/3_2.odb,Step-1,Increment      1: Step Time =    1.000,"PART-1-1",            36,         -12.5,           30.,            0.,NA,NA,"",       7.89288,       7.42070,       2.68899,   485.350E-09
C:/temp/dataset/4/3_2.odb,Step-1,Increment      1: Step Time =    1.000,"PART-1-1",            37,          -15.,       27.8125,            0.,NA,NA,"",       7.75871,       7.10977,       3.10624,   532.896E-09
C:/temp/dataset/4/3_2.odb,Step-1,Increment      1: Step Time =    1.000,"PART-1-1",            38,          -15.,        25.625,            0.,NA,NA,"",       7.45816,       6.76816,       3.13308,   718.743E-09
C:/temp/dataset/4/3_2.odb,Step-1,Increment      1: Step Time =    1.000,"PART-1-1",            39,          -15.,       23.4375,            0.,NA,NA,"",       7.16139,       6.42654,       3.15992,   2.31266E-06
C:/temp/dataset/4/3_2.odb,Step-1,Increment      1: Step Time =    1.000,"PART-1-1",            40,          -15.,       19.0625,            0.,NA,NA,"",       6.58116,       5.74325,       3.21352,   68.1207E-06
C:/temp/dataset/4/3_2.odb,Step-1,Increment      1: Step Time =    1.000,"PART-1-1",            41,          -15.,        16.875,            0.,NA,NA,"",       6.29890,       5.40165,       3.24011,   179.095E-06
C:/temp/dataset/4/3_2.odb,Step-1,Increment      1: Step Time =    1.000,"PART-1-1",            42,          -15.,       14.6875,            0.,NA,NA,"",       6.02302,       5.06041,       3.26636,   535.444E-06
C:/temp/dataset/4/3_2.odb,Step-1,Increment      1: Step Time =    1.000,"PART-1-1",            43,          -15.,       10.3125,            0.,NA,NA,"",       5.49597,       4.38186,       3.31738,   2.07603E-03
C:/temp/dataset/4/3_2.odb,Step-1,Increment      1: Step Time =    1.000,"PART-1-1",            44,          -15.,         8.125,            0.,NA,NA,"",       5.24203,       4.03862,       3.34192,   2.49025E-03
C:/temp/dataset/4/3_2.odb,Step-1,Increment      1: Step Time =    1.000,"PART-1-1",            45,          -15.,        5.9375,            0.,NA,NA,"",       4.99724,       3.69486,       3.36458,   3.28165E-03
C:/temp/dataset/4/3_2.odb,Step-1,Increment      1: Step Time =    1.000,"PART-1-1",            46,          -15.,        1.5625,            0.,NA,NA,"",       4.54540,       3.01007,       3.40590,   2.96771E-03
C:/temp/dataset/4/3_2.odb,Step-1,Increment      1: Step Time =    1.000,"PART-1-1",            47,          -15.,     -625.E-03,            0.,NA,NA,"",       4.34787,       2.67581,       3.42695,   1.60747E-03
C:/temp/dataset/4/3_2.odb,Step-1,Increment      1: Step Time =    1.000,"PART-1-1",            48,          -15.,       -2.8125,            0.,NA,NA,"",       4.17113,       2.34354,       3.45052,   344.529E-06
C:/temp/dataset/4/3_2.odb,Step-1,Increment      1: Step Time =    1.000,"PART-1-1",            49,         -12.5,           -5.,            0.,NA,NA,"",       3.67433,       1.98144,       3.09428,   448.319E-06
C:/temp/dataset/4/3_2.odb,Step-1,Increment      1: Step Time =    1.000,"PART-1-1",            50,          -7.5,           -5.,            0.,NA,NA,"",       3.02659,       1.93229,       2.32948,   4.04243E-03
C:/temp/dataset/4/3_2.odb,Step-1,Increment      1: Step Time =    1.000,"PART-1-1",            51,          -2.5,           -5.,            0.,NA,NA,"",       2.47595,       1.90160,       1.58563,   6.44821E-03
C:/temp/dataset/4/3_2.odb,Step-1,Increment      1: Step Time =    1.000,"PART-1-1",            52,           2.5,           -5.,            0.,NA,NA,"",       2.07398,       1.87918,   877.528E-03,   6.48097E-03
C:/temp/dataset/4/3_2.odb,Step-1,Increment      1: Step Time =    1.000,"PART-1-1",            53,            5.,      -7.08333,            0.,NA,NA,"",       1.70229,       1.62744,   499.236E-03,   17.2424E-03
C:/temp/dataset/4/3_2.odb,Step-1,Increment      1: Step Time =    1.000,"PART-1-1",            54,            5.,      -9.16667,            0.,NA,NA,"",       1.47112,       1.38988,   482.117E-03,   17.6038E-03
C:/temp/dataset/4/3_2.odb,Step-1,Increment      1: Step Time =    1.000,"PART-1-1",            55,            5.,      -13.3333,            0.,NA,NA,"",       1.04497,   952.305E-03,   430.193E-03,   22.1377E-03
C:/temp/dataset/4/3_2.odb,Step-1,Increment      1: Step Time =    1.000,"PART-1-1",            56,            5.,      -15.4167,            0.,NA,NA,"",   854.950E-03,   757.965E-03,   395.509E-03,   24.3997E-03
C:/temp/dataset/4/3_2.odb,Step-1,Increment      1: Step Time =    1.000,"PART-1-1",            57,            5.,      -19.5833,            0.,NA,NA,"",   527.773E-03,   428.091E-03,   308.679E-03,   28.8379E-03
C:/temp/dataset/4/3_2.odb,Step-1,Increment      1: Step Time =    1.000,"PART-1-1",            58,            5.,      -21.6667,            0.,NA,NA,"",   392.063E-03,   296.287E-03,   256.764E-03,   30.9839E-03
C:/temp/dataset/4/3_2.odb,Step-1,Increment      1: Step Time =    1.000,"PART-1-1",            59,            5.,      -25.8333,            0.,NA,NA,"",   174.620E-03,   107.590E-03,   137.538E-03,   34.4558E-03
C:/temp/dataset/4/3_2.odb,Step-1,Increment      1: Step Time =    1.000,"PART-1-1",            60,            5.,      -27.9167,            0.,NA,NA,"",   89.0389E-03,   51.7264E-03,   72.4728E-03,   38.4102E-03
C:/temp/dataset/4/3_2.odb,Step-1,Increment      1: Step Time =    1.000,"PART-1-1",            61,           7.5,          -30.,            0.,NA,NA,"",            0.,   3.13703E-39,   45.3339E-39,   13.6591E-03
C:/temp/dataset/4/3_2.odb,Step-1,Increment      1: Step Time =    1.000,"PART-1-1",            62,           10.,          -30.,            0.,NA,NA,"",            0.,  -6.53816E-39,   255.914E-42,   3.80724E-03
C:/temp/dataset/4/3_2.odb,Step-1,Increment      1: Step Time =    1.000,"PART-1-1",            63,          12.5,          -30.,            0.,NA,NA,"",            0.,   18.6886E-39,  -41.6692E-39,   13.7748E-03
C:/temp/dataset/4/3_2.odb,Step-1,Increment      1: Step Time =    1.000,"PART-1-1",            64,           15.,         -27.5,            0.,NA,NA,"",   102.524E-03,   56.9761E-03,  -85.2346E-03,   37.7748E-03
C:/temp/dataset/4/3_2.odb,Step-1,Increment      1: Step Time =    1.000,"PART-1-1",            65,           15.,          -25.,            0.,NA,NA,"",   209.271E-03,   128.782E-03,  -164.954E-03,   33.5801E-03
C:/temp/dataset/4/3_2.odb,Step-1,Increment      1: Step Time =    1.000,"PART-1-1",            66,           15.,          -20.,            0.,NA,NA,"",   491.924E-03,   379.205E-03,  -313.358E-03,   29.0505E-03
C:/temp/dataset/4/3_2.odb,Step-1,Increment      1: Step Time =    1.000,"PART-1-1",            67,           15.,         -17.5,            0.,NA,NA,"",   672.831E-03,   553.878E-03,  -381.996E-03,   26.4975E-03
C:/temp/dataset/4/3_2.odb,Step-1,Increment      1: Step Time =    1.000,"PART-1-1",            68,           15.,         -12.5,            0.,NA,NA,"",       1.11210,   988.855E-03,  -508.856E-03,   21.3559E-03
C:/temp/dataset/4/3_2.odb,Step-1,Increment      1: Step Time =    1.000,"PART-1-1",            69,           15.,          -10.,            0.,NA,NA,"",       1.36714,       1.24394,  -567.183E-03,   18.7544E-03
C:/temp/dataset/4/3_2.odb,Step-1,Increment      1: Step Time =    1.000,"PART-1-1",            70,           15.,           -5.,            0.,NA,NA,"",       1.93698,       1.81688,  -671.447E-03,   12.3698E-03
C:/temp/dataset/4/3_2.odb,Step-1,Increment      1: Step Time =    1.000,"PART-1-1",            71,           15.,          -2.5,            0.,NA,NA,"",       2.24483,       2.12811,  -714.414E-03,   8.30445E-03
C:/temp/dataset/4/3_2.odb,Step-1,Increment      1: Step Time =    1.000,"PART-1-1",            72,           15.,           2.5,            0.,NA,NA,"",       2.87948,       2.77281,  -776.489E-03,   1.45295E-03
C:/temp/dataset/4/3_2.odb,Step-1,Increment      1: Step Time =    1.000,"PART-1-1",            73,           15.,            5.,            0.,NA,NA,"",       3.19702,       3.09569,  -798.536E-03,   111.926E-06
C:/temp/dataset/4/3_2.odb,Step-1,Increment      1: Step Time =    1.000,"PART-1-1",            74,           15.,           10.,            0.,NA,NA,"",       3.82695,       3.73412,  -837.784E-03,   291.250E-06
C:/temp/dataset/4/3_2.odb,Step-1,Increment      1: Step Time =    1.000,"PART-1-1",            75,           15.,          12.5,            0.,NA,NA,"",       4.14115,       4.05138,  -857.551E-03,   116.539E-06
C:/temp/dataset/4/3_2.odb,Step-1,Increment      1: Step Time =    1.000,"PART-1-1",            76,           15.,          17.5,            0.,NA,NA,"",       4.77060,       4.68538,  -897.721E-03,   4.11162E-06
C:/temp/dataset/4/3_2.odb,Step-1,Increment      1: Step Time =    1.000,"PART-1-1",            77,           15.,           20.,            0.,NA,NA,"",       5.08590,       5.00238,  -917.899E-03,   1.56425E-06
C:/temp/dataset/4/3_2.odb,Step-1,Increment      1: Step Time =    1.000,"PART-1-1",            78,           15.,           25.,            0.,NA,NA,"",       5.71730,       5.63642,  -958.269E-03,   609.201E-09
C:/temp/dataset/4/3_2.odb,Step-1,Increment      1: Step Time =    1.000,"PART-1-1",            79,           15.,          27.5,            0.,NA,NA,"",       6.03331,       5.95345,  -978.452E-03,   138.264E-09
C:/temp/dataset/4/3_2.odb,Step-1,Increment      1: Step Time =    1.000,"PART-1-1",            80,          12.5,           30.,            0.,NA,NA,"",       6.32747,       6.29065,  -681.609E-03,   109.525E-09
C:/temp/dataset/4/3_2.odb,Step-1,Increment      1: Step Time =    1.000,"PART-1-1",            81,           10.,           30.,            0.,NA,NA,"",       6.32136,       6.31084,  -364.584E-03,   225.492E-09
C:/temp/dataset/4/3_2.odb,Step-1,Increment      1: Step Time =    1.000,"PART-1-1",            82,           7.5,           30.,            0.,NA,NA,"",       6.33120,       6.33102,  -47.5582E-03,   114.126E-09
C:/temp/dataset/4/3_2.odb,Step-1,Increment      1: Step Time =    1.000,"PART-1-1",            83,            5.,       27.9167,            0.,NA,NA,"",       6.09374,       6.08701,   286.287E-03,   92.2840E-09
C:/temp/dataset/4/3_2.odb,Step-1,Increment      1: Step Time =    1.000,"PART-1-1",            84,            5.,       25.8333,            0.,NA,NA,"",       5.83071,       5.82283,   303.106E-03,   406.863E-09
C:/temp/dataset/4/3_2.odb,Step-1,Increment      1: Step Time =    1.000,"PART-1-1",            85,            5.,       21.6667,            0.,NA,NA,"",       5.30515,       5.29445,   336.747E-03,   1.56911E-06
C:/temp/dataset/4/3_2.odb,Step-1,Increment      1: Step Time =    1.000,"PART-1-1",            86,            5.,       19.5833,            0.,NA,NA,"",       5.04266,       5.03025,   353.570E-03,   1.16315E-06
C:/temp/dataset/4/3_2.odb,Step-1,Increment      1: Step Time =    1.000,"PART-1-1",            87,            5.,       15.4167,            0.,NA,NA,"",       4.51843,       4.50181,   387.190E-03,   25.1918E-06
C:/temp/dataset/4/3_2.odb,Step-1,Increment      1: Step Time =    1.000,"PART-1-1",            88,            5.,       13.3333,            0.,NA,NA,"",       4.25678,       4.23757,   403.916E-03,   92.4879E-06
C:/temp/dataset/4/3_2.odb,Step-1,Increment      1: Step Time =    1.000,"PART-1-1",            89,            5.,       9.16667,            0.,NA,NA,"",       3.73516,       3.70956,   436.516E-03,   622.709E-06
C:/temp/dataset/4/3_2.odb,Step-1,Increment      1: Step Time =    1.000,"PART-1-1",            90,            5.,       7.08333,            0.,NA,NA,"",       3.47690,       3.44746,   451.497E-03,   2.17179E-03
C:/temp/dataset/4/3_2.odb,Step-1,Increment      1: Step Time =    1.000,"PART-1-1",            91,           2.5,            5.,            0.,NA,NA,"",       3.34030,       3.24416,   795.668E-03,   11.0978E-03
C:/temp/dataset/4/3_2.odb,Step-1,Increment      1: Step Time =    1.000,"PART-1-1",            92,          -2.5,            5.,            0.,NA,NA,"",       3.65353,       3.33831,       1.48455,   10.7645E-03
C:/temp/dataset/4/3_2.odb,Step-1,Increment      1: Step Time =    1.000,"PART-1-1",            93,           -5.,       7.08333,            0.,NA,NA,"",       4.14757,       3.73707,       1.79908,   3.44282E-03
C:/temp/dataset/4/3_2.odb,Step-1,Increment      1: Step Time =    1.000,"PART-1-1",            94,           -5.,       9.16667,            0.,NA,NA,"",       4.43852,       4.06937,       1.77220,   512.730E-06
C:/temp/dataset/4/3_2.odb,Step-1,Increment      1: Step Time =    1.000,"PART-1-1",            95,           -5.,       13.3333,            0.,NA,NA,"",       5.02890,       4.72512,       1.72134,   332.788E-06
C:/temp/dataset/4/3_2.odb,Step-1,Increment      1: Step Time =    1.000,"PART-1-1",            96,           -5.,       15.4167,            0.,NA,NA,"",       5.32835,       5.05116,       1.69621,   217.877E-06
C:/temp/dataset/4/3_2.odb,Step-1,Increment      1: Step Time =    1.000,"PART-1-1",            97,           -5.,       19.5833,            0.,NA,NA,"",       5.93474,       5.70206,       1.64550,   43.9583E-06
C:/temp/dataset/4/3_2.odb,Step-1,Increment      1: Step Time =    1.000,"PART-1-1",            98,           -5.,       21.6667,            0.,NA,NA,"",       6.24129,       6.02737,       1.62000,   12.9027E-06
C:/temp/dataset/4/3_2.odb,Step-1,Increment      1: Step Time =    1.000,"PART-1-1",            99,           -5.,       25.8333,            0.,NA,NA,"",       6.85984,       6.67802,       1.56890,   583.782E-09
C:/temp/dataset/4/3_2.odb,Step-1,Increment      1: Step Time =    1.000,"PART-1-1",           100,           -5.,       27.9167,            0.,NA,NA,"",       7.17139,       7.00335,       1.54333,   435.515E-09
C:/temp/dataset/4/3_2.odb,Step-1,Increment      1: Step Time =    1.000,"PART-1-1",           101,       6.93475,       11.1046,            0.,NA,NA,"",       3.94322,       3.93926,   176.666E-03,   183.774E-06
C:/temp/dataset/4/3_2.odb,Step-1,Increment      1: Step Time =    1.000,"PART-1-1",           102,       7.10183,      -21.7370,            0.,NA,NA,"",   302.424E-03,   266.158E-03,   143.598E-03,   18.5153E-03
C:/temp/dataset/4/3_2.odb,Step-1,Increment      1: Step Time =    1.000,"PART-1-1",           103,      -7.18606,       25.6133,            0.,NA,NA,"",       6.93937,       6.67048,       1.91297,   2.12801E-06
C:/temp/dataset/4/3_2.odb,Step-1,Increment      1: Step Time =    1.000,"PART-1-1",           104,       7.08931,      -17.4629,            0.,NA,NA,"",   594.374E-03,   559.945E-03,   199.352E-03,   15.9196E-03
C:/temp/dataset/4/3_2.odb,Step-1,Increment      1: Step Time =    1.000,"PART-1-1",           105,       7.11844,      -23.8299,            0.,NA,NA,"",   193.262E-03,   158.794E-03,   110.156E-03,   19.6913E-03
C:/temp/dataset/4/3_2.odb,Step-1,Increment      1: Step Time =    1.000,"PART-1-1",           106,       7.34845,      -27.9642,            0.,NA,NA,"",   40.3794E-03,   23.6910E-03,   32.6992E-03,   20.9998E-03
C:/temp/dataset/4/3_2.odb,Step-1,Increment      1: Step Time =    1.000,"PART-1-1",           107,       7.18399,      -25.9216,            0.,NA,NA,"",   105.088E-03,   77.0630E-03,   71.4480E-03,   21.2810E-03
C:/temp/dataset/4/3_2.odb,Step-1,Increment      1: Step Time =    1.000,"PART-1-1",           108,       7.00226,      -10.9532,            0.,NA,NA,"",       1.19887,       1.17056,   258.996E-03,   12.2303E-03
C:/temp/dataset/4/3_2.odb,Step-1,Increment      1: Step Time =    1.000,"PART-1-1",           109,       6.93148,       25.8450,            0.,NA,NA,"",       5.80901,       5.80872,   58.0785E-03,   416.022E-09
C:/temp/dataset/4/3_2.odb,Step-1,Increment      1: Step Time =    1.000,"PART-1-1",           110,       6.95256,       21.7727,            0.,NA,NA,"",       5.29287,       5.29213,   88.2819E-03,   337.722E-09
C:/temp/dataset/4/3_2.odb,Step-1,Increment      1: Step Time =    1.000,"PART-1-1",           111,       6.99069,       19.6693,            0.,NA,NA,"",       5.02608,       5.02508,   100.430E-03,   3.32160E-06
C:/temp/dataset/4/3_2.odb,Step-1,Increment      1: Step Time =    1.000,"PART-1-1",           112,       6.98342,       13.2435,            0.,NA,NA,"",       4.21292,       4.21014,   153.242E-03,   95.2674E-06
C:/temp/dataset/4/3_2.odb,Step-1,Increment      1: Step Time =    1.000,"PART-1-1",           113,       6.84904,       8.98858,            0.,NA,NA,"",       3.67769,       3.67200,   204.610E-03,   243.680E-06
C:/temp/dataset/4/3_2.odb,Step-1,Increment      1: Step Time =    1.000,"PART-1-1",           114,      -7.00061,       11.3966,            0.,NA,NA,"",       4.89961,       4.44612,       2.05868,   394.058E-06
C:/temp/dataset/4/3_2.odb,Step-1,Increment      1: Step Time =    1.000,"PART-1-1",           115,      -6.87185,       17.5946,            0.,NA,NA,"",       5.75910,       5.41451,       1.96223,   88.0620E-06
C:/temp/dataset/4/3_2.odb,Step-1,Increment      1: Step Time =    1.000,"PART-1-1",           116,      -6.78696,       21.5686,            0.,NA,NA,"",       6.32615,       6.03400,       1.90026,   21.9272E-06
C:/temp/dataset/4/3_2.odb,Step-1,Increment      1: Step Time =    1.000,"PART-1-1",           117,      -6.92081,       23.5666,            0.,NA,NA,"",       6.62493,       6.34763,       1.89666,   8.20514E-06
C:/temp/dataset/4/3_2.odb,Step-1,Increment      1: Step Time =    1.000,"PART-1-1",           118,      -7.47694,       27.7553,            0.,NA,NA,"",       7.26998,       7.00854,       1.93212,   348.836E-09
C:/temp/dataset/4/3_2.odb,Step-1,Increment      1: Step Time =    1.000,"PART-1-1",           119,       6.62973,      -6.72562,            0.,NA,NA,"",       1.68041,       1.65077,   314.237E-03,   10.3280E-03
C:/temp/dataset/4/3_2.odb,Step-1,Increment      1: Step Time =    1.000,"PART-1-1",           120,       7.00244,       17.5390,            0.,NA,NA,"",       4.75623,       4.75482,   116.140E-03,   13.7307E-06
C:/temp/dataset/4/3_2.odb,Step-1,Increment      1: Step Time =    1.000,"PART-1-1",           121,       7.05765,      -13.1226,            0.,NA,NA,"",   977.850E-03,   947.764E-03,   240.698E-03,   13.3961E-03
C:/temp/dataset/4/3_2.odb,Step-1,Increment      1: Step Time =    1.000,"PART-1-1",           122,      -6.97858,       13.4860,            0.,NA,NA,"",       5.18706,       4.77361,       2.02935,   45.3743E-06
C:/temp/dataset/4/3_2.odb,Step-1,Increment      1: Step Time =    1.000,"PART-1-1",           123,      -7.06135,       7.11796,            0.,NA,NA,"",       4.32643,       3.76947,       2.12345,   4.42822E-03
C:/temp/dataset/4/3_2.odb,Step-1,Increment      1: Step Time =    1.000,"PART-1-1",           124,       6.87626,      -8.81940,            0.,NA,NA,"",       1.43387,       1.40597,   281.454E-03,   11.3619E-03
C:/temp/dataset/4/3_2.odb,Step-1,Increment      1: Step Time =    1.000,"PART-1-1",           125,       7.08495,      -15.2974,            0.,NA,NA,"",   775.294E-03,   743.095E-03,   221.114E-03,   14.6086E-03
C:/temp/dataset/4/3_2.odb,Step-1,Increment      1: Step Time =    1.000,"PART-1-1",           126,       7.00715,       15.3887,            0.,NA,NA,"",       4.48402,       4.48205,   132.906E-03,   41.6640E-06
C:/temp/dataset/4/3_2.odb,Step-1,Increment      1: Step Time =    1.000,"PART-1-1",           127,      -7.01992,       9.30136,            0.,NA,NA,"",       4.61555,       4.11594,       2.08862,   1.48252E-03
C:/temp/dataset/4/3_2.odb,Step-1,Increment      1: Step Time =    1.000,"PART-1-1",           128,      -6.93369,       15.5639,            0.,NA,NA,"",       5.47516,       5.09807,       1.99678,   105.181E-06
C:/temp/dataset/4/3_2.odb,Step-1,Increment      1: Step Time =    1.000,"PART-1-1",           129,      -6.79206,       19.5889,            0.,NA,NA,"",       6.04002,       5.72494,       1.92532,   49.3786E-06
C:/temp/dataset/4/3_2.odb,Step-1,Increment      1: Step Time =    1.000,"PART-1-1",           130,       7.09662,      -19.6136,            0.,NA,NA,"",   436.113E-03,   400.212E-03,   173.276E-03,   17.2053E-03
C:/temp/dataset/4/3_2.odb,Step-1,Increment      1: Step Time =    1.000,"PART-1-1",           131,       6.89670,       23.8203,            0.,NA,NA,"",       5.55280,       5.55224,   78.8356E-03,   517.714E-09
C:/temp/dataset/4/3_2.odb,Step-1,Increment      1: Step Time =    1.000,"PART-1-1",           132,       6.67676,       6.98748,            0.,NA,NA,"",       3.42976,       3.42120,   242.118E-03,   1.21015E-03
C:/temp/dataset/4/3_2.odb,Step-1,Increment      1: Step Time =    1.000,"PART-1-1",           133,      -13.0361,       12.2042,            0.,NA,NA,"",       5.52841,       4.64990,       2.99029,   1.27729E-03
C:/temp/dataset/4/3_2.odb,Step-1,Increment      1: Step Time =    1.000,"PART-1-1",           134,      -13.0483,       3.72302,            0.,NA,NA,"",       4.53021,       3.31892,       3.08344,   2.65446E-03
C:/temp/dataset/4/3_2.odb,Step-1,Increment      1: Step Time =    1.000,"PART-1-1",           135,      -13.0740,       10.0823,            0.,NA,NA,"",       5.27014,       4.31885,       3.02025,   2.33730E-03
C:/temp/dataset/4/3_2.odb,Step-1,Increment      1: Step Time =    1.000,"PART-1-1",           136,      -13.0017,       14.3509,            0.,NA,NA,"",       5.79580,       4.98332,       2.95936,   215.175E-06
C:/temp/dataset/4/3_2.odb,Step-1,Increment      1: Step Time =    1.000,"PART-1-1",           137,      -12.4480,       21.2307,            0.,NA,NA,"",       6.66222,       6.05058,       2.78848,   30.6426E-06
C:/temp/dataset/4/3_2.odb,Step-1,Increment      1: Step Time =    1.000,"PART-1-1",           138,      -13.0426,       25.7965,            0.,NA,NA,"",       7.33674,       6.77093,       2.82529,   1.58867E-06
C:/temp/dataset/4/3_2.odb,Step-1,Increment      1: Step Time =    1.000,"PART-1-1",           139,      -12.9478,       23.6552,            0.,NA,NA,"",       7.03285,       6.43536,       2.83676,   7.79354E-06
C:/temp/dataset/4/3_2.odb,Step-1,Increment      1: Step Time =    1.000,"PART-1-1",           140,      -12.8307,       18.7376,            0.,NA,NA,"",       6.35531,       5.66589,       2.87883,   78.0722E-06
C:/temp/dataset/4/3_2.odb,Step-1,Increment      1: Step Time =    1.000,"PART-1-1",           141,      -12.9472,       16.5227,            0.,NA,NA,"",       6.07196,       5.32144,       2.92420,   126.211E-06
C:/temp/dataset/4/3_2.odb,Step-1,Increment      1: Step Time =    1.000,"PART-1-1",           142,      -13.1112,       7.97345,            0.,NA,NA,"",       5.01988,       3.98760,       3.04931,   2.79907E-03
C:/temp/dataset/4/3_2.odb,Step-1,Increment      1: Step Time =    1.000,"PART-1-1",           143,      -13.1276,       5.86243,            0.,NA,NA,"",       4.77630,       3.65560,       3.07402,   3.31890E-03
C:/temp/dataset/4/3_2.odb,Step-1,Increment      1: Step Time =    1.000,"PART-1-1",           144,      -12.8109,       1.56310,            0.,NA,NA,"",       4.27900,       2.98169,       3.06910,   1.72441E-03
C:/temp/dataset/4/3_2.odb,Step-1,Increment      1: Step Time =    1.000,"PART-1-1",           145,      -12.5511,  -622.366E-03,            0.,NA,NA,"",       4.03941,       2.64599,       3.05214,   2.06217E-03
C:/temp/dataset/4/3_2.odb,Step-1,Increment      1: Step Time =    1.000,"PART-1-1",           146,      -7.69124,      -3.05836,            0.,NA,NA,"",       3.22455,       2.22499,       2.33391,   2.83207E-03
C:/temp/dataset/4/3_2.odb,Step-1,Increment      1: Step Time =    1.000,"PART-1-1",           147,      -2.59391,      -3.27074,            0.,NA,NA,"",       2.66716,       2.15075,       1.57735,   3.62102E-03
C:/temp/dataset/4/3_2.odb,Step-1,Increment      1: Step Time =    1.000,"PART-1-1",           148,      -2.06699,       2.95135,            0.,NA,NA,"",       3.36010,       3.03691,       1.43788,   7.09473E-03
C:/temp/dataset/4/3_2.odb,Step-1,Increment      1: Step Time =    1.000,"PART-1-1",           149,       1.86882,      -3.06513,            0.,NA,NA,"",       2.34690,       2.14877,   943.776E-03,   4.13296E-03
C:/temp/dataset/4/3_2.odb,Step-1,Increment      1: Step Time =    1.000,"PART-1-1",           150,       2.79073,       3.02834,            0.,NA,NA,"",       3.06988,       2.97233,   767.704E-03,   6.38726E-03
C:/temp/dataset/4/3_2.odb,Step-1,Increment      1: Step Time =    1.000,"PART-1-1",           151,       12.5379,       2.72923,            0.,NA,NA,"",       2.85964,       2.82173,  -464.080E-03,   3.04390E-03
C:/temp/dataset/4/3_2.odb,Step-1,Increment      1: Step Time =    1.000,"PART-1-1",           152,       12.9313,       10.2835,            0.,NA,NA,"",       3.83075,       3.78702,  -577.180E-03,   157.358E-06
C:/temp/dataset/4/3_2.odb,Step-1,Increment      1: Step Time =    1.000,"PART-1-1",           153,       12.7723,       24.8557,            0.,NA,NA,"",       5.67633,       5.63610,  -674.614E-03,   514.801E-09
C:/temp/dataset/4/3_2.odb,Step-1,Increment      1: Step Time =    1.000,"PART-1-1",           154,       12.5268,       27.4001,            0.,NA,NA,"",       5.99761,       5.96074,  -664.019E-03,   306.994E-09
C:/temp/dataset/4/3_2.odb,Step-1,Increment      1: Step Time =    1.000,"PART-1-1",           155,       12.7627,      -5.01238,            0.,NA,NA,"",       1.86551,       1.82174,  -401.732E-03,   8.46224E-03
C:/temp/dataset/4/3_2.odb,Step-1,Increment      1: Step Time =    1.000,"PART-1-1",           156,       13.0118,      -12.5921,            0.,NA,NA,"",       1.02289,   973.952E-03,  -312.593E-03,   13.1456E-03
C:/temp/dataset/4/3_2.odb,Step-1,Increment      1: Step Time =    1.000,"PART-1-1",           157,       9.69976,      -27.8547,            0.,NA,NA,"",   14.2347E-03,   13.6720E-03,   3.96293E-03,   5.54889E-03
C:/temp/dataset/4/3_2.odb,Step-1,Increment      1: Step Time =    1.000,"PART-1-1",           158,       13.0855,      -17.4497,            0.,NA,NA,"",   593.915E-03,   544.840E-03,  -236.399E-03,   16.4394E-03
C:/temp/dataset/4/3_2.odb,Step-1,Increment      1: Step Time =    1.000,"PART-1-1",           159,       12.9366,       22.3763,            0.,NA,NA,"",       5.36307,       5.32037,  -675.431E-03,   396.951E-09
C:/temp/dataset/4/3_2.odb,Step-1,Increment      1: Step Time =    1.000,"PART-1-1",           160,       13.0248,       17.5365,            0.,NA,NA,"",       4.75029,       4.70595,  -647.548E-03,   13.3030E-06
C:/temp/dataset/4/3_2.odb,Step-1,Increment      1: Step Time =    1.000,"PART-1-1",           161,      -10.1545,       27.3700,            0.,NA,NA,"",       7.36773,       6.98122,       2.35498,   1.01017E-06
C:/temp/dataset/4/3_2.odb,Step-1,Increment      1: Step Time =    1.000,"PART-1-1",           162,      -10.0546,      -2.87755,            0.,NA,NA,"",       3.52676,       2.27665,       2.69349,   2.35171E-03
C:/temp/dataset/4/3_2.odb,Step-1,Increment      1: Step Time =    1.000,"PART-1-1",           163,      -5.07747,      -2.66322,            0.,NA,NA,"",       2.97449,       2.25900,       1.93507,   2.87269E-03
C:/temp/dataset/4/3_2.odb,Step-1,Increment      1: Step Time =    1.000,"PART-1-1",           164,  -330.659E-03,      -3.26262,            0.,NA,NA,"",       2.47685,       2.13636,       1.25331,   3.93752E-03
C:/temp/dataset/4/3_2.odb,Step-1,Increment      1: Step Time =    1.000,"PART-1-1",           165,       3.93161,      -2.75002,            0.,NA,NA,"",       2.27392,       2.17689,   657.163E-03,   2.72776E-03
C:/temp/dataset/4/3_2.odb,Step-1,Increment      1: Step Time =    1.000,"PART-1-1",           166,       12.9585,      -10.1304,            0.,NA,NA,"",       1.27584,       1.22778,  -346.891E-03,   11.5221E-03
C:/temp/dataset/4/3_2.odb,Step-1,Increment      1: Step Time =    1.000,"PART-1-1",           167,       13.1106,      -19.8561,            0.,NA,NA,"",   420.338E-03,   372.351E-03,  -195.036E-03,   18.0922E-03
C:/temp/dataset/4/3_2.odb,Step-1,Increment      1: Step Time =    1.000,"PART-1-1",           168,       12.2637,      -27.1930,            0.,NA,NA,"",   51.6011E-03,   34.8024E-03,  -38.0981E-03,   17.5980E-03
C:/temp/dataset/4/3_2.odb,Step-1,Increment      1: Step Time =    1.000,"PART-1-1",           169,       13.0974,      -22.2394,            0.,NA,NA,"",   275.425E-03,   230.777E-03,  -150.335E-03,   19.4509E-03
C:/temp/dataset/4/3_2.odb,Step-1,Increment      1: Step Time =    1.000,"PART-1-1",           170,       13.0625,      -15.0302,            0.,NA,NA,"",   795.479E-03,   745.904E-03,  -276.430E-03,   14.8418E-03
C:/temp/dataset/4/3_2.odb,Step-1,Increment      1: Step Time =    1.000,"PART-1-1",           171,       12.8638,      -7.61343,            0.,NA,NA,"",       1.55554,       1.50955,  -375.471E-03,   9.91362E-03
C:/temp/dataset/4/3_2.odb,Step-1,Increment      1: Step Time =    1.000,"PART-1-1",           172,       12.8109,      -2.41519,            0.,NA,NA,"",       2.19459,       2.14955,  -442.344E-03,   6.96756E-03
C:/temp/dataset/4/3_2.odb,Step-1,Increment      1: Step Time =    1.000,"PART-1-1",           173,       12.7001,   168.481E-03,            0.,NA,NA,"",       2.52794,       2.48592,  -458.986E-03,   5.08287E-03
C:/temp/dataset/4/3_2.odb,Step-1,Increment      1: Step Time =    1.000,"PART-1-1",           174,       12.6773,       5.28127,            0.,NA,NA,"",       3.19111,       3.15105,  -504.041E-03,   1.06693E-03
C:/temp/dataset/4/3_2.odb,Step-1,Increment      1: Step Time =    1.000,"PART-1-1",           175,       12.8405,       7.80961,            0.,NA,NA,"",       3.51587,       3.47327,  -545.623E-03,   110.976E-06
C:/temp/dataset/4/3_2.odb,Step-1,Increment      1: Step Time =    1.000,"PART-1-1",           176,       12.9955,       12.7023,            0.,NA,NA,"",       4.13773,       4.09328,  -604.835E-03,   105.225E-06
C:/temp/dataset/4/3_2.odb,Step-1,Increment      1: Step Time =    1.000,"PART-1-1",           177,       13.0102,       19.9477,            0.,NA,NA,"",       5.05575,       5.01180,  -665.151E-03,   2.49488E-06
C:/temp/dataset/4/3_2.odb,Step-1,Increment      1: Step Time =    1.000,"PART-1-1",           178,       9.88408,       27.1269,            0.,NA,NA,"",       5.95640,       5.94744,  -326.690E-03,   263.273E-09
C:/temp/dataset/4/3_2.odb,Step-1,Increment      1: Step Time =    1.000,"PART-1-1",           179,       13.0301,       15.1161,            0.,NA,NA,"",       4.44373,       4.39903,  -628.688E-03,   44.5148E-06
C:/temp/dataset/4/3_2.odb,Step-1,Increment      1: Step Time =    1.000,"PART-1-1",           180,   300.490E-03,       3.00528,            0.,NA,NA,"",       3.20429,       3.00720,       1.10644,   7.06589E-03
C:/temp/dataset/4/3_2.odb,Step-1,Increment      1: Step Time =    1.000,"PART-1-1",           181,      -4.18418,       2.89078,            0.,NA,NA,"",       3.52169,       3.06111,       1.74123,   4.45672E-03
C:/temp/dataset/4/3_2.odb,Step-1,Increment      1: Step Time =    1.000,"PART-1-1",           182,      -8.75093,       23.2164,            0.,NA,NA,"",       6.68325,       6.31538,       2.18676,   13.1700E-06
C:/temp/dataset/4/3_2.odb,Step-1,Increment      1: Step Time =    1.000,"PART-1-1",           183,       9.13120,      -23.8882,            0.,NA,NA,"",   146.111E-03,   142.491E-03,   32.3232E-03,   7.84078E-03
C:/temp/dataset/4/3_2.odb,Step-1,Increment      1: Step Time =    1.000,"PART-1-1",           184,       8.76025,       8.63504,            0.,NA,NA,"",       3.61205,       3.61188,  -34.2679E-03,   220.652E-06
C:/temp/dataset/4/3_2.odb,Step-1,Increment      1: Step Time =    1.000,"PART-1-1",           185,       8.81891,       23.9948,            0.,NA,NA,"",       5.56134,       5.55885,  -166.331E-03,   481.862E-09
C:/temp/dataset/4/3_2.odb,Step-1,Increment      1: Step Time =    1.000,"PART-1-1",           186,       9.00734,       17.5557,            0.,NA,NA,"",       4.74279,       4.74078,  -138.226E-03,   17.4423E-06
C:/temp/dataset/4/3_2.odb,Step-1,Increment      1: Step Time =    1.000,"PART-1-1",           187,      -8.59230,       19.6811,            0.,NA,NA,"",       6.16909,       5.76141,       2.20541,   55.5982E-06
C:/temp/dataset/4/3_2.odb,Step-1,Increment      1: Step Time =    1.000,"PART-1-1",           188,       9.06266,      -12.9142,            0.,NA,NA,"",   953.640E-03,   951.906E-03,   57.4750E-03,   6.19024E-03
C:/temp/dataset/4/3_2.odb,Step-1,Increment      1: Step Time =    1.000,"PART-1-1",           189,       9.13987,      -19.6571,            0.,NA,NA,"",   385.647E-03,   382.789E-03,   46.8612E-03,   6.93068E-03
C:/temp/dataset/4/3_2.odb,Step-1,Increment      1: Step Time =    1.000,"PART-1-1",           190,       9.00941,       15.3265,            0.,NA,NA,"",       4.45968,       4.45805,  -120.445E-03,   50.0224E-06
C:/temp/dataset/4/3_2.odb,Step-1,Increment      1: Step Time =    1.000,"PART-1-1",           191,      -8.96967,       13.7142,            0.,NA,NA,"",       5.36965,       4.83396,       2.33795,   176.125E-06
C:/temp/dataset/4/3_2.odb,Step-1,Increment      1: Step Time =    1.000,"PART-1-1",           192,       9.12973,      -17.4386,            0.,NA,NA,"",   549.233E-03,   546.808E-03,   51.5504E-03,   6.63703E-03
C:/temp/dataset/4/3_2.odb,Step-1,Increment      1: Step Time =    1.000,"PART-1-1",           193,       8.94484,       21.9321,            0.,NA,NA,"",       5.29885,       5.29626,  -165.648E-03,   834.446E-09
C:/temp/dataset/4/3_2.odb,Step-1,Increment      1: Step Time =    1.000,"PART-1-1",           194,      -8.78258,       17.8115,            0.,NA,NA,"",       5.91945,       5.47181,       2.25815,   94.6819E-06
C:/temp/dataset/4/3_2.odb,Step-1,Increment      1: Step Time =    1.000,"PART-1-1",           195,       8.90333,       10.8666,            0.,NA,NA,"",       3.89402,       3.89338,  -70.6577E-03,   188.508E-06
C:/temp/dataset/4/3_2.odb,Step-1,Increment      1: Step Time =    1.000,"PART-1-1",           196,      -9.00437,       11.6266,            0.,NA,NA,"",       5.09195,       4.50725,       2.36909,   739.935E-06
C:/temp/dataset/4/3_2.odb,Step-1,Increment      1: Step Time =    1.000,"PART-1-1",           197,      -9.03622,       9.53759,            0.,NA,NA,"",       4.81872,       4.17859,       2.39989,   1.73353E-03
C:/temp/dataset/4/3_2.odb,Step-1,Increment      1: Step Time =    1.000,"PART-1-1",           198,       8.99264,      -10.6281,            0.,NA,NA,"",       1.18972,       1.18818,   60.4490E-03,   5.94094E-03
C:/temp/dataset/4/3_2.odb,Step-1,Increment      1: Step Time =    1.000,"PART-1-1",           199,       8.82192,      -8.34759,            0.,NA,NA,"",       1.44410,       1.44230,   72.0518E-03,   5.58957E-03
C:/temp/dataset/4/3_2.odb,Step-1,Increment      1: Step Time =    1.000,"PART-1-1",           200,       8.98411,       13.0928,            0.,NA,NA,"",       4.17617,       4.17499,  -99.0826E-03,   112.745E-06
C:/temp/dataset/4/3_2.odb,Step-1,Increment      1: Step Time =    1.000,"PART-1-1",           201,       7.30685,       27.8134,            0.,NA,NA,"",       6.05529,       6.05529,  -5.41165E-03,   266.857E-09
C:/temp/dataset/4/3_2.odb,Step-1,Increment      1: Step Time =    1.000,"PART-1-1",           202,      -8.46063,       21.4565,            0.,NA,NA,"",       6.41282,       6.03701,       2.16303,   27.8074E-06
C:/temp/dataset/4/3_2.odb,Step-1,Increment      1: Step Time =    1.000,"PART-1-1",           203,       9.11250,      -15.1896,            0.,NA,NA,"",   739.023E-03,   737.026E-03,   54.3002E-03,   6.37419E-03
C:/temp/dataset/4/3_2.odb,Step-1,Increment      1: Step Time =    1.000,"PART-1-1",           204,       9.14200,      -21.8221,            0.,NA,NA,"",   250.560E-03,   247.298E-03,   40.3008E-03,   7.31556E-03
C:/temp/dataset/4/3_2.odb,Step-1,Increment      1: Step Time =    1.000,"PART-1-1",           205,      -8.90436,       15.8055,            0.,NA,NA,"",       5.65020,       5.16004,       2.30192,   107.831E-06
C:/temp/dataset/4/3_2.odb,Step-1,Increment      1: Step Time =    1.000,"PART-1-1",           206,       9.00445,       19.7587,            0.,NA,NA,"",       5.02258,       5.02016,  -155.658E-03,   4.69179E-06
C:/temp/dataset/4/3_2.odb,Step-1,Increment      1: Step Time =    1.000,"PART-1-1",           207,       8.39742,      -6.16188,            0.,NA,NA,"",       1.70631,       1.70271,   110.739E-03,   5.23425E-03
C:/temp/dataset/4/3_2.odb,Step-1,Increment      1: Step Time =    1.000,"PART-1-1",           208,      -9.10294,       7.45394,            0.,NA,NA,"",       4.55523,       3.84931,       2.43576,   3.37323E-03
C:/temp/dataset/4/3_2.odb,Step-1,Increment      1: Step Time =    1.000,"PART-1-1",           209,       8.43260,       6.43235,            0.,NA,NA,"",       3.33617,       3.33608,   24.4227E-03,   1.39684E-03
C:/temp/dataset/4/3_2.odb,Step-1,Increment      1: Step Time =    1.000,"PART-1-1",           210,       5.64784,       2.93298,            0.,NA,NA,"",       2.94705,       2.92027,   396.410E-03,   6.24433E-03
C:/temp/dataset/4/3_2.odb,Step-1,Increment      1: Step Time =    1.000,"PART-1-1",           211,      -10.7213,       1.88644,            0.,NA,NA,"",       4.06807,       3.00357,       2.74368,   2.28062E-03
C:/temp/dataset/4/3_2.odb,Step-1,Increment      1: Step Time =    1.000,"PART-1-1",           212,      -12.7178,       27.8380,            0.,NA,NA,"",       7.60051,       7.08574,       2.74953,   303.208E-09
C:/temp/dataset/4/3_2.odb,Step-1,Increment      1: Step Time =    1.000,"PART-1-1",           213,      -11.0298,       24.2524,            0.,NA,NA,"",       6.97975,       6.50511,       2.52991,   8.15763E-06
C:/temp/dataset/4/3_2.odb,Step-1,Increment      1: Step Time =    1.000,"PART-1-1",           214,      -10.4500,       20.0822,            0.,NA,NA,"",       6.35514,       5.84677,       2.49061,   51.8327E-06
C:/temp/dataset/4/3_2.odb,Step-1,Increment      1: Step Time =    1.000,"PART-1-1",           215,      -10.9919,       14.0243,            0.,NA,NA,"",       5.57729,       4.90756,       2.64991,   224.296E-06
C:/temp/dataset/4/3_2.odb,Step-1,Increment      1: Step Time =    1.000,"PART-1-1",           216,      -11.0796,       9.82104,            0.,NA,NA,"",       5.04275,       4.25034,       2.71365,   2.05098E-03
C:/temp/dataset/4/3_2.odb,Step-1,Increment      1: Step Time =    1.000,"PART-1-1",           217,      -11.0365,       11.9204,            0.,NA,NA,"",       5.30708,       4.57934,       2.68228,   945.520E-06
C:/temp/dataset/4/3_2.odb,Step-1,Increment      1: Step Time =    1.000,"PART-1-1",           218,      -10.5491,       22.5446,            0.,NA,NA,"",       6.70625,       6.23251,       2.47581,   19.6805E-06
C:/temp/dataset/4/3_2.odb,Step-1,Increment      1: Step Time =    1.000,"PART-1-1",           219,      -10.9277,       16.1478,            0.,NA,NA,"",       5.85414,       5.23826,       2.61373,   133.779E-06
C:/temp/dataset/4/3_2.odb,Step-1,Increment      1: Step Time =    1.000,"PART-1-1",           220,      -10.7891,       18.2216,            0.,NA,NA,"",       6.12409,       5.56036,       2.56649,   92.2093E-06
C:/temp/dataset/4/3_2.odb,Step-1,Increment      1: Step Time =    1.000,"PART-1-1",           221,      -11.1555,       7.76515,            0.,NA,NA,"",       4.79355,       3.92707,       2.74885,   3.01433E-03
C:/temp/dataset/4/3_2.odb,Step-1,Increment      1: Step Time =    1.000,"PART-1-1",           222,      -9.80329,       4.04682,            0.,NA,NA,"",       4.20741,       3.32319,       2.58045,   3.40969E-03
C:/temp/dataset/4/3_2.odb,Step-1,Increment      1: Step Time =    1.000,"PART-1-1",           223,       9.22674,      -25.9093,            0.,NA,NA,"",   66.9164E-03,   63.9844E-03,   19.5908E-03,   7.58156E-03
C:/temp/dataset/4/3_2.odb,Step-1,Increment      1: Step Time =    1.000,"PART-1-1",           224,      -9.21421,       25.1107,            0.,NA,NA,"",       6.98442,       6.61688,       2.23586,   4.65370E-06
C:/temp/dataset/4/3_2.odb,Step-1,Increment      1: Step Time =    1.000,"PART-1-1",           225,       6.25241,      -4.60112,            0.,NA,NA,"",       1.94546,       1.91202,   359.160E-03,   6.97370E-03
C:/temp/dataset/4/3_2.odb,Step-1,Increment      1: Step Time =    1.000,"PART-1-1",           226,      -7.19550,       4.55405,            0.,NA,NA,"",       4.00478,       3.36225,       2.17566,   5.89254E-03
C:/temp/dataset/4/3_2.odb,Step-1,Increment      1: Step Time =    1.000,"PART-1-1",           227,       12.9551,      -24.6090,            0.,NA,NA,"",   156.169E-03,   120.314E-03,  -99.5656E-03,   20.6855E-03
C:/temp/dataset/4/3_2.odb,Step-1,Increment      1: Step Time =    1.000,"PART-1-1",           228,       10.9241,       22.1645,            0.,NA,NA,"",       5.32623,       5.30976,  -418.518E-03,   715.774E-09
C:/temp/dataset/4/3_2.odb,Step-1,Increment      1: Step Time =    1.000,"PART-1-1",           229,      -4.91288,   464.762E-03,            0.,NA,NA,"",       3.29877,       2.71451,       1.87439,   1.96275E-03
C:/temp/dataset/4/3_2.odb,Step-1,Increment      1: Step Time =    1.000,"PART-1-1",           230,  -831.143E-03,      -1.35374,            0.,NA,NA,"",       2.73908,       2.40943,       1.30278,   891.162E-06
C:/temp/dataset/4/3_2.odb,Step-1,Increment      1: Step Time =    1.000,"PART-1-1",           231,       11.1616,      -19.7398,            0.,NA,NA,"",   381.122E-03,   373.458E-03,  -76.0459E-03,   7.80280E-03
C:/temp/dataset/4/3_2.odb,Step-1,Increment      1: Step Time =    1.000,"PART-1-1",           232,       10.9730,      -10.3410,            0.,NA,NA,"",       1.21708,       1.20896,  -140.308E-03,   5.83420E-03
C:/temp/dataset/4/3_2.odb,Step-1,Increment      1: Step Time =    1.000,"PART-1-1",           233,       10.4844,      -5.04269,            0.,NA,NA,"",       1.83320,       1.82811,  -136.549E-03,   6.87311E-03
C:/temp/dataset/4/3_2.odb,Step-1,Increment      1: Step Time =    1.000,"PART-1-1",           234,       10.9074,       10.5689,            0.,NA,NA,"",       3.85309,       3.83957,  -322.398E-03,   180.303E-06
C:/temp/dataset/4/3_2.odb,Step-1,Increment      1: Step Time =    1.000,"PART-1-1",           235,       11.0515,      -12.7377,            0.,NA,NA,"",   969.082E-03,   960.805E-03,  -126.390E-03,   6.25546E-03
C:/temp/dataset/4/3_2.odb,Step-1,Increment      1: Step Time =    1.000,"PART-1-1",           236,       10.9936,       12.8990,            0.,NA,NA,"",       4.14933,       4.13434,  -352.353E-03,   113.894E-06
C:/temp/dataset/4/3_2.odb,Step-1,Increment      1: Step Time =    1.000,"PART-1-1",           237,      -9.84553,  -403.770E-03,            0.,NA,NA,"",       3.73279,       2.64569,       2.63325,   2.63443E-03
C:/temp/dataset/4/3_2.odb,Step-1,Increment      1: Step Time =    1.000,"PART-1-1",           238,      -6.42098,  -599.403E-03,            0.,NA,NA,"",       3.33116,       2.57570,       2.11244,   2.47324E-03
C:/temp/dataset/4/3_2.odb,Step-1,Increment      1: Step Time =    1.000,"PART-1-1",           239,      -2.35214,      -1.85066,            0.,NA,NA,"",       2.80390,       2.35246,       1.52570,   1.80270E-03
C:/temp/dataset/4/3_2.odb,Step-1,Increment      1: Step Time =    1.000,"PART-1-1",           240,       11.1625,      -21.9830,            0.,NA,NA,"",   242.978E-03,   235.858E-03,  -58.3896E-03,   8.29027E-03
C:/temp/dataset/4/3_2.odb,Step-1,Increment      1: Step Time =    1.000,"PART-1-1",           241,       11.1073,      -15.0998,            0.,NA,NA,"",   746.471E-03,   738.219E-03,  -110.692E-03,   6.78045E-03
C:/temp/dataset/4/3_2.odb,Step-1,Increment      1: Step Time =    1.000,"PART-1-1",           242,       11.1457,      -17.4375,            0.,NA,NA,"",   549.763E-03,   541.689E-03,  -93.8772E-03,   7.32886E-03
C:/temp/dataset/4/3_2.odb,Step-1,Increment      1: Step Time =    1.000,"PART-1-1",           243,       10.8340,      -7.85693,            0.,NA,NA,"",       1.49512,       1.48770,  -148.818E-03,   5.89636E-03
C:/temp/dataset/4/3_2.odb,Step-1,Increment      1: Step Time =    1.000,"PART-1-1",           244,       10.5842,   120.255E-03,            0.,NA,NA,"",       2.50324,       2.49545,  -197.435E-03,   6.31984E-03
C:/temp/dataset/4/3_2.odb,Step-1,Increment      1: Step Time =    1.000,"PART-1-1",           245,       10.8633,      -2.34188,            0.,NA,NA,"",       2.18045,       2.17050,  -208.070E-03,   7.26230E-03
C:/temp/dataset/4/3_2.odb,Step-1,Increment      1: Step Time =    1.000,"PART-1-1",           246,       9.78574,       2.89226,            0.,NA,NA,"",       2.86993,       2.86738,  -120.914E-03,   4.54405E-03
C:/temp/dataset/4/3_2.odb,Step-1,Increment      1: Step Time =    1.000,"PART-1-1",           247,       10.7685,       8.18214,            0.,NA,NA,"",       3.54927,       3.53778,  -285.296E-03,   255.819E-06
C:/temp/dataset/4/3_2.odb,Step-1,Increment      1: Step Time =    1.000,"PART-1-1",           248,       10.4587,       5.69287,            0.,NA,NA,"",       3.23100,       3.22307,  -226.273E-03,   1.45949E-03
C:/temp/dataset/4/3_2.odb,Step-1,Increment      1: Step Time =    1.000,"PART-1-1",           249,       11.0104,       19.8565,            0.,NA,NA,"",       5.03318,       5.01639,  -410.829E-03,   4.26269E-06
C:/temp/dataset/4/3_2.odb,Step-1,Increment      1: Step Time =    1.000,"PART-1-1",           250,       11.0363,       17.5467,            0.,NA,NA,"",       4.73980,       4.72328,  -395.444E-03,   17.3399E-06
C:/temp/dataset/4/3_2.odb,Step-1,Increment      1: Step Time =    1.000,"PART-1-1",           251,       11.0403,       15.2208,            0.,NA,NA,"",       4.44437,       4.42834,  -377.141E-03,   50.8446E-06
C:/temp/dataset/4/3_2.odb,Step-1,Increment      1: Step Time =    1.000,"PART-1-1",           252,       1.19009,      -1.06873,            0.,NA,NA,"",       2.63453,       2.43034,       1.01696,   374.960E-06
C:/temp/dataset/4/3_2.odb,Step-1,Increment      1: Step Time =    1.000,"PART-1-1",           253,       10.6932,       24.5073,            0.,NA,NA,"",       5.62354,       5.60871,  -408.148E-03,   491.265E-09
C:/temp/dataset/4/3_2.odb,Step-1,Increment      1: Step Time =    1.000,"PART-1-1",           254,       8.51128,       25.6419,            0.,NA,NA,"",       5.77192,       5.77021,  -140.617E-03,   403.788E-09
C:/temp/dataset/4/3_2.odb,Step-1,Increment      1: Step Time =    1.000,"PART-1-1",           255,      -9.32324,       5.48290,            0.,NA,NA,"",       4.32949,       3.54049,       2.49188,   3.86743E-03
C:/temp/dataset/4/3_2.odb,Step-1,Increment      1: Step Time =    1.000,"PART-1-1",           256,      -11.4569,       25.7537,            0.,NA,NA,"",       7.22076,       6.74480,       2.57820,   2.65890E-06
C:/temp/dataset/4/3_2.odb,Step-1,Increment      1: Step Time =    1.000,"PART-1-1",           257,      -8.85145,       2.84717,            0.,NA,NA,"",       3.96786,       3.12397,       2.44637,   3.36806E-03
C:/temp/dataset/4/3_2.odb,Step-1,Increment      1: Step Time =    1.000,"PART-1-1",           258,       11.0896,      -24.0706,            0.,NA,NA,"",   138.400E-03,   132.637E-03,  -39.5226E-03,   8.31984E-03
C:/temp/dataset/4/3_2.odb,Step-1,Increment      1: Step Time =    1.000,"PART-1-1",           259,       5.69240,      -2.12345,            0.,NA,NA,"",       2.28252,       2.24346,   420.467E-03,   5.99071E-03
C:/temp/dataset/4/3_2.odb,Step-1,Increment      1: Step Time =    1.000,"PART-1-1",           260,       7.72467,       1.38687,            0.,NA,NA,"",       2.69460,       2.69069,   145.214E-03,   6.54651E-03
C:/temp/dataset/4/3_2.odb,Step-1,Increment      1: Step Time =    1.000,"PART-1-1",           261,       8.83369,  -368.727E-03,            0.,NA,NA,"",       2.44617,       2.44609,   20.3297E-03,   7.10557E-03
C:/temp/dataset/4/3_2.odb,Step-1,Increment      1: Step Time =    1.000,"PART-1-1",           262,       7.58912,       4.39900,            0.,NA,NA,"",       3.08976,       3.08639,   144.349E-03,   4.65139E-03
C:/temp/dataset/4/3_2.odb,Step-1,Increment      1: Step Time =    1.000,"PART-1-1",           263,      -6.02595,       2.23751,            0.,NA,NA,"",       3.60966,       2.99035,       2.02175,   3.87640E-03
C:/temp/dataset/4/3_2.odb,Step-1,Increment      1: Step Time =    1.000,"PART-1-1",           264,       4.92391,   813.983E-03,            0.,NA,NA,"",       2.69339,       2.64616,   502.170E-03,   5.02519E-03
C:/temp/dataset/4/3_2.odb,Step-1,Increment      1: Step Time =    1.000,"PART-1-1",           265,      -7.77287,       1.11371,            0.,NA,NA,"",       3.65901,       2.84660,       2.29896,   3.00569E-03
C:/temp/dataset/4/3_2.odb,Step-1,Increment      1: Step Time =    1.000,"PART-1-1",           266,      -3.71710,       1.36231,            0.,NA,NA,"",       3.29635,       2.83089,       1.68877,   2.86200E-03
C:/temp/dataset/4/3_2.odb,Step-1,Increment      1: Step Time =    1.000,"PART-1-1",           267,       2.85817,       1.10052,            0.,NA,NA,"",       2.81731,       2.70952,   771.821E-03,   3.66879E-03
C:/temp/dataset/4/3_2.odb,Step-1,Increment      1: Step Time =    1.000,"PART-1-1",           268,       7.51165,      -2.37377,            0.,NA,NA,"",       2.20086,       2.19223,   194.722E-03,   7.40255E-03
C:/temp/dataset/4/3_2.odb,Step-1,Increment      1: Step Time =    1.000,"PART-1-1",           269,      -1.84913,   666.939E-03,            0.,NA,NA,"",       3.06012,       2.70715,       1.42677,   2.05627E-03
C:/temp/dataset/4/3_2.odb,Step-1,Increment      1: Step Time =    1.000,"PART-1-1",           270,   621.955E-03,   989.730E-03,            0.,NA,NA,"",       2.92749,       2.72210,       1.07721,   3.11626E-03
C:/temp/dataset/4/3_2.odb,Step-1,Increment      1: Step Time =    1.000,"PART-1-1",           271,       7.77182,      -4.29185,            0.,NA,NA,"",       1.94782,       1.93999,   174.366E-03,   6.79515E-03
C:/temp/dataset/4/3_2.odb,Step-1,Increment      1: Step Time =    1.000,"PART-1-1",           272,       6.40836,       5.42027,            0.,NA,NA,"",       3.24162,       3.22887,   287.223E-03,   3.78356E-03
C:/temp/dataset/4/3_2.odb,Step-1,Increment      1: Step Time =    1.000,"PART-1-1",           273,      -12.5139,      -2.82358,            0.,NA,NA,"",       3.84422,       2.31259,       3.07082,   1.51338E-03
C:/temp/dataset/4/3_2.odb,Step-1,Increment      1: Step Time =    1.000,"PART-1-1",           274,       10.8188,      -25.6946,            0.,NA,NA,"",   73.0147E-03,   69.9897E-03,  -20.7987E-03,   7.05410E-03
C:/temp/dataset/4/3_2.odb,Step-1,Increment      1: Step Time =    1.000,"PART-1-1",           275,       6.49302,  -163.532E-03,            0.,NA,NA,"",       2.51624,       2.49728,   308.331E-03,   6.36947E-03
C:/temp/dataset/4/3_2.odb,Step-1,Increment      1: Step Time =    1.000,"PART-1-1",           276,       7.60941,  -936.337E-03,            0.,NA,NA,"",       2.38860,       2.38225,   174.073E-03,   7.14604E-03
C:/temp/dataset/4/3_2.odb,Step-1,Increment      1: Step Time =    1.000,"PART-1-1",           277,       9.17282,      -2.25688,            0.,NA,NA,"",       2.19364,       2.19363,  -6.55135E-03,   7.48604E-03
C:/temp/dataset/4/3_2.odb,Step-1,Increment      1: Step Time =    1.000,"PART-1-1",           278,       9.10690,      -3.89703,            0.,NA,NA,"",       1.98118,       1.98113,   13.9877E-03,   7.05566E-03
C:/temp/dataset/4/3_2.odb,Step-1,Increment      1: Step Time =    1.000,"PART-1-1",           279,      -7.91199,      -1.40732,            0.,NA,NA,"",       3.41013,       2.47292,       2.34810,   2.66830E-03
C:/temp/dataset/4/3_2.odb,Step-1,Increment      1: Step Time =    1.000,"PART-1-1",           280,      -9.83927,       21.3699,            0.,NA,NA,"",       6.49212,       6.04037,       2.37940,   31.4954E-06
C:/temp/dataset/4/3_2.odb,Step-1,Increment      1: Step Time =    1.000,"PART-1-1",           281,      -11.2653,       5.77953,            0.,NA,NA,"",       4.56519,       3.61552,       2.78729,   3.41844E-03
C:/temp/dataset/4/3_2.odb,Step-1,Increment      1: Step Time =    1.000,"PART-1-1",           282,      -11.2487,       3.84080,            0.,NA,NA,"",       4.34007,       3.31201,       2.80478,   2.80365E-03
C:/temp/dataset/4/3_2.odb,Step-1,Increment      1: Step Time =    1.000,"PART-1-1",           283,       3.11059,  -868.354E-03,            0.,NA,NA,"",       2.55255,       2.43902,   752.807E-03,   1.81931E-03
C:/temp/dataset/4/3_2.odb,Step-1,Increment      1: Step Time =    1.000,"PART-1-1",           284,       4.50766,  -682.768E-03,            0.,NA,NA,"",       2.51378,       2.44928,   565.779E-03,   3.59275E-03
C:/temp/dataset/4/3_2.odb,Step-1,Increment      1: Step Time =    1.000,"PART-1-1",           285,      -3.56662,  -854.847E-03,            0.,NA,NA,"",       3.02435,       2.50752,       1.69087,   1.28440E-03
C:/temp/dataset/4/3_2.odb,Step-1,Increment      1: Step Time =    1.000,"PART-1-1",           286,      -7.33150,       26.6843,            0.,NA,NA,"",       7.10458,       6.83951,       1.92254,   1.08753E-06
C:/temp/dataset/4/3_2.odb,Step-1,Increment      1: Step Time =    1.000,"PART-1-1",           287,      -6.09303,       25.7233,            0.,NA,NA,"",       6.89757,       6.67425,       1.74093,   887.984E-09
C:/temp/dataset/4/3_2.odb,Step-1,Increment      1: Step Time =    1.000,"PART-1-1",           288,           -5.,        26.875,            0.,NA,NA,"",       7.01545,       6.84069,       1.55612,   462.971E-09
C:/temp/dataset/4/3_2.odb,Step-1,Increment      1: Step Time =    1.000,"PART-1-1",           289,      -6.23847,       27.8360,            0.,NA,NA,"",       7.21824,       7.00594,       1.73773,   319.931E-09
C:/temp/dataset/4/3_2.odb,Step-1,Increment      1: Step Time =    1.000,"PART-1-1",           290,      -8.20013,       25.3620,            0.,NA,NA,"",       6.96001,       6.64368,       2.07441,   3.19737E-06
C:/temp/dataset/4/3_2.odb,Step-1,Increment      1: Step Time =    1.000,"PART-1-1",           291,      -8.98257,       24.1636,            0.,NA,NA,"",       6.83379,       6.46613,       2.21131,   8.89837E-06
C:/temp/dataset/4/3_2.odb,Step-1,Increment      1: Step Time =    1.000,"PART-1-1",           292,      -7.83587,       23.3915,            0.,NA,NA,"",       6.65255,       6.33150,       2.04171,   9.70992E-06
C:/temp/dataset/4/3_2.odb,Step-1,Increment      1: Step Time =    1.000,"PART-1-1",           293,      -7.05344,       24.5900,            0.,NA,NA,"",       6.78204,       6.50905,       1.90481,   5.14498E-06
C:/temp/dataset/4/3_2.odb,Step-1,Increment      1: Step Time =    1.000,"PART-1-1",           294,      -6.78951,       20.5788,            0.,NA,NA,"",       6.18279,       5.87947,       1.91279,   35.3076E-06
C:/temp/dataset/4/3_2.odb,Step-1,Increment      1: Step Time =    1.000,"PART-1-1",           295,      -5.89603,       19.5861,            0.,NA,NA,"",       5.98597,       5.71350,       1.78540,   38.4327E-06
C:/temp/dataset/4/3_2.odb,Step-1,Increment      1: Step Time =    1.000,"PART-1-1",           296,           -5.,        20.625,            0.,NA,NA,"",       6.08776,       5.86472,       1.63276,   28.4476E-06
C:/temp/dataset/4/3_2.odb,Step-1,Increment      1: Step Time =    1.000,"PART-1-1",           297,      -5.89348,       21.6177,            0.,NA,NA,"",       6.28229,       6.03069,       1.76012,   14.4153E-06
C:/temp/dataset/4/3_2.odb,Step-1,Increment      1: Step Time =    1.000,"PART-1-1",           298,      -7.97413,       13.6001,            0.,NA,NA,"",       5.27683,       4.80379,       2.18370,   109.946E-06
C:/temp/dataset/4/3_2.odb,Step-1,Increment      1: Step Time =    1.000,"PART-1-1",           299,      -8.98702,       12.6704,            0.,NA,NA,"",       5.23021,       4.67077,       2.35351,   444.073E-06
C:/temp/dataset/4/3_2.odb,Step-1,Increment      1: Step Time =    1.000,"PART-1-1",           300,      -8.00249,       11.5116,            0.,NA,NA,"",       4.99424,       4.47664,       2.21407,   540.655E-06
C:/temp/dataset/4/3_2.odb,Step-1,Increment      1: Step Time =    1.000,"PART-1-1",           301,      -6.98959,       12.4413,            0.,NA,NA,"",       5.04283,       4.61003,       2.04396,   202.330E-06
C:/temp/dataset/4/3_2.odb,Step-1,Increment      1: Step Time =    1.000,"PART-1-1",           302,      -9.95004,      -1.64066,            0.,NA,NA,"",       3.62630,       2.46129,       2.66311,   2.37321E-03
C:/temp/dataset/4/3_2.odb,Step-1,Increment      1: Step Time =    1.000,"PART-1-1",           303,      -11.1983,  -513.068E-03,            0.,NA,NA,"",       3.88349,       2.64587,       2.84269,   2.29876E-03
C:/temp/dataset/4/3_2.odb,Step-1,Increment      1: Step Time =    1.000,"PART-1-1",           304,      -12.5325,      -1.72297,            0.,NA,NA,"",       3.93936,       2.47930,       3.06132,   1.75735E-03
C:/temp/dataset/4/3_2.odb,Step-1,Increment      1: Step Time =    1.000,"PART-1-1",           305,      -11.2842,      -2.85056,            0.,NA,NA,"",       3.68394,       2.29440,       2.88221,   1.90590E-03
C:/temp/dataset/4/3_2.odb,Step-1,Increment      1: Step Time =    1.000,"PART-1-1",           306,      -10.2834,   741.336E-03,            0.,NA,NA,"",       3.89879,       2.82378,       2.68828,   2.25485E-03
C:/temp/dataset/4/3_2.odb,Step-1,Increment      1: Step Time =    1.000,"PART-1-1",           307,      -11.7661,       1.72477,            0.,NA,NA,"",       4.17180,       2.99284,       2.90634,   1.96587E-03
C:/temp/dataset/4/3_2.odb,Step-1,Increment      1: Step Time =    1.000,"PART-1-1",           308,      -12.6810,   470.366E-03,            0.,NA,NA,"",       4.15715,       2.81337,       3.06053,   1.88868E-03
C:/temp/dataset/4/3_2.odb,Step-1,Increment      1: Step Time =    1.000,"PART-1-1",           309,         -1.25,           -5.,            0.,NA,NA,"",       2.36003,       1.89586,       1.40551,   6.30332E-03
C:/temp/dataset/4/3_2.odb,Step-1,Increment      1: Step Time =    1.000,"PART-1-1",           310,  -165.329E-03,      -4.13131,            0.,NA,NA,"",       2.36446,       2.01297,       1.24040,   5.01170E-03
C:/temp/dataset/4/3_2.odb,Step-1,Increment      1: Step Time =    1.000,"PART-1-1",           311,      -1.46228,      -3.26668,            0.,NA,NA,"",       2.56792,       2.14336,       1.41428,   3.71375E-03
C:/temp/dataset/4/3_2.odb,Step-1,Increment      1: Step Time =    1.000,"PART-1-1",           312,      -2.54695,      -4.13537,            0.,NA,NA,"",       2.57014,       2.02619,       1.58120,   5.00990E-03
C:/temp/dataset/4/3_2.odb,Step-1,Increment      1: Step Time =    1.000,"PART-1-1",           313,   769.081E-03,      -3.16387,            0.,NA,NA,"",       2.40748,       2.14276,       1.09751,   3.51940E-03
C:/temp/dataset/4/3_2.odb,Step-1,Increment      1: Step Time =    1.000,"PART-1-1",           314,          1.25,           -5.,            0.,NA,NA,"",       2.15842,       1.88456,       1.05225,   6.26091E-03
C:/temp/dataset/4/3_2.odb,Step-1,Increment      1: Step Time =    1.000,"PART-1-1",           315,       2.18441,      -4.03256,            0.,NA,NA,"",       2.21024,       2.01433,   909.764E-03,   4.94795E-03
C:/temp/dataset/4/3_2.odb,Step-1,Increment      1: Step Time =    1.000,"PART-1-1",           316,       1.54561,       3.01681,            0.,NA,NA,"",       3.13235,       2.98937,   935.565E-03,   6.66704E-03
C:/temp/dataset/4/3_2.odb,Step-1,Increment      1: Step Time =    1.000,"PART-1-1",           317,       2.64536,       4.01417,            0.,NA,NA,"",       3.20394,       3.10730,   780.999E-03,   8.64230E-03
C:/temp/dataset/4/3_2.odb,Step-1,Increment      1: Step Time =    1.000,"PART-1-1",           318,          1.25,            5.,            0.,NA,NA,"",       3.40710,       3.26761,   964.917E-03,   10.5733E-03
C:/temp/dataset/4/3_2.odb,Step-1,Increment      1: Step Time =    1.000,"PART-1-1",           319,   150.245E-03,       4.00264,            0.,NA,NA,"",       3.34241,       3.14880,       1.12104,   8.69644E-03
C:/temp/dataset/4/3_2.odb,Step-1,Increment      1: Step Time =    1.000,"PART-1-1",           320,   179.474E-03,      -1.21124,            0.,NA,NA,"",       2.68325,       2.41998,       1.15911,   607.950E-06
C:/temp/dataset/4/3_2.odb,Step-1,Increment      1: Step Time =    1.000,"PART-1-1",           321,  -580.901E-03,      -2.30818,            0.,NA,NA,"",       2.60711,       2.27250,       1.27780,   2.37735E-03
C:/temp/dataset/4/3_2.odb,Step-1,Increment      1: Step Time =    1.000,"PART-1-1",           322,       1.52946,      -2.06693,            0.,NA,NA,"",       2.49030,       2.28936,   980.001E-03,   2.05555E-03
C:/temp/dataset/4/3_2.odb,Step-1,Increment      1: Step Time =    1.000,"PART-1-1",           323,       12.7868,      -3.71378,            0.,NA,NA,"",       2.02848,       1.98401,  -422.428E-03,   7.69819E-03
C:/temp/dataset/4/3_2.odb,Step-1,Increment      1: Step Time =    1.000,"PART-1-1",           324,       13.8814,      -5.00619,            0.,NA,NA,"",       1.89588,       1.81887,  -534.881E-03,   9.98705E-03
C:/temp/dataset/4/3_2.odb,Step-1,Increment      1: Step Time =    1.000,"PART-1-1",           325,           15.,         -3.75,            0.,NA,NA,"",       2.08950,       1.97092,  -693.868E-03,   10.3461E-03
C:/temp/dataset/4/3_2.odb,Step-1,Increment      1: Step Time =    1.000,"PART-1-1",           326,       13.9054,      -2.45760,            0.,NA,NA,"",       2.21498,       2.13859,  -576.705E-03,   7.08726E-03
C:/temp/dataset/4/3_2.odb,Step-1,Increment      1: Step Time =    1.000,"PART-1-1",           327,       5.10003,      -1.40311,            0.,NA,NA,"",       2.39739,       2.34614,   493.068E-03,   4.66688E-03
C:/temp/dataset/4/3_2.odb,Step-1,Increment      1: Step Time =    1.000,"PART-1-1",           328,       3.80913,  -775.561E-03,            0.,NA,NA,"",       2.53154,       2.44430,   658.865E-03,   2.74381E-03
C:/temp/dataset/4/3_2.odb,Step-1,Increment      1: Step Time =    1.000,"PART-1-1",           329,       3.52110,      -1.80919,            0.,NA,NA,"",       2.41259,       2.30723,   705.202E-03,   1.76088E-03
C:/temp/dataset/4/3_2.odb,Step-1,Increment      1: Step Time =    1.000,"PART-1-1",           330,       4.81200,      -2.43673,            0.,NA,NA,"",       2.27503,       2.21086,   536.515E-03,   3.43740E-03
C:/temp/dataset/4/3_2.odb,Step-1,Increment      1: Step Time =    1.000,"PART-1-1",           331,           15.,          3.75,            0.,NA,NA,"",       3.03852,       2.93456,  -787.994E-03,   677.708E-06
C:/temp/dataset/4/3_2.odb,Step-1,Increment      1: Step Time =    1.000,"PART-1-1",           332,       13.8386,       5.14064,            0.,NA,NA,"",       3.19048,       3.12338,  -650.875E-03,   541.267E-06
C:/temp/dataset/4/3_2.odb,Step-1,Increment      1: Step Time =    1.000,"PART-1-1",           333,       12.6076,       4.00525,            0.,NA,NA,"",       3.02591,       2.98690,  -484.336E-03,   2.03374E-03
C:/temp/dataset/4/3_2.odb,Step-1,Increment      1: Step Time =    1.000,"PART-1-1",           334,       13.7689,       2.61462,            0.,NA,NA,"",       2.86491,       2.79720,  -619.177E-03,   1.93595E-03
C:/temp/dataset/4/3_2.odb,Step-1,Increment      1: Step Time =    1.000,"PART-1-1",           335,       9.76439,       8.40859,            0.,NA,NA,"",       3.57845,       3.57489,  -159.705E-03,   217.889E-06
C:/temp/dataset/4/3_2.odb,Step-1,Increment      1: Step Time =    1.000,"PART-1-1",           336,       8.59642,       7.53369,            0.,NA,NA,"",       3.47382,       3.47382,  -4.68433E-03,   706.084E-06
C:/temp/dataset/4/3_2.odb,Step-1,Increment      1: Step Time =    1.000,"PART-1-1",           337,       9.44563,       6.06261,            0.,NA,NA,"",       3.28124,       3.27969,  -100.940E-03,   1.33009E-03
C:/temp/dataset/4/3_2.odb,Step-1,Increment      1: Step Time =    1.000,"PART-1-1",           338,       10.6136,       6.93751,            0.,NA,NA,"",       3.39043,       3.38078,  -255.634E-03,   771.168E-06
C:/temp/dataset/4/3_2.odb,Step-1,Increment      1: Step Time =    1.000,"PART-1-1",           339,       5.92452,       9.07762,            0.,NA,NA,"",       3.70453,       3.69065,   320.482E-03,   316.794E-06
C:/temp/dataset/4/3_2.odb,Step-1,Increment      1: Step Time =    1.000,"PART-1-1",           340,            5.,         8.125,            0.,NA,NA,"",       3.60533,       3.57787,   444.137E-03,   684.908E-06
C:/temp/dataset/4/3_2.odb,Step-1,Increment      1: Step Time =    1.000,"PART-1-1",           341,       5.83838,       7.03541,            0.,NA,NA,"",       3.45208,       3.43458,   347.210E-03,   958.990E-06
C:/temp/dataset/4/3_2.odb,Step-1,Increment      1: Step Time =    1.000,"PART-1-1",           342,       6.76290,       7.98803,            0.,NA,NA,"",       3.55345,       3.54642,   223.418E-03,   316.577E-06
C:/temp/dataset/4/3_2.odb,Step-1,Increment      1: Step Time =    1.000,"PART-1-1",           343,       6.00358,       15.4027,            0.,NA,NA,"",       4.49945,       4.49193,   260.036E-03,   26.6790E-06
C:/temp/dataset/4/3_2.odb,Step-1,Increment      1: Step Time =    1.000,"PART-1-1",           344,            5.,        14.375,            0.,NA,NA,"",       4.38756,       4.36969,   395.570E-03,   59.4798E-06
C:/temp/dataset/4/3_2.odb,Step-1,Increment      1: Step Time =    1.000,"PART-1-1",           345,       5.99171,       13.2884,            0.,NA,NA,"",       4.23301,       4.22383,   278.552E-03,   74.7608E-06
C:/temp/dataset/4/3_2.odb,Step-1,Increment      1: Step Time =    1.000,"PART-1-1",           346,       6.99529,       14.3161,            0.,NA,NA,"",       4.34845,       4.34610,   143.073E-03,   68.2088E-06
C:/temp/dataset/4/3_2.odb,Step-1,Increment      1: Step Time =    1.000,"PART-1-1",           347,       11.7328,       24.6815,            0.,NA,NA,"",       5.64841,       5.62241,  -541.381E-03,   427.305E-09
C:/temp/dataset/4/3_2.odb,Step-1,Increment      1: Step Time =    1.000,"PART-1-1",           348,       12.6496,       26.1279,            0.,NA,NA,"",       5.83692,       5.79842,  -669.317E-03,   383.158E-09
C:/temp/dataset/4/3_2.odb,Step-1,Increment      1: Step Time =    1.000,"PART-1-1",           349,       11.2054,       27.2635,            0.,NA,NA,"",       5.97466,       5.95409,  -495.354E-03,   233.196E-09
C:/temp/dataset/4/3_2.odb,Step-1,Increment      1: Step Time =    1.000,"PART-1-1",           350,       10.2886,       25.8171,            0.,NA,NA,"",       5.78974,       5.77807,  -367.419E-03,   348.423E-09
C:/temp/dataset/4/3_2.odb,Step-1,Increment      1: Step Time =    1.000,"PART-1-1",           351,       12.5134,       28.7000,            0.,NA,NA,"",       6.16253,       6.12570,  -672.814E-03,   184.818E-09
C:/temp/dataset/4/3_2.odb,Step-1,Increment      1: Step Time =    1.000,"PART-1-1",           352,       13.7634,       27.4500,            0.,NA,NA,"",       6.01343,       5.95709,  -821.235E-03,   183.378E-09
C:/temp/dataset/4/3_2.odb,Step-1,Increment      1: Step Time =    1.000,"PART-1-1",           353,           15.,         28.75,            0.,NA,NA,"",       6.19139,       6.11196,  -988.543E-03,   54.1416E-09
C:/temp/dataset/4/3_2.odb,Step-1,Increment      1: Step Time =    1.000,"PART-1-1",           354,         13.75,           30.,            0.,NA,NA,"",       6.33650,       6.28056,  -840.122E-03,   40.1921E-09
C:/temp/dataset/4/3_2.odb,Step-1,Increment      1: Step Time =    1.000,"PART-1-1",           355,      -3.83569,      -2.96698,            0.,NA,NA,"",       2.81750,       2.20417,       1.75498,   3.16369E-03
C:/temp/dataset/4/3_2.odb,Step-1,Increment      1: Step Time =    1.000,"PART-1-1",           356,      -2.47303,      -2.56070,            0.,NA,NA,"",       2.73449,       2.25180,       1.55139,   2.69331E-03
C:/temp/dataset/4/3_2.odb,Step-1,Increment      1: Step Time =    1.000,"PART-1-1",           357,      -2.95938,      -1.35275,            0.,NA,NA,"",       2.91353,       2.42960,       1.60801,   1.40373E-03
C:/temp/dataset/4/3_2.odb,Step-1,Increment      1: Step Time =    1.000,"PART-1-1",           358,      -4.32205,      -1.75903,            0.,NA,NA,"",       2.99456,       2.38391,       1.81227,   1.98039E-03
C:/temp/dataset/4/3_2.odb,Step-1,Increment      1: Step Time =    1.000,"PART-1-1",           359,       8.60967,      -7.25473,            0.,NA,NA,"",       1.57352,       1.57086,   91.4411E-03,   5.38334E-03
C:/temp/dataset/4/3_2.odb,Step-1,Increment      1: Step Time =    1.000,"PART-1-1",           360,       7.51358,      -6.44375,            0.,NA,NA,"",       1.68911,       1.67564,   212.913E-03,   6.88134E-03
C:/temp/dataset/4/3_2.odb,Step-1,Increment      1: Step Time =    1.000,"PART-1-1",           361,       6.75300,      -7.77251,            0.,NA,NA,"",       1.55551,       1.52668,   298.084E-03,   10.6399E-03
C:/temp/dataset/4/3_2.odb,Step-1,Increment      1: Step Time =    1.000,"PART-1-1",           362,       7.84909,      -8.58350,            0.,NA,NA,"",       1.43423,       1.42326,   177.071E-03,   7.97578E-03
C:/temp/dataset/4/3_2.odb,Step-1,Increment      1: Step Time =    1.000,"PART-1-1",           363,       7.07130,      -14.2100,            0.,NA,NA,"",   874.177E-03,   842.992E-03,   231.408E-03,   14.0006E-03
C:/temp/dataset/4/3_2.odb,Step-1,Increment      1: Step Time =    1.000,"PART-1-1",           364,       6.02882,      -13.2279,            0.,NA,NA,"",       1.00634,   948.949E-03,   334.996E-03,   17.6611E-03
C:/temp/dataset/4/3_2.odb,Step-1,Increment      1: Step Time =    1.000,"PART-1-1",           365,            5.,       -14.375,            0.,NA,NA,"",   947.874E-03,   852.882E-03,   413.591E-03,   23.2681E-03
C:/temp/dataset/4/3_2.odb,Step-1,Increment      1: Step Time =    1.000,"PART-1-1",           366,       6.04247,      -15.3570,            0.,NA,NA,"",   810.040E-03,   749.325E-03,   307.697E-03,   19.4038E-03
C:/temp/dataset/4/3_2.odb,Step-1,Increment      1: Step Time =    1.000,"PART-1-1",           367,       7.02995,      -12.0379,            0.,NA,NA,"",       1.08624,       1.05701,   250.296E-03,   12.8164E-03
C:/temp/dataset/4/3_2.odb,Step-1,Increment      1: Step Time =    1.000,"PART-1-1",           368,       6.00113,      -11.1016,            0.,NA,NA,"",       1.22005,       1.16611,   358.761E-03,   15.9679E-03
C:/temp/dataset/4/3_2.odb,Step-1,Increment      1: Step Time =    1.000,"PART-1-1",           369,            5.,      -12.2917,            0.,NA,NA,"",       1.14606,       1.05601,   445.314E-03,   21.0306E-03
C:/temp/dataset/4/3_2.odb,Step-1,Increment      1: Step Time =    1.000,"PART-1-1",           370,            5.,      -22.7083,            0.,NA,NA,"",   331.218E-03,   239.513E-03,   228.778E-03,   32.0743E-03
C:/temp/dataset/4/3_2.odb,Step-1,Increment      1: Step Time =    1.000,"PART-1-1",           371,       6.05922,      -23.7899,            0.,NA,NA,"",   230.846E-03,   172.310E-03,   153.621E-03,   26.3705E-03
C:/temp/dataset/4/3_2.odb,Step-1,Increment      1: Step Time =    1.000,"PART-1-1",           372,       7.11013,      -22.7834,            0.,NA,NA,"",   244.960E-03,   209.288E-03,   127.295E-03,   19.1006E-03
C:/temp/dataset/4/3_2.odb,Step-1,Increment      1: Step Time =    1.000,"PART-1-1",           373,       6.05091,      -21.7018,            0.,NA,NA,"",   343.387E-03,   279.781E-03,   199.091E-03,   24.6691E-03
C:/temp/dataset/4/3_2.odb,Step-1,Increment      1: Step Time =    1.000,"PART-1-1",           374,          8.75,          -30.,            0.,NA,NA,"",            0.,  -3.33035E-39,   14.5068E-39,   7.57116E-03
C:/temp/dataset/4/3_2.odb,Step-1,Increment      1: Step Time =    1.000,"PART-1-1",           375,       9.84988,      -28.9274,            0.,NA,NA,"",   912.713E-06,   408.951E-06,   815.968E-06,   1.33787E-03
C:/temp/dataset/4/3_2.odb,Step-1,Increment      1: Step Time =    1.000,"PART-1-1",           376,       8.52411,      -27.9095,            0.,NA,NA,"",   24.1764E-03,   16.5696E-03,   17.6053E-03,   12.2996E-03
C:/temp/dataset/4/3_2.odb,Step-1,Increment      1: Step Time =    1.000,"PART-1-1",           377,       7.42422,      -28.9821,            0.,NA,NA,"",   14.9968E-03,   4.98399E-03,   14.1444E-03,   17.1147E-03
C:/temp/dataset/4/3_2.odb,Step-1,Increment      1: Step Time =    1.000,"PART-1-1",           378,       10.1104,      -23.9794,            0.,NA,NA,"",   136.085E-03,   136.023E-03,  -4.11287E-03,   4.64522E-03
C:/temp/dataset/4/3_2.odb,Step-1,Increment      1: Step Time =    1.000,"PART-1-1",           379,       11.1261,      -23.0268,            0.,NA,NA,"",   187.590E-03,   181.162E-03,  -48.6868E-03,   8.32201E-03
C:/temp/dataset/4/3_2.odb,Step-1,Increment      1: Step Time =    1.000,"PART-1-1",           380,       10.1523,      -21.9025,            0.,NA,NA,"",   240.281E-03,   240.099E-03,  -9.35015E-03,   4.57157E-03
C:/temp/dataset/4/3_2.odb,Step-1,Increment      1: Step Time =    1.000,"PART-1-1",           381,       9.13660,      -22.8552,            0.,NA,NA,"",   195.254E-03,   191.786E-03,   36.6385E-03,   7.57920E-03
C:/temp/dataset/4/3_2.odb,Step-1,Increment      1: Step Time =    1.000,"PART-1-1",           382,       7.09296,      -18.5383,            0.,NA,NA,"",   512.462E-03,   477.189E-03,   186.836E-03,   16.5607E-03
C:/temp/dataset/4/3_2.odb,Step-1,Increment      1: Step Time =    1.000,"PART-1-1",           383,       6.04465,      -17.4814,            0.,NA,NA,"",   633.451E-03,   569.983E-03,   276.370E-03,   21.1803E-03
C:/temp/dataset/4/3_2.odb,Step-1,Increment      1: Step Time =    1.000,"PART-1-1",           384,            5.,      -18.5417,            0.,NA,NA,"",   602.672E-03,   502.618E-03,   332.548E-03,   27.7291E-03
C:/temp/dataset/4/3_2.odb,Step-1,Increment      1: Step Time =    1.000,"PART-1-1",           385,       6.04831,      -19.5985,            0.,NA,NA,"",   477.469E-03,   412.765E-03,   240.003E-03,   22.9389E-03
C:/temp/dataset/4/3_2.odb,Step-1,Increment      1: Step Time =    1.000,"PART-1-1",           386,       8.88188,       22.9635,            0.,NA,NA,"",       5.43009,       5.42756,  -165.990E-03,   475.352E-09
C:/temp/dataset/4/3_2.odb,Step-1,Increment      1: Step Time =    1.000,"PART-1-1",           387,       9.93448,       22.0483,            0.,NA,NA,"",       5.31105,       5.30301,  -292.083E-03,   743.322E-09
C:/temp/dataset/4/3_2.odb,Step-1,Increment      1: Step Time =    1.000,"PART-1-1",           388,       10.8087,       23.3359,            0.,NA,NA,"",       5.47486,       5.45924,  -413.333E-03,   431.982E-09
C:/temp/dataset/4/3_2.odb,Step-1,Increment      1: Step Time =    1.000,"PART-1-1",           389,       9.75606,       24.2511,            0.,NA,NA,"",       5.59117,       5.58378,  -287.240E-03,   437.836E-09
C:/temp/dataset/4/3_2.odb,Step-1,Increment      1: Step Time =    1.000,"PART-1-1",           390,       10.0218,       17.5512,            0.,NA,NA,"",       4.73954,       4.73203,  -266.833E-03,   15.9210E-06
C:/temp/dataset/4/3_2.odb,Step-1,Increment      1: Step Time =    1.000,"PART-1-1",           391,       9.00837,       16.4411,            0.,NA,NA,"",       4.60123,       4.59941,  -129.342E-03,   33.1562E-06
C:/temp/dataset/4/3_2.odb,Step-1,Increment      1: Step Time =    1.000,"PART-1-1",           392,       10.0249,       15.2736,            0.,NA,NA,"",       4.45015,       4.44320,  -248.783E-03,   45.9957E-06
C:/temp/dataset/4/3_2.odb,Step-1,Increment      1: Step Time =    1.000,"PART-1-1",           393,       11.0383,       16.3837,            0.,NA,NA,"",       4.59208,       4.57580,  -386.299E-03,   33.4915E-06
C:/temp/dataset/4/3_2.odb,Step-1,Increment      1: Step Time =    1.000,"PART-1-1",           394,      -14.0638,       5.89996,            0.,NA,NA,"",       4.88561,       3.67518,       3.21905,   3.25121E-03
C:/temp/dataset/4/3_2.odb,Step-1,Increment      1: Step Time =    1.000,"PART-1-1",           395,      -13.1194,       6.91794,            0.,NA,NA,"",       4.89680,       3.82151,       3.06182,   2.99388E-03
C:/temp/dataset/4/3_2.odb,Step-1,Increment      1: Step Time =    1.000,"PART-1-1",           396,      -14.0556,       8.04923,            0.,NA,NA,"",       5.12976,       4.01307,       3.19526,   2.58942E-03
C:/temp/dataset/4/3_2.odb,Step-1,Increment      1: Step Time =    1.000,"PART-1-1",           397,          -15.,       7.03125,            0.,NA,NA,"",       5.11833,       3.86673,       3.35346,   2.81988E-03
C:/temp/dataset/4/3_2.odb,Step-1,Increment      1: Step Time =    1.000,"PART-1-1",           398,      -14.0181,       12.3521,            0.,NA,NA,"",       5.64144,       4.68586,       3.14143,   1.25012E-03
C:/temp/dataset/4/3_2.odb,Step-1,Increment      1: Step Time =    1.000,"PART-1-1",           399,      -13.0189,       13.2775,            0.,NA,NA,"",       5.66132,       4.81663,       2.97500,   573.744E-06
C:/temp/dataset/4/3_2.odb,Step-1,Increment      1: Step Time =    1.000,"PART-1-1",           400,      -14.0008,       14.5192,            0.,NA,NA,"",       5.90829,       5.02181,       3.11278,   236.521E-06
C:/temp/dataset/4/3_2.odb,Step-1,Increment      1: Step Time =    1.000,"PART-1-1",           401,          -15.,       13.5938,            0.,NA,NA,"",       5.88772,       4.89008,       3.27908,   449.775E-06
C:/temp/dataset/4/3_2.odb,Step-1,Increment      1: Step Time =    1.000,"PART-1-1",           402,      -10.1942,       21.9572,            0.,NA,NA,"",       6.59918,       6.13644,       2.42761,   25.1576E-06
C:/temp/dataset/4/3_2.odb,Step-1,Increment      1: Step Time =    1.000,"PART-1-1",           403,      -9.14995,       21.4132,            0.,NA,NA,"",       6.45168,       6.03869,       2.27122,   28.6620E-06
C:/temp/dataset/4/3_2.odb,Step-1,Increment      1: Step Time =    1.000,"PART-1-1",           404,      -8.60578,       22.3365,            0.,NA,NA,"",       6.54794,       6.17619,       2.17489,   20.4961E-06
C:/temp/dataset/4/3_2.odb,Step-1,Increment      1: Step Time =    1.000,"PART-1-1",           405,      -9.65000,       22.8805,            0.,NA,NA,"",       6.69308,       6.27395,       2.33129,   14.8650E-06
C:/temp/dataset/4/3_2.odb,Step-1,Increment      1: Step Time =    1.000,"PART-1-1",           406,      -14.0213,       25.7108,            0.,NA,NA,"",       7.39610,       6.76954,       2.97918,   628.564E-09
C:/temp/dataset/4/3_2.odb,Step-1,Increment      1: Step Time =    1.000,"PART-1-1",           407,      -12.8802,       26.8172,            0.,NA,NA,"",       7.46803,       6.92834,       2.78741,   822.724E-09
C:/temp/dataset/4/3_2.odb,Step-1,Increment      1: Step Time =    1.000,"PART-1-1",           408,      -13.8589,       27.8252,            0.,NA,NA,"",       7.67793,       7.09776,       2.92788,   331.198E-09
C:/temp/dataset/4/3_2.odb,Step-1,Increment      1: Step Time =    1.000,"PART-1-1",           409,          -15.,       26.7188,            0.,NA,NA,"",       7.60799,       6.93896,       3.11966,   480.454E-09
C:/temp/dataset/4/3_2.odb,Step-1,Increment      1: Step Time =    1.000,"PART-1-1",           410,        -13.75,           30.,            0.,NA,NA,"",       7.97579,       7.43604,       2.88419,   240.762E-09
C:/temp/dataset/4/3_2.odb,Step-1,Increment      1: Step Time =    1.000,"PART-1-1",           411,          -15.,       28.9063,            0.,NA,NA,"",       7.91026,       7.28057,       3.09282,   221.612E-09
C:/temp/dataset/4/3_2.odb,Step-1,Increment      1: Step Time =    1.000,"PART-1-1",           412,      -12.6089,       28.9190,            0.,NA,NA,"",       7.74620,       7.25322,       2.71926,   274.807E-09
C:/temp/dataset/4/3_2.odb,Step-1,Increment      1: Step Time =    1.000,"PART-1-1",           413,      -11.4362,       27.6040,            0.,NA,NA,"",       7.48224,       7.03348,       2.55225,   600.890E-09
C:/temp/dataset/4/3_2.odb,Step-1,Increment      1: Step Time =    1.000,"PART-1-1",           414,      -10.0773,       28.6850,            0.,NA,NA,"",       7.55296,       7.18563,       2.32678,   94.6911E-09
C:/temp/dataset/4/3_2.odb,Step-1,Increment      1: Step Time =    1.000,"PART-1-1",           415,        -11.25,           30.,            0.,NA,NA,"",       7.81399,       7.40537,       2.49378,   699.819E-09
C:/temp/dataset/4/3_2.odb,Step-1,Increment      1: Step Time =    1.000,"PART-1-1",           416,      -13.7240,       21.2404,            0.,NA,NA,"",       6.76337,       6.06774,       2.98760,   18.9496E-06
C:/temp/dataset/4/3_2.odb,Step-1,Increment      1: Step Time =    1.000,"PART-1-1",           417,      -12.6979,       22.4429,            0.,NA,NA,"",       6.84730,       6.24297,       2.81262,   18.4438E-06
C:/temp/dataset/4/3_2.odb,Step-1,Increment      1: Step Time =    1.000,"PART-1-1",           418,      -13.9739,       23.5463,            0.,NA,NA,"",       7.09557,       6.43095,       2.99834,   4.59457E-06
C:/temp/dataset/4/3_2.odb,Step-1,Increment      1: Step Time =    1.000,"PART-1-1",           419,          -15.,       22.3438,            0.,NA,NA,"",       7.01456,       6.25572,       3.17333,   11.4607E-06
C:/temp/dataset/4/3_2.odb,Step-1,Increment      1: Step Time =    1.000,"PART-1-1",           420,      -11.9375,       16.3352,            0.,NA,NA,"",       5.96189,       5.27984,       2.76901,   109.332E-06
C:/temp/dataset/4/3_2.odb,Step-1,Increment      1: Step Time =    1.000,"PART-1-1",           421,      -10.8584,       17.1847,            0.,NA,NA,"",       5.98841,       5.39930,       2.59010,   107.004E-06
C:/temp/dataset/4/3_2.odb,Step-1,Increment      1: Step Time =    1.000,"PART-1-1",           422,      -11.8099,       18.4796,            0.,NA,NA,"",       6.23859,       5.61311,       2.72267,   73.8062E-06
C:/temp/dataset/4/3_2.odb,Step-1,Increment      1: Step Time =    1.000,"PART-1-1",           423,      -12.8889,       17.6301,            0.,NA,NA,"",       6.21281,       5.49365,       2.90152,   99.9560E-06
C:/temp/dataset/4/3_2.odb,Step-1,Increment      1: Step Time =    1.000,"PART-1-1",           424,      -9.98079,       13.8692,            0.,NA,NA,"",       5.47214,       4.87077,       2.49398,   192.705E-06
C:/temp/dataset/4/3_2.odb,Step-1,Increment      1: Step Time =    1.000,"PART-1-1",           425,      -11.0142,       12.9724,            0.,NA,NA,"",       5.44151,       4.74357,       2.66619,   547.906E-06
C:/temp/dataset/4/3_2.odb,Step-1,Increment      1: Step Time =    1.000,"PART-1-1",           426,      -10.0204,       11.7735,            0.,NA,NA,"",       5.19810,       4.54322,       2.52575,   793.841E-06
C:/temp/dataset/4/3_2.odb,Step-1,Increment      1: Step Time =    1.000,"PART-1-1",           427,      -6.95613,       14.5250,            0.,NA,NA,"",       5.33063,       4.93592,       2.01304,   56.3950E-06
C:/temp/dataset/4/3_2.odb,Step-1,Increment      1: Step Time =    1.000,"PART-1-1",           428,      -5.98929,       13.4097,            0.,NA,NA,"",       5.10625,       4.74940,       1.87535,   164.073E-06
C:/temp/dataset/4/3_2.odb,Step-1,Increment      1: Step Time =    1.000,"PART-1-1",           429,           -5.,        14.375,            0.,NA,NA,"",       5.17829,       4.88823,       1.70879,   272.837E-06
C:/temp/dataset/4/3_2.odb,Step-1,Increment      1: Step Time =    1.000,"PART-1-1",           430,      -5.96684,       15.4903,            0.,NA,NA,"",       5.40012,       5.07463,       1.84647,   136.285E-06
C:/temp/dataset/4/3_2.odb,Step-1,Increment      1: Step Time =    1.000,"PART-1-1",           431,      -11.0581,       10.8707,            0.,NA,NA,"",       5.17419,       4.41505,       2.69806,   1.49535E-03
C:/temp/dataset/4/3_2.odb,Step-1,Increment      1: Step Time =    1.000,"PART-1-1",           432,      -10.0579,       9.67932,            0.,NA,NA,"",       4.92928,       4.21431,       2.55683,   1.86488E-03
C:/temp/dataset/4/3_2.odb,Step-1,Increment      1: Step Time =    1.000,"PART-1-1",           433,      -9.02030,       10.5821,            0.,NA,NA,"",       4.95470,       4.34319,       2.38449,   1.25317E-03
C:/temp/dataset/4/3_2.odb,Step-1,Increment      1: Step Time =    1.000,"PART-1-1",           434,      -7.04064,       8.20966,            0.,NA,NA,"",       4.47007,       3.94280,       2.10613,   2.36981E-03
C:/temp/dataset/4/3_2.odb,Step-1,Increment      1: Step Time =    1.000,"PART-1-1",           435,      -6.03068,       7.10065,            0.,NA,NA,"",       4.23546,       3.75290,       1.96339,   2.49759E-03
C:/temp/dataset/4/3_2.odb,Step-1,Increment      1: Step Time =    1.000,"PART-1-1",           436,           -5.,         8.125,            0.,NA,NA,"",       4.29311,       3.90442,       1.78500,   860.935E-06
C:/temp/dataset/4/3_2.odb,Step-1,Increment      1: Step Time =    1.000,"PART-1-1",           437,      -6.00996,       9.23401,            0.,NA,NA,"",       4.52535,       4.09286,       1.93062,   609.632E-06
C:/temp/dataset/4/3_2.odb,Step-1,Increment      1: Step Time =    1.000,"PART-1-1",           438,      -13.0926,       9.02789,            0.,NA,NA,"",       5.14401,       4.15336,       3.03487,   2.52914E-03
C:/temp/dataset/4/3_2.odb,Step-1,Increment      1: Step Time =    1.000,"PART-1-1",           439,      -14.0370,       10.1974,            0.,NA,NA,"",       5.38193,       4.35034,       3.16856,   2.17346E-03
C:/temp/dataset/4/3_2.odb,Step-1,Increment      1: Step Time =    1.000,"PART-1-1",           440,          -15.,       9.21875,            0.,NA,NA,"",       5.36802,       4.21043,       3.32984,   2.18416E-03
C:/temp/dataset/4/3_2.odb,Step-1,Increment      1: Step Time =    1.000,"PART-1-1",           441,      -13.9055,       1.56280,            0.,NA,NA,"",       4.41119,       2.99583,       3.23785,   2.20754E-03
C:/temp/dataset/4/3_2.odb,Step-1,Increment      1: Step Time =    1.000,"PART-1-1",           442,      -12.9296,       2.64306,            0.,NA,NA,"",       4.40256,       3.14955,       3.07619,   1.80061E-03
C:/temp/dataset/4/3_2.odb,Step-1,Increment      1: Step Time =    1.000,"PART-1-1",           443,      -14.0241,       3.73651,            0.,NA,NA,"",       4.64534,       3.33462,       3.23412,   3.01719E-03
C:/temp/dataset/4/3_2.odb,Step-1,Increment      1: Step Time =    1.000,"PART-1-1",           444,          -15.,       2.65625,            0.,NA,NA,"",       4.65186,       3.17896,       3.39618,   3.15108E-03
C:/temp/dataset/4/3_2.odb,Step-1,Increment      1: Step Time =    1.000,"PART-1-1",           445,      -13.7570,      -2.81804,            0.,NA,NA,"",       4.00687,       2.32803,       3.26118,   830.008E-06
C:/temp/dataset/4/3_2.odb,Step-1,Increment      1: Step Time =    1.000,"PART-1-1",           446,      -13.7756,  -623.683E-03,            0.,NA,NA,"",       4.19276,       2.66090,       3.24020,   1.61388E-03
C:/temp/dataset/4/3_2.odb,Step-1,Increment      1: Step Time =    1.000,"PART-1-1",           447,          -15.,      -1.71875,            0.,NA,NA,"",       4.25690,       2.50964,       3.43845,   979.159E-06
C:/temp/dataset/4/3_2.odb,Step-1,Increment      1: Step Time =    1.000,"PART-1-1",           448,        -13.75,           -5.,            0.,NA,NA,"",       3.84410,       1.99592,       3.28533,   161.682E-06
C:/temp/dataset/4/3_2.odb,Step-1,Increment      1: Step Time =    1.000,"PART-1-1",           449,      -12.5070,      -3.91179,            0.,NA,NA,"",       3.75669,       2.14744,       3.08240,   858.918E-06
C:/temp/dataset/4/3_2.odb,Step-1,Increment      1: Step Time =    1.000,"PART-1-1",           450,          -15.,      -3.90625,            0.,NA,NA,"",       4.09066,       2.17719,       3.46314,   142.445E-06
C:/temp/dataset/4/3_2.odb,Step-1,Increment      1: Step Time =    1.000,"PART-1-1",           451,          -15.,    468.75E-03,            0.,NA,NA,"",       4.44408,       2.84246,       3.41618,   2.26666E-03
C:/temp/dataset/4/3_2.odb,Step-1,Increment      1: Step Time =    1.000,"PART-1-1",           452,      -5.10506,       2.56414,            0.,NA,NA,"",       3.56231,       3.02610,       1.87956,   4.09817E-03
C:/temp/dataset/4/3_2.odb,Step-1,Increment      1: Step Time =    1.000,"PART-1-1",           453,      -4.59209,       3.94539,            0.,NA,NA,"",       3.68694,       3.22443,       1.78789,   8.49236E-03
C:/temp/dataset/4/3_2.odb,Step-1,Increment      1: Step Time =    1.000,"PART-1-1",           454,      -6.09775,       4.77703,            0.,NA,NA,"",       3.92853,       3.37783,       2.00590,   7.92977E-03
C:/temp/dataset/4/3_2.odb,Step-1,Increment      1: Step Time =    1.000,"PART-1-1",           455,      -6.61072,       3.39578,            0.,NA,NA,"",       3.80437,       3.17363,       2.09793,   4.70069E-03
C:/temp/dataset/4/3_2.odb,Step-1,Increment      1: Step Time =    1.000,"PART-1-1",           456,       9.44090,      -5.60228,            0.,NA,NA,"",       1.76459,       1.76455,  -11.9365E-03,   5.57890E-03
C:/temp/dataset/4/3_2.odb,Step-1,Increment      1: Step Time =    1.000,"PART-1-1",           457,       9.79564,      -4.46986,            0.,NA,NA,"",       1.90494,       1.90393,  -62.0372E-03,   6.79114E-03
C:/temp/dataset/4/3_2.odb,Step-1,Increment      1: Step Time =    1.000,"PART-1-1",           458,       8.43936,      -4.09444,            0.,NA,NA,"",       1.96273,       1.96048,   93.9664E-03,   6.68244E-03
C:/temp/dataset/4/3_2.odb,Step-1,Increment      1: Step Time =    1.000,"PART-1-1",           459,       8.08462,      -5.22686,            0.,NA,NA,"",       1.82540,       1.81985,   142.152E-03,   6.01819E-03
C:/temp/dataset/4/3_2.odb,Step-1,Increment      1: Step Time =    1.000,"PART-1-1",           460,       6.93926,      -9.88629,            0.,NA,NA,"",       1.31462,       1.28649,   270.491E-03,   11.7985E-03
C:/temp/dataset/4/3_2.odb,Step-1,Increment      1: Step Time =    1.000,"PART-1-1",           461,       5.93813,      -8.99303,            0.,NA,NA,"",       1.44839,       1.39726,   381.427E-03,   14.5125E-03
C:/temp/dataset/4/3_2.odb,Step-1,Increment      1: Step Time =    1.000,"PART-1-1",           462,            5.,      -10.2083,            0.,NA,NA,"",       1.35938,       1.27506,   471.308E-03,   18.7334E-03
C:/temp/dataset/4/3_2.odb,Step-1,Increment      1: Step Time =    1.000,"PART-1-1",           463,       12.9852,      -11.3613,            0.,NA,NA,"",       1.14656,       1.09805,  -329.988E-03,   12.3266E-03
C:/temp/dataset/4/3_2.odb,Step-1,Increment      1: Step Time =    1.000,"PART-1-1",           464,       14.0059,      -12.5461,            0.,NA,NA,"",       1.06260,   980.524E-03,  -409.500E-03,   17.1411E-03
C:/temp/dataset/4/3_2.odb,Step-1,Increment      1: Step Time =    1.000,"PART-1-1",           465,           15.,        -11.25,            0.,NA,NA,"",       1.23687,       1.11352,  -538.457E-03,   20.0519E-03
C:/temp/dataset/4/3_2.odb,Step-1,Increment      1: Step Time =    1.000,"PART-1-1",           466,       13.9793,      -10.0652,            0.,NA,NA,"",       1.31647,       1.23509,  -455.682E-03,   14.9912E-03
C:/temp/dataset/4/3_2.odb,Step-1,Increment      1: Step Time =    1.000,"PART-1-1",           467,       7.08713,      -16.3801,            0.,NA,NA,"",   682.222E-03,   648.844E-03,   210.781E-03,   15.2613E-03
C:/temp/dataset/4/3_2.odb,Step-1,Increment      1: Step Time =    1.000,"PART-1-1",           468,            5.,      -16.4583,            0.,NA,NA,"",   766.355E-03,   667.790E-03,   375.974E-03,   25.5105E-03
C:/temp/dataset/4/3_2.odb,Step-1,Increment      1: Step Time =    1.000,"PART-1-1",           469,       13.0372,      -13.8111,            0.,NA,NA,"",   906.157E-03,   856.875E-03,  -294.765E-03,   13.9933E-03
C:/temp/dataset/4/3_2.odb,Step-1,Increment      1: Step Time =    1.000,"PART-1-1",           470,       14.0313,      -15.0151,            0.,NA,NA,"",   833.102E-03,   750.962E-03,  -360.715E-03,   19.2857E-03
C:/temp/dataset/4/3_2.odb,Step-1,Increment      1: Step Time =    1.000,"PART-1-1",           471,           15.,        -13.75,            0.,NA,NA,"",   993.073E-03,   870.236E-03,  -478.417E-03,   22.6314E-03
C:/temp/dataset/4/3_2.odb,Step-1,Increment      1: Step Time =    1.000,"PART-1-1",           472,       13.0981,      -18.6529,            0.,NA,NA,"",   503.653E-03,   455.009E-03,  -215.947E-03,   17.2654E-03
C:/temp/dataset/4/3_2.odb,Step-1,Increment      1: Step Time =    1.000,"PART-1-1",           473,       14.0553,      -19.9280,            0.,NA,NA,"",   452.318E-03,   374.548E-03,  -253.584E-03,   23.4946E-03
C:/temp/dataset/4/3_2.odb,Step-1,Increment      1: Step Time =    1.000,"PART-1-1",           474,           15.,        -18.75,            0.,NA,NA,"",   579.033E-03,   462.704E-03,  -348.116E-03,   27.7706E-03
C:/temp/dataset/4/3_2.odb,Step-1,Increment      1: Step Time =    1.000,"PART-1-1",           475,       14.0427,      -17.4749,            0.,NA,NA,"",   628.991E-03,   548.239E-03,  -308.326E-03,   21.3888E-03
C:/temp/dataset/4/3_2.odb,Step-1,Increment      1: Step Time =    1.000,"PART-1-1",           476,       6.17422,      -27.9405,            0.,NA,NA,"",   59.7159E-03,   33.9637E-03,   49.1167E-03,   29.2369E-03
C:/temp/dataset/4/3_2.odb,Step-1,Increment      1: Step Time =    1.000,"PART-1-1",           477,            5.,      -28.9583,            0.,NA,NA,"",   46.9178E-03,   30.3999E-03,   35.7369E-03,   38.9165E-03
C:/temp/dataset/4/3_2.odb,Step-1,Increment      1: Step Time =    1.000,"PART-1-1",           478,          6.25,          -30.,            0.,NA,NA,"",            0.,  -1.13092E-39,   43.5028E-39,   27.6856E-03
C:/temp/dataset/4/3_2.odb,Step-1,Increment      1: Step Time =    1.000,"PART-1-1",           479,       9.46325,      -26.8820,            0.,NA,NA,"",   37.0501E-03,   35.5632E-03,   10.3909E-03,   6.61218E-03
C:/temp/dataset/4/3_2.odb,Step-1,Increment      1: Step Time =    1.000,"PART-1-1",           480,       8.20536,      -25.9154,            0.,NA,NA,"",   82.4747E-03,   68.9398E-03,   45.2702E-03,   14.1139E-03
C:/temp/dataset/4/3_2.odb,Step-1,Increment      1: Step Time =    1.000,"PART-1-1",           481,       7.26622,      -26.9429,            0.,NA,NA,"",   69.3575E-03,   46.4663E-03,   51.4913E-03,   20.5706E-03
C:/temp/dataset/4/3_2.odb,Step-1,Increment      1: Step Time =    1.000,"PART-1-1",           482,       13.6319,      -27.3465,            0.,NA,NA,"",   72.7681E-03,   41.1837E-03,  -59.9925E-03,   27.1195E-03
C:/temp/dataset/4/3_2.odb,Step-1,Increment      1: Step Time =    1.000,"PART-1-1",           483,       12.3819,      -28.5965,            0.,NA,NA,"",   19.2823E-03,   7.26160E-03,  -17.8627E-03,   15.7462E-03
C:/temp/dataset/4/3_2.odb,Step-1,Increment      1: Step Time =    1.000,"PART-1-1",           484,         13.75,          -30.,            0.,NA,NA,"",            0.,  -2.33876E-39,  -42.9716E-39,   27.2993E-03
C:/temp/dataset/4/3_2.odb,Step-1,Increment      1: Step Time =    1.000,"PART-1-1",           485,           15.,        -28.75,            0.,NA,NA,"",   54.2330E-03,   33.9260E-03,  -42.3114E-03,   37.7935E-03
C:/temp/dataset/4/3_2.odb,Step-1,Increment      1: Step Time =    1.000,"PART-1-1",           486,         11.25,          -30.,            0.,NA,NA,"",            0.,  -3.66433E-39,  -14.7640E-39,   7.53453E-03
C:/temp/dataset/4/3_2.odb,Step-1,Increment      1: Step Time =    1.000,"PART-1-1",           487,       10.9817,      -27.5238,            0.,NA,NA,"",   24.5441E-03,   20.6471E-03,  -13.2706E-03,   8.64533E-03
C:/temp/dataset/4/3_2.odb,Step-1,Increment      1: Step Time =    1.000,"PART-1-1",           488,       10.1507,      -19.6985,            0.,NA,NA,"",   377.071E-03,   376.785E-03,  -14.6872E-03,   4.52777E-03
C:/temp/dataset/4/3_2.odb,Step-1,Increment      1: Step Time =    1.000,"PART-1-1",           489,       9.14094,      -20.7396,            0.,NA,NA,"",   314.965E-03,   311.892E-03,   43.8912E-03,   7.11805E-03
C:/temp/dataset/4/3_2.odb,Step-1,Increment      1: Step Time =    1.000,"PART-1-1",           490,       11.1621,      -20.8614,            0.,NA,NA,"",   308.686E-03,   301.293E-03,  -67.1505E-03,   8.04518E-03
C:/temp/dataset/4/3_2.odb,Step-1,Increment      1: Step Time =    1.000,"PART-1-1",           491,       7.09922,      -20.6753,            0.,NA,NA,"",   366.398E-03,   330.131E-03,   158.938E-03,   17.8549E-03
C:/temp/dataset/4/3_2.odb,Step-1,Increment      1: Step Time =    1.000,"PART-1-1",           492,            5.,       -20.625,            0.,NA,NA,"",   457.567E-03,   359.233E-03,   283.407E-03,   29.9090E-03
C:/temp/dataset/4/3_2.odb,Step-1,Increment      1: Step Time =    1.000,"PART-1-1",           493,       9.08758,      -14.0519,            0.,NA,NA,"",   843.682E-03,   841.811E-03,   56.1466E-03,   6.27771E-03
C:/temp/dataset/4/3_2.odb,Step-1,Increment      1: Step Time =    1.000,"PART-1-1",           494,       10.1099,      -15.1447,            0.,NA,NA,"",   737.091E-03,   736.564E-03,  -27.8628E-03,   4.49703E-03
C:/temp/dataset/4/3_2.odb,Step-1,Increment      1: Step Time =    1.000,"PART-1-1",           495,       11.0794,      -13.9187,            0.,NA,NA,"",   854.901E-03,   846.644E-03,  -118.531E-03,   6.51815E-03
C:/temp/dataset/4/3_2.odb,Step-1,Increment      1: Step Time =    1.000,"PART-1-1",           496,       10.0571,      -12.8260,            0.,NA,NA,"",   956.021E-03,   955.417E-03,  -33.9897E-03,   4.48391E-03
C:/temp/dataset/4/3_2.odb,Step-1,Increment      1: Step Time =    1.000,"PART-1-1",           497,       9.02765,      -11.7712,            0.,NA,NA,"",       1.06931,       1.06767,   59.2157E-03,   6.04998E-03
C:/temp/dataset/4/3_2.odb,Step-1,Increment      1: Step Time =    1.000,"PART-1-1",           498,       11.0123,      -11.5393,            0.,NA,NA,"",       1.09041,       1.08222,  -133.342E-03,   6.05205E-03
C:/temp/dataset/4/3_2.odb,Step-1,Increment      1: Step Time =    1.000,"PART-1-1",           499,       9.98284,      -10.4845,            0.,NA,NA,"",       1.19838,       1.19773,  -39.3154E-03,   4.48815E-03
C:/temp/dataset/4/3_2.odb,Step-1,Increment      1: Step Time =    1.000,"PART-1-1",           500,       12.6190,       1.44886,            0.,NA,NA,"",       2.69388,       2.65396,  -462.046E-03,   4.04020E-03
C:/temp/dataset/4/3_2.odb,Step-1,Increment      1: Step Time =    1.000,"PART-1-1",           501,       13.8500,   84.2405E-03,            0.,NA,NA,"",       2.53973,       2.46722,  -602.571E-03,   4.16586E-03
C:/temp/dataset/4/3_2.odb,Step-1,Increment      1: Step Time =    1.000,"PART-1-1",           502,           15.,          1.25,            0.,NA,NA,"",       2.72014,       2.61074,  -763.677E-03,   2.90089E-03
C:/temp/dataset/4/3_2.odb,Step-1,Increment      1: Step Time =    1.000,"PART-1-1",           503,       10.0180,      -2.29938,            0.,NA,NA,"",       2.18445,       2.18181,  -107.340E-03,   7.25631E-03
C:/temp/dataset/4/3_2.odb,Step-1,Increment      1: Step Time =    1.000,"PART-1-1",           504,       9.13986,      -3.07696,            0.,NA,NA,"",       2.08681,       2.08680,   3.75667E-03,   7.23849E-03
C:/temp/dataset/4/3_2.odb,Step-1,Increment      1: Step Time =    1.000,"PART-1-1",           505,       10.6738,      -3.69229,            0.,NA,NA,"",       2.00495,       1.99756,  -171.993E-03,   7.08043E-03
C:/temp/dataset/4/3_2.odb,Step-1,Increment      1: Step Time =    1.000,"PART-1-1",           506,       12.7589,       6.54544,            0.,NA,NA,"",       3.35388,       3.31254,  -524.932E-03,   551.550E-06
C:/temp/dataset/4/3_2.odb,Step-1,Increment      1: Step Time =    1.000,"PART-1-1",           507,           15.,          6.25,            0.,NA,NA,"",       3.35504,       3.25615,  -808.595E-03,   267.290E-06
C:/temp/dataset/4/3_2.odb,Step-1,Increment      1: Step Time =    1.000,"PART-1-1",           508,       13.9203,       7.65480,            0.,NA,NA,"",       3.51150,       3.44465,  -681.912E-03,   221.288E-06
C:/temp/dataset/4/3_2.odb,Step-1,Increment      1: Step Time =    1.000,"PART-1-1",           509,       13.0275,       16.3263,            0.,NA,NA,"",       4.59699,       4.55248,  -638.117E-03,   28.3876E-06
C:/temp/dataset/4/3_2.odb,Step-1,Increment      1: Step Time =    1.000,"PART-1-1",           510,       14.0150,       15.0581,            0.,NA,NA,"",       4.44794,       4.38371,  -753.146E-03,   30.5054E-06
C:/temp/dataset/4/3_2.odb,Step-1,Increment      1: Step Time =    1.000,"PART-1-1",           511,           15.,         16.25,            0.,NA,NA,"",       4.61309,       4.52688,  -887.641E-03,   17.9994E-06
C:/temp/dataset/4/3_2.odb,Step-1,Increment      1: Step Time =    1.000,"PART-1-1",           512,       14.0124,       17.5182,            0.,NA,NA,"",       4.75880,       4.69566,  -772.639E-03,   7.39527E-06
C:/temp/dataset/4/3_2.odb,Step-1,Increment      1: Step Time =    1.000,"PART-1-1",           513,       13.0175,       18.7421,            0.,NA,NA,"",       4.90300,       4.85887,  -656.349E-03,   7.90840E-06
C:/temp/dataset/4/3_2.odb,Step-1,Increment      1: Step Time =    1.000,"PART-1-1",           514,           15.,         18.75,            0.,NA,NA,"",       4.92821,       4.84387,  -907.808E-03,   1.64332E-06
C:/temp/dataset/4/3_2.odb,Step-1,Increment      1: Step Time =    1.000,"PART-1-1",           515,       14.0051,       19.9738,            0.,NA,NA,"",       5.06927,       5.00709,  -791.526E-03,   1.15971E-06
C:/temp/dataset/4/3_2.odb,Step-1,Increment      1: Step Time =    1.000,"PART-1-1",           516,       5.97628,       21.7197,            0.,NA,NA,"",       5.29756,       5.29329,   212.514E-03,   730.489E-09
C:/temp/dataset/4/3_2.odb,Step-1,Increment      1: Step Time =    1.000,"PART-1-1",           517,       6.92463,       22.7965,            0.,NA,NA,"",       5.42283,       5.42219,   83.5588E-03,   261.570E-09
C:/temp/dataset/4/3_2.odb,Step-1,Increment      1: Step Time =    1.000,"PART-1-1",           518,       5.94835,       23.7852,            0.,NA,NA,"",       5.55902,       5.55544,   199.381E-03,   597.533E-09
C:/temp/dataset/4/3_2.odb,Step-1,Increment      1: Step Time =    1.000,"PART-1-1",           519,            5.,       22.7083,            0.,NA,NA,"",       5.43647,       5.42654,   328.336E-03,   1.21373E-06
C:/temp/dataset/4/3_2.odb,Step-1,Increment      1: Step Time =    1.000,"PART-1-1",           520,       13.8862,       24.9278,            0.,NA,NA,"",       5.69509,       5.63626,  -816.442E-03,   424.062E-09
C:/temp/dataset/4/3_2.odb,Step-1,Increment      1: Step Time =    1.000,"PART-1-1",           521,           15.,         26.25,            0.,NA,NA,"",       5.87528,       5.79493,  -968.360E-03,   364.692E-09
C:/temp/dataset/4/3_2.odb,Step-1,Increment      1: Step Time =    1.000,"PART-1-1",           522,       6.15342,       27.8650,            0.,NA,NA,"",       6.07278,       6.07115,   140.437E-03,   151.047E-09
C:/temp/dataset/4/3_2.odb,Step-1,Increment      1: Step Time =    1.000,"PART-1-1",           523,       7.40342,       28.9067,            0.,NA,NA,"",       6.19321,       6.19316,  -26.4850E-03,   167.957E-09
C:/temp/dataset/4/3_2.odb,Step-1,Increment      1: Step Time =    1.000,"PART-1-1",           524,          6.25,           30.,            0.,NA,NA,"",       6.34208,       6.34111,   110.955E-03,   39.7675E-09
C:/temp/dataset/4/3_2.odb,Step-1,Increment      1: Step Time =    1.000,"PART-1-1",           525,            5.,       28.9583,            0.,NA,NA,"",       6.22531,       6.21911,   277.877E-03,   38.7995E-09
C:/temp/dataset/4/3_2.odb,Step-1,Increment      1: Step Time =    1.000,"PART-1-1",           526,       7.11917,       26.8292,            0.,NA,NA,"",       5.93206,       5.93200,   26.3334E-03,   327.874E-09
C:/temp/dataset/4/3_2.odb,Step-1,Increment      1: Step Time =    1.000,"PART-1-1",           527,            5.,        26.875,            0.,NA,NA,"",       5.96221,       5.95492,   294.696E-03,   251.371E-09
C:/temp/dataset/4/3_2.odb,Step-1,Increment      1: Step Time =    1.000,"PART-1-1",           528,       5.96574,       25.8392,            0.,NA,NA,"",       5.81857,       5.81577,   180.592E-03,   326.270E-09
C:/temp/dataset/4/3_2.odb,Step-1,Increment      1: Step Time =    1.000,"PART-1-1",           529,       8.59546,       27.4701,            0.,NA,NA,"",       6.00366,       6.00136,  -166.051E-03,   222.364E-09
C:/temp/dataset/4/3_2.odb,Step-1,Increment      1: Step Time =    1.000,"PART-1-1",           530,       9.94204,       28.5635,            0.,NA,NA,"",       6.13887,       6.12914,  -345.637E-03,   220.572E-09
C:/temp/dataset/4/3_2.odb,Step-1,Increment      1: Step Time =    1.000,"PART-1-1",           531,          8.75,           30.,            0.,NA,NA,"",       6.32429,       6.32093,  -206.071E-03,   181.313E-09
C:/temp/dataset/4/3_2.odb,Step-1,Increment      1: Step Time =    1.000,"PART-1-1",           532,            5.,       24.7917,            0.,NA,NA,"",       5.69925,       5.69073,   311.516E-03,   671.236E-09
C:/temp/dataset/4/3_2.odb,Step-1,Increment      1: Step Time =    1.000,"PART-1-1",           533,       6.91409,       24.8327,            0.,NA,NA,"",       5.68089,       5.68048,   68.4570E-03,   445.128E-09
C:/temp/dataset/4/3_2.odb,Step-1,Increment      1: Step Time =    1.000,"PART-1-1",           534,            5.,        20.625,            0.,NA,NA,"",       5.17388,       5.16235,   345.159E-03,   1.23518E-06
C:/temp/dataset/4/3_2.odb,Step-1,Increment      1: Step Time =    1.000,"PART-1-1",           535,       5.99534,       19.6263,            0.,NA,NA,"",       5.03279,       5.02766,   226.999E-03,   1.54035E-06
C:/temp/dataset/4/3_2.odb,Step-1,Increment      1: Step Time =    1.000,"PART-1-1",           536,       6.97162,       20.7210,            0.,NA,NA,"",       5.15947,       5.15861,   94.3557E-03,   1.79251E-06
C:/temp/dataset/4/3_2.odb,Step-1,Increment      1: Step Time =    1.000,"PART-1-1",           537,       9.90537,       10.7177,            0.,NA,NA,"",       3.87148,       3.86650,  -196.460E-03,   165.777E-06
C:/temp/dataset/4/3_2.odb,Step-1,Increment      1: Step Time =    1.000,"PART-1-1",           538,       8.83179,       9.75083,            0.,NA,NA,"",       3.75292,       3.75255,  -52.4308E-03,   161.131E-06
C:/temp/dataset/4/3_2.odb,Step-1,Increment      1: Step Time =    1.000,"PART-1-1",           539,       10.8380,       9.37550,            0.,NA,NA,"",       3.70126,       3.68877,  -303.819E-03,   140.799E-06
C:/temp/dataset/4/3_2.odb,Step-1,Increment      1: Step Time =    1.000,"PART-1-1",           540,       5.96737,       11.1773,            0.,NA,NA,"",       3.96754,       3.95629,   298.518E-03,   155.559E-06
C:/temp/dataset/4/3_2.odb,Step-1,Increment      1: Step Time =    1.000,"PART-1-1",           541,       6.95908,       12.1740,            0.,NA,NA,"",       4.07802,       4.07468,   164.956E-03,   136.182E-06
C:/temp/dataset/4/3_2.odb,Step-1,Increment      1: Step Time =    1.000,"PART-1-1",           542,            5.,       12.2917,            0.,NA,NA,"",       4.12609,       4.10545,   412.222E-03,   155.267E-06
C:/temp/dataset/4/3_2.odb,Step-1,Increment      1: Step Time =    1.000,"PART-1-1",           543,       6.89189,       10.0466,            0.,NA,NA,"",       3.81031,       3.80554,   190.629E-03,   191.821E-06
C:/temp/dataset/4/3_2.odb,Step-1,Increment      1: Step Time =    1.000,"PART-1-1",           544,            5.,       10.2083,            0.,NA,NA,"",       3.86521,       3.84137,   428.592E-03,   403.106E-06
C:/temp/dataset/4/3_2.odb,Step-1,Increment      1: Step Time =    1.000,"PART-1-1",           545,  -883.251E-03,       2.97832,            0.,NA,NA,"",       3.27849,       3.02210,       1.27099,   6.77824E-03
C:/temp/dataset/4/3_2.odb,Step-1,Increment      1: Step Time =    1.000,"PART-1-1",           546,         -1.25,            5.,            0.,NA,NA,"",       3.56387,       3.31439,       1.30995,   10.4734E-03
C:/temp/dataset/4/3_2.odb,Step-1,Increment      1: Step Time =    1.000,"PART-1-1",           547,      -2.28350,       3.97568,            0.,NA,NA,"",       3.50685,       3.18837,       1.46025,   8.63083E-03
C:/temp/dataset/4/3_2.odb,Step-1,Increment      1: Step Time =    1.000,"PART-1-1",           548,      -3.12559,       2.92107,            0.,NA,NA,"",       3.43838,       3.04984,       1.58774,   5.36050E-03
C:/temp/dataset/4/3_2.odb,Step-1,Increment      1: Step Time =    1.000,"PART-1-1",           549,         -3.75,            5.,            0.,NA,NA,"",       3.75306,       3.36529,       1.66143,   13.4300E-03
C:/temp/dataset/4/3_2.odb,Step-1,Increment      1: Step Time =    1.000,"PART-1-1",           550,      -7.01026,       10.3490,            0.,NA,NA,"",       4.75696,       4.28127,       2.07349,   796.722E-06
C:/temp/dataset/4/3_2.odb,Step-1,Increment      1: Step Time =    1.000,"PART-1-1",           551,           -5.,       10.2083,            0.,NA,NA,"",       4.58502,       4.23408,       1.75926,   233.479E-06
C:/temp/dataset/4/3_2.odb,Step-1,Increment      1: Step Time =    1.000,"PART-1-1",           552,      -6.00030,       11.3233,            0.,NA,NA,"",       4.81414,       4.42215,       1.90276,   166.829E-06
C:/temp/dataset/4/3_2.odb,Step-1,Increment      1: Step Time =    1.000,"PART-1-1",           553,      -6.90277,       16.5792,            0.,NA,NA,"",       5.61670,       5.25631,       1.97950,   94.7874E-06
C:/temp/dataset/4/3_2.odb,Step-1,Increment      1: Step Time =    1.000,"PART-1-1",           554,           -5.,       16.4583,            0.,NA,NA,"",       5.47904,       5.21396,       1.68359,   163.448E-06
C:/temp/dataset/4/3_2.odb,Step-1,Increment      1: Step Time =    1.000,"PART-1-1",           555,      -5.93592,       17.5473,            0.,NA,NA,"",       5.69320,       5.39561,       1.81656,   82.6100E-06
C:/temp/dataset/4/3_2.odb,Step-1,Increment      1: Step Time =    1.000,"PART-1-1",           556,      -5.96041,       23.6583,            0.,NA,NA,"",       6.58570,       6.35016,       1.74555,   4.32097E-06
C:/temp/dataset/4/3_2.odb,Step-1,Increment      1: Step Time =    1.000,"PART-1-1",           557,           -5.,       24.7917,            0.,NA,NA,"",       6.70459,       6.51536,       1.58167,   854.208E-09
C:/temp/dataset/4/3_2.odb,Step-1,Increment      1: Step Time =    1.000,"PART-1-1",           558,      -7.48847,       28.8776,            0.,NA,NA,"",       7.43613,       7.18395,       1.92015,   231.439E-09
C:/temp/dataset/4/3_2.odb,Step-1,Increment      1: Step Time =    1.000,"PART-1-1",           559,           -5.,       28.9583,            0.,NA,NA,"",       7.32765,       7.16602,       1.53056,   186.991E-09
C:/temp/dataset/4/3_2.odb,Step-1,Increment      1: Step Time =    1.000,"PART-1-1",           560,         -6.25,           30.,            0.,NA,NA,"",       7.54115,       7.34402,       1.71298,   231.605E-09
C:/temp/dataset/4/3_2.odb,Step-1,Increment      1: Step Time =    1.000,"PART-1-1",           561,       12.9634,       11.4929,            0.,NA,NA,"",       3.98427,       3.94019,  -591.013E-03,   127.255E-06
C:/temp/dataset/4/3_2.odb,Step-1,Increment      1: Step Time =    1.000,"PART-1-1",           562,       13.9657,       10.1417,            0.,NA,NA,"",       3.82658,       3.76060,  -707.513E-03,   180.247E-06
C:/temp/dataset/4/3_2.odb,Step-1,Increment      1: Step Time =    1.000,"PART-1-1",           563,           15.,         11.25,            0.,NA,NA,"",       3.98403,       3.89281,  -847.630E-03,   197.849E-06
C:/temp/dataset/4/3_2.odb,Step-1,Increment      1: Step Time =    1.000,"PART-1-1",           564,       13.9978,       12.6011,            0.,NA,NA,"",       4.13747,       4.07234,  -731.222E-03,   88.2297E-06
C:/temp/dataset/4/3_2.odb,Step-1,Increment      1: Step Time =    1.000,"PART-1-1",           565,       9.13480,      -18.5479,            0.,NA,NA,"",   464.388E-03,   461.740E-03,   49.5198E-03,   6.78174E-03
C:/temp/dataset/4/3_2.odb,Step-1,Increment      1: Step Time =    1.000,"PART-1-1",           566,       11.1537,      -18.5886,            0.,NA,NA,"",   462.160E-03,   454.296E-03,  -84.8942E-03,   7.57067E-03
C:/temp/dataset/4/3_2.odb,Step-1,Increment      1: Step Time =    1.000,"PART-1-1",           567,       10.1377,      -17.4381,            0.,NA,NA,"",   543.451E-03,   543.045E-03,  -21.0179E-03,   4.51119E-03
C:/temp/dataset/4/3_2.odb,Step-1,Increment      1: Step Time =    1.000,"PART-1-1",           568,      -8.81573,       27.5627,            0.,NA,NA,"",       7.31595,       6.99488,       2.14355,   634.922E-09
C:/temp/dataset/4/3_2.odb,Step-1,Increment      1: Step Time =    1.000,"PART-1-1",           569,         -8.75,           30.,            0.,NA,NA,"",       7.66879,       7.37469,       2.10338,   695.781E-09
C:/temp/dataset/4/3_2.odb,Step-1,Increment      1: Step Time =    1.000,"PART-1-1",           570,            5.,      -24.7917,            0.,NA,NA,"",   222.654E-03,   145.085E-03,   168.894E-03,   33.8086E-03
C:/temp/dataset/4/3_2.odb,Step-1,Increment      1: Step Time =    1.000,"PART-1-1",           571,       6.09200,      -25.8775,            0.,NA,NA,"",   137.877E-03,   91.1084E-03,   103.486E-03,   27.8088E-03
C:/temp/dataset/4/3_2.odb,Step-1,Increment      1: Step Time =    1.000,"PART-1-1",           572,       7.15121,      -24.8757,            0.,NA,NA,"",   146.396E-03,   114.552E-03,   91.1575E-03,   20.3921E-03
C:/temp/dataset/4/3_2.odb,Step-1,Increment      1: Step Time =    1.000,"PART-1-1",           573,       13.1040,      -21.0477,            0.,NA,NA,"",   344.245E-03,   297.736E-03,  -172.795E-03,   18.7600E-03
C:/temp/dataset/4/3_2.odb,Step-1,Increment      1: Step Time =    1.000,"PART-1-1",           574,       14.0487,      -22.3697,            0.,NA,NA,"",   303.474E-03,   232.244E-03,  -195.344E-03,   25.5422E-03
C:/temp/dataset/4/3_2.odb,Step-1,Increment      1: Step Time =    1.000,"PART-1-1",           575,           15.,        -21.25,            0.,NA,NA,"",   411.553E-03,   303.809E-03,  -277.625E-03,   30.4009E-03
C:/temp/dataset/4/3_2.odb,Step-1,Increment      1: Step Time =    1.000,"PART-1-1",           576,            5.,       -26.875,            0.,NA,NA,"",   131.204E-03,   77.6158E-03,   105.785E-03,   36.0004E-03
C:/temp/dataset/4/3_2.odb,Step-1,Increment      1: Step Time =    1.000,"PART-1-1",           577,       12.8133,      -6.31290,            0.,NA,NA,"",       1.70810,       1.66320,  -389.029E-03,   9.15448E-03
C:/temp/dataset/4/3_2.odb,Step-1,Increment      1: Step Time =    1.000,"PART-1-1",           578,       13.9319,      -7.55671,            0.,NA,NA,"",       1.59405,       1.51457,  -497.090E-03,   12.6526E-03
C:/temp/dataset/4/3_2.odb,Step-1,Increment      1: Step Time =    1.000,"PART-1-1",           579,           15.,         -6.25,            0.,NA,NA,"",       1.78796,       1.66666,  -647.326E-03,   14.1331E-03
C:/temp/dataset/4/3_2.odb,Step-1,Increment      1: Step Time =    1.000,"PART-1-1",           580,            5.,       18.5417,            0.,NA,NA,"",       4.91151,       4.89815,   361.981E-03,   2.17266E-06
C:/temp/dataset/4/3_2.odb,Step-1,Increment      1: Step Time =    1.000,"PART-1-1",           581,       6.00122,       17.5195,            0.,NA,NA,"",       4.76664,       4.76043,   243.261E-03,   7.87687E-06
C:/temp/dataset/4/3_2.odb,Step-1,Increment      1: Step Time =    1.000,"PART-1-1",           582,       6.99656,       18.6041,            0.,NA,NA,"",       4.89115,       4.88995,   108.285E-03,   8.59151E-06
C:/temp/dataset/4/3_2.odb,Step-1,Increment      1: Step Time =    1.000,"PART-1-1",           583,       12.8545,       23.6160,            0.,NA,NA,"",       5.51967,       5.47824,  -675.023E-03,   371.143E-09
C:/temp/dataset/4/3_2.odb,Step-1,Increment      1: Step Time =    1.000,"PART-1-1",           584,       13.9683,       22.4382,            0.,NA,NA,"",       5.38071,       5.31988,  -806.758E-03,   703.194E-09
C:/temp/dataset/4/3_2.odb,Step-1,Increment      1: Step Time =    1.000,"PART-1-1",           585,           15.,         23.75,            0.,NA,NA,"",       5.55936,       5.47791,  -948.177E-03,   941.463E-09
C:/temp/dataset/4/3_2.odb,Step-1,Increment      1: Step Time =    1.000,"PART-1-1",           586,            5.,       16.4583,            0.,NA,NA,"",       4.64939,       4.63393,   378.795E-03,   15.4329E-06
C:/temp/dataset/4/3_2.odb,Step-1,Increment      1: Step Time =    1.000,"PART-1-1",           587,       7.00480,       16.4638,            0.,NA,NA,"",       4.62011,       4.61844,   124.523E-03,   27.6660E-06
C:/temp/dataset/4/3_2.odb,Step-1,Increment      1: Step Time =    1.000,"PART-1-1",           588,       12.9734,       21.1620,            0.,NA,NA,"",       5.20939,       5.16609,  -670.291E-03,   1.21474E-06
C:/temp/dataset/4/3_2.odb,Step-1,Increment      1: Step Time =    1.000,"PART-1-1",           589,           15.,         21.25,            0.,NA,NA,"",       5.24366,       5.16089,  -927.992E-03,   1.29377E-06
C:/temp/dataset/4/3_2.odb,Step-1,Increment      1: Step Time =    1.000,"PART-1-1",           590,            5.,       6.04167,            0.,NA,NA,"",       3.34937,       3.31776,   459.102E-03,   2.40168E-03
C:/temp/dataset/4/3_2.odb,Step-1,Increment      1: Step Time =    1.000,"PART-1-1",           591,       5.70418,       5.21013,            0.,NA,NA,"",       3.23393,       3.21184,   377.388E-03,   5.74789E-03
C:/temp/dataset/4/3_2.odb,Step-1,Increment      1: Step Time =    1.000,"PART-1-1",           592,       6.54256,       6.20387,            0.,NA,NA,"",       3.33574,       3.32518,   265.137E-03,   1.95205E-03
C:/temp/dataset/4/3_2.odb,Step-1,Increment      1: Step Time =    1.000,"PART-1-1",           593,       7.80464,       8.81181,            0.,NA,NA,"",       3.64293,       3.64194,   85.2244E-03,   161.392E-06
C:/temp/dataset/4/3_2.odb,Step-1,Increment      1: Step Time =    1.000,"PART-1-1",           594,       7.55468,       6.70991,            0.,NA,NA,"",       3.38161,       3.37898,   133.478E-03,   1.11852E-03
C:/temp/dataset/4/3_2.odb,Step-1,Increment      1: Step Time =    1.000,"PART-1-1",           595,           -5.,       12.2917,            0.,NA,NA,"",       4.88019,       4.56179,       1.73387,   299.468E-06
C:/temp/dataset/4/3_2.odb,Step-1,Increment      1: Step Time =    1.000,"PART-1-1",           596,      -13.0551,       11.1433,            0.,NA,NA,"",       5.39857,       4.48467,       3.00538,   1.83236E-03
C:/temp/dataset/4/3_2.odb,Step-1,Increment      1: Step Time =    1.000,"PART-1-1",           597,          -15.,       11.4063,            0.,NA,NA,"",       5.62542,       4.55266,       3.30434,   1.74778E-03
C:/temp/dataset/4/3_2.odb,Step-1,Increment      1: Step Time =    1.000,"PART-1-1",           598,           -5.,       18.5417,            0.,NA,NA,"",       5.78226,       5.53939,       1.65823,   77.5515E-06
C:/temp/dataset/4/3_2.odb,Step-1,Increment      1: Step Time =    1.000,"PART-1-1",           599,      -6.83195,       18.5917,            0.,NA,NA,"",       5.89917,       5.56973,       1.94378,   67.7550E-06
C:/temp/dataset/4/3_2.odb,Step-1,Increment      1: Step Time =    1.000,"PART-1-1",           600,      -12.9744,       15.4368,            0.,NA,NA,"",       5.93298,       5.15230,       2.94178,   119.234E-06
C:/temp/dataset/4/3_2.odb,Step-1,Increment      1: Step Time =    1.000,"PART-1-1",           601,      -13.9736,       16.6988,            0.,NA,NA,"",       6.18429,       5.36152,       3.08213,   120.030E-06
C:/temp/dataset/4/3_2.odb,Step-1,Increment      1: Step Time =    1.000,"PART-1-1",           602,          -15.,       15.7813,            0.,NA,NA,"",       6.16009,       5.23093,       3.25331,   290.419E-06
C:/temp/dataset/4/3_2.odb,Step-1,Increment      1: Step Time =    1.000,"PART-1-1",           603,      -6.85389,       22.5676,            0.,NA,NA,"",       6.47536,       6.19081,       1.89846,   15.0090E-06
C:/temp/dataset/4/3_2.odb,Step-1,Increment      1: Step Time =    1.000,"PART-1-1",           604,           -5.,       22.7083,            0.,NA,NA,"",       6.39529,       6.19003,       1.60723,   7.65142E-06
C:/temp/dataset/4/3_2.odb,Step-1,Increment      1: Step Time =    1.000,"PART-1-1",           605,      -7.62380,       21.5126,            0.,NA,NA,"",       6.36828,       6.03551,       2.03164,   23.1613E-06
C:/temp/dataset/4/3_2.odb,Step-1,Increment      1: Step Time =    1.000,"PART-1-1",           606,      -11.2433,       25.0031,            0.,NA,NA,"",       7.10022,       6.62495,       2.55405,   5.46766E-06
C:/temp/dataset/4/3_2.odb,Step-1,Increment      1: Step Time =    1.000,"PART-1-1",           607,      -10.1220,       24.6816,            0.,NA,NA,"",       6.98031,       6.56099,       2.38289,   5.79309E-06
C:/temp/dataset/4/3_2.odb,Step-1,Increment      1: Step Time =    1.000,"PART-1-1",           608,      -9.68436,       26.2404,            0.,NA,NA,"",       7.17607,       6.79905,       2.29542,   2.69354E-06
C:/temp/dataset/4/3_2.odb,Step-1,Increment      1: Step Time =    1.000,"PART-1-1",           609,      -10.8057,       26.5619,            0.,NA,NA,"",       7.29280,       6.86301,       2.46659,   1.79144E-06
C:/temp/dataset/4/3_2.odb,Step-1,Increment      1: Step Time =    1.000,"PART-1-1",           610,            5.,      -6.04167,            0.,NA,NA,"",       1.82311,       1.75051,   509.339E-03,   18.2681E-03
C:/temp/dataset/4/3_2.odb,Step-1,Increment      1: Step Time =    1.000,"PART-1-1",           611,       5.81487,      -6.90448,            0.,NA,NA,"",       1.68815,       1.63805,   408.219E-03,   13.4706E-03
C:/temp/dataset/4/3_2.odb,Step-1,Increment      1: Step Time =    1.000,"PART-1-1",           612,       6.44107,      -5.66337,            0.,NA,NA,"",       1.81009,       1.77823,   338.105E-03,   7.71129E-03
C:/temp/dataset/4/3_2.odb,Step-1,Increment      1: Step Time =    1.000,"PART-1-1",           613,       5.62621,      -4.80056,            0.,NA,NA,"",       1.94074,       1.89066,   438.007E-03,   10.8597E-03
C:/temp/dataset/4/3_2.odb,Step-1,Increment      1: Step Time =    1.000,"PART-1-1",           614,            5.,        -8.125,            0.,NA,NA,"",       1.58612,       1.50817,   491.111E-03,   16.9637E-03
C:/temp/dataset/4/3_2.odb,Step-1,Increment      1: Step Time =    1.000,"PART-1-1",           615,       8.00489,       17.5473,            0.,NA,NA,"",       4.74781,       4.74779,  -11.0430E-03,   14.3527E-06
C:/temp/dataset/4/3_2.odb,Step-1,Increment      1: Step Time =    1.000,"PART-1-1",           616,       8.00828,       15.3576,            0.,NA,NA,"",       4.47005,       4.47004,   6.23391E-03,   40.7577E-06
C:/temp/dataset/4/3_2.odb,Step-1,Increment      1: Step Time =    1.000,"PART-1-1",           617,       11.1265,      -16.2686,            0.,NA,NA,"",   645.015E-03,   636.858E-03,  -102.258E-03,   7.05391E-03
C:/temp/dataset/4/3_2.odb,Step-1,Increment      1: Step Time =    1.000,"PART-1-1",           618,       9.12111,      -16.3141,            0.,NA,NA,"",   641.260E-03,   639.046E-03,   53.2412E-03,   6.50117E-03
C:/temp/dataset/4/3_2.odb,Step-1,Increment      1: Step Time =    1.000,"PART-1-1",           619,      -9.91602,       15.9767,            0.,NA,NA,"",       5.75087,       5.19917,       2.45787,   111.027E-06
C:/temp/dataset/4/3_2.odb,Step-1,Increment      1: Step Time =    1.000,"PART-1-1",           620,      -10.9598,       15.0860,            0.,NA,NA,"",       5.71498,       5.07291,       2.63186,   123.410E-06
C:/temp/dataset/4/3_2.odb,Step-1,Increment      1: Step Time =    1.000,"PART-1-1",           621,      -8.93702,       14.7598,            0.,NA,NA,"",       5.50933,       4.99707,       2.31993,   104.380E-06
C:/temp/dataset/4/3_2.odb,Step-1,Increment      1: Step Time =    1.000,"PART-1-1",           622,      -13.0880,       4.79273,            0.,NA,NA,"",       4.65156,       3.48690,       3.07872,   3.13276E-03
C:/temp/dataset/4/3_2.odb,Step-1,Increment      1: Step Time =    1.000,"PART-1-1",           623,          -15.,       4.84375,            0.,NA,NA,"",       4.87927,       3.52328,       3.37546,   3.37099E-03
C:/temp/dataset/4/3_2.odb,Step-1,Increment      1: Step Time =    1.000,"PART-1-1",           624,           -5.,       6.04167,            0.,NA,NA,"",       4.00531,       3.56996,       1.81601,   5.91361E-03
C:/temp/dataset/4/3_2.odb,Step-1,Increment      1: Step Time =    1.000,"PART-1-1",           625,      -7.12843,       5.83601,            0.,NA,NA,"",       4.16280,       3.56381,       2.15132,   4.42237E-03
C:/temp/dataset/4/3_2.odb,Step-1,Increment      1: Step Time =    1.000,"PART-1-1",           626,       12.9112,      -8.87192,            0.,NA,NA,"",       1.41303,       1.36600,  -361.519E-03,   10.6943E-03
C:/temp/dataset/4/3_2.odb,Step-1,Increment      1: Step Time =    1.000,"PART-1-1",           627,           15.,         -8.75,            0.,NA,NA,"",       1.50262,       1.37980,  -594.998E-03,   17.3146E-03
C:/temp/dataset/4/3_2.odb,Step-1,Increment      1: Step Time =    1.000,"PART-1-1",           628,       13.0740,      -16.2399,            0.,NA,NA,"",   691.448E-03,   642.068E-03,  -256.610E-03,   15.6408E-03
C:/temp/dataset/4/3_2.odb,Step-1,Increment      1: Step Time =    1.000,"PART-1-1",           629,           15.,        -16.25,            0.,NA,NA,"",   773.219E-03,   652.415E-03,  -414.998E-03,   25.2030E-03
C:/temp/dataset/4/3_2.odb,Step-1,Increment      1: Step Time =    1.000,"PART-1-1",           630,       13.0128,       13.9092,            0.,NA,NA,"",       4.29072,       4.24616,  -616.761E-03,   72.9863E-06
C:/temp/dataset/4/3_2.odb,Step-1,Increment      1: Step Time =    1.000,"PART-1-1",           631,           15.,         13.75,            0.,NA,NA,"",       4.29836,       4.20990,  -867.542E-03,   72.7900E-06
C:/temp/dataset/4/3_2.odb,Step-1,Increment      1: Step Time =    1.000,"PART-1-1",           632,       10.9505,       11.7339,            0.,NA,NA,"",       4.00122,       3.98697,  -337.389E-03,   135.200E-06
C:/temp/dataset/4/3_2.odb,Step-1,Increment      1: Step Time =    1.000,"PART-1-1",           633,       9.98883,       12.9959,            0.,NA,NA,"",       4.16079,       4.15467,  -225.693E-03,   102.048E-06
C:/temp/dataset/4/3_2.odb,Step-1,Increment      1: Step Time =    1.000,"PART-1-1",           634,       8.94372,       11.9797,            0.,NA,NA,"",       4.03506,       4.03417,  -84.8834E-03,   137.699E-06
C:/temp/dataset/4/3_2.odb,Step-1,Increment      1: Step Time =    1.000,"PART-1-1",           635,      -13.9153,       18.9000,            0.,NA,NA,"",       6.46691,       5.70455,       3.04615,   54.7378E-06
C:/temp/dataset/4/3_2.odb,Step-1,Increment      1: Step Time =    1.000,"PART-1-1",           636,      -12.6393,       19.9841,            0.,NA,NA,"",       6.50758,       5.85824,       2.83366,   53.6048E-06
C:/temp/dataset/4/3_2.odb,Step-1,Increment      1: Step Time =    1.000,"PART-1-1",           637,          -15.,       20.1563,            0.,NA,NA,"",       6.72438,       5.91408,       3.20014,   43.6845E-06
C:/temp/dataset/4/3_2.odb,Step-1,Increment      1: Step Time =    1.000,"PART-1-1",           638,       8.12191,      -21.7795,            0.,NA,NA,"",   271.163E-03,   255.315E-03,   91.3442E-03,   12.5870E-03
C:/temp/dataset/4/3_2.odb,Step-1,Increment      1: Step Time =    1.000,"PART-1-1",           639,       8.12482,      -23.8590,            0.,NA,NA,"",   164.985E-03,   149.138E-03,   70.5549E-03,   13.4357E-03
C:/temp/dataset/4/3_2.odb,Step-1,Increment      1: Step Time =    1.000,"PART-1-1",           640,       8.11825,      -19.6354,            0.,NA,NA,"",   405.263E-03,   390.165E-03,   109.586E-03,   11.7277E-03
C:/temp/dataset/4/3_2.odb,Step-1,Increment      1: Step Time =    1.000,"PART-1-1",           641,       8.10952,      -17.4508,            0.,NA,NA,"",   566.159E-03,   552.151E-03,   125.158E-03,   10.9235E-03
C:/temp/dataset/4/3_2.odb,Step-1,Increment      1: Step Time =    1.000,"PART-1-1",           642,       7.85781,       23.9076,            0.,NA,NA,"",       5.55572,       5.55555,  -43.7480E-03,   406.059E-09
C:/temp/dataset/4/3_2.odb,Step-1,Increment      1: Step Time =    1.000,"PART-1-1",           643,       7.94870,       21.8524,            0.,NA,NA,"",       5.29434,       5.29420,  -38.6835E-03,   562.037E-09
C:/temp/dataset/4/3_2.odb,Step-1,Increment      1: Step Time =    1.000,"PART-1-1",           644,       4.21929,       2.98066,            0.,NA,NA,"",       3.00165,       2.94525,   579.156E-03,   5.62398E-03
C:/temp/dataset/4/3_2.odb,Step-1,Increment      1: Step Time =    1.000,"PART-1-1",           645,       5.32392,       3.96649,            0.,NA,NA,"",       3.09001,       3.05982,   430.916E-03,   7.05543E-03
C:/temp/dataset/4/3_2.odb,Step-1,Increment      1: Step Time =    1.000,"PART-1-1",           646,          3.75,            5.,            0.,NA,NA,"",       3.28049,       3.21951,   629.591E-03,   11.0092E-03
C:/temp/dataset/4/3_2.odb,Step-1,Increment      1: Step Time =    1.000,"PART-1-1",           647,       12.8859,       9.04653,            0.,NA,NA,"",       3.67346,       3.63030,  -561.429E-03,   78.4554E-06
C:/temp/dataset/4/3_2.odb,Step-1,Increment      1: Step Time =    1.000,"PART-1-1",           648,           15.,          8.75,            0.,NA,NA,"",       3.66985,       3.57521,  -828.046E-03,   357.583E-06
C:/temp/dataset/4/3_2.odb,Step-1,Increment      1: Step Time =    1.000,"PART-1-1",           649,      -8.02807,       9.41948,            0.,NA,NA,"",       4.71551,       4.14712,       2.24442,   1.60687E-03
C:/temp/dataset/4/3_2.odb,Step-1,Increment      1: Step Time =    1.000,"PART-1-1",           650,      -8.84347,       16.8085,            0.,NA,NA,"",       5.78426,       5.31594,       2.28003,   96.8755E-06
C:/temp/dataset/4/3_2.odb,Step-1,Increment      1: Step Time =    1.000,"PART-1-1",           651,      -9.78583,       18.0165,            0.,NA,NA,"",       6.02052,       5.51609,       2.41234,   84.1025E-06
C:/temp/dataset/4/3_2.odb,Step-1,Increment      1: Step Time =    1.000,"PART-1-1",           652,          -15.,       17.9688,            0.,NA,NA,"",       6.43930,       5.57243,       3.22685,   123.467E-06
C:/temp/dataset/4/3_2.odb,Step-1,Increment      1: Step Time =    1.000,"PART-1-1",           653,          -15.,       24.5313,            0.,NA,NA,"",       7.30927,       6.59735,       3.14650,   1.05430E-06
C:/temp/dataset/4/3_2.odb,Step-1,Increment      1: Step Time =    1.000,"PART-1-1",           654,      -12.9952,       24.7258,            0.,NA,NA,"",       7.18444,       6.60314,       2.83103,   4.59711E-06
C:/temp/dataset/4/3_2.odb,Step-1,Increment      1: Step Time =    1.000,"PART-1-1",           655,      -11.4985,       21.8877,            0.,NA,NA,"",       6.68183,       6.14155,       2.63215,   23.0661E-06
C:/temp/dataset/4/3_2.odb,Step-1,Increment      1: Step Time =    1.000,"PART-1-1",           656,      -11.4490,       20.6565,            0.,NA,NA,"",       6.50798,       5.94867,       2.63954,   37.8439E-06
C:/temp/dataset/4/3_2.odb,Step-1,Increment      1: Step Time =    1.000,"PART-1-1",           657,      -10.1446,       20.7260,            0.,NA,NA,"",       6.42303,       5.94357,       2.43500,   40.7714E-06
C:/temp/dataset/4/3_2.odb,Step-1,Increment      1: Step Time =    1.000,"PART-1-1",           658,      -7.69218,       19.6350,            0.,NA,NA,"",       6.10327,       5.74318,       2.06537,   47.3635E-06
C:/temp/dataset/4/3_2.odb,Step-1,Increment      1: Step Time =    1.000,"PART-1-1",           659,      -8.68744,       18.7463,            0.,NA,NA,"",       6.04377,       5.61661,       2.23177,   72.9435E-06
C:/temp/dataset/4/3_2.odb,Step-1,Increment      1: Step Time =    1.000,"PART-1-1",           660,      -7.82721,       17.7030,            0.,NA,NA,"",       5.83790,       5.44317,       2.11020,   79.1193E-06
C:/temp/dataset/4/3_2.odb,Step-1,Increment      1: Step Time =    1.000,"PART-1-1",           661,      -9.52114,       19.8817,            0.,NA,NA,"",       6.26104,       5.80409,       2.34802,   49.6205E-06
C:/temp/dataset/4/3_2.odb,Step-1,Increment      1: Step Time =    1.000,"PART-1-1",           662,      -10.6195,       19.1519,            0.,NA,NA,"",       6.23892,       5.70356,       2.52854,   70.1161E-06
C:/temp/dataset/4/3_2.odb,Step-1,Increment      1: Step Time =    1.000,"PART-1-1",           663,      -12.1485,       3.78191,            0.,NA,NA,"",       4.43394,       3.31554,       2.94398,   2.68554E-03
C:/temp/dataset/4/3_2.odb,Step-1,Increment      1: Step Time =    1.000,"PART-1-1",           664,      -10.9850,       2.86362,            0.,NA,NA,"",       4.20278,       3.15707,       2.77420,   2.35260E-03
C:/temp/dataset/4/3_2.odb,Step-1,Increment      1: Step Time =    1.000,"PART-1-1",           665,      -9.06958,       8.49577,            0.,NA,NA,"",       4.68617,       4.01426,       2.41785,   2.51300E-03
C:/temp/dataset/4/3_2.odb,Step-1,Increment      1: Step Time =    1.000,"PART-1-1",           666,      -8.08215,       7.28595,            0.,NA,NA,"",       4.43949,       3.80929,       2.27999,   3.40312E-03
C:/temp/dataset/4/3_2.odb,Step-1,Increment      1: Step Time =    1.000,"PART-1-1",           667,      -10.1292,       7.60955,            0.,NA,NA,"",       4.67299,       3.88811,       2.59219,   3.10252E-03
C:/temp/dataset/4/3_2.odb,Step-1,Increment      1: Step Time =    1.000,"PART-1-1",           668,      -11.2104,       6.77234,            0.,NA,NA,"",       4.67809,       3.77111,       2.76826,   3.19877E-03
C:/temp/dataset/4/3_2.odb,Step-1,Increment      1: Step Time =    1.000,"PART-1-1",           669,      -10.2942,       5.63122,            0.,NA,NA,"",       4.44629,       3.57809,       2.63947,   3.63932E-03
C:/temp/dataset/4/3_2.odb,Step-1,Increment      1: Step Time =    1.000,"PART-1-1",           670,      -9.21309,       6.46842,            0.,NA,NA,"",       4.44099,       3.69475,       2.46398,   3.68811E-03
C:/temp/dataset/4/3_2.odb,Step-1,Increment      1: Step Time =    1.000,"PART-1-1",           671,        -11.25,           -5.,            0.,NA,NA,"",       3.50675,       1.96760,       2.90274,   1.27520E-03
C:/temp/dataset/4/3_2.odb,Step-1,Increment      1: Step Time =    1.000,"PART-1-1",           672,      -10.0273,      -3.93877,            0.,NA,NA,"",       3.43216,       2.11626,       2.70207,   1.93803E-03
C:/temp/dataset/4/3_2.odb,Step-1,Increment      1: Step Time =    1.000,"PART-1-1",           673,         -8.75,           -5.,            0.,NA,NA,"",       3.18187,       1.94285,       2.51985,   3.07193E-03
C:/temp/dataset/4/3_2.odb,Step-1,Increment      1: Step Time =    1.000,"PART-1-1",           674,      -7.59562,      -4.02918,            0.,NA,NA,"",       3.12380,       2.07911,       2.33140,   3.21146E-03
C:/temp/dataset/4/3_2.odb,Step-1,Increment      1: Step Time =    1.000,"PART-1-1",           675,      -8.87289,      -2.96795,            0.,NA,NA,"",       3.37363,       2.25048,       2.51330,   2.54086E-03
C:/temp/dataset/4/3_2.odb,Step-1,Increment      1: Step Time =    1.000,"PART-1-1",           676,         -6.25,           -5.,            0.,NA,NA,"",       2.87745,       1.92307,       2.14045,   4.81530E-03
C:/temp/dataset/4/3_2.odb,Step-1,Increment      1: Step Time =    1.000,"PART-1-1",           677,      -5.03874,      -3.83161,            0.,NA,NA,"",       2.85225,       2.08736,       1.94377,   4.06473E-03
C:/temp/dataset/4/3_2.odb,Step-1,Increment      1: Step Time =    1.000,"PART-1-1",           678,      -6.38435,      -2.86079,            0.,NA,NA,"",       3.09477,       2.24187,       2.13345,   2.85223E-03
C:/temp/dataset/4/3_2.odb,Step-1,Increment      1: Step Time =    1.000,"PART-1-1",           679,      -8.31216,       1.98044,            0.,NA,NA,"",       3.81262,       2.98448,       2.37253,   3.11407E-03
C:/temp/dataset/4/3_2.odb,Step-1,Increment      1: Step Time =    1.000,"PART-1-1",           680,      -6.89941,       1.67561,            0.,NA,NA,"",       3.63110,       2.91887,       2.15989,   3.33194E-03
C:/temp/dataset/4/3_2.odb,Step-1,Increment      1: Step Time =    1.000,"PART-1-1",           681,      -8.02347,       3.70061,            0.,NA,NA,"",       3.98193,       3.24267,       2.31103,   4.22497E-03
C:/temp/dataset/4/3_2.odb,Step-1,Increment      1: Step Time =    1.000,"PART-1-1",           682,      -9.78636,       2.36681,            0.,NA,NA,"",       4.01516,       3.06400,       2.59488,   2.75389E-03
C:/temp/dataset/4/3_2.odb,Step-1,Increment      1: Step Time =    1.000,"PART-1-1",           683,      -8.80920,   354.969E-03,            0.,NA,NA,"",       3.69099,       2.74652,       2.46578,   2.72720E-03
C:/temp/dataset/4/3_2.odb,Step-1,Increment      1: Step Time =    1.000,"PART-1-1",           684,         -3.75,           -5.,            0.,NA,NA,"",       2.60128,       1.90785,       1.76827,   6.01499E-03
C:/temp/dataset/4/3_2.odb,Step-1,Increment      1: Step Time =    1.000,"PART-1-1",           685,          3.75,           -5.,            0.,NA,NA,"",       2.00230,       1.87447,   703.968E-03,   8.32087E-03
C:/temp/dataset/4/3_2.odb,Step-1,Increment      1: Step Time =    1.000,"PART-1-1",           686,       4.46580,      -3.87501,            0.,NA,NA,"",       2.10720,       2.02284,   590.256E-03,   7.53935E-03
C:/temp/dataset/4/3_2.odb,Step-1,Increment      1: Step Time =    1.000,"PART-1-1",           687,       2.90021,      -2.90757,            0.,NA,NA,"",       2.30658,       2.16397,   798.444E-03,   2.54875E-03
C:/temp/dataset/4/3_2.odb,Step-1,Increment      1: Step Time =    1.000,"PART-1-1",           688,       11.1618,       2.81075,            0.,NA,NA,"",       2.85886,       2.84391,  -292.025E-03,   3.57694E-03
C:/temp/dataset/4/3_2.odb,Step-1,Increment      1: Step Time =    1.000,"PART-1-1",           689,       10.1850,       1.50626,            0.,NA,NA,"",       2.68640,       2.68164,  -159.909E-03,   5.33837E-03
C:/temp/dataset/4/3_2.odb,Step-1,Increment      1: Step Time =    1.000,"PART-1-1",           690,       11.6421,   144.368E-03,            0.,NA,NA,"",       2.51180,       2.49035,  -327.596E-03,   5.50196E-03
C:/temp/dataset/4/3_2.odb,Step-1,Increment      1: Step Time =    1.000,"PART-1-1",           691,         11.25,           30.,            0.,NA,NA,"",       6.32242,       6.30075,  -523.097E-03,   181.843E-09
C:/temp/dataset/4/3_2.odb,Step-1,Increment      1: Step Time =    1.000,"PART-1-1",           692,       9.19768,       26.3844,            0.,NA,NA,"",       5.86348,       5.85882,  -233.653E-03,   322.095E-09
C:/temp/dataset/4/3_2.odb,Step-1,Increment      1: Step Time =    1.000,"PART-1-1",           693,       7.72138,       25.7435,            0.,NA,NA,"",       5.78961,       5.78946,  -41.2691E-03,   368.178E-09
C:/temp/dataset/4/3_2.odb,Step-1,Increment      1: Step Time =    1.000,"PART-1-1",           694,       9.17897,      -24.8987,            0.,NA,NA,"",   103.400E-03,   100.111E-03,   25.8696E-03,   7.72510E-03
C:/temp/dataset/4/3_2.odb,Step-1,Increment      1: Step Time =    1.000,"PART-1-1",           695,       9.00589,       18.6572,            0.,NA,NA,"",       4.88268,       4.88047,  -146.945E-03,   11.0361E-06
C:/temp/dataset/4/3_2.odb,Step-1,Increment      1: Step Time =    1.000,"PART-1-1",           696,       7.99757,       19.7140,            0.,NA,NA,"",       5.02270,       5.02262,  -27.6147E-03,   3.76586E-06
C:/temp/dataset/4/3_2.odb,Step-1,Increment      1: Step Time =    1.000,"PART-1-1",           697,      -12.2498,       25.7751,            0.,NA,NA,"",       7.27792,       6.75786,       2.70175,   2.09644E-06
C:/temp/dataset/4/3_2.odb,Step-1,Increment      1: Step Time =    1.000,"PART-1-1",           698,      -11.9888,       23.9538,            0.,NA,NA,"",       7.00458,       6.47023,       2.68334,   7.46723E-06
C:/temp/dataset/4/3_2.odb,Step-1,Increment      1: Step Time =    1.000,"PART-1-1",           699,      -1.59164,      -1.60220,            0.,NA,NA,"",       2.76920,       2.38116,       1.41370,   1.37003E-03
C:/temp/dataset/4/3_2.odb,Step-1,Increment      1: Step Time =    1.000,"PART-1-1",           700,      -1.34014,  -343.401E-03,            0.,NA,NA,"",       2.89874,       2.55751,       1.36447,   770.063E-06
C:/temp/dataset/4/3_2.odb,Step-1,Increment      1: Step Time =    1.000,"PART-1-1",           701,      -2.70787,  -93.9540E-03,            0.,NA,NA,"",       3.03785,       2.60805,       1.55775,   1.10811E-03
C:/temp/dataset/4/3_2.odb,Step-1,Increment      1: Step Time =    1.000,"PART-1-1",           702,       8.06015,      -13.0184,            0.,NA,NA,"",   960.490E-03,   948.839E-03,   149.149E-03,   9.43706E-03
C:/temp/dataset/4/3_2.odb,Step-1,Increment      1: Step Time =    1.000,"PART-1-1",           703,       7.99745,      -10.7906,            0.,NA,NA,"",       1.18924,       1.17842,   160.009E-03,   8.74362E-03
C:/temp/dataset/4/3_2.odb,Step-1,Increment      1: Step Time =    1.000,"PART-1-1",           704,           15.,        -26.25,            0.,NA,NA,"",   154.496E-03,   89.3256E-03,  -126.055E-03,   35.2957E-03
C:/temp/dataset/4/3_2.odb,Step-1,Increment      1: Step Time =    1.000,"PART-1-1",           705,       13.9776,      -24.8045,            0.,NA,NA,"",   180.907E-03,   123.114E-03,  -132.553E-03,   27.0391E-03
C:/temp/dataset/4/3_2.odb,Step-1,Increment      1: Step Time =    1.000,"PART-1-1",           706,       12.6094,      -25.9010,            0.,NA,NA,"",   97.1716E-03,   71.6861E-03,  -65.6006E-03,   18.5233E-03
C:/temp/dataset/4/3_2.odb,Step-1,Increment      1: Step Time =    1.000,"PART-1-1",           707,       12.0224,      -24.3398,            0.,NA,NA,"",   143.436E-03,   124.810E-03,  -70.6860E-03,   14.2717E-03
C:/temp/dataset/4/3_2.odb,Step-1,Increment      1: Step Time =    1.000,"PART-1-1",           708,       13.0263,      -23.4242,            0.,NA,NA,"",   212.029E-03,   171.450E-03,  -124.745E-03,   19.9142E-03
C:/temp/dataset/4/3_2.odb,Step-1,Increment      1: Step Time =    1.000,"PART-1-1",           709,       12.1300,      -22.1112,            0.,NA,NA,"",   254.293E-03,   231.863E-03,  -104.426E-03,   13.6063E-03
C:/temp/dataset/4/3_2.odb,Step-1,Increment      1: Step Time =    1.000,"PART-1-1",           710,           15.,        -23.75,            0.,NA,NA,"",   270.550E-03,   178.595E-03,  -203.226E-03,   32.6770E-03
C:/temp/dataset/4/3_2.odb,Step-1,Increment      1: Step Time =    1.000,"PART-1-1",           711,       10.9035,      -9.09896,            0.,NA,NA,"",       1.35344,       1.34570,  -144.549E-03,   5.85785E-03
C:/temp/dataset/4/3_2.odb,Step-1,Increment      1: Step Time =    1.000,"PART-1-1",           712,       9.82794,      -8.10226,            0.,NA,NA,"",       1.46466,       1.46418,  -37.6282E-03,   4.61440E-03
C:/temp/dataset/4/3_2.odb,Step-1,Increment      1: Step Time =    1.000,"PART-1-1",           713,       8.90728,      -9.48784,            0.,NA,NA,"",       1.31489,       1.31321,   66.4245E-03,   5.73927E-03
C:/temp/dataset/4/3_2.odb,Step-1,Increment      1: Step Time =    1.000,"PART-1-1",           714,           15.,         -1.25,            0.,NA,NA,"",       2.40220,       2.28769,  -732.828E-03,   6.33670E-03
C:/temp/dataset/4/3_2.odb,Step-1,Increment      1: Step Time =    1.000,"PART-1-1",           715,       12.7555,      -1.12336,            0.,NA,NA,"",       2.36057,       2.31704,  -451.283E-03,   5.98425E-03
C:/temp/dataset/4/3_2.odb,Step-1,Increment      1: Step Time =    1.000,"PART-1-1",           716,       11.5680,       5.48707,            0.,NA,NA,"",       3.20775,       3.18691,  -365.033E-03,   1.18636E-03
C:/temp/dataset/4/3_2.odb,Step-1,Increment      1: Step Time =    1.000,"PART-1-1",           717,       10.1222,       4.29256,            0.,NA,NA,"",       3.05105,       3.04613,  -173.266E-03,   2.90042E-03
C:/temp/dataset/4/3_2.odb,Step-1,Increment      1: Step Time =    1.000,"PART-1-1",           718,       8.27918,   509.070E-03,            0.,NA,NA,"",       2.56941,       2.56810,   82.2644E-03,   6.72417E-03
C:/temp/dataset/4/3_2.odb,Step-1,Increment      1: Step Time =    1.000,"PART-1-1",           719,       9.70893,  -124.236E-03,            0.,NA,NA,"",       2.47215,       2.47057,  -88.3612E-03,   6.65129E-03
C:/temp/dataset/4/3_2.odb,Step-1,Increment      1: Step Time =    1.000,"PART-1-1",           720,       8.75521,       2.13956,            0.,NA,NA,"",       2.77908,       2.77906,   12.4876E-03,   5.59958E-03
C:/temp/dataset/4/3_2.odb,Step-1,Increment      1: Step Time =    1.000,"PART-1-1",           721,       6.99874,       4.90963,            0.,NA,NA,"",       3.16556,       3.15819,   215.747E-03,   4.13574E-03
C:/temp/dataset/4/3_2.odb,Step-1,Increment      1: Step Time =    1.000,"PART-1-1",           722,       8.01086,       5.41567,            0.,NA,NA,"",       3.21247,       3.21135,   84.8807E-03,   2.81199E-03
C:/temp/dataset/4/3_2.odb,Step-1,Increment      1: Step Time =    1.000,"PART-1-1",           723,       11.8045,       7.99587,            0.,NA,NA,"",       3.53006,       3.50554,  -415.381E-03,   181.209E-06
C:/temp/dataset/4/3_2.odb,Step-1,Increment      1: Step Time =    1.000,"PART-1-1",           724,       7.91904,       10.9856,            0.,NA,NA,"",       3.91667,       3.91631,   53.0503E-03,   154.093E-06
C:/temp/dataset/4/3_2.odb,Step-1,Increment      1: Step Time =    1.000,"PART-1-1",           725,       11.0233,       18.7016,            0.,NA,NA,"",       4.88649,       4.86983,  -403.139E-03,   10.7662E-06
C:/temp/dataset/4/3_2.odb,Step-1,Increment      1: Step Time =    1.000,"PART-1-1",           726,       10.0074,       19.8076,            0.,NA,NA,"",       5.02626,       5.01828,  -283.244E-03,   4.16917E-06
C:/temp/dataset/4/3_2.odb,Step-1,Increment      1: Step Time =    1.000,"PART-1-1",           727,       10.9673,       21.0105,            0.,NA,NA,"",       5.17970,       5.16307,  -414.674E-03,   2.40150E-06
C:/temp/dataset/4/3_2.odb,Step-1,Increment      1: Step Time =    1.000,"PART-1-1",           728,       8.97465,       20.8454,            0.,NA,NA,"",       5.16071,       5.15821,  -160.654E-03,   2.70808E-06
C:/temp/dataset/4/3_2.odb,Step-1,Increment      1: Step Time =    1.000,"PART-1-1",           729,       8.66510,       24.8184,            0.,NA,NA,"",       5.66661,       5.66453,  -153.474E-03,   403.140E-09
C:/temp/dataset/4/3_2.odb,Step-1,Increment      1: Step Time =    1.000,"PART-1-1",           730,       7.98376,       13.1681,            0.,NA,NA,"",       4.19264,       4.19255,   27.0870E-03,   91.5810E-06
C:/temp/dataset/4/3_2.odb,Step-1,Increment      1: Step Time =    1.000,"PART-1-1",           731,      -1.95806,       1.80915,            0.,NA,NA,"",       3.20887,       2.87177,       1.43171,   4.56722E-03
C:/temp/dataset/4/3_2.odb,Step-1,Increment      1: Step Time =    1.000,"PART-1-1",           732,  -613.587E-03,   828.335E-03,            0.,NA,NA,"",       2.98912,       2.71487,       1.25072,   2.72332E-03
C:/temp/dataset/4/3_2.odb,Step-1,Increment      1: Step Time =    1.000,"PART-1-1",           733,   461.223E-03,       1.99751,            0.,NA,NA,"",       3.06531,       2.86441,       1.09145,   5.00318E-03
C:/temp/dataset/4/3_2.odb,Step-1,Increment      1: Step Time =    1.000,"PART-1-1",           734,       1.74006,       1.04512,            0.,NA,NA,"",       2.86853,       2.71587,   923.316E-03,   3.44037E-03
C:/temp/dataset/4/3_2.odb,Step-1,Increment      1: Step Time =    1.000,"PART-1-1",           735,   906.022E-03,  -39.5003E-03,            0.,NA,NA,"",       2.78041,       2.57584,       1.04676,   1.51700E-03
C:/temp/dataset/4/3_2.odb,Step-1,Increment      1: Step Time =    1.000,"PART-1-1",           736,       2.15034,  -968.542E-03,            0.,NA,NA,"",       2.59031,       2.43477,   884.078E-03,   899.349E-06
C:/temp/dataset/4/3_2.odb,Step-1,Increment      1: Step Time =    1.000,"PART-1-1",           737,       2.98438,   116.081E-03,            0.,NA,NA,"",       2.68467,       2.57419,   762.242E-03,   2.58115E-03
C:/temp/dataset/4/3_2.odb,Step-1,Increment      1: Step Time =    1.000,"PART-1-1",           738,      -8.25937,       5.01848,            0.,NA,NA,"",       4.16648,       3.45168,       2.33354,   4.58015E-03
C:/temp/dataset/4/3_2.odb,Step-1,Increment      1: Step Time =    1.000,"PART-1-1",           739,      -2.78312,       1.01462,            0.,NA,NA,"",       3.17624,       2.76838,       1.55710,   2.42210E-03
C:/temp/dataset/4/3_2.odb,Step-1,Increment      1: Step Time =    1.000,"PART-1-1",           740,      -4.31499,   913.536E-03,            0.,NA,NA,"",       3.29571,       2.77293,       1.78117,   2.16418E-03
C:/temp/dataset/4/3_2.odb,Step-1,Increment      1: Step Time =    1.000,"PART-1-1",           741,      -4.23975,  -195.042E-03,            0.,NA,NA,"",       3.16083,       2.61045,       1.78225,   1.47401E-03
C:/temp/dataset/4/3_2.odb,Step-1,Increment      1: Step Time =    1.000,"PART-1-1",           742,      -8.52646,       20.5688,            0.,NA,NA,"",       6.29059,       5.89921,       2.18421,   41.1606E-06
C:/temp/dataset/4/3_2.odb,Step-1,Increment      1: Step Time =    1.000,"PART-1-1",           743,       8.09873,      -15.2435,            0.,NA,NA,"",   751.650E-03,   738.947E-03,   137.603E-03,   10.1300E-03
C:/temp/dataset/4/3_2.odb,Step-1,Increment      1: Step Time =    1.000,"PART-1-1",           744,       8.99676,       14.2096,            0.,NA,NA,"",       4.31791,       4.31652,  -109.777E-03,   79.0031E-06
C:/temp/dataset/4/3_2.odb,Step-1,Increment      1: Step Time =    1.000,"PART-1-1",           745,       11.0169,       14.0599,            0.,NA,NA,"",       4.29685,       4.28134,  -364.760E-03,   79.5770E-06
C:/temp/dataset/4/3_2.odb,Step-1,Increment      1: Step Time =    1.000,"PART-1-1",           746,      -7.91902,       15.6847,            0.,NA,NA,"",       5.56122,       5.12907,       2.14938,   86.0367E-06
C:/temp/dataset/4/3_2.odb,Step-1,Increment      1: Step Time =    1.000,"PART-1-1",           747,      -11.9968,       14.1876,            0.,NA,NA,"",       5.68546,       4.94552,       2.80469,   170.617E-06
C:/temp/dataset/4/3_2.odb,Step-1,Increment      1: Step Time =    1.000,"PART-1-1",           748,      -11.1175,       8.79310,            0.,NA,NA,"",       4.91718,       4.08878,       2.73141,   2.51826E-03
C:/temp/dataset/4/3_2.odb,Step-1,Increment      1: Step Time =    1.000,"PART-1-1",           749,       10.6592,      -6.44981,            0.,NA,NA,"",       1.66098,       1.65483,  -142.878E-03,   6.29875E-03
C:/temp/dataset/4/3_2.odb,Step-1,Increment      1: Step Time =    1.000,"PART-1-1",           750,      -10.7894,       23.3985,            0.,NA,NA,"",       6.84295,       6.36881,       2.50286,   13.2110E-06
C:/temp/dataset/4/3_2.odb,Step-1,Increment      1: Step Time =    1.000,"PART-1-1",           751,       10.0228,      -25.8019,            0.,NA,NA,"",   66.1298E-03,   66.1298E-03,  -44.9893E-06,   4.73883E-03
C:/temp/dataset/4/3_2.odb,Step-1,Increment      1: Step Time =    1.000,"PART-1-1",           752,       10.9542,      -24.8826,            0.,NA,NA,"",   103.635E-03,   99.3295E-03,  -29.5616E-03,   7.67911E-03
C:/temp/dataset/4/3_2.odb,Step-1,Increment      1: Step Time =    1.000,"PART-1-1",           753,       11.8371,      -2.37854,            0.,NA,NA,"",       2.18400,       2.15973,  -324.644E-03,   6.85078E-03
C:/temp/dataset/4/3_2.odb,Step-1,Increment      1: Step Time =    1.000,"PART-1-1",           754,       11.6235,      -5.02753,            0.,NA,NA,"",       1.84414,       1.82449,  -268.469E-03,   7.26798E-03
C:/temp/dataset/4/3_2.odb,Step-1,Increment      1: Step Time =    1.000,"PART-1-1",           755,      -12.1333,       7.86930,            0.,NA,NA,"",       4.90547,       3.95728,       2.89889,   2.88255E-03
C:/temp/dataset/4/3_2.odb,Step-1,Increment      1: Step Time =    1.000,"PART-1-1",           756,      -12.0768,       9.95169,            0.,NA,NA,"",       5.15519,       4.28448,       2.86691,   2.11854E-03
C:/temp/dataset/4/3_2.odb,Step-1,Increment      1: Step Time =    1.000,"PART-1-1",           757,       8.68743,       3.64563,            0.,NA,NA,"",       2.97694,       2.97692,   11.1478E-03,   4.23809E-03
C:/temp/dataset/4/3_2.odb,Step-1,Increment      1: Step Time =    1.000,"PART-1-1",           758,       6.61848,       3.66599,            0.,NA,NA,"",       3.01599,       3.00387,   270.078E-03,   5.69587E-03
C:/temp/dataset/4/3_2.odb,Step-1,Increment      1: Step Time =    1.000,"PART-1-1",           759,       4.71579,   65.6079E-03,            0.,NA,NA,"",       2.60317,       2.54783,   533.866E-03,   4.31457E-03
C:/temp/dataset/4/3_2.odb,Step-1,Increment      1: Step Time =    1.000,"PART-1-1",           760,       3.89104,   957.250E-03,            0.,NA,NA,"",       2.75221,       2.67775,   635.822E-03,   4.14033E-03
C:/temp/dataset/4/3_2.odb,Step-1,Increment      1: Step Time =    1.000,"PART-1-1",           761,      -12.0363,       12.0623,            0.,NA,NA,"",       5.41656,       4.61459,       2.83631,   1.03353E-03
C:/temp/dataset/4/3_2.odb,Step-1,Increment      1: Step Time =    1.000,"PART-1-1",           762,      -12.1964,       5.82098,            0.,NA,NA,"",       4.66953,       3.63551,       2.93045,   3.35245E-03
C:/temp/dataset/4/3_2.odb,Step-1,Increment      1: Step Time =    1.000,"PART-1-1",           763,      -11.2570,       4.81016,            0.,NA,NA,"",       4.45114,       3.46331,       2.79609,   3.09885E-03
C:/temp/dataset/4/3_2.odb,Step-1,Increment      1: Step Time =    1.000,"PART-1-1",           764,      -10.5260,       3.94381,            0.,NA,NA,"",       4.27280,       3.31768,       2.69255,   3.08013E-03
C:/temp/dataset/4/3_2.odb,Step-1,Increment      1: Step Time =    1.000,"PART-1-1",           765,      -9.56326,       4.76486,            0.,NA,NA,"",       4.26704,       3.43147,       2.53627,   3.48453E-03
C:/temp/dataset/4/3_2.odb,Step-1,Increment      1: Step Time =    1.000,"PART-1-1",           766,      -9.32737,       3.44699,            0.,NA,NA,"",       4.08732,       3.22315,       2.51346,   3.29523E-03
C:/temp/dataset/4/3_2.odb,Step-1,Increment      1: Step Time =    1.000,"PART-1-1",           767,       11.5413,      -26.4438,            0.,NA,NA,"",   59.6321E-03,   49.6861E-03,  -32.9739E-03,   11.4189E-03
C:/temp/dataset/4/3_2.odb,Step-1,Increment      1: Step Time =    1.000,"PART-1-1",           768,       5.97241,      -3.36228,            0.,NA,NA,"",       2.11226,       2.07597,   389.852E-03,   6.67233E-03
C:/temp/dataset/4/3_2.odb,Step-1,Increment      1: Step Time =    1.000,"PART-1-1",           769,       11.9304,       22.2704,            0.,NA,NA,"",       5.34314,       5.31506,  -546.975E-03,   432.503E-09
C:/temp/dataset/4/3_2.odb,Step-1,Increment      1: Step Time =    1.000,"PART-1-1",           770,      -3.95064,       2.12654,            0.,NA,NA,"",       3.40838,       2.94542,       1.71510,   3.58110E-03
C:/temp/dataset/4/3_2.odb,Step-1,Increment      1: Step Time =    1.000,"PART-1-1",           771,       12.1361,      -19.7979,            0.,NA,NA,"",   395.476E-03,   371.619E-03,  -135.278E-03,   12.6875E-03
C:/temp/dataset/4/3_2.odb,Step-1,Increment      1: Step Time =    1.000,"PART-1-1",           772,       12.1156,      -17.4436,            0.,NA,NA,"",   566.574E-03,   542.141E-03,  -164.588E-03,   11.6023E-03
C:/temp/dataset/4/3_2.odb,Step-1,Increment      1: Step Time =    1.000,"PART-1-1",           773,       11.8489,      -7.73518,            0.,NA,NA,"",       1.52064,       1.49804,  -261.242E-03,   7.54149E-03
C:/temp/dataset/4/3_2.odb,Step-1,Increment      1: Step Time =    1.000,"PART-1-1",           774,       11.9658,      -10.2357,            0.,NA,NA,"",       1.24157,       1.21762,  -242.675E-03,   8.32715E-03
C:/temp/dataset/4/3_2.odb,Step-1,Increment      1: Step Time =    1.000,"PART-1-1",           775,       10.7237,      -1.11081,            0.,NA,NA,"",       2.34119,       2.33235,  -203.215E-03,   6.70299E-03
C:/temp/dataset/4/3_2.odb,Step-1,Increment      1: Step Time =    1.000,"PART-1-1",           776,       11.9194,       10.4262,            0.,NA,NA,"",       3.83975,       3.81332,  -449.750E-03,   139.997E-06
C:/temp/dataset/4/3_2.odb,Step-1,Increment      1: Step Time =    1.000,"PART-1-1",           777,       11.9945,       12.8006,            0.,NA,NA,"",       4.14157,       4.11383,  -478.582E-03,   95.9457E-06
C:/temp/dataset/4/3_2.odb,Step-1,Increment      1: Step Time =    1.000,"PART-1-1",           778,       12.0317,      -12.6649,            0.,NA,NA,"",   990.926E-03,   966.505E-03,  -218.641E-03,   9.36471E-03
C:/temp/dataset/4/3_2.odb,Step-1,Increment      1: Step Time =    1.000,"PART-1-1",           779,       12.0352,       15.1685,            0.,NA,NA,"",       4.44225,       4.41369,  -502.913E-03,   42.8152E-06
C:/temp/dataset/4/3_2.odb,Step-1,Increment      1: Step Time =    1.000,"PART-1-1",           780,      -7.80161,      -2.23284,            0.,NA,NA,"",       3.31628,       2.34904,       2.34087,   2.62076E-03
C:/temp/dataset/4/3_2.odb,Step-1,Increment      1: Step Time =    1.000,"PART-1-1",           781,      -8.87876,  -905.543E-03,            0.,NA,NA,"",       3.57061,       2.55884,       2.49029,   2.58658E-03
C:/temp/dataset/4/3_2.odb,Step-1,Increment      1: Step Time =    1.000,"PART-1-1",           782,      -7.16649,      -1.00336,            0.,NA,NA,"",       3.36836,       2.52450,       2.22997,   2.54242E-03
C:/temp/dataset/4/3_2.odb,Step-1,Increment      1: Step Time =    1.000,"PART-1-1",           783,      -7.09692,   257.153E-03,            0.,NA,NA,"",       3.49419,       2.71037,       2.20528,   2.57013E-03
C:/temp/dataset/4/3_2.odb,Step-1,Increment      1: Step Time =    1.000,"PART-1-1",           784,      -5.74923,      -1.63131,            0.,NA,NA,"",       3.15182,       2.41669,       2.02326,   2.33420E-03
C:/temp/dataset/4/3_2.odb,Step-1,Increment      1: Step Time =    1.000,"PART-1-1",           785,      -5.66693,  -67.3201E-03,            0.,NA,NA,"",       3.31201,       2.64529,       1.99296,   2.18397E-03
C:/temp/dataset/4/3_2.odb,Step-1,Increment      1: Step Time =    1.000,"PART-1-1",           786,      -5.46941,       1.35113,            0.,NA,NA,"",       3.45318,       2.85155,       1.94760,   2.81622E-03
C:/temp/dataset/4/3_2.odb,Step-1,Increment      1: Step Time =    1.000,"PART-1-1",           787,       12.0849,      -15.0650,            0.,NA,NA,"",   765.737E-03,   741.058E-03,  -192.836E-03,   10.5046E-03
C:/temp/dataset/4/3_2.odb,Step-1,Increment      1: Step Time =    1.000,"PART-1-1",           788,       7.01212,      -4.44648,            0.,NA,NA,"",       1.94424,       1.92599,   265.756E-03,   6.47930E-03
C:/temp/dataset/4/3_2.odb,Step-1,Increment      1: Step Time =    1.000,"PART-1-1",           789,       7.64174,      -3.33281,            0.,NA,NA,"",       2.07323,       2.06500,   184.566E-03,   7.06893E-03
C:/temp/dataset/4/3_2.odb,Step-1,Increment      1: Step Time =    1.000,"PART-1-1",           790,       6.60203,      -2.24861,            0.,NA,NA,"",       2.23842,       2.21738,   306.156E-03,   6.52318E-03
C:/temp/dataset/4/3_2.odb,Step-1,Increment      1: Step Time =    1.000,"PART-1-1",           791,       6.68626,       2.15992,            0.,NA,NA,"",       2.81807,       2.80509,   270.128E-03,   6.28267E-03
C:/temp/dataset/4/3_2.odb,Step-1,Increment      1: Step Time =    1.000,"PART-1-1",           792,       12.0103,       19.9021,            0.,NA,NA,"",       5.04288,       5.01410,  -537.990E-03,   3.20441E-06
C:/temp/dataset/4/3_2.odb,Step-1,Increment      1: Step Time =    1.000,"PART-1-1",           793,       12.0305,       17.5416,            0.,NA,NA,"",       4.74337,       4.71461,  -521.497E-03,   14.0677E-06
C:/temp/dataset/4/3_2.odb,Step-1,Increment      1: Step Time =    1.000,"PART-1-1",           794,       6.09271,      -1.14349,            0.,NA,NA,"",       2.39818,       2.37033,   364.435E-03,   5.82542E-03
C:/temp/dataset/4/3_2.odb,Step-1,Increment      1: Step Time =    1.000,"PART-1-1",           795,       7.56053,      -1.65505,            0.,NA,NA,"",       2.29451,       2.28708,   184.552E-03,   7.21553E-03
C:/temp/dataset/4/3_2.odb,Step-1,Increment      1: Step Time =    1.000,"PART-1-1",           796,       7.05122,  -549.935E-03,            0.,NA,NA,"",       2.45145,       2.43959,   240.880E-03,   6.75786E-03
C:/temp/dataset/4/3_2.odb,Step-1,Increment      1: Step Time =    1.000,"PART-1-1",           797,       5.28588,       1.87348,            0.,NA,NA,"",       2.81997,       2.78400,   448.979E-03,   5.46765E-03
C:/temp/dataset/4/3_2.odb,Step-1,Increment      1: Step Time =    1.000,"PART-1-1",           798,       5.70847,   325.226E-03,            0.,NA,NA,"",       2.60312,       2.57148,   404.596E-03,   5.66575E-03
C:/temp/dataset/4/3_2.odb,Step-1,Increment      1: Step Time =    1.000,"PART-1-1",           799,       7.10885,   611.668E-03,            0.,NA,NA,"",       2.60403,       2.59414,   226.644E-03,   6.44524E-03
C:/temp/dataset/4/3_2.odb,Step-1,Increment      1: Step Time =    1.000,"PART-1-1",           800,       9.00326,      -1.31280,            0.,NA,NA,"",       2.31944,       2.31943,   6.64946E-03,   7.26399E-03
C:/temp/dataset/4/3_2.odb,Step-1,Increment      1: Step Time =    1.000,"PART-1-1",           801,       8.22155,  -652.532E-03,            0.,NA,NA,"",       2.41607,       2.41412,   97.1490E-03,   7.08410E-03
C:/temp/dataset/4/3_2.odb,Step-1,Increment      1: Step Time =    1.000,"PART-1-1",           802,       8.34224,      -2.31533,            0.,NA,NA,"",       2.19470,       2.19270,   93.7090E-03,   7.29615E-03
C:/temp/dataset/4/3_2.odb,Step-1,Increment      1: Step Time =    1.000,"PART-1-1",           803,       2.82445,       2.06443,            0.,NA,NA,"",       2.94346,       2.84108,   769.564E-03,   5.02662E-03
