ODB Name,Step,Frame,Part Instance Name,    êﬂì_ÉâÉxÉã,X,Y,Z,Section Name,Material Name,Section Point,   U-Magnitude,          U-U1,          U-U2,       S-Mises
C:/temp/dataset/4/3_25.odb,Step-1,Increment      1: Step Time =    1.000,"PART-1-1",             1,           -5.,           30.,            0.,NA,NA,"",       9.31495,       9.15190,       1.73522,   39.1739E-09
C:/temp/dataset/4/3_25.odb,Step-1,Increment      1: Step Time =    1.000,"PART-1-1",             2,          -15.,           30.,            0.,NA,NA,"",       10.0390,       9.34195,       3.67550,   49.5991E-09
C:/temp/dataset/4/3_25.odb,Step-1,Increment      1: Step Time =    1.000,"PART-1-1",             3,          -15.,         21.25,            0.,NA,NA,"",       8.55523,       7.64414,       3.84177,   24.4689E-06
C:/temp/dataset/4/3_25.odb,Step-1,Increment      1: Step Time =    1.000,"PART-1-1",             4,          -15.,          12.5,            0.,NA,NA,"",       7.17208,       5.94993,       4.00463,   1.46599E-03
C:/temp/dataset/4/3_25.odb,Step-1,Increment      1: Step Time =    1.000,"PART-1-1",             5,          -15.,          3.75,            0.,NA,NA,"",       5.94117,       4.24621,       4.15538,   4.28971E-03
C:/temp/dataset/4/3_25.odb,Step-1,Increment      1: Step Time =    1.000,"PART-1-1",             6,          -15.,           -5.,            0.,NA,NA,"",       5.01354,       2.58063,       4.29837,   156.118E-06
C:/temp/dataset/4/3_25.odb,Step-1,Increment      1: Step Time =    1.000,"PART-1-1",             7,          -10.,           -5.,            0.,NA,NA,"",       4.17427,       2.49308,       3.34800,   2.61105E-03
C:/temp/dataset/4/3_25.odb,Step-1,Increment      1: Step Time =    1.000,"PART-1-1",             8,           -5.,           -5.,            0.,NA,NA,"",       3.41672,       2.42629,       2.40564,   6.96031E-03
C:/temp/dataset/4/3_25.odb,Step-1,Increment      1: Step Time =    1.000,"PART-1-1",             9,            0.,           -5.,            0.,NA,NA,"",       2.81441,       2.37958,       1.50283,   7.61900E-03
C:/temp/dataset/4/3_25.odb,Step-1,Increment      1: Step Time =    1.000,"PART-1-1",            10,            5.,           -5.,            0.,NA,NA,"",       2.42176,       2.34039,   622.488E-03,   20.8541E-03
C:/temp/dataset/4/3_25.odb,Step-1,Increment      1: Step Time =    1.000,"PART-1-1",            11,            5.,        -11.25,            0.,NA,NA,"",       1.56047,       1.45686,   559.126E-03,   24.8180E-03
C:/temp/dataset/4/3_25.odb,Step-1,Increment      1: Step Time =    1.000,"PART-1-1",            12,            5.,         -17.5,            0.,NA,NA,"",   851.288E-03,   730.039E-03,   437.875E-03,   33.1896E-03
C:/temp/dataset/4/3_25.odb,Step-1,Increment      1: Step Time =    1.000,"PART-1-1",            13,            5.,        -23.75,            0.,NA,NA,"",   342.995E-03,   237.110E-03,   247.840E-03,   41.3859E-03
C:/temp/dataset/4/3_25.odb,Step-1,Increment      1: Step Time =    1.000,"PART-1-1",            14,            5.,          -30.,            0.,NA,NA,"",            0.,   15.4856E-39,   28.9666E-39,   56.6308E-03
C:/temp/dataset/4/3_25.odb,Step-1,Increment      1: Step Time =    1.000,"PART-1-1",            15,           15.,          -30.,            0.,NA,NA,"",            0.,   14.8516E-39,  -28.4327E-39,   54.3099E-03
C:/temp/dataset/4/3_25.odb,Step-1,Increment      1: Step Time =    1.000,"PART-1-1",            16,           15.,         -22.5,            0.,NA,NA,"",   420.017E-03,   292.927E-03,  -301.012E-03,   39.5603E-03
C:/temp/dataset/4/3_25.odb,Step-1,Increment      1: Step Time =    1.000,"PART-1-1",            17,           15.,          -15.,            0.,NA,NA,"",       1.09450,   938.324E-03,  -563.452E-03,   29.7618E-03
C:/temp/dataset/4/3_25.odb,Step-1,Increment      1: Step Time =    1.000,"PART-1-1",            18,           15.,          -7.5,            0.,NA,NA,"",       2.04384,       1.88387,  -792.659E-03,   19.7209E-03
C:/temp/dataset/4/3_25.odb,Step-1,Increment      1: Step Time =    1.000,"PART-1-1",            19,           15.,            0.,            0.,NA,NA,"",       3.18625,       3.03543,  -968.690E-03,   5.41882E-03
C:/temp/dataset/4/3_25.odb,Step-1,Increment      1: Step Time =    1.000,"PART-1-1",            20,           15.,           7.5,            0.,NA,NA,"",       4.37125,       4.23736,      -1.07360,   554.286E-06
C:/temp/dataset/4/3_25.odb,Step-1,Increment      1: Step Time =    1.000,"PART-1-1",            21,           15.,           15.,            0.,NA,NA,"",       5.54532,       5.42139,      -1.16582,   38.9620E-06
C:/temp/dataset/4/3_25.odb,Step-1,Increment      1: Step Time =    1.000,"PART-1-1",            22,           15.,          22.5,            0.,NA,NA,"",       6.72262,       6.60358,      -1.25953,   1.72956E-06
C:/temp/dataset/4/3_25.odb,Step-1,Increment      1: Step Time =    1.000,"PART-1-1",            23,           15.,           30.,            0.,NA,NA,"",       7.90259,       7.78585,      -1.35331,   34.9735E-09
C:/temp/dataset/4/3_25.odb,Step-1,Increment      1: Step Time =    1.000,"PART-1-1",            24,            5.,           30.,            0.,NA,NA,"",       7.91402,       7.91088,   223.054E-03,   22.3525E-09
C:/temp/dataset/4/3_25.odb,Step-1,Increment      1: Step Time =    1.000,"PART-1-1",            25,            5.,         23.75,            0.,NA,NA,"",       6.93219,       6.92565,   301.198E-03,   1.20397E-06
C:/temp/dataset/4/3_25.odb,Step-1,Increment      1: Step Time =    1.000,"PART-1-1",            26,            5.,          17.5,            0.,NA,NA,"",       5.95248,       5.94038,   379.351E-03,   6.10347E-06
C:/temp/dataset/4/3_25.odb,Step-1,Increment      1: Step Time =    1.000,"PART-1-1",            27,            5.,         11.25,            0.,NA,NA,"",       4.97603,       4.95499,   457.020E-03,   270.693E-06
C:/temp/dataset/4/3_25.odb,Step-1,Increment      1: Step Time =    1.000,"PART-1-1",            28,            5.,            5.,            0.,NA,NA,"",       4.02320,       3.98825,   529.118E-03,   11.3690E-03
C:/temp/dataset/4/3_25.odb,Step-1,Increment      1: Step Time =    1.000,"PART-1-1",            29,            0.,            5.,            0.,NA,NA,"",       4.33858,       4.12027,       1.35891,   12.6916E-03
C:/temp/dataset/4/3_25.odb,Step-1,Increment      1: Step Time =    1.000,"PART-1-1",            30,           -5.,            5.,            0.,NA,NA,"",       4.80949,       4.26412,       2.22453,   17.1279E-03
C:/temp/dataset/4/3_25.odb,Step-1,Increment      1: Step Time =    1.000,"PART-1-1",            31,           -5.,         11.25,            0.,NA,NA,"",       5.89373,       5.51071,       2.09002,   360.537E-06
C:/temp/dataset/4/3_25.odb,Step-1,Increment      1: Step Time =    1.000,"PART-1-1",            32,           -5.,          17.5,            0.,NA,NA,"",       7.00984,       6.72660,       1.97251,   140.620E-06
C:/temp/dataset/4/3_25.odb,Step-1,Increment      1: Step Time =    1.000,"PART-1-1",            33,           -5.,         23.75,            0.,NA,NA,"",       8.15285,       7.93925,       1.85399,   2.53210E-06
C:/temp/dataset/4/3_25.odb,Step-1,Increment      1: Step Time =    1.000,"PART-1-1",            34,          -7.5,           30.,            0.,NA,NA,"",       9.46355,       9.19941,       2.22029,   641.000E-09
C:/temp/dataset/4/3_25.odb,Step-1,Increment      1: Step Time =    1.000,"PART-1-1",            35,          -10.,           30.,            0.,NA,NA,"",       9.63455,       9.24692,       2.70535,   1.11618E-06
C:/temp/dataset/4/3_25.odb,Step-1,Increment      1: Step Time =    1.000,"PART-1-1",            36,         -12.5,           30.,            0.,NA,NA,"",       9.82677,       9.29443,       3.19042,   606.109E-09
C:/temp/dataset/4/3_25.odb,Step-1,Increment      1: Step Time =    1.000,"PART-1-1",            37,          -15.,       27.8125,            0.,NA,NA,"",       9.66119,       8.91751,       3.71707,   665.763E-09
C:/temp/dataset/4/3_25.odb,Step-1,Increment      1: Step Time =    1.000,"PART-1-1",            38,          -15.,        25.625,            0.,NA,NA,"",       9.28760,       8.49306,       3.75864,   898.649E-09
C:/temp/dataset/4/3_25.odb,Step-1,Increment      1: Step Time =    1.000,"PART-1-1",            39,          -15.,       23.4375,            0.,NA,NA,"",       8.91875,       8.06861,       3.80022,   2.88619E-06
C:/temp/dataset/4/3_25.odb,Step-1,Increment      1: Step Time =    1.000,"PART-1-1",            40,          -15.,       19.0625,            0.,NA,NA,"",       8.19775,       7.21964,       3.88327,   85.1243E-06
C:/temp/dataset/4/3_25.odb,Step-1,Increment      1: Step Time =    1.000,"PART-1-1",            41,          -15.,        16.875,            0.,NA,NA,"",       7.84708,       6.79520,       3.92454,   223.852E-06
C:/temp/dataset/4/3_25.odb,Step-1,Increment      1: Step Time =    1.000,"PART-1-1",            42,          -15.,       14.6875,            0.,NA,NA,"",       7.50440,       6.37119,       3.96535,   669.479E-06
C:/temp/dataset/4/3_25.odb,Step-1,Increment      1: Step Time =    1.000,"PART-1-1",            43,          -15.,       10.3125,            0.,NA,NA,"",       6.84986,       5.52801,       4.04495,   2.59505E-03
C:/temp/dataset/4/3_25.odb,Step-1,Increment      1: Step Time =    1.000,"PART-1-1",            44,          -15.,         8.125,            0.,NA,NA,"",       6.53463,       5.10142,       4.08373,   3.11484E-03
C:/temp/dataset/4/3_25.odb,Step-1,Increment      1: Step Time =    1.000,"PART-1-1",            45,          -15.,        5.9375,            0.,NA,NA,"",       6.23081,       4.67410,       4.12018,   4.10575E-03
C:/temp/dataset/4/3_25.odb,Step-1,Increment      1: Step Time =    1.000,"PART-1-1",            46,          -15.,        1.5625,            0.,NA,NA,"",       5.67025,       3.82269,       4.18794,   3.71312E-03
C:/temp/dataset/4/3_25.odb,Step-1,Increment      1: Step Time =    1.000,"PART-1-1",            47,          -15.,     -625.E-03,            0.,NA,NA,"",       5.42526,       3.40717,       4.22193,   2.01163E-03
C:/temp/dataset/4/3_25.odb,Step-1,Increment      1: Step Time =    1.000,"PART-1-1",            48,          -15.,       -2.8125,            0.,NA,NA,"",       5.20620,       2.99427,       4.25897,   431.489E-06
C:/temp/dataset/4/3_25.odb,Step-1,Increment      1: Step Time =    1.000,"PART-1-1",            49,         -12.5,           -5.,            0.,NA,NA,"",       4.58831,       2.53541,       3.82416,   561.484E-06
C:/temp/dataset/4/3_25.odb,Step-1,Increment      1: Step Time =    1.000,"PART-1-1",            50,          -7.5,           -5.,            0.,NA,NA,"",       3.78036,       2.45642,       2.87352,   5.05550E-03
C:/temp/dataset/4/3_25.odb,Step-1,Increment      1: Step Time =    1.000,"PART-1-1",            51,          -2.5,           -5.,            0.,NA,NA,"",       3.09234,       2.40143,       1.94827,   8.04999E-03
C:/temp/dataset/4/3_25.odb,Step-1,Increment      1: Step Time =    1.000,"PART-1-1",            52,           2.5,           -5.,            0.,NA,NA,"",       2.58859,       2.35829,       1.06736,   8.06118E-03
C:/temp/dataset/4/3_25.odb,Step-1,Increment      1: Step Time =    1.000,"PART-1-1",            53,            5.,      -7.08333,            0.,NA,NA,"",       2.12298,       2.03606,   601.250E-03,   21.4176E-03
C:/temp/dataset/4/3_25.odb,Step-1,Increment      1: Step Time =    1.000,"PART-1-1",            54,            5.,      -9.16667,            0.,NA,NA,"",       1.83491,       1.73945,   584.132E-03,   21.9067E-03
C:/temp/dataset/4/3_25.odb,Step-1,Increment      1: Step Time =    1.000,"PART-1-1",            55,            5.,      -13.3333,            0.,NA,NA,"",       1.30369,       1.19262,   526.557E-03,   27.5780E-03
C:/temp/dataset/4/3_25.odb,Step-1,Increment      1: Step Time =    1.000,"PART-1-1",            56,            5.,      -15.4167,            0.,NA,NA,"",       1.06673,   949.527E-03,   486.125E-03,   30.4079E-03
C:/temp/dataset/4/3_25.odb,Step-1,Increment      1: Step Time =    1.000,"PART-1-1",            57,            5.,      -19.5833,            0.,NA,NA,"",   658.601E-03,   536.565E-03,   381.907E-03,   35.9578E-03
C:/temp/dataset/4/3_25.odb,Step-1,Increment      1: Step Time =    1.000,"PART-1-1",            58,            5.,      -21.6667,            0.,NA,NA,"",   489.267E-03,   371.444E-03,   318.452E-03,   38.6370E-03
C:/temp/dataset/4/3_25.odb,Step-1,Increment      1: Step Time =    1.000,"PART-1-1",            59,            5.,      -25.8333,            0.,NA,NA,"",   217.930E-03,   134.931E-03,   171.135E-03,   42.9555E-03
C:/temp/dataset/4/3_25.odb,Step-1,Increment      1: Step Time =    1.000,"PART-1-1",            60,            5.,      -27.9167,            0.,NA,NA,"",   111.165E-03,   64.8507E-03,   90.2884E-03,   47.8424E-03
C:/temp/dataset/4/3_25.odb,Step-1,Increment      1: Step Time =    1.000,"PART-1-1",            61,           7.5,          -30.,            0.,NA,NA,"",            0.,   4.04706E-39,   65.0055E-39,   17.0467E-03
C:/temp/dataset/4/3_25.odb,Step-1,Increment      1: Step Time =    1.000,"PART-1-1",            62,           10.,          -30.,            0.,NA,NA,"",            0.,  -9.49438E-39,   389.667E-42,   4.75350E-03
C:/temp/dataset/4/3_25.odb,Step-1,Increment      1: Step Time =    1.000,"PART-1-1",            63,          12.5,          -30.,            0.,NA,NA,"",            0.,   27.3146E-39,  -59.1962E-39,   17.1304E-03
C:/temp/dataset/4/3_25.odb,Step-1,Increment      1: Step Time =    1.000,"PART-1-1",            64,           15.,         -27.5,            0.,NA,NA,"",   127.344E-03,   70.3858E-03,  -106.124E-03,   47.0876E-03
C:/temp/dataset/4/3_25.odb,Step-1,Increment      1: Step Time =    1.000,"PART-1-1",            65,           15.,          -25.,            0.,NA,NA,"",   260.136E-03,   159.153E-03,  -205.770E-03,   41.8236E-03
C:/temp/dataset/4/3_25.odb,Step-1,Increment      1: Step Time =    1.000,"PART-1-1",            66,           15.,          -20.,            0.,NA,NA,"",   611.694E-03,   469.164E-03,  -392.498E-03,   36.1690E-03
C:/temp/dataset/4/3_25.odb,Step-1,Increment      1: Step Time =    1.000,"PART-1-1",            67,           15.,         -17.5,            0.,NA,NA,"",   836.730E-03,   685.488E-03,  -479.815E-03,   32.9850E-03
C:/temp/dataset/4/3_25.odb,Step-1,Increment      1: Step Time =    1.000,"PART-1-1",            68,           15.,         -12.5,            0.,NA,NA,"",       1.38322,       1.22441,  -643.531E-03,   26.5709E-03
C:/temp/dataset/4/3_25.odb,Step-1,Increment      1: Step Time =    1.000,"PART-1-1",            69,           15.,          -10.,            0.,NA,NA,"",       1.70055,       1.54057,  -720.087E-03,   23.3228E-03
C:/temp/dataset/4/3_25.odb,Step-1,Increment      1: Step Time =    1.000,"PART-1-1",            70,           15.,           -5.,            0.,NA,NA,"",       2.40965,       2.25104,  -859.796E-03,   15.3579E-03
C:/temp/dataset/4/3_25.odb,Step-1,Increment      1: Step Time =    1.000,"PART-1-1",            71,           15.,          -2.5,            0.,NA,NA,"",       2.79281,       2.63724,  -919.113E-03,   10.2989E-03
C:/temp/dataset/4/3_25.odb,Step-1,Increment      1: Step Time =    1.000,"PART-1-1",            72,           15.,           2.5,            0.,NA,NA,"",       3.58294,       3.43795,      -1.00894,   1.79213E-03
C:/temp/dataset/4/3_25.odb,Step-1,Increment      1: Step Time =    1.000,"PART-1-1",            73,           15.,            5.,            0.,NA,NA,"",       3.97834,       3.83926,      -1.04272,   143.523E-06
C:/temp/dataset/4/3_25.odb,Step-1,Increment      1: Step Time =    1.000,"PART-1-1",            74,           15.,           10.,            0.,NA,NA,"",       4.76264,       4.63292,      -1.10401,   362.392E-06
C:/temp/dataset/4/3_25.odb,Step-1,Increment      1: Step Time =    1.000,"PART-1-1",            75,           15.,          12.5,            0.,NA,NA,"",       5.15379,       5.02732,      -1.13476,   144.758E-06
C:/temp/dataset/4/3_25.odb,Step-1,Increment      1: Step Time =    1.000,"PART-1-1",            76,           15.,          17.5,            0.,NA,NA,"",       5.93735,       5.81543,      -1.19702,   5.06157E-06
C:/temp/dataset/4/3_25.odb,Step-1,Increment      1: Step Time =    1.000,"PART-1-1",            77,           15.,           20.,            0.,NA,NA,"",       6.32981,       6.20950,      -1.22828,   1.96171E-06
C:/temp/dataset/4/3_25.odb,Step-1,Increment      1: Step Time =    1.000,"PART-1-1",            78,           15.,           25.,            0.,NA,NA,"",       7.11572,       6.99767,      -1.29079,   757.810E-09
C:/temp/dataset/4/3_25.odb,Step-1,Increment      1: Step Time =    1.000,"PART-1-1",            79,           15.,          27.5,            0.,NA,NA,"",       7.50905,       7.39176,      -1.32205,   171.859E-09
C:/temp/dataset/4/3_25.odb,Step-1,Increment      1: Step Time =    1.000,"PART-1-1",            80,          12.5,           30.,            0.,NA,NA,"",       7.87574,       7.81710,  -959.219E-03,   136.042E-09
C:/temp/dataset/4/3_25.odb,Step-1,Increment      1: Step Time =    1.000,"PART-1-1",            81,           10.,           30.,            0.,NA,NA,"",       7.86868,       7.84836,  -565.128E-03,   280.171E-09
C:/temp/dataset/4/3_25.odb,Step-1,Increment      1: Step Time =    1.000,"PART-1-1",            82,           7.5,           30.,            0.,NA,NA,"",       7.88147,       7.87962,  -171.037E-03,   141.889E-09
C:/temp/dataset/4/3_25.odb,Step-1,Increment      1: Step Time =    1.000,"PART-1-1",            83,            5.,       27.9167,            0.,NA,NA,"",       7.58656,       7.58247,   249.101E-03,   114.595E-09
C:/temp/dataset/4/3_25.odb,Step-1,Increment      1: Step Time =    1.000,"PART-1-1",            84,            5.,       25.8333,            0.,NA,NA,"",       7.25927,       7.25406,   275.149E-03,   505.658E-09
C:/temp/dataset/4/3_25.odb,Step-1,Increment      1: Step Time =    1.000,"PART-1-1",            85,            5.,       21.6667,            0.,NA,NA,"",       6.60535,       6.59724,   327.249E-03,   1.95716E-06
C:/temp/dataset/4/3_25.odb,Step-1,Increment      1: Step Time =    1.000,"PART-1-1",            86,            5.,       19.5833,            0.,NA,NA,"",       6.27877,       6.26882,   353.302E-03,   1.46639E-06
C:/temp/dataset/4/3_25.odb,Step-1,Increment      1: Step Time =    1.000,"PART-1-1",            87,            5.,       15.4167,            0.,NA,NA,"",       5.62654,       5.61192,   405.378E-03,   31.2174E-06
C:/temp/dataset/4/3_25.odb,Step-1,Increment      1: Step Time =    1.000,"PART-1-1",            88,            5.,       13.3333,            0.,NA,NA,"",       5.30102,       5.28344,   431.313E-03,   114.815E-06
C:/temp/dataset/4/3_25.odb,Step-1,Increment      1: Step Time =    1.000,"PART-1-1",            89,            5.,       9.16667,            0.,NA,NA,"",       4.65208,       4.62704,   482.104E-03,   774.679E-06
C:/temp/dataset/4/3_25.odb,Step-1,Increment      1: Step Time =    1.000,"PART-1-1",            90,            5.,       7.08333,            0.,NA,NA,"",       4.33077,       4.30114,   505.785E-03,   2.70274E-03
C:/temp/dataset/4/3_25.odb,Step-1,Increment      1: Step Time =    1.000,"PART-1-1",            91,           2.5,            5.,            0.,NA,NA,"",       4.16179,       4.05494,   937.019E-03,   13.8070E-03
C:/temp/dataset/4/3_25.odb,Step-1,Increment      1: Step Time =    1.000,"PART-1-1",            92,          -2.5,            5.,            0.,NA,NA,"",       4.55356,       4.18659,       1.79092,   13.4325E-03
C:/temp/dataset/4/3_25.odb,Step-1,Increment      1: Step Time =    1.000,"PART-1-1",            93,           -5.,       7.08333,            0.,NA,NA,"",       5.16772,       4.68932,       2.17153,   4.30416E-03
C:/temp/dataset/4/3_25.odb,Step-1,Increment      1: Step Time =    1.000,"PART-1-1",            94,           -5.,       9.16667,            0.,NA,NA,"",       5.52893,       5.10219,       2.12996,   642.364E-06
C:/temp/dataset/4/3_25.odb,Step-1,Increment      1: Step Time =    1.000,"PART-1-1",            95,           -5.,       13.3333,            0.,NA,NA,"",       6.26233,       5.91699,       2.05086,   416.152E-06
C:/temp/dataset/4/3_25.odb,Step-1,Increment      1: Step Time =    1.000,"PART-1-1",            96,           -5.,       15.4167,            0.,NA,NA,"",       6.63447,       6.32211,       2.01177,   272.348E-06
C:/temp/dataset/4/3_25.odb,Step-1,Increment      1: Step Time =    1.000,"PART-1-1",            97,           -5.,       19.5833,            0.,NA,NA,"",       7.38823,       7.13086,       1.93309,   54.9273E-06
C:/temp/dataset/4/3_25.odb,Step-1,Increment      1: Step Time =    1.000,"PART-1-1",            98,           -5.,       21.6667,            0.,NA,NA,"",       7.76934,       7.53505,       1.89357,   16.1184E-06
C:/temp/dataset/4/3_25.odb,Step-1,Increment      1: Step Time =    1.000,"PART-1-1",            99,           -5.,       25.8333,            0.,NA,NA,"",       8.53847,       8.34346,       1.81440,   729.689E-09
C:/temp/dataset/4/3_25.odb,Step-1,Increment      1: Step Time =    1.000,"PART-1-1",           100,           -5.,       27.9167,            0.,NA,NA,"",       8.92591,       8.74768,       1.77481,   543.720E-09
C:/temp/dataset/4/3_25.odb,Step-1,Increment      1: Step Time =    1.000,"PART-1-1",           101,       6.93475,       11.1046,            0.,NA,NA,"",       4.91027,       4.90784,   154.322E-03,   229.023E-06
C:/temp/dataset/4/3_25.odb,Step-1,Increment      1: Step Time =    1.000,"PART-1-1",           102,       7.10183,      -21.7370,            0.,NA,NA,"",   377.559E-03,   332.983E-03,   177.969E-03,   23.1427E-03
C:/temp/dataset/4/3_25.odb,Step-1,Increment      1: Step Time =    1.000,"PART-1-1",           103,      -7.18606,       25.6133,            0.,NA,NA,"",       8.63853,       8.34232,       2.24274,   2.65834E-06
C:/temp/dataset/4/3_25.odb,Step-1,Increment      1: Step Time =    1.000,"PART-1-1",           104,       7.08931,      -17.4629,            0.,NA,NA,"",   741.548E-03,   700.061E-03,   244.556E-03,   19.8818E-03
C:/temp/dataset/4/3_25.odb,Step-1,Increment      1: Step Time =    1.000,"PART-1-1",           105,       7.11844,      -23.8299,            0.,NA,NA,"",   241.422E-03,   198.789E-03,   136.995E-03,   24.6194E-03
C:/temp/dataset/4/3_25.odb,Step-1,Increment      1: Step Time =    1.000,"PART-1-1",           106,       7.34845,      -27.9642,            0.,NA,NA,"",   50.5687E-03,   29.8374E-03,   40.8280E-03,   26.2699E-03
C:/temp/dataset/4/3_25.odb,Step-1,Increment      1: Step Time =    1.000,"PART-1-1",           107,       7.18399,      -25.9216,            0.,NA,NA,"",   131.412E-03,   96.6070E-03,   89.0859E-03,   26.6073E-03
C:/temp/dataset/4/3_25.odb,Step-1,Increment      1: Step Time =    1.000,"PART-1-1",           108,       7.00226,      -10.9532,            0.,NA,NA,"",       1.49494,       1.46241,   310.186E-03,   15.2435E-03
C:/temp/dataset/4/3_25.odb,Step-1,Increment      1: Step Time =    1.000,"PART-1-1",           109,       6.93148,       25.8450,            0.,NA,NA,"",       7.23181,       7.23175,  -29.4700E-03,   517.994E-09
C:/temp/dataset/4/3_25.odb,Step-1,Increment      1: Step Time =    1.000,"PART-1-1",           110,       6.95256,       21.7727,            0.,NA,NA,"",       6.58957,       6.58954,   18.1232E-03,   418.438E-09
C:/temp/dataset/4/3_25.odb,Step-1,Increment      1: Step Time =    1.000,"PART-1-1",           111,       6.99069,       19.6693,            0.,NA,NA,"",       6.25759,       6.25748,   38.4139E-03,   4.10810E-06
C:/temp/dataset/4/3_25.odb,Step-1,Increment      1: Step Time =    1.000,"PART-1-1",           112,       6.98342,       13.2435,            0.,NA,NA,"",       5.24582,       5.24445,   119.925E-03,   118.522E-06
C:/temp/dataset/4/3_25.odb,Step-1,Increment      1: Step Time =    1.000,"PART-1-1",           113,       6.84904,       8.98858,            0.,NA,NA,"",       4.57994,       4.57582,   194.265E-03,   303.121E-06
C:/temp/dataset/4/3_25.odb,Step-1,Increment      1: Step Time =    1.000,"PART-1-1",           114,      -7.00061,       11.3966,            0.,NA,NA,"",       6.10330,       5.57791,       2.47734,   491.608E-06
C:/temp/dataset/4/3_25.odb,Step-1,Increment      1: Step Time =    1.000,"PART-1-1",           115,      -6.87185,       17.5946,            0.,NA,NA,"",       7.17111,       6.78062,       2.33409,   110.089E-06
C:/temp/dataset/4/3_25.odb,Step-1,Increment      1: Step Time =    1.000,"PART-1-1",           116,      -6.78696,       21.5686,            0.,NA,NA,"",       7.87590,       7.55000,       2.24215,   27.4014E-06
C:/temp/dataset/4/3_25.odb,Step-1,Increment      1: Step Time =    1.000,"PART-1-1",           117,      -6.92081,       23.5666,            0.,NA,NA,"",       8.24743,       7.94018,       2.23016,   10.2520E-06
C:/temp/dataset/4/3_25.odb,Step-1,Increment      1: Step Time =    1.000,"PART-1-1",           118,      -7.47694,       27.7553,            0.,NA,NA,"",       9.04978,       8.76344,       2.25847,   437.067E-09
C:/temp/dataset/4/3_25.odb,Step-1,Increment      1: Step Time =    1.000,"PART-1-1",           119,       6.62973,      -6.72562,            0.,NA,NA,"",       2.09499,       2.06195,   370.625E-03,   12.8440E-03
C:/temp/dataset/4/3_25.odb,Step-1,Increment      1: Step Time =    1.000,"PART-1-1",           120,       7.00244,       17.5390,            0.,NA,NA,"",       5.92182,       5.92149,   63.2006E-03,   17.0325E-06
C:/temp/dataset/4/3_25.odb,Step-1,Increment      1: Step Time =    1.000,"PART-1-1",           121,       7.05765,      -13.1226,            0.,NA,NA,"",       1.21952,       1.18432,   290.871E-03,   16.7098E-03
C:/temp/dataset/4/3_25.odb,Step-1,Increment      1: Step Time =    1.000,"PART-1-1",           122,      -6.97858,       13.4860,            0.,NA,NA,"",       6.46035,       5.98472,       2.43296,   56.7065E-06
C:/temp/dataset/4/3_25.odb,Step-1,Increment      1: Step Time =    1.000,"PART-1-1",           123,      -7.06135,       7.11796,            0.,NA,NA,"",       5.39178,       4.73750,       2.57437,   5.53711E-03
C:/temp/dataset/4/3_25.odb,Step-1,Increment      1: Step Time =    1.000,"PART-1-1",           124,       6.87626,      -8.81940,            0.,NA,NA,"",       1.78778,       1.75626,   334.184E-03,   14.1454E-03
C:/temp/dataset/4/3_25.odb,Step-1,Increment      1: Step Time =    1.000,"PART-1-1",           125,       7.08495,      -15.2974,            0.,NA,NA,"",   967.065E-03,   928.791E-03,   269.373E-03,   18.2346E-03
C:/temp/dataset/4/3_25.odb,Step-1,Increment      1: Step Time =    1.000,"PART-1-1",           126,       7.00715,       15.3887,            0.,NA,NA,"",       5.58312,       5.58240,   89.3491E-03,   51.7612E-06
C:/temp/dataset/4/3_25.odb,Step-1,Increment      1: Step Time =    1.000,"PART-1-1",           127,      -7.01992,       9.30136,            0.,NA,NA,"",       5.75060,       5.16778,       2.52257,   1.85191E-03
C:/temp/dataset/4/3_25.odb,Step-1,Increment      1: Step Time =    1.000,"PART-1-1",           128,      -6.93369,       15.5639,            0.,NA,NA,"",       6.81829,       6.38768,       2.38466,   131.568E-06
C:/temp/dataset/4/3_25.odb,Step-1,Increment      1: Step Time =    1.000,"PART-1-1",           129,      -6.79206,       19.5889,            0.,NA,NA,"",       7.52022,       7.16603,       2.28074,   61.7153E-06
C:/temp/dataset/4/3_25.odb,Step-1,Increment      1: Step Time =    1.000,"PART-1-1",           130,       7.09662,      -19.6136,            0.,NA,NA,"",   544.248E-03,   500.504E-03,   213.780E-03,   21.4973E-03
C:/temp/dataset/4/3_25.odb,Step-1,Increment      1: Step Time =    1.000,"PART-1-1",           131,       6.89670,       23.8203,            0.,NA,NA,"",       6.91302,       6.91302,   1.32852E-03,   646.770E-09
C:/temp/dataset/4/3_25.odb,Step-1,Increment      1: Step Time =    1.000,"PART-1-1",           132,       6.67676,       6.98748,            0.,NA,NA,"",       4.27154,       4.26446,   245.769E-03,   1.49769E-03
C:/temp/dataset/4/3_25.odb,Step-1,Increment      1: Step Time =    1.000,"PART-1-1",           133,      -13.0361,       12.2042,            0.,NA,NA,"",       6.88877,       5.85377,       3.63162,   1.59628E-03
C:/temp/dataset/4/3_25.odb,Step-1,Increment      1: Step Time =    1.000,"PART-1-1",           134,      -13.0483,       3.72302,            0.,NA,NA,"",       5.64976,       4.19945,       3.77947,   3.32025E-03
C:/temp/dataset/4/3_25.odb,Step-1,Increment      1: Step Time =    1.000,"PART-1-1",           135,      -13.0740,       10.0823,            0.,NA,NA,"",       6.56809,       5.44250,       3.67682,   2.92181E-03
C:/temp/dataset/4/3_25.odb,Step-1,Increment      1: Step Time =    1.000,"PART-1-1",           136,      -13.0017,       14.3509,            0.,NA,NA,"",       7.22085,       6.26794,       3.58518,   268.957E-06
C:/temp/dataset/4/3_25.odb,Step-1,Increment      1: Step Time =    1.000,"PART-1-1",           137,      -12.4480,       21.2307,            0.,NA,NA,"",       8.29695,       7.59190,       3.34701,   38.2949E-06
C:/temp/dataset/4/3_25.odb,Step-1,Increment      1: Step Time =    1.000,"PART-1-1",           138,      -13.0426,       25.7965,            0.,NA,NA,"",       9.13565,       8.48914,       3.37559,   1.98451E-06
C:/temp/dataset/4/3_25.odb,Step-1,Increment      1: Step Time =    1.000,"PART-1-1",           139,      -12.9478,       23.6552,            0.,NA,NA,"",       8.75788,       8.07185,       3.39789,   9.73734E-06
C:/temp/dataset/4/3_25.odb,Step-1,Increment      1: Step Time =    1.000,"PART-1-1",           140,      -12.8307,       18.7376,            0.,NA,NA,"",       7.91581,       7.11537,       3.46866,   97.5884E-06
C:/temp/dataset/4/3_25.odb,Step-1,Increment      1: Step Time =    1.000,"PART-1-1",           141,      -12.9472,       16.5227,            0.,NA,NA,"",       7.56384,       6.68783,       3.53336,   157.807E-06
C:/temp/dataset/4/3_25.odb,Step-1,Increment      1: Step Time =    1.000,"PART-1-1",           142,      -13.1112,       7.97345,            0.,NA,NA,"",       6.25745,       5.03092,       3.72095,   3.49994E-03
C:/temp/dataset/4/3_25.odb,Step-1,Increment      1: Step Time =    1.000,"PART-1-1",           143,      -13.1276,       5.86243,            0.,NA,NA,"",       5.95515,       4.61829,       3.75969,   4.15055E-03
C:/temp/dataset/4/3_25.odb,Step-1,Increment      1: Step Time =    1.000,"PART-1-1",           144,      -12.8109,       1.56310,            0.,NA,NA,"",       5.33797,       3.77942,       3.76960,   2.15740E-03
C:/temp/dataset/4/3_25.odb,Step-1,Increment      1: Step Time =    1.000,"PART-1-1",           145,      -12.5511,  -622.366E-03,            0.,NA,NA,"",       5.04064,       3.36128,       3.75631,   2.57890E-03
C:/temp/dataset/4/3_25.odb,Step-1,Increment      1: Step Time =    1.000,"PART-1-1",           146,      -7.69124,      -3.05836,            0.,NA,NA,"",       4.02568,       2.82061,       2.87232,   3.53886E-03
C:/temp/dataset/4/3_25.odb,Step-1,Increment      1: Step Time =    1.000,"PART-1-1",           147,      -2.59391,      -3.27074,            0.,NA,NA,"",       3.32935,       2.71110,       1.93248,   4.52165E-03
C:/temp/dataset/4/3_25.odb,Step-1,Increment      1: Step Time =    1.000,"PART-1-1",           148,      -2.06699,       2.95135,            0.,NA,NA,"",       4.18877,       3.81049,       1.73952,   8.84875E-03
C:/temp/dataset/4/3_25.odb,Step-1,Increment      1: Step Time =    1.000,"PART-1-1",           149,       1.86882,      -3.06513,            0.,NA,NA,"",       2.92779,       2.69498,       1.14414,   5.13109E-03
C:/temp/dataset/4/3_25.odb,Step-1,Increment      1: Step Time =    1.000,"PART-1-1",           150,       2.79073,       3.02834,            0.,NA,NA,"",       3.82537,       3.71607,   907.900E-03,   7.93960E-03
C:/temp/dataset/4/3_25.odb,Step-1,Increment      1: Step Time =    1.000,"PART-1-1",           151,       12.5379,       2.72923,            0.,NA,NA,"",       3.55955,       3.50493,  -621.125E-03,   3.77691E-03
C:/temp/dataset/4/3_25.odb,Step-1,Increment      1: Step Time =    1.000,"PART-1-1",           152,       12.9313,       10.2835,            0.,NA,NA,"",       4.76816,       4.70380,  -780.762E-03,   196.509E-06
C:/temp/dataset/4/3_25.odb,Step-1,Increment      1: Step Time =    1.000,"PART-1-1",           153,       12.7723,       24.8557,            0.,NA,NA,"",       7.06529,       7.00277,  -937.831E-03,   641.851E-09
C:/temp/dataset/4/3_25.odb,Step-1,Increment      1: Step Time =    1.000,"PART-1-1",           154,       12.5268,       27.4001,            0.,NA,NA,"",       7.46520,       7.40692,  -930.937E-03,   381.882E-09
C:/temp/dataset/4/3_25.odb,Step-1,Increment      1: Step Time =    1.000,"PART-1-1",           155,       12.7627,      -5.01238,            0.,NA,NA,"",       2.32198,       2.26210,  -523.916E-03,   10.5220E-03
C:/temp/dataset/4/3_25.odb,Step-1,Increment      1: Step Time =    1.000,"PART-1-1",           156,       13.0118,      -12.5921,            0.,NA,NA,"",       1.27284,       1.20882,  -398.579E-03,   16.3381E-03
C:/temp/dataset/4/3_25.odb,Step-1,Increment      1: Step Time =    1.000,"PART-1-1",           157,       9.69976,      -27.8547,            0.,NA,NA,"",   17.7849E-03,   17.0491E-03,   5.06295E-03,   6.99203E-03
C:/temp/dataset/4/3_25.odb,Step-1,Increment      1: Step Time =    1.000,"PART-1-1",           158,       13.0855,      -17.4497,            0.,NA,NA,"",   738.730E-03,   675.939E-03,  -298.042E-03,   20.4284E-03
C:/temp/dataset/4/3_25.odb,Step-1,Increment      1: Step Time =    1.000,"PART-1-1",           159,       12.9366,       22.3763,            0.,NA,NA,"",       6.67537,       6.60988,  -932.729E-03,   497.867E-09
C:/temp/dataset/4/3_25.odb,Step-1,Increment      1: Step Time =    1.000,"PART-1-1",           160,       13.0248,       17.5365,            0.,NA,NA,"",       5.91266,       5.84588,  -886.127E-03,   16.5008E-06
C:/temp/dataset/4/3_25.odb,Step-1,Increment      1: Step Time =    1.000,"PART-1-1",           161,      -10.1545,       27.3700,            0.,NA,NA,"",       9.17268,       8.73957,       2.78531,   1.26218E-06
C:/temp/dataset/4/3_25.odb,Step-1,Increment      1: Step Time =    1.000,"PART-1-1",           162,      -10.0546,      -2.87755,            0.,NA,NA,"",       4.40274,       2.89329,       3.31859,   2.93988E-03
C:/temp/dataset/4/3_25.odb,Step-1,Increment      1: Step Time =    1.000,"PART-1-1",           163,      -5.07747,      -2.66322,            0.,NA,NA,"",       3.71290,       2.85375,       2.37523,   3.58811E-03
C:/temp/dataset/4/3_25.odb,Step-1,Increment      1: Step Time =    1.000,"PART-1-1",           164,  -330.659E-03,      -3.26262,            0.,NA,NA,"",       3.09109,       2.68613,       1.52956,   4.90779E-03
C:/temp/dataset/4/3_25.odb,Step-1,Increment      1: Step Time =    1.000,"PART-1-1",           165,       3.93161,      -2.75002,            0.,NA,NA,"",       2.83536,       2.72395,   786.984E-03,   3.36402E-03
C:/temp/dataset/4/3_25.odb,Step-1,Increment      1: Step Time =    1.000,"PART-1-1",           166,       12.9585,      -10.1304,            0.,NA,NA,"",       1.58780,       1.52410,  -445.222E-03,   14.3204E-03
C:/temp/dataset/4/3_25.odb,Step-1,Increment      1: Step Time =    1.000,"PART-1-1",           167,       13.1106,      -19.8561,            0.,NA,NA,"",   522.622E-03,   461.773E-03,  -244.744E-03,   22.4784E-03
C:/temp/dataset/4/3_25.odb,Step-1,Increment      1: Step Time =    1.000,"PART-1-1",           168,       12.2637,      -27.1930,            0.,NA,NA,"",   63.8706E-03,   42.9109E-03,  -47.3087E-03,   21.7959E-03
C:/temp/dataset/4/3_25.odb,Step-1,Increment      1: Step Time =    1.000,"PART-1-1",           169,       13.0974,      -22.2394,            0.,NA,NA,"",   342.227E-03,   286.021E-03,  -187.913E-03,   24.1590E-03
C:/temp/dataset/4/3_25.odb,Step-1,Increment      1: Step Time =    1.000,"PART-1-1",           170,       13.0625,      -15.0302,            0.,NA,NA,"",   989.691E-03,   925.600E-03,  -350.362E-03,   18.4453E-03
C:/temp/dataset/4/3_25.odb,Step-1,Increment      1: Step Time =    1.000,"PART-1-1",           171,       12.8638,      -7.61343,            0.,NA,NA,"",       1.93606,       1.87418,  -485.561E-03,   12.3226E-03
C:/temp/dataset/4/3_25.odb,Step-1,Increment      1: Step Time =    1.000,"PART-1-1",           172,       12.8109,      -2.41519,            0.,NA,NA,"",       2.73159,       2.66914,  -580.752E-03,   8.66229E-03
C:/temp/dataset/4/3_25.odb,Step-1,Increment      1: Step Time =    1.000,"PART-1-1",           173,       12.7001,   168.481E-03,            0.,NA,NA,"",       3.14658,       3.08726,  -608.103E-03,   6.31501E-03
C:/temp/dataset/4/3_25.odb,Step-1,Increment      1: Step Time =    1.000,"PART-1-1",           174,       12.6773,       5.28127,            0.,NA,NA,"",       3.97207,       3.91389,  -677.361E-03,   1.32026E-03
C:/temp/dataset/4/3_25.odb,Step-1,Increment      1: Step Time =    1.000,"PART-1-1",           175,       12.8405,       7.80961,            0.,NA,NA,"",       4.37625,       4.31402,  -735.401E-03,   136.552E-06
C:/temp/dataset/4/3_25.odb,Step-1,Increment      1: Step Time =    1.000,"PART-1-1",           176,       12.9955,       12.7023,            0.,NA,NA,"",       5.15023,       5.08435,  -821.109E-03,   130.963E-06
C:/temp/dataset/4/3_25.odb,Step-1,Increment      1: Step Time =    1.000,"PART-1-1",           177,       13.0102,       19.9477,            0.,NA,NA,"",       6.29285,       6.22612,  -913.957E-03,   3.08259E-06
C:/temp/dataset/4/3_25.odb,Step-1,Increment      1: Step Time =    1.000,"PART-1-1",           178,       9.88408,       27.1269,            0.,NA,NA,"",       7.41453,       7.39691,  -510.933E-03,   327.853E-09
C:/temp/dataset/4/3_25.odb,Step-1,Increment      1: Step Time =    1.000,"PART-1-1",           179,       13.0301,       15.1161,            0.,NA,NA,"",       5.53109,       5.46434,  -856.713E-03,   55.3113E-06
C:/temp/dataset/4/3_25.odb,Step-1,Increment      1: Step Time =    1.000,"PART-1-1",           180,   300.490E-03,       3.00528,            0.,NA,NA,"",       3.99379,       3.76646,       1.32821,   8.79939E-03
C:/temp/dataset/4/3_25.odb,Step-1,Increment      1: Step Time =    1.000,"PART-1-1",           181,      -4.18418,       2.89078,            0.,NA,NA,"",       4.39080,       3.84725,       2.11609,   5.55611E-03
C:/temp/dataset/4/3_25.odb,Step-1,Increment      1: Step Time =    1.000,"PART-1-1",           182,      -8.75093,       23.2164,            0.,NA,NA,"",       8.32098,       7.90699,       2.59192,   16.4573E-06
C:/temp/dataset/4/3_25.odb,Step-1,Increment      1: Step Time =    1.000,"PART-1-1",           183,       9.13120,      -23.8882,            0.,NA,NA,"",   182.283E-03,   177.793E-03,   40.2098E-03,   9.87119E-03
C:/temp/dataset/4/3_25.odb,Step-1,Increment      1: Step Time =    1.000,"PART-1-1",           184,       8.76025,       8.63504,            0.,NA,NA,"",       4.49756,       4.49641,  -101.812E-03,   275.116E-06
C:/temp/dataset/4/3_25.odb,Step-1,Increment      1: Step Time =    1.000,"PART-1-1",           185,       8.81891,       23.9948,            0.,NA,NA,"",       6.92317,       6.91649,  -303.866E-03,   601.915E-09
C:/temp/dataset/4/3_25.odb,Step-1,Increment      1: Step Time =    1.000,"PART-1-1",           186,       9.00734,       17.5557,            0.,NA,NA,"",       5.90451,       5.89909,  -253.041E-03,   21.6489E-06
C:/temp/dataset/4/3_25.odb,Step-1,Increment      1: Step Time =    1.000,"PART-1-1",           187,      -8.59230,       19.6811,            0.,NA,NA,"",       7.68177,       7.21811,       2.62839,   69.4934E-06
C:/temp/dataset/4/3_25.odb,Step-1,Increment      1: Step Time =    1.000,"PART-1-1",           188,       9.06266,      -12.9142,            0.,NA,NA,"",       1.18851,       1.18686,   62.7442E-03,   7.74785E-03
C:/temp/dataset/4/3_25.odb,Step-1,Increment      1: Step Time =    1.000,"PART-1-1",           189,       9.13987,      -19.6571,            0.,NA,NA,"",   480.778E-03,   477.434E-03,   56.6003E-03,   8.70598E-03
C:/temp/dataset/4/3_25.odb,Step-1,Increment      1: Step Time =    1.000,"PART-1-1",           190,       9.00941,       15.3265,            0.,NA,NA,"",       5.55221,       5.54763,  -225.437E-03,   62.1719E-06
C:/temp/dataset/4/3_25.odb,Step-1,Increment      1: Step Time =    1.000,"PART-1-1",           191,      -8.96967,       13.7142,            0.,NA,NA,"",       6.68867,       6.06722,       2.81552,   219.897E-06
C:/temp/dataset/4/3_25.odb,Step-1,Increment      1: Step Time =    1.000,"PART-1-1",           192,       9.12973,      -17.4386,            0.,NA,NA,"",   684.623E-03,   681.924E-03,   60.7328E-03,   8.32669E-03
C:/temp/dataset/4/3_25.odb,Step-1,Increment      1: Step Time =    1.000,"PART-1-1",           193,       8.94484,       21.9321,            0.,NA,NA,"",       6.59649,       6.58976,  -297.928E-03,   1.03237E-06
C:/temp/dataset/4/3_25.odb,Step-1,Increment      1: Step Time =    1.000,"PART-1-1",           194,      -8.78258,       17.8115,            0.,NA,NA,"",       7.37164,       6.85901,       2.70095,   118.372E-06
C:/temp/dataset/4/3_25.odb,Step-1,Increment      1: Step Time =    1.000,"PART-1-1",           195,       8.90333,       10.8666,            0.,NA,NA,"",       4.84837,       4.84597,  -152.544E-03,   235.126E-06
C:/temp/dataset/4/3_25.odb,Step-1,Increment      1: Step Time =    1.000,"PART-1-1",           196,      -9.00437,       11.6266,            0.,NA,NA,"",       6.34377,       5.66142,       2.86212,   924.195E-06
C:/temp/dataset/4/3_25.odb,Step-1,Increment      1: Step Time =    1.000,"PART-1-1",           197,      -9.03622,       9.53759,            0.,NA,NA,"",       6.00454,       5.25317,       2.90838,   2.16602E-03
C:/temp/dataset/4/3_25.odb,Step-1,Increment      1: Step Time =    1.000,"PART-1-1",           198,       8.99264,      -10.6281,            0.,NA,NA,"",       1.48263,       1.48130,   62.7695E-03,   7.42780E-03
C:/temp/dataset/4/3_25.odb,Step-1,Increment      1: Step Time =    1.000,"PART-1-1",           199,       8.82192,      -8.34759,            0.,NA,NA,"",       1.79955,       1.79807,   72.9268E-03,   6.98220E-03
C:/temp/dataset/4/3_25.odb,Step-1,Increment      1: Step Time =    1.000,"PART-1-1",           200,       8.98411,       13.0928,            0.,NA,NA,"",       5.19943,       5.19583,  -193.370E-03,   140.329E-06
C:/temp/dataset/4/3_25.odb,Step-1,Increment      1: Step Time =    1.000,"PART-1-1",           201,       7.30685,       27.8134,            0.,NA,NA,"",       7.53819,       7.53734,  -113.250E-03,   331.800E-09
C:/temp/dataset/4/3_25.odb,Step-1,Increment      1: Step Time =    1.000,"PART-1-1",           202,      -8.46063,       21.4565,            0.,NA,NA,"",       7.98463,       7.56005,       2.56906,   34.7520E-06
C:/temp/dataset/4/3_25.odb,Step-1,Increment      1: Step Time =    1.000,"PART-1-1",           203,       9.11250,      -15.1896,            0.,NA,NA,"",   921.107E-03,   919.031E-03,   61.8105E-03,   7.98736E-03
C:/temp/dataset/4/3_25.odb,Step-1,Increment      1: Step Time =    1.000,"PART-1-1",           204,       9.14200,      -21.8221,            0.,NA,NA,"",   312.441E-03,   308.488E-03,   49.5443E-03,   9.20126E-03
C:/temp/dataset/4/3_25.odb,Step-1,Increment      1: Step Time =    1.000,"PART-1-1",           205,      -8.90436,       15.8055,            0.,NA,NA,"",       7.03716,       6.47211,       2.76288,   134.871E-06
C:/temp/dataset/4/3_25.odb,Step-1,Increment      1: Step Time =    1.000,"PART-1-1",           206,       9.00445,       19.7587,            0.,NA,NA,"",       6.25268,       6.24640,  -280.147E-03,   5.81153E-06
C:/temp/dataset/4/3_25.odb,Step-1,Increment      1: Step Time =    1.000,"PART-1-1",           207,       8.39742,      -6.16188,            0.,NA,NA,"",       2.12627,       2.12308,   116.406E-03,   6.52430E-03
C:/temp/dataset/4/3_25.odb,Step-1,Increment      1: Step Time =    1.000,"PART-1-1",           208,      -9.10294,       7.45394,            0.,NA,NA,"",       5.67755,       4.84426,       2.96102,   4.21805E-03
C:/temp/dataset/4/3_25.odb,Step-1,Increment      1: Step Time =    1.000,"PART-1-1",           209,       8.43260,       6.43235,            0.,NA,NA,"",       4.15441,       4.15434,  -23.4465E-03,   1.73014E-03
C:/temp/dataset/4/3_25.odb,Step-1,Increment      1: Step Time =    1.000,"PART-1-1",           210,       5.64784,       2.93298,            0.,NA,NA,"",       3.67130,       3.64394,   447.370E-03,   7.77466E-03
C:/temp/dataset/4/3_25.odb,Step-1,Increment      1: Step Time =    1.000,"PART-1-1",           211,      -10.7213,       1.88644,            0.,NA,NA,"",       5.07447,       3.79896,       3.36425,   2.85140E-03
C:/temp/dataset/4/3_25.odb,Step-1,Increment      1: Step Time =    1.000,"PART-1-1",           212,      -12.7178,       27.8380,            0.,NA,NA,"",       9.46338,       8.87907,       3.27378,   380.503E-09
C:/temp/dataset/4/3_25.odb,Step-1,Increment      1: Step Time =    1.000,"PART-1-1",           213,      -11.0298,       24.2524,            0.,NA,NA,"",       8.69081,       8.15130,       3.01439,   10.1931E-06
C:/temp/dataset/4/3_25.odb,Step-1,Increment      1: Step Time =    1.000,"PART-1-1",           214,      -10.4500,       20.0822,            0.,NA,NA,"",       7.91414,       7.33115,       2.98124,   64.7852E-06
C:/temp/dataset/4/3_25.odb,Step-1,Increment      1: Step Time =    1.000,"PART-1-1",           215,      -10.9919,       14.0243,            0.,NA,NA,"",       6.94804,       6.16627,       3.20194,   280.140E-06
C:/temp/dataset/4/3_25.odb,Step-1,Increment      1: Step Time =    1.000,"PART-1-1",           216,      -11.0796,       9.82104,            0.,NA,NA,"",       6.28428,       5.34994,       3.29702,   2.56379E-03
C:/temp/dataset/4/3_25.odb,Step-1,Increment      1: Step Time =    1.000,"PART-1-1",           217,      -11.0365,       11.9204,            0.,NA,NA,"",       6.61247,       5.75862,       3.25009,   1.18144E-03
C:/temp/dataset/4/3_25.odb,Step-1,Increment      1: Step Time =    1.000,"PART-1-1",           218,      -10.5491,       22.5446,            0.,NA,NA,"",       8.35059,       7.81080,       2.95359,   24.5942E-06
C:/temp/dataset/4/3_25.odb,Step-1,Increment      1: Step Time =    1.000,"PART-1-1",           219,      -10.9277,       16.1478,            0.,NA,NA,"",       7.29191,       6.57691,       3.14901,   167.297E-06
C:/temp/dataset/4/3_25.odb,Step-1,Increment      1: Step Time =    1.000,"PART-1-1",           220,      -10.7891,       18.2216,            0.,NA,NA,"",       7.62723,       6.97658,       3.08251,   115.273E-06
C:/temp/dataset/4/3_25.odb,Step-1,Increment      1: Step Time =    1.000,"PART-1-1",           221,      -11.1555,       7.76515,            0.,NA,NA,"",       5.97499,       4.94845,       3.34863,   3.76878E-03
C:/temp/dataset/4/3_25.odb,Step-1,Increment      1: Step Time =    1.000,"PART-1-1",           222,      -9.80329,       4.04682,            0.,NA,NA,"",       5.24652,       4.19289,       3.15368,   4.26301E-03
C:/temp/dataset/4/3_25.odb,Step-1,Increment      1: Step Time =    1.000,"PART-1-1",           223,       9.22674,      -25.9093,            0.,NA,NA,"",   83.5634E-03,   79.8679E-03,   24.5754E-03,   9.55661E-03
C:/temp/dataset/4/3_25.odb,Step-1,Increment      1: Step Time =    1.000,"PART-1-1",           224,      -9.21421,       25.1107,            0.,NA,NA,"",       8.69564,       8.28334,       2.64581,   5.81448E-06
C:/temp/dataset/4/3_25.odb,Step-1,Increment      1: Step Time =    1.000,"PART-1-1",           225,       6.25241,      -4.60112,            0.,NA,NA,"",       2.42520,       2.38827,   421.654E-03,   8.65068E-03
C:/temp/dataset/4/3_25.odb,Step-1,Increment      1: Step Time =    1.000,"PART-1-1",           226,      -7.19550,       4.55405,            0.,NA,NA,"",       4.99282,       4.23197,       2.64928,   7.37207E-03
C:/temp/dataset/4/3_25.odb,Step-1,Increment      1: Step Time =    1.000,"PART-1-1",           227,       12.9551,      -24.6090,            0.,NA,NA,"",   193.831E-03,   148.935E-03,  -124.051E-03,   25.6854E-03
C:/temp/dataset/4/3_25.odb,Step-1,Increment      1: Step Time =    1.000,"PART-1-1",           228,       10.9241,       22.1645,            0.,NA,NA,"",       6.63004,       6.60165,  -612.841E-03,   886.765E-09
C:/temp/dataset/4/3_25.odb,Step-1,Increment      1: Step Time =    1.000,"PART-1-1",           229,      -4.91288,   464.762E-03,            0.,NA,NA,"",       4.11481,       3.41902,       2.28953,   2.44578E-03
C:/temp/dataset/4/3_25.odb,Step-1,Increment      1: Step Time =    1.000,"PART-1-1",           230,  -831.143E-03,      -1.35374,            0.,NA,NA,"",       3.41684,       3.02686,       1.58522,   1.11513E-03
C:/temp/dataset/4/3_25.odb,Step-1,Increment      1: Step Time =    1.000,"PART-1-1",           231,       11.1616,      -19.7398,            0.,NA,NA,"",   474.337E-03,   464.436E-03,  -96.4069E-03,   9.66333E-03
C:/temp/dataset/4/3_25.odb,Step-1,Increment      1: Step Time =    1.000,"PART-1-1",           232,       10.9730,      -10.3410,            0.,NA,NA,"",       1.51566,       1.50401,  -187.555E-03,   7.26498E-03
C:/temp/dataset/4/3_25.odb,Step-1,Increment      1: Step Time =    1.000,"PART-1-1",           233,       10.4844,      -5.04269,            0.,NA,NA,"",       2.28303,       2.27479,  -193.814E-03,   8.56011E-03
C:/temp/dataset/4/3_25.odb,Step-1,Increment      1: Step Time =    1.000,"PART-1-1",           234,       10.9074,       10.5689,            0.,NA,NA,"",       4.79671,       4.77414,  -464.750E-03,   224.995E-06
C:/temp/dataset/4/3_25.odb,Step-1,Increment      1: Step Time =    1.000,"PART-1-1",           235,       11.0515,      -12.7377,            0.,NA,NA,"",       1.20676,       1.19524,  -166.366E-03,   7.77902E-03
C:/temp/dataset/4/3_25.odb,Step-1,Increment      1: Step Time =    1.000,"PART-1-1",           236,       10.9936,       12.8990,            0.,NA,NA,"",       5.16535,       5.14034,  -507.735E-03,   141.785E-06
C:/temp/dataset/4/3_25.odb,Step-1,Increment      1: Step Time =    1.000,"PART-1-1",           237,      -9.84553,  -403.770E-03,            0.,NA,NA,"",       4.65786,       3.35103,       3.23515,   3.29327E-03
C:/temp/dataset/4/3_25.odb,Step-1,Increment      1: Step Time =    1.000,"PART-1-1",           238,      -6.42098,  -599.403E-03,            0.,NA,NA,"",       4.15644,       3.25179,       2.58879,   3.08736E-03
C:/temp/dataset/4/3_25.odb,Step-1,Increment      1: Step Time =    1.000,"PART-1-1",           239,      -2.35214,      -1.85066,            0.,NA,NA,"",       3.49863,       2.96086,       1.86379,   2.25046E-03
C:/temp/dataset/4/3_25.odb,Step-1,Increment      1: Step Time =    1.000,"PART-1-1",           240,       11.1625,      -21.9830,            0.,NA,NA,"",   302.249E-03,   293.224E-03,  -73.3056E-03,   10.2532E-03
C:/temp/dataset/4/3_25.odb,Step-1,Increment      1: Step Time =    1.000,"PART-1-1",           241,       11.1073,      -15.0998,            0.,NA,NA,"",   929.463E-03,   918.288E-03,  -143.699E-03,   8.42005E-03
C:/temp/dataset/4/3_25.odb,Step-1,Increment      1: Step Time =    1.000,"PART-1-1",           242,       11.1457,      -17.4375,            0.,NA,NA,"",   684.420E-03,   673.756E-03,  -120.348E-03,   9.08891E-03
C:/temp/dataset/4/3_25.odb,Step-1,Increment      1: Step Time =    1.000,"PART-1-1",           243,       10.8340,      -7.85693,            0.,NA,NA,"",       1.86196,       1.85088,  -202.873E-03,   7.34740E-03
C:/temp/dataset/4/3_25.odb,Step-1,Increment      1: Step Time =    1.000,"PART-1-1",           244,       10.5842,   120.255E-03,            0.,NA,NA,"",       3.11690,       3.10405,  -282.754E-03,   7.85763E-03
C:/temp/dataset/4/3_25.odb,Step-1,Increment      1: Step Time =    1.000,"PART-1-1",           245,       10.8633,      -2.34188,            0.,NA,NA,"",       2.71503,       2.69955,  -289.496E-03,   9.03611E-03
C:/temp/dataset/4/3_25.odb,Step-1,Increment      1: Step Time =    1.000,"PART-1-1",           246,       9.78574,       2.89226,            0.,NA,NA,"",       3.57362,       3.56829,  -195.018E-03,   5.64472E-03
C:/temp/dataset/4/3_25.odb,Step-1,Increment      1: Step Time =    1.000,"PART-1-1",           247,       10.7685,       8.18214,            0.,NA,NA,"",       4.41866,       4.39934,  -412.727E-03,   316.849E-06
C:/temp/dataset/4/3_25.odb,Step-1,Increment      1: Step Time =    1.000,"PART-1-1",           248,       10.4587,       5.69287,            0.,NA,NA,"",       4.02270,       4.00888,  -333.147E-03,   1.80847E-03
C:/temp/dataset/4/3_25.odb,Step-1,Increment      1: Step Time =    1.000,"PART-1-1",           249,       11.0104,       19.8565,            0.,NA,NA,"",       6.26532,       6.23676,  -597.588E-03,   5.27911E-06
C:/temp/dataset/4/3_25.odb,Step-1,Increment      1: Step Time =    1.000,"PART-1-1",           250,       11.0363,       17.5467,            0.,NA,NA,"",       5.90019,       5.87233,  -572.764E-03,   21.5213E-06
C:/temp/dataset/4/3_25.odb,Step-1,Increment      1: Step Time =    1.000,"PART-1-1",           251,       11.0403,       15.2208,            0.,NA,NA,"",       5.53252,       5.50568,  -544.275E-03,   63.1969E-06
C:/temp/dataset/4/3_25.odb,Step-1,Increment      1: Step Time =    1.000,"PART-1-1",           252,       1.19009,      -1.06873,            0.,NA,NA,"",       3.28541,       3.04678,       1.22923,   459.284E-06
C:/temp/dataset/4/3_25.odb,Step-1,Increment      1: Step Time =    1.000,"PART-1-1",           253,       10.6932,       24.5073,            0.,NA,NA,"",       7.00011,       6.97385,  -605.730E-03,   613.128E-09
C:/temp/dataset/4/3_25.odb,Step-1,Increment      1: Step Time =    1.000,"PART-1-1",           254,       8.51128,       25.6419,            0.,NA,NA,"",       7.18528,       7.17998,  -275.964E-03,   503.218E-09
C:/temp/dataset/4/3_25.odb,Step-1,Increment      1: Step Time =    1.000,"PART-1-1",           255,      -9.32324,       5.48290,            0.,NA,NA,"",       5.39760,       4.46125,       3.03832,   4.83587E-03
C:/temp/dataset/4/3_25.odb,Step-1,Increment      1: Step Time =    1.000,"PART-1-1",           256,      -11.4569,       25.7537,            0.,NA,NA,"",       8.99065,       8.45072,       3.06874,   3.32184E-06
C:/temp/dataset/4/3_25.odb,Step-1,Increment      1: Step Time =    1.000,"PART-1-1",           257,      -8.85145,       2.84717,            0.,NA,NA,"",       4.94847,       3.94178,       2.99162,   4.21047E-03
C:/temp/dataset/4/3_25.odb,Step-1,Increment      1: Step Time =    1.000,"PART-1-1",           258,       11.0896,      -24.0706,            0.,NA,NA,"",   172.007E-03,   164.811E-03,  -49.2321E-03,   10.2710E-03
C:/temp/dataset/4/3_25.odb,Step-1,Increment      1: Step Time =    1.000,"PART-1-1",           259,       5.69240,      -2.12345,            0.,NA,NA,"",       2.84477,       2.80204,   491.207E-03,   7.42642E-03
C:/temp/dataset/4/3_25.odb,Step-1,Increment      1: Step Time =    1.000,"PART-1-1",           260,       7.72467,       1.38687,            0.,NA,NA,"",       3.35633,       3.35343,   139.626E-03,   8.14123E-03
C:/temp/dataset/4/3_25.odb,Step-1,Increment      1: Step Time =    1.000,"PART-1-1",           261,       8.83369,  -368.727E-03,            0.,NA,NA,"",       3.04670,       3.04669,  -10.7629E-03,   8.83637E-03
C:/temp/dataset/4/3_25.odb,Step-1,Increment      1: Step Time =    1.000,"PART-1-1",           262,       7.58912,       4.39900,            0.,NA,NA,"",       3.84812,       3.84590,   130.605E-03,   5.77915E-03
C:/temp/dataset/4/3_25.odb,Step-1,Increment      1: Step Time =    1.000,"PART-1-1",           263,      -6.02595,       2.23751,            0.,NA,NA,"",       4.50151,       3.76558,       2.46658,   4.84640E-03
C:/temp/dataset/4/3_25.odb,Step-1,Increment      1: Step Time =    1.000,"PART-1-1",           264,       4.92391,   813.983E-03,            0.,NA,NA,"",       3.35614,       3.30485,   584.504E-03,   6.25877E-03
C:/temp/dataset/4/3_25.odb,Step-1,Increment      1: Step Time =    1.000,"PART-1-1",           265,      -7.77287,       1.11371,            0.,NA,NA,"",       4.56433,       3.59316,       2.81467,   3.75453E-03
C:/temp/dataset/4/3_25.odb,Step-1,Increment      1: Step Time =    1.000,"PART-1-1",           266,      -3.71710,       1.36231,            0.,NA,NA,"",       4.11076,       3.55964,       2.05604,   3.56721E-03
C:/temp/dataset/4/3_25.odb,Step-1,Increment      1: Step Time =    1.000,"PART-1-1",           267,       2.85817,       1.10052,            0.,NA,NA,"",       3.51135,       3.38909,   918.500E-03,   4.57018E-03
C:/temp/dataset/4/3_25.odb,Step-1,Increment      1: Step Time =    1.000,"PART-1-1",           268,       7.51165,      -2.37377,            0.,NA,NA,"",       2.74216,       2.73400,   211.400E-03,   9.19760E-03
C:/temp/dataset/4/3_25.odb,Step-1,Increment      1: Step Time =    1.000,"PART-1-1",           269,      -1.84913,   666.939E-03,            0.,NA,NA,"",       3.81611,       3.39993,       1.73295,   2.56080E-03
C:/temp/dataset/4/3_25.odb,Step-1,Increment      1: Step Time =    1.000,"PART-1-1",           270,   621.955E-03,   989.730E-03,            0.,NA,NA,"",       3.64966,       3.41107,       1.29795,   3.87929E-03
C:/temp/dataset/4/3_25.odb,Step-1,Increment      1: Step Time =    1.000,"PART-1-1",           271,       7.77182,      -4.29185,            0.,NA,NA,"",       2.42719,       2.41966,   191.100E-03,   8.44596E-03
C:/temp/dataset/4/3_25.odb,Step-1,Increment      1: Step Time =    1.000,"PART-1-1",           272,       6.40836,       5.42027,            0.,NA,NA,"",       4.03754,       4.02597,   305.543E-03,   4.69666E-03
C:/temp/dataset/4/3_25.odb,Step-1,Increment      1: Step Time =    1.000,"PART-1-1",           273,      -12.5139,      -2.82358,            0.,NA,NA,"",       4.79869,       2.94688,       3.78726,   1.89325E-03
C:/temp/dataset/4/3_25.odb,Step-1,Increment      1: Step Time =    1.000,"PART-1-1",           274,       10.8188,      -25.6946,            0.,NA,NA,"",   90.6627E-03,   86.9324E-03,  -25.7390E-03,   8.68783E-03
C:/temp/dataset/4/3_25.odb,Step-1,Increment      1: Step Time =    1.000,"PART-1-1",           275,       6.49302,  -163.532E-03,            0.,NA,NA,"",       3.13501,       3.11580,   346.491E-03,   7.92544E-03
C:/temp/dataset/4/3_25.odb,Step-1,Increment      1: Step Time =    1.000,"PART-1-1",           276,       7.60941,  -936.337E-03,            0.,NA,NA,"",       2.97567,       2.97011,   181.836E-03,   8.88516E-03
C:/temp/dataset/4/3_25.odb,Step-1,Increment      1: Step Time =    1.000,"PART-1-1",           277,       9.17282,      -2.25688,            0.,NA,NA,"",       2.73231,       2.73203,  -39.1150E-03,   9.31227E-03
C:/temp/dataset/4/3_25.odb,Step-1,Increment      1: Step Time =    1.000,"PART-1-1",           278,       9.10690,      -3.89703,            0.,NA,NA,"",       2.46797,       2.46795,  -9.34139E-03,   8.78044E-03
C:/temp/dataset/4/3_25.odb,Step-1,Increment      1: Step Time =    1.000,"PART-1-1",           279,      -7.91199,      -1.40732,            0.,NA,NA,"",       4.25588,       3.12939,       2.88434,   3.33307E-03
C:/temp/dataset/4/3_25.odb,Step-1,Increment      1: Step Time =    1.000,"PART-1-1",           280,      -9.83927,       21.3699,            0.,NA,NA,"",       8.08401,       7.56940,       2.83822,   39.3623E-06
C:/temp/dataset/4/3_25.odb,Step-1,Increment      1: Step Time =    1.000,"PART-1-1",           281,      -11.2653,       5.77953,            0.,NA,NA,"",       5.69169,       4.56161,       3.40398,   4.27481E-03
C:/temp/dataset/4/3_25.odb,Step-1,Increment      1: Step Time =    1.000,"PART-1-1",           282,      -11.2487,       3.84080,            0.,NA,NA,"",       5.41235,       4.18426,       3.43299,   3.50594E-03
C:/temp/dataset/4/3_25.odb,Step-1,Increment      1: Step Time =    1.000,"PART-1-1",           283,       3.11059,  -868.354E-03,            0.,NA,NA,"",       3.18215,       3.05208,   900.506E-03,   2.26849E-03
C:/temp/dataset/4/3_25.odb,Step-1,Increment      1: Step Time =    1.000,"PART-1-1",           284,       4.50766,  -682.768E-03,            0.,NA,NA,"",       3.13304,       3.06107,   667.692E-03,   4.47021E-03
C:/temp/dataset/4/3_25.odb,Step-1,Increment      1: Step Time =    1.000,"PART-1-1",           285,      -3.56662,  -854.847E-03,            0.,NA,NA,"",       3.77318,       3.15739,       2.06585,   1.60057E-03
C:/temp/dataset/4/3_25.odb,Step-1,Increment      1: Step Time =    1.000,"PART-1-1",           286,      -7.33150,       26.6843,            0.,NA,NA,"",       8.84403,       8.55288,       2.25060,   1.35874E-06
C:/temp/dataset/4/3_25.odb,Step-1,Increment      1: Step Time =    1.000,"PART-1-1",           287,      -6.09303,       25.7233,            0.,NA,NA,"",       8.58597,       8.34289,       2.02857,   1.10922E-06
C:/temp/dataset/4/3_25.odb,Step-1,Increment      1: Step Time =    1.000,"PART-1-1",           288,           -5.,        26.875,            0.,NA,NA,"",       8.73198,       8.54557,       1.79461,   578.301E-09
C:/temp/dataset/4/3_25.odb,Step-1,Increment      1: Step Time =    1.000,"PART-1-1",           289,      -6.23847,       27.8360,            0.,NA,NA,"",       8.98480,       8.75556,       2.01664,   400.246E-09
C:/temp/dataset/4/3_25.odb,Step-1,Increment      1: Step Time =    1.000,"PART-1-1",           290,      -8.20013,       25.3620,            0.,NA,NA,"",       8.66474,       8.31283,       2.44427,   3.99483E-06
C:/temp/dataset/4/3_25.odb,Step-1,Increment      1: Step Time =    1.000,"PART-1-1",           291,      -8.98257,       24.1636,            0.,NA,NA,"",       8.50824,       8.09517,       2.61886,   11.1189E-06
C:/temp/dataset/4/3_25.odb,Step-1,Increment      1: Step Time =    1.000,"PART-1-1",           292,      -7.83587,       23.3915,            0.,NA,NA,"",       8.28229,       7.92359,       2.41104,   12.1331E-06
C:/temp/dataset/4/3_25.odb,Step-1,Increment      1: Step Time =    1.000,"PART-1-1",           293,      -7.05344,       24.5900,            0.,NA,NA,"",       8.44285,       8.14125,       2.23645,   6.42816E-06
C:/temp/dataset/4/3_25.odb,Step-1,Increment      1: Step Time =    1.000,"PART-1-1",           294,      -6.78951,       20.5788,            0.,NA,NA,"",       7.69770,       7.35801,       2.26145,   44.1273E-06
C:/temp/dataset/4/3_25.odb,Step-1,Increment      1: Step Time =    1.000,"PART-1-1",           295,      -5.89603,       19.5861,            0.,NA,NA,"",       7.45247,       7.14844,       2.10690,   48.0298E-06
C:/temp/dataset/4/3_25.odb,Step-1,Increment      1: Step Time =    1.000,"PART-1-1",           296,           -5.,        20.625,            0.,NA,NA,"",       7.57846,       7.33296,       1.91334,   35.5448E-06
C:/temp/dataset/4/3_25.odb,Step-1,Increment      1: Step Time =    1.000,"PART-1-1",           297,      -5.89348,       21.6177,            0.,NA,NA,"",       7.82085,       7.54253,       2.06785,   18.0124E-06
C:/temp/dataset/4/3_25.odb,Step-1,Increment      1: Step Time =    1.000,"PART-1-1",           298,      -7.97413,       13.6001,            0.,NA,NA,"",       6.57262,       6.02597,       2.62431,   137.176E-06
C:/temp/dataset/4/3_25.odb,Step-1,Increment      1: Step Time =    1.000,"PART-1-1",           299,      -8.98702,       12.6704,            0.,NA,NA,"",       6.51548,       5.86452,       2.83881,   554.599E-06
C:/temp/dataset/4/3_25.odb,Step-1,Increment      1: Step Time =    1.000,"PART-1-1",           300,      -8.00249,       11.5116,            0.,NA,NA,"",       6.22164,       5.61962,       2.66996,   675.007E-06
C:/temp/dataset/4/3_25.odb,Step-1,Increment      1: Step Time =    1.000,"PART-1-1",           301,      -6.98959,       12.4413,            0.,NA,NA,"",       6.28119,       5.78152,       2.45507,   252.219E-06
C:/temp/dataset/4/3_25.odb,Step-1,Increment      1: Step Time =    1.000,"PART-1-1",           302,      -9.95004,      -1.64066,            0.,NA,NA,"",       4.52597,       3.12229,       3.27653,   2.96676E-03
C:/temp/dataset/4/3_25.odb,Step-1,Increment      1: Step Time =    1.000,"PART-1-1",           303,      -11.1983,  -513.068E-03,            0.,NA,NA,"",       4.84604,       3.35619,       3.49572,   2.87403E-03
C:/temp/dataset/4/3_25.odb,Step-1,Increment      1: Step Time =    1.000,"PART-1-1",           304,      -12.5325,      -1.72297,            0.,NA,NA,"",       4.91661,       3.15408,       3.77158,   2.19791E-03
C:/temp/dataset/4/3_25.odb,Step-1,Increment      1: Step Time =    1.000,"PART-1-1",           305,      -11.2842,      -2.85056,            0.,NA,NA,"",       4.59882,       2.91981,       3.55301,   2.38310E-03
C:/temp/dataset/4/3_25.odb,Step-1,Increment      1: Step Time =    1.000,"PART-1-1",           306,      -10.2834,   741.336E-03,            0.,NA,NA,"",       4.86412,       3.57392,       3.29951,   2.81856E-03
C:/temp/dataset/4/3_25.odb,Step-1,Increment      1: Step Time =    1.000,"PART-1-1",           307,      -11.7661,       1.72477,            0.,NA,NA,"",       5.20408,       3.78945,       3.56686,   2.45864E-03
C:/temp/dataset/4/3_25.odb,Step-1,Increment      1: Step Time =    1.000,"PART-1-1",           308,      -12.6810,   470.366E-03,            0.,NA,NA,"",       5.18675,       3.56976,       3.76287,   2.36205E-03
C:/temp/dataset/4/3_25.odb,Step-1,Increment      1: Step Time =    1.000,"PART-1-1",           309,         -1.25,           -5.,            0.,NA,NA,"",       2.94729,       2.39035,       1.72417,   7.86586E-03
C:/temp/dataset/4/3_25.odb,Step-1,Increment      1: Step Time =    1.000,"PART-1-1",           310,  -165.329E-03,      -4.13131,            0.,NA,NA,"",       2.95158,       2.53241,       1.51614,   6.24974E-03
C:/temp/dataset/4/3_25.odb,Step-1,Increment      1: Step Time =    1.000,"PART-1-1",           311,      -1.46228,      -3.26668,            0.,NA,NA,"",       3.20515,       2.69834,       1.72972,   4.63326E-03
C:/temp/dataset/4/3_25.odb,Step-1,Increment      1: Step Time =    1.000,"PART-1-1",           312,      -2.54695,      -4.13537,            0.,NA,NA,"",       3.20907,       2.55626,       1.94001,   6.25524E-03
C:/temp/dataset/4/3_25.odb,Step-1,Increment      1: Step Time =    1.000,"PART-1-1",           313,   769.081E-03,      -3.16387,            0.,NA,NA,"",       3.00398,       2.69076,       1.33556,   4.38277E-03
C:/temp/dataset/4/3_25.odb,Step-1,Increment      1: Step Time =    1.000,"PART-1-1",           314,          1.25,           -5.,            0.,NA,NA,"",       2.69467,       2.36871,       1.28470,   7.80073E-03
C:/temp/dataset/4/3_25.odb,Step-1,Increment      1: Step Time =    1.000,"PART-1-1",           315,       2.18441,      -4.03256,            0.,NA,NA,"",       2.75792,       2.52703,       1.10464,   6.15500E-03
C:/temp/dataset/4/3_25.odb,Step-1,Increment      1: Step Time =    1.000,"PART-1-1",           316,       1.54561,       3.01681,            0.,NA,NA,"",       3.90369,       3.74071,       1.11619,   8.29588E-03
C:/temp/dataset/4/3_25.odb,Step-1,Increment      1: Step Time =    1.000,"PART-1-1",           317,       2.64536,       4.01417,            0.,NA,NA,"",       3.99215,       3.88431,   921.638E-03,   10.7485E-03
C:/temp/dataset/4/3_25.odb,Step-1,Increment      1: Step Time =    1.000,"PART-1-1",           318,          1.25,            5.,            0.,NA,NA,"",       4.24544,       4.08761,       1.14681,   13.1621E-03
C:/temp/dataset/4/3_25.odb,Step-1,Increment      1: Step Time =    1.000,"PART-1-1",           319,   150.245E-03,       4.00264,            0.,NA,NA,"",       4.16555,       3.94300,       1.34333,   10.8313E-03
C:/temp/dataset/4/3_25.odb,Step-1,Increment      1: Step Time =    1.000,"PART-1-1",           320,   179.474E-03,      -1.21124,            0.,NA,NA,"",       3.34670,       3.03691,       1.40627,   756.839E-06
C:/temp/dataset/4/3_25.odb,Step-1,Increment      1: Step Time =    1.000,"PART-1-1",           321,  -580.901E-03,      -2.30818,            0.,NA,NA,"",       3.25288,       2.85599,       1.55710,   2.96461E-03
C:/temp/dataset/4/3_25.odb,Step-1,Increment      1: Step Time =    1.000,"PART-1-1",           322,       1.52946,      -2.06693,            0.,NA,NA,"",       3.10606,       2.87062,       1.18624,   2.55290E-03
C:/temp/dataset/4/3_25.odb,Step-1,Increment      1: Step Time =    1.000,"PART-1-1",           323,       12.7868,      -3.71378,            0.,NA,NA,"",       2.52483,       2.46358,  -552.756E-03,   9.57273E-03
C:/temp/dataset/4/3_25.odb,Step-1,Increment      1: Step Time =    1.000,"PART-1-1",           324,       13.8814,      -5.00619,            0.,NA,NA,"",       2.35915,       2.25608,  -689.703E-03,   12.4014E-03
C:/temp/dataset/4/3_25.odb,Step-1,Increment      1: Step Time =    1.000,"PART-1-1",           325,           15.,         -3.75,            0.,NA,NA,"",       2.59947,       2.44216,  -890.562E-03,   12.8394E-03
C:/temp/dataset/4/3_25.odb,Step-1,Increment      1: Step Time =    1.000,"PART-1-1",           326,       13.9054,      -2.45760,            0.,NA,NA,"",       2.75634,       2.65295,  -747.835E-03,   8.79558E-03
C:/temp/dataset/4/3_25.odb,Step-1,Increment      1: Step Time =    1.000,"PART-1-1",           327,       5.10003,      -1.40311,            0.,NA,NA,"",       2.98798,       2.93127,   579.393E-03,   5.79642E-03
C:/temp/dataset/4/3_25.odb,Step-1,Increment      1: Step Time =    1.000,"PART-1-1",           328,       3.80913,  -775.561E-03,            0.,NA,NA,"",       3.15557,       3.05674,   783.560E-03,   3.41639E-03
C:/temp/dataset/4/3_25.odb,Step-1,Increment      1: Step Time =    1.000,"PART-1-1",           329,       3.52110,      -1.80919,            0.,NA,NA,"",       3.00797,       2.88712,   844.043E-03,   2.17317E-03
C:/temp/dataset/4/3_25.odb,Step-1,Increment      1: Step Time =    1.000,"PART-1-1",           330,       4.81200,      -2.43673,            0.,NA,NA,"",       2.83604,       2.76375,   636.224E-03,   4.25653E-03
C:/temp/dataset/4/3_25.odb,Step-1,Increment      1: Step Time =    1.000,"PART-1-1",           331,           15.,          3.75,            0.,NA,NA,"",       3.78097,       3.63897,      -1.02644,   832.119E-06
C:/temp/dataset/4/3_25.odb,Step-1,Increment      1: Step Time =    1.000,"PART-1-1",           332,       13.8386,       5.14064,            0.,NA,NA,"",       3.97075,       3.87660,  -859.530E-03,   669.073E-06
C:/temp/dataset/4/3_25.odb,Step-1,Increment      1: Step Time =    1.000,"PART-1-1",           333,       12.6076,       4.00525,            0.,NA,NA,"",       3.76648,       3.71004,  -649.606E-03,   2.52156E-03
C:/temp/dataset/4/3_25.odb,Step-1,Increment      1: Step Time =    1.000,"PART-1-1",           334,       13.7689,       2.61462,            0.,NA,NA,"",       3.56548,       3.47139,  -813.656E-03,   2.39838E-03
C:/temp/dataset/4/3_25.odb,Step-1,Increment      1: Step Time =    1.000,"PART-1-1",           335,       9.76439,       8.40859,            0.,NA,NA,"",       4.45537,       4.44794,  -257.176E-03,   270.324E-06
C:/temp/dataset/4/3_25.odb,Step-1,Increment      1: Step Time =    1.000,"PART-1-1",           336,       8.59642,       7.53369,            0.,NA,NA,"",       4.32563,       4.32518,  -62.3277E-03,   873.686E-06
C:/temp/dataset/4/3_25.odb,Step-1,Increment      1: Step Time =    1.000,"PART-1-1",           337,       9.44563,       6.06261,            0.,NA,NA,"",       4.08565,       4.08175,  -178.318E-03,   1.64791E-03
C:/temp/dataset/4/3_25.odb,Step-1,Increment      1: Step Time =    1.000,"PART-1-1",           338,       10.6136,       6.93751,            0.,NA,NA,"",       4.22105,       4.20456,  -372.765E-03,   954.422E-06
C:/temp/dataset/4/3_25.odb,Step-1,Increment      1: Step Time =    1.000,"PART-1-1",           339,       5.92452,       9.07762,            0.,NA,NA,"",       4.61366,       4.60126,   338.088E-03,   394.938E-06
C:/temp/dataset/4/3_25.odb,Step-1,Increment      1: Step Time =    1.000,"PART-1-1",           340,            5.,         8.125,            0.,NA,NA,"",       4.49057,       4.46330,   494.132E-03,   854.144E-06
C:/temp/dataset/4/3_25.odb,Step-1,Increment      1: Step Time =    1.000,"PART-1-1",           341,       5.83838,       7.03541,            0.,NA,NA,"",       4.29962,       4.28312,   376.264E-03,   1.19337E-03
C:/temp/dataset/4/3_25.odb,Step-1,Increment      1: Step Time =    1.000,"PART-1-1",           342,       6.76290,       7.98803,            0.,NA,NA,"",       4.42540,       4.41992,   220.090E-03,   389.188E-06
C:/temp/dataset/4/3_25.odb,Step-1,Increment      1: Step Time =    1.000,"PART-1-1",           343,       6.00358,       15.4027,            0.,NA,NA,"",       5.60262,       5.59716,   247.349E-03,   33.1197E-06
C:/temp/dataset/4/3_25.odb,Step-1,Increment      1: Step Time =    1.000,"PART-1-1",           344,            5.,        14.375,            0.,NA,NA,"",       5.46372,       5.44768,   418.367E-03,   73.8214E-06
C:/temp/dataset/4/3_25.odb,Step-1,Increment      1: Step Time =    1.000,"PART-1-1",           345,       5.99171,       13.2884,            0.,NA,NA,"",       5.27113,       5.26392,   275.586E-03,   92.9173E-06
C:/temp/dataset/4/3_25.odb,Step-1,Increment      1: Step Time =    1.000,"PART-1-1",           346,       6.99529,       14.3161,            0.,NA,NA,"",       5.41444,       5.41343,   104.636E-03,   84.8273E-06
C:/temp/dataset/4/3_25.odb,Step-1,Increment      1: Step Time =    1.000,"PART-1-1",           347,       11.7328,       24.6815,            0.,NA,NA,"",       7.03080,       6.98831,  -771.780E-03,   533.168E-09
C:/temp/dataset/4/3_25.odb,Step-1,Increment      1: Step Time =    1.000,"PART-1-1",           348,       12.6496,       26.1279,            0.,NA,NA,"",       7.26518,       7.20484,  -934.384E-03,   477.401E-09
C:/temp/dataset/4/3_25.odb,Step-1,Increment      1: Step Time =    1.000,"PART-1-1",           349,       11.2054,       27.2635,            0.,NA,NA,"",       7.43694,       7.40192,  -720.935E-03,   290.304E-09
C:/temp/dataset/4/3_25.odb,Step-1,Increment      1: Step Time =    1.000,"PART-1-1",           350,       10.2886,       25.8171,            0.,NA,NA,"",       7.20704,       7.18538,  -558.331E-03,   434.668E-09
C:/temp/dataset/4/3_25.odb,Step-1,Increment      1: Step Time =    1.000,"PART-1-1",           351,       12.5134,       28.7000,            0.,NA,NA,"",       7.67046,       7.61201,  -945.078E-03,   229.885E-09
C:/temp/dataset/4/3_25.odb,Step-1,Increment      1: Step Time =    1.000,"PART-1-1",           352,       13.7634,       27.4500,            0.,NA,NA,"",       7.48460,       7.39934,      -1.12649,   228.024E-09
C:/temp/dataset/4/3_25.odb,Step-1,Increment      1: Step Time =    1.000,"PART-1-1",           353,           15.,         28.75,            0.,NA,NA,"",       7.70580,       7.58880,      -1.33768,   67.3463E-09
C:/temp/dataset/4/3_25.odb,Step-1,Increment      1: Step Time =    1.000,"PART-1-1",           354,         13.75,           30.,            0.,NA,NA,"",       7.88669,       7.80148,      -1.15626,   49.9047E-09
C:/temp/dataset/4/3_25.odb,Step-1,Increment      1: Step Time =    1.000,"PART-1-1",           355,      -3.83569,      -2.96698,            0.,NA,NA,"",       3.51700,       2.78149,       2.15236,   3.95081E-03
C:/temp/dataset/4/3_25.odb,Step-1,Increment      1: Step Time =    1.000,"PART-1-1",           356,      -2.47303,      -2.56070,            0.,NA,NA,"",       3.41268,       2.83622,       1.89797,   3.36344E-03
C:/temp/dataset/4/3_25.odb,Step-1,Increment      1: Step Time =    1.000,"PART-1-1",           357,      -2.95938,      -1.35275,            0.,NA,NA,"",       3.63517,       3.05863,       1.96449,   1.75127E-03
C:/temp/dataset/4/3_25.odb,Step-1,Increment      1: Step Time =    1.000,"PART-1-1",           358,      -4.32205,      -1.75903,            0.,NA,NA,"",       3.73698,       3.00635,       2.21965,   2.47226E-03
C:/temp/dataset/4/3_25.odb,Step-1,Increment      1: Step Time =    1.000,"PART-1-1",           359,       8.60967,      -7.25473,            0.,NA,NA,"",       1.96082,       1.95853,   94.7842E-03,   6.71688E-03
C:/temp/dataset/4/3_25.odb,Step-1,Increment      1: Step Time =    1.000,"PART-1-1",           360,       7.51358,      -6.44375,            0.,NA,NA,"",       2.10536,       2.09116,   244.080E-03,   8.56790E-03
C:/temp/dataset/4/3_25.odb,Step-1,Increment      1: Step Time =    1.000,"PART-1-1",           361,       6.75300,      -7.77251,            0.,NA,NA,"",       1.93937,       1.90701,   352.763E-03,   13.2420E-03
C:/temp/dataset/4/3_25.odb,Step-1,Increment      1: Step Time =    1.000,"PART-1-1",           362,       7.84909,      -8.58350,            0.,NA,NA,"",       1.78776,       1.77609,   203.979E-03,   9.94124E-03
C:/temp/dataset/4/3_25.odb,Step-1,Increment      1: Step Time =    1.000,"PART-1-1",           363,       7.07130,      -14.2100,            0.,NA,NA,"",       1.09031,       1.05353,   280.821E-03,   17.4694E-03
C:/temp/dataset/4/3_25.odb,Step-1,Increment      1: Step Time =    1.000,"PART-1-1",           364,       6.02882,      -13.2279,            0.,NA,NA,"",       1.25534,       1.18712,   408.186E-03,   22.0123E-03
C:/temp/dataset/4/3_25.odb,Step-1,Increment      1: Step Time =    1.000,"PART-1-1",           365,            5.,       -14.375,            0.,NA,NA,"",       1.18262,       1.06827,   507.330E-03,   28.9918E-03
C:/temp/dataset/4/3_25.odb,Step-1,Increment      1: Step Time =    1.000,"PART-1-1",           366,       6.04247,      -15.3570,            0.,NA,NA,"",       1.01062,   937.663E-03,   377.018E-03,   24.1966E-03
C:/temp/dataset/4/3_25.odb,Step-1,Increment      1: Step Time =    1.000,"PART-1-1",           367,       7.02995,      -12.0379,            0.,NA,NA,"",       1.35459,       1.32069,   301.159E-03,   15.9802E-03
C:/temp/dataset/4/3_25.odb,Step-1,Increment      1: Step Time =    1.000,"PART-1-1",           368,       6.00113,      -11.1016,            0.,NA,NA,"",       1.52170,       1.45838,   434.398E-03,   19.8892E-03
C:/temp/dataset/4/3_25.odb,Step-1,Increment      1: Step Time =    1.000,"PART-1-1",           369,            5.,      -12.2917,            0.,NA,NA,"",       1.42973,       1.32228,   543.805E-03,   26.1922E-03
C:/temp/dataset/4/3_25.odb,Step-1,Increment      1: Step Time =    1.000,"PART-1-1",           370,            5.,      -22.7083,            0.,NA,NA,"",   413.343E-03,   300.298E-03,   284.031E-03,   39.9933E-03
C:/temp/dataset/4/3_25.odb,Step-1,Increment      1: Step Time =    1.000,"PART-1-1",           371,       6.05922,      -23.7899,            0.,NA,NA,"",   288.270E-03,   215.936E-03,   190.976E-03,   32.9155E-03
C:/temp/dataset/4/3_25.odb,Step-1,Increment      1: Step Time =    1.000,"PART-1-1",           372,       7.11013,      -22.7834,            0.,NA,NA,"",   305.900E-03,   261.903E-03,   158.056E-03,   23.8768E-03
C:/temp/dataset/4/3_25.odb,Step-1,Increment      1: Step Time =    1.000,"PART-1-1",           373,       6.05091,      -21.7018,            0.,NA,NA,"",   428.671E-03,   350.435E-03,   246.888E-03,   30.7907E-03
C:/temp/dataset/4/3_25.odb,Step-1,Increment      1: Step Time =    1.000,"PART-1-1",           374,          8.75,          -30.,            0.,NA,NA,"",            0.,  -4.11288E-39,   18.0620E-39,   9.43123E-03
C:/temp/dataset/4/3_25.odb,Step-1,Increment      1: Step Time =    1.000,"PART-1-1",           375,       9.84988,      -28.9274,            0.,NA,NA,"",   1.17548E-03,   508.243E-06,   1.05993E-03,   1.74081E-03
C:/temp/dataset/4/3_25.odb,Step-1,Increment      1: Step Time =    1.000,"PART-1-1",           376,       8.52411,      -27.9095,            0.,NA,NA,"",   30.3321E-03,   20.8292E-03,   22.0496E-03,   15.4441E-03
C:/temp/dataset/4/3_25.odb,Step-1,Increment      1: Step Time =    1.000,"PART-1-1",           377,       7.42422,      -28.9821,            0.,NA,NA,"",   18.7916E-03,   6.40101E-03,   17.6678E-03,   21.3971E-03
C:/temp/dataset/4/3_25.odb,Step-1,Increment      1: Step Time =    1.000,"PART-1-1",           378,       10.1104,      -23.9794,            0.,NA,NA,"",   169.456E-03,   169.378E-03,  -5.13502E-03,   5.79965E-03
C:/temp/dataset/4/3_25.odb,Step-1,Increment      1: Step Time =    1.000,"PART-1-1",           379,       11.1261,      -23.0268,            0.,NA,NA,"",   233.266E-03,   225.181E-03,  -60.8808E-03,   10.2832E-03
C:/temp/dataset/4/3_25.odb,Step-1,Increment      1: Step Time =    1.000,"PART-1-1",           380,       10.1523,      -21.9025,            0.,NA,NA,"",   299.259E-03,   299.009E-03,  -12.2373E-03,   5.69913E-03
C:/temp/dataset/4/3_25.odb,Step-1,Increment      1: Step Time =    1.000,"PART-1-1",           381,       9.13660,      -22.8552,            0.,NA,NA,"",   243.523E-03,   239.265E-03,   45.3368E-03,   9.53650E-03
C:/temp/dataset/4/3_25.odb,Step-1,Increment      1: Step Time =    1.000,"PART-1-1",           382,       7.09296,      -18.5383,            0.,NA,NA,"",   639.434E-03,   596.680E-03,   229.887E-03,   20.6864E-03
C:/temp/dataset/4/3_25.odb,Step-1,Increment      1: Step Time =    1.000,"PART-1-1",           383,       6.04465,      -17.4814,            0.,NA,NA,"",   790.437E-03,   713.453E-03,   340.257E-03,   26.4228E-03
C:/temp/dataset/4/3_25.odb,Step-1,Increment      1: Step Time =    1.000,"PART-1-1",           384,            5.,      -18.5417,            0.,NA,NA,"",   752.046E-03,   629.901E-03,   410.850E-03,   34.5709E-03
C:/temp/dataset/4/3_25.odb,Step-1,Increment      1: Step Time =    1.000,"PART-1-1",           385,       6.04831,      -19.5985,            0.,NA,NA,"",   595.911E-03,   516.818E-03,   296.664E-03,   28.6254E-03
C:/temp/dataset/4/3_25.odb,Step-1,Increment      1: Step Time =    1.000,"PART-1-1",           386,       8.88188,       22.9635,            0.,NA,NA,"",       6.75983,       6.75313,  -300.897E-03,   589.898E-09
C:/temp/dataset/4/3_25.odb,Step-1,Increment      1: Step Time =    1.000,"PART-1-1",           387,       9.93448,       22.0483,            0.,NA,NA,"",       6.61141,       6.59570,  -455.384E-03,   920.238E-09
C:/temp/dataset/4/3_25.odb,Step-1,Increment      1: Step Time =    1.000,"PART-1-1",           388,       10.8087,       23.3359,            0.,NA,NA,"",       6.81504,       6.78775,  -609.285E-03,   537.589E-09
C:/temp/dataset/4/3_25.odb,Step-1,Increment      1: Step Time =    1.000,"PART-1-1",           389,       9.75606,       24.2511,            0.,NA,NA,"",       6.96005,       6.94517,  -454.798E-03,   546.668E-09
C:/temp/dataset/4/3_25.odb,Step-1,Increment      1: Step Time =    1.000,"PART-1-1",           390,       10.0218,       17.5512,            0.,NA,NA,"",       5.90017,       5.88571,  -412.900E-03,   19.7616E-06
C:/temp/dataset/4/3_25.odb,Step-1,Increment      1: Step Time =    1.000,"PART-1-1",           391,       9.00837,       16.4411,            0.,NA,NA,"",       5.72836,       5.72336,  -239.248E-03,   41.1973E-06
C:/temp/dataset/4/3_25.odb,Step-1,Increment      1: Step Time =    1.000,"PART-1-1",           392,       10.0249,       15.2736,            0.,NA,NA,"",       5.54004,       5.52666,  -384.843E-03,   57.1698E-06
C:/temp/dataset/4/3_25.odb,Step-1,Increment      1: Step Time =    1.000,"PART-1-1",           393,       11.0383,       16.3837,            0.,NA,NA,"",       5.71635,       5.68900,  -558.528E-03,   41.6157E-06
C:/temp/dataset/4/3_25.odb,Step-1,Increment      1: Step Time =    1.000,"PART-1-1",           394,      -14.0638,       5.89996,            0.,NA,NA,"",       6.09155,       4.64611,       3.93962,   4.06686E-03
C:/temp/dataset/4/3_25.odb,Step-1,Increment      1: Step Time =    1.000,"PART-1-1",           395,      -13.1194,       6.91794,            0.,NA,NA,"",       6.10469,       4.82450,       3.74052,   3.74381E-03
C:/temp/dataset/4/3_25.odb,Step-1,Increment      1: Step Time =    1.000,"PART-1-1",           396,      -14.0556,       8.04923,            0.,NA,NA,"",       6.39455,       5.06610,       3.90190,   3.23828E-03
C:/temp/dataset/4/3_25.odb,Step-1,Increment      1: Step Time =    1.000,"PART-1-1",           397,          -15.,       7.03125,            0.,NA,NA,"",       6.38109,       4.88775,       4.10222,   3.52778E-03
C:/temp/dataset/4/3_25.odb,Step-1,Increment      1: Step Time =    1.000,"PART-1-1",           398,      -14.0181,       12.3521,            0.,NA,NA,"",       7.02983,       5.90214,       3.81881,   1.56253E-03
C:/temp/dataset/4/3_25.odb,Step-1,Increment      1: Step Time =    1.000,"PART-1-1",           399,      -13.0189,       13.2775,            0.,NA,NA,"",       7.05383,       6.06088,       3.60863,   716.803E-06
C:/temp/dataset/4/3_25.odb,Step-1,Increment      1: Step Time =    1.000,"PART-1-1",           400,      -14.0008,       14.5192,            0.,NA,NA,"",       7.36124,       6.31949,       3.77517,   295.791E-06
C:/temp/dataset/4/3_25.odb,Step-1,Increment      1: Step Time =    1.000,"PART-1-1",           401,          -15.,       13.5938,            0.,NA,NA,"",       7.33634,       6.15952,       3.98525,   562.494E-06
C:/temp/dataset/4/3_25.odb,Step-1,Increment      1: Step Time =    1.000,"PART-1-1",           402,      -10.1942,       21.9572,            0.,NA,NA,"",       8.21729,       7.69010,       2.89591,   31.4405E-06
C:/temp/dataset/4/3_25.odb,Step-1,Increment      1: Step Time =    1.000,"PART-1-1",           403,      -9.14995,       21.4132,            0.,NA,NA,"",       8.03335,       7.56472,       2.70364,   35.8208E-06
C:/temp/dataset/4/3_25.odb,Step-1,Increment      1: Step Time =    1.000,"PART-1-1",           404,      -8.60578,       22.3365,            0.,NA,NA,"",       8.15268,       7.73352,       2.58049,   25.6140E-06
C:/temp/dataset/4/3_25.odb,Step-1,Increment      1: Step Time =    1.000,"PART-1-1",           405,      -9.65000,       22.8805,            0.,NA,NA,"",       8.33370,       7.85890,       2.77276,   18.5759E-06
C:/temp/dataset/4/3_25.odb,Step-1,Increment      1: Step Time =    1.000,"PART-1-1",           406,      -14.0213,       25.7108,            0.,NA,NA,"",       9.20995,       8.49110,       3.56712,   785.183E-09
C:/temp/dataset/4/3_25.odb,Step-1,Increment      1: Step Time =    1.000,"PART-1-1",           407,      -12.8802,       26.8172,            0.,NA,NA,"",       9.29878,       8.68411,       3.32468,   1.02795E-06
C:/temp/dataset/4/3_25.odb,Step-1,Increment      1: Step Time =    1.000,"PART-1-1",           408,      -13.8589,       27.8252,            0.,NA,NA,"",       9.56021,       8.89829,       3.49542,   414.396E-09
C:/temp/dataset/4/3_25.odb,Step-1,Increment      1: Step Time =    1.000,"PART-1-1",           409,          -15.,       26.7188,            0.,NA,NA,"",       9.47384,       8.70529,       3.73786,   600.633E-09
C:/temp/dataset/4/3_25.odb,Step-1,Increment      1: Step Time =    1.000,"PART-1-1",           410,        -13.75,           30.,            0.,NA,NA,"",       9.93045,       9.31819,       3.43296,   300.286E-09
C:/temp/dataset/4/3_25.odb,Step-1,Increment      1: Step Time =    1.000,"PART-1-1",           411,          -15.,       28.9063,            0.,NA,NA,"",       9.84959,       9.12973,       3.69628,   276.619E-09
C:/temp/dataset/4/3_25.odb,Step-1,Increment      1: Step Time =    1.000,"PART-1-1",           412,      -12.6089,       28.9190,            0.,NA,NA,"",       9.64446,       9.08675,       3.23210,   343.855E-09
C:/temp/dataset/4/3_25.odb,Step-1,Increment      1: Step Time =    1.000,"PART-1-1",           413,      -11.4362,       27.6040,            0.,NA,NA,"",       9.31570,       8.80932,       3.02954,   751.217E-09
C:/temp/dataset/4/3_25.odb,Step-1,Increment      1: Step Time =    1.000,"PART-1-1",           414,      -10.0773,       28.6850,            0.,NA,NA,"",       9.40294,       8.99325,       2.74533,   118.375E-09
C:/temp/dataset/4/3_25.odb,Step-1,Increment      1: Step Time =    1.000,"PART-1-1",           415,        -11.25,           30.,            0.,NA,NA,"",       9.72808,       9.27068,       2.94789,   874.437E-09
C:/temp/dataset/4/3_25.odb,Step-1,Increment      1: Step Time =    1.000,"PART-1-1",           416,      -13.7240,       21.2404,            0.,NA,NA,"",       8.42340,       7.61801,       3.59438,   23.6803E-06
C:/temp/dataset/4/3_25.odb,Step-1,Increment      1: Step Time =    1.000,"PART-1-1",           417,      -12.6979,       22.4429,            0.,NA,NA,"",       8.52711,       7.83188,       3.37245,   23.0488E-06
C:/temp/dataset/4/3_25.odb,Step-1,Increment      1: Step Time =    1.000,"PART-1-1",           418,      -13.9739,       23.5463,            0.,NA,NA,"",       8.83639,       8.07023,       3.59905,   5.73988E-06
C:/temp/dataset/4/3_25.odb,Step-1,Increment      1: Step Time =    1.000,"PART-1-1",           419,          -15.,       22.3438,            0.,NA,NA,"",       8.73629,       7.85638,       3.82100,   14.3175E-06
C:/temp/dataset/4/3_25.odb,Step-1,Increment      1: Step Time =    1.000,"PART-1-1",           420,      -11.9375,       16.3352,            0.,NA,NA,"",       7.42645,       6.63236,       3.34124,   136.723E-06
C:/temp/dataset/4/3_25.odb,Step-1,Increment      1: Step Time =    1.000,"PART-1-1",           421,      -10.8584,       17.1847,            0.,NA,NA,"",       7.45869,       6.77673,       3.11576,   133.802E-06
C:/temp/dataset/4/3_25.odb,Step-1,Increment      1: Step Time =    1.000,"PART-1-1",           422,      -11.8099,       18.4796,            0.,NA,NA,"",       7.77014,       7.04596,       3.27560,   92.2631E-06
C:/temp/dataset/4/3_25.odb,Step-1,Increment      1: Step Time =    1.000,"PART-1-1",           423,      -12.8889,       17.6301,            0.,NA,NA,"",       7.73879,       6.90158,       3.50102,   124.972E-06
C:/temp/dataset/4/3_25.odb,Step-1,Increment      1: Step Time =    1.000,"PART-1-1",           424,      -9.98079,       13.8692,            0.,NA,NA,"",       6.81671,       6.11676,       3.00879,   240.649E-06
C:/temp/dataset/4/3_25.odb,Step-1,Increment      1: Step Time =    1.000,"PART-1-1",           425,      -11.0142,       12.9724,            0.,NA,NA,"",       6.77941,       5.96260,       3.22612,   684.515E-06
C:/temp/dataset/4/3_25.odb,Step-1,Increment      1: Step Time =    1.000,"PART-1-1",           426,      -10.0204,       11.7735,            0.,NA,NA,"",       6.47638,       5.70993,       3.05619,   991.696E-06
C:/temp/dataset/4/3_25.odb,Step-1,Increment      1: Step Time =    1.000,"PART-1-1",           427,      -6.95613,       14.5250,            0.,NA,NA,"",       6.63872,       6.18630,       2.40878,   70.6868E-06
C:/temp/dataset/4/3_25.odb,Step-1,Increment      1: Step Time =    1.000,"PART-1-1",           428,      -5.98929,       13.4097,            0.,NA,NA,"",       6.35920,       5.95091,       2.24191,   205.241E-06
C:/temp/dataset/4/3_25.odb,Step-1,Increment      1: Step Time =    1.000,"PART-1-1",           429,           -5.,        14.375,            0.,NA,NA,"",       6.44798,       6.11966,       2.03132,   341.138E-06
C:/temp/dataset/4/3_25.odb,Step-1,Increment      1: Step Time =    1.000,"PART-1-1",           430,      -5.96684,       15.4903,            0.,NA,NA,"",       6.72435,       6.35491,       2.19819,   170.393E-06
C:/temp/dataset/4/3_25.odb,Step-1,Increment      1: Step Time =    1.000,"PART-1-1",           431,      -11.0581,       10.8707,            0.,NA,NA,"",       6.44747,       5.55454,       3.27367,   1.86897E-03
C:/temp/dataset/4/3_25.odb,Step-1,Increment      1: Step Time =    1.000,"PART-1-1",           432,      -10.0579,       9.67932,            0.,NA,NA,"",       6.14262,       5.30137,       3.10279,   2.33066E-03
C:/temp/dataset/4/3_25.odb,Step-1,Increment      1: Step Time =    1.000,"PART-1-1",           433,      -9.02030,       10.5821,            0.,NA,NA,"",       6.17336,       5.45763,       2.88524,   1.56576E-03
C:/temp/dataset/4/3_25.odb,Step-1,Increment      1: Step Time =    1.000,"PART-1-1",           434,      -7.04064,       8.20966,            0.,NA,NA,"",       5.57002,       4.95277,       2.54858,   2.95968E-03
C:/temp/dataset/4/3_25.odb,Step-1,Increment      1: Step Time =    1.000,"PART-1-1",           435,      -6.03068,       7.10065,            0.,NA,NA,"",       5.27792,       4.71305,       2.37561,   3.12080E-03
C:/temp/dataset/4/3_25.odb,Step-1,Increment      1: Step Time =    1.000,"PART-1-1",           436,           -5.,         8.125,            0.,NA,NA,"",       5.34836,       4.89723,       2.14989,   1.07199E-03
C:/temp/dataset/4/3_25.odb,Step-1,Increment      1: Step Time =    1.000,"PART-1-1",           437,      -6.00996,       9.23401,            0.,NA,NA,"",       5.63769,       5.13525,       2.32652,   760.425E-06
C:/temp/dataset/4/3_25.odb,Step-1,Increment      1: Step Time =    1.000,"PART-1-1",           438,      -13.0926,       9.02789,            0.,NA,NA,"",       6.41150,       5.23688,       3.69899,   3.16209E-03
C:/temp/dataset/4/3_25.odb,Step-1,Increment      1: Step Time =    1.000,"PART-1-1",           439,      -14.0370,       10.1974,            0.,NA,NA,"",       6.70758,       5.48522,       3.86056,   2.71698E-03
C:/temp/dataset/4/3_25.odb,Step-1,Increment      1: Step Time =    1.000,"PART-1-1",           440,          -15.,       9.21875,            0.,NA,NA,"",       6.69101,       5.31497,       4.06458,   2.73118E-03
C:/temp/dataset/4/3_25.odb,Step-1,Increment      1: Step Time =    1.000,"PART-1-1",           441,      -13.9055,       1.56280,            0.,NA,NA,"",       5.50289,       3.80101,       3.97921,   2.76209E-03
C:/temp/dataset/4/3_25.odb,Step-1,Increment      1: Step Time =    1.000,"PART-1-1",           442,      -12.9296,       2.64306,            0.,NA,NA,"",       5.49133,       3.98849,       3.77447,   2.25268E-03
C:/temp/dataset/4/3_25.odb,Step-1,Increment      1: Step Time =    1.000,"PART-1-1",           443,      -14.0241,       3.73651,            0.,NA,NA,"",       5.79341,       4.22257,       3.96655,   3.77464E-03
C:/temp/dataset/4/3_25.odb,Step-1,Increment      1: Step Time =    1.000,"PART-1-1",           444,          -15.,       2.65625,            0.,NA,NA,"",       5.80233,       4.03268,       4.17187,   3.94249E-03
C:/temp/dataset/4/3_25.odb,Step-1,Increment      1: Step Time =    1.000,"PART-1-1",           445,      -13.7570,      -2.81804,            0.,NA,NA,"",       5.00147,       2.97055,       4.02375,   1.03858E-03
C:/temp/dataset/4/3_25.odb,Step-1,Increment      1: Step Time =    1.000,"PART-1-1",           446,      -13.7756,  -623.683E-03,            0.,NA,NA,"",       5.23190,       3.38425,       3.98993,   2.01889E-03
C:/temp/dataset/4/3_25.odb,Step-1,Increment      1: Step Time =    1.000,"PART-1-1",           447,          -15.,      -1.71875,            0.,NA,NA,"",       5.31249,       3.20066,       4.24009,   1.22558E-03
C:/temp/dataset/4/3_25.odb,Step-1,Increment      1: Step Time =    1.000,"PART-1-1",           448,        -13.75,           -5.,            0.,NA,NA,"",       4.79988,       2.55790,       4.06153,   202.504E-06
C:/temp/dataset/4/3_25.odb,Step-1,Increment      1: Step Time =    1.000,"PART-1-1",           449,      -12.5070,      -3.91179,            0.,NA,NA,"",       4.69028,       2.74168,       3.80551,   1.07484E-03
C:/temp/dataset/4/3_25.odb,Step-1,Increment      1: Step Time =    1.000,"PART-1-1",           450,          -15.,      -3.90625,            0.,NA,NA,"",       5.10652,       2.78759,       4.27854,   178.367E-06
C:/temp/dataset/4/3_25.odb,Step-1,Increment      1: Step Time =    1.000,"PART-1-1",           451,          -15.,    468.75E-03,            0.,NA,NA,"",       5.54458,       3.61432,       4.20465,   2.83611E-03
C:/temp/dataset/4/3_25.odb,Step-1,Increment      1: Step Time =    1.000,"PART-1-1",           452,      -5.10506,       2.56414,            0.,NA,NA,"",       4.44192,       3.80678,       2.28890,   5.11153E-03
C:/temp/dataset/4/3_25.odb,Step-1,Increment      1: Step Time =    1.000,"PART-1-1",           453,      -4.59209,       3.94539,            0.,NA,NA,"",       4.59613,       4.05143,       2.17034,   10.6013E-03
C:/temp/dataset/4/3_25.odb,Step-1,Increment      1: Step Time =    1.000,"PART-1-1",           454,      -6.09775,       4.77703,            0.,NA,NA,"",       4.89724,       4.24735,       2.43782,   9.91014E-03
C:/temp/dataset/4/3_25.odb,Step-1,Increment      1: Step Time =    1.000,"PART-1-1",           455,      -6.61072,       3.39578,            0.,NA,NA,"",       4.74361,       3.99539,       2.55708,   5.87122E-03
C:/temp/dataset/4/3_25.odb,Step-1,Increment      1: Step Time =    1.000,"PART-1-1",           456,       9.44090,      -5.60228,            0.,NA,NA,"",       2.19822,       2.19790,  -37.4682E-03,   6.95190E-03
C:/temp/dataset/4/3_25.odb,Step-1,Increment      1: Step Time =    1.000,"PART-1-1",           457,       9.79564,      -4.46986,            0.,NA,NA,"",       2.37270,       2.37049,  -102.491E-03,   8.45640E-03
C:/temp/dataset/4/3_25.odb,Step-1,Increment      1: Step Time =    1.000,"PART-1-1",           458,       8.43936,      -4.09444,            0.,NA,NA,"",       2.44537,       2.44369,   90.6201E-03,   8.31232E-03
C:/temp/dataset/4/3_25.odb,Step-1,Increment      1: Step Time =    1.000,"PART-1-1",           459,       8.08462,      -5.22686,            0.,NA,NA,"",       2.27467,       2.26950,   153.314E-03,   7.48984E-03
C:/temp/dataset/4/3_25.odb,Step-1,Increment      1: Step Time =    1.000,"PART-1-1",           460,       6.93926,      -9.88629,            0.,NA,NA,"",       1.63918,       1.60713,   322.581E-03,   14.6974E-03
C:/temp/dataset/4/3_25.odb,Step-1,Increment      1: Step Time =    1.000,"PART-1-1",           461,       5.93813,      -8.99303,            0.,NA,NA,"",       1.80624,       1.74702,   458.732E-03,   18.0615E-03
C:/temp/dataset/4/3_25.odb,Step-1,Increment      1: Step Time =    1.000,"PART-1-1",           462,            5.,      -10.2083,            0.,NA,NA,"",       1.69564,       1.59602,   572.627E-03,   23.3199E-03
C:/temp/dataset/4/3_25.odb,Step-1,Increment      1: Step Time =    1.000,"PART-1-1",           463,       12.9852,      -11.3613,            0.,NA,NA,"",       1.42683,       1.36296,  -422.118E-03,   15.3208E-03
C:/temp/dataset/4/3_25.odb,Step-1,Increment      1: Step Time =    1.000,"PART-1-1",           464,       14.0059,      -12.5461,            0.,NA,NA,"",       1.32190,       1.21554,  -519.490E-03,   21.3150E-03
C:/temp/dataset/4/3_25.odb,Step-1,Increment      1: Step Time =    1.000,"PART-1-1",           465,           15.,        -11.25,            0.,NA,NA,"",       1.53846,       1.37891,  -682.266E-03,   24.9425E-03
C:/temp/dataset/4/3_25.odb,Step-1,Increment      1: Step Time =    1.000,"PART-1-1",           466,       13.9793,      -10.0652,            0.,NA,NA,"",       1.63790,       1.53142,  -580.930E-03,   18.6349E-03
C:/temp/dataset/4/3_25.odb,Step-1,Increment      1: Step Time =    1.000,"PART-1-1",           467,       7.08713,      -16.3801,            0.,NA,NA,"",   851.055E-03,   811.095E-03,   257.719E-03,   19.0539E-03
C:/temp/dataset/4/3_25.odb,Step-1,Increment      1: Step Time =    1.000,"PART-1-1",           468,            5.,      -16.4583,            0.,NA,NA,"",   956.233E-03,   836.681E-03,   462.975E-03,   31.7967E-03
C:/temp/dataset/4/3_25.odb,Step-1,Increment      1: Step Time =    1.000,"PART-1-1",           469,       13.0372,      -13.8111,            0.,NA,NA,"",       1.12750,       1.06342,  -374.697E-03,   17.3914E-03
C:/temp/dataset/4/3_25.odb,Step-1,Increment      1: Step Time =    1.000,"PART-1-1",           470,       14.0313,      -15.0151,            0.,NA,NA,"",       1.03625,   930.755E-03,  -455.536E-03,   23.9869E-03
C:/temp/dataset/4/3_25.odb,Step-1,Increment      1: Step Time =    1.000,"PART-1-1",           471,           15.,        -13.75,            0.,NA,NA,"",       1.23513,       1.07742,  -603.927E-03,   28.1620E-03
C:/temp/dataset/4/3_25.odb,Step-1,Increment      1: Step Time =    1.000,"PART-1-1",           472,       13.0981,      -18.6529,            0.,NA,NA,"",   626.349E-03,   564.401E-03,  -271.597E-03,   21.4528E-03
C:/temp/dataset/4/3_25.odb,Step-1,Increment      1: Step Time =    1.000,"PART-1-1",           473,       14.0553,      -19.9280,            0.,NA,NA,"",   562.345E-03,   463.922E-03,  -317.818E-03,   29.2259E-03
C:/temp/dataset/4/3_25.odb,Step-1,Increment      1: Step Time =    1.000,"PART-1-1",           474,           15.,        -18.75,            0.,NA,NA,"",   720.050E-03,   572.567E-03,  -436.622E-03,   34.5715E-03
C:/temp/dataset/4/3_25.odb,Step-1,Increment      1: Step Time =    1.000,"PART-1-1",           475,       14.0427,      -17.4749,            0.,NA,NA,"",   782.216E-03,   679.317E-03,  -387.802E-03,   26.6053E-03
C:/temp/dataset/4/3_25.odb,Step-1,Increment      1: Step Time =    1.000,"PART-1-1",           476,       6.17422,      -27.9405,            0.,NA,NA,"",   74.7020E-03,   42.7320E-03,   61.2729E-03,   36.4853E-03
C:/temp/dataset/4/3_25.odb,Step-1,Increment      1: Step Time =    1.000,"PART-1-1",           477,            5.,      -28.9583,            0.,NA,NA,"",   58.6103E-03,   38.0733E-03,   44.5599E-03,   48.5726E-03
C:/temp/dataset/4/3_25.odb,Step-1,Increment      1: Step Time =    1.000,"PART-1-1",           478,          6.25,          -30.,            0.,NA,NA,"",            0.,  -1.30399E-39,   54.2171E-39,   34.5920E-03
C:/temp/dataset/4/3_25.odb,Step-1,Increment      1: Step Time =    1.000,"PART-1-1",           479,       9.46325,      -26.8820,            0.,NA,NA,"",   46.2752E-03,   44.3778E-03,   13.1149E-03,   8.33818E-03
C:/temp/dataset/4/3_25.odb,Step-1,Increment      1: Step Time =    1.000,"PART-1-1",           480,       8.20536,      -25.9154,            0.,NA,NA,"",   103.153E-03,   86.2837E-03,   56.5303E-03,   17.6957E-03
C:/temp/dataset/4/3_25.odb,Step-1,Increment      1: Step Time =    1.000,"PART-1-1",           481,       7.26622,      -26.9429,            0.,NA,NA,"",   86.8022E-03,   58.3470E-03,   64.2670E-03,   25.7281E-03
C:/temp/dataset/4/3_25.odb,Step-1,Increment      1: Step Time =    1.000,"PART-1-1",           482,       13.6319,      -27.3465,            0.,NA,NA,"",   90.2056E-03,   50.6951E-03,  -74.6127E-03,   33.7195E-03
C:/temp/dataset/4/3_25.odb,Step-1,Increment      1: Step Time =    1.000,"PART-1-1",           483,       12.3819,      -28.5965,            0.,NA,NA,"",   23.8466E-03,   8.76858E-03,  -22.1759E-03,   19.5309E-03
C:/temp/dataset/4/3_25.odb,Step-1,Increment      1: Step Time =    1.000,"PART-1-1",           484,         13.75,          -30.,            0.,NA,NA,"",            0.,  -2.97707E-39,  -53.5229E-39,   33.9089E-03
C:/temp/dataset/4/3_25.odb,Step-1,Increment      1: Step Time =    1.000,"PART-1-1",           485,           15.,        -28.75,            0.,NA,NA,"",   67.3213E-03,   41.9772E-03,  -52.6314E-03,   47.0027E-03
C:/temp/dataset/4/3_25.odb,Step-1,Increment      1: Step Time =    1.000,"PART-1-1",           486,         11.25,          -30.,            0.,NA,NA,"",            0.,  -4.61334E-39,  -18.4211E-39,   9.38585E-03
C:/temp/dataset/4/3_25.odb,Step-1,Increment      1: Step Time =    1.000,"PART-1-1",           487,       10.9817,      -27.5238,            0.,NA,NA,"",   30.3239E-03,   25.5199E-03,  -16.3791E-03,   10.6522E-03
C:/temp/dataset/4/3_25.odb,Step-1,Increment      1: Step Time =    1.000,"PART-1-1",           488,       10.1507,      -19.6985,            0.,NA,NA,"",   469.692E-03,   469.266E-03,  -19.9936E-03,   5.64833E-03
C:/temp/dataset/4/3_25.odb,Step-1,Increment      1: Step Time =    1.000,"PART-1-1",           489,       9.14094,      -20.7396,            0.,NA,NA,"",   392.698E-03,   389.034E-03,   53.5243E-03,   8.94622E-03
C:/temp/dataset/4/3_25.odb,Step-1,Increment      1: Step Time =    1.000,"PART-1-1",           490,       11.1621,      -20.8614,            0.,NA,NA,"",   384.101E-03,   374.645E-03,  -84.7042E-03,   9.95636E-03
C:/temp/dataset/4/3_25.odb,Step-1,Increment      1: Step Time =    1.000,"PART-1-1",           491,       7.09922,      -20.6753,            0.,NA,NA,"",   457.328E-03,   412.932E-03,   196.562E-03,   22.3120E-03
C:/temp/dataset/4/3_25.odb,Step-1,Increment      1: Step Time =    1.000,"PART-1-1",           492,            5.,       -20.625,            0.,NA,NA,"",   571.002E-03,   450.309E-03,   351.092E-03,   37.2941E-03
C:/temp/dataset/4/3_25.odb,Step-1,Increment      1: Step Time =    1.000,"PART-1-1",           493,       9.08758,      -14.0519,            0.,NA,NA,"",       1.05151,       1.04964,   62.6807E-03,   7.86139E-03
C:/temp/dataset/4/3_25.odb,Step-1,Increment      1: Step Time =    1.000,"PART-1-1",           494,       10.1099,      -15.1447,            0.,NA,NA,"",   918.244E-03,   917.350E-03,  -40.5000E-03,   5.61734E-03
C:/temp/dataset/4/3_25.odb,Step-1,Increment      1: Step Time =    1.000,"PART-1-1",           495,       11.0794,      -13.9187,            0.,NA,NA,"",       1.06453,       1.05320,  -154.934E-03,   8.10018E-03
C:/temp/dataset/4/3_25.odb,Step-1,Increment      1: Step Time =    1.000,"PART-1-1",           496,       10.0571,      -12.8260,            0.,NA,NA,"",       1.19099,       1.18989,  -51.1992E-03,   5.60436E-03
C:/temp/dataset/4/3_25.odb,Step-1,Increment      1: Step Time =    1.000,"PART-1-1",           497,       9.02765,      -11.7712,            0.,NA,NA,"",       1.33262,       1.33113,   63.1516E-03,   7.56787E-03
C:/temp/dataset/4/3_25.odb,Step-1,Increment      1: Step Time =    1.000,"PART-1-1",           498,       11.0123,      -11.5393,            0.,NA,NA,"",       1.35788,       1.34632,  -176.865E-03,   7.53141E-03
C:/temp/dataset/4/3_25.odb,Step-1,Increment      1: Step Time =    1.000,"PART-1-1",           499,       9.98284,      -10.4845,            0.,NA,NA,"",       1.49290,       1.49163,  -61.6012E-03,   5.61101E-03
C:/temp/dataset/4/3_25.odb,Step-1,Increment      1: Step Time =    1.000,"PART-1-1",           500,       12.6190,       1.44886,            0.,NA,NA,"",       3.35317,       3.29624,  -615.257E-03,   5.01744E-03
C:/temp/dataset/4/3_25.odb,Step-1,Increment      1: Step Time =    1.000,"PART-1-1",           501,       13.8500,   84.2405E-03,            0.,NA,NA,"",       3.16063,       3.06122,  -786.462E-03,   5.16657E-03
C:/temp/dataset/4/3_25.odb,Step-1,Increment      1: Step Time =    1.000,"PART-1-1",           502,           15.,          1.25,            0.,NA,NA,"",       3.38455,       3.23658,  -989.811E-03,   3.58846E-03
C:/temp/dataset/4/3_25.odb,Step-1,Increment      1: Step Time =    1.000,"PART-1-1",           503,       10.0180,      -2.29938,            0.,NA,NA,"",       2.72043,       2.71547,  -164.331E-03,   9.02834E-03
C:/temp/dataset/4/3_25.odb,Step-1,Increment      1: Step Time =    1.000,"PART-1-1",           504,       9.13986,      -3.07696,            0.,NA,NA,"",       2.59938,       2.59927,  -24.1562E-03,   9.00643E-03
C:/temp/dataset/4/3_25.odb,Step-1,Increment      1: Step Time =    1.000,"PART-1-1",           505,       10.6738,      -3.69229,            0.,NA,NA,"",       2.49670,       2.48502,  -241.193E-03,   8.81501E-03
C:/temp/dataset/4/3_25.odb,Step-1,Increment      1: Step Time =    1.000,"PART-1-1",           506,       12.7589,       6.54544,            0.,NA,NA,"",       4.17464,       4.11442,  -706.519E-03,   681.268E-06
C:/temp/dataset/4/3_25.odb,Step-1,Increment      1: Step Time =    1.000,"PART-1-1",           507,           15.,          6.25,            0.,NA,NA,"",       4.17509,       4.03872,      -1.05838,   336.661E-06
C:/temp/dataset/4/3_25.odb,Step-1,Increment      1: Step Time =    1.000,"PART-1-1",           508,       13.9203,       7.65480,            0.,NA,NA,"",       4.37036,       4.27575,  -904.428E-03,   276.384E-06
C:/temp/dataset/4/3_25.odb,Step-1,Increment      1: Step Time =    1.000,"PART-1-1",           509,       13.0275,       16.3263,            0.,NA,NA,"",       5.72185,       5.65510,  -871.419E-03,   35.2616E-06
C:/temp/dataset/4/3_25.odb,Step-1,Increment      1: Step Time =    1.000,"PART-1-1",           510,       14.0150,       15.0581,            0.,NA,NA,"",       5.53602,       5.44287,      -1.01128,   37.8719E-06
C:/temp/dataset/4/3_25.odb,Step-1,Increment      1: Step Time =    1.000,"PART-1-1",           511,           15.,         16.25,            0.,NA,NA,"",       5.74128,       5.61841,      -1.18141,   22.2982E-06
C:/temp/dataset/4/3_25.odb,Step-1,Increment      1: Step Time =    1.000,"PART-1-1",           512,       14.0124,       17.5182,            0.,NA,NA,"",       5.92296,       5.83066,      -1.04158,   9.16177E-06
C:/temp/dataset/4/3_25.odb,Step-1,Increment      1: Step Time =    1.000,"PART-1-1",           513,       13.0175,       18.7421,            0.,NA,NA,"",       6.10273,       6.03600,  -900.041E-03,   9.80448E-06
C:/temp/dataset/4/3_25.odb,Step-1,Increment      1: Step Time =    1.000,"PART-1-1",           514,           15.,         18.75,            0.,NA,NA,"",       6.13353,       6.01246,      -1.21265,   2.00975E-06
C:/temp/dataset/4/3_25.odb,Step-1,Increment      1: Step Time =    1.000,"PART-1-1",           515,       14.0051,       19.9738,            0.,NA,NA,"",       6.30939,       6.21781,      -1.07112,   1.43695E-06
C:/temp/dataset/4/3_25.odb,Step-1,Increment      1: Step Time =    1.000,"PART-1-1",           516,       5.97628,       21.7197,            0.,NA,NA,"",       6.59565,       6.59339,   172.686E-03,   912.576E-09
C:/temp/dataset/4/3_25.odb,Step-1,Increment      1: Step Time =    1.000,"PART-1-1",           517,       6.92463,       22.7965,            0.,NA,NA,"",       6.75129,       6.75128,   9.72582E-03,   329.171E-09
C:/temp/dataset/4/3_25.odb,Step-1,Increment      1: Step Time =    1.000,"PART-1-1",           518,       5.94835,       23.7852,            0.,NA,NA,"",       6.92099,       6.91933,   151.264E-03,   744.505E-09
C:/temp/dataset/4/3_25.odb,Step-1,Increment      1: Step Time =    1.000,"PART-1-1",           519,            5.,       22.7083,            0.,NA,NA,"",       6.76874,       6.76144,   314.224E-03,   1.51280E-06
C:/temp/dataset/4/3_25.odb,Step-1,Increment      1: Step Time =    1.000,"PART-1-1",           520,       13.8862,       24.9278,            0.,NA,NA,"",       7.08835,       7.00022,      -1.11431,   528.126E-09
C:/temp/dataset/4/3_25.odb,Step-1,Increment      1: Step Time =    1.000,"PART-1-1",           521,           15.,         26.25,            0.,NA,NA,"",       7.31236,       7.19471,      -1.30642,   453.668E-09
C:/temp/dataset/4/3_25.odb,Step-1,Increment      1: Step Time =    1.000,"PART-1-1",           522,       6.15342,       27.8650,            0.,NA,NA,"",       7.56021,       7.55990,   67.9256E-03,   187.785E-09
C:/temp/dataset/4/3_25.odb,Step-1,Increment      1: Step Time =    1.000,"PART-1-1",           523,       7.40342,       28.9067,            0.,NA,NA,"",       7.70979,       7.70848,  -142.144E-03,   208.803E-09
C:/temp/dataset/4/3_25.odb,Step-1,Increment      1: Step Time =    1.000,"PART-1-1",           524,          6.25,           30.,            0.,NA,NA,"",       7.89529,       7.89525,   26.0083E-03,   49.4791E-09
C:/temp/dataset/4/3_25.odb,Step-1,Increment      1: Step Time =    1.000,"PART-1-1",           525,            5.,       28.9583,            0.,NA,NA,"",       7.75027,       7.74667,   236.078E-03,   48.1718E-09
C:/temp/dataset/4/3_25.odb,Step-1,Increment      1: Step Time =    1.000,"PART-1-1",           526,       7.11917,       26.8292,            0.,NA,NA,"",       7.38489,       7.38455,  -71.3602E-03,   408.059E-09
C:/temp/dataset/4/3_25.odb,Step-1,Increment      1: Step Time =    1.000,"PART-1-1",           527,            5.,        26.875,            0.,NA,NA,"",       7.42289,       7.41826,   262.125E-03,   312.397E-09
C:/temp/dataset/4/3_25.odb,Step-1,Increment      1: Step Time =    1.000,"PART-1-1",           528,       5.96574,       25.8392,            0.,NA,NA,"",       7.24395,       7.24291,   122.840E-03,   405.934E-09
C:/temp/dataset/4/3_25.odb,Step-1,Increment      1: Step Time =    1.000,"PART-1-1",           529,       8.59546,       27.4701,            0.,NA,NA,"",       7.47364,       7.46712,  -312.092E-03,   276.726E-09
C:/temp/dataset/4/3_25.odb,Step-1,Increment      1: Step Time =    1.000,"PART-1-1",           530,       9.94204,       28.5635,            0.,NA,NA,"",       7.64160,       7.62263,  -538.031E-03,   274.465E-09
C:/temp/dataset/4/3_25.odb,Step-1,Increment      1: Step Time =    1.000,"PART-1-1",           531,          8.75,           30.,            0.,NA,NA,"",       7.87260,       7.86399,  -368.083E-03,   225.330E-09
C:/temp/dataset/4/3_25.odb,Step-1,Increment      1: Step Time =    1.000,"PART-1-1",           532,            5.,       24.7917,            0.,NA,NA,"",       7.09571,       7.08985,   288.174E-03,   835.046E-09
C:/temp/dataset/4/3_25.odb,Step-1,Increment      1: Step Time =    1.000,"PART-1-1",           533,       6.91409,       24.8327,            0.,NA,NA,"",       7.07240,       7.07239,  -14.0708E-03,   555.386E-09
C:/temp/dataset/4/3_25.odb,Step-1,Increment      1: Step Time =    1.000,"PART-1-1",           534,            5.,        20.625,            0.,NA,NA,"",       6.44202,       6.43303,   340.276E-03,   1.54909E-06
C:/temp/dataset/4/3_25.odb,Step-1,Increment      1: Step Time =    1.000,"PART-1-1",           535,       5.99534,       19.6263,            0.,NA,NA,"",       6.26621,       6.26315,   195.857E-03,   1.90497E-06
C:/temp/dataset/4/3_25.odb,Step-1,Increment      1: Step Time =    1.000,"PART-1-1",           536,       6.97162,       20.7210,            0.,NA,NA,"",       6.42357,       6.42351,   28.2684E-03,   2.21351E-06
C:/temp/dataset/4/3_25.odb,Step-1,Increment      1: Step Time =    1.000,"PART-1-1",           537,       9.90537,       10.7177,            0.,NA,NA,"",       4.81997,       4.81008,  -308.563E-03,   206.836E-06
C:/temp/dataset/4/3_25.odb,Step-1,Increment      1: Step Time =    1.000,"PART-1-1",           538,       8.83179,       9.75083,            0.,NA,NA,"",       4.67282,       4.67109,  -127.136E-03,   201.306E-06
C:/temp/dataset/4/3_25.odb,Step-1,Increment      1: Step Time =    1.000,"PART-1-1",           539,       10.8380,       9.37550,            0.,NA,NA,"",       4.60779,       4.58686,  -438.708E-03,   175.300E-06
C:/temp/dataset/4/3_25.odb,Step-1,Increment      1: Step Time =    1.000,"PART-1-1",           540,       5.96737,       11.1773,            0.,NA,NA,"",       4.94086,       4.93139,   305.615E-03,   193.643E-06
C:/temp/dataset/4/3_25.odb,Step-1,Increment      1: Step Time =    1.000,"PART-1-1",           541,       6.95908,       12.1740,            0.,NA,NA,"",       5.07798,       5.07613,   137.126E-03,   169.665E-06
C:/temp/dataset/4/3_25.odb,Step-1,Increment      1: Step Time =    1.000,"PART-1-1",           542,            5.,       12.2917,            0.,NA,NA,"",       5.13843,       5.11920,   444.209E-03,   192.990E-06
C:/temp/dataset/4/3_25.odb,Step-1,Increment      1: Step Time =    1.000,"PART-1-1",           543,       6.89189,       10.0466,            0.,NA,NA,"",       4.74493,       4.74172,   174.286E-03,   239.672E-06
C:/temp/dataset/4/3_25.odb,Step-1,Increment      1: Step Time =    1.000,"PART-1-1",           544,            5.,       10.2083,            0.,NA,NA,"",       4.81387,       4.79090,   469.695E-03,   501.576E-06
C:/temp/dataset/4/3_25.odb,Step-1,Increment      1: Step Time =    1.000,"PART-1-1",           545,  -883.251E-03,       2.97832,            0.,NA,NA,"",       4.08668,       3.78849,       1.53240,   8.44549E-03
C:/temp/dataset/4/3_25.odb,Step-1,Increment      1: Step Time =    1.000,"PART-1-1",           546,         -1.25,            5.,            0.,NA,NA,"",       4.44153,       4.15309,       1.57451,   13.0550E-03
C:/temp/dataset/4/3_25.odb,Step-1,Increment      1: Step Time =    1.000,"PART-1-1",           547,      -2.28350,       3.97568,            0.,NA,NA,"",       4.37119,       3.99945,       1.76398,   10.7640E-03
C:/temp/dataset/4/3_25.odb,Step-1,Increment      1: Step Time =    1.000,"PART-1-1",           548,      -3.12559,       2.92107,            0.,NA,NA,"",       4.28662,       3.82982,       1.92550,   6.68255E-03
C:/temp/dataset/4/3_25.odb,Step-1,Increment      1: Step Time =    1.000,"PART-1-1",           549,         -3.75,            5.,            0.,NA,NA,"",       4.67786,       4.22400,       2.01002,   16.7533E-03
C:/temp/dataset/4/3_25.odb,Step-1,Increment      1: Step Time =    1.000,"PART-1-1",           550,      -7.01026,       10.3490,            0.,NA,NA,"",       5.92616,       5.37314,       2.49974,   994.463E-06
C:/temp/dataset/4/3_25.odb,Step-1,Increment      1: Step Time =    1.000,"PART-1-1",           551,           -5.,       10.2083,            0.,NA,NA,"",       5.71088,       5.30685,       2.10987,   293.113E-06
C:/temp/dataset/4/3_25.odb,Step-1,Increment      1: Step Time =    1.000,"PART-1-1",           552,      -6.00030,       11.3233,            0.,NA,NA,"",       5.99632,       5.54434,       2.28389,   208.166E-06
C:/temp/dataset/4/3_25.odb,Step-1,Increment      1: Step Time =    1.000,"PART-1-1",           553,      -6.90277,       16.5792,            0.,NA,NA,"",       6.99415,       6.58419,       2.35937,   118.540E-06
C:/temp/dataset/4/3_25.odb,Step-1,Increment      1: Step Time =    1.000,"PART-1-1",           554,           -5.,       16.4583,            0.,NA,NA,"",       6.82176,       6.52440,       1.99216,   204.301E-06
C:/temp/dataset/4/3_25.odb,Step-1,Increment      1: Step Time =    1.000,"PART-1-1",           555,      -5.93592,       17.5473,            0.,NA,NA,"",       7.08858,       6.75362,       2.15327,   103.256E-06
C:/temp/dataset/4/3_25.odb,Step-1,Increment      1: Step Time =    1.000,"PART-1-1",           556,      -5.96041,       23.6583,            0.,NA,NA,"",       8.19812,       7.93972,       2.04207,   5.39837E-06
C:/temp/dataset/4/3_25.odb,Step-1,Increment      1: Step Time =    1.000,"PART-1-1",           557,           -5.,       24.7917,            0.,NA,NA,"",       8.34542,       8.14136,       1.83420,   1.06556E-06
C:/temp/dataset/4/3_25.odb,Step-1,Increment      1: Step Time =    1.000,"PART-1-1",           558,      -7.48847,       28.8776,            0.,NA,NA,"",       9.25639,       8.98142,       2.23938,   289.700E-09
C:/temp/dataset/4/3_25.odb,Step-1,Increment      1: Step Time =    1.000,"PART-1-1",           559,           -5.,       28.9583,            0.,NA,NA,"",       9.12024,       8.94979,       1.75502,   233.155E-09
C:/temp/dataset/4/3_25.odb,Step-1,Increment      1: Step Time =    1.000,"PART-1-1",           560,         -6.25,           30.,            0.,NA,NA,"",       9.38638,       9.17566,       1.97775,   288.971E-09
C:/temp/dataset/4/3_25.odb,Step-1,Increment      1: Step Time =    1.000,"PART-1-1",           561,       12.9634,       11.4929,            0.,NA,NA,"",       4.95923,       4.89412,  -800.943E-03,   158.720E-06
C:/temp/dataset/4/3_25.odb,Step-1,Increment      1: Step Time =    1.000,"PART-1-1",           562,       13.9657,       10.1417,            0.,NA,NA,"",       4.76257,       4.66840,  -942.424E-03,   224.528E-06
C:/temp/dataset/4/3_25.odb,Step-1,Increment      1: Step Time =    1.000,"PART-1-1",           563,           15.,         11.25,            0.,NA,NA,"",       4.95819,       4.83019,      -1.11934,   246.074E-06
C:/temp/dataset/4/3_25.odb,Step-1,Increment      1: Step Time =    1.000,"PART-1-1",           564,       13.9978,       12.6011,            0.,NA,NA,"",       5.14957,       5.05585,  -977.968E-03,   109.702E-06
C:/temp/dataset/4/3_25.odb,Step-1,Increment      1: Step Time =    1.000,"PART-1-1",           565,       9.13480,      -18.5479,            0.,NA,NA,"",   578.898E-03,   575.870E-03,   59.1317E-03,   8.51276E-03
C:/temp/dataset/4/3_25.odb,Step-1,Increment      1: Step Time =    1.000,"PART-1-1",           566,       11.1537,      -18.5886,            0.,NA,NA,"",   575.290E-03,   565.021E-03,  -108.216E-03,   9.38245E-03
C:/temp/dataset/4/3_25.odb,Step-1,Increment      1: Step Time =    1.000,"PART-1-1",           567,       10.1377,      -17.4381,            0.,NA,NA,"",   676.991E-03,   676.344E-03,  -29.5965E-03,   5.63115E-03
C:/temp/dataset/4/3_25.odb,Step-1,Increment      1: Step Time =    1.000,"PART-1-1",           568,      -8.81573,       27.5627,            0.,NA,NA,"",       9.10762,       8.75150,       2.52189,   793.734E-09
C:/temp/dataset/4/3_25.odb,Step-1,Increment      1: Step Time =    1.000,"PART-1-1",           569,         -8.75,           30.,            0.,NA,NA,"",       9.54632,       9.22317,       2.46282,   869.503E-09
C:/temp/dataset/4/3_25.odb,Step-1,Increment      1: Step Time =    1.000,"PART-1-1",           570,            5.,      -24.7917,            0.,NA,NA,"",   277.867E-03,   181.935E-03,   210.023E-03,   42.1538E-03
C:/temp/dataset/4/3_25.odb,Step-1,Increment      1: Step Time =    1.000,"PART-1-1",           571,       6.09200,      -25.8775,            0.,NA,NA,"",   172.257E-03,   114.283E-03,   128.887E-03,   34.7095E-03
C:/temp/dataset/4/3_25.odb,Step-1,Increment      1: Step Time =    1.000,"PART-1-1",           572,       7.15121,      -24.8757,            0.,NA,NA,"",   182.960E-03,   143.479E-03,   113.525E-03,   25.4948E-03
C:/temp/dataset/4/3_25.odb,Step-1,Increment      1: Step Time =    1.000,"PART-1-1",           573,       13.1040,      -21.0477,            0.,NA,NA,"",   427.893E-03,   369.144E-03,  -216.391E-03,   23.3035E-03
C:/temp/dataset/4/3_25.odb,Step-1,Increment      1: Step Time =    1.000,"PART-1-1",           574,       14.0487,      -22.3697,            0.,NA,NA,"",   377.137E-03,   287.485E-03,  -244.100E-03,   31.7747E-03
C:/temp/dataset/4/3_25.odb,Step-1,Increment      1: Step Time =    1.000,"PART-1-1",           575,           15.,        -21.25,            0.,NA,NA,"",   511.721E-03,   375.809E-03,  -347.313E-03,   37.8531E-03
C:/temp/dataset/4/3_25.odb,Step-1,Increment      1: Step Time =    1.000,"PART-1-1",           576,            5.,       -26.875,            0.,NA,NA,"",   163.759E-03,   97.3287E-03,   131.697E-03,   44.8671E-03
C:/temp/dataset/4/3_25.odb,Step-1,Increment      1: Step Time =    1.000,"PART-1-1",           577,       12.8133,      -6.31290,            0.,NA,NA,"",       2.12600,       2.06511,  -505.180E-03,   11.3820E-03
C:/temp/dataset/4/3_25.odb,Step-1,Increment      1: Step Time =    1.000,"PART-1-1",           578,       13.9319,      -7.55671,            0.,NA,NA,"",       1.98343,       1.87830,  -637.178E-03,   15.7199E-03
C:/temp/dataset/4/3_25.odb,Step-1,Increment      1: Step Time =    1.000,"PART-1-1",           579,           15.,         -6.25,            0.,NA,NA,"",       2.22420,       2.06471,  -827.051E-03,   17.5560E-03
C:/temp/dataset/4/3_25.odb,Step-1,Increment      1: Step Time =    1.000,"PART-1-1",           580,            5.,       18.5417,            0.,NA,NA,"",       6.11558,       6.10460,   366.328E-03,   2.66546E-06
C:/temp/dataset/4/3_25.odb,Step-1,Increment      1: Step Time =    1.000,"PART-1-1",           581,       6.00122,       17.5195,            0.,NA,NA,"",       5.93506,       5.93093,   221.271E-03,   9.75963E-06
C:/temp/dataset/4/3_25.odb,Step-1,Increment      1: Step Time =    1.000,"PART-1-1",           582,       6.99656,       18.6041,            0.,NA,NA,"",       6.08970,       6.08948,   50.8069E-03,   10.6523E-06
C:/temp/dataset/4/3_25.odb,Step-1,Increment      1: Step Time =    1.000,"PART-1-1",           583,       12.8545,       23.6160,            0.,NA,NA,"",       6.87028,       6.80632,  -935.280E-03,   465.344E-09
C:/temp/dataset/4/3_25.odb,Step-1,Increment      1: Step Time =    1.000,"PART-1-1",           584,       13.9683,       22.4382,            0.,NA,NA,"",       6.69704,       6.60673,      -1.09613,   877.884E-09
C:/temp/dataset/4/3_25.odb,Step-1,Increment      1: Step Time =    1.000,"PART-1-1",           585,           15.,         23.75,            0.,NA,NA,"",       6.91914,       6.80062,      -1.27516,   1.17278E-06
C:/temp/dataset/4/3_25.odb,Step-1,Increment      1: Step Time =    1.000,"PART-1-1",           586,            5.,       16.4583,            0.,NA,NA,"",       5.78947,       5.77616,   392.371E-03,   19.1111E-06
C:/temp/dataset/4/3_25.odb,Step-1,Increment      1: Step Time =    1.000,"PART-1-1",           587,       7.00480,       16.4638,            0.,NA,NA,"",       5.75245,       5.75195,   76.2745E-03,   34.3612E-06
C:/temp/dataset/4/3_25.odb,Step-1,Increment      1: Step Time =    1.000,"PART-1-1",           588,       12.9734,       21.1620,            0.,NA,NA,"",       6.48408,       6.41800,  -923.343E-03,   1.49755E-06
C:/temp/dataset/4/3_25.odb,Step-1,Increment      1: Step Time =    1.000,"PART-1-1",           589,           15.,         21.25,            0.,NA,NA,"",       6.52618,       6.40654,      -1.24390,   1.61902E-06
C:/temp/dataset/4/3_25.odb,Step-1,Increment      1: Step Time =    1.000,"PART-1-1",           590,            5.,       6.04167,            0.,NA,NA,"",       4.17212,       4.13988,   517.703E-03,   2.97270E-03
C:/temp/dataset/4/3_25.odb,Step-1,Increment      1: Step Time =    1.000,"PART-1-1",           591,       5.70418,       5.21013,            0.,NA,NA,"",       4.02824,       4.00650,   417.985E-03,   7.13627E-03
C:/temp/dataset/4/3_25.odb,Step-1,Increment      1: Step Time =    1.000,"PART-1-1",           592,       6.54256,       6.20387,            0.,NA,NA,"",       4.15461,       4.14542,   276.230E-03,   2.41894E-03
C:/temp/dataset/4/3_25.odb,Step-1,Increment      1: Step Time =    1.000,"PART-1-1",           593,       7.80464,       8.81181,            0.,NA,NA,"",       4.53635,       4.53611,   46.2928E-03,   200.958E-06
C:/temp/dataset/4/3_25.odb,Step-1,Increment      1: Step Time =    1.000,"PART-1-1",           594,       7.55468,       6.70991,            0.,NA,NA,"",       4.21130,       4.20983,   111.408E-03,   1.38470E-03
C:/temp/dataset/4/3_25.odb,Step-1,Increment      1: Step Time =    1.000,"PART-1-1",           595,           -5.,       12.2917,            0.,NA,NA,"",       6.07756,       5.71404,       2.07037,   374.864E-06
C:/temp/dataset/4/3_25.odb,Step-1,Increment      1: Step Time =    1.000,"PART-1-1",           596,      -13.0551,       11.1433,            0.,NA,NA,"",       6.72754,       5.64851,       3.65434,   2.29031E-03
C:/temp/dataset/4/3_25.odb,Step-1,Increment      1: Step Time =    1.000,"PART-1-1",           597,          -15.,       11.4063,            0.,NA,NA,"",       7.01058,       5.74025,       4.02464,   2.18461E-03
C:/temp/dataset/4/3_25.odb,Step-1,Increment      1: Step Time =    1.000,"PART-1-1",           598,           -5.,       18.5417,            0.,NA,NA,"",       7.19868,       6.92874,       1.95282,   96.9157E-06
C:/temp/dataset/4/3_25.odb,Step-1,Increment      1: Step Time =    1.000,"PART-1-1",           599,      -6.83195,       18.5917,            0.,NA,NA,"",       7.34517,       6.97333,       2.30741,   84.6973E-06
C:/temp/dataset/4/3_25.odb,Step-1,Increment      1: Step Time =    1.000,"PART-1-1",           600,      -12.9744,       15.4368,            0.,NA,NA,"",       7.39122,       6.47779,       3.55928,   149.164E-06
C:/temp/dataset/4/3_25.odb,Step-1,Increment      1: Step Time =    1.000,"PART-1-1",           601,      -13.9736,       16.6988,            0.,NA,NA,"",       7.70405,       6.74148,       3.72892,   150.054E-06
C:/temp/dataset/4/3_25.odb,Step-1,Increment      1: Step Time =    1.000,"PART-1-1",           602,          -15.,       15.7813,            0.,NA,NA,"",       7.67465,       6.58307,       3.94505,   363.050E-06
C:/temp/dataset/4/3_25.odb,Step-1,Increment      1: Step Time =    1.000,"PART-1-1",           603,      -6.85389,       22.5676,            0.,NA,NA,"",       8.06144,       7.74509,       2.23616,   18.7555E-06
C:/temp/dataset/4/3_25.odb,Step-1,Increment      1: Step Time =    1.000,"PART-1-1",           604,           -5.,       22.7083,            0.,NA,NA,"",       7.96082,       7.73715,       1.87378,   9.55767E-06
C:/temp/dataset/4/3_25.odb,Step-1,Increment      1: Step Time =    1.000,"PART-1-1",           605,      -7.62380,       21.5126,            0.,NA,NA,"",       7.92877,       7.55503,       2.40560,   28.9452E-06
C:/temp/dataset/4/3_25.odb,Step-1,Increment      1: Step Time =    1.000,"PART-1-1",           606,      -11.2433,       25.0031,            0.,NA,NA,"",       8.84069,       8.30101,       3.04156,   6.83169E-06
C:/temp/dataset/4/3_25.odb,Step-1,Increment      1: Step Time =    1.000,"PART-1-1",           607,      -10.1220,       24.6816,            0.,NA,NA,"",       8.69102,       8.21732,       2.83010,   7.23836E-06
C:/temp/dataset/4/3_25.odb,Step-1,Increment      1: Step Time =    1.000,"PART-1-1",           608,      -9.68436,       26.2404,            0.,NA,NA,"",       8.93416,       8.51146,       2.71556,   3.36539E-06
C:/temp/dataset/4/3_25.odb,Step-1,Increment      1: Step Time =    1.000,"PART-1-1",           609,      -10.8057,       26.5619,            0.,NA,NA,"",       9.07987,       8.59514,       2.92702,   2.23817E-06
C:/temp/dataset/4/3_25.odb,Step-1,Increment      1: Step Time =    1.000,"PART-1-1",           610,            5.,      -6.04167,            0.,NA,NA,"",       2.27357,       2.18978,   611.547E-03,   22.7080E-03
C:/temp/dataset/4/3_25.odb,Step-1,Increment      1: Step Time =    1.000,"PART-1-1",           611,       5.81487,      -6.90448,            0.,NA,NA,"",       2.10506,       2.04776,   487.804E-03,   16.7458E-03
C:/temp/dataset/4/3_25.odb,Step-1,Increment      1: Step Time =    1.000,"PART-1-1",           612,       6.44107,      -5.66337,            0.,NA,NA,"",       2.25663,       2.22125,   398.003E-03,   9.58586E-03
C:/temp/dataset/4/3_25.odb,Step-1,Increment      1: Step Time =    1.000,"PART-1-1",           613,       5.62621,      -4.80056,            0.,NA,NA,"",       2.41980,       2.36322,   520.225E-03,   13.4668E-03
C:/temp/dataset/4/3_25.odb,Step-1,Increment      1: Step Time =    1.000,"PART-1-1",           614,            5.,        -8.125,            0.,NA,NA,"",       1.97820,       1.88715,   593.254E-03,   21.1002E-03
C:/temp/dataset/4/3_25.odb,Step-1,Increment      1: Step Time =    1.000,"PART-1-1",           615,       8.00489,       17.5473,            0.,NA,NA,"",       5.91105,       5.91028,  -94.9202E-03,   17.8120E-06
C:/temp/dataset/4/3_25.odb,Step-1,Increment      1: Step Time =    1.000,"PART-1-1",           616,       8.00828,       15.3576,            0.,NA,NA,"",       5.56542,       5.56501,  -68.0394E-03,   50.6527E-06
C:/temp/dataset/4/3_25.odb,Step-1,Increment      1: Step Time =    1.000,"PART-1-1",           617,       11.1265,      -16.2686,            0.,NA,NA,"",   803.079E-03,   792.172E-03,  -131.907E-03,   8.75386E-03
C:/temp/dataset/4/3_25.odb,Step-1,Increment      1: Step Time =    1.000,"PART-1-1",           618,       9.12111,      -16.3141,            0.,NA,NA,"",   799.293E-03,   796.905E-03,   61.7439E-03,   8.15070E-03
C:/temp/dataset/4/3_25.odb,Step-1,Increment      1: Step Time =    1.000,"PART-1-1",           619,      -9.91602,       15.9767,            0.,NA,NA,"",       7.16292,       6.52453,       2.95600,   138.846E-06
C:/temp/dataset/4/3_25.odb,Step-1,Increment      1: Step Time =    1.000,"PART-1-1",           620,      -10.9598,       15.0860,            0.,NA,NA,"",       7.11906,       6.37158,       3.17552,   154.227E-06
C:/temp/dataset/4/3_25.odb,Step-1,Increment      1: Step Time =    1.000,"PART-1-1",           621,      -8.93702,       14.7598,            0.,NA,NA,"",       6.86216,       6.26974,       2.78920,   130.443E-06
C:/temp/dataset/4/3_25.odb,Step-1,Increment      1: Step Time =    1.000,"PART-1-1",           622,      -13.0880,       4.79273,            0.,NA,NA,"",       5.80035,       4.40843,       3.76959,   3.91811E-03
C:/temp/dataset/4/3_25.odb,Step-1,Increment      1: Step Time =    1.000,"PART-1-1",           623,          -15.,       4.84375,            0.,NA,NA,"",       6.08443,       4.46079,       4.13782,   4.21730E-03
C:/temp/dataset/4/3_25.odb,Step-1,Increment      1: Step Time =    1.000,"PART-1-1",           624,           -5.,       6.04167,            0.,NA,NA,"",       4.99126,       4.48187,       2.19671,   7.37768E-03
C:/temp/dataset/4/3_25.odb,Step-1,Increment      1: Step Time =    1.000,"PART-1-1",           625,      -7.12843,       5.83601,            0.,NA,NA,"",       5.18885,       4.48225,       2.61413,   5.52869E-03
C:/temp/dataset/4/3_25.odb,Step-1,Increment      1: Step Time =    1.000,"PART-1-1",           626,       12.9112,      -8.87192,            0.,NA,NA,"",       1.75862,       1.69583,  -465.721E-03,   13.2930E-03
C:/temp/dataset/4/3_25.odb,Step-1,Increment      1: Step Time =    1.000,"PART-1-1",           627,           15.,         -8.75,            0.,NA,NA,"",       1.86913,       1.70900,  -756.945E-03,   21.5250E-03
C:/temp/dataset/4/3_25.odb,Step-1,Increment      1: Step Time =    1.000,"PART-1-1",           628,       13.0740,      -16.2399,            0.,NA,NA,"",   860.165E-03,   796.665E-03,  -324.359E-03,   19.4370E-03
C:/temp/dataset/4/3_25.odb,Step-1,Increment      1: Step Time =    1.000,"PART-1-1",           629,           15.,        -16.25,            0.,NA,NA,"",   961.613E-03,   807.545E-03,  -522.084E-03,   31.3699E-03
C:/temp/dataset/4/3_25.odb,Step-1,Increment      1: Step Time =    1.000,"PART-1-1",           630,       13.0128,       13.9092,            0.,NA,NA,"",       5.34065,       5.27435,  -838.910E-03,   90.8016E-06
C:/temp/dataset/4/3_25.odb,Step-1,Increment      1: Step Time =    1.000,"PART-1-1",           631,           15.,         13.75,            0.,NA,NA,"",       5.34950,       5.22437,      -1.15026,   90.3862E-06
C:/temp/dataset/4/3_25.odb,Step-1,Increment      1: Step Time =    1.000,"PART-1-1",           632,       10.9505,       11.7339,            0.,NA,NA,"",       4.98105,       4.95726,  -486.259E-03,   168.624E-06
C:/temp/dataset/4/3_25.odb,Step-1,Increment      1: Step Time =    1.000,"PART-1-1",           633,       9.98883,       12.9959,            0.,NA,NA,"",       5.17996,       5.16809,  -350.522E-03,   127.032E-06
C:/temp/dataset/4/3_25.odb,Step-1,Increment      1: Step Time =    1.000,"PART-1-1",           634,       8.94372,       11.9797,            0.,NA,NA,"",       5.02385,       5.02087,  -172.973E-03,   171.682E-06
C:/temp/dataset/4/3_25.odb,Step-1,Increment      1: Step Time =    1.000,"PART-1-1",           635,      -13.9153,       18.9000,            0.,NA,NA,"",       8.05514,       7.16748,       3.67593,   68.4130E-06
C:/temp/dataset/4/3_25.odb,Step-1,Increment      1: Step Time =    1.000,"PART-1-1",           636,      -12.6393,       19.9841,            0.,NA,NA,"",       8.10489,       7.35363,       3.40784,   67.0019E-06
C:/temp/dataset/4/3_25.odb,Step-1,Increment      1: Step Time =    1.000,"PART-1-1",           637,          -15.,       20.1563,            0.,NA,NA,"",       8.37569,       7.43189,       3.86254,   54.5875E-06
C:/temp/dataset/4/3_25.odb,Step-1,Increment      1: Step Time =    1.000,"PART-1-1",           638,       8.12191,      -21.7795,            0.,NA,NA,"",   338.417E-03,   318.983E-03,   113.028E-03,   15.7693E-03
C:/temp/dataset/4/3_25.odb,Step-1,Increment      1: Step Time =    1.000,"PART-1-1",           639,       8.12482,      -23.8590,            0.,NA,NA,"",   206.056E-03,   186.429E-03,   87.7699E-03,   16.8421E-03
C:/temp/dataset/4/3_25.odb,Step-1,Increment      1: Step Time =    1.000,"PART-1-1",           640,       8.11825,      -19.6354,            0.,NA,NA,"",   505.562E-03,   487.311E-03,   134.617E-03,   14.6831E-03
C:/temp/dataset/4/3_25.odb,Step-1,Increment      1: Step Time =    1.000,"PART-1-1",           641,       8.10952,      -17.4508,            0.,NA,NA,"",   706.094E-03,   689.472E-03,   152.309E-03,   13.6663E-03
C:/temp/dataset/4/3_25.odb,Step-1,Increment      1: Step Time =    1.000,"PART-1-1",           642,       7.85781,       23.9076,            0.,NA,NA,"",       6.91641,       6.91476,  -151.269E-03,   507.653E-09
C:/temp/dataset/4/3_25.odb,Step-1,Increment      1: Step Time =    1.000,"PART-1-1",           643,       7.94870,       21.8524,            0.,NA,NA,"",       6.59114,       6.58965,  -139.903E-03,   693.644E-09
C:/temp/dataset/4/3_25.odb,Step-1,Increment      1: Step Time =    1.000,"PART-1-1",           644,       4.21929,       2.98066,            0.,NA,NA,"",       3.73983,       3.67858,   674.079E-03,   7.00083E-03
C:/temp/dataset/4/3_25.odb,Step-1,Increment      1: Step Time =    1.000,"PART-1-1",           645,       5.32392,       3.96649,            0.,NA,NA,"",       3.84927,       3.81828,   487.473E-03,   8.77017E-03
C:/temp/dataset/4/3_25.odb,Step-1,Increment      1: Step Time =    1.000,"PART-1-1",           646,          3.75,            5.,            0.,NA,NA,"",       4.08687,       4.02092,   731.205E-03,   13.6784E-03
C:/temp/dataset/4/3_25.odb,Step-1,Increment      1: Step Time =    1.000,"PART-1-1",           647,       12.8859,       9.04653,            0.,NA,NA,"",       4.57239,       4.50910,  -758.121E-03,   98.7214E-06
C:/temp/dataset/4/3_25.odb,Step-1,Increment      1: Step Time =    1.000,"PART-1-1",           648,           15.,          8.75,            0.,NA,NA,"",       4.56705,       4.43537,      -1.08880,   445.801E-06
C:/temp/dataset/4/3_25.odb,Step-1,Increment      1: Step Time =    1.000,"PART-1-1",           649,      -8.02807,       9.41948,            0.,NA,NA,"",       5.87557,       5.21030,       2.71569,   2.00753E-03
C:/temp/dataset/4/3_25.odb,Step-1,Increment      1: Step Time =    1.000,"PART-1-1",           650,      -8.84347,       16.8085,            0.,NA,NA,"",       7.20369,       6.66557,       2.73190,   121.151E-06
C:/temp/dataset/4/3_25.odb,Step-1,Increment      1: Step Time =    1.000,"PART-1-1",           651,      -9.78583,       18.0165,            0.,NA,NA,"",       7.49788,       6.91780,       2.89176,   105.142E-06
C:/temp/dataset/4/3_25.odb,Step-1,Increment      1: Step Time =    1.000,"PART-1-1",           652,          -15.,       17.9688,            0.,NA,NA,"",       8.02150,       7.00740,       3.90394,   154.315E-06
C:/temp/dataset/4/3_25.odb,Step-1,Increment      1: Step Time =    1.000,"PART-1-1",           653,          -15.,       24.5313,            0.,NA,NA,"",       9.10255,       8.28084,       3.77943,   1.31515E-06
C:/temp/dataset/4/3_25.odb,Step-1,Increment      1: Step Time =    1.000,"PART-1-1",           654,      -12.9952,       24.7258,            0.,NA,NA,"",       8.94632,       8.28050,       3.38674,   5.74326E-06
C:/temp/dataset/4/3_25.odb,Step-1,Increment      1: Step Time =    1.000,"PART-1-1",           655,      -11.4985,       21.8877,            0.,NA,NA,"",       8.32078,       7.70135,       3.15031,   28.8265E-06
C:/temp/dataset/4/3_25.odb,Step-1,Increment      1: Step Time =    1.000,"PART-1-1",           656,      -11.4490,       20.6565,            0.,NA,NA,"",       8.10468,       7.46151,       3.16413,   47.2986E-06
C:/temp/dataset/4/3_25.odb,Step-1,Increment      1: Step Time =    1.000,"PART-1-1",           657,      -10.1446,       20.7260,            0.,NA,NA,"",       7.99832,       7.45028,       2.90973,   50.9583E-06
C:/temp/dataset/4/3_25.odb,Step-1,Increment      1: Step Time =    1.000,"PART-1-1",           658,      -7.69218,       19.6350,            0.,NA,NA,"",       7.59940,       7.19208,       2.45456,   59.2000E-06
C:/temp/dataset/4/3_25.odb,Step-1,Increment      1: Step Time =    1.000,"PART-1-1",           659,      -8.68744,       18.7463,            0.,NA,NA,"",       7.52607,       7.03856,       2.66466,   91.1877E-06
C:/temp/dataset/4/3_25.odb,Step-1,Increment      1: Step Time =    1.000,"PART-1-1",           660,      -7.82721,       17.7030,            0.,NA,NA,"",       7.26967,       6.81983,       2.51753,   98.9153E-06
C:/temp/dataset/4/3_25.odb,Step-1,Increment      1: Step Time =    1.000,"PART-1-1",           661,      -9.52114,       19.8817,            0.,NA,NA,"",       7.79663,       7.27464,       2.80483,   62.0212E-06
C:/temp/dataset/4/3_25.odb,Step-1,Increment      1: Step Time =    1.000,"PART-1-1",           662,      -10.6195,       19.1519,            0.,NA,NA,"",       7.76981,       7.15386,       3.03187,   87.6480E-06
C:/temp/dataset/4/3_25.odb,Step-1,Increment      1: Step Time =    1.000,"PART-1-1",           663,      -12.1485,       3.78191,            0.,NA,NA,"",       5.52958,       4.19196,       3.60607,   3.35879E-03
C:/temp/dataset/4/3_25.odb,Step-1,Increment      1: Step Time =    1.000,"PART-1-1",           664,      -10.9850,       2.86362,            0.,NA,NA,"",       5.24180,       3.99072,       3.39862,   2.94124E-03
C:/temp/dataset/4/3_25.odb,Step-1,Increment      1: Step Time =    1.000,"PART-1-1",           665,      -9.06958,       8.49577,            0.,NA,NA,"",       5.84003,       5.04910,       2.93471,   3.14138E-03
C:/temp/dataset/4/3_25.odb,Step-1,Increment      1: Step Time =    1.000,"PART-1-1",           666,      -8.08215,       7.28595,            0.,NA,NA,"",       5.53303,       4.79078,       2.76818,   4.25510E-03
C:/temp/dataset/4/3_25.odb,Step-1,Increment      1: Step Time =    1.000,"PART-1-1",           667,      -10.1292,       7.60955,            0.,NA,NA,"",       5.82455,       4.89625,       3.15469,   3.87915E-03
C:/temp/dataset/4/3_25.odb,Step-1,Increment      1: Step Time =    1.000,"PART-1-1",           668,      -11.2104,       6.77234,            0.,NA,NA,"",       5.83174,       4.75481,       3.37655,   3.99964E-03
C:/temp/dataset/4/3_25.odb,Step-1,Increment      1: Step Time =    1.000,"PART-1-1",           669,      -10.2942,       5.63122,            0.,NA,NA,"",       5.54335,       4.51153,       3.22100,   4.55074E-03
C:/temp/dataset/4/3_25.odb,Step-1,Increment      1: Step Time =    1.000,"PART-1-1",           670,      -9.21309,       6.46842,            0.,NA,NA,"",       5.53586,       4.65258,       2.99987,   4.61171E-03
C:/temp/dataset/4/3_25.odb,Step-1,Increment      1: Step Time =    1.000,"PART-1-1",           671,        -11.25,           -5.,            0.,NA,NA,"",       4.37940,       2.51370,       3.58614,   1.59594E-03
C:/temp/dataset/4/3_25.odb,Step-1,Increment      1: Step Time =    1.000,"PART-1-1",           672,      -10.0273,      -3.93877,            0.,NA,NA,"",       4.28556,       2.69395,       3.33297,   2.42417E-03
C:/temp/dataset/4/3_25.odb,Step-1,Increment      1: Step Time =    1.000,"PART-1-1",           673,         -8.75,           -5.,            0.,NA,NA,"",       3.97416,       2.47396,       3.11022,   3.84246E-03
C:/temp/dataset/4/3_25.odb,Step-1,Increment      1: Step Time =    1.000,"PART-1-1",           674,      -7.59562,      -4.02918,            0.,NA,NA,"",       3.90079,       2.63908,       2.87253,   4.01571E-03
C:/temp/dataset/4/3_25.odb,Step-1,Increment      1: Step Time =    1.000,"PART-1-1",           675,      -8.87289,      -2.96795,            0.,NA,NA,"",       4.21171,       2.85651,       3.09497,   3.17519E-03
C:/temp/dataset/4/3_25.odb,Step-1,Increment      1: Step Time =    1.000,"PART-1-1",           676,         -6.25,           -5.,            0.,NA,NA,"",       3.59414,       2.44060,       2.63844,   6.01933E-03
C:/temp/dataset/4/3_25.odb,Step-1,Increment      1: Step Time =    1.000,"PART-1-1",           677,      -5.03874,      -3.83161,            0.,NA,NA,"",       3.56142,       2.64046,       2.38991,   5.08003E-03
C:/temp/dataset/4/3_25.odb,Step-1,Increment      1: Step Time =    1.000,"PART-1-1",           678,      -6.38435,      -2.86079,            0.,NA,NA,"",       3.86340,       2.83698,       2.62248,   3.56270E-03
C:/temp/dataset/4/3_25.odb,Step-1,Increment      1: Step Time =    1.000,"PART-1-1",           679,      -8.31216,       1.98044,            0.,NA,NA,"",       4.75539,       3.76646,       2.90301,   3.89120E-03
C:/temp/dataset/4/3_25.odb,Step-1,Increment      1: Step Time =    1.000,"PART-1-1",           680,      -6.89941,       1.67561,            0.,NA,NA,"",       4.52890,       3.67984,       2.64003,   4.16181E-03
C:/temp/dataset/4/3_25.odb,Step-1,Increment      1: Step Time =    1.000,"PART-1-1",           681,      -8.02347,       3.70061,            0.,NA,NA,"",       4.96520,       4.08633,       2.82048,   5.28192E-03
C:/temp/dataset/4/3_25.odb,Step-1,Increment      1: Step Time =    1.000,"PART-1-1",           682,      -9.78636,       2.36681,            0.,NA,NA,"",       5.00799,       3.87065,       3.17774,   3.44281E-03
C:/temp/dataset/4/3_25.odb,Step-1,Increment      1: Step Time =    1.000,"PART-1-1",           683,      -8.80920,   354.969E-03,            0.,NA,NA,"",       4.60500,       3.47254,       3.02449,   3.40817E-03
C:/temp/dataset/4/3_25.odb,Step-1,Increment      1: Step Time =    1.000,"PART-1-1",           684,         -3.75,           -5.,            0.,NA,NA,"",       3.24907,       2.41325,       2.17548,   7.51269E-03
C:/temp/dataset/4/3_25.odb,Step-1,Increment      1: Step Time =    1.000,"PART-1-1",           685,          3.75,           -5.,            0.,NA,NA,"",       2.49834,       2.34878,   851.444E-03,   10.3467E-03
C:/temp/dataset/4/3_25.odb,Step-1,Increment      1: Step Time =    1.000,"PART-1-1",           686,       4.46580,      -3.87501,            0.,NA,NA,"",       2.62770,       2.53082,   706.934E-03,   9.33296E-03
C:/temp/dataset/4/3_25.odb,Step-1,Increment      1: Step Time =    1.000,"PART-1-1",           687,       2.90021,      -2.90757,            0.,NA,NA,"",       2.87677,       2.71080,   963.006E-03,   3.15828E-03
C:/temp/dataset/4/3_25.odb,Step-1,Increment      1: Step Time =    1.000,"PART-1-1",           688,       11.1618,       2.81075,            0.,NA,NA,"",       3.55922,       3.53583,  -407.458E-03,   4.44158E-03
C:/temp/dataset/4/3_25.odb,Step-1,Increment      1: Step Time =    1.000,"PART-1-1",           689,       10.1850,       1.50626,            0.,NA,NA,"",       3.34504,       3.33643,  -239.806E-03,   6.63537E-03
C:/temp/dataset/4/3_25.odb,Step-1,Increment      1: Step Time =    1.000,"PART-1-1",           690,       11.6421,   144.368E-03,            0.,NA,NA,"",       3.12704,       3.09526,  -444.650E-03,   6.83897E-03
C:/temp/dataset/4/3_25.odb,Step-1,Increment      1: Step Time =    1.000,"PART-1-1",           691,         11.25,           30.,            0.,NA,NA,"",       7.86973,       7.83273,  -762.174E-03,   225.928E-09
C:/temp/dataset/4/3_25.odb,Step-1,Increment      1: Step Time =    1.000,"PART-1-1",           692,       9.19768,       26.3844,            0.,NA,NA,"",       7.29906,       7.28844,  -393.449E-03,   401.302E-09
C:/temp/dataset/4/3_25.odb,Step-1,Increment      1: Step Time =    1.000,"PART-1-1",           693,       7.72138,       25.7435,            0.,NA,NA,"",       7.20749,       7.20587,  -152.717E-03,   458.710E-09
C:/temp/dataset/4/3_25.odb,Step-1,Increment      1: Step Time =    1.000,"PART-1-1",           694,       9.17897,      -24.8987,            0.,NA,NA,"",   129.043E-03,   124.929E-03,   32.3246E-03,   9.72945E-03
C:/temp/dataset/4/3_25.odb,Step-1,Increment      1: Step Time =    1.000,"PART-1-1",           695,       9.00589,       18.6572,            0.,NA,NA,"",       6.07859,       6.07274,  -266.597E-03,   13.6923E-06
C:/temp/dataset/4/3_25.odb,Step-1,Increment      1: Step Time =    1.000,"PART-1-1",           696,       7.99757,       19.7140,            0.,NA,NA,"",       6.25310,       6.25194,  -120.867E-03,   4.66286E-06
C:/temp/dataset/4/3_25.odb,Step-1,Increment      1: Step Time =    1.000,"PART-1-1",           697,      -12.2498,       25.7751,            0.,NA,NA,"",       9.06212,       8.46993,       3.22216,   2.61901E-06
C:/temp/dataset/4/3_25.odb,Step-1,Increment      1: Step Time =    1.000,"PART-1-1",           698,      -11.9888,       23.9538,            0.,NA,NA,"",       8.72221,       8.11157,       3.20614,   9.33029E-06
C:/temp/dataset/4/3_25.odb,Step-1,Increment      1: Step Time =    1.000,"PART-1-1",           699,      -1.59164,      -1.60220,            0.,NA,NA,"",       3.45488,       2.99410,       1.72382,   1.71016E-03
C:/temp/dataset/4/3_25.odb,Step-1,Increment      1: Step Time =    1.000,"PART-1-1",           700,      -1.34014,  -343.401E-03,            0.,NA,NA,"",       3.61539,       3.21242,       1.65874,   960.346E-06
C:/temp/dataset/4/3_25.odb,Step-1,Increment      1: Step Time =    1.000,"PART-1-1",           701,      -2.70787,  -93.9540E-03,            0.,NA,NA,"",       3.78916,       3.27952,       1.89803,   1.37606E-03
C:/temp/dataset/4/3_25.odb,Step-1,Increment      1: Step Time =    1.000,"PART-1-1",           702,       8.06015,      -13.0184,            0.,NA,NA,"",       1.19750,       1.18436,   176.914E-03,   11.7865E-03
C:/temp/dataset/4/3_25.odb,Step-1,Increment      1: Step Time =    1.000,"PART-1-1",           703,       7.99745,      -10.7906,            0.,NA,NA,"",       1.48251,       1.47069,   186.862E-03,   10.9097E-03
C:/temp/dataset/4/3_25.odb,Step-1,Increment      1: Step Time =    1.000,"PART-1-1",           704,           15.,        -26.25,            0.,NA,NA,"",   191.995E-03,   110.353E-03,  -157.112E-03,   43.9700E-03
C:/temp/dataset/4/3_25.odb,Step-1,Increment      1: Step Time =    1.000,"PART-1-1",           705,       13.9776,      -24.8045,            0.,NA,NA,"",   224.660E-03,   152.216E-03,  -165.235E-03,   33.6349E-03
C:/temp/dataset/4/3_25.odb,Step-1,Increment      1: Step Time =    1.000,"PART-1-1",           706,       12.6094,      -25.9010,            0.,NA,NA,"",   120.459E-03,   88.6311E-03,  -81.5774E-03,   22.9679E-03
C:/temp/dataset/4/3_25.odb,Step-1,Increment      1: Step Time =    1.000,"PART-1-1",           707,       12.0224,      -24.3398,            0.,NA,NA,"",   178.059E-03,   154.767E-03,  -88.0461E-03,   17.6841E-03
C:/temp/dataset/4/3_25.odb,Step-1,Increment      1: Step Time =    1.000,"PART-1-1",           708,       13.0263,      -23.4242,            0.,NA,NA,"",   263.329E-03,   212.394E-03,  -155.663E-03,   24.7303E-03
C:/temp/dataset/4/3_25.odb,Step-1,Increment      1: Step Time =    1.000,"PART-1-1",           709,       12.1300,      -22.1112,            0.,NA,NA,"",   316.066E-03,   287.793E-03,  -130.662E-03,   16.8694E-03
C:/temp/dataset/4/3_25.odb,Step-1,Increment      1: Step Time =    1.000,"PART-1-1",           710,           15.,        -23.75,            0.,NA,NA,"",   336.354E-03,   220.817E-03,  -253.719E-03,   40.6894E-03
C:/temp/dataset/4/3_25.odb,Step-1,Increment      1: Step Time =    1.000,"PART-1-1",           711,       10.9035,      -9.09896,            0.,NA,NA,"",       1.68551,       1.67418,  -195.105E-03,   7.29759E-03
C:/temp/dataset/4/3_25.odb,Step-1,Increment      1: Step Time =    1.000,"PART-1-1",           712,       9.82794,      -8.10226,            0.,NA,NA,"",       1.82460,       1.82347,  -64.0055E-03,   5.76439E-03
C:/temp/dataset/4/3_25.odb,Step-1,Increment      1: Step Time =    1.000,"PART-1-1",           713,       8.90728,      -9.48784,            0.,NA,NA,"",       1.63858,       1.63716,   68.1366E-03,   7.17227E-03
C:/temp/dataset/4/3_25.odb,Step-1,Increment      1: Step Time =    1.000,"PART-1-1",           714,           15.,         -1.25,            0.,NA,NA,"",       2.98871,       2.83534,  -945.105E-03,   7.85424E-03
C:/temp/dataset/4/3_25.odb,Step-1,Increment      1: Step Time =    1.000,"PART-1-1",           715,       12.7555,      -1.12336,            0.,NA,NA,"",       2.93822,       2.87731,  -595.168E-03,   7.43871E-03
C:/temp/dataset/4/3_25.odb,Step-1,Increment      1: Step Time =    1.000,"PART-1-1",           716,       11.5680,       5.48707,            0.,NA,NA,"",       3.99328,       3.96121,  -505.093E-03,   1.46937E-03
C:/temp/dataset/4/3_25.odb,Step-1,Increment      1: Step Time =    1.000,"PART-1-1",           717,       10.1222,       4.29256,            0.,NA,NA,"",       3.79889,       3.78972,  -263.712E-03,   3.60021E-03
C:/temp/dataset/4/3_25.odb,Step-1,Increment      1: Step Time =    1.000,"PART-1-1",           718,       8.27918,   509.070E-03,            0.,NA,NA,"",       3.20031,       3.19968,   63.8143E-03,   8.36319E-03
C:/temp/dataset/4/3_25.odb,Step-1,Increment      1: Step Time =    1.000,"PART-1-1",           719,       9.70893,  -124.236E-03,            0.,NA,NA,"",       3.07862,       3.07513,  -146.512E-03,   8.27099E-03
C:/temp/dataset/4/3_25.odb,Step-1,Increment      1: Step Time =    1.000,"PART-1-1",           720,       8.75521,       2.13956,            0.,NA,NA,"",       3.46101,       3.46090,  -27.2757E-03,   6.96079E-03
C:/temp/dataset/4/3_25.odb,Step-1,Increment      1: Step Time =    1.000,"PART-1-1",           721,       6.99874,       4.90963,            0.,NA,NA,"",       3.94267,       3.93664,   218.004E-03,   5.13566E-03
C:/temp/dataset/4/3_25.odb,Step-1,Increment      1: Step Time =    1.000,"PART-1-1",           722,       8.01086,       5.41567,            0.,NA,NA,"",       4.00065,       4.00028,   54.1909E-03,   3.48964E-03
C:/temp/dataset/4/3_25.odb,Step-1,Increment      1: Step Time =    1.000,"PART-1-1",           723,       11.8045,       7.99587,            0.,NA,NA,"",       4.39434,       4.35670,  -573.967E-03,   223.861E-06
C:/temp/dataset/4/3_25.odb,Step-1,Increment      1: Step Time =    1.000,"PART-1-1",           724,       7.91904,       10.9856,            0.,NA,NA,"",       4.87690,       4.87690,   946.433E-06,   192.213E-06
C:/temp/dataset/4/3_25.odb,Step-1,Increment      1: Step Time =    1.000,"PART-1-1",           725,       11.0233,       18.7016,            0.,NA,NA,"",       6.08275,       6.05454,  -585.179E-03,   13.3572E-06
C:/temp/dataset/4/3_25.odb,Step-1,Increment      1: Step Time =    1.000,"PART-1-1",           726,       10.0074,       19.8076,            0.,NA,NA,"",       6.25699,       6.24158,  -438.867E-03,   5.16428E-06
C:/temp/dataset/4/3_25.odb,Step-1,Increment      1: Step Time =    1.000,"PART-1-1",           727,       10.9673,       21.0105,            0.,NA,NA,"",       6.44767,       6.41920,  -605.215E-03,   2.97167E-06
C:/temp/dataset/4/3_25.odb,Step-1,Increment      1: Step Time =    1.000,"PART-1-1",           728,       8.97465,       20.8454,            0.,NA,NA,"",       6.42458,       6.41808,  -289.038E-03,   3.35185E-06
C:/temp/dataset/4/3_25.odb,Step-1,Increment      1: Step Time =    1.000,"PART-1-1",           729,       8.66510,       24.8184,            0.,NA,NA,"",       7.05420,       7.04824,  -289.915E-03,   503.376E-09
C:/temp/dataset/4/3_25.odb,Step-1,Increment      1: Step Time =    1.000,"PART-1-1",           730,       7.98376,       13.1681,            0.,NA,NA,"",       5.22025,       5.22012,  -36.7132E-03,   113.981E-06
C:/temp/dataset/4/3_25.odb,Step-1,Increment      1: Step Time =    1.000,"PART-1-1",           731,      -1.95806,       1.80915,            0.,NA,NA,"",       4.00087,       3.60487,       1.73548,   5.69286E-03
C:/temp/dataset/4/3_25.odb,Step-1,Increment      1: Step Time =    1.000,"PART-1-1",           732,  -613.587E-03,   828.335E-03,            0.,NA,NA,"",       3.72705,       3.40575,       1.51386,   3.39148E-03
C:/temp/dataset/4/3_25.odb,Step-1,Increment      1: Step Time =    1.000,"PART-1-1",           733,   461.223E-03,       1.99751,            0.,NA,NA,"",       3.82099,       3.58845,       1.31261,   6.22963E-03
C:/temp/dataset/4/3_25.odb,Step-1,Increment      1: Step Time =    1.000,"PART-1-1",           734,       1.74006,       1.04512,            0.,NA,NA,"",       3.57569,       3.40010,       1.10673,   4.28420E-03
C:/temp/dataset/4/3_25.odb,Step-1,Increment      1: Step Time =    1.000,"PART-1-1",           735,   906.022E-03,  -39.5003E-03,            0.,NA,NA,"",       3.46678,       3.22844,       1.26321,   1.88904E-03
C:/temp/dataset/4/3_25.odb,Step-1,Increment      1: Step Time =    1.000,"PART-1-1",           736,       2.15034,  -968.542E-03,            0.,NA,NA,"",       3.22976,       3.04951,       1.06386,   1.11981E-03
C:/temp/dataset/4/3_25.odb,Step-1,Increment      1: Step Time =    1.000,"PART-1-1",           737,       2.98438,   116.081E-03,            0.,NA,NA,"",       3.34642,       3.22048,   909.417E-03,   3.21747E-03
C:/temp/dataset/4/3_25.odb,Step-1,Increment      1: Step Time =    1.000,"PART-1-1",           738,      -8.25937,       5.01848,            0.,NA,NA,"",       5.19440,       4.34699,       2.84350,   5.72665E-03
C:/temp/dataset/4/3_25.odb,Step-1,Increment      1: Step Time =    1.000,"PART-1-1",           739,      -2.78312,       1.01462,            0.,NA,NA,"",       3.96096,       3.47896,       1.89369,   3.01666E-03
C:/temp/dataset/4/3_25.odb,Step-1,Increment      1: Step Time =    1.000,"PART-1-1",           740,      -4.31499,   913.536E-03,            0.,NA,NA,"",       4.11047,       3.48960,       2.17226,   2.69597E-03
C:/temp/dataset/4/3_25.odb,Step-1,Increment      1: Step Time =    1.000,"PART-1-1",           741,      -4.23975,  -195.042E-03,            0.,NA,NA,"",       3.94309,       3.28749,       2.17724,   1.83523E-03
C:/temp/dataset/4/3_25.odb,Step-1,Increment      1: Step Time =    1.000,"PART-1-1",           742,      -8.52646,       20.5688,            0.,NA,NA,"",       7.83274,       7.38908,       2.59872,   51.4454E-06
C:/temp/dataset/4/3_25.odb,Step-1,Increment      1: Step Time =    1.000,"PART-1-1",           743,       8.09873,      -15.2435,            0.,NA,NA,"",   937.257E-03,   922.531E-03,   165.491E-03,   12.6636E-03
C:/temp/dataset/4/3_25.odb,Step-1,Increment      1: Step Time =    1.000,"PART-1-1",           744,       8.99676,       14.2096,            0.,NA,NA,"",       5.37581,       5.37173,  -209.419E-03,   98.2962E-06
C:/temp/dataset/4/3_25.odb,Step-1,Increment      1: Step Time =    1.000,"PART-1-1",           745,       11.0169,       14.0599,            0.,NA,NA,"",       5.34894,       5.32301,  -526.021E-03,   99.0276E-06
C:/temp/dataset/4/3_25.odb,Step-1,Increment      1: Step Time =    1.000,"PART-1-1",           746,      -7.91902,       15.6847,            0.,NA,NA,"",       6.92591,       6.42992,       2.57381,   107.632E-06
C:/temp/dataset/4/3_25.odb,Step-1,Increment      1: Step Time =    1.000,"PART-1-1",           747,      -11.9968,       14.1876,            0.,NA,NA,"",       7.08310,       6.21720,       3.39363,   213.102E-06
C:/temp/dataset/4/3_25.odb,Step-1,Increment      1: Step Time =    1.000,"PART-1-1",           748,      -11.1175,       8.79310,            0.,NA,NA,"",       6.12843,       5.14929,       3.32302,   3.14824E-03
C:/temp/dataset/4/3_25.odb,Step-1,Increment      1: Step Time =    1.000,"PART-1-1",           749,       10.6592,      -6.44981,            0.,NA,NA,"",       2.06856,       2.05901,  -198.472E-03,   7.84917E-03
C:/temp/dataset/4/3_25.odb,Step-1,Increment      1: Step Time =    1.000,"PART-1-1",           750,      -10.7894,       23.3985,            0.,NA,NA,"",       8.52064,       7.98105,       2.98399,   16.5084E-06
C:/temp/dataset/4/3_25.odb,Step-1,Increment      1: Step Time =    1.000,"PART-1-1",           751,       10.0228,      -25.8019,            0.,NA,NA,"",   82.3395E-03,   82.3394E-03,   121.104E-06,   5.91059E-03
C:/temp/dataset/4/3_25.odb,Step-1,Increment      1: Step Time =    1.000,"PART-1-1",           752,       10.9542,      -24.8826,            0.,NA,NA,"",   128.752E-03,   123.406E-03,  -36.7147E-03,   9.47012E-03
C:/temp/dataset/4/3_25.odb,Step-1,Increment      1: Step Time =    1.000,"PART-1-1",           753,       11.8371,      -2.37854,            0.,NA,NA,"",       2.71893,       2.68400,  -434.411E-03,   8.52109E-03
C:/temp/dataset/4/3_25.odb,Step-1,Increment      1: Step Time =    1.000,"PART-1-1",           754,       11.6235,      -5.02753,            0.,NA,NA,"",       2.29601,       2.26793,  -358.010E-03,   9.04342E-03
C:/temp/dataset/4/3_25.odb,Step-1,Increment      1: Step Time =    1.000,"PART-1-1",           755,      -12.1333,       7.86930,            0.,NA,NA,"",       6.11468,       4.98961,       3.53456,   3.60417E-03
C:/temp/dataset/4/3_25.odb,Step-1,Increment      1: Step Time =    1.000,"PART-1-1",           756,      -12.0768,       9.95169,            0.,NA,NA,"",       6.42463,       5.39607,       3.48687,   2.64817E-03
C:/temp/dataset/4/3_25.odb,Step-1,Increment      1: Step Time =    1.000,"PART-1-1",           757,       8.68743,       3.64563,            0.,NA,NA,"",       3.70727,       3.70712,  -32.9131E-03,   5.26489E-03
C:/temp/dataset/4/3_25.odb,Step-1,Increment      1: Step Time =    1.000,"PART-1-1",           758,       6.61848,       3.66599,            0.,NA,NA,"",       3.75669,       3.74558,   288.596E-03,   7.08375E-03
C:/temp/dataset/4/3_25.odb,Step-1,Increment      1: Step Time =    1.000,"PART-1-1",           759,       4.71579,   65.6079E-03,            0.,NA,NA,"",       3.24406,       3.18309,   625.958E-03,   5.37224E-03
C:/temp/dataset/4/3_25.odb,Step-1,Increment      1: Step Time =    1.000,"PART-1-1",           760,       3.89104,   957.250E-03,            0.,NA,NA,"",       3.42983,       3.34681,   750.051E-03,   5.16043E-03
C:/temp/dataset/4/3_25.odb,Step-1,Increment      1: Step Time =    1.000,"PART-1-1",           761,      -12.0363,       12.0623,            0.,NA,NA,"",       6.74916,       5.80615,       3.44089,   1.29156E-03
C:/temp/dataset/4/3_25.odb,Step-1,Increment      1: Step Time =    1.000,"PART-1-1",           762,      -12.1964,       5.82098,            0.,NA,NA,"",       5.82191,       4.58988,       3.58157,   4.19241E-03
C:/temp/dataset/4/3_25.odb,Step-1,Increment      1: Step Time =    1.000,"PART-1-1",           763,      -11.2570,       4.81016,            0.,NA,NA,"",       5.55016,       4.37237,       3.41858,   3.87492E-03
C:/temp/dataset/4/3_25.odb,Step-1,Increment      1: Step Time =    1.000,"PART-1-1",           764,      -10.5260,       3.94381,            0.,NA,NA,"",       5.32827,       4.18868,       3.29324,   3.85117E-03
C:/temp/dataset/4/3_25.odb,Step-1,Increment      1: Step Time =    1.000,"PART-1-1",           765,      -9.56326,       4.76486,            0.,NA,NA,"",       5.32030,       4.32661,       3.09614,   4.35642E-03
C:/temp/dataset/4/3_25.odb,Step-1,Increment      1: Step Time =    1.000,"PART-1-1",           766,      -9.32737,       3.44699,            0.,NA,NA,"",       5.09711,       4.06680,       3.07273,   4.11933E-03
C:/temp/dataset/4/3_25.odb,Step-1,Increment      1: Step Time =    1.000,"PART-1-1",           767,       11.5413,      -26.4438,            0.,NA,NA,"",   73.8689E-03,   61.5110E-03,  -40.9025E-03,   14.1055E-03
C:/temp/dataset/4/3_25.odb,Step-1,Increment      1: Step Time =    1.000,"PART-1-1",           768,       5.97241,      -3.36228,            0.,NA,NA,"",       2.63285,       2.59296,   456.564E-03,   8.27320E-03
C:/temp/dataset/4/3_25.odb,Step-1,Increment      1: Step Time =    1.000,"PART-1-1",           769,       11.9304,       22.2704,            0.,NA,NA,"",       6.65082,       6.60577,  -772.785E-03,   536.793E-09
C:/temp/dataset/4/3_25.odb,Step-1,Increment      1: Step Time =    1.000,"PART-1-1",           770,      -3.95064,       2.12654,            0.,NA,NA,"",       4.24999,       3.70272,       2.08621,   4.46248E-03
C:/temp/dataset/4/3_25.odb,Step-1,Increment      1: Step Time =    1.000,"PART-1-1",           771,       12.1361,      -19.7979,            0.,NA,NA,"",   491.886E-03,   461.495E-03,  -170.217E-03,   15.7401E-03
C:/temp/dataset/4/3_25.odb,Step-1,Increment      1: Step Time =    1.000,"PART-1-1",           772,       12.1156,      -17.4436,            0.,NA,NA,"",   704.981E-03,   673.451E-03,  -208.477E-03,   14.4007E-03
C:/temp/dataset/4/3_25.odb,Step-1,Increment      1: Step Time =    1.000,"PART-1-1",           773,       11.8489,      -7.73518,            0.,NA,NA,"",       1.89317,       1.86183,  -343.069E-03,   9.37893E-03
C:/temp/dataset/4/3_25.odb,Step-1,Increment      1: Step Time =    1.000,"PART-1-1",           774,       11.9658,      -10.2357,            0.,NA,NA,"",       1.54563,       1.51315,  -315.208E-03,   10.3499E-03
C:/temp/dataset/4/3_25.odb,Step-1,Increment      1: Step Time =    1.000,"PART-1-1",           775,       10.7237,      -1.11081,            0.,NA,NA,"",       2.91515,       2.90102,  -286.674E-03,   8.33845E-03
C:/temp/dataset/4/3_25.odb,Step-1,Increment      1: Step Time =    1.000,"PART-1-1",           776,       11.9194,       10.4262,            0.,NA,NA,"",       4.77974,       4.73901,  -622.708E-03,   174.838E-06
C:/temp/dataset/4/3_25.odb,Step-1,Increment      1: Step Time =    1.000,"PART-1-1",           777,       11.9945,       12.8006,            0.,NA,NA,"",       5.15536,       5.11237,  -664.408E-03,   119.448E-06
C:/temp/dataset/4/3_25.odb,Step-1,Increment      1: Step Time =    1.000,"PART-1-1",           778,       12.0317,      -12.6649,            0.,NA,NA,"",       1.23349,       1.20096,  -281.382E-03,   11.6338E-03
C:/temp/dataset/4/3_25.odb,Step-1,Increment      1: Step Time =    1.000,"PART-1-1",           779,       12.0352,       15.1685,            0.,NA,NA,"",       5.52957,       5.48502,  -700.492E-03,   53.2151E-06
C:/temp/dataset/4/3_25.odb,Step-1,Increment      1: Step Time =    1.000,"PART-1-1",           780,      -7.80161,      -2.23284,            0.,NA,NA,"",       4.13945,       2.97510,       2.87816,   3.27449E-03
C:/temp/dataset/4/3_25.odb,Step-1,Increment      1: Step Time =    1.000,"PART-1-1",           781,      -8.87876,  -905.543E-03,            0.,NA,NA,"",       4.45582,       3.23961,       3.05928,   3.23167E-03
C:/temp/dataset/4/3_25.odb,Step-1,Increment      1: Step Time =    1.000,"PART-1-1",           782,      -7.16649,      -1.00336,            0.,NA,NA,"",       4.20332,       3.19081,       2.73618,   3.17500E-03
C:/temp/dataset/4/3_25.odb,Step-1,Increment      1: Step Time =    1.000,"PART-1-1",           783,      -7.09692,   257.153E-03,            0.,NA,NA,"",       4.35927,       3.42148,       2.70124,   3.20867E-03
C:/temp/dataset/4/3_25.odb,Step-1,Increment      1: Step Time =    1.000,"PART-1-1",           784,      -5.74923,      -1.63131,            0.,NA,NA,"",       3.93340,       3.05192,       2.48143,   2.91404E-03
C:/temp/dataset/4/3_25.odb,Step-1,Increment      1: Step Time =    1.000,"PART-1-1",           785,      -5.66693,  -67.3201E-03,            0.,NA,NA,"",       4.13195,       3.33561,       2.43859,   2.72487E-03
C:/temp/dataset/4/3_25.odb,Step-1,Increment      1: Step Time =    1.000,"PART-1-1",           786,      -5.46941,       1.35113,            0.,NA,NA,"",       4.30686,       3.59118,       2.37750,   3.51717E-03
C:/temp/dataset/4/3_25.odb,Step-1,Increment      1: Step Time =    1.000,"PART-1-1",           787,       12.0849,      -15.0650,            0.,NA,NA,"",   953.027E-03,   920.706E-03,  -246.094E-03,   13.0441E-03
C:/temp/dataset/4/3_25.odb,Step-1,Increment      1: Step Time =    1.000,"PART-1-1",           788,       7.01212,      -4.44648,            0.,NA,NA,"",       2.42320,       2.40391,   305.125E-03,   8.04512E-03
C:/temp/dataset/4/3_25.odb,Step-1,Increment      1: Step Time =    1.000,"PART-1-1",           789,       7.64174,      -3.33281,            0.,NA,NA,"",       2.58330,       2.57545,   201.323E-03,   8.78556E-03
C:/temp/dataset/4/3_25.odb,Step-1,Increment      1: Step Time =    1.000,"PART-1-1",           790,       6.60203,      -2.24861,            0.,NA,NA,"",       2.78938,       2.76739,   349.543E-03,   8.10047E-03
C:/temp/dataset/4/3_25.odb,Step-1,Increment      1: Step Time =    1.000,"PART-1-1",           791,       6.68626,       2.15992,            0.,NA,NA,"",       3.51040,       3.49818,   292.667E-03,   7.81728E-03
C:/temp/dataset/4/3_25.odb,Step-1,Increment      1: Step Time =    1.000,"PART-1-1",           792,       12.0103,       19.9021,            0.,NA,NA,"",       6.27710,       6.23144,  -755.773E-03,   3.96605E-06
C:/temp/dataset/4/3_25.odb,Step-1,Increment      1: Step Time =    1.000,"PART-1-1",           793,       12.0305,       17.5416,            0.,NA,NA,"",       5.90434,       5.85911,  -729.447E-03,   17.4576E-06
C:/temp/dataset/4/3_25.odb,Step-1,Increment      1: Step Time =    1.000,"PART-1-1",           794,       6.09271,      -1.14349,            0.,NA,NA,"",       2.98837,       2.95887,   418.894E-03,   7.24146E-03
C:/temp/dataset/4/3_25.odb,Step-1,Increment      1: Step Time =    1.000,"PART-1-1",           795,       7.56053,      -1.65505,            0.,NA,NA,"",       2.85864,       2.85186,   196.816E-03,   8.96918E-03
C:/temp/dataset/4/3_25.odb,Step-1,Increment      1: Step Time =    1.000,"PART-1-1",           796,       7.05122,  -549.935E-03,            0.,NA,NA,"",       3.05413,       3.04272,   263.773E-03,   8.40539E-03
C:/temp/dataset/4/3_25.odb,Step-1,Increment      1: Step Time =    1.000,"PART-1-1",           797,       5.28588,       1.87348,            0.,NA,NA,"",       3.51339,       3.47536,   515.517E-03,   6.80877E-03
C:/temp/dataset/4/3_25.odb,Step-1,Increment      1: Step Time =    1.000,"PART-1-1",           798,       5.70847,   325.226E-03,            0.,NA,NA,"",       3.24347,       3.21000,   464.697E-03,   7.05358E-03
C:/temp/dataset/4/3_25.odb,Step-1,Increment      1: Step Time =    1.000,"PART-1-1",           799,       7.10885,   611.668E-03,            0.,NA,NA,"",       3.24392,       3.23481,   242.893E-03,   8.01786E-03
C:/temp/dataset/4/3_25.odb,Step-1,Increment      1: Step Time =    1.000,"PART-1-1",           800,       9.00326,      -1.31280,            0.,NA,NA,"",       2.88893,       2.88882,  -25.2181E-03,   9.03555E-03
C:/temp/dataset/4/3_25.odb,Step-1,Increment      1: Step Time =    1.000,"PART-1-1",           801,       8.22155,  -652.532E-03,            0.,NA,NA,"",       3.00955,       3.00833,   85.4738E-03,   8.80941E-03
C:/temp/dataset/4/3_25.odb,Step-1,Increment      1: Step Time =    1.000,"PART-1-1",           802,       8.34224,      -2.31533,            0.,NA,NA,"",       2.73406,       2.73271,   85.6854E-03,   9.07284E-03
C:/temp/dataset/4/3_25.odb,Step-1,Increment      1: Step Time =    1.000,"PART-1-1",           803,       2.82445,       2.06443,            0.,NA,NA,"",       3.66819,       3.55276,   912.945E-03,   6.25268E-03
