ODB Name,Step,Frame,Part Instance Name,    êﬂì_ÉâÉxÉã,X,Y,Z,Section Name,Material Name,Section Point,   U-Magnitude,          U-U1,          U-U2,       S-Mises
C:/temp/dataset/4/4_1.odb,Step-1,Increment      1: Step Time =    1.000,"PART-1-1",             1,           -5.,           30.,            0.,NA,NA,"",       2.20212,       2.12485,   578.230E-03,   4.18502E-09
C:/temp/dataset/4/4_1.odb,Step-1,Increment      1: Step Time =    1.000,"PART-1-1",             2,          -15.,           30.,            0.,NA,NA,"",       2.34814,       2.13300,   981.882E-03,   3.37511E-09
C:/temp/dataset/4/4_1.odb,Step-1,Increment      1: Step Time =    1.000,"PART-1-1",             3,          -15.,         21.25,            0.,NA,NA,"",       2.03613,       1.77980,   989.014E-03,   484.452E-09
C:/temp/dataset/4/4_1.odb,Step-1,Increment      1: Step Time =    1.000,"PART-1-1",             4,          -15.,          12.5,            0.,NA,NA,"",       1.73993,       1.42657,   996.123E-03,   21.0048E-06
C:/temp/dataset/4/4_1.odb,Step-1,Increment      1: Step Time =    1.000,"PART-1-1",             5,          -15.,          3.75,            0.,NA,NA,"",       1.46995,       1.07571,       1.00179,   557.528E-06
C:/temp/dataset/4/4_1.odb,Step-1,Increment      1: Step Time =    1.000,"PART-1-1",             6,          -15.,           -5.,            0.,NA,NA,"",       1.24006,   724.348E-03,       1.00651,   993.679E-06
C:/temp/dataset/4/4_1.odb,Step-1,Increment      1: Step Time =    1.000,"PART-1-1",             7,          -10.,           -5.,            0.,NA,NA,"",       1.07692,   715.516E-03,   804.852E-03,   1.15597E-03
C:/temp/dataset/4/4_1.odb,Step-1,Increment      1: Step Time =    1.000,"PART-1-1",             8,           -5.,           -5.,            0.,NA,NA,"",   927.878E-03,   705.974E-03,   602.127E-03,   1.22682E-03
C:/temp/dataset/4/4_1.odb,Step-1,Increment      1: Step Time =    1.000,"PART-1-1",             9,            0.,           -5.,            0.,NA,NA,"",   801.794E-03,   696.195E-03,   397.726E-03,   1.29793E-03
C:/temp/dataset/4/4_1.odb,Step-1,Increment      1: Step Time =    1.000,"PART-1-1",            10,            5.,           -5.,            0.,NA,NA,"",   710.501E-03,   684.762E-03,   189.504E-03,   2.18624E-03
C:/temp/dataset/4/4_1.odb,Step-1,Increment      1: Step Time =    1.000,"PART-1-1",            11,            5.,        -11.25,            0.,NA,NA,"",   465.819E-03,   433.296E-03,   171.002E-03,   5.63218E-03
C:/temp/dataset/4/4_1.odb,Step-1,Increment      1: Step Time =    1.000,"PART-1-1",            12,            5.,         -17.5,            0.,NA,NA,"",   259.944E-03,   222.860E-03,   133.807E-03,   8.88507E-03
C:/temp/dataset/4/4_1.odb,Step-1,Increment      1: Step Time =    1.000,"PART-1-1",            13,            5.,        -23.75,            0.,NA,NA,"",   106.928E-03,   74.7142E-03,   76.4946E-03,   12.1731E-03
C:/temp/dataset/4/4_1.odb,Step-1,Increment      1: Step Time =    1.000,"PART-1-1",            14,            5.,          -30.,            0.,NA,NA,"",            0.,   4.86303E-39,   9.14135E-39,   17.8285E-03
C:/temp/dataset/4/4_1.odb,Step-1,Increment      1: Step Time =    1.000,"PART-1-1",            15,           15.,          -30.,            0.,NA,NA,"",            0.,   4.87036E-39,  -9.13611E-39,   17.3773E-03
C:/temp/dataset/4/4_1.odb,Step-1,Increment      1: Step Time =    1.000,"PART-1-1",            16,           15.,         -22.5,            0.,NA,NA,"",   132.145E-03,   96.2900E-03,  -90.5018E-03,   11.4997E-03
C:/temp/dataset/4/4_1.odb,Step-1,Increment      1: Step Time =    1.000,"PART-1-1",            17,           15.,          -15.,            0.,NA,NA,"",   335.228E-03,   296.026E-03,  -157.309E-03,   7.54111E-03
C:/temp/dataset/4/4_1.odb,Step-1,Increment      1: Step Time =    1.000,"PART-1-1",            18,           15.,          -7.5,            0.,NA,NA,"",   606.065E-03,   572.212E-03,  -199.720E-03,   3.50707E-03
C:/temp/dataset/4/4_1.odb,Step-1,Increment      1: Step Time =    1.000,"PART-1-1",            19,           15.,            0.,            0.,NA,NA,"",   908.560E-03,   882.056E-03,  -217.851E-03,   433.539E-06
C:/temp/dataset/4/4_1.odb,Step-1,Increment      1: Step Time =    1.000,"PART-1-1",            20,           15.,           7.5,            0.,NA,NA,"",       1.21331,       1.19236,  -224.504E-03,   68.3543E-06
C:/temp/dataset/4/4_1.odb,Step-1,Increment      1: Step Time =    1.000,"PART-1-1",            21,           15.,           15.,            0.,NA,NA,"",       1.51782,       1.50020,  -230.643E-03,   2.69920E-06
C:/temp/dataset/4/4_1.odb,Step-1,Increment      1: Step Time =    1.000,"PART-1-1",            22,           15.,          22.5,            0.,NA,NA,"",       1.82338,       1.80792,  -236.957E-03,   179.135E-09
C:/temp/dataset/4/4_1.odb,Step-1,Increment      1: Step Time =    1.000,"PART-1-1",            23,           15.,           30.,            0.,NA,NA,"",       2.12960,       2.11566,  -243.273E-03,   3.26147E-09
C:/temp/dataset/4/4_1.odb,Step-1,Increment      1: Step Time =    1.000,"PART-1-1",            24,            5.,           30.,            0.,NA,NA,"",       2.13064,       2.12408,   167.041E-03,   1.98723E-09
C:/temp/dataset/4/4_1.odb,Step-1,Increment      1: Step Time =    1.000,"PART-1-1",            25,            5.,         23.75,            0.,NA,NA,"",       1.87556,       1.86763,   172.304E-03,   115.661E-09
C:/temp/dataset/4/4_1.odb,Step-1,Increment      1: Step Time =    1.000,"PART-1-1",            26,            5.,          17.5,            0.,NA,NA,"",       1.62094,       1.61118,   177.569E-03,   221.367E-09
C:/temp/dataset/4/4_1.odb,Step-1,Increment      1: Step Time =    1.000,"PART-1-1",            27,            5.,         11.25,            0.,NA,NA,"",       1.36700,       1.35472,   182.793E-03,   24.4116E-06
C:/temp/dataset/4/4_1.odb,Step-1,Increment      1: Step Time =    1.000,"PART-1-1",            28,            5.,            5.,            0.,NA,NA,"",       1.11551,       1.09963,   187.558E-03,   696.975E-06
C:/temp/dataset/4/4_1.odb,Step-1,Increment      1: Step Time =    1.000,"PART-1-1",            29,            0.,            5.,            0.,NA,NA,"",       1.17493,       1.10723,   393.051E-03,   612.251E-06
C:/temp/dataset/4/4_1.odb,Step-1,Increment      1: Step Time =    1.000,"PART-1-1",            30,           -5.,            5.,            0.,NA,NA,"",       1.26445,       1.11427,   597.694E-03,   550.341E-06
C:/temp/dataset/4/4_1.odb,Step-1,Increment      1: Step Time =    1.000,"PART-1-1",            31,           -5.,         11.25,            0.,NA,NA,"",       1.49122,       1.36805,   593.453E-03,   40.5814E-06
C:/temp/dataset/4/4_1.odb,Step-1,Increment      1: Step Time =    1.000,"PART-1-1",            32,           -5.,          17.5,            0.,NA,NA,"",       1.72382,       1.62029,   588.420E-03,   387.621E-09
C:/temp/dataset/4/4_1.odb,Step-1,Increment      1: Step Time =    1.000,"PART-1-1",            33,           -5.,         23.75,            0.,NA,NA,"",       1.96132,       1.87257,   583.324E-03,   215.029E-09
C:/temp/dataset/4/4_1.odb,Step-1,Increment      1: Step Time =    1.000,"PART-1-1",            34,          -7.5,           30.,            0.,NA,NA,"",       2.23268,       2.12689,   679.143E-03,   17.1826E-09
C:/temp/dataset/4/4_1.odb,Step-1,Increment      1: Step Time =    1.000,"PART-1-1",            35,          -10.,           30.,            0.,NA,NA,"",       2.26733,       2.12892,   780.056E-03,   37.8936E-09
C:/temp/dataset/4/4_1.odb,Step-1,Increment      1: Step Time =    1.000,"PART-1-1",            36,         -12.5,           30.,            0.,NA,NA,"",       2.30588,       2.13096,   880.969E-03,   17.7720E-09
C:/temp/dataset/4/4_1.odb,Step-1,Increment      1: Step Time =    1.000,"PART-1-1",            37,          -15.,       27.8125,            0.,NA,NA,"",       2.26901,       2.04470,   983.665E-03,   15.8130E-09
C:/temp/dataset/4/4_1.odb,Step-1,Increment      1: Step Time =    1.000,"PART-1-1",            38,          -15.,        25.625,            0.,NA,NA,"",       2.19057,       1.95640,   985.448E-03,   80.2834E-09
C:/temp/dataset/4/4_1.odb,Step-1,Increment      1: Step Time =    1.000,"PART-1-1",            39,          -15.,       23.4375,            0.,NA,NA,"",       2.11292,       1.86810,   987.231E-03,   237.275E-09
C:/temp/dataset/4/4_1.odb,Step-1,Increment      1: Step Time =    1.000,"PART-1-1",            40,          -15.,       19.0625,            0.,NA,NA,"",       1.96032,       1.69150,   990.798E-03,   660.690E-09
C:/temp/dataset/4/4_1.odb,Step-1,Increment      1: Step Time =    1.000,"PART-1-1",            41,          -15.,        16.875,            0.,NA,NA,"",       1.88559,       1.60320,   992.582E-03,   394.652E-09
C:/temp/dataset/4/4_1.odb,Step-1,Increment      1: Step Time =    1.000,"PART-1-1",            42,          -15.,       14.6875,            0.,NA,NA,"",       1.81208,       1.51489,   994.362E-03,   5.11628E-06
C:/temp/dataset/4/4_1.odb,Step-1,Increment      1: Step Time =    1.000,"PART-1-1",            43,          -15.,       10.3125,            0.,NA,NA,"",       1.66931,       1.33825,   997.835E-03,   61.6971E-06
C:/temp/dataset/4/4_1.odb,Step-1,Increment      1: Step Time =    1.000,"PART-1-1",            44,          -15.,         8.125,            0.,NA,NA,"",       1.60044,       1.25003,   999.414E-03,   141.729E-06
C:/temp/dataset/4/4_1.odb,Step-1,Increment      1: Step Time =    1.000,"PART-1-1",            45,          -15.,        5.9375,            0.,NA,NA,"",       1.53369,       1.16214,       1.00081,   315.035E-06
C:/temp/dataset/4/4_1.odb,Step-1,Increment      1: Step Time =    1.000,"PART-1-1",            46,          -15.,        1.5625,            0.,NA,NA,"",       1.40905,   989.246E-03,       1.00341,   972.600E-06
C:/temp/dataset/4/4_1.odb,Step-1,Increment      1: Step Time =    1.000,"PART-1-1",            47,          -15.,     -625.E-03,            0.,NA,NA,"",       1.34964,   901.192E-03,       1.00468,   927.620E-06
C:/temp/dataset/4/4_1.odb,Step-1,Increment      1: Step Time =    1.000,"PART-1-1",            48,          -15.,       -2.8125,            0.,NA,NA,"",       1.29306,   812.770E-03,       1.00569,   979.996E-06
C:/temp/dataset/4/4_1.odb,Step-1,Increment      1: Step Time =    1.000,"PART-1-1",            49,         -12.5,           -5.,            0.,NA,NA,"",       1.15703,   720.040E-03,   905.688E-03,   1.04950E-03
C:/temp/dataset/4/4_1.odb,Step-1,Increment      1: Step Time =    1.000,"PART-1-1",            50,          -7.5,           -5.,            0.,NA,NA,"",       1.00021,   710.790E-03,   703.708E-03,   1.21437E-03
C:/temp/dataset/4/4_1.odb,Step-1,Increment      1: Step Time =    1.000,"PART-1-1",            51,          -2.5,           -5.,            0.,NA,NA,"",   861.238E-03,   701.142E-03,   500.130E-03,   1.22794E-03
C:/temp/dataset/4/4_1.odb,Step-1,Increment      1: Step Time =    1.000,"PART-1-1",            52,           2.5,           -5.,            0.,NA,NA,"",   751.409E-03,   691.138E-03,   294.862E-03,   1.48421E-03
C:/temp/dataset/4/4_1.odb,Step-1,Increment      1: Step Time =    1.000,"PART-1-1",            53,            5.,      -7.08333,            0.,NA,NA,"",   624.993E-03,   596.957E-03,   185.089E-03,   3.66963E-03
C:/temp/dataset/4/4_1.odb,Step-1,Increment      1: Step Time =    1.000,"PART-1-1",            54,            5.,      -9.16667,            0.,NA,NA,"",   543.614E-03,   513.274E-03,   179.069E-03,   4.57191E-03
C:/temp/dataset/4/4_1.odb,Step-1,Increment      1: Step Time =    1.000,"PART-1-1",            55,            5.,      -13.3333,            0.,NA,NA,"",   392.172E-03,   357.684E-03,   160.816E-03,   6.69841E-03
C:/temp/dataset/4/4_1.odb,Step-1,Increment      1: Step Time =    1.000,"PART-1-1",            56,            5.,      -15.4167,            0.,NA,NA,"",   323.334E-03,   287.252E-03,   148.428E-03,   7.78930E-03
C:/temp/dataset/4/4_1.odb,Step-1,Increment      1: Step Time =    1.000,"PART-1-1",            57,            5.,      -19.5833,            0.,NA,NA,"",   202.549E-03,   165.387E-03,   116.933E-03,   9.98477E-03
C:/temp/dataset/4/4_1.odb,Step-1,Increment      1: Step Time =    1.000,"PART-1-1",            58,            5.,      -21.6667,            0.,NA,NA,"",   151.511E-03,   115.701E-03,   97.8218E-03,   11.0631E-03
C:/temp/dataset/4/4_1.odb,Step-1,Increment      1: Step Time =    1.000,"PART-1-1",            59,            5.,      -25.8333,            0.,NA,NA,"",   68.3959E-03,   42.9958E-03,   53.1918E-03,   12.9179E-03
C:/temp/dataset/4/4_1.odb,Step-1,Increment      1: Step Time =    1.000,"PART-1-1",            60,            5.,      -27.9167,            0.,NA,NA,"",   35.1279E-03,   20.7557E-03,   28.3402E-03,   14.8014E-03
C:/temp/dataset/4/4_1.odb,Step-1,Increment      1: Step Time =    1.000,"PART-1-1",            61,           7.5,          -30.,            0.,NA,NA,"",            0.,   1.61713E-39,   12.3686E-39,   5.12133E-03
C:/temp/dataset/4/4_1.odb,Step-1,Increment      1: Step Time =    1.000,"PART-1-1",            62,           10.,          -30.,            0.,NA,NA,"",            0.,  -1.31896E-39,   308.615E-42,   1.03397E-03
C:/temp/dataset/4/4_1.odb,Step-1,Increment      1: Step Time =    1.000,"PART-1-1",            63,          12.5,          -30.,            0.,NA,NA,"",            0.,   5.29302E-39,  -12.0202E-39,   5.20863E-03
C:/temp/dataset/4/4_1.odb,Step-1,Increment      1: Step Time =    1.000,"PART-1-1",            64,           15.,         -27.5,            0.,NA,NA,"",   40.8826E-03,   23.7657E-03,  -33.2653E-03,   14.4412E-03
C:/temp/dataset/4/4_1.odb,Step-1,Increment      1: Step Time =    1.000,"PART-1-1",            65,           15.,          -25.,            0.,NA,NA,"",   82.5448E-03,   53.2105E-03,  -63.1053E-03,   12.4884E-03
C:/temp/dataset/4/4_1.odb,Step-1,Increment      1: Step Time =    1.000,"PART-1-1",            66,           15.,          -20.,            0.,NA,NA,"",   190.812E-03,   151.927E-03,  -115.445E-03,   10.1478E-03
C:/temp/dataset/4/4_1.odb,Step-1,Increment      1: Step Time =    1.000,"PART-1-1",            67,           15.,         -17.5,            0.,NA,NA,"",   258.694E-03,   219.002E-03,  -137.698E-03,   8.85627E-03
C:/temp/dataset/4/4_1.odb,Step-1,Increment      1: Step Time =    1.000,"PART-1-1",            68,           15.,         -12.5,            0.,NA,NA,"",   419.466E-03,   381.571E-03,  -174.229E-03,   6.21862E-03
C:/temp/dataset/4/4_1.odb,Step-1,Increment      1: Step Time =    1.000,"PART-1-1",            69,           15.,          -10.,            0.,NA,NA,"",   510.214E-03,   474.156E-03,  -188.399E-03,   4.87026E-03
C:/temp/dataset/4/4_1.odb,Step-1,Increment      1: Step Time =    1.000,"PART-1-1",            70,           15.,           -5.,            0.,NA,NA,"",   705.418E-03,   674.004E-03,  -208.166E-03,   2.21202E-03
C:/temp/dataset/4/4_1.odb,Step-1,Increment      1: Step Time =    1.000,"PART-1-1",            71,           15.,          -2.5,            0.,NA,NA,"",   806.674E-03,   777.769E-03,  -214.006E-03,   1.14479E-03
C:/temp/dataset/4/4_1.odb,Step-1,Increment      1: Step Time =    1.000,"PART-1-1",            72,           15.,           2.5,            0.,NA,NA,"",       1.01037,   986.024E-03,  -220.476E-03,   66.9269E-06
C:/temp/dataset/4/4_1.odb,Step-1,Increment      1: Step Time =    1.000,"PART-1-1",            73,           15.,            5.,            0.,NA,NA,"",       1.11193,       1.08943,  -222.555E-03,   65.9465E-06
C:/temp/dataset/4/4_1.odb,Step-1,Increment      1: Step Time =    1.000,"PART-1-1",            74,           15.,           10.,            0.,NA,NA,"",       1.31470,       1.29504,  -226.497E-03,   34.9339E-06
C:/temp/dataset/4/4_1.odb,Step-1,Increment      1: Step Time =    1.000,"PART-1-1",            75,           15.,          12.5,            0.,NA,NA,"",       1.41619,       1.39763,  -228.553E-03,   12.1421E-06
C:/temp/dataset/4/4_1.odb,Step-1,Increment      1: Step Time =    1.000,"PART-1-1",            76,           15.,          17.5,            0.,NA,NA,"",       1.61958,       1.60277,  -232.745E-03,   193.393E-09
C:/temp/dataset/4/4_1.odb,Step-1,Increment      1: Step Time =    1.000,"PART-1-1",            77,           15.,           20.,            0.,NA,NA,"",       1.72144,       1.70534,  -234.851E-03,   289.059E-09
C:/temp/dataset/4/4_1.odb,Step-1,Increment      1: Step Time =    1.000,"PART-1-1",            78,           15.,           25.,            0.,NA,NA,"",       1.92540,       1.91050,  -239.062E-03,   68.9897E-09
C:/temp/dataset/4/4_1.odb,Step-1,Increment      1: Step Time =    1.000,"PART-1-1",            79,           15.,          27.5,            0.,NA,NA,"",       2.02747,       2.01308,  -241.168E-03,   14.0786E-09
C:/temp/dataset/4/4_1.odb,Step-1,Increment      1: Step Time =    1.000,"PART-1-1",            80,          12.5,           30.,            0.,NA,NA,"",       2.12243,       2.11776,  -140.695E-03,   10.8707E-09
C:/temp/dataset/4/4_1.odb,Step-1,Increment      1: Step Time =    1.000,"PART-1-1",            81,           10.,           30.,            0.,NA,NA,"",       2.12021,       2.11987,  -38.1163E-03,   23.0852E-09
C:/temp/dataset/4/4_1.odb,Step-1,Increment      1: Step Time =    1.000,"PART-1-1",            82,           7.5,           30.,            0.,NA,NA,"",       2.12295,       2.12197,   64.4621E-03,   11.6539E-09
C:/temp/dataset/4/4_1.odb,Step-1,Increment      1: Step Time =    1.000,"PART-1-1",            83,            5.,       27.9167,            0.,NA,NA,"",       2.04557,       2.03860,   168.795E-03,   9.15107E-09
C:/temp/dataset/4/4_1.odb,Step-1,Increment      1: Step Time =    1.000,"PART-1-1",            84,            5.,       25.8333,            0.,NA,NA,"",       1.96055,       1.95312,   170.550E-03,   44.2179E-09
C:/temp/dataset/4/4_1.odb,Step-1,Increment      1: Step Time =    1.000,"PART-1-1",            85,            5.,       21.6667,            0.,NA,NA,"",       1.79063,       1.78215,   174.059E-03,   219.172E-09
C:/temp/dataset/4/4_1.odb,Step-1,Increment      1: Step Time =    1.000,"PART-1-1",            86,            5.,       19.5833,            0.,NA,NA,"",       1.70575,       1.69667,   175.814E-03,   269.934E-09
C:/temp/dataset/4/4_1.odb,Step-1,Increment      1: Step Time =    1.000,"PART-1-1",            87,            5.,       15.4167,            0.,NA,NA,"",       1.53620,       1.52570,   179.322E-03,   2.12564E-06
C:/temp/dataset/4/4_1.odb,Step-1,Increment      1: Step Time =    1.000,"PART-1-1",            88,            5.,       13.3333,            0.,NA,NA,"",       1.45154,       1.44021,   181.067E-03,   9.03026E-06
C:/temp/dataset/4/4_1.odb,Step-1,Increment      1: Step Time =    1.000,"PART-1-1",            89,            5.,       9.16667,            0.,NA,NA,"",       1.28260,       1.26927,   184.466E-03,   68.2909E-06
C:/temp/dataset/4/4_1.odb,Step-1,Increment      1: Step Time =    1.000,"PART-1-1",            90,            5.,       7.08333,            0.,NA,NA,"",       1.19851,       1.18398,   186.029E-03,   202.139E-06
C:/temp/dataset/4/4_1.odb,Step-1,Increment      1: Step Time =    1.000,"PART-1-1",            91,           2.5,            5.,            0.,NA,NA,"",       1.14120,       1.10366,   290.278E-03,   741.302E-06
C:/temp/dataset/4/4_1.odb,Step-1,Increment      1: Step Time =    1.000,"PART-1-1",            92,          -2.5,            5.,            0.,NA,NA,"",       1.21619,       1.11066,   495.525E-03,   591.905E-06
C:/temp/dataset/4/4_1.odb,Step-1,Increment      1: Step Time =    1.000,"PART-1-1",            93,           -5.,       7.08333,            0.,NA,NA,"",       1.33966,       1.19956,   596.447E-03,   231.529E-06
C:/temp/dataset/4/4_1.odb,Step-1,Increment      1: Step Time =    1.000,"PART-1-1",            94,           -5.,       9.16667,            0.,NA,NA,"",       1.41510,       1.28392,   595.022E-03,   104.563E-06
C:/temp/dataset/4/4_1.odb,Step-1,Increment      1: Step Time =    1.000,"PART-1-1",            95,           -5.,       13.3333,            0.,NA,NA,"",       1.56809,       1.45213,   591.801E-03,   12.8653E-06
C:/temp/dataset/4/4_1.odb,Step-1,Increment      1: Step Time =    1.000,"PART-1-1",            96,           -5.,       15.4167,            0.,NA,NA,"",       1.64565,       1.53620,   590.117E-03,   2.47999E-06
C:/temp/dataset/4/4_1.odb,Step-1,Increment      1: Step Time =    1.000,"PART-1-1",            97,           -5.,       19.5833,            0.,NA,NA,"",       1.80254,       1.70438,   586.721E-03,   696.622E-09
C:/temp/dataset/4/4_1.odb,Step-1,Increment      1: Step Time =    1.000,"PART-1-1",            98,           -5.,       21.6667,            0.,NA,NA,"",       1.88172,       1.78847,   585.022E-03,   449.941E-09
C:/temp/dataset/4/4_1.odb,Step-1,Increment      1: Step Time =    1.000,"PART-1-1",            99,           -5.,       25.8333,            0.,NA,NA,"",       2.04128,       1.95666,   581.626E-03,   78.5335E-09
C:/temp/dataset/4/4_1.odb,Step-1,Increment      1: Step Time =    1.000,"PART-1-1",           100,           -5.,       27.9167,            0.,NA,NA,"",       2.12155,       2.04075,   579.928E-03,   15.5688E-09
C:/temp/dataset/4/4_1.odb,Step-1,Increment      1: Step Time =    1.000,"PART-1-1",           101,       6.93475,       11.1046,            0.,NA,NA,"",       1.35109,       1.34711,   103.567E-03,   23.7768E-06
C:/temp/dataset/4/4_1.odb,Step-1,Increment      1: Step Time =    1.000,"PART-1-1",           102,       7.10183,      -21.7370,            0.,NA,NA,"",   118.628E-03,   105.451E-03,   54.3390E-03,   6.67089E-03
C:/temp/dataset/4/4_1.odb,Step-1,Increment      1: Step Time =    1.000,"PART-1-1",           103,      -7.18606,       25.6133,            0.,NA,NA,"",       2.06149,       1.94956,   670.046E-03,   108.753E-09
C:/temp/dataset/4/4_1.odb,Step-1,Increment      1: Step Time =    1.000,"PART-1-1",           104,       7.08931,      -17.4629,            0.,NA,NA,"",   229.358E-03,   216.550E-03,   75.5720E-03,   5.40735E-03
C:/temp/dataset/4/4_1.odb,Step-1,Increment      1: Step Time =    1.000,"PART-1-1",           105,       7.11844,      -23.8299,            0.,NA,NA,"",   76.3091E-03,   63.8930E-03,   41.7224E-03,   7.25451E-03
C:/temp/dataset/4/4_1.odb,Step-1,Increment      1: Step Time =    1.000,"PART-1-1",           106,       7.34845,      -27.9642,            0.,NA,NA,"",   16.0177E-03,   10.0988E-03,   12.4330E-03,   8.02707E-03
C:/temp/dataset/4/4_1.odb,Step-1,Increment      1: Step Time =    1.000,"PART-1-1",           107,       7.18399,      -25.9216,            0.,NA,NA,"",   41.6700E-03,   31.6743E-03,   27.0764E-03,   8.01762E-03
C:/temp/dataset/4/4_1.odb,Step-1,Increment      1: Step Time =    1.000,"PART-1-1",           108,       7.00226,      -10.9532,            0.,NA,NA,"",   450.260E-03,   439.178E-03,   99.2793E-03,   3.57477E-03
C:/temp/dataset/4/4_1.odb,Step-1,Increment      1: Step Time =    1.000,"PART-1-1",           109,       6.93148,       25.8450,            0.,NA,NA,"",       1.95410,       1.95197,   91.2882E-03,   51.6621E-09
C:/temp/dataset/4/4_1.odb,Step-1,Increment      1: Step Time =    1.000,"PART-1-1",           110,       6.95256,       21.7727,            0.,NA,NA,"",       1.78732,       1.78486,   93.8528E-03,   68.0241E-09
C:/temp/dataset/4/4_1.odb,Step-1,Increment      1: Step Time =    1.000,"PART-1-1",           111,       6.99069,       19.6693,            0.,NA,NA,"",       1.70112,       1.69852,   94.0600E-03,   225.804E-09
C:/temp/dataset/4/4_1.odb,Step-1,Increment      1: Step Time =    1.000,"PART-1-1",           112,       6.98342,       13.2435,            0.,NA,NA,"",       1.43831,       1.43485,   99.7699E-03,   11.1755E-06
C:/temp/dataset/4/4_1.odb,Step-1,Increment      1: Step Time =    1.000,"PART-1-1",           113,       6.84904,       8.98858,            0.,NA,NA,"",       1.26508,       1.26038,   108.864E-03,   31.9193E-06
C:/temp/dataset/4/4_1.odb,Step-1,Increment      1: Step Time =    1.000,"PART-1-1",           114,      -7.00061,       11.3966,            0.,NA,NA,"",       1.53192,       1.37561,   674.142E-03,   40.1989E-06
C:/temp/dataset/4/4_1.odb,Step-1,Increment      1: Step Time =    1.000,"PART-1-1",           115,      -6.87185,       17.5946,            0.,NA,NA,"",       1.75597,       1.62563,   663.898E-03,   1.63128E-06
C:/temp/dataset/4/4_1.odb,Step-1,Increment      1: Step Time =    1.000,"PART-1-1",           116,      -6.78696,       21.5686,            0.,NA,NA,"",       1.90306,       1.78597,   657.232E-03,   203.762E-09
C:/temp/dataset/4/4_1.odb,Step-1,Increment      1: Step Time =    1.000,"PART-1-1",           117,      -6.92081,       23.5666,            0.,NA,NA,"",       1.98031,       1.86673,   661.007E-03,   178.387E-09
C:/temp/dataset/4/4_1.odb,Step-1,Increment      1: Step Time =    1.000,"PART-1-1",           118,      -7.47694,       27.7553,            0.,NA,NA,"",       2.14681,       2.03626,   680.041E-03,   53.8302E-09
C:/temp/dataset/4/4_1.odb,Step-1,Increment      1: Step Time =    1.000,"PART-1-1",           119,       6.62973,      -6.72562,            0.,NA,NA,"",   619.997E-03,   608.207E-03,   120.335E-03,   2.42748E-03
C:/temp/dataset/4/4_1.odb,Step-1,Increment      1: Step Time =    1.000,"PART-1-1",           120,       7.00244,       17.5390,            0.,NA,NA,"",       1.61392,       1.61110,   95.3720E-03,   1.27156E-06
C:/temp/dataset/4/4_1.odb,Step-1,Increment      1: Step Time =    1.000,"PART-1-1",           121,       7.05765,      -13.1226,            0.,NA,NA,"",   370.649E-03,   359.081E-03,   91.8751E-03,   4.16698E-03
C:/temp/dataset/4/4_1.odb,Step-1,Increment      1: Step Time =    1.000,"PART-1-1",           122,      -6.97858,       13.4860,            0.,NA,NA,"",       1.60695,       1.45990,   671.552E-03,   17.7211E-06
C:/temp/dataset/4/4_1.odb,Step-1,Increment      1: Step Time =    1.000,"PART-1-1",           123,      -7.06135,       7.11796,            0.,NA,NA,"",       1.38178,       1.20282,   680.089E-03,   69.4647E-06
C:/temp/dataset/4/4_1.odb,Step-1,Increment      1: Step Time =    1.000,"PART-1-1",           124,       6.87626,      -8.81940,            0.,NA,NA,"",   533.626E-03,   522.577E-03,   108.030E-03,   3.03235E-03
C:/temp/dataset/4/4_1.odb,Step-1,Increment      1: Step Time =    1.000,"PART-1-1",           125,       7.08495,      -15.2974,            0.,NA,NA,"",   296.552E-03,   284.385E-03,   84.0723E-03,   4.77327E-03
C:/temp/dataset/4/4_1.odb,Step-1,Increment      1: Step Time =    1.000,"PART-1-1",           126,       7.00715,       15.3887,            0.,NA,NA,"",       1.52594,       1.52286,   96.9893E-03,   4.37097E-06
C:/temp/dataset/4/4_1.odb,Step-1,Increment      1: Step Time =    1.000,"PART-1-1",           127,      -7.01992,       9.30136,            0.,NA,NA,"",       1.45762,       1.29106,   676.628E-03,   63.5455E-06
C:/temp/dataset/4/4_1.odb,Step-1,Increment      1: Step Time =    1.000,"PART-1-1",           128,      -6.93369,       15.5639,            0.,NA,NA,"",       1.68207,       1.54372,   668.048E-03,   6.28749E-06
C:/temp/dataset/4/4_1.odb,Step-1,Increment      1: Step Time =    1.000,"PART-1-1",           129,      -6.79206,       19.5889,            0.,NA,NA,"",       1.82894,       1.70606,   659.052E-03,   178.239E-09
C:/temp/dataset/4/4_1.odb,Step-1,Increment      1: Step Time =    1.000,"PART-1-1",           130,       7.09662,      -19.6136,            0.,NA,NA,"",   169.728E-03,   156.544E-03,   65.5854E-03,   6.03459E-03
C:/temp/dataset/4/4_1.odb,Step-1,Increment      1: Step Time =    1.000,"PART-1-1",           131,       6.89670,       23.8203,            0.,NA,NA,"",       1.87130,       1.86892,   94.4207E-03,   79.5115E-09
C:/temp/dataset/4/4_1.odb,Step-1,Increment      1: Step Time =    1.000,"PART-1-1",           132,       6.67676,       6.98748,            0.,NA,NA,"",       1.18442,       1.17856,   117.581E-03,   73.3179E-06
C:/temp/dataset/4/4_1.odb,Step-1,Increment      1: Step Time =    1.000,"PART-1-1",           133,      -13.0361,       12.2042,            0.,NA,NA,"",       1.68455,       1.41301,   917.113E-03,   29.0237E-06
C:/temp/dataset/4/4_1.odb,Step-1,Increment      1: Step Time =    1.000,"PART-1-1",           134,      -13.0483,       3.72302,            0.,NA,NA,"",       1.41564,       1.07226,   924.286E-03,   643.637E-06
C:/temp/dataset/4/4_1.odb,Step-1,Increment      1: Step Time =    1.000,"PART-1-1",           135,      -13.0740,       10.0823,            0.,NA,NA,"",       1.61524,       1.32737,   920.366E-03,   56.5910E-06
C:/temp/dataset/4/4_1.odb,Step-1,Increment      1: Step Time =    1.000,"PART-1-1",           136,      -13.0017,       14.3509,            0.,NA,NA,"",       1.75623,       1.49966,   913.974E-03,   11.6749E-06
C:/temp/dataset/4/4_1.odb,Step-1,Increment      1: Step Time =    1.000,"PART-1-1",           137,      -12.4480,       21.2307,            0.,NA,NA,"",       1.98559,       1.77694,   886.017E-03,   177.395E-09
C:/temp/dataset/4/4_1.odb,Step-1,Increment      1: Step Time =    1.000,"PART-1-1",           138,      -13.0426,       25.7965,            0.,NA,NA,"",       2.16096,       1.96173,   906.296E-03,   98.3353E-09
C:/temp/dataset/4/4_1.odb,Step-1,Increment      1: Step Time =    1.000,"PART-1-1",           139,      -12.9478,       23.6552,            0.,NA,NA,"",       2.08184,       1.87522,   904.214E-03,   185.817E-09
C:/temp/dataset/4/4_1.odb,Step-1,Increment      1: Step Time =    1.000,"PART-1-1",           140,      -12.8307,       18.7376,            0.,NA,NA,"",       1.90456,       1.67662,   903.495E-03,   661.898E-09
C:/temp/dataset/4/4_1.odb,Step-1,Increment      1: Step Time =    1.000,"PART-1-1",           141,      -12.9472,       16.5227,            0.,NA,NA,"",       1.82965,       1.58730,   910.006E-03,   3.57834E-06
C:/temp/dataset/4/4_1.odb,Step-1,Increment      1: Step Time =    1.000,"PART-1-1",           142,      -13.1112,       7.97345,            0.,NA,NA,"",       1.54801,       1.24233,   923.559E-03,   69.4569E-06
C:/temp/dataset/4/4_1.odb,Step-1,Increment      1: Step Time =    1.000,"PART-1-1",           143,      -13.1276,       5.86243,            0.,NA,NA,"",       1.48227,       1.15748,   925.935E-03,   105.852E-06
C:/temp/dataset/4/4_1.odb,Step-1,Increment      1: Step Time =    1.000,"PART-1-1",           144,      -12.8109,       1.56310,            0.,NA,NA,"",       1.34549,   985.770E-03,   915.758E-03,   980.103E-06
C:/temp/dataset/4/4_1.odb,Step-1,Increment      1: Step Time =    1.000,"PART-1-1",           145,      -12.5511,  -622.366E-03,            0.,NA,NA,"",       1.27519,   897.218E-03,   906.157E-03,   1.00247E-03
C:/temp/dataset/4/4_1.odb,Step-1,Increment      1: Step Time =    1.000,"PART-1-1",           146,      -7.69124,      -3.05836,            0.,NA,NA,"",       1.06276,   790.023E-03,   710.864E-03,   1.08396E-03
C:/temp/dataset/4/4_1.odb,Step-1,Increment      1: Step Time =    1.000,"PART-1-1",           147,      -2.59391,      -3.27074,            0.,NA,NA,"",   921.752E-03,   772.134E-03,   503.423E-03,   1.09857E-03
C:/temp/dataset/4/4_1.odb,Step-1,Increment      1: Step Time =    1.000,"PART-1-1",           148,      -2.06699,       2.95135,            0.,NA,NA,"",       1.13241,       1.02613,   478.959E-03,   680.084E-06
C:/temp/dataset/4/4_1.odb,Step-1,Increment      1: Step Time =    1.000,"PART-1-1",           149,       1.86882,      -3.06513,            0.,NA,NA,"",   836.282E-03,   772.508E-03,   320.310E-03,   1.02985E-03
C:/temp/dataset/4/4_1.odb,Step-1,Increment      1: Step Time =    1.000,"PART-1-1",           150,       2.79073,       3.02834,            0.,NA,NA,"",       1.05971,       1.02221,   279.398E-03,   690.034E-06
C:/temp/dataset/4/4_1.odb,Step-1,Increment      1: Step Time =    1.000,"PART-1-1",           151,       12.5379,       2.72923,            0.,NA,NA,"",       1.00468,   997.586E-03,  -119.142E-03,   335.566E-06
C:/temp/dataset/4/4_1.odb,Step-1,Increment      1: Step Time =    1.000,"PART-1-1",           152,       12.9313,       10.2835,            0.,NA,NA,"",       1.31609,       1.30843,  -141.793E-03,   24.2117E-06
C:/temp/dataset/4/4_1.odb,Step-1,Increment      1: Step Time =    1.000,"PART-1-1",           153,       12.7723,       24.8557,            0.,NA,NA,"",       1.91216,       1.90645,  -147.537E-03,   69.5098E-09
C:/temp/dataset/4/4_1.odb,Step-1,Increment      1: Step Time =    1.000,"PART-1-1",           154,       12.5268,       27.4001,            0.,NA,NA,"",       2.01590,       2.01106,  -139.605E-03,   35.0486E-09
C:/temp/dataset/4/4_1.odb,Step-1,Increment      1: Step Time =    1.000,"PART-1-1",           155,       12.7627,      -5.01238,            0.,NA,NA,"",   683.815E-03,   673.573E-03,  -117.913E-03,   1.97717E-03
C:/temp/dataset/4/4_1.odb,Step-1,Increment      1: Step Time =    1.000,"PART-1-1",           156,       13.0118,      -12.5921,            0.,NA,NA,"",   389.244E-03,   374.999E-03,  -104.340E-03,   4.07575E-03
C:/temp/dataset/4/4_1.odb,Step-1,Increment      1: Step Time =    1.000,"PART-1-1",           157,       9.69976,      -27.8547,            0.,NA,NA,"",   6.78283E-03,   6.63448E-03,   1.41081E-03,   2.50481E-03
C:/temp/dataset/4/4_1.odb,Step-1,Increment      1: Step Time =    1.000,"PART-1-1",           158,       13.0855,      -17.4497,            0.,NA,NA,"",   230.861E-03,   215.076E-03,  -83.8989E-03,   5.62405E-03
C:/temp/dataset/4/4_1.odb,Step-1,Increment      1: Step Time =    1.000,"PART-1-1",           159,       12.9366,       22.3763,            0.,NA,NA,"",       1.81099,       1.80459,  -152.190E-03,   84.5473E-09
C:/temp/dataset/4/4_1.odb,Step-1,Increment      1: Step Time =    1.000,"PART-1-1",           160,       13.0248,       17.5365,            0.,NA,NA,"",       1.61308,       1.60593,  -151.733E-03,   1.22197E-06
C:/temp/dataset/4/4_1.odb,Step-1,Increment      1: Step Time =    1.000,"PART-1-1",           161,      -10.1545,       27.3700,            0.,NA,NA,"",       2.17111,       2.02289,   788.436E-03,   56.9638E-09
C:/temp/dataset/4/4_1.odb,Step-1,Increment      1: Step Time =    1.000,"PART-1-1",           162,      -10.0546,      -2.87755,            0.,NA,NA,"",       1.13700,   801.577E-03,   806.379E-03,   1.06779E-03
C:/temp/dataset/4/4_1.odb,Step-1,Increment      1: Step Time =    1.000,"PART-1-1",           163,      -5.07747,      -2.66322,            0.,NA,NA,"",       1.00387,   801.431E-03,   604.538E-03,   1.05420E-03
C:/temp/dataset/4/4_1.odb,Step-1,Increment      1: Step Time =    1.000,"PART-1-1",           164,  -330.659E-03,      -3.26262,            0.,NA,NA,"",   871.249E-03,   768.345E-03,   410.758E-03,   1.08919E-03
C:/temp/dataset/4/4_1.odb,Step-1,Increment      1: Step Time =    1.000,"PART-1-1",           165,       3.93161,      -2.75002,            0.,NA,NA,"",   816.384E-03,   781.890E-03,   234.800E-03,   1.00334E-03
C:/temp/dataset/4/4_1.odb,Step-1,Increment      1: Step Time =    1.000,"PART-1-1",           166,       12.9585,      -10.1304,            0.,NA,NA,"",   480.126E-03,   466.973E-03,  -111.611E-03,   3.34674E-03
C:/temp/dataset/4/4_1.odb,Step-1,Increment      1: Step Time =    1.000,"PART-1-1",           167,       13.1106,      -19.8561,            0.,NA,NA,"",   165.133E-03,   149.097E-03,  -70.9857E-03,   6.42684E-03
C:/temp/dataset/4/4_1.odb,Step-1,Increment      1: Step Time =    1.000,"PART-1-1",           168,       12.2637,      -27.1930,            0.,NA,NA,"",   21.2895E-03,   15.4877E-03,  -14.6073E-03,   6.89463E-03
C:/temp/dataset/4/4_1.odb,Step-1,Increment      1: Step Time =    1.000,"PART-1-1",           169,       13.0974,      -22.2394,            0.,NA,NA,"",   109.385E-03,   94.0219E-03,  -55.9023E-03,   7.13004E-03
C:/temp/dataset/4/4_1.odb,Step-1,Increment      1: Step Time =    1.000,"PART-1-1",           170,       13.0625,      -15.0302,            0.,NA,NA,"",   305.948E-03,   290.716E-03,  -95.3347E-03,   4.85363E-03
C:/temp/dataset/4/4_1.odb,Step-1,Increment      1: Step Time =    1.000,"PART-1-1",           171,       12.8638,      -7.61343,            0.,NA,NA,"",   578.286E-03,   566.586E-03,  -115.735E-03,   2.64691E-03
C:/temp/dataset/4/4_1.odb,Step-1,Increment      1: Step Time =    1.000,"PART-1-1",           172,       12.8109,      -2.41519,            0.,NA,NA,"",   792.116E-03,   782.291E-03,  -124.374E-03,   1.29154E-03
C:/temp/dataset/4/4_1.odb,Step-1,Increment      1: Step Time =    1.000,"PART-1-1",           173,       12.7001,   168.481E-03,            0.,NA,NA,"",   899.200E-03,   890.719E-03,  -123.209E-03,   732.437E-06
C:/temp/dataset/4/4_1.odb,Step-1,Increment      1: Step Time =    1.000,"PART-1-1",           174,       12.6773,       5.28127,            0.,NA,NA,"",       1.11034,       1.10304,  -127.128E-03,   78.4704E-06
C:/temp/dataset/4/4_1.odb,Step-1,Increment      1: Step Time =    1.000,"PART-1-1",           175,       12.8405,       7.80961,            0.,NA,NA,"",       1.21458,       1.20694,  -135.982E-03,   20.3289E-06
C:/temp/dataset/4/4_1.odb,Step-1,Increment      1: Step Time =    1.000,"PART-1-1",           176,       12.9955,       12.7023,            0.,NA,NA,"",       1.41522,       1.40762,  -146.462E-03,   12.8881E-06
C:/temp/dataset/4/4_1.odb,Step-1,Increment      1: Step Time =    1.000,"PART-1-1",           177,       13.0102,       19.9477,            0.,NA,NA,"",       1.71174,       1.70487,  -153.162E-03,   152.477E-09
C:/temp/dataset/4/4_1.odb,Step-1,Increment      1: Step Time =    1.000,"PART-1-1",           178,       9.88408,       27.1269,            0.,NA,NA,"",       2.00232,       2.00208,  -30.9402E-03,   33.0647E-09
C:/temp/dataset/4/4_1.odb,Step-1,Increment      1: Step Time =    1.000,"PART-1-1",           179,       13.0301,       15.1161,            0.,NA,NA,"",       1.51406,       1.50662,  -149.912E-03,   4.74170E-06
C:/temp/dataset/4/4_1.odb,Step-1,Increment      1: Step Time =    1.000,"PART-1-1",           180,   300.490E-03,       3.00528,            0.,NA,NA,"",       1.09370,       1.02489,   381.811E-03,   703.520E-06
C:/temp/dataset/4/4_1.odb,Step-1,Increment      1: Step Time =    1.000,"PART-1-1",           181,      -4.18418,       2.89078,            0.,NA,NA,"",       1.17218,       1.02670,   565.598E-03,   640.031E-06
C:/temp/dataset/4/4_1.odb,Step-1,Increment      1: Step Time =    1.000,"PART-1-1",           182,      -8.75093,       23.2164,            0.,NA,NA,"",       1.99451,       1.85408,   735.165E-03,   183.189E-09
C:/temp/dataset/4/4_1.odb,Step-1,Increment      1: Step Time =    1.000,"PART-1-1",           183,       9.13120,      -23.8882,            0.,NA,NA,"",   59.5957E-03,   58.3398E-03,   12.1705E-03,   3.21744E-03
C:/temp/dataset/4/4_1.odb,Step-1,Increment      1: Step Time =    1.000,"PART-1-1",           184,       8.76025,       8.63504,            0.,NA,NA,"",       1.24467,       1.24429,   30.8359E-03,   33.6461E-06
C:/temp/dataset/4/4_1.odb,Step-1,Increment      1: Step Time =    1.000,"PART-1-1",           185,       8.81891,       23.9948,            0.,NA,NA,"",       1.87453,       1.87446,   15.4023E-03,   76.1548E-09
C:/temp/dataset/4/4_1.odb,Step-1,Increment      1: Step Time =    1.000,"PART-1-1",           186,       9.00734,       17.5557,            0.,NA,NA,"",       1.61015,       1.61010,   13.0948E-03,   1.69719E-06
C:/temp/dataset/4/4_1.odb,Step-1,Increment      1: Step Time =    1.000,"PART-1-1",           187,      -8.59230,       19.6811,            0.,NA,NA,"",       1.86110,       1.71125,   731.643E-03,   490.508E-09
C:/temp/dataset/4/4_1.odb,Step-1,Increment      1: Step Time =    1.000,"PART-1-1",           188,       9.06266,      -12.9142,            0.,NA,NA,"",   364.146E-03,   363.187E-03,   26.4162E-03,   2.54600E-03
C:/temp/dataset/4/4_1.odb,Step-1,Increment      1: Step Time =    1.000,"PART-1-1",           189,       9.13987,      -19.6571,            0.,NA,NA,"",   152.476E-03,   151.345E-03,   18.5333E-03,   2.87218E-03
C:/temp/dataset/4/4_1.odb,Step-1,Increment      1: Step Time =    1.000,"PART-1-1",           190,       9.00941,       15.3265,            0.,NA,NA,"",       1.51870,       1.51862,   14.8919E-03,   5.42463E-06
C:/temp/dataset/4/4_1.odb,Step-1,Increment      1: Step Time =    1.000,"PART-1-1",           191,      -8.96967,       13.7142,            0.,NA,NA,"",       1.65171,       1.47072,   751.760E-03,   19.0909E-06
C:/temp/dataset/4/4_1.odb,Step-1,Increment      1: Step Time =    1.000,"PART-1-1",           192,       9.12973,      -17.4386,            0.,NA,NA,"",   214.481E-03,   213.428E-03,   21.2317E-03,   2.75398E-03
C:/temp/dataset/4/4_1.odb,Step-1,Increment      1: Step Time =    1.000,"PART-1-1",           193,       8.94484,       21.9321,            0.,NA,NA,"",       1.78976,       1.78972,   11.9724E-03,   86.3325E-09
C:/temp/dataset/4/4_1.odb,Step-1,Increment      1: Step Time =    1.000,"PART-1-1",           194,      -8.78258,       17.8115,            0.,NA,NA,"",       1.79587,       1.63594,   740.848E-03,   2.14757E-06
C:/temp/dataset/4/4_1.odb,Step-1,Increment      1: Step Time =    1.000,"PART-1-1",           195,       8.90333,       10.8666,            0.,NA,NA,"",       1.33591,       1.33571,   23.0417E-03,   25.8472E-06
C:/temp/dataset/4/4_1.odb,Step-1,Increment      1: Step Time =    1.000,"PART-1-1",           196,      -9.00437,       11.6266,            0.,NA,NA,"",       1.57868,       1.38649,   754.902E-03,   40.9531E-06
C:/temp/dataset/4/4_1.odb,Step-1,Increment      1: Step Time =    1.000,"PART-1-1",           197,      -9.03622,       9.53759,            0.,NA,NA,"",       1.50674,       1.30220,   757.969E-03,   67.6511E-06
C:/temp/dataset/4/4_1.odb,Step-1,Increment      1: Step Time =    1.000,"PART-1-1",           198,       8.99264,      -10.6281,            0.,NA,NA,"",   449.442E-03,   448.472E-03,   29.5110E-03,   2.44674E-03
C:/temp/dataset/4/4_1.odb,Step-1,Increment      1: Step Time =    1.000,"PART-1-1",           199,       8.82192,      -8.34759,            0.,NA,NA,"",   539.804E-03,   538.609E-03,   35.8983E-03,   2.39339E-03
C:/temp/dataset/4/4_1.odb,Step-1,Increment      1: Step Time =    1.000,"PART-1-1",           200,       8.98411,       13.0928,            0.,NA,NA,"",       1.42710,       1.42699,   17.8247E-03,   13.5982E-06
C:/temp/dataset/4/4_1.odb,Step-1,Increment      1: Step Time =    1.000,"PART-1-1",           201,       7.30685,       27.8134,            0.,NA,NA,"",       2.03377,       2.03242,   74.2289E-03,   30.0097E-09
C:/temp/dataset/4/4_1.odb,Step-1,Increment      1: Step Time =    1.000,"PART-1-1",           202,      -8.46063,       21.4565,            0.,NA,NA,"",       1.92454,       1.78281,   724.881E-03,   181.211E-09
C:/temp/dataset/4/4_1.odb,Step-1,Increment      1: Step Time =    1.000,"PART-1-1",           203,       9.11250,      -15.1896,            0.,NA,NA,"",   285.318E-03,   284.342E-03,   23.5765E-03,   2.64220E-03
C:/temp/dataset/4/4_1.odb,Step-1,Increment      1: Step Time =    1.000,"PART-1-1",           204,       9.14200,      -21.8221,            0.,NA,NA,"",   100.472E-03,   99.2730E-03,   15.4741E-03,   3.02286E-03
C:/temp/dataset/4/4_1.odb,Step-1,Increment      1: Step Time =    1.000,"PART-1-1",           205,      -8.90436,       15.8055,            0.,NA,NA,"",       1.72536,       1.55507,   747.404E-03,   7.07685E-06
C:/temp/dataset/4/4_1.odb,Step-1,Increment      1: Step Time =    1.000,"PART-1-1",           206,       9.00445,       19.7587,            0.,NA,NA,"",       1.70053,       1.70049,   11.3570E-03,   380.769E-09
C:/temp/dataset/4/4_1.odb,Step-1,Increment      1: Step Time =    1.000,"PART-1-1",           207,       8.39742,      -6.16188,            0.,NA,NA,"",   631.149E-03,   629.004E-03,   51.9946E-03,   2.42443E-03
C:/temp/dataset/4/4_1.odb,Step-1,Increment      1: Step Time =    1.000,"PART-1-1",           208,      -9.10294,       7.45394,            0.,NA,NA,"",       1.43707,       1.21812,   762.461E-03,   66.2946E-06
C:/temp/dataset/4/4_1.odb,Step-1,Increment      1: Step Time =    1.000,"PART-1-1",           209,       8.43260,       6.43235,            0.,NA,NA,"",       1.15520,       1.15428,   46.1146E-03,   104.669E-06
C:/temp/dataset/4/4_1.odb,Step-1,Increment      1: Step Time =    1.000,"PART-1-1",           210,       5.64784,       2.93298,            0.,NA,NA,"",       1.02707,       1.01417,   162.248E-03,   667.676E-06
C:/temp/dataset/4/4_1.odb,Step-1,Increment      1: Step Time =    1.000,"PART-1-1",           211,      -10.7213,       1.88644,            0.,NA,NA,"",       1.29707,   995.457E-03,   831.540E-03,   801.085E-06
C:/temp/dataset/4/4_1.odb,Step-1,Increment      1: Step Time =    1.000,"PART-1-1",           212,      -12.7178,       27.8380,            0.,NA,NA,"",       2.22984,       2.04387,   891.523E-03,   51.2696E-09
C:/temp/dataset/4/4_1.odb,Step-1,Increment      1: Step Time =    1.000,"PART-1-1",           213,      -11.0298,       24.2524,            0.,NA,NA,"",       2.06985,       1.89776,   826.306E-03,   160.787E-09
C:/temp/dataset/4/4_1.odb,Step-1,Increment      1: Step Time =    1.000,"PART-1-1",           214,      -10.4500,       20.0822,            0.,NA,NA,"",       1.90772,       1.72896,   806.301E-03,   400.629E-09
C:/temp/dataset/4/4_1.odb,Step-1,Increment      1: Step Time =    1.000,"PART-1-1",           215,      -10.9919,       14.0243,            0.,NA,NA,"",       1.70262,       1.48486,   833.133E-03,   16.6217E-06
C:/temp/dataset/4/4_1.odb,Step-1,Increment      1: Step Time =    1.000,"PART-1-1",           216,      -11.0796,       9.82104,            0.,NA,NA,"",       1.56071,       1.31524,   840.203E-03,   62.7472E-06
C:/temp/dataset/4/4_1.odb,Step-1,Increment      1: Step Time =    1.000,"PART-1-1",           217,      -11.0365,       11.9204,            0.,NA,NA,"",       1.63093,       1.39996,   836.681E-03,   37.3682E-06
C:/temp/dataset/4/4_1.odb,Step-1,Increment      1: Step Time =    1.000,"PART-1-1",           218,      -10.5491,       22.5446,            0.,NA,NA,"",       1.99913,       1.82843,   808.294E-03,   190.119E-09
C:/temp/dataset/4/4_1.odb,Step-1,Increment      1: Step Time =    1.000,"PART-1-1",           219,      -10.9277,       16.1478,            0.,NA,NA,"",       1.77580,       1.57053,   828.795E-03,   5.93294E-06
C:/temp/dataset/4/4_1.odb,Step-1,Increment      1: Step Time =    1.000,"PART-1-1",           220,      -10.7891,       18.2216,            0.,NA,NA,"",       1.84689,       1.65413,   821.507E-03,   1.66710E-06
C:/temp/dataset/4/4_1.odb,Step-1,Increment      1: Step Time =    1.000,"PART-1-1",           221,      -11.1555,       7.76515,            0.,NA,NA,"",       1.49426,       1.23237,   845.031E-03,   69.9103E-06
C:/temp/dataset/4/4_1.odb,Step-1,Increment      1: Step Time =    1.000,"PART-1-1",           222,      -9.80329,       4.04682,            0.,NA,NA,"",       1.34108,       1.08125,   793.353E-03,   441.501E-06
C:/temp/dataset/4/4_1.odb,Step-1,Increment      1: Step Time =    1.000,"PART-1-1",           223,       9.22674,      -25.9093,            0.,NA,NA,"",   28.0858E-03,   27.1284E-03,   7.27080E-03,   3.14654E-03
C:/temp/dataset/4/4_1.odb,Step-1,Increment      1: Step Time =    1.000,"PART-1-1",           224,      -9.21421,       25.1107,            0.,NA,NA,"",       2.07231,       1.93093,   752.322E-03,   128.270E-09
C:/temp/dataset/4/4_1.odb,Step-1,Increment      1: Step Time =    1.000,"PART-1-1",           225,       6.25241,      -4.60112,            0.,NA,NA,"",   712.243E-03,   698.854E-03,   137.451E-03,   2.58747E-03
C:/temp/dataset/4/4_1.odb,Step-1,Increment      1: Step Time =    1.000,"PART-1-1",           226,      -7.19550,       4.55405,            0.,NA,NA,"",       1.29603,       1.09869,   687.433E-03,   428.454E-06
C:/temp/dataset/4/4_1.odb,Step-1,Increment      1: Step Time =    1.000,"PART-1-1",           227,       12.9551,      -24.6090,            0.,NA,NA,"",   62.7839E-03,   50.2382E-03,  -37.6556E-03,   7.82092E-03
C:/temp/dataset/4/4_1.odb,Step-1,Increment      1: Step Time =    1.000,"PART-1-1",           228,       10.9241,       22.1645,            0.,NA,NA,"",       1.79893,       1.79759,  -69.4361E-03,   85.9704E-09
C:/temp/dataset/4/4_1.odb,Step-1,Increment      1: Step Time =    1.000,"PART-1-1",           229,      -4.91288,   464.762E-03,            0.,NA,NA,"",       1.10384,   928.745E-03,   596.562E-03,   831.994E-06
C:/temp/dataset/4/4_1.odb,Step-1,Increment      1: Step Time =    1.000,"PART-1-1",           230,  -831.143E-03,      -1.35374,            0.,NA,NA,"",   950.752E-03,   847.709E-03,   430.488E-03,   912.859E-06
C:/temp/dataset/4/4_1.odb,Step-1,Increment      1: Step Time =    1.000,"PART-1-1",           231,       11.1616,      -19.7398,            0.,NA,NA,"",   151.273E-03,   148.868E-03,  -26.8661E-03,   3.18522E-03
C:/temp/dataset/4/4_1.odb,Step-1,Increment      1: Step Time =    1.000,"PART-1-1",           232,       10.9730,      -10.3410,            0.,NA,NA,"",   460.081E-03,   458.328E-03,  -40.1275E-03,   2.49481E-03
C:/temp/dataset/4/4_1.odb,Step-1,Increment      1: Step Time =    1.000,"PART-1-1",           233,       10.4844,      -5.04269,            0.,NA,NA,"",   674.185E-03,   673.564E-03,  -28.9356E-03,   2.15669E-03
C:/temp/dataset/4/4_1.odb,Step-1,Increment      1: Step Time =    1.000,"PART-1-1",           234,       10.9074,       10.5689,            0.,NA,NA,"",       1.32315,       1.32183,  -58.9355E-03,   26.2407E-06
C:/temp/dataset/4/4_1.odb,Step-1,Increment      1: Step Time =    1.000,"PART-1-1",           235,       11.0515,      -12.7377,            0.,NA,NA,"",   370.583E-03,   368.568E-03,  -38.5933E-03,   2.61921E-03
C:/temp/dataset/4/4_1.odb,Step-1,Increment      1: Step Time =    1.000,"PART-1-1",           236,       10.9936,       12.8990,            0.,NA,NA,"",       1.41883,       1.41737,  -64.4628E-03,   13.9436E-06
C:/temp/dataset/4/4_1.odb,Step-1,Increment      1: Step Time =    1.000,"PART-1-1",           237,      -9.84553,  -403.770E-03,            0.,NA,NA,"",       1.20334,   901.482E-03,   797.087E-03,   971.613E-06
C:/temp/dataset/4/4_1.odb,Step-1,Increment      1: Step Time =    1.000,"PART-1-1",           238,      -6.42098,  -599.403E-03,            0.,NA,NA,"",       1.10533,   887.829E-03,   658.419E-03,   928.381E-06
C:/temp/dataset/4/4_1.odb,Step-1,Increment      1: Step Time =    1.000,"PART-1-1",           239,      -2.35214,      -1.85066,            0.,NA,NA,"",   965.274E-03,   829.887E-03,   492.992E-03,   973.696E-06
C:/temp/dataset/4/4_1.odb,Step-1,Increment      1: Step Time =    1.000,"PART-1-1",           240,       11.1625,      -21.9830,            0.,NA,NA,"",   97.9896E-03,   95.6327E-03,  -21.3622E-03,   3.41032E-03
C:/temp/dataset/4/4_1.odb,Step-1,Increment      1: Step Time =    1.000,"PART-1-1",           241,       11.1073,      -15.0998,            0.,NA,NA,"",   288.778E-03,   286.558E-03,  -35.7339E-03,   2.78496E-03
C:/temp/dataset/4/4_1.odb,Step-1,Increment      1: Step Time =    1.000,"PART-1-1",           242,       11.1457,      -17.4375,            0.,NA,NA,"",   215.287E-03,   212.923E-03,  -31.8139E-03,   2.98439E-03
C:/temp/dataset/4/4_1.odb,Step-1,Increment      1: Step Time =    1.000,"PART-1-1",           243,       10.8340,      -7.85693,            0.,NA,NA,"",   558.290E-03,   556.933E-03,  -38.8964E-03,   2.39244E-03
C:/temp/dataset/4/4_1.odb,Step-1,Increment      1: Step Time =    1.000,"PART-1-1",           244,       10.5842,   120.255E-03,            0.,NA,NA,"",   891.466E-03,   890.690E-03,  -37.1818E-03,   966.247E-06
C:/temp/dataset/4/4_1.odb,Step-1,Increment      1: Step Time =    1.000,"PART-1-1",           245,       10.8633,      -2.34188,            0.,NA,NA,"",   788.271E-03,   786.905E-03,  -46.3805E-03,   1.51329E-03
C:/temp/dataset/4/4_1.odb,Step-1,Increment      1: Step Time =    1.000,"PART-1-1",           246,       9.78574,       2.89226,            0.,NA,NA,"",       1.00711,       1.00708,  -6.69047E-03,   508.273E-06
C:/temp/dataset/4/4_1.odb,Step-1,Increment      1: Step Time =    1.000,"PART-1-1",           247,       10.7685,       8.18214,            0.,NA,NA,"",       1.22507,       1.22400,  -51.1840E-03,   28.6340E-06
C:/temp/dataset/4/4_1.odb,Step-1,Increment      1: Step Time =    1.000,"PART-1-1",           248,       10.4587,       5.69287,            0.,NA,NA,"",       1.12258,       1.12199,  -36.3686E-03,   117.174E-06
C:/temp/dataset/4/4_1.odb,Step-1,Increment      1: Step Time =    1.000,"PART-1-1",           249,       11.0104,       19.8565,            0.,NA,NA,"",       1.70430,       1.70282,  -71.0337E-03,   342.232E-09
C:/temp/dataset/4/4_1.odb,Step-1,Increment      1: Step Time =    1.000,"PART-1-1",           250,       11.0363,       17.5467,            0.,NA,NA,"",       1.60955,       1.60802,  -70.1468E-03,   1.67867E-06
C:/temp/dataset/4/4_1.odb,Step-1,Increment      1: Step Time =    1.000,"PART-1-1",           251,       11.0403,       15.2208,            0.,NA,NA,"",       1.51413,       1.51259,  -68.3502E-03,   5.56791E-06
C:/temp/dataset/4/4_1.odb,Step-1,Increment      1: Step Time =    1.000,"PART-1-1",           252,       1.19009,      -1.06873,            0.,NA,NA,"",   923.901E-03,   856.120E-03,   347.350E-03,   836.646E-06
C:/temp/dataset/4/4_1.odb,Step-1,Increment      1: Step Time =    1.000,"PART-1-1",           253,       10.6932,       24.5073,            0.,NA,NA,"",       1.89492,       1.89391,  -61.9338E-03,   72.3592E-09
C:/temp/dataset/4/4_1.odb,Step-1,Increment      1: Step Time =    1.000,"PART-1-1",           254,       8.51128,       25.6419,            0.,NA,NA,"",       1.94249,       1.94230,   26.6380E-03,   53.7650E-09
C:/temp/dataset/4/4_1.odb,Step-1,Increment      1: Step Time =    1.000,"PART-1-1",           255,      -9.32324,       5.48290,            0.,NA,NA,"",       1.37625,       1.13868,   772.960E-03,   217.992E-06
C:/temp/dataset/4/4_1.odb,Step-1,Increment      1: Step Time =    1.000,"PART-1-1",           256,      -11.4569,       25.7537,            0.,NA,NA,"",       2.13215,       1.95871,   842.326E-03,   104.338E-09
C:/temp/dataset/4/4_1.odb,Step-1,Increment      1: Step Time =    1.000,"PART-1-1",           257,      -8.85145,       2.84717,            0.,NA,NA,"",       1.27862,       1.03153,   755.526E-03,   637.043E-06
C:/temp/dataset/4/4_1.odb,Step-1,Increment      1: Step Time =    1.000,"PART-1-1",           258,       11.0896,      -24.0706,            0.,NA,NA,"",   56.9799E-03,   55.0112E-03,  -14.8486E-03,   3.49191E-03
C:/temp/dataset/4/4_1.odb,Step-1,Increment      1: Step Time =    1.000,"PART-1-1",           259,       5.69240,      -2.12345,            0.,NA,NA,"",   820.691E-03,   804.599E-03,   161.723E-03,   1.48106E-03
C:/temp/dataset/4/4_1.odb,Step-1,Increment      1: Step Time =    1.000,"PART-1-1",           260,       7.72467,       1.38687,            0.,NA,NA,"",   950.495E-03,   947.275E-03,   78.1675E-03,   863.505E-06
C:/temp/dataset/4/4_1.odb,Step-1,Increment      1: Step Time =    1.000,"PART-1-1",           261,       8.83369,  -368.727E-03,            0.,NA,NA,"",   873.101E-03,   872.444E-03,   33.8616E-03,   1.18476E-03
C:/temp/dataset/4/4_1.odb,Step-1,Increment      1: Step Time =    1.000,"PART-1-1",           262,       7.58912,       4.39900,            0.,NA,NA,"",       1.07496,       1.07181,   82.1327E-03,   435.859E-06
C:/temp/dataset/4/4_1.odb,Step-1,Increment      1: Step Time =    1.000,"PART-1-1",           263,      -6.02595,       2.23751,            0.,NA,NA,"",       1.19013,       1.00269,   641.104E-03,   733.441E-06
C:/temp/dataset/4/4_1.odb,Step-1,Increment      1: Step Time =    1.000,"PART-1-1",           264,       4.92391,   813.983E-03,            0.,NA,NA,"",   947.668E-03,   927.840E-03,   192.840E-03,   844.046E-06
C:/temp/dataset/4/4_1.odb,Step-1,Increment      1: Step Time =    1.000,"PART-1-1",           265,      -7.77287,       1.11371,            0.,NA,NA,"",       1.19531,   959.651E-03,   712.620E-03,   827.158E-06
C:/temp/dataset/4/4_1.odb,Step-1,Increment      1: Step Time =    1.000,"PART-1-1",           266,      -3.71710,       1.36231,            0.,NA,NA,"",       1.10814,   963.546E-03,   547.314E-03,   758.795E-06
C:/temp/dataset/4/4_1.odb,Step-1,Increment      1: Step Time =    1.000,"PART-1-1",           267,       2.85817,       1.10052,            0.,NA,NA,"",   982.866E-03,   942.843E-03,   277.621E-03,   732.051E-06
C:/temp/dataset/4/4_1.odb,Step-1,Increment      1: Step Time =    1.000,"PART-1-1",           268,       7.51165,      -2.37377,            0.,NA,NA,"",   795.311E-03,   790.478E-03,   87.5457E-03,   1.77729E-03
C:/temp/dataset/4/4_1.odb,Step-1,Increment      1: Step Time =    1.000,"PART-1-1",           269,      -1.84913,   666.939E-03,            0.,NA,NA,"",       1.04456,   932.228E-03,   471.236E-03,   781.909E-06
C:/temp/dataset/4/4_1.odb,Step-1,Increment      1: Step Time =    1.000,"PART-1-1",           270,   621.955E-03,   989.730E-03,            0.,NA,NA,"",       1.01164,   941.681E-03,   369.671E-03,   746.813E-06
C:/temp/dataset/4/4_1.odb,Step-1,Increment      1: Step Time =    1.000,"PART-1-1",           271,       7.77182,      -4.29185,            0.,NA,NA,"",   713.002E-03,   708.862E-03,   76.7290E-03,   2.30797E-03
C:/temp/dataset/4/4_1.odb,Step-1,Increment      1: Step Time =    1.000,"PART-1-1",           272,       6.40836,       5.42027,            0.,NA,NA,"",       1.12245,       1.11492,   129.786E-03,   315.775E-06
C:/temp/dataset/4/4_1.odb,Step-1,Increment      1: Step Time =    1.000,"PART-1-1",           273,      -12.5139,      -2.82358,            0.,NA,NA,"",       1.21363,   808.075E-03,   905.485E-03,   1.03048E-03
C:/temp/dataset/4/4_1.odb,Step-1,Increment      1: Step Time =    1.000,"PART-1-1",           274,       10.8188,      -25.6946,            0.,NA,NA,"",   30.9441E-03,   29.9013E-03,  -7.96578E-03,   3.08532E-03
C:/temp/dataset/4/4_1.odb,Step-1,Increment      1: Step Time =    1.000,"PART-1-1",           275,       6.49302,  -163.532E-03,            0.,NA,NA,"",   894.096E-03,   884.762E-03,   128.857E-03,   1.10207E-03
C:/temp/dataset/4/4_1.odb,Step-1,Increment      1: Step Time =    1.000,"PART-1-1",           276,       7.60941,  -936.337E-03,            0.,NA,NA,"",   854.690E-03,   850.597E-03,   83.5493E-03,   1.32501E-03
C:/temp/dataset/4/4_1.odb,Step-1,Increment      1: Step Time =    1.000,"PART-1-1",           277,       9.17282,      -2.25688,            0.,NA,NA,"",   792.853E-03,   792.577E-03,   20.9398E-03,   1.66276E-03
C:/temp/dataset/4/4_1.odb,Step-1,Increment      1: Step Time =    1.000,"PART-1-1",           278,       9.10690,      -3.89703,            0.,NA,NA,"",   723.812E-03,   723.411E-03,   24.0837E-03,   2.06286E-03
C:/temp/dataset/4/4_1.odb,Step-1,Increment      1: Step Time =    1.000,"PART-1-1",           279,      -7.91199,      -1.40732,            0.,NA,NA,"",       1.11920,   857.496E-03,   719.238E-03,   993.212E-06
C:/temp/dataset/4/4_1.odb,Step-1,Increment      1: Step Time =    1.000,"PART-1-1",           280,      -9.83927,       21.3699,            0.,NA,NA,"",       1.94404,       1.78043,   780.601E-03,   204.087E-09
C:/temp/dataset/4/4_1.odb,Step-1,Increment      1: Step Time =    1.000,"PART-1-1",           281,      -11.2653,       5.77953,            0.,NA,NA,"",       1.43273,       1.15253,   851.114E-03,   166.951E-06
C:/temp/dataset/4/4_1.odb,Step-1,Increment      1: Step Time =    1.000,"PART-1-1",           282,      -11.2487,       3.84080,            0.,NA,NA,"",       1.37136,       1.07473,   851.825E-03,   494.345E-06
C:/temp/dataset/4/4_1.odb,Step-1,Increment      1: Step Time =    1.000,"PART-1-1",           283,       3.11059,  -868.354E-03,            0.,NA,NA,"",   902.038E-03,   861.274E-03,   268.102E-03,   876.452E-06
C:/temp/dataset/4/4_1.odb,Step-1,Increment      1: Step Time =    1.000,"PART-1-1",           284,       4.50766,  -682.768E-03,            0.,NA,NA,"",   891.797E-03,   866.615E-03,   210.427E-03,   937.394E-06
C:/temp/dataset/4/4_1.odb,Step-1,Increment      1: Step Time =    1.000,"PART-1-1",           285,      -3.56662,  -854.847E-03,            0.,NA,NA,"",       1.02741,   872.682E-03,   542.210E-03,   908.451E-06
C:/temp/dataset/4/4_1.odb,Step-1,Increment      1: Step Time =    1.000,"PART-1-1",           286,      -7.33150,       26.6843,            0.,NA,NA,"",       2.10413,       1.99291,   675.043E-03,   79.1962E-09
C:/temp/dataset/4/4_1.odb,Step-1,Increment      1: Step Time =    1.000,"PART-1-1",           287,      -6.09303,       25.7233,            0.,NA,NA,"",       2.05093,       1.95311,   625.836E-03,   72.4871E-09
C:/temp/dataset/4/4_1.odb,Step-1,Increment      1: Step Time =    1.000,"PART-1-1",           288,           -5.,        26.875,            0.,NA,NA,"",       2.08138,       1.99871,   580.777E-03,   47.4203E-09
C:/temp/dataset/4/4_1.odb,Step-1,Increment      1: Step Time =    1.000,"PART-1-1",           289,      -6.23847,       27.8360,            0.,NA,NA,"",       2.13363,       2.03851,   629.984E-03,   28.8078E-09
C:/temp/dataset/4/4_1.odb,Step-1,Increment      1: Step Time =    1.000,"PART-1-1",           290,      -8.20013,       25.3620,            0.,NA,NA,"",       2.06648,       1.94024,   711.184E-03,   103.754E-09
C:/temp/dataset/4/4_1.odb,Step-1,Increment      1: Step Time =    1.000,"PART-1-1",           291,      -8.98257,       24.1636,            0.,NA,NA,"",       2.03340,       1.89250,   743.743E-03,   152.700E-09
C:/temp/dataset/4/4_1.odb,Step-1,Increment      1: Step Time =    1.000,"PART-1-1",           292,      -7.83587,       23.3915,            0.,NA,NA,"",       1.98707,       1.86041,   698.086E-03,   156.680E-09
C:/temp/dataset/4/4_1.odb,Step-1,Increment      1: Step Time =    1.000,"PART-1-1",           293,      -7.05344,       24.5900,            0.,NA,NA,"",       2.02088,       1.90814,   665.526E-03,   140.142E-09
C:/temp/dataset/4/4_1.odb,Step-1,Increment      1: Step Time =    1.000,"PART-1-1",           294,      -6.78951,       20.5788,            0.,NA,NA,"",       1.86594,       1.74602,   658.142E-03,   83.5523E-09
C:/temp/dataset/4/4_1.odb,Step-1,Increment      1: Step Time =    1.000,"PART-1-1",           295,      -5.89603,       19.5861,            0.,NA,NA,"",       1.81542,       1.70522,   622.886E-03,   326.696E-09
C:/temp/dataset/4/4_1.odb,Step-1,Increment      1: Step Time =    1.000,"PART-1-1",           296,           -5.,        20.625,            0.,NA,NA,"",       1.84208,       1.74642,   585.872E-03,   548.253E-09
C:/temp/dataset/4/4_1.odb,Step-1,Increment      1: Step Time =    1.000,"PART-1-1",           297,      -5.89348,       21.6177,            0.,NA,NA,"",       1.89208,       1.78722,   621.127E-03,   275.215E-09
C:/temp/dataset/4/4_1.odb,Step-1,Increment      1: Step Time =    1.000,"PART-1-1",           298,      -7.97413,       13.6001,            0.,NA,NA,"",       1.62899,       1.46531,   711.658E-03,   16.5968E-06
C:/temp/dataset/4/4_1.odb,Step-1,Increment      1: Step Time =    1.000,"PART-1-1",           299,      -8.98702,       12.6704,            0.,NA,NA,"",       1.61506,       1.42860,   753.327E-03,   29.4550E-06
C:/temp/dataset/4/4_1.odb,Step-1,Increment      1: Step Time =    1.000,"PART-1-1",           300,      -8.00249,       11.5116,            0.,NA,NA,"",       1.55495,       1.38106,   714.528E-03,   35.5367E-06
C:/temp/dataset/4/4_1.odb,Step-1,Increment      1: Step Time =    1.000,"PART-1-1",           301,      -6.98959,       12.4413,            0.,NA,NA,"",       1.56932,       1.41776,   672.847E-03,   28.7075E-06
C:/temp/dataset/4/4_1.odb,Step-1,Increment      1: Step Time =    1.000,"PART-1-1",           302,      -9.95004,      -1.64066,            0.,NA,NA,"",       1.16957,   851.537E-03,   801.740E-03,   1.01954E-03
C:/temp/dataset/4/4_1.odb,Step-1,Increment      1: Step Time =    1.000,"PART-1-1",           303,      -11.1983,  -513.068E-03,            0.,NA,NA,"",       1.23862,   899.346E-03,   851.678E-03,   988.706E-06
C:/temp/dataset/4/4_1.odb,Step-1,Increment      1: Step Time =    1.000,"PART-1-1",           304,      -12.5325,      -1.72297,            0.,NA,NA,"",       1.24400,   852.660E-03,   905.823E-03,   1.01575E-03
C:/temp/dataset/4/4_1.odb,Step-1,Increment      1: Step Time =    1.000,"PART-1-1",           305,      -11.2842,      -2.85056,            0.,NA,NA,"",       1.17491,   804.837E-03,   855.957E-03,   1.05077E-03
C:/temp/dataset/4/4_1.odb,Step-1,Increment      1: Step Time =    1.000,"PART-1-1",           306,      -10.2834,   741.336E-03,            0.,NA,NA,"",       1.25016,   948.549E-03,   814.338E-03,   887.488E-06
C:/temp/dataset/4/4_1.odb,Step-1,Increment      1: Step Time =    1.000,"PART-1-1",           307,      -11.7661,       1.72477,            0.,NA,NA,"",       1.32083,   990.570E-03,   873.708E-03,   877.621E-06
C:/temp/dataset/4/4_1.odb,Step-1,Increment      1: Step Time =    1.000,"PART-1-1",           308,      -12.6810,   470.366E-03,            0.,NA,NA,"",       1.31011,   941.567E-03,   910.959E-03,   973.918E-06
C:/temp/dataset/4/4_1.odb,Step-1,Increment      1: Step Time =    1.000,"PART-1-1",           309,         -1.25,           -5.,            0.,NA,NA,"",   830.520E-03,   698.692E-03,   448.991E-03,   1.26350E-03
C:/temp/dataset/4/4_1.odb,Step-1,Increment      1: Step Time =    1.000,"PART-1-1",           310,  -165.329E-03,      -4.13131,            0.,NA,NA,"",   836.469E-03,   732.287E-03,   404.274E-03,   1.19755E-03
C:/temp/dataset/4/4_1.odb,Step-1,Increment      1: Step Time =    1.000,"PART-1-1",           311,      -1.46228,      -3.26668,            0.,NA,NA,"",   895.672E-03,   770.236E-03,   457.126E-03,   1.09144E-03
C:/temp/dataset/4/4_1.odb,Step-1,Increment      1: Step Time =    1.000,"PART-1-1",           312,      -2.54695,      -4.13537,            0.,NA,NA,"",   891.301E-03,   736.631E-03,   501.789E-03,   1.16312E-03
C:/temp/dataset/4/4_1.odb,Step-1,Increment      1: Step Time =    1.000,"PART-1-1",           313,   769.081E-03,      -3.16387,            0.,NA,NA,"",   852.759E-03,   770.419E-03,   365.584E-03,   1.09508E-03
C:/temp/dataset/4/4_1.odb,Step-1,Increment      1: Step Time =    1.000,"PART-1-1",           314,          1.25,           -5.,            0.,NA,NA,"",   775.350E-03,   693.692E-03,   346.350E-03,   1.33313E-03
C:/temp/dataset/4/4_1.odb,Step-1,Increment      1: Step Time =    1.000,"PART-1-1",           315,       2.18441,      -4.03256,            0.,NA,NA,"",   793.780E-03,   731.761E-03,   307.591E-03,   1.23859E-03
C:/temp/dataset/4/4_1.odb,Step-1,Increment      1: Step Time =    1.000,"PART-1-1",           316,       1.54561,       3.01681,            0.,NA,NA,"",       1.07562,       1.02355,   330.608E-03,   694.416E-06
C:/temp/dataset/4/4_1.odb,Step-1,Increment      1: Step Time =    1.000,"PART-1-1",           317,       2.64536,       4.01417,            0.,NA,NA,"",       1.10036,       1.06286,   284.818E-03,   708.141E-06
C:/temp/dataset/4/4_1.odb,Step-1,Increment      1: Step Time =    1.000,"PART-1-1",           318,          1.25,            5.,            0.,NA,NA,"",       1.15709,       1.10548,   341.708E-03,   670.031E-06
C:/temp/dataset/4/4_1.odb,Step-1,Increment      1: Step Time =    1.000,"PART-1-1",           319,   150.245E-03,       4.00264,            0.,NA,NA,"",       1.13428,       1.06606,   387.446E-03,   661.714E-06
C:/temp/dataset/4/4_1.odb,Step-1,Increment      1: Step Time =    1.000,"PART-1-1",           320,   179.474E-03,      -1.21124,            0.,NA,NA,"",   936.488E-03,   851.894E-03,   388.955E-03,   877.598E-06
C:/temp/dataset/4/4_1.odb,Step-1,Increment      1: Step Time =    1.000,"PART-1-1",           321,  -580.901E-03,      -2.30818,            0.,NA,NA,"",   910.981E-03,   808.051E-03,   420.643E-03,   996.544E-06
C:/temp/dataset/4/4_1.odb,Step-1,Increment      1: Step Time =    1.000,"PART-1-1",           322,       1.52946,      -2.06693,            0.,NA,NA,"",   880.159E-03,   814.384E-03,   333.856E-03,   943.971E-06
C:/temp/dataset/4/4_1.odb,Step-1,Increment      1: Step Time =    1.000,"PART-1-1",           323,       12.7868,      -3.71378,            0.,NA,NA,"",   737.859E-03,   727.820E-03,  -121.306E-03,   1.63077E-03
C:/temp/dataset/4/4_1.odb,Step-1,Increment      1: Step Time =    1.000,"PART-1-1",           324,       13.8814,      -5.00619,            0.,NA,NA,"",   693.007E-03,   673.680E-03,  -162.521E-03,   1.92241E-03
C:/temp/dataset/4/4_1.odb,Step-1,Increment      1: Step Time =    1.000,"PART-1-1",           325,           15.,         -3.75,            0.,NA,NA,"",   755.900E-03,   725.744E-03,  -211.378E-03,   1.67599E-03
C:/temp/dataset/4/4_1.odb,Step-1,Increment      1: Step Time =    1.000,"PART-1-1",           326,       13.9054,      -2.45760,            0.,NA,NA,"",   798.028E-03,   779.966E-03,  -168.825E-03,   1.08888E-03
C:/temp/dataset/4/4_1.odb,Step-1,Increment      1: Step Time =    1.000,"PART-1-1",           327,       5.10003,      -1.40311,            0.,NA,NA,"",   856.205E-03,   835.720E-03,   186.170E-03,   1.16297E-03
C:/temp/dataset/4/4_1.odb,Step-1,Increment      1: Step Time =    1.000,"PART-1-1",           328,       3.80913,  -775.561E-03,            0.,NA,NA,"",   896.468E-03,   863.949E-03,   239.265E-03,   908.378E-06
C:/temp/dataset/4/4_1.odb,Step-1,Increment      1: Step Time =    1.000,"PART-1-1",           329,       3.52110,      -1.80919,            0.,NA,NA,"",   859.294E-03,   821.662E-03,   251.513E-03,   958.211E-06
C:/temp/dataset/4/4_1.odb,Step-1,Increment      1: Step Time =    1.000,"PART-1-1",           330,       4.81200,      -2.43673,            0.,NA,NA,"",   817.660E-03,   793.279E-03,   198.181E-03,   1.24436E-03
C:/temp/dataset/4/4_1.odb,Step-1,Increment      1: Step Time =    1.000,"PART-1-1",           331,           15.,          3.75,            0.,NA,NA,"",       1.06118,       1.03780,  -221.558E-03,   11.8921E-06
C:/temp/dataset/4/4_1.odb,Step-1,Increment      1: Step Time =    1.000,"PART-1-1",           332,       13.8386,       5.14064,            0.,NA,NA,"",       1.11009,       1.09624,  -174.805E-03,   42.1360E-06
C:/temp/dataset/4/4_1.odb,Step-1,Increment      1: Step Time =    1.000,"PART-1-1",           333,       12.6076,       4.00525,            0.,NA,NA,"",       1.05760,       1.05040,  -123.162E-03,   202.772E-06
C:/temp/dataset/4/4_1.odb,Step-1,Increment      1: Step Time =    1.000,"PART-1-1",           334,       13.7689,       2.61462,            0.,NA,NA,"",       1.00620,   991.794E-03,  -169.680E-03,   183.277E-06
C:/temp/dataset/4/4_1.odb,Step-1,Increment      1: Step Time =    1.000,"PART-1-1",           335,       9.76439,       8.40859,            0.,NA,NA,"",       1.23419,       1.23415,  -10.1611E-03,   27.5838E-06
C:/temp/dataset/4/4_1.odb,Step-1,Increment      1: Step Time =    1.000,"PART-1-1",           336,       8.59642,       7.53369,            0.,NA,NA,"",       1.19988,       1.19926,   38.4947E-03,   52.1892E-06
C:/temp/dataset/4/4_1.odb,Step-1,Increment      1: Step Time =    1.000,"PART-1-1",           337,       9.44563,       6.06261,            0.,NA,NA,"",       1.13816,       1.13815,   4.88463E-03,   106.691E-06
C:/temp/dataset/4/4_1.odb,Step-1,Increment      1: Step Time =    1.000,"PART-1-1",           338,       10.6136,       6.93751,            0.,NA,NA,"",       1.17384,       1.17303,  -43.7614E-03,   57.8373E-06
C:/temp/dataset/4/4_1.odb,Step-1,Increment      1: Step Time =    1.000,"PART-1-1",           339,       5.92452,       9.07762,            0.,NA,NA,"",       1.27329,       1.26481,   146.653E-03,   40.3621E-06
C:/temp/dataset/4/4_1.odb,Step-1,Increment      1: Step Time =    1.000,"PART-1-1",           340,            5.,         8.125,            0.,NA,NA,"",       1.24048,       1.22657,   185.261E-03,   87.9091E-06
C:/temp/dataset/4/4_1.odb,Step-1,Increment      1: Step Time =    1.000,"PART-1-1",           341,       5.83838,       7.03541,            0.,NA,NA,"",       1.19100,       1.18128,   151.827E-03,   91.0627E-06
C:/temp/dataset/4/4_1.odb,Step-1,Increment      1: Step Time =    1.000,"PART-1-1",           342,       6.76290,       7.98803,            0.,NA,NA,"",       1.22470,       1.21945,   113.226E-03,   20.5440E-06
C:/temp/dataset/4/4_1.odb,Step-1,Increment      1: Step Time =    1.000,"PART-1-1",           343,       6.00358,       15.4027,            0.,NA,NA,"",       1.53052,       1.52428,   138.154E-03,   2.63819E-06
C:/temp/dataset/4/4_1.odb,Step-1,Increment      1: Step Time =    1.000,"PART-1-1",           344,            5.,        14.375,            0.,NA,NA,"",       1.49386,       1.48295,   180.196E-03,   5.68333E-06
C:/temp/dataset/4/4_1.odb,Step-1,Increment      1: Step Time =    1.000,"PART-1-1",           345,       5.99171,       13.2884,            0.,NA,NA,"",       1.44437,       1.43752,   140.415E-03,   8.06956E-06
C:/temp/dataset/4/4_1.odb,Step-1,Increment      1: Step Time =    1.000,"PART-1-1",           346,       6.99529,       14.3161,            0.,NA,NA,"",       1.48212,       1.47885,   98.3796E-03,   7.74550E-06
C:/temp/dataset/4/4_1.odb,Step-1,Increment      1: Step Time =    1.000,"PART-1-1",           347,       11.7328,       24.6815,            0.,NA,NA,"",       1.90307,       1.90018,  -104.735E-03,   61.3186E-09
C:/temp/dataset/4/4_1.odb,Step-1,Increment      1: Step Time =    1.000,"PART-1-1",           348,       12.6496,       26.1279,            0.,NA,NA,"",       1.96401,       1.95876,  -143.571E-03,   49.4019E-09
C:/temp/dataset/4/4_1.odb,Step-1,Increment      1: Step Time =    1.000,"PART-1-1",           349,       11.2054,       27.2635,            0.,NA,NA,"",       2.00838,       2.00657,  -85.2726E-03,   28.1565E-09
C:/temp/dataset/4/4_1.odb,Step-1,Increment      1: Step Time =    1.000,"PART-1-1",           350,       10.2886,       25.8171,            0.,NA,NA,"",       1.94855,       1.94800,  -46.4370E-03,   49.6497E-09
C:/temp/dataset/4/4_1.odb,Step-1,Increment      1: Step Time =    1.000,"PART-1-1",           351,       12.5134,       28.7000,            0.,NA,NA,"",       2.06916,       2.06441,  -140.150E-03,   20.6573E-09
C:/temp/dataset/4/4_1.odb,Step-1,Increment      1: Step Time =    1.000,"PART-1-1",           352,       13.7634,       27.4500,            0.,NA,NA,"",       2.02106,       2.01207,  -190.386E-03,   20.1748E-09
C:/temp/dataset/4/4_1.odb,Step-1,Increment      1: Step Time =    1.000,"PART-1-1",           353,           15.,         28.75,            0.,NA,NA,"",       2.07853,       2.06437,  -242.220E-03,   5.53419E-09
C:/temp/dataset/4/4_1.odb,Step-1,Increment      1: Step Time =    1.000,"PART-1-1",           354,         13.75,           30.,            0.,NA,NA,"",       2.12540,       2.11671,  -191.984E-03,   3.93125E-09
C:/temp/dataset/4/4_1.odb,Step-1,Increment      1: Step Time =    1.000,"PART-1-1",           355,      -3.83569,      -2.96698,            0.,NA,NA,"",   962.297E-03,   786.811E-03,   554.026E-03,   1.07673E-03
C:/temp/dataset/4/4_1.odb,Step-1,Increment      1: Step Time =    1.000,"PART-1-1",           356,      -2.47303,      -2.56070,            0.,NA,NA,"",   943.307E-03,   801.004E-03,   498.219E-03,   1.03486E-03
C:/temp/dataset/4/4_1.odb,Step-1,Increment      1: Step Time =    1.000,"PART-1-1",           357,      -2.95938,      -1.35275,            0.,NA,NA,"",   996.315E-03,   851.306E-03,   517.611E-03,   940.437E-06
C:/temp/dataset/4/4_1.odb,Step-1,Increment      1: Step Time =    1.000,"PART-1-1",           358,      -4.32205,      -1.75903,            0.,NA,NA,"",       1.01459,   837.012E-03,   573.412E-03,   982.871E-06
C:/temp/dataset/4/4_1.odb,Step-1,Increment      1: Step Time =    1.000,"PART-1-1",           359,       8.60967,      -7.25473,            0.,NA,NA,"",   585.039E-03,   583.393E-03,   43.8582E-03,   2.39297E-03
C:/temp/dataset/4/4_1.odb,Step-1,Increment      1: Step Time =    1.000,"PART-1-1",           360,       7.51358,      -6.44375,            0.,NA,NA,"",   624.471E-03,   618.516E-03,   86.0343E-03,   2.37488E-03
C:/temp/dataset/4/4_1.odb,Step-1,Increment      1: Step Time =    1.000,"PART-1-1",           361,       6.75300,      -7.77251,            0.,NA,NA,"",   576.429E-03,   564.986E-03,   114.291E-03,   2.72861E-03
C:/temp/dataset/4/4_1.odb,Step-1,Increment      1: Step Time =    1.000,"PART-1-1",           362,       7.84909,      -8.58350,            0.,NA,NA,"",   535.210E-03,   530.360E-03,   71.8886E-03,   2.52764E-03
C:/temp/dataset/4/4_1.odb,Step-1,Increment      1: Step Time =    1.000,"PART-1-1",           363,       7.07130,      -14.2100,            0.,NA,NA,"",   332.863E-03,   320.980E-03,   88.1463E-03,   4.46861E-03
C:/temp/dataset/4/4_1.odb,Step-1,Increment      1: Step Time =    1.000,"PART-1-1",           364,       6.02882,      -13.2279,            0.,NA,NA,"",   379.557E-03,   358.032E-03,   126.004E-03,   5.34872E-03
C:/temp/dataset/4/4_1.odb,Step-1,Increment      1: Step Time =    1.000,"PART-1-1",           365,            5.,       -14.375,            0.,NA,NA,"",   357.111E-03,   321.767E-03,   154.901E-03,   7.24427E-03
C:/temp/dataset/4/4_1.odb,Step-1,Increment      1: Step Time =    1.000,"PART-1-1",           366,       6.04247,      -15.3570,            0.,NA,NA,"",   308.036E-03,   285.419E-03,   115.852E-03,   6.20517E-03
C:/temp/dataset/4/4_1.odb,Step-1,Increment      1: Step Time =    1.000,"PART-1-1",           367,       7.02995,      -12.0379,            0.,NA,NA,"",   409.840E-03,   398.501E-03,   95.7364E-03,   3.86860E-03
C:/temp/dataset/4/4_1.odb,Step-1,Increment      1: Step Time =    1.000,"PART-1-1",           368,       6.00113,      -11.1016,            0.,NA,NA,"",   456.316E-03,   435.934E-03,   134.854E-03,   4.51124E-03
C:/temp/dataset/4/4_1.odb,Step-1,Increment      1: Step Time =    1.000,"PART-1-1",           369,            5.,      -12.2917,            0.,NA,NA,"",   428.437E-03,   394.896E-03,   166.180E-03,   6.16577E-03
C:/temp/dataset/4/4_1.odb,Step-1,Increment      1: Step Time =    1.000,"PART-1-1",           370,            5.,      -22.7083,            0.,NA,NA,"",   128.430E-03,   94.0685E-03,   87.4382E-03,   11.6140E-03
C:/temp/dataset/4/4_1.odb,Step-1,Increment      1: Step Time =    1.000,"PART-1-1",           371,       6.05922,      -23.7899,            0.,NA,NA,"",   90.2224E-03,   68.6782E-03,   58.5097E-03,   9.66469E-03
C:/temp/dataset/4/4_1.odb,Step-1,Increment      1: Step Time =    1.000,"PART-1-1",           372,       7.11013,      -22.7834,            0.,NA,NA,"",   96.4275E-03,   83.5249E-03,   48.1856E-03,   6.96161E-03
C:/temp/dataset/4/4_1.odb,Step-1,Increment      1: Step Time =    1.000,"PART-1-1",           373,       6.05091,      -21.7018,            0.,NA,NA,"",   133.467E-03,   110.047E-03,   75.5188E-03,   8.81033E-03
C:/temp/dataset/4/4_1.odb,Step-1,Increment      1: Step Time =    1.000,"PART-1-1",           374,          8.75,          -30.,            0.,NA,NA,"",            0.,  -910.218E-42,   5.57773E-39,   2.78435E-03
C:/temp/dataset/4/4_1.odb,Step-1,Increment      1: Step Time =    1.000,"PART-1-1",           375,       9.84988,      -28.9274,            0.,NA,NA,"",   909.853E-06,   865.269E-06,   281.320E-06,   739.255E-06
C:/temp/dataset/4/4_1.odb,Step-1,Increment      1: Step Time =    1.000,"PART-1-1",           376,       8.52411,      -27.9095,            0.,NA,NA,"",   10.0314E-03,   7.56103E-03,   6.59241E-03,   4.76582E-03
C:/temp/dataset/4/4_1.odb,Step-1,Increment      1: Step Time =    1.000,"PART-1-1",           377,       7.42422,      -28.9821,            0.,NA,NA,"",   5.86726E-03,   2.34947E-03,   5.37631E-03,   6.51602E-03
C:/temp/dataset/4/4_1.odb,Step-1,Increment      1: Step Time =    1.000,"PART-1-1",           378,       10.1104,      -23.9794,            0.,NA,NA,"",   56.1319E-03,   56.1108E-03,  -1.53851E-03,   2.30494E-03
C:/temp/dataset/4/4_1.odb,Step-1,Increment      1: Step Time =    1.000,"PART-1-1",           379,       11.1261,      -23.0268,            0.,NA,NA,"",   76.3608E-03,   74.1947E-03,  -18.0587E-03,   3.45614E-03
C:/temp/dataset/4/4_1.odb,Step-1,Increment      1: Step Time =    1.000,"PART-1-1",           380,       10.1523,      -21.9025,            0.,NA,NA,"",   96.9741E-03,   96.9257E-03,  -3.06412E-03,   2.27848E-03
C:/temp/dataset/4/4_1.odb,Step-1,Increment      1: Step Time =    1.000,"PART-1-1",           381,       9.13660,      -22.8552,            0.,NA,NA,"",   78.9142E-03,   77.6775E-03,   13.9159E-03,   3.11963E-03
C:/temp/dataset/4/4_1.odb,Step-1,Increment      1: Step Time =    1.000,"PART-1-1",           382,       7.09296,      -18.5383,            0.,NA,NA,"",   198.602E-03,   185.569E-03,   70.7606E-03,   5.72025E-03
C:/temp/dataset/4/4_1.odb,Step-1,Increment      1: Step Time =    1.000,"PART-1-1",           383,       6.04465,      -17.4814,            0.,NA,NA,"",   242.777E-03,   219.263E-03,   104.232E-03,   7.07835E-03
C:/temp/dataset/4/4_1.odb,Step-1,Increment      1: Step Time =    1.000,"PART-1-1",           384,            5.,      -18.5417,            0.,NA,NA,"",   230.469E-03,   193.203E-03,   125.653E-03,   9.43489E-03
C:/temp/dataset/4/4_1.odb,Step-1,Increment      1: Step Time =    1.000,"PART-1-1",           385,       6.04831,      -19.5985,            0.,NA,NA,"",   184.351E-03,   160.473E-03,   90.7396E-03,   7.94904E-03
C:/temp/dataset/4/4_1.odb,Step-1,Increment      1: Step Time =    1.000,"PART-1-1",           386,       8.88188,       22.9635,            0.,NA,NA,"",       1.83214,       1.83209,   13.6873E-03,   67.5222E-09
C:/temp/dataset/4/4_1.odb,Step-1,Increment      1: Step Time =    1.000,"PART-1-1",           387,       9.93448,       22.0483,            0.,NA,NA,"",       1.79388,       1.79365,  -28.7319E-03,   80.6824E-09
C:/temp/dataset/4/4_1.odb,Step-1,Increment      1: Step Time =    1.000,"PART-1-1",           388,       10.8087,       23.3359,            0.,NA,NA,"",       1.84692,       1.84575,  -65.6849E-03,   67.9632E-09
C:/temp/dataset/4/4_1.odb,Step-1,Increment      1: Step Time =    1.000,"PART-1-1",           389,       9.75606,       24.2511,            0.,NA,NA,"",       1.88433,       1.88419,  -23.2658E-03,   67.0563E-09
C:/temp/dataset/4/4_1.odb,Step-1,Increment      1: Step Time =    1.000,"PART-1-1",           390,       10.0218,       17.5512,            0.,NA,NA,"",       1.60931,       1.60906,  -28.5258E-03,   1.55265E-06
C:/temp/dataset/4/4_1.odb,Step-1,Increment      1: Step Time =    1.000,"PART-1-1",           391,       9.00837,       16.4411,            0.,NA,NA,"",       1.56442,       1.56436,   13.9926E-03,   3.52182E-06
C:/temp/dataset/4/4_1.odb,Step-1,Increment      1: Step Time =    1.000,"PART-1-1",           392,       10.0249,       15.2736,            0.,NA,NA,"",       1.51584,       1.51561,  -26.7282E-03,   5.02170E-06
C:/temp/dataset/4/4_1.odb,Step-1,Increment      1: Step Time =    1.000,"PART-1-1",           393,       11.0383,       16.3837,            0.,NA,NA,"",       1.56184,       1.56030,  -69.2493E-03,   3.58287E-06
C:/temp/dataset/4/4_1.odb,Step-1,Increment      1: Step Time =    1.000,"PART-1-1",           394,      -14.0638,       5.89996,            0.,NA,NA,"",       1.50770,       1.15979,   963.345E-03,   134.154E-06
C:/temp/dataset/4/4_1.odb,Step-1,Increment      1: Step Time =    1.000,"PART-1-1",           395,      -13.1194,       6.91794,            0.,NA,NA,"",       1.51485,       1.19984,   924.743E-03,   52.0237E-06
C:/temp/dataset/4/4_1.odb,Step-1,Increment      1: Step Time =    1.000,"PART-1-1",           396,      -14.0556,       8.04923,            0.,NA,NA,"",       1.57396,       1.24616,   961.473E-03,   89.5738E-06
C:/temp/dataset/4/4_1.odb,Step-1,Increment      1: Step Time =    1.000,"PART-1-1",           397,          -15.,       7.03125,            0.,NA,NA,"",       1.56676,       1.20601,       1.00014,   194.139E-06
C:/temp/dataset/4/4_1.odb,Step-1,Increment      1: Step Time =    1.000,"PART-1-1",           398,      -14.0181,       12.3521,            0.,NA,NA,"",       1.71199,       1.41979,   956.610E-03,   19.9933E-06
C:/temp/dataset/4/4_1.odb,Step-1,Increment      1: Step Time =    1.000,"PART-1-1",           399,      -13.0189,       13.2775,            0.,NA,NA,"",       1.72022,       1.45634,   915.544E-03,   20.1083E-06
C:/temp/dataset/4/4_1.odb,Step-1,Increment      1: Step Time =    1.000,"PART-1-1",           400,      -14.0008,       14.5192,            0.,NA,NA,"",       1.78390,       1.50727,   954.164E-03,   6.78357E-06
C:/temp/dataset/4/4_1.odb,Step-1,Increment      1: Step Time =    1.000,"PART-1-1",           401,          -15.,       13.5938,            0.,NA,NA,"",       1.77582,       1.47073,   995.247E-03,   13.2724E-06
C:/temp/dataset/4/4_1.odb,Step-1,Increment      1: Step Time =    1.000,"PART-1-1",           402,      -10.1942,       21.9572,            0.,NA,NA,"",       1.97158,       1.80443,   794.447E-03,   186.624E-09
C:/temp/dataset/4/4_1.odb,Step-1,Increment      1: Step Time =    1.000,"PART-1-1",           403,      -9.14995,       21.4132,            0.,NA,NA,"",       1.93411,       1.78162,   752.741E-03,   182.588E-09
C:/temp/dataset/4/4_1.odb,Step-1,Increment      1: Step Time =    1.000,"PART-1-1",           404,      -8.60578,       22.3365,            0.,NA,NA,"",       1.95951,       1.81845,   730.023E-03,   168.892E-09
C:/temp/dataset/4/4_1.odb,Step-1,Increment      1: Step Time =    1.000,"PART-1-1",           405,      -9.65000,       22.8805,            0.,NA,NA,"",       1.99645,       1.84126,   771.730E-03,   170.039E-09
C:/temp/dataset/4/4_1.odb,Step-1,Increment      1: Step Time =    1.000,"PART-1-1",           406,      -14.0213,       25.7108,            0.,NA,NA,"",       2.17546,       1.95906,   945.872E-03,   72.5885E-09
C:/temp/dataset/4/4_1.odb,Step-1,Increment      1: Step Time =    1.000,"PART-1-1",           407,      -12.8802,       26.8172,            0.,NA,NA,"",       2.19528,       2.00280,   898.910E-03,   72.2653E-09
C:/temp/dataset/4/4_1.odb,Step-1,Increment      1: Step Time =    1.000,"PART-1-1",           408,      -13.8589,       27.8252,            0.,NA,NA,"",       2.24904,       2.04428,   937.594E-03,   27.7708E-09
C:/temp/dataset/4/4_1.odb,Step-1,Increment      1: Step Time =    1.000,"PART-1-1",           409,          -15.,       26.7188,            0.,NA,NA,"",       2.22970,       2.00055,   984.556E-03,   49.4530E-09
C:/temp/dataset/4/4_1.odb,Step-1,Increment      1: Step Time =    1.000,"PART-1-1",           410,        -13.75,           30.,            0.,NA,NA,"",       2.32656,       2.13198,   931.425E-03,   6.04275E-09
C:/temp/dataset/4/4_1.odb,Step-1,Increment      1: Step Time =    1.000,"PART-1-1",           411,          -15.,       28.9063,            0.,NA,NA,"",       2.30849,       2.08885,   982.773E-03,   6.51293E-09
C:/temp/dataset/4/4_1.odb,Step-1,Increment      1: Step Time =    1.000,"PART-1-1",           412,      -12.6089,       28.9190,            0.,NA,NA,"",       2.26776,       2.08741,   886.246E-03,   30.9174E-09
C:/temp/dataset/4/4_1.odb,Step-1,Increment      1: Step Time =    1.000,"PART-1-1",           413,      -11.4362,       27.6040,            0.,NA,NA,"",       2.20004,       2.03338,   839.980E-03,   47.3411E-09
C:/temp/dataset/4/4_1.odb,Step-1,Increment      1: Step Time =    1.000,"PART-1-1",           414,      -10.0773,       28.6850,            0.,NA,NA,"",       2.21911,       2.07591,   784.246E-03,   44.6729E-09
C:/temp/dataset/4/4_1.odb,Step-1,Increment      1: Step Time =    1.000,"PART-1-1",           415,        -11.25,           30.,            0.,NA,NA,"",       2.28613,       2.12994,   830.512E-03,   30.0260E-09
C:/temp/dataset/4/4_1.odb,Step-1,Increment      1: Step Time =    1.000,"PART-1-1",           416,      -13.7240,       21.2404,            0.,NA,NA,"",       2.01036,       1.77837,   937.516E-03,   237.890E-09
C:/temp/dataset/4/4_1.odb,Step-1,Increment      1: Step Time =    1.000,"PART-1-1",           417,      -12.6979,       22.4429,            0.,NA,NA,"",       2.03367,       1.82608,   895.116E-03,   167.051E-09
C:/temp/dataset/4/4_1.odb,Step-1,Increment      1: Step Time =    1.000,"PART-1-1",           418,      -13.9739,       23.5463,            0.,NA,NA,"",       2.09702,       1.87166,   945.723E-03,   162.758E-09
C:/temp/dataset/4/4_1.odb,Step-1,Increment      1: Step Time =    1.000,"PART-1-1",           419,          -15.,       22.3438,            0.,NA,NA,"",       2.07441,       1.82395,   988.123E-03,   347.354E-09
C:/temp/dataset/4/4_1.odb,Step-1,Increment      1: Step Time =    1.000,"PART-1-1",           420,      -11.9375,       16.3352,            0.,NA,NA,"",       1.80245,       1.57891,   869.400E-03,   4.37071E-06
C:/temp/dataset/4/4_1.odb,Step-1,Increment      1: Step Time =    1.000,"PART-1-1",           421,      -10.8584,       17.1847,            0.,NA,NA,"",       1.81121,       1.61233,   825.151E-03,   3.78524E-06
C:/temp/dataset/4/4_1.odb,Step-1,Increment      1: Step Time =    1.000,"PART-1-1",           422,      -11.8099,       18.4796,            0.,NA,NA,"",       1.87547,       1.66537,   862.501E-03,   1.09367E-06
C:/temp/dataset/4/4_1.odb,Step-1,Increment      1: Step Time =    1.000,"PART-1-1",           423,      -12.8889,       17.6301,            0.,NA,NA,"",       1.86695,       1.63196,   906.751E-03,   2.14315E-06
C:/temp/dataset/4/4_1.odb,Step-1,Increment      1: Step Time =    1.000,"PART-1-1",           424,      -9.98079,       13.8692,            0.,NA,NA,"",       1.67685,       1.47779,   792.450E-03,   16.2597E-06
C:/temp/dataset/4/4_1.odb,Step-1,Increment      1: Step Time =    1.000,"PART-1-1",           425,      -11.0142,       12.9724,            0.,NA,NA,"",       1.66661,       1.44241,   834.903E-03,   26.4121E-06
C:/temp/dataset/4/4_1.odb,Step-1,Increment      1: Step Time =    1.000,"PART-1-1",           426,      -10.0204,       11.7735,            0.,NA,NA,"",       1.60449,       1.39322,   795.801E-03,   35.5494E-06
C:/temp/dataset/4/4_1.odb,Step-1,Increment      1: Step Time =    1.000,"PART-1-1",           427,      -6.95613,       14.5250,            0.,NA,NA,"",       1.64441,       1.50181,   669.800E-03,   11.9157E-06
C:/temp/dataset/4/4_1.odb,Step-1,Increment      1: Step Time =    1.000,"PART-1-1",           428,      -5.98929,       13.4097,            0.,NA,NA,"",       1.58713,       1.45602,   631.672E-03,   12.3384E-06
C:/temp/dataset/4/4_1.odb,Step-1,Increment      1: Step Time =    1.000,"PART-1-1",           429,           -5.,        14.375,            0.,NA,NA,"",       1.60679,       1.49416,   590.962E-03,   7.83276E-06
C:/temp/dataset/4/4_1.odb,Step-1,Increment      1: Step Time =    1.000,"PART-1-1",           430,      -5.96684,       15.4903,            0.,NA,NA,"",       1.66350,       1.53996,   629.080E-03,   3.71436E-06
C:/temp/dataset/4/4_1.odb,Step-1,Increment      1: Step Time =    1.000,"PART-1-1",           431,      -11.0581,       10.8707,            0.,NA,NA,"",       1.59563,       1.35760,   838.437E-03,   48.4028E-06
C:/temp/dataset/4/4_1.odb,Step-1,Increment      1: Step Time =    1.000,"PART-1-1",           432,      -10.0579,       9.67932,            0.,NA,NA,"",       1.53340,       1.30872,   799.106E-03,   58.3422E-06
C:/temp/dataset/4/4_1.odb,Step-1,Increment      1: Step Time =    1.000,"PART-1-1",           433,      -9.02030,       10.5821,            0.,NA,NA,"",       1.54255,       1.34435,   756.430E-03,   52.7840E-06
C:/temp/dataset/4/4_1.odb,Step-1,Increment      1: Step Time =    1.000,"PART-1-1",           434,      -7.04064,       8.20966,            0.,NA,NA,"",       1.41954,       1.24697,   678.359E-03,   61.4666E-06
C:/temp/dataset/4/4_1.odb,Step-1,Increment      1: Step Time =    1.000,"PART-1-1",           435,      -6.03068,       7.10065,            0.,NA,NA,"",       1.36025,       1.20121,   638.264E-03,   107.768E-06
C:/temp/dataset/4/4_1.odb,Step-1,Increment      1: Step Time =    1.000,"PART-1-1",           436,           -5.,         8.125,            0.,NA,NA,"",       1.37732,       1.24180,   595.753E-03,   146.149E-06
C:/temp/dataset/4/4_1.odb,Step-1,Increment      1: Step Time =    1.000,"PART-1-1",           437,      -6.00996,       9.23401,            0.,NA,NA,"",       1.43594,       1.28750,   635.811E-03,   66.9283E-06
C:/temp/dataset/4/4_1.odb,Step-1,Increment      1: Step Time =    1.000,"PART-1-1",           438,      -13.0926,       9.02789,            0.,NA,NA,"",       1.58139,       1.28483,   921.964E-03,   62.7247E-06
C:/temp/dataset/4/4_1.odb,Step-1,Increment      1: Step Time =    1.000,"PART-1-1",           439,      -14.0370,       10.1974,            0.,NA,NA,"",       1.64201,       1.33280,   959.081E-03,   47.2918E-06
C:/temp/dataset/4/4_1.odb,Step-1,Increment      1: Step Time =    1.000,"PART-1-1",           440,          -15.,       9.21875,            0.,NA,NA,"",       1.63464,       1.29412,   998.645E-03,   101.202E-06
C:/temp/dataset/4/4_1.odb,Step-1,Increment      1: Step Time =    1.000,"PART-1-1",           441,      -13.9055,       1.56280,            0.,NA,NA,"",       1.37695,   987.529E-03,   959.571E-03,   964.327E-06
C:/temp/dataset/4/4_1.odb,Step-1,Increment      1: Step Time =    1.000,"PART-1-1",           442,      -12.9296,       2.64306,            0.,NA,NA,"",       1.38045,       1.02912,   920.076E-03,   823.220E-06
C:/temp/dataset/4/4_1.odb,Step-1,Increment      1: Step Time =    1.000,"PART-1-1",           443,      -14.0241,       3.73651,            0.,NA,NA,"",       1.44277,       1.07400,   963.385E-03,   618.088E-06
C:/temp/dataset/4/4_1.odb,Step-1,Increment      1: Step Time =    1.000,"PART-1-1",           444,          -15.,       2.65625,            0.,NA,NA,"",       1.43950,       1.03296,       1.00258,   840.293E-06
C:/temp/dataset/4/4_1.odb,Step-1,Increment      1: Step Time =    1.000,"PART-1-1",           445,      -13.7570,      -2.81804,            0.,NA,NA,"",       1.25295,   810.432E-03,   955.550E-03,   1.00225E-03
C:/temp/dataset/4/4_1.odb,Step-1,Increment      1: Step Time =    1.000,"PART-1-1",           446,      -13.7756,  -623.683E-03,            0.,NA,NA,"",       1.31201,   899.226E-03,   955.383E-03,   963.335E-06
C:/temp/dataset/4/4_1.odb,Step-1,Increment      1: Step Time =    1.000,"PART-1-1",           447,          -15.,      -1.71875,            0.,NA,NA,"",       1.32095,   857.000E-03,       1.00521,   949.686E-06
C:/temp/dataset/4/4_1.odb,Step-1,Increment      1: Step Time =    1.000,"PART-1-1",           448,        -13.75,           -5.,            0.,NA,NA,"",       1.19820,   722.207E-03,   956.088E-03,   1.01790E-03
C:/temp/dataset/4/4_1.odb,Step-1,Increment      1: Step Time =    1.000,"PART-1-1",           449,      -12.5070,      -3.91179,            0.,NA,NA,"",       1.18483,   764.025E-03,   905.593E-03,   1.03871E-03
C:/temp/dataset/4/4_1.odb,Step-1,Increment      1: Step Time =    1.000,"PART-1-1",           450,          -15.,      -3.90625,            0.,NA,NA,"",       1.26607,   768.547E-03,       1.00611,   987.749E-06
C:/temp/dataset/4/4_1.odb,Step-1,Increment      1: Step Time =    1.000,"PART-1-1",           451,          -15.,    468.75E-03,            0.,NA,NA,"",       1.37905,   945.307E-03,       1.00407,   907.416E-06
C:/temp/dataset/4/4_1.odb,Step-1,Increment      1: Step Time =    1.000,"PART-1-1",           452,      -5.10506,       2.56414,            0.,NA,NA,"",       1.18052,       1.01468,   603.371E-03,   697.071E-06
C:/temp/dataset/4/4_1.odb,Step-1,Increment      1: Step Time =    1.000,"PART-1-1",           453,      -4.59209,       3.94539,            0.,NA,NA,"",       1.21821,       1.07039,   581.642E-03,   605.024E-06
C:/temp/dataset/4/4_1.odb,Step-1,Increment      1: Step Time =    1.000,"PART-1-1",           454,      -6.09775,       4.77703,            0.,NA,NA,"",       1.27957,       1.10645,   642.715E-03,   454.697E-06
C:/temp/dataset/4/4_1.odb,Step-1,Increment      1: Step Time =    1.000,"PART-1-1",           455,      -6.61072,       3.39578,            0.,NA,NA,"",       1.24314,       1.05074,   664.333E-03,   610.717E-06
C:/temp/dataset/4/4_1.odb,Step-1,Increment      1: Step Time =    1.000,"PART-1-1",           456,       9.44090,      -5.60228,            0.,NA,NA,"",   651.253E-03,   651.148E-03,   11.7281E-03,   2.23030E-03
C:/temp/dataset/4/4_1.odb,Step-1,Increment      1: Step Time =    1.000,"PART-1-1",           457,       9.79564,      -4.46986,            0.,NA,NA,"",   698.364E-03,   698.359E-03,  -2.63869E-03,   2.05660E-03
C:/temp/dataset/4/4_1.odb,Step-1,Increment      1: Step Time =    1.000,"PART-1-1",           458,       8.43936,      -4.09444,            0.,NA,NA,"",   717.850E-03,   716.080E-03,   50.3718E-03,   2.14803E-03
C:/temp/dataset/4/4_1.odb,Step-1,Increment      1: Step Time =    1.000,"PART-1-1",           459,       8.08462,      -5.22686,            0.,NA,NA,"",   671.848E-03,   668.774E-03,   64.2011E-03,   2.36504E-03
C:/temp/dataset/4/4_1.odb,Step-1,Increment      1: Step Time =    1.000,"PART-1-1",           460,       6.93926,      -9.88629,            0.,NA,NA,"",   491.463E-03,   480.381E-03,   103.778E-03,   3.30072E-03
C:/temp/dataset/4/4_1.odb,Step-1,Increment      1: Step Time =    1.000,"PART-1-1",           461,       5.93813,      -8.99303,            0.,NA,NA,"",   537.162E-03,   517.701E-03,   143.278E-03,   3.71395E-03
C:/temp/dataset/4/4_1.odb,Step-1,Increment      1: Step Time =    1.000,"PART-1-1",           462,            5.,      -10.2083,            0.,NA,NA,"",   504.233E-03,   472.780E-03,   175.300E-03,   5.10760E-03
C:/temp/dataset/4/4_1.odb,Step-1,Increment      1: Step Time =    1.000,"PART-1-1",           463,       12.9852,      -11.3613,            0.,NA,NA,"",   433.917E-03,   420.213E-03,  -108.191E-03,   3.70628E-03
C:/temp/dataset/4/4_1.odb,Step-1,Increment      1: Step Time =    1.000,"PART-1-1",           464,       14.0059,      -12.5461,            0.,NA,NA,"",   402.688E-03,   378.031E-03,  -138.746E-03,   5.05883E-03
C:/temp/dataset/4/4_1.odb,Step-1,Increment      1: Step Time =    1.000,"PART-1-1",           465,           15.,        -11.25,            0.,NA,NA,"",   464.108E-03,   427.077E-03,  -181.663E-03,   5.54581E-03
C:/temp/dataset/4/4_1.odb,Step-1,Increment      1: Step Time =    1.000,"PART-1-1",           466,       13.9793,      -10.0652,            0.,NA,NA,"",   493.535E-03,   470.368E-03,  -149.436E-03,   3.99351E-03
C:/temp/dataset/4/4_1.odb,Step-1,Increment      1: Step Time =    1.000,"PART-1-1",           467,       7.08713,      -16.3801,            0.,NA,NA,"",   262.108E-03,   249.598E-03,   80.0097E-03,   5.08880E-03
C:/temp/dataset/4/4_1.odb,Step-1,Increment      1: Step Time =    1.000,"PART-1-1",           468,            5.,      -16.4583,            0.,NA,NA,"",   290.921E-03,   254.247E-03,   141.399E-03,   8.33720E-03
C:/temp/dataset/4/4_1.odb,Step-1,Increment      1: Step Time =    1.000,"PART-1-1",           469,       13.0372,      -13.8111,            0.,NA,NA,"",   346.675E-03,   331.923E-03,  -100.054E-03,   4.46189E-03
C:/temp/dataset/4/4_1.odb,Step-1,Increment      1: Step Time =    1.000,"PART-1-1",           470,       14.0313,      -15.0151,            0.,NA,NA,"",   318.939E-03,   293.065E-03,  -125.837E-03,   6.12743E-03
C:/temp/dataset/4/4_1.odb,Step-1,Increment      1: Step Time =    1.000,"PART-1-1",           471,           15.,        -13.75,            0.,NA,NA,"",   376.454E-03,   337.825E-03,  -166.107E-03,   6.87989E-03
C:/temp/dataset/4/4_1.odb,Step-1,Increment      1: Step Time =    1.000,"PART-1-1",           472,       13.0981,      -18.6529,            0.,NA,NA,"",   196.815E-03,   180.852E-03,  -77.6449E-03,   6.02435E-03
C:/temp/dataset/4/4_1.odb,Step-1,Increment      1: Step Time =    1.000,"PART-1-1",           473,       14.0553,      -19.9280,            0.,NA,NA,"",   176.517E-03,   150.096E-03,  -92.8950E-03,   8.23574E-03
C:/temp/dataset/4/4_1.odb,Step-1,Increment      1: Step Time =    1.000,"PART-1-1",           474,           15.,        -18.75,            0.,NA,NA,"",   223.626E-03,   184.135E-03,  -126.897E-03,   9.50130E-03
C:/temp/dataset/4/4_1.odb,Step-1,Increment      1: Step Time =    1.000,"PART-1-1",           475,       14.0427,      -17.4749,            0.,NA,NA,"",   243.168E-03,   216.671E-03,  -110.383E-03,   7.18233E-03
C:/temp/dataset/4/4_1.odb,Step-1,Increment      1: Step Time =    1.000,"PART-1-1",           476,       6.17422,      -27.9405,            0.,NA,NA,"",   23.4037E-03,   13.9043E-03,   18.8257E-03,   11.1736E-03
C:/temp/dataset/4/4_1.odb,Step-1,Increment      1: Step Time =    1.000,"PART-1-1",           477,            5.,      -28.9583,            0.,NA,NA,"",   18.5181E-03,   12.0985E-03,   14.0195E-03,   15.1217E-03
C:/temp/dataset/4/4_1.odb,Step-1,Increment      1: Step Time =    1.000,"PART-1-1",           478,          6.25,          -30.,            0.,NA,NA,"",            0.,  -345.897E-42,   16.8673E-39,   10.8090E-03
C:/temp/dataset/4/4_1.odb,Step-1,Increment      1: Step Time =    1.000,"PART-1-1",           479,       9.46325,      -26.8820,            0.,NA,NA,"",   16.1097E-03,   15.6534E-03,   3.80718E-03,   2.84957E-03
C:/temp/dataset/4/4_1.odb,Step-1,Increment      1: Step Time =    1.000,"PART-1-1",           480,       8.20536,      -25.9154,            0.,NA,NA,"",   33.4499E-03,   28.7911E-03,   17.0284E-03,   5.38957E-03
C:/temp/dataset/4/4_1.odb,Step-1,Increment      1: Step Time =    1.000,"PART-1-1",           481,       7.26622,      -26.9429,            0.,NA,NA,"",   27.5154E-03,   19.3922E-03,   19.5202E-03,   7.79011E-03
C:/temp/dataset/4/4_1.odb,Step-1,Increment      1: Step Time =    1.000,"PART-1-1",           482,       13.6319,      -27.3465,            0.,NA,NA,"",   29.1783E-03,   17.8525E-03,  -23.0795E-03,   10.3968E-03
C:/temp/dataset/4/4_1.odb,Step-1,Increment      1: Step Time =    1.000,"PART-1-1",           483,       12.3819,      -28.5965,            0.,NA,NA,"",   7.86116E-03,   3.83484E-03,  -6.86235E-03,   6.10085E-03
C:/temp/dataset/4/4_1.odb,Step-1,Increment      1: Step Time =    1.000,"PART-1-1",           484,         13.75,          -30.,            0.,NA,NA,"",            0.,  -716.773E-42,  -16.6780E-39,   10.7937E-03
C:/temp/dataset/4/4_1.odb,Step-1,Increment      1: Step Time =    1.000,"PART-1-1",           485,           15.,        -28.75,            0.,NA,NA,"",   21.7238E-03,   13.9331E-03,  -16.6671E-03,   14.7612E-03
C:/temp/dataset/4/4_1.odb,Step-1,Increment      1: Step Time =    1.000,"PART-1-1",           486,         11.25,          -30.,            0.,NA,NA,"",            0.,  -963.536E-42,  -5.62416E-39,   2.76722E-03
C:/temp/dataset/4/4_1.odb,Step-1,Increment      1: Step Time =    1.000,"PART-1-1",           487,       10.9817,      -27.5238,            0.,NA,NA,"",   10.9701E-03,   9.69770E-03,  -5.12804E-03,   3.64368E-03
C:/temp/dataset/4/4_1.odb,Step-1,Increment      1: Step Time =    1.000,"PART-1-1",           488,       10.1507,      -19.6985,            0.,NA,NA,"",   149.703E-03,   149.644E-03,  -4.21352E-03,   2.25909E-03
C:/temp/dataset/4/4_1.odb,Step-1,Increment      1: Step Time =    1.000,"PART-1-1",           489,       9.14094,      -20.7396,            0.,NA,NA,"",   125.368E-03,   124.198E-03,   17.0827E-03,   2.94495E-03
C:/temp/dataset/4/4_1.odb,Step-1,Increment      1: Step Time =    1.000,"PART-1-1",           490,       11.1621,      -20.8614,            0.,NA,NA,"",   123.444E-03,   121.057E-03,  -24.1586E-03,   3.29671E-03
C:/temp/dataset/4/4_1.odb,Step-1,Increment      1: Step Time =    1.000,"PART-1-1",           491,       7.09922,      -20.6753,            0.,NA,NA,"",   143.172E-03,   129.928E-03,   60.1419E-03,   6.35087E-03
C:/temp/dataset/4/4_1.odb,Step-1,Increment      1: Step Time =    1.000,"PART-1-1",           492,            5.,       -20.625,            0.,NA,NA,"",   176.220E-03,   139.514E-03,   107.654E-03,   10.5238E-03
C:/temp/dataset/4/4_1.odb,Step-1,Increment      1: Step Time =    1.000,"PART-1-1",           493,       9.08758,      -14.0519,            0.,NA,NA,"",   323.915E-03,   322.945E-03,   25.0508E-03,   2.59355E-03
C:/temp/dataset/4/4_1.odb,Step-1,Increment      1: Step Time =    1.000,"PART-1-1",           494,       10.1099,      -15.1447,            0.,NA,NA,"",   285.174E-03,   285.111E-03,  -5.99222E-03,   2.24826E-03
C:/temp/dataset/4/4_1.odb,Step-1,Increment      1: Step Time =    1.000,"PART-1-1",           495,       11.0794,      -13.9187,            0.,NA,NA,"",   328.799E-03,   326.684E-03,  -37.2392E-03,   2.69835E-03
C:/temp/dataset/4/4_1.odb,Step-1,Increment      1: Step Time =    1.000,"PART-1-1",           496,       10.0571,      -12.8260,            0.,NA,NA,"",   365.640E-03,   365.592E-03,  -5.97255E-03,   2.24651E-03
C:/temp/dataset/4/4_1.odb,Step-1,Increment      1: Step Time =    1.000,"PART-1-1",           497,       9.02765,      -11.7712,            0.,NA,NA,"",   406.107E-03,   405.140E-03,   28.0149E-03,   2.49670E-03
C:/temp/dataset/4/4_1.odb,Step-1,Increment      1: Step Time =    1.000,"PART-1-1",           498,       11.0123,      -11.5393,            0.,NA,NA,"",   414.585E-03,   412.705E-03,  -39.4426E-03,   2.55090E-03
C:/temp/dataset/4/4_1.odb,Step-1,Increment      1: Step Time =    1.000,"PART-1-1",           499,       9.98284,      -10.4845,            0.,NA,NA,"",   453.197E-03,   453.168E-03,  -5.17953E-03,   2.24996E-03
C:/temp/dataset/4/4_1.odb,Step-1,Increment      1: Step Time =    1.000,"PART-1-1",           500,       12.6190,       1.44886,            0.,NA,NA,"",   952.004E-03,   944.252E-03,  -121.243E-03,   530.772E-06
C:/temp/dataset/4/4_1.odb,Step-1,Increment      1: Step Time =    1.000,"PART-1-1",           501,       13.8500,   84.2405E-03,            0.,NA,NA,"",   902.561E-03,   886.352E-03,  -170.285E-03,   507.544E-06
C:/temp/dataset/4/4_1.odb,Step-1,Increment      1: Step Time =    1.000,"PART-1-1",           502,           15.,          1.25,            0.,NA,NA,"",   959.498E-03,   934.108E-03,  -219.270E-03,   249.070E-06
C:/temp/dataset/4/4_1.odb,Step-1,Increment      1: Step Time =    1.000,"PART-1-1",           503,       10.0180,      -2.29938,            0.,NA,NA,"",   789.751E-03,   789.648E-03,  -12.7249E-03,   1.55638E-03
C:/temp/dataset/4/4_1.odb,Step-1,Increment      1: Step Time =    1.000,"PART-1-1",           504,       9.13986,      -3.07696,            0.,NA,NA,"",   758.351E-03,   758.016E-03,   22.5331E-03,   1.85901E-03
C:/temp/dataset/4/4_1.odb,Step-1,Increment      1: Step Time =    1.000,"PART-1-1",           505,       10.6738,      -3.69229,            0.,NA,NA,"",   731.152E-03,   730.183E-03,  -37.6245E-03,   1.83316E-03
C:/temp/dataset/4/4_1.odb,Step-1,Increment      1: Step Time =    1.000,"PART-1-1",           506,       12.7589,       6.54544,            0.,NA,NA,"",       1.16251,       1.15504,  -131.563E-03,   32.8581E-06
C:/temp/dataset/4/4_1.odb,Step-1,Increment      1: Step Time =    1.000,"PART-1-1",           507,           15.,          6.25,            0.,NA,NA,"",       1.16263,       1.14094,  -223.535E-03,   66.0472E-06
C:/temp/dataset/4/4_1.odb,Step-1,Increment      1: Step Time =    1.000,"PART-1-1",           508,       13.9203,       7.65480,            0.,NA,NA,"",       1.21312,       1.19966,  -180.243E-03,   36.2877E-06
C:/temp/dataset/4/4_1.odb,Step-1,Increment      1: Step Time =    1.000,"PART-1-1",           509,       13.0275,       16.3263,            0.,NA,NA,"",       1.56357,       1.55627,  -150.822E-03,   2.94320E-06
C:/temp/dataset/4/4_1.odb,Step-1,Increment      1: Step Time =    1.000,"PART-1-1",           510,       14.0150,       15.0581,            0.,NA,NA,"",       1.51540,       1.50341,  -190.279E-03,   3.03139E-06
C:/temp/dataset/4/4_1.odb,Step-1,Increment      1: Step Time =    1.000,"PART-1-1",           511,           15.,         16.25,            0.,NA,NA,"",       1.56869,       1.55148,  -231.693E-03,   1.45820E-06
C:/temp/dataset/4/4_1.odb,Step-1,Increment      1: Step Time =    1.000,"PART-1-1",           512,       14.0124,       17.5182,            0.,NA,NA,"",       1.61583,       1.60435,  -192.239E-03,   610.362E-09
C:/temp/dataset/4/4_1.odb,Step-1,Increment      1: Step Time =    1.000,"PART-1-1",           513,       13.0175,       18.7421,            0.,NA,NA,"",       1.66241,       1.65540,  -152.447E-03,   691.724E-09
C:/temp/dataset/4/4_1.odb,Step-1,Increment      1: Step Time =    1.000,"PART-1-1",           514,           15.,         18.75,            0.,NA,NA,"",       1.67050,       1.65406,  -233.798E-03,   65.9356E-09
C:/temp/dataset/4/4_1.odb,Step-1,Increment      1: Step Time =    1.000,"PART-1-1",           515,       14.0051,       19.9738,            0.,NA,NA,"",       1.71611,       1.70511,  -194.006E-03,   131.037E-09
C:/temp/dataset/4/4_1.odb,Step-1,Increment      1: Step Time =    1.000,"PART-1-1",           516,       5.97628,       21.7197,            0.,NA,NA,"",       1.78853,       1.78350,   133.956E-03,   116.701E-09
C:/temp/dataset/4/4_1.odb,Step-1,Increment      1: Step Time =    1.000,"PART-1-1",           517,       6.92463,       22.7965,            0.,NA,NA,"",       1.82931,       1.82689,   94.1368E-03,   66.2229E-09
C:/temp/dataset/4/4_1.odb,Step-1,Increment      1: Step Time =    1.000,"PART-1-1",           518,       5.94835,       23.7852,            0.,NA,NA,"",       1.87303,       1.86828,   133.362E-03,   78.0605E-09
C:/temp/dataset/4/4_1.odb,Step-1,Increment      1: Step Time =    1.000,"PART-1-1",           519,            5.,       22.7083,            0.,NA,NA,"",       1.83309,       1.82489,   173.182E-03,   162.009E-09
C:/temp/dataset/4/4_1.odb,Step-1,Increment      1: Step Time =    1.000,"PART-1-1",           520,       13.8862,       24.9278,            0.,NA,NA,"",       1.91824,       1.90848,  -193.300E-03,   52.4071E-09
C:/temp/dataset/4/4_1.odb,Step-1,Increment      1: Step Time =    1.000,"PART-1-1",           521,           15.,         26.25,            0.,NA,NA,"",       1.97643,       1.96179,  -240.115E-03,   40.9599E-09
C:/temp/dataset/4/4_1.odb,Step-1,Increment      1: Step Time =    1.000,"PART-1-1",           522,       6.15342,       27.8650,            0.,NA,NA,"",       2.03913,       2.03551,   121.512E-03,   16.4451E-09
C:/temp/dataset/4/4_1.odb,Step-1,Increment      1: Step Time =    1.000,"PART-1-1",           523,       7.40342,       28.9067,            0.,NA,NA,"",       2.07835,       2.07719,   69.3455E-03,   18.4255E-09
C:/temp/dataset/4/4_1.odb,Step-1,Increment      1: Step Time =    1.000,"PART-1-1",           524,          6.25,           30.,            0.,NA,NA,"",       2.12618,       2.12303,   115.751E-03,   3.96366E-09
C:/temp/dataset/4/4_1.odb,Step-1,Increment      1: Step Time =    1.000,"PART-1-1",           525,            5.,       28.9583,            0.,NA,NA,"",       2.08810,       2.08134,   167.918E-03,   3.86032E-09
C:/temp/dataset/4/4_1.odb,Step-1,Increment      1: Step Time =    1.000,"PART-1-1",           526,       7.11917,       26.8292,            0.,NA,NA,"",       1.99391,       1.99219,   82.7586E-03,   39.4752E-09
C:/temp/dataset/4/4_1.odb,Step-1,Increment      1: Step Time =    1.000,"PART-1-1",           527,            5.,        26.875,            0.,NA,NA,"",       2.00306,       1.99586,   169.672E-03,   27.1363E-09
C:/temp/dataset/4/4_1.odb,Step-1,Increment      1: Step Time =    1.000,"PART-1-1",           528,       5.96574,       25.8392,            0.,NA,NA,"",       1.95693,       1.95254,   130.919E-03,   38.2599E-09
C:/temp/dataset/4/4_1.odb,Step-1,Increment      1: Step Time =    1.000,"PART-1-1",           529,       8.59546,       27.4701,            0.,NA,NA,"",       2.01736,       2.01725,   21.6443E-03,   26.8834E-09
C:/temp/dataset/4/4_1.odb,Step-1,Increment      1: Step Time =    1.000,"PART-1-1",           530,       9.94204,       28.5635,            0.,NA,NA,"",       2.06126,       2.06097,  -34.5283E-03,   25.7615E-09
C:/temp/dataset/4/4_1.odb,Step-1,Increment      1: Step Time =    1.000,"PART-1-1",           531,          8.75,           30.,            0.,NA,NA,"",       2.12096,       2.12092,   13.1729E-03,   18.5912E-09
C:/temp/dataset/4/4_1.odb,Step-1,Increment      1: Step Time =    1.000,"PART-1-1",           532,            5.,       24.7917,            0.,NA,NA,"",       1.91805,       1.91037,   171.427E-03,   78.6049E-09
C:/temp/dataset/4/4_1.odb,Step-1,Increment      1: Step Time =    1.000,"PART-1-1",           533,       6.91409,       24.8327,            0.,NA,NA,"",       1.91270,       1.91044,   92.8544E-03,   63.3740E-09
C:/temp/dataset/4/4_1.odb,Step-1,Increment      1: Step Time =    1.000,"PART-1-1",           534,            5.,        20.625,            0.,NA,NA,"",       1.74818,       1.73941,   174.936E-03,   230.206E-09
C:/temp/dataset/4/4_1.odb,Step-1,Increment      1: Step Time =    1.000,"PART-1-1",           535,       5.99534,       19.6263,            0.,NA,NA,"",       1.70295,       1.69759,   134.937E-03,   137.480E-09
C:/temp/dataset/4/4_1.odb,Step-1,Increment      1: Step Time =    1.000,"PART-1-1",           536,       6.97162,       20.7210,            0.,NA,NA,"",       1.74422,       1.74169,   93.9564E-03,   100.197E-09
C:/temp/dataset/4/4_1.odb,Step-1,Increment      1: Step Time =    1.000,"PART-1-1",           537,       9.90537,       10.7177,            0.,NA,NA,"",       1.32890,       1.32877,  -17.9389E-03,   23.6086E-06
C:/temp/dataset/4/4_1.odb,Step-1,Increment      1: Step Time =    1.000,"PART-1-1",           538,       8.83179,       9.75083,            0.,NA,NA,"",       1.29028,       1.28999,   26.9387E-03,   26.2706E-06
C:/temp/dataset/4/4_1.odb,Step-1,Increment      1: Step Time =    1.000,"PART-1-1",           539,       10.8380,       9.37550,            0.,NA,NA,"",       1.27412,       1.27293,  -55.0589E-03,   22.9664E-06
C:/temp/dataset/4/4_1.odb,Step-1,Increment      1: Step Time =    1.000,"PART-1-1",           540,       5.96737,       11.1773,            0.,NA,NA,"",       1.35848,       1.35091,   143.173E-03,   18.8584E-06
C:/temp/dataset/4/4_1.odb,Step-1,Increment      1: Step Time =    1.000,"PART-1-1",           541,       6.95908,       12.1740,            0.,NA,NA,"",       1.39469,       1.39098,   101.668E-03,   17.2249E-06
C:/temp/dataset/4/4_1.odb,Step-1,Increment      1: Step Time =    1.000,"PART-1-1",           542,            5.,       12.2917,            0.,NA,NA,"",       1.40925,       1.39746,   181.934E-03,   16.8307E-06
C:/temp/dataset/4/4_1.odb,Step-1,Increment      1: Step Time =    1.000,"PART-1-1",           543,       6.89189,       10.0466,            0.,NA,NA,"",       1.30806,       1.30374,   106.215E-03,   28.4693E-06
C:/temp/dataset/4/4_1.odb,Step-1,Increment      1: Step Time =    1.000,"PART-1-1",           544,            5.,       10.2083,            0.,NA,NA,"",       1.32477,       1.31198,   183.640E-03,   45.5536E-06
C:/temp/dataset/4/4_1.odb,Step-1,Increment      1: Step Time =    1.000,"PART-1-1",           545,  -883.251E-03,       2.97832,            0.,NA,NA,"",       1.11218,       1.02552,   430.420E-03,   688.528E-06
C:/temp/dataset/4/4_1.odb,Step-1,Increment      1: Step Time =    1.000,"PART-1-1",           546,         -1.25,            5.,            0.,NA,NA,"",       1.19466,       1.10895,   444.343E-03,   600.154E-06
C:/temp/dataset/4/4_1.odb,Step-1,Increment      1: Step Time =    1.000,"PART-1-1",           547,      -2.28350,       3.97568,            0.,NA,NA,"",       1.17429,       1.06843,   487.247E-03,   631.592E-06
C:/temp/dataset/4/4_1.odb,Step-1,Increment      1: Step Time =    1.000,"PART-1-1",           548,      -3.12559,       2.92107,            0.,NA,NA,"",       1.15168,       1.02643,   522.296E-03,   645.920E-06
C:/temp/dataset/4/4_1.odb,Step-1,Increment      1: Step Time =    1.000,"PART-1-1",           549,         -3.75,            5.,            0.,NA,NA,"",       1.23949,       1.11244,   546.640E-03,   645.591E-06
C:/temp/dataset/4/4_1.odb,Step-1,Increment      1: Step Time =    1.000,"PART-1-1",           550,      -7.01026,       10.3490,            0.,NA,NA,"",       1.49464,       1.33334,   675.384E-03,   52.7393E-06
C:/temp/dataset/4/4_1.odb,Step-1,Increment      1: Step Time =    1.000,"PART-1-1",           551,           -5.,       10.2083,            0.,NA,NA,"",       1.45307,       1.32600,   594.251E-03,   71.1216E-06
C:/temp/dataset/4/4_1.odb,Step-1,Increment      1: Step Time =    1.000,"PART-1-1",           552,      -6.00030,       11.3233,            0.,NA,NA,"",       1.51116,       1.37184,   633.786E-03,   31.9565E-06
C:/temp/dataset/4/4_1.odb,Step-1,Increment      1: Step Time =    1.000,"PART-1-1",           553,      -6.90277,       16.5792,            0.,NA,NA,"",       1.71893,       1.58468,   665.973E-03,   3.97438E-06
C:/temp/dataset/4/4_1.odb,Step-1,Increment      1: Step Time =    1.000,"PART-1-1",           554,           -5.,       16.4583,            0.,NA,NA,"",       1.68466,       1.57825,   589.269E-03,   1.16917E-06
C:/temp/dataset/4/4_1.odb,Step-1,Increment      1: Step Time =    1.000,"PART-1-1",           555,      -5.93592,       17.5473,            0.,NA,NA,"",       1.73956,       1.62296,   626.158E-03,   753.375E-09
C:/temp/dataset/4/4_1.odb,Step-1,Increment      1: Step Time =    1.000,"PART-1-1",           556,      -5.96041,       23.6583,            0.,NA,NA,"",       1.97045,       1.86965,   622.165E-03,   156.082E-09
C:/temp/dataset/4/4_1.odb,Step-1,Increment      1: Step Time =    1.000,"PART-1-1",           557,           -5.,       24.7917,            0.,NA,NA,"",       2.00125,       1.91461,   582.475E-03,   145.377E-09
C:/temp/dataset/4/4_1.odb,Step-1,Increment      1: Step Time =    1.000,"PART-1-1",           558,      -7.48847,       28.8776,            0.,NA,NA,"",       2.18970,       2.08157,   679.592E-03,   32.2172E-09
C:/temp/dataset/4/4_1.odb,Step-1,Increment      1: Step Time =    1.000,"PART-1-1",           559,           -5.,       28.9583,            0.,NA,NA,"",       2.16180,       2.08280,   579.079E-03,   6.21138E-09
C:/temp/dataset/4/4_1.odb,Step-1,Increment      1: Step Time =    1.000,"PART-1-1",           560,         -6.25,           30.,            0.,NA,NA,"",       2.21688,       2.12587,   628.686E-03,   5.66756E-09
C:/temp/dataset/4/4_1.odb,Step-1,Increment      1: Step Time =    1.000,"PART-1-1",           561,       12.9634,       11.4929,            0.,NA,NA,"",       1.36565,       1.35803,  -144.128E-03,   17.9560E-06
C:/temp/dataset/4/4_1.odb,Step-1,Increment      1: Step Time =    1.000,"PART-1-1",           562,       13.9657,       10.1417,            0.,NA,NA,"",       1.31470,       1.30174,  -184.150E-03,   23.5083E-06
C:/temp/dataset/4/4_1.odb,Step-1,Increment      1: Step Time =    1.000,"PART-1-1",           563,           15.,         11.25,            0.,NA,NA,"",       1.36543,       1.34634,  -227.519E-03,   23.0238E-06
C:/temp/dataset/4/4_1.odb,Step-1,Increment      1: Step Time =    1.000,"PART-1-1",           564,       13.9978,       12.6011,            0.,NA,NA,"",       1.41510,       1.40262,  -187.511E-03,   9.95056E-06
C:/temp/dataset/4/4_1.odb,Step-1,Increment      1: Step Time =    1.000,"PART-1-1",           565,       9.13480,      -18.5479,            0.,NA,NA,"",   182.440E-03,   181.345E-03,   19.9569E-03,   2.81205E-03
C:/temp/dataset/4/4_1.odb,Step-1,Increment      1: Step Time =    1.000,"PART-1-1",           566,       11.1537,      -18.5886,            0.,NA,NA,"",   182.161E-03,   179.774E-03,  -29.3920E-03,   3.08534E-03
C:/temp/dataset/4/4_1.odb,Step-1,Increment      1: Step Time =    1.000,"PART-1-1",           567,       10.1377,      -17.4381,            0.,NA,NA,"",   212.837E-03,   212.772E-03,  -5.25751E-03,   2.25230E-03
C:/temp/dataset/4/4_1.odb,Step-1,Increment      1: Step Time =    1.000,"PART-1-1",           568,      -8.81573,       27.5627,            0.,NA,NA,"",       2.15830,       2.02957,   734.239E-03,   46.5892E-09
C:/temp/dataset/4/4_1.odb,Step-1,Increment      1: Step Time =    1.000,"PART-1-1",           569,         -8.75,           30.,            0.,NA,NA,"",       2.24951,       2.12790,   729.599E-03,   30.1122E-09
C:/temp/dataset/4/4_1.odb,Step-1,Increment      1: Step Time =    1.000,"PART-1-1",           570,            5.,      -24.7917,            0.,NA,NA,"",   86.9142E-03,   57.6675E-03,   65.0273E-03,   12.5386E-03
C:/temp/dataset/4/4_1.odb,Step-1,Increment      1: Step Time =    1.000,"PART-1-1",           571,       6.09200,      -25.8775,            0.,NA,NA,"",   54.1020E-03,   36.8626E-03,   39.6002E-03,   10.4201E-03
C:/temp/dataset/4/4_1.odb,Step-1,Increment      1: Step Time =    1.000,"PART-1-1",           572,       7.15121,      -24.8757,            0.,NA,NA,"",   57.9565E-03,   46.5394E-03,   34.5405E-03,   7.59526E-03
C:/temp/dataset/4/4_1.odb,Step-1,Increment      1: Step Time =    1.000,"PART-1-1",           573,       13.1040,      -21.0477,            0.,NA,NA,"",   135.977E-03,   120.189E-03,  -63.5948E-03,   6.77333E-03
C:/temp/dataset/4/4_1.odb,Step-1,Increment      1: Step Time =    1.000,"PART-1-1",           574,       14.0487,      -22.3697,            0.,NA,NA,"",   119.497E-03,   94.6035E-03,  -73.0049E-03,   9.26984E-03
C:/temp/dataset/4/4_1.odb,Step-1,Increment      1: Step Time =    1.000,"PART-1-1",           575,           15.,        -21.25,            0.,NA,NA,"",   160.317E-03,   122.587E-03,  -103.315E-03,   10.8211E-03
C:/temp/dataset/4/4_1.odb,Step-1,Increment      1: Step Time =    1.000,"PART-1-1",           576,            5.,       -26.875,            0.,NA,NA,"",   51.5903E-03,   31.1407E-03,   41.1316E-03,   13.6824E-03
C:/temp/dataset/4/4_1.odb,Step-1,Increment      1: Step Time =    1.000,"PART-1-1",           577,       12.8133,      -6.31290,            0.,NA,NA,"",   630.660E-03,   619.701E-03,  -117.058E-03,   2.30413E-03
C:/temp/dataset/4/4_1.odb,Step-1,Increment      1: Step Time =    1.000,"PART-1-1",           578,       13.9319,      -7.55671,            0.,NA,NA,"",   590.545E-03,   569.252E-03,  -157.149E-03,   2.92548E-03
C:/temp/dataset/4/4_1.odb,Step-1,Increment      1: Step Time =    1.000,"PART-1-1",           579,           15.,         -6.25,            0.,NA,NA,"",   655.406E-03,   622.755E-03,  -204.289E-03,   2.86021E-03
C:/temp/dataset/4/4_1.odb,Step-1,Increment      1: Step Time =    1.000,"PART-1-1",           580,            5.,       18.5417,            0.,NA,NA,"",       1.66334,       1.65393,   176.691E-03,   59.9198E-09
C:/temp/dataset/4/4_1.odb,Step-1,Increment      1: Step Time =    1.000,"PART-1-1",           581,       6.00122,       17.5195,            0.,NA,NA,"",       1.61691,       1.61114,   136.470E-03,   657.467E-09
C:/temp/dataset/4/4_1.odb,Step-1,Increment      1: Step Time =    1.000,"PART-1-1",           582,       6.99656,       18.6041,            0.,NA,NA,"",       1.65752,       1.65481,   94.7160E-03,   758.725E-09
C:/temp/dataset/4/4_1.odb,Step-1,Increment      1: Step Time =    1.000,"PART-1-1",           583,       12.8545,       23.6160,            0.,NA,NA,"",       1.86156,       1.85552,  -149.863E-03,   69.9394E-09
C:/temp/dataset/4/4_1.odb,Step-1,Increment      1: Step Time =    1.000,"PART-1-1",           584,       13.9683,       22.4382,            0.,NA,NA,"",       1.81670,       1.80625,  -194.573E-03,   103.242E-09
C:/temp/dataset/4/4_1.odb,Step-1,Increment      1: Step Time =    1.000,"PART-1-1",           585,           15.,         23.75,            0.,NA,NA,"",       1.87438,       1.85921,  -238.009E-03,   118.588E-09
C:/temp/dataset/4/4_1.odb,Step-1,Increment      1: Step Time =    1.000,"PART-1-1",           586,            5.,       16.4583,            0.,NA,NA,"",       1.57856,       1.56844,   178.446E-03,   1.20405E-06
C:/temp/dataset/4/4_1.odb,Step-1,Increment      1: Step Time =    1.000,"PART-1-1",           587,       7.00480,       16.4638,            0.,NA,NA,"",       1.56993,       1.56698,   96.1807E-03,   2.82938E-06
C:/temp/dataset/4/4_1.odb,Step-1,Increment      1: Step Time =    1.000,"PART-1-1",           588,       12.9734,       21.1620,            0.,NA,NA,"",       1.76136,       1.75473,  -152.676E-03,   57.5044E-09
C:/temp/dataset/4/4_1.odb,Step-1,Increment      1: Step Time =    1.000,"PART-1-1",           589,           15.,         21.25,            0.,NA,NA,"",       1.77240,       1.75663,  -235.904E-03,   214.065E-09
C:/temp/dataset/4/4_1.odb,Step-1,Increment      1: Step Time =    1.000,"PART-1-1",           590,            5.,       6.04167,            0.,NA,NA,"",       1.15666,       1.14148,   186.786E-03,   182.968E-06
C:/temp/dataset/4/4_1.odb,Step-1,Increment      1: Step Time =    1.000,"PART-1-1",           591,       5.70418,       5.21013,            0.,NA,NA,"",       1.11855,       1.10723,   158.735E-03,   455.805E-06
C:/temp/dataset/4/4_1.odb,Step-1,Increment      1: Step Time =    1.000,"PART-1-1",           592,       6.54256,       6.20387,            0.,NA,NA,"",       1.15339,       1.14673,   123.722E-03,   149.621E-06
C:/temp/dataset/4/4_1.odb,Step-1,Increment      1: Step Time =    1.000,"PART-1-1",           593,       7.80464,       8.81181,            0.,NA,NA,"",       1.25428,       1.25233,   69.8561E-03,   25.0605E-06
C:/temp/dataset/4/4_1.odb,Step-1,Increment      1: Step Time =    1.000,"PART-1-1",           594,       7.55468,       6.70991,            0.,NA,NA,"",       1.16932,       1.16645,   81.8727E-03,   77.4218E-06
C:/temp/dataset/4/4_1.odb,Step-1,Increment      1: Step Time =    1.000,"PART-1-1",           595,           -5.,       12.2917,            0.,NA,NA,"",       1.52956,       1.41009,   592.634E-03,   26.5803E-06
C:/temp/dataset/4/4_1.odb,Step-1,Increment      1: Step Time =    1.000,"PART-1-1",           596,      -13.0551,       11.1433,            0.,NA,NA,"",       1.64970,       1.37019,   918.740E-03,   42.6313E-06
C:/temp/dataset/4/4_1.odb,Step-1,Increment      1: Step Time =    1.000,"PART-1-1",           597,          -15.,       11.4063,            0.,NA,NA,"",       1.70442,       1.38241,   996.989E-03,   41.1813E-06
C:/temp/dataset/4/4_1.odb,Step-1,Increment      1: Step Time =    1.000,"PART-1-1",           598,           -5.,       18.5417,            0.,NA,NA,"",       1.76312,       1.66233,   587.571E-03,   470.174E-09
C:/temp/dataset/4/4_1.odb,Step-1,Increment      1: Step Time =    1.000,"PART-1-1",           599,      -6.83195,       18.5917,            0.,NA,NA,"",       1.79237,       1.66585,   661.475E-03,   903.162E-09
C:/temp/dataset/4/4_1.odb,Step-1,Increment      1: Step Time =    1.000,"PART-1-1",           600,      -12.9744,       15.4368,            0.,NA,NA,"",       1.79278,       1.54348,   911.990E-03,   7.64038E-06
C:/temp/dataset/4/4_1.odb,Step-1,Increment      1: Step Time =    1.000,"PART-1-1",           601,      -13.9736,       16.6988,            0.,NA,NA,"",       1.85736,       1.59525,   951.293E-03,   1.68647E-06
C:/temp/dataset/4/4_1.odb,Step-1,Increment      1: Step Time =    1.000,"PART-1-1",           602,          -15.,       15.7813,            0.,NA,NA,"",       1.84868,       1.55904,   993.474E-03,   2.80987E-06
C:/temp/dataset/4/4_1.odb,Step-1,Increment      1: Step Time =    1.000,"PART-1-1",           603,      -6.85389,       22.5676,            0.,NA,NA,"",       1.94165,       1.82635,   659.120E-03,   179.779E-09
C:/temp/dataset/4/4_1.odb,Step-1,Increment      1: Step Time =    1.000,"PART-1-1",           604,           -5.,       22.7083,            0.,NA,NA,"",       1.92147,       1.83052,   584.173E-03,   324.719E-09
C:/temp/dataset/4/4_1.odb,Step-1,Increment      1: Step Time =    1.000,"PART-1-1",           605,      -7.62380,       21.5126,            0.,NA,NA,"",       1.91353,       1.78439,   691.057E-03,   145.016E-09
C:/temp/dataset/4/4_1.odb,Step-1,Increment      1: Step Time =    1.000,"PART-1-1",           606,      -11.2433,       25.0031,            0.,NA,NA,"",       2.10099,       1.92824,   834.316E-03,   124.573E-09
C:/temp/dataset/4/4_1.odb,Step-1,Increment      1: Step Time =    1.000,"PART-1-1",           607,      -10.1220,       24.6816,            0.,NA,NA,"",       2.07068,       1.91434,   789.314E-03,   131.834E-09
C:/temp/dataset/4/4_1.odb,Step-1,Increment      1: Step Time =    1.000,"PART-1-1",           608,      -9.68436,       26.2404,            0.,NA,NA,"",       2.12171,       1.97691,   770.379E-03,   90.0688E-09
C:/temp/dataset/4/4_1.odb,Step-1,Increment      1: Step Time =    1.000,"PART-1-1",           609,      -10.8057,       26.5619,            0.,NA,NA,"",       2.15131,       1.99080,   815.381E-03,   78.1049E-09
C:/temp/dataset/4/4_1.odb,Step-1,Increment      1: Step Time =    1.000,"PART-1-1",           610,            5.,      -6.04167,            0.,NA,NA,"",   666.871E-03,   639.957E-03,   187.542E-03,   3.13345E-03
C:/temp/dataset/4/4_1.odb,Step-1,Increment      1: Step Time =    1.000,"PART-1-1",           611,       5.81487,      -6.90448,            0.,NA,NA,"",   621.408E-03,   602.386E-03,   152.576E-03,   2.88962E-03
C:/temp/dataset/4/4_1.odb,Step-1,Increment      1: Step Time =    1.000,"PART-1-1",           612,       6.44107,      -5.66337,            0.,NA,NA,"",   665.777E-03,   653.185E-03,   128.874E-03,   2.44072E-03
C:/temp/dataset/4/4_1.odb,Step-1,Increment      1: Step Time =    1.000,"PART-1-1",           613,       5.62621,      -4.80056,            0.,NA,NA,"",   710.769E-03,   691.837E-03,   162.955E-03,   2.38246E-03
C:/temp/dataset/4/4_1.odb,Step-1,Increment      1: Step Time =    1.000,"PART-1-1",           614,            5.,        -8.125,            0.,NA,NA,"",   583.866E-03,   554.677E-03,   182.300E-03,   4.13112E-03
C:/temp/dataset/4/4_1.odb,Step-1,Increment      1: Step Time =    1.000,"PART-1-1",           615,       8.00489,       17.5473,            0.,NA,NA,"",       1.61151,       1.61060,   54.2333E-03,   1.37986E-06
C:/temp/dataset/4/4_1.odb,Step-1,Increment      1: Step Time =    1.000,"PART-1-1",           616,       8.00828,       15.3576,            0.,NA,NA,"",       1.52177,       1.52074,   55.9408E-03,   4.40563E-06
C:/temp/dataset/4/4_1.odb,Step-1,Increment      1: Step Time =    1.000,"PART-1-1",           617,       11.1265,      -16.2686,            0.,NA,NA,"",   251.021E-03,   248.730E-03,  -33.8434E-03,   2.88220E-03
C:/temp/dataset/4/4_1.odb,Step-1,Increment      1: Step Time =    1.000,"PART-1-1",           618,       9.12111,      -16.3141,            0.,NA,NA,"",   248.966E-03,   247.949E-03,   22.4765E-03,   2.69650E-03
C:/temp/dataset/4/4_1.odb,Step-1,Increment      1: Step Time =    1.000,"PART-1-1",           619,      -9.91602,       15.9767,            0.,NA,NA,"",       1.75027,       1.56280,   788.100E-03,   5.97943E-06
C:/temp/dataset/4/4_1.odb,Step-1,Increment      1: Step Time =    1.000,"PART-1-1",           620,      -10.9598,       15.0860,            0.,NA,NA,"",       1.73906,       1.52769,   830.962E-03,   11.1481E-06
C:/temp/dataset/4/4_1.odb,Step-1,Increment      1: Step Time =    1.000,"PART-1-1",           621,      -8.93702,       14.7598,            0.,NA,NA,"",       1.68841,       1.51289,   749.580E-03,   12.9650E-06
C:/temp/dataset/4/4_1.odb,Step-1,Increment      1: Step Time =    1.000,"PART-1-1",           622,      -13.0880,       4.79273,            0.,NA,NA,"",       1.44870,       1.11480,   925.175E-03,   312.499E-06
C:/temp/dataset/4/4_1.odb,Step-1,Increment      1: Step Time =    1.000,"PART-1-1",           623,          -15.,       4.84375,            0.,NA,NA,"",       1.50119,       1.11846,       1.00131,   252.758E-06
C:/temp/dataset/4/4_1.odb,Step-1,Increment      1: Step Time =    1.000,"PART-1-1",           624,           -5.,       6.04167,            0.,NA,NA,"",       1.30219,       1.15724,   597.074E-03,   227.645E-06
C:/temp/dataset/4/4_1.odb,Step-1,Increment      1: Step Time =    1.000,"PART-1-1",           625,      -7.12843,       5.83601,            0.,NA,NA,"",       1.33863,       1.15079,   683.834E-03,   188.096E-06
C:/temp/dataset/4/4_1.odb,Step-1,Increment      1: Step Time =    1.000,"PART-1-1",           626,       12.9112,      -8.87192,            0.,NA,NA,"",   528.598E-03,   516.178E-03,  -113.911E-03,   2.98734E-03
C:/temp/dataset/4/4_1.odb,Step-1,Increment      1: Step Time =    1.000,"PART-1-1",           627,           15.,         -8.75,            0.,NA,NA,"",   557.596E-03,   522.604E-03,  -194.417E-03,   4.19111E-03
C:/temp/dataset/4/4_1.odb,Step-1,Increment      1: Step Time =    1.000,"PART-1-1",           628,       13.0740,      -16.2399,            0.,NA,NA,"",   267.349E-03,   251.812E-03,  -89.8124E-03,   5.23784E-03
C:/temp/dataset/4/4_1.odb,Step-1,Increment      1: Step Time =    1.000,"PART-1-1",           629,           15.,        -16.25,            0.,NA,NA,"",   295.931E-03,   256.358E-03,  -147.837E-03,   8.19835E-03
C:/temp/dataset/4/4_1.odb,Step-1,Increment      1: Step Time =    1.000,"PART-1-1",           630,       13.0128,       13.9092,            0.,NA,NA,"",       1.46463,       1.45712,  -148.187E-03,   8.61100E-06
C:/temp/dataset/4/4_1.odb,Step-1,Increment      1: Step Time =    1.000,"PART-1-1",           631,           15.,         13.75,            0.,NA,NA,"",       1.46699,       1.44891,  -229.595E-03,   7.37075E-06
C:/temp/dataset/4/4_1.odb,Step-1,Increment      1: Step Time =    1.000,"PART-1-1",           632,       10.9505,       11.7339,            0.,NA,NA,"",       1.37099,       1.36960,  -61.7017E-03,   19.0382E-06
C:/temp/dataset/4/4_1.odb,Step-1,Increment      1: Step Time =    1.000,"PART-1-1",           633,       9.98883,       12.9959,            0.,NA,NA,"",       1.42237,       1.42218,  -23.3162E-03,   12.4660E-06
C:/temp/dataset/4/4_1.odb,Step-1,Increment      1: Step Time =    1.000,"PART-1-1",           634,       8.94372,       11.9797,            0.,NA,NA,"",       1.38150,       1.38135,   20.4307E-03,   18.6162E-06
C:/temp/dataset/4/4_1.odb,Step-1,Increment      1: Step Time =    1.000,"PART-1-1",           635,      -13.9153,       18.9000,            0.,NA,NA,"",       1.93213,       1.68406,   947.147E-03,   358.744E-09
C:/temp/dataset/4/4_1.odb,Step-1,Increment      1: Step Time =    1.000,"PART-1-1",           636,      -12.6393,       19.9841,            0.,NA,NA,"",       1.94483,       1.72678,   894.756E-03,   306.795E-09
C:/temp/dataset/4/4_1.odb,Step-1,Increment      1: Step Time =    1.000,"PART-1-1",           637,          -15.,       20.1563,            0.,NA,NA,"",       1.99810,       1.73565,   989.906E-03,   534.761E-09
C:/temp/dataset/4/4_1.odb,Step-1,Increment      1: Step Time =    1.000,"PART-1-1",           638,       8.12191,      -21.7795,            0.,NA,NA,"",   107.569E-03,   101.850E-03,   34.6061E-03,   4.64911E-03
C:/temp/dataset/4/4_1.odb,Step-1,Increment      1: Step Time =    1.000,"PART-1-1",           639,       8.12482,      -23.8590,            0.,NA,NA,"",   66.1441E-03,   60.5528E-03,   26.6156E-03,   5.03900E-03
C:/temp/dataset/4/4_1.odb,Step-1,Increment      1: Step Time =    1.000,"PART-1-1",           640,       8.11825,      -19.6354,            0.,NA,NA,"",   159.066E-03,   153.476E-03,   41.8000E-03,   4.25249E-03
C:/temp/dataset/4/4_1.odb,Step-1,Increment      1: Step Time =    1.000,"PART-1-1",           641,       8.10952,      -17.4508,            0.,NA,NA,"",   219.921E-03,   214.573E-03,   48.2062E-03,   3.87659E-03
C:/temp/dataset/4/4_1.odb,Step-1,Increment      1: Step Time =    1.000,"PART-1-1",           642,       7.85781,       23.9076,            0.,NA,NA,"",       1.87250,       1.87169,   54.9115E-03,   66.0915E-09
C:/temp/dataset/4/4_1.odb,Step-1,Increment      1: Step Time =    1.000,"PART-1-1",           643,       7.94870,       21.8524,            0.,NA,NA,"",       1.78807,       1.78729,   52.9125E-03,   58.1097E-09
C:/temp/dataset/4/4_1.odb,Step-1,Increment      1: Step Time =    1.000,"PART-1-1",           644,       4.21929,       2.98066,            0.,NA,NA,"",       1.04181,       1.01816,   220.708E-03,   632.972E-06
C:/temp/dataset/4/4_1.odb,Step-1,Increment      1: Step Time =    1.000,"PART-1-1",           645,       5.32392,       3.96649,            0.,NA,NA,"",       1.07143,       1.05706,   174.907E-03,   667.038E-06
C:/temp/dataset/4/4_1.odb,Step-1,Increment      1: Step Time =    1.000,"PART-1-1",           646,          3.75,            5.,            0.,NA,NA,"",       1.12726,       1.10166,   238.869E-03,   797.665E-06
C:/temp/dataset/4/4_1.odb,Step-1,Increment      1: Step Time =    1.000,"PART-1-1",           647,       12.8859,       9.04653,            0.,NA,NA,"",       1.26535,       1.25770,  -138.890E-03,   20.7367E-06
C:/temp/dataset/4/4_1.odb,Step-1,Increment      1: Step Time =    1.000,"PART-1-1",           648,           15.,          8.75,            0.,NA,NA,"",       1.26399,       1.24372,  -225.493E-03,   50.0949E-06
C:/temp/dataset/4/4_1.odb,Step-1,Increment      1: Step Time =    1.000,"PART-1-1",           649,      -8.02807,       9.41948,            0.,NA,NA,"",       1.48183,       1.29664,   717.315E-03,   55.9774E-06
C:/temp/dataset/4/4_1.odb,Step-1,Increment      1: Step Time =    1.000,"PART-1-1",           650,      -8.84347,       16.8085,            0.,NA,NA,"",       1.76050,       1.59551,   744.125E-03,   4.60864E-06
C:/temp/dataset/4/4_1.odb,Step-1,Increment      1: Step Time =    1.000,"PART-1-1",           651,      -9.78583,       18.0165,            0.,NA,NA,"",       1.82109,       1.64503,   781.178E-03,   1.78241E-06
C:/temp/dataset/4/4_1.odb,Step-1,Increment      1: Step Time =    1.000,"PART-1-1",           652,          -15.,       17.9688,            0.,NA,NA,"",       1.92281,       1.64735,   991.691E-03,   184.133E-09
C:/temp/dataset/4/4_1.odb,Step-1,Increment      1: Step Time =    1.000,"PART-1-1",           653,          -15.,       24.5313,            0.,NA,NA,"",       2.15164,       1.91225,   986.339E-03,   155.153E-09
C:/temp/dataset/4/4_1.odb,Step-1,Increment      1: Step Time =    1.000,"PART-1-1",           654,      -12.9952,       24.7258,            0.,NA,NA,"",       2.12133,       1.91847,   905.255E-03,   136.471E-09
C:/temp/dataset/4/4_1.odb,Step-1,Increment      1: Step Time =    1.000,"PART-1-1",           655,      -11.4985,       21.8877,            0.,NA,NA,"",       1.99182,       1.80269,   847.156E-03,   159.807E-09
C:/temp/dataset/4/4_1.odb,Step-1,Increment      1: Step Time =    1.000,"PART-1-1",           656,      -11.4490,       20.6565,            0.,NA,NA,"",       1.94649,       1.75295,   846.159E-03,   210.012E-09
C:/temp/dataset/4/4_1.odb,Step-1,Increment      1: Step Time =    1.000,"PART-1-1",           657,      -10.1446,       20.7260,            0.,NA,NA,"",       1.92575,       1.75470,   793.451E-03,   268.864E-09
C:/temp/dataset/4/4_1.odb,Step-1,Increment      1: Step Time =    1.000,"PART-1-1",           658,      -7.69218,       19.6350,            0.,NA,NA,"",       1.84473,       1.70866,   695.347E-03,   330.268E-09
C:/temp/dataset/4/4_1.odb,Step-1,Increment      1: Step Time =    1.000,"PART-1-1",           659,      -8.68744,       18.7463,            0.,NA,NA,"",       1.82838,       1.67360,   736.245E-03,   1.31503E-06
C:/temp/dataset/4/4_1.odb,Step-1,Increment      1: Step Time =    1.000,"PART-1-1",           660,      -7.82721,       17.7030,            0.,NA,NA,"",       1.77561,       1.63079,   702.373E-03,   1.80489E-06
C:/temp/dataset/4/4_1.odb,Step-1,Increment      1: Step Time =    1.000,"PART-1-1",           661,      -9.52114,       19.8817,            0.,NA,NA,"",       1.88417,       1.72010,   768.972E-03,   437.136E-09
C:/temp/dataset/4/4_1.odb,Step-1,Increment      1: Step Time =    1.000,"PART-1-1",           662,      -10.6195,       19.1519,            0.,NA,NA,"",       1.87717,       1.69154,   813.904E-03,   1.01407E-06
C:/temp/dataset/4/4_1.odb,Step-1,Increment      1: Step Time =    1.000,"PART-1-1",           663,      -12.1485,       3.78191,            0.,NA,NA,"",       1.39323,       1.07348,   888.103E-03,   534.465E-06
C:/temp/dataset/4/4_1.odb,Step-1,Increment      1: Step Time =    1.000,"PART-1-1",           664,      -10.9850,       2.86362,            0.,NA,NA,"",       1.33419,       1.03516,   841.726E-03,   650.392E-06
C:/temp/dataset/4/4_1.odb,Step-1,Increment      1: Step Time =    1.000,"PART-1-1",           665,      -9.06958,       8.49577,            0.,NA,NA,"",       1.47172,       1.26017,   760.217E-03,   61.3425E-06
C:/temp/dataset/4/4_1.odb,Step-1,Increment      1: Step Time =    1.000,"PART-1-1",           666,      -8.08215,       7.28595,            0.,NA,NA,"",       1.40909,       1.21048,   721.310E-03,   51.9252E-06
C:/temp/dataset/4/4_1.odb,Step-1,Increment      1: Step Time =    1.000,"PART-1-1",           667,      -10.1292,       7.60955,            0.,NA,NA,"",       1.46537,       1.22525,   803.778E-03,   62.9706E-06
C:/temp/dataset/4/4_1.odb,Step-1,Increment      1: Step Time =    1.000,"PART-1-1",           668,      -11.2104,       6.77234,            0.,NA,NA,"",       1.46325,       1.19241,   848.090E-03,   89.5968E-06
C:/temp/dataset/4/4_1.odb,Step-1,Increment      1: Step Time =    1.000,"PART-1-1",           669,      -10.2942,       5.63122,            0.,NA,NA,"",       1.40426,       1.14564,   812.072E-03,   186.812E-06
C:/temp/dataset/4/4_1.odb,Step-1,Increment      1: Step Time =    1.000,"PART-1-1",           670,      -9.21309,       6.46842,            0.,NA,NA,"",       1.40643,       1.17840,   767.733E-03,   123.323E-06
C:/temp/dataset/4/4_1.odb,Step-1,Increment      1: Step Time =    1.000,"PART-1-1",           671,        -11.25,           -5.,            0.,NA,NA,"",       1.11659,   717.806E-03,   855.294E-03,   1.10561E-03
C:/temp/dataset/4/4_1.odb,Step-1,Increment      1: Step Time =    1.000,"PART-1-1",           672,      -10.0273,      -3.93877,            0.,NA,NA,"",       1.10652,   758.522E-03,   805.626E-03,   1.10988E-03
C:/temp/dataset/4/4_1.odb,Step-1,Increment      1: Step Time =    1.000,"PART-1-1",           673,         -8.75,           -5.,            0.,NA,NA,"",       1.03809,   713.172E-03,   754.333E-03,   1.18737E-03
C:/temp/dataset/4/4_1.odb,Step-1,Increment      1: Step Time =    1.000,"PART-1-1",           674,      -7.59562,      -4.02918,            0.,NA,NA,"",       1.03120,   750.404E-03,   707.299E-03,   1.14795E-03
C:/temp/dataset/4/4_1.odb,Step-1,Increment      1: Step Time =    1.000,"PART-1-1",           675,      -8.87289,      -2.96795,            0.,NA,NA,"",       1.09950,   795.809E-03,   758.670E-03,   1.07454E-03
C:/temp/dataset/4/4_1.odb,Step-1,Increment      1: Step Time =    1.000,"PART-1-1",           676,         -6.25,           -5.,            0.,NA,NA,"",   963.426E-03,   708.390E-03,   652.973E-03,   1.22051E-03
C:/temp/dataset/4/4_1.odb,Step-1,Increment      1: Step Time =    1.000,"PART-1-1",           677,      -5.03874,      -3.83161,            0.,NA,NA,"",   965.459E-03,   753.707E-03,   603.355E-03,   1.14002E-03
C:/temp/dataset/4/4_1.odb,Step-1,Increment      1: Step Time =    1.000,"PART-1-1",           678,      -6.38435,      -2.86079,            0.,NA,NA,"",       1.03238,   795.713E-03,   657.764E-03,   1.06984E-03
C:/temp/dataset/4/4_1.odb,Step-1,Increment      1: Step Time =    1.000,"PART-1-1",           679,      -8.31216,       1.98044,            0.,NA,NA,"",       1.23702,   995.642E-03,   734.104E-03,   733.568E-06
C:/temp/dataset/4/4_1.odb,Step-1,Increment      1: Step Time =    1.000,"PART-1-1",           680,      -6.89941,       1.67561,            0.,NA,NA,"",       1.19199,   981.139E-03,   676.906E-03,   780.629E-06
C:/temp/dataset/4/4_1.odb,Step-1,Increment      1: Step Time =    1.000,"PART-1-1",           681,      -8.02347,       3.70061,            0.,NA,NA,"",       1.28641,       1.06502,   721.526E-03,   527.657E-06
C:/temp/dataset/4/4_1.odb,Step-1,Increment      1: Step Time =    1.000,"PART-1-1",           682,      -9.78636,       2.36681,            0.,NA,NA,"",       1.28718,       1.01344,   793.580E-03,   717.148E-06
C:/temp/dataset/4/4_1.odb,Step-1,Increment      1: Step Time =    1.000,"PART-1-1",           683,      -8.80920,   354.969E-03,            0.,NA,NA,"",       1.19823,   930.522E-03,   754.913E-03,   900.028E-06
C:/temp/dataset/4/4_1.odb,Step-1,Increment      1: Step Time =    1.000,"PART-1-1",           684,         -3.75,           -5.,            0.,NA,NA,"",   893.753E-03,   703.562E-03,   551.176E-03,   1.22765E-03
C:/temp/dataset/4/4_1.odb,Step-1,Increment      1: Step Time =    1.000,"PART-1-1",           685,          3.75,           -5.,            0.,NA,NA,"",   729.681E-03,   688.033E-03,   242.990E-03,   1.68252E-03
C:/temp/dataset/4/4_1.odb,Step-1,Increment      1: Step Time =    1.000,"PART-1-1",           686,       4.46580,      -3.87501,            0.,NA,NA,"",   764.172E-03,   734.002E-03,   212.602E-03,   1.43545E-03
C:/temp/dataset/4/4_1.odb,Step-1,Increment      1: Step Time =    1.000,"PART-1-1",           687,       2.90021,      -2.90757,            0.,NA,NA,"",   825.269E-03,   777.191E-03,   277.565E-03,   930.045E-06
C:/temp/dataset/4/4_1.odb,Step-1,Increment      1: Step Time =    1.000,"PART-1-1",           688,       11.1618,       2.81075,            0.,NA,NA,"",       1.00422,       1.00225,  -62.8514E-03,   400.165E-06
C:/temp/dataset/4/4_1.odb,Step-1,Increment      1: Step Time =    1.000,"PART-1-1",           689,       10.1850,       1.50626,            0.,NA,NA,"",   949.293E-03,   949.039E-03,  -21.9921E-03,   726.759E-06
C:/temp/dataset/4/4_1.odb,Step-1,Increment      1: Step Time =    1.000,"PART-1-1",           690,       11.6421,   144.368E-03,            0.,NA,NA,"",   894.209E-03,   890.615E-03,  -80.0943E-03,   816.029E-06
C:/temp/dataset/4/4_1.odb,Step-1,Increment      1: Step Time =    1.000,"PART-1-1",           691,         11.25,           30.,            0.,NA,NA,"",       2.12070,       2.11882,  -89.4055E-03,   18.5927E-09
C:/temp/dataset/4/4_1.odb,Step-1,Increment      1: Step Time =    1.000,"PART-1-1",           692,       9.19768,       26.3844,            0.,NA,NA,"",       1.97219,       1.97219,  -2.15113E-03,   42.1015E-09
C:/temp/dataset/4/4_1.odb,Step-1,Increment      1: Step Time =    1.000,"PART-1-1",           693,       7.72138,       25.7435,            0.,NA,NA,"",       1.94803,       1.94714,   58.9631E-03,   47.9319E-09
C:/temp/dataset/4/4_1.odb,Step-1,Increment      1: Step Time =    1.000,"PART-1-1",           694,       9.17897,      -24.8987,            0.,NA,NA,"",   42.6837E-03,   41.5749E-03,   9.66578E-03,   3.19000E-03
C:/temp/dataset/4/4_1.odb,Step-1,Increment      1: Step Time =    1.000,"PART-1-1",           695,       9.00589,       18.6572,            0.,NA,NA,"",       1.65534,       1.65529,   12.2257E-03,   1.03776E-06
C:/temp/dataset/4/4_1.odb,Step-1,Increment      1: Step Time =    1.000,"PART-1-1",           696,       7.99757,       19.7140,            0.,NA,NA,"",       1.70032,       1.69950,   52.7084E-03,   292.986E-09
C:/temp/dataset/4/4_1.odb,Step-1,Increment      1: Step Time =    1.000,"PART-1-1",           697,      -12.2498,       25.7751,            0.,NA,NA,"",       2.14636,       1.96022,   874.311E-03,   92.9545E-09
C:/temp/dataset/4/4_1.odb,Step-1,Increment      1: Step Time =    1.000,"PART-1-1",           698,      -11.9888,       23.9538,            0.,NA,NA,"",       2.07545,       1.88649,   865.260E-03,   148.409E-09
C:/temp/dataset/4/4_1.odb,Step-1,Increment      1: Step Time =    1.000,"PART-1-1",           699,      -1.59164,      -1.60220,            0.,NA,NA,"",   957.484E-03,   838.780E-03,   461.762E-03,   942.866E-06
C:/temp/dataset/4/4_1.odb,Step-1,Increment      1: Step Time =    1.000,"PART-1-1",           700,      -1.34014,  -343.401E-03,            0.,NA,NA,"",   997.701E-03,   890.008E-03,   450.880E-03,   848.360E-06
C:/temp/dataset/4/4_1.odb,Step-1,Increment      1: Step Time =    1.000,"PART-1-1",           701,      -2.70787,  -93.9540E-03,            0.,NA,NA,"",       1.03497,   902.416E-03,   506.761E-03,   843.411E-06
C:/temp/dataset/4/4_1.odb,Step-1,Increment      1: Step Time =    1.000,"PART-1-1",           702,       8.06015,      -13.0184,            0.,NA,NA,"",   365.619E-03,   360.819E-03,   59.0518E-03,   3.16192E-03
C:/temp/dataset/4/4_1.odb,Step-1,Increment      1: Step Time =    1.000,"PART-1-1",           703,       7.99745,      -10.7906,            0.,NA,NA,"",   448.194E-03,   443.553E-03,   64.3312E-03,   2.82734E-03
C:/temp/dataset/4/4_1.odb,Step-1,Increment      1: Step Time =    1.000,"PART-1-1",           704,           15.,        -26.25,            0.,NA,NA,"",   61.2462E-03,   37.1601E-03,  -48.6850E-03,   13.3216E-03
C:/temp/dataset/4/4_1.odb,Step-1,Increment      1: Step Time =    1.000,"PART-1-1",           705,       13.9776,      -24.8045,            0.,NA,NA,"",   71.8620E-03,   51.2311E-03,  -50.3937E-03,   10.0985E-03
C:/temp/dataset/4/4_1.odb,Step-1,Increment      1: Step Time =    1.000,"PART-1-1",           706,       12.6094,      -25.9010,            0.,NA,NA,"",   39.5297E-03,   30.6312E-03,  -24.9865E-03,   7.11649E-03
C:/temp/dataset/4/4_1.odb,Step-1,Increment      1: Step Time =    1.000,"PART-1-1",           707,       12.0224,      -24.3398,            0.,NA,NA,"",   58.4474E-03,   52.0249E-03,  -26.6366E-03,   5.51676E-03
C:/temp/dataset/4/4_1.odb,Step-1,Increment      1: Step Time =    1.000,"PART-1-1",           708,       13.0263,      -23.4242,            0.,NA,NA,"",   84.7214E-03,   70.6184E-03,  -46.8056E-03,   7.40957E-03
C:/temp/dataset/4/4_1.odb,Step-1,Increment      1: Step Time =    1.000,"PART-1-1",           709,       12.1300,      -22.1112,            0.,NA,NA,"",   101.909E-03,   94.3153E-03,  -38.6021E-03,   5.11776E-03
C:/temp/dataset/4/4_1.odb,Step-1,Increment      1: Step Time =    1.000,"PART-1-1",           710,           15.,        -23.75,            0.,NA,NA,"",   106.265E-03,   73.1811E-03,  -77.0510E-03,   12.0000E-03
C:/temp/dataset/4/4_1.odb,Step-1,Increment      1: Step Time =    1.000,"PART-1-1",           711,       10.9035,      -9.09896,            0.,NA,NA,"",   508.565E-03,   507.019E-03,  -39.6228E-03,   2.43169E-03
C:/temp/dataset/4/4_1.odb,Step-1,Increment      1: Step Time =    1.000,"PART-1-1",           712,       9.82794,      -8.10226,            0.,NA,NA,"",   547.582E-03,   547.580E-03,  -1.34530E-03,   2.26661E-03
C:/temp/dataset/4/4_1.odb,Step-1,Increment      1: Step Time =    1.000,"PART-1-1",           713,       8.90728,      -9.48784,            0.,NA,NA,"",   494.067E-03,   492.982E-03,   32.7185E-03,   2.42029E-03
C:/temp/dataset/4/4_1.odb,Step-1,Increment      1: Step Time =    1.000,"PART-1-1",           714,           15.,         -1.25,            0.,NA,NA,"",   857.597E-03,   829.917E-03,  -216.127E-03,   786.090E-06
C:/temp/dataset/4/4_1.odb,Step-1,Increment      1: Step Time =    1.000,"PART-1-1",           715,       12.7555,      -1.12336,            0.,NA,NA,"",   845.675E-03,   836.547E-03,  -123.918E-03,   1.00684E-03
C:/temp/dataset/4/4_1.odb,Step-1,Increment      1: Step Time =    1.000,"PART-1-1",           716,       11.5680,       5.48707,            0.,NA,NA,"",       1.11550,       1.11251,  -81.7279E-03,   95.5751E-06
C:/temp/dataset/4/4_1.odb,Step-1,Increment      1: Step Time =    1.000,"PART-1-1",           717,       10.1222,       4.29256,            0.,NA,NA,"",       1.06484,       1.06463,  -21.4676E-03,   303.597E-06
C:/temp/dataset/4/4_1.odb,Step-1,Increment      1: Step Time =    1.000,"PART-1-1",           718,       8.27918,   509.070E-03,            0.,NA,NA,"",   911.658E-03,   909.938E-03,   55.9765E-03,   1.01240E-03
C:/temp/dataset/4/4_1.odb,Step-1,Increment      1: Step Time =    1.000,"PART-1-1",           719,       9.70893,  -124.236E-03,            0.,NA,NA,"",   881.493E-03,   881.492E-03,  -1.61843E-03,   1.05807E-03
C:/temp/dataset/4/4_1.odb,Step-1,Increment      1: Step Time =    1.000,"PART-1-1",           720,       8.75521,       2.13956,            0.,NA,NA,"",   977.766E-03,   977.110E-03,   35.8151E-03,   684.700E-06
C:/temp/dataset/4/4_1.odb,Step-1,Increment      1: Step Time =    1.000,"PART-1-1",           721,       6.99874,       4.90963,            0.,NA,NA,"",       1.09854,       1.09342,   105.962E-03,   368.126E-06
C:/temp/dataset/4/4_1.odb,Step-1,Increment      1: Step Time =    1.000,"PART-1-1",           722,       8.01086,       5.41567,            0.,NA,NA,"",       1.11487,       1.11302,   64.1798E-03,   252.035E-06
C:/temp/dataset/4/4_1.odb,Step-1,Increment      1: Step Time =    1.000,"PART-1-1",           723,       11.8045,       7.99587,            0.,NA,NA,"",       1.21907,       1.21548,  -93.5712E-03,   19.3368E-06
C:/temp/dataset/4/4_1.odb,Step-1,Increment      1: Step Time =    1.000,"PART-1-1",           724,       7.91904,       10.9856,            0.,NA,NA,"",       1.34290,       1.34141,   63.3082E-03,   21.2770E-06
C:/temp/dataset/4/4_1.odb,Step-1,Increment      1: Step Time =    1.000,"PART-1-1",           725,       11.0233,       18.7016,            0.,NA,NA,"",       1.65692,       1.65542,  -70.5905E-03,   1.00899E-06
C:/temp/dataset/4/4_1.odb,Step-1,Increment      1: Step Time =    1.000,"PART-1-1",           726,       10.0074,       19.8076,            0.,NA,NA,"",       1.70192,       1.70165,  -29.8383E-03,   340.180E-09
C:/temp/dataset/4/4_1.odb,Step-1,Increment      1: Step Time =    1.000,"PART-1-1",           727,       10.9673,       21.0105,            0.,NA,NA,"",       1.75161,       1.75020,  -70.2349E-03,   179.763E-09
C:/temp/dataset/4/4_1.odb,Step-1,Increment      1: Step Time =    1.000,"PART-1-1",           728,       8.97465,       20.8454,            0.,NA,NA,"",       1.74514,       1.74511,   11.6646E-03,   205.918E-09
C:/temp/dataset/4/4_1.odb,Step-1,Increment      1: Step Time =    1.000,"PART-1-1",           729,       8.66510,       24.8184,            0.,NA,NA,"",       1.90850,       1.90838,   21.0202E-03,   61.2427E-09
C:/temp/dataset/4/4_1.odb,Step-1,Increment      1: Step Time =    1.000,"PART-1-1",           730,       7.98376,       13.1681,            0.,NA,NA,"",       1.43212,       1.43092,   58.7978E-03,   10.9986E-06
C:/temp/dataset/4/4_1.odb,Step-1,Increment      1: Step Time =    1.000,"PART-1-1",           731,      -1.95806,       1.80915,            0.,NA,NA,"",       1.08836,   979.184E-03,   475.108E-03,   734.263E-06
C:/temp/dataset/4/4_1.odb,Step-1,Increment      1: Step Time =    1.000,"PART-1-1",           732,  -613.587E-03,   828.335E-03,            0.,NA,NA,"",       1.02698,   936.942E-03,   420.500E-03,   766.310E-06
C:/temp/dataset/4/4_1.odb,Step-1,Increment      1: Step Time =    1.000,"PART-1-1",           733,   461.223E-03,       1.99751,            0.,NA,NA,"",       1.05265,   983.302E-03,   375.745E-03,   720.808E-06
C:/temp/dataset/4/4_1.odb,Step-1,Increment      1: Step Time =    1.000,"PART-1-1",           734,       1.74006,       1.04512,            0.,NA,NA,"",   996.300E-03,   942.261E-03,   323.662E-03,   743.729E-06
C:/temp/dataset/4/4_1.odb,Step-1,Increment      1: Step Time =    1.000,"PART-1-1",           735,   906.022E-03,  -39.5003E-03,            0.,NA,NA,"",   967.797E-03,   898.941E-03,   358.520E-03,   791.989E-06
C:/temp/dataset/4/4_1.odb,Step-1,Increment      1: Step Time =    1.000,"PART-1-1",           736,       2.15034,  -968.542E-03,            0.,NA,NA,"",   912.189E-03,   858.704E-03,   307.759E-03,   852.671E-06
C:/temp/dataset/4/4_1.odb,Step-1,Increment      1: Step Time =    1.000,"PART-1-1",           737,       2.98438,   116.081E-03,            0.,NA,NA,"",   942.474E-03,   902.101E-03,   272.892E-03,   805.679E-06
C:/temp/dataset/4/4_1.odb,Step-1,Increment      1: Step Time =    1.000,"PART-1-1",           738,      -8.25937,       5.01848,            0.,NA,NA,"",       1.33600,       1.11877,   730.249E-03,   301.437E-06
C:/temp/dataset/4/4_1.odb,Step-1,Increment      1: Step Time =    1.000,"PART-1-1",           739,      -2.78312,       1.01462,            0.,NA,NA,"",       1.07606,   947.899E-03,   509.296E-03,   770.083E-06
C:/temp/dataset/4/4_1.odb,Step-1,Increment      1: Step Time =    1.000,"PART-1-1",           740,      -4.31499,   913.536E-03,            0.,NA,NA,"",       1.10557,   946.126E-03,   571.958E-03,   794.998E-06
C:/temp/dataset/4/4_1.odb,Step-1,Increment      1: Step Time =    1.000,"PART-1-1",           741,      -4.23975,  -195.042E-03,            0.,NA,NA,"",       1.06562,   900.742E-03,   569.399E-03,   870.324E-06
C:/temp/dataset/4/4_1.odb,Step-1,Increment      1: Step Time =    1.000,"PART-1-1",           742,      -8.52646,       20.5688,            0.,NA,NA,"",       1.89275,       1.74703,   728.262E-03,   268.111E-09
C:/temp/dataset/4/4_1.odb,Step-1,Increment      1: Step Time =    1.000,"PART-1-1",           743,       8.09873,      -15.2435,            0.,NA,NA,"",   289.029E-03,   283.999E-03,   53.6850E-03,   3.50587E-03
C:/temp/dataset/4/4_1.odb,Step-1,Increment      1: Step Time =    1.000,"PART-1-1",           744,       8.99676,       14.2096,            0.,NA,NA,"",       1.47290,       1.47281,   16.3566E-03,   9.29892E-06
C:/temp/dataset/4/4_1.odb,Step-1,Increment      1: Step Time =    1.000,"PART-1-1",           745,       11.0169,       14.0599,            0.,NA,NA,"",       1.46648,       1.46498,  -66.4082E-03,   9.51177E-06
C:/temp/dataset/4/4_1.odb,Step-1,Increment      1: Step Time =    1.000,"PART-1-1",           746,      -7.91902,       15.6847,            0.,NA,NA,"",       1.70338,       1.54940,   707.726E-03,   6.14307E-06
C:/temp/dataset/4/4_1.odb,Step-1,Increment      1: Step Time =    1.000,"PART-1-1",           747,      -11.9968,       14.1876,            0.,NA,NA,"",       1.72914,       1.49226,   873.553E-03,   12.7491E-06
C:/temp/dataset/4/4_1.odb,Step-1,Increment      1: Step Time =    1.000,"PART-1-1",           748,      -11.1175,       8.79310,            0.,NA,NA,"",       1.52727,       1.27379,   842.616E-03,   62.7546E-06
C:/temp/dataset/4/4_1.odb,Step-1,Increment      1: Step Time =    1.000,"PART-1-1",           749,       10.6592,      -6.44981,            0.,NA,NA,"",   615.712E-03,   614.765E-03,  -34.1350E-03,   2.27338E-03
C:/temp/dataset/4/4_1.odb,Step-1,Increment      1: Step Time =    1.000,"PART-1-1",           750,      -10.7894,       23.3985,            0.,NA,NA,"",       2.03448,       1.86310,   817.300E-03,   177.961E-09
C:/temp/dataset/4/4_1.odb,Step-1,Increment      1: Step Time =    1.000,"PART-1-1",           751,       10.0228,      -25.8019,            0.,NA,NA,"",   28.1925E-03,   28.1921E-03,  -146.309E-06,   2.33775E-03
C:/temp/dataset/4/4_1.odb,Step-1,Increment      1: Step Time =    1.000,"PART-1-1",           752,       10.9542,      -24.8826,            0.,NA,NA,"",   43.1929E-03,   41.7121E-03,  -11.2128E-03,   3.28804E-03
C:/temp/dataset/4/4_1.odb,Step-1,Increment      1: Step Time =    1.000,"PART-1-1",           753,       11.8371,      -2.37854,            0.,NA,NA,"",   789.111E-03,   784.492E-03,  -85.2528E-03,   1.34610E-03
C:/temp/dataset/4/4_1.odb,Step-1,Increment      1: Step Time =    1.000,"PART-1-1",           754,       11.6235,      -5.02753,            0.,NA,NA,"",   677.363E-03,   673.395E-03,  -73.2083E-03,   1.95142E-03
C:/temp/dataset/4/4_1.odb,Step-1,Increment      1: Step Time =    1.000,"PART-1-1",           755,      -12.1333,       7.86930,            0.,NA,NA,"",       1.52087,       1.23734,   884.317E-03,   55.8523E-06
C:/temp/dataset/4/4_1.odb,Step-1,Increment      1: Step Time =    1.000,"PART-1-1",           756,      -12.0768,       9.95169,            0.,NA,NA,"",       1.58768,       1.32130,   880.290E-03,   51.0215E-06
C:/temp/dataset/4/4_1.odb,Step-1,Increment      1: Step Time =    1.000,"PART-1-1",           757,       8.68743,       3.64563,            0.,NA,NA,"",       1.04019,       1.03950,   37.6829E-03,   443.214E-06
C:/temp/dataset/4/4_1.odb,Step-1,Increment      1: Step Time =    1.000,"PART-1-1",           758,       6.61848,       3.66599,            0.,NA,NA,"",       1.05010,       1.04297,   122.212E-03,   579.992E-06
C:/temp/dataset/4/4_1.odb,Step-1,Increment      1: Step Time =    1.000,"PART-1-1",           759,       4.71579,   65.6079E-03,            0.,NA,NA,"",   919.612E-03,   897.234E-03,   201.636E-03,   897.369E-06
C:/temp/dataset/4/4_1.odb,Step-1,Increment      1: Step Time =    1.000,"PART-1-1",           760,       3.89104,   957.250E-03,            0.,NA,NA,"",   964.490E-03,   935.371E-03,   235.207E-03,   777.366E-06
C:/temp/dataset/4/4_1.odb,Step-1,Increment      1: Step Time =    1.000,"PART-1-1",           761,      -12.0363,       12.0623,            0.,NA,NA,"",       1.65745,       1.40648,   876.898E-03,   29.5144E-06
C:/temp/dataset/4/4_1.odb,Step-1,Increment      1: Step Time =    1.000,"PART-1-1",           762,      -12.1964,       5.82098,            0.,NA,NA,"",       1.45728,       1.15503,   888.571E-03,   116.682E-06
C:/temp/dataset/4/4_1.odb,Step-1,Increment      1: Step Time =    1.000,"PART-1-1",           763,      -11.2570,       4.81016,            0.,NA,NA,"",       1.40186,       1.11361,   851.515E-03,   316.652E-06
C:/temp/dataset/4/4_1.odb,Step-1,Increment      1: Step Time =    1.000,"PART-1-1",           764,      -10.5260,       3.94381,            0.,NA,NA,"",       1.35599,       1.07798,   822.602E-03,   464.540E-06
C:/temp/dataset/4/4_1.odb,Step-1,Increment      1: Step Time =    1.000,"PART-1-1",           765,      -9.56326,       4.76486,            0.,NA,NA,"",       1.35843,       1.10994,   783.177E-03,   330.241E-06
C:/temp/dataset/4/4_1.odb,Step-1,Increment      1: Step Time =    1.000,"PART-1-1",           766,      -9.32737,       3.44699,            0.,NA,NA,"",       1.30990,       1.05643,   774.463E-03,   539.794E-06
C:/temp/dataset/4/4_1.odb,Step-1,Increment      1: Step Time =    1.000,"PART-1-1",           767,       11.5413,      -26.4438,            0.,NA,NA,"",   25.0956E-03,   21.6956E-03,  -12.6131E-03,   4.57329E-03
C:/temp/dataset/4/4_1.odb,Step-1,Increment      1: Step Time =    1.000,"PART-1-1",           768,       5.97241,      -3.36228,            0.,NA,NA,"",   766.812E-03,   752.038E-03,   149.798E-03,   2.03001E-03
C:/temp/dataset/4/4_1.odb,Step-1,Increment      1: Step Time =    1.000,"PART-1-1",           769,       11.9304,       22.2704,            0.,NA,NA,"",       1.80449,       1.80109,  -110.813E-03,   65.9146E-09
C:/temp/dataset/4/4_1.odb,Step-1,Increment      1: Step Time =    1.000,"PART-1-1",           770,      -3.95064,       2.12654,            0.,NA,NA,"",       1.14014,   995.124E-03,   556.467E-03,   700.360E-06
C:/temp/dataset/4/4_1.odb,Step-1,Increment      1: Step Time =    1.000,"PART-1-1",           771,       12.1361,      -19.7979,            0.,NA,NA,"",   156.349E-03,   148.544E-03,  -48.7818E-03,   4.65398E-03
C:/temp/dataset/4/4_1.odb,Step-1,Increment      1: Step Time =    1.000,"PART-1-1",           772,       12.1156,      -17.4436,            0.,NA,NA,"",   221.261E-03,   213.628E-03,  -57.6135E-03,   4.14446E-03
C:/temp/dataset/4/4_1.odb,Step-1,Increment      1: Step Time =    1.000,"PART-1-1",           773,       11.8489,      -7.73518,            0.,NA,NA,"",   566.861E-03,   561.605E-03,  -77.0158E-03,   2.39038E-03
C:/temp/dataset/4/4_1.odb,Step-1,Increment      1: Step Time =    1.000,"PART-1-1",           774,       11.9658,      -10.2357,            0.,NA,NA,"",   468.577E-03,   462.447E-03,  -75.5453E-03,   2.76817E-03
C:/temp/dataset/4/4_1.odb,Step-1,Increment      1: Step Time =    1.000,"PART-1-1",           775,       10.7237,      -1.11081,            0.,NA,NA,"",   839.916E-03,   838.873E-03,  -41.8458E-03,   1.23091E-03
C:/temp/dataset/4/4_1.odb,Step-1,Increment      1: Step Time =    1.000,"PART-1-1",           776,       11.9194,       10.4262,            0.,NA,NA,"",       1.31896,       1.31514,  -100.360E-03,   21.5521E-06
C:/temp/dataset/4/4_1.odb,Step-1,Increment      1: Step Time =    1.000,"PART-1-1",           777,       11.9945,       12.8006,            0.,NA,NA,"",       1.41643,       1.41249,  -105.461E-03,   11.8802E-06
C:/temp/dataset/4/4_1.odb,Step-1,Increment      1: Step Time =    1.000,"PART-1-1",           778,       12.0317,      -12.6649,            0.,NA,NA,"",   378.276E-03,   371.525E-03,  -71.1447E-03,   3.18257E-03
C:/temp/dataset/4/4_1.odb,Step-1,Increment      1: Step Time =    1.000,"PART-1-1",           779,       12.0352,       15.1685,            0.,NA,NA,"",       1.51354,       1.50960,  -109.131E-03,   4.67342E-06
C:/temp/dataset/4/4_1.odb,Step-1,Increment      1: Step Time =    1.000,"PART-1-1",           780,      -7.80161,      -2.23284,            0.,NA,NA,"",       1.09082,   823.762E-03,   715.057E-03,   1.03961E-03
C:/temp/dataset/4/4_1.odb,Step-1,Increment      1: Step Time =    1.000,"PART-1-1",           781,      -8.87876,  -905.543E-03,            0.,NA,NA,"",       1.16121,   879.512E-03,   758.197E-03,   977.765E-06
C:/temp/dataset/4/4_1.odb,Step-1,Increment      1: Step Time =    1.000,"PART-1-1",           782,      -7.16649,      -1.00336,            0.,NA,NA,"",       1.11177,   872.644E-03,   688.856E-03,   959.730E-06
C:/temp/dataset/4/4_1.odb,Step-1,Increment      1: Step Time =    1.000,"PART-1-1",           783,      -7.09692,   257.153E-03,            0.,NA,NA,"",       1.15036,   923.779E-03,   685.539E-03,   877.138E-06
C:/temp/dataset/4/4_1.odb,Step-1,Increment      1: Step Time =    1.000,"PART-1-1",           784,      -5.74923,      -1.63131,            0.,NA,NA,"",       1.05464,   844.672E-03,   631.500E-03,   990.928E-06
C:/temp/dataset/4/4_1.odb,Step-1,Increment      1: Step Time =    1.000,"PART-1-1",           785,      -5.66693,  -67.3201E-03,            0.,NA,NA,"",       1.10396,   908.260E-03,   627.524E-03,   879.996E-06
C:/temp/dataset/4/4_1.odb,Step-1,Increment      1: Step Time =    1.000,"PART-1-1",           786,      -5.46941,       1.35113,            0.,NA,NA,"",       1.14701,   965.748E-03,   618.845E-03,   772.227E-06
C:/temp/dataset/4/4_1.odb,Step-1,Increment      1: Step Time =    1.000,"PART-1-1",           787,       12.0849,      -15.0650,            0.,NA,NA,"",   295.610E-03,   288.321E-03,  -65.2397E-03,   3.65347E-03
C:/temp/dataset/4/4_1.odb,Step-1,Increment      1: Step Time =    1.000,"PART-1-1",           788,       7.01212,      -4.44648,            0.,NA,NA,"",   711.845E-03,   703.777E-03,   106.866E-03,   2.36824E-03
C:/temp/dataset/4/4_1.odb,Step-1,Increment      1: Step Time =    1.000,"PART-1-1",           789,       7.64174,      -3.33281,            0.,NA,NA,"",   754.201E-03,   749.716E-03,   82.1334E-03,   2.04078E-03
C:/temp/dataset/4/4_1.odb,Step-1,Increment      1: Step Time =    1.000,"PART-1-1",           790,       6.60203,      -2.24861,            0.,NA,NA,"",   807.157E-03,   797.506E-03,   124.440E-03,   1.59566E-03
C:/temp/dataset/4/4_1.odb,Step-1,Increment      1: Step Time =    1.000,"PART-1-1",           791,       6.68626,       2.15992,            0.,NA,NA,"",   988.137E-03,   980.801E-03,   120.180E-03,   761.695E-06
C:/temp/dataset/4/4_1.odb,Step-1,Increment      1: Step Time =    1.000,"PART-1-1",           792,       12.0103,       19.9021,            0.,NA,NA,"",       1.70753,       1.70385,  -112.098E-03,   239.310E-09
C:/temp/dataset/4/4_1.odb,Step-1,Increment      1: Step Time =    1.000,"PART-1-1",           793,       12.0305,       17.5416,            0.,NA,NA,"",       1.61080,       1.60697,  -110.940E-03,   1.34568E-06
C:/temp/dataset/4/4_1.odb,Step-1,Increment      1: Step Time =    1.000,"PART-1-1",           794,       6.09271,      -1.14349,            0.,NA,NA,"",   857.089E-03,   844.675E-03,   145.347E-03,   1.27750E-03
C:/temp/dataset/4/4_1.odb,Step-1,Increment      1: Step Time =    1.000,"PART-1-1",           795,       7.56053,      -1.65505,            0.,NA,NA,"",   825.032E-03,   820.578E-03,   85.6128E-03,   1.52325E-03
C:/temp/dataset/4/4_1.odb,Step-1,Increment      1: Step Time =    1.000,"PART-1-1",           796,       7.05122,  -549.935E-03,            0.,NA,NA,"",   874.182E-03,   867.710E-03,   106.175E-03,   1.21736E-03
C:/temp/dataset/4/4_1.odb,Step-1,Increment      1: Step Time =    1.000,"PART-1-1",           797,       5.28588,       1.87348,            0.,NA,NA,"",   987.142E-03,   971.041E-03,   177.565E-03,   745.631E-06
C:/temp/dataset/4/4_1.odb,Step-1,Increment      1: Step Time =    1.000,"PART-1-1",           798,       5.70847,   325.226E-03,            0.,NA,NA,"",   920.514E-03,   906.357E-03,   160.823E-03,   957.993E-06
C:/temp/dataset/4/4_1.odb,Step-1,Increment      1: Step Time =    1.000,"PART-1-1",           799,       7.10885,   611.668E-03,            0.,NA,NA,"",   921.822E-03,   915.988E-03,   103.541E-03,   979.417E-06
C:/temp/dataset/4/4_1.odb,Step-1,Increment      1: Step Time =    1.000,"PART-1-1",           800,       9.00326,      -1.31280,            0.,NA,NA,"",   833.036E-03,   832.585E-03,   27.3956E-03,   1.41771E-03
C:/temp/dataset/4/4_1.odb,Step-1,Increment      1: Step Time =    1.000,"PART-1-1",           801,       8.22155,  -652.532E-03,            0.,NA,NA,"",   863.484E-03,   861.486E-03,   58.7094E-03,   1.24397E-03
C:/temp/dataset/4/4_1.odb,Step-1,Increment      1: Step Time =    1.000,"PART-1-1",           802,       8.34224,      -2.31533,            0.,NA,NA,"",   793.281E-03,   791.430E-03,   54.1618E-03,   1.68622E-03
C:/temp/dataset/4/4_1.odb,Step-1,Increment      1: Step Time =    1.000,"PART-1-1",           803,       2.82445,       2.06443,            0.,NA,NA,"",       1.02126,   982.544E-03,   278.523E-03,   711.548E-06
