ODB Name,Step,Frame,Part Instance Name,    êﬂì_ÉâÉxÉã,X,Y,Z,Section Name,Material Name,Section Point,   U-Magnitude,          U-U1,          U-U2,       S-Mises
C:/temp/dataset/4/5_3.odb,Step-1,Increment      1: Step Time =    1.000,"PART-1-1",             1,           -5.,           30.,            0.,NA,NA,"",       6.30250,       6.11900,       1.50975,   13.6694E-09
C:/temp/dataset/4/5_3.odb,Step-1,Increment      1: Step Time =    1.000,"PART-1-1",             2,          -15.,           30.,            0.,NA,NA,"",       6.87206,       6.21938,       2.92310,   11.0942E-09
C:/temp/dataset/4/5_3.odb,Step-1,Increment      1: Step Time =    1.000,"PART-1-1",             3,          -15.,         21.25,            0.,NA,NA,"",       5.82177,       4.98269,       3.01094,   950.497E-09
C:/temp/dataset/4/5_3.odb,Step-1,Increment      1: Step Time =    1.000,"PART-1-1",             4,          -15.,          12.5,            0.,NA,NA,"",       4.86145,       3.74592,       3.09868,   71.7529E-06
C:/temp/dataset/4/5_3.odb,Step-1,Increment      1: Step Time =    1.000,"PART-1-1",             5,          -15.,          3.75,            0.,NA,NA,"",       4.05683,       2.51305,       3.18472,   260.100E-06
C:/temp/dataset/4/5_3.odb,Step-1,Increment      1: Step Time =    1.000,"PART-1-1",             6,          -15.,           -5.,            0.,NA,NA,"",       3.53071,       1.28568,       3.28830,   3.03992E-03
C:/temp/dataset/4/5_3.odb,Step-1,Increment      1: Step Time =    1.000,"PART-1-1",             7,          -10.,           -5.,            0.,NA,NA,"",       2.85500,       1.24035,       2.57149,   3.02228E-03
C:/temp/dataset/4/5_3.odb,Step-1,Increment      1: Step Time =    1.000,"PART-1-1",             8,           -5.,           -5.,            0.,NA,NA,"",       2.21510,       1.21024,       1.85527,   6.55960E-03
C:/temp/dataset/4/5_3.odb,Step-1,Increment      1: Step Time =    1.000,"PART-1-1",             9,            0.,           -5.,            0.,NA,NA,"",       1.67638,       1.20191,       1.16862,   10.0635E-03
C:/temp/dataset/4/5_3.odb,Step-1,Increment      1: Step Time =    1.000,"PART-1-1",            10,            5.,           -5.,            0.,NA,NA,"",       1.31744,       1.22398,   487.364E-03,   35.1675E-03
C:/temp/dataset/4/5_3.odb,Step-1,Increment      1: Step Time =    1.000,"PART-1-1",            11,            5.,        -11.25,            0.,NA,NA,"",   811.829E-03,   722.764E-03,   369.701E-03,   22.1415E-03
C:/temp/dataset/4/5_3.odb,Step-1,Increment      1: Step Time =    1.000,"PART-1-1",            12,            5.,         -17.5,            0.,NA,NA,"",   422.348E-03,   336.478E-03,   255.265E-03,   22.8731E-03
C:/temp/dataset/4/5_3.odb,Step-1,Increment      1: Step Time =    1.000,"PART-1-1",            13,            5.,        -23.75,            0.,NA,NA,"",   164.671E-03,   101.353E-03,   129.786E-03,   23.4071E-03
C:/temp/dataset/4/5_3.odb,Step-1,Increment      1: Step Time =    1.000,"PART-1-1",            14,            5.,          -30.,            0.,NA,NA,"",            0.,   7.34403E-39,   13.9314E-39,   27.1037E-03
C:/temp/dataset/4/5_3.odb,Step-1,Increment      1: Step Time =    1.000,"PART-1-1",            15,           15.,          -30.,            0.,NA,NA,"",            0.,   5.77237E-39,  -11.4182E-39,   21.7508E-03
C:/temp/dataset/4/5_3.odb,Step-1,Increment      1: Step Time =    1.000,"PART-1-1",            16,           15.,         -22.5,            0.,NA,NA,"",   184.227E-03,   123.542E-03,  -136.663E-03,   20.1971E-03
C:/temp/dataset/4/5_3.odb,Step-1,Increment      1: Step Time =    1.000,"PART-1-1",            17,           15.,          -15.,            0.,NA,NA,"",   527.087E-03,   448.157E-03,  -277.445E-03,   19.5325E-03
C:/temp/dataset/4/5_3.odb,Step-1,Increment      1: Step Time =    1.000,"PART-1-1",            18,           15.,          -7.5,            0.,NA,NA,"",       1.07445,   985.521E-03,  -428.010E-03,   18.7858E-03
C:/temp/dataset/4/5_3.odb,Step-1,Increment      1: Step Time =    1.000,"PART-1-1",            19,           15.,            0.,            0.,NA,NA,"",       1.82573,       1.73723,  -561.518E-03,   7.16340E-03
C:/temp/dataset/4/5_3.odb,Step-1,Increment      1: Step Time =    1.000,"PART-1-1",            20,           15.,           7.5,            0.,NA,NA,"",       2.64193,       2.56799,  -620.656E-03,   502.137E-06
C:/temp/dataset/4/5_3.odb,Step-1,Increment      1: Step Time =    1.000,"PART-1-1",            21,           15.,           15.,            0.,NA,NA,"",       3.44598,       3.38160,  -662.984E-03,   50.1389E-06
C:/temp/dataset/4/5_3.odb,Step-1,Increment      1: Step Time =    1.000,"PART-1-1",            22,           15.,          22.5,            0.,NA,NA,"",       4.25210,       4.19292,  -706.937E-03,   1.76159E-06
C:/temp/dataset/4/5_3.odb,Step-1,Increment      1: Step Time =    1.000,"PART-1-1",            23,           15.,           30.,            0.,NA,NA,"",       5.06036,       5.00433,  -750.963E-03,   39.3209E-09
C:/temp/dataset/4/5_3.odb,Step-1,Increment      1: Step Time =    1.000,"PART-1-1",            24,            5.,           30.,            0.,NA,NA,"",       5.07383,       5.06303,   330.923E-03,   26.3454E-09
C:/temp/dataset/4/5_3.odb,Step-1,Increment      1: Step Time =    1.000,"PART-1-1",            25,            5.,         23.75,            0.,NA,NA,"",       4.40222,       4.38685,   367.610E-03,   1.29539E-06
C:/temp/dataset/4/5_3.odb,Step-1,Increment      1: Step Time =    1.000,"PART-1-1",            26,            5.,          17.5,            0.,NA,NA,"",       3.73259,       3.71063,   404.300E-03,   9.68443E-06
C:/temp/dataset/4/5_3.odb,Step-1,Increment      1: Step Time =    1.000,"PART-1-1",            27,            5.,         11.25,            0.,NA,NA,"",       3.06616,       3.03437,   440.399E-03,   305.395E-06
C:/temp/dataset/4/5_3.odb,Step-1,Increment      1: Step Time =    1.000,"PART-1-1",            28,            5.,            5.,            0.,NA,NA,"",       2.42744,       2.38093,   472.860E-03,   14.0256E-03
C:/temp/dataset/4/5_3.odb,Step-1,Increment      1: Step Time =    1.000,"PART-1-1",            29,            0.,            5.,            0.,NA,NA,"",       2.71318,       2.48589,       1.08705,   11.6814E-03
C:/temp/dataset/4/5_3.odb,Step-1,Increment      1: Step Time =    1.000,"PART-1-1",            30,           -5.,            5.,            0.,NA,NA,"",       3.11957,       2.57618,       1.75926,   6.24316E-03
C:/temp/dataset/4/5_3.odb,Step-1,Increment      1: Step Time =    1.000,"PART-1-1",            31,           -5.,         11.25,            0.,NA,NA,"",       3.86215,       3.46900,       1.69773,   131.868E-06
C:/temp/dataset/4/5_3.odb,Step-1,Increment      1: Step Time =    1.000,"PART-1-1",            32,           -5.,          17.5,            0.,NA,NA,"",       4.64937,       4.35232,       1.63522,   2.44642E-06
C:/temp/dataset/4/5_3.odb,Step-1,Increment      1: Step Time =    1.000,"PART-1-1",            33,           -5.,         23.75,            0.,NA,NA,"",       5.46670,       5.23565,       1.57249,   602.957E-09
C:/temp/dataset/4/5_3.odb,Step-1,Increment      1: Step Time =    1.000,"PART-1-1",            34,          -7.5,           30.,            0.,NA,NA,"",       6.42036,       6.14410,       1.86308,   65.1996E-09
C:/temp/dataset/4/5_3.odb,Step-1,Increment      1: Step Time =    1.000,"PART-1-1",            35,          -10.,           30.,            0.,NA,NA,"",       6.55526,       6.16919,       2.21642,   138.586E-09
C:/temp/dataset/4/5_3.odb,Step-1,Increment      1: Step Time =    1.000,"PART-1-1",            36,         -12.5,           30.,            0.,NA,NA,"",       6.70618,       6.19429,       2.56976,   66.1712E-09
C:/temp/dataset/4/5_3.odb,Step-1,Increment      1: Step Time =    1.000,"PART-1-1",            37,          -15.,       27.8125,            0.,NA,NA,"",       6.60333,       5.91021,       2.94506,   61.7417E-09
C:/temp/dataset/4/5_3.odb,Step-1,Increment      1: Step Time =    1.000,"PART-1-1",            38,          -15.,        25.625,            0.,NA,NA,"",       6.33836,       5.60104,       2.96702,   259.428E-09
C:/temp/dataset/4/5_3.odb,Step-1,Increment      1: Step Time =    1.000,"PART-1-1",            39,          -15.,       23.4375,            0.,NA,NA,"",       6.07765,       5.29187,       2.98898,   665.037E-09
C:/temp/dataset/4/5_3.odb,Step-1,Increment      1: Step Time =    1.000,"PART-1-1",            40,          -15.,       19.0625,            0.,NA,NA,"",       5.57138,       4.67351,       3.03290,   486.703E-09
C:/temp/dataset/4/5_3.odb,Step-1,Increment      1: Step Time =    1.000,"PART-1-1",            41,          -15.,        16.875,            0.,NA,NA,"",       5.32724,       4.36433,       3.05486,   5.06061E-06
C:/temp/dataset/4/5_3.odb,Step-1,Increment      1: Step Time =    1.000,"PART-1-1",            42,          -15.,       14.6875,            0.,NA,NA,"",       5.09026,       4.05512,       3.07680,   23.7578E-06
C:/temp/dataset/4/5_3.odb,Step-1,Increment      1: Step Time =    1.000,"PART-1-1",            43,          -15.,       10.3125,            0.,NA,NA,"",       4.64203,       3.43678,       3.12041,   161.907E-06
C:/temp/dataset/4/5_3.odb,Step-1,Increment      1: Step Time =    1.000,"PART-1-1",            44,          -15.,         8.125,            0.,NA,NA,"",       4.43346,       3.12795,       3.14190,   258.551E-06
C:/temp/dataset/4/5_3.odb,Step-1,Increment      1: Step Time =    1.000,"PART-1-1",            45,          -15.,        5.9375,            0.,NA,NA,"",       4.23762,       2.81988,       3.16318,   206.199E-06
C:/temp/dataset/4/5_3.odb,Step-1,Increment      1: Step Time =    1.000,"PART-1-1",            46,          -15.,        1.5625,            0.,NA,NA,"",       3.89372,       2.20744,       3.20753,   1.25413E-03
C:/temp/dataset/4/5_3.odb,Step-1,Increment      1: Step Time =    1.000,"PART-1-1",            47,          -15.,     -625.E-03,            0.,NA,NA,"",       3.75066,       1.90197,       3.23264,   2.47856E-03
C:/temp/dataset/4/5_3.odb,Step-1,Increment      1: Step Time =    1.000,"PART-1-1",            48,          -15.,       -2.8125,            0.,NA,NA,"",       3.62934,       1.59485,       3.26015,   3.11234E-03
C:/temp/dataset/4/5_3.odb,Step-1,Increment      1: Step Time =    1.000,"PART-1-1",            49,         -12.5,           -5.,            0.,NA,NA,"",       3.19328,       1.26342,       2.93271,   3.16028E-03
C:/temp/dataset/4/5_3.odb,Step-1,Increment      1: Step Time =    1.000,"PART-1-1",            50,          -7.5,           -5.,            0.,NA,NA,"",       2.52544,       1.22284,       2.20964,   4.65940E-03
C:/temp/dataset/4/5_3.odb,Step-1,Increment      1: Step Time =    1.000,"PART-1-1",            51,          -2.5,           -5.,            0.,NA,NA,"",       1.92905,       1.20326,       1.50778,   8.75480E-03
C:/temp/dataset/4/5_3.odb,Step-1,Increment      1: Step Time =    1.000,"PART-1-1",            52,           2.5,           -5.,            0.,NA,NA,"",       1.46677,       1.20464,   836.814E-03,   13.4477E-03
C:/temp/dataset/4/5_3.odb,Step-1,Increment      1: Step Time =    1.000,"PART-1-1",            53,            5.,      -7.08333,            0.,NA,NA,"",       1.14070,       1.05360,   437.161E-03,   25.6776E-03
C:/temp/dataset/4/5_3.odb,Step-1,Increment      1: Step Time =    1.000,"PART-1-1",            54,            5.,      -9.16667,            0.,NA,NA,"",   971.171E-03,   882.805E-03,   404.757E-03,   21.6890E-03
C:/temp/dataset/4/5_3.odb,Step-1,Increment      1: Step Time =    1.000,"PART-1-1",            55,            5.,      -13.3333,            0.,NA,NA,"",   666.859E-03,   577.690E-03,   333.130E-03,   22.3563E-03
C:/temp/dataset/4/5_3.odb,Step-1,Increment      1: Step Time =    1.000,"PART-1-1",            56,            5.,      -15.4167,            0.,NA,NA,"",   537.009E-03,   448.789E-03,   294.901E-03,   22.6545E-03
C:/temp/dataset/4/5_3.odb,Step-1,Increment      1: Step Time =    1.000,"PART-1-1",            57,            5.,      -19.5833,            0.,NA,NA,"",   322.591E-03,   241.027E-03,   214.410E-03,   23.0747E-03
C:/temp/dataset/4/5_3.odb,Step-1,Increment      1: Step Time =    1.000,"PART-1-1",            58,            5.,      -21.6667,            0.,NA,NA,"",   237.065E-03,   162.590E-03,   172.523E-03,   23.2281E-03
C:/temp/dataset/4/5_3.odb,Step-1,Increment      1: Step Time =    1.000,"PART-1-1",            59,            5.,      -25.8333,            0.,NA,NA,"",   103.732E-03,   56.9201E-03,   86.7208E-03,   23.0171E-03
C:/temp/dataset/4/5_3.odb,Step-1,Increment      1: Step Time =    1.000,"PART-1-1",            60,            5.,      -27.9167,            0.,NA,NA,"",   52.3626E-03,   28.0910E-03,   44.1898E-03,   24.1803E-03
C:/temp/dataset/4/5_3.odb,Step-1,Increment      1: Step Time =    1.000,"PART-1-1",            61,           7.5,          -30.,            0.,NA,NA,"",            0.,  -764.267E-42,   28.3167E-39,   9.63318E-03
C:/temp/dataset/4/5_3.odb,Step-1,Increment      1: Step Time =    1.000,"PART-1-1",            62,           10.,          -30.,            0.,NA,NA,"",            0.,  -4.94475E-39,   2.21672E-39,   4.11651E-03
C:/temp/dataset/4/5_3.odb,Step-1,Increment      1: Step Time =    1.000,"PART-1-1",            63,          12.5,          -30.,            0.,NA,NA,"",            0.,   5.43735E-39,  -17.1148E-39,   7.76299E-03
C:/temp/dataset/4/5_3.odb,Step-1,Increment      1: Step Time =    1.000,"PART-1-1",            64,           15.,         -27.5,            0.,NA,NA,"",   51.5641E-03,   25.6831E-03,  -44.7128E-03,   21.0155E-03
C:/temp/dataset/4/5_3.odb,Step-1,Increment      1: Step Time =    1.000,"PART-1-1",            65,           15.,          -25.,            0.,NA,NA,"",   110.130E-03,   62.6889E-03,  -90.5464E-03,   20.1633E-03
C:/temp/dataset/4/5_3.odb,Step-1,Increment      1: Step Time =    1.000,"PART-1-1",            66,           15.,          -20.,            0.,NA,NA,"",   277.224E-03,   208.143E-03,  -183.110E-03,   19.8727E-03
C:/temp/dataset/4/5_3.odb,Step-1,Increment      1: Step Time =    1.000,"PART-1-1",            67,           15.,         -17.5,            0.,NA,NA,"",   391.148E-03,   316.455E-03,  -229.897E-03,   19.6738E-03
C:/temp/dataset/4/5_3.odb,Step-1,Increment      1: Step Time =    1.000,"PART-1-1",            68,           15.,         -12.5,            0.,NA,NA,"",   685.740E-03,   603.212E-03,  -326.150E-03,   19.4905E-03
C:/temp/dataset/4/5_3.odb,Step-1,Increment      1: Step Time =    1.000,"PART-1-1",            69,           15.,          -10.,            0.,NA,NA,"",   867.873E-03,   781.996E-03,  -376.412E-03,   19.4351E-03
C:/temp/dataset/4/5_3.odb,Step-1,Increment      1: Step Time =    1.000,"PART-1-1",            70,           15.,           -5.,            0.,NA,NA,"",       1.30563,       1.21462,  -478.933E-03,   16.5446E-03
C:/temp/dataset/4/5_3.odb,Step-1,Increment      1: Step Time =    1.000,"PART-1-1",            71,           15.,          -2.5,            0.,NA,NA,"",       1.55843,       1.46738,  -524.878E-03,   12.3246E-03
C:/temp/dataset/4/5_3.odb,Step-1,Increment      1: Step Time =    1.000,"PART-1-1",            72,           15.,           2.5,            0.,NA,NA,"",       2.09890,       2.01494,  -587.725E-03,   2.80166E-03
C:/temp/dataset/4/5_3.odb,Step-1,Increment      1: Step Time =    1.000,"PART-1-1",            73,           15.,            5.,            0.,NA,NA,"",       2.37171,       2.29296,  -606.083E-03,   307.226E-06
C:/temp/dataset/4/5_3.odb,Step-1,Increment      1: Step Time =    1.000,"PART-1-1",            74,           15.,           10.,            0.,NA,NA,"",       2.91024,       2.84024,  -634.441E-03,   392.926E-06
C:/temp/dataset/4/5_3.odb,Step-1,Increment      1: Step Time =    1.000,"PART-1-1",            75,           15.,          12.5,            0.,NA,NA,"",       3.17800,       3.11112,  -648.540E-03,   170.191E-06
C:/temp/dataset/4/5_3.odb,Step-1,Increment      1: Step Time =    1.000,"PART-1-1",            76,           15.,          17.5,            0.,NA,NA,"",       3.71435,       3.65202,  -677.595E-03,   8.41740E-06
C:/temp/dataset/4/5_3.odb,Step-1,Increment      1: Step Time =    1.000,"PART-1-1",            77,           15.,           20.,            0.,NA,NA,"",       3.98308,       3.92246,  -692.260E-03,   1.34783E-06
C:/temp/dataset/4/5_3.odb,Step-1,Increment      1: Step Time =    1.000,"PART-1-1",            78,           15.,           25.,            0.,NA,NA,"",       4.52135,       4.46339,  -721.613E-03,   846.686E-09
C:/temp/dataset/4/5_3.odb,Step-1,Increment      1: Step Time =    1.000,"PART-1-1",            79,           15.,          27.5,            0.,NA,NA,"",       4.79078,       4.73386,  -736.288E-03,   203.993E-09
C:/temp/dataset/4/5_3.odb,Step-1,Increment      1: Step Time =    1.000,"PART-1-1",            80,          12.5,           30.,            0.,NA,NA,"",       5.04195,       5.01900,  -480.492E-03,   163.235E-09
C:/temp/dataset/4/5_3.odb,Step-1,Increment      1: Step Time =    1.000,"PART-1-1",            81,           10.,           30.,            0.,NA,NA,"",       5.03806,       5.03368,  -210.021E-03,   331.345E-09
C:/temp/dataset/4/5_3.odb,Step-1,Increment      1: Step Time =    1.000,"PART-1-1",            82,           7.5,           30.,            0.,NA,NA,"",       5.04872,       5.04835,   60.4509E-03,   168.191E-09
C:/temp/dataset/4/5_3.odb,Step-1,Increment      1: Step Time =    1.000,"PART-1-1",            83,            5.,       27.9167,            0.,NA,NA,"",       4.84979,       4.83763,   343.151E-03,   137.460E-09
C:/temp/dataset/4/5_3.odb,Step-1,Increment      1: Step Time =    1.000,"PART-1-1",            84,            5.,       25.8333,            0.,NA,NA,"",       4.62591,       4.61224,   355.380E-03,   578.127E-09
C:/temp/dataset/4/5_3.odb,Step-1,Increment      1: Step Time =    1.000,"PART-1-1",            85,            5.,       21.6667,            0.,NA,NA,"",       4.17875,       4.16145,   379.842E-03,   1.86457E-06
C:/temp/dataset/4/5_3.odb,Step-1,Increment      1: Step Time =    1.000,"PART-1-1",            86,            5.,       19.5833,            0.,NA,NA,"",       3.95553,       3.93605,   392.075E-03,   686.572E-09
C:/temp/dataset/4/5_3.odb,Step-1,Increment      1: Step Time =    1.000,"PART-1-1",            87,            5.,       15.4167,            0.,NA,NA,"",       3.50998,       3.48518,   416.494E-03,   40.7085E-06
C:/temp/dataset/4/5_3.odb,Step-1,Increment      1: Step Time =    1.000,"PART-1-1",            88,            5.,       13.3333,            0.,NA,NA,"",       3.28778,       3.25973,   428.576E-03,   138.430E-06
C:/temp/dataset/4/5_3.odb,Step-1,Increment      1: Step Time =    1.000,"PART-1-1",            89,            5.,       9.16667,            0.,NA,NA,"",       2.84574,       2.80968,   451.590E-03,   854.151E-06
C:/temp/dataset/4/5_3.odb,Step-1,Increment      1: Step Time =    1.000,"PART-1-1",            90,            5.,       7.08333,            0.,NA,NA,"",       2.62842,       2.58761,   461.367E-03,   3.13650E-03
C:/temp/dataset/4/5_3.odb,Step-1,Increment      1: Step Time =    1.000,"PART-1-1",            91,           2.5,            5.,            0.,NA,NA,"",       2.55555,       2.43670,   770.279E-03,   14.9859E-03
C:/temp/dataset/4/5_3.odb,Step-1,Increment      1: Step Time =    1.000,"PART-1-1",            92,          -2.5,            5.,            0.,NA,NA,"",       2.90177,       2.53171,       1.41800,   9.50899E-03
C:/temp/dataset/4/5_3.odb,Step-1,Increment      1: Step Time =    1.000,"PART-1-1",            93,           -5.,       7.08333,            0.,NA,NA,"",       3.36242,       2.87815,       1.73843,   1.27260E-03
C:/temp/dataset/4/5_3.odb,Step-1,Increment      1: Step Time =    1.000,"PART-1-1",            94,           -5.,       9.16667,            0.,NA,NA,"",       3.60939,       3.17417,       1.71823,   424.879E-06
C:/temp/dataset/4/5_3.odb,Step-1,Increment      1: Step Time =    1.000,"PART-1-1",            95,           -5.,       13.3333,            0.,NA,NA,"",       4.12018,       3.76347,       1.67697,   54.2106E-06
C:/temp/dataset/4/5_3.odb,Step-1,Increment      1: Step Time =    1.000,"PART-1-1",            96,           -5.,       15.4167,            0.,NA,NA,"",       4.38284,       4.05790,       1.65612,   13.8248E-06
C:/temp/dataset/4/5_3.odb,Step-1,Increment      1: Step Time =    1.000,"PART-1-1",            97,           -5.,       19.5833,            0.,NA,NA,"",       4.91919,       4.64676,       1.61431,   938.017E-09
C:/temp/dataset/4/5_3.odb,Step-1,Increment      1: Step Time =    1.000,"PART-1-1",            98,           -5.,       21.6667,            0.,NA,NA,"",       5.19176,       4.94120,       1.59340,   1.01392E-06
C:/temp/dataset/4/5_3.odb,Step-1,Increment      1: Step Time =    1.000,"PART-1-1",            99,           -5.,       25.8333,            0.,NA,NA,"",       5.74364,       5.53010,       1.55157,   253.281E-09
C:/temp/dataset/4/5_3.odb,Step-1,Increment      1: Step Time =    1.000,"PART-1-1",           100,           -5.,       27.9167,            0.,NA,NA,"",       6.02232,       5.82455,       1.53066,   58.5660E-09
C:/temp/dataset/4/5_3.odb,Step-1,Increment      1: Step Time =    1.000,"PART-1-1",           101,       6.93475,       11.1046,            0.,NA,NA,"",       3.01619,       3.00721,   232.500E-03,   230.307E-06
C:/temp/dataset/4/5_3.odb,Step-1,Increment      1: Step Time =    1.000,"PART-1-1",           102,       7.10183,      -21.7370,            0.,NA,NA,"",   175.334E-03,   141.529E-03,   103.497E-03,   14.3012E-03
C:/temp/dataset/4/5_3.odb,Step-1,Increment      1: Step Time =    1.000,"PART-1-1",           103,      -7.18606,       25.6133,            0.,NA,NA,"",       5.82673,       5.52095,       1.86275,   276.828E-09
C:/temp/dataset/4/5_3.odb,Step-1,Increment      1: Step Time =    1.000,"PART-1-1",           104,       7.08931,      -17.4629,            0.,NA,NA,"",   354.239E-03,   318.617E-03,   154.817E-03,   14.1000E-03
C:/temp/dataset/4/5_3.odb,Step-1,Increment      1: Step Time =    1.000,"PART-1-1",           105,       7.11844,      -23.8299,            0.,NA,NA,"",   111.645E-03,   80.8491E-03,   76.9945E-03,   14.3673E-03
C:/temp/dataset/4/5_3.odb,Step-1,Increment      1: Step Time =    1.000,"PART-1-1",           106,       7.34845,      -27.9642,            0.,NA,NA,"",   24.2002E-03,   10.0180E-03,   22.0293E-03,   13.9534E-03
C:/temp/dataset/4/5_3.odb,Step-1,Increment      1: Step Time =    1.000,"PART-1-1",           107,       7.18399,      -25.9216,            0.,NA,NA,"",   61.2146E-03,   36.8996E-03,   48.8431E-03,   14.6723E-03
C:/temp/dataset/4/5_3.odb,Step-1,Increment      1: Step Time =    1.000,"PART-1-1",           108,       7.00226,      -10.9532,            0.,NA,NA,"",   759.023E-03,   723.311E-03,   230.080E-03,   14.1491E-03
C:/temp/dataset/4/5_3.odb,Step-1,Increment      1: Step Time =    1.000,"PART-1-1",           109,       6.93148,       25.8450,            0.,NA,NA,"",       4.60450,       4.60217,   146.346E-03,   543.188E-09
C:/temp/dataset/4/5_3.odb,Step-1,Increment      1: Step Time =    1.000,"PART-1-1",           110,       6.95256,       21.7727,            0.,NA,NA,"",       4.16485,       4.16147,   167.969E-03,   744.026E-09
C:/temp/dataset/4/5_3.odb,Step-1,Increment      1: Step Time =    1.000,"PART-1-1",           111,       6.99069,       19.6693,            0.,NA,NA,"",       3.93760,       3.93366,   176.192E-03,   5.78582E-06
C:/temp/dataset/4/5_3.odb,Step-1,Increment      1: Step Time =    1.000,"PART-1-1",           112,       6.98342,       13.2435,            0.,NA,NA,"",       3.24544,       3.23833,   214.711E-03,   129.530E-06
C:/temp/dataset/4/5_3.odb,Step-1,Increment      1: Step Time =    1.000,"PART-1-1",           113,       6.84904,       8.98858,            0.,NA,NA,"",       2.79108,       2.77948,   254.198E-03,   363.514E-06
C:/temp/dataset/4/5_3.odb,Step-1,Increment      1: Step Time =    1.000,"PART-1-1",           114,      -7.00061,       11.3966,            0.,NA,NA,"",       4.02947,       3.50989,       1.97922,   104.804E-06
C:/temp/dataset/4/5_3.odb,Step-1,Increment      1: Step Time =    1.000,"PART-1-1",           115,      -6.87185,       17.5946,            0.,NA,NA,"",       4.77799,       4.38448,       1.89883,   7.50105E-06
C:/temp/dataset/4/5_3.odb,Step-1,Increment      1: Step Time =    1.000,"PART-1-1",           116,      -6.78696,       21.5686,            0.,NA,NA,"",       5.27893,       4.94529,       1.84694,   190.642E-09
C:/temp/dataset/4/5_3.odb,Step-1,Increment      1: Step Time =    1.000,"PART-1-1",           117,      -6.92081,       23.5666,            0.,NA,NA,"",       5.54523,       5.22902,       1.84580,   324.202E-09
C:/temp/dataset/4/5_3.odb,Step-1,Increment      1: Step Time =    1.000,"PART-1-1",           118,      -7.47694,       27.7553,            0.,NA,NA,"",       6.12312,       5.82660,       1.88236,   166.247E-09
C:/temp/dataset/4/5_3.odb,Step-1,Increment      1: Step Time =    1.000,"PART-1-1",           119,       6.62973,      -6.72562,            0.,NA,NA,"",       1.10990,       1.06810,   301.752E-03,   17.2584E-03
C:/temp/dataset/4/5_3.odb,Step-1,Increment      1: Step Time =    1.000,"PART-1-1",           120,       7.00244,       17.5390,            0.,NA,NA,"",       3.70782,       3.70308,   187.428E-03,   21.2545E-06
C:/temp/dataset/4/5_3.odb,Step-1,Increment      1: Step Time =    1.000,"PART-1-1",           121,       7.05765,      -13.1226,            0.,NA,NA,"",   606.044E-03,   570.614E-03,   204.178E-03,   14.0449E-03
C:/temp/dataset/4/5_3.odb,Step-1,Increment      1: Step Time =    1.000,"PART-1-1",           122,      -6.97858,       13.4860,            0.,NA,NA,"",       4.27786,       3.80493,       1.95515,   53.8255E-06
C:/temp/dataset/4/5_3.odb,Step-1,Increment      1: Step Time =    1.000,"PART-1-1",           123,      -7.06135,       7.11796,            0.,NA,NA,"",       3.54447,       2.90497,       2.03085,   835.759E-06
C:/temp/dataset/4/5_3.odb,Step-1,Increment      1: Step Time =    1.000,"PART-1-1",           124,       6.87626,      -8.81940,            0.,NA,NA,"",   927.571E-03,   890.003E-03,   261.306E-03,   14.9821E-03
C:/temp/dataset/4/5_3.odb,Step-1,Increment      1: Step Time =    1.000,"PART-1-1",           125,       7.08495,      -15.2974,            0.,NA,NA,"",   470.771E-03,   435.302E-03,   179.267E-03,   14.0101E-03
C:/temp/dataset/4/5_3.odb,Step-1,Increment      1: Step Time =    1.000,"PART-1-1",           126,       7.00715,       15.3887,            0.,NA,NA,"",       3.47609,       3.47035,   199.543E-03,   60.4208E-06
C:/temp/dataset/4/5_3.odb,Step-1,Increment      1: Step Time =    1.000,"PART-1-1",           127,      -7.01992,       9.30136,            0.,NA,NA,"",       3.78695,       3.21383,       2.00308,   186.315E-06
C:/temp/dataset/4/5_3.odb,Step-1,Increment      1: Step Time =    1.000,"PART-1-1",           128,      -6.93369,       15.5639,            0.,NA,NA,"",       4.52897,       4.09812,       1.92795,   22.6011E-06
C:/temp/dataset/4/5_3.odb,Step-1,Increment      1: Step Time =    1.000,"PART-1-1",           129,      -6.79206,       19.5889,            0.,NA,NA,"",       5.02543,       4.66554,       1.86754,   1.78649E-06
C:/temp/dataset/4/5_3.odb,Step-1,Increment      1: Step Time =    1.000,"PART-1-1",           130,       7.09662,      -19.6136,            0.,NA,NA,"",   255.752E-03,   220.608E-03,   129.388E-03,   14.1825E-03
C:/temp/dataset/4/5_3.odb,Step-1,Increment      1: Step Time =    1.000,"PART-1-1",           131,       6.89670,       23.8203,            0.,NA,NA,"",       4.38631,       4.38332,   161.994E-03,   565.308E-09
C:/temp/dataset/4/5_3.odb,Step-1,Increment      1: Step Time =    1.000,"PART-1-1",           132,       6.67676,       6.98748,            0.,NA,NA,"",       2.58216,       2.56651,   283.876E-03,   2.10723E-03
C:/temp/dataset/4/5_3.odb,Step-1,Increment      1: Step Time =    1.000,"PART-1-1",           133,      -13.0361,       12.2042,            0.,NA,NA,"",       4.64226,       3.68437,       2.82418,   71.1348E-06
C:/temp/dataset/4/5_3.odb,Step-1,Increment      1: Step Time =    1.000,"PART-1-1",           134,      -13.0483,       3.72302,            0.,NA,NA,"",       3.83038,       2.49009,       2.91055,   1.01782E-03
C:/temp/dataset/4/5_3.odb,Step-1,Increment      1: Step Time =    1.000,"PART-1-1",           135,      -13.0740,       10.0823,            0.,NA,NA,"",       4.42544,       3.38489,       2.85080,   96.5891E-06
C:/temp/dataset/4/5_3.odb,Step-1,Increment      1: Step Time =    1.000,"PART-1-1",           136,      -13.0017,       14.3509,            0.,NA,NA,"",       4.87108,       3.98748,       2.79776,   36.1743E-06
C:/temp/dataset/4/5_3.odb,Step-1,Increment      1: Step Time =    1.000,"PART-1-1",           137,      -12.4480,       21.2307,            0.,NA,NA,"",       5.61876,       4.95435,       2.65044,   523.405E-09
C:/temp/dataset/4/5_3.odb,Step-1,Increment      1: Step Time =    1.000,"PART-1-1",           138,      -13.0426,       25.7965,            0.,NA,NA,"",       6.21707,       5.60563,       2.68865,   260.683E-09
C:/temp/dataset/4/5_3.odb,Step-1,Increment      1: Step Time =    1.000,"PART-1-1",           139,      -12.9478,       23.6552,            0.,NA,NA,"",       5.94844,       5.30203,       2.69674,   366.091E-09
C:/temp/dataset/4/5_3.odb,Step-1,Increment      1: Step Time =    1.000,"PART-1-1",           140,      -12.8307,       18.7376,            0.,NA,NA,"",       5.35388,       4.60581,       2.72955,   3.89330E-06
C:/temp/dataset/4/5_3.odb,Step-1,Increment      1: Step Time =    1.000,"PART-1-1",           141,      -12.9472,       16.5227,            0.,NA,NA,"",       5.10892,       4.29392,       2.76827,   13.9605E-06
C:/temp/dataset/4/5_3.odb,Step-1,Increment      1: Step Time =    1.000,"PART-1-1",           142,      -13.1112,       7.97345,            0.,NA,NA,"",       4.22028,       3.08757,       2.87708,   51.8869E-06
C:/temp/dataset/4/5_3.odb,Step-1,Increment      1: Step Time =    1.000,"PART-1-1",           143,      -13.1276,       5.86243,            0.,NA,NA,"",       4.02487,       2.79058,       2.90038,   340.755E-06
C:/temp/dataset/4/5_3.odb,Step-1,Increment      1: Step Time =    1.000,"PART-1-1",           144,      -12.8109,       1.56310,            0.,NA,NA,"",       3.63139,       2.18671,       2.89919,   1.90017E-03
C:/temp/dataset/4/5_3.odb,Step-1,Increment      1: Step Time =    1.000,"PART-1-1",           145,      -12.5511,  -622.366E-03,            0.,NA,NA,"",       3.44448,       1.88011,       2.88611,   2.58332E-03
C:/temp/dataset/4/5_3.odb,Step-1,Increment      1: Step Time =    1.000,"PART-1-1",           146,      -7.69124,      -3.05836,            0.,NA,NA,"",       2.67299,       1.49708,       2.21441,   3.35476E-03
C:/temp/dataset/4/5_3.odb,Step-1,Increment      1: Step Time =    1.000,"PART-1-1",           147,      -2.59391,      -3.27074,            0.,NA,NA,"",       2.07619,       1.43613,       1.49937,   6.11574E-03
C:/temp/dataset/4/5_3.odb,Step-1,Increment      1: Step Time =    1.000,"PART-1-1",           148,      -2.06699,       2.95135,            0.,NA,NA,"",       2.63479,       2.24972,       1.37145,   6.08141E-03
C:/temp/dataset/4/5_3.odb,Step-1,Increment      1: Step Time =    1.000,"PART-1-1",           149,       1.86882,      -3.06513,            0.,NA,NA,"",       1.70484,       1.44915,   898.021E-03,   10.1938E-03
C:/temp/dataset/4/5_3.odb,Step-1,Increment      1: Step Time =    1.000,"PART-1-1",           150,       2.79073,       3.02834,            0.,NA,NA,"",       2.31080,       2.18894,   740.482E-03,   7.98674E-03
C:/temp/dataset/4/5_3.odb,Step-1,Increment      1: Step Time =    1.000,"PART-1-1",           151,       12.5379,       2.72923,            0.,NA,NA,"",       2.07838,       2.05334,  -321.635E-03,   4.62712E-03
C:/temp/dataset/4/5_3.odb,Step-1,Increment      1: Step Time =    1.000,"PART-1-1",           152,       12.9313,       10.2835,            0.,NA,NA,"",       2.91261,       2.88340,  -411.476E-03,   175.287E-06
C:/temp/dataset/4/5_3.odb,Step-1,Increment      1: Step Time =    1.000,"PART-1-1",           153,       12.7723,       24.8557,            0.,NA,NA,"",       4.48657,       4.46085,  -479.761E-03,   631.666E-09
C:/temp/dataset/4/5_3.odb,Step-1,Increment      1: Step Time =    1.000,"PART-1-1",           154,       12.5268,       27.4001,            0.,NA,NA,"",       4.76064,       4.73756,  -468.131E-03,   424.639E-09
C:/temp/dataset/4/5_3.odb,Step-1,Increment      1: Step Time =    1.000,"PART-1-1",           155,       12.7627,      -5.01238,            0.,NA,NA,"",       1.23920,       1.21074,  -264.034E-03,   9.51232E-03
C:/temp/dataset/4/5_3.odb,Step-1,Increment      1: Step Time =    1.000,"PART-1-1",           156,       13.0118,      -12.5921,            0.,NA,NA,"",   617.717E-03,   588.018E-03,  -189.234E-03,   10.9103E-03
C:/temp/dataset/4/5_3.odb,Step-1,Increment      1: Step Time =    1.000,"PART-1-1",           157,       9.69976,      -27.8547,            0.,NA,NA,"",   5.44721E-03,   2.64243E-03,   4.76337E-03,   3.23829E-03
C:/temp/dataset/4/5_3.odb,Step-1,Increment      1: Step Time =    1.000,"PART-1-1",           158,       13.0855,      -17.4497,            0.,NA,NA,"",   336.669E-03,   307.748E-03,  -136.518E-03,   11.4447E-03
C:/temp/dataset/4/5_3.odb,Step-1,Increment      1: Step Time =    1.000,"PART-1-1",           159,       12.9366,       22.3763,            0.,NA,NA,"",       4.21939,       4.19165,  -482.981E-03,   426.377E-09
C:/temp/dataset/4/5_3.odb,Step-1,Increment      1: Step Time =    1.000,"PART-1-1",           160,       13.0248,       17.5365,            0.,NA,NA,"",       3.69681,       3.66756,  -464.121E-03,   20.6576E-06
C:/temp/dataset/4/5_3.odb,Step-1,Increment      1: Step Time =    1.000,"PART-1-1",           161,      -10.1545,       27.3700,            0.,NA,NA,"",       6.22555,       5.79903,       2.26466,   148.677E-09
C:/temp/dataset/4/5_3.odb,Step-1,Increment      1: Step Time =    1.000,"PART-1-1",           162,      -10.0546,      -2.87755,            0.,NA,NA,"",       2.98341,       1.54274,       2.55356,   3.88145E-03
C:/temp/dataset/4/5_3.odb,Step-1,Increment      1: Step Time =    1.000,"PART-1-1",           163,      -5.07747,      -2.66322,            0.,NA,NA,"",       2.39322,       1.53199,       1.83861,   4.48524E-03
C:/temp/dataset/4/5_3.odb,Step-1,Increment      1: Step Time =    1.000,"PART-1-1",           164,  -330.659E-03,      -3.26262,            0.,NA,NA,"",       1.86113,       1.42975,       1.19148,   7.82803E-03
C:/temp/dataset/4/5_3.odb,Step-1,Increment      1: Step Time =    1.000,"PART-1-1",           165,       3.93161,      -2.75002,            0.,NA,NA,"",       1.61017,       1.48278,   627.711E-03,   7.78966E-03
C:/temp/dataset/4/5_3.odb,Step-1,Increment      1: Step Time =    1.000,"PART-1-1",           166,       12.9585,      -10.1304,            0.,NA,NA,"",   794.119E-03,   764.303E-03,  -215.562E-03,   10.5953E-03
C:/temp/dataset/4/5_3.odb,Step-1,Increment      1: Step Time =    1.000,"PART-1-1",           167,       13.1106,      -19.8561,            0.,NA,NA,"",   229.956E-03,   201.797E-03,  -110.261E-03,   11.6917E-03
C:/temp/dataset/4/5_3.odb,Step-1,Increment      1: Step Time =    1.000,"PART-1-1",           168,       12.2637,      -27.1930,            0.,NA,NA,"",   23.3903E-03,   12.5360E-03,  -19.7473E-03,   9.01285E-03
C:/temp/dataset/4/5_3.odb,Step-1,Increment      1: Step Time =    1.000,"PART-1-1",           169,       13.0974,      -22.2394,            0.,NA,NA,"",   144.759E-03,   118.437E-03,  -83.2331E-03,   11.7645E-03
C:/temp/dataset/4/5_3.odb,Step-1,Increment      1: Step Time =    1.000,"PART-1-1",           170,       13.0625,      -15.0302,            0.,NA,NA,"",   465.882E-03,   436.292E-03,  -163.387E-03,   11.2322E-03
C:/temp/dataset/4/5_3.odb,Step-1,Increment      1: Step Time =    1.000,"PART-1-1",           171,       12.8638,      -7.61343,            0.,NA,NA,"",   998.956E-03,   969.774E-03,  -239.690E-03,   10.0953E-03
C:/temp/dataset/4/5_3.odb,Step-1,Increment      1: Step Time =    1.000,"PART-1-1",           172,       12.8109,      -2.41519,            0.,NA,NA,"",       1.50883,       1.47852,  -300.870E-03,   8.86781E-03
C:/temp/dataset/4/5_3.odb,Step-1,Increment      1: Step Time =    1.000,"PART-1-1",           173,       12.7001,   168.481E-03,            0.,NA,NA,"",       1.79199,       1.76370,  -317.187E-03,   7.11994E-03
C:/temp/dataset/4/5_3.odb,Step-1,Increment      1: Step Time =    1.000,"PART-1-1",           174,       12.6773,       5.28127,            0.,NA,NA,"",       2.36467,       2.33804,  -353.918E-03,   1.82504E-03
C:/temp/dataset/4/5_3.odb,Step-1,Increment      1: Step Time =    1.000,"PART-1-1",           175,       12.8405,       7.80961,            0.,NA,NA,"",       2.64349,       2.61501,  -387.030E-03,   277.206E-06
C:/temp/dataset/4/5_3.odb,Step-1,Increment      1: Step Time =    1.000,"PART-1-1",           176,       12.9955,       12.7023,            0.,NA,NA,"",       3.17449,       3.14487,  -432.610E-03,   139.899E-06
C:/temp/dataset/4/5_3.odb,Step-1,Increment      1: Step Time =    1.000,"PART-1-1",           177,       13.0102,       19.9477,            0.,NA,NA,"",       3.95729,       3.92848,  -476.683E-03,   4.50630E-06
C:/temp/dataset/4/5_3.odb,Step-1,Increment      1: Step Time =    1.000,"PART-1-1",           178,       9.88408,       27.1269,            0.,NA,NA,"",       4.72698,       4.72352,  -180.616E-03,   341.718E-09
C:/temp/dataset/4/5_3.odb,Step-1,Increment      1: Step Time =    1.000,"PART-1-1",           179,       13.0301,       15.1161,            0.,NA,NA,"",       3.43541,       3.40574,  -450.499E-03,   64.1428E-06
C:/temp/dataset/4/5_3.odb,Step-1,Increment      1: Step Time =    1.000,"PART-1-1",           180,   300.490E-03,       3.00528,            0.,NA,NA,"",       2.46064,       2.22236,       1.05635,   7.69600E-03
C:/temp/dataset/4/5_3.odb,Step-1,Increment      1: Step Time =    1.000,"PART-1-1",           181,      -4.18418,       2.89078,            0.,NA,NA,"",       2.81431,       2.27068,       1.66264,   4.95020E-03
C:/temp/dataset/4/5_3.odb,Step-1,Increment      1: Step Time =    1.000,"PART-1-1",           182,      -8.75093,       23.2164,            0.,NA,NA,"",       5.60906,       5.19788,       2.10798,   291.104E-09
C:/temp/dataset/4/5_3.odb,Step-1,Increment      1: Step Time =    1.000,"PART-1-1",           183,       9.13120,      -23.8882,            0.,NA,NA,"",   75.1579E-03,   69.5082E-03,   28.5888E-03,   5.73394E-03
C:/temp/dataset/4/5_3.odb,Step-1,Increment      1: Step Time =    1.000,"PART-1-1",           184,       8.76025,       8.63504,            0.,NA,NA,"",       2.73054,       2.73007,   50.2319E-03,   318.220E-06
C:/temp/dataset/4/5_3.odb,Step-1,Increment      1: Step Time =    1.000,"PART-1-1",           185,       8.81891,       23.9948,            0.,NA,NA,"",       4.39117,       4.39092,  -46.9941E-03,   543.605E-09
C:/temp/dataset/4/5_3.odb,Step-1,Increment      1: Step Time =    1.000,"PART-1-1",           186,       9.00734,       17.5557,            0.,NA,NA,"",       3.69328,       3.69316,  -29.5570E-03,   26.3906E-06
C:/temp/dataset/4/5_3.odb,Step-1,Increment      1: Step Time =    1.000,"PART-1-1",           187,      -8.59230,       19.6811,            0.,NA,NA,"",       5.15337,       4.69664,       2.12105,   2.79489E-06
C:/temp/dataset/4/5_3.odb,Step-1,Increment      1: Step Time =    1.000,"PART-1-1",           188,       9.06266,      -12.9142,            0.,NA,NA,"",   576.032E-03,   571.095E-03,   75.2497E-03,   5.79124E-03
C:/temp/dataset/4/5_3.odb,Step-1,Increment      1: Step Time =    1.000,"PART-1-1",           189,       9.13987,      -19.6571,            0.,NA,NA,"",   213.211E-03,   207.937E-03,   47.1269E-03,   5.48767E-03
C:/temp/dataset/4/5_3.odb,Step-1,Increment      1: Step Time =    1.000,"PART-1-1",           190,       9.00941,       15.3265,            0.,NA,NA,"",       3.45198,       3.45194,  -16.6286E-03,   71.2371E-06
C:/temp/dataset/4/5_3.odb,Step-1,Increment      1: Step Time =    1.000,"PART-1-1",           191,      -8.96967,       13.7142,            0.,NA,NA,"",       4.45755,       3.85712,       2.23436,   55.6480E-06
C:/temp/dataset/4/5_3.odb,Step-1,Increment      1: Step Time =    1.000,"PART-1-1",           192,       9.12973,      -17.4386,            0.,NA,NA,"",   313.314E-03,   308.229E-03,   56.2157E-03,   5.50053E-03
C:/temp/dataset/4/5_3.odb,Step-1,Increment      1: Step Time =    1.000,"PART-1-1",           193,       8.94484,       21.9321,            0.,NA,NA,"",       4.16730,       4.16702,  -48.5105E-03,   1.50931E-06
C:/temp/dataset/4/5_3.odb,Step-1,Increment      1: Step Time =    1.000,"PART-1-1",           194,      -8.78258,       17.8115,            0.,NA,NA,"",       4.93535,       4.43431,       2.16671,   8.88835E-06
C:/temp/dataset/4/5_3.odb,Step-1,Increment      1: Step Time =    1.000,"PART-1-1",           195,       8.90333,       10.8666,            0.,NA,NA,"",       2.97021,       2.97013,   21.4525E-03,   229.155E-06
C:/temp/dataset/4/5_3.odb,Step-1,Increment      1: Step Time =    1.000,"PART-1-1",           196,      -9.00437,       11.6266,            0.,NA,NA,"",       4.21901,       3.56244,       2.26033,   103.165E-06
C:/temp/dataset/4/5_3.odb,Step-1,Increment      1: Step Time =    1.000,"PART-1-1",           197,      -9.03622,       9.53759,            0.,NA,NA,"",       3.98774,       3.26746,       2.28600,   115.798E-06
C:/temp/dataset/4/5_3.odb,Step-1,Increment      1: Step Time =    1.000,"PART-1-1",           198,       8.99264,      -10.6281,            0.,NA,NA,"",   738.311E-03,   733.245E-03,   86.3429E-03,   5.95498E-03
C:/temp/dataset/4/5_3.odb,Step-1,Increment      1: Step Time =    1.000,"PART-1-1",           199,       8.82192,      -8.34759,            0.,NA,NA,"",   920.157E-03,   914.180E-03,   104.704E-03,   5.83055E-03
C:/temp/dataset/4/5_3.odb,Step-1,Increment      1: Step Time =    1.000,"PART-1-1",           200,       8.98411,       13.0928,            0.,NA,NA,"",       3.21043,       3.21043,  -612.660E-06,   150.386E-06
C:/temp/dataset/4/5_3.odb,Step-1,Increment      1: Step Time =    1.000,"PART-1-1",           201,       7.30685,       27.8134,            0.,NA,NA,"",       4.81384,       4.81292,   94.1826E-03,   371.846E-09
C:/temp/dataset/4/5_3.odb,Step-1,Increment      1: Step Time =    1.000,"PART-1-1",           202,      -8.46063,       21.4565,            0.,NA,NA,"",       5.36758,       4.94624,       2.08462,   633.515E-09
C:/temp/dataset/4/5_3.odb,Step-1,Increment      1: Step Time =    1.000,"PART-1-1",           203,       9.11250,      -15.1896,            0.,NA,NA,"",   434.050E-03,   429.152E-03,   65.0208E-03,   5.57628E-03
C:/temp/dataset/4/5_3.odb,Step-1,Increment      1: Step Time =    1.000,"PART-1-1",           204,       9.14200,      -21.8221,            0.,NA,NA,"",   133.837E-03,   128.382E-03,   37.8182E-03,   5.54513E-03
C:/temp/dataset/4/5_3.odb,Step-1,Increment      1: Step Time =    1.000,"PART-1-1",           205,      -8.90436,       15.8055,            0.,NA,NA,"",       4.70078,       4.15203,       2.20408,   24.4447E-06
C:/temp/dataset/4/5_3.odb,Step-1,Increment      1: Step Time =    1.000,"PART-1-1",           206,       9.00445,       19.7587,            0.,NA,NA,"",       3.93175,       3.93152,  -42.1974E-03,   7.72409E-06
C:/temp/dataset/4/5_3.odb,Step-1,Increment      1: Step Time =    1.000,"PART-1-1",           207,       8.39742,      -6.16188,            0.,NA,NA,"",       1.11607,       1.10683,   143.294E-03,   5.17862E-03
C:/temp/dataset/4/5_3.odb,Step-1,Increment      1: Step Time =    1.000,"PART-1-1",           208,      -9.10294,       7.45394,            0.,NA,NA,"",       3.76926,       2.97343,       2.31647,   359.654E-06
C:/temp/dataset/4/5_3.odb,Step-1,Increment      1: Step Time =    1.000,"PART-1-1",           209,       8.43260,       6.43235,            0.,NA,NA,"",       2.49690,       2.49500,   97.3850E-03,   2.34301E-03
C:/temp/dataset/4/5_3.odb,Step-1,Increment      1: Step Time =    1.000,"PART-1-1",           210,       5.64784,       2.93298,            0.,NA,NA,"",       2.17801,       2.13951,   407.695E-03,   7.88113E-03
C:/temp/dataset/4/5_3.odb,Step-1,Increment      1: Step Time =    1.000,"PART-1-1",           211,      -10.7213,       1.88644,            0.,NA,NA,"",       3.41179,       2.21052,       2.59882,   2.56443E-03
C:/temp/dataset/4/5_3.odb,Step-1,Increment      1: Step Time =    1.000,"PART-1-1",           212,      -12.7178,       27.8380,            0.,NA,NA,"",       6.44817,       5.89090,       2.62225,   160.378E-09
C:/temp/dataset/4/5_3.odb,Step-1,Increment      1: Step Time =    1.000,"PART-1-1",           213,      -11.0298,       24.2524,            0.,NA,NA,"",       5.88740,       5.36719,       2.41966,   306.432E-09
C:/temp/dataset/4/5_3.odb,Step-1,Increment      1: Step Time =    1.000,"PART-1-1",           214,      -10.4500,       20.0822,            0.,NA,NA,"",       5.33236,       4.77197,       2.37958,   2.23625E-06
C:/temp/dataset/4/5_3.odb,Step-1,Increment      1: Step Time =    1.000,"PART-1-1",           215,      -10.9919,       14.0243,            0.,NA,NA,"",       4.65953,       3.92118,       2.51705,   48.9713E-06
C:/temp/dataset/4/5_3.odb,Step-1,Increment      1: Step Time =    1.000,"PART-1-1",           216,      -11.0796,       9.82104,            0.,NA,NA,"",       4.20596,       3.32802,       2.57185,   109.130E-06
C:/temp/dataset/4/5_3.odb,Step-1,Increment      1: Step Time =    1.000,"PART-1-1",           217,      -11.0365,       11.9204,            0.,NA,NA,"",       4.42833,       3.62427,       2.54456,   90.8996E-06
C:/temp/dataset/4/5_3.odb,Step-1,Increment      1: Step Time =    1.000,"PART-1-1",           218,      -10.5491,       22.5446,            0.,NA,NA,"",       5.64234,       5.12099,       2.36886,   356.989E-09
C:/temp/dataset/4/5_3.odb,Step-1,Increment      1: Step Time =    1.000,"PART-1-1",           219,      -10.9277,       16.1478,            0.,NA,NA,"",       4.89871,       4.22068,       2.48661,   20.6963E-06
C:/temp/dataset/4/5_3.odb,Step-1,Increment      1: Step Time =    1.000,"PART-1-1",           220,      -10.7891,       18.2216,            0.,NA,NA,"",       5.13279,       4.51240,       2.44619,   7.30753E-06
C:/temp/dataset/4/5_3.odb,Step-1,Increment      1: Step Time =    1.000,"PART-1-1",           221,      -11.1555,       7.76515,            0.,NA,NA,"",       4.00113,       3.03847,       2.60321,   179.204E-06
C:/temp/dataset/4/5_3.odb,Step-1,Increment      1: Step Time =    1.000,"PART-1-1",           222,      -9.80329,       4.04682,            0.,NA,NA,"",       3.49987,       2.50129,       2.44799,   1.79301E-03
C:/temp/dataset/4/5_3.odb,Step-1,Increment      1: Step Time =    1.000,"PART-1-1",           223,       9.22674,      -25.9093,            0.,NA,NA,"",   32.4873E-03,   27.5939E-03,   17.1464E-03,   5.30618E-03
C:/temp/dataset/4/5_3.odb,Step-1,Increment      1: Step Time =    1.000,"PART-1-1",           224,      -9.21421,       25.1107,            0.,NA,NA,"",       5.87925,       5.47028,       2.15444,   279.721E-09
C:/temp/dataset/4/5_3.odb,Step-1,Increment      1: Step Time =    1.000,"PART-1-1",           225,       6.25241,      -4.60112,            0.,NA,NA,"",       1.31119,       1.26312,   351.802E-03,   10.8366E-03
C:/temp/dataset/4/5_3.odb,Step-1,Increment      1: Step Time =    1.000,"PART-1-1",           226,      -7.19550,       4.55405,            0.,NA,NA,"",       3.28075,       2.54190,       2.07415,   3.07383E-03
C:/temp/dataset/4/5_3.odb,Step-1,Increment      1: Step Time =    1.000,"PART-1-1",           227,       12.9551,      -24.6090,            0.,NA,NA,"",   78.2252E-03,   56.6133E-03,  -53.9826E-03,   11.5928E-03
C:/temp/dataset/4/5_3.odb,Step-1,Increment      1: Step Time =    1.000,"PART-1-1",           228,       10.9241,       22.1645,            0.,NA,NA,"",       4.18888,       4.18055,  -264.011E-03,   1.25060E-06
C:/temp/dataset/4/5_3.odb,Step-1,Increment      1: Step Time =    1.000,"PART-1-1",           229,      -4.91288,   464.762E-03,            0.,NA,NA,"",       2.64526,       1.95250,       1.78469,   4.35386E-03
C:/temp/dataset/4/5_3.odb,Step-1,Increment      1: Step Time =    1.000,"PART-1-1",           230,  -831.143E-03,      -1.35374,            0.,NA,NA,"",       2.08578,       1.67836,       1.23837,   4.65124E-03
C:/temp/dataset/4/5_3.odb,Step-1,Increment      1: Step Time =    1.000,"PART-1-1",           231,       11.1616,      -19.7398,            0.,NA,NA,"",   204.414E-03,   201.635E-03,  -33.5920E-03,   3.25979E-03
C:/temp/dataset/4/5_3.odb,Step-1,Increment      1: Step Time =    1.000,"PART-1-1",           232,       10.9730,      -10.3410,            0.,NA,NA,"",   750.684E-03,   748.099E-03,  -62.2348E-03,   2.38076E-03
C:/temp/dataset/4/5_3.odb,Step-1,Increment      1: Step Time =    1.000,"PART-1-1",           233,       10.4844,      -5.04269,            0.,NA,NA,"",       1.21083,       1.20969,  -52.5891E-03,   5.98737E-03
C:/temp/dataset/4/5_3.odb,Step-1,Increment      1: Step Time =    1.000,"PART-1-1",           234,       10.9074,       10.5689,            0.,NA,NA,"",       2.93265,       2.92625,  -193.624E-03,   213.390E-06
C:/temp/dataset/4/5_3.odb,Step-1,Increment      1: Step Time =    1.000,"PART-1-1",           235,       11.0515,      -12.7377,            0.,NA,NA,"",   579.653E-03,   576.908E-03,  -56.3371E-03,   2.58428E-03
C:/temp/dataset/4/5_3.odb,Step-1,Increment      1: Step Time =    1.000,"PART-1-1",           236,       10.9936,       12.8990,            0.,NA,NA,"",       3.18524,       3.17785,  -216.893E-03,   150.465E-06
C:/temp/dataset/4/5_3.odb,Step-1,Increment      1: Step Time =    1.000,"PART-1-1",           237,      -9.84553,  -403.770E-03,            0.,NA,NA,"",       3.12788,       1.88455,       2.49642,   3.57953E-03
C:/temp/dataset/4/5_3.odb,Step-1,Increment      1: Step Time =    1.000,"PART-1-1",           238,      -6.42098,  -599.403E-03,            0.,NA,NA,"",       2.71257,       1.82371,       2.00801,   4.19376E-03
C:/temp/dataset/4/5_3.odb,Step-1,Increment      1: Step Time =    1.000,"PART-1-1",           239,      -2.35214,      -1.85066,            0.,NA,NA,"",       2.17676,       1.62304,       1.45052,   4.90501E-03
C:/temp/dataset/4/5_3.odb,Step-1,Increment      1: Step Time =    1.000,"PART-1-1",           240,       11.1625,      -21.9830,            0.,NA,NA,"",   123.585E-03,   120.905E-03,  -25.5969E-03,   3.33479E-03
C:/temp/dataset/4/5_3.odb,Step-1,Increment      1: Step Time =    1.000,"PART-1-1",           241,       11.1073,      -15.0998,            0.,NA,NA,"",   432.399E-03,   429.568E-03,  -49.3955E-03,   2.88956E-03
C:/temp/dataset/4/5_3.odb,Step-1,Increment      1: Step Time =    1.000,"PART-1-1",           242,       11.1457,      -17.4375,            0.,NA,NA,"",   307.372E-03,   304.519E-03,  -41.7828E-03,   3.13525E-03
C:/temp/dataset/4/5_3.odb,Step-1,Increment      1: Step Time =    1.000,"PART-1-1",           243,       10.8340,      -7.85693,            0.,NA,NA,"",   951.616E-03,   949.408E-03,  -64.7894E-03,   3.09408E-03
C:/temp/dataset/4/5_3.odb,Step-1,Increment      1: Step Time =    1.000,"PART-1-1",           244,       10.5842,   120.255E-03,            0.,NA,NA,"",       1.77119,       1.76836,  -100.173E-03,   8.47376E-03
C:/temp/dataset/4/5_3.odb,Step-1,Increment      1: Step Time =    1.000,"PART-1-1",           245,       10.8633,      -2.34188,            0.,NA,NA,"",       1.49536,       1.49131,  -109.900E-03,   8.60414E-03
C:/temp/dataset/4/5_3.odb,Step-1,Increment      1: Step Time =    1.000,"PART-1-1",           246,       9.78574,       2.89226,            0.,NA,NA,"",       2.09114,       2.09088,  -32.7129E-03,   6.65676E-03
C:/temp/dataset/4/5_3.odb,Step-1,Increment      1: Step Time =    1.000,"PART-1-1",           247,       10.7685,       8.18214,            0.,NA,NA,"",       2.67343,       2.66837,  -164.428E-03,   452.984E-06
C:/temp/dataset/4/5_3.odb,Step-1,Increment      1: Step Time =    1.000,"PART-1-1",           248,       10.4587,       5.69287,            0.,NA,NA,"",       2.40135,       2.39848,  -117.279E-03,   2.40560E-03
C:/temp/dataset/4/5_3.odb,Step-1,Increment      1: Step Time =    1.000,"PART-1-1",           249,       11.0104,       19.8565,            0.,NA,NA,"",       3.93893,       3.93035,  -259.798E-03,   7.06820E-06
C:/temp/dataset/4/5_3.odb,Step-1,Increment      1: Step Time =    1.000,"PART-1-1",           250,       11.0363,       17.5467,            0.,NA,NA,"",       3.68873,       3.68031,  -249.014E-03,   26.2645E-06
C:/temp/dataset/4/5_3.odb,Step-1,Increment      1: Step Time =    1.000,"PART-1-1",           251,       11.0403,       15.2208,            0.,NA,NA,"",       3.43680,       3.42870,  -235.740E-03,   72.2132E-06
C:/temp/dataset/4/5_3.odb,Step-1,Increment      1: Step Time =    1.000,"PART-1-1",           252,       1.19009,      -1.06873,            0.,NA,NA,"",       1.95736,       1.70178,   967.051E-03,   4.92372E-03
C:/temp/dataset/4/5_3.odb,Step-1,Increment      1: Step Time =    1.000,"PART-1-1",           253,       10.6932,       24.5073,            0.,NA,NA,"",       4.44256,       4.43537,  -252.779E-03,   571.895E-09
C:/temp/dataset/4/5_3.odb,Step-1,Increment      1: Step Time =    1.000,"PART-1-1",           254,       8.51128,       25.6419,            0.,NA,NA,"",       4.57098,       4.57092,  -23.3786E-03,   502.339E-09
C:/temp/dataset/4/5_3.odb,Step-1,Increment      1: Step Time =    1.000,"PART-1-1",           255,      -9.32324,       5.48290,            0.,NA,NA,"",       3.58849,       2.69742,       2.36668,   1.11231E-03
C:/temp/dataset/4/5_3.odb,Step-1,Increment      1: Step Time =    1.000,"PART-1-1",           256,      -11.4569,       25.7537,            0.,NA,NA,"",       6.10356,       5.58367,       2.46496,   253.726E-09
C:/temp/dataset/4/5_3.odb,Step-1,Increment      1: Step Time =    1.000,"PART-1-1",           257,      -8.85145,       2.84717,            0.,NA,NA,"",       3.28580,       2.32324,       2.32358,   3.00142E-03
C:/temp/dataset/4/5_3.odb,Step-1,Increment      1: Step Time =    1.000,"PART-1-1",           258,       11.0896,      -24.0706,            0.,NA,NA,"",   65.2962E-03,   63.0945E-03,  -16.8129E-03,   3.09039E-03
C:/temp/dataset/4/5_3.odb,Step-1,Increment      1: Step Time =    1.000,"PART-1-1",           259,       5.69240,      -2.12345,            0.,NA,NA,"",       1.59859,       1.54383,   414.826E-03,   8.68082E-03
C:/temp/dataset/4/5_3.odb,Step-1,Increment      1: Step Time =    1.000,"PART-1-1",           260,       7.72467,       1.38687,            0.,NA,NA,"",       1.94574,       1.93659,   188.442E-03,   8.78768E-03
C:/temp/dataset/4/5_3.odb,Step-1,Increment      1: Step Time =    1.000,"PART-1-1",           261,       8.83369,  -368.727E-03,            0.,NA,NA,"",       1.72534,       1.72349,   79.8388E-03,   9.21003E-03
C:/temp/dataset/4/5_3.odb,Step-1,Increment      1: Step Time =    1.000,"PART-1-1",           262,       7.58912,       4.39900,            0.,NA,NA,"",       2.29009,       2.28175,   195.326E-03,   6.99146E-03
C:/temp/dataset/4/5_3.odb,Step-1,Increment      1: Step Time =    1.000,"PART-1-1",           263,      -6.02595,       2.23751,            0.,NA,NA,"",       2.92839,       2.20497,       1.92707,   4.72566E-03
C:/temp/dataset/4/5_3.odb,Step-1,Increment      1: Step Time =    1.000,"PART-1-1",           264,       4.92391,   813.983E-03,            0.,NA,NA,"",       1.96121,       1.89746,   495.986E-03,   5.36593E-03
C:/temp/dataset/4/5_3.odb,Step-1,Increment      1: Step Time =    1.000,"PART-1-1",           265,      -7.77287,       1.11371,            0.,NA,NA,"",       3.01109,       2.07170,       2.18511,   4.01324E-03
C:/temp/dataset/4/5_3.odb,Step-1,Increment      1: Step Time =    1.000,"PART-1-1",           266,      -3.71710,       1.36231,            0.,NA,NA,"",       2.61403,       2.05966,       1.60965,   4.44315E-03
C:/temp/dataset/4/5_3.odb,Step-1,Increment      1: Step Time =    1.000,"PART-1-1",           267,       2.85817,       1.10052,            0.,NA,NA,"",       2.08914,       1.95338,   740.832E-03,   3.94791E-03
C:/temp/dataset/4/5_3.odb,Step-1,Increment      1: Step Time =    1.000,"PART-1-1",           268,       7.51165,      -2.37377,            0.,NA,NA,"",       1.51839,       1.50222,   220.991E-03,   9.16159E-03
C:/temp/dataset/4/5_3.odb,Step-1,Increment      1: Step Time =    1.000,"PART-1-1",           269,      -1.84913,   666.939E-03,            0.,NA,NA,"",       2.37480,       1.94793,       1.35840,   4.21525E-03
C:/temp/dataset/4/5_3.odb,Step-1,Increment      1: Step Time =    1.000,"PART-1-1",           270,   621.955E-03,   989.730E-03,            0.,NA,NA,"",       2.21559,       1.96360,       1.02620,   4.25570E-03
C:/temp/dataset/4/5_3.odb,Step-1,Increment      1: Step Time =    1.000,"PART-1-1",           271,       7.77182,      -4.29185,            0.,NA,NA,"",       1.30698,       1.29161,   199.858E-03,   7.57755E-03
C:/temp/dataset/4/5_3.odb,Step-1,Increment      1: Step Time =    1.000,"PART-1-1",           272,       6.40836,       5.42027,            0.,NA,NA,"",       2.42597,       2.40478,   319.953E-03,   5.92944E-03
C:/temp/dataset/4/5_3.odb,Step-1,Increment      1: Step Time =    1.000,"PART-1-1",           273,      -12.5139,      -2.82358,            0.,NA,NA,"",       3.30476,       1.57170,       2.90710,   3.11463E-03
C:/temp/dataset/4/5_3.odb,Step-1,Increment      1: Step Time =    1.000,"PART-1-1",           274,       10.8188,      -25.6946,            0.,NA,NA,"",   30.7466E-03,   29.8019E-03,  -7.56305E-03,   2.05798E-03
C:/temp/dataset/4/5_3.odb,Step-1,Increment      1: Step Time =    1.000,"PART-1-1",           275,       6.49302,  -163.532E-03,            0.,NA,NA,"",       1.79597,       1.76655,   323.751E-03,   7.79662E-03
C:/temp/dataset/4/5_3.odb,Step-1,Increment      1: Step Time =    1.000,"PART-1-1",           276,       7.60941,  -936.337E-03,            0.,NA,NA,"",       1.67947,       1.66664,   207.227E-03,   9.04473E-03
C:/temp/dataset/4/5_3.odb,Step-1,Increment      1: Step Time =    1.000,"PART-1-1",           277,       9.17282,      -2.25688,            0.,NA,NA,"",       1.50798,       1.50699,   54.8141E-03,   8.80855E-03
C:/temp/dataset/4/5_3.odb,Step-1,Increment      1: Step Time =    1.000,"PART-1-1",           278,       9.10690,      -3.89703,            0.,NA,NA,"",       1.33110,       1.32928,   69.6633E-03,   7.14265E-03
C:/temp/dataset/4/5_3.odb,Step-1,Increment      1: Step Time =    1.000,"PART-1-1",           279,      -7.91199,      -1.40732,            0.,NA,NA,"",       2.81991,       1.72734,       2.22894,   3.91660E-03
C:/temp/dataset/4/5_3.odb,Step-1,Increment      1: Step Time =    1.000,"PART-1-1",           280,      -9.83927,       21.3699,            0.,NA,NA,"",       5.44802,       4.94783,       2.28034,   885.472E-09
C:/temp/dataset/4/5_3.odb,Step-1,Increment      1: Step Time =    1.000,"PART-1-1",           281,      -11.2653,       5.77953,            0.,NA,NA,"",       3.81811,       2.75991,       2.63834,   658.436E-06
C:/temp/dataset/4/5_3.odb,Step-1,Increment      1: Step Time =    1.000,"PART-1-1",           282,      -11.2487,       3.84080,            0.,NA,NA,"",       3.63851,       2.48811,       2.65482,   1.48032E-03
C:/temp/dataset/4/5_3.odb,Step-1,Increment      1: Step Time =    1.000,"PART-1-1",           283,       3.11059,  -868.354E-03,            0.,NA,NA,"",       1.85813,       1.71310,   719.678E-03,   3.66924E-03
C:/temp/dataset/4/5_3.odb,Step-1,Increment      1: Step Time =    1.000,"PART-1-1",           284,       4.50766,  -682.768E-03,            0.,NA,NA,"",       1.80873,       1.72342,   548.921E-03,   4.54864E-03
C:/temp/dataset/4/5_3.odb,Step-1,Increment      1: Step Time =    1.000,"PART-1-1",           285,      -3.56662,  -854.847E-03,            0.,NA,NA,"",       2.38695,       1.76363,       1.60846,   4.30430E-03
C:/temp/dataset/4/5_3.odb,Step-1,Increment      1: Step Time =    1.000,"PART-1-1",           286,      -7.33150,       26.6843,            0.,NA,NA,"",       5.97480,       5.67378,       1.87255,   214.293E-09
C:/temp/dataset/4/5_3.odb,Step-1,Increment      1: Step Time =    1.000,"PART-1-1",           287,      -6.09303,       25.7233,            0.,NA,NA,"",       5.78324,       5.52553,       1.70716,   203.896E-09
C:/temp/dataset/4/5_3.odb,Step-1,Increment      1: Step Time =    1.000,"PART-1-1",           288,           -5.,        26.875,            0.,NA,NA,"",       5.88278,       5.67733,       1.54111,   155.788E-09
C:/temp/dataset/4/5_3.odb,Step-1,Increment      1: Step Time =    1.000,"PART-1-1",           289,      -6.23847,       27.8360,            0.,NA,NA,"",       6.07038,       5.82558,       1.70651,   94.5082E-09
C:/temp/dataset/4/5_3.odb,Step-1,Increment      1: Step Time =    1.000,"PART-1-1",           290,      -8.20013,       25.3620,            0.,NA,NA,"",       5.85117,       5.49561,       2.00860,   238.201E-09
C:/temp/dataset/4/5_3.odb,Step-1,Increment      1: Step Time =    1.000,"PART-1-1",           291,      -8.98257,       24.1636,            0.,NA,NA,"",       5.74408,       5.33408,       2.13121,   260.291E-09
C:/temp/dataset/4/5_3.odb,Step-1,Increment      1: Step Time =    1.000,"PART-1-1",           292,      -7.83587,       23.3915,            0.,NA,NA,"",       5.57568,       5.21345,       1.97689,   245.475E-09
C:/temp/dataset/4/5_3.odb,Step-1,Increment      1: Step Time =    1.000,"PART-1-1",           293,      -7.05344,       24.5900,            0.,NA,NA,"",       5.68584,       5.37498,       1.85428,   289.672E-09
C:/temp/dataset/4/5_3.odb,Step-1,Increment      1: Step Time =    1.000,"PART-1-1",           294,      -6.78951,       20.5788,            0.,NA,NA,"",       5.15183,       4.80541,       1.85724,   948.952E-09
C:/temp/dataset/4/5_3.odb,Step-1,Increment      1: Step Time =    1.000,"PART-1-1",           295,      -5.89603,       19.5861,            0.,NA,NA,"",       4.97097,       4.65615,       1.74092,   801.810E-09
C:/temp/dataset/4/5_3.odb,Step-1,Increment      1: Step Time =    1.000,"PART-1-1",           296,           -5.,        20.625,            0.,NA,NA,"",       5.05516,       4.79398,       1.60386,   892.195E-09
C:/temp/dataset/4/5_3.odb,Step-1,Increment      1: Step Time =    1.000,"PART-1-1",           297,      -5.89348,       21.6177,            0.,NA,NA,"",       5.23399,       4.94325,       1.72017,   504.398E-09
C:/temp/dataset/4/5_3.odb,Step-1,Increment      1: Step Time =    1.000,"PART-1-1",           298,      -7.97413,       13.6001,            0.,NA,NA,"",       4.36633,       3.83103,       2.09476,   48.7352E-06
C:/temp/dataset/4/5_3.odb,Step-1,Increment      1: Step Time =    1.000,"PART-1-1",           299,      -8.98702,       12.6704,            0.,NA,NA,"",       4.33740,       3.70979,       2.24733,   76.2474E-06
C:/temp/dataset/4/5_3.odb,Step-1,Increment      1: Step Time =    1.000,"PART-1-1",           300,      -8.00249,       11.5116,            0.,NA,NA,"",       4.12288,       3.53618,       2.11981,   87.6049E-06
C:/temp/dataset/4/5_3.odb,Step-1,Increment      1: Step Time =    1.000,"PART-1-1",           301,      -6.98959,       12.4413,            0.,NA,NA,"",       4.15289,       3.65741,       1.96718,   80.0474E-06
C:/temp/dataset/4/5_3.odb,Step-1,Increment      1: Step Time =    1.000,"PART-1-1",           302,      -9.95004,      -1.64066,            0.,NA,NA,"",       3.05155,       1.71424,       2.52454,   3.53470E-03
C:/temp/dataset/4/5_3.odb,Step-1,Increment      1: Step Time =    1.000,"PART-1-1",           303,      -11.1983,  -513.068E-03,            0.,NA,NA,"",       3.28462,       1.88258,       2.69159,   2.99318E-03
C:/temp/dataset/4/5_3.odb,Step-1,Increment      1: Step Time =    1.000,"PART-1-1",           304,      -12.5325,      -1.72297,            0.,NA,NA,"",       3.37171,       1.72627,       2.89628,   2.75925E-03
C:/temp/dataset/4/5_3.odb,Step-1,Increment      1: Step Time =    1.000,"PART-1-1",           305,      -11.2842,      -2.85056,            0.,NA,NA,"",       3.14363,       1.55724,       2.73083,   3.50790E-03
C:/temp/dataset/4/5_3.odb,Step-1,Increment      1: Step Time =    1.000,"PART-1-1",           306,      -10.2834,   741.336E-03,            0.,NA,NA,"",       3.26829,       2.04731,       2.54760,   3.03965E-03
C:/temp/dataset/4/5_3.odb,Step-1,Increment      1: Step Time =    1.000,"PART-1-1",           307,      -11.7661,       1.72477,            0.,NA,NA,"",       3.52035,       2.19883,       2.74918,   2.15705E-03
C:/temp/dataset/4/5_3.odb,Step-1,Increment      1: Step Time =    1.000,"PART-1-1",           308,      -12.6810,   470.366E-03,            0.,NA,NA,"",       3.53573,       2.03349,       2.89245,   2.23065E-03
C:/temp/dataset/4/5_3.odb,Step-1,Increment      1: Step Time =    1.000,"PART-1-1",           309,         -1.25,           -5.,            0.,NA,NA,"",       1.79806,       1.20204,       1.33721,   9.48177E-03
C:/temp/dataset/4/5_3.odb,Step-1,Increment      1: Step Time =    1.000,"PART-1-1",           310,  -165.329E-03,      -4.13131,            0.,NA,NA,"",       1.76742,       1.31583,       1.17999,   8.84364E-03
C:/temp/dataset/4/5_3.odb,Step-1,Increment      1: Step Time =    1.000,"PART-1-1",           311,      -1.46228,      -3.26668,            0.,NA,NA,"",       1.96451,       1.43244,       1.34440,   6.81176E-03
C:/temp/dataset/4/5_3.odb,Step-1,Increment      1: Step Time =    1.000,"PART-1-1",           312,      -2.54695,      -4.13537,            0.,NA,NA,"",       2.00061,       1.32023,       1.50314,   7.30052E-03
C:/temp/dataset/4/5_3.odb,Step-1,Increment      1: Step Time =    1.000,"PART-1-1",           313,   769.081E-03,      -3.16387,            0.,NA,NA,"",       1.77795,       1.43960,       1.04340,   8.00967E-03
C:/temp/dataset/4/5_3.odb,Step-1,Increment      1: Step Time =    1.000,"PART-1-1",           314,          1.25,           -5.,            0.,NA,NA,"",       1.56578,       1.20228,       1.00310,   11.7192E-03
C:/temp/dataset/4/5_3.odb,Step-1,Increment      1: Step Time =    1.000,"PART-1-1",           315,       2.18441,      -4.03256,            0.,NA,NA,"",       1.58607,       1.32909,   865.528E-03,   10.5792E-03
C:/temp/dataset/4/5_3.odb,Step-1,Increment      1: Step Time =    1.000,"PART-1-1",           316,       1.54561,       3.01681,            0.,NA,NA,"",       2.38040,       2.20539,   895.865E-03,   7.76056E-03
C:/temp/dataset/4/5_3.odb,Step-1,Increment      1: Step Time =    1.000,"PART-1-1",           317,       2.64536,       4.01417,            0.,NA,NA,"",       2.43066,       2.31061,   754.431E-03,   11.1849E-03
C:/temp/dataset/4/5_3.odb,Step-1,Increment      1: Step Time =    1.000,"PART-1-1",           318,          1.25,            5.,            0.,NA,NA,"",       2.63065,       2.46189,   927.070E-03,   13.1589E-03
C:/temp/dataset/4/5_3.odb,Step-1,Increment      1: Step Time =    1.000,"PART-1-1",           319,   150.245E-03,       4.00264,            0.,NA,NA,"",       2.58553,       2.35307,       1.07146,   9.57934E-03
C:/temp/dataset/4/5_3.odb,Step-1,Increment      1: Step Time =    1.000,"PART-1-1",           320,   179.474E-03,      -1.21124,            0.,NA,NA,"",       2.01760,       1.69012,       1.10190,   4.88441E-03
C:/temp/dataset/4/5_3.odb,Step-1,Increment      1: Step Time =    1.000,"PART-1-1",           321,  -580.901E-03,      -2.30818,            0.,NA,NA,"",       1.97218,       1.55387,       1.21449,   6.03209E-03
C:/temp/dataset/4/5_3.odb,Step-1,Increment      1: Step Time =    1.000,"PART-1-1",           322,       1.52946,      -2.06693,            0.,NA,NA,"",       1.83057,       1.57565,   931.838E-03,   6.91986E-03
C:/temp/dataset/4/5_3.odb,Step-1,Increment      1: Step Time =    1.000,"PART-1-1",           323,       12.7868,      -3.71378,            0.,NA,NA,"",       1.37114,       1.34169,  -282.688E-03,   9.13550E-03
C:/temp/dataset/4/5_3.odb,Step-1,Increment      1: Step Time =    1.000,"PART-1-1",           324,       13.8814,      -5.00619,            0.,NA,NA,"",       1.26716,       1.21192,  -370.044E-03,   12.7266E-03
C:/temp/dataset/4/5_3.odb,Step-1,Increment      1: Step Time =    1.000,"PART-1-1",           325,           15.,         -3.75,            0.,NA,NA,"",       1.42968,       1.33834,  -502.801E-03,   14.4607E-03
C:/temp/dataset/4/5_3.odb,Step-1,Increment      1: Step Time =    1.000,"PART-1-1",           326,       13.9054,      -2.45760,            0.,NA,NA,"",       1.52874,       1.47247,  -410.941E-03,   9.95660E-03
C:/temp/dataset/4/5_3.odb,Step-1,Increment      1: Step Time =    1.000,"PART-1-1",           327,       5.10003,      -1.40311,            0.,NA,NA,"",       1.70265,       1.63311,   481.633E-03,   6.38376E-03
C:/temp/dataset/4/5_3.odb,Step-1,Increment      1: Step Time =    1.000,"PART-1-1",           328,       3.80913,  -775.561E-03,            0.,NA,NA,"",       1.83159,       1.71852,   633.566E-03,   3.76371E-03
C:/temp/dataset/4/5_3.odb,Step-1,Increment      1: Step Time =    1.000,"PART-1-1",           329,       3.52110,      -1.80919,            0.,NA,NA,"",       1.73319,       1.59671,   674.125E-03,   5.64985E-03
C:/temp/dataset/4/5_3.odb,Step-1,Increment      1: Step Time =    1.000,"PART-1-1",           330,       4.81200,      -2.43673,            0.,NA,NA,"",       1.60035,       1.51459,   516.854E-03,   6.88885E-03
C:/temp/dataset/4/5_3.odb,Step-1,Increment      1: Step Time =    1.000,"PART-1-1",           331,           15.,          3.75,            0.,NA,NA,"",       2.23561,       2.15424,  -597.657E-03,   1.51607E-03
C:/temp/dataset/4/5_3.odb,Step-1,Increment      1: Step Time =    1.000,"PART-1-1",           332,       13.8386,       5.14064,            0.,NA,NA,"",       2.36455,       2.31546,  -479.323E-03,   986.780E-06
C:/temp/dataset/4/5_3.odb,Step-1,Increment      1: Step Time =    1.000,"PART-1-1",           333,       12.6076,       4.00525,            0.,NA,NA,"",       2.22215,       2.19627,  -338.131E-03,   3.20093E-03
C:/temp/dataset/4/5_3.odb,Step-1,Increment      1: Step Time =    1.000,"PART-1-1",           334,       13.7689,       2.61462,            0.,NA,NA,"",       2.08376,       2.03392,  -453.039E-03,   3.14043E-03
C:/temp/dataset/4/5_3.odb,Step-1,Increment      1: Step Time =    1.000,"PART-1-1",           335,       9.76439,       8.40859,            0.,NA,NA,"",       2.69990,       2.69930,  -57.0164E-03,   370.439E-06
C:/temp/dataset/4/5_3.odb,Step-1,Increment      1: Step Time =    1.000,"PART-1-1",           336,       8.59642,       7.53369,            0.,NA,NA,"",       2.61337,       2.61232,   74.1795E-03,   1.21680E-03
C:/temp/dataset/4/5_3.odb,Step-1,Increment      1: Step Time =    1.000,"PART-1-1",           337,       9.44563,       6.06261,            0.,NA,NA,"",       2.44692,       2.44690,  -10.0564E-03,   2.19564E-03
C:/temp/dataset/4/5_3.odb,Step-1,Increment      1: Step Time =    1.000,"PART-1-1",           338,       10.6136,       6.93751,            0.,NA,NA,"",       2.53785,       2.53395,  -140.587E-03,   1.32513E-03
C:/temp/dataset/4/5_3.odb,Step-1,Increment      1: Step Time =    1.000,"PART-1-1",           339,       5.92452,       9.07762,            0.,NA,NA,"",       2.81657,       2.79439,   352.785E-03,   398.417E-06
C:/temp/dataset/4/5_3.odb,Step-1,Increment      1: Step Time =    1.000,"PART-1-1",           340,            5.,         8.125,            0.,NA,NA,"",       2.73602,       2.69765,   456.605E-03,   856.500E-06
C:/temp/dataset/4/5_3.odb,Step-1,Increment      1: Step Time =    1.000,"PART-1-1",           341,       5.83838,       7.03541,            0.,NA,NA,"",       2.60439,       2.57748,   373.388E-03,   1.40114E-03
C:/temp/dataset/4/5_3.odb,Step-1,Increment      1: Step Time =    1.000,"PART-1-1",           342,       6.76290,       7.98803,            0.,NA,NA,"",       2.68625,       2.67274,   269.114E-03,   663.857E-06
C:/temp/dataset/4/5_3.odb,Step-1,Increment      1: Step Time =    1.000,"PART-1-1",           343,       6.00358,       15.4027,            0.,NA,NA,"",       3.49137,       3.47776,   308.002E-03,   40.0407E-06
C:/temp/dataset/4/5_3.odb,Step-1,Increment      1: Step Time =    1.000,"PART-1-1",           344,            5.,        14.375,            0.,NA,NA,"",       3.39882,       3.37245,   422.560E-03,   90.0932E-06
C:/temp/dataset/4/5_3.odb,Step-1,Increment      1: Step Time =    1.000,"PART-1-1",           345,       5.99171,       13.2884,            0.,NA,NA,"",       3.26488,       3.24900,   321.606E-03,   106.556E-06
C:/temp/dataset/4/5_3.odb,Step-1,Increment      1: Step Time =    1.000,"PART-1-1",           346,       6.99529,       14.3161,            0.,NA,NA,"",       3.36073,       3.35434,   207.127E-03,   94.4962E-06
C:/temp/dataset/4/5_3.odb,Step-1,Increment      1: Step Time =    1.000,"PART-1-1",           347,       11.7328,       24.6815,            0.,NA,NA,"",       4.46316,       4.44811,  -366.270E-03,   503.064E-09
C:/temp/dataset/4/5_3.odb,Step-1,Increment      1: Step Time =    1.000,"PART-1-1",           348,       12.6496,       26.1279,            0.,NA,NA,"",       4.62356,       4.59921,  -473.946E-03,   487.407E-09
C:/temp/dataset/4/5_3.odb,Step-1,Increment      1: Step Time =    1.000,"PART-1-1",           349,       11.2054,       27.2635,            0.,NA,NA,"",       4.74165,       4.73054,  -324.374E-03,   311.586E-09
C:/temp/dataset/4/5_3.odb,Step-1,Increment      1: Step Time =    1.000,"PART-1-1",           350,       10.2886,       25.8171,            0.,NA,NA,"",       4.58457,       4.57944,  -216.697E-03,   412.480E-09
C:/temp/dataset/4/5_3.odb,Step-1,Increment      1: Step Time =    1.000,"PART-1-1",           351,       12.5134,       28.7000,            0.,NA,NA,"",       4.90129,       4.87828,  -474.311E-03,   258.771E-09
C:/temp/dataset/4/5_3.odb,Step-1,Increment      1: Step Time =    1.000,"PART-1-1",           352,       13.7634,       27.4500,            0.,NA,NA,"",       4.77385,       4.73571,  -602.210E-03,   259.192E-09
C:/temp/dataset/4/5_3.odb,Step-1,Increment      1: Step Time =    1.000,"PART-1-1",           353,           15.,         28.75,            0.,NA,NA,"",       4.92555,       4.86909,  -743.626E-03,   79.7474E-09
C:/temp/dataset/4/5_3.odb,Step-1,Increment      1: Step Time =    1.000,"PART-1-1",           354,         13.75,           30.,            0.,NA,NA,"",       5.04935,       5.01167,  -615.727E-03,   60.2958E-09
C:/temp/dataset/4/5_3.odb,Step-1,Increment      1: Step Time =    1.000,"PART-1-1",           355,      -3.83569,      -2.96698,            0.,NA,NA,"",       2.23197,       1.48310,       1.66796,   5.22234E-03
C:/temp/dataset/4/5_3.odb,Step-1,Increment      1: Step Time =    1.000,"PART-1-1",           356,      -2.47303,      -2.56070,            0.,NA,NA,"",       2.12507,       1.53007,       1.47472,   5.37964E-03
C:/temp/dataset/4/5_3.odb,Step-1,Increment      1: Step Time =    1.000,"PART-1-1",           357,      -2.95938,      -1.35275,            0.,NA,NA,"",       2.28127,       1.69288,       1.52916,   4.47463E-03
C:/temp/dataset/4/5_3.odb,Step-1,Increment      1: Step Time =    1.000,"PART-1-1",           358,      -4.32205,      -1.75903,            0.,NA,NA,"",       2.38475,       1.64879,       1.72294,   4.26965E-03
C:/temp/dataset/4/5_3.odb,Step-1,Increment      1: Step Time =    1.000,"PART-1-1",           359,       8.60967,      -7.25473,            0.,NA,NA,"",       1.01613,       1.00851,   124.214E-03,   5.50587E-03
C:/temp/dataset/4/5_3.odb,Step-1,Increment      1: Step Time =    1.000,"PART-1-1",           360,       7.51358,      -6.44375,            0.,NA,NA,"",       1.10835,       1.08551,   223.849E-03,   10.3210E-03
C:/temp/dataset/4/5_3.odb,Step-1,Increment      1: Step Time =    1.000,"PART-1-1",           361,       6.75300,      -7.77251,            0.,NA,NA,"",       1.01663,   976.910E-03,   281.412E-03,   15.1754E-03
C:/temp/dataset/4/5_3.odb,Step-1,Increment      1: Step Time =    1.000,"PART-1-1",           362,       7.84909,      -8.58350,            0.,NA,NA,"",   919.644E-03,   901.068E-03,   183.904E-03,   10.2832E-03
C:/temp/dataset/4/5_3.odb,Step-1,Increment      1: Step Time =    1.000,"PART-1-1",           363,       7.07130,      -14.2100,            0.,NA,NA,"",   536.216E-03,   500.731E-03,   191.823E-03,   14.0275E-03
C:/temp/dataset/4/5_3.odb,Step-1,Increment      1: Step Time =    1.000,"PART-1-1",           364,       6.02882,      -13.2279,            0.,NA,NA,"",   633.228E-03,   573.254E-03,   268.992E-03,   18.1982E-03
C:/temp/dataset/4/5_3.odb,Step-1,Increment      1: Step Time =    1.000,"PART-1-1",           365,            5.,       -14.375,            0.,NA,NA,"",   600.032E-03,   511.184E-03,   314.212E-03,   22.5044E-03
C:/temp/dataset/4/5_3.odb,Step-1,Increment      1: Step Time =    1.000,"PART-1-1",           366,       6.04247,      -15.3570,            0.,NA,NA,"",   500.854E-03,   441.082E-03,   237.279E-03,   18.3288E-03
C:/temp/dataset/4/5_3.odb,Step-1,Increment      1: Step Time =    1.000,"PART-1-1",           367,       7.02995,      -12.0379,            0.,NA,NA,"",   680.415E-03,   644.820E-03,   217.189E-03,   14.1109E-03
C:/temp/dataset/4/5_3.odb,Step-1,Increment      1: Step Time =    1.000,"PART-1-1",           368,       6.00113,      -11.1016,            0.,NA,NA,"",   782.143E-03,   722.101E-03,   300.528E-03,   18.1315E-03
C:/temp/dataset/4/5_3.odb,Step-1,Increment      1: Step Time =    1.000,"PART-1-1",           369,            5.,      -12.2917,            0.,NA,NA,"",   737.496E-03,   648.286E-03,   351.606E-03,   22.2397E-03
C:/temp/dataset/4/5_3.odb,Step-1,Increment      1: Step Time =    1.000,"PART-1-1",           370,            5.,      -22.7083,            0.,NA,NA,"",   199.327E-03,   129.820E-03,   151.254E-03,   23.3112E-03
C:/temp/dataset/4/5_3.odb,Step-1,Increment      1: Step Time =    1.000,"PART-1-1",           371,       6.05922,      -23.7899,            0.,NA,NA,"",   136.924E-03,   90.0301E-03,   103.164E-03,   18.8816E-03
C:/temp/dataset/4/5_3.odb,Step-1,Increment      1: Step Time =    1.000,"PART-1-1",           372,       7.11013,      -22.7834,            0.,NA,NA,"",   141.579E-03,   109.038E-03,   90.3058E-03,   14.3337E-03
C:/temp/dataset/4/5_3.odb,Step-1,Increment      1: Step Time =    1.000,"PART-1-1",           373,       6.05091,      -21.7018,            0.,NA,NA,"",   204.490E-03,   151.063E-03,   137.826E-03,   18.7593E-03
C:/temp/dataset/4/5_3.odb,Step-1,Increment      1: Step Time =    1.000,"PART-1-1",           374,          8.75,          -30.,            0.,NA,NA,"",            0.,  -3.41585E-39,   11.1024E-39,   6.24773E-03
C:/temp/dataset/4/5_3.odb,Step-1,Increment      1: Step Time =    1.000,"PART-1-1",           375,       9.84988,      -28.9274,            0.,NA,NA,"",   2.99879E-03,  -2.53424E-03,   1.60325E-03,   2.57137E-03
C:/temp/dataset/4/5_3.odb,Step-1,Increment      1: Step Time =    1.000,"PART-1-1",           376,       8.52411,      -27.9095,            0.,NA,NA,"",   13.9804E-03,   4.96861E-03,   13.0677E-03,   8.45638E-03
C:/temp/dataset/4/5_3.odb,Step-1,Increment      1: Step Time =    1.000,"PART-1-1",           377,       7.42422,      -28.9821,            0.,NA,NA,"",   9.60247E-03,   1.04071E-03,   9.54590E-03,   11.6112E-03
C:/temp/dataset/4/5_3.odb,Step-1,Increment      1: Step Time =    1.000,"PART-1-1",           378,       10.1104,      -23.9794,            0.,NA,NA,"",   65.5252E-03,   65.2932E-03,   5.50876E-03,   1.49676E-03
C:/temp/dataset/4/5_3.odb,Step-1,Increment      1: Step Time =    1.000,"PART-1-1",           379,       11.1261,      -23.0268,            0.,NA,NA,"",   92.3333E-03,   89.9089E-03,  -21.0197E-03,   3.22326E-03
C:/temp/dataset/4/5_3.odb,Step-1,Increment      1: Step Time =    1.000,"PART-1-1",           380,       10.1523,      -21.9025,            0.,NA,NA,"",   123.757E-03,   123.619E-03,   5.83484E-03,   1.21763E-03
C:/temp/dataset/4/5_3.odb,Step-1,Increment      1: Step Time =    1.000,"PART-1-1",           381,       9.13660,      -22.8552,            0.,NA,NA,"",   102.426E-03,   96.8544E-03,   33.3204E-03,   5.64262E-03
C:/temp/dataset/4/5_3.odb,Step-1,Increment      1: Step Time =    1.000,"PART-1-1",           382,       7.09296,      -18.5383,            0.,NA,NA,"",   302.841E-03,   267.370E-03,   142.217E-03,   14.1412E-03
C:/temp/dataset/4/5_3.odb,Step-1,Increment      1: Step Time =    1.000,"PART-1-1",           383,       6.04465,      -17.4814,            0.,NA,NA,"",   385.620E-03,   326.570E-03,   205.072E-03,   18.4838E-03
C:/temp/dataset/4/5_3.odb,Step-1,Increment      1: Step Time =    1.000,"PART-1-1",           384,            5.,      -18.5417,            0.,NA,NA,"",   370.640E-03,   286.633E-03,   234.980E-03,   22.9727E-03
C:/temp/dataset/4/5_3.odb,Step-1,Increment      1: Step Time =    1.000,"PART-1-1",           385,       6.04831,      -19.5985,            0.,NA,NA,"",   286.928E-03,   229.815E-03,   171.794E-03,   18.6265E-03
C:/temp/dataset/4/5_3.odb,Step-1,Increment      1: Step Time =    1.000,"PART-1-1",           386,       8.88188,       22.9635,            0.,NA,NA,"",       4.27923,       4.27897,  -47.7526E-03,   808.211E-09
C:/temp/dataset/4/5_3.odb,Step-1,Increment      1: Step Time =    1.000,"PART-1-1",           387,       9.93448,       22.0483,            0.,NA,NA,"",       4.17671,       4.17378,  -156.261E-03,   1.31568E-06
C:/temp/dataset/4/5_3.odb,Step-1,Increment      1: Step Time =    1.000,"PART-1-1",           388,       10.8087,       23.3359,            0.,NA,NA,"",       4.31570,       4.30796,  -258.395E-03,   655.297E-09
C:/temp/dataset/4/5_3.odb,Step-1,Increment      1: Step Time =    1.000,"PART-1-1",           389,       9.75606,       24.2511,            0.,NA,NA,"",       4.41569,       4.41314,  -149.887E-03,   503.241E-09
C:/temp/dataset/4/5_3.odb,Step-1,Increment      1: Step Time =    1.000,"PART-1-1",           390,       10.0218,       17.5512,            0.,NA,NA,"",       3.68937,       3.68674,  -139.282E-03,   24.0496E-06
C:/temp/dataset/4/5_3.odb,Step-1,Increment      1: Step Time =    1.000,"PART-1-1",           391,       9.00837,       16.4411,            0.,NA,NA,"",       3.57263,       3.57255,  -23.1022E-03,   47.8253E-06
C:/temp/dataset/4/5_3.odb,Step-1,Increment      1: Step Time =    1.000,"PART-1-1",           392,       10.0249,       15.2736,            0.,NA,NA,"",       3.44264,       3.44033,  -126.168E-03,   65.3424E-06
C:/temp/dataset/4/5_3.odb,Step-1,Increment      1: Step Time =    1.000,"PART-1-1",           393,       11.0383,       16.3837,            0.,NA,NA,"",       3.56276,       3.55450,  -242.386E-03,   48.1987E-06
C:/temp/dataset/4/5_3.odb,Step-1,Increment      1: Step Time =    1.000,"PART-1-1",           394,      -14.0638,       5.89996,            0.,NA,NA,"",       4.13057,       2.80524,       3.03187,   177.200E-06
C:/temp/dataset/4/5_3.odb,Step-1,Increment      1: Step Time =    1.000,"PART-1-1",           395,      -13.1194,       6.91794,            0.,NA,NA,"",       4.12094,       2.93894,       2.88873,   168.897E-06
C:/temp/dataset/4/5_3.odb,Step-1,Increment      1: Step Time =    1.000,"PART-1-1",           396,      -14.0556,       8.04923,            0.,NA,NA,"",       4.32609,       3.10775,       3.00949,   144.304E-06
C:/temp/dataset/4/5_3.odb,Step-1,Increment      1: Step Time =    1.000,"PART-1-1",           397,          -15.,       7.03125,            0.,NA,NA,"",       4.33381,       2.97378,       3.15254,   230.105E-06
C:/temp/dataset/4/5_3.odb,Step-1,Increment      1: Step Time =    1.000,"PART-1-1",           398,      -14.0181,       12.3521,            0.,NA,NA,"",       4.75102,       3.71513,       2.96141,   58.1274E-06
C:/temp/dataset/4/5_3.odb,Step-1,Increment      1: Step Time =    1.000,"PART-1-1",           399,      -13.0189,       13.2775,            0.,NA,NA,"",       4.75562,       3.83592,       2.81097,   53.2963E-06
C:/temp/dataset/4/5_3.odb,Step-1,Increment      1: Step Time =    1.000,"PART-1-1",           400,      -14.0008,       14.5192,            0.,NA,NA,"",       4.97980,       4.02130,       2.93727,   23.8766E-06
C:/temp/dataset/4/5_3.odb,Step-1,Increment      1: Step Time =    1.000,"PART-1-1",           401,          -15.,       13.5938,            0.,NA,NA,"",       4.97476,       3.90052,       3.08775,   47.8302E-06
C:/temp/dataset/4/5_3.odb,Step-1,Increment      1: Step Time =    1.000,"PART-1-1",           402,      -10.1942,       21.9572,            0.,NA,NA,"",       5.54518,       5.03441,       2.32460,   600.457E-09
C:/temp/dataset/4/5_3.odb,Step-1,Increment      1: Step Time =    1.000,"PART-1-1",           403,      -9.14995,       21.4132,            0.,NA,NA,"",       5.40707,       4.94704,       2.18248,   758.699E-09
C:/temp/dataset/4/5_3.odb,Step-1,Increment      1: Step Time =    1.000,"PART-1-1",           404,      -8.60578,       22.3365,            0.,NA,NA,"",       5.48820,       5.07206,       2.09630,   371.614E-09
C:/temp/dataset/4/5_3.odb,Step-1,Increment      1: Step Time =    1.000,"PART-1-1",           405,      -9.65000,       22.8805,            0.,NA,NA,"",       5.62408,       5.15944,       2.23842,   283.478E-09
C:/temp/dataset/4/5_3.odb,Step-1,Increment      1: Step Time =    1.000,"PART-1-1",           406,      -14.0213,       25.7108,            0.,NA,NA,"",       6.27646,       5.60333,       2.82783,   209.867E-09
C:/temp/dataset/4/5_3.odb,Step-1,Increment      1: Step Time =    1.000,"PART-1-1",           407,      -12.8802,       26.8172,            0.,NA,NA,"",       6.33198,       5.74826,       2.65545,   200.579E-09
C:/temp/dataset/4/5_3.odb,Step-1,Increment      1: Step Time =    1.000,"PART-1-1",           408,      -13.8589,       27.8252,            0.,NA,NA,"",       6.52421,       5.90056,       2.78366,   91.7798E-09
C:/temp/dataset/4/5_3.odb,Step-1,Increment      1: Step Time =    1.000,"PART-1-1",           409,          -15.,       26.7188,            0.,NA,NA,"",       6.47035,       5.75563,       2.95604,   162.341E-09
C:/temp/dataset/4/5_3.odb,Step-1,Increment      1: Step Time =    1.000,"PART-1-1",           410,        -13.75,           30.,            0.,NA,NA,"",       6.78732,       6.20684,       2.74643,   23.7051E-09
C:/temp/dataset/4/5_3.odb,Step-1,Increment      1: Step Time =    1.000,"PART-1-1",           411,          -15.,       28.9063,            0.,NA,NA,"",       6.73726,       6.06480,       2.93408,   25.1093E-09
C:/temp/dataset/4/5_3.odb,Step-1,Increment      1: Step Time =    1.000,"PART-1-1",           412,      -12.6089,       28.9190,            0.,NA,NA,"",       6.57664,       6.04259,       2.59601,   100.556E-09
C:/temp/dataset/4/5_3.odb,Step-1,Increment      1: Step Time =    1.000,"PART-1-1",           413,      -11.4362,       27.6040,            0.,NA,NA,"",       6.33515,       5.84497,       2.44346,   133.376E-09
C:/temp/dataset/4/5_3.odb,Step-1,Increment      1: Step Time =    1.000,"PART-1-1",           414,      -10.0773,       28.6850,            0.,NA,NA,"",       6.38981,       5.98411,       2.24054,   133.216E-09
C:/temp/dataset/4/5_3.odb,Step-1,Increment      1: Step Time =    1.000,"PART-1-1",           415,        -11.25,           30.,            0.,NA,NA,"",       6.62879,       6.18174,       2.39309,   109.682E-09
C:/temp/dataset/4/5_3.odb,Step-1,Increment      1: Step Time =    1.000,"PART-1-1",           416,      -13.7240,       21.2404,            0.,NA,NA,"",       5.71831,       4.96852,       2.83069,   432.326E-09
C:/temp/dataset/4/5_3.odb,Step-1,Increment      1: Step Time =    1.000,"PART-1-1",           417,      -12.6979,       22.4429,            0.,NA,NA,"",       5.78329,       5.12819,       2.67359,   212.074E-09
C:/temp/dataset/4/5_3.odb,Step-1,Increment      1: Step Time =    1.000,"PART-1-1",           418,      -13.9739,       23.5463,            0.,NA,NA,"",       6.01162,       5.29695,       2.84286,   384.336E-09
C:/temp/dataset/4/5_3.odb,Step-1,Increment      1: Step Time =    1.000,"PART-1-1",           419,          -15.,       22.3438,            0.,NA,NA,"",       5.94907,       5.13728,       2.99996,   759.360E-09
C:/temp/dataset/4/5_3.odb,Step-1,Increment      1: Step Time =    1.000,"PART-1-1",           420,      -11.9375,       16.3352,            0.,NA,NA,"",       5.00280,       4.25730,       2.62744,   15.6998E-06
C:/temp/dataset/4/5_3.odb,Step-1,Increment      1: Step Time =    1.000,"PART-1-1",           421,      -10.8584,       17.1847,            0.,NA,NA,"",       5.01496,       4.36654,       2.46640,   13.8161E-06
C:/temp/dataset/4/5_3.odb,Step-1,Increment      1: Step Time =    1.000,"PART-1-1",           422,      -11.8099,       18.4796,            0.,NA,NA,"",       5.24238,       4.55910,       2.58787,   5.12084E-06
C:/temp/dataset/4/5_3.odb,Step-1,Increment      1: Step Time =    1.000,"PART-1-1",           423,      -12.8889,       17.6301,            0.,NA,NA,"",       5.23047,       4.44987,       2.74891,   8.92540E-06
C:/temp/dataset/4/5_3.odb,Step-1,Increment      1: Step Time =    1.000,"PART-1-1",           424,      -9.98079,       13.8692,            0.,NA,NA,"",       4.55736,       3.88915,       2.37572,   47.0032E-06
C:/temp/dataset/4/5_3.odb,Step-1,Increment      1: Step Time =    1.000,"PART-1-1",           425,      -11.0142,       12.9724,            0.,NA,NA,"",       4.54295,       3.77272,       2.53080,   66.5915E-06
C:/temp/dataset/4/5_3.odb,Step-1,Increment      1: Step Time =    1.000,"PART-1-1",           426,      -10.0204,       11.7735,            0.,NA,NA,"",       4.32251,       3.59335,       2.40247,   88.3236E-06
C:/temp/dataset/4/5_3.odb,Step-1,Increment      1: Step Time =    1.000,"PART-1-1",           427,      -6.95613,       14.5250,            0.,NA,NA,"",       4.40274,       3.95152,       1.94155,   38.0438E-06
C:/temp/dataset/4/5_3.odb,Step-1,Increment      1: Step Time =    1.000,"PART-1-1",           428,      -5.98929,       13.4097,            0.,NA,NA,"",       4.19741,       3.78421,       1.81604,   42.6718E-06
C:/temp/dataset/4/5_3.odb,Step-1,Increment      1: Step Time =    1.000,"PART-1-1",           429,           -5.,        14.375,            0.,NA,NA,"",       4.25098,       3.91068,       1.66656,   34.2983E-06
C:/temp/dataset/4/5_3.odb,Step-1,Increment      1: Step Time =    1.000,"PART-1-1",           430,      -5.96684,       15.4903,            0.,NA,NA,"",       4.45438,       4.07801,       1.79203,   14.9466E-06
C:/temp/dataset/4/5_3.odb,Step-1,Increment      1: Step Time =    1.000,"PART-1-1",           431,      -11.0581,       10.8707,            0.,NA,NA,"",       4.31600,       3.47612,       2.55821,   86.9072E-06
C:/temp/dataset/4/5_3.odb,Step-1,Increment      1: Step Time =    1.000,"PART-1-1",           432,      -10.0579,       9.67932,            0.,NA,NA,"",       4.09573,       3.29774,       2.42897,   95.5242E-06
C:/temp/dataset/4/5_3.odb,Step-1,Increment      1: Step Time =    1.000,"PART-1-1",           433,      -9.02030,       10.5821,            0.,NA,NA,"",       4.10235,       3.41497,       2.27316,   106.172E-06
C:/temp/dataset/4/5_3.odb,Step-1,Increment      1: Step Time =    1.000,"PART-1-1",           434,      -7.04064,       8.20966,            0.,NA,NA,"",       3.66448,       3.05941,       2.01703,   188.696E-06
C:/temp/dataset/4/5_3.odb,Step-1,Increment      1: Step Time =    1.000,"PART-1-1",           435,      -6.03068,       7.10065,            0.,NA,NA,"",       3.45160,       2.89146,       1.88494,   566.853E-06
C:/temp/dataset/4/5_3.odb,Step-1,Increment      1: Step Time =    1.000,"PART-1-1",           436,           -5.,         8.125,            0.,NA,NA,"",       3.48530,       3.02662,       1.72827,   402.649E-06
C:/temp/dataset/4/5_3.odb,Step-1,Increment      1: Step Time =    1.000,"PART-1-1",           437,      -6.00996,       9.23401,            0.,NA,NA,"",       3.69649,       3.19409,       1.86061,   200.090E-06
C:/temp/dataset/4/5_3.odb,Step-1,Increment      1: Step Time =    1.000,"PART-1-1",           438,      -13.0926,       9.02789,            0.,NA,NA,"",       4.32146,       3.23617,       2.86395,   59.9840E-06
C:/temp/dataset/4/5_3.odb,Step-1,Increment      1: Step Time =    1.000,"PART-1-1",           439,      -14.0370,       10.1974,            0.,NA,NA,"",       4.53292,       3.41082,       2.98557,   109.116E-06
C:/temp/dataset/4/5_3.odb,Step-1,Increment      1: Step Time =    1.000,"PART-1-1",           440,          -15.,       9.21875,            0.,NA,NA,"",       4.53628,       3.28231,       3.13118,   206.825E-06
C:/temp/dataset/4/5_3.odb,Step-1,Increment      1: Step Time =    1.000,"PART-1-1",           441,      -13.9055,       1.56280,            0.,NA,NA,"",       3.76219,       2.19722,       3.05390,   1.40028E-03
C:/temp/dataset/4/5_3.odb,Step-1,Increment      1: Step Time =    1.000,"PART-1-1",           442,      -12.9296,       2.64306,            0.,NA,NA,"",       3.72895,       2.33826,       2.90476,   1.44870E-03
C:/temp/dataset/4/5_3.odb,Step-1,Increment      1: Step Time =    1.000,"PART-1-1",           443,      -14.0241,       3.73651,            0.,NA,NA,"",       3.94309,       2.50163,       3.04792,   580.045E-06
C:/temp/dataset/4/5_3.odb,Step-1,Increment      1: Step Time =    1.000,"PART-1-1",           444,          -15.,       2.65625,            0.,NA,NA,"",       3.97291,       2.36013,       3.19590,   743.222E-06
C:/temp/dataset/4/5_3.odb,Step-1,Increment      1: Step Time =    1.000,"PART-1-1",           445,      -13.7570,      -2.81804,            0.,NA,NA,"",       3.46666,       1.58326,       3.08399,   2.95778E-03
C:/temp/dataset/4/5_3.odb,Step-1,Increment      1: Step Time =    1.000,"PART-1-1",           446,      -13.7756,  -623.683E-03,            0.,NA,NA,"",       3.59731,       1.89121,       3.06006,   2.30594E-03
C:/temp/dataset/4/5_3.odb,Step-1,Increment      1: Step Time =    1.000,"PART-1-1",           447,          -15.,      -1.71875,            0.,NA,NA,"",       3.68726,       1.74874,       3.24620,   2.82297E-03
C:/temp/dataset/4/5_3.odb,Step-1,Increment      1: Step Time =    1.000,"PART-1-1",           448,        -13.75,           -5.,            0.,NA,NA,"",       3.36172,       1.27462,       3.11071,   2.96397E-03
C:/temp/dataset/4/5_3.odb,Step-1,Increment      1: Step Time =    1.000,"PART-1-1",           449,      -12.5070,      -3.91179,            0.,NA,NA,"",       3.24586,       1.41779,       2.91984,   3.06757E-03
C:/temp/dataset/4/5_3.odb,Step-1,Increment      1: Step Time =    1.000,"PART-1-1",           450,          -15.,      -3.90625,            0.,NA,NA,"",       3.57705,       1.44040,       3.27422,   3.07370E-03
C:/temp/dataset/4/5_3.odb,Step-1,Increment      1: Step Time =    1.000,"PART-1-1",           451,          -15.,    468.75E-03,            0.,NA,NA,"",       3.81958,       2.05479,       3.21979,   1.85410E-03
C:/temp/dataset/4/5_3.odb,Step-1,Increment      1: Step Time =    1.000,"PART-1-1",           452,      -5.10506,       2.56414,            0.,NA,NA,"",       2.86844,       2.23820,       1.79399,   4.87565E-03
C:/temp/dataset/4/5_3.odb,Step-1,Increment      1: Step Time =    1.000,"PART-1-1",           453,      -4.59209,       3.94539,            0.,NA,NA,"",       2.96420,       2.42060,       1.71090,   5.22019E-03
C:/temp/dataset/4/5_3.odb,Step-1,Increment      1: Step Time =    1.000,"PART-1-1",           454,      -6.09775,       4.77703,            0.,NA,NA,"",       3.19763,       2.55904,       1.91733,   3.85254E-03
C:/temp/dataset/4/5_3.odb,Step-1,Increment      1: Step Time =    1.000,"PART-1-1",           455,      -6.61072,       3.39578,            0.,NA,NA,"",       3.10319,       2.37216,       2.00066,   3.93392E-03
C:/temp/dataset/4/5_3.odb,Step-1,Increment      1: Step Time =    1.000,"PART-1-1",           456,       9.44090,      -5.60228,            0.,NA,NA,"",       1.15785,       1.15691,   46.5265E-03,   3.95988E-03
C:/temp/dataset/4/5_3.odb,Step-1,Increment      1: Step Time =    1.000,"PART-1-1",           457,       9.79564,      -4.46986,            0.,NA,NA,"",       1.26857,       1.26854,   7.58569E-03,   6.35715E-03
C:/temp/dataset/4/5_3.odb,Step-1,Increment      1: Step Time =    1.000,"PART-1-1",           458,       8.43936,      -4.09444,            0.,NA,NA,"",       1.31733,       1.31045,   134.431E-03,   6.88278E-03
C:/temp/dataset/4/5_3.odb,Step-1,Increment      1: Step Time =    1.000,"PART-1-1",           459,       8.08462,      -5.22686,            0.,NA,NA,"",       1.20886,       1.19668,   171.105E-03,   5.91494E-03
C:/temp/dataset/4/5_3.odb,Step-1,Increment      1: Step Time =    1.000,"PART-1-1",           460,       6.93926,      -9.88629,            0.,NA,NA,"",   841.394E-03,   804.773E-03,   245.529E-03,   14.5035E-03
C:/temp/dataset/4/5_3.odb,Step-1,Increment      1: Step Time =    1.000,"PART-1-1",           461,       5.93813,      -8.99303,            0.,NA,NA,"",   946.555E-03,   885.917E-03,   333.344E-03,   18.4867E-03
C:/temp/dataset/4/5_3.odb,Step-1,Increment      1: Step Time =    1.000,"PART-1-1",           462,            5.,      -10.2083,            0.,NA,NA,"",   889.801E-03,   800.983E-03,   387.520E-03,   21.8299E-03
C:/temp/dataset/4/5_3.odb,Step-1,Increment      1: Step Time =    1.000,"PART-1-1",           463,       12.9852,      -11.3613,            0.,NA,NA,"",   702.958E-03,   673.207E-03,  -202.342E-03,   10.7413E-03
C:/temp/dataset/4/5_3.odb,Step-1,Increment      1: Step Time =    1.000,"PART-1-1",           464,       14.0059,      -12.5461,            0.,NA,NA,"",   647.956E-03,   594.631E-03,  -257.414E-03,   15.1988E-03
C:/temp/dataset/4/5_3.odb,Step-1,Increment      1: Step Time =    1.000,"PART-1-1",           465,           15.,        -11.25,            0.,NA,NA,"",   773.810E-03,   689.578E-03,  -351.089E-03,   19.4517E-03
C:/temp/dataset/4/5_3.odb,Step-1,Increment      1: Step Time =    1.000,"PART-1-1",           466,       13.9793,      -10.0652,            0.,NA,NA,"",   826.759E-03,   772.134E-03,  -295.533E-03,   14.9982E-03
C:/temp/dataset/4/5_3.odb,Step-1,Increment      1: Step Time =    1.000,"PART-1-1",           467,       7.08713,      -16.3801,            0.,NA,NA,"",   410.315E-03,   374.712E-03,   167.179E-03,   14.0553E-03
C:/temp/dataset/4/5_3.odb,Step-1,Increment      1: Step Time =    1.000,"PART-1-1",           468,            5.,      -16.4583,            0.,NA,NA,"",   477.789E-03,   390.541E-03,   275.246E-03,   22.7628E-03
C:/temp/dataset/4/5_3.odb,Step-1,Increment      1: Step Time =    1.000,"PART-1-1",           469,       13.0372,      -13.8111,            0.,NA,NA,"",   538.987E-03,   509.345E-03,  -176.282E-03,   11.0708E-03
C:/temp/dataset/4/5_3.odb,Step-1,Increment      1: Step Time =    1.000,"PART-1-1",           470,       14.0313,      -15.0151,            0.,NA,NA,"",   493.205E-03,   441.290E-03,  -220.261E-03,   15.3835E-03
C:/temp/dataset/4/5_3.odb,Step-1,Increment      1: Step Time =    1.000,"PART-1-1",           471,           15.,        -13.75,            0.,NA,NA,"",   603.536E-03,   522.758E-03,  -301.629E-03,   19.5055E-03
C:/temp/dataset/4/5_3.odb,Step-1,Increment      1: Step Time =    1.000,"PART-1-1",           472,       13.0981,      -18.6529,            0.,NA,NA,"",   280.604E-03,   252.032E-03,  -123.364E-03,   11.5680E-03
C:/temp/dataset/4/5_3.odb,Step-1,Increment      1: Step Time =    1.000,"PART-1-1",           473,       14.0553,      -19.9280,            0.,NA,NA,"",   251.392E-03,   204.056E-03,  -146.831E-03,   15.7806E-03
C:/temp/dataset/4/5_3.odb,Step-1,Increment      1: Step Time =    1.000,"PART-1-1",           474,           15.,        -18.75,            0.,NA,NA,"",   331.488E-03,   259.368E-03,  -206.429E-03,   19.7716E-03
C:/temp/dataset/4/5_3.odb,Step-1,Increment      1: Step Time =    1.000,"PART-1-1",           475,       14.0427,      -17.4749,            0.,NA,NA,"",   361.093E-03,   311.174E-03,  -183.192E-03,   15.5606E-03
C:/temp/dataset/4/5_3.odb,Step-1,Increment      1: Step Time =    1.000,"PART-1-1",           476,       6.17422,      -27.9405,            0.,NA,NA,"",   35.8114E-03,   16.8631E-03,   31.5926E-03,   18.9073E-03
C:/temp/dataset/4/5_3.odb,Step-1,Increment      1: Step Time =    1.000,"PART-1-1",           477,            5.,      -28.9583,            0.,NA,NA,"",   27.6207E-03,   17.2964E-03,   21.5346E-03,   23.7983E-03
C:/temp/dataset/4/5_3.odb,Step-1,Increment      1: Step Time =    1.000,"PART-1-1",           478,          6.25,          -30.,            0.,NA,NA,"",            0.,  -1.15720E-39,   27.6781E-39,   17.0480E-03
C:/temp/dataset/4/5_3.odb,Step-1,Increment      1: Step Time =    1.000,"PART-1-1",           479,       9.46325,      -26.8820,            0.,NA,NA,"",   16.5003E-03,   13.1135E-03,   10.0148E-03,   4.31645E-03
C:/temp/dataset/4/5_3.odb,Step-1,Increment      1: Step Time =    1.000,"PART-1-1",           480,       8.20536,      -25.9154,            0.,NA,NA,"",   45.4438E-03,   31.2409E-03,   33.0022E-03,   9.99125E-03
C:/temp/dataset/4/5_3.odb,Step-1,Increment      1: Step Time =    1.000,"PART-1-1",           481,       7.26622,      -26.9429,            0.,NA,NA,"",   40.8684E-03,   21.1701E-03,   34.9578E-03,   14.0062E-03
C:/temp/dataset/4/5_3.odb,Step-1,Increment      1: Step Time =    1.000,"PART-1-1",           482,       13.6319,      -27.3465,            0.,NA,NA,"",   36.3983E-03,   16.6102E-03,  -32.3873E-03,   14.8934E-03
C:/temp/dataset/4/5_3.odb,Step-1,Increment      1: Step Time =    1.000,"PART-1-1",           483,       12.3819,      -28.5965,            0.,NA,NA,"",   9.32447E-03,   496.033E-06,  -9.31126E-03,   8.29458E-03
C:/temp/dataset/4/5_3.odb,Step-1,Increment      1: Step Time =    1.000,"PART-1-1",           484,         13.75,          -30.,            0.,NA,NA,"",            0.,  -2.03709E-39,  -22.1924E-39,   13.7211E-03
C:/temp/dataset/4/5_3.odb,Step-1,Increment      1: Step Time =    1.000,"PART-1-1",           485,           15.,        -28.75,            0.,NA,NA,"",   26.6685E-03,   15.5492E-03,  -21.6663E-03,   20.0227E-03
C:/temp/dataset/4/5_3.odb,Step-1,Increment      1: Step Time =    1.000,"PART-1-1",           486,         11.25,          -30.,            0.,NA,NA,"",            0.,  -3.91164E-39,  -6.35477E-39,   4.44219E-03
C:/temp/dataset/4/5_3.odb,Step-1,Increment      1: Step Time =    1.000,"PART-1-1",           487,       10.9817,      -27.5238,            0.,NA,NA,"",   7.70884E-03,   5.46985E-03,  -5.43202E-03,   3.19532E-03
C:/temp/dataset/4/5_3.odb,Step-1,Increment      1: Step Time =    1.000,"PART-1-1",           488,       10.1507,      -19.6985,            0.,NA,NA,"",   203.897E-03,   203.788E-03,   6.64189E-03,   1.20691E-03
C:/temp/dataset/4/5_3.odb,Step-1,Increment      1: Step Time =    1.000,"PART-1-1",           489,       9.14094,      -20.7396,            0.,NA,NA,"",   171.266E-03,   165.892E-03,   42.5682E-03,   5.51821E-03
C:/temp/dataset/4/5_3.odb,Step-1,Increment      1: Step Time =    1.000,"PART-1-1",           490,       11.1621,      -20.8614,            0.,NA,NA,"",   161.579E-03,   158.858E-03,  -29.5275E-03,   3.29738E-03
C:/temp/dataset/4/5_3.odb,Step-1,Increment      1: Step Time =    1.000,"PART-1-1",           491,       7.09922,      -20.6753,            0.,NA,NA,"",   213.485E-03,   178.865E-03,   116.547E-03,   14.2403E-03
C:/temp/dataset/4/5_3.odb,Step-1,Increment      1: Step Time =    1.000,"PART-1-1",           492,            5.,       -20.625,            0.,NA,NA,"",   278.104E-03,   199.671E-03,   193.580E-03,   23.1500E-03
C:/temp/dataset/4/5_3.odb,Step-1,Increment      1: Step Time =    1.000,"PART-1-1",           493,       9.08758,      -14.0519,            0.,NA,NA,"",   502.622E-03,   497.698E-03,   70.1814E-03,   5.67885E-03
C:/temp/dataset/4/5_3.odb,Step-1,Increment      1: Step Time =    1.000,"PART-1-1",           494,       10.1099,      -15.1447,            0.,NA,NA,"",   428.500E-03,   428.424E-03,   8.06822E-03,   1.40077E-03
C:/temp/dataset/4/5_3.odb,Step-1,Increment      1: Step Time =    1.000,"PART-1-1",           495,       11.0794,      -13.9187,            0.,NA,NA,"",   503.380E-03,   500.599E-03,  -52.8380E-03,   2.74396E-03
C:/temp/dataset/4/5_3.odb,Step-1,Increment      1: Step Time =    1.000,"PART-1-1",           496,       10.0571,      -12.8260,            0.,NA,NA,"",   573.170E-03,   573.085E-03,   9.88647E-03,   1.63468E-03
C:/temp/dataset/4/5_3.odb,Step-1,Increment      1: Step Time =    1.000,"PART-1-1",           497,       9.02765,      -11.7712,            0.,NA,NA,"",   654.805E-03,   649.793E-03,   80.8659E-03,   5.84125E-03
C:/temp/dataset/4/5_3.odb,Step-1,Increment      1: Step Time =    1.000,"PART-1-1",           498,       11.0123,      -11.5393,            0.,NA,NA,"",   662.393E-03,   659.740E-03,  -59.2209E-03,   2.48724E-03
C:/temp/dataset/4/5_3.odb,Step-1,Increment      1: Step Time =    1.000,"PART-1-1",           499,       9.98284,      -10.4845,            0.,NA,NA,"",   739.849E-03,   739.739E-03,   12.7458E-03,   1.80567E-03
C:/temp/dataset/4/5_3.odb,Step-1,Increment      1: Step Time =    1.000,"PART-1-1",           500,       12.6190,       1.44886,            0.,NA,NA,"",       1.93501,       1.90835,  -320.105E-03,   5.83506E-03
C:/temp/dataset/4/5_3.odb,Step-1,Increment      1: Step Time =    1.000,"PART-1-1",           501,       13.8500,   84.2405E-03,            0.,NA,NA,"",       1.80391,       1.75011,  -437.267E-03,   6.30108E-03
C:/temp/dataset/4/5_3.odb,Step-1,Increment      1: Step Time =    1.000,"PART-1-1",           502,           15.,          1.25,            0.,NA,NA,"",       1.96204,       1.87566,  -575.776E-03,   4.95781E-03
C:/temp/dataset/4/5_3.odb,Step-1,Increment      1: Step Time =    1.000,"PART-1-1",           503,       10.0180,      -2.29938,            0.,NA,NA,"",       1.49915,       1.49890,  -27.7341E-03,   8.52896E-03
C:/temp/dataset/4/5_3.odb,Step-1,Increment      1: Step Time =    1.000,"PART-1-1",           504,       9.13986,      -3.07696,            0.,NA,NA,"",       1.41828,       1.41691,   62.2568E-03,   7.89096E-03
C:/temp/dataset/4/5_3.odb,Step-1,Increment      1: Step Time =    1.000,"PART-1-1",           505,       10.6738,      -3.69229,            0.,NA,NA,"",       1.34951,       1.34709,  -80.7287E-03,   7.25765E-03
C:/temp/dataset/4/5_3.odb,Step-1,Increment      1: Step Time =    1.000,"PART-1-1",           506,       12.7589,       6.54544,            0.,NA,NA,"",       2.50462,       2.47705,  -370.605E-03,   1.00963E-03
C:/temp/dataset/4/5_3.odb,Step-1,Increment      1: Step Time =    1.000,"PART-1-1",           507,           15.,          6.25,            0.,NA,NA,"",       2.50718,       2.43092,  -613.663E-03,   148.113E-06
C:/temp/dataset/4/5_3.odb,Step-1,Increment      1: Step Time =    1.000,"PART-1-1",           508,       13.9203,       7.65480,            0.,NA,NA,"",       2.64005,       2.59155,  -503.709E-03,   263.427E-06
C:/temp/dataset/4/5_3.odb,Step-1,Increment      1: Step Time =    1.000,"PART-1-1",           509,       13.0275,       16.3263,            0.,NA,NA,"",       3.56609,       3.53665,  -457.308E-03,   41.4913E-06
C:/temp/dataset/4/5_3.odb,Step-1,Increment      1: Step Time =    1.000,"PART-1-1",           510,       14.0150,       15.0581,            0.,NA,NA,"",       3.43904,       3.39368,  -556.760E-03,   45.6572E-06
C:/temp/dataset/4/5_3.odb,Step-1,Increment      1: Step Time =    1.000,"PART-1-1",           511,           15.,         16.25,            0.,NA,NA,"",       3.58011,       3.51681,  -670.277E-03,   29.4015E-06
C:/temp/dataset/4/5_3.odb,Step-1,Increment      1: Step Time =    1.000,"PART-1-1",           512,       14.0124,       17.5182,            0.,NA,NA,"",       3.70405,       3.65979,  -570.864E-03,   12.0938E-06
C:/temp/dataset/4/5_3.odb,Step-1,Increment      1: Step Time =    1.000,"PART-1-1",           513,       13.0175,       18.7421,            0.,NA,NA,"",       3.82703,       3.79801,  -470.401E-03,   12.5384E-06
C:/temp/dataset/4/5_3.odb,Step-1,Increment      1: Step Time =    1.000,"PART-1-1",           514,           15.,         18.75,            0.,NA,NA,"",       3.84867,       3.78724,  -684.924E-03,   4.03950E-06
C:/temp/dataset/4/5_3.odb,Step-1,Increment      1: Step Time =    1.000,"PART-1-1",           515,       14.0051,       19.9738,            0.,NA,NA,"",       3.96874,       3.92547,  -584.473E-03,   2.01800E-06
C:/temp/dataset/4/5_3.odb,Step-1,Increment      1: Step Time =    1.000,"PART-1-1",           516,       5.97628,       21.7197,            0.,NA,NA,"",       4.17046,       4.16146,   273.905E-03,   827.583E-09
C:/temp/dataset/4/5_3.odb,Step-1,Increment      1: Step Time =    1.000,"PART-1-1",           517,       6.92463,       22.7965,            0.,NA,NA,"",       4.27558,       4.27240,   164.982E-03,   291.570E-09
C:/temp/dataset/4/5_3.odb,Step-1,Increment      1: Step Time =    1.000,"PART-1-1",           518,       5.94835,       23.7852,            0.,NA,NA,"",       4.39307,       4.38509,   264.802E-03,   753.314E-09
C:/temp/dataset/4/5_3.odb,Step-1,Increment      1: Step Time =    1.000,"PART-1-1",           519,            5.,       22.7083,            0.,NA,NA,"",       4.29046,       4.27415,   373.726E-03,   1.49839E-06
C:/temp/dataset/4/5_3.odb,Step-1,Increment      1: Step Time =    1.000,"PART-1-1",           520,       13.8862,       24.9278,            0.,NA,NA,"",       4.50237,       4.46212,  -600.687E-03,   557.246E-09
C:/temp/dataset/4/5_3.odb,Step-1,Increment      1: Step Time =    1.000,"PART-1-1",           521,           15.,         26.25,            0.,NA,NA,"",       4.65604,       4.59862,  -728.951E-03,   509.387E-09
C:/temp/dataset/4/5_3.odb,Step-1,Increment      1: Step Time =    1.000,"PART-1-1",           522,       6.15342,       27.8650,            0.,NA,NA,"",       4.83023,       4.82528,   218.667E-03,   214.597E-09
C:/temp/dataset/4/5_3.odb,Step-1,Increment      1: Step Time =    1.000,"PART-1-1",           523,       7.40342,       28.9067,            0.,NA,NA,"",       4.93124,       4.93064,   77.3167E-03,   237.356E-09
C:/temp/dataset/4/5_3.odb,Step-1,Increment      1: Step Time =    1.000,"PART-1-1",           524,          6.25,           30.,            0.,NA,NA,"",       5.05948,       5.05569,   195.687E-03,   59.5462E-09
C:/temp/dataset/4/5_3.odb,Step-1,Increment      1: Step Time =    1.000,"PART-1-1",           525,            5.,       28.9583,            0.,NA,NA,"",       4.96179,       4.95033,   337.037E-03,   57.5840E-09
C:/temp/dataset/4/5_3.odb,Step-1,Increment      1: Step Time =    1.000,"PART-1-1",           526,       7.11917,       26.8292,            0.,NA,NA,"",       4.70908,       4.70754,   120.264E-03,   437.319E-09
C:/temp/dataset/4/5_3.odb,Step-1,Increment      1: Step Time =    1.000,"PART-1-1",           527,            5.,        26.875,            0.,NA,NA,"",       4.73783,       4.72494,   349.266E-03,   358.307E-09
C:/temp/dataset/4/5_3.odb,Step-1,Increment      1: Step Time =    1.000,"PART-1-1",           528,       5.96574,       25.8392,            0.,NA,NA,"",       4.61403,       4.60721,   250.863E-03,   442.872E-09
C:/temp/dataset/4/5_3.odb,Step-1,Increment      1: Step Time =    1.000,"PART-1-1",           529,       8.59546,       27.4701,            0.,NA,NA,"",       4.76842,       4.76822,  -43.2167E-03,   296.194E-09
C:/temp/dataset/4/5_3.odb,Step-1,Increment      1: Step Time =    1.000,"PART-1-1",           530,       9.94204,       28.5635,            0.,NA,NA,"",       4.88251,       4.87860,  -195.318E-03,   300.127E-09
C:/temp/dataset/4/5_3.odb,Step-1,Increment      1: Step Time =    1.000,"PART-1-1",           531,          8.75,           30.,            0.,NA,NA,"",       5.04157,       5.04102,  -74.7851E-03,   266.271E-09
C:/temp/dataset/4/5_3.odb,Step-1,Increment      1: Step Time =    1.000,"PART-1-1",           532,            5.,       24.7917,            0.,NA,NA,"",       4.51404,       4.49955,   361.495E-03,   910.915E-09
C:/temp/dataset/4/5_3.odb,Step-1,Increment      1: Step Time =    1.000,"PART-1-1",           533,       6.91409,       24.8327,            0.,NA,NA,"",       4.49539,       4.49275,   154.170E-03,   521.151E-09
C:/temp/dataset/4/5_3.odb,Step-1,Increment      1: Step Time =    1.000,"PART-1-1",           534,            5.,        20.625,            0.,NA,NA,"",       4.06710,       4.04875,   385.959E-03,   1.02855E-06
C:/temp/dataset/4/5_3.odb,Step-1,Increment      1: Step Time =    1.000,"PART-1-1",           535,       5.99534,       19.6263,            0.,NA,NA,"",       3.94510,       3.93485,   284.132E-03,   2.77729E-06
C:/temp/dataset/4/5_3.odb,Step-1,Increment      1: Step Time =    1.000,"PART-1-1",           536,       6.97162,       20.7210,            0.,NA,NA,"",       4.05122,       4.04756,   172.081E-03,   3.30368E-06
C:/temp/dataset/4/5_3.odb,Step-1,Increment      1: Step Time =    1.000,"PART-1-1",           537,       9.90537,       10.7177,            0.,NA,NA,"",       2.94947,       2.94822,  -85.9941E-03,   197.127E-06
C:/temp/dataset/4/5_3.odb,Step-1,Increment      1: Step Time =    1.000,"PART-1-1",           538,       8.83179,       9.75083,            0.,NA,NA,"",       2.85021,       2.84998,   35.9070E-03,   198.922E-06
C:/temp/dataset/4/5_3.odb,Step-1,Increment      1: Step Time =    1.000,"PART-1-1",           539,       10.8380,       9.37550,            0.,NA,NA,"",       2.80318,       2.79746,  -178.961E-03,   214.754E-06
C:/temp/dataset/4/5_3.odb,Step-1,Increment      1: Step Time =    1.000,"PART-1-1",           540,       5.96737,       11.1773,            0.,NA,NA,"",       3.03945,       3.02077,   336.398E-03,   206.776E-06
C:/temp/dataset/4/5_3.odb,Step-1,Increment      1: Step Time =    1.000,"PART-1-1",           541,       6.95908,       12.1740,            0.,NA,NA,"",       3.13074,       3.12274,   223.609E-03,   173.415E-06
C:/temp/dataset/4/5_3.odb,Step-1,Increment      1: Step Time =    1.000,"PART-1-1",           542,            5.,       12.2917,            0.,NA,NA,"",       3.17687,       3.14701,   434.532E-03,   221.306E-06
C:/temp/dataset/4/5_3.odb,Step-1,Increment      1: Step Time =    1.000,"PART-1-1",           543,       6.89189,       10.0466,            0.,NA,NA,"",       2.90343,       2.89321,   243.331E-03,   217.108E-06
C:/temp/dataset/4/5_3.odb,Step-1,Increment      1: Step Time =    1.000,"PART-1-1",           544,            5.,       10.2083,            0.,NA,NA,"",       2.95574,       2.92188,   446.130E-03,   547.632E-06
C:/temp/dataset/4/5_3.odb,Step-1,Increment      1: Step Time =    1.000,"PART-1-1",           545,  -883.251E-03,       2.97832,            0.,NA,NA,"",       2.54378,       2.23631,       1.21234,   6.77754E-03
C:/temp/dataset/4/5_3.odb,Step-1,Increment      1: Step Time =    1.000,"PART-1-1",           546,         -1.25,            5.,            0.,NA,NA,"",       2.80380,       2.50919,       1.25109,   10.5828E-03
C:/temp/dataset/4/5_3.odb,Step-1,Increment      1: Step Time =    1.000,"PART-1-1",           547,      -2.28350,       3.97568,            0.,NA,NA,"",       2.76669,       2.38969,       1.39427,   7.59239E-03
C:/temp/dataset/4/5_3.odb,Step-1,Increment      1: Step Time =    1.000,"PART-1-1",           548,      -3.12559,       2.92107,            0.,NA,NA,"",       2.72178,       2.26062,       1.51582,   5.30060E-03
C:/temp/dataset/4/5_3.odb,Step-1,Increment      1: Step Time =    1.000,"PART-1-1",           549,         -3.75,            5.,            0.,NA,NA,"",       3.00747,       2.55415,       1.58782,   8.95157E-03
C:/temp/dataset/4/5_3.odb,Step-1,Increment      1: Step Time =    1.000,"PART-1-1",           550,      -7.01026,       10.3490,            0.,NA,NA,"",       3.90728,       3.36188,       1.99113,   131.455E-06
C:/temp/dataset/4/5_3.odb,Step-1,Increment      1: Step Time =    1.000,"PART-1-1",           551,           -5.,       10.2083,            0.,NA,NA,"",       3.73509,       3.32168,       1.70803,   251.117E-06
C:/temp/dataset/4/5_3.odb,Step-1,Increment      1: Step Time =    1.000,"PART-1-1",           552,      -6.00030,       11.3233,            0.,NA,NA,"",       3.94413,       3.48945,       1.83845,   93.7695E-06
C:/temp/dataset/4/5_3.odb,Step-1,Increment      1: Step Time =    1.000,"PART-1-1",           553,      -6.90277,       16.5792,            0.,NA,NA,"",       4.65292,       4.24130,       1.91339,   15.0980E-06
C:/temp/dataset/4/5_3.odb,Step-1,Increment      1: Step Time =    1.000,"PART-1-1",           554,           -5.,       16.4583,            0.,NA,NA,"",       4.51566,       4.20511,       1.64568,   8.30556E-06
C:/temp/dataset/4/5_3.odb,Step-1,Increment      1: Step Time =    1.000,"PART-1-1",           555,      -5.93592,       17.5473,            0.,NA,NA,"",       4.71225,       4.36840,       1.76703,   4.25646E-06
C:/temp/dataset/4/5_3.odb,Step-1,Increment      1: Step Time =    1.000,"PART-1-1",           556,      -5.96041,       23.6583,            0.,NA,NA,"",       5.50441,       5.23233,       1.70914,   374.496E-09
C:/temp/dataset/4/5_3.odb,Step-1,Increment      1: Step Time =    1.000,"PART-1-1",           557,           -5.,       24.7917,            0.,NA,NA,"",       5.60493,       5.38288,       1.56203,   420.725E-09
C:/temp/dataset/4/5_3.odb,Step-1,Increment      1: Step Time =    1.000,"PART-1-1",           558,      -7.48847,       28.8776,            0.,NA,NA,"",       6.27148,       5.98535,       1.87272,   103.622E-09
C:/temp/dataset/4/5_3.odb,Step-1,Increment      1: Step Time =    1.000,"PART-1-1",           559,           -5.,       28.9583,            0.,NA,NA,"",       6.16223,       5.97178,       1.52020,   23.4303E-09
C:/temp/dataset/4/5_3.odb,Step-1,Increment      1: Step Time =    1.000,"PART-1-1",           560,         -6.25,           30.,            0.,NA,NA,"",       6.35923,       6.13155,       1.68641,   22.4038E-09
C:/temp/dataset/4/5_3.odb,Step-1,Increment      1: Step Time =    1.000,"PART-1-1",           561,       12.9634,       11.4929,            0.,NA,NA,"",       3.04361,       3.01420,  -422.051E-03,   151.690E-06
C:/temp/dataset/4/5_3.odb,Step-1,Increment      1: Step Time =    1.000,"PART-1-1",           562,       13.9657,       10.1417,            0.,NA,NA,"",       2.90926,       2.86186,  -522.985E-03,   230.604E-06
C:/temp/dataset/4/5_3.odb,Step-1,Increment      1: Step Time =    1.000,"PART-1-1",           563,           15.,         11.25,            0.,NA,NA,"",       3.04412,       2.97577,  -641.444E-03,   272.084E-06
C:/temp/dataset/4/5_3.odb,Step-1,Increment      1: Step Time =    1.000,"PART-1-1",           564,       13.9978,       12.6011,            0.,NA,NA,"",       3.17439,       3.12802,  -540.612E-03,   123.335E-06
C:/temp/dataset/4/5_3.odb,Step-1,Increment      1: Step Time =    1.000,"PART-1-1",           565,       9.13480,      -18.5479,            0.,NA,NA,"",   260.906E-03,   255.719E-03,   51.7642E-03,   5.49455E-03
C:/temp/dataset/4/5_3.odb,Step-1,Increment      1: Step Time =    1.000,"PART-1-1",           566,       11.1537,      -18.5886,            0.,NA,NA,"",   253.363E-03,   250.554E-03,  -37.6236E-03,   3.19984E-03
C:/temp/dataset/4/5_3.odb,Step-1,Increment      1: Step Time =    1.000,"PART-1-1",           567,       10.1377,      -17.4381,            0.,NA,NA,"",   305.490E-03,   305.404E-03,   7.27846E-03,   1.25721E-03
C:/temp/dataset/4/5_3.odb,Step-1,Increment      1: Step Time =    1.000,"PART-1-1",           568,      -8.81573,       27.5627,            0.,NA,NA,"",       6.17157,       5.81282,       2.07351,   130.180E-09
C:/temp/dataset/4/5_3.odb,Step-1,Increment      1: Step Time =    1.000,"PART-1-1",           569,         -8.75,           30.,            0.,NA,NA,"",       6.48574,       6.15664,       2.03975,   109.977E-09
C:/temp/dataset/4/5_3.odb,Step-1,Increment      1: Step Time =    1.000,"PART-1-1",           570,            5.,      -24.7917,            0.,NA,NA,"",   132.838E-03,   77.0728E-03,   108.193E-03,   23.2022E-03
C:/temp/dataset/4/5_3.odb,Step-1,Increment      1: Step Time =    1.000,"PART-1-1",           571,       6.09200,      -25.8775,            0.,NA,NA,"",   81.9026E-03,   46.1279E-03,   67.6776E-03,   18.8598E-03
C:/temp/dataset/4/5_3.odb,Step-1,Increment      1: Step Time =    1.000,"PART-1-1",           572,       7.15121,      -24.8757,            0.,NA,NA,"",   84.7477E-03,   56.7443E-03,   62.9464E-03,   14.4771E-03
C:/temp/dataset/4/5_3.odb,Step-1,Increment      1: Step Time =    1.000,"PART-1-1",           573,       13.1040,      -21.0477,            0.,NA,NA,"",   184.699E-03,   157.391E-03,  -96.6532E-03,   11.7245E-03
C:/temp/dataset/4/5_3.odb,Step-1,Increment      1: Step Time =    1.000,"PART-1-1",           574,       14.0487,      -22.3697,            0.,NA,NA,"",   162.975E-03,   119.966E-03,  -110.313E-03,   15.9792E-03
C:/temp/dataset/4/5_3.odb,Step-1,Increment      1: Step Time =    1.000,"PART-1-1",           575,           15.,        -21.25,            0.,NA,NA,"",   228.211E-03,   162.855E-03,  -159.870E-03,   20.0305E-03
C:/temp/dataset/4/5_3.odb,Step-1,Increment      1: Step Time =    1.000,"PART-1-1",           576,            5.,       -26.875,            0.,NA,NA,"",   77.5497E-03,   41.3260E-03,   65.6210E-03,   23.3354E-03
C:/temp/dataset/4/5_3.odb,Step-1,Increment      1: Step Time =    1.000,"PART-1-1",           577,       12.8133,      -6.31290,            0.,NA,NA,"",       1.11545,       1.08661,  -252.035E-03,   9.73658E-03
C:/temp/dataset/4/5_3.odb,Step-1,Increment      1: Step Time =    1.000,"PART-1-1",           578,       13.9319,      -7.55671,            0.,NA,NA,"",       1.03191,   976.687E-03,  -333.041E-03,   14.3702E-03
C:/temp/dataset/4/5_3.odb,Step-1,Increment      1: Step Time =    1.000,"PART-1-1",           579,           15.,         -6.25,            0.,NA,NA,"",       1.18704,       1.09687,  -453.816E-03,   17.6913E-03
C:/temp/dataset/4/5_3.odb,Step-1,Increment      1: Step Time =    1.000,"PART-1-1",           580,            5.,       18.5417,            0.,NA,NA,"",       3.84402,       3.82334,   398.190E-03,   4.94038E-06
C:/temp/dataset/4/5_3.odb,Step-1,Increment      1: Step Time =    1.000,"PART-1-1",           581,       6.00122,       17.5195,            0.,NA,NA,"",       3.71864,       3.70685,   295.858E-03,   12.8175E-06
C:/temp/dataset/4/5_3.odb,Step-1,Increment      1: Step Time =    1.000,"PART-1-1",           582,       6.99656,       18.6041,            0.,NA,NA,"",       3.82270,       3.81838,   181.810E-03,   13.5755E-06
C:/temp/dataset/4/5_3.odb,Step-1,Increment      1: Step Time =    1.000,"PART-1-1",           583,       12.8545,       23.6160,            0.,NA,NA,"",       4.35295,       4.32625,  -481.371E-03,   338.589E-09
C:/temp/dataset/4/5_3.odb,Step-1,Increment      1: Step Time =    1.000,"PART-1-1",           584,       13.9683,       22.4382,            0.,NA,NA,"",       4.23429,       4.19229,  -594.959E-03,   824.864E-09
C:/temp/dataset/4/5_3.odb,Step-1,Increment      1: Step Time =    1.000,"PART-1-1",           585,           15.,         23.75,            0.,NA,NA,"",       4.38670,       4.32815,  -714.275E-03,   1.21736E-06
C:/temp/dataset/4/5_3.odb,Step-1,Increment      1: Step Time =    1.000,"PART-1-1",           586,            5.,       16.4583,            0.,NA,NA,"",       3.62124,       3.59790,   410.405E-03,   25.6442E-06
C:/temp/dataset/4/5_3.odb,Step-1,Increment      1: Step Time =    1.000,"PART-1-1",           587,       7.00480,       16.4638,            0.,NA,NA,"",       3.59194,       3.58672,   193.486E-03,   40.6427E-06
C:/temp/dataset/4/5_3.odb,Step-1,Increment      1: Step Time =    1.000,"PART-1-1",           588,       12.9734,       21.1620,            0.,NA,NA,"",       4.08832,       4.06006,  -479.832E-03,   2.36817E-06
C:/temp/dataset/4/5_3.odb,Step-1,Increment      1: Step Time =    1.000,"PART-1-1",           589,           15.,         21.25,            0.,NA,NA,"",       4.11756,       4.05769,  -699.598E-03,   1.28924E-06
C:/temp/dataset/4/5_3.odb,Step-1,Increment      1: Step Time =    1.000,"PART-1-1",           590,            5.,       6.04167,            0.,NA,NA,"",       2.52215,       2.47855,   466.910E-03,   3.95962E-03
C:/temp/dataset/4/5_3.odb,Step-1,Increment      1: Step Time =    1.000,"PART-1-1",           591,       5.70418,       5.21013,            0.,NA,NA,"",       2.42489,       2.39219,   396.897E-03,   8.84525E-03
C:/temp/dataset/4/5_3.odb,Step-1,Increment      1: Step Time =    1.000,"PART-1-1",           592,       6.54256,       6.20387,            0.,NA,NA,"",       2.50429,       2.48593,   302.658E-03,   3.21895E-03
C:/temp/dataset/4/5_3.odb,Step-1,Increment      1: Step Time =    1.000,"PART-1-1",           593,       7.80464,       8.81181,            0.,NA,NA,"",       2.75900,       2.75479,   152.285E-03,   252.853E-06
C:/temp/dataset/4/5_3.odb,Step-1,Increment      1: Step Time =    1.000,"PART-1-1",           594,       7.55468,       6.70991,            0.,NA,NA,"",       2.53847,       2.53128,   190.919E-03,   1.89820E-03
C:/temp/dataset/4/5_3.odb,Step-1,Increment      1: Step Time =    1.000,"PART-1-1",           595,           -5.,       12.2917,            0.,NA,NA,"",       3.99054,       3.61624,       1.68737,   89.9915E-06
C:/temp/dataset/4/5_3.odb,Step-1,Increment      1: Step Time =    1.000,"PART-1-1",           596,      -13.0551,       11.1433,            0.,NA,NA,"",       4.53264,       3.53461,       2.83749,   82.3746E-06
C:/temp/dataset/4/5_3.odb,Step-1,Increment      1: Step Time =    1.000,"PART-1-1",           597,          -15.,       11.4063,            0.,NA,NA,"",       4.75048,       3.59133,       3.10957,   115.263E-06
C:/temp/dataset/4/5_3.odb,Step-1,Increment      1: Step Time =    1.000,"PART-1-1",           598,           -5.,       18.5417,            0.,NA,NA,"",       4.78390,       4.49954,       1.62477,   908.309E-09
C:/temp/dataset/4/5_3.odb,Step-1,Increment      1: Step Time =    1.000,"PART-1-1",           599,      -6.83195,       18.5917,            0.,NA,NA,"",       4.90123,       4.52500,       1.88318,   4.66595E-06
C:/temp/dataset/4/5_3.odb,Step-1,Increment      1: Step Time =    1.000,"PART-1-1",           600,      -12.9744,       15.4368,            0.,NA,NA,"",       4.98905,       4.14070,       2.78302,   24.9151E-06
C:/temp/dataset/4/5_3.odb,Step-1,Increment      1: Step Time =    1.000,"PART-1-1",           601,      -13.9736,       16.6988,            0.,NA,NA,"",       5.21713,       4.32912,       2.91156,   7.68745E-06
C:/temp/dataset/4/5_3.odb,Step-1,Increment      1: Step Time =    1.000,"PART-1-1",           602,          -15.,       15.7813,            0.,NA,NA,"",       5.20780,       4.20973,       3.06584,   14.5905E-06
C:/temp/dataset/4/5_3.odb,Step-1,Increment      1: Step Time =    1.000,"PART-1-1",           603,      -6.85389,       22.5676,            0.,NA,NA,"",       5.41186,       5.08715,       1.84637,   170.404E-09
C:/temp/dataset/4/5_3.odb,Step-1,Increment      1: Step Time =    1.000,"PART-1-1",           604,           -5.,       22.7083,            0.,NA,NA,"",       5.32896,       5.08843,       1.58294,   777.381E-09
C:/temp/dataset/4/5_3.odb,Step-1,Increment      1: Step Time =    1.000,"PART-1-1",           605,      -7.62380,       21.5126,            0.,NA,NA,"",       5.32211,       4.94576,       1.96578,   381.443E-09
C:/temp/dataset/4/5_3.odb,Step-1,Increment      1: Step Time =    1.000,"PART-1-1",           606,      -11.2433,       25.0031,            0.,NA,NA,"",       5.99543,       5.47543,       2.44231,   250.132E-09
C:/temp/dataset/4/5_3.odb,Step-1,Increment      1: Step Time =    1.000,"PART-1-1",           607,      -10.1220,       24.6816,            0.,NA,NA,"",       5.88161,       5.41873,       2.28705,   265.475E-09
C:/temp/dataset/4/5_3.odb,Step-1,Increment      1: Step Time =    1.000,"PART-1-1",           608,      -9.68436,       26.2404,            0.,NA,NA,"",       6.05239,       5.63465,       2.20955,   208.875E-09
C:/temp/dataset/4/5_3.odb,Step-1,Increment      1: Step Time =    1.000,"PART-1-1",           609,      -10.8057,       26.5619,            0.,NA,NA,"",       6.16310,       5.69135,       2.36481,   194.824E-09
C:/temp/dataset/4/5_3.odb,Step-1,Increment      1: Step Time =    1.000,"PART-1-1",           610,            5.,      -6.04167,            0.,NA,NA,"",       1.23300,       1.14385,   460.321E-03,   30.9835E-03
C:/temp/dataset/4/5_3.odb,Step-1,Increment      1: Step Time =    1.000,"PART-1-1",           611,       5.81487,      -6.90448,            0.,NA,NA,"",       1.12310,       1.05919,   373.449E-03,   20.0256E-03
C:/temp/dataset/4/5_3.odb,Step-1,Increment      1: Step Time =    1.000,"PART-1-1",           612,       6.44107,      -5.66337,            0.,NA,NA,"",       1.20573,       1.15986,   329.395E-03,   12.4628E-03
C:/temp/dataset/4/5_3.odb,Step-1,Increment      1: Step Time =    1.000,"PART-1-1",           613,       5.62621,      -4.80056,            0.,NA,NA,"",       1.31022,       1.24183,   417.763E-03,   21.2962E-03
C:/temp/dataset/4/5_3.odb,Step-1,Increment      1: Step Time =    1.000,"PART-1-1",           614,            5.,        -8.125,            0.,NA,NA,"",       1.05615,   968.739E-03,   420.720E-03,   22.4575E-03
C:/temp/dataset/4/5_3.odb,Step-1,Increment      1: Step Time =    1.000,"PART-1-1",           615,       8.00489,       17.5473,            0.,NA,NA,"",       3.69896,       3.69812,   78.9357E-03,   21.8130E-06
C:/temp/dataset/4/5_3.odb,Step-1,Increment      1: Step Time =    1.000,"PART-1-1",           616,       8.00828,       15.3576,            0.,NA,NA,"",       3.46235,       3.46114,   91.4635E-03,   58.2266E-06
C:/temp/dataset/4/5_3.odb,Step-1,Increment      1: Step Time =    1.000,"PART-1-1",           617,       11.1265,      -16.2686,            0.,NA,NA,"",   367.294E-03,   364.458E-03,  -45.5555E-03,   3.01419E-03
C:/temp/dataset/4/5_3.odb,Step-1,Increment      1: Step Time =    1.000,"PART-1-1",           618,       9.12111,      -16.3141,            0.,NA,NA,"",   371.283E-03,   366.285E-03,   60.7108E-03,   5.53634E-03
C:/temp/dataset/4/5_3.odb,Step-1,Increment      1: Step Time =    1.000,"PART-1-1",           619,      -9.91602,       15.9767,            0.,NA,NA,"",       4.79856,       4.18635,       2.34535,   20.7086E-06
C:/temp/dataset/4/5_3.odb,Step-1,Increment      1: Step Time =    1.000,"PART-1-1",           620,      -10.9598,       15.0860,            0.,NA,NA,"",       4.77824,       4.07093,       2.50183,   33.9929E-06
C:/temp/dataset/4/5_3.odb,Step-1,Increment      1: Step Time =    1.000,"PART-1-1",           621,      -8.93702,       14.7598,            0.,NA,NA,"",       4.57838,       4.00458,       2.21921,   39.5409E-06
C:/temp/dataset/4/5_3.odb,Step-1,Increment      1: Step Time =    1.000,"PART-1-1",           622,      -13.0880,       4.79273,            0.,NA,NA,"",       3.92579,       2.64013,       2.90542,   666.158E-06
C:/temp/dataset/4/5_3.odb,Step-1,Increment      1: Step Time =    1.000,"PART-1-1",           623,          -15.,       4.84375,            0.,NA,NA,"",       4.14517,       2.66629,       3.17386,   32.1463E-06
C:/temp/dataset/4/5_3.odb,Step-1,Increment      1: Step Time =    1.000,"PART-1-1",           624,           -5.,       6.04167,            0.,NA,NA,"",       3.24171,       2.72957,       1.74875,   1.63355E-03
C:/temp/dataset/4/5_3.odb,Step-1,Increment      1: Step Time =    1.000,"PART-1-1",           625,      -7.12843,       5.83601,            0.,NA,NA,"",       3.41013,       2.72271,       2.05326,   1.28781E-03
C:/temp/dataset/4/5_3.odb,Step-1,Increment      1: Step Time =    1.000,"PART-1-1",           626,       12.9112,      -8.87192,            0.,NA,NA,"",   893.241E-03,   863.744E-03,  -227.655E-03,   10.3117E-03
C:/temp/dataset/4/5_3.odb,Step-1,Increment      1: Step Time =    1.000,"PART-1-1",           627,           15.,         -8.75,            0.,NA,NA,"",   968.044E-03,   880.560E-03,  -402.150E-03,   19.1089E-03
C:/temp/dataset/4/5_3.odb,Step-1,Increment      1: Step Time =    1.000,"PART-1-1",           628,       13.0740,      -16.2399,            0.,NA,NA,"",   398.532E-03,   369.271E-03,  -149.890E-03,   11.3373E-03
C:/temp/dataset/4/5_3.odb,Step-1,Increment      1: Step Time =    1.000,"PART-1-1",           629,           15.,        -16.25,            0.,NA,NA,"",   456.319E-03,   379.391E-03,  -253.554E-03,   19.6011E-03
C:/temp/dataset/4/5_3.odb,Step-1,Increment      1: Step Time =    1.000,"PART-1-1",           630,       13.0128,       13.9092,            0.,NA,NA,"",       3.30494,       3.27531,  -441.554E-03,   99.1370E-06
C:/temp/dataset/4/5_3.odb,Step-1,Increment      1: Step Time =    1.000,"PART-1-1",           631,           15.,         13.75,            0.,NA,NA,"",       3.31194,       3.24638,  -655.731E-03,   107.861E-06
C:/temp/dataset/4/5_3.odb,Step-1,Increment      1: Step Time =    1.000,"PART-1-1",           632,       10.9505,       11.7339,            0.,NA,NA,"",       3.05897,       3.05207,  -205.268E-03,   162.608E-06
C:/temp/dataset/4/5_3.odb,Step-1,Increment      1: Step Time =    1.000,"PART-1-1",           633,       9.98883,       12.9959,            0.,NA,NA,"",       3.19599,       3.19414,  -108.718E-03,   135.129E-06
C:/temp/dataset/4/5_3.odb,Step-1,Increment      1: Step Time =    1.000,"PART-1-1",           634,       8.94372,       11.9797,            0.,NA,NA,"",       3.09026,       3.09025,   10.4081E-03,   169.339E-06
C:/temp/dataset/4/5_3.odb,Step-1,Increment      1: Step Time =    1.000,"PART-1-1",           635,      -13.9153,       18.9000,            0.,NA,NA,"",       5.46150,       4.63966,       2.88123,   1.78706E-06
C:/temp/dataset/4/5_3.odb,Step-1,Increment      1: Step Time =    1.000,"PART-1-1",           636,      -12.6393,       19.9841,            0.,NA,NA,"",       5.48501,       4.78008,       2.69000,   2.17830E-06
C:/temp/dataset/4/5_3.odb,Step-1,Increment      1: Step Time =    1.000,"PART-1-1",           637,          -15.,       20.1563,            0.,NA,NA,"",       5.69584,       4.82810,       3.02192,   526.334E-09
C:/temp/dataset/4/5_3.odb,Step-1,Increment      1: Step Time =    1.000,"PART-1-1",           638,       8.12191,      -21.7795,            0.,NA,NA,"",   151.380E-03,   133.974E-03,   70.4768E-03,   9.92491E-03
C:/temp/dataset/4/5_3.odb,Step-1,Increment      1: Step Time =    1.000,"PART-1-1",           639,       8.12482,      -23.8590,            0.,NA,NA,"",   90.9208E-03,   74.1908E-03,   52.5578E-03,   10.0397E-03
C:/temp/dataset/4/5_3.odb,Step-1,Increment      1: Step Time =    1.000,"PART-1-1",           640,       8.11825,      -19.6354,            0.,NA,NA,"",   230.796E-03,   213.292E-03,   88.1667E-03,   9.83307E-03
C:/temp/dataset/4/5_3.odb,Step-1,Increment      1: Step Time =    1.000,"PART-1-1",           641,       8.10952,      -17.4508,            0.,NA,NA,"",   329.819E-03,   312.465E-03,   105.577E-03,   9.79853E-03
C:/temp/dataset/4/5_3.odb,Step-1,Increment      1: Step Time =    1.000,"PART-1-1",           642,       7.85781,       23.9076,            0.,NA,NA,"",       4.38750,       4.38712,   57.4998E-03,   431.313E-09
C:/temp/dataset/4/5_3.odb,Step-1,Increment      1: Step Time =    1.000,"PART-1-1",           643,       7.94870,       21.8524,            0.,NA,NA,"",       4.16467,       4.16424,   59.7288E-03,   1.12425E-06
C:/temp/dataset/4/5_3.odb,Step-1,Increment      1: Step Time =    1.000,"PART-1-1",           644,       4.21929,       2.98066,            0.,NA,NA,"",       2.23642,       2.16285,   568.870E-03,   6.53361E-03
C:/temp/dataset/4/5_3.odb,Step-1,Increment      1: Step Time =    1.000,"PART-1-1",           645,       5.32392,       3.96649,            0.,NA,NA,"",       2.30474,       2.26246,   439.432E-03,   9.83717E-03
C:/temp/dataset/4/5_3.odb,Step-1,Increment      1: Step Time =    1.000,"PART-1-1",           646,          3.75,            5.,            0.,NA,NA,"",       2.48675,       2.40847,   619.028E-03,   15.6614E-03
C:/temp/dataset/4/5_3.odb,Step-1,Increment      1: Step Time =    1.000,"PART-1-1",           647,       12.8859,       9.04653,            0.,NA,NA,"",       2.77828,       2.74944,  -399.290E-03,   93.1081E-06
C:/temp/dataset/4/5_3.odb,Step-1,Increment      1: Step Time =    1.000,"PART-1-1",           648,           15.,          8.75,            0.,NA,NA,"",       2.77624,       2.70438,  -627.566E-03,   434.001E-06
C:/temp/dataset/4/5_3.odb,Step-1,Increment      1: Step Time =    1.000,"PART-1-1",           649,      -8.02807,       9.41948,            0.,NA,NA,"",       3.88600,       3.24065,       2.14457,   109.487E-06
C:/temp/dataset/4/5_3.odb,Step-1,Increment      1: Step Time =    1.000,"PART-1-1",           650,      -8.84347,       16.8085,            0.,NA,NA,"",       4.81739,       4.29317,       2.18539,   16.5148E-06
C:/temp/dataset/4/5_3.odb,Step-1,Increment      1: Step Time =    1.000,"PART-1-1",           651,      -9.78583,       18.0165,            0.,NA,NA,"",       5.03295,       4.47335,       2.30645,   7.46344E-06
C:/temp/dataset/4/5_3.odb,Step-1,Increment      1: Step Time =    1.000,"PART-1-1",           652,          -15.,       17.9688,            0.,NA,NA,"",       5.44848,       4.51892,       3.04388,   2.58078E-06
C:/temp/dataset/4/5_3.odb,Step-1,Increment      1: Step Time =    1.000,"PART-1-1",           653,          -15.,       24.5313,            0.,NA,NA,"",       6.20744,       5.44645,       2.97800,   443.590E-09
C:/temp/dataset/4/5_3.odb,Step-1,Increment      1: Step Time =    1.000,"PART-1-1",           654,      -12.9952,       24.7258,            0.,NA,NA,"",       6.08234,       5.45383,       2.69269,   295.120E-09
C:/temp/dataset/4/5_3.odb,Step-1,Increment      1: Step Time =    1.000,"PART-1-1",           655,      -11.4985,       21.8877,            0.,NA,NA,"",       5.62819,       5.03767,       2.50965,   474.607E-09
C:/temp/dataset/4/5_3.odb,Step-1,Increment      1: Step Time =    1.000,"PART-1-1",           656,      -11.4490,       20.6565,            0.,NA,NA,"",       5.47500,       4.86316,       2.51501,   1.26342E-06
C:/temp/dataset/4/5_3.odb,Step-1,Increment      1: Step Time =    1.000,"PART-1-1",           657,      -10.1446,       20.7260,            0.,NA,NA,"",       5.38956,       4.85990,       2.32996,   1.54010E-06
C:/temp/dataset/4/5_3.odb,Step-1,Increment      1: Step Time =    1.000,"PART-1-1",           658,      -7.69218,       19.6350,            0.,NA,NA,"",       5.08820,       4.68109,       1.99429,   2.20057E-06
C:/temp/dataset/4/5_3.odb,Step-1,Increment      1: Step Time =    1.000,"PART-1-1",           659,      -8.68744,       18.7463,            0.,NA,NA,"",       5.04378,       4.56547,       2.14388,   5.85433E-06
C:/temp/dataset/4/5_3.odb,Step-1,Increment      1: Step Time =    1.000,"PART-1-1",           660,      -7.82721,       17.7030,            0.,NA,NA,"",       4.85540,       4.40939,       2.03277,   7.66612E-06
C:/temp/dataset/4/5_3.odb,Step-1,Increment      1: Step Time =    1.000,"PART-1-1",           661,      -9.52114,       19.8817,            0.,NA,NA,"",       5.24190,       4.73430,       2.25031,   2.40595E-06
C:/temp/dataset/4/5_3.odb,Step-1,Increment      1: Step Time =    1.000,"PART-1-1",           662,      -10.6195,       19.1519,            0.,NA,NA,"",       5.23181,       4.64218,       2.41288,   4.75044E-06
C:/temp/dataset/4/5_3.odb,Step-1,Increment      1: Step Time =    1.000,"PART-1-1",           663,      -12.1485,       3.78191,            0.,NA,NA,"",       3.73366,       2.48922,       2.78280,   1.21581E-03
C:/temp/dataset/4/5_3.odb,Step-1,Increment      1: Step Time =    1.000,"PART-1-1",           664,      -10.9850,       2.86362,            0.,NA,NA,"",       3.52399,       2.34907,       2.62686,   2.00764E-03
C:/temp/dataset/4/5_3.odb,Step-1,Increment      1: Step Time =    1.000,"PART-1-1",           665,      -9.06958,       8.49577,            0.,NA,NA,"",       3.87727,       3.12050,       2.30124,   170.056E-06
C:/temp/dataset/4/5_3.odb,Step-1,Increment      1: Step Time =    1.000,"PART-1-1",           666,      -8.08215,       7.28595,            0.,NA,NA,"",       3.65574,       2.93923,       2.17378,   425.786E-06
C:/temp/dataset/4/5_3.odb,Step-1,Increment      1: Step Time =    1.000,"PART-1-1",           667,      -10.1292,       7.60955,            0.,NA,NA,"",       3.88420,       3.00600,       2.45986,   254.508E-06
C:/temp/dataset/4/5_3.odb,Step-1,Increment      1: Step Time =    1.000,"PART-1-1",           668,      -11.2104,       6.77234,            0.,NA,NA,"",       3.90809,       2.89904,       2.62083,   396.378E-06
C:/temp/dataset/4/5_3.odb,Step-1,Increment      1: Step Time =    1.000,"PART-1-1",           669,      -10.2942,       5.63122,            0.,NA,NA,"",       3.70261,       2.72883,       2.50256,   872.642E-06
C:/temp/dataset/4/5_3.odb,Step-1,Increment      1: Step Time =    1.000,"PART-1-1",           670,      -9.21309,       6.46842,            0.,NA,NA,"",       3.67728,       2.83533,       2.34165,   716.614E-06
C:/temp/dataset/4/5_3.odb,Step-1,Increment      1: Step Time =    1.000,"PART-1-1",           671,        -11.25,           -5.,            0.,NA,NA,"",       3.02503,       1.25181,       2.75387,   3.12289E-03
C:/temp/dataset/4/5_3.odb,Step-1,Increment      1: Step Time =    1.000,"PART-1-1",           672,      -10.0273,      -3.93877,            0.,NA,NA,"",       2.91650,       1.39324,       2.56220,   3.33960E-03
C:/temp/dataset/4/5_3.odb,Step-1,Increment      1: Step Time =    1.000,"PART-1-1",           673,         -8.75,           -5.,            0.,NA,NA,"",       2.68726,       1.23076,       2.38885,   3.62121E-03
C:/temp/dataset/4/5_3.odb,Step-1,Increment      1: Step Time =    1.000,"PART-1-1",           674,      -7.59562,      -4.02918,            0.,NA,NA,"",       2.59663,       1.36048,       2.21169,   3.60470E-03
C:/temp/dataset/4/5_3.odb,Step-1,Increment      1: Step Time =    1.000,"PART-1-1",           675,      -8.87289,      -2.96795,            0.,NA,NA,"",       2.82696,       1.51975,       2.38371,   3.50142E-03
C:/temp/dataset/4/5_3.odb,Step-1,Increment      1: Step Time =    1.000,"PART-1-1",           676,         -6.25,           -5.,            0.,NA,NA,"",       2.36767,       1.21587,       2.03164,   5.58739E-03
C:/temp/dataset/4/5_3.odb,Step-1,Increment      1: Step Time =    1.000,"PART-1-1",           677,      -5.03874,      -3.83161,            0.,NA,NA,"",       2.30036,       1.37201,       1.84642,   5.22086E-03
C:/temp/dataset/4/5_3.odb,Step-1,Increment      1: Step Time =    1.000,"PART-1-1",           678,      -6.38435,      -2.86079,            0.,NA,NA,"",       2.52923,       1.51431,       2.02580,   3.91455E-03
C:/temp/dataset/4/5_3.odb,Step-1,Increment      1: Step Time =    1.000,"PART-1-1",           679,      -8.31216,       1.98044,            0.,NA,NA,"",       3.14795,       2.19708,       2.25442,   3.51031E-03
C:/temp/dataset/4/5_3.odb,Step-1,Increment      1: Step Time =    1.000,"PART-1-1",           680,      -6.89941,       1.67561,            0.,NA,NA,"",       2.96652,       2.13875,       2.05573,   4.27911E-03
C:/temp/dataset/4/5_3.odb,Step-1,Increment      1: Step Time =    1.000,"PART-1-1",           681,      -8.02347,       3.70061,            0.,NA,NA,"",       3.27872,       2.43229,       2.19863,   2.79886E-03
C:/temp/dataset/4/5_3.odb,Step-1,Increment      1: Step Time =    1.000,"PART-1-1",           682,      -9.78636,       2.36681,            0.,NA,NA,"",       3.34613,       2.26709,       2.46107,   2.71101E-03
C:/temp/dataset/4/5_3.odb,Step-1,Increment      1: Step Time =    1.000,"PART-1-1",           683,      -8.80920,   354.969E-03,            0.,NA,NA,"",       3.06464,       1.97864,       2.34030,   3.68794E-03
C:/temp/dataset/4/5_3.odb,Step-1,Increment      1: Step Time =    1.000,"PART-1-1",           684,         -3.75,           -5.,            0.,NA,NA,"",       2.06850,       1.20599,       1.68056,   7.65832E-03
C:/temp/dataset/4/5_3.odb,Step-1,Increment      1: Step Time =    1.000,"PART-1-1",           685,          3.75,           -5.,            0.,NA,NA,"",       1.38549,       1.21158,   672.042E-03,   19.8742E-03
C:/temp/dataset/4/5_3.odb,Step-1,Increment      1: Step Time =    1.000,"PART-1-1",           686,       4.46580,      -3.87501,            0.,NA,NA,"",       1.46168,       1.35014,   560.024E-03,   17.4355E-03
C:/temp/dataset/4/5_3.odb,Step-1,Increment      1: Step Time =    1.000,"PART-1-1",           687,       2.90021,      -2.90757,            0.,NA,NA,"",       1.65290,       1.46826,   759.128E-03,   7.55588E-03
C:/temp/dataset/4/5_3.odb,Step-1,Increment      1: Step Time =    1.000,"PART-1-1",           688,       11.1618,       2.81075,            0.,NA,NA,"",       2.07865,       2.07112,  -176.686E-03,   5.29349E-03
C:/temp/dataset/4/5_3.odb,Step-1,Increment      1: Step Time =    1.000,"PART-1-1",           689,       10.1850,       1.50626,            0.,NA,NA,"",       1.93064,       1.92946,  -67.5078E-03,   7.41961E-03
C:/temp/dataset/4/5_3.odb,Step-1,Increment      1: Step Time =    1.000,"PART-1-1",           690,       11.6421,   144.368E-03,            0.,NA,NA,"",       1.77779,       1.76558,  -207.985E-03,   7.48731E-03
C:/temp/dataset/4/5_3.odb,Step-1,Increment      1: Step Time =    1.000,"PART-1-1",           691,         11.25,           30.,            0.,NA,NA,"",       5.03819,       5.02634,  -345.256E-03,   267.156E-09
C:/temp/dataset/4/5_3.odb,Step-1,Increment      1: Step Time =    1.000,"PART-1-1",           692,       9.19768,       26.3844,            0.,NA,NA,"",       4.64834,       4.64722,  -101.997E-03,   405.884E-09
C:/temp/dataset/4/5_3.odb,Step-1,Increment      1: Step Time =    1.000,"PART-1-1",           693,       7.72138,       25.7435,            0.,NA,NA,"",       4.58696,       4.58655,   61.4836E-03,   465.141E-09
C:/temp/dataset/4/5_3.odb,Step-1,Increment      1: Step Time =    1.000,"PART-1-1",           694,       9.17897,      -24.8987,            0.,NA,NA,"",   51.8162E-03,   46.5637E-03,   22.7319E-03,   5.52852E-03
C:/temp/dataset/4/5_3.odb,Step-1,Increment      1: Step Time =    1.000,"PART-1-1",           695,       9.00589,       18.6572,            0.,NA,NA,"",       3.81251,       3.81234,  -35.8810E-03,   16.9769E-06
C:/temp/dataset/4/5_3.odb,Step-1,Increment      1: Step Time =    1.000,"PART-1-1",           696,       7.99757,       19.7140,            0.,NA,NA,"",       3.93316,       3.93259,   66.9971E-03,   6.28398E-06
C:/temp/dataset/4/5_3.odb,Step-1,Increment      1: Step Time =    1.000,"PART-1-1",           697,      -12.2498,       25.7751,            0.,NA,NA,"",       6.15955,       5.59465,       2.57681,   231.178E-09
C:/temp/dataset/4/5_3.odb,Step-1,Increment      1: Step Time =    1.000,"PART-1-1",           698,      -11.9888,       23.9538,            0.,NA,NA,"",       5.91629,       5.33461,       2.55820,   266.647E-09
C:/temp/dataset/4/5_3.odb,Step-1,Increment      1: Step Time =    1.000,"PART-1-1",           699,      -1.59164,      -1.60220,            0.,NA,NA,"",       2.12880,       1.65093,       1.34396,   4.82958E-03
C:/temp/dataset/4/5_3.odb,Step-1,Increment      1: Step Time =    1.000,"PART-1-1",           700,      -1.34014,  -343.401E-03,            0.,NA,NA,"",       2.22907,       1.81228,       1.29784,   4.03978E-03
C:/temp/dataset/4/5_3.odb,Step-1,Increment      1: Step Time =    1.000,"PART-1-1",           701,      -2.70787,  -93.9540E-03,            0.,NA,NA,"",       2.37595,       1.85669,       1.48250,   4.07227E-03
C:/temp/dataset/4/5_3.odb,Step-1,Increment      1: Step Time =    1.000,"PART-1-1",           702,       8.06015,      -13.0184,            0.,NA,NA,"",   586.937E-03,   569.961E-03,   140.142E-03,   9.92126E-03
C:/temp/dataset/4/5_3.odb,Step-1,Increment      1: Step Time =    1.000,"PART-1-1",           703,       7.99745,      -10.7906,            0.,NA,NA,"",   744.485E-03,   727.304E-03,   159.019E-03,   10.0665E-03
C:/temp/dataset/4/5_3.odb,Step-1,Increment      1: Step Time =    1.000,"PART-1-1",           704,           15.,        -26.25,            0.,NA,NA,"",   79.5690E-03,   41.7104E-03,  -67.7604E-03,   20.4020E-03
C:/temp/dataset/4/5_3.odb,Step-1,Increment      1: Step Time =    1.000,"PART-1-1",           705,       13.9776,      -24.8045,            0.,NA,NA,"",   93.6476E-03,   58.6823E-03,  -72.9813E-03,   15.8688E-03
C:/temp/dataset/4/5_3.odb,Step-1,Increment      1: Step Time =    1.000,"PART-1-1",           706,       12.6094,      -25.9010,            0.,NA,NA,"",   46.6119E-03,   30.8914E-03,  -34.9055E-03,   9.99154E-03
C:/temp/dataset/4/5_3.odb,Step-1,Increment      1: Step Time =    1.000,"PART-1-1",           707,       12.0224,      -24.3398,            0.,NA,NA,"",   69.1645E-03,   58.8238E-03,  -36.3797E-03,   7.35273E-03
C:/temp/dataset/4/5_3.odb,Step-1,Increment      1: Step Time =    1.000,"PART-1-1",           708,       13.0263,      -23.4242,            0.,NA,NA,"",   108.859E-03,   84.7740E-03,  -68.2914E-03,   11.6215E-03
C:/temp/dataset/4/5_3.odb,Step-1,Increment      1: Step Time =    1.000,"PART-1-1",           709,       12.1300,      -22.1112,            0.,NA,NA,"",   130.715E-03,   118.675E-03,  -54.7965E-03,   7.54015E-03
C:/temp/dataset/4/5_3.odb,Step-1,Increment      1: Step Time =    1.000,"PART-1-1",           710,           15.,        -23.75,            0.,NA,NA,"",   144.997E-03,   90.2129E-03,  -113.515E-03,   20.1798E-03
C:/temp/dataset/4/5_3.odb,Step-1,Increment      1: Step Time =    1.000,"PART-1-1",           711,       10.9035,      -9.09896,            0.,NA,NA,"",   847.887E-03,   845.521E-03,  -63.3073E-03,   2.67278E-03
C:/temp/dataset/4/5_3.odb,Step-1,Increment      1: Step Time =    1.000,"PART-1-1",           712,       9.82794,      -8.10226,            0.,NA,NA,"",   930.944E-03,   930.710E-03,   20.8432E-03,   1.81668E-03
C:/temp/dataset/4/5_3.odb,Step-1,Increment      1: Step Time =    1.000,"PART-1-1",           713,       8.90728,      -9.48784,            0.,NA,NA,"",   827.061E-03,   821.515E-03,   95.6136E-03,   5.83920E-03
C:/temp/dataset/4/5_3.odb,Step-1,Increment      1: Step Time =    1.000,"PART-1-1",           714,           15.,         -1.25,            0.,NA,NA,"",       1.69079,       1.60074,  -544.449E-03,   9.74514E-03
C:/temp/dataset/4/5_3.odb,Step-1,Increment      1: Step Time =    1.000,"PART-1-1",           715,       12.7555,      -1.12336,            0.,NA,NA,"",       1.64889,       1.61954,  -309.763E-03,   7.91448E-03
C:/temp/dataset/4/5_3.odb,Step-1,Increment      1: Step Time =    1.000,"PART-1-1",           716,       11.5680,       5.48707,            0.,NA,NA,"",       2.37967,       2.36799,  -235.471E-03,   1.96778E-03
C:/temp/dataset/4/5_3.odb,Step-1,Increment      1: Step Time =    1.000,"PART-1-1",           717,       10.1222,       4.29256,            0.,NA,NA,"",       2.24713,       2.24590,  -74.4746E-03,   4.38197E-03
C:/temp/dataset/4/5_3.odb,Step-1,Increment      1: Step Time =    1.000,"PART-1-1",           718,       8.27918,   509.070E-03,            0.,NA,NA,"",       1.83420,       1.82934,   133.339E-03,   8.82515E-03
C:/temp/dataset/4/5_3.odb,Step-1,Increment      1: Step Time =    1.000,"PART-1-1",           719,       9.70893,  -124.236E-03,            0.,NA,NA,"",       1.74574,       1.74571,  -10.0462E-03,   8.74836E-03
C:/temp/dataset/4/5_3.odb,Step-1,Increment      1: Step Time =    1.000,"PART-1-1",           720,       8.75521,       2.13956,            0.,NA,NA,"",       2.01532,       2.01381,   78.1155E-03,   7.81719E-03
C:/temp/dataset/4/5_3.odb,Step-1,Increment      1: Step Time =    1.000,"PART-1-1",           721,       6.99874,       4.90963,            0.,NA,NA,"",       2.35823,       2.34412,   257.587E-03,   6.29063E-03
C:/temp/dataset/4/5_3.odb,Step-1,Increment      1: Step Time =    1.000,"PART-1-1",           722,       8.01086,       5.41567,            0.,NA,NA,"",       2.39317,       2.38865,   147.016E-03,   4.35356E-03
C:/temp/dataset/4/5_3.odb,Step-1,Increment      1: Step Time =    1.000,"PART-1-1",           723,       11.8045,       7.99587,            0.,NA,NA,"",       2.65602,       2.64168,  -275.633E-03,   356.973E-06
C:/temp/dataset/4/5_3.odb,Step-1,Increment      1: Step Time =    1.000,"PART-1-1",           724,       7.91904,       10.9856,            0.,NA,NA,"",       2.99138,       2.98868,   127.046E-03,   184.710E-06
C:/temp/dataset/4/5_3.odb,Step-1,Increment      1: Step Time =    1.000,"PART-1-1",           725,       11.0233,       18.7016,            0.,NA,NA,"",       3.81382,       3.80533,  -254.410E-03,   16.5732E-06
C:/temp/dataset/4/5_3.odb,Step-1,Increment      1: Step Time =    1.000,"PART-1-1",           726,       10.0074,       19.8076,            0.,NA,NA,"",       3.93383,       3.93093,  -150.997E-03,   6.85902E-06
C:/temp/dataset/4/5_3.odb,Step-1,Increment      1: Step Time =    1.000,"PART-1-1",           727,       10.9673,       21.0105,            0.,NA,NA,"",       4.06389,       4.05545,  -261.906E-03,   4.11462E-06
C:/temp/dataset/4/5_3.odb,Step-1,Increment      1: Step Time =    1.000,"PART-1-1",           728,       8.97465,       20.8454,            0.,NA,NA,"",       4.04952,       4.04927,  -45.3552E-03,   4.59564E-06
C:/temp/dataset/4/5_3.odb,Step-1,Increment      1: Step Time =    1.000,"PART-1-1",           729,       8.66510,       24.8184,            0.,NA,NA,"",       4.48106,       4.48092,  -35.1863E-03,   455.915E-09
C:/temp/dataset/4/5_3.odb,Step-1,Increment      1: Step Time =    1.000,"PART-1-1",           730,       7.98376,       13.1681,            0.,NA,NA,"",       3.22613,       3.22436,   107.060E-03,   122.290E-06
C:/temp/dataset/4/5_3.odb,Step-1,Increment      1: Step Time =    1.000,"PART-1-1",           731,      -1.95806,       1.80915,            0.,NA,NA,"",       2.50272,       2.09807,       1.36444,   4.70197E-03
C:/temp/dataset/4/5_3.odb,Step-1,Increment      1: Step Time =    1.000,"PART-1-1",           732,  -613.587E-03,   828.335E-03,            0.,NA,NA,"",       2.28990,       1.95608,       1.19055,   4.20397E-03
C:/temp/dataset/4/5_3.odb,Step-1,Increment      1: Step Time =    1.000,"PART-1-1",           733,   461.223E-03,       1.99751,            0.,NA,NA,"",       2.33692,       2.09234,       1.04082,   5.62586E-03
C:/temp/dataset/4/5_3.odb,Step-1,Increment      1: Step Time =    1.000,"PART-1-1",           734,       1.74006,       1.04512,            0.,NA,NA,"",       2.14795,       1.95873,   881.511E-03,   4.05528E-03
C:/temp/dataset/4/5_3.odb,Step-1,Increment      1: Step Time =    1.000,"PART-1-1",           735,   906.022E-03,  -39.5003E-03,            0.,NA,NA,"",       2.08549,       1.83216,   996.228E-03,   3.87389E-03
C:/temp/dataset/4/5_3.odb,Step-1,Increment      1: Step Time =    1.000,"PART-1-1",           736,       2.15034,  -968.542E-03,            0.,NA,NA,"",       1.90388,       1.70752,   842.110E-03,   4.13435E-03
C:/temp/dataset/4/5_3.odb,Step-1,Increment      1: Step Time =    1.000,"PART-1-1",           737,       2.98438,   116.081E-03,            0.,NA,NA,"",       1.97304,       1.83293,   730.241E-03,   3.23666E-03
C:/temp/dataset/4/5_3.odb,Step-1,Increment      1: Step Time =    1.000,"PART-1-1",           738,      -8.25937,       5.01848,            0.,NA,NA,"",       3.43445,       2.62008,       2.22050,   1.90383E-03
C:/temp/dataset/4/5_3.odb,Step-1,Increment      1: Step Time =    1.000,"PART-1-1",           739,      -2.78312,       1.01462,            0.,NA,NA,"",       2.49258,       2.00314,       1.48337,   4.28158E-03
C:/temp/dataset/4/5_3.odb,Step-1,Increment      1: Step Time =    1.000,"PART-1-1",           740,      -4.31499,   913.536E-03,            0.,NA,NA,"",       2.62767,       2.00631,       1.69688,   4.32552E-03
C:/temp/dataset/4/5_3.odb,Step-1,Increment      1: Step Time =    1.000,"PART-1-1",           741,      -4.23975,  -195.042E-03,            0.,NA,NA,"",       2.51536,       1.85741,       1.69618,   4.20453E-03
C:/temp/dataset/4/5_3.odb,Step-1,Increment      1: Step Time =    1.000,"PART-1-1",           742,      -8.52646,       20.5688,            0.,NA,NA,"",       5.26006,       4.82144,       2.10283,   1.70176E-06
C:/temp/dataset/4/5_3.odb,Step-1,Increment      1: Step Time =    1.000,"PART-1-1",           743,       8.09873,      -15.2435,            0.,NA,NA,"",   448.323E-03,   431.294E-03,   122.390E-03,   9.79193E-03
C:/temp/dataset/4/5_3.odb,Step-1,Increment      1: Step Time =    1.000,"PART-1-1",           744,       8.99676,       14.2096,            0.,NA,NA,"",       3.33119,       3.33118,  -8.63673E-03,   107.132E-06
C:/temp/dataset/4/5_3.odb,Step-1,Increment      1: Step Time =    1.000,"PART-1-1",           745,       11.0169,       14.0599,            0.,NA,NA,"",       3.31102,       3.30327,  -226.332E-03,   106.940E-06
C:/temp/dataset/4/5_3.odb,Step-1,Increment      1: Step Time =    1.000,"PART-1-1",           746,      -7.91902,       15.6847,            0.,NA,NA,"",       4.61353,       4.12508,       2.06602,   21.1488E-06
C:/temp/dataset/4/5_3.odb,Step-1,Increment      1: Step Time =    1.000,"PART-1-1",           747,      -11.9968,       14.1876,            0.,NA,NA,"",       4.76429,       3.95432,       2.65741,   37.8558E-06
C:/temp/dataset/4/5_3.odb,Step-1,Increment      1: Step Time =    1.000,"PART-1-1",           748,      -11.1175,       8.79310,            0.,NA,NA,"",       4.10221,       3.18317,       2.58757,   88.1799E-06
C:/temp/dataset/4/5_3.odb,Step-1,Increment      1: Step Time =    1.000,"PART-1-1",           749,       10.6592,      -6.44981,            0.,NA,NA,"",       1.07650,       1.07490,  -58.5511E-03,   4.25993E-03
C:/temp/dataset/4/5_3.odb,Step-1,Increment      1: Step Time =    1.000,"PART-1-1",           750,      -10.7894,       23.3985,            0.,NA,NA,"",       5.76481,       5.24409,       2.39426,   285.570E-09
C:/temp/dataset/4/5_3.odb,Step-1,Increment      1: Step Time =    1.000,"PART-1-1",           751,       10.0228,      -25.8019,            0.,NA,NA,"",   28.5953E-03,   28.1295E-03,   5.13998E-03,   1.70876E-03
C:/temp/dataset/4/5_3.odb,Step-1,Increment      1: Step Time =    1.000,"PART-1-1",           752,       10.9542,      -24.8826,            0.,NA,NA,"",   46.6922E-03,   45.1802E-03,  -11.7862E-03,   2.55704E-03
C:/temp/dataset/4/5_3.odb,Step-1,Increment      1: Step Time =    1.000,"PART-1-1",           753,       11.8371,      -2.37854,            0.,NA,NA,"",       1.49866,       1.48459,  -204.844E-03,   8.36416E-03
C:/temp/dataset/4/5_3.odb,Step-1,Increment      1: Step Time =    1.000,"PART-1-1",           754,       11.6235,      -5.02753,            0.,NA,NA,"",       1.22008,       1.20982,  -157.905E-03,   7.33427E-03
C:/temp/dataset/4/5_3.odb,Step-1,Increment      1: Step Time =    1.000,"PART-1-1",           755,      -12.1333,       7.86930,            0.,NA,NA,"",       4.10985,       3.06305,       2.74018,   103.742E-06
C:/temp/dataset/4/5_3.odb,Step-1,Increment      1: Step Time =    1.000,"PART-1-1",           756,      -12.0768,       9.95169,            0.,NA,NA,"",       4.31476,       3.35645,       2.71134,   83.0643E-06
C:/temp/dataset/4/5_3.odb,Step-1,Increment      1: Step Time =    1.000,"PART-1-1",           757,       8.68743,       3.64563,            0.,NA,NA,"",       2.18770,       2.18623,   80.3332E-03,   6.25620E-03
C:/temp/dataset/4/5_3.odb,Step-1,Increment      1: Step Time =    1.000,"PART-1-1",           758,       6.61848,       3.66599,            0.,NA,NA,"",       2.23203,       2.21170,   300.561E-03,   7.82788E-03
C:/temp/dataset/4/5_3.odb,Step-1,Increment      1: Step Time =    1.000,"PART-1-1",           759,       4.71579,   65.6079E-03,            0.,NA,NA,"",       1.88436,       1.81052,   522.335E-03,   4.67420E-03
C:/temp/dataset/4/5_3.odb,Step-1,Increment      1: Step Time =    1.000,"PART-1-1",           760,       3.89104,   957.250E-03,            0.,NA,NA,"",       2.02162,       1.92540,   616.286E-03,   3.93434E-03
C:/temp/dataset/4/5_3.odb,Step-1,Increment      1: Step Time =    1.000,"PART-1-1",           761,      -12.0363,       12.0623,            0.,NA,NA,"",       4.53430,       3.65431,       2.68438,   70.5217E-06
C:/temp/dataset/4/5_3.odb,Step-1,Increment      1: Step Time =    1.000,"PART-1-1",           762,      -12.1964,       5.82098,            0.,NA,NA,"",       3.92074,       2.77533,       2.76943,   496.977E-06
C:/temp/dataset/4/5_3.odb,Step-1,Increment      1: Step Time =    1.000,"PART-1-1",           763,      -11.2570,       4.81016,            0.,NA,NA,"",       3.72677,       2.62380,       2.64660,   1.05417E-03
C:/temp/dataset/4/5_3.odb,Step-1,Increment      1: Step Time =    1.000,"PART-1-1",           764,      -10.5260,       3.94381,            0.,NA,NA,"",       3.56842,       2.49479,       2.55141,   1.60892E-03
C:/temp/dataset/4/5_3.odb,Step-1,Increment      1: Step Time =    1.000,"PART-1-1",           765,      -9.56326,       4.76486,            0.,NA,NA,"",       3.54274,       2.59917,       2.40735,   1.45490E-03
C:/temp/dataset/4/5_3.odb,Step-1,Increment      1: Step Time =    1.000,"PART-1-1",           766,      -9.32737,       3.44699,            0.,NA,NA,"",       3.39279,       2.41212,       2.38594,   2.34747E-03
C:/temp/dataset/4/5_3.odb,Step-1,Increment      1: Step Time =    1.000,"PART-1-1",           767,       11.5413,      -26.4438,            0.,NA,NA,"",   25.1609E-03,   19.4732E-03,  -15.9331E-03,   5.26738E-03
C:/temp/dataset/4/5_3.odb,Step-1,Increment      1: Step Time =    1.000,"PART-1-1",           768,       5.97241,      -3.36228,            0.,NA,NA,"",       1.45081,       1.39942,   382.718E-03,   9.95966E-03
C:/temp/dataset/4/5_3.odb,Step-1,Increment      1: Step Time =    1.000,"PART-1-1",           769,       11.9304,       22.2704,            0.,NA,NA,"",       4.20273,       4.18610,  -373.497E-03,   752.294E-09
C:/temp/dataset/4/5_3.odb,Step-1,Increment      1: Step Time =    1.000,"PART-1-1",           770,      -3.95064,       2.12654,            0.,NA,NA,"",       2.71334,       2.16458,       1.63609,   4.42796E-03
C:/temp/dataset/4/5_3.odb,Step-1,Increment      1: Step Time =    1.000,"PART-1-1",           771,       12.1361,      -19.7979,            0.,NA,NA,"",   213.304E-03,   200.758E-03,  -72.0748E-03,   7.47029E-03
C:/temp/dataset/4/5_3.odb,Step-1,Increment      1: Step Time =    1.000,"PART-1-1",           772,       12.1156,      -17.4436,            0.,NA,NA,"",   317.941E-03,   305.206E-03,  -89.0850E-03,   7.28176E-03
C:/temp/dataset/4/5_3.odb,Step-1,Increment      1: Step Time =    1.000,"PART-1-1",           773,       11.8489,      -7.73518,            0.,NA,NA,"",   970.758E-03,   958.843E-03,  -151.626E-03,   6.48718E-03
C:/temp/dataset/4/5_3.odb,Step-1,Increment      1: Step Time =    1.000,"PART-1-1",           774,       11.9658,      -10.2357,            0.,NA,NA,"",   767.870E-03,   755.305E-03,  -138.347E-03,   6.49053E-03
C:/temp/dataset/4/5_3.odb,Step-1,Increment      1: Step Time =    1.000,"PART-1-1",           775,       10.7237,      -1.11081,            0.,NA,NA,"",       1.63175,       1.62833,  -105.653E-03,   8.37858E-03
C:/temp/dataset/4/5_3.odb,Step-1,Increment      1: Step Time =    1.000,"PART-1-1",           776,       11.9194,       10.4262,            0.,NA,NA,"",       2.92056,       2.90485,  -302.494E-03,   157.394E-06
C:/temp/dataset/4/5_3.odb,Step-1,Increment      1: Step Time =    1.000,"PART-1-1",           777,       11.9945,       12.8006,            0.,NA,NA,"",       3.17801,       3.16138,  -324.733E-03,   126.118E-06
C:/temp/dataset/4/5_3.odb,Step-1,Increment      1: Step Time =    1.000,"PART-1-1",           778,       12.0317,      -12.6649,            0.,NA,NA,"",   594.283E-03,   581.544E-03,  -122.391E-03,   6.74403E-03
C:/temp/dataset/4/5_3.odb,Step-1,Increment      1: Step Time =    1.000,"PART-1-1",           779,       12.0352,       15.1685,            0.,NA,NA,"",       3.43442,       3.41723,  -343.115E-03,   60.8834E-06
C:/temp/dataset/4/5_3.odb,Step-1,Increment      1: Step Time =    1.000,"PART-1-1",           780,      -7.80161,      -2.23284,            0.,NA,NA,"",       2.74513,       1.61257,       2.22156,   3.59187E-03
C:/temp/dataset/4/5_3.odb,Step-1,Increment      1: Step Time =    1.000,"PART-1-1",           781,      -8.87876,  -905.543E-03,            0.,NA,NA,"",       2.97372,       1.80576,       2.36268,   3.72644E-03
C:/temp/dataset/4/5_3.odb,Step-1,Increment      1: Step Time =    1.000,"PART-1-1",           782,      -7.16649,      -1.00336,            0.,NA,NA,"",       2.76409,       1.77579,       2.11820,   4.01414E-03
C:/temp/dataset/4/5_3.odb,Step-1,Increment      1: Step Time =    1.000,"PART-1-1",           783,      -7.09692,   257.153E-03,            0.,NA,NA,"",       2.86118,       1.94721,       2.09636,   4.05026E-03
C:/temp/dataset/4/5_3.odb,Step-1,Increment      1: Step Time =    1.000,"PART-1-1",           784,      -5.74923,      -1.63131,            0.,NA,NA,"",       2.55160,       1.67740,       1.92275,   4.01094E-03
C:/temp/dataset/4/5_3.odb,Step-1,Increment      1: Step Time =    1.000,"PART-1-1",           785,      -5.66693,  -67.3201E-03,            0.,NA,NA,"",       2.67599,       1.88841,       1.89600,   4.27167E-03
C:/temp/dataset/4/5_3.odb,Step-1,Increment      1: Step Time =    1.000,"PART-1-1",           786,      -5.46941,       1.35113,            0.,NA,NA,"",       2.78587,       2.07799,       1.85555,   4.39621E-03
C:/temp/dataset/4/5_3.odb,Step-1,Increment      1: Step Time =    1.000,"PART-1-1",           787,       12.0849,      -15.0650,            0.,NA,NA,"",   444.853E-03,   432.000E-03,  -106.161E-03,   7.05363E-03
C:/temp/dataset/4/5_3.odb,Step-1,Increment      1: Step Time =    1.000,"PART-1-1",           788,       7.01212,      -4.44648,            0.,NA,NA,"",       1.30678,       1.27764,   274.415E-03,   8.58493E-03
C:/temp/dataset/4/5_3.odb,Step-1,Increment      1: Step Time =    1.000,"PART-1-1",           789,       7.64174,      -3.33281,            0.,NA,NA,"",       1.41037,       1.39458,   210.428E-03,   8.11064E-03
C:/temp/dataset/4/5_3.odb,Step-1,Increment      1: Step Time =    1.000,"PART-1-1",           790,       6.60203,      -2.24861,            0.,NA,NA,"",       1.55451,       1.52218,   315.387E-03,   8.45611E-03
C:/temp/dataset/4/5_3.odb,Step-1,Increment      1: Step Time =    1.000,"PART-1-1",           791,       6.68626,       2.15992,            0.,NA,NA,"",       2.05884,       2.03733,   296.837E-03,   8.19870E-03
C:/temp/dataset/4/5_3.odb,Step-1,Increment      1: Step Time =    1.000,"PART-1-1",           792,       12.0103,       19.9021,            0.,NA,NA,"",       3.94663,       3.92941,  -368.241E-03,   5.43394E-06
C:/temp/dataset/4/5_3.odb,Step-1,Increment      1: Step Time =    1.000,"PART-1-1",           793,       12.0305,       17.5416,            0.,NA,NA,"",       3.69120,       3.67394,  -356.568E-03,   21.4282E-06
C:/temp/dataset/4/5_3.odb,Step-1,Increment      1: Step Time =    1.000,"PART-1-1",           794,       6.09271,      -1.14349,            0.,NA,NA,"",       1.69575,       1.65503,   369.369E-03,   7.30384E-03
C:/temp/dataset/4/5_3.odb,Step-1,Increment      1: Step Time =    1.000,"PART-1-1",           795,       7.56053,      -1.65505,            0.,NA,NA,"",       1.59843,       1.58400,   214.293E-03,   8.98913E-03
C:/temp/dataset/4/5_3.odb,Step-1,Increment      1: Step Time =    1.000,"PART-1-1",           796,       7.05122,  -549.935E-03,            0.,NA,NA,"",       1.73661,       1.71628,   264.902E-03,   8.42703E-03
C:/temp/dataset/4/5_3.odb,Step-1,Increment      1: Step Time =    1.000,"PART-1-1",           797,       5.28588,       1.87348,            0.,NA,NA,"",       2.06926,       2.01942,   451.396E-03,   6.30519E-03
C:/temp/dataset/4/5_3.odb,Step-1,Increment      1: Step Time =    1.000,"PART-1-1",           798,       5.70847,   325.226E-03,            0.,NA,NA,"",       1.87664,       1.83161,   408.663E-03,   6.50944E-03
C:/temp/dataset/4/5_3.odb,Step-1,Increment      1: Step Time =    1.000,"PART-1-1",           799,       7.10885,   611.668E-03,            0.,NA,NA,"",       1.86935,       1.85177,   255.786E-03,   8.22114E-03
C:/temp/dataset/4/5_3.odb,Step-1,Increment      1: Step Time =    1.000,"PART-1-1",           800,       9.00326,      -1.31280,            0.,NA,NA,"",       1.61559,       1.61420,   66.9423E-03,   8.93136E-03
C:/temp/dataset/4/5_3.odb,Step-1,Increment      1: Step Time =    1.000,"PART-1-1",           801,       8.22155,  -652.532E-03,            0.,NA,NA,"",       1.70108,       1.69503,   143.366E-03,   9.03904E-03
C:/temp/dataset/4/5_3.odb,Step-1,Increment      1: Step Time =    1.000,"PART-1-1",           802,       8.34224,      -2.31533,            0.,NA,NA,"",       1.51065,       1.50440,   137.256E-03,   8.69649E-03
C:/temp/dataset/4/5_3.odb,Step-1,Increment      1: Step Time =    1.000,"PART-1-1",           803,       2.82445,       2.06443,            0.,NA,NA,"",       2.19939,       2.07098,   740.496E-03,   5.79657E-03
