ODB Name,Step,Frame,Part Instance Name,    êﬂì_ÉâÉxÉã,X,Y,Z,Section Name,Material Name,Section Point,   U-Magnitude,          U-U1,          U-U2,       S-Mises
C:/temp/dataset/4/6_1.odb,Step-1,Increment      1: Step Time =    1.000,"PART-1-1",             1,           -5.,           30.,            0.,NA,NA,"",       1.52215,       1.45401,   450.353E-03,   16.4404E-09
C:/temp/dataset/4/6_1.odb,Step-1,Increment      1: Step Time =    1.000,"PART-1-1",             2,          -15.,           30.,            0.,NA,NA,"",       1.65844,       1.45968,   787.237E-03,   16.3307E-09
C:/temp/dataset/4/6_1.odb,Step-1,Increment      1: Step Time =    1.000,"PART-1-1",             3,          -15.,         21.25,            0.,NA,NA,"",       1.40876,       1.16491,   792.204E-03,   159.325E-09
C:/temp/dataset/4/6_1.odb,Step-1,Increment      1: Step Time =    1.000,"PART-1-1",             4,          -15.,          12.5,            0.,NA,NA,"",       1.18008,   870.122E-03,   797.167E-03,   4.93709E-06
C:/temp/dataset/4/6_1.odb,Step-1,Increment      1: Step Time =    1.000,"PART-1-1",             5,          -15.,          3.75,            0.,NA,NA,"",   987.034E-03,   575.591E-03,   801.830E-03,   75.4560E-06
C:/temp/dataset/4/6_1.odb,Step-1,Increment      1: Step Time =    1.000,"PART-1-1",             6,          -15.,           -5.,            0.,NA,NA,"",   854.634E-03,   283.701E-03,   806.172E-03,   29.4784E-06
C:/temp/dataset/4/6_1.odb,Step-1,Increment      1: Step Time =    1.000,"PART-1-1",             7,          -10.,           -5.,            0.,NA,NA,"",   700.220E-03,   281.464E-03,   641.160E-03,   522.789E-06
C:/temp/dataset/4/6_1.odb,Step-1,Increment      1: Step Time =    1.000,"PART-1-1",             8,           -5.,           -5.,            0.,NA,NA,"",   548.360E-03,   279.392E-03,   471.846E-03,   1.01719E-03
C:/temp/dataset/4/6_1.odb,Step-1,Increment      1: Step Time =    1.000,"PART-1-1",             9,            0.,           -5.,            0.,NA,NA,"",   413.623E-03,   283.432E-03,   301.248E-03,   1.97866E-03
C:/temp/dataset/4/6_1.odb,Step-1,Increment      1: Step Time =    1.000,"PART-1-1",            10,            5.,           -5.,            0.,NA,NA,"",   323.382E-03,   295.677E-03,   130.962E-03,   8.98965E-03
C:/temp/dataset/4/6_1.odb,Step-1,Increment      1: Step Time =    1.000,"PART-1-1",            11,            5.,        -11.25,            0.,NA,NA,"",   198.520E-03,   173.513E-03,   96.4547E-03,   5.72645E-03
C:/temp/dataset/4/6_1.odb,Step-1,Increment      1: Step Time =    1.000,"PART-1-1",            12,            5.,         -17.5,            0.,NA,NA,"",   102.919E-03,   79.9988E-03,   64.7495E-03,   5.82398E-03
C:/temp/dataset/4/6_1.odb,Step-1,Increment      1: Step Time =    1.000,"PART-1-1",            13,            5.,        -23.75,            0.,NA,NA,"",   40.0924E-03,   23.8770E-03,   32.2071E-03,   5.85037E-03
C:/temp/dataset/4/6_1.odb,Step-1,Increment      1: Step Time =    1.000,"PART-1-1",            14,            5.,          -30.,            0.,NA,NA,"",            0.,   1.78334E-39,   3.39872E-39,   6.62297E-03
C:/temp/dataset/4/6_1.odb,Step-1,Increment      1: Step Time =    1.000,"PART-1-1",            15,           15.,          -30.,            0.,NA,NA,"",            0.,   1.33575E-39,  -2.65015E-39,   5.02753E-03
C:/temp/dataset/4/6_1.odb,Step-1,Increment      1: Step Time =    1.000,"PART-1-1",            16,           15.,         -22.5,            0.,NA,NA,"",   43.7113E-03,   29.4734E-03,  -32.2800E-03,   4.87445E-03
C:/temp/dataset/4/6_1.odb,Step-1,Increment      1: Step Time =    1.000,"PART-1-1",            17,           15.,          -15.,            0.,NA,NA,"",   127.565E-03,   109.582E-03,  -65.3038E-03,   4.82369E-03
C:/temp/dataset/4/6_1.odb,Step-1,Increment      1: Step Time =    1.000,"PART-1-1",            18,           15.,          -7.5,            0.,NA,NA,"",   263.480E-03,   244.135E-03,  -99.0946E-03,   4.71103E-03
C:/temp/dataset/4/6_1.odb,Step-1,Increment      1: Step Time =    1.000,"PART-1-1",            19,           15.,            0.,            0.,NA,NA,"",   451.291E-03,   433.518E-03,  -125.404E-03,   1.81125E-03
C:/temp/dataset/4/6_1.odb,Step-1,Increment      1: Step Time =    1.000,"PART-1-1",            20,           15.,           7.5,            0.,NA,NA,"",   655.499E-03,   642.137E-03,  -131.679E-03,   113.019E-06
C:/temp/dataset/4/6_1.odb,Step-1,Increment      1: Step Time =    1.000,"PART-1-1",            21,           15.,           15.,            0.,NA,NA,"",   857.001E-03,   846.459E-03,  -134.010E-03,   12.4315E-06
C:/temp/dataset/4/6_1.odb,Step-1,Increment      1: Step Time =    1.000,"PART-1-1",            22,           15.,          22.5,            0.,NA,NA,"",       1.05911,       1.05025,  -136.764E-03,   405.230E-09
C:/temp/dataset/4/6_1.odb,Step-1,Increment      1: Step Time =    1.000,"PART-1-1",            23,           15.,           30.,            0.,NA,NA,"",       1.26180,       1.25406,  -139.535E-03,   15.2294E-09
C:/temp/dataset/4/6_1.odb,Step-1,Increment      1: Step Time =    1.000,"PART-1-1",            24,            5.,           30.,            0.,NA,NA,"",       1.26468,       1.25775,   132.213E-03,   12.6558E-09
C:/temp/dataset/4/6_1.odb,Step-1,Increment      1: Step Time =    1.000,"PART-1-1",            25,            5.,         23.75,            0.,NA,NA,"",       1.09619,       1.08791,   134.522E-03,   303.272E-09
C:/temp/dataset/4/6_1.odb,Step-1,Increment      1: Step Time =    1.000,"PART-1-1",            26,            5.,          17.5,            0.,NA,NA,"",   928.195E-03,   918.054E-03,   136.830E-03,   2.51250E-06
C:/temp/dataset/4/6_1.odb,Step-1,Increment      1: Step Time =    1.000,"PART-1-1",            27,            5.,         11.25,            0.,NA,NA,"",   761.011E-03,   748.210E-03,   138.994E-03,   73.1524E-06
C:/temp/dataset/4/6_1.odb,Step-1,Increment      1: Step Time =    1.000,"PART-1-1",            28,            5.,            5.,            0.,NA,NA,"",   600.663E-03,   583.910E-03,   140.871E-03,   3.38701E-03
C:/temp/dataset/4/6_1.odb,Step-1,Increment      1: Step Time =    1.000,"PART-1-1",            29,            0.,            5.,            0.,NA,NA,"",   670.460E-03,   601.287E-03,   296.600E-03,   2.33920E-03
C:/temp/dataset/4/6_1.odb,Step-1,Increment      1: Step Time =    1.000,"PART-1-1",            30,           -5.,            5.,            0.,NA,NA,"",   767.275E-03,   611.067E-03,   464.013E-03,   612.411E-06
C:/temp/dataset/4/6_1.odb,Step-1,Increment      1: Step Time =    1.000,"PART-1-1",            31,           -5.,         11.25,            0.,NA,NA,"",   942.759E-03,   822.368E-03,   460.983E-03,   11.1494E-06
C:/temp/dataset/4/6_1.odb,Step-1,Increment      1: Step Time =    1.000,"PART-1-1",            32,           -5.,          17.5,            0.,NA,NA,"",       1.12967,       1.03290,   457.449E-03,   297.591E-09
C:/temp/dataset/4/6_1.odb,Step-1,Increment      1: Step Time =    1.000,"PART-1-1",            33,           -5.,         23.75,            0.,NA,NA,"",       1.32371,       1.24345,   453.900E-03,   55.3168E-09
C:/temp/dataset/4/6_1.odb,Step-1,Increment      1: Step Time =    1.000,"PART-1-1",            34,          -7.5,           30.,            0.,NA,NA,"",       1.55049,       1.45542,   534.574E-03,   13.3155E-09
C:/temp/dataset/4/6_1.odb,Step-1,Increment      1: Step Time =    1.000,"PART-1-1",            35,          -10.,           30.,            0.,NA,NA,"",       1.58281,       1.45684,   618.795E-03,   12.1662E-09
C:/temp/dataset/4/6_1.odb,Step-1,Increment      1: Step Time =    1.000,"PART-1-1",            36,         -12.5,           30.,            0.,NA,NA,"",       1.61888,       1.45826,   703.016E-03,   13.9718E-09
C:/temp/dataset/4/6_1.odb,Step-1,Increment      1: Step Time =    1.000,"PART-1-1",            37,          -15.,       27.8125,            0.,NA,NA,"",       1.59457,       1.38599,   788.478E-03,   14.2572E-09
C:/temp/dataset/4/6_1.odb,Step-1,Increment      1: Step Time =    1.000,"PART-1-1",            38,          -15.,        25.625,            0.,NA,NA,"",       1.53159,       1.31230,   789.720E-03,   20.5433E-09
C:/temp/dataset/4/6_1.odb,Step-1,Increment      1: Step Time =    1.000,"PART-1-1",            39,          -15.,       23.4375,            0.,NA,NA,"",       1.46961,       1.23860,   790.962E-03,   64.1014E-09
C:/temp/dataset/4/6_1.odb,Step-1,Increment      1: Step Time =    1.000,"PART-1-1",            40,          -15.,       19.0625,            0.,NA,NA,"",       1.34919,       1.09121,   793.446E-03,   278.053E-09
C:/temp/dataset/4/6_1.odb,Step-1,Increment      1: Step Time =    1.000,"PART-1-1",            41,          -15.,        16.875,            0.,NA,NA,"",       1.29108,       1.01752,   794.688E-03,   199.621E-09
C:/temp/dataset/4/6_1.odb,Step-1,Increment      1: Step Time =    1.000,"PART-1-1",            42,          -15.,       14.6875,            0.,NA,NA,"",       1.23463,   943.822E-03,   795.930E-03,   884.229E-09
C:/temp/dataset/4/6_1.odb,Step-1,Increment      1: Step Time =    1.000,"PART-1-1",            43,          -15.,       10.3125,            0.,NA,NA,"",       1.12770,   796.420E-03,   798.391E-03,   15.4415E-06
C:/temp/dataset/4/6_1.odb,Step-1,Increment      1: Step Time =    1.000,"PART-1-1",            44,          -15.,         8.125,            0.,NA,NA,"",       1.07781,   722.733E-03,   799.585E-03,   34.8709E-06
C:/temp/dataset/4/6_1.odb,Step-1,Increment      1: Step Time =    1.000,"PART-1-1",            45,          -15.,        5.9375,            0.,NA,NA,"",       1.03078,   649.102E-03,   800.732E-03,   59.0739E-06
C:/temp/dataset/4/6_1.odb,Step-1,Increment      1: Step Time =    1.000,"PART-1-1",            46,          -15.,        1.5625,            0.,NA,NA,"",   947.055E-03,   502.260E-03,   802.900E-03,   85.9192E-06
C:/temp/dataset/4/6_1.odb,Step-1,Increment      1: Step Time =    1.000,"PART-1-1",            47,          -15.,     -625.E-03,            0.,NA,NA,"",   911.325E-03,   429.157E-03,   803.952E-03,   98.9407E-06
C:/temp/dataset/4/6_1.odb,Step-1,Increment      1: Step Time =    1.000,"PART-1-1",            48,          -15.,       -2.8125,            0.,NA,NA,"",   880.349E-03,   356.348E-03,   805.003E-03,   52.1958E-06
C:/temp/dataset/4/6_1.odb,Step-1,Increment      1: Step Time =    1.000,"PART-1-1",            49,         -12.5,           -5.,            0.,NA,NA,"",   776.313E-03,   282.358E-03,   723.143E-03,   174.550E-06
C:/temp/dataset/4/6_1.odb,Step-1,Increment      1: Step Time =    1.000,"PART-1-1",            50,          -7.5,           -5.,            0.,NA,NA,"",   624.629E-03,   280.073E-03,   558.320E-03,   1.06871E-03
C:/temp/dataset/4/6_1.odb,Step-1,Increment      1: Step Time =    1.000,"PART-1-1",            51,          -2.5,           -5.,            0.,NA,NA,"",   476.730E-03,   280.766E-03,   385.282E-03,   1.59813E-03
C:/temp/dataset/4/6_1.odb,Step-1,Increment      1: Step Time =    1.000,"PART-1-1",            52,           2.5,           -5.,            0.,NA,NA,"",   360.923E-03,   287.191E-03,   218.602E-03,   3.04413E-03
C:/temp/dataset/4/6_1.odb,Step-1,Increment      1: Step Time =    1.000,"PART-1-1",            53,            5.,      -7.08333,            0.,NA,NA,"",   279.709E-03,   254.262E-03,   116.566E-03,   6.72164E-03
C:/temp/dataset/4/6_1.odb,Step-1,Increment      1: Step Time =    1.000,"PART-1-1",            54,            5.,      -9.16667,            0.,NA,NA,"",   237.826E-03,   212.526E-03,   106.742E-03,   5.63576E-03
C:/temp/dataset/4/6_1.odb,Step-1,Increment      1: Step Time =    1.000,"PART-1-1",            55,            5.,      -13.3333,            0.,NA,NA,"",   162.846E-03,   138.263E-03,   86.0374E-03,   5.75182E-03
C:/temp/dataset/4/6_1.odb,Step-1,Increment      1: Step Time =    1.000,"PART-1-1",            56,            5.,      -15.4167,            0.,NA,NA,"",   130.982E-03,   107.066E-03,   75.4538E-03,   5.79924E-03
C:/temp/dataset/4/6_1.odb,Step-1,Increment      1: Step Time =    1.000,"PART-1-1",            57,            5.,      -19.5833,            0.,NA,NA,"",   78.5623E-03,   57.1041E-03,   53.9552E-03,   5.84184E-03
C:/temp/dataset/4/6_1.odb,Step-1,Increment      1: Step Time =    1.000,"PART-1-1",            58,            5.,      -21.6667,            0.,NA,NA,"",   57.7187E-03,   38.3916E-03,   43.0992E-03,   5.84484E-03
C:/temp/dataset/4/6_1.odb,Step-1,Increment      1: Step Time =    1.000,"PART-1-1",            59,            5.,      -25.8333,            0.,NA,NA,"",   25.2558E-03,   13.4268E-03,   21.3910E-03,   5.71286E-03
C:/temp/dataset/4/6_1.odb,Step-1,Increment      1: Step Time =    1.000,"PART-1-1",            60,            5.,      -27.9167,            0.,NA,NA,"",   12.7438E-03,   6.70516E-03,   10.8372E-03,   5.95813E-03
C:/temp/dataset/4/6_1.odb,Step-1,Increment      1: Step Time =    1.000,"PART-1-1",            61,           7.5,          -30.,            0.,NA,NA,"",            0.,  -38.1574E-42,   4.77409E-39,   2.42988E-03
C:/temp/dataset/4/6_1.odb,Step-1,Increment      1: Step Time =    1.000,"PART-1-1",            62,           10.,          -30.,            0.,NA,NA,"",            0.,  -863.735E-42,   574.678E-42,   1.09266E-03
C:/temp/dataset/4/6_1.odb,Step-1,Increment      1: Step Time =    1.000,"PART-1-1",            63,          12.5,          -30.,            0.,NA,NA,"",            0.,   585.198E-42,  -2.73221E-39,   1.83127E-03
C:/temp/dataset/4/6_1.odb,Step-1,Increment      1: Step Time =    1.000,"PART-1-1",            64,           15.,         -27.5,            0.,NA,NA,"",   11.9904E-03,   5.86616E-03,  -10.4574E-03,   4.96976E-03
C:/temp/dataset/4/6_1.odb,Step-1,Increment      1: Step Time =    1.000,"PART-1-1",            65,           15.,          -25.,            0.,NA,NA,"",   25.9003E-03,   14.6977E-03,  -21.3261E-03,   4.83196E-03
C:/temp/dataset/4/6_1.odb,Step-1,Increment      1: Step Time =    1.000,"PART-1-1",            66,           15.,          -20.,            0.,NA,NA,"",   66.2790E-03,   50.2067E-03,  -43.2689E-03,   4.83580E-03
C:/temp/dataset/4/6_1.odb,Step-1,Increment      1: Step Time =    1.000,"PART-1-1",            67,           15.,         -17.5,            0.,NA,NA,"",   94.1313E-03,   76.9206E-03,  -54.2578E-03,   4.82381E-03
C:/temp/dataset/4/6_1.odb,Step-1,Increment      1: Step Time =    1.000,"PART-1-1",            68,           15.,         -12.5,            0.,NA,NA,"",   166.782E-03,   148.224E-03,  -76.4586E-03,   4.84466E-03
C:/temp/dataset/4/6_1.odb,Step-1,Increment      1: Step Time =    1.000,"PART-1-1",            69,           15.,          -10.,            0.,NA,NA,"",   212.002E-03,   192.982E-03,  -87.7655E-03,   4.85673E-03
C:/temp/dataset/4/6_1.odb,Step-1,Increment      1: Step Time =    1.000,"PART-1-1",            70,           15.,           -5.,            0.,NA,NA,"",   321.234E-03,   301.864E-03,  -109.860E-03,   4.15548E-03
C:/temp/dataset/4/6_1.odb,Step-1,Increment      1: Step Time =    1.000,"PART-1-1",            71,           15.,          -2.5,            0.,NA,NA,"",   384.450E-03,   365.584E-03,  -118.957E-03,   3.09986E-03
C:/temp/dataset/4/6_1.odb,Step-1,Increment      1: Step Time =    1.000,"PART-1-1",            72,           15.,           2.5,            0.,NA,NA,"",   519.599E-03,   503.306E-03,  -129.100E-03,   724.063E-06
C:/temp/dataset/4/6_1.odb,Step-1,Increment      1: Step Time =    1.000,"PART-1-1",            73,           15.,            5.,            0.,NA,NA,"",   587.848E-03,   573.103E-03,  -130.837E-03,   95.4648E-06
C:/temp/dataset/4/6_1.odb,Step-1,Increment      1: Step Time =    1.000,"PART-1-1",            74,           15.,           10.,            0.,NA,NA,"",   722.717E-03,   710.493E-03,  -132.364E-03,   93.1788E-06
C:/temp/dataset/4/6_1.odb,Step-1,Increment      1: Step Time =    1.000,"PART-1-1",            75,           15.,          12.5,            0.,NA,NA,"",   789.826E-03,   778.523E-03,  -133.143E-03,   41.2574E-06
C:/temp/dataset/4/6_1.odb,Step-1,Increment      1: Step Time =    1.000,"PART-1-1",            76,           15.,          17.5,            0.,NA,NA,"",   924.283E-03,   914.383E-03,  -134.918E-03,   2.20583E-06
C:/temp/dataset/4/6_1.odb,Step-1,Increment      1: Step Time =    1.000,"PART-1-1",            77,           15.,           20.,            0.,NA,NA,"",   991.660E-03,   982.312E-03,  -135.840E-03,   262.093E-09
C:/temp/dataset/4/6_1.odb,Step-1,Increment      1: Step Time =    1.000,"PART-1-1",            78,           15.,           25.,            0.,NA,NA,"",       1.12663,       1.11818,  -137.688E-03,   198.870E-09
C:/temp/dataset/4/6_1.odb,Step-1,Increment      1: Step Time =    1.000,"PART-1-1",            79,           15.,          27.5,            0.,NA,NA,"",       1.19419,       1.18612,  -138.611E-03,   47.0922E-09
C:/temp/dataset/4/6_1.odb,Step-1,Increment      1: Step Time =    1.000,"PART-1-1",            80,          12.5,           30.,            0.,NA,NA,"",       1.25702,       1.25498,  -71.5978E-03,   36.8792E-09
C:/temp/dataset/4/6_1.odb,Step-1,Increment      1: Step Time =    1.000,"PART-1-1",            81,           10.,           30.,            0.,NA,NA,"",       1.25591,       1.25590,  -3.66109E-03,   77.0837E-09
C:/temp/dataset/4/6_1.odb,Step-1,Increment      1: Step Time =    1.000,"PART-1-1",            82,           7.5,           30.,            0.,NA,NA,"",       1.25847,       1.25683,   64.2759E-03,   38.1039E-09
C:/temp/dataset/4/6_1.odb,Step-1,Increment      1: Step Time =    1.000,"PART-1-1",            83,            5.,       27.9167,            0.,NA,NA,"",       1.20847,       1.20114,   132.982E-03,   31.6403E-09
C:/temp/dataset/4/6_1.odb,Step-1,Increment      1: Step Time =    1.000,"PART-1-1",            84,            5.,       25.8333,            0.,NA,NA,"",       1.15231,       1.14452,   133.752E-03,   136.320E-09
C:/temp/dataset/4/6_1.odb,Step-1,Increment      1: Step Time =    1.000,"PART-1-1",            85,            5.,       21.6667,            0.,NA,NA,"",       1.04013,       1.03129,   135.292E-03,   420.392E-09
C:/temp/dataset/4/6_1.odb,Step-1,Increment      1: Step Time =    1.000,"PART-1-1",            86,            5.,       19.5833,            0.,NA,NA,"",   984.126E-03,   974.675E-03,   136.062E-03,   157.808E-09
C:/temp/dataset/4/6_1.odb,Step-1,Increment      1: Step Time =    1.000,"PART-1-1",            87,            5.,       15.4167,            0.,NA,NA,"",   872.347E-03,   861.428E-03,   137.589E-03,   10.1344E-06
C:/temp/dataset/4/6_1.odb,Step-1,Increment      1: Step Time =    1.000,"PART-1-1",            88,            5.,       13.3333,            0.,NA,NA,"",   816.605E-03,   804.805E-03,   138.322E-03,   33.7397E-06
C:/temp/dataset/4/6_1.odb,Step-1,Increment      1: Step Time =    1.000,"PART-1-1",            89,            5.,       9.16667,            0.,NA,NA,"",   705.724E-03,   691.793E-03,   139.532E-03,   201.971E-06
C:/temp/dataset/4/6_1.odb,Step-1,Increment      1: Step Time =    1.000,"PART-1-1",            90,            5.,       7.08333,            0.,NA,NA,"",   651.224E-03,   636.043E-03,   139.790E-03,   742.429E-06
C:/temp/dataset/4/6_1.odb,Step-1,Increment      1: Step Time =    1.000,"PART-1-1",            91,           2.5,            5.,            0.,NA,NA,"",   632.133E-03,   593.881E-03,   216.556E-03,   3.37232E-03
C:/temp/dataset/4/6_1.odb,Step-1,Increment      1: Step Time =    1.000,"PART-1-1",            92,          -2.5,            5.,            0.,NA,NA,"",   715.878E-03,   607.015E-03,   379.493E-03,   1.53324E-03
C:/temp/dataset/4/6_1.odb,Step-1,Increment      1: Step Time =    1.000,"PART-1-1",            93,           -5.,       7.08333,            0.,NA,NA,"",   824.357E-03,   681.917E-03,   463.199E-03,   141.225E-06
C:/temp/dataset/4/6_1.odb,Step-1,Increment      1: Step Time =    1.000,"PART-1-1",            94,           -5.,       9.16667,            0.,NA,NA,"",   882.793E-03,   752.178E-03,   462.117E-03,   42.0221E-06
C:/temp/dataset/4/6_1.odb,Step-1,Increment      1: Step Time =    1.000,"PART-1-1",            95,           -5.,       13.3333,            0.,NA,NA,"",       1.00402,   892.542E-03,   459.811E-03,   3.12014E-06
C:/temp/dataset/4/6_1.odb,Step-1,Increment      1: Step Time =    1.000,"PART-1-1",            96,           -5.,       15.4167,            0.,NA,NA,"",       1.06638,   962.721E-03,   458.632E-03,   232.682E-09
C:/temp/dataset/4/6_1.odb,Step-1,Increment      1: Step Time =    1.000,"PART-1-1",            97,           -5.,       19.5833,            0.,NA,NA,"",       1.19372,       1.10309,   456.266E-03,   260.309E-09
C:/temp/dataset/4/6_1.odb,Step-1,Increment      1: Step Time =    1.000,"PART-1-1",            98,           -5.,       21.6667,            0.,NA,NA,"",       1.25844,       1.17327,   455.083E-03,   136.337E-09
C:/temp/dataset/4/6_1.odb,Step-1,Increment      1: Step Time =    1.000,"PART-1-1",            99,           -5.,       25.8333,            0.,NA,NA,"",       1.38946,       1.31364,   452.718E-03,   18.8972E-09
C:/temp/dataset/4/6_1.odb,Step-1,Increment      1: Step Time =    1.000,"PART-1-1",           100,           -5.,       27.9167,            0.,NA,NA,"",       1.45563,       1.38382,   451.535E-03,   14.7872E-09
C:/temp/dataset/4/6_1.odb,Step-1,Increment      1: Step Time =    1.000,"PART-1-1",           101,       6.93475,       11.1046,            0.,NA,NA,"",   748.545E-03,   743.518E-03,   86.6072E-03,   53.1505E-06
C:/temp/dataset/4/6_1.odb,Step-1,Increment      1: Step Time =    1.000,"PART-1-1",           102,       7.10183,      -21.7370,            0.,NA,NA,"",   42.3963E-03,   33.3035E-03,   26.2359E-03,   3.62259E-03
C:/temp/dataset/4/6_1.odb,Step-1,Increment      1: Step Time =    1.000,"PART-1-1",           103,      -7.18606,       25.6133,            0.,NA,NA,"",       1.40949,       1.30747,   526.487E-03,   33.6760E-09
C:/temp/dataset/4/6_1.odb,Step-1,Increment      1: Step Time =    1.000,"PART-1-1",           104,       7.08931,      -17.4629,            0.,NA,NA,"",   85.7876E-03,   75.8733E-03,   40.0343E-03,   3.61344E-03
C:/temp/dataset/4/6_1.odb,Step-1,Increment      1: Step Time =    1.000,"PART-1-1",           105,       7.11844,      -23.8299,            0.,NA,NA,"",   27.0408E-03,   18.8649E-03,   19.3732E-03,   3.61815E-03
C:/temp/dataset/4/6_1.odb,Step-1,Increment      1: Step Time =    1.000,"PART-1-1",           106,       7.34845,      -27.9642,            0.,NA,NA,"",   5.93830E-03,   2.23394E-03,   5.50209E-03,   3.47664E-03
C:/temp/dataset/4/6_1.odb,Step-1,Increment      1: Step Time =    1.000,"PART-1-1",           107,       7.18399,      -25.9216,            0.,NA,NA,"",   14.8896E-03,   8.49867E-03,   12.2259E-03,   3.67167E-03
C:/temp/dataset/4/6_1.odb,Step-1,Increment      1: Step Time =    1.000,"PART-1-1",           108,       7.00226,      -10.9532,            0.,NA,NA,"",   184.997E-03,   174.330E-03,   61.9116E-03,   3.68050E-03
C:/temp/dataset/4/6_1.odb,Step-1,Increment      1: Step Time =    1.000,"PART-1-1",           109,       6.93148,       25.8450,            0.,NA,NA,"",       1.14701,       1.14413,   81.2596E-03,   126.857E-09
C:/temp/dataset/4/6_1.odb,Step-1,Increment      1: Step Time =    1.000,"PART-1-1",           110,       6.95256,       21.7727,            0.,NA,NA,"",       1.03672,       1.03345,   82.1908E-03,   209.848E-09
C:/temp/dataset/4/6_1.odb,Step-1,Increment      1: Step Time =    1.000,"PART-1-1",           111,       6.99069,       19.6693,            0.,NA,NA,"",   979.707E-03,   976.275E-03,   81.9316E-03,   1.46675E-06
C:/temp/dataset/4/6_1.odb,Step-1,Increment      1: Step Time =    1.000,"PART-1-1",           112,       6.98342,       13.2435,            0.,NA,NA,"",   806.059E-03,   801.617E-03,   84.5025E-03,   30.7515E-06
C:/temp/dataset/4/6_1.odb,Step-1,Increment      1: Step Time =    1.000,"PART-1-1",           113,       6.84904,       8.98858,            0.,NA,NA,"",   692.066E-03,   686.224E-03,   89.7330E-03,   89.0847E-06
C:/temp/dataset/4/6_1.odb,Step-1,Increment      1: Step Time =    1.000,"PART-1-1",           114,      -7.00061,       11.3966,            0.,NA,NA,"",   982.565E-03,   828.447E-03,   528.309E-03,   13.5521E-06
C:/temp/dataset/4/6_1.odb,Step-1,Increment      1: Step Time =    1.000,"PART-1-1",           115,      -6.87185,       17.5946,            0.,NA,NA,"",       1.16041,       1.03715,   520.454E-03,   299.551E-09
C:/temp/dataset/4/6_1.odb,Step-1,Increment      1: Step Time =    1.000,"PART-1-1",           116,      -6.78696,       21.5686,            0.,NA,NA,"",       1.27936,       1.17098,   515.338E-03,   91.4980E-09
C:/temp/dataset/4/6_1.odb,Step-1,Increment      1: Step Time =    1.000,"PART-1-1",           117,      -6.92081,       23.5666,            0.,NA,NA,"",       1.34261,       1.23837,   518.713E-03,   61.2684E-09
C:/temp/dataset/4/6_1.odb,Step-1,Increment      1: Step Time =    1.000,"PART-1-1",           118,      -7.47694,       27.7553,            0.,NA,NA,"",       1.47991,       1.37979,   535.071E-03,   18.2707E-09
C:/temp/dataset/4/6_1.odb,Step-1,Increment      1: Step Time =    1.000,"PART-1-1",           119,       6.62973,      -6.72562,            0.,NA,NA,"",   271.730E-03,   258.740E-03,   83.0127E-03,   4.50476E-03
C:/temp/dataset/4/6_1.odb,Step-1,Increment      1: Step Time =    1.000,"PART-1-1",           120,       7.00244,       17.5390,            0.,NA,NA,"",   922.062E-03,   918.372E-03,   82.3991E-03,   5.23340E-06
C:/temp/dataset/4/6_1.odb,Step-1,Increment      1: Step Time =    1.000,"PART-1-1",           121,       7.05765,      -13.1226,            0.,NA,NA,"",   147.371E-03,   137.052E-03,   54.1762E-03,   3.63680E-03
C:/temp/dataset/4/6_1.odb,Step-1,Increment      1: Step Time =    1.000,"PART-1-1",           122,      -6.97858,       13.4860,            0.,NA,NA,"",       1.04160,   898.809E-03,   526.381E-03,   5.02927E-06
C:/temp/dataset/4/6_1.odb,Step-1,Increment      1: Step Time =    1.000,"PART-1-1",           123,      -7.06135,       7.11796,            0.,NA,NA,"",   867.301E-03,   684.344E-03,   532.807E-03,   68.9926E-06
C:/temp/dataset/4/6_1.odb,Step-1,Increment      1: Step Time =    1.000,"PART-1-1",           124,       6.87626,      -8.81940,            0.,NA,NA,"",   226.591E-03,   215.109E-03,   71.2151E-03,   3.91847E-03
C:/temp/dataset/4/6_1.odb,Step-1,Increment      1: Step Time =    1.000,"PART-1-1",           125,       7.08495,      -15.2974,            0.,NA,NA,"",   114.225E-03,   104.137E-03,   46.9323E-03,   3.60965E-03
C:/temp/dataset/4/6_1.odb,Step-1,Increment      1: Step Time =    1.000,"PART-1-1",           126,       7.00715,       15.3887,            0.,NA,NA,"",   863.924E-03,   859.922E-03,   83.0648E-03,   14.6105E-06
C:/temp/dataset/4/6_1.odb,Step-1,Increment      1: Step Time =    1.000,"PART-1-1",           127,      -7.01992,       9.30136,            0.,NA,NA,"",   924.906E-03,   757.884E-03,   530.152E-03,   26.6271E-06
C:/temp/dataset/4/6_1.odb,Step-1,Increment      1: Step Time =    1.000,"PART-1-1",           128,      -6.93369,       15.5639,            0.,NA,NA,"",       1.10126,   968.779E-03,   523.689E-03,   1.54593E-06
C:/temp/dataset/4/6_1.odb,Step-1,Increment      1: Step Time =    1.000,"PART-1-1",           129,      -6.79206,       19.5889,            0.,NA,NA,"",       1.21917,       1.10429,   516.634E-03,   71.7154E-09
C:/temp/dataset/4/6_1.odb,Step-1,Increment      1: Step Time =    1.000,"PART-1-1",           130,       7.09662,      -19.6136,            0.,NA,NA,"",   61.8546E-03,   52.2524E-03,   33.1010E-03,   3.61412E-03
C:/temp/dataset/4/6_1.odb,Step-1,Increment      1: Step Time =    1.000,"PART-1-1",           131,       6.89670,       23.8203,            0.,NA,NA,"",       1.09227,       1.08912,   82.9527E-03,   125.236E-09
C:/temp/dataset/4/6_1.odb,Step-1,Increment      1: Step Time =    1.000,"PART-1-1",           132,       6.67676,       6.98748,            0.,NA,NA,"",   639.640E-03,   632.542E-03,   95.0301E-03,   529.596E-06
C:/temp/dataset/4/6_1.odb,Step-1,Increment      1: Step Time =    1.000,"PART-1-1",           133,      -13.0361,       12.2042,            0.,NA,NA,"",       1.12808,   859.037E-03,   731.178E-03,   8.08886E-06
C:/temp/dataset/4/6_1.odb,Step-1,Increment      1: Step Time =    1.000,"PART-1-1",           134,      -13.0483,       3.72302,            0.,NA,NA,"",   933.359E-03,   573.548E-03,   736.343E-03,   7.13827E-06
C:/temp/dataset/4/6_1.odb,Step-1,Increment      1: Step Time =    1.000,"PART-1-1",           135,      -13.0740,       10.0823,            0.,NA,NA,"",       1.07634,   787.565E-03,   733.656E-03,   16.7518E-06
C:/temp/dataset/4/6_1.odb,Step-1,Increment      1: Step Time =    1.000,"PART-1-1",           136,      -13.0017,       14.3509,            0.,NA,NA,"",       1.18261,   931.347E-03,   728.799E-03,   3.02319E-06
C:/temp/dataset/4/6_1.odb,Step-1,Increment      1: Step Time =    1.000,"PART-1-1",           137,      -12.4480,       21.2307,            0.,NA,NA,"",       1.36048,       1.16281,   706.242E-03,   95.3065E-09
C:/temp/dataset/4/6_1.odb,Step-1,Increment      1: Step Time =    1.000,"PART-1-1",           138,      -13.0426,       25.7965,            0.,NA,NA,"",       1.50270,       1.31696,   723.681E-03,   30.1363E-09
C:/temp/dataset/4/6_1.odb,Step-1,Increment      1: Step Time =    1.000,"PART-1-1",           139,      -12.9478,       23.6552,            0.,NA,NA,"",       1.43886,       1.24477,   721.702E-03,   62.7214E-09
C:/temp/dataset/4/6_1.odb,Step-1,Increment      1: Step Time =    1.000,"PART-1-1",           140,      -12.8307,       18.7376,            0.,NA,NA,"",       1.29750,       1.07904,   720.548E-03,   97.7170E-09
C:/temp/dataset/4/6_1.odb,Step-1,Increment      1: Step Time =    1.000,"PART-1-1",           141,      -12.9472,       16.5227,            0.,NA,NA,"",       1.23922,       1.00448,   725.732E-03,   795.284E-09
C:/temp/dataset/4/6_1.odb,Step-1,Increment      1: Step Time =    1.000,"PART-1-1",           142,      -13.1112,       7.97345,            0.,NA,NA,"",       1.02726,   716.541E-03,   736.092E-03,   24.2819E-06
C:/temp/dataset/4/6_1.odb,Step-1,Increment      1: Step Time =    1.000,"PART-1-1",           143,      -13.1276,       5.86243,            0.,NA,NA,"",   980.323E-03,   645.487E-03,   737.821E-03,   22.7113E-06
C:/temp/dataset/4/6_1.odb,Step-1,Increment      1: Step Time =    1.000,"PART-1-1",           144,      -12.8109,       1.56310,            0.,NA,NA,"",   885.086E-03,   501.025E-03,   729.624E-03,   38.2175E-06
C:/temp/dataset/4/6_1.odb,Step-1,Increment      1: Step Time =    1.000,"PART-1-1",           145,      -12.5511,  -622.366E-03,            0.,NA,NA,"",   839.477E-03,   427.869E-03,   722.253E-03,   76.0007E-06
C:/temp/dataset/4/6_1.odb,Step-1,Increment      1: Step Time =    1.000,"PART-1-1",           146,      -7.69124,      -3.05836,            0.,NA,NA,"",   659.754E-03,   345.248E-03,   562.208E-03,   1.18053E-03
C:/temp/dataset/4/6_1.odb,Step-1,Increment      1: Step Time =    1.000,"PART-1-1",           147,      -2.59391,      -3.27074,            0.,NA,NA,"",   513.784E-03,   338.552E-03,   386.466E-03,   1.12372E-03
C:/temp/dataset/4/6_1.odb,Step-1,Increment      1: Step Time =    1.000,"PART-1-1",           148,      -2.06699,       2.95135,            0.,NA,NA,"",   650.749E-03,   538.810E-03,   364.909E-03,   1.34404E-03
C:/temp/dataset/4/6_1.odb,Step-1,Increment      1: Step Time =    1.000,"PART-1-1",           149,       1.86882,      -3.06513,            0.,NA,NA,"",   420.943E-03,   347.792E-03,   237.136E-03,   2.44324E-03
C:/temp/dataset/4/6_1.odb,Step-1,Increment      1: Step Time =    1.000,"PART-1-1",           150,       2.79073,       3.02834,            0.,NA,NA,"",   571.266E-03,   532.664E-03,   206.432E-03,   1.90794E-03
C:/temp/dataset/4/6_1.odb,Step-1,Increment      1: Step Time =    1.000,"PART-1-1",           151,       12.5379,       2.72923,            0.,NA,NA,"",   513.958E-03,   510.186E-03,  -62.1511E-03,   1.14579E-03
C:/temp/dataset/4/6_1.odb,Step-1,Increment      1: Step Time =    1.000,"PART-1-1",           152,       12.9313,       10.2835,            0.,NA,NA,"",   723.040E-03,   719.029E-03,  -76.0483E-03,   39.0743E-06
C:/temp/dataset/4/6_1.odb,Step-1,Increment      1: Step Time =    1.000,"PART-1-1",           153,       12.7723,       24.8557,            0.,NA,NA,"",       1.11775,       1.11508,  -77.0988E-03,   145.237E-09
C:/temp/dataset/4/6_1.odb,Step-1,Increment      1: Step Time =    1.000,"PART-1-1",           154,       12.5268,       27.4001,            0.,NA,NA,"",       1.18647,       1.18432,  -71.3660E-03,   100.703E-09
C:/temp/dataset/4/6_1.odb,Step-1,Increment      1: Step Time =    1.000,"PART-1-1",           155,       12.7627,      -5.01238,            0.,NA,NA,"",   304.262E-03,   298.967E-03,  -56.5125E-03,   2.35784E-03
C:/temp/dataset/4/6_1.odb,Step-1,Increment      1: Step Time =    1.000,"PART-1-1",           156,       13.0118,      -12.5921,            0.,NA,NA,"",   149.870E-03,   143.605E-03,  -42.8772E-03,   2.68050E-03
C:/temp/dataset/4/6_1.odb,Step-1,Increment      1: Step Time =    1.000,"PART-1-1",           157,       9.69976,      -27.8547,            0.,NA,NA,"",   1.37730E-03,   406.800E-06,   1.31585E-03,   852.646E-06
C:/temp/dataset/4/6_1.odb,Step-1,Increment      1: Step Time =    1.000,"PART-1-1",           158,       13.0855,      -17.4497,            0.,NA,NA,"",   80.7922E-03,   74.3862E-03,  -31.5288E-03,   2.77451E-03
C:/temp/dataset/4/6_1.odb,Step-1,Increment      1: Step Time =    1.000,"PART-1-1",           159,       12.9366,       22.3763,            0.,NA,NA,"",       1.05075,       1.04765,  -80.6474E-03,   108.815E-09
C:/temp/dataset/4/6_1.odb,Step-1,Increment      1: Step Time =    1.000,"PART-1-1",           160,       13.0248,       17.5365,            0.,NA,NA,"",   919.701E-03,   916.104E-03,  -81.2574E-03,   5.08994E-06
C:/temp/dataset/4/6_1.odb,Step-1,Increment      1: Step Time =    1.000,"PART-1-1",           161,      -10.1545,       27.3700,            0.,NA,NA,"",       1.50452,       1.36833,   625.493E-03,   21.0274E-09
C:/temp/dataset/4/6_1.odb,Step-1,Increment      1: Step Time =    1.000,"PART-1-1",           162,      -10.0546,      -2.87755,            0.,NA,NA,"",   731.039E-03,   351.594E-03,   640.936E-03,   543.883E-06
C:/temp/dataset/4/6_1.odb,Step-1,Increment      1: Step Time =    1.000,"PART-1-1",           163,      -5.07747,      -2.66322,            0.,NA,NA,"",   592.437E-03,   358.492E-03,   471.662E-03,   1.39801E-03
C:/temp/dataset/4/6_1.odb,Step-1,Increment      1: Step Time =    1.000,"PART-1-1",           164,  -330.659E-03,      -3.26262,            0.,NA,NA,"",   460.140E-03,   339.984E-03,   310.064E-03,   1.65312E-03
C:/temp/dataset/4/6_1.odb,Step-1,Increment      1: Step Time =    1.000,"PART-1-1",           165,       3.93161,      -2.75002,            0.,NA,NA,"",   397.096E-03,   359.008E-03,   169.702E-03,   2.16964E-03
C:/temp/dataset/4/6_1.odb,Step-1,Increment      1: Step Time =    1.000,"PART-1-1",           166,       12.9585,      -10.1304,            0.,NA,NA,"",   193.515E-03,   187.422E-03,  -48.1796E-03,   2.61833E-03
C:/temp/dataset/4/6_1.odb,Step-1,Increment      1: Step Time =    1.000,"PART-1-1",           167,       13.1106,      -19.8561,            0.,NA,NA,"",   54.7835E-03,   48.4239E-03,  -25.6194E-03,   2.81323E-03
C:/temp/dataset/4/6_1.odb,Step-1,Increment      1: Step Time =    1.000,"PART-1-1",           168,       12.2637,      -27.1930,            0.,NA,NA,"",   5.30773E-03,   2.72309E-03,  -4.55596E-03,   2.09207E-03
C:/temp/dataset/4/6_1.odb,Step-1,Increment      1: Step Time =    1.000,"PART-1-1",           169,       13.0974,      -22.2394,            0.,NA,NA,"",   34.1694E-03,   28.1238E-03,  -19.4061E-03,   2.80830E-03
C:/temp/dataset/4/6_1.odb,Step-1,Increment      1: Step Time =    1.000,"PART-1-1",           170,       13.0625,      -15.0302,            0.,NA,NA,"",   112.467E-03,   106.056E-03,  -37.4307E-03,   2.74218E-03
C:/temp/dataset/4/6_1.odb,Step-1,Increment      1: Step Time =    1.000,"PART-1-1",           171,       12.8638,      -7.61343,            0.,NA,NA,"",   244.394E-03,   238.672E-03,  -52.5751E-03,   2.50326E-03
C:/temp/dataset/4/6_1.odb,Step-1,Increment      1: Step Time =    1.000,"PART-1-1",           172,       12.8109,      -2.41519,            0.,NA,NA,"",   371.606E-03,   366.217E-03,  -63.0577E-03,   2.19330E-03
C:/temp/dataset/4/6_1.odb,Step-1,Increment      1: Step Time =    1.000,"PART-1-1",           173,       12.7001,   168.481E-03,            0.,NA,NA,"",   442.360E-03,   437.686E-03,  -64.1354E-03,   1.75720E-03
C:/temp/dataset/4/6_1.odb,Step-1,Increment      1: Step Time =    1.000,"PART-1-1",           174,       12.6773,       5.28127,            0.,NA,NA,"",   585.655E-03,   581.783E-03,  -67.2347E-03,   460.122E-06
C:/temp/dataset/4/6_1.odb,Step-1,Increment      1: Step Time =    1.000,"PART-1-1",           175,       12.8405,       7.80961,            0.,NA,NA,"",   655.553E-03,   651.513E-03,  -72.6668E-03,   75.4485E-06
C:/temp/dataset/4/6_1.odb,Step-1,Increment      1: Step Time =    1.000,"PART-1-1",           176,       12.9955,       12.7023,            0.,NA,NA,"",   788.714E-03,   784.780E-03,  -78.6812E-03,   33.0342E-06
C:/temp/dataset/4/6_1.odb,Step-1,Increment      1: Step Time =    1.000,"PART-1-1",           177,       13.0102,       19.9477,            0.,NA,NA,"",   985.023E-03,   981.625E-03,  -81.7489E-03,   1.15232E-06
C:/temp/dataset/4/6_1.odb,Step-1,Increment      1: Step Time =    1.000,"PART-1-1",           178,       9.88408,       27.1269,            0.,NA,NA,"",       1.17787,       1.17787,   550.044E-06,   80.6111E-09
C:/temp/dataset/4/6_1.odb,Step-1,Increment      1: Step Time =    1.000,"PART-1-1",           179,       13.0301,       15.1161,            0.,NA,NA,"",   854.149E-03,   850.346E-03,  -80.5088E-03,   15.4871E-06
C:/temp/dataset/4/6_1.odb,Step-1,Increment      1: Step Time =    1.000,"PART-1-1",           180,   300.490E-03,       3.00528,            0.,NA,NA,"",   608.162E-03,   536.663E-03,   286.102E-03,   1.75045E-03
C:/temp/dataset/4/6_1.odb,Step-1,Increment      1: Step Time =    1.000,"PART-1-1",           181,      -4.18418,       2.89078,            0.,NA,NA,"",   694.149E-03,   539.479E-03,   436.813E-03,   1.06278E-03
C:/temp/dataset/4/6_1.odb,Step-1,Increment      1: Step Time =    1.000,"PART-1-1",           182,      -8.75093,       23.2164,            0.,NA,NA,"",       1.35797,       1.22761,   580.566E-03,   74.0369E-09
C:/temp/dataset/4/6_1.odb,Step-1,Increment      1: Step Time =    1.000,"PART-1-1",           183,       9.13120,      -23.8882,            0.,NA,NA,"",   17.8299E-03,   16.1508E-03,   7.55358E-03,   1.48965E-03
C:/temp/dataset/4/6_1.odb,Step-1,Increment      1: Step Time =    1.000,"PART-1-1",           184,       8.76025,       8.63504,            0.,NA,NA,"",   676.973E-03,   675.901E-03,   38.0909E-03,   79.9829E-06
C:/temp/dataset/4/6_1.odb,Step-1,Increment      1: Step Time =    1.000,"PART-1-1",           185,       8.81891,       23.9948,            0.,NA,NA,"",       1.09358,       1.09315,   30.6520E-03,   128.357E-09
C:/temp/dataset/4/6_1.odb,Step-1,Increment      1: Step Time =    1.000,"PART-1-1",           186,       9.00734,       17.5557,            0.,NA,NA,"",   918.518E-03,   918.094E-03,   27.9161E-03,   6.45829E-06
C:/temp/dataset/4/6_1.odb,Step-1,Increment      1: Step Time =    1.000,"PART-1-1",           187,      -8.59230,       19.6811,            0.,NA,NA,"",       1.24971,       1.10842,   577.228E-03,   115.661E-09
C:/temp/dataset/4/6_1.odb,Step-1,Increment      1: Step Time =    1.000,"PART-1-1",           188,       9.06266,      -12.9142,            0.,NA,NA,"",   139.627E-03,   137.831E-03,   22.3190E-03,   1.53943E-03
C:/temp/dataset/4/6_1.odb,Step-1,Increment      1: Step Time =    1.000,"PART-1-1",           189,       9.13987,      -19.6571,            0.,NA,NA,"",   51.0378E-03,   49.3816E-03,   12.8963E-03,   1.44337E-03
C:/temp/dataset/4/6_1.odb,Step-1,Increment      1: Step Time =    1.000,"PART-1-1",           190,       9.00941,       15.3265,            0.,NA,NA,"",   857.988E-03,   857.508E-03,   28.6990E-03,   17.1366E-06
C:/temp/dataset/4/6_1.odb,Step-1,Increment      1: Step Time =    1.000,"PART-1-1",           191,      -8.96967,       13.7142,            0.,NA,NA,"",       1.08435,   907.619E-03,   593.334E-03,   5.47680E-06
C:/temp/dataset/4/6_1.odb,Step-1,Increment      1: Step Time =    1.000,"PART-1-1",           192,       9.12973,      -17.4386,            0.,NA,NA,"",   75.3434E-03,   73.6773E-03,   15.7571E-03,   1.45332E-03
C:/temp/dataset/4/6_1.odb,Step-1,Increment      1: Step Time =    1.000,"PART-1-1",           193,       8.94484,       21.9321,            0.,NA,NA,"",       1.03743,       1.03705,   27.9918E-03,   394.659E-09
C:/temp/dataset/4/6_1.odb,Step-1,Increment      1: Step Time =    1.000,"PART-1-1",           194,      -8.78258,       17.8115,            0.,NA,NA,"",       1.19793,       1.04554,   584.700E-03,   463.350E-09
C:/temp/dataset/4/6_1.odb,Step-1,Increment      1: Step Time =    1.000,"PART-1-1",           195,       8.90333,       10.8666,            0.,NA,NA,"",   737.116E-03,   736.363E-03,   33.3294E-03,   52.4776E-06
C:/temp/dataset/4/6_1.odb,Step-1,Increment      1: Step Time =    1.000,"PART-1-1",           196,      -9.00437,       11.6266,            0.,NA,NA,"",       1.02760,   837.315E-03,   595.700E-03,   13.6246E-06
C:/temp/dataset/4/6_1.odb,Step-1,Increment      1: Step Time =    1.000,"PART-1-1",           197,      -9.03622,       9.53759,            0.,NA,NA,"",   972.531E-03,   766.959E-03,   597.989E-03,   25.4858E-06
C:/temp/dataset/4/6_1.odb,Step-1,Increment      1: Step Time =    1.000,"PART-1-1",           198,       8.99264,      -10.6281,            0.,NA,NA,"",   179.582E-03,   177.636E-03,   26.3638E-03,   1.58825E-03
C:/temp/dataset/4/6_1.odb,Step-1,Increment      1: Step Time =    1.000,"PART-1-1",           199,       8.82192,      -8.34759,            0.,NA,NA,"",   224.525E-03,   222.163E-03,   32.4839E-03,   1.56136E-03
C:/temp/dataset/4/6_1.odb,Step-1,Increment      1: Step Time =    1.000,"PART-1-1",           200,       8.98411,       13.0928,            0.,NA,NA,"",   797.388E-03,   796.814E-03,   30.2513E-03,   35.4829E-06
C:/temp/dataset/4/6_1.odb,Step-1,Increment      1: Step Time =    1.000,"PART-1-1",           201,       7.30685,       27.8134,            0.,NA,NA,"",       1.19954,       1.19748,   70.3323E-03,   88.3184E-09
C:/temp/dataset/4/6_1.odb,Step-1,Increment      1: Step Time =    1.000,"PART-1-1",           202,      -8.46063,       21.4565,            0.,NA,NA,"",       1.30059,       1.16815,   571.785E-03,   92.5129E-09
C:/temp/dataset/4/6_1.odb,Step-1,Increment      1: Step Time =    1.000,"PART-1-1",           203,       9.11250,      -15.1896,            0.,NA,NA,"",   104.812E-03,   103.122E-03,   18.7456E-03,   1.47902E-03
C:/temp/dataset/4/6_1.odb,Step-1,Increment      1: Step Time =    1.000,"PART-1-1",           204,       9.14200,      -21.8221,            0.,NA,NA,"",   31.8829E-03,   30.2249E-03,   10.1475E-03,   1.45031E-03
C:/temp/dataset/4/6_1.odb,Step-1,Increment      1: Step Time =    1.000,"PART-1-1",           205,      -8.90436,       15.8055,            0.,NA,NA,"",       1.14218,   978.034E-03,   589.942E-03,   1.83268E-06
C:/temp/dataset/4/6_1.odb,Step-1,Increment      1: Step Time =    1.000,"PART-1-1",           206,       9.00445,       19.7587,            0.,NA,NA,"",   978.341E-03,   977.963E-03,   27.1757E-03,   1.93284E-06
C:/temp/dataset/4/6_1.odb,Step-1,Increment      1: Step Time =    1.000,"PART-1-1",           207,       8.39742,      -6.16188,            0.,NA,NA,"",   273.157E-03,   269.611E-03,   43.8688E-03,   1.39076E-03
C:/temp/dataset/4/6_1.odb,Step-1,Increment      1: Step Time =    1.000,"PART-1-1",           208,      -9.10294,       7.45394,            0.,NA,NA,"",   920.481E-03,   696.791E-03,   601.472E-03,   32.9947E-06
C:/temp/dataset/4/6_1.odb,Step-1,Increment      1: Step Time =    1.000,"PART-1-1",           209,       8.43260,       6.43235,            0.,NA,NA,"",   618.336E-03,   616.508E-03,   47.5165E-03,   585.863E-06
C:/temp/dataset/4/6_1.odb,Step-1,Increment      1: Step Time =    1.000,"PART-1-1",           210,       5.64784,       2.93298,            0.,NA,NA,"",   538.330E-03,   524.328E-03,   121.985E-03,   1.79582E-03
C:/temp/dataset/4/6_1.odb,Step-1,Increment      1: Step Time =    1.000,"PART-1-1",           211,      -10.7213,       1.88644,            0.,NA,NA,"",   834.004E-03,   510.744E-03,   659.320E-03,   168.453E-06
C:/temp/dataset/4/6_1.odb,Step-1,Increment      1: Step Time =    1.000,"PART-1-1",           212,      -12.7178,       27.8380,            0.,NA,NA,"",       1.55759,       1.38555,   711.581E-03,   18.1808E-09
C:/temp/dataset/4/6_1.odb,Step-1,Increment      1: Step Time =    1.000,"PART-1-1",           213,      -11.0298,       24.2524,            0.,NA,NA,"",       1.42426,       1.26380,   656.748E-03,   59.5181E-09
C:/temp/dataset/4/6_1.odb,Step-1,Increment      1: Step Time =    1.000,"PART-1-1",           214,      -10.4500,       20.0822,            0.,NA,NA,"",       1.29235,       1.12298,   639.583E-03,   113.652E-09
C:/temp/dataset/4/6_1.odb,Step-1,Increment      1: Step Time =    1.000,"PART-1-1",           215,      -10.9919,       14.0243,            0.,NA,NA,"",       1.13236,   919.206E-03,   661.282E-03,   4.66533E-06
C:/temp/dataset/4/6_1.odb,Step-1,Increment      1: Step Time =    1.000,"PART-1-1",           216,      -11.0796,       9.82104,            0.,NA,NA,"",       1.02428,   777.642E-03,   666.652E-03,   21.3896E-06
C:/temp/dataset/4/6_1.odb,Step-1,Increment      1: Step Time =    1.000,"PART-1-1",           217,      -11.0365,       11.9204,            0.,NA,NA,"",       1.07730,   848.351E-03,   663.988E-03,   11.4705E-06
C:/temp/dataset/4/6_1.odb,Step-1,Increment      1: Step Time =    1.000,"PART-1-1",           218,      -10.5491,       22.5446,            0.,NA,NA,"",       1.36601,       1.20600,   641.523E-03,   85.5027E-09
C:/temp/dataset/4/6_1.odb,Step-1,Increment      1: Step Time =    1.000,"PART-1-1",           219,      -10.9277,       16.1478,            0.,NA,NA,"",       1.18927,   990.710E-03,   657.910E-03,   1.47059E-06
C:/temp/dataset/4/6_1.odb,Step-1,Increment      1: Step Time =    1.000,"PART-1-1",           220,      -10.7891,       18.2216,            0.,NA,NA,"",       1.24492,       1.06050,   652.063E-03,   352.606E-09
C:/temp/dataset/4/6_1.odb,Step-1,Increment      1: Step Time =    1.000,"PART-1-1",           221,      -11.1555,       7.76515,            0.,NA,NA,"",   975.347E-03,   708.423E-03,   670.401E-03,   25.4661E-06
C:/temp/dataset/4/6_1.odb,Step-1,Increment      1: Step Time =    1.000,"PART-1-1",           222,      -9.80329,       4.04682,            0.,NA,NA,"",   855.919E-03,   582.575E-03,   627.060E-03,   98.8546E-06
C:/temp/dataset/4/6_1.odb,Step-1,Increment      1: Step Time =    1.000,"PART-1-1",           223,       9.22674,      -25.9093,            0.,NA,NA,"",   7.68736E-03,   6.22530E-03,   4.51011E-03,   1.37657E-03
C:/temp/dataset/4/6_1.odb,Step-1,Increment      1: Step Time =    1.000,"PART-1-1",           224,      -9.21421,       25.1107,            0.,NA,NA,"",       1.42218,       1.29169,   595.098E-03,   45.0217E-09
C:/temp/dataset/4/6_1.odb,Step-1,Increment      1: Step Time =    1.000,"PART-1-1",           225,       6.25241,      -4.60112,            0.,NA,NA,"",   321.885E-03,   306.763E-03,   97.5012E-03,   2.83095E-03
C:/temp/dataset/4/6_1.odb,Step-1,Increment      1: Step Time =    1.000,"PART-1-1",           226,      -7.19550,       4.55405,            0.,NA,NA,"",   804.804E-03,   597.898E-03,   538.728E-03,   242.417E-06
C:/temp/dataset/4/6_1.odb,Step-1,Increment      1: Step Time =    1.000,"PART-1-1",           227,       12.9551,      -24.6090,            0.,NA,NA,"",   18.2384E-03,   13.1945E-03,  -12.5915E-03,   2.73481E-03
C:/temp/dataset/4/6_1.odb,Step-1,Increment      1: Step Time =    1.000,"PART-1-1",           228,       10.9241,       22.1645,            0.,NA,NA,"",       1.04296,       1.04263,  -25.8806E-03,   327.785E-09
C:/temp/dataset/4/6_1.odb,Step-1,Increment      1: Step Time =    1.000,"PART-1-1",           229,      -4.91288,   464.762E-03,            0.,NA,NA,"",   653.237E-03,   460.823E-03,   462.992E-03,   1.18179E-03
C:/temp/dataset/4/6_1.odb,Step-1,Increment      1: Step Time =    1.000,"PART-1-1",           230,  -831.143E-03,      -1.35374,            0.,NA,NA,"",   516.087E-03,   400.883E-03,   325.021E-03,   1.29485E-03
C:/temp/dataset/4/6_1.odb,Step-1,Increment      1: Step Time =    1.000,"PART-1-1",           231,       11.1616,      -19.7398,            0.,NA,NA,"",   48.6069E-03,   48.1145E-03,  -6.90112E-03,   719.231E-06
C:/temp/dataset/4/6_1.odb,Step-1,Increment      1: Step Time =    1.000,"PART-1-1",           232,       10.9730,      -10.3410,            0.,NA,NA,"",   182.604E-03,   182.311E-03,  -10.3483E-03,   534.169E-06
C:/temp/dataset/4/6_1.odb,Step-1,Increment      1: Step Time =    1.000,"PART-1-1",           233,       10.4844,      -5.04269,            0.,NA,NA,"",   296.908E-03,   296.882E-03,  -3.90896E-03,   1.46779E-03
C:/temp/dataset/4/6_1.odb,Step-1,Increment      1: Step Time =    1.000,"PART-1-1",           234,       10.9074,       10.5689,            0.,NA,NA,"",   727.851E-03,   727.547E-03,  -21.0205E-03,   48.6464E-06
C:/temp/dataset/4/6_1.odb,Step-1,Increment      1: Step Time =    1.000,"PART-1-1",           235,       11.0515,      -12.7377,            0.,NA,NA,"",   140.403E-03,   140.035E-03,  -10.1603E-03,   574.066E-06
C:/temp/dataset/4/6_1.odb,Step-1,Increment      1: Step Time =    1.000,"PART-1-1",           236,       10.9936,       12.8990,            0.,NA,NA,"",   791.219E-03,   790.846E-03,  -24.2844E-03,   35.4043E-06
C:/temp/dataset/4/6_1.odb,Step-1,Increment      1: Step Time =    1.000,"PART-1-1",           237,      -9.84553,  -403.770E-03,            0.,NA,NA,"",   766.340E-03,   433.947E-03,   631.639E-03,   403.757E-06
C:/temp/dataset/4/6_1.odb,Step-1,Increment      1: Step Time =    1.000,"PART-1-1",           238,      -6.42098,  -599.403E-03,            0.,NA,NA,"",   669.232E-03,   426.547E-03,   515.683E-03,   1.08169E-03
C:/temp/dataset/4/6_1.odb,Step-1,Increment      1: Step Time =    1.000,"PART-1-1",           239,      -2.35214,      -1.85066,            0.,NA,NA,"",   538.796E-03,   384.976E-03,   376.955E-03,   1.29851E-03
C:/temp/dataset/4/6_1.odb,Step-1,Increment      1: Step Time =    1.000,"PART-1-1",           240,       11.1625,      -21.9830,            0.,NA,NA,"",   29.0697E-03,   28.5691E-03,  -5.37189E-03,   727.152E-06
C:/temp/dataset/4/6_1.odb,Step-1,Increment      1: Step Time =    1.000,"PART-1-1",           241,       11.1073,      -15.0998,            0.,NA,NA,"",   104.224E-03,   103.796E-03,  -9.44078E-03,   643.077E-06
C:/temp/dataset/4/6_1.odb,Step-1,Increment      1: Step Time =    1.000,"PART-1-1",           242,       11.1457,      -17.4375,            0.,NA,NA,"",   73.6501E-03,   73.1772E-03,  -8.33326E-03,   696.615E-06
C:/temp/dataset/4/6_1.odb,Step-1,Increment      1: Step Time =    1.000,"PART-1-1",           243,       10.8340,      -7.85693,            0.,NA,NA,"",   232.395E-03,   232.207E-03,  -9.33541E-03,   730.793E-06
C:/temp/dataset/4/6_1.odb,Step-1,Increment      1: Step Time =    1.000,"PART-1-1",           244,       10.5842,   120.255E-03,            0.,NA,NA,"",   436.916E-03,   436.806E-03,  -9.81326E-03,   2.07135E-03
C:/temp/dataset/4/6_1.odb,Step-1,Increment      1: Step Time =    1.000,"PART-1-1",           245,       10.8633,      -2.34188,            0.,NA,NA,"",   368.007E-03,   367.690E-03,  -15.2851E-03,   2.11167E-03
C:/temp/dataset/4/6_1.odb,Step-1,Increment      1: Step Time =    1.000,"PART-1-1",           246,       9.78574,       2.89226,            0.,NA,NA,"",   516.829E-03,   516.720E-03,   10.6413E-03,   1.62518E-03
C:/temp/dataset/4/6_1.odb,Step-1,Increment      1: Step Time =    1.000,"PART-1-1",           247,       10.7685,       8.18214,            0.,NA,NA,"",   662.818E-03,   662.616E-03,  -16.3458E-03,   116.668E-06
C:/temp/dataset/4/6_1.odb,Step-1,Increment      1: Step Time =    1.000,"PART-1-1",           248,       10.4587,       5.69287,            0.,NA,NA,"",   594.564E-03,   594.519E-03,  -7.31733E-03,   599.602E-06
C:/temp/dataset/4/6_1.odb,Step-1,Increment      1: Step Time =    1.000,"PART-1-1",           249,       11.0104,       19.8565,            0.,NA,NA,"",   980.268E-03,   979.885E-03,  -27.3727E-03,   1.77251E-06
C:/temp/dataset/4/6_1.odb,Step-1,Increment      1: Step Time =    1.000,"PART-1-1",           250,       11.0363,       17.5467,            0.,NA,NA,"",   917.513E-03,   917.109E-03,  -27.2162E-03,   6.42764E-06
C:/temp/dataset/4/6_1.odb,Step-1,Increment      1: Step Time =    1.000,"PART-1-1",           251,       11.0403,       15.2208,            0.,NA,NA,"",   854.322E-03,   853.913E-03,  -26.4517E-03,   17.3669E-06
C:/temp/dataset/4/6_1.odb,Step-1,Increment      1: Step Time =    1.000,"PART-1-1",           252,       1.19009,      -1.06873,            0.,NA,NA,"",   483.954E-03,   409.690E-03,   257.614E-03,   1.47117E-03
C:/temp/dataset/4/6_1.odb,Step-1,Increment      1: Step Time =    1.000,"PART-1-1",           253,       10.6932,       24.5073,            0.,NA,NA,"",       1.10657,       1.10638,  -20.4705E-03,   133.542E-09
C:/temp/dataset/4/6_1.odb,Step-1,Increment      1: Step Time =    1.000,"PART-1-1",           254,       8.51128,       25.6419,            0.,NA,NA,"",       1.13867,       1.13802,   38.4038E-03,   117.635E-09
C:/temp/dataset/4/6_1.odb,Step-1,Increment      1: Step Time =    1.000,"PART-1-1",           255,      -9.32324,       5.48290,            0.,NA,NA,"",   877.340E-03,   630.534E-03,   610.042E-03,   51.3469E-06
C:/temp/dataset/4/6_1.odb,Step-1,Increment      1: Step Time =    1.000,"PART-1-1",           256,      -11.4569,       25.7537,            0.,NA,NA,"",       1.47564,       1.31462,   670.286E-03,   35.0923E-09
C:/temp/dataset/4/6_1.odb,Step-1,Increment      1: Step Time =    1.000,"PART-1-1",           257,      -8.85145,       2.84717,            0.,NA,NA,"",   805.237E-03,   541.835E-03,   595.669E-03,   273.597E-06
C:/temp/dataset/4/6_1.odb,Step-1,Increment      1: Step Time =    1.000,"PART-1-1",           258,       11.0896,      -24.0706,            0.,NA,NA,"",   15.0972E-03,   14.6773E-03,  -3.53558E-03,   658.300E-06
C:/temp/dataset/4/6_1.odb,Step-1,Increment      1: Step Time =    1.000,"PART-1-1",           259,       5.69240,      -2.12345,            0.,NA,NA,"",   393.999E-03,   376.285E-03,   116.813E-03,   2.35164E-03
C:/temp/dataset/4/6_1.odb,Step-1,Increment      1: Step Time =    1.000,"PART-1-1",           260,       7.72467,       1.38687,            0.,NA,NA,"",   480.413E-03,   476.062E-03,   64.5089E-03,   2.11176E-03
C:/temp/dataset/4/6_1.odb,Step-1,Increment      1: Step Time =    1.000,"PART-1-1",           261,       8.83369,  -368.727E-03,            0.,NA,NA,"",   425.395E-03,   423.970E-03,   34.7887E-03,   2.24836E-03
C:/temp/dataset/4/6_1.odb,Step-1,Increment      1: Step Time =    1.000,"PART-1-1",           262,       7.58912,       4.39900,            0.,NA,NA,"",   566.435E-03,   562.100E-03,   69.9429E-03,   1.69400E-03
C:/temp/dataset/4/6_1.odb,Step-1,Increment      1: Step Time =    1.000,"PART-1-1",           263,      -6.02595,       2.23751,            0.,NA,NA,"",   721.141E-03,   519.632E-03,   500.026E-03,   802.303E-06
C:/temp/dataset/4/6_1.odb,Step-1,Increment      1: Step Time =    1.000,"PART-1-1",           264,       4.92391,   813.983E-03,            0.,NA,NA,"",   484.392E-03,   463.252E-03,   141.538E-03,   1.28435E-03
C:/temp/dataset/4/6_1.odb,Step-1,Increment      1: Step Time =    1.000,"PART-1-1",           265,      -7.77287,       1.11371,            0.,NA,NA,"",   740.114E-03,   483.562E-03,   560.300E-03,   609.336E-06
C:/temp/dataset/4/6_1.odb,Step-1,Increment      1: Step Time =    1.000,"PART-1-1",           266,      -3.71710,       1.36231,            0.,NA,NA,"",   645.705E-03,   489.190E-03,   421.459E-03,   1.21846E-03
C:/temp/dataset/4/6_1.odb,Step-1,Increment      1: Step Time =    1.000,"PART-1-1",           267,       2.85817,       1.10052,            0.,NA,NA,"",   516.331E-03,   474.381E-03,   203.862E-03,   1.15888E-03
C:/temp/dataset/4/6_1.odb,Step-1,Increment      1: Step Time =    1.000,"PART-1-1",           268,       7.51165,      -2.37377,            0.,NA,NA,"",   373.741E-03,   367.578E-03,   67.5925E-03,   2.31863E-03
C:/temp/dataset/4/6_1.odb,Step-1,Increment      1: Step Time =    1.000,"PART-1-1",           269,      -1.84913,   666.939E-03,            0.,NA,NA,"",   587.290E-03,   465.408E-03,   358.197E-03,   1.37564E-03
C:/temp/dataset/4/6_1.odb,Step-1,Increment      1: Step Time =    1.000,"PART-1-1",           270,   621.955E-03,   989.730E-03,            0.,NA,NA,"",   547.826E-03,   473.450E-03,   275.606E-03,   1.35156E-03
C:/temp/dataset/4/6_1.odb,Step-1,Increment      1: Step Time =    1.000,"PART-1-1",           271,       7.77182,      -4.29185,            0.,NA,NA,"",   320.820E-03,   315.184E-03,   59.8670E-03,   1.98008E-03
C:/temp/dataset/4/6_1.odb,Step-1,Increment      1: Step Time =    1.000,"PART-1-1",           272,       6.40836,       5.42027,            0.,NA,NA,"",   600.411E-03,   591.596E-03,   102.508E-03,   1.44897E-03
C:/temp/dataset/4/6_1.odb,Step-1,Increment      1: Step Time =    1.000,"PART-1-1",           273,      -12.5139,      -2.82358,            0.,NA,NA,"",   804.640E-03,   354.552E-03,   722.315E-03,   101.112E-06
C:/temp/dataset/4/6_1.odb,Step-1,Increment      1: Step Time =    1.000,"PART-1-1",           274,       10.8188,      -25.6946,            0.,NA,NA,"",   6.90948E-03,   6.74993E-03,  -1.47629E-03,   398.284E-06
C:/temp/dataset/4/6_1.odb,Step-1,Increment      1: Step Time =    1.000,"PART-1-1",           275,       6.49302,  -163.532E-03,            0.,NA,NA,"",   443.123E-03,   432.466E-03,   96.5957E-03,   1.88856E-03
C:/temp/dataset/4/6_1.odb,Step-1,Increment      1: Step Time =    1.000,"PART-1-1",           276,       7.60941,  -936.337E-03,            0.,NA,NA,"",   413.976E-03,   408.665E-03,   66.0972E-03,   2.23080E-03
C:/temp/dataset/4/6_1.odb,Step-1,Increment      1: Step Time =    1.000,"PART-1-1",           277,       9.17282,      -2.25688,            0.,NA,NA,"",   371.089E-03,   370.174E-03,   26.0441E-03,   2.17699E-03
C:/temp/dataset/4/6_1.odb,Step-1,Increment      1: Step Time =    1.000,"PART-1-1",           278,       9.10690,      -3.89703,            0.,NA,NA,"",   326.866E-03,   325.683E-03,   27.7871E-03,   1.78655E-03
C:/temp/dataset/4/6_1.odb,Step-1,Increment      1: Step Time =    1.000,"PART-1-1",           279,      -7.91199,      -1.40732,            0.,NA,NA,"",   694.347E-03,   400.126E-03,   567.465E-03,   872.284E-06
C:/temp/dataset/4/6_1.odb,Step-1,Increment      1: Step Time =    1.000,"PART-1-1",           280,      -9.83927,       21.3699,            0.,NA,NA,"",       1.31980,       1.16602,   618.278E-03,   97.0101E-09
C:/temp/dataset/4/6_1.odb,Step-1,Increment      1: Step Time =    1.000,"PART-1-1",           281,      -11.2653,       5.77953,            0.,NA,NA,"",   931.482E-03,   641.638E-03,   675.248E-03,   20.7095E-06
C:/temp/dataset/4/6_1.odb,Step-1,Increment      1: Step Time =    1.000,"PART-1-1",           282,      -11.2487,       3.84080,            0.,NA,NA,"",   888.304E-03,   576.487E-03,   675.829E-03,   57.1003E-06
C:/temp/dataset/4/6_1.odb,Step-1,Increment      1: Step Time =    1.000,"PART-1-1",           283,       3.11059,  -868.354E-03,            0.,NA,NA,"",   459.020E-03,   415.223E-03,   195.677E-03,   1.19094E-03
C:/temp/dataset/4/6_1.odb,Step-1,Increment      1: Step Time =    1.000,"PART-1-1",           284,       4.50766,  -682.768E-03,            0.,NA,NA,"",   446.530E-03,   419.572E-03,   152.801E-03,   1.31837E-03
C:/temp/dataset/4/6_1.odb,Step-1,Increment      1: Step Time =    1.000,"PART-1-1",           285,      -3.56662,  -854.847E-03,            0.,NA,NA,"",   590.550E-03,   417.428E-03,   417.735E-03,   1.33264E-03
C:/temp/dataset/4/6_1.odb,Step-1,Increment      1: Step Time =    1.000,"PART-1-1",           286,      -7.33150,       26.6843,            0.,NA,NA,"",       1.44467,       1.34363,   530.779E-03,   24.9319E-09
C:/temp/dataset/4/6_1.odb,Step-1,Increment      1: Step Time =    1.000,"PART-1-1",           287,      -6.09303,       25.7233,            0.,NA,NA,"",       1.39902,       1.31055,   489.603E-03,   20.6717E-09
C:/temp/dataset/4/6_1.odb,Step-1,Increment      1: Step Time =    1.000,"PART-1-1",           288,           -5.,        26.875,            0.,NA,NA,"",       1.42249,       1.34873,   452.126E-03,   14.8820E-09
C:/temp/dataset/4/6_1.odb,Step-1,Increment      1: Step Time =    1.000,"PART-1-1",           289,      -6.23847,       27.8360,            0.,NA,NA,"",       1.46722,       1.38181,   493.303E-03,   14.9390E-09
C:/temp/dataset/4/6_1.odb,Step-1,Increment      1: Step Time =    1.000,"PART-1-1",           290,      -8.20013,       25.3620,            0.,NA,NA,"",       1.41541,       1.29958,   560.793E-03,   35.4218E-09
C:/temp/dataset/4/6_1.odb,Step-1,Increment      1: Step Time =    1.000,"PART-1-1",           291,      -8.98257,       24.1636,            0.,NA,NA,"",       1.39006,       1.25965,   587.832E-03,   58.9894E-09
C:/temp/dataset/4/6_1.odb,Step-1,Increment      1: Step Time =    1.000,"PART-1-1",           292,      -7.83587,       23.3915,            0.,NA,NA,"",       1.34995,       1.23299,   549.640E-03,   60.1823E-09
C:/temp/dataset/4/6_1.odb,Step-1,Increment      1: Step Time =    1.000,"PART-1-1",           293,      -7.05344,       24.5900,            0.,NA,NA,"",       1.37602,       1.27292,   522.600E-03,   46.4161E-09
C:/temp/dataset/4/6_1.odb,Step-1,Increment      1: Step Time =    1.000,"PART-1-1",           294,      -6.78951,       20.5788,            0.,NA,NA,"",       1.24918,       1.13764,   515.986E-03,   71.0806E-09
C:/temp/dataset/4/6_1.odb,Step-1,Increment      1: Step Time =    1.000,"PART-1-1",           295,      -5.89603,       19.5861,            0.,NA,NA,"",       1.20613,       1.10369,   486.450E-03,   138.368E-09
C:/temp/dataset/4/6_1.odb,Step-1,Increment      1: Step Time =    1.000,"PART-1-1",           296,           -5.,        20.625,            0.,NA,NA,"",       1.22600,       1.13818,   455.674E-03,   191.780E-09
C:/temp/dataset/4/6_1.odb,Step-1,Increment      1: Step Time =    1.000,"PART-1-1",           297,      -5.89348,       21.6177,            0.,NA,NA,"",       1.26858,       1.17212,   485.211E-03,   91.3997E-09
C:/temp/dataset/4/6_1.odb,Step-1,Increment      1: Step Time =    1.000,"PART-1-1",           298,      -7.97413,       13.6001,            0.,NA,NA,"",       1.06266,   903.215E-03,   559.858E-03,   4.84450E-06
C:/temp/dataset/4/6_1.odb,Step-1,Increment      1: Step Time =    1.000,"PART-1-1",           299,      -8.98702,       12.6704,            0.,NA,NA,"",       1.05577,   872.467E-03,   594.515E-03,   9.39547E-06
C:/temp/dataset/4/6_1.odb,Step-1,Increment      1: Step Time =    1.000,"PART-1-1",           300,      -8.00249,       11.5116,            0.,NA,NA,"",       1.00476,   832.883E-03,   562.006E-03,   11.7588E-06
C:/temp/dataset/4/6_1.odb,Step-1,Increment      1: Step Time =    1.000,"PART-1-1",           301,      -6.98959,       12.4413,            0.,NA,NA,"",       1.01190,   863.627E-03,   527.345E-03,   9.53974E-06
C:/temp/dataset/4/6_1.odb,Step-1,Increment      1: Step Time =    1.000,"PART-1-1",           302,      -9.95004,      -1.64066,            0.,NA,NA,"",   747.734E-03,   392.770E-03,   636.269E-03,   423.929E-06
C:/temp/dataset/4/6_1.odb,Step-1,Increment      1: Step Time =    1.000,"PART-1-1",           303,      -11.1983,  -513.068E-03,            0.,NA,NA,"",   802.495E-03,   430.849E-03,   677.028E-03,   216.954E-06
C:/temp/dataset/4/6_1.odb,Step-1,Increment      1: Step Time =    1.000,"PART-1-1",           304,      -12.5325,      -1.72297,            0.,NA,NA,"",   821.427E-03,   391.168E-03,   722.309E-03,   50.3807E-06
C:/temp/dataset/4/6_1.odb,Step-1,Increment      1: Step Time =    1.000,"PART-1-1",           305,      -11.2842,      -2.85056,            0.,NA,NA,"",   767.590E-03,   352.989E-03,   681.611E-03,   219.108E-06
C:/temp/dataset/4/6_1.odb,Step-1,Increment      1: Step Time =    1.000,"PART-1-1",           306,      -10.2834,   741.336E-03,            0.,NA,NA,"",   799.763E-03,   472.296E-03,   645.413E-03,   276.571E-06
C:/temp/dataset/4/6_1.odb,Step-1,Increment      1: Step Time =    1.000,"PART-1-1",           307,      -11.7661,       1.72477,            0.,NA,NA,"",   859.219E-03,   505.883E-03,   694.507E-03,   99.1582E-06
C:/temp/dataset/4/6_1.odb,Step-1,Increment      1: Step Time =    1.000,"PART-1-1",           308,      -12.6810,   470.366E-03,            0.,NA,NA,"",   861.775E-03,   464.419E-03,   725.928E-03,   51.1553E-06
C:/temp/dataset/4/6_1.odb,Step-1,Increment      1: Step Time =    1.000,"PART-1-1",           309,         -1.25,           -5.,            0.,NA,NA,"",   444.060E-03,   281.977E-03,   343.042E-03,   1.79833E-03
C:/temp/dataset/4/6_1.odb,Step-1,Increment      1: Step Time =    1.000,"PART-1-1",           310,  -165.329E-03,      -4.13131,            0.,NA,NA,"",   436.611E-03,   311.775E-03,   305.657E-03,   1.76592E-03
C:/temp/dataset/4/6_1.odb,Step-1,Increment      1: Step Time =    1.000,"PART-1-1",           311,      -1.46228,      -3.26668,            0.,NA,NA,"",   485.969E-03,   339.139E-03,   348.067E-03,   1.34428E-03
C:/temp/dataset/4/6_1.odb,Step-1,Increment      1: Step Time =    1.000,"PART-1-1",           312,      -2.54695,      -4.13537,            0.,NA,NA,"",   494.792E-03,   309.821E-03,   385.785E-03,   1.25630E-03
C:/temp/dataset/4/6_1.odb,Step-1,Increment      1: Step Time =    1.000,"PART-1-1",           313,   769.081E-03,      -3.16387,            0.,NA,NA,"",   439.312E-03,   343.930E-03,   273.326E-03,   1.78492E-03
C:/temp/dataset/4/6_1.odb,Step-1,Increment      1: Step Time =    1.000,"PART-1-1",           314,          1.25,           -5.,            0.,NA,NA,"",   385.842E-03,   285.018E-03,   260.075E-03,   2.47078E-03
C:/temp/dataset/4/6_1.odb,Step-1,Increment      1: Step Time =    1.000,"PART-1-1",           315,       2.18441,      -4.03256,            0.,NA,NA,"",   391.104E-03,   318.165E-03,   227.450E-03,   2.34408E-03
C:/temp/dataset/4/6_1.odb,Step-1,Increment      1: Step Time =    1.000,"PART-1-1",           316,       1.54561,       3.01681,            0.,NA,NA,"",   588.436E-03,   534.694E-03,   245.682E-03,   1.80105E-03
C:/temp/dataset/4/6_1.odb,Step-1,Increment      1: Step Time =    1.000,"PART-1-1",           317,       2.64536,       4.01417,            0.,NA,NA,"",   601.036E-03,   562.691E-03,   211.243E-03,   2.53651E-03
C:/temp/dataset/4/6_1.odb,Step-1,Increment      1: Step Time =    1.000,"PART-1-1",           318,          1.25,            5.,            0.,NA,NA,"",   650.435E-03,   597.831E-03,   256.249E-03,   2.81086E-03
C:/temp/dataset/4/6_1.odb,Step-1,Increment      1: Step Time =    1.000,"PART-1-1",           319,   150.245E-03,       4.00264,            0.,NA,NA,"",   638.939E-03,   568.672E-03,   291.298E-03,   1.97333E-03
C:/temp/dataset/4/6_1.odb,Step-1,Increment      1: Step Time =    1.000,"PART-1-1",           320,   179.474E-03,      -1.21124,            0.,NA,NA,"",   499.042E-03,   405.295E-03,   291.167E-03,   1.39721E-03
C:/temp/dataset/4/6_1.odb,Step-1,Increment      1: Step Time =    1.000,"PART-1-1",           321,  -580.901E-03,      -2.30818,            0.,NA,NA,"",   487.874E-03,   370.470E-03,   317.447E-03,   1.39988E-03
C:/temp/dataset/4/6_1.odb,Step-1,Increment      1: Step Time =    1.000,"PART-1-1",           322,       1.52946,      -2.06693,            0.,NA,NA,"",   452.396E-03,   378.874E-03,   247.219E-03,   1.75242E-03
C:/temp/dataset/4/6_1.odb,Step-1,Increment      1: Step Time =    1.000,"PART-1-1",           323,       12.7868,      -3.71378,            0.,NA,NA,"",   337.206E-03,   331.844E-03,  -59.9005E-03,   2.26010E-03
C:/temp/dataset/4/6_1.odb,Step-1,Increment      1: Step Time =    1.000,"PART-1-1",           324,       13.8814,      -5.00619,            0.,NA,NA,"",   311.425E-03,   300.202E-03,  -82.8489E-03,   3.18218E-03
C:/temp/dataset/4/6_1.odb,Step-1,Increment      1: Step Time =    1.000,"PART-1-1",           325,           15.,         -3.75,            0.,NA,NA,"",   352.251E-03,   333.059E-03,  -114.683E-03,   3.63417E-03
C:/temp/dataset/4/6_1.odb,Step-1,Increment      1: Step Time =    1.000,"PART-1-1",           326,       13.9054,      -2.45760,            0.,NA,NA,"",   376.781E-03,   365.740E-03,  -90.5449E-03,   2.48749E-03
C:/temp/dataset/4/6_1.odb,Step-1,Increment      1: Step Time =    1.000,"PART-1-1",           327,       5.10003,      -1.40311,            0.,NA,NA,"",   420.034E-03,   397.834E-03,   134.744E-03,   1.74153E-03
C:/temp/dataset/4/6_1.odb,Step-1,Increment      1: Step Time =    1.000,"PART-1-1",           328,       3.80913,  -775.561E-03,            0.,NA,NA,"",   452.317E-03,   417.478E-03,   174.075E-03,   1.18308E-03
C:/temp/dataset/4/6_1.odb,Step-1,Increment      1: Step Time =    1.000,"PART-1-1",           329,       3.52110,      -1.80919,            0.,NA,NA,"",   427.864E-03,   386.852E-03,   182.792E-03,   1.63768E-03
C:/temp/dataset/4/6_1.odb,Step-1,Increment      1: Step Time =    1.000,"PART-1-1",           330,       4.81200,      -2.43673,            0.,NA,NA,"",   394.556E-03,   368.060E-03,   142.149E-03,   1.94303E-03
C:/temp/dataset/4/6_1.odb,Step-1,Increment      1: Step Time =    1.000,"PART-1-1",           331,           15.,          3.75,            0.,NA,NA,"",   553.793E-03,   538.282E-03,  -130.150E-03,   400.982E-06
C:/temp/dataset/4/6_1.odb,Step-1,Increment      1: Step Time =    1.000,"PART-1-1",           332,       13.8386,       5.14064,            0.,NA,NA,"",   585.819E-03,   577.416E-03,  -98.8678E-03,   252.672E-06
C:/temp/dataset/4/6_1.odb,Step-1,Increment      1: Step Time =    1.000,"PART-1-1",           333,       12.6076,       4.00525,            0.,NA,NA,"",   549.954E-03,   546.127E-03,  -64.7659E-03,   796.984E-06
C:/temp/dataset/4/6_1.odb,Step-1,Increment      1: Step Time =    1.000,"PART-1-1",           334,       13.7689,       2.61462,            0.,NA,NA,"",   515.525E-03,   506.654E-03,  -95.2279E-03,   787.676E-06
C:/temp/dataset/4/6_1.odb,Step-1,Increment      1: Step Time =    1.000,"PART-1-1",           335,       9.76439,       8.40859,            0.,NA,NA,"",   669.364E-03,   669.276E-03,   10.8915E-03,   95.2614E-06
C:/temp/dataset/4/6_1.odb,Step-1,Increment      1: Step Time =    1.000,"PART-1-1",           336,       8.59642,       7.53369,            0.,NA,NA,"",   647.567E-03,   646.145E-03,   42.8908E-03,   307.403E-06
C:/temp/dataset/4/6_1.odb,Step-1,Increment      1: Step Time =    1.000,"PART-1-1",           337,       9.44563,       6.06261,            0.,NA,NA,"",   605.884E-03,   605.552E-03,   20.0705E-03,   547.872E-06
C:/temp/dataset/4/6_1.odb,Step-1,Increment      1: Step Time =    1.000,"PART-1-1",           338,       10.6136,       6.93751,            0.,NA,NA,"",   628.798E-03,   628.688E-03,  -11.7547E-03,   334.254E-06
C:/temp/dataset/4/6_1.odb,Step-1,Increment      1: Step Time =    1.000,"PART-1-1",           339,       5.92452,       9.07762,            0.,NA,NA,"",   698.433E-03,   688.966E-03,   114.604E-03,   91.7366E-06
C:/temp/dataset/4/6_1.odb,Step-1,Increment      1: Step Time =    1.000,"PART-1-1",           340,            5.,         8.125,            0.,NA,NA,"",   678.210E-03,   663.672E-03,   139.669E-03,   196.535E-06
C:/temp/dataset/4/6_1.odb,Step-1,Increment      1: Step Time =    1.000,"PART-1-1",           341,       5.83838,       7.03541,            0.,NA,NA,"",   645.194E-03,   634.383E-03,   117.616E-03,   333.401E-06
C:/temp/dataset/4/6_1.odb,Step-1,Increment      1: Step Time =    1.000,"PART-1-1",           342,       6.76290,       7.98803,            0.,NA,NA,"",   665.763E-03,   659.320E-03,   92.3957E-03,   175.766E-06
C:/temp/dataset/4/6_1.odb,Step-1,Increment      1: Step Time =    1.000,"PART-1-1",           343,       6.00358,       15.4027,            0.,NA,NA,"",   867.715E-03,   860.673E-03,   110.323E-03,   9.77878E-06
C:/temp/dataset/4/6_1.odb,Step-1,Increment      1: Step Time =    1.000,"PART-1-1",           344,            5.,        14.375,            0.,NA,NA,"",   844.461E-03,   833.115E-03,   137.961E-03,   22.0286E-06
C:/temp/dataset/4/6_1.odb,Step-1,Increment      1: Step Time =    1.000,"PART-1-1",           345,       5.99171,       13.2884,            0.,NA,NA,"",   810.893E-03,   803.205E-03,   111.402E-03,   25.6328E-06
C:/temp/dataset/4/6_1.odb,Step-1,Increment      1: Step Time =    1.000,"PART-1-1",           346,       6.99529,       14.3161,            0.,NA,NA,"",   834.983E-03,   830.769E-03,   83.7835E-03,   22.5502E-06
C:/temp/dataset/4/6_1.odb,Step-1,Increment      1: Step Time =    1.000,"PART-1-1",           347,       11.7328,       24.6815,            0.,NA,NA,"",       1.11180,       1.11073,  -48.7847E-03,   116.551E-09
C:/temp/dataset/4/6_1.odb,Step-1,Increment      1: Step Time =    1.000,"PART-1-1",           348,       12.6496,       26.1279,            0.,NA,NA,"",       1.15209,       1.14970,  -74.2324E-03,   113.265E-09
C:/temp/dataset/4/6_1.odb,Step-1,Increment      1: Step Time =    1.000,"PART-1-1",           349,       11.2054,       27.2635,            0.,NA,NA,"",       1.18162,       1.18109,  -35.4080E-03,   73.5631E-09
C:/temp/dataset/4/6_1.odb,Step-1,Increment      1: Step Time =    1.000,"PART-1-1",           350,       10.2886,       25.8171,            0.,NA,NA,"",       1.14217,       1.14213,  -9.96023E-03,   96.5945E-09
C:/temp/dataset/4/6_1.odb,Step-1,Increment      1: Step Time =    1.000,"PART-1-1",           351,       12.5134,       28.7000,            0.,NA,NA,"",       1.22174,       1.21965,  -71.4820E-03,   60.5788E-09
C:/temp/dataset/4/6_1.odb,Step-1,Increment      1: Step Time =    1.000,"PART-1-1",           352,       13.7634,       27.4500,            0.,NA,NA,"",       1.18986,       1.18522,  -104.989E-03,   60.8326E-09
C:/temp/dataset/4/6_1.odb,Step-1,Increment      1: Step Time =    1.000,"PART-1-1",           353,           15.,         28.75,            0.,NA,NA,"",       1.22799,       1.22009,  -139.073E-03,   18.3756E-09
C:/temp/dataset/4/6_1.odb,Step-1,Increment      1: Step Time =    1.000,"PART-1-1",           354,         13.75,           30.,            0.,NA,NA,"",       1.25895,       1.25452,  -105.566E-03,   14.2277E-09
C:/temp/dataset/4/6_1.odb,Step-1,Increment      1: Step Time =    1.000,"PART-1-1",           355,      -3.83569,      -2.96698,            0.,NA,NA,"",   552.640E-03,   348.459E-03,   428.938E-03,   1.20904E-03
C:/temp/dataset/4/6_1.odb,Step-1,Increment      1: Step Time =    1.000,"PART-1-1",           356,      -2.47303,      -2.56070,            0.,NA,NA,"",   525.999E-03,   361.921E-03,   381.692E-03,   1.19393E-03
C:/temp/dataset/4/6_1.odb,Step-1,Increment      1: Step Time =    1.000,"PART-1-1",           357,      -2.95938,      -1.35275,            0.,NA,NA,"",   564.609E-03,   401.159E-03,   397.310E-03,   1.30089E-03
C:/temp/dataset/4/6_1.odb,Step-1,Increment      1: Step Time =    1.000,"PART-1-1",           358,      -4.32205,      -1.75903,            0.,NA,NA,"",   590.164E-03,   388.167E-03,   444.545E-03,   1.31344E-03
C:/temp/dataset/4/6_1.odb,Step-1,Increment      1: Step Time =    1.000,"PART-1-1",           359,       8.60967,      -7.25473,            0.,NA,NA,"",   248.323E-03,   245.368E-03,   38.1953E-03,   1.48559E-03
C:/temp/dataset/4/6_1.odb,Step-1,Increment      1: Step Time =    1.000,"PART-1-1",           360,       7.51358,      -6.44375,            0.,NA,NA,"",   271.250E-03,   263.653E-03,   63.7472E-03,   2.72250E-03
C:/temp/dataset/4/6_1.odb,Step-1,Increment      1: Step Time =    1.000,"PART-1-1",           361,       6.75300,      -7.77251,            0.,NA,NA,"",   248.614E-03,   236.373E-03,   77.0503E-03,   3.97186E-03
C:/temp/dataset/4/6_1.odb,Step-1,Increment      1: Step Time =    1.000,"PART-1-1",           362,       7.84909,      -8.58350,            0.,NA,NA,"",   224.475E-03,   218.354E-03,   52.0659E-03,   2.70755E-03
C:/temp/dataset/4/6_1.odb,Step-1,Increment      1: Step Time =    1.000,"PART-1-1",           363,       7.07130,      -14.2100,            0.,NA,NA,"",   130.245E-03,   120.036E-03,   50.5489E-03,   3.62331E-03
C:/temp/dataset/4/6_1.odb,Step-1,Increment      1: Step Time =    1.000,"PART-1-1",           364,       6.02882,      -13.2279,            0.,NA,NA,"",   154.307E-03,   137.417E-03,   70.1938E-03,   4.69390E-03
C:/temp/dataset/4/6_1.odb,Step-1,Increment      1: Step Time =    1.000,"PART-1-1",           365,            5.,       -14.375,            0.,NA,NA,"",   146.437E-03,   122.151E-03,   80.7647E-03,   5.77543E-03
C:/temp/dataset/4/6_1.odb,Step-1,Increment      1: Step Time =    1.000,"PART-1-1",           366,       6.04247,      -15.3570,            0.,NA,NA,"",   121.856E-03,   105.347E-03,   61.2447E-03,   4.70379E-03
C:/temp/dataset/4/6_1.odb,Step-1,Increment      1: Step Time =    1.000,"PART-1-1",           367,       7.02995,      -12.0379,            0.,NA,NA,"",   165.647E-03,   155.152E-03,   58.0266E-03,   3.66212E-03
C:/temp/dataset/4/6_1.odb,Step-1,Increment      1: Step Time =    1.000,"PART-1-1",           368,       6.00113,      -11.1016,            0.,NA,NA,"",   190.932E-03,   173.665E-03,   79.3442E-03,   4.70012E-03
C:/temp/dataset/4/6_1.odb,Step-1,Increment      1: Step Time =    1.000,"PART-1-1",           369,            5.,      -12.2917,            0.,NA,NA,"",   180.216E-03,   155.400E-03,   91.2619E-03,   5.73700E-03
C:/temp/dataset/4/6_1.odb,Step-1,Increment      1: Step Time =    1.000,"PART-1-1",           370,            5.,      -22.7083,            0.,NA,NA,"",   48.5292E-03,   30.6107E-03,   37.6572E-03,   5.84636E-03
C:/temp/dataset/4/6_1.odb,Step-1,Increment      1: Step Time =    1.000,"PART-1-1",           371,       6.05922,      -23.7899,            0.,NA,NA,"",   33.2881E-03,   21.0979E-03,   25.7483E-03,   4.73289E-03
C:/temp/dataset/4/6_1.odb,Step-1,Increment      1: Step Time =    1.000,"PART-1-1",           372,       7.11013,      -22.7834,            0.,NA,NA,"",   34.2521E-03,   25.5584E-03,   22.8028E-03,   3.62025E-03
C:/temp/dataset/4/6_1.odb,Step-1,Increment      1: Step Time =    1.000,"PART-1-1",           373,       6.05091,      -21.7018,            0.,NA,NA,"",   49.6600E-03,   35.5912E-03,   34.6322E-03,   4.73246E-03
C:/temp/dataset/4/6_1.odb,Step-1,Increment      1: Step Time =    1.000,"PART-1-1",           374,          8.75,          -30.,            0.,NA,NA,"",            0.,  -882.962E-42,   2.87252E-39,   1.62614E-03
C:/temp/dataset/4/6_1.odb,Step-1,Increment      1: Step Time =    1.000,"PART-1-1",           375,       9.84988,      -28.9274,            0.,NA,NA,"",   868.042E-06,  -730.546E-06,   468.826E-06,   738.807E-06
C:/temp/dataset/4/6_1.odb,Step-1,Increment      1: Step Time =    1.000,"PART-1-1",           376,       8.52411,      -27.9095,            0.,NA,NA,"",   3.47104E-03,   981.978E-06,   3.32924E-03,   2.13519E-03
C:/temp/dataset/4/6_1.odb,Step-1,Increment      1: Step Time =    1.000,"PART-1-1",           377,       7.42422,      -28.9821,            0.,NA,NA,"",   2.39090E-03,   154.686E-06,   2.38589E-03,   2.90862E-03
C:/temp/dataset/4/6_1.odb,Step-1,Increment      1: Step Time =    1.000,"PART-1-1",           378,       10.1104,      -23.9794,            0.,NA,NA,"",   15.2882E-03,   15.1684E-03,   1.91073E-03,   430.511E-06
C:/temp/dataset/4/6_1.odb,Step-1,Increment      1: Step Time =    1.000,"PART-1-1",           379,       11.1261,      -23.0268,            0.,NA,NA,"",   21.5625E-03,   21.1051E-03,  -4.41770E-03,   695.466E-06
C:/temp/dataset/4/6_1.odb,Step-1,Increment      1: Step Time =    1.000,"PART-1-1",           380,       10.1523,      -21.9025,            0.,NA,NA,"",   29.2377E-03,   29.1461E-03,   2.31253E-03,   364.346E-06
C:/temp/dataset/4/6_1.odb,Step-1,Increment      1: Step Time =    1.000,"PART-1-1",           381,       9.13660,      -22.8552,            0.,NA,NA,"",   24.3457E-03,   22.6736E-03,   8.86676E-03,   1.47067E-03
C:/temp/dataset/4/6_1.odb,Step-1,Increment      1: Step Time =    1.000,"PART-1-1",           382,       7.09296,      -18.5383,            0.,NA,NA,"",   73.2845E-03,   63.5066E-03,   36.5721E-03,   3.61387E-03
C:/temp/dataset/4/6_1.odb,Step-1,Increment      1: Step Time =    1.000,"PART-1-1",           383,       6.04465,      -17.4814,            0.,NA,NA,"",   93.7046E-03,   77.6809E-03,   52.4046E-03,   4.71817E-03
C:/temp/dataset/4/6_1.odb,Step-1,Increment      1: Step Time =    1.000,"PART-1-1",           384,            5.,      -18.5417,            0.,NA,NA,"",   90.2873E-03,   68.0288E-03,   59.3623E-03,   5.83273E-03
C:/temp/dataset/4/6_1.odb,Step-1,Increment      1: Step Time =    1.000,"PART-1-1",           385,       6.04831,      -19.5985,            0.,NA,NA,"",   69.6740E-03,   54.4187E-03,   43.5094E-03,   4.72758E-03
C:/temp/dataset/4/6_1.odb,Step-1,Increment      1: Step Time =    1.000,"PART-1-1",           386,       8.88188,       22.9635,            0.,NA,NA,"",       1.06550,       1.06510,   29.3218E-03,   214.934E-09
C:/temp/dataset/4/6_1.odb,Step-1,Increment      1: Step Time =    1.000,"PART-1-1",           387,       9.93448,       22.0483,            0.,NA,NA,"",       1.03984,       1.03984,   1.05552E-03,   343.854E-09
C:/temp/dataset/4/6_1.odb,Step-1,Increment      1: Step Time =    1.000,"PART-1-1",           388,       10.8087,       23.3359,            0.,NA,NA,"",       1.07476,       1.07451,  -23.1756E-03,   173.030E-09
C:/temp/dataset/4/6_1.odb,Step-1,Increment      1: Step Time =    1.000,"PART-1-1",           389,       9.75606,       24.2511,            0.,NA,NA,"",       1.09978,       1.09977,   5.09071E-03,   119.070E-09
C:/temp/dataset/4/6_1.odb,Step-1,Increment      1: Step Time =    1.000,"PART-1-1",           390,       10.0218,       17.5512,            0.,NA,NA,"",   917.602E-03,   917.602E-03,   350.828E-06,   5.88233E-06
C:/temp/dataset/4/6_1.odb,Step-1,Increment      1: Step Time =    1.000,"PART-1-1",           391,       9.00837,       16.4411,            0.,NA,NA,"",   888.252E-03,   887.801E-03,   28.3053E-03,   11.5488E-06
C:/temp/dataset/4/6_1.odb,Step-1,Increment      1: Step Time =    1.000,"PART-1-1",           392,       10.0249,       15.2736,            0.,NA,NA,"",   855.711E-03,   855.711E-03,   1.12757E-03,   15.7122E-06
C:/temp/dataset/4/6_1.odb,Step-1,Increment      1: Step Time =    1.000,"PART-1-1",           393,       11.0383,       16.3837,            0.,NA,NA,"",   885.917E-03,   885.510E-03,  -26.8362E-03,   11.6348E-06
C:/temp/dataset/4/6_1.odb,Step-1,Increment      1: Step Time =    1.000,"PART-1-1",           394,      -14.0638,       5.89996,            0.,NA,NA,"",       1.00537,   647.290E-03,   769.271E-03,   37.6059E-06
C:/temp/dataset/4/6_1.odb,Step-1,Increment      1: Step Time =    1.000,"PART-1-1",           395,      -13.1194,       6.91794,            0.,NA,NA,"",       1.00343,   681.003E-03,   736.958E-03,   23.5547E-06
C:/temp/dataset/4/6_1.odb,Step-1,Increment      1: Step Time =    1.000,"PART-1-1",           396,      -14.0556,       8.04923,            0.,NA,NA,"",       1.05235,   719.634E-03,   767.832E-03,   25.3225E-06
C:/temp/dataset/4/6_1.odb,Step-1,Increment      1: Step Time =    1.000,"PART-1-1",           397,          -15.,       7.03125,            0.,NA,NA,"",       1.05391,   685.907E-03,   800.165E-03,   46.8137E-06
C:/temp/dataset/4/6_1.odb,Step-1,Increment      1: Step Time =    1.000,"PART-1-1",           398,      -14.0181,       12.3521,            0.,NA,NA,"",       1.15389,   864.579E-03,   764.170E-03,   5.28244E-06
C:/temp/dataset/4/6_1.odb,Step-1,Increment      1: Step Time =    1.000,"PART-1-1",           399,      -13.0189,       13.2775,            0.,NA,NA,"",       1.15510,   895.193E-03,   729.989E-03,   5.54274E-06
C:/temp/dataset/4/6_1.odb,Step-1,Increment      1: Step Time =    1.000,"PART-1-1",           400,      -14.0008,       14.5192,            0.,NA,NA,"",       1.20841,   937.584E-03,   762.363E-03,   1.62029E-06
C:/temp/dataset/4/6_1.odb,Step-1,Increment      1: Step Time =    1.000,"PART-1-1",           401,          -15.,       13.5938,            0.,NA,NA,"",       1.20710,   906.972E-03,   796.549E-03,   2.96713E-06
C:/temp/dataset/4/6_1.odb,Step-1,Increment      1: Step Time =    1.000,"PART-1-1",           402,      -10.1942,       21.9572,            0.,NA,NA,"",       1.34290,       1.18601,   629.901E-03,   89.4010E-09
C:/temp/dataset/4/6_1.odb,Step-1,Increment      1: Step Time =    1.000,"PART-1-1",           403,      -9.14995,       21.4132,            0.,NA,NA,"",       1.31002,       1.16709,   595.031E-03,   90.0121E-09
C:/temp/dataset/4/6_1.odb,Step-1,Increment      1: Step Time =    1.000,"PART-1-1",           404,      -8.60578,       22.3365,            0.,NA,NA,"",       1.32925,       1.19788,   576.175E-03,   81.3543E-09
C:/temp/dataset/4/6_1.odb,Step-1,Increment      1: Step Time =    1.000,"PART-1-1",           405,      -9.65000,       22.8805,            0.,NA,NA,"",       1.36161,       1.21680,   611.045E-03,   73.2993E-09
C:/temp/dataset/4/6_1.odb,Step-1,Increment      1: Step Time =    1.000,"PART-1-1",           406,      -14.0213,       25.7108,            0.,NA,NA,"",       1.51685,       1.31463,   756.700E-03,   20.2679E-09
C:/temp/dataset/4/6_1.odb,Step-1,Increment      1: Step Time =    1.000,"PART-1-1",           407,      -12.8802,       26.8172,            0.,NA,NA,"",       1.53000,       1.35126,   717.631E-03,   23.1660E-09
C:/temp/dataset/4/6_1.odb,Step-1,Increment      1: Step Time =    1.000,"PART-1-1",           408,      -13.8589,       27.8252,            0.,NA,NA,"",       1.57572,       1.38577,   750.030E-03,   14.3150E-09
C:/temp/dataset/4/6_1.odb,Step-1,Increment      1: Step Time =    1.000,"PART-1-1",           409,          -15.,       26.7188,            0.,NA,NA,"",       1.56297,       1.34914,   789.099E-03,   15.1033E-09
C:/temp/dataset/4/6_1.odb,Step-1,Increment      1: Step Time =    1.000,"PART-1-1",           410,        -13.75,           30.,            0.,NA,NA,"",       1.63823,       1.45897,   745.126E-03,   15.3556E-09
C:/temp/dataset/4/6_1.odb,Step-1,Increment      1: Step Time =    1.000,"PART-1-1",           411,          -15.,       28.9063,            0.,NA,NA,"",       1.62640,       1.42284,   787.858E-03,   15.0439E-09
C:/temp/dataset/4/6_1.odb,Step-1,Increment      1: Step Time =    1.000,"PART-1-1",           412,      -12.6089,       28.9190,            0.,NA,NA,"",       1.58811,       1.42191,   707.298E-03,   14.9881E-09
C:/temp/dataset/4/6_1.odb,Step-1,Increment      1: Step Time =    1.000,"PART-1-1",           413,      -11.4362,       27.6040,            0.,NA,NA,"",       1.53066,       1.37694,   668.537E-03,   18.4439E-09
C:/temp/dataset/4/6_1.odb,Step-1,Increment      1: Step Time =    1.000,"PART-1-1",           414,      -10.0773,       28.6850,            0.,NA,NA,"",       1.54352,       1.41259,   622.144E-03,   16.1565E-09
C:/temp/dataset/4/6_1.odb,Step-1,Increment      1: Step Time =    1.000,"PART-1-1",           415,        -11.25,           30.,            0.,NA,NA,"",       1.60039,       1.45755,   660.905E-03,   12.5766E-09
C:/temp/dataset/4/6_1.odb,Step-1,Increment      1: Step Time =    1.000,"PART-1-1",           416,      -13.7240,       21.2404,            0.,NA,NA,"",       1.38416,       1.16386,   749.223E-03,   88.7195E-09
C:/temp/dataset/4/6_1.odb,Step-1,Increment      1: Step Time =    1.000,"PART-1-1",           417,      -12.6979,       22.4429,            0.,NA,NA,"",       1.39960,       1.20379,   713.972E-03,   75.6361E-09
C:/temp/dataset/4/6_1.odb,Step-1,Increment      1: Step Time =    1.000,"PART-1-1",           418,      -13.9739,       23.5463,            0.,NA,NA,"",       1.45390,       1.24169,   756.332E-03,   48.0384E-09
C:/temp/dataset/4/6_1.odb,Step-1,Increment      1: Step Time =    1.000,"PART-1-1",           419,          -15.,       22.3438,            0.,NA,NA,"",       1.43903,       1.20175,   791.583E-03,   108.471E-09
C:/temp/dataset/4/6_1.odb,Step-1,Increment      1: Step Time =    1.000,"PART-1-1",           420,      -11.9375,       16.3352,            0.,NA,NA,"",       1.21401,   997.597E-03,   691.821E-03,   1.05586E-06
C:/temp/dataset/4/6_1.odb,Step-1,Increment      1: Step Time =    1.000,"PART-1-1",           421,      -10.8584,       17.1847,            0.,NA,NA,"",       1.21691,       1.02560,   654.986E-03,   901.564E-09
C:/temp/dataset/4/6_1.odb,Step-1,Increment      1: Step Time =    1.000,"PART-1-1",           422,      -11.8099,       18.4796,            0.,NA,NA,"",       1.27099,       1.06977,   686.305E-03,   215.981E-09
C:/temp/dataset/4/6_1.odb,Step-1,Increment      1: Step Time =    1.000,"PART-1-1",           423,      -12.8889,       17.6301,            0.,NA,NA,"",       1.26815,       1.04176,   723.140E-03,   446.280E-09
C:/temp/dataset/4/6_1.odb,Step-1,Increment      1: Step Time =    1.000,"PART-1-1",           424,      -9.98079,       13.8692,            0.,NA,NA,"",       1.10808,   913.412E-03,   627.309E-03,   4.63054E-06
C:/temp/dataset/4/6_1.odb,Step-1,Increment      1: Step Time =    1.000,"PART-1-1",           425,      -11.0142,       12.9724,            0.,NA,NA,"",       1.10460,   883.779E-03,   662.634E-03,   7.81048E-06
C:/temp/dataset/4/6_1.odb,Step-1,Increment      1: Step Time =    1.000,"PART-1-1",           426,      -10.0204,       11.7735,            0.,NA,NA,"",       1.05218,   842.833E-03,   629.846E-03,   11.3633E-06
C:/temp/dataset/4/6_1.odb,Step-1,Increment      1: Step Time =    1.000,"PART-1-1",           427,      -6.95613,       14.5250,            0.,NA,NA,"",       1.07128,   933.793E-03,   525.035E-03,   3.29502E-06
C:/temp/dataset/4/6_1.odb,Step-1,Increment      1: Step Time =    1.000,"PART-1-1",           428,      -5.98929,       13.4097,            0.,NA,NA,"",       1.02244,   895.676E-03,   493.095E-03,   3.28705E-06
C:/temp/dataset/4/6_1.odb,Step-1,Increment      1: Step Time =    1.000,"PART-1-1",           429,           -5.,        14.375,            0.,NA,NA,"",       1.03508,   927.631E-03,   459.222E-03,   1.77015E-06
C:/temp/dataset/4/6_1.odb,Step-1,Increment      1: Step Time =    1.000,"PART-1-1",           430,      -5.96684,       15.4903,            0.,NA,NA,"",       1.08347,   965.750E-03,   491.160E-03,   837.917E-09
C:/temp/dataset/4/6_1.odb,Step-1,Increment      1: Step Time =    1.000,"PART-1-1",           431,      -11.0581,       10.8707,            0.,NA,NA,"",       1.05053,   812.996E-03,   665.319E-03,   15.6411E-06
C:/temp/dataset/4/6_1.odb,Step-1,Increment      1: Step Time =    1.000,"PART-1-1",           432,      -10.0579,       9.67932,            0.,NA,NA,"",   998.140E-03,   772.299E-03,   632.327E-03,   20.7084E-06
C:/temp/dataset/4/6_1.odb,Step-1,Increment      1: Step Time =    1.000,"PART-1-1",           433,      -9.02030,       10.5821,            0.,NA,NA,"",   999.823E-03,   802.139E-03,   596.841E-03,   19.5219E-06
C:/temp/dataset/4/6_1.odb,Step-1,Increment      1: Step Time =    1.000,"PART-1-1",           434,      -7.04064,       8.20966,            0.,NA,NA,"",   895.810E-03,   721.113E-03,   531.480E-03,   40.5414E-06
C:/temp/dataset/4/6_1.odb,Step-1,Increment      1: Step Time =    1.000,"PART-1-1",           435,      -6.03068,       7.10065,            0.,NA,NA,"",   845.375E-03,   683.132E-03,   497.985E-03,   74.9509E-06
C:/temp/dataset/4/6_1.odb,Step-1,Increment      1: Step Time =    1.000,"PART-1-1",           436,           -5.,         8.125,            0.,NA,NA,"",   853.382E-03,   717.076E-03,   462.669E-03,   59.5724E-06
C:/temp/dataset/4/6_1.odb,Step-1,Increment      1: Step Time =    1.000,"PART-1-1",           437,      -6.00996,       9.23401,            0.,NA,NA,"",   903.455E-03,   755.040E-03,   496.132E-03,   25.8267E-06
C:/temp/dataset/4/6_1.odb,Step-1,Increment      1: Step Time =    1.000,"PART-1-1",           438,      -13.0926,       9.02789,            0.,NA,NA,"",       1.05148,   752.050E-03,   734.875E-03,   20.4109E-06
C:/temp/dataset/4/6_1.odb,Step-1,Increment      1: Step Time =    1.000,"PART-1-1",           439,      -14.0370,       10.1974,            0.,NA,NA,"",       1.10183,   791.991E-03,   766.018E-03,   13.0927E-06
C:/temp/dataset/4/6_1.odb,Step-1,Increment      1: Step Time =    1.000,"PART-1-1",           440,          -15.,       9.21875,            0.,NA,NA,"",       1.10242,   759.573E-03,   798.993E-03,   24.9510E-06
C:/temp/dataset/4/6_1.odb,Step-1,Increment      1: Step Time =    1.000,"PART-1-1",           441,      -13.9055,       1.56280,            0.,NA,NA,"",   915.858E-03,   501.629E-03,   766.266E-03,   26.7902E-06
C:/temp/dataset/4/6_1.odb,Step-1,Increment      1: Step Time =    1.000,"PART-1-1",           442,      -12.9296,       2.64306,            0.,NA,NA,"",   908.789E-03,   537.261E-03,   732.972E-03,   16.3598E-06
C:/temp/dataset/4/6_1.odb,Step-1,Increment      1: Step Time =    1.000,"PART-1-1",           443,      -14.0241,       3.73651,            0.,NA,NA,"",   960.009E-03,   574.563E-03,   769.088E-03,   40.7421E-06
C:/temp/dataset/4/6_1.odb,Step-1,Increment      1: Step Time =    1.000,"PART-1-1",           444,          -15.,       2.65625,            0.,NA,NA,"",   966.544E-03,   538.899E-03,   802.369E-03,   80.6448E-06
C:/temp/dataset/4/6_1.odb,Step-1,Increment      1: Step Time =    1.000,"PART-1-1",           445,      -13.7570,      -2.81804,            0.,NA,NA,"",   842.338E-03,   355.448E-03,   763.669E-03,   47.9505E-06
C:/temp/dataset/4/6_1.odb,Step-1,Increment      1: Step Time =    1.000,"PART-1-1",           446,      -13.7756,  -623.683E-03,            0.,NA,NA,"",   875.178E-03,   428.490E-03,   763.107E-03,   11.8996E-06
C:/temp/dataset/4/6_1.odb,Step-1,Increment      1: Step Time =    1.000,"PART-1-1",           447,          -15.,      -1.71875,            0.,NA,NA,"",   895.202E-03,   392.714E-03,   804.464E-03,   80.0773E-06
C:/temp/dataset/4/6_1.odb,Step-1,Increment      1: Step Time =    1.000,"PART-1-1",           448,        -13.75,           -5.,            0.,NA,NA,"",   815.336E-03,   283.007E-03,   764.644E-03,   30.4043E-06
C:/temp/dataset/4/6_1.odb,Step-1,Increment      1: Step Time =    1.000,"PART-1-1",           449,      -12.5070,      -3.91179,            0.,NA,NA,"",   789.787E-03,   318.487E-03,   722.724E-03,   102.389E-06
C:/temp/dataset/4/6_1.odb,Step-1,Increment      1: Step Time =    1.000,"PART-1-1",           450,          -15.,      -3.90625,            0.,NA,NA,"",   866.811E-03,   320.010E-03,   805.578E-03,   31.4922E-06
C:/temp/dataset/4/6_1.odb,Step-1,Increment      1: Step Time =    1.000,"PART-1-1",           451,          -15.,    468.75E-03,            0.,NA,NA,"",   928.629E-03,   465.678E-03,   803.428E-03,   86.7795E-06
C:/temp/dataset/4/6_1.odb,Step-1,Increment      1: Step Time =    1.000,"PART-1-1",           452,      -5.10506,       2.56414,            0.,NA,NA,"",   707.048E-03,   529.657E-03,   468.380E-03,   931.265E-06
C:/temp/dataset/4/6_1.odb,Step-1,Increment      1: Step Time =    1.000,"PART-1-1",           453,      -4.59209,       3.94539,            0.,NA,NA,"",   730.307E-03,   574.876E-03,   450.406E-03,   780.451E-06
C:/temp/dataset/4/6_1.odb,Step-1,Increment      1: Step Time =    1.000,"PART-1-1",           454,      -6.09775,       4.77703,            0.,NA,NA,"",   785.440E-03,   604.511E-03,   501.480E-03,   362.375E-06
C:/temp/dataset/4/6_1.odb,Step-1,Increment      1: Step Time =    1.000,"PART-1-1",           455,      -6.61072,       3.39578,            0.,NA,NA,"",   762.774E-03,   558.600E-03,   519.413E-03,   512.925E-06
C:/temp/dataset/4/6_1.odb,Step-1,Increment      1: Step Time =    1.000,"PART-1-1",           456,       9.44090,      -5.60228,            0.,NA,NA,"",   283.614E-03,   282.890E-03,   20.2531E-03,   1.01748E-03
C:/temp/dataset/4/6_1.odb,Step-1,Increment      1: Step Time =    1.000,"PART-1-1",           457,       9.79564,      -4.46986,            0.,NA,NA,"",   311.273E-03,   311.054E-03,   11.6720E-03,   1.57152E-03
C:/temp/dataset/4/6_1.odb,Step-1,Increment      1: Step Time =    1.000,"PART-1-1",           458,       8.43936,      -4.09444,            0.,NA,NA,"",   323.411E-03,   320.439E-03,   43.7468E-03,   1.76155E-03
C:/temp/dataset/4/6_1.odb,Step-1,Increment      1: Step Time =    1.000,"PART-1-1",           459,       8.08462,      -5.22686,            0.,NA,NA,"",   296.294E-03,   291.750E-03,   51.6882E-03,   1.56428E-03
C:/temp/dataset/4/6_1.odb,Step-1,Increment      1: Step Time =    1.000,"PART-1-1",           460,       6.93926,      -9.88629,            0.,NA,NA,"",   205.311E-03,   194.247E-03,   66.4885E-03,   3.78187E-03
C:/temp/dataset/4/6_1.odb,Step-1,Increment      1: Step Time =    1.000,"PART-1-1",           461,       5.93813,      -8.99303,            0.,NA,NA,"",   231.502E-03,   213.685E-03,   89.0620E-03,   4.81590E-03
C:/temp/dataset/4/6_1.odb,Step-1,Increment      1: Step Time =    1.000,"PART-1-1",           462,            5.,      -10.2083,            0.,NA,NA,"",   217.741E-03,   192.563E-03,   101.641E-03,   5.65852E-03
C:/temp/dataset/4/6_1.odb,Step-1,Increment      1: Step Time =    1.000,"PART-1-1",           463,       12.9852,      -11.3613,            0.,NA,NA,"",   170.938E-03,   164.757E-03,  -45.5500E-03,   2.64616E-03
C:/temp/dataset/4/6_1.odb,Step-1,Increment      1: Step Time =    1.000,"PART-1-1",           464,       14.0059,      -12.5461,            0.,NA,NA,"",   157.399E-03,   145.670E-03,  -59.6212E-03,   3.76220E-03
C:/temp/dataset/4/6_1.odb,Step-1,Increment      1: Step Time =    1.000,"PART-1-1",           465,           15.,        -11.25,            0.,NA,NA,"",   188.625E-03,   169.821E-03,  -82.0979E-03,   4.84807E-03
C:/temp/dataset/4/6_1.odb,Step-1,Increment      1: Step Time =    1.000,"PART-1-1",           466,       13.9793,      -10.0652,            0.,NA,NA,"",   201.712E-03,   189.947E-03,  -67.8823E-03,   3.73342E-03
C:/temp/dataset/4/6_1.odb,Step-1,Increment      1: Step Time =    1.000,"PART-1-1",           467,       7.08713,      -16.3801,            0.,NA,NA,"",   99.4571E-03,   89.4444E-03,   43.4904E-03,   3.61173E-03
C:/temp/dataset/4/6_1.odb,Step-1,Increment      1: Step Time =    1.000,"PART-1-1",           468,            5.,      -16.4583,            0.,NA,NA,"",   116.479E-03,   93.0126E-03,   70.1143E-03,   5.81151E-03
C:/temp/dataset/4/6_1.odb,Step-1,Increment      1: Step Time =    1.000,"PART-1-1",           469,       13.0372,      -13.8111,            0.,NA,NA,"",   130.454E-03,   124.114E-03,  -40.1751E-03,   2.71128E-03
C:/temp/dataset/4/6_1.odb,Step-1,Increment      1: Step Time =    1.000,"PART-1-1",           470,       14.0313,      -15.0151,            0.,NA,NA,"",   119.216E-03,   107.590E-03,  -51.3506E-03,   3.78330E-03
C:/temp/dataset/4/6_1.odb,Step-1,Increment      1: Step Time =    1.000,"PART-1-1",           471,           15.,        -13.75,            0.,NA,NA,"",   146.439E-03,   128.150E-03,  -70.8647E-03,   4.83280E-03
C:/temp/dataset/4/6_1.odb,Step-1,Increment      1: Step Time =    1.000,"PART-1-1",           472,       13.0981,      -18.6529,            0.,NA,NA,"",   67.1070E-03,   60.7148E-03,  -28.5845E-03,   2.79396E-03
C:/temp/dataset/4/6_1.odb,Step-1,Increment      1: Step Time =    1.000,"PART-1-1",           473,       14.0553,      -19.9280,            0.,NA,NA,"",   60.0069E-03,   49.0973E-03,  -34.5005E-03,   3.82439E-03
C:/temp/dataset/4/6_1.odb,Step-1,Increment      1: Step Time =    1.000,"PART-1-1",           474,           15.,        -18.75,            0.,NA,NA,"",   79.5227E-03,   62.8209E-03,  -48.7585E-03,   4.82960E-03
C:/temp/dataset/4/6_1.odb,Step-1,Increment      1: Step Time =    1.000,"PART-1-1",           475,       14.0427,      -17.4749,            0.,NA,NA,"",   86.7810E-03,   75.4295E-03,  -42.9107E-03,   3.79964E-03
C:/temp/dataset/4/6_1.odb,Step-1,Increment      1: Step Time =    1.000,"PART-1-1",           476,       6.17422,      -27.9405,            0.,NA,NA,"",   8.74357E-03,   3.92587E-03,   7.81266E-03,   4.67991E-03
C:/temp/dataset/4/6_1.odb,Step-1,Increment      1: Step Time =    1.000,"PART-1-1",           477,            5.,      -28.9583,            0.,NA,NA,"",   6.72641E-03,   4.18152E-03,   5.26872E-03,   5.82954E-03
C:/temp/dataset/4/6_1.odb,Step-1,Increment      1: Step Time =    1.000,"PART-1-1",           478,          6.25,          -30.,            0.,NA,NA,"",            0.,  -298.928E-42,   6.83149E-39,   4.19354E-03
C:/temp/dataset/4/6_1.odb,Step-1,Increment      1: Step Time =    1.000,"PART-1-1",           479,       9.46325,      -26.8820,            0.,NA,NA,"",   3.89608E-03,   2.83017E-03,   2.67760E-03,   1.12652E-03
C:/temp/dataset/4/6_1.odb,Step-1,Increment      1: Step Time =    1.000,"PART-1-1",           480,       8.20536,      -25.9154,            0.,NA,NA,"",   10.9859E-03,   7.11142E-03,   8.37358E-03,   2.52587E-03
C:/temp/dataset/4/6_1.odb,Step-1,Increment      1: Step Time =    1.000,"PART-1-1",           481,       7.26622,      -26.9429,            0.,NA,NA,"",   9.97749E-03,   4.81682E-03,   8.73776E-03,   3.50068E-03
C:/temp/dataset/4/6_1.odb,Step-1,Increment      1: Step Time =    1.000,"PART-1-1",           482,       13.6319,      -27.3465,            0.,NA,NA,"",   8.45583E-03,   3.71991E-03,  -7.59363E-03,   3.50874E-03
C:/temp/dataset/4/6_1.odb,Step-1,Increment      1: Step Time =    1.000,"PART-1-1",           483,       12.3819,      -28.5965,            0.,NA,NA,"",   2.15193E-03,  -22.4321E-06,  -2.15182E-03,   1.93069E-03
C:/temp/dataset/4/6_1.odb,Step-1,Increment      1: Step Time =    1.000,"PART-1-1",           484,         13.75,          -30.,            0.,NA,NA,"",            0.,  -532.503E-42,  -5.16017E-39,   3.17052E-03
C:/temp/dataset/4/6_1.odb,Step-1,Increment      1: Step Time =    1.000,"PART-1-1",           485,           15.,        -28.75,            0.,NA,NA,"",   6.16005E-03,   3.53703E-03,  -5.04337E-03,   4.69567E-03
C:/temp/dataset/4/6_1.odb,Step-1,Increment      1: Step Time =    1.000,"PART-1-1",           486,         11.25,          -30.,            0.,NA,NA,"",            0.,  -1.01757E-39,  -1.34587E-39,   1.06671E-03
C:/temp/dataset/4/6_1.odb,Step-1,Increment      1: Step Time =    1.000,"PART-1-1",           487,       10.9817,      -27.5238,            0.,NA,NA,"",   1.54914E-03,   1.05528E-03,  -1.13411E-03,   677.087E-06
C:/temp/dataset/4/6_1.odb,Step-1,Increment      1: Step Time =    1.000,"PART-1-1",           488,       10.1507,      -19.6985,            0.,NA,NA,"",   48.5914E-03,   48.5013E-03,   2.95811E-03,   364.376E-06
C:/temp/dataset/4/6_1.odb,Step-1,Increment      1: Step Time =    1.000,"PART-1-1",           489,       9.14094,      -20.7396,            0.,NA,NA,"",   40.8998E-03,   39.2414E-03,   11.5284E-03,   1.44738E-03
C:/temp/dataset/4/6_1.odb,Step-1,Increment      1: Step Time =    1.000,"PART-1-1",           490,       11.1621,      -20.8614,            0.,NA,NA,"",   38.2363E-03,   37.7411E-03,  -6.13403E-03,   723.416E-06
C:/temp/dataset/4/6_1.odb,Step-1,Increment      1: Step Time =    1.000,"PART-1-1",           491,       7.09922,      -20.6753,            0.,NA,NA,"",   51.6171E-03,   42.2348E-03,   29.6740E-03,   3.61811E-03
C:/temp/dataset/4/6_1.odb,Step-1,Increment      1: Step Time =    1.000,"PART-1-1",           492,            5.,       -20.625,            0.,NA,NA,"",   67.7165E-03,   47.2242E-03,   48.5324E-03,   5.84310E-03
C:/temp/dataset/4/6_1.odb,Step-1,Increment      1: Step Time =    1.000,"PART-1-1",           493,       9.08758,      -14.0519,            0.,NA,NA,"",   121.608E-03,   119.865E-03,   20.5139E-03,   1.50805E-03
C:/temp/dataset/4/6_1.odb,Step-1,Increment      1: Step Time =    1.000,"PART-1-1",           494,       10.1099,      -15.1447,            0.,NA,NA,"",   103.328E-03,   103.221E-03,   4.70601E-03,   419.309E-06
C:/temp/dataset/4/6_1.odb,Step-1,Increment      1: Step Time =    1.000,"PART-1-1",           495,       11.0794,      -13.9187,            0.,NA,NA,"",   121.643E-03,   121.246E-03,  -9.82283E-03,   610.202E-06
C:/temp/dataset/4/6_1.odb,Step-1,Increment      1: Step Time =    1.000,"PART-1-1",           496,       10.0571,      -12.8260,            0.,NA,NA,"",   138.833E-03,   138.696E-03,   6.17591E-03,   482.005E-06
C:/temp/dataset/4/6_1.odb,Step-1,Increment      1: Step Time =    1.000,"PART-1-1",           497,       9.02765,      -11.7712,            0.,NA,NA,"",   159.003E-03,   157.131E-03,   24.3260E-03,   1.55570E-03
C:/temp/dataset/4/6_1.odb,Step-1,Increment      1: Step Time =    1.000,"PART-1-1",           498,       11.0123,      -11.5393,            0.,NA,NA,"",   160.796E-03,   160.468E-03,  -10.2735E-03,   553.755E-06
C:/temp/dataset/4/6_1.odb,Step-1,Increment      1: Step Time =    1.000,"PART-1-1",           499,       9.98284,      -10.4845,            0.,NA,NA,"",   179.911E-03,   179.726E-03,   8.16917E-03,   528.926E-06
C:/temp/dataset/4/6_1.odb,Step-1,Increment      1: Step Time =    1.000,"PART-1-1",           500,       12.6190,       1.44886,            0.,NA,NA,"",   478.107E-03,   473.895E-03,  -63.3181E-03,   1.44131E-03
C:/temp/dataset/4/6_1.odb,Step-1,Increment      1: Step Time =    1.000,"PART-1-1",           501,       13.8500,   84.2405E-03,            0.,NA,NA,"",   445.554E-03,   435.467E-03,  -94.2672E-03,   1.57366E-03
C:/temp/dataset/4/6_1.odb,Step-1,Increment      1: Step Time =    1.000,"PART-1-1",           502,           15.,          1.25,            0.,NA,NA,"",   485.375E-03,   468.317E-03,  -127.547E-03,   1.26151E-03
C:/temp/dataset/4/6_1.odb,Step-1,Increment      1: Step Time =    1.000,"PART-1-1",           503,       10.0180,      -2.29938,            0.,NA,NA,"",   368.904E-03,   368.866E-03,   5.31899E-03,   2.09393E-03
C:/temp/dataset/4/6_1.odb,Step-1,Increment      1: Step Time =    1.000,"PART-1-1",           504,       9.13986,      -3.07696,            0.,NA,NA,"",   348.664E-03,   347.625E-03,   26.8954E-03,   1.96072E-03
C:/temp/dataset/4/6_1.odb,Step-1,Increment      1: Step Time =    1.000,"PART-1-1",           505,       10.6738,      -3.69229,            0.,NA,NA,"",   331.551E-03,   331.414E-03,  -9.53140E-03,   1.77835E-03
C:/temp/dataset/4/6_1.odb,Step-1,Increment      1: Step Time =    1.000,"PART-1-1",           506,       12.7589,       6.54544,            0.,NA,NA,"",   620.733E-03,   616.776E-03,  -69.9718E-03,   258.344E-06
C:/temp/dataset/4/6_1.odb,Step-1,Increment      1: Step Time =    1.000,"PART-1-1",           507,           15.,          6.25,            0.,NA,NA,"",   621.756E-03,   607.729E-03,  -131.324E-03,   25.1033E-06
C:/temp/dataset/4/6_1.odb,Step-1,Increment      1: Step Time =    1.000,"PART-1-1",           508,       13.9203,       7.65480,            0.,NA,NA,"",   654.847E-03,   646.833E-03,  -102.137E-03,   61.5147E-06
C:/temp/dataset/4/6_1.odb,Step-1,Increment      1: Step Time =    1.000,"PART-1-1",           509,       13.0275,       16.3263,            0.,NA,NA,"",   886.920E-03,   883.224E-03,  -80.8828E-03,   10.0571E-06
C:/temp/dataset/4/6_1.odb,Step-1,Increment      1: Step Time =    1.000,"PART-1-1",           510,       14.0150,       15.0581,            0.,NA,NA,"",   855.158E-03,   848.404E-03,  -107.264E-03,   11.1417E-06
C:/temp/dataset/4/6_1.odb,Step-1,Increment      1: Step Time =    1.000,"PART-1-1",           511,           15.,         16.25,            0.,NA,NA,"",   890.629E-03,   880.421E-03,  -134.461E-03,   7.33509E-06
C:/temp/dataset/4/6_1.odb,Step-1,Increment      1: Step Time =    1.000,"PART-1-1",           512,       14.0124,       17.5182,            0.,NA,NA,"",   921.605E-03,   915.244E-03,  -108.089E-03,   3.02105E-06
C:/temp/dataset/4/6_1.odb,Step-1,Increment      1: Step Time =    1.000,"PART-1-1",           513,       13.0175,       18.7421,            0.,NA,NA,"",   952.357E-03,   948.864E-03,  -81.5030E-03,   3.10611E-06
C:/temp/dataset/4/6_1.odb,Step-1,Increment      1: Step Time =    1.000,"PART-1-1",           514,           15.,         18.75,            0.,NA,NA,"",   957.961E-03,   948.347E-03,  -135.378E-03,   1.09175E-06
C:/temp/dataset/4/6_1.odb,Step-1,Increment      1: Step Time =    1.000,"PART-1-1",           515,       14.0051,       19.9738,            0.,NA,NA,"",   987.977E-03,   981.969E-03,  -108.795E-03,   520.702E-09
C:/temp/dataset/4/6_1.odb,Step-1,Increment      1: Step Time =    1.000,"PART-1-1",           516,       5.97628,       21.7197,            0.,NA,NA,"",       1.03808,       1.03237,   108.741E-03,   187.913E-09
C:/temp/dataset/4/6_1.odb,Step-1,Increment      1: Step Time =    1.000,"PART-1-1",           517,       6.92463,       22.7965,            0.,NA,NA,"",       1.06449,       1.06129,   82.5717E-03,   84.3922E-09
C:/temp/dataset/4/6_1.odb,Step-1,Increment      1: Step Time =    1.000,"PART-1-1",           518,       5.94835,       23.7852,            0.,NA,NA,"",       1.09393,       1.08851,   108.737E-03,   172.500E-09
C:/temp/dataset/4/6_1.odb,Step-1,Increment      1: Step Time =    1.000,"PART-1-1",           519,            5.,       22.7083,            0.,NA,NA,"",       1.06815,       1.05960,   134.907E-03,   342.013E-09
C:/temp/dataset/4/6_1.odb,Step-1,Increment      1: Step Time =    1.000,"PART-1-1",           520,       13.8862,       24.9278,            0.,NA,NA,"",       1.12179,       1.11663,  -107.393E-03,   128.532E-09
C:/temp/dataset/4/6_1.odb,Step-1,Increment      1: Step Time =    1.000,"PART-1-1",           521,           15.,         26.25,            0.,NA,NA,"",       1.16040,       1.15215,  -138.150E-03,   118.693E-09
C:/temp/dataset/4/6_1.odb,Step-1,Increment      1: Step Time =    1.000,"PART-1-1",           522,       6.15342,       27.8650,            0.,NA,NA,"",       1.20361,       1.19931,   101.657E-03,   50.2865E-09
C:/temp/dataset/4/6_1.odb,Step-1,Increment      1: Step Time =    1.000,"PART-1-1",           523,       7.40342,       28.9067,            0.,NA,NA,"",       1.22900,       1.22715,   67.3041E-03,   55.5682E-09
C:/temp/dataset/4/6_1.odb,Step-1,Increment      1: Step Time =    1.000,"PART-1-1",           524,          6.25,           30.,            0.,NA,NA,"",       1.26112,       1.25729,   98.2444E-03,   13.9173E-09
C:/temp/dataset/4/6_1.odb,Step-1,Increment      1: Step Time =    1.000,"PART-1-1",           525,            5.,       28.9583,            0.,NA,NA,"",       1.23657,       1.22944,   132.598E-03,   14.1184E-09
C:/temp/dataset/4/6_1.odb,Step-1,Increment      1: Step Time =    1.000,"PART-1-1",           526,       7.11917,       26.8292,            0.,NA,NA,"",       1.17325,       1.17080,   75.7959E-03,   102.709E-09
C:/temp/dataset/4/6_1.odb,Step-1,Increment      1: Step Time =    1.000,"PART-1-1",           527,            5.,        26.875,            0.,NA,NA,"",       1.18039,       1.17283,   133.367E-03,   83.6469E-09
C:/temp/dataset/4/6_1.odb,Step-1,Increment      1: Step Time =    1.000,"PART-1-1",           528,       5.96574,       25.8392,            0.,NA,NA,"",       1.14936,       1.14432,   107.506E-03,   102.960E-09
C:/temp/dataset/4/6_1.odb,Step-1,Increment      1: Step Time =    1.000,"PART-1-1",           529,       8.59546,       27.4701,            0.,NA,NA,"",       1.18820,       1.18767,   35.4411E-03,   70.0911E-09
C:/temp/dataset/4/6_1.odb,Step-1,Increment      1: Step Time =    1.000,"PART-1-1",           530,       9.94204,       28.5635,            0.,NA,NA,"",       1.21689,       1.21689,  -1.55552E-03,   69.7345E-09
C:/temp/dataset/4/6_1.odb,Step-1,Increment      1: Step Time =    1.000,"PART-1-1",           531,          8.75,           30.,            0.,NA,NA,"",       1.25673,       1.25636,   30.3074E-03,   61.3237E-09
C:/temp/dataset/4/6_1.odb,Step-1,Increment      1: Step Time =    1.000,"PART-1-1",           532,            5.,       24.7917,            0.,NA,NA,"",       1.12424,       1.11621,   134.137E-03,   213.376E-09
C:/temp/dataset/4/6_1.odb,Step-1,Increment      1: Step Time =    1.000,"PART-1-1",           533,       6.91409,       24.8327,            0.,NA,NA,"",       1.11964,       1.11662,   82.1061E-03,   117.927E-09
C:/temp/dataset/4/6_1.odb,Step-1,Increment      1: Step Time =    1.000,"PART-1-1",           534,            5.,        20.625,            0.,NA,NA,"",       1.01212,       1.00298,   135.677E-03,   194.926E-09
C:/temp/dataset/4/6_1.odb,Step-1,Increment      1: Step Time =    1.000,"PART-1-1",           535,       5.99534,       19.6263,            0.,NA,NA,"",   981.546E-03,   975.475E-03,   108.996E-03,   716.058E-09
C:/temp/dataset/4/6_1.odb,Step-1,Increment      1: Step Time =    1.000,"PART-1-1",           536,       6.97162,       20.7210,            0.,NA,NA,"",       1.00821,       1.00486,   82.0612E-03,   848.739E-09
C:/temp/dataset/4/6_1.odb,Step-1,Increment      1: Step Time =    1.000,"PART-1-1",           537,       9.90537,       10.7177,            0.,NA,NA,"",   731.986E-03,   731.960E-03,   6.17647E-03,   44.9461E-06
C:/temp/dataset/4/6_1.odb,Step-1,Increment      1: Step Time =    1.000,"PART-1-1",           538,       8.83179,       9.75083,            0.,NA,NA,"",   707.005E-03,   706.102E-03,   35.7249E-03,   47.5523E-06
C:/temp/dataset/4/6_1.odb,Step-1,Increment      1: Step Time =    1.000,"PART-1-1",           539,       10.8380,       9.37550,            0.,NA,NA,"",   695.367E-03,   695.117E-03,  -18.6633E-03,   55.0759E-06
C:/temp/dataset/4/6_1.odb,Step-1,Increment      1: Step Time =    1.000,"PART-1-1",           540,       5.96737,       11.1773,            0.,NA,NA,"",   754.341E-03,   745.861E-03,   112.789E-03,   48.7353E-06
C:/temp/dataset/4/6_1.odb,Step-1,Increment      1: Step Time =    1.000,"PART-1-1",           541,       6.95908,       12.1740,            0.,NA,NA,"",   777.283E-03,   772.560E-03,   85.5551E-03,   40.2141E-06
C:/temp/dataset/4/6_1.odb,Step-1,Increment      1: Step Time =    1.000,"PART-1-1",           542,            5.,       12.2917,            0.,NA,NA,"",   788.782E-03,   776.498E-03,   138.667E-03,   53.2308E-06
C:/temp/dataset/4/6_1.odb,Step-1,Increment      1: Step Time =    1.000,"PART-1-1",           543,       6.89189,       10.0466,            0.,NA,NA,"",   720.253E-03,   714.837E-03,   88.1632E-03,   48.5409E-06
C:/temp/dataset/4/6_1.odb,Step-1,Increment      1: Step Time =    1.000,"PART-1-1",           544,            5.,       10.2083,            0.,NA,NA,"",   733.315E-03,   719.965E-03,   139.292E-03,   129.353E-06
C:/temp/dataset/4/6_1.odb,Step-1,Increment      1: Step Time =    1.000,"PART-1-1",           545,  -883.251E-03,       2.97832,            0.,NA,NA,"",   628.544E-03,   537.861E-03,   325.228E-03,   1.51504E-03
C:/temp/dataset/4/6_1.odb,Step-1,Increment      1: Step Time =    1.000,"PART-1-1",           546,         -1.25,            5.,            0.,NA,NA,"",   692.341E-03,   604.361E-03,   337.763E-03,   1.93437E-03
C:/temp/dataset/4/6_1.odb,Step-1,Increment      1: Step Time =    1.000,"PART-1-1",           547,      -2.28350,       3.97568,            0.,NA,NA,"",   682.868E-03,   572.556E-03,   372.140E-03,   1.34164E-03
C:/temp/dataset/4/6_1.odb,Step-1,Increment      1: Step Time =    1.000,"PART-1-1",           548,      -3.12559,       2.92107,            0.,NA,NA,"",   671.845E-03,   539.241E-03,   400.743E-03,   1.18233E-03
C:/temp/dataset/4/6_1.odb,Step-1,Increment      1: Step Time =    1.000,"PART-1-1",           549,         -3.75,            5.,            0.,NA,NA,"",   740.903E-03,   609.232E-03,   421.631E-03,   1.17151E-03
C:/temp/dataset/4/6_1.odb,Step-1,Increment      1: Step Time =    1.000,"PART-1-1",           550,      -7.01026,       10.3490,            0.,NA,NA,"",   953.517E-03,   793.165E-03,   529.229E-03,   20.9291E-06
C:/temp/dataset/4/6_1.odb,Step-1,Increment      1: Step Time =    1.000,"PART-1-1",           551,           -5.,       10.2083,            0.,NA,NA,"",   912.603E-03,   787.280E-03,   461.557E-03,   25.7475E-06
C:/temp/dataset/4/6_1.odb,Step-1,Increment      1: Step Time =    1.000,"PART-1-1",           552,      -6.00030,       11.3233,            0.,NA,NA,"",   962.273E-03,   825.409E-03,   494.641E-03,   10.1596E-06
C:/temp/dataset/4/6_1.odb,Step-1,Increment      1: Step Time =    1.000,"PART-1-1",           553,      -6.90277,       16.5792,            0.,NA,NA,"",       1.13071,       1.00296,   522.072E-03,   947.751E-09
C:/temp/dataset/4/6_1.odb,Step-1,Increment      1: Step Time =    1.000,"PART-1-1",           554,           -5.,       16.4583,            0.,NA,NA,"",       1.09792,   997.811E-03,   458.040E-03,   20.7860E-09
C:/temp/dataset/4/6_1.odb,Step-1,Increment      1: Step Time =    1.000,"PART-1-1",           555,      -5.93592,       17.5473,            0.,NA,NA,"",       1.14471,       1.03503,   488.951E-03,   151.174E-09
C:/temp/dataset/4/6_1.odb,Step-1,Increment      1: Step Time =    1.000,"PART-1-1",           556,      -5.96041,       23.6583,            0.,NA,NA,"",       1.33280,       1.24091,   486.307E-03,   44.4721E-09
C:/temp/dataset/4/6_1.odb,Step-1,Increment      1: Step Time =    1.000,"PART-1-1",           557,           -5.,       24.7917,            0.,NA,NA,"",       1.35653,       1.27855,   453.309E-03,   35.5405E-09
C:/temp/dataset/4/6_1.odb,Step-1,Increment      1: Step Time =    1.000,"PART-1-1",           558,      -7.48847,       28.8776,            0.,NA,NA,"",       1.51514,       1.41761,   534.822E-03,   14.5267E-09
C:/temp/dataset/4/6_1.odb,Step-1,Increment      1: Step Time =    1.000,"PART-1-1",           559,           -5.,       28.9583,            0.,NA,NA,"",       1.48885,       1.41891,   450.944E-03,   15.3907E-09
C:/temp/dataset/4/6_1.odb,Step-1,Increment      1: Step Time =    1.000,"PART-1-1",           560,         -6.25,           30.,            0.,NA,NA,"",       1.53581,       1.45472,   492.463E-03,   14.8506E-09
C:/temp/dataset/4/6_1.odb,Step-1,Increment      1: Step Time =    1.000,"PART-1-1",           561,       12.9634,       11.4929,            0.,NA,NA,"",   755.890E-03,   751.921E-03,  -77.3655E-03,   34.5657E-06
C:/temp/dataset/4/6_1.odb,Step-1,Increment      1: Step Time =    1.000,"PART-1-1",           562,       13.9657,       10.1417,            0.,NA,NA,"",   722.328E-03,   714.771E-03,  -104.211E-03,   53.8497E-06
C:/temp/dataset/4/6_1.odb,Step-1,Increment      1: Step Time =    1.000,"PART-1-1",           563,           15.,         11.25,            0.,NA,NA,"",   756.271E-03,   744.530E-03,  -132.741E-03,   64.8950E-06
C:/temp/dataset/4/6_1.odb,Step-1,Increment      1: Step Time =    1.000,"PART-1-1",           564,       13.9978,       12.6011,            0.,NA,NA,"",   788.800E-03,   781.657E-03,  -105.920E-03,   29.5379E-06
C:/temp/dataset/4/6_1.odb,Step-1,Increment      1: Step Time =    1.000,"PART-1-1",           565,       9.13480,      -18.5479,            0.,NA,NA,"",   62.6017E-03,   60.9399E-03,   14.3282E-03,   1.44846E-03
C:/temp/dataset/4/6_1.odb,Step-1,Increment      1: Step Time =    1.000,"PART-1-1",           566,       11.1537,      -18.5886,            0.,NA,NA,"",   60.4954E-03,   60.0135E-03,  -7.62065E-03,   708.493E-06
C:/temp/dataset/4/6_1.odb,Step-1,Increment      1: Step Time =    1.000,"PART-1-1",           567,       10.1377,      -17.4381,            0.,NA,NA,"",   73.2786E-03,   73.1842E-03,   3.71781E-03,   380.065E-06
C:/temp/dataset/4/6_1.odb,Step-1,Increment      1: Step Time =    1.000,"PART-1-1",           568,      -8.81573,       27.5627,            0.,NA,NA,"",       1.49157,       1.37406,   580.282E-03,   17.6997E-09
C:/temp/dataset/4/6_1.odb,Step-1,Increment      1: Step Time =    1.000,"PART-1-1",           569,         -8.75,           30.,            0.,NA,NA,"",       1.56617,       1.45613,   576.684E-03,   12.6827E-09
C:/temp/dataset/4/6_1.odb,Step-1,Increment      1: Step Time =    1.000,"PART-1-1",           570,            5.,      -24.7917,            0.,NA,NA,"",   32.3428E-03,   18.1554E-03,   26.7664E-03,   5.77892E-03
C:/temp/dataset/4/6_1.odb,Step-1,Increment      1: Step Time =    1.000,"PART-1-1",           571,       6.09200,      -25.8775,            0.,NA,NA,"",   19.9518E-03,   10.7631E-03,   16.7997E-03,   4.69665E-03
C:/temp/dataset/4/6_1.odb,Step-1,Increment      1: Step Time =    1.000,"PART-1-1",           572,       7.15121,      -24.8757,            0.,NA,NA,"",   20.5616E-03,   13.1662E-03,   15.7933E-03,   3.63491E-03
C:/temp/dataset/4/6_1.odb,Step-1,Increment      1: Step Time =    1.000,"PART-1-1",           573,       13.1040,      -21.0477,            0.,NA,NA,"",   43.8116E-03,   37.5916E-03,  -22.5016E-03,   2.81013E-03
C:/temp/dataset/4/6_1.odb,Step-1,Increment      1: Step Time =    1.000,"PART-1-1",           574,       14.0487,      -22.3697,            0.,NA,NA,"",   38.5887E-03,   28.5581E-03,  -25.9523E-03,   3.84120E-03
C:/temp/dataset/4/6_1.odb,Step-1,Increment      1: Step Time =    1.000,"PART-1-1",           575,           15.,        -21.25,            0.,NA,NA,"",   54.3616E-03,   39.0897E-03,  -37.7780E-03,   4.85422E-03
C:/temp/dataset/4/6_1.odb,Step-1,Increment      1: Step Time =    1.000,"PART-1-1",           576,            5.,       -26.875,            0.,NA,NA,"",   18.8796E-03,   9.79242E-03,   16.1415E-03,   5.76963E-03
C:/temp/dataset/4/6_1.odb,Step-1,Increment      1: Step Time =    1.000,"PART-1-1",           577,       12.8133,      -6.31290,            0.,NA,NA,"",   273.405E-03,   267.887E-03,  -54.6505E-03,   2.41210E-03
C:/temp/dataset/4/6_1.odb,Step-1,Increment      1: Step Time =    1.000,"PART-1-1",           578,       13.9319,      -7.55671,            0.,NA,NA,"",   252.744E-03,   241.155E-03,  -75.6562E-03,   3.59020E-03
C:/temp/dataset/4/6_1.odb,Step-1,Increment      1: Step Time =    1.000,"PART-1-1",           579,           15.,         -6.25,            0.,NA,NA,"",   291.596E-03,   272.183E-03,  -104.617E-03,   4.43983E-03
C:/temp/dataset/4/6_1.odb,Step-1,Increment      1: Step Time =    1.000,"PART-1-1",           580,            5.,       18.5417,            0.,NA,NA,"",   956.151E-03,   946.365E-03,   136.446E-03,   1.31710E-06
C:/temp/dataset/4/6_1.odb,Step-1,Increment      1: Step Time =    1.000,"PART-1-1",           581,       6.00122,       17.5195,            0.,NA,NA,"",   924.732E-03,   918.213E-03,   109.613E-03,   3.19751E-06
C:/temp/dataset/4/6_1.odb,Step-1,Increment      1: Step Time =    1.000,"PART-1-1",           582,       6.99656,       18.6041,            0.,NA,NA,"",   950.881E-03,   947.325E-03,   82.1654E-03,   3.36024E-06
C:/temp/dataset/4/6_1.odb,Step-1,Increment      1: Step Time =    1.000,"PART-1-1",           583,       12.8545,       23.6160,            0.,NA,NA,"",       1.08424,       1.08137,  -78.8731E-03,   76.2087E-09
C:/temp/dataset/4/6_1.odb,Step-1,Increment      1: Step Time =    1.000,"PART-1-1",           584,       13.9683,       22.4382,            0.,NA,NA,"",       1.05456,       1.04895,  -108.706E-03,   185.391E-09
C:/temp/dataset/4/6_1.odb,Step-1,Increment      1: Step Time =    1.000,"PART-1-1",           585,           15.,         23.75,            0.,NA,NA,"",       1.09286,       1.08421,  -137.226E-03,   280.836E-09
C:/temp/dataset/4/6_1.odb,Step-1,Increment      1: Step Time =    1.000,"PART-1-1",           586,            5.,       16.4583,            0.,NA,NA,"",   900.259E-03,   889.742E-03,   137.211E-03,   6.42577E-06
C:/temp/dataset/4/6_1.odb,Step-1,Increment      1: Step Time =    1.000,"PART-1-1",           587,       7.00480,       16.4638,            0.,NA,NA,"",   892.989E-03,   889.148E-03,   82.7320E-03,   9.86153E-06
C:/temp/dataset/4/6_1.odb,Step-1,Increment      1: Step Time =    1.000,"PART-1-1",           588,       12.9734,       21.1620,            0.,NA,NA,"",       1.01788,       1.01464,  -81.1981E-03,   616.532E-09
C:/temp/dataset/4/6_1.odb,Step-1,Increment      1: Step Time =    1.000,"PART-1-1",           589,           15.,         21.25,            0.,NA,NA,"",       1.02538,       1.01628,  -136.302E-03,   268.285E-09
C:/temp/dataset/4/6_1.odb,Step-1,Increment      1: Step Time =    1.000,"PART-1-1",           590,            5.,       6.04167,            0.,NA,NA,"",   624.557E-03,   608.628E-03,   140.154E-03,   991.879E-06
C:/temp/dataset/4/6_1.odb,Step-1,Increment      1: Step Time =    1.000,"PART-1-1",           591,       5.70418,       5.21013,            0.,NA,NA,"",   600.082E-03,   587.598E-03,   121.767E-03,   2.14179E-03
C:/temp/dataset/4/6_1.odb,Step-1,Increment      1: Step Time =    1.000,"PART-1-1",           592,       6.54256,       6.20387,            0.,NA,NA,"",   620.073E-03,   612.126E-03,   98.9550E-03,   801.059E-06
C:/temp/dataset/4/6_1.odb,Step-1,Increment      1: Step Time =    1.000,"PART-1-1",           593,       7.80464,       8.81181,            0.,NA,NA,"",   684.059E-03,   681.065E-03,   63.9287E-03,   64.8732E-06
C:/temp/dataset/4/6_1.odb,Step-1,Increment      1: Step Time =    1.000,"PART-1-1",           594,       7.55468,       6.70991,            0.,NA,NA,"",   628.709E-03,   624.647E-03,   71.3501E-03,   475.436E-06
C:/temp/dataset/4/6_1.odb,Step-1,Increment      1: Step Time =    1.000,"PART-1-1",           595,           -5.,       12.2917,            0.,NA,NA,"",   973.240E-03,   857.455E-03,   460.399E-03,   7.02458E-06
C:/temp/dataset/4/6_1.odb,Step-1,Increment      1: Step Time =    1.000,"PART-1-1",           596,      -13.0551,       11.1433,            0.,NA,NA,"",       1.10193,   823.301E-03,   732.418E-03,   12.2952E-06
C:/temp/dataset/4/6_1.odb,Step-1,Increment      1: Step Time =    1.000,"PART-1-1",           597,          -15.,       11.4063,            0.,NA,NA,"",       1.15360,   833.270E-03,   797.781E-03,   10.1130E-06
C:/temp/dataset/4/6_1.odb,Step-1,Increment      1: Step Time =    1.000,"PART-1-1",           598,           -5.,       18.5417,            0.,NA,NA,"",       1.16161,       1.06799,   456.857E-03,   256.687E-09
C:/temp/dataset/4/6_1.odb,Step-1,Increment      1: Step Time =    1.000,"PART-1-1",           599,      -6.83195,       18.5917,            0.,NA,NA,"",       1.18968,       1.07072,   518.544E-03,   140.694E-09
C:/temp/dataset/4/6_1.odb,Step-1,Increment      1: Step Time =    1.000,"PART-1-1",           600,      -12.9744,       15.4368,            0.,NA,NA,"",       1.21069,   967.916E-03,   727.266E-03,   1.91660E-06
C:/temp/dataset/4/6_1.odb,Step-1,Increment      1: Step Time =    1.000,"PART-1-1",           601,      -13.9736,       16.6988,            0.,NA,NA,"",       1.26493,       1.01100,   760.210E-03,   348.857E-09
C:/temp/dataset/4/6_1.odb,Step-1,Increment      1: Step Time =    1.000,"PART-1-1",           602,          -15.,       15.7813,            0.,NA,NA,"",       1.26263,   980.671E-03,   795.309E-03,   390.705E-09
C:/temp/dataset/4/6_1.odb,Step-1,Increment      1: Step Time =    1.000,"PART-1-1",           603,      -6.85389,       22.5676,            0.,NA,NA,"",       1.31094,       1.20467,   517.026E-03,   73.5280E-09
C:/temp/dataset/4/6_1.odb,Step-1,Increment      1: Step Time =    1.000,"PART-1-1",           604,           -5.,       22.7083,            0.,NA,NA,"",       1.29101,       1.20836,   454.492E-03,   93.8839E-09
C:/temp/dataset/4/6_1.odb,Step-1,Increment      1: Step Time =    1.000,"PART-1-1",           605,      -7.62380,       21.5126,            0.,NA,NA,"",       1.28971,       1.16957,   543.562E-03,   78.0383E-09
C:/temp/dataset/4/6_1.odb,Step-1,Increment      1: Step Time =    1.000,"PART-1-1",           606,      -11.2433,       25.0031,            0.,NA,NA,"",       1.44994,       1.28921,   663.517E-03,   45.5787E-09
C:/temp/dataset/4/6_1.odb,Step-1,Increment      1: Step Time =    1.000,"PART-1-1",           607,      -10.1220,       24.6816,            0.,NA,NA,"",       1.42282,       1.27774,   625.923E-03,   48.0714E-09
C:/temp/dataset/4/6_1.odb,Step-1,Increment      1: Step Time =    1.000,"PART-1-1",           608,      -9.68436,       26.2404,            0.,NA,NA,"",       1.46335,       1.33001,   610.295E-03,   32.0046E-09
C:/temp/dataset/4/6_1.odb,Step-1,Increment      1: Step Time =    1.000,"PART-1-1",           609,      -10.8057,       26.5619,            0.,NA,NA,"",       1.48974,       1.34148,   647.890E-03,   27.5276E-09
C:/temp/dataset/4/6_1.odb,Step-1,Increment      1: Step Time =    1.000,"PART-1-1",           610,            5.,      -6.04167,            0.,NA,NA,"",   302.562E-03,   276.259E-03,   123.390E-03,   8.02931E-03
C:/temp/dataset/4/6_1.odb,Step-1,Increment      1: Step Time =    1.000,"PART-1-1",           611,       5.81487,      -6.90448,            0.,NA,NA,"",   275.127E-03,   255.992E-03,   100.814E-03,   5.23296E-03
C:/temp/dataset/4/6_1.odb,Step-1,Increment      1: Step Time =    1.000,"PART-1-1",           612,       6.44107,      -5.66337,            0.,NA,NA,"",   295.492E-03,   281.194E-03,   90.8050E-03,   3.26878E-03
C:/temp/dataset/4/6_1.odb,Step-1,Increment      1: Step Time =    1.000,"PART-1-1",           613,       5.62621,      -4.80056,            0.,NA,NA,"",   321.582E-03,   300.805E-03,   113.716E-03,   5.52759E-03
C:/temp/dataset/4/6_1.odb,Step-1,Increment      1: Step Time =    1.000,"PART-1-1",           614,            5.,        -8.125,            0.,NA,NA,"",   258.842E-03,   233.553E-03,   111.591E-03,   5.85707E-03
C:/temp/dataset/4/6_1.odb,Step-1,Increment      1: Step Time =    1.000,"PART-1-1",           615,       8.00489,       17.5473,            0.,NA,NA,"",   919.888E-03,   918.232E-03,   55.1576E-03,   5.34399E-06
C:/temp/dataset/4/6_1.odb,Step-1,Increment      1: Step Time =    1.000,"PART-1-1",           616,       8.00828,       15.3576,            0.,NA,NA,"",   860.529E-03,   858.713E-03,   55.8833E-03,   14.0241E-06
C:/temp/dataset/4/6_1.odb,Step-1,Increment      1: Step Time =    1.000,"PART-1-1",           617,       11.1265,      -16.2686,            0.,NA,NA,"",   88.2846E-03,   87.8346E-03,  -8.90293E-03,   670.326E-06
C:/temp/dataset/4/6_1.odb,Step-1,Increment      1: Step Time =    1.000,"PART-1-1",           618,       9.12111,      -16.3141,            0.,NA,NA,"",   89.4744E-03,   87.7961E-03,   17.2485E-03,   1.46567E-03
C:/temp/dataset/4/6_1.odb,Step-1,Increment      1: Step Time =    1.000,"PART-1-1",           619,      -9.91602,       15.9767,            0.,NA,NA,"",       1.16545,   984.372E-03,   623.926E-03,   1.52366E-06
C:/temp/dataset/4/6_1.odb,Step-1,Increment      1: Step Time =    1.000,"PART-1-1",           620,      -10.9598,       15.0860,            0.,NA,NA,"",       1.16061,   954.958E-03,   659.596E-03,   3.01684E-06
C:/temp/dataset/4/6_1.odb,Step-1,Increment      1: Step Time =    1.000,"PART-1-1",           621,      -8.93702,       14.7598,            0.,NA,NA,"",       1.11308,   942.827E-03,   591.637E-03,   3.63295E-06
C:/temp/dataset/4/6_1.odb,Step-1,Increment      1: Step Time =    1.000,"PART-1-1",           622,      -13.0880,       4.79273,            0.,NA,NA,"",   956.438E-03,   609.497E-03,   737.080E-03,   13.4414E-06
C:/temp/dataset/4/6_1.odb,Step-1,Increment      1: Step Time =    1.000,"PART-1-1",           623,          -15.,       4.84375,            0.,NA,NA,"",       1.00847,   612.327E-03,   801.286E-03,   68.1078E-06
C:/temp/dataset/4/6_1.odb,Step-1,Increment      1: Step Time =    1.000,"PART-1-1",           624,           -5.,       6.04167,            0.,NA,NA,"",   795.772E-03,   646.745E-03,   463.652E-03,   177.638E-06
C:/temp/dataset/4/6_1.odb,Step-1,Increment      1: Step Time =    1.000,"PART-1-1",           625,      -7.12843,       5.83601,            0.,NA,NA,"",   835.495E-03,   641.064E-03,   535.806E-03,   68.6649E-06
C:/temp/dataset/4/6_1.odb,Step-1,Increment      1: Step Time =    1.000,"PART-1-1",           626,       12.9112,      -8.87192,            0.,NA,NA,"",   218.113E-03,   212.202E-03,  -50.4328E-03,   2.55127E-03
C:/temp/dataset/4/6_1.odb,Step-1,Increment      1: Step Time =    1.000,"PART-1-1",           627,           15.,         -8.75,            0.,NA,NA,"",   236.944E-03,   217.734E-03,  -93.4594E-03,   4.78363E-03
C:/temp/dataset/4/6_1.odb,Step-1,Increment      1: Step Time =    1.000,"PART-1-1",           628,       13.0740,      -16.2399,            0.,NA,NA,"",   95.9364E-03,   89.5236E-03,  -34.4863E-03,   2.75819E-03
C:/temp/dataset/4/6_1.odb,Step-1,Increment      1: Step Time =    1.000,"PART-1-1",           629,           15.,        -16.25,            0.,NA,NA,"",   110.137E-03,   92.5073E-03,  -59.7712E-03,   4.82340E-03
C:/temp/dataset/4/6_1.odb,Step-1,Increment      1: Step Time =    1.000,"PART-1-1",           630,       13.0128,       13.9092,            0.,NA,NA,"",   821.430E-03,   817.565E-03,  -79.5949E-03,   23.5438E-06
C:/temp/dataset/4/6_1.odb,Step-1,Increment      1: Step Time =    1.000,"PART-1-1",           631,           15.,         13.75,            0.,NA,NA,"",   823.401E-03,   812.495E-03,  -133.568E-03,   26.2494E-06
C:/temp/dataset/4/6_1.odb,Step-1,Increment      1: Step Time =    1.000,"PART-1-1",           632,       10.9505,       11.7339,            0.,NA,NA,"",   759.541E-03,   759.203E-03,  -22.6537E-03,   37.2158E-06
C:/temp/dataset/4/6_1.odb,Step-1,Increment      1: Step Time =    1.000,"PART-1-1",           633,       9.98883,       12.9959,            0.,NA,NA,"",   793.836E-03,   793.830E-03,   2.99178E-03,   31.8215E-06
C:/temp/dataset/4/6_1.odb,Step-1,Increment      1: Step Time =    1.000,"PART-1-1",           634,       8.94372,       11.9797,            0.,NA,NA,"",   767.239E-03,   766.580E-03,   31.7874E-03,   38.9450E-06
C:/temp/dataset/4/6_1.odb,Step-1,Increment      1: Step Time =    1.000,"PART-1-1",           635,      -13.9153,       18.9000,            0.,NA,NA,"",       1.32308,       1.08513,   756.997E-03,   125.332E-09
C:/temp/dataset/4/6_1.odb,Step-1,Increment      1: Step Time =    1.000,"PART-1-1",           636,      -12.6393,       19.9841,            0.,NA,NA,"",       1.32868,       1.12092,   713.395E-03,   63.9201E-09
C:/temp/dataset/4/6_1.odb,Step-1,Increment      1: Step Time =    1.000,"PART-1-1",           637,          -15.,       20.1563,            0.,NA,NA,"",       1.37880,       1.12806,   792.825E-03,   207.684E-09
C:/temp/dataset/4/6_1.odb,Step-1,Increment      1: Step Time =    1.000,"PART-1-1",           638,       8.12191,      -21.7795,            0.,NA,NA,"",   36.3694E-03,   31.5179E-03,   18.1481E-03,   2.53808E-03
C:/temp/dataset/4/6_1.odb,Step-1,Increment      1: Step Time =    1.000,"PART-1-1",           639,       8.12482,      -23.8590,            0.,NA,NA,"",   21.8572E-03,   17.2615E-03,   13.4081E-03,   2.55267E-03
C:/temp/dataset/4/6_1.odb,Step-1,Increment      1: Step Time =    1.000,"PART-1-1",           640,       8.11825,      -19.6354,            0.,NA,NA,"",   55.5436E-03,   50.5690E-03,   22.9754E-03,   2.52906E-03
C:/temp/dataset/4/6_1.odb,Step-1,Increment      1: Step Time =    1.000,"PART-1-1",           641,       8.10952,      -17.4508,            0.,NA,NA,"",   79.5842E-03,   74.5303E-03,   27.9083E-03,   2.53370E-03
C:/temp/dataset/4/6_1.odb,Step-1,Increment      1: Step Time =    1.000,"PART-1-1",           642,       7.85781,       23.9076,            0.,NA,NA,"",       1.09261,       1.09113,   56.8023E-03,   98.6930E-09
C:/temp/dataset/4/6_1.odb,Step-1,Increment      1: Step Time =    1.000,"PART-1-1",           643,       7.94870,       21.8524,            0.,NA,NA,"",       1.03672,       1.03525,   55.0912E-03,   300.943E-09
C:/temp/dataset/4/6_1.odb,Step-1,Increment      1: Step Time =    1.000,"PART-1-1",           644,       4.21929,       2.98066,            0.,NA,NA,"",   552.848E-03,   528.304E-03,   162.898E-03,   1.48340E-03
C:/temp/dataset/4/6_1.odb,Step-1,Increment      1: Step Time =    1.000,"PART-1-1",           645,       5.32392,       3.96649,            0.,NA,NA,"",   569.958E-03,   554.633E-03,   131.281E-03,   2.32744E-03
C:/temp/dataset/4/6_1.odb,Step-1,Increment      1: Step Time =    1.000,"PART-1-1",           646,          3.75,            5.,            0.,NA,NA,"",   615.269E-03,   588.926E-03,   178.105E-03,   3.65545E-03
C:/temp/dataset/4/6_1.odb,Step-1,Increment      1: Step Time =    1.000,"PART-1-1",           647,       12.8859,       9.04653,            0.,NA,NA,"",   689.352E-03,   685.329E-03,  -74.3620E-03,   25.3034E-06
C:/temp/dataset/4/6_1.odb,Step-1,Increment      1: Step Time =    1.000,"PART-1-1",           648,           15.,          8.75,            0.,NA,NA,"",   689.143E-03,   676.379E-03,  -132.023E-03,   99.7952E-06
C:/temp/dataset/4/6_1.odb,Step-1,Increment      1: Step Time =    1.000,"PART-1-1",           649,      -8.02807,       9.41948,            0.,NA,NA,"",   948.406E-03,   762.424E-03,   564.077E-03,   23.1812E-06
C:/temp/dataset/4/6_1.odb,Step-1,Increment      1: Step Time =    1.000,"PART-1-1",           650,      -8.84347,       16.8085,            0.,NA,NA,"",       1.16990,       1.01179,   587.321E-03,   1.14546E-06
C:/temp/dataset/4/6_1.odb,Step-1,Increment      1: Step Time =    1.000,"PART-1-1",           651,      -9.78583,       18.0165,            0.,NA,NA,"",       1.22116,       1.05302,   618.381E-03,   388.765E-09
C:/temp/dataset/4/6_1.odb,Step-1,Increment      1: Step Time =    1.000,"PART-1-1",           652,          -15.,       17.9688,            0.,NA,NA,"",       1.31994,       1.05437,   794.067E-03,   212.686E-09
C:/temp/dataset/4/6_1.odb,Step-1,Increment      1: Step Time =    1.000,"PART-1-1",           653,          -15.,       24.5313,            0.,NA,NA,"",       1.50047,       1.27545,   790.341E-03,   40.6017E-09
C:/temp/dataset/4/6_1.odb,Step-1,Increment      1: Step Time =    1.000,"PART-1-1",           654,      -12.9952,       24.7258,            0.,NA,NA,"",       1.47068,       1.28087,   722.691E-03,   44.8766E-09
C:/temp/dataset/4/6_1.odb,Step-1,Increment      1: Step Time =    1.000,"PART-1-1",           655,      -11.4985,       21.8877,            0.,NA,NA,"",       1.36269,       1.18440,   673.883E-03,   78.9417E-09
C:/temp/dataset/4/6_1.odb,Step-1,Increment      1: Step Time =    1.000,"PART-1-1",           656,      -11.4490,       20.6565,            0.,NA,NA,"",       1.32628,       1.14290,   672.912E-03,   87.9716E-09
C:/temp/dataset/4/6_1.odb,Step-1,Increment      1: Step Time =    1.000,"PART-1-1",           657,      -10.1446,       20.7260,            0.,NA,NA,"",       1.30592,       1.14450,   628.931E-03,   96.0846E-09
C:/temp/dataset/4/6_1.odb,Step-1,Increment      1: Step Time =    1.000,"PART-1-1",           658,      -7.69218,       19.6350,            0.,NA,NA,"",       1.23416,       1.10635,   546.931E-03,   73.5938E-09
C:/temp/dataset/4/6_1.odb,Step-1,Increment      1: Step Time =    1.000,"PART-1-1",           659,      -8.68744,       18.7463,            0.,NA,NA,"",       1.22369,       1.07698,   580.964E-03,   268.497E-09
C:/temp/dataset/4/6_1.odb,Step-1,Increment      1: Step Time =    1.000,"PART-1-1",           660,      -7.82721,       17.7030,            0.,NA,NA,"",       1.17887,       1.04135,   552.577E-03,   374.418E-09
C:/temp/dataset/4/6_1.odb,Step-1,Increment      1: Step Time =    1.000,"PART-1-1",           661,      -9.52114,       19.8817,            0.,NA,NA,"",       1.27081,       1.11570,   608.406E-03,   111.880E-09
C:/temp/dataset/4/6_1.odb,Step-1,Increment      1: Step Time =    1.000,"PART-1-1",           662,      -10.6195,       19.1519,            0.,NA,NA,"",       1.26846,       1.09174,   645.823E-03,   208.214E-09
C:/temp/dataset/4/6_1.odb,Step-1,Increment      1: Step Time =    1.000,"PART-1-1",           663,      -12.1485,       3.78191,            0.,NA,NA,"",   910.614E-03,   575.016E-03,   706.098E-03,   27.6924E-06
C:/temp/dataset/4/6_1.odb,Step-1,Increment      1: Step Time =    1.000,"PART-1-1",           664,      -10.9850,       2.86362,            0.,NA,NA,"",   860.879E-03,   543.582E-03,   667.556E-03,   110.941E-06
C:/temp/dataset/4/6_1.odb,Step-1,Increment      1: Step Time =    1.000,"PART-1-1",           665,      -9.06958,       8.49577,            0.,NA,NA,"",   946.214E-03,   731.880E-03,   599.726E-03,   30.3417E-06
C:/temp/dataset/4/6_1.odb,Step-1,Increment      1: Step Time =    1.000,"PART-1-1",           666,      -8.08215,       7.28595,            0.,NA,NA,"",   893.618E-03,   690.570E-03,   567.156E-03,   38.3378E-06
C:/temp/dataset/4/6_1.odb,Step-1,Increment      1: Step Time =    1.000,"PART-1-1",           667,      -10.1292,       7.60955,            0.,NA,NA,"",   947.672E-03,   702.607E-03,   635.944E-03,   26.5981E-06
C:/temp/dataset/4/6_1.odb,Step-1,Increment      1: Step Time =    1.000,"PART-1-1",           668,      -11.2104,       6.77234,            0.,NA,NA,"",   953.071E-03,   675.020E-03,   672.825E-03,   23.2642E-06
C:/temp/dataset/4/6_1.odb,Step-1,Increment      1: Step Time =    1.000,"PART-1-1",           669,      -10.2942,       5.63122,            0.,NA,NA,"",   904.228E-03,   636.093E-03,   642.662E-03,   35.0992E-06
C:/temp/dataset/4/6_1.odb,Step-1,Increment      1: Step Time =    1.000,"PART-1-1",           670,      -9.21309,       6.46842,            0.,NA,NA,"",   898.543E-03,   663.654E-03,   605.758E-03,   33.2566E-06
C:/temp/dataset/4/6_1.odb,Step-1,Increment      1: Step Time =    1.000,"PART-1-1",           671,        -11.25,           -5.,            0.,NA,NA,"",   737.687E-03,   281.897E-03,   681.701E-03,   114.319E-06
C:/temp/dataset/4/6_1.odb,Step-1,Increment      1: Step Time =    1.000,"PART-1-1",           672,      -10.0273,      -3.93877,            0.,NA,NA,"",   714.817E-03,   316.229E-03,   641.064E-03,   543.473E-06
C:/temp/dataset/4/6_1.odb,Step-1,Increment      1: Step Time =    1.000,"PART-1-1",           673,         -8.75,           -5.,            0.,NA,NA,"",   662.832E-03,   280.764E-03,   600.432E-03,   831.029E-06
C:/temp/dataset/4/6_1.odb,Step-1,Increment      1: Step Time =    1.000,"PART-1-1",           674,      -7.59562,      -4.02918,            0.,NA,NA,"",   641.696E-03,   312.800E-03,   560.295E-03,   1.06273E-03
C:/temp/dataset/4/6_1.odb,Step-1,Increment      1: Step Time =    1.000,"PART-1-1",           675,      -8.87289,      -2.96795,            0.,NA,NA,"",   695.296E-03,   348.325E-03,   601.752E-03,   832.894E-06
C:/temp/dataset/4/6_1.odb,Step-1,Increment      1: Step Time =    1.000,"PART-1-1",           676,         -6.25,           -5.,            0.,NA,NA,"",   586.633E-03,   279.548E-03,   515.743E-03,   951.032E-06
C:/temp/dataset/4/6_1.odb,Step-1,Increment      1: Step Time =    1.000,"PART-1-1",           677,      -5.03874,      -3.83161,            0.,NA,NA,"",   569.777E-03,   319.573E-03,   471.719E-03,   1.17948E-03
C:/temp/dataset/4/6_1.odb,Step-1,Increment      1: Step Time =    1.000,"PART-1-1",           678,      -6.38435,      -2.86079,            0.,NA,NA,"",   625.497E-03,   351.892E-03,   517.125E-03,   1.29159E-03
C:/temp/dataset/4/6_1.odb,Step-1,Increment      1: Step Time =    1.000,"PART-1-1",           679,      -8.31216,       1.98044,            0.,NA,NA,"",   772.553E-03,   512.624E-03,   577.975E-03,   435.285E-06
C:/temp/dataset/4/6_1.odb,Step-1,Increment      1: Step Time =    1.000,"PART-1-1",           680,      -6.89941,       1.67561,            0.,NA,NA,"",   729.907E-03,   501.686E-03,   530.166E-03,   676.240E-06
C:/temp/dataset/4/6_1.odb,Step-1,Increment      1: Step Time =    1.000,"PART-1-1",           681,      -8.02347,       3.70061,            0.,NA,NA,"",   803.996E-03,   569.846E-03,   567.173E-03,   241.783E-06
C:/temp/dataset/4/6_1.odb,Step-1,Increment      1: Step Time =    1.000,"PART-1-1",           682,      -9.78636,       2.36681,            0.,NA,NA,"",   819.018E-03,   526.307E-03,   627.529E-03,   211.112E-06
C:/temp/dataset/4/6_1.odb,Step-1,Increment      1: Step Time =    1.000,"PART-1-1",           683,      -8.80920,   354.969E-03,            0.,NA,NA,"",   752.198E-03,   458.821E-03,   596.057E-03,   479.422E-06
C:/temp/dataset/4/6_1.odb,Step-1,Increment      1: Step Time =    1.000,"PART-1-1",           684,         -3.75,           -5.,            0.,NA,NA,"",   511.339E-03,   279.834E-03,   427.972E-03,   1.21296E-03
C:/temp/dataset/4/6_1.odb,Step-1,Increment      1: Step Time =    1.000,"PART-1-1",           685,          3.75,           -5.,            0.,NA,NA,"",   340.390E-03,   290.473E-03,   177.457E-03,   4.69202E-03
C:/temp/dataset/4/6_1.odb,Step-1,Increment      1: Step Time =    1.000,"PART-1-1",           686,       4.46580,      -3.87501,            0.,NA,NA,"",   359.888E-03,   326.702E-03,   150.946E-03,   4.50546E-03
C:/temp/dataset/4/6_1.odb,Step-1,Increment      1: Step Time =    1.000,"PART-1-1",           687,       2.90021,      -2.90757,            0.,NA,NA,"",   407.903E-03,   354.057E-03,   202.554E-03,   1.90625E-03
C:/temp/dataset/4/6_1.odb,Step-1,Increment      1: Step Time =    1.000,"PART-1-1",           688,       11.1618,       2.81075,            0.,NA,NA,"",   513.840E-03,   513.199E-03,  -25.6685E-03,   1.29804E-03
C:/temp/dataset/4/6_1.odb,Step-1,Increment      1: Step Time =    1.000,"PART-1-1",           689,       10.1850,       1.50626,            0.,NA,NA,"",   476.733E-03,   476.733E-03,   152.791E-06,   1.81286E-03
C:/temp/dataset/4/6_1.odb,Step-1,Increment      1: Step Time =    1.000,"PART-1-1",           690,       11.6421,   144.368E-03,            0.,NA,NA,"",   438.663E-03,   437.115E-03,  -36.8205E-03,   1.83332E-03
C:/temp/dataset/4/6_1.odb,Step-1,Increment      1: Step Time =    1.000,"PART-1-1",           691,         11.25,           30.,            0.,NA,NA,"",       1.25600,       1.25544,  -37.6295E-03,   61.7368E-09
C:/temp/dataset/4/6_1.odb,Step-1,Increment      1: Step Time =    1.000,"PART-1-1",           692,       9.19768,       26.3844,            0.,NA,NA,"",       1.15811,       1.15795,   19.4769E-03,   95.3755E-09
C:/temp/dataset/4/6_1.odb,Step-1,Increment      1: Step Time =    1.000,"PART-1-1",           693,       7.72138,       25.7435,            0.,NA,NA,"",       1.14264,       1.14107,   59.8317E-03,   108.525E-09
C:/temp/dataset/4/6_1.odb,Step-1,Increment      1: Step Time =    1.000,"PART-1-1",           694,       9.17897,      -24.8987,            0.,NA,NA,"",   12.2655E-03,   10.7036E-03,   5.98972E-03,   1.43554E-03
C:/temp/dataset/4/6_1.odb,Step-1,Increment      1: Step Time =    1.000,"PART-1-1",           695,       9.00589,       18.6572,            0.,NA,NA,"",   948.429E-03,   948.029E-03,   27.5450E-03,   4.17307E-06
C:/temp/dataset/4/6_1.odb,Step-1,Increment      1: Step Time =    1.000,"PART-1-1",           696,       7.99757,       19.7140,            0.,NA,NA,"",   978.641E-03,   977.119E-03,   54.5536E-03,   1.57791E-06
C:/temp/dataset/4/6_1.odb,Step-1,Increment      1: Step Time =    1.000,"PART-1-1",           697,      -12.2498,       25.7751,            0.,NA,NA,"",       1.48899,       1.31579,   696.984E-03,   30.6819E-09
C:/temp/dataset/4/6_1.odb,Step-1,Increment      1: Step Time =    1.000,"PART-1-1",           698,      -11.9888,       23.9538,            0.,NA,NA,"",       1.43118,       1.25429,   689.225E-03,   53.7299E-09
C:/temp/dataset/4/6_1.odb,Step-1,Increment      1: Step Time =    1.000,"PART-1-1",           699,      -1.59164,      -1.60220,            0.,NA,NA,"",   526.838E-03,   392.976E-03,   350.896E-03,   1.30599E-03
C:/temp/dataset/4/6_1.odb,Step-1,Increment      1: Step Time =    1.000,"PART-1-1",           700,      -1.34014,  -343.401E-03,            0.,NA,NA,"",   551.490E-03,   433.034E-03,   341.501E-03,   1.30289E-03
C:/temp/dataset/4/6_1.odb,Step-1,Increment      1: Step Time =    1.000,"PART-1-1",           701,      -2.70787,  -93.9540E-03,            0.,NA,NA,"",   587.721E-03,   441.619E-03,   387.800E-03,   1.32182E-03
C:/temp/dataset/4/6_1.odb,Step-1,Increment      1: Step Time =    1.000,"PART-1-1",           702,       8.06015,      -13.0184,            0.,NA,NA,"",   142.465E-03,   137.206E-03,   38.3504E-03,   2.58954E-03
C:/temp/dataset/4/6_1.odb,Step-1,Increment      1: Step Time =    1.000,"PART-1-1",           703,       7.99745,      -10.7906,            0.,NA,NA,"",   181.226E-03,   175.719E-03,   44.3358E-03,   2.63768E-03
C:/temp/dataset/4/6_1.odb,Step-1,Increment      1: Step Time =    1.000,"PART-1-1",           704,           15.,        -26.25,            0.,NA,NA,"",   18.6124E-03,   9.65624E-03,  -15.9116E-03,   4.85873E-03
C:/temp/dataset/4/6_1.odb,Step-1,Increment      1: Step Time =    1.000,"PART-1-1",           705,       13.9776,      -24.8045,            0.,NA,NA,"",   21.9640E-03,   13.7169E-03,  -17.1541E-03,   3.78149E-03
C:/temp/dataset/4/6_1.odb,Step-1,Increment      1: Step Time =    1.000,"PART-1-1",           706,       12.6094,      -25.9010,            0.,NA,NA,"",   10.7471E-03,   7.05126E-03,  -8.11048E-03,   2.34048E-03
C:/temp/dataset/4/6_1.odb,Step-1,Increment      1: Step Time =    1.000,"PART-1-1",           707,       12.0224,      -24.3398,            0.,NA,NA,"",   16.0198E-03,   13.6932E-03,  -8.31457E-03,   1.70193E-03
C:/temp/dataset/4/6_1.odb,Step-1,Increment      1: Step Time =    1.000,"PART-1-1",           708,       13.0263,      -23.4242,            0.,NA,NA,"",   25.5472E-03,   19.9746E-03,  -15.9271E-03,   2.75902E-03
C:/temp/dataset/4/6_1.odb,Step-1,Increment      1: Step Time =    1.000,"PART-1-1",           709,       12.1300,      -22.1112,            0.,NA,NA,"",   30.7606E-03,   28.1075E-03,  -12.4974E-03,   1.76764E-03
C:/temp/dataset/4/6_1.odb,Step-1,Increment      1: Step Time =    1.000,"PART-1-1",           710,           15.,        -23.75,            0.,NA,NA,"",   34.2567E-03,   21.3564E-03,  -26.7848E-03,   4.85338E-03
C:/temp/dataset/4/6_1.odb,Step-1,Increment      1: Step Time =    1.000,"PART-1-1",           711,       10.9035,      -9.09896,            0.,NA,NA,"",   206.662E-03,   206.428E-03,  -9.83822E-03,   612.171E-06
C:/temp/dataset/4/6_1.odb,Step-1,Increment      1: Step Time =    1.000,"PART-1-1",           712,       9.82794,      -8.10226,            0.,NA,NA,"",   227.200E-03,   226.894E-03,   11.7800E-03,   527.627E-06
C:/temp/dataset/4/6_1.odb,Step-1,Increment      1: Step Time =    1.000,"PART-1-1",           713,       8.90728,      -9.48784,            0.,NA,NA,"",   201.496E-03,   199.338E-03,   29.4138E-03,   1.56201E-03
C:/temp/dataset/4/6_1.odb,Step-1,Increment      1: Step Time =    1.000,"PART-1-1",           714,           15.,         -1.25,            0.,NA,NA,"",   417.550E-03,   399.169E-03,  -122.523E-03,   2.45568E-03
C:/temp/dataset/4/6_1.odb,Step-1,Increment      1: Step Time =    1.000,"PART-1-1",           715,       12.7555,      -1.12336,            0.,NA,NA,"",   406.599E-03,   401.560E-03,  -63.8113E-03,   1.95406E-03
C:/temp/dataset/4/6_1.odb,Step-1,Increment      1: Step Time =    1.000,"PART-1-1",           716,       11.5680,       5.48707,            0.,NA,NA,"",   589.260E-03,   588.081E-03,  -37.2535E-03,   492.465E-06
C:/temp/dataset/4/6_1.odb,Step-1,Increment      1: Step Time =    1.000,"PART-1-1",           717,       10.1222,       4.29256,            0.,NA,NA,"",   555.894E-03,   555.891E-03,   1.81886E-03,   1.07762E-03
C:/temp/dataset/4/6_1.odb,Step-1,Increment      1: Step Time =    1.000,"PART-1-1",           718,       8.27918,   509.070E-03,            0.,NA,NA,"",   452.577E-03,   449.869E-03,   49.4354E-03,   2.13537E-03
C:/temp/dataset/4/6_1.odb,Step-1,Increment      1: Step Time =    1.000,"PART-1-1",           719,       9.70893,  -124.236E-03,            0.,NA,NA,"",   430.506E-03,   430.325E-03,   12.5077E-03,   2.13338E-03
C:/temp/dataset/4/6_1.odb,Step-1,Increment      1: Step Time =    1.000,"PART-1-1",           720,       8.75521,       2.13956,            0.,NA,NA,"",   497.809E-03,   496.385E-03,   37.6290E-03,   1.89010E-03
C:/temp/dataset/4/6_1.odb,Step-1,Increment      1: Step Time =    1.000,"PART-1-1",           721,       6.99874,       4.90963,            0.,NA,NA,"",   583.461E-03,   577.055E-03,   86.2284E-03,   1.52813E-03
C:/temp/dataset/4/6_1.odb,Step-1,Increment      1: Step Time =    1.000,"PART-1-1",           722,       8.01086,       5.41567,            0.,NA,NA,"",   592.292E-03,   589.357E-03,   58.8898E-03,   1.06739E-03
C:/temp/dataset/4/6_1.odb,Step-1,Increment      1: Step Time =    1.000,"PART-1-1",           723,       11.8045,       7.99587,            0.,NA,NA,"",   658.563E-03,   657.059E-03,  -44.4840E-03,   93.4478E-06
C:/temp/dataset/4/6_1.odb,Step-1,Increment      1: Step Time =    1.000,"PART-1-1",           724,       7.91904,       10.9856,            0.,NA,NA,"",   742.368E-03,   739.940E-03,   59.9855E-03,   42.0411E-06
C:/temp/dataset/4/6_1.odb,Step-1,Increment      1: Step Time =    1.000,"PART-1-1",           725,       11.0233,       18.7016,            0.,NA,NA,"",   948.890E-03,   948.497E-03,  -27.2953E-03,   4.07403E-06
C:/temp/dataset/4/6_1.odb,Step-1,Increment      1: Step Time =    1.000,"PART-1-1",           726,       10.0074,       19.8076,            0.,NA,NA,"",   978.924E-03,   978.924E-03,  -98.3119E-06,   1.71675E-06
C:/temp/dataset/4/6_1.odb,Step-1,Increment      1: Step Time =    1.000,"PART-1-1",           727,       10.9673,       21.0105,            0.,NA,NA,"",       1.01161,       1.01126,  -26.6269E-03,   1.04125E-06
C:/temp/dataset/4/6_1.odb,Step-1,Increment      1: Step Time =    1.000,"PART-1-1",           728,       8.97465,       20.8454,            0.,NA,NA,"",       1.00788,       1.00751,   27.5835E-03,   1.15973E-06
C:/temp/dataset/4/6_1.odb,Step-1,Increment      1: Step Time =    1.000,"PART-1-1",           729,       8.66510,       24.8184,            0.,NA,NA,"",       1.11612,       1.11559,   34.5279E-03,   106.177E-09
C:/temp/dataset/4/6_1.odb,Step-1,Increment      1: Step Time =    1.000,"PART-1-1",           730,       7.98376,       13.1681,            0.,NA,NA,"",   801.268E-03,   799.210E-03,   57.3791E-03,   28.8592E-06
C:/temp/dataset/4/6_1.odb,Step-1,Increment      1: Step Time =    1.000,"PART-1-1",           731,      -1.95806,       1.80915,            0.,NA,NA,"",   618.536E-03,   501.930E-03,   361.460E-03,   1.28759E-03
C:/temp/dataset/4/6_1.odb,Step-1,Increment      1: Step Time =    1.000,"PART-1-1",           732,  -613.587E-03,   828.335E-03,            0.,NA,NA,"",   566.287E-03,   469.545E-03,   316.558E-03,   1.35598E-03
C:/temp/dataset/4/6_1.odb,Step-1,Increment      1: Step Time =    1.000,"PART-1-1",           733,   461.223E-03,       1.99751,            0.,NA,NA,"",   577.712E-03,   504.902E-03,   280.758E-03,   1.47536E-03
C:/temp/dataset/4/6_1.odb,Step-1,Increment      1: Step Time =    1.000,"PART-1-1",           734,       1.74006,       1.04512,            0.,NA,NA,"",   530.997E-03,   474.028E-03,   239.280E-03,   1.24367E-03
C:/temp/dataset/4/6_1.odb,Step-1,Increment      1: Step Time =    1.000,"PART-1-1",           735,   906.022E-03,  -39.5003E-03,            0.,NA,NA,"",   515.699E-03,   441.487E-03,   266.525E-03,   1.29892E-03
C:/temp/dataset/4/6_1.odb,Step-1,Increment      1: Step Time =    1.000,"PART-1-1",           736,       2.15034,  -968.542E-03,            0.,NA,NA,"",   470.524E-03,   412.492E-03,   226.370E-03,   1.31200E-03
C:/temp/dataset/4/6_1.odb,Step-1,Increment      1: Step Time =    1.000,"PART-1-1",           737,       2.98438,   116.081E-03,            0.,NA,NA,"",   487.546E-03,   444.736E-03,   199.778E-03,   1.08920E-03
C:/temp/dataset/4/6_1.odb,Step-1,Increment      1: Step Time =    1.000,"PART-1-1",           738,      -8.25937,       5.01848,            0.,NA,NA,"",   841.002E-03,   614.256E-03,   574.433E-03,   123.179E-06
C:/temp/dataset/4/6_1.odb,Step-1,Increment      1: Step Time =    1.000,"PART-1-1",           739,      -2.78312,       1.01462,            0.,NA,NA,"",   616.156E-03,   477.221E-03,   389.754E-03,   1.29181E-03
C:/temp/dataset/4/6_1.odb,Step-1,Increment      1: Step Time =    1.000,"PART-1-1",           740,      -4.31499,   913.536E-03,            0.,NA,NA,"",   649.005E-03,   475.060E-03,   442.182E-03,   1.18724E-03
C:/temp/dataset/4/6_1.odb,Step-1,Increment      1: Step Time =    1.000,"PART-1-1",           741,      -4.23975,  -195.042E-03,            0.,NA,NA,"",   621.828E-03,   439.044E-03,   440.353E-03,   1.26087E-03
C:/temp/dataset/4/6_1.odb,Step-1,Increment      1: Step Time =    1.000,"PART-1-1",           742,      -8.52646,       20.5688,            0.,NA,NA,"",       1.27505,       1.13829,   574.507E-03,   86.2719E-09
C:/temp/dataset/4/6_1.odb,Step-1,Increment      1: Step Time =    1.000,"PART-1-1",           743,       8.09873,      -15.2435,            0.,NA,NA,"",   108.495E-03,   103.388E-03,   32.8967E-03,   2.54465E-03
C:/temp/dataset/4/6_1.odb,Step-1,Increment      1: Step Time =    1.000,"PART-1-1",           744,       8.99676,       14.2096,            0.,NA,NA,"",   827.684E-03,   827.159E-03,   29.4713E-03,   25.4074E-06
C:/temp/dataset/4/6_1.odb,Step-1,Increment      1: Step Time =    1.000,"PART-1-1",           745,       11.0169,       14.0599,            0.,NA,NA,"",   822.771E-03,   822.380E-03,  -25.3718E-03,   25.3006E-06
C:/temp/dataset/4/6_1.odb,Step-1,Increment      1: Step Time =    1.000,"PART-1-1",           746,      -7.91902,       15.6847,            0.,NA,NA,"",       1.12141,   973.407E-03,   556.816E-03,   1.55517E-06
C:/temp/dataset/4/6_1.odb,Step-1,Increment      1: Step Time =    1.000,"PART-1-1",           747,      -11.9968,       14.1876,            0.,NA,NA,"",       1.15725,   925.276E-03,   695.040E-03,   3.49005E-06
C:/temp/dataset/4/6_1.odb,Step-1,Increment      1: Step Time =    1.000,"PART-1-1",           748,      -11.1175,       8.79310,            0.,NA,NA,"",   999.510E-03,   743.029E-03,   668.527E-03,   23.2226E-06
C:/temp/dataset/4/6_1.odb,Step-1,Increment      1: Step Time =    1.000,"PART-1-1",           749,       10.6592,      -6.44981,            0.,NA,NA,"",   263.435E-03,   263.351E-03,  -6.67225E-03,   1.02418E-03
C:/temp/dataset/4/6_1.odb,Step-1,Increment      1: Step Time =    1.000,"PART-1-1",           750,      -10.7894,       23.3985,            0.,NA,NA,"",       1.39512,       1.23490,   649.136E-03,   72.9604E-09
C:/temp/dataset/4/6_1.odb,Step-1,Increment      1: Step Time =    1.000,"PART-1-1",           751,       10.0228,      -25.8019,            0.,NA,NA,"",   6.54461E-03,   6.34601E-03,   1.60005E-03,   479.402E-06
C:/temp/dataset/4/6_1.odb,Step-1,Increment      1: Step Time =    1.000,"PART-1-1",           752,       10.9542,      -24.8826,            0.,NA,NA,"",   10.6769E-03,   10.4011E-03,  -2.41125E-03,   522.711E-06
C:/temp/dataset/4/6_1.odb,Step-1,Increment      1: Step Time =    1.000,"PART-1-1",           753,       11.8371,      -2.37854,            0.,NA,NA,"",   368.928E-03,   366.856E-03,  -39.0498E-03,   2.05408E-03
C:/temp/dataset/4/6_1.odb,Step-1,Increment      1: Step Time =    1.000,"PART-1-1",           754,       11.6235,      -5.02753,            0.,NA,NA,"",   299.335E-03,   297.816E-03,  -30.1223E-03,   1.79904E-03
C:/temp/dataset/4/6_1.odb,Step-1,Increment      1: Step Time =    1.000,"PART-1-1",           755,      -12.1333,       7.86930,            0.,NA,NA,"",       1.00109,   712.479E-03,   703.247E-03,   21.7661E-06
C:/temp/dataset/4/6_1.odb,Step-1,Increment      1: Step Time =    1.000,"PART-1-1",           756,      -12.0768,       9.95169,            0.,NA,NA,"",       1.05009,   782.601E-03,   700.154E-03,   16.7342E-06
C:/temp/dataset/4/6_1.odb,Step-1,Increment      1: Step Time =    1.000,"PART-1-1",           757,       8.68743,       3.64563,            0.,NA,NA,"",   540.892E-03,   539.408E-03,   40.0456E-03,   1.52184E-03
C:/temp/dataset/4/6_1.odb,Step-1,Increment      1: Step Time =    1.000,"PART-1-1",           758,       6.61848,       3.66599,            0.,NA,NA,"",   551.850E-03,   543.484E-03,   95.7261E-03,   1.84680E-03
C:/temp/dataset/4/6_1.odb,Step-1,Increment      1: Step Time =    1.000,"PART-1-1",           759,       4.71579,   65.6079E-03,            0.,NA,NA,"",   465.308E-03,   441.428E-03,   147.151E-03,   1.23027E-03
C:/temp/dataset/4/6_1.odb,Step-1,Increment      1: Step Time =    1.000,"PART-1-1",           760,       3.89104,   957.250E-03,            0.,NA,NA,"",   499.490E-03,   468.876E-03,   172.180E-03,   1.01774E-03
C:/temp/dataset/4/6_1.odb,Step-1,Increment      1: Step Time =    1.000,"PART-1-1",           761,      -12.0363,       12.0623,            0.,NA,NA,"",       1.10246,   853.693E-03,   697.583E-03,   8.75469E-06
C:/temp/dataset/4/6_1.odb,Step-1,Increment      1: Step Time =    1.000,"PART-1-1",           762,      -12.1964,       5.82098,            0.,NA,NA,"",   955.704E-03,   643.561E-03,   706.539E-03,   13.6053E-06
C:/temp/dataset/4/6_1.odb,Step-1,Increment      1: Step Time =    1.000,"PART-1-1",           763,      -11.2570,       4.81016,            0.,NA,NA,"",   909.548E-03,   609.042E-03,   675.534E-03,   34.5054E-06
C:/temp/dataset/4/6_1.odb,Step-1,Increment      1: Step Time =    1.000,"PART-1-1",           764,      -10.5260,       3.94381,            0.,NA,NA,"",   871.926E-03,   579.535E-03,   651.455E-03,   78.2023E-06
C:/temp/dataset/4/6_1.odb,Step-1,Increment      1: Step Time =    1.000,"PART-1-1",           765,      -9.56326,       4.76486,            0.,NA,NA,"",   866.310E-03,   606.537E-03,   618.551E-03,   75.8522E-06
C:/temp/dataset/4/6_1.odb,Step-1,Increment      1: Step Time =    1.000,"PART-1-1",           766,      -9.32737,       3.44699,            0.,NA,NA,"",   830.553E-03,   562.177E-03,   611.373E-03,   181.160E-06
C:/temp/dataset/4/6_1.odb,Step-1,Increment      1: Step Time =    1.000,"PART-1-1",           767,       11.5413,      -26.4438,            0.,NA,NA,"",   5.61428E-03,   4.32832E-03,  -3.57572E-03,   1.19034E-03
C:/temp/dataset/4/6_1.odb,Step-1,Increment      1: Step Time =    1.000,"PART-1-1",           768,       5.97241,      -3.36228,            0.,NA,NA,"",   356.956E-03,   340.575E-03,   106.893E-03,   2.64671E-03
C:/temp/dataset/4/6_1.odb,Step-1,Increment      1: Step Time =    1.000,"PART-1-1",           769,       11.9304,       22.2704,            0.,NA,NA,"",       1.04650,       1.04514,  -53.2641E-03,   202.953E-09
C:/temp/dataset/4/6_1.odb,Step-1,Increment      1: Step Time =    1.000,"PART-1-1",           770,      -3.95064,       2.12654,            0.,NA,NA,"",   669.752E-03,   514.227E-03,   429.113E-03,   1.10076E-03
C:/temp/dataset/4/6_1.odb,Step-1,Increment      1: Step Time =    1.000,"PART-1-1",           771,       12.1361,      -19.7979,            0.,NA,NA,"",   50.7308E-03,   48.0369E-03,  -16.3116E-03,   1.76643E-03
C:/temp/dataset/4/6_1.odb,Step-1,Increment      1: Step Time =    1.000,"PART-1-1",           772,       12.1156,      -17.4436,            0.,NA,NA,"",   76.2059E-03,   73.5535E-03,  -19.9302E-03,   1.73504E-03
C:/temp/dataset/4/6_1.odb,Step-1,Increment      1: Step Time =    1.000,"PART-1-1",           773,       11.8489,      -7.73518,            0.,NA,NA,"",   237.253E-03,   235.243E-03,  -30.8171E-03,   1.58525E-03
C:/temp/dataset/4/6_1.odb,Step-1,Increment      1: Step Time =    1.000,"PART-1-1",           774,       11.9658,      -10.2357,            0.,NA,NA,"",   186.920E-03,   184.635E-03,  -29.1431E-03,   1.57661E-03
C:/temp/dataset/4/6_1.odb,Step-1,Increment      1: Step Time =    1.000,"PART-1-1",           775,       10.7237,      -1.11081,            0.,NA,NA,"",   402.079E-03,   401.878E-03,  -12.7321E-03,   2.05119E-03
C:/temp/dataset/4/6_1.odb,Step-1,Increment      1: Step Time =    1.000,"PART-1-1",           776,       11.9194,       10.4262,            0.,NA,NA,"",   724.919E-03,   723.294E-03,  -48.5204E-03,   35.2885E-06
C:/temp/dataset/4/6_1.odb,Step-1,Increment      1: Step Time =    1.000,"PART-1-1",           777,       11.9945,       12.8006,            0.,NA,NA,"",   789.497E-03,   787.817E-03,  -51.4779E-03,   29.6481E-06
C:/temp/dataset/4/6_1.odb,Step-1,Increment      1: Step Time =    1.000,"PART-1-1",           778,       12.0317,      -12.6649,            0.,NA,NA,"",   144.034E-03,   141.587E-03,  -26.4367E-03,   1.62780E-03
C:/temp/dataset/4/6_1.odb,Step-1,Increment      1: Step Time =    1.000,"PART-1-1",           779,       12.0352,       15.1685,            0.,NA,NA,"",   853.808E-03,   852.132E-03,  -53.4790E-03,   14.6469E-06
C:/temp/dataset/4/6_1.odb,Step-1,Increment      1: Step Time =    1.000,"PART-1-1",           780,      -7.80161,      -2.23284,            0.,NA,NA,"",   676.669E-03,   372.729E-03,   564.760E-03,   994.283E-06
C:/temp/dataset/4/6_1.odb,Step-1,Increment      1: Step Time =    1.000,"PART-1-1",           781,      -8.87876,  -905.543E-03,            0.,NA,NA,"",   730.322E-03,   416.962E-03,   599.594E-03,   644.562E-06
C:/temp/dataset/4/6_1.odb,Step-1,Increment      1: Step Time =    1.000,"PART-1-1",           782,      -7.16649,      -1.00336,            0.,NA,NA,"",   681.364E-03,   413.394E-03,   541.629E-03,   952.194E-06
C:/temp/dataset/4/6_1.odb,Step-1,Increment      1: Step Time =    1.000,"PART-1-1",           783,      -7.09692,   257.153E-03,            0.,NA,NA,"",   704.577E-03,   454.962E-03,   537.995E-03,   833.444E-06
C:/temp/dataset/4/6_1.odb,Step-1,Increment      1: Step Time =    1.000,"PART-1-1",           784,      -5.74923,      -1.63131,            0.,NA,NA,"",   630.728E-03,   392.526E-03,   493.701E-03,   1.22730E-03
C:/temp/dataset/4/6_1.odb,Step-1,Increment      1: Step Time =    1.000,"PART-1-1",           785,      -5.66693,  -67.3201E-03,            0.,NA,NA,"",   660.576E-03,   443.770E-03,   489.315E-03,   1.11186E-03
C:/temp/dataset/4/6_1.odb,Step-1,Increment      1: Step Time =    1.000,"PART-1-1",           786,      -5.46941,       1.35113,            0.,NA,NA,"",   687.042E-03,   490.099E-03,   481.488E-03,   978.205E-06
C:/temp/dataset/4/6_1.odb,Step-1,Increment      1: Step Time =    1.000,"PART-1-1",           787,       12.0849,      -15.0650,            0.,NA,NA,"",   107.276E-03,   104.694E-03,  -23.3944E-03,   1.69219E-03
C:/temp/dataset/4/6_1.odb,Step-1,Increment      1: Step Time =    1.000,"PART-1-1",           788,       7.01212,      -4.44648,            0.,NA,NA,"",   320.777E-03,   311.067E-03,   78.3266E-03,   2.25549E-03
C:/temp/dataset/4/6_1.odb,Step-1,Increment      1: Step Time =    1.000,"PART-1-1",           789,       7.64174,      -3.33281,            0.,NA,NA,"",   346.699E-03,   340.800E-03,   63.6804E-03,   2.08162E-03
C:/temp/dataset/4/6_1.odb,Step-1,Increment      1: Step Time =    1.000,"PART-1-1",           790,       6.60203,      -2.24861,            0.,NA,NA,"",   382.851E-03,   371.752E-03,   91.5175E-03,   2.18863E-03
C:/temp/dataset/4/6_1.odb,Step-1,Increment      1: Step Time =    1.000,"PART-1-1",           791,       6.68626,       2.15992,            0.,NA,NA,"",   508.628E-03,   500.068E-03,   92.9227E-03,   1.92769E-03
C:/temp/dataset/4/6_1.odb,Step-1,Increment      1: Step Time =    1.000,"PART-1-1",           792,       12.0103,       19.9021,            0.,NA,NA,"",   982.272E-03,   980.755E-03,  -54.5609E-03,   1.36996E-06
C:/temp/dataset/4/6_1.odb,Step-1,Increment      1: Step Time =    1.000,"PART-1-1",           793,       12.0305,       17.5416,            0.,NA,NA,"",   918.211E-03,   916.608E-03,  -54.2368E-03,   5.25242E-06
C:/temp/dataset/4/6_1.odb,Step-1,Increment      1: Step Time =    1.000,"PART-1-1",           794,       6.09271,      -1.14349,            0.,NA,NA,"",   418.183E-03,   404.331E-03,   106.741E-03,   1.86955E-03
C:/temp/dataset/4/6_1.odb,Step-1,Increment      1: Step Time =    1.000,"PART-1-1",           795,       7.56053,      -1.65505,            0.,NA,NA,"",   393.744E-03,   388.021E-03,   66.8891E-03,   2.24441E-03
C:/temp/dataset/4/6_1.odb,Step-1,Increment      1: Step Time =    1.000,"PART-1-1",           796,       7.05122,  -549.935E-03,            0.,NA,NA,"",   428.280E-03,   420.514E-03,   81.1884E-03,   2.06311E-03
C:/temp/dataset/4/6_1.odb,Step-1,Increment      1: Step Time =    1.000,"PART-1-1",           797,       5.28588,       1.87348,            0.,NA,NA,"",   511.244E-03,   493.992E-03,   131.692E-03,   1.45247E-03
C:/temp/dataset/4/6_1.odb,Step-1,Increment      1: Step Time =    1.000,"PART-1-1",           798,       5.70847,   325.226E-03,            0.,NA,NA,"",   463.286E-03,   447.807E-03,   118.755E-03,   1.55474E-03
C:/temp/dataset/4/6_1.odb,Step-1,Increment      1: Step Time =    1.000,"PART-1-1",           799,       7.10885,   611.668E-03,            0.,NA,NA,"",   461.375E-03,   454.300E-03,   80.4844E-03,   1.97604E-03
C:/temp/dataset/4/6_1.odb,Step-1,Increment      1: Step Time =    1.000,"PART-1-1",           800,       9.00326,      -1.31280,            0.,NA,NA,"",   397.980E-03,   396.825E-03,   30.3014E-03,   2.19296E-03
C:/temp/dataset/4/6_1.odb,Step-1,Increment      1: Step Time =    1.000,"PART-1-1",           801,       8.22155,  -652.532E-03,            0.,NA,NA,"",   419.347E-03,   416.307E-03,   50.3985E-03,   2.21233E-03
C:/temp/dataset/4/6_1.odb,Step-1,Increment      1: Step Time =    1.000,"PART-1-1",           802,       8.34224,      -2.31533,            0.,NA,NA,"",   371.766E-03,   368.828E-03,   46.6424E-03,   2.16632E-03
C:/temp/dataset/4/6_1.odb,Step-1,Increment      1: Step Time =    1.000,"PART-1-1",           803,       2.82445,       2.06443,            0.,NA,NA,"",   543.637E-03,   503.454E-03,   205.124E-03,   1.46126E-03
