ODB Name,Step,Frame,Part Instance Name,    êﬂì_ÉâÉxÉã,X,Y,Z,Section Name,Material Name,Section Point,   U-Magnitude,          U-U1,          U-U2,       S-Mises
C:/temp/dataset/4/7_1.odb,Step-1,Increment      1: Step Time =    1.000,"PART-1-1",             1,           -5.,           30.,            0.,NA,NA,"",       1.02859,   977.155E-03,   321.182E-03,   3.58838E-09
C:/temp/dataset/4/7_1.odb,Step-1,Increment      1: Step Time =    1.000,"PART-1-1",             2,          -15.,           30.,            0.,NA,NA,"",       1.11965,   979.599E-03,   542.230E-03,   3.59425E-09
C:/temp/dataset/4/7_1.odb,Step-1,Increment      1: Step Time =    1.000,"PART-1-1",             3,          -15.,         21.25,            0.,NA,NA,"",   956.252E-03,   786.181E-03,   544.369E-03,   28.6419E-09
C:/temp/dataset/4/7_1.odb,Step-1,Increment      1: Step Time =    1.000,"PART-1-1",             4,          -15.,          12.5,            0.,NA,NA,"",   806.249E-03,   592.761E-03,   546.508E-03,   300.377E-09
C:/temp/dataset/4/7_1.odb,Step-1,Increment      1: Step Time =    1.000,"PART-1-1",             5,          -15.,          3.75,            0.,NA,NA,"",   678.533E-03,   399.329E-03,   548.583E-03,   28.0144E-06
C:/temp/dataset/4/7_1.odb,Step-1,Increment      1: Step Time =    1.000,"PART-1-1",             6,          -15.,           -5.,            0.,NA,NA,"",   587.951E-03,   206.418E-03,   550.526E-03,   3.21778E-06
C:/temp/dataset/4/7_1.odb,Step-1,Increment      1: Step Time =    1.000,"PART-1-1",             7,          -10.,           -5.,            0.,NA,NA,"",   485.863E-03,   205.303E-03,   440.356E-03,   69.0219E-06
C:/temp/dataset/4/7_1.odb,Step-1,Increment      1: Step Time =    1.000,"PART-1-1",             8,           -5.,           -5.,            0.,NA,NA,"",   389.965E-03,   204.817E-03,   331.847E-03,   537.273E-06
C:/temp/dataset/4/7_1.odb,Step-1,Increment      1: Step Time =    1.000,"PART-1-1",             9,            0.,           -5.,            0.,NA,NA,"",   299.395E-03,   204.083E-03,   219.060E-03,   757.842E-06
C:/temp/dataset/4/7_1.odb,Step-1,Increment      1: Step Time =    1.000,"PART-1-1",            10,            5.,           -5.,            0.,NA,NA,"",   232.276E-03,   210.966E-03,   97.1877E-03,   6.37607E-03
C:/temp/dataset/4/7_1.odb,Step-1,Increment      1: Step Time =    1.000,"PART-1-1",            11,            5.,        -11.25,            0.,NA,NA,"",   142.737E-03,   123.666E-03,   71.2788E-03,   4.23379E-03
C:/temp/dataset/4/7_1.odb,Step-1,Increment      1: Step Time =    1.000,"PART-1-1",            12,            5.,         -17.5,            0.,NA,NA,"",   74.4704E-03,   57.1699E-03,   47.7224E-03,   4.29222E-03
C:/temp/dataset/4/7_1.odb,Step-1,Increment      1: Step Time =    1.000,"PART-1-1",            13,            5.,        -23.75,            0.,NA,NA,"",   29.3329E-03,   17.2801E-03,   23.7028E-03,   4.30119E-03
C:/temp/dataset/4/7_1.odb,Step-1,Increment      1: Step Time =    1.000,"PART-1-1",            14,            5.,          -30.,            0.,NA,NA,"",            0.,   1.32977E-39,   2.52497E-39,   4.92314E-03
C:/temp/dataset/4/7_1.odb,Step-1,Increment      1: Step Time =    1.000,"PART-1-1",            15,           15.,          -30.,            0.,NA,NA,"",            0.,   887.634E-42,  -1.77691E-39,   3.37255E-03
C:/temp/dataset/4/7_1.odb,Step-1,Increment      1: Step Time =    1.000,"PART-1-1",            16,           15.,         -22.5,            0.,NA,NA,"",   30.2185E-03,   20.6709E-03,  -22.0424E-03,   3.33330E-03
C:/temp/dataset/4/7_1.odb,Step-1,Increment      1: Step Time =    1.000,"PART-1-1",            17,           15.,          -15.,            0.,NA,NA,"",   89.6294E-03,   77.7835E-03,  -44.5327E-03,   3.29623E-03
C:/temp/dataset/4/7_1.odb,Step-1,Increment      1: Step Time =    1.000,"PART-1-1",            18,           15.,          -7.5,            0.,NA,NA,"",   186.348E-03,   173.743E-03,  -67.3728E-03,   3.19914E-03
C:/temp/dataset/4/7_1.odb,Step-1,Increment      1: Step Time =    1.000,"PART-1-1",            19,           15.,            0.,            0.,NA,NA,"",   319.662E-03,   308.249E-03,  -84.6565E-03,   1.20822E-03
C:/temp/dataset/4/7_1.odb,Step-1,Increment      1: Step Time =    1.000,"PART-1-1",            20,           15.,           7.5,            0.,NA,NA,"",   464.707E-03,   456.211E-03,  -88.4521E-03,   61.6025E-06
C:/temp/dataset/4/7_1.odb,Step-1,Increment      1: Step Time =    1.000,"PART-1-1",            21,           15.,           15.,            0.,NA,NA,"",   608.275E-03,   601.640E-03,  -89.5947E-03,   7.93531E-06
C:/temp/dataset/4/7_1.odb,Step-1,Increment      1: Step Time =    1.000,"PART-1-1",            22,           15.,          22.5,            0.,NA,NA,"",   752.251E-03,   746.728E-03,  -90.9881E-03,   233.792E-09
C:/temp/dataset/4/7_1.odb,Step-1,Increment      1: Step Time =    1.000,"PART-1-1",            23,           15.,           30.,            0.,NA,NA,"",   896.602E-03,   891.829E-03,  -92.3924E-03,   7.11490E-09
C:/temp/dataset/4/7_1.odb,Step-1,Increment      1: Step Time =    1.000,"PART-1-1",            24,            5.,           30.,            0.,NA,NA,"",   899.398E-03,   893.701E-03,   101.076E-03,   5.50940E-09
C:/temp/dataset/4/7_1.odb,Step-1,Increment      1: Step Time =    1.000,"PART-1-1",            25,            5.,         23.75,            0.,NA,NA,"",   779.518E-03,   772.783E-03,   102.246E-03,   180.116E-09
C:/temp/dataset/4/7_1.odb,Step-1,Increment      1: Step Time =    1.000,"PART-1-1",            26,            5.,          17.5,            0.,NA,NA,"",   660.011E-03,   651.859E-03,   103.416E-03,   1.70929E-06
C:/temp/dataset/4/7_1.odb,Step-1,Increment      1: Step Time =    1.000,"PART-1-1",            27,            5.,         11.25,            0.,NA,NA,"",   541.131E-03,   530.946E-03,   104.495E-03,   44.2966E-06
C:/temp/dataset/4/7_1.odb,Step-1,Increment      1: Step Time =    1.000,"PART-1-1",            28,            5.,            5.,            0.,NA,NA,"",   426.658E-03,   413.390E-03,   105.571E-03,   2.03974E-03
C:/temp/dataset/4/7_1.odb,Step-1,Increment      1: Step Time =    1.000,"PART-1-1",            29,            0.,            5.,            0.,NA,NA,"",   473.540E-03,   422.056E-03,   214.728E-03,   814.645E-06
C:/temp/dataset/4/7_1.odb,Step-1,Increment      1: Step Time =    1.000,"PART-1-1",            30,           -5.,            5.,            0.,NA,NA,"",   536.030E-03,   424.598E-03,   327.177E-03,   89.1910E-06
C:/temp/dataset/4/7_1.odb,Step-1,Increment      1: Step Time =    1.000,"PART-1-1",            31,           -5.,         11.25,            0.,NA,NA,"",   650.190E-03,   562.694E-03,   325.766E-03,   1.02524E-06
C:/temp/dataset/4/7_1.odb,Step-1,Increment      1: Step Time =    1.000,"PART-1-1",            32,           -5.,          17.5,            0.,NA,NA,"",   772.212E-03,   700.844E-03,   324.236E-03,   170.238E-09
C:/temp/dataset/4/7_1.odb,Step-1,Increment      1: Step Time =    1.000,"PART-1-1",            33,           -5.,         23.75,            0.,NA,NA,"",   898.922E-03,   839.000E-03,   322.709E-03,   4.26833E-09
C:/temp/dataset/4/7_1.odb,Step-1,Increment      1: Step Time =    1.000,"PART-1-1",            34,          -7.5,           30.,            0.,NA,NA,"",       1.04773,   977.766E-03,   376.444E-03,   3.77481E-09
C:/temp/dataset/4/7_1.odb,Step-1,Increment      1: Step Time =    1.000,"PART-1-1",            35,          -10.,           30.,            0.,NA,NA,"",       1.06939,   978.377E-03,   431.706E-03,   3.94703E-09
C:/temp/dataset/4/7_1.odb,Step-1,Increment      1: Step Time =    1.000,"PART-1-1",            36,         -12.5,           30.,            0.,NA,NA,"",       1.09341,   978.988E-03,   486.968E-03,   3.81225E-09
C:/temp/dataset/4/7_1.odb,Step-1,Increment      1: Step Time =    1.000,"PART-1-1",            37,          -15.,       27.8125,            0.,NA,NA,"",       1.07787,   931.244E-03,   542.765E-03,   3.80166E-09
C:/temp/dataset/4/7_1.odb,Step-1,Increment      1: Step Time =    1.000,"PART-1-1",            38,          -15.,        25.625,            0.,NA,NA,"",       1.03666,   882.890E-03,   543.299E-03,   3.97799E-09
C:/temp/dataset/4/7_1.odb,Step-1,Increment      1: Step Time =    1.000,"PART-1-1",            39,          -15.,       23.4375,            0.,NA,NA,"",   996.095E-03,   834.535E-03,   543.834E-03,   4.68759E-09
C:/temp/dataset/4/7_1.odb,Step-1,Increment      1: Step Time =    1.000,"PART-1-1",            40,          -15.,       19.0625,            0.,NA,NA,"",   917.228E-03,   737.827E-03,   544.903E-03,   87.8766E-09
C:/temp/dataset/4/7_1.odb,Step-1,Increment      1: Step Time =    1.000,"PART-1-1",            41,          -15.,        16.875,            0.,NA,NA,"",   879.133E-03,   689.472E-03,   545.438E-03,   209.522E-09
C:/temp/dataset/4/7_1.odb,Step-1,Increment      1: Step Time =    1.000,"PART-1-1",            42,          -15.,       14.6875,            0.,NA,NA,"",   842.091E-03,   641.117E-03,   545.973E-03,   365.748E-09
C:/temp/dataset/4/7_1.odb,Step-1,Increment      1: Step Time =    1.000,"PART-1-1",            43,          -15.,       10.3125,            0.,NA,NA,"",   771.770E-03,   544.402E-03,   547.043E-03,   887.828E-09
C:/temp/dataset/4/7_1.odb,Step-1,Increment      1: Step Time =    1.000,"PART-1-1",            44,          -15.,         8.125,            0.,NA,NA,"",   738.844E-03,   496.040E-03,   547.573E-03,   5.11537E-06
C:/temp/dataset/4/7_1.odb,Step-1,Increment      1: Step Time =    1.000,"PART-1-1",            45,          -15.,        5.9375,            0.,NA,NA,"",   707.684E-03,   447.677E-03,   548.089E-03,   14.5664E-06
C:/temp/dataset/4/7_1.odb,Step-1,Increment      1: Step Time =    1.000,"PART-1-1",            46,          -15.,        1.5625,            0.,NA,NA,"",   651.671E-03,   351.025E-03,   549.050E-03,   36.8485E-06
C:/temp/dataset/4/7_1.odb,Step-1,Increment      1: Step Time =    1.000,"PART-1-1",            47,          -15.,     -625.E-03,            0.,NA,NA,"",   627.409E-03,   302.787E-03,   549.511E-03,   29.9404E-06
C:/temp/dataset/4/7_1.odb,Step-1,Increment      1: Step Time =    1.000,"PART-1-1",            48,          -15.,       -2.8125,            0.,NA,NA,"",   606.070E-03,   254.602E-03,   549.999E-03,   9.92428E-06
C:/temp/dataset/4/7_1.odb,Step-1,Increment      1: Step Time =    1.000,"PART-1-1",            49,         -12.5,           -5.,            0.,NA,NA,"",   536.484E-03,   205.816E-03,   495.434E-03,   14.6397E-06
C:/temp/dataset/4/7_1.odb,Step-1,Increment      1: Step Time =    1.000,"PART-1-1",            50,          -7.5,           -5.,            0.,NA,NA,"",   436.566E-03,   204.905E-03,   385.491E-03,   231.450E-06
C:/temp/dataset/4/7_1.odb,Step-1,Increment      1: Step Time =    1.000,"PART-1-1",            51,          -2.5,           -5.,            0.,NA,NA,"",   344.423E-03,   204.172E-03,   277.382E-03,   1.09777E-03
C:/temp/dataset/4/7_1.odb,Step-1,Increment      1: Step Time =    1.000,"PART-1-1",            52,           2.5,           -5.,            0.,NA,NA,"",   260.510E-03,   205.772E-03,   159.761E-03,   1.73437E-03
C:/temp/dataset/4/7_1.odb,Step-1,Increment      1: Step Time =    1.000,"PART-1-1",            53,            5.,      -7.08333,            0.,NA,NA,"",   200.718E-03,   181.169E-03,   86.4032E-03,   4.96082E-03
C:/temp/dataset/4/7_1.odb,Step-1,Increment      1: Step Time =    1.000,"PART-1-1",            54,            5.,      -9.16667,            0.,NA,NA,"",   170.785E-03,   151.424E-03,   78.9827E-03,   4.17840E-03
C:/temp/dataset/4/7_1.odb,Step-1,Increment      1: Step Time =    1.000,"PART-1-1",            55,            5.,      -13.3333,            0.,NA,NA,"",   117.284E-03,   98.5963E-03,   63.5153E-03,   4.24517E-03
C:/temp/dataset/4/7_1.odb,Step-1,Increment      1: Step Time =    1.000,"PART-1-1",            56,            5.,      -15.4167,            0.,NA,NA,"",   94.5323E-03,   76.4133E-03,   55.6540E-03,   4.27636E-03
C:/temp/dataset/4/7_1.odb,Step-1,Increment      1: Step Time =    1.000,"PART-1-1",            57,            5.,      -19.5833,            0.,NA,NA,"",   57.0240E-03,   40.8956E-03,   39.7403E-03,   4.30310E-03
C:/temp/dataset/4/7_1.odb,Step-1,Increment      1: Step Time =    1.000,"PART-1-1",            58,            5.,      -21.6667,            0.,NA,NA,"",   42.0496E-03,   27.5964E-03,   31.7271E-03,   4.30198E-03
C:/temp/dataset/4/7_1.odb,Step-1,Increment      1: Step Time =    1.000,"PART-1-1",            59,            5.,      -25.8333,            0.,NA,NA,"",   18.5699E-03,   9.83724E-03,   15.7502E-03,   4.19361E-03
C:/temp/dataset/4/7_1.odb,Step-1,Increment      1: Step Time =    1.000,"PART-1-1",            60,            5.,      -27.9167,            0.,NA,NA,"",   9.43716E-03,   4.99715E-03,   8.00553E-03,   4.38062E-03
C:/temp/dataset/4/7_1.odb,Step-1,Increment      1: Step Time =    1.000,"PART-1-1",            61,           7.5,          -30.,            0.,NA,NA,"",            0.,  -1.04677E-42,   3.59572E-39,   1.82278E-03
C:/temp/dataset/4/7_1.odb,Step-1,Increment      1: Step Time =    1.000,"PART-1-1",            62,           10.,          -30.,            0.,NA,NA,"",            0.,  -573.284E-42,   630.884E-42,   825.296E-06
C:/temp/dataset/4/7_1.odb,Step-1,Increment      1: Step Time =    1.000,"PART-1-1",            63,          12.5,          -30.,            0.,NA,NA,"",            0.,   310.696E-42,  -1.72766E-39,   1.22097E-03
C:/temp/dataset/4/7_1.odb,Step-1,Increment      1: Step Time =    1.000,"PART-1-1",            64,           15.,         -27.5,            0.,NA,NA,"",   8.11431E-03,   3.92509E-03,  -7.10181E-03,   3.40163E-03
C:/temp/dataset/4/7_1.odb,Step-1,Increment      1: Step Time =    1.000,"PART-1-1",            65,           15.,          -25.,            0.,NA,NA,"",   17.7461E-03,   10.1556E-03,  -14.5529E-03,   3.31208E-03
C:/temp/dataset/4/7_1.odb,Step-1,Increment      1: Step Time =    1.000,"PART-1-1",            66,           15.,          -20.,            0.,NA,NA,"",   46.1425E-03,   35.4481E-03,  -29.5391E-03,   3.30466E-03
C:/temp/dataset/4/7_1.odb,Step-1,Increment      1: Step Time =    1.000,"PART-1-1",            67,           15.,         -17.5,            0.,NA,NA,"",   65.8801E-03,   54.4934E-03,  -37.0225E-03,   3.29592E-03
C:/temp/dataset/4/7_1.odb,Step-1,Increment      1: Step Time =    1.000,"PART-1-1",            68,           15.,         -12.5,            0.,NA,NA,"",   117.525E-03,   105.344E-03,  -52.1021E-03,   3.30980E-03
C:/temp/dataset/4/7_1.odb,Step-1,Increment      1: Step Time =    1.000,"PART-1-1",            69,           15.,          -10.,            0.,NA,NA,"",   149.711E-03,   137.271E-03,  -59.7514E-03,   3.31255E-03
C:/temp/dataset/4/7_1.odb,Step-1,Increment      1: Step Time =    1.000,"PART-1-1",            70,           15.,           -5.,            0.,NA,NA,"",   227.409E-03,   214.844E-03,  -74.5429E-03,   2.80050E-03
C:/temp/dataset/4/7_1.odb,Step-1,Increment      1: Step Time =    1.000,"PART-1-1",            71,           15.,          -2.5,            0.,NA,NA,"",   272.279E-03,   260.103E-03,  -80.5108E-03,   2.07221E-03
C:/temp/dataset/4/7_1.odb,Step-1,Increment      1: Step Time =    1.000,"PART-1-1",            72,           15.,           2.5,            0.,NA,NA,"",   368.096E-03,   357.674E-03,  -86.9719E-03,   493.958E-06
C:/temp/dataset/4/7_1.odb,Step-1,Increment      1: Step Time =    1.000,"PART-1-1",            73,           15.,            5.,            0.,NA,NA,"",   416.568E-03,   407.166E-03,  -88.0073E-03,   79.5959E-06
C:/temp/dataset/4/7_1.odb,Step-1,Increment      1: Step Time =    1.000,"PART-1-1",            74,           15.,           10.,            0.,NA,NA,"",   512.590E-03,   504.843E-03,  -88.7818E-03,   55.5187E-06
C:/temp/dataset/4/7_1.odb,Step-1,Increment      1: Step Time =    1.000,"PART-1-1",            75,           15.,          12.5,            0.,NA,NA,"",   560.411E-03,   553.272E-03,  -89.1616E-03,   25.4541E-06
C:/temp/dataset/4/7_1.odb,Step-1,Increment      1: Step Time =    1.000,"PART-1-1",            76,           15.,          17.5,            0.,NA,NA,"",   656.209E-03,   650.000E-03,  -90.0531E-03,   1.51940E-06
C:/temp/dataset/4/7_1.odb,Step-1,Increment      1: Step Time =    1.000,"PART-1-1",            77,           15.,           20.,            0.,NA,NA,"",   704.205E-03,   698.363E-03,  -90.5197E-03,   123.198E-09
C:/temp/dataset/4/7_1.odb,Step-1,Increment      1: Step Time =    1.000,"PART-1-1",            78,           15.,           25.,            0.,NA,NA,"",   800.337E-03,   795.095E-03,  -91.4564E-03,   121.029E-09
C:/temp/dataset/4/7_1.odb,Step-1,Increment      1: Step Time =    1.000,"PART-1-1",            79,           15.,          27.5,            0.,NA,NA,"",   848.456E-03,   843.462E-03,  -91.9244E-03,   30.0055E-09
C:/temp/dataset/4/7_1.odb,Step-1,Increment      1: Step Time =    1.000,"PART-1-1",            80,          12.5,           30.,            0.,NA,NA,"",   893.382E-03,   892.297E-03,  -44.0254E-03,   23.9392E-09
C:/temp/dataset/4/7_1.odb,Step-1,Increment      1: Step Time =    1.000,"PART-1-1",            81,           10.,           30.,            0.,NA,NA,"",   892.775E-03,   892.765E-03,   4.34165E-03,   48.8367E-09
C:/temp/dataset/4/7_1.odb,Step-1,Increment      1: Step Time =    1.000,"PART-1-1",            82,           7.5,           30.,            0.,NA,NA,"",   894.787E-03,   893.233E-03,   52.7088E-03,   24.5309E-09
C:/temp/dataset/4/7_1.odb,Step-1,Increment      1: Step Time =    1.000,"PART-1-1",            83,            5.,       27.9167,            0.,NA,NA,"",   859.406E-03,   853.395E-03,   101.466E-03,   20.2490E-09
C:/temp/dataset/4/7_1.odb,Step-1,Increment      1: Step Time =    1.000,"PART-1-1",            84,            5.,       25.8333,            0.,NA,NA,"",   819.444E-03,   813.089E-03,   101.856E-03,   83.9019E-09
C:/temp/dataset/4/7_1.odb,Step-1,Increment      1: Step Time =    1.000,"PART-1-1",            85,            5.,       21.6667,            0.,NA,NA,"",   739.632E-03,   732.476E-03,   102.636E-03,   232.252E-09
C:/temp/dataset/4/7_1.odb,Step-1,Increment      1: Step Time =    1.000,"PART-1-1",            86,            5.,       19.5833,            0.,NA,NA,"",   699.794E-03,   692.168E-03,   103.027E-03,   107.651E-09
C:/temp/dataset/4/7_1.odb,Step-1,Increment      1: Step Time =    1.000,"PART-1-1",            87,            5.,       15.4167,            0.,NA,NA,"",   620.292E-03,   611.546E-03,   103.799E-03,   6.51588E-06
C:/temp/dataset/4/7_1.odb,Step-1,Increment      1: Step Time =    1.000,"PART-1-1",            88,            5.,       13.3333,            0.,NA,NA,"",   580.655E-03,   571.236E-03,   104.166E-03,   20.9484E-06
C:/temp/dataset/4/7_1.odb,Step-1,Increment      1: Step Time =    1.000,"PART-1-1",            89,            5.,       9.16667,            0.,NA,NA,"",   501.823E-03,   490.769E-03,   104.751E-03,   118.693E-06
C:/temp/dataset/4/7_1.odb,Step-1,Increment      1: Step Time =    1.000,"PART-1-1",            90,            5.,       7.08333,            0.,NA,NA,"",   463.035E-03,   451.008E-03,   104.845E-03,   437.235E-06
C:/temp/dataset/4/7_1.odb,Step-1,Increment      1: Step Time =    1.000,"PART-1-1",            91,           2.5,            5.,            0.,NA,NA,"",   448.043E-03,   418.848E-03,   159.087E-03,   1.68941E-03
C:/temp/dataset/4/7_1.odb,Step-1,Increment      1: Step Time =    1.000,"PART-1-1",            92,          -2.5,            5.,            0.,NA,NA,"",   503.109E-03,   423.852E-03,   271.051E-03,   260.471E-06
C:/temp/dataset/4/7_1.odb,Step-1,Increment      1: Step Time =    1.000,"PART-1-1",            93,           -5.,       7.08333,            0.,NA,NA,"",   572.945E-03,   470.621E-03,   326.774E-03,   23.6043E-06
C:/temp/dataset/4/7_1.odb,Step-1,Increment      1: Step Time =    1.000,"PART-1-1",            94,           -5.,       9.16667,            0.,NA,NA,"",   611.049E-03,   516.651E-03,   326.272E-03,   3.60063E-06
C:/temp/dataset/4/7_1.odb,Step-1,Increment      1: Step Time =    1.000,"PART-1-1",            95,           -5.,       13.3333,            0.,NA,NA,"",   690.187E-03,   608.742E-03,   325.256E-03,   587.085E-09
C:/temp/dataset/4/7_1.odb,Step-1,Increment      1: Step Time =    1.000,"PART-1-1",            96,           -5.,       15.4167,            0.,NA,NA,"",   730.899E-03,   654.793E-03,   324.746E-03,   314.554E-09
C:/temp/dataset/4/7_1.odb,Step-1,Increment      1: Step Time =    1.000,"PART-1-1",            97,           -5.,       19.5833,            0.,NA,NA,"",   814.035E-03,   746.896E-03,   323.727E-03,   63.6988E-09
C:/temp/dataset/4/7_1.odb,Step-1,Increment      1: Step Time =    1.000,"PART-1-1",            98,           -5.,       21.6667,            0.,NA,NA,"",   856.292E-03,   792.948E-03,   323.218E-03,   20.0092E-09
C:/temp/dataset/4/7_1.odb,Step-1,Increment      1: Step Time =    1.000,"PART-1-1",            99,           -5.,       25.8333,            0.,NA,NA,"",   941.875E-03,   885.051E-03,   322.200E-03,   3.86295E-09
C:/temp/dataset/4/7_1.odb,Step-1,Increment      1: Step Time =    1.000,"PART-1-1",           100,           -5.,       27.9167,            0.,NA,NA,"",   985.108E-03,   931.103E-03,   321.691E-03,   3.84149E-09
C:/temp/dataset/4/7_1.odb,Step-1,Increment      1: Step Time =    1.000,"PART-1-1",           101,       6.93475,       11.1046,            0.,NA,NA,"",   532.013E-03,   527.754E-03,   67.1762E-03,   30.0648E-06
C:/temp/dataset/4/7_1.odb,Step-1,Increment      1: Step Time =    1.000,"PART-1-1",           102,       7.10183,      -21.7370,            0.,NA,NA,"",   30.9383E-03,   23.8530E-03,   19.7031E-03,   2.72168E-03
C:/temp/dataset/4/7_1.odb,Step-1,Increment      1: Step Time =    1.000,"PART-1-1",           103,      -7.18606,       25.6133,            0.,NA,NA,"",   955.510E-03,   880.723E-03,   370.576E-03,   4.03281E-09
C:/temp/dataset/4/7_1.odb,Step-1,Increment      1: Step Time =    1.000,"PART-1-1",           104,       7.08931,      -17.4629,            0.,NA,NA,"",   61.9425E-03,   54.1259E-03,   30.1208E-03,   2.71630E-03
C:/temp/dataset/4/7_1.odb,Step-1,Increment      1: Step Time =    1.000,"PART-1-1",           105,       7.11844,      -23.8299,            0.,NA,NA,"",   19.8993E-03,   13.5859E-03,   14.5398E-03,   2.71800E-03
C:/temp/dataset/4/7_1.odb,Step-1,Increment      1: Step Time =    1.000,"PART-1-1",           106,       7.34845,      -27.9642,            0.,NA,NA,"",   4.47100E-03,   1.69173E-03,   4.13859E-03,   2.61484E-03
C:/temp/dataset/4/7_1.odb,Step-1,Increment      1: Step Time =    1.000,"PART-1-1",           107,       7.18399,      -25.9216,            0.,NA,NA,"",   11.0736E-03,   6.19906E-03,   9.17589E-03,   2.75884E-03
C:/temp/dataset/4/7_1.odb,Step-1,Increment      1: Step Time =    1.000,"PART-1-1",           108,       7.00226,      -10.9532,            0.,NA,NA,"",   132.663E-03,   124.173E-03,   46.6968E-03,   2.76549E-03
C:/temp/dataset/4/7_1.odb,Step-1,Increment      1: Step Time =    1.000,"PART-1-1",           109,       6.93148,       25.8450,            0.,NA,NA,"",   815.507E-03,   812.954E-03,   64.4855E-03,   74.1541E-09
C:/temp/dataset/4/7_1.odb,Step-1,Increment      1: Step Time =    1.000,"PART-1-1",           110,       6.95256,       21.7727,            0.,NA,NA,"",   737.021E-03,   734.163E-03,   64.8399E-03,   155.626E-09
C:/temp/dataset/4/7_1.odb,Step-1,Increment      1: Step Time =    1.000,"PART-1-1",           111,       6.99069,       19.6693,            0.,NA,NA,"",   696.451E-03,   693.459E-03,   64.4960E-03,   965.241E-09
C:/temp/dataset/4/7_1.odb,Step-1,Increment      1: Step Time =    1.000,"PART-1-1",           112,       6.98342,       13.2435,            0.,NA,NA,"",   572.914E-03,   569.118E-03,   65.8394E-03,   18.3347E-06
C:/temp/dataset/4/7_1.odb,Step-1,Increment      1: Step Time =    1.000,"PART-1-1",           113,       6.84904,       8.98858,            0.,NA,NA,"",   491.848E-03,   486.950E-03,   69.2409E-03,   55.6817E-06
C:/temp/dataset/4/7_1.odb,Step-1,Increment      1: Step Time =    1.000,"PART-1-1",           114,      -7.00061,       11.3966,            0.,NA,NA,"",   676.535E-03,   566.424E-03,   369.951E-03,   1.78446E-06
C:/temp/dataset/4/7_1.odb,Step-1,Increment      1: Step Time =    1.000,"PART-1-1",           115,      -6.87185,       17.5946,            0.,NA,NA,"",   792.727E-03,   703.392E-03,   365.590E-03,   117.771E-09
C:/temp/dataset/4/7_1.odb,Step-1,Increment      1: Step Time =    1.000,"PART-1-1",           116,      -6.78696,       21.5686,            0.,NA,NA,"",   870.407E-03,   791.218E-03,   362.743E-03,   30.7145E-09
C:/temp/dataset/4/7_1.odb,Step-1,Increment      1: Step Time =    1.000,"PART-1-1",           117,      -6.92081,       23.5666,            0.,NA,NA,"",   911.757E-03,   835.416E-03,   365.213E-03,   11.9574E-09
C:/temp/dataset/4/7_1.odb,Step-1,Increment      1: Step Time =    1.000,"PART-1-1",           118,      -7.47694,       27.7553,            0.,NA,NA,"",       1.00159,   928.141E-03,   376.483E-03,   3.16496E-09
C:/temp/dataset/4/7_1.odb,Step-1,Increment      1: Step Time =    1.000,"PART-1-1",           119,       6.62973,      -6.72562,            0.,NA,NA,"",   194.594E-03,   184.299E-03,   62.4546E-03,   3.32086E-03
C:/temp/dataset/4/7_1.odb,Step-1,Increment      1: Step Time =    1.000,"PART-1-1",           120,       7.00244,       17.5390,            0.,NA,NA,"",   655.435E-03,   652.237E-03,   64.6675E-03,   3.30646E-06
C:/temp/dataset/4/7_1.odb,Step-1,Increment      1: Step Time =    1.000,"PART-1-1",           121,       7.05765,      -13.1226,            0.,NA,NA,"",   105.845E-03,   97.6480E-03,   40.8413E-03,   2.73439E-03
C:/temp/dataset/4/7_1.odb,Step-1,Increment      1: Step Time =    1.000,"PART-1-1",           122,      -6.97858,       13.4860,            0.,NA,NA,"",   715.126E-03,   612.600E-03,   368.953E-03,   317.473E-09
C:/temp/dataset/4/7_1.odb,Step-1,Increment      1: Step Time =    1.000,"PART-1-1",           123,      -7.06135,       7.11796,            0.,NA,NA,"",   601.096E-03,   471.882E-03,   372.349E-03,   30.6663E-06
C:/temp/dataset/4/7_1.odb,Step-1,Increment      1: Step Time =    1.000,"PART-1-1",           124,       6.87626,      -8.81940,            0.,NA,NA,"",   162.334E-03,   153.200E-03,   53.6849E-03,   2.93766E-03
C:/temp/dataset/4/7_1.odb,Step-1,Increment      1: Step Time =    1.000,"PART-1-1",           125,       7.08495,      -15.2974,            0.,NA,NA,"",   82.2184E-03,   74.2311E-03,   35.3499E-03,   2.71421E-03
C:/temp/dataset/4/7_1.odb,Step-1,Increment      1: Step Time =    1.000,"PART-1-1",           126,       7.00715,       15.3887,            0.,NA,NA,"",   614.073E-03,   610.626E-03,   64.9784E-03,   8.97081E-06
C:/temp/dataset/4/7_1.odb,Step-1,Increment      1: Step Time =    1.000,"PART-1-1",           127,      -7.01992,       9.30136,            0.,NA,NA,"",   638.814E-03,   520.121E-03,   370.888E-03,   7.39134E-06
C:/temp/dataset/4/7_1.odb,Step-1,Increment      1: Step Time =    1.000,"PART-1-1",           128,      -6.93369,       15.5639,            0.,NA,NA,"",   754.103E-03,   658.520E-03,   367.453E-03,   135.211E-09
C:/temp/dataset/4/7_1.odb,Step-1,Increment      1: Step Time =    1.000,"PART-1-1",           129,      -6.79206,       19.5889,            0.,NA,NA,"",   831.088E-03,   747.457E-03,   363.339E-03,   68.4302E-09
C:/temp/dataset/4/7_1.odb,Step-1,Increment      1: Step Time =    1.000,"PART-1-1",           130,       7.09662,      -19.6136,            0.,NA,NA,"",   44.8589E-03,   37.3265E-03,   24.8808E-03,   2.71612E-03
C:/temp/dataset/4/7_1.odb,Step-1,Increment      1: Step Time =    1.000,"PART-1-1",           131,       6.89670,       23.8203,            0.,NA,NA,"",   776.559E-03,   773.788E-03,   65.5375E-03,   65.2498E-09
C:/temp/dataset/4/7_1.odb,Step-1,Increment      1: Step Time =    1.000,"PART-1-1",           132,       6.67676,       6.98748,            0.,NA,NA,"",   454.552E-03,   448.672E-03,   72.8738E-03,   343.639E-06
C:/temp/dataset/4/7_1.odb,Step-1,Increment      1: Step Time =    1.000,"PART-1-1",           133,      -13.0361,       12.2042,            0.,NA,NA,"",   772.186E-03,   585.742E-03,   503.168E-03,   849.119E-09
C:/temp/dataset/4/7_1.odb,Step-1,Increment      1: Step Time =    1.000,"PART-1-1",           134,      -13.0483,       3.72302,            0.,NA,NA,"",   643.516E-03,   398.240E-03,   505.487E-03,   18.6001E-06
C:/temp/dataset/4/7_1.odb,Step-1,Increment      1: Step Time =    1.000,"PART-1-1",           135,      -13.0740,       10.0823,            0.,NA,NA,"",   738.171E-03,   538.843E-03,   504.524E-03,   3.16723E-06
C:/temp/dataset/4/7_1.odb,Step-1,Increment      1: Step Time =    1.000,"PART-1-1",           136,      -13.0017,       14.3509,            0.,NA,NA,"",   807.968E-03,   633.188E-03,   501.881E-03,   82.4857E-09
C:/temp/dataset/4/7_1.odb,Step-1,Increment      1: Step Time =    1.000,"PART-1-1",           137,      -12.4480,       21.2307,            0.,NA,NA,"",   924.412E-03,   785.131E-03,   487.962E-03,   41.0104E-09
C:/temp/dataset/4/7_1.odb,Step-1,Increment      1: Step Time =    1.000,"PART-1-1",           138,      -13.0426,       25.7965,            0.,NA,NA,"",       1.01752,   886.203E-03,   499.989E-03,   3.40488E-09
C:/temp/dataset/4/7_1.odb,Step-1,Increment      1: Step Time =    1.000,"PART-1-1",           139,      -12.9478,       23.6552,            0.,NA,NA,"",   975.747E-03,   838.846E-03,   498.417E-03,   11.2575E-09
C:/temp/dataset/4/7_1.odb,Step-1,Increment      1: Step Time =    1.000,"PART-1-1",           140,      -12.8307,       18.7376,            0.,NA,NA,"",   883.236E-03,   730.115E-03,   497.029E-03,   90.1750E-09
C:/temp/dataset/4/7_1.odb,Step-1,Increment      1: Step Time =    1.000,"PART-1-1",           141,      -12.9472,       16.5227,            0.,NA,NA,"",   845.078E-03,   681.183E-03,   500.147E-03,   128.556E-09
C:/temp/dataset/4/7_1.odb,Step-1,Increment      1: Step Time =    1.000,"PART-1-1",           142,      -13.1112,       7.97345,            0.,NA,NA,"",   705.818E-03,   492.225E-03,   505.859E-03,   7.98314E-06
C:/temp/dataset/4/7_1.odb,Step-1,Increment      1: Step Time =    1.000,"PART-1-1",           143,      -13.1276,       5.86243,            0.,NA,NA,"",   674.755E-03,   445.552E-03,   506.732E-03,   14.4713E-06
C:/temp/dataset/4/7_1.odb,Step-1,Increment      1: Step Time =    1.000,"PART-1-1",           144,      -12.8109,       1.56310,            0.,NA,NA,"",   611.216E-03,   350.478E-03,   500.749E-03,   17.2435E-06
C:/temp/dataset/4/7_1.odb,Step-1,Increment      1: Step Time =    1.000,"PART-1-1",           145,      -12.5511,  -622.366E-03,            0.,NA,NA,"",   580.410E-03,   302.220E-03,   495.519E-03,   25.2514E-06
C:/temp/dataset/4/7_1.odb,Step-1,Increment      1: Step Time =    1.000,"PART-1-1",           146,      -7.69124,      -3.05836,            0.,NA,NA,"",   461.074E-03,   247.415E-03,   389.069E-03,   100.980E-06
C:/temp/dataset/4/7_1.odb,Step-1,Increment      1: Step Time =    1.000,"PART-1-1",           147,      -2.59391,      -3.27074,            0.,NA,NA,"",   368.869E-03,   242.697E-03,   277.782E-03,   1.16467E-03
C:/temp/dataset/4/7_1.odb,Step-1,Increment      1: Step Time =    1.000,"PART-1-1",           148,      -2.06699,       2.95135,            0.,NA,NA,"",   459.847E-03,   378.211E-03,   261.564E-03,   594.600E-06
C:/temp/dataset/4/7_1.odb,Step-1,Increment      1: Step Time =    1.000,"PART-1-1",           149,       1.86882,      -3.06513,            0.,NA,NA,"",   303.292E-03,   248.755E-03,   173.514E-03,   1.62034E-03
C:/temp/dataset/4/7_1.odb,Step-1,Increment      1: Step Time =    1.000,"PART-1-1",           150,       2.79073,       3.02834,            0.,NA,NA,"",   405.983E-03,   376.373E-03,   152.203E-03,   1.19780E-03
C:/temp/dataset/4/7_1.odb,Step-1,Increment      1: Step Time =    1.000,"PART-1-1",           151,       12.5379,       2.72923,            0.,NA,NA,"",   364.518E-03,   362.380E-03,  -39.4176E-03,   739.862E-06
C:/temp/dataset/4/7_1.odb,Step-1,Increment      1: Step Time =    1.000,"PART-1-1",           152,       12.9313,       10.2835,            0.,NA,NA,"",   513.071E-03,   510.756E-03,  -48.6861E-03,   20.8959E-06
C:/temp/dataset/4/7_1.odb,Step-1,Increment      1: Step Time =    1.000,"PART-1-1",           153,       12.7723,       24.8557,            0.,NA,NA,"",   794.192E-03,   792.720E-03,  -48.3314E-03,   81.7813E-09
C:/temp/dataset/4/7_1.odb,Step-1,Increment      1: Step Time =    1.000,"PART-1-1",           154,       12.5268,       27.4001,            0.,NA,NA,"",   843.143E-03,   841.991E-03,  -44.0573E-03,   60.7509E-09
C:/temp/dataset/4/7_1.odb,Step-1,Increment      1: Step Time =    1.000,"PART-1-1",           155,       12.7627,      -5.01238,            0.,NA,NA,"",   215.935E-03,   212.802E-03,  -36.6478E-03,   1.54911E-03
C:/temp/dataset/4/7_1.odb,Step-1,Increment      1: Step Time =    1.000,"PART-1-1",           156,       13.0118,      -12.5921,            0.,NA,NA,"",   105.948E-03,   102.122E-03,  -28.2129E-03,   1.77018E-03
C:/temp/dataset/4/7_1.odb,Step-1,Increment      1: Step Time =    1.000,"PART-1-1",           157,       9.69976,      -27.8547,            0.,NA,NA,"",   1.19169E-03,   295.700E-06,   1.15442E-03,   734.016E-06
C:/temp/dataset/4/7_1.odb,Step-1,Increment      1: Step Time =    1.000,"PART-1-1",           158,       13.0855,      -17.4497,            0.,NA,NA,"",   56.7471E-03,   52.7818E-03,  -20.8404E-03,   1.83616E-03
C:/temp/dataset/4/7_1.odb,Step-1,Increment      1: Step Time =    1.000,"PART-1-1",           159,       12.9366,       22.3763,            0.,NA,NA,"",   746.469E-03,   744.722E-03,  -51.0457E-03,   74.4971E-09
C:/temp/dataset/4/7_1.odb,Step-1,Increment      1: Step Time =    1.000,"PART-1-1",           160,       13.0248,       17.5365,            0.,NA,NA,"",   653.137E-03,   651.076E-03,  -51.8464E-03,   3.21865E-06
C:/temp/dataset/4/7_1.odb,Step-1,Increment      1: Step Time =    1.000,"PART-1-1",           161,      -10.1545,       27.3700,            0.,NA,NA,"",       1.01824,   920.279E-03,   435.764E-03,   3.23874E-09
C:/temp/dataset/4/7_1.odb,Step-1,Increment      1: Step Time =    1.000,"PART-1-1",           162,      -10.0546,      -2.87755,            0.,NA,NA,"",   507.907E-03,   251.965E-03,   441.003E-03,   36.4688E-06
C:/temp/dataset/4/7_1.odb,Step-1,Increment      1: Step Time =    1.000,"PART-1-1",           163,      -5.07747,      -2.66322,            0.,NA,NA,"",   419.040E-03,   255.646E-03,   332.023E-03,   527.170E-06
C:/temp/dataset/4/7_1.odb,Step-1,Increment      1: Step Time =    1.000,"PART-1-1",           164,  -330.659E-03,      -3.26262,            0.,NA,NA,"",   332.028E-03,   243.811E-03,   225.385E-03,   1.43312E-03
C:/temp/dataset/4/7_1.odb,Step-1,Increment      1: Step Time =    1.000,"PART-1-1",           165,       3.93161,      -2.75002,            0.,NA,NA,"",   285.263E-03,   256.154E-03,   125.539E-03,   1.75917E-03
C:/temp/dataset/4/7_1.odb,Step-1,Increment      1: Step Time =    1.000,"PART-1-1",           166,       12.9585,      -10.1304,            0.,NA,NA,"",   137.056E-03,   133.363E-03,  -31.6027E-03,   1.72639E-03
C:/temp/dataset/4/7_1.odb,Step-1,Increment      1: Step Time =    1.000,"PART-1-1",           167,       13.1106,      -19.8561,            0.,NA,NA,"",   38.2486E-03,   34.2811E-03,  -16.9637E-03,   1.86305E-03
C:/temp/dataset/4/7_1.odb,Step-1,Increment      1: Step Time =    1.000,"PART-1-1",           168,       12.2637,      -27.1930,            0.,NA,NA,"",   3.45087E-03,   1.82032E-03,  -2.93171E-03,   1.34716E-03
C:/temp/dataset/4/7_1.odb,Step-1,Increment      1: Step Time =    1.000,"PART-1-1",           169,       13.0974,      -22.2394,            0.,NA,NA,"",   23.6249E-03,   19.8200E-03,  -12.8571E-03,   1.85960E-03
C:/temp/dataset/4/7_1.odb,Step-1,Increment      1: Step Time =    1.000,"PART-1-1",           170,       13.0625,      -15.0302,            0.,NA,NA,"",   79.2975E-03,   75.3533E-03,  -24.6977E-03,   1.81366E-03
C:/temp/dataset/4/7_1.odb,Step-1,Increment      1: Step Time =    1.000,"PART-1-1",           171,       12.8638,      -7.61343,            0.,NA,NA,"",   173.321E-03,   169.891E-03,  -34.3122E-03,   1.64553E-03
C:/temp/dataset/4/7_1.odb,Step-1,Increment      1: Step Time =    1.000,"PART-1-1",           172,       12.8109,      -2.41519,            0.,NA,NA,"",   263.705E-03,   260.526E-03,  -40.8202E-03,   1.43719E-03
C:/temp/dataset/4/7_1.odb,Step-1,Increment      1: Step Time =    1.000,"PART-1-1",           173,       12.7001,   168.481E-03,            0.,NA,NA,"",   313.815E-03,   311.105E-03,  -41.1553E-03,   1.14089E-03
C:/temp/dataset/4/7_1.odb,Step-1,Increment      1: Step Time =    1.000,"PART-1-1",           174,       12.6773,       5.28127,            0.,NA,NA,"",   415.347E-03,   413.136E-03,  -42.8001E-03,   302.318E-06
C:/temp/dataset/4/7_1.odb,Step-1,Increment      1: Step Time =    1.000,"PART-1-1",           175,       12.8405,       7.80961,            0.,NA,NA,"",   465.029E-03,   462.701E-03,  -46.4662E-03,   54.6789E-06
C:/temp/dataset/4/7_1.odb,Step-1,Increment      1: Step Time =    1.000,"PART-1-1",           176,       12.9955,       12.7023,            0.,NA,NA,"",   559.844E-03,   557.573E-03,  -50.3778E-03,   19.5352E-06
C:/temp/dataset/4/7_1.odb,Step-1,Increment      1: Step Time =    1.000,"PART-1-1",           177,       13.0102,       19.9477,            0.,NA,NA,"",   699.659E-03,   697.723E-03,  -52.0138E-03,   766.700E-09
C:/temp/dataset/4/7_1.odb,Step-1,Increment      1: Step Time =    1.000,"PART-1-1",           178,       9.88408,       27.1269,            0.,NA,NA,"",   837.232E-03,   837.201E-03,   7.12210E-03,   46.7153E-09
C:/temp/dataset/4/7_1.odb,Step-1,Increment      1: Step Time =    1.000,"PART-1-1",           179,       13.0301,       15.1161,            0.,NA,NA,"",   606.449E-03,   604.258E-03,  -51.4966E-03,   9.49154E-06
C:/temp/dataset/4/7_1.odb,Step-1,Increment      1: Step Time =    1.000,"PART-1-1",           180,   300.490E-03,       3.00528,            0.,NA,NA,"",   431.370E-03,   377.998E-03,   207.840E-03,   967.891E-06
C:/temp/dataset/4/7_1.odb,Step-1,Increment      1: Step Time =    1.000,"PART-1-1",           181,      -4.18418,       2.89078,            0.,NA,NA,"",   488.169E-03,   377.619E-03,   309.374E-03,   274.875E-06
C:/temp/dataset/4/7_1.odb,Step-1,Increment      1: Step Time =    1.000,"PART-1-1",           182,      -8.75093,       23.2164,            0.,NA,NA,"",   922.182E-03,   828.121E-03,   405.753E-03,   18.7807E-09
C:/temp/dataset/4/7_1.odb,Step-1,Increment      1: Step Time =    1.000,"PART-1-1",           183,       9.13120,      -23.8882,            0.,NA,NA,"",   13.0486E-03,   11.5330E-03,   6.10362E-03,   1.20630E-03
C:/temp/dataset/4/7_1.odb,Step-1,Increment      1: Step Time =    1.000,"PART-1-1",           184,       8.76025,       8.63504,            0.,NA,NA,"",   480.830E-03,   479.736E-03,   32.4191E-03,   53.7300E-06
C:/temp/dataset/4/7_1.odb,Step-1,Increment      1: Step Time =    1.000,"PART-1-1",           185,       8.81891,       23.9948,            0.,NA,NA,"",   777.321E-03,   776.805E-03,   28.3157E-03,   71.1932E-09
C:/temp/dataset/4/7_1.odb,Step-1,Increment      1: Step Time =    1.000,"PART-1-1",           186,       9.00734,       17.5557,            0.,NA,NA,"",   652.703E-03,   652.190E-03,   25.8797E-03,   4.04317E-06
C:/temp/dataset/4/7_1.odb,Step-1,Increment      1: Step Time =    1.000,"PART-1-1",           187,      -8.59230,       19.6811,            0.,NA,NA,"",   851.412E-03,   749.936E-03,   403.110E-03,   74.4818E-09
C:/temp/dataset/4/7_1.odb,Step-1,Increment      1: Step Time =    1.000,"PART-1-1",           188,       9.06266,      -12.9142,            0.,NA,NA,"",   99.8001E-03,   98.1324E-03,   18.1686E-03,   1.23473E-03
C:/temp/dataset/4/7_1.odb,Step-1,Increment      1: Step Time =    1.000,"PART-1-1",           189,       9.13987,      -19.6571,            0.,NA,NA,"",   36.7022E-03,   35.1735E-03,   10.4822E-03,   1.17047E-03
C:/temp/dataset/4/7_1.odb,Step-1,Increment      1: Step Time =    1.000,"PART-1-1",           190,       9.00941,       15.3265,            0.,NA,NA,"",   609.623E-03,   609.057E-03,   26.2667E-03,   10.4376E-06
C:/temp/dataset/4/7_1.odb,Step-1,Increment      1: Step Time =    1.000,"PART-1-1",           191,      -8.96967,       13.7142,            0.,NA,NA,"",   743.356E-03,   618.129E-03,   412.910E-03,   398.255E-09
C:/temp/dataset/4/7_1.odb,Step-1,Increment      1: Step Time =    1.000,"PART-1-1",           192,       9.12973,      -17.4386,            0.,NA,NA,"",   54.0095E-03,   52.4635E-03,   12.8302E-03,   1.17655E-03
C:/temp/dataset/4/7_1.odb,Step-1,Increment      1: Step Time =    1.000,"PART-1-1",           193,       8.94484,       21.9321,            0.,NA,NA,"",   737.342E-03,   736.874E-03,   26.2656E-03,   267.805E-09
C:/temp/dataset/4/7_1.odb,Step-1,Increment      1: Step Time =    1.000,"PART-1-1",           194,      -8.78258,       17.8115,            0.,NA,NA,"",   817.600E-03,   708.654E-03,   407.773E-03,   117.377E-09
C:/temp/dataset/4/7_1.odb,Step-1,Increment      1: Step Time =    1.000,"PART-1-1",           195,       8.90333,       10.8666,            0.,NA,NA,"",   523.617E-03,   522.802E-03,   29.2122E-03,   29.4631E-06
C:/temp/dataset/4/7_1.odb,Step-1,Increment      1: Step Time =    1.000,"PART-1-1",           196,      -9.00437,       11.6266,            0.,NA,NA,"",   706.207E-03,   571.993E-03,   414.188E-03,   1.95535E-06
C:/temp/dataset/4/7_1.odb,Step-1,Increment      1: Step Time =    1.000,"PART-1-1",           197,      -9.03622,       9.53759,            0.,NA,NA,"",   670.117E-03,   525.827E-03,   415.407E-03,   6.63843E-06
C:/temp/dataset/4/7_1.odb,Step-1,Increment      1: Step Time =    1.000,"PART-1-1",           198,       8.99264,      -10.6281,            0.,NA,NA,"",   128.274E-03,   126.476E-03,   21.4018E-03,   1.26547E-03
C:/temp/dataset/4/7_1.odb,Step-1,Increment      1: Step Time =    1.000,"PART-1-1",           199,       8.82192,      -8.34759,            0.,NA,NA,"",   160.337E-03,   158.195E-03,   26.1228E-03,   1.23829E-03
C:/temp/dataset/4/7_1.odb,Step-1,Increment      1: Step Time =    1.000,"PART-1-1",           200,       8.98411,       13.0928,            0.,NA,NA,"",   566.499E-03,   565.845E-03,   27.1982E-03,   20.9382E-06
C:/temp/dataset/4/7_1.odb,Step-1,Increment      1: Step Time =    1.000,"PART-1-1",           201,       7.30685,       27.8134,            0.,NA,NA,"",   852.862E-03,   850.965E-03,   56.8550E-03,   53.4505E-09
C:/temp/dataset/4/7_1.odb,Step-1,Increment      1: Step Time =    1.000,"PART-1-1",           202,      -8.46063,       21.4565,            0.,NA,NA,"",   884.629E-03,   789.149E-03,   399.766E-03,   38.0881E-09
C:/temp/dataset/4/7_1.odb,Step-1,Increment      1: Step Time =    1.000,"PART-1-1",           203,       9.11250,      -15.1896,            0.,NA,NA,"",   74.9955E-03,   73.4217E-03,   15.2835E-03,   1.19388E-03
C:/temp/dataset/4/7_1.odb,Step-1,Increment      1: Step Time =    1.000,"PART-1-1",           204,       9.14200,      -21.8221,            0.,NA,NA,"",   23.0619E-03,   21.5440E-03,   8.22842E-03,   1.17673E-03
C:/temp/dataset/4/7_1.odb,Step-1,Increment      1: Step Time =    1.000,"PART-1-1",           205,      -8.90436,       15.8055,            0.,NA,NA,"",   781.175E-03,   664.342E-03,   410.955E-03,   146.263E-09
C:/temp/dataset/4/7_1.odb,Step-1,Increment      1: Step Time =    1.000,"PART-1-1",           206,       9.00445,       19.7587,            0.,NA,NA,"",   695.281E-03,   694.813E-03,   25.5199E-03,   1.24929E-06
C:/temp/dataset/4/7_1.odb,Step-1,Increment      1: Step Time =    1.000,"PART-1-1",           207,       8.39742,      -6.16188,            0.,NA,NA,"",   195.119E-03,   192.025E-03,   34.6109E-03,   1.07448E-03
C:/temp/dataset/4/7_1.odb,Step-1,Increment      1: Step Time =    1.000,"PART-1-1",           208,      -9.10294,       7.45394,            0.,NA,NA,"",   635.942E-03,   479.786E-03,   417.406E-03,   16.4305E-06
C:/temp/dataset/4/7_1.odb,Step-1,Increment      1: Step Time =    1.000,"PART-1-1",           209,       8.43260,       6.43235,            0.,NA,NA,"",   439.132E-03,   437.399E-03,   38.9709E-03,   379.340E-06
C:/temp/dataset/4/7_1.odb,Step-1,Increment      1: Step Time =    1.000,"PART-1-1",           210,       5.64784,       2.93298,            0.,NA,NA,"",   382.706E-03,   371.447E-03,   92.1471E-03,   967.406E-06
C:/temp/dataset/4/7_1.odb,Step-1,Increment      1: Step Time =    1.000,"PART-1-1",           211,      -10.7213,       1.88644,            0.,NA,NA,"",   578.053E-03,   357.085E-03,   454.571E-03,   19.4533E-06
C:/temp/dataset/4/7_1.odb,Step-1,Increment      1: Step Time =    1.000,"PART-1-1",           212,      -12.7178,       27.8380,            0.,NA,NA,"",       1.05337,   931.249E-03,   492.312E-03,   3.17857E-09
C:/temp/dataset/4/7_1.odb,Step-1,Increment      1: Step Time =    1.000,"PART-1-1",           213,      -11.0298,       24.2524,            0.,NA,NA,"",   965.923E-03,   851.579E-03,   455.873E-03,   11.8082E-09
C:/temp/dataset/4/7_1.odb,Step-1,Increment      1: Step Time =    1.000,"PART-1-1",           214,      -10.4500,       20.0822,            0.,NA,NA,"",   879.587E-03,   759.256E-03,   444.076E-03,   66.6854E-09
C:/temp/dataset/4/7_1.odb,Step-1,Increment      1: Step Time =    1.000,"PART-1-1",           215,      -10.9919,       14.0243,            0.,NA,NA,"",   774.958E-03,   625.477E-03,   457.535E-03,   301.149E-09
C:/temp/dataset/4/7_1.odb,Step-1,Increment      1: Step Time =    1.000,"PART-1-1",           216,      -11.0796,       9.82104,            0.,NA,NA,"",   704.067E-03,   532.582E-03,   460.506E-03,   4.86639E-06
C:/temp/dataset/4/7_1.odb,Step-1,Increment      1: Step Time =    1.000,"PART-1-1",           217,      -11.0365,       11.9204,            0.,NA,NA,"",   738.873E-03,   578.983E-03,   459.035E-03,   1.48872E-06
C:/temp/dataset/4/7_1.odb,Step-1,Increment      1: Step Time =    1.000,"PART-1-1",           218,      -10.5491,       22.5446,            0.,NA,NA,"",   927.762E-03,   813.711E-03,   445.665E-03,   27.1072E-09
C:/temp/dataset/4/7_1.odb,Step-1,Increment      1: Step Time =    1.000,"PART-1-1",           219,      -10.9277,       16.1478,            0.,NA,NA,"",   812.215E-03,   672.402E-03,   455.597E-03,   135.905E-09
C:/temp/dataset/4/7_1.odb,Step-1,Increment      1: Step Time =    1.000,"PART-1-1",           220,      -10.7891,       18.2216,            0.,NA,NA,"",   848.618E-03,   718.210E-03,   452.027E-03,   111.149E-09
C:/temp/dataset/4/7_1.odb,Step-1,Increment      1: Step Time =    1.000,"PART-1-1",           221,      -11.1555,       7.76515,            0.,NA,NA,"",   671.860E-03,   487.147E-03,   462.692E-03,   11.4994E-06
C:/temp/dataset/4/7_1.odb,Step-1,Increment      1: Step Time =    1.000,"PART-1-1",           222,      -9.80329,       4.04682,            0.,NA,NA,"",   593.177E-03,   404.605E-03,   433.767E-03,   25.5977E-06
C:/temp/dataset/4/7_1.odb,Step-1,Increment      1: Step Time =    1.000,"PART-1-1",           223,       9.22674,      -25.9093,            0.,NA,NA,"",   5.77756E-03,   4.46411E-03,   3.66770E-03,   1.12309E-03
C:/temp/dataset/4/7_1.odb,Step-1,Increment      1: Step Time =    1.000,"PART-1-1",           224,      -9.21421,       25.1107,            0.,NA,NA,"",   964.238E-03,   870.109E-03,   415.531E-03,   7.10175E-09
C:/temp/dataset/4/7_1.odb,Step-1,Increment      1: Step Time =    1.000,"PART-1-1",           225,       6.25241,      -4.60112,            0.,NA,NA,"",   230.672E-03,   218.731E-03,   73.2550E-03,   2.07107E-03
C:/temp/dataset/4/7_1.odb,Step-1,Increment      1: Step Time =    1.000,"PART-1-1",           226,      -7.19550,       4.55405,            0.,NA,NA,"",   560.156E-03,   415.222E-03,   375.986E-03,   37.6521E-06
C:/temp/dataset/4/7_1.odb,Step-1,Increment      1: Step Time =    1.000,"PART-1-1",           227,       12.9551,      -24.6090,            0.,NA,NA,"",   12.4038E-03,   9.20111E-03,  -8.31830E-03,   1.80244E-03
C:/temp/dataset/4/7_1.odb,Step-1,Increment      1: Step Time =    1.000,"PART-1-1",           228,       10.9241,       22.1645,            0.,NA,NA,"",   741.099E-03,   741.000E-03,  -12.0709E-03,   222.040E-09
C:/temp/dataset/4/7_1.odb,Step-1,Increment      1: Step Time =    1.000,"PART-1-1",           229,      -4.91288,   464.762E-03,            0.,NA,NA,"",   460.351E-03,   324.451E-03,   326.580E-03,   318.861E-06
C:/temp/dataset/4/7_1.odb,Step-1,Increment      1: Step Time =    1.000,"PART-1-1",           230,  -831.143E-03,      -1.35374,            0.,NA,NA,"",   369.750E-03,   285.198E-03,   235.323E-03,   1.22413E-03
C:/temp/dataset/4/7_1.odb,Step-1,Increment      1: Step Time =    1.000,"PART-1-1",           231,       11.1616,      -19.7398,            0.,NA,NA,"",   34.3563E-03,   34.1644E-03,  -3.62615E-03,   370.501E-06
C:/temp/dataset/4/7_1.odb,Step-1,Increment      1: Step Time =    1.000,"PART-1-1",           232,       10.9730,      -10.3410,            0.,NA,NA,"",   129.849E-03,   129.764E-03,  -4.70726E-03,   250.825E-06
C:/temp/dataset/4/7_1.odb,Step-1,Increment      1: Step Time =    1.000,"PART-1-1",           233,       10.4844,      -5.04269,            0.,NA,NA,"",   211.368E-03,   211.366E-03,   780.698E-06,   959.112E-06
C:/temp/dataset/4/7_1.odb,Step-1,Increment      1: Step Time =    1.000,"PART-1-1",           234,       10.9074,       10.5689,            0.,NA,NA,"",   516.757E-03,   516.669E-03,  -9.50440E-03,   27.2154E-06
C:/temp/dataset/4/7_1.odb,Step-1,Increment      1: Step Time =    1.000,"PART-1-1",           235,       11.0515,      -12.7377,            0.,NA,NA,"",   99.7622E-03,   99.6398E-03,  -4.94147E-03,   272.073E-06
C:/temp/dataset/4/7_1.odb,Step-1,Increment      1: Step Time =    1.000,"PART-1-1",           236,       10.9936,       12.8990,            0.,NA,NA,"",   561.864E-03,   561.743E-03,  -11.6425E-03,   20.7963E-06
C:/temp/dataset/4/7_1.odb,Step-1,Increment      1: Step Time =    1.000,"PART-1-1",           237,      -9.84553,  -403.770E-03,            0.,NA,NA,"",   532.708E-03,   306.336E-03,   435.816E-03,   26.5984E-06
C:/temp/dataset/4/7_1.odb,Step-1,Increment      1: Step Time =    1.000,"PART-1-1",           238,      -6.42098,  -599.403E-03,            0.,NA,NA,"",   469.742E-03,   301.224E-03,   360.446E-03,   159.782E-06
C:/temp/dataset/4/7_1.odb,Step-1,Increment      1: Step Time =    1.000,"PART-1-1",           239,      -2.35214,      -1.85066,            0.,NA,NA,"",   385.164E-03,   273.981E-03,   270.713E-03,   1.05070E-03
C:/temp/dataset/4/7_1.odb,Step-1,Increment      1: Step Time =    1.000,"PART-1-1",           240,       11.1625,      -21.9830,            0.,NA,NA,"",   20.4472E-03,   20.2486E-03,  -2.84230E-03,   374.124E-06
C:/temp/dataset/4/7_1.odb,Step-1,Increment      1: Step Time =    1.000,"PART-1-1",           241,       11.1073,      -15.0998,            0.,NA,NA,"",   73.9765E-03,   73.8219E-03,  -4.77940E-03,   318.743E-06
C:/temp/dataset/4/7_1.odb,Step-1,Increment      1: Step Time =    1.000,"PART-1-1",           242,       11.1457,      -17.4375,            0.,NA,NA,"",   52.1919E-03,   52.0123E-03,  -4.32585E-03,   355.529E-06
C:/temp/dataset/4/7_1.odb,Step-1,Increment      1: Step Time =    1.000,"PART-1-1",           243,       10.8340,      -7.85693,            0.,NA,NA,"",   165.358E-03,   165.319E-03,  -3.58788E-03,   418.717E-06
C:/temp/dataset/4/7_1.odb,Step-1,Increment      1: Step Time =    1.000,"PART-1-1",           244,       10.5842,   120.255E-03,            0.,NA,NA,"",   310.430E-03,   310.420E-03,  -2.44409E-03,   1.32532E-03
C:/temp/dataset/4/7_1.odb,Step-1,Increment      1: Step Time =    1.000,"PART-1-1",           245,       10.8633,      -2.34188,            0.,NA,NA,"",   261.668E-03,   261.580E-03,  -6.78769E-03,   1.37505E-03
C:/temp/dataset/4/7_1.odb,Step-1,Increment      1: Step Time =    1.000,"PART-1-1",           246,       9.78574,       2.89226,            0.,NA,NA,"",   366.988E-03,   366.775E-03,   12.4827E-03,   1.02311E-03
C:/temp/dataset/4/7_1.odb,Step-1,Increment      1: Step Time =    1.000,"PART-1-1",           247,       10.7685,       8.18214,            0.,NA,NA,"",   470.481E-03,   470.438E-03,  -6.36990E-03,   79.4037E-06
C:/temp/dataset/4/7_1.odb,Step-1,Increment      1: Step Time =    1.000,"PART-1-1",           248,       10.4587,       5.69287,            0.,NA,NA,"",   421.984E-03,   421.984E-03,  -130.233E-06,   386.869E-06
C:/temp/dataset/4/7_1.odb,Step-1,Increment      1: Step Time =    1.000,"PART-1-1",           249,       11.0104,       19.8565,            0.,NA,NA,"",   696.460E-03,   696.333E-03,  -13.3080E-03,   1.14931E-06
C:/temp/dataset/4/7_1.odb,Step-1,Increment      1: Step Time =    1.000,"PART-1-1",           250,       11.0363,       17.5467,            0.,NA,NA,"",   651.779E-03,   651.642E-03,  -13.3719E-03,   4.02313E-06
C:/temp/dataset/4/7_1.odb,Step-1,Increment      1: Step Time =    1.000,"PART-1-1",           251,       11.0403,       15.2208,            0.,NA,NA,"",   606.788E-03,   606.648E-03,  -13.0053E-03,   10.5793E-06
C:/temp/dataset/4/7_1.odb,Step-1,Increment      1: Step Time =    1.000,"PART-1-1",           252,       1.19009,      -1.06873,            0.,NA,NA,"",   347.029E-03,   291.504E-03,   188.294E-03,   1.43263E-03
C:/temp/dataset/4/7_1.odb,Step-1,Increment      1: Step Time =    1.000,"PART-1-1",           253,       10.6932,       24.5073,            0.,NA,NA,"",   786.410E-03,   786.369E-03,  -8.04172E-03,   73.1922E-09
C:/temp/dataset/4/7_1.odb,Step-1,Increment      1: Step Time =    1.000,"PART-1-1",           254,       8.51128,       25.6419,            0.,NA,NA,"",   809.441E-03,   808.728E-03,   33.9593E-03,   66.4542E-09
C:/temp/dataset/4/7_1.odb,Step-1,Increment      1: Step Time =    1.000,"PART-1-1",           255,      -9.32324,       5.48290,            0.,NA,NA,"",   607.509E-03,   436.254E-03,   422.787E-03,   25.2988E-06
C:/temp/dataset/4/7_1.odb,Step-1,Increment      1: Step Time =    1.000,"PART-1-1",           256,      -11.4569,       25.7537,            0.,NA,NA,"",   999.586E-03,   884.870E-03,   464.949E-03,   4.50757E-09
C:/temp/dataset/4/7_1.odb,Step-1,Increment      1: Step Time =    1.000,"PART-1-1",           257,      -8.85145,       2.84717,            0.,NA,NA,"",   559.812E-03,   377.851E-03,   413.059E-03,   27.2534E-06
C:/temp/dataset/4/7_1.odb,Step-1,Increment      1: Step Time =    1.000,"PART-1-1",           258,       11.0896,      -24.0706,            0.,NA,NA,"",   10.5248E-03,   10.3671E-03,  -1.81506E-03,   325.873E-06
C:/temp/dataset/4/7_1.odb,Step-1,Increment      1: Step Time =    1.000,"PART-1-1",           259,       5.69240,      -2.12345,            0.,NA,NA,"",   282.054E-03,   268.039E-03,   87.8027E-03,   1.83593E-03
C:/temp/dataset/4/7_1.odb,Step-1,Increment      1: Step Time =    1.000,"PART-1-1",           260,       7.72467,       1.38687,            0.,NA,NA,"",   341.727E-03,   337.916E-03,   50.8983E-03,   1.30209E-03
C:/temp/dataset/4/7_1.odb,Step-1,Increment      1: Step Time =    1.000,"PART-1-1",           261,       8.83369,  -368.727E-03,            0.,NA,NA,"",   302.770E-03,   301.342E-03,   29.3671E-03,   1.44348E-03
C:/temp/dataset/4/7_1.odb,Step-1,Increment      1: Step Time =    1.000,"PART-1-1",           262,       7.58912,       4.39900,            0.,NA,NA,"",   402.328E-03,   398.566E-03,   54.8920E-03,   1.04455E-03
C:/temp/dataset/4/7_1.odb,Step-1,Increment      1: Step Time =    1.000,"PART-1-1",           263,      -6.02595,       2.23751,            0.,NA,NA,"",   505.231E-03,   363.699E-03,   350.687E-03,   96.7580E-06
C:/temp/dataset/4/7_1.odb,Step-1,Increment      1: Step Time =    1.000,"PART-1-1",           264,       4.92391,   813.983E-03,            0.,NA,NA,"",   345.395E-03,   328.717E-03,   106.031E-03,   889.895E-06
C:/temp/dataset/4/7_1.odb,Step-1,Increment      1: Step Time =    1.000,"PART-1-1",           265,      -7.77287,       1.11371,            0.,NA,NA,"",   516.713E-03,   339.288E-03,   389.712E-03,   53.1800E-06
C:/temp/dataset/4/7_1.odb,Step-1,Increment      1: Step Time =    1.000,"PART-1-1",           266,      -3.71710,       1.36231,            0.,NA,NA,"",   456.000E-03,   343.957E-03,   299.382E-03,   447.145E-06
C:/temp/dataset/4/7_1.odb,Step-1,Increment      1: Step Time =    1.000,"PART-1-1",           267,       2.85817,       1.10052,            0.,NA,NA,"",   368.264E-03,   336.146E-03,   150.414E-03,   1.05182E-03
C:/temp/dataset/4/7_1.odb,Step-1,Increment      1: Step Time =    1.000,"PART-1-1",           268,       7.51165,      -2.37377,            0.,NA,NA,"",   266.896E-03,   261.692E-03,   52.4469E-03,   1.60877E-03
C:/temp/dataset/4/7_1.odb,Step-1,Increment      1: Step Time =    1.000,"PART-1-1",           269,      -1.84913,   666.939E-03,            0.,NA,NA,"",   417.413E-03,   328.602E-03,   257.398E-03,   886.732E-06
C:/temp/dataset/4/7_1.odb,Step-1,Increment      1: Step Time =    1.000,"PART-1-1",           270,   621.955E-03,   989.730E-03,            0.,NA,NA,"",   390.519E-03,   334.953E-03,   200.777E-03,   1.15309E-03
C:/temp/dataset/4/7_1.odb,Step-1,Increment      1: Step Time =    1.000,"PART-1-1",           271,       7.77182,      -4.29185,            0.,NA,NA,"",   229.293E-03,   224.544E-03,   46.4241E-03,   1.45666E-03
C:/temp/dataset/4/7_1.odb,Step-1,Increment      1: Step Time =    1.000,"PART-1-1",           272,       6.40836,       5.42027,            0.,NA,NA,"",   426.563E-03,   419.347E-03,   78.1295E-03,   904.904E-06
C:/temp/dataset/4/7_1.odb,Step-1,Increment      1: Step Time =    1.000,"PART-1-1",           273,      -12.5139,      -2.82358,            0.,NA,NA,"",   556.431E-03,   253.745E-03,   495.206E-03,   31.1958E-06
C:/temp/dataset/4/7_1.odb,Step-1,Increment      1: Step Time =    1.000,"PART-1-1",           274,       10.8188,      -25.6946,            0.,NA,NA,"",   4.78019E-03,   4.74679E-03,  -564.105E-06,   144.814E-06
C:/temp/dataset/4/7_1.odb,Step-1,Increment      1: Step Time =    1.000,"PART-1-1",           275,       6.49302,  -163.532E-03,            0.,NA,NA,"",   316.029E-03,   307.314E-03,   73.7069E-03,   1.23477E-03
C:/temp/dataset/4/7_1.odb,Step-1,Increment      1: Step Time =    1.000,"PART-1-1",           276,       7.60941,  -936.337E-03,            0.,NA,NA,"",   295.163E-03,   290.600E-03,   51.6954E-03,   1.47864E-03
C:/temp/dataset/4/7_1.odb,Step-1,Increment      1: Step Time =    1.000,"PART-1-1",           277,       9.17282,      -2.25688,            0.,NA,NA,"",   264.374E-03,   263.394E-03,   22.7382E-03,   1.44428E-03
C:/temp/dataset/4/7_1.odb,Step-1,Increment      1: Step Time =    1.000,"PART-1-1",           278,       9.10690,      -3.89703,            0.,NA,NA,"",   233.090E-03,   231.891E-03,   23.6140E-03,   1.22098E-03
C:/temp/dataset/4/7_1.odb,Step-1,Increment      1: Step Time =    1.000,"PART-1-1",           279,      -7.91199,      -1.40732,            0.,NA,NA,"",   485.139E-03,   283.741E-03,   393.511E-03,   65.8397E-06
C:/temp/dataset/4/7_1.odb,Step-1,Increment      1: Step Time =    1.000,"PART-1-1",           280,      -9.83927,       21.3699,            0.,NA,NA,"",   897.436E-03,   787.570E-03,   430.262E-03,   43.2812E-09
C:/temp/dataset/4/7_1.odb,Step-1,Increment      1: Step Time =    1.000,"PART-1-1",           281,      -11.2653,       5.77953,            0.,NA,NA,"",   642.872E-03,   443.268E-03,   465.615E-03,   18.2571E-06
C:/temp/dataset/4/7_1.odb,Step-1,Increment      1: Step Time =    1.000,"PART-1-1",           282,      -11.2487,       3.84080,            0.,NA,NA,"",   614.187E-03,   400.399E-03,   465.732E-03,   20.2157E-06
C:/temp/dataset/4/7_1.odb,Step-1,Increment      1: Step Time =    1.000,"PART-1-1",           283,       3.11059,  -868.354E-03,            0.,NA,NA,"",   328.797E-03,   295.367E-03,   144.449E-03,   1.20371E-03
C:/temp/dataset/4/7_1.odb,Step-1,Increment      1: Step Time =    1.000,"PART-1-1",           284,       4.50766,  -682.768E-03,            0.,NA,NA,"",   319.349E-03,   298.352E-03,   113.884E-03,   1.18181E-03
C:/temp/dataset/4/7_1.odb,Step-1,Increment      1: Step Time =    1.000,"PART-1-1",           285,      -3.56662,  -854.847E-03,            0.,NA,NA,"",   419.164E-03,   295.512E-03,   297.273E-03,   701.181E-06
C:/temp/dataset/4/7_1.odb,Step-1,Increment      1: Step Time =    1.000,"PART-1-1",           286,      -7.33150,       26.6843,            0.,NA,NA,"",   978.530E-03,   904.432E-03,   373.530E-03,   3.19194E-09
C:/temp/dataset/4/7_1.odb,Step-1,Increment      1: Step Time =    1.000,"PART-1-1",           287,      -6.09303,       25.7233,            0.,NA,NA,"",   948.406E-03,   882.887E-03,   346.388E-03,   3.35690E-09
C:/temp/dataset/4/7_1.odb,Step-1,Increment      1: Step Time =    1.000,"PART-1-1",           288,           -5.,        26.875,            0.,NA,NA,"",   963.459E-03,   908.077E-03,   321.945E-03,   3.81804E-09
C:/temp/dataset/4/7_1.odb,Step-1,Increment      1: Step Time =    1.000,"PART-1-1",           289,      -6.23847,       27.8360,            0.,NA,NA,"",   993.005E-03,   929.622E-03,   349.087E-03,   3.49204E-09
C:/temp/dataset/4/7_1.odb,Step-1,Increment      1: Step Time =    1.000,"PART-1-1",           290,      -8.20013,       25.3620,            0.,NA,NA,"",   959.606E-03,   875.416E-03,   393.054E-03,   5.15693E-09
C:/temp/dataset/4/7_1.odb,Step-1,Increment      1: Step Time =    1.000,"PART-1-1",           291,      -8.98257,       24.1636,            0.,NA,NA,"",   943.198E-03,   849.115E-03,   410.642E-03,   12.9146E-09
C:/temp/dataset/4/7_1.odb,Step-1,Increment      1: Step Time =    1.000,"PART-1-1",           292,      -7.83587,       23.3915,            0.,NA,NA,"",   916.753E-03,   831.768E-03,   385.483E-03,   13.8630E-09
C:/temp/dataset/4/7_1.odb,Step-1,Increment      1: Step Time =    1.000,"PART-1-1",           293,      -7.05344,       24.5900,            0.,NA,NA,"",   933.611E-03,   858.069E-03,   367.895E-03,   7.74022E-09
C:/temp/dataset/4/7_1.odb,Step-1,Increment      1: Step Time =    1.000,"PART-1-1",           294,      -6.78951,       20.5788,            0.,NA,NA,"",   850.693E-03,   769.337E-03,   363.041E-03,   48.6748E-09
C:/temp/dataset/4/7_1.odb,Step-1,Increment      1: Step Time =    1.000,"PART-1-1",           295,      -5.89603,       19.5861,            0.,NA,NA,"",   822.367E-03,   747.177E-03,   343.533E-03,   53.2974E-09
C:/temp/dataset/4/7_1.odb,Step-1,Increment      1: Step Time =    1.000,"PART-1-1",           296,           -5.,        20.625,            0.,NA,NA,"",   835.113E-03,   769.922E-03,   323.473E-03,   41.7085E-09
C:/temp/dataset/4/7_1.odb,Step-1,Increment      1: Step Time =    1.000,"PART-1-1",           297,      -5.89348,       21.6177,            0.,NA,NA,"",   863.152E-03,   792.083E-03,   342.980E-03,   20.4635E-09
C:/temp/dataset/4/7_1.odb,Step-1,Increment      1: Step Time =    1.000,"PART-1-1",           298,      -7.97413,       13.6001,            0.,NA,NA,"",   729.041E-03,   615.364E-03,   390.931E-03,   342.251E-09
C:/temp/dataset/4/7_1.odb,Step-1,Increment      1: Step Time =    1.000,"PART-1-1",           299,      -8.98702,       12.6704,            0.,NA,NA,"",   724.652E-03,   595.061E-03,   413.549E-03,   1.17607E-06
C:/temp/dataset/4/7_1.odb,Step-1,Increment      1: Step Time =    1.000,"PART-1-1",           300,      -8.00249,       11.5116,            0.,NA,NA,"",   691.170E-03,   569.209E-03,   392.069E-03,   1.57046E-06
C:/temp/dataset/4/7_1.odb,Step-1,Increment      1: Step Time =    1.000,"PART-1-1",           301,      -6.98959,       12.4413,            0.,NA,NA,"",   695.714E-03,   589.511E-03,   369.452E-03,   1.01624E-06
C:/temp/dataset/4/7_1.odb,Step-1,Increment      1: Step Time =    1.000,"PART-1-1",           302,      -9.95004,      -1.64066,            0.,NA,NA,"",   519.726E-03,   279.131E-03,   438.407E-03,   27.2705E-06
C:/temp/dataset/4/7_1.odb,Step-1,Increment      1: Step Time =    1.000,"PART-1-1",           303,      -11.1983,  -513.068E-03,            0.,NA,NA,"",   556.262E-03,   304.282E-03,   465.661E-03,   22.7877E-06
C:/temp/dataset/4/7_1.odb,Step-1,Increment      1: Step Time =    1.000,"PART-1-1",           304,      -12.5325,      -1.72297,            0.,NA,NA,"",   568.026E-03,   277.979E-03,   495.360E-03,   26.4368E-06
C:/temp/dataset/4/7_1.odb,Step-1,Increment      1: Step Time =    1.000,"PART-1-1",           305,      -11.2842,      -2.85056,            0.,NA,NA,"",   532.028E-03,   252.855E-03,   468.101E-03,   35.4755E-06
C:/temp/dataset/4/7_1.odb,Step-1,Increment      1: Step Time =    1.000,"PART-1-1",           306,      -10.2834,   741.336E-03,            0.,NA,NA,"",   555.175E-03,   331.698E-03,   445.192E-03,   20.4298E-06
C:/temp/dataset/4/7_1.odb,Step-1,Increment      1: Step Time =    1.000,"PART-1-1",           307,      -11.7661,       1.72477,            0.,NA,NA,"",   594.408E-03,   353.780E-03,   477.661E-03,   15.8912E-06
C:/temp/dataset/4/7_1.odb,Step-1,Increment      1: Step Time =    1.000,"PART-1-1",           308,      -12.6810,   470.366E-03,            0.,NA,NA,"",   595.512E-03,   326.339E-03,   498.134E-03,   17.8102E-06
C:/temp/dataset/4/7_1.odb,Step-1,Increment      1: Step Time =    1.000,"PART-1-1",           309,         -1.25,           -5.,            0.,NA,NA,"",   321.855E-03,   204.000E-03,   248.947E-03,   829.829E-06
C:/temp/dataset/4/7_1.odb,Step-1,Increment      1: Step Time =    1.000,"PART-1-1",           310,  -165.329E-03,      -4.13131,            0.,NA,NA,"",   315.848E-03,   224.351E-03,   222.321E-03,   1.08649E-03
C:/temp/dataset/4/7_1.odb,Step-1,Increment      1: Step Time =    1.000,"PART-1-1",           311,      -1.46228,      -3.26668,            0.,NA,NA,"",   350.073E-03,   243.223E-03,   251.781E-03,   1.26518E-03
C:/temp/dataset/4/7_1.odb,Step-1,Increment      1: Step Time =    1.000,"PART-1-1",           312,      -2.54695,      -4.13537,            0.,NA,NA,"",   356.431E-03,   223.565E-03,   277.600E-03,   1.04712E-03
C:/temp/dataset/4/7_1.odb,Step-1,Increment      1: Step Time =    1.000,"PART-1-1",           313,   769.081E-03,      -3.16387,            0.,NA,NA,"",   316.896E-03,   246.359E-03,   199.324E-03,   1.31447E-03
C:/temp/dataset/4/7_1.odb,Step-1,Increment      1: Step Time =    1.000,"PART-1-1",           314,          1.25,           -5.,            0.,NA,NA,"",   278.704E-03,   204.651E-03,   189.193E-03,   1.10825E-03
C:/temp/dataset/4/7_1.odb,Step-1,Increment      1: Step Time =    1.000,"PART-1-1",           315,       2.18441,      -4.03256,            0.,NA,NA,"",   282.077E-03,   227.810E-03,   166.343E-03,   1.20507E-03
C:/temp/dataset/4/7_1.odb,Step-1,Increment      1: Step Time =    1.000,"PART-1-1",           316,       1.54561,       3.01681,            0.,NA,NA,"",   417.888E-03,   377.248E-03,   179.763E-03,   1.05868E-03
C:/temp/dataset/4/7_1.odb,Step-1,Increment      1: Step Time =    1.000,"PART-1-1",           317,       2.64536,       4.01417,            0.,NA,NA,"",   426.534E-03,   397.172E-03,   155.516E-03,   1.32345E-03
C:/temp/dataset/4/7_1.odb,Step-1,Increment      1: Step Time =    1.000,"PART-1-1",           318,          1.25,            5.,            0.,NA,NA,"",   460.287E-03,   420.671E-03,   186.817E-03,   1.22011E-03
C:/temp/dataset/4/7_1.odb,Step-1,Increment      1: Step Time =    1.000,"PART-1-1",           319,   150.245E-03,       4.00264,            0.,NA,NA,"",   452.200E-03,   399.807E-03,   211.279E-03,   803.121E-06
C:/temp/dataset/4/7_1.odb,Step-1,Increment      1: Step Time =    1.000,"PART-1-1",           320,   179.474E-03,      -1.21124,            0.,NA,NA,"",   357.845E-03,   288.399E-03,   211.845E-03,   1.31057E-03
C:/temp/dataset/4/7_1.odb,Step-1,Increment      1: Step Time =    1.000,"PART-1-1",           321,  -580.901E-03,      -2.30818,            0.,NA,NA,"",   350.809E-03,   264.593E-03,   230.342E-03,   1.29866E-03
C:/temp/dataset/4/7_1.odb,Step-1,Increment      1: Step Time =    1.000,"PART-1-1",           322,       1.52946,      -2.06693,            0.,NA,NA,"",   325.292E-03,   270.357E-03,   180.894E-03,   1.43667E-03
C:/temp/dataset/4/7_1.odb,Step-1,Increment      1: Step Time =    1.000,"PART-1-1",           323,       12.7868,      -3.71378,            0.,NA,NA,"",   239.320E-03,   236.151E-03,  -38.8148E-03,   1.48325E-03
C:/temp/dataset/4/7_1.odb,Step-1,Increment      1: Step Time =    1.000,"PART-1-1",           324,       13.8814,      -5.00619,            0.,NA,NA,"",   220.727E-03,   213.671E-03,  -55.3621E-03,   2.11984E-03
C:/temp/dataset/4/7_1.odb,Step-1,Increment      1: Step Time =    1.000,"PART-1-1",           325,           15.,         -3.75,            0.,NA,NA,"",   249.433E-03,   237.016E-03,  -77.7191E-03,   2.44054E-03
C:/temp/dataset/4/7_1.odb,Step-1,Increment      1: Step Time =    1.000,"PART-1-1",           326,       13.9054,      -2.45760,            0.,NA,NA,"",   267.107E-03,   260.198E-03,  -60.3563E-03,   1.64288E-03
C:/temp/dataset/4/7_1.odb,Step-1,Increment      1: Step Time =    1.000,"PART-1-1",           327,       5.10003,      -1.40311,            0.,NA,NA,"",   300.591E-03,   283.177E-03,   100.824E-03,   1.41032E-03
C:/temp/dataset/4/7_1.odb,Step-1,Increment      1: Step Time =    1.000,"PART-1-1",           328,       3.80913,  -775.561E-03,            0.,NA,NA,"",   323.751E-03,   296.913E-03,   129.063E-03,   1.15496E-03
C:/temp/dataset/4/7_1.odb,Step-1,Increment      1: Step Time =    1.000,"PART-1-1",           329,       3.52110,      -1.80919,            0.,NA,NA,"",   306.985E-03,   275.663E-03,   135.094E-03,   1.43922E-03
C:/temp/dataset/4/7_1.odb,Step-1,Increment      1: Step Time =    1.000,"PART-1-1",           330,       4.81200,      -2.43673,            0.,NA,NA,"",   282.944E-03,   262.378E-03,   105.903E-03,   1.63023E-03
C:/temp/dataset/4/7_1.odb,Step-1,Increment      1: Step Time =    1.000,"PART-1-1",           331,           15.,          3.75,            0.,NA,NA,"",   392.369E-03,   382.463E-03,  -87.6088E-03,   281.450E-06
C:/temp/dataset/4/7_1.odb,Step-1,Increment      1: Step Time =    1.000,"PART-1-1",           332,       13.8386,       5.14064,            0.,NA,NA,"",   415.296E-03,   410.131E-03,  -65.2943E-03,   169.751E-06
C:/temp/dataset/4/7_1.odb,Step-1,Increment      1: Step Time =    1.000,"PART-1-1",           333,       12.6076,       4.00525,            0.,NA,NA,"",   390.020E-03,   387.843E-03,  -41.1518E-03,   517.392E-06
C:/temp/dataset/4/7_1.odb,Step-1,Increment      1: Step Time =    1.000,"PART-1-1",           334,       13.7689,       2.61462,            0.,NA,NA,"",   365.422E-03,   359.961E-03,  -62.9405E-03,   516.131E-06
C:/temp/dataset/4/7_1.odb,Step-1,Increment      1: Step Time =    1.000,"PART-1-1",           335,       9.76439,       8.40859,            0.,NA,NA,"",   475.276E-03,   475.098E-03,   13.0344E-03,   64.9079E-06
C:/temp/dataset/4/7_1.odb,Step-1,Increment      1: Step Time =    1.000,"PART-1-1",           336,       8.59642,       7.53369,            0.,NA,NA,"",   459.923E-03,   458.532E-03,   35.7504E-03,   201.906E-06
C:/temp/dataset/4/7_1.odb,Step-1,Increment      1: Step Time =    1.000,"PART-1-1",           337,       9.44563,       6.06261,            0.,NA,NA,"",   430.152E-03,   429.714E-03,   19.3967E-03,   353.799E-06
C:/temp/dataset/4/7_1.odb,Step-1,Increment      1: Step Time =    1.000,"PART-1-1",           338,       10.6136,       6.93751,            0.,NA,NA,"",   446.294E-03,   446.283E-03,  -3.19924E-03,   219.497E-06
C:/temp/dataset/4/7_1.odb,Step-1,Increment      1: Step Time =    1.000,"PART-1-1",           339,       5.92452,       9.07762,            0.,NA,NA,"",   496.512E-03,   488.834E-03,   86.9787E-03,   51.7177E-06
C:/temp/dataset/4/7_1.odb,Step-1,Increment      1: Step Time =    1.000,"PART-1-1",           340,            5.,         8.125,            0.,NA,NA,"",   482.261E-03,   470.736E-03,   104.798E-03,   110.352E-06
C:/temp/dataset/4/7_1.odb,Step-1,Increment      1: Step Time =    1.000,"PART-1-1",           341,       5.83838,       7.03541,            0.,NA,NA,"",   458.615E-03,   449.896E-03,   88.9988E-03,   198.147E-06
C:/temp/dataset/4/7_1.odb,Step-1,Increment      1: Step Time =    1.000,"PART-1-1",           342,       6.76290,       7.98803,            0.,NA,NA,"",   473.139E-03,   467.772E-03,   71.0659E-03,   122.579E-06
C:/temp/dataset/4/7_1.odb,Step-1,Increment      1: Step Time =    1.000,"PART-1-1",           343,       6.00358,       15.4027,            0.,NA,NA,"",   616.884E-03,   611.085E-03,   84.3861E-03,   6.10236E-06
C:/temp/dataset/4/7_1.odb,Step-1,Increment      1: Step Time =    1.000,"PART-1-1",           344,            5.,        14.375,            0.,NA,NA,"",   600.462E-03,   591.390E-03,   103.986E-03,   13.7539E-06
C:/temp/dataset/4/7_1.odb,Step-1,Increment      1: Step Time =    1.000,"PART-1-1",           345,       5.99171,       13.2884,            0.,NA,NA,"",   576.473E-03,   570.173E-03,   84.9966E-03,   15.6032E-06
C:/temp/dataset/4/7_1.odb,Step-1,Increment      1: Step Time =    1.000,"PART-1-1",           346,       6.99529,       14.3161,            0.,NA,NA,"",   593.487E-03,   589.871E-03,   65.4088E-03,   13.5583E-06
C:/temp/dataset/4/7_1.odb,Step-1,Increment      1: Step Time =    1.000,"PART-1-1",           347,       11.7328,       24.6815,            0.,NA,NA,"",   790.047E-03,   789.544E-03,  -28.1866E-03,   63.9167E-09
C:/temp/dataset/4/7_1.odb,Step-1,Increment      1: Step Time =    1.000,"PART-1-1",           348,       12.6496,       26.1279,            0.,NA,NA,"",   818.660E-03,   817.355E-03,  -46.1944E-03,   65.1737E-09
C:/temp/dataset/4/7_1.odb,Step-1,Increment      1: Step Time =    1.000,"PART-1-1",           349,       11.2054,       27.2635,            0.,NA,NA,"",   839.799E-03,   839.596E-03,  -18.4676E-03,   43.5076E-09
C:/temp/dataset/4/7_1.odb,Step-1,Increment      1: Step Time =    1.000,"PART-1-1",           350,       10.2886,       25.8171,            0.,NA,NA,"",   811.786E-03,   811.785E-03,  -459.813E-06,   52.8559E-09
C:/temp/dataset/4/7_1.odb,Step-1,Increment      1: Step Time =    1.000,"PART-1-1",           351,       12.5134,       28.7000,            0.,NA,NA,"",   868.262E-03,   867.144E-03,  -44.0413E-03,   37.0806E-09
C:/temp/dataset/4/7_1.odb,Step-1,Increment      1: Step Time =    1.000,"PART-1-1",           352,       13.7634,       27.4500,            0.,NA,NA,"",   845.465E-03,   842.727E-03,  -67.9908E-03,   37.4094E-09
C:/temp/dataset/4/7_1.odb,Step-1,Increment      1: Step Time =    1.000,"PART-1-1",           353,           15.,         28.75,            0.,NA,NA,"",   872.526E-03,   867.645E-03,  -92.1584E-03,   11.5746E-09
C:/temp/dataset/4/7_1.odb,Step-1,Increment      1: Step Time =    1.000,"PART-1-1",           354,         13.75,           30.,            0.,NA,NA,"",   894.667E-03,   892.063E-03,  -68.2089E-03,   8.84458E-09
C:/temp/dataset/4/7_1.odb,Step-1,Increment      1: Step Time =    1.000,"PART-1-1",           355,      -3.83569,      -2.96698,            0.,NA,NA,"",   393.830E-03,   249.077E-03,   305.062E-03,   843.703E-06
C:/temp/dataset/4/7_1.odb,Step-1,Increment      1: Step Time =    1.000,"PART-1-1",           356,      -2.47303,      -2.56070,            0.,NA,NA,"",   376.774E-03,   258.410E-03,   274.195E-03,   1.07662E-03
C:/temp/dataset/4/7_1.odb,Step-1,Increment      1: Step Time =    1.000,"PART-1-1",           357,      -2.95938,      -1.35275,            0.,NA,NA,"",   402.153E-03,   284.716E-03,   284.013E-03,   875.784E-06
C:/temp/dataset/4/7_1.odb,Step-1,Increment      1: Step Time =    1.000,"PART-1-1",           358,      -4.32205,      -1.75903,            0.,NA,NA,"",   418.379E-03,   275.586E-03,   314.791E-03,   557.042E-06
C:/temp/dataset/4/7_1.odb,Step-1,Increment      1: Step Time =    1.000,"PART-1-1",           359,       8.60967,      -7.25473,            0.,NA,NA,"",   177.353E-03,   174.733E-03,   30.3729E-03,   1.17616E-03
C:/temp/dataset/4/7_1.odb,Step-1,Increment      1: Step Time =    1.000,"PART-1-1",           360,       7.51358,      -6.44375,            0.,NA,NA,"",   194.021E-03,   187.799E-03,   48.7404E-03,   2.05810E-03
C:/temp/dataset/4/7_1.odb,Step-1,Increment      1: Step Time =    1.000,"PART-1-1",           361,       6.75300,      -7.77251,            0.,NA,NA,"",   178.069E-03,   168.350E-03,   58.0240E-03,   2.97081E-03
C:/temp/dataset/4/7_1.odb,Step-1,Increment      1: Step Time =    1.000,"PART-1-1",           362,       7.84909,      -8.58350,            0.,NA,NA,"",   160.568E-03,   155.492E-03,   40.0530E-03,   2.06376E-03
C:/temp/dataset/4/7_1.odb,Step-1,Increment      1: Step Time =    1.000,"PART-1-1",           363,       7.07130,      -14.2100,            0.,NA,NA,"",   93.6390E-03,   85.5420E-03,   38.0899E-03,   2.72432E-03
C:/temp/dataset/4/7_1.odb,Step-1,Increment      1: Step Time =    1.000,"PART-1-1",           364,       6.02882,      -13.2279,            0.,NA,NA,"",   111.010E-03,   97.9497E-03,   52.2409E-03,   3.48966E-03
C:/temp/dataset/4/7_1.odb,Step-1,Increment      1: Step Time =    1.000,"PART-1-1",           365,            5.,       -14.375,            0.,NA,NA,"",   105.570E-03,   87.1393E-03,   59.5960E-03,   4.26078E-03
C:/temp/dataset/4/7_1.odb,Step-1,Increment      1: Step Time =    1.000,"PART-1-1",           366,       6.04247,      -15.3570,            0.,NA,NA,"",   87.8622E-03,   75.1397E-03,   45.5390E-03,   3.49487E-03
C:/temp/dataset/4/7_1.odb,Step-1,Increment      1: Step Time =    1.000,"PART-1-1",           367,       7.02995,      -12.0379,            0.,NA,NA,"",   118.872E-03,   110.526E-03,   43.7549E-03,   2.75232E-03
C:/temp/dataset/4/7_1.odb,Step-1,Increment      1: Step Time =    1.000,"PART-1-1",           368,       6.00113,      -11.1016,            0.,NA,NA,"",   137.126E-03,   123.734E-03,   59.1057E-03,   3.49749E-03
C:/temp/dataset/4/7_1.odb,Step-1,Increment      1: Step Time =    1.000,"PART-1-1",           369,            5.,      -12.2917,            0.,NA,NA,"",   129.678E-03,   110.784E-03,   67.4049E-03,   4.23812E-03
C:/temp/dataset/4/7_1.odb,Step-1,Increment      1: Step Time =    1.000,"PART-1-1",           370,            5.,      -22.7083,            0.,NA,NA,"",   35.4276E-03,   22.0667E-03,   27.7160E-03,   4.30084E-03
C:/temp/dataset/4/7_1.odb,Step-1,Increment      1: Step Time =    1.000,"PART-1-1",           371,       6.05922,      -23.7899,            0.,NA,NA,"",   24.4282E-03,   15.2384E-03,   19.0927E-03,   3.50856E-03
C:/temp/dataset/4/7_1.odb,Step-1,Increment      1: Step Time =    1.000,"PART-1-1",           372,       7.11013,      -22.7834,            0.,NA,NA,"",   25.0929E-03,   18.3462E-03,   17.1193E-03,   2.71970E-03
C:/temp/dataset/4/7_1.odb,Step-1,Increment      1: Step Time =    1.000,"PART-1-1",           373,       6.05091,      -21.7018,            0.,NA,NA,"",   36.2274E-03,   25.5421E-03,   25.6910E-03,   3.51084E-03
C:/temp/dataset/4/7_1.odb,Step-1,Increment      1: Step Time =    1.000,"PART-1-1",           374,          8.75,          -30.,            0.,NA,NA,"",            0.,  -613.434E-42,   2.26494E-39,   1.25126E-03
C:/temp/dataset/4/7_1.odb,Step-1,Increment      1: Step Time =    1.000,"PART-1-1",           375,       9.84988,      -28.9274,            0.,NA,NA,"",   678.266E-06,  -518.764E-06,   436.954E-06,   622.648E-06
C:/temp/dataset/4/7_1.odb,Step-1,Increment      1: Step Time =    1.000,"PART-1-1",           376,       8.52411,      -27.9095,            0.,NA,NA,"",   2.69000E-03,   750.128E-06,   2.58330E-03,   1.65292E-03
C:/temp/dataset/4/7_1.odb,Step-1,Increment      1: Step Time =    1.000,"PART-1-1",           377,       7.42422,      -28.9821,            0.,NA,NA,"",   1.80438E-03,   156.446E-06,   1.79758E-03,   2.19074E-03
C:/temp/dataset/4/7_1.odb,Step-1,Increment      1: Step Time =    1.000,"PART-1-1",           378,       10.1104,      -23.9794,            0.,NA,NA,"",   10.9724E-03,   10.7750E-03,   2.07194E-03,   450.403E-06
C:/temp/dataset/4/7_1.odb,Step-1,Increment      1: Step Time =    1.000,"PART-1-1",           379,       11.1261,      -23.0268,            0.,NA,NA,"",   15.1149E-03,   14.9383E-03,  -2.30362E-03,   351.500E-06
C:/temp/dataset/4/7_1.odb,Step-1,Increment      1: Step Time =    1.000,"PART-1-1",           380,       10.1523,      -21.9025,            0.,NA,NA,"",   20.8851E-03,   20.7178E-03,   2.63818E-03,   402.782E-06
C:/temp/dataset/4/7_1.odb,Step-1,Increment      1: Step Time =    1.000,"PART-1-1",           381,       9.13660,      -22.8552,            0.,NA,NA,"",   17.6937E-03,   16.1727E-03,   7.17713E-03,   1.19184E-03
C:/temp/dataset/4/7_1.odb,Step-1,Increment      1: Step Time =    1.000,"PART-1-1",           382,       7.09296,      -18.5383,            0.,NA,NA,"",   53.0209E-03,   45.3302E-03,   27.5025E-03,   2.71628E-03
C:/temp/dataset/4/7_1.odb,Step-1,Increment      1: Step Time =    1.000,"PART-1-1",           383,       6.04465,      -17.4814,            0.,NA,NA,"",   67.7644E-03,   55.4654E-03,   38.9308E-03,   3.50388E-03
C:/temp/dataset/4/7_1.odb,Step-1,Increment      1: Step Time =    1.000,"PART-1-1",           384,            5.,      -18.5417,            0.,NA,NA,"",   65.4278E-03,   48.6609E-03,   43.7368E-03,   4.29754E-03
C:/temp/dataset/4/7_1.odb,Step-1,Increment      1: Step Time =    1.000,"PART-1-1",           385,       6.04831,      -19.5985,            0.,NA,NA,"",   50.5801E-03,   38.9257E-03,   32.2976E-03,   3.50928E-03
C:/temp/dataset/4/7_1.odb,Step-1,Increment      1: Step Time =    1.000,"PART-1-1",           386,       8.88188,       22.9635,            0.,NA,NA,"",   757.331E-03,   756.839E-03,   27.2906E-03,   146.507E-09
C:/temp/dataset/4/7_1.odb,Step-1,Increment      1: Step Time =    1.000,"PART-1-1",           387,       9.93448,       22.0483,            0.,NA,NA,"",   738.971E-03,   738.937E-03,   7.09733E-03,   232.117E-09
C:/temp/dataset/4/7_1.odb,Step-1,Increment      1: Step Time =    1.000,"PART-1-1",           388,       10.8087,       23.3359,            0.,NA,NA,"",   763.751E-03,   763.685E-03,  -10.0563E-03,   115.494E-09
C:/temp/dataset/4/7_1.odb,Step-1,Increment      1: Step Time =    1.000,"PART-1-1",           389,       9.75606,       24.2511,            0.,NA,NA,"",   781.653E-03,   781.587E-03,   10.1370E-03,   65.7829E-09
C:/temp/dataset/4/7_1.odb,Step-1,Increment      1: Step Time =    1.000,"PART-1-1",           390,       10.0218,       17.5512,            0.,NA,NA,"",   651.946E-03,   651.916E-03,   6.25449E-03,   3.67903E-06
C:/temp/dataset/4/7_1.odb,Step-1,Increment      1: Step Time =    1.000,"PART-1-1",           391,       9.00837,       16.4411,            0.,NA,NA,"",   631.162E-03,   630.624E-03,   26.0719E-03,   7.07896E-06
C:/temp/dataset/4/7_1.odb,Step-1,Increment      1: Step Time =    1.000,"PART-1-1",           392,       10.0249,       15.2736,            0.,NA,NA,"",   607.889E-03,   607.853E-03,   6.63319E-03,   9.56638E-06
C:/temp/dataset/4/7_1.odb,Step-1,Increment      1: Step Time =    1.000,"PART-1-1",           393,       11.0383,       16.3837,            0.,NA,NA,"",   629.283E-03,   629.145E-03,  -13.1899E-03,   7.12988E-06
C:/temp/dataset/4/7_1.odb,Step-1,Increment      1: Step Time =    1.000,"PART-1-1",           394,      -14.0638,       5.89996,            0.,NA,NA,"",   691.102E-03,   446.613E-03,   527.407E-03,   12.4142E-06
C:/temp/dataset/4/7_1.odb,Step-1,Increment      1: Step Time =    1.000,"PART-1-1",           395,      -13.1194,       6.91794,            0.,NA,NA,"",   690.067E-03,   468.888E-03,   506.296E-03,   11.0756E-06
C:/temp/dataset/4/7_1.odb,Step-1,Increment      1: Step Time =    1.000,"PART-1-1",           396,      -14.0556,       8.04923,            0.,NA,NA,"",   722.214E-03,   494.132E-03,   526.713E-03,   5.40681E-06
C:/temp/dataset/4/7_1.odb,Step-1,Increment      1: Step Time =    1.000,"PART-1-1",           397,          -15.,       7.03125,            0.,NA,NA,"",   723.029E-03,   471.858E-03,   547.833E-03,   9.72478E-06
C:/temp/dataset/4/7_1.odb,Step-1,Increment      1: Step Time =    1.000,"PART-1-1",           398,      -14.0181,       12.3521,            0.,NA,NA,"",   789.096E-03,   589.252E-03,   524.838E-03,   366.818E-09
C:/temp/dataset/4/7_1.odb,Step-1,Increment      1: Step Time =    1.000,"PART-1-1",           399,      -13.0189,       13.2775,            0.,NA,NA,"",   789.924E-03,   609.465E-03,   502.525E-03,   433.021E-09
C:/temp/dataset/4/7_1.odb,Step-1,Increment      1: Step Time =    1.000,"PART-1-1",           400,      -14.0008,       14.5192,            0.,NA,NA,"",   824.902E-03,   637.153E-03,   523.927E-03,   179.838E-09
C:/temp/dataset/4/7_1.odb,Step-1,Increment      1: Step Time =    1.000,"PART-1-1",           401,          -15.,       13.5938,            0.,NA,NA,"",   824.010E-03,   616.939E-03,   546.241E-03,   322.950E-09
C:/temp/dataset/4/7_1.odb,Step-1,Increment      1: Step Time =    1.000,"PART-1-1",           402,      -10.1942,       21.9572,            0.,NA,NA,"",   912.599E-03,   800.640E-03,   437.963E-03,   34.5214E-09
C:/temp/dataset/4/7_1.odb,Step-1,Increment      1: Step Time =    1.000,"PART-1-1",           403,      -9.14995,       21.4132,            0.,NA,NA,"",   890.925E-03,   788.359E-03,   415.014E-03,   39.0290E-09
C:/temp/dataset/4/7_1.odb,Step-1,Increment      1: Step Time =    1.000,"PART-1-1",           404,      -8.60578,       22.3365,            0.,NA,NA,"",   903.385E-03,   808.635E-03,   402.760E-03,   28.4537E-09
C:/temp/dataset/4/7_1.odb,Step-1,Increment      1: Step Time =    1.000,"PART-1-1",           405,      -9.65000,       22.8805,            0.,NA,NA,"",   924.733E-03,   820.916E-03,   425.709E-03,   20.8076E-09
C:/temp/dataset/4/7_1.odb,Step-1,Increment      1: Step Time =    1.000,"PART-1-1",           406,      -14.0213,       25.7108,            0.,NA,NA,"",       1.02691,   884.546E-03,   521.644E-03,   3.22772E-09
C:/temp/dataset/4/7_1.odb,Step-1,Increment      1: Step Time =    1.000,"PART-1-1",           407,      -12.8802,       26.8172,            0.,NA,NA,"",       1.03535,   908.726E-03,   496.150E-03,   3.03654E-09
C:/temp/dataset/4/7_1.odb,Step-1,Increment      1: Step Time =    1.000,"PART-1-1",           408,      -13.8589,       27.8252,            0.,NA,NA,"",       1.06539,   931.247E-03,   517.538E-03,   3.45241E-09
C:/temp/dataset/4/7_1.odb,Step-1,Increment      1: Step Time =    1.000,"PART-1-1",           409,          -15.,       26.7188,            0.,NA,NA,"",       1.05719,   907.067E-03,   543.032E-03,   3.73063E-09
C:/temp/dataset/4/7_1.odb,Step-1,Increment      1: Step Time =    1.000,"PART-1-1",           410,        -13.75,           30.,            0.,NA,NA,"",       1.10627,   979.293E-03,   514.599E-03,   3.69823E-09
C:/temp/dataset/4/7_1.odb,Step-1,Increment      1: Step Time =    1.000,"PART-1-1",           411,          -15.,       28.9063,            0.,NA,NA,"",       1.09870,   955.421E-03,   542.498E-03,   3.63306E-09
C:/temp/dataset/4/7_1.odb,Step-1,Increment      1: Step Time =    1.000,"PART-1-1",           412,      -12.6089,       28.9190,            0.,NA,NA,"",       1.07331,   955.118E-03,   489.640E-03,   3.49097E-09
C:/temp/dataset/4/7_1.odb,Step-1,Increment      1: Step Time =    1.000,"PART-1-1",           413,      -11.4362,       27.6040,            0.,NA,NA,"",       1.03555,   925.764E-03,   464.038E-03,   3.14272E-09
C:/temp/dataset/4/7_1.odb,Step-1,Increment      1: Step Time =    1.000,"PART-1-1",           414,      -10.0773,       28.6850,            0.,NA,NA,"",       1.04372,   949.328E-03,   433.735E-03,   3.33238E-09
C:/temp/dataset/4/7_1.odb,Step-1,Increment      1: Step Time =    1.000,"PART-1-1",           415,        -11.25,           30.,            0.,NA,NA,"",       1.08112,   978.682E-03,   459.337E-03,   3.88478E-09
C:/temp/dataset/4/7_1.odb,Step-1,Increment      1: Step Time =    1.000,"PART-1-1",           416,      -13.7240,       21.2404,            0.,NA,NA,"",   940.044E-03,   785.656E-03,   516.165E-03,   25.3984E-09
C:/temp/dataset/4/7_1.odb,Step-1,Increment      1: Step Time =    1.000,"PART-1-1",           417,      -12.6979,       22.4429,            0.,NA,NA,"",   950.032E-03,   811.988E-03,   493.189E-03,   25.0565E-09
C:/temp/dataset/4/7_1.odb,Step-1,Increment      1: Step Time =    1.000,"PART-1-1",           418,      -13.9739,       23.5463,            0.,NA,NA,"",   985.709E-03,   836.691E-03,   521.125E-03,   6.64771E-09
C:/temp/dataset/4/7_1.odb,Step-1,Increment      1: Step Time =    1.000,"PART-1-1",           419,          -15.,       22.3438,            0.,NA,NA,"",   976.077E-03,   810.358E-03,   544.101E-03,   16.5343E-09
C:/temp/dataset/4/7_1.odb,Step-1,Increment      1: Step Time =    1.000,"PART-1-1",           420,      -11.9375,       16.3352,            0.,NA,NA,"",   828.498E-03,   676.793E-03,   477.872E-03,   105.488E-09
C:/temp/dataset/4/7_1.odb,Step-1,Increment      1: Step Time =    1.000,"PART-1-1",           421,      -10.8584,       17.1847,            0.,NA,NA,"",   830.298E-03,   695.306E-03,   453.812E-03,   113.330E-09
C:/temp/dataset/4/7_1.odb,Step-1,Increment      1: Step Time =    1.000,"PART-1-1",           422,      -11.8099,       18.4796,            0.,NA,NA,"",   865.787E-03,   724.162E-03,   474.528E-03,   87.9793E-09
C:/temp/dataset/4/7_1.odb,Step-1,Increment      1: Step Time =    1.000,"PART-1-1",           423,      -12.8889,       17.6301,            0.,NA,NA,"",   864.020E-03,   705.649E-03,   498.588E-03,   104.372E-09
C:/temp/dataset/4/7_1.odb,Step-1,Increment      1: Step Time =    1.000,"PART-1-1",           424,      -9.98079,       13.8692,            0.,NA,NA,"",   758.985E-03,   621.803E-03,   435.222E-03,   354.489E-09
C:/temp/dataset/4/7_1.odb,Step-1,Increment      1: Step Time =    1.000,"PART-1-1",           425,      -11.0142,       12.9724,            0.,NA,NA,"",   756.774E-03,   602.230E-03,   458.285E-03,   895.181E-09
C:/temp/dataset/4/7_1.odb,Step-1,Increment      1: Step Time =    1.000,"PART-1-1",           426,      -10.0204,       11.7735,            0.,NA,NA,"",   722.368E-03,   575.488E-03,   436.612E-03,   1.50337E-06
C:/temp/dataset/4/7_1.odb,Step-1,Increment      1: Step Time =    1.000,"PART-1-1",           427,      -6.95613,       14.5250,            0.,NA,NA,"",   734.513E-03,   635.560E-03,   368.203E-03,   128.139E-09
C:/temp/dataset/4/7_1.odb,Step-1,Increment      1: Step Time =    1.000,"PART-1-1",           428,      -5.98929,       13.4097,            0.,NA,NA,"",   702.425E-03,   610.671E-03,   347.104E-03,   199.363E-09
C:/temp/dataset/4/7_1.odb,Step-1,Increment      1: Step Time =    1.000,"PART-1-1",           429,           -5.,        14.375,            0.,NA,NA,"",   710.461E-03,   631.767E-03,   325.001E-03,   411.473E-09
C:/temp/dataset/4/7_1.odb,Step-1,Increment      1: Step Time =    1.000,"PART-1-1",           430,      -5.96684,       15.4903,            0.,NA,NA,"",   742.282E-03,   656.657E-03,   346.100E-03,   174.798E-09
C:/temp/dataset/4/7_1.odb,Step-1,Increment      1: Step Time =    1.000,"PART-1-1",           431,      -11.0581,       10.8707,            0.,NA,NA,"",   721.307E-03,   555.783E-03,   459.770E-03,   3.24533E-06
C:/temp/dataset/4/7_1.odb,Step-1,Increment      1: Step Time =    1.000,"PART-1-1",           432,      -10.0579,       9.67932,            0.,NA,NA,"",   686.923E-03,   529.204E-03,   437.957E-03,   5.25843E-06
C:/temp/dataset/4/7_1.odb,Step-1,Increment      1: Step Time =    1.000,"PART-1-1",           433,      -9.02030,       10.5821,            0.,NA,NA,"",   688.010E-03,   548.910E-03,   414.797E-03,   4.07269E-06
C:/temp/dataset/4/7_1.odb,Step-1,Increment      1: Step Time =    1.000,"PART-1-1",           434,      -7.04064,       8.20966,            0.,NA,NA,"",   619.771E-03,   496.003E-03,   371.615E-03,   16.3900E-06
C:/temp/dataset/4/7_1.odb,Step-1,Increment      1: Step Time =    1.000,"PART-1-1",           435,      -6.03068,       7.10065,            0.,NA,NA,"",   586.741E-03,   471.259E-03,   349.543E-03,   16.1397E-06
C:/temp/dataset/4/7_1.odb,Step-1,Increment      1: Step Time =    1.000,"PART-1-1",           436,           -5.,         8.125,            0.,NA,NA,"",   591.853E-03,   493.629E-03,   326.527E-03,   10.6307E-06
C:/temp/dataset/4/7_1.odb,Step-1,Increment      1: Step Time =    1.000,"PART-1-1",           437,      -6.00996,       9.23401,            0.,NA,NA,"",   624.685E-03,   518.385E-03,   348.580E-03,   3.73867E-06
C:/temp/dataset/4/7_1.odb,Step-1,Increment      1: Step Time =    1.000,"PART-1-1",           438,      -13.0926,       9.02789,            0.,NA,NA,"",   721.799E-03,   515.534E-03,   505.192E-03,   5.49534E-06
C:/temp/dataset/4/7_1.odb,Step-1,Increment      1: Step Time =    1.000,"PART-1-1",           439,      -14.0370,       10.1974,            0.,NA,NA,"",   754.852E-03,   541.622E-03,   525.783E-03,   1.70398E-06
C:/temp/dataset/4/7_1.odb,Step-1,Increment      1: Step Time =    1.000,"PART-1-1",           440,          -15.,       9.21875,            0.,NA,NA,"",   755.101E-03,   520.221E-03,   547.309E-03,   2.97194E-06
C:/temp/dataset/4/7_1.odb,Step-1,Increment      1: Step Time =    1.000,"PART-1-1",           441,      -13.9055,       1.56280,            0.,NA,NA,"",   631.303E-03,   350.750E-03,   524.898E-03,   25.6944E-06
C:/temp/dataset/4/7_1.odb,Step-1,Increment      1: Step Time =    1.000,"PART-1-1",           442,      -12.9296,       2.64306,            0.,NA,NA,"",   627.111E-03,   374.351E-03,   503.119E-03,   17.1366E-06
C:/temp/dataset/4/7_1.odb,Step-1,Increment      1: Step Time =    1.000,"PART-1-1",           443,      -14.0241,       3.73651,            0.,NA,NA,"",   660.900E-03,   398.783E-03,   527.031E-03,   21.0196E-06
C:/temp/dataset/4/7_1.odb,Step-1,Increment      1: Step Time =    1.000,"PART-1-1",           444,          -15.,       2.65625,            0.,NA,NA,"",   664.796E-03,   375.170E-03,   548.818E-03,   32.3830E-06
C:/temp/dataset/4/7_1.odb,Step-1,Increment      1: Step Time =    1.000,"PART-1-1",           445,      -13.7570,      -2.81804,            0.,NA,NA,"",   581.143E-03,   254.173E-03,   522.612E-03,   18.7202E-06
C:/temp/dataset/4/7_1.odb,Step-1,Increment      1: Step Time =    1.000,"PART-1-1",           446,      -13.7756,  -623.683E-03,            0.,NA,NA,"",   603.768E-03,   302.504E-03,   522.520E-03,   24.8175E-06
C:/temp/dataset/4/7_1.odb,Step-1,Increment      1: Step Time =    1.000,"PART-1-1",           447,          -15.,      -1.71875,            0.,NA,NA,"",   616.356E-03,   278.690E-03,   549.751E-03,   20.3972E-06
C:/temp/dataset/4/7_1.odb,Step-1,Increment      1: Step Time =    1.000,"PART-1-1",           448,        -13.75,           -5.,            0.,NA,NA,"",   562.134E-03,   206.112E-03,   522.984E-03,   5.59215E-06
C:/temp/dataset/4/7_1.odb,Step-1,Increment      1: Step Time =    1.000,"PART-1-1",           449,      -12.5070,      -3.91179,            0.,NA,NA,"",   546.025E-03,   229.792E-03,   495.317E-03,   20.3670E-06
C:/temp/dataset/4/7_1.odb,Step-1,Increment      1: Step Time =    1.000,"PART-1-1",           450,          -15.,      -3.90625,            0.,NA,NA,"",   596.592E-03,   230.511E-03,   550.261E-03,   4.11712E-06
C:/temp/dataset/4/7_1.odb,Step-1,Increment      1: Step Time =    1.000,"PART-1-1",           451,          -15.,    468.75E-03,            0.,NA,NA,"",   639.194E-03,   326.897E-03,   549.279E-03,   34.1318E-06
C:/temp/dataset/4/7_1.odb,Step-1,Increment      1: Step Time =    1.000,"PART-1-1",           452,      -5.10506,       2.56414,            0.,NA,NA,"",   496.346E-03,   370.678E-03,   330.086E-03,   179.697E-06
C:/temp/dataset/4/7_1.odb,Step-1,Increment      1: Step Time =    1.000,"PART-1-1",           453,      -4.59209,       3.94539,            0.,NA,NA,"",   512.021E-03,   401.071E-03,   318.288E-03,   143.921E-06
C:/temp/dataset/4/7_1.odb,Step-1,Increment      1: Step Time =    1.000,"PART-1-1",           454,      -6.09775,       4.77703,            0.,NA,NA,"",   547.685E-03,   419.919E-03,   351.607E-03,   32.0365E-06
C:/temp/dataset/4/7_1.odb,Step-1,Increment      1: Step Time =    1.000,"PART-1-1",           455,      -6.61072,       3.39578,            0.,NA,NA,"",   532.625E-03,   389.449E-03,   363.343E-03,   51.7789E-06
C:/temp/dataset/4/7_1.odb,Step-1,Increment      1: Step Time =    1.000,"PART-1-1",           456,       9.44090,      -5.60228,            0.,NA,NA,"",   202.241E-03,   201.449E-03,   17.8834E-03,   740.582E-06
C:/temp/dataset/4/7_1.odb,Step-1,Increment      1: Step Time =    1.000,"PART-1-1",           457,       9.79564,      -4.46986,            0.,NA,NA,"",   221.790E-03,   221.465E-03,   11.9976E-03,   1.04990E-03
C:/temp/dataset/4/7_1.odb,Step-1,Increment      1: Step Time =    1.000,"PART-1-1",           458,       8.43936,      -4.09444,            0.,NA,NA,"",   230.879E-03,   228.216E-03,   34.9632E-03,   1.25552E-03
C:/temp/dataset/4/7_1.odb,Step-1,Increment      1: Step Time =    1.000,"PART-1-1",           459,       8.08462,      -5.22686,            0.,NA,NA,"",   211.715E-03,   207.830E-03,   40.3743E-03,   1.18426E-03
C:/temp/dataset/4/7_1.odb,Step-1,Increment      1: Step Time =    1.000,"PART-1-1",           460,       6.93926,      -9.88629,            0.,NA,NA,"",   147.153E-03,   138.349E-03,   50.1352E-03,   2.83861E-03
C:/temp/dataset/4/7_1.odb,Step-1,Increment      1: Step Time =    1.000,"PART-1-1",           461,       5.93813,      -8.99303,            0.,NA,NA,"",   166.066E-03,   152.216E-03,   66.3958E-03,   3.58683E-03
C:/temp/dataset/4/7_1.odb,Step-1,Increment      1: Step Time =    1.000,"PART-1-1",           462,            5.,      -10.2083,            0.,NA,NA,"",   156.450E-03,   137.216E-03,   75.1561E-03,   4.19147E-03
C:/temp/dataset/4/7_1.odb,Step-1,Increment      1: Step Time =    1.000,"PART-1-1",           463,       12.9852,      -11.3613,            0.,NA,NA,"",   120.963E-03,   117.203E-03,  -29.9258E-03,   1.74594E-03
C:/temp/dataset/4/7_1.odb,Step-1,Increment      1: Step Time =    1.000,"PART-1-1",           464,       14.0059,      -12.5461,            0.,NA,NA,"",   111.062E-03,   103.560E-03,  -40.1244E-03,   2.53961E-03
C:/temp/dataset/4/7_1.odb,Step-1,Increment      1: Step Time =    1.000,"PART-1-1",           465,           15.,        -11.25,            0.,NA,NA,"",   133.070E-03,   120.750E-03,  -55.9212E-03,   3.30949E-03
C:/temp/dataset/4/7_1.odb,Step-1,Increment      1: Step Time =    1.000,"PART-1-1",           466,       13.9793,      -10.0652,            0.,NA,NA,"",   142.626E-03,   135.136E-03,  -45.6121E-03,   2.51639E-03
C:/temp/dataset/4/7_1.odb,Step-1,Increment      1: Step Time =    1.000,"PART-1-1",           467,       7.08713,      -16.3801,            0.,NA,NA,"",   71.6910E-03,   63.7791E-03,   32.7387E-03,   2.71539E-03
C:/temp/dataset/4/7_1.odb,Step-1,Increment      1: Step Time =    1.000,"PART-1-1",           468,            5.,      -16.4583,            0.,NA,NA,"",   84.1682E-03,   66.4219E-03,   51.6954E-03,   4.28424E-03
C:/temp/dataset/4/7_1.odb,Step-1,Increment      1: Step Time =    1.000,"PART-1-1",           469,       13.0372,      -13.8111,            0.,NA,NA,"",   92.1123E-03,   88.2263E-03,  -26.4724E-03,   1.79188E-03
C:/temp/dataset/4/7_1.odb,Step-1,Increment      1: Step Time =    1.000,"PART-1-1",           470,       14.0313,      -15.0151,            0.,NA,NA,"",   83.8766E-03,   76.4059E-03,  -34.6040E-03,   2.55517E-03
C:/temp/dataset/4/7_1.odb,Step-1,Increment      1: Step Time =    1.000,"PART-1-1",           471,           15.,        -13.75,            0.,NA,NA,"",   103.051E-03,   91.0266E-03,  -48.3085E-03,   3.30203E-03
C:/temp/dataset/4/7_1.odb,Step-1,Increment      1: Step Time =    1.000,"PART-1-1",           472,       13.0981,      -18.6529,            0.,NA,NA,"",   47.0105E-03,   43.0392E-03,  -18.9108E-03,   1.84967E-03
C:/temp/dataset/4/7_1.odb,Step-1,Increment      1: Step Time =    1.000,"PART-1-1",           473,       14.0553,      -19.9280,            0.,NA,NA,"",   41.8004E-03,   34.7097E-03,  -23.2918E-03,   2.58381E-03
C:/temp/dataset/4/7_1.odb,Step-1,Increment      1: Step Time =    1.000,"PART-1-1",           474,           15.,        -18.75,            0.,NA,NA,"",   55.5201E-03,   44.4407E-03,  -33.2791E-03,   3.30013E-03
C:/temp/dataset/4/7_1.odb,Step-1,Increment      1: Step Time =    1.000,"PART-1-1",           475,       14.0427,      -17.4749,            0.,NA,NA,"",   60.8092E-03,   53.4787E-03,  -28.9445E-03,   2.56639E-03
C:/temp/dataset/4/7_1.odb,Step-1,Increment      1: Step Time =    1.000,"PART-1-1",           476,       6.17422,      -27.9405,            0.,NA,NA,"",   6.50333E-03,   2.94753E-03,   5.79701E-03,   3.46891E-03
C:/temp/dataset/4/7_1.odb,Step-1,Increment      1: Step Time =    1.000,"PART-1-1",           477,            5.,      -28.9583,            0.,NA,NA,"",   5.00109E-03,   3.13086E-03,   3.89982E-03,   4.30533E-03
C:/temp/dataset/4/7_1.odb,Step-1,Increment      1: Step Time =    1.000,"PART-1-1",           478,          6.25,          -30.,            0.,NA,NA,"",            0.,  -188.213E-42,   5.08818E-39,   3.13393E-03
C:/temp/dataset/4/7_1.odb,Step-1,Increment      1: Step Time =    1.000,"PART-1-1",           479,       9.46325,      -26.8820,            0.,NA,NA,"",   3.02498E-03,   2.03276E-03,   2.24017E-03,   938.466E-06
C:/temp/dataset/4/7_1.odb,Step-1,Increment      1: Step Time =    1.000,"PART-1-1",           480,       8.20536,      -25.9154,            0.,NA,NA,"",   8.23618E-03,   5.15262E-03,   6.42536E-03,   1.94154E-03
C:/temp/dataset/4/7_1.odb,Step-1,Increment      1: Step Time =    1.000,"PART-1-1",           481,       7.26622,      -26.9429,            0.,NA,NA,"",   7.46655E-03,   3.55867E-03,   6.56394E-03,   2.63223E-03
C:/temp/dataset/4/7_1.odb,Step-1,Increment      1: Step Time =    1.000,"PART-1-1",           482,       13.6319,      -27.3465,            0.,NA,NA,"",   5.66419E-03,   2.47104E-03,  -5.09676E-03,   2.35982E-03
C:/temp/dataset/4/7_1.odb,Step-1,Increment      1: Step Time =    1.000,"PART-1-1",           483,       12.3819,      -28.5965,            0.,NA,NA,"",   1.39462E-03,  -78.9158E-06,  -1.39238E-03,   1.25475E-03
C:/temp/dataset/4/7_1.odb,Step-1,Increment      1: Step Time =    1.000,"PART-1-1",           484,         13.75,          -30.,            0.,NA,NA,"",            0.,  -400.829E-42,  -3.44743E-39,   2.10951E-03
C:/temp/dataset/4/7_1.odb,Step-1,Increment      1: Step Time =    1.000,"PART-1-1",           485,           15.,        -28.75,            0.,NA,NA,"",   4.13352E-03,   2.33568E-03,  -3.41037E-03,   3.19017E-03
C:/temp/dataset/4/7_1.odb,Step-1,Increment      1: Step Time =    1.000,"PART-1-1",           486,         11.25,          -30.,            0.,NA,NA,"",            0.,  -739.206E-42,  -738.285E-42,   710.887E-06
C:/temp/dataset/4/7_1.odb,Step-1,Increment      1: Step Time =    1.000,"PART-1-1",           487,       10.9817,      -27.5238,            0.,NA,NA,"",   894.441E-06,   705.066E-06,  -550.369E-06,   352.339E-06
C:/temp/dataset/4/7_1.odb,Step-1,Increment      1: Step Time =    1.000,"PART-1-1",           488,       10.1507,      -19.6985,            0.,NA,NA,"",   34.6602E-03,   34.4932E-03,   3.39900E-03,   401.166E-06
C:/temp/dataset/4/7_1.odb,Step-1,Increment      1: Step Time =    1.000,"PART-1-1",           489,       9.14094,      -20.7396,            0.,NA,NA,"",   29.4836E-03,   27.9586E-03,   9.35925E-03,   1.17398E-03
C:/temp/dataset/4/7_1.odb,Step-1,Increment      1: Step Time =    1.000,"PART-1-1",           490,       11.1621,      -20.8614,            0.,NA,NA,"",   26.9728E-03,   26.7784E-03,  -3.23298E-03,   372.542E-06
C:/temp/dataset/4/7_1.odb,Step-1,Increment      1: Step Time =    1.000,"PART-1-1",           491,       7.09922,      -20.6753,            0.,NA,NA,"",   37.5406E-03,   30.2033E-03,   22.2947E-03,   2.71873E-03
C:/temp/dataset/4/7_1.odb,Step-1,Increment      1: Step Time =    1.000,"PART-1-1",           492,            5.,       -20.625,            0.,NA,NA,"",   49.2388E-03,   33.8737E-03,   35.7356E-03,   4.30240E-03
C:/temp/dataset/4/7_1.odb,Step-1,Increment      1: Step Time =    1.000,"PART-1-1",           493,       9.08758,      -14.0519,            0.,NA,NA,"",   86.9622E-03,   85.3414E-03,   16.7116E-03,   1.21350E-03
C:/temp/dataset/4/7_1.odb,Step-1,Increment      1: Step Time =    1.000,"PART-1-1",           494,       10.1099,      -15.1447,            0.,NA,NA,"",   73.6420E-03,   73.4518E-03,   5.28929E-03,   438.129E-06
C:/temp/dataset/4/7_1.odb,Step-1,Increment      1: Step Time =    1.000,"PART-1-1",           495,       11.0794,      -13.9187,            0.,NA,NA,"",   86.3914E-03,   86.2536E-03,  -4.87776E-03,   296.521E-06
C:/temp/dataset/4/7_1.odb,Step-1,Increment      1: Step Time =    1.000,"PART-1-1",           496,       10.0571,      -12.8260,            0.,NA,NA,"",   98.9422E-03,   98.7164E-03,   6.68079E-03,   480.625E-06
C:/temp/dataset/4/7_1.odb,Step-1,Increment      1: Step Time =    1.000,"PART-1-1",           497,       9.02765,      -11.7712,            0.,NA,NA,"",   113.608E-03,   111.874E-03,   19.7731E-03,   1.24451E-03
C:/temp/dataset/4/7_1.odb,Step-1,Increment      1: Step Time =    1.000,"PART-1-1",           498,       11.0123,      -11.5393,            0.,NA,NA,"",   114.302E-03,   114.199E-03,  -4.83961E-03,   260.346E-06
C:/temp/dataset/4/7_1.odb,Step-1,Increment      1: Step Time =    1.000,"PART-1-1",           499,       9.98284,      -10.4845,            0.,NA,NA,"",   128.222E-03,   127.943E-03,   8.45885E-03,   509.988E-06
C:/temp/dataset/4/7_1.odb,Step-1,Increment      1: Step Time =    1.000,"PART-1-1",           500,       12.6190,       1.44886,            0.,NA,NA,"",   339.123E-03,   336.708E-03,  -40.3992E-03,   933.554E-06
C:/temp/dataset/4/7_1.odb,Step-1,Increment      1: Step Time =    1.000,"PART-1-1",           501,       13.8500,   84.2405E-03,            0.,NA,NA,"",   315.841E-03,   309.579E-03,  -62.5794E-03,   1.03163E-03
C:/temp/dataset/4/7_1.odb,Step-1,Increment      1: Step Time =    1.000,"PART-1-1",           502,           15.,          1.25,            0.,NA,NA,"",   343.823E-03,   332.892E-03,  -86.0087E-03,   847.004E-06
C:/temp/dataset/4/7_1.odb,Step-1,Increment      1: Step Time =    1.000,"PART-1-1",           503,       10.0180,      -2.29938,            0.,NA,NA,"",   262.553E-03,   262.434E-03,   7.92277E-03,   1.36764E-03
C:/temp/dataset/4/7_1.odb,Step-1,Increment      1: Step Time =    1.000,"PART-1-1",           504,       9.13986,      -3.07696,            0.,NA,NA,"",   248.527E-03,   247.445E-03,   23.1640E-03,   1.32026E-03
C:/temp/dataset/4/7_1.odb,Step-1,Increment      1: Step Time =    1.000,"PART-1-1",           505,       10.6738,      -3.69229,            0.,NA,NA,"",   235.901E-03,   235.882E-03,  -2.95576E-03,   1.16206E-03
C:/temp/dataset/4/7_1.odb,Step-1,Increment      1: Step Time =    1.000,"PART-1-1",           506,       12.7589,       6.54544,            0.,NA,NA,"",   440.268E-03,   437.998E-03,  -44.6454E-03,   173.274E-06
C:/temp/dataset/4/7_1.odb,Step-1,Increment      1: Step Time =    1.000,"PART-1-1",           507,           15.,          6.25,            0.,NA,NA,"",   440.686E-03,   431.754E-03,  -88.2740E-03,   14.9610E-06
C:/temp/dataset/4/7_1.odb,Step-1,Increment      1: Step Time =    1.000,"PART-1-1",           508,       13.9203,       7.65480,            0.,NA,NA,"",   464.382E-03,   459.460E-03,  -67.4344E-03,   36.7153E-06
C:/temp/dataset/4/7_1.odb,Step-1,Increment      1: Step Time =    1.000,"PART-1-1",           509,       13.0275,       16.3263,            0.,NA,NA,"",   629.790E-03,   627.667E-03,  -51.6714E-03,   6.20106E-06
C:/temp/dataset/4/7_1.odb,Step-1,Increment      1: Step Time =    1.000,"PART-1-1",           510,       14.0150,       15.0581,            0.,NA,NA,"",   607.064E-03,   602.950E-03,  -70.5483E-03,   6.94285E-06
C:/temp/dataset/4/7_1.odb,Step-1,Increment      1: Step Time =    1.000,"PART-1-1",           511,           15.,         16.25,            0.,NA,NA,"",   632.233E-03,   625.820E-03,  -89.8220E-03,   4.72419E-06
C:/temp/dataset/4/7_1.odb,Step-1,Increment      1: Step Time =    1.000,"PART-1-1",           512,       14.0124,       17.5182,            0.,NA,NA,"",   654.396E-03,   650.538E-03,  -70.9508E-03,   1.94848E-06
C:/temp/dataset/4/7_1.odb,Step-1,Increment      1: Step Time =    1.000,"PART-1-1",           513,       13.0175,       18.7421,            0.,NA,NA,"",   676.395E-03,   674.399E-03,  -51.9301E-03,   1.97905E-06
C:/temp/dataset/4/7_1.odb,Step-1,Increment      1: Step Time =    1.000,"PART-1-1",           514,           15.,         18.75,            0.,NA,NA,"",   680.200E-03,   674.181E-03,  -90.2859E-03,   779.630E-09
C:/temp/dataset/4/7_1.odb,Step-1,Increment      1: Step Time =    1.000,"PART-1-1",           515,       14.0051,       19.9738,            0.,NA,NA,"",   701.671E-03,   698.043E-03,  -71.2670E-03,   353.426E-09
C:/temp/dataset/4/7_1.odb,Step-1,Increment      1: Step Time =    1.000,"PART-1-1",           516,       5.97628,       21.7197,            0.,NA,NA,"",   738.085E-03,   733.320E-03,   83.7381E-03,   108.404E-09
C:/temp/dataset/4/7_1.odb,Step-1,Increment      1: Step Time =    1.000,"PART-1-1",           517,       6.92463,       22.7965,            0.,NA,NA,"",   756.789E-03,   753.976E-03,   65.1887E-03,   64.1446E-09
C:/temp/dataset/4/7_1.odb,Step-1,Increment      1: Step Time =    1.000,"PART-1-1",           518,       5.94835,       23.7852,            0.,NA,NA,"",   777.823E-03,   773.286E-03,   83.8918E-03,   99.5224E-09
C:/temp/dataset/4/7_1.odb,Step-1,Increment      1: Step Time =    1.000,"PART-1-1",           519,            5.,       22.7083,            0.,NA,NA,"",   759.569E-03,   752.630E-03,   102.441E-03,   193.828E-09
C:/temp/dataset/4/7_1.odb,Step-1,Increment      1: Step Time =    1.000,"PART-1-1",           520,       13.8862,       24.9278,            0.,NA,NA,"",   796.978E-03,   793.907E-03,  -69.8939E-03,   76.1270E-09
C:/temp/dataset/4/7_1.odb,Step-1,Increment      1: Step Time =    1.000,"PART-1-1",           521,           15.,         26.25,            0.,NA,NA,"",   824.393E-03,   819.278E-03,  -91.6904E-03,   72.7978E-09
C:/temp/dataset/4/7_1.odb,Step-1,Increment      1: Step Time =    1.000,"PART-1-1",           522,       6.15342,       27.8650,            0.,NA,NA,"",   855.848E-03,   852.180E-03,   79.1605E-03,   31.0336E-09
C:/temp/dataset/4/7_1.odb,Step-1,Increment      1: Step Time =    1.000,"PART-1-1",           523,       7.40342,       28.9067,            0.,NA,NA,"",   873.818E-03,   872.099E-03,   54.7819E-03,   34.1913E-09
C:/temp/dataset/4/7_1.odb,Step-1,Increment      1: Step Time =    1.000,"PART-1-1",           524,          6.25,           30.,            0.,NA,NA,"",   896.769E-03,   893.467E-03,   76.8924E-03,   8.68537E-09
C:/temp/dataset/4/7_1.odb,Step-1,Increment      1: Step Time =    1.000,"PART-1-1",           525,            5.,       28.9583,            0.,NA,NA,"",   879.398E-03,   873.548E-03,   101.271E-03,   8.49945E-09
C:/temp/dataset/4/7_1.odb,Step-1,Increment      1: Step Time =    1.000,"PART-1-1",           526,       7.11917,       26.8292,            0.,NA,NA,"",   834.168E-03,   831.959E-03,   60.6702E-03,   60.7531E-09
C:/temp/dataset/4/7_1.odb,Step-1,Increment      1: Step Time =    1.000,"PART-1-1",           527,            5.,        26.875,            0.,NA,NA,"",   839.421E-03,   833.242E-03,   101.661E-03,   51.8668E-09
C:/temp/dataset/4/7_1.odb,Step-1,Increment      1: Step Time =    1.000,"PART-1-1",           528,       5.96574,       25.8392,            0.,NA,NA,"",   817.264E-03,   813.021E-03,   83.1707E-03,   62.0137E-09
C:/temp/dataset/4/7_1.odb,Step-1,Increment      1: Step Time =    1.000,"PART-1-1",           529,       8.59546,       27.4701,            0.,NA,NA,"",   844.689E-03,   844.083E-03,   31.9885E-03,   41.2729E-09
C:/temp/dataset/4/7_1.odb,Step-1,Increment      1: Step Time =    1.000,"PART-1-1",           530,       9.94204,       28.5635,            0.,NA,NA,"",   865.002E-03,   864.983E-03,   5.73188E-03,   42.0546E-09
C:/temp/dataset/4/7_1.odb,Step-1,Increment      1: Step Time =    1.000,"PART-1-1",           531,          8.75,           30.,            0.,NA,NA,"",   893.454E-03,   892.999E-03,   28.5252E-03,   39.0653E-09
C:/temp/dataset/4/7_1.odb,Step-1,Increment      1: Step Time =    1.000,"PART-1-1",           532,            5.,       24.7917,            0.,NA,NA,"",   799.476E-03,   792.936E-03,   102.051E-03,   127.875E-09
C:/temp/dataset/4/7_1.odb,Step-1,Increment      1: Step Time =    1.000,"PART-1-1",           533,       6.91409,       24.8327,            0.,NA,NA,"",   796.030E-03,   793.371E-03,   65.0115E-03,   64.3739E-09
C:/temp/dataset/4/7_1.odb,Step-1,Increment      1: Step Time =    1.000,"PART-1-1",           534,            5.,        20.625,            0.,NA,NA,"",   719.707E-03,   712.323E-03,   102.832E-03,   72.4091E-09
C:/temp/dataset/4/7_1.odb,Step-1,Increment      1: Step Time =    1.000,"PART-1-1",           535,       5.99534,       19.6263,            0.,NA,NA,"",   697.859E-03,   692.814E-03,   83.7611E-03,   483.481E-09
C:/temp/dataset/4/7_1.odb,Step-1,Increment      1: Step Time =    1.000,"PART-1-1",           536,       6.97162,       20.7210,            0.,NA,NA,"",   716.734E-03,   713.811E-03,   64.6680E-03,   567.652E-09
C:/temp/dataset/4/7_1.odb,Step-1,Increment      1: Step Time =    1.000,"PART-1-1",           537,       9.90537,       10.7177,            0.,NA,NA,"",   519.832E-03,   519.738E-03,   9.86686E-03,   25.1077E-06
C:/temp/dataset/4/7_1.odb,Step-1,Increment      1: Step Time =    1.000,"PART-1-1",           538,       8.83179,       9.75083,            0.,NA,NA,"",   502.197E-03,   501.250E-03,   30.8259E-03,   29.9825E-06
C:/temp/dataset/4/7_1.odb,Step-1,Increment      1: Step Time =    1.000,"PART-1-1",           539,       10.8380,       9.37550,            0.,NA,NA,"",   493.639E-03,   493.576E-03,  -7.92334E-03,   37.9172E-06
C:/temp/dataset/4/7_1.odb,Step-1,Increment      1: Step Time =    1.000,"PART-1-1",           540,       5.96737,       11.1773,            0.,NA,NA,"",   536.262E-03,   529.349E-03,   85.8300E-03,   28.7380E-06
C:/temp/dataset/4/7_1.odb,Step-1,Increment      1: Step Time =    1.000,"PART-1-1",           541,       6.95908,       12.1740,            0.,NA,NA,"",   552.449E-03,   548.431E-03,   66.5079E-03,   22.9667E-06
C:/temp/dataset/4/7_1.odb,Step-1,Increment      1: Step Time =    1.000,"PART-1-1",           542,            5.,       12.2917,            0.,NA,NA,"",   560.874E-03,   551.084E-03,   104.336E-03,   32.4414E-06
C:/temp/dataset/4/7_1.odb,Step-1,Increment      1: Step Time =    1.000,"PART-1-1",           543,       6.89189,       10.0466,            0.,NA,NA,"",   511.894E-03,   507.330E-03,   68.2043E-03,   26.3442E-06
C:/temp/dataset/4/7_1.odb,Step-1,Increment      1: Step Time =    1.000,"PART-1-1",           544,            5.,       10.2083,            0.,NA,NA,"",   521.442E-03,   510.835E-03,   104.639E-03,   76.0933E-06
C:/temp/dataset/4/7_1.odb,Step-1,Increment      1: Step Time =    1.000,"PART-1-1",           545,  -883.251E-03,       2.97832,            0.,NA,NA,"",   445.094E-03,   378.191E-03,   234.691E-03,   756.225E-06
C:/temp/dataset/4/7_1.odb,Step-1,Increment      1: Step Time =    1.000,"PART-1-1",           546,         -1.25,            5.,            0.,NA,NA,"",   487.852E-03,   423.104E-03,   242.863E-03,   532.414E-06
C:/temp/dataset/4/7_1.odb,Step-1,Increment      1: Step Time =    1.000,"PART-1-1",           547,      -2.28350,       3.97568,            0.,NA,NA,"",   481.237E-03,   400.842E-03,   266.298E-03,   371.763E-06
C:/temp/dataset/4/7_1.odb,Step-1,Increment      1: Step Time =    1.000,"PART-1-1",           548,      -3.12559,       2.92107,            0.,NA,NA,"",   473.683E-03,   377.949E-03,   285.535E-03,   430.527E-06
C:/temp/dataset/4/7_1.odb,Step-1,Increment      1: Step Time =    1.000,"PART-1-1",           549,         -3.75,            5.,            0.,NA,NA,"",   519.172E-03,   424.314E-03,   299.160E-03,   103.734E-06
C:/temp/dataset/4/7_1.odb,Step-1,Increment      1: Step Time =    1.000,"PART-1-1",           550,      -7.01026,       10.3490,            0.,NA,NA,"",   657.537E-03,   543.271E-03,   370.420E-03,   3.33059E-06
C:/temp/dataset/4/7_1.odb,Step-1,Increment      1: Step Time =    1.000,"PART-1-1",           551,           -5.,       10.2083,            0.,NA,NA,"",   630.503E-03,   539.672E-03,   326.019E-03,   2.18929E-06
C:/temp/dataset/4/7_1.odb,Step-1,Increment      1: Step Time =    1.000,"PART-1-1",           552,      -6.00030,       11.3233,            0.,NA,NA,"",   663.123E-03,   564.559E-03,   347.857E-03,   879.597E-09
C:/temp/dataset/4/7_1.odb,Step-1,Increment      1: Step Time =    1.000,"PART-1-1",           553,      -6.90277,       16.5792,            0.,NA,NA,"",   773.330E-03,   680.956E-03,   366.522E-03,   112.378E-09
C:/temp/dataset/4/7_1.odb,Step-1,Increment      1: Step Time =    1.000,"PART-1-1",           554,           -5.,       16.4583,            0.,NA,NA,"",   751.487E-03,   677.819E-03,   324.491E-03,   235.259E-09
C:/temp/dataset/4/7_1.odb,Step-1,Increment      1: Step Time =    1.000,"PART-1-1",           555,      -5.93592,       17.5473,            0.,NA,NA,"",   782.263E-03,   702.118E-03,   344.913E-03,   115.943E-09
C:/temp/dataset/4/7_1.odb,Step-1,Increment      1: Step Time =    1.000,"PART-1-1",           556,      -5.96041,       23.6583,            0.,NA,NA,"",   905.111E-03,   837.208E-03,   343.961E-03,   6.40168E-09
C:/temp/dataset/4/7_1.odb,Step-1,Increment      1: Step Time =    1.000,"PART-1-1",           557,           -5.,       24.7917,            0.,NA,NA,"",   920.361E-03,   862.026E-03,   322.454E-03,   3.37922E-09
C:/temp/dataset/4/7_1.odb,Step-1,Increment      1: Step Time =    1.000,"PART-1-1",           558,      -7.48847,       28.8776,            0.,NA,NA,"",       1.02462,   952.954E-03,   376.463E-03,   3.43797E-09
C:/temp/dataset/4/7_1.odb,Step-1,Increment      1: Step Time =    1.000,"PART-1-1",           559,           -5.,       28.9583,            0.,NA,NA,"",       1.00682,   954.129E-03,   321.436E-03,   3.66756E-09
C:/temp/dataset/4/7_1.odb,Step-1,Increment      1: Step Time =    1.000,"PART-1-1",           560,         -6.25,           30.,            0.,NA,NA,"",       1.03783,   977.461E-03,   348.813E-03,   3.65126E-09
C:/temp/dataset/4/7_1.odb,Step-1,Increment      1: Step Time =    1.000,"PART-1-1",           561,       12.9634,       11.4929,            0.,NA,NA,"",   536.467E-03,   534.175E-03,  -49.5324E-03,   19.1920E-06
C:/temp/dataset/4/7_1.odb,Step-1,Increment      1: Step Time =    1.000,"PART-1-1",           562,       13.9657,       10.1417,            0.,NA,NA,"",   512.436E-03,   507.805E-03,  -68.7355E-03,   31.2869E-06
C:/temp/dataset/4/7_1.odb,Step-1,Increment      1: Step Time =    1.000,"PART-1-1",           563,           15.,         11.25,            0.,NA,NA,"",   536.499E-03,   529.071E-03,  -88.9647E-03,   39.0264E-06
C:/temp/dataset/4/7_1.odb,Step-1,Increment      1: Step Time =    1.000,"PART-1-1",           564,       13.9978,       12.6011,            0.,NA,NA,"",   559.791E-03,   555.426E-03,  -69.7745E-03,   17.8730E-06
C:/temp/dataset/4/7_1.odb,Step-1,Increment      1: Step Time =    1.000,"PART-1-1",           565,       9.13480,      -18.5479,            0.,NA,NA,"",   44.9366E-03,   43.3985E-03,   11.6561E-03,   1.17357E-03
C:/temp/dataset/4/7_1.odb,Step-1,Increment      1: Step Time =    1.000,"PART-1-1",           566,       11.1537,      -18.5886,            0.,NA,NA,"",   42.8229E-03,   42.6376E-03,  -3.97953E-03,   363.421E-06
C:/temp/dataset/4/7_1.odb,Step-1,Increment      1: Step Time =    1.000,"PART-1-1",           567,       10.1377,      -17.4381,            0.,NA,NA,"",   52.2384E-03,   52.0647E-03,   4.25561E-03,   411.317E-06
C:/temp/dataset/4/7_1.odb,Step-1,Increment      1: Step Time =    1.000,"PART-1-1",           568,      -8.81573,       27.5627,            0.,NA,NA,"",       1.00951,   924.210E-03,   406.124E-03,   3.10010E-09
C:/temp/dataset/4/7_1.odb,Step-1,Increment      1: Step Time =    1.000,"PART-1-1",           569,         -8.75,           30.,            0.,NA,NA,"",       1.05825,   978.071E-03,   404.075E-03,   3.86508E-09
C:/temp/dataset/4/7_1.odb,Step-1,Increment      1: Step Time =    1.000,"PART-1-1",           570,            5.,      -24.7917,            0.,NA,NA,"",   23.7189E-03,   13.2086E-03,   19.7007E-03,   4.24567E-03
C:/temp/dataset/4/7_1.odb,Step-1,Increment      1: Step Time =    1.000,"PART-1-1",           571,       6.09200,      -25.8775,            0.,NA,NA,"",   14.7417E-03,   7.87897E-03,   12.4595E-03,   3.47994E-03
C:/temp/dataset/4/7_1.odb,Step-1,Increment      1: Step Time =    1.000,"PART-1-1",           572,       7.15121,      -24.8757,            0.,NA,NA,"",   15.2087E-03,   9.52914E-03,   11.8532E-03,   2.73072E-03
C:/temp/dataset/4/7_1.odb,Step-1,Increment      1: Step Time =    1.000,"PART-1-1",           573,       13.1040,      -21.0477,            0.,NA,NA,"",   30.4592E-03,   26.5640E-03,  -14.9037E-03,   1.86089E-03
C:/temp/dataset/4/7_1.odb,Step-1,Increment      1: Step Time =    1.000,"PART-1-1",           574,       14.0487,      -22.3697,            0.,NA,NA,"",   26.6501E-03,   20.0750E-03,  -17.5278E-03,   2.59640E-03
C:/temp/dataset/4/7_1.odb,Step-1,Increment      1: Step Time =    1.000,"PART-1-1",           575,           15.,        -21.25,            0.,NA,NA,"",   37.7219E-03,   27.5239E-03,  -25.7949E-03,   3.31833E-03
C:/temp/dataset/4/7_1.odb,Step-1,Increment      1: Step Time =    1.000,"PART-1-1",           576,            5.,       -26.875,            0.,NA,NA,"",   13.9278E-03,   7.23759E-03,   11.8996E-03,   4.23798E-03
C:/temp/dataset/4/7_1.odb,Step-1,Increment      1: Step Time =    1.000,"PART-1-1",           577,       12.8133,      -6.31290,            0.,NA,NA,"",   193.983E-03,   190.696E-03,  -35.5591E-03,   1.58439E-03
C:/temp/dataset/4/7_1.odb,Step-1,Increment      1: Step Time =    1.000,"PART-1-1",           578,       13.9319,      -7.55671,            0.,NA,NA,"",   178.977E-03,   171.641E-03,  -50.7153E-03,   2.40954E-03
C:/temp/dataset/4/7_1.odb,Step-1,Increment      1: Step Time =    1.000,"PART-1-1",           579,           15.,         -6.25,            0.,NA,NA,"",   206.345E-03,   193.723E-03,  -71.0622E-03,   3.00436E-03
C:/temp/dataset/4/7_1.odb,Step-1,Increment      1: Step Time =    1.000,"PART-1-1",           580,            5.,       18.5417,            0.,NA,NA,"",   679.895E-03,   672.014E-03,   103.222E-03,   927.476E-09
C:/temp/dataset/4/7_1.odb,Step-1,Increment      1: Step Time =    1.000,"PART-1-1",           581,       6.00122,       17.5195,            0.,NA,NA,"",   657.441E-03,   652.047E-03,   84.0405E-03,   2.05904E-06
C:/temp/dataset/4/7_1.odb,Step-1,Increment      1: Step Time =    1.000,"PART-1-1",           582,       6.99656,       18.6041,            0.,NA,NA,"",   675.941E-03,   672.848E-03,   64.5818E-03,   2.13909E-06
C:/temp/dataset/4/7_1.odb,Step-1,Increment      1: Step Time =    1.000,"PART-1-1",           583,       12.8545,       23.6160,            0.,NA,NA,"",   770.325E-03,   768.721E-03,  -49.6886E-03,   39.5635E-09
C:/temp/dataset/4/7_1.odb,Step-1,Increment      1: Step Time =    1.000,"PART-1-1",           584,       13.9683,       22.4382,            0.,NA,NA,"",   749.099E-03,   745.725E-03,  -71.0169E-03,   104.657E-09
C:/temp/dataset/4/7_1.odb,Step-1,Increment      1: Step Time =    1.000,"PART-1-1",           585,           15.,         23.75,            0.,NA,NA,"",   776.290E-03,   770.911E-03,  -91.2222E-03,   164.114E-09
C:/temp/dataset/4/7_1.odb,Step-1,Increment      1: Step Time =    1.000,"PART-1-1",           586,            5.,       16.4583,            0.,NA,NA,"",   640.143E-03,   631.702E-03,   103.608E-03,   4.16924E-06
C:/temp/dataset/4/7_1.odb,Step-1,Increment      1: Step Time =    1.000,"PART-1-1",           587,       7.00480,       16.4638,            0.,NA,NA,"",   634.751E-03,   631.432E-03,   64.8230E-03,   6.08743E-06
C:/temp/dataset/4/7_1.odb,Step-1,Increment      1: Step Time =    1.000,"PART-1-1",           588,       12.9734,       21.1620,            0.,NA,NA,"",   723.060E-03,   721.222E-03,  -51.5297E-03,   418.535E-09
C:/temp/dataset/4/7_1.odb,Step-1,Increment      1: Step Time =    1.000,"PART-1-1",           589,           15.,         21.25,            0.,NA,NA,"",   728.222E-03,   722.545E-03,  -90.7538E-03,   128.087E-09
C:/temp/dataset/4/7_1.odb,Step-1,Increment      1: Step Time =    1.000,"PART-1-1",           590,            5.,       6.04167,            0.,NA,NA,"",   444.017E-03,   431.405E-03,   105.075E-03,   634.213E-06
C:/temp/dataset/4/7_1.odb,Step-1,Increment      1: Step Time =    1.000,"PART-1-1",           591,       5.70418,       5.21013,            0.,NA,NA,"",   426.310E-03,   416.293E-03,   91.8743E-03,   1.30398E-03
C:/temp/dataset/4/7_1.odb,Step-1,Increment      1: Step Time =    1.000,"PART-1-1",           592,       6.54256,       6.20387,            0.,NA,NA,"",   440.581E-03,   434.044E-03,   75.6181E-03,   514.714E-06
C:/temp/dataset/4/7_1.odb,Step-1,Increment      1: Step Time =    1.000,"PART-1-1",           593,       7.80464,       8.81181,            0.,NA,NA,"",   486.013E-03,   483.346E-03,   50.8399E-03,   44.4543E-06
C:/temp/dataset/4/7_1.odb,Step-1,Increment      1: Step Time =    1.000,"PART-1-1",           594,       7.55468,       6.70991,            0.,NA,NA,"",   446.633E-03,   443.112E-03,   55.9675E-03,   307.432E-06
C:/temp/dataset/4/7_1.odb,Step-1,Increment      1: Step Time =    1.000,"PART-1-1",           595,           -5.,       12.2917,            0.,NA,NA,"",   670.091E-03,   585.718E-03,   325.511E-03,   405.452E-09
C:/temp/dataset/4/7_1.odb,Step-1,Increment      1: Step Time =    1.000,"PART-1-1",           596,      -13.0551,       11.1433,            0.,NA,NA,"",   755.006E-03,   562.293E-03,   503.846E-03,   1.96576E-06
C:/temp/dataset/4/7_1.odb,Step-1,Increment      1: Step Time =    1.000,"PART-1-1",           597,          -15.,       11.4063,            0.,NA,NA,"",   788.828E-03,   568.582E-03,   546.776E-03,   309.600E-09
C:/temp/dataset/4/7_1.odb,Step-1,Increment      1: Step Time =    1.000,"PART-1-1",           598,           -5.,       18.5417,            0.,NA,NA,"",   793.065E-03,   723.870E-03,   323.982E-03,   115.198E-09
C:/temp/dataset/4/7_1.odb,Step-1,Increment      1: Step Time =    1.000,"PART-1-1",           599,      -6.83195,       18.5917,            0.,NA,NA,"",   811.834E-03,   725.425E-03,   364.465E-03,   90.2981E-09
C:/temp/dataset/4/7_1.odb,Step-1,Increment      1: Step Time =    1.000,"PART-1-1",           600,      -12.9744,       15.4368,            0.,NA,NA,"",   826.383E-03,   657.186E-03,   501.014E-03,   67.3394E-09
C:/temp/dataset/4/7_1.odb,Step-1,Increment      1: Step Time =    1.000,"PART-1-1",           601,      -13.9736,       16.6988,            0.,NA,NA,"",   861.966E-03,   685.328E-03,   522.793E-03,   132.908E-09
C:/temp/dataset/4/7_1.odb,Step-1,Increment      1: Step Time =    1.000,"PART-1-1",           602,          -15.,       15.7813,            0.,NA,NA,"",   860.472E-03,   665.295E-03,   545.705E-03,   277.959E-09
C:/temp/dataset/4/7_1.odb,Step-1,Increment      1: Step Time =    1.000,"PART-1-1",           603,      -6.85389,       22.5676,            0.,NA,NA,"",   891.047E-03,   813.317E-03,   363.978E-03,   21.1469E-09
C:/temp/dataset/4/7_1.odb,Step-1,Increment      1: Step Time =    1.000,"PART-1-1",           604,           -5.,       22.7083,            0.,NA,NA,"",   877.564E-03,   815.974E-03,   322.964E-03,   11.8749E-09
C:/temp/dataset/4/7_1.odb,Step-1,Increment      1: Step Time =    1.000,"PART-1-1",           605,      -7.62380,       21.5126,            0.,NA,NA,"",   877.351E-03,   790.183E-03,   381.254E-03,   31.9554E-09
C:/temp/dataset/4/7_1.odb,Step-1,Increment      1: Step Time =    1.000,"PART-1-1",           606,      -11.2433,       25.0031,            0.,NA,NA,"",   982.747E-03,   868.225E-03,   460.411E-03,   8.12969E-09
C:/temp/dataset/4/7_1.odb,Step-1,Increment      1: Step Time =    1.000,"PART-1-1",           607,      -10.1220,       24.6816,            0.,NA,NA,"",   964.826E-03,   860.844E-03,   435.702E-03,   8.58893E-09
C:/temp/dataset/4/7_1.odb,Step-1,Increment      1: Step Time =    1.000,"PART-1-1",           608,      -9.68436,       26.2404,            0.,NA,NA,"",   991.236E-03,   895.194E-03,   425.648E-03,   4.61957E-09
C:/temp/dataset/4/7_1.odb,Step-1,Increment      1: Step Time =    1.000,"PART-1-1",           609,      -10.8057,       26.5619,            0.,NA,NA,"",       1.00869,   902.575E-03,   450.357E-03,   3.67976E-09
C:/temp/dataset/4/7_1.odb,Step-1,Increment      1: Step Time =    1.000,"PART-1-1",           610,            5.,      -6.04167,            0.,NA,NA,"",   217.094E-03,   196.860E-03,   91.5203E-03,   5.91335E-03
C:/temp/dataset/4/7_1.odb,Step-1,Increment      1: Step Time =    1.000,"PART-1-1",           611,       5.81487,      -6.90448,            0.,NA,NA,"",   197.245E-03,   182.359E-03,   75.1716E-03,   3.88154E-03
C:/temp/dataset/4/7_1.odb,Step-1,Increment      1: Step Time =    1.000,"PART-1-1",           612,       6.44107,      -5.66337,            0.,NA,NA,"",   211.681E-03,   200.390E-03,   68.2100E-03,   2.43792E-03
C:/temp/dataset/4/7_1.odb,Step-1,Increment      1: Step Time =    1.000,"PART-1-1",           613,       5.62621,      -4.80056,            0.,NA,NA,"",   230.718E-03,   214.567E-03,   84.8040E-03,   4.02556E-03
C:/temp/dataset/4/7_1.odb,Step-1,Increment      1: Step Time =    1.000,"PART-1-1",           614,            5.,        -8.125,            0.,NA,NA,"",   185.786E-03,   166.396E-03,   82.6377E-03,   4.35761E-03
C:/temp/dataset/4/7_1.odb,Step-1,Increment      1: Step Time =    1.000,"PART-1-1",           615,       8.00489,       17.5473,            0.,NA,NA,"",   653.782E-03,   652.213E-03,   45.2736E-03,   3.34973E-06
C:/temp/dataset/4/7_1.odb,Step-1,Increment      1: Step Time =    1.000,"PART-1-1",           616,       8.00828,       15.3576,            0.,NA,NA,"",   611.544E-03,   609.840E-03,   45.6235E-03,   8.56040E-06
C:/temp/dataset/4/7_1.odb,Step-1,Increment      1: Step Time =    1.000,"PART-1-1",           617,       11.1265,      -16.2686,            0.,NA,NA,"",   62.6190E-03,   62.4523E-03,  -4.56532E-03,   337.482E-06
C:/temp/dataset/4/7_1.odb,Step-1,Increment      1: Step Time =    1.000,"PART-1-1",           618,       9.12111,      -16.3141,            0.,NA,NA,"",   64.0728E-03,   62.5126E-03,   14.0535E-03,   1.18486E-03
C:/temp/dataset/4/7_1.odb,Step-1,Increment      1: Step Time =    1.000,"PART-1-1",           619,      -9.91602,       15.9767,            0.,NA,NA,"",   796.523E-03,   668.372E-03,   433.276E-03,   126.529E-09
C:/temp/dataset/4/7_1.odb,Step-1,Increment      1: Step Time =    1.000,"PART-1-1",           620,      -10.9598,       15.0860,            0.,NA,NA,"",   793.458E-03,   648.940E-03,   456.566E-03,   159.558E-09
C:/temp/dataset/4/7_1.odb,Step-1,Increment      1: Step Time =    1.000,"PART-1-1",           621,      -8.93702,       14.7598,            0.,NA,NA,"",   762.149E-03,   641.236E-03,   411.932E-03,   209.569E-09
C:/temp/dataset/4/7_1.odb,Step-1,Increment      1: Step Time =    1.000,"PART-1-1",           622,      -13.0880,       4.79273,            0.,NA,NA,"",   658.895E-03,   421.893E-03,   506.111E-03,   16.3526E-06
C:/temp/dataset/4/7_1.odb,Step-1,Increment      1: Step Time =    1.000,"PART-1-1",           623,          -15.,       4.84375,            0.,NA,NA,"",   692.841E-03,   423.500E-03,   548.339E-03,   21.0592E-06
C:/temp/dataset/4/7_1.odb,Step-1,Increment      1: Step Time =    1.000,"PART-1-1",           624,           -5.,       6.04167,            0.,NA,NA,"",   554.322E-03,   447.610E-03,   326.982E-03,   58.1456E-06
C:/temp/dataset/4/7_1.odb,Step-1,Increment      1: Step Time =    1.000,"PART-1-1",           625,      -7.12843,       5.83601,            0.,NA,NA,"",   580.299E-03,   443.569E-03,   374.156E-03,   31.2975E-06
C:/temp/dataset/4/7_1.odb,Step-1,Increment      1: Step Time =    1.000,"PART-1-1",           626,       12.9112,      -8.87192,            0.,NA,NA,"",   154.592E-03,   151.029E-03,  -33.0006E-03,   1.67901E-03
C:/temp/dataset/4/7_1.odb,Step-1,Increment      1: Step Time =    1.000,"PART-1-1",           627,           15.,         -8.75,            0.,NA,NA,"",   167.465E-03,   154.922E-03,  -63.5890E-03,   3.25593E-03
C:/temp/dataset/4/7_1.odb,Step-1,Increment      1: Step Time =    1.000,"PART-1-1",           628,       13.0740,      -16.2399,            0.,NA,NA,"",   67.5267E-03,   63.5700E-03,  -22.7754E-03,   1.82480E-03
C:/temp/dataset/4/7_1.odb,Step-1,Increment      1: Step Time =    1.000,"PART-1-1",           629,           15.,        -16.25,            0.,NA,NA,"",   77.2446E-03,   65.6073E-03,  -40.7727E-03,   3.29583E-03
C:/temp/dataset/4/7_1.odb,Step-1,Increment      1: Step Time =    1.000,"PART-1-1",           630,       13.0128,       13.9092,            0.,NA,NA,"",   583.146E-03,   580.917E-03,  -50.9372E-03,   14.0492E-06
C:/temp/dataset/4/7_1.odb,Step-1,Increment      1: Step Time =    1.000,"PART-1-1",           631,           15.,         13.75,            0.,NA,NA,"",   584.334E-03,   577.459E-03,  -89.3734E-03,   16.2917E-06
C:/temp/dataset/4/7_1.odb,Step-1,Increment      1: Step Time =    1.000,"PART-1-1",           632,       10.9505,       11.7339,            0.,NA,NA,"",   539.314E-03,   539.210E-03,  -10.5736E-03,   20.8852E-06
C:/temp/dataset/4/7_1.odb,Step-1,Increment      1: Step Time =    1.000,"PART-1-1",           633,       9.98883,       12.9959,            0.,NA,NA,"",   563.848E-03,   563.794E-03,   7.78294E-03,   18.7212E-06
C:/temp/dataset/4/7_1.odb,Step-1,Increment      1: Step Time =    1.000,"PART-1-1",           634,       8.94372,       11.9797,            0.,NA,NA,"",   545.048E-03,   544.318E-03,   28.2039E-03,   22.0083E-06
C:/temp/dataset/4/7_1.odb,Step-1,Increment      1: Step Time =    1.000,"PART-1-1",           635,      -13.9153,       18.9000,            0.,NA,NA,"",   900.066E-03,   733.971E-03,   520.966E-03,   67.6045E-09
C:/temp/dataset/4/7_1.odb,Step-1,Increment      1: Step Time =    1.000,"PART-1-1",           636,      -12.6393,       19.9841,            0.,NA,NA,"",   903.628E-03,   757.623E-03,   492.496E-03,   64.0442E-09
C:/temp/dataset/4/7_1.odb,Step-1,Increment      1: Step Time =    1.000,"PART-1-1",           637,          -15.,       20.1563,            0.,NA,NA,"",   936.631E-03,   762.004E-03,   544.636E-03,   57.5276E-09
C:/temp/dataset/4/7_1.odb,Step-1,Increment      1: Step Time =    1.000,"PART-1-1",           638,       8.12191,      -21.7795,            0.,NA,NA,"",   26.4851E-03,   22.5233E-03,   13.9342E-03,   1.95052E-03
C:/temp/dataset/4/7_1.odb,Step-1,Increment      1: Step Time =    1.000,"PART-1-1",           639,       8.12482,      -23.8590,            0.,NA,NA,"",   16.0950E-03,   12.3841E-03,   10.2802E-03,   1.96132E-03
C:/temp/dataset/4/7_1.odb,Step-1,Increment      1: Step Time =    1.000,"PART-1-1",           640,       8.11825,      -19.6354,            0.,NA,NA,"",   40.1661E-03,   36.0733E-03,   17.6645E-03,   1.94357E-03
C:/temp/dataset/4/7_1.odb,Step-1,Increment      1: Step Time =    1.000,"PART-1-1",           641,       8.10952,      -17.4508,            0.,NA,NA,"",   57.2999E-03,   53.1198E-03,   21.4841E-03,   1.94669E-03
C:/temp/dataset/4/7_1.odb,Step-1,Increment      1: Step Time =    1.000,"PART-1-1",           642,       7.85781,       23.9076,            0.,NA,NA,"",   776.715E-03,   775.296E-03,   46.9266E-03,   51.9525E-09
C:/temp/dataset/4/7_1.odb,Step-1,Increment      1: Step Time =    1.000,"PART-1-1",           643,       7.94870,       21.8524,            0.,NA,NA,"",   736.927E-03,   735.518E-03,   45.5527E-03,   209.248E-09
C:/temp/dataset/4/7_1.odb,Step-1,Increment      1: Step Time =    1.000,"PART-1-1",           644,       4.21929,       2.98066,            0.,NA,NA,"",   393.051E-03,   373.844E-03,   121.366E-03,   838.981E-06
C:/temp/dataset/4/7_1.odb,Step-1,Increment      1: Step Time =    1.000,"PART-1-1",           645,       5.32392,       3.96649,            0.,NA,NA,"",   404.911E-03,   392.675E-03,   98.7864E-03,   1.35458E-03
C:/temp/dataset/4/7_1.odb,Step-1,Increment      1: Step Time =    1.000,"PART-1-1",           646,          3.75,            5.,            0.,NA,NA,"",   436.643E-03,   416.214E-03,   131.996E-03,   2.01723E-03
C:/temp/dataset/4/7_1.odb,Step-1,Increment      1: Step Time =    1.000,"PART-1-1",           647,       12.8859,       9.04653,            0.,NA,NA,"",   489.085E-03,   486.765E-03,  -47.5788E-03,   19.7624E-06
C:/temp/dataset/4/7_1.odb,Step-1,Increment      1: Step Time =    1.000,"PART-1-1",           648,           15.,          8.75,            0.,NA,NA,"",   488.669E-03,   480.566E-03,  -88.6192E-03,   56.4121E-06
C:/temp/dataset/4/7_1.odb,Step-1,Increment      1: Step Time =    1.000,"PART-1-1",           649,      -8.02807,       9.41948,            0.,NA,NA,"",   654.269E-03,   522.974E-03,   393.149E-03,   6.57405E-06
C:/temp/dataset/4/7_1.odb,Step-1,Increment      1: Step Time =    1.000,"PART-1-1",           650,      -8.84347,       16.8085,            0.,NA,NA,"",   799.286E-03,   686.498E-03,   409.364E-03,   113.914E-09
C:/temp/dataset/4/7_1.odb,Step-1,Increment      1: Step Time =    1.000,"PART-1-1",           651,      -9.78583,       18.0165,            0.,NA,NA,"",   832.946E-03,   713.432E-03,   429.900E-03,   103.097E-09
C:/temp/dataset/4/7_1.odb,Step-1,Increment      1: Step Time =    1.000,"PART-1-1",           652,          -15.,       17.9688,            0.,NA,NA,"",   898.057E-03,   713.650E-03,   545.170E-03,   144.944E-09
C:/temp/dataset/4/7_1.odb,Step-1,Increment      1: Step Time =    1.000,"PART-1-1",           653,          -15.,       24.5313,            0.,NA,NA,"",       1.01629,   858.713E-03,   543.567E-03,   3.15201E-09
C:/temp/dataset/4/7_1.odb,Step-1,Increment      1: Step Time =    1.000,"PART-1-1",           654,      -12.9952,       24.7258,            0.,NA,NA,"",   996.570E-03,   862.524E-03,   499.203E-03,   6.99055E-09
C:/temp/dataset/4/7_1.odb,Step-1,Increment      1: Step Time =    1.000,"PART-1-1",           655,      -11.4985,       21.8877,            0.,NA,NA,"",   925.737E-03,   799.421E-03,   466.813E-03,   30.7161E-09
C:/temp/dataset/4/7_1.odb,Step-1,Increment      1: Step Time =    1.000,"PART-1-1",           656,      -11.4490,       20.6565,            0.,NA,NA,"",   901.918E-03,   772.193E-03,   466.019E-03,   49.2201E-09
C:/temp/dataset/4/7_1.odb,Step-1,Increment      1: Step Time =    1.000,"PART-1-1",           657,      -10.1446,       20.7260,            0.,NA,NA,"",   888.416E-03,   773.413E-03,   437.169E-03,   53.3816E-09
C:/temp/dataset/4/7_1.odb,Step-1,Increment      1: Step Time =    1.000,"PART-1-1",           658,      -7.69218,       19.6350,            0.,NA,NA,"",   841.075E-03,   748.697E-03,   383.225E-03,   63.5803E-09
C:/temp/dataset/4/7_1.odb,Step-1,Increment      1: Step Time =    1.000,"PART-1-1",           659,      -8.68744,       18.7463,            0.,NA,NA,"",   834.418E-03,   729.295E-03,   405.442E-03,   93.1328E-09
C:/temp/dataset/4/7_1.odb,Step-1,Increment      1: Step Time =    1.000,"PART-1-1",           660,      -7.82721,       17.7030,            0.,NA,NA,"",   804.979E-03,   706.023E-03,   386.682E-03,   100.087E-09
C:/temp/dataset/4/7_1.odb,Step-1,Increment      1: Step Time =    1.000,"PART-1-1",           661,      -9.52114,       19.8817,            0.,NA,NA,"",   865.359E-03,   754.596E-03,   423.593E-03,   65.2161E-09
C:/temp/dataset/4/7_1.odb,Step-1,Increment      1: Step Time =    1.000,"PART-1-1",           662,      -10.6195,       19.1519,            0.,NA,NA,"",   863.988E-03,   738.733E-03,   448.051E-03,   86.5083E-09
C:/temp/dataset/4/7_1.odb,Step-1,Increment      1: Step Time =    1.000,"PART-1-1",           663,      -12.1485,       3.78191,            0.,NA,NA,"",   628.706E-03,   399.318E-03,   485.609E-03,   17.8274E-06
C:/temp/dataset/4/7_1.odb,Step-1,Increment      1: Step Time =    1.000,"PART-1-1",           664,      -10.9850,       2.86362,            0.,NA,NA,"",   595.971E-03,   378.738E-03,   460.151E-03,   18.8057E-06
C:/temp/dataset/4/7_1.odb,Step-1,Increment      1: Step Time =    1.000,"PART-1-1",           665,      -9.06958,       8.49577,            0.,NA,NA,"",   652.845E-03,   502.806E-03,   416.405E-03,   10.2001E-06
C:/temp/dataset/4/7_1.odb,Step-1,Increment      1: Step Time =    1.000,"PART-1-1",           666,      -8.08215,       7.28595,            0.,NA,NA,"",   618.342E-03,   475.833E-03,   394.880E-03,   16.8704E-06
C:/temp/dataset/4/7_1.odb,Step-1,Increment      1: Step Time =    1.000,"PART-1-1",           667,      -10.1292,       7.60955,            0.,NA,NA,"",   653.746E-03,   483.465E-03,   440.051E-03,   12.9013E-06
C:/temp/dataset/4/7_1.odb,Step-1,Increment      1: Step Time =    1.000,"PART-1-1",           668,      -11.2104,       6.77234,            0.,NA,NA,"",   657.158E-03,   465.208E-03,   464.153E-03,   14.5030E-06
C:/temp/dataset/4/7_1.odb,Step-1,Increment      1: Step Time =    1.000,"PART-1-1",           669,      -10.2942,       5.63122,            0.,NA,NA,"",   625.064E-03,   439.759E-03,   444.203E-03,   20.0043E-06
C:/temp/dataset/4/7_1.odb,Step-1,Increment      1: Step Time =    1.000,"PART-1-1",           670,      -9.21309,       6.46842,            0.,NA,NA,"",   621.501E-03,   458.021E-03,   420.096E-03,   21.1395E-06
C:/temp/dataset/4/7_1.odb,Step-1,Increment      1: Step Time =    1.000,"PART-1-1",           671,        -11.25,           -5.,            0.,NA,NA,"",   511.038E-03,   205.545E-03,   467.880E-03,   40.2910E-06
C:/temp/dataset/4/7_1.odb,Step-1,Increment      1: Step Time =    1.000,"PART-1-1",           672,      -10.0273,      -3.93877,            0.,NA,NA,"",   496.453E-03,   228.636E-03,   440.671E-03,   43.8920E-06
C:/temp/dataset/4/7_1.odb,Step-1,Increment      1: Step Time =    1.000,"PART-1-1",           673,         -8.75,           -5.,            0.,NA,NA,"",   460.982E-03,   205.079E-03,   412.852E-03,   99.2093E-06
C:/temp/dataset/4/7_1.odb,Step-1,Increment      1: Step Time =    1.000,"PART-1-1",           674,      -7.59562,      -4.02918,            0.,NA,NA,"",   448.479E-03,   226.182E-03,   387.266E-03,   111.304E-06
C:/temp/dataset/4/7_1.odb,Step-1,Increment      1: Step Time =    1.000,"PART-1-1",           675,      -8.87289,      -2.96795,            0.,NA,NA,"",   484.342E-03,   249.688E-03,   415.021E-03,   43.6065E-06
C:/temp/dataset/4/7_1.odb,Step-1,Increment      1: Step Time =    1.000,"PART-1-1",           676,         -6.25,           -5.,            0.,NA,NA,"",   412.651E-03,   204.879E-03,   358.197E-03,   144.815E-06
C:/temp/dataset/4/7_1.odb,Step-1,Increment      1: Step Time =    1.000,"PART-1-1",           677,      -5.03874,      -3.83161,            0.,NA,NA,"",   403.797E-03,   229.920E-03,   331.947E-03,   549.621E-06
C:/temp/dataset/4/7_1.odb,Step-1,Increment      1: Step Time =    1.000,"PART-1-1",           678,      -6.38435,      -2.86079,            0.,NA,NA,"",   439.574E-03,   251.440E-03,   360.559E-03,   213.585E-06
C:/temp/dataset/4/7_1.odb,Step-1,Increment      1: Step Time =    1.000,"PART-1-1",           679,      -8.31216,       1.98044,            0.,NA,NA,"",   538.210E-03,   358.563E-03,   401.376E-03,   38.9898E-06
C:/temp/dataset/4/7_1.odb,Step-1,Increment      1: Step Time =    1.000,"PART-1-1",           680,      -6.89941,       1.67561,            0.,NA,NA,"",   510.509E-03,   351.495E-03,   370.230E-03,   71.4574E-06
C:/temp/dataset/4/7_1.odb,Step-1,Increment      1: Step Time =    1.000,"PART-1-1",           681,      -8.02347,       3.70061,            0.,NA,NA,"",   559.365E-03,   396.528E-03,   394.531E-03,   26.1711E-06
C:/temp/dataset/4/7_1.odb,Step-1,Increment      1: Step Time =    1.000,"PART-1-1",           682,      -9.78636,       2.36681,            0.,NA,NA,"",   568.535E-03,   367.464E-03,   433.823E-03,   21.6599E-06
C:/temp/dataset/4/7_1.odb,Step-1,Increment      1: Step Time =    1.000,"PART-1-1",           683,      -8.80920,   354.969E-03,            0.,NA,NA,"",   524.010E-03,   322.797E-03,   412.782E-03,   28.9172E-06
C:/temp/dataset/4/7_1.odb,Step-1,Increment      1: Step Time =    1.000,"PART-1-1",           684,         -3.75,           -5.,            0.,NA,NA,"",   367.486E-03,   204.513E-03,   305.321E-03,   852.260E-06
C:/temp/dataset/4/7_1.odb,Step-1,Increment      1: Step Time =    1.000,"PART-1-1",           685,          3.75,           -5.,            0.,NA,NA,"",   245.234E-03,   207.642E-03,   130.478E-03,   2.91915E-03
C:/temp/dataset/4/7_1.odb,Step-1,Increment      1: Step Time =    1.000,"PART-1-1",           686,       4.46580,      -3.87501,            0.,NA,NA,"",   258.740E-03,   233.317E-03,   111.845E-03,   3.24216E-03
C:/temp/dataset/4/7_1.odb,Step-1,Increment      1: Step Time =    1.000,"PART-1-1",           687,       2.90021,      -2.90757,            0.,NA,NA,"",   293.484E-03,   252.882E-03,   148.940E-03,   1.39229E-03
C:/temp/dataset/4/7_1.odb,Step-1,Increment      1: Step Time =    1.000,"PART-1-1",           688,       11.1618,       2.81075,            0.,NA,NA,"",   364.660E-03,   364.412E-03,  -13.4289E-03,   823.234E-06
C:/temp/dataset/4/7_1.odb,Step-1,Increment      1: Step Time =    1.000,"PART-1-1",           689,       10.1850,       1.50626,            0.,NA,NA,"",   338.609E-03,   338.574E-03,   4.86001E-03,   1.15328E-03
C:/temp/dataset/4/7_1.odb,Step-1,Increment      1: Step Time =    1.000,"PART-1-1",           690,       11.6421,   144.368E-03,            0.,NA,NA,"",   311.423E-03,   310.666E-03,  -21.7096E-03,   1.17371E-03
C:/temp/dataset/4/7_1.odb,Step-1,Increment      1: Step Time =    1.000,"PART-1-1",           691,         11.25,           30.,            0.,NA,NA,"",   892.751E-03,   892.531E-03,  -19.8419E-03,   39.2433E-09
C:/temp/dataset/4/7_1.odb,Step-1,Increment      1: Step Time =    1.000,"PART-1-1",           692,       9.19768,       26.3844,            0.,NA,NA,"",   823.221E-03,   822.965E-03,   20.5407E-03,   54.2265E-09
C:/temp/dataset/4/7_1.odb,Step-1,Increment      1: Step Time =    1.000,"PART-1-1",           693,       7.72138,       25.7435,            0.,NA,NA,"",   812.334E-03,   810.841E-03,   49.2224E-03,   62.0370E-09
C:/temp/dataset/4/7_1.odb,Step-1,Increment      1: Step Time =    1.000,"PART-1-1",           694,       9.17897,      -24.8987,            0.,NA,NA,"",   9.06383E-03,   7.65418E-03,   4.85454E-03,   1.16660E-03
C:/temp/dataset/4/7_1.odb,Step-1,Increment      1: Step Time =    1.000,"PART-1-1",           695,       9.00589,       18.6572,            0.,NA,NA,"",   673.992E-03,   673.502E-03,   25.6993E-03,   2.62977E-06
C:/temp/dataset/4/7_1.odb,Step-1,Increment      1: Step Time =    1.000,"PART-1-1",           696,       7.99757,       19.7140,            0.,NA,NA,"",   695.593E-03,   694.136E-03,   45.0079E-03,   1.02442E-06
C:/temp/dataset/4/7_1.odb,Step-1,Increment      1: Step Time =    1.000,"PART-1-1",           697,      -12.2498,       25.7751,            0.,NA,NA,"",       1.00844,   885.536E-03,   482.469E-03,   3.99429E-09
C:/temp/dataset/4/7_1.odb,Step-1,Increment      1: Step Time =    1.000,"PART-1-1",           698,      -11.9888,       23.9538,            0.,NA,NA,"",   970.594E-03,   845.213E-03,   477.145E-03,   10.7333E-09
C:/temp/dataset/4/7_1.odb,Step-1,Increment      1: Step Time =    1.000,"PART-1-1",           699,      -1.59164,      -1.60220,            0.,NA,NA,"",   377.150E-03,   279.629E-03,   253.081E-03,   1.13126E-03
C:/temp/dataset/4/7_1.odb,Step-1,Increment      1: Step Time =    1.000,"PART-1-1",           700,      -1.34014,  -343.401E-03,            0.,NA,NA,"",   393.486E-03,   306.844E-03,   246.330E-03,   1.05726E-03
C:/temp/dataset/4/7_1.odb,Step-1,Increment      1: Step Time =    1.000,"PART-1-1",           701,      -2.70787,  -93.9540E-03,            0.,NA,NA,"",   417.589E-03,   312.162E-03,   277.373E-03,   743.674E-06
C:/temp/dataset/4/7_1.odb,Step-1,Increment      1: Step Time =    1.000,"PART-1-1",           702,       8.06015,      -13.0184,            0.,NA,NA,"",   102.099E-03,   97.7206E-03,   29.5774E-03,   1.98551E-03
C:/temp/dataset/4/7_1.odb,Step-1,Increment      1: Step Time =    1.000,"PART-1-1",           703,       7.99745,      -10.7906,            0.,NA,NA,"",   129.721E-03,   125.134E-03,   34.1896E-03,   2.01754E-03
C:/temp/dataset/4/7_1.odb,Step-1,Increment      1: Step Time =    1.000,"PART-1-1",           704,           15.,        -26.25,            0.,NA,NA,"",   12.6789E-03,   6.57845E-03,  -10.8388E-03,   3.32816E-03
C:/temp/dataset/4/7_1.odb,Step-1,Increment      1: Step Time =    1.000,"PART-1-1",           705,       13.9776,      -24.8045,            0.,NA,NA,"",   14.9806E-03,   9.51233E-03,  -11.5730E-03,   2.55576E-03
C:/temp/dataset/4/7_1.odb,Step-1,Increment      1: Step Time =    1.000,"PART-1-1",           706,       12.6094,      -25.9010,            0.,NA,NA,"",   7.19162E-03,   4.86181E-03,  -5.29927E-03,   1.52481E-03
C:/temp/dataset/4/7_1.odb,Step-1,Increment      1: Step Time =    1.000,"PART-1-1",           707,       12.0224,      -24.3398,            0.,NA,NA,"",   10.9508E-03,   9.61191E-03,  -5.24692E-03,   1.06743E-03
C:/temp/dataset/4/7_1.odb,Step-1,Increment      1: Step Time =    1.000,"PART-1-1",           708,       13.0263,      -23.4242,            0.,NA,NA,"",   17.5390E-03,   14.0213E-03,  -10.5366E-03,   1.82291E-03
C:/temp/dataset/4/7_1.odb,Step-1,Increment      1: Step Time =    1.000,"PART-1-1",           709,       12.1300,      -22.1112,            0.,NA,NA,"",   21.3878E-03,   19.8641E-03,  -7.92836E-03,   1.11662E-03
C:/temp/dataset/4/7_1.odb,Step-1,Increment      1: Step Time =    1.000,"PART-1-1",           710,           15.,        -23.75,            0.,NA,NA,"",   23.5827E-03,   14.8895E-03,  -18.2878E-03,   3.32232E-03
C:/temp/dataset/4/7_1.odb,Step-1,Increment      1: Step Time =    1.000,"PART-1-1",           711,       10.9035,      -9.09896,            0.,NA,NA,"",   147.009E-03,   146.951E-03,  -4.14832E-03,   319.468E-06
C:/temp/dataset/4/7_1.odb,Step-1,Increment      1: Step Time =    1.000,"PART-1-1",           712,       9.82794,      -8.10226,            0.,NA,NA,"",   161.952E-03,   161.549E-03,   11.4083E-03,   488.933E-06
C:/temp/dataset/4/7_1.odb,Step-1,Increment      1: Step Time =    1.000,"PART-1-1",           713,       8.90728,      -9.48784,            0.,NA,NA,"",   143.906E-03,   141.932E-03,   23.7542E-03,   1.24381E-03
C:/temp/dataset/4/7_1.odb,Step-1,Increment      1: Step Time =    1.000,"PART-1-1",           714,           15.,         -1.25,            0.,NA,NA,"",   295.747E-03,   283.916E-03,  -82.8155E-03,   1.63986E-03
C:/temp/dataset/4/7_1.odb,Step-1,Increment      1: Step Time =    1.000,"PART-1-1",           715,       12.7555,      -1.12336,            0.,NA,NA,"",   288.497E-03,   285.550E-03,  -41.1307E-03,   1.27549E-03
C:/temp/dataset/4/7_1.odb,Step-1,Increment      1: Step Time =    1.000,"PART-1-1",           716,       11.5680,       5.48707,            0.,NA,NA,"",   418.066E-03,   417.515E-03,  -21.4545E-03,   319.934E-06
C:/temp/dataset/4/7_1.odb,Step-1,Increment      1: Step Time =    1.000,"PART-1-1",           717,       10.1222,       4.29256,            0.,NA,NA,"",   394.583E-03,   394.533E-03,   6.28560E-03,   684.926E-06
C:/temp/dataset/4/7_1.odb,Step-1,Increment      1: Step Time =    1.000,"PART-1-1",           718,       8.27918,   509.070E-03,            0.,NA,NA,"",   322.046E-03,   319.553E-03,   39.9960E-03,   1.34300E-03
C:/temp/dataset/4/7_1.odb,Step-1,Increment      1: Step Time =    1.000,"PART-1-1",           719,       9.70893,  -124.236E-03,            0.,NA,NA,"",   306.125E-03,   305.829E-03,   13.4669E-03,   1.36185E-03
C:/temp/dataset/4/7_1.odb,Step-1,Increment      1: Step Time =    1.000,"PART-1-1",           720,       8.75521,       2.13956,            0.,NA,NA,"",   353.741E-03,   352.317E-03,   31.7144E-03,   1.17287E-03
C:/temp/dataset/4/7_1.odb,Step-1,Increment      1: Step Time =    1.000,"PART-1-1",           721,       6.99874,       4.90963,            0.,NA,NA,"",   414.456E-03,   409.085E-03,   66.5129E-03,   942.737E-06
C:/temp/dataset/4/7_1.odb,Step-1,Increment      1: Step Time =    1.000,"PART-1-1",           722,       8.01086,       5.41567,            0.,NA,NA,"",   420.651E-03,   418.014E-03,   47.0252E-03,   670.167E-06
C:/temp/dataset/4/7_1.odb,Step-1,Increment      1: Step Time =    1.000,"PART-1-1",           723,       11.8045,       7.99587,            0.,NA,NA,"",   467.312E-03,   466.565E-03,  -26.4051E-03,   64.7171E-06
C:/temp/dataset/4/7_1.odb,Step-1,Increment      1: Step Time =    1.000,"PART-1-1",           724,       7.91904,       10.9856,            0.,NA,NA,"",   527.486E-03,   525.278E-03,   48.2049E-03,   23.2868E-06
C:/temp/dataset/4/7_1.odb,Step-1,Increment      1: Step Time =    1.000,"PART-1-1",           725,       11.0233,       18.7016,            0.,NA,NA,"",   674.119E-03,   673.987E-03,  -13.3405E-03,   2.56715E-06
C:/temp/dataset/4/7_1.odb,Step-1,Increment      1: Step Time =    1.000,"PART-1-1",           726,       10.0074,       19.8076,            0.,NA,NA,"",   695.600E-03,   695.573E-03,   6.10609E-03,   1.10969E-06
C:/temp/dataset/4/7_1.odb,Step-1,Increment      1: Step Time =    1.000,"PART-1-1",           727,       10.9673,       21.0105,            0.,NA,NA,"",   718.779E-03,   718.667E-03,  -12.6896E-03,   682.638E-09
C:/temp/dataset/4/7_1.odb,Step-1,Increment      1: Step Time =    1.000,"PART-1-1",           728,       8.97465,       20.8454,            0.,NA,NA,"",   716.311E-03,   715.843E-03,   25.8925E-03,   757.582E-09
C:/temp/dataset/4/7_1.odb,Step-1,Increment      1: Step Time =    1.000,"PART-1-1",           729,       8.66510,       24.8184,            0.,NA,NA,"",   793.378E-03,   792.766E-03,   31.1375E-03,   57.0914E-09
C:/temp/dataset/4/7_1.odb,Step-1,Increment      1: Step Time =    1.000,"PART-1-1",           730,       7.98376,       13.1681,            0.,NA,NA,"",   569.382E-03,   567.479E-03,   46.5202E-03,   17.0248E-06
C:/temp/dataset/4/7_1.odb,Step-1,Increment      1: Step Time =    1.000,"PART-1-1",           731,      -1.95806,       1.80915,            0.,NA,NA,"",   438.305E-03,   353.304E-03,   259.399E-03,   705.654E-06
C:/temp/dataset/4/7_1.odb,Step-1,Increment      1: Step Time =    1.000,"PART-1-1",           732,  -613.587E-03,   828.335E-03,            0.,NA,NA,"",   403.259E-03,   331.880E-03,   229.070E-03,   1.00710E-03
C:/temp/dataset/4/7_1.odb,Step-1,Increment      1: Step Time =    1.000,"PART-1-1",           733,   461.223E-03,       1.99751,            0.,NA,NA,"",   410.755E-03,   356.367E-03,   204.259E-03,   1.02992E-03
C:/temp/dataset/4/7_1.odb,Step-1,Increment      1: Step Time =    1.000,"PART-1-1",           734,       1.74006,       1.04512,            0.,NA,NA,"",   378.719E-03,   335.659E-03,   175.390E-03,   1.08977E-03
C:/temp/dataset/4/7_1.odb,Step-1,Increment      1: Step Time =    1.000,"PART-1-1",           735,   906.022E-03,  -39.5003E-03,            0.,NA,NA,"",   368.704E-03,   313.214E-03,   194.523E-03,   1.24822E-03
C:/temp/dataset/4/7_1.odb,Step-1,Increment      1: Step Time =    1.000,"PART-1-1",           736,       2.15034,  -968.542E-03,            0.,NA,NA,"",   337.285E-03,   293.478E-03,   166.227E-03,   1.29659E-03
C:/temp/dataset/4/7_1.odb,Step-1,Increment      1: Step Time =    1.000,"PART-1-1",           737,       2.98438,   116.081E-03,            0.,NA,NA,"",   348.467E-03,   315.727E-03,   147.464E-03,   1.10818E-03
C:/temp/dataset/4/7_1.odb,Step-1,Increment      1: Step Time =    1.000,"PART-1-1",           738,      -8.25937,       5.01848,            0.,NA,NA,"",   583.755E-03,   425.739E-03,   399.395E-03,   30.1544E-06
C:/temp/dataset/4/7_1.odb,Step-1,Increment      1: Step Time =    1.000,"PART-1-1",           739,      -2.78312,       1.01462,            0.,NA,NA,"",   436.568E-03,   336.232E-03,   278.459E-03,   657.854E-06
C:/temp/dataset/4/7_1.odb,Step-1,Increment      1: Step Time =    1.000,"PART-1-1",           740,      -4.31499,   913.536E-03,            0.,NA,NA,"",   457.905E-03,   334.219E-03,   313.008E-03,   382.970E-06
C:/temp/dataset/4/7_1.odb,Step-1,Increment      1: Step Time =    1.000,"PART-1-1",           741,      -4.23975,  -195.042E-03,            0.,NA,NA,"",   439.704E-03,   309.925E-03,   311.908E-03,   504.554E-06
C:/temp/dataset/4/7_1.odb,Step-1,Increment      1: Step Time =    1.000,"PART-1-1",           742,      -8.52646,       20.5688,            0.,NA,NA,"",   867.956E-03,   769.542E-03,   401.438E-03,   55.4273E-09
C:/temp/dataset/4/7_1.odb,Step-1,Increment      1: Step Time =    1.000,"PART-1-1",           743,       8.09873,      -15.2435,            0.,NA,NA,"",   77.8960E-03,   73.6532E-03,   25.3574E-03,   1.95426E-03
C:/temp/dataset/4/7_1.odb,Step-1,Increment      1: Step Time =    1.000,"PART-1-1",           744,       8.99676,       14.2096,            0.,NA,NA,"",   588.058E-03,   587.450E-03,   26.7302E-03,   15.1222E-06
C:/temp/dataset/4/7_1.odb,Step-1,Increment      1: Step Time =    1.000,"PART-1-1",           745,       11.0169,       14.0599,            0.,NA,NA,"",   584.326E-03,   584.196E-03,  -12.3260E-03,   15.0009E-06
C:/temp/dataset/4/7_1.odb,Step-1,Increment      1: Step Time =    1.000,"PART-1-1",           746,      -7.91902,       15.6847,            0.,NA,NA,"",   767.444E-03,   661.431E-03,   389.204E-03,   98.9260E-09
C:/temp/dataset/4/7_1.odb,Step-1,Increment      1: Step Time =    1.000,"PART-1-1",           747,      -11.9968,       14.1876,            0.,NA,NA,"",   791.315E-03,   629.333E-03,   479.708E-03,   190.787E-09
C:/temp/dataset/4/7_1.odb,Step-1,Increment      1: Step Time =    1.000,"PART-1-1",           748,      -11.1175,       8.79310,            0.,NA,NA,"",   687.776E-03,   509.866E-03,   461.598E-03,   8.07059E-06
C:/temp/dataset/4/7_1.odb,Step-1,Increment      1: Step Time =    1.000,"PART-1-1",           749,       10.6592,      -6.44981,            0.,NA,NA,"",   187.510E-03,   187.504E-03,  -1.45020E-03,   642.490E-06
C:/temp/dataset/4/7_1.odb,Step-1,Increment      1: Step Time =    1.000,"PART-1-1",           750,      -10.7894,       23.3985,            0.,NA,NA,"",   946.832E-03,   832.645E-03,   450.769E-03,   18.7260E-09
C:/temp/dataset/4/7_1.odb,Step-1,Increment      1: Step Time =    1.000,"PART-1-1",           751,       10.0228,      -25.8019,            0.,NA,NA,"",   4.78285E-03,   4.50376E-03,   1.60990E-03,   482.908E-06
C:/temp/dataset/4/7_1.odb,Step-1,Increment      1: Step Time =    1.000,"PART-1-1",           752,       10.9542,      -24.8826,            0.,NA,NA,"",   7.41972E-03,   7.33431E-03,  -1.12254E-03,   230.792E-06
C:/temp/dataset/4/7_1.odb,Step-1,Increment      1: Step Time =    1.000,"PART-1-1",           753,       11.8371,      -2.37854,            0.,NA,NA,"",   262.054E-03,   260.977E-03,  -23.7300E-03,   1.33149E-03
C:/temp/dataset/4/7_1.odb,Step-1,Increment      1: Step Time =    1.000,"PART-1-1",           754,       11.6235,      -5.02753,            0.,NA,NA,"",   212.753E-03,   212.001E-03,  -17.8786E-03,   1.15820E-03
C:/temp/dataset/4/7_1.odb,Step-1,Increment      1: Step Time =    1.000,"PART-1-1",           755,      -12.1333,       7.86930,            0.,NA,NA,"",   688.704E-03,   489.685E-03,   484.275E-03,   8.80240E-06
C:/temp/dataset/4/7_1.odb,Step-1,Increment      1: Step Time =    1.000,"PART-1-1",           756,      -12.0768,       9.95169,            0.,NA,NA,"",   720.977E-03,   535.712E-03,   482.515E-03,   3.67693E-06
C:/temp/dataset/4/7_1.odb,Step-1,Increment      1: Step Time =    1.000,"PART-1-1",           757,       8.68743,       3.64563,            0.,NA,NA,"",   384.141E-03,   382.675E-03,   33.5253E-03,   948.386E-06
C:/temp/dataset/4/7_1.odb,Step-1,Increment      1: Step Time =    1.000,"PART-1-1",           758,       6.61848,       3.66599,            0.,NA,NA,"",   392.085E-03,   385.166E-03,   73.3362E-03,   1.07507E-03
C:/temp/dataset/4/7_1.odb,Step-1,Increment      1: Step Time =    1.000,"PART-1-1",           759,       4.71579,   65.6079E-03,            0.,NA,NA,"",   332.261E-03,   313.540E-03,   109.955E-03,   1.00412E-03
C:/temp/dataset/4/7_1.odb,Step-1,Increment      1: Step Time =    1.000,"PART-1-1",           760,       3.89104,   957.250E-03,            0.,NA,NA,"",   356.258E-03,   332.505E-03,   127.907E-03,   843.303E-06
C:/temp/dataset/4/7_1.odb,Step-1,Increment      1: Step Time =    1.000,"PART-1-1",           761,      -12.0363,       12.0623,            0.,NA,NA,"",   755.383E-03,   582.362E-03,   481.101E-03,   1.10713E-06
C:/temp/dataset/4/7_1.odb,Step-1,Increment      1: Step Time =    1.000,"PART-1-1",           762,      -12.1964,       5.82098,            0.,NA,NA,"",   658.683E-03,   444.408E-03,   486.173E-03,   15.0087E-06
C:/temp/dataset/4/7_1.odb,Step-1,Increment      1: Step Time =    1.000,"PART-1-1",           763,      -11.2570,       4.81016,            0.,NA,NA,"",   628.327E-03,   421.832E-03,   465.674E-03,   18.9407E-06
C:/temp/dataset/4/7_1.odb,Step-1,Increment      1: Step Time =    1.000,"PART-1-1",           764,      -10.5260,       3.94381,            0.,NA,NA,"",   603.558E-03,   402.501E-03,   449.751E-03,   22.1738E-06
C:/temp/dataset/4/7_1.odb,Step-1,Increment      1: Step Time =    1.000,"PART-1-1",           765,      -9.56326,       4.76486,            0.,NA,NA,"",   600.153E-03,   420.429E-03,   428.278E-03,   25.7056E-06
C:/temp/dataset/4/7_1.odb,Step-1,Increment      1: Step Time =    1.000,"PART-1-1",           766,      -9.32737,       3.44699,            0.,NA,NA,"",   576.486E-03,   391.228E-03,   423.411E-03,   26.0048E-06
C:/temp/dataset/4/7_1.odb,Step-1,Increment      1: Step Time =    1.000,"PART-1-1",           767,       11.5413,      -26.4438,            0.,NA,NA,"",   3.68079E-03,   2.98864E-03,  -2.14855E-03,   708.053E-06
C:/temp/dataset/4/7_1.odb,Step-1,Increment      1: Step Time =    1.000,"PART-1-1",           768,       5.97241,      -3.36228,            0.,NA,NA,"",   255.772E-03,   242.824E-03,   80.3492E-03,   2.00311E-03
C:/temp/dataset/4/7_1.odb,Step-1,Increment      1: Step Time =    1.000,"PART-1-1",           769,       11.9304,       22.2704,            0.,NA,NA,"",   743.531E-03,   742.861E-03,  -31.5583E-03,   141.093E-09
C:/temp/dataset/4/7_1.odb,Step-1,Increment      1: Step Time =    1.000,"PART-1-1",           770,      -3.95064,       2.12654,            0.,NA,NA,"",   471.992E-03,   360.755E-03,   304.356E-03,   357.624E-06
C:/temp/dataset/4/7_1.odb,Step-1,Increment      1: Step Time =    1.000,"PART-1-1",           771,       12.1361,      -19.7979,            0.,NA,NA,"",   35.5902E-03,   34.0575E-03,  -10.3321E-03,   1.11680E-03
C:/temp/dataset/4/7_1.odb,Step-1,Increment      1: Step Time =    1.000,"PART-1-1",           772,       12.1156,      -17.4436,            0.,NA,NA,"",   53.7290E-03,   52.2348E-03,  -12.5833E-03,   1.09545E-03
C:/temp/dataset/4/7_1.odb,Step-1,Increment      1: Step Time =    1.000,"PART-1-1",           773,       11.8489,      -7.73518,            0.,NA,NA,"",   168.524E-03,   167.466E-03,  -18.8551E-03,   998.745E-06
C:/temp/dataset/4/7_1.odb,Step-1,Increment      1: Step Time =    1.000,"PART-1-1",           774,       11.9658,      -10.2357,            0.,NA,NA,"",   132.636E-03,   131.399E-03,  -18.0713E-03,   987.649E-06
C:/temp/dataset/4/7_1.odb,Step-1,Increment      1: Step Time =    1.000,"PART-1-1",           775,       10.7237,      -1.11081,            0.,NA,NA,"",   285.795E-03,   285.755E-03,  -4.73430E-03,   1.32586E-03
C:/temp/dataset/4/7_1.odb,Step-1,Increment      1: Step Time =    1.000,"PART-1-1",           776,       11.9194,       10.4262,            0.,NA,NA,"",   514.538E-03,   513.715E-03,  -29.0867E-03,   19.1827E-06
C:/temp/dataset/4/7_1.odb,Step-1,Increment      1: Step Time =    1.000,"PART-1-1",           777,       11.9945,       12.8006,            0.,NA,NA,"",   560.519E-03,   559.660E-03,  -31.0071E-03,   17.3918E-06
C:/temp/dataset/4/7_1.odb,Step-1,Increment      1: Step Time =    1.000,"PART-1-1",           778,       12.0317,      -12.6649,            0.,NA,NA,"",   102.061E-03,   100.715E-03,  -16.5199E-03,   1.02155E-03
C:/temp/dataset/4/7_1.odb,Step-1,Increment      1: Step Time =    1.000,"PART-1-1",           779,       12.0352,       15.1685,            0.,NA,NA,"",   606.313E-03,   605.455E-03,  -32.2501E-03,   8.92573E-06
C:/temp/dataset/4/7_1.odb,Step-1,Increment      1: Step Time =    1.000,"PART-1-1",           780,      -7.80161,      -2.23284,            0.,NA,NA,"",   472.905E-03,   265.555E-03,   391.305E-03,   50.1237E-06
C:/temp/dataset/4/7_1.odb,Step-1,Increment      1: Step Time =    1.000,"PART-1-1",           781,      -8.87876,  -905.543E-03,            0.,NA,NA,"",   508.891E-03,   295.033E-03,   414.640E-03,   36.3887E-06
C:/temp/dataset/4/7_1.odb,Step-1,Increment      1: Step Time =    1.000,"PART-1-1",           782,      -7.16649,      -1.00336,            0.,NA,NA,"",   477.151E-03,   292.470E-03,   377.007E-03,   97.9340E-06
C:/temp/dataset/4/7_1.odb,Step-1,Increment      1: Step Time =    1.000,"PART-1-1",           783,      -7.09692,   257.153E-03,            0.,NA,NA,"",   493.170E-03,   320.238E-03,   375.052E-03,   105.306E-06
C:/temp/dataset/4/7_1.odb,Step-1,Increment      1: Step Time =    1.000,"PART-1-1",           784,      -5.74923,      -1.63131,            0.,NA,NA,"",   444.205E-03,   278.408E-03,   346.132E-03,   305.697E-06
C:/temp/dataset/4/7_1.odb,Step-1,Increment      1: Step Time =    1.000,"PART-1-1",           785,      -5.66693,  -67.3201E-03,            0.,NA,NA,"",   464.654E-03,   312.836E-03,   343.566E-03,   225.304E-06
C:/temp/dataset/4/7_1.odb,Step-1,Increment      1: Step Time =    1.000,"PART-1-1",           786,      -5.46941,       1.35113,            0.,NA,NA,"",   482.711E-03,   344.031E-03,   338.604E-03,   205.126E-06
C:/temp/dataset/4/7_1.odb,Step-1,Increment      1: Step Time =    1.000,"PART-1-1",           787,       12.0849,      -15.0650,            0.,NA,NA,"",   75.8623E-03,   74.4224E-03,  -14.7100E-03,   1.06591E-03
C:/temp/dataset/4/7_1.odb,Step-1,Increment      1: Step Time =    1.000,"PART-1-1",           788,       7.01212,      -4.44648,            0.,NA,NA,"",   229.561E-03,   221.695E-03,   59.5766E-03,   1.67125E-03
C:/temp/dataset/4/7_1.odb,Step-1,Increment      1: Step Time =    1.000,"PART-1-1",           789,       7.64174,      -3.33281,            0.,NA,NA,"",   247.713E-03,   242.738E-03,   49.3963E-03,   1.48963E-03
C:/temp/dataset/4/7_1.odb,Step-1,Increment      1: Step Time =    1.000,"PART-1-1",           790,       6.60203,      -2.24861,            0.,NA,NA,"",   273.734E-03,   264.732E-03,   69.6239E-03,   1.59582E-03
C:/temp/dataset/4/7_1.odb,Step-1,Increment      1: Step Time =    1.000,"PART-1-1",           791,       6.68626,       2.15992,            0.,NA,NA,"",   361.740E-03,   354.641E-03,   71.3140E-03,   1.12947E-03
C:/temp/dataset/4/7_1.odb,Step-1,Increment      1: Step Time =    1.000,"PART-1-1",           792,       12.0103,       19.9021,            0.,NA,NA,"",   697.793E-03,   697.028E-03,  -32.6610E-03,   894.103E-09
C:/temp/dataset/4/7_1.odb,Step-1,Increment      1: Step Time =    1.000,"PART-1-1",           793,       12.0305,       17.5416,            0.,NA,NA,"",   652.175E-03,   651.359E-03,  -32.6092E-03,   3.29520E-06
C:/temp/dataset/4/7_1.odb,Step-1,Increment      1: Step Time =    1.000,"PART-1-1",           794,       6.09271,      -1.14349,            0.,NA,NA,"",   298.779E-03,   287.645E-03,   80.8029E-03,   1.37124E-03
C:/temp/dataset/4/7_1.odb,Step-1,Increment      1: Step Time =    1.000,"PART-1-1",           795,       7.56053,      -1.65505,            0.,NA,NA,"",   280.965E-03,   276.090E-03,   52.1123E-03,   1.52194E-03
C:/temp/dataset/4/7_1.odb,Step-1,Increment      1: Step Time =    1.000,"PART-1-1",           796,       7.05122,  -549.935E-03,            0.,NA,NA,"",   305.422E-03,   298.940E-03,   62.5905E-03,   1.35855E-03
C:/temp/dataset/4/7_1.odb,Step-1,Increment      1: Step Time =    1.000,"PART-1-1",           797,       5.28588,       1.87348,            0.,NA,NA,"",   363.907E-03,   350.162E-03,   99.0674E-03,   858.607E-06
C:/temp/dataset/4/7_1.odb,Step-1,Increment      1: Step Time =    1.000,"PART-1-1",           798,       5.70847,   325.226E-03,            0.,NA,NA,"",   330.414E-03,   318.015E-03,   89.6656E-03,   1.01444E-03
C:/temp/dataset/4/7_1.odb,Step-1,Increment      1: Step Time =    1.000,"PART-1-1",           799,       7.10885,   611.668E-03,            0.,NA,NA,"",   328.567E-03,   322.614E-03,   62.2642E-03,   1.24100E-03
C:/temp/dataset/4/7_1.odb,Step-1,Increment      1: Step Time =    1.000,"PART-1-1",           800,       9.00326,      -1.31280,            0.,NA,NA,"",   283.411E-03,   282.217E-03,   25.9815E-03,   1.43208E-03
C:/temp/dataset/4/7_1.odb,Step-1,Increment      1: Step Time =    1.000,"PART-1-1",           801,       8.22155,  -652.532E-03,            0.,NA,NA,"",   298.715E-03,   295.957E-03,   40.4980E-03,   1.43522E-03
C:/temp/dataset/4/7_1.odb,Step-1,Increment      1: Step Time =    1.000,"PART-1-1",           802,       8.34224,      -2.31533,            0.,NA,NA,"",   265.157E-03,   262.498E-03,   37.4574E-03,   1.46347E-03
C:/temp/dataset/4/7_1.odb,Step-1,Increment      1: Step Time =    1.000,"PART-1-1",           803,       2.82445,       2.06443,            0.,NA,NA,"",   386.991E-03,   356.184E-03,   151.313E-03,   1.05843E-03
