ODB Name,Step,Frame,Part Instance Name,    êﬂì_ÉâÉxÉã,X,Y,Z,Section Name,Material Name,Section Point,   U-Magnitude,          U-U1,          U-U2,       S-Mises
C:/temp/dataset/4/7_25.odb,Step-1,Increment      1: Step Time =    1.000,"PART-1-1",             1,           -5.,           30.,            0.,NA,NA,"",       2.61905,       2.50082,   778.003E-03,   203.625E-12
C:/temp/dataset/4/7_25.odb,Step-1,Increment      1: Step Time =    1.000,"PART-1-1",             2,          -15.,           30.,            0.,NA,NA,"",       2.85038,       2.51654,       1.33854,   235.697E-12
C:/temp/dataset/4/7_25.odb,Step-1,Increment      1: Step Time =    1.000,"PART-1-1",             3,          -15.,         21.25,            0.,NA,NA,"",       2.43592,       2.02608,       1.35229,   74.3871E-09
C:/temp/dataset/4/7_25.odb,Step-1,Increment      1: Step Time =    1.000,"PART-1-1",             4,          -15.,          12.5,            0.,NA,NA,"",       2.05528,       1.53560,       1.36606,   757.143E-09
C:/temp/dataset/4/7_25.odb,Step-1,Increment      1: Step Time =    1.000,"PART-1-1",             5,          -15.,          3.75,            0.,NA,NA,"",       1.73080,       1.04510,       1.37966,   69.9524E-06
C:/temp/dataset/4/7_25.odb,Step-1,Increment      1: Step Time =    1.000,"PART-1-1",             6,          -15.,           -5.,            0.,NA,NA,"",       1.49971,   555.873E-03,       1.39288,   8.04268E-06
C:/temp/dataset/4/7_25.odb,Step-1,Increment      1: Step Time =    1.000,"PART-1-1",             7,          -10.,           -5.,            0.,NA,NA,"",       1.24117,   548.309E-03,       1.11349,   172.435E-06
C:/temp/dataset/4/7_25.odb,Step-1,Increment      1: Step Time =    1.000,"PART-1-1",             8,           -5.,           -5.,            0.,NA,NA,"",   998.411E-03,   542.452E-03,   838.194E-03,   1.34345E-03
C:/temp/dataset/4/7_25.odb,Step-1,Increment      1: Step Time =    1.000,"PART-1-1",             9,            0.,           -5.,            0.,NA,NA,"",   769.331E-03,   535.642E-03,   552.229E-03,   1.90162E-03
C:/temp/dataset/4/7_25.odb,Step-1,Increment      1: Step Time =    1.000,"PART-1-1",            10,            5.,           -5.,            0.,NA,NA,"",   598.714E-03,   547.169E-03,   243.030E-03,   15.9752E-03
C:/temp/dataset/4/7_25.odb,Step-1,Increment      1: Step Time =    1.000,"PART-1-1",            11,            5.,        -11.25,            0.,NA,NA,"",   368.965E-03,   321.941E-03,   180.247E-03,   10.6836E-03
C:/temp/dataset/4/7_25.odb,Step-1,Increment      1: Step Time =    1.000,"PART-1-1",            12,            5.,         -17.5,            0.,NA,NA,"",   193.265E-03,   149.840E-03,   122.062E-03,   10.9137E-03
C:/temp/dataset/4/7_25.odb,Step-1,Increment      1: Step Time =    1.000,"PART-1-1",            13,            5.,        -23.75,            0.,NA,NA,"",   76.4206E-03,   45.7103E-03,   61.2428E-03,   11.0496E-03
C:/temp/dataset/4/7_25.odb,Step-1,Increment      1: Step Time =    1.000,"PART-1-1",            14,            5.,          -30.,            0.,NA,NA,"",            0.,   3.48471E-39,   6.59891E-39,   12.8566E-03
C:/temp/dataset/4/7_25.odb,Step-1,Increment      1: Step Time =    1.000,"PART-1-1",            15,           15.,          -30.,            0.,NA,NA,"",            0.,   2.34366E-39,  -4.68146E-39,   8.89911E-03
C:/temp/dataset/4/7_25.odb,Step-1,Increment      1: Step Time =    1.000,"PART-1-1",            16,           15.,         -22.5,            0.,NA,NA,"",   78.9569E-03,   54.1984E-03,  -57.4172E-03,   8.57298E-03
C:/temp/dataset/4/7_25.odb,Step-1,Increment      1: Step Time =    1.000,"PART-1-1",            17,           15.,          -15.,            0.,NA,NA,"",   232.188E-03,   201.289E-03,  -115.732E-03,   8.35129E-03
C:/temp/dataset/4/7_25.odb,Step-1,Increment      1: Step Time =    1.000,"PART-1-1",            18,           15.,          -7.5,            0.,NA,NA,"",   479.616E-03,   446.240E-03,  -175.788E-03,   8.02116E-03
C:/temp/dataset/4/7_25.odb,Step-1,Increment      1: Step Time =    1.000,"PART-1-1",            19,           15.,            0.,            0.,NA,NA,"",   818.986E-03,   787.810E-03,  -223.819E-03,   3.01068E-03
C:/temp/dataset/4/7_25.odb,Step-1,Increment      1: Step Time =    1.000,"PART-1-1",            20,           15.,           7.5,            0.,NA,NA,"",       1.18801,       1.16371,  -239.052E-03,   155.063E-06
C:/temp/dataset/4/7_25.odb,Step-1,Increment      1: Step Time =    1.000,"PART-1-1",            21,           15.,           15.,            0.,NA,NA,"",       1.55330,       1.53346,  -247.501E-03,   19.7760E-06
C:/temp/dataset/4/7_25.odb,Step-1,Increment      1: Step Time =    1.000,"PART-1-1",            22,           15.,          22.5,            0.,NA,NA,"",       1.91955,       1.90233,  -256.553E-03,   588.663E-09
C:/temp/dataset/4/7_25.odb,Step-1,Increment      1: Step Time =    1.000,"PART-1-1",            23,           15.,           30.,            0.,NA,NA,"",       2.28672,       2.27123,  -265.632E-03,   13.7883E-09
C:/temp/dataset/4/7_25.odb,Step-1,Increment      1: Step Time =    1.000,"PART-1-1",            24,            5.,           30.,            0.,NA,NA,"",       2.29452,       2.28334,   226.243E-03,   9.36625E-09
C:/temp/dataset/4/7_25.odb,Step-1,Increment      1: Step Time =    1.000,"PART-1-1",            25,            5.,         23.75,            0.,NA,NA,"",       1.98970,       1.97592,   233.809E-03,   452.887E-09
C:/temp/dataset/4/7_25.odb,Step-1,Increment      1: Step Time =    1.000,"PART-1-1",            26,            5.,          17.5,            0.,NA,NA,"",       1.68585,       1.66848,   241.374E-03,   4.24488E-06
C:/temp/dataset/4/7_25.odb,Step-1,Increment      1: Step Time =    1.000,"PART-1-1",            27,            5.,         11.25,            0.,NA,NA,"",       1.38360,       1.36106,   248.714E-03,   110.731E-06
C:/temp/dataset/4/7_25.odb,Step-1,Increment      1: Step Time =    1.000,"PART-1-1",            28,            5.,            5.,            0.,NA,NA,"",       1.09239,       1.06203,   255.777E-03,   5.08619E-03
C:/temp/dataset/4/7_25.odb,Step-1,Increment      1: Step Time =    1.000,"PART-1-1",            29,            0.,            5.,            0.,NA,NA,"",       1.21142,       1.08833,   532.056E-03,   2.03080E-03
C:/temp/dataset/4/7_25.odb,Step-1,Increment      1: Step Time =    1.000,"PART-1-1",            30,           -5.,            5.,            0.,NA,NA,"",       1.36994,       1.09964,   817.020E-03,   222.901E-06
C:/temp/dataset/4/7_25.odb,Step-1,Increment      1: Step Time =    1.000,"PART-1-1",            31,           -5.,         11.25,            0.,NA,NA,"",       1.65953,       1.44983,   807.488E-03,   2.56470E-06
C:/temp/dataset/4/7_25.odb,Step-1,Increment      1: Step Time =    1.000,"PART-1-1",            32,           -5.,          17.5,            0.,NA,NA,"",       1.96896,       1.80015,   797.657E-03,   429.169E-09
C:/temp/dataset/4/7_25.odb,Step-1,Increment      1: Step Time =    1.000,"PART-1-1",            33,           -5.,         23.75,            0.,NA,NA,"",       2.29026,       2.15049,   787.829E-03,   10.5353E-09
C:/temp/dataset/4/7_25.odb,Step-1,Increment      1: Step Time =    1.000,"PART-1-1",            34,          -7.5,           30.,            0.,NA,NA,"",       2.66773,       2.50475,   918.137E-03,   1.46676E-09
C:/temp/dataset/4/7_25.odb,Step-1,Increment      1: Step Time =    1.000,"PART-1-1",            35,          -10.,           30.,            0.,NA,NA,"",       2.72276,       2.50868,       1.05827,   2.27864E-09
C:/temp/dataset/4/7_25.odb,Step-1,Increment      1: Step Time =    1.000,"PART-1-1",            36,         -12.5,           30.,            0.,NA,NA,"",       2.78377,       2.51261,       1.19840,   1.37777E-09
C:/temp/dataset/4/7_25.odb,Step-1,Increment      1: Step Time =    1.000,"PART-1-1",            37,          -15.,       27.8125,            0.,NA,NA,"",       2.74441,       2.39393,       1.34198,   1.51043E-09
C:/temp/dataset/4/7_25.odb,Step-1,Increment      1: Step Time =    1.000,"PART-1-1",            38,          -15.,        25.625,            0.,NA,NA,"",       2.63989,       2.27131,       1.34542,   1.70344E-09
C:/temp/dataset/4/7_25.odb,Step-1,Increment      1: Step Time =    1.000,"PART-1-1",            39,          -15.,       23.4375,            0.,NA,NA,"",       2.53699,       2.14869,       1.34886,   12.1921E-09
C:/temp/dataset/4/7_25.odb,Step-1,Increment      1: Step Time =    1.000,"PART-1-1",            40,          -15.,       19.0625,            0.,NA,NA,"",       2.33692,       1.90346,       1.35573,   222.700E-09
C:/temp/dataset/4/7_25.odb,Step-1,Increment      1: Step Time =    1.000,"PART-1-1",            41,          -15.,        16.875,            0.,NA,NA,"",       2.24026,       1.78084,       1.35917,   526.918E-09
C:/temp/dataset/4/7_25.odb,Step-1,Increment      1: Step Time =    1.000,"PART-1-1",            42,          -15.,       14.6875,            0.,NA,NA,"",       2.14626,       1.65823,       1.36261,   917.859E-09
C:/temp/dataset/4/7_25.odb,Step-1,Increment      1: Step Time =    1.000,"PART-1-1",            43,          -15.,       10.3125,            0.,NA,NA,"",       1.96774,       1.41298,       1.36950,   2.20813E-06
C:/temp/dataset/4/7_25.odb,Step-1,Increment      1: Step Time =    1.000,"PART-1-1",            44,          -15.,         8.125,            0.,NA,NA,"",       1.88412,       1.29034,       1.37292,   12.7596E-06
C:/temp/dataset/4/7_25.odb,Step-1,Increment      1: Step Time =    1.000,"PART-1-1",            45,          -15.,        5.9375,            0.,NA,NA,"",       1.80493,       1.16770,       1.37632,   36.3603E-06
C:/temp/dataset/4/7_25.odb,Step-1,Increment      1: Step Time =    1.000,"PART-1-1",            46,          -15.,        1.5625,            0.,NA,NA,"",       1.66243,   922.598E-03,       1.38292,   92.0234E-06
C:/temp/dataset/4/7_25.odb,Step-1,Increment      1: Step Time =    1.000,"PART-1-1",            47,          -15.,     -625.E-03,            0.,NA,NA,"",       1.60059,   800.265E-03,       1.38617,   74.7761E-06
C:/temp/dataset/4/7_25.odb,Step-1,Increment      1: Step Time =    1.000,"PART-1-1",            48,          -15.,       -2.8125,            0.,NA,NA,"",       1.54610,   678.066E-03,       1.38948,   24.7818E-06
C:/temp/dataset/4/7_25.odb,Step-1,Increment      1: Step Time =    1.000,"PART-1-1",            49,         -12.5,           -5.,            0.,NA,NA,"",       1.36935,   551.979E-03,       1.25317,   36.5530E-06
C:/temp/dataset/4/7_25.odb,Step-1,Increment      1: Step Time =    1.000,"PART-1-1",            50,          -7.5,           -5.,            0.,NA,NA,"",       1.11637,   544.943E-03,   974.332E-03,   578.420E-06
C:/temp/dataset/4/7_25.odb,Step-1,Increment      1: Step Time =    1.000,"PART-1-1",            51,          -2.5,           -5.,            0.,NA,NA,"",   883.213E-03,   538.515E-03,   700.048E-03,   2.74252E-03
C:/temp/dataset/4/7_25.odb,Step-1,Increment      1: Step Time =    1.000,"PART-1-1",            52,           2.5,           -5.,            0.,NA,NA,"",   670.789E-03,   537.118E-03,   401.825E-03,   4.33987E-03
C:/temp/dataset/4/7_25.odb,Step-1,Increment      1: Step Time =    1.000,"PART-1-1",            53,            5.,      -7.08333,            0.,NA,NA,"",   517.673E-03,   470.113E-03,   216.747E-03,   12.4400E-03
C:/temp/dataset/4/7_25.odb,Step-1,Increment      1: Step Time =    1.000,"PART-1-1",            54,            5.,      -9.16667,            0.,NA,NA,"",   440.924E-03,   393.503E-03,   198.921E-03,   10.5266E-03
C:/temp/dataset/4/7_25.odb,Step-1,Increment      1: Step Time =    1.000,"PART-1-1",            55,            5.,      -13.3333,            0.,NA,NA,"",   303.566E-03,   257.196E-03,   161.252E-03,   10.7366E-03
C:/temp/dataset/4/7_25.odb,Step-1,Increment      1: Step Time =    1.000,"PART-1-1",            56,            5.,      -15.4167,            0.,NA,NA,"",   245.004E-03,   199.776E-03,   141.832E-03,   10.8425E-03
C:/temp/dataset/4/7_25.odb,Step-1,Increment      1: Step Time =    1.000,"PART-1-1",            57,            5.,      -19.5833,            0.,NA,NA,"",   148.181E-03,   107.486E-03,   102.001E-03,   10.9758E-03
C:/temp/dataset/4/7_25.odb,Step-1,Increment      1: Step Time =    1.000,"PART-1-1",            58,            5.,      -21.6667,            0.,NA,NA,"",   109.408E-03,   72.7599E-03,   81.7073E-03,   11.0102E-03
C:/temp/dataset/4/7_25.odb,Step-1,Increment      1: Step Time =    1.000,"PART-1-1",            59,            5.,      -25.8333,            0.,NA,NA,"",   48.4528E-03,   26.0868E-03,   40.8308E-03,   10.8149E-03
C:/temp/dataset/4/7_25.odb,Step-1,Increment      1: Step Time =    1.000,"PART-1-1",            60,            5.,      -27.9167,            0.,NA,NA,"",   24.6771E-03,   13.2209E-03,   20.8366E-03,   11.3558E-03
C:/temp/dataset/4/7_25.odb,Step-1,Increment      1: Step Time =    1.000,"PART-1-1",            61,           7.5,          -30.,            0.,NA,NA,"",            0.,  -132.249E-42,   11.5784E-39,   4.68795E-03
C:/temp/dataset/4/7_25.odb,Step-1,Increment      1: Step Time =    1.000,"PART-1-1",            62,           10.,          -30.,            0.,NA,NA,"",            0.,  -1.68945E-39,   1.93585E-39,   2.05578E-03
C:/temp/dataset/4/7_25.odb,Step-1,Increment      1: Step Time =    1.000,"PART-1-1",            63,          12.5,          -30.,            0.,NA,NA,"",            0.,   1.30846E-39,  -5.48543E-39,   3.15717E-03
C:/temp/dataset/4/7_25.odb,Step-1,Increment      1: Step Time =    1.000,"PART-1-1",            64,           15.,         -27.5,            0.,NA,NA,"",   21.3767E-03,   10.4804E-03,  -18.6312E-03,   8.86963E-03
C:/temp/dataset/4/7_25.odb,Step-1,Increment      1: Step Time =    1.000,"PART-1-1",            65,           15.,          -25.,            0.,NA,NA,"",   46.5327E-03,   26.8441E-03,  -38.0091E-03,   8.56447E-03
C:/temp/dataset/4/7_25.odb,Step-1,Increment      1: Step Time =    1.000,"PART-1-1",            66,           15.,          -20.,            0.,NA,NA,"",   120.185E-03,   92.4234E-03,  -76.8268E-03,   8.45194E-03
C:/temp/dataset/4/7_25.odb,Step-1,Increment      1: Step Time =    1.000,"PART-1-1",            67,           15.,         -17.5,            0.,NA,NA,"",   171.106E-03,   141.490E-03,  -96.2180E-03,   8.38808E-03
C:/temp/dataset/4/7_25.odb,Step-1,Increment      1: Step Time =    1.000,"PART-1-1",            68,           15.,         -12.5,            0.,NA,NA,"",   303.738E-03,   271.845E-03,  -135.489E-03,   8.35223E-03
C:/temp/dataset/4/7_25.odb,Step-1,Increment      1: Step Time =    1.000,"PART-1-1",            69,           15.,          -10.,            0.,NA,NA,"",   386.089E-03,   353.354E-03,  -155.582E-03,   8.32994E-03
C:/temp/dataset/4/7_25.odb,Step-1,Increment      1: Step Time =    1.000,"PART-1-1",            70,           15.,           -5.,            0.,NA,NA,"",   584.246E-03,   550.709E-03,  -195.095E-03,   7.00498E-03
C:/temp/dataset/4/7_25.odb,Step-1,Increment      1: Step Time =    1.000,"PART-1-1",            71,           15.,          -2.5,            0.,NA,NA,"",   698.447E-03,   665.610E-03,  -211.639E-03,   5.17311E-03
C:/temp/dataset/4/7_25.odb,Step-1,Increment      1: Step Time =    1.000,"PART-1-1",            72,           15.,           2.5,            0.,NA,NA,"",   942.196E-03,   913.308E-03,  -231.521E-03,   1.22776E-03
C:/temp/dataset/4/7_25.odb,Step-1,Increment      1: Step Time =    1.000,"PART-1-1",            73,           15.,            5.,            0.,NA,NA,"",       1.06552,       1.03905,  -236.038E-03,   195.546E-06
C:/temp/dataset/4/7_25.odb,Step-1,Increment      1: Step Time =    1.000,"PART-1-1",            74,           15.,           10.,            0.,NA,NA,"",       1.30986,       1.28735,  -241.752E-03,   138.917E-06
C:/temp/dataset/4/7_25.odb,Step-1,Increment      1: Step Time =    1.000,"PART-1-1",            75,           15.,          12.5,            0.,NA,NA,"",       1.43153,       1.41048,  -244.562E-03,   63.5566E-06
C:/temp/dataset/4/7_25.odb,Step-1,Increment      1: Step Time =    1.000,"PART-1-1",            76,           15.,          17.5,            0.,NA,NA,"",       1.67524,       1.65641,  -250.503E-03,   3.77058E-06
C:/temp/dataset/4/7_25.odb,Step-1,Increment      1: Step Time =    1.000,"PART-1-1",            77,           15.,           20.,            0.,NA,NA,"",       1.79734,       1.77937,  -253.526E-03,   312.443E-09
C:/temp/dataset/4/7_25.odb,Step-1,Increment      1: Step Time =    1.000,"PART-1-1",            78,           15.,           25.,            0.,NA,NA,"",       2.04187,       2.02530,  -259.580E-03,   304.910E-09
C:/temp/dataset/4/7_25.odb,Step-1,Increment      1: Step Time =    1.000,"PART-1-1",            79,           15.,          27.5,            0.,NA,NA,"",       2.16426,       2.14827,  -262.606E-03,   76.7638E-09
C:/temp/dataset/4/7_25.odb,Step-1,Increment      1: Step Time =    1.000,"PART-1-1",            80,          12.5,           30.,            0.,NA,NA,"",       2.27873,       2.27426,  -142.664E-03,   61.9908E-09
C:/temp/dataset/4/7_25.odb,Step-1,Increment      1: Step Time =    1.000,"PART-1-1",            81,           10.,           30.,            0.,NA,NA,"",       2.27737,       2.27729,  -19.6953E-03,   124.336E-09
C:/temp/dataset/4/7_25.odb,Step-1,Increment      1: Step Time =    1.000,"PART-1-1",            82,           7.5,           30.,            0.,NA,NA,"",       2.28265,       2.28031,   103.274E-03,   63.3321E-09
C:/temp/dataset/4/7_25.odb,Step-1,Increment      1: Step Time =    1.000,"PART-1-1",            83,            5.,       27.9167,            0.,NA,NA,"",       2.19283,       2.18087,   228.764E-03,   52.1416E-09
C:/temp/dataset/4/7_25.odb,Step-1,Increment      1: Step Time =    1.000,"PART-1-1",            84,            5.,       25.8333,            0.,NA,NA,"",       2.09122,       2.07839,   231.286E-03,   211.703E-09
C:/temp/dataset/4/7_25.odb,Step-1,Increment      1: Step Time =    1.000,"PART-1-1",            85,            5.,       21.6667,            0.,NA,NA,"",       1.88829,       1.87344,   236.332E-03,   585.995E-09
C:/temp/dataset/4/7_25.odb,Step-1,Increment      1: Step Time =    1.000,"PART-1-1",            86,            5.,       19.5833,            0.,NA,NA,"",       1.78700,       1.77096,   238.854E-03,   267.019E-09
C:/temp/dataset/4/7_25.odb,Step-1,Increment      1: Step Time =    1.000,"PART-1-1",            87,            5.,       15.4167,            0.,NA,NA,"",       1.58486,       1.56599,   243.880E-03,   16.2350E-06
C:/temp/dataset/4/7_25.odb,Step-1,Increment      1: Step Time =    1.000,"PART-1-1",            88,            5.,       13.3333,            0.,NA,NA,"",       1.48409,       1.46350,   246.344E-03,   52.2722E-06
C:/temp/dataset/4/7_25.odb,Step-1,Increment      1: Step Time =    1.000,"PART-1-1",            89,            5.,       9.16667,            0.,NA,NA,"",       1.28366,       1.25890,   250.891E-03,   296.814E-06
C:/temp/dataset/4/7_25.odb,Step-1,Increment      1: Step Time =    1.000,"PART-1-1",            90,            5.,       7.08333,            0.,NA,NA,"",       1.18500,       1.15776,   252.632E-03,   1.09346E-03
C:/temp/dataset/4/7_25.odb,Step-1,Increment      1: Step Time =    1.000,"PART-1-1",            91,           2.5,            5.,            0.,NA,NA,"",       1.14668,       1.07789,   391.178E-03,   4.21595E-03
C:/temp/dataset/4/7_25.odb,Step-1,Increment      1: Step Time =    1.000,"PART-1-1",            92,          -2.5,            5.,            0.,NA,NA,"",       1.28645,       1.09530,   674.741E-03,   648.798E-06
C:/temp/dataset/4/7_25.odb,Step-1,Increment      1: Step Time =    1.000,"PART-1-1",            93,           -5.,       7.08333,            0.,NA,NA,"",       1.46360,       1.21635,   814.012E-03,   58.9755E-06
C:/temp/dataset/4/7_25.odb,Step-1,Increment      1: Step Time =    1.000,"PART-1-1",            94,           -5.,       9.16667,            0.,NA,NA,"",       1.56026,       1.33308,   810.755E-03,   8.99437E-06
C:/temp/dataset/4/7_25.odb,Step-1,Increment      1: Step Time =    1.000,"PART-1-1",            95,           -5.,       13.3333,            0.,NA,NA,"",       1.76096,       1.56660,   804.210E-03,   1.47103E-06
C:/temp/dataset/4/7_25.odb,Step-1,Increment      1: Step Time =    1.000,"PART-1-1",            96,           -5.,       15.4167,            0.,NA,NA,"",       1.86420,       1.68338,   800.933E-03,   791.365E-09
C:/temp/dataset/4/7_25.odb,Step-1,Increment      1: Step Time =    1.000,"PART-1-1",            97,           -5.,       19.5833,            0.,NA,NA,"",       2.07501,       1.91693,   794.381E-03,   163.458E-09
C:/temp/dataset/4/7_25.odb,Step-1,Increment      1: Step Time =    1.000,"PART-1-1",            98,           -5.,       21.6667,            0.,NA,NA,"",       2.18216,       2.03371,   791.105E-03,   53.1618E-09
C:/temp/dataset/4/7_25.odb,Step-1,Increment      1: Step Time =    1.000,"PART-1-1",            99,           -5.,       25.8333,            0.,NA,NA,"",       2.39917,       2.26727,   784.554E-03,   1.10230E-09
C:/temp/dataset/4/7_25.odb,Step-1,Increment      1: Step Time =    1.000,"PART-1-1",           100,           -5.,       27.9167,            0.,NA,NA,"",       2.50880,       2.38404,   781.278E-03,   1.29628E-09
C:/temp/dataset/4/7_25.odb,Step-1,Increment      1: Step Time =    1.000,"PART-1-1",           101,       6.93475,       11.1046,            0.,NA,NA,"",       1.36027,       1.35153,   153.938E-03,   75.3835E-06
C:/temp/dataset/4/7_25.odb,Step-1,Increment      1: Step Time =    1.000,"PART-1-1",           102,       7.10183,      -21.7370,            0.,NA,NA,"",   80.8309E-03,   63.0319E-03,   50.6024E-03,   6.97442E-03
C:/temp/dataset/4/7_25.odb,Step-1,Increment      1: Step Time =    1.000,"PART-1-1",           103,      -7.18606,       25.6133,            0.,NA,NA,"",       2.43386,       2.25837,   907.436E-03,   9.08789E-09
C:/temp/dataset/4/7_25.odb,Step-1,Increment      1: Step Time =    1.000,"PART-1-1",           104,       7.08931,      -17.4629,            0.,NA,NA,"",   161.259E-03,   141.820E-03,   76.7563E-03,   6.91674E-03
C:/temp/dataset/4/7_25.odb,Step-1,Increment      1: Step Time =    1.000,"PART-1-1",           105,       7.11844,      -23.8299,            0.,NA,NA,"",   52.0469E-03,   36.1362E-03,   37.4574E-03,   6.98810E-03
C:/temp/dataset/4/7_25.odb,Step-1,Increment      1: Step Time =    1.000,"PART-1-1",           106,       7.34845,      -27.9642,            0.,NA,NA,"",   11.6766E-03,   4.66673E-03,   10.7035E-03,   6.76800E-03
C:/temp/dataset/4/7_25.odb,Step-1,Increment      1: Step Time =    1.000,"PART-1-1",           107,       7.18399,      -25.9216,            0.,NA,NA,"",   28.9677E-03,   16.6657E-03,   23.6935E-03,   7.12013E-03
C:/temp/dataset/4/7_25.odb,Step-1,Increment      1: Step Time =    1.000,"PART-1-1",           108,       7.00226,      -10.9532,            0.,NA,NA,"",   343.420E-03,   322.783E-03,   117.254E-03,   6.98728E-03
C:/temp/dataset/4/7_25.odb,Step-1,Increment      1: Step Time =    1.000,"PART-1-1",           109,       6.93148,       25.8450,            0.,NA,NA,"",       2.08110,       2.07663,   136.267E-03,   186.096E-09
C:/temp/dataset/4/7_25.odb,Step-1,Increment      1: Step Time =    1.000,"PART-1-1",           110,       6.95256,       21.7727,            0.,NA,NA,"",       1.88152,       1.87630,   140.160E-03,   382.557E-09
C:/temp/dataset/4/7_25.odb,Step-1,Increment      1: Step Time =    1.000,"PART-1-1",           111,       6.99069,       19.6693,            0.,NA,NA,"",       1.77837,       1.77278,   140.831E-03,   2.40063E-06
C:/temp/dataset/4/7_25.odb,Step-1,Increment      1: Step Time =    1.000,"PART-1-1",           112,       6.98342,       13.2435,            0.,NA,NA,"",       1.46426,       1.45666,   148.968E-03,   45.8655E-06
C:/temp/dataset/4/7_25.odb,Step-1,Increment      1: Step Time =    1.000,"PART-1-1",           113,       6.84904,       8.98858,            0.,NA,NA,"",       1.25816,       1.24785,   160.732E-03,   138.610E-06
C:/temp/dataset/4/7_25.odb,Step-1,Increment      1: Step Time =    1.000,"PART-1-1",           114,      -7.00061,       11.3966,            0.,NA,NA,"",       1.72638,       1.46120,   919.393E-03,   4.44857E-06
C:/temp/dataset/4/7_25.odb,Step-1,Increment      1: Step Time =    1.000,"PART-1-1",           115,      -6.87185,       17.5946,            0.,NA,NA,"",       2.02106,       1.80840,   902.431E-03,   295.466E-09
C:/temp/dataset/4/7_25.odb,Step-1,Increment      1: Step Time =    1.000,"PART-1-1",           116,      -6.78696,       21.5686,            0.,NA,NA,"",       2.21804,       2.03103,   891.424E-03,   78.4768E-09
C:/temp/dataset/4/7_25.odb,Step-1,Increment      1: Step Time =    1.000,"PART-1-1",           117,      -6.92081,       23.5666,            0.,NA,NA,"",       2.32290,       2.14323,   895.786E-03,   31.0624E-09
C:/temp/dataset/4/7_25.odb,Step-1,Increment      1: Step Time =    1.000,"PART-1-1",           118,      -7.47694,       27.7553,            0.,NA,NA,"",       2.55073,       2.37889,   920.373E-03,   1.23879E-09
C:/temp/dataset/4/7_25.odb,Step-1,Increment      1: Step Time =    1.000,"PART-1-1",           119,       6.62973,      -6.72562,            0.,NA,NA,"",   502.166E-03,   477.501E-03,   155.447E-03,   8.33865E-03
C:/temp/dataset/4/7_25.odb,Step-1,Increment      1: Step Time =    1.000,"PART-1-1",           120,       7.00244,       17.5390,            0.,NA,NA,"",       1.67407,       1.66797,   142.832E-03,   8.24471E-06
C:/temp/dataset/4/7_25.odb,Step-1,Increment      1: Step Time =    1.000,"PART-1-1",           121,       7.05765,      -13.1226,            0.,NA,NA,"",   274.493E-03,   254.403E-03,   103.082E-03,   6.92526E-03
C:/temp/dataset/4/7_25.odb,Step-1,Increment      1: Step Time =    1.000,"PART-1-1",           122,      -6.97858,       13.4860,            0.,NA,NA,"",       1.82426,       1.57827,   914.873E-03,   789.408E-09
C:/temp/dataset/4/7_25.odb,Step-1,Increment      1: Step Time =    1.000,"PART-1-1",           123,      -7.06135,       7.11796,            0.,NA,NA,"",       1.53498,       1.22151,   929.548E-03,   76.6031E-06
C:/temp/dataset/4/7_25.odb,Step-1,Increment      1: Step Time =    1.000,"PART-1-1",           124,       6.87626,      -8.81940,            0.,NA,NA,"",   419.535E-03,   397.510E-03,   134.147E-03,   7.39970E-03
C:/temp/dataset/4/7_25.odb,Step-1,Increment      1: Step Time =    1.000,"PART-1-1",           125,       7.08495,      -15.2974,            0.,NA,NA,"",   213.630E-03,   193.901E-03,   89.6660E-03,   6.89212E-03
C:/temp/dataset/4/7_25.odb,Step-1,Increment      1: Step Time =    1.000,"PART-1-1",           126,       7.00715,       15.3887,            0.,NA,NA,"",       1.56891,       1.56217,   145.202E-03,   22.4025E-06
C:/temp/dataset/4/7_25.odb,Step-1,Increment      1: Step Time =    1.000,"PART-1-1",           127,      -7.01992,       9.30136,            0.,NA,NA,"",       1.63069,       1.34380,   923.764E-03,   18.4565E-06
C:/temp/dataset/4/7_25.odb,Step-1,Increment      1: Step Time =    1.000,"PART-1-1",           128,      -6.93369,       15.5639,            0.,NA,NA,"",       1.92311,       1.69467,   909.090E-03,   337.301E-09
C:/temp/dataset/4/7_25.odb,Step-1,Increment      1: Step Time =    1.000,"PART-1-1",           129,      -6.79206,       19.5889,            0.,NA,NA,"",       2.11834,       1.92006,   894.823E-03,   172.682E-09
C:/temp/dataset/4/7_25.odb,Step-1,Increment      1: Step Time =    1.000,"PART-1-1",           130,       7.09662,      -19.6136,            0.,NA,NA,"",   117.007E-03,   98.1685E-03,   63.6674E-03,   6.93737E-03
C:/temp/dataset/4/7_25.odb,Step-1,Increment      1: Step Time =    1.000,"PART-1-1",           131,       6.89670,       23.8203,            0.,NA,NA,"",       1.98206,       1.97708,   140.429E-03,   163.811E-09
C:/temp/dataset/4/7_25.odb,Step-1,Increment      1: Step Time =    1.000,"PART-1-1",           132,       6.67676,       6.98748,            0.,NA,NA,"",       1.16333,       1.15063,   171.412E-03,   855.338E-06
C:/temp/dataset/4/7_25.odb,Step-1,Increment      1: Step Time =    1.000,"PART-1-1",           133,      -13.0361,       12.2042,            0.,NA,NA,"",       1.96893,       1.51593,       1.25644,   2.11481E-06
C:/temp/dataset/4/7_25.odb,Step-1,Increment      1: Step Time =    1.000,"PART-1-1",           134,      -13.0483,       3.72302,            0.,NA,NA,"",       1.64211,       1.04048,       1.27040,   46.4659E-06
C:/temp/dataset/4/7_25.odb,Step-1,Increment      1: Step Time =    1.000,"PART-1-1",           135,      -13.0740,       10.0823,            0.,NA,NA,"",       1.88258,       1.39704,       1.26190,   7.90225E-06
C:/temp/dataset/4/7_25.odb,Step-1,Increment      1: Step Time =    1.000,"PART-1-1",           136,      -13.0017,       14.3509,            0.,NA,NA,"",       2.05974,       1.63622,       1.25113,   199.658E-09
C:/temp/dataset/4/7_25.odb,Step-1,Increment      1: Step Time =    1.000,"PART-1-1",           137,      -12.4480,       21.2307,            0.,NA,NA,"",       2.35515,       2.02098,       1.20928,   103.279E-09
C:/temp/dataset/4/7_25.odb,Step-1,Increment      1: Step Time =    1.000,"PART-1-1",           138,      -13.0426,       25.7965,            0.,NA,NA,"",       2.59131,       2.27785,       1.23543,   7.05939E-09
C:/temp/dataset/4/7_25.odb,Step-1,Increment      1: Step Time =    1.000,"PART-1-1",           139,      -12.9478,       23.6552,            0.,NA,NA,"",       2.48536,       2.15767,       1.23348,   29.2621E-09
C:/temp/dataset/4/7_25.odb,Step-1,Increment      1: Step Time =    1.000,"PART-1-1",           140,      -12.8307,       18.7376,            0.,NA,NA,"",       2.25070,       1.88184,       1.23465,   226.259E-09
C:/temp/dataset/4/7_25.odb,Step-1,Increment      1: Step Time =    1.000,"PART-1-1",           141,      -12.9472,       16.5227,            0.,NA,NA,"",       2.15390,       1.75787,       1.24466,   321.709E-09
C:/temp/dataset/4/7_25.odb,Step-1,Increment      1: Step Time =    1.000,"PART-1-1",           142,      -13.1112,       7.97345,            0.,NA,NA,"",       1.80042,       1.27887,       1.26729,   19.9306E-06
C:/temp/dataset/4/7_25.odb,Step-1,Increment      1: Step Time =    1.000,"PART-1-1",           143,      -13.1276,       5.86243,            0.,NA,NA,"",       1.72151,       1.16053,       1.27152,   36.1417E-06
C:/temp/dataset/4/7_25.odb,Step-1,Increment      1: Step Time =    1.000,"PART-1-1",           144,      -12.8109,       1.56310,            0.,NA,NA,"",       1.55997,   919.134E-03,       1.26044,   43.0911E-06
C:/temp/dataset/4/7_25.odb,Step-1,Increment      1: Step Time =    1.000,"PART-1-1",           145,      -12.5511,  -622.366E-03,            0.,NA,NA,"",       1.48157,   796.508E-03,       1.24925,   63.0793E-06
C:/temp/dataset/4/7_25.odb,Step-1,Increment      1: Step Time =    1.000,"PART-1-1",           146,      -7.69124,      -3.05836,            0.,NA,NA,"",       1.17892,   652.926E-03,   981.600E-03,   252.298E-06
C:/temp/dataset/4/7_25.odb,Step-1,Increment      1: Step Time =    1.000,"PART-1-1",           147,      -2.59391,      -3.27074,            0.,NA,NA,"",   945.481E-03,   636.174E-03,   699.440E-03,   2.90983E-03
C:/temp/dataset/4/7_25.odb,Step-1,Increment      1: Step Time =    1.000,"PART-1-1",           148,      -2.06699,       2.95135,            0.,NA,NA,"",       1.17672,   979.121E-03,   652.674E-03,   1.48402E-03
C:/temp/dataset/4/7_25.odb,Step-1,Increment      1: Step Time =    1.000,"PART-1-1",           149,       1.86882,      -3.06513,            0.,NA,NA,"",   779.303E-03,   646.709E-03,   434.834E-03,   4.04641E-03
C:/temp/dataset/4/7_25.odb,Step-1,Increment      1: Step Time =    1.000,"PART-1-1",           150,       2.79073,       3.02834,            0.,NA,NA,"",       1.03994,   969.768E-03,   375.541E-03,   2.98789E-03
C:/temp/dataset/4/7_25.odb,Step-1,Increment      1: Step Time =    1.000,"PART-1-1",           151,       12.5379,       2.72923,            0.,NA,NA,"",   933.685E-03,   927.092E-03,  -110.755E-03,   1.84653E-03
C:/temp/dataset/4/7_25.odb,Step-1,Increment      1: Step Time =    1.000,"PART-1-1",           152,       12.9313,       10.2835,            0.,NA,NA,"",       1.31141,       1.30391,  -140.029E-03,   52.6301E-06
C:/temp/dataset/4/7_25.odb,Step-1,Increment      1: Step Time =    1.000,"PART-1-1",           153,       12.7723,       24.8557,            0.,NA,NA,"",       2.02644,       2.02090,  -149.833E-03,   205.039E-09
C:/temp/dataset/4/7_25.odb,Step-1,Increment      1: Step Time =    1.000,"PART-1-1",           154,       12.5268,       27.4001,            0.,NA,NA,"",       2.15096,       2.14634,  -140.835E-03,   152.333E-09
C:/temp/dataset/4/7_25.odb,Step-1,Increment      1: Step Time =    1.000,"PART-1-1",           155,       12.7627,      -5.01238,            0.,NA,NA,"",   555.647E-03,   546.879E-03,  -98.3209E-03,   3.87656E-03
C:/temp/dataset/4/7_25.odb,Step-1,Increment      1: Step Time =    1.000,"PART-1-1",           156,       13.0118,      -12.5921,            0.,NA,NA,"",   274.429E-03,   264.246E-03,  -74.0612E-03,   4.46070E-03
C:/temp/dataset/4/7_25.odb,Step-1,Increment      1: Step Time =    1.000,"PART-1-1",           157,       9.69976,      -27.8547,            0.,NA,NA,"",   3.13712E-03,   1.05016E-03,   2.95613E-03,   1.90096E-03
C:/temp/dataset/4/7_25.odb,Step-1,Increment      1: Step Time =    1.000,"PART-1-1",           158,       13.0855,      -17.4497,            0.,NA,NA,"",   147.802E-03,   137.429E-03,  -54.3947E-03,   4.66977E-03
C:/temp/dataset/4/7_25.odb,Step-1,Increment      1: Step Time =    1.000,"PART-1-1",           159,       12.9366,       22.3763,            0.,NA,NA,"",       1.90505,       1.89875,  -154.912E-03,   181.212E-09
C:/temp/dataset/4/7_25.odb,Step-1,Increment      1: Step Time =    1.000,"PART-1-1",           160,       13.0248,       17.5365,            0.,NA,NA,"",       1.66766,       1.66059,  -153.393E-03,   8.02514E-06
C:/temp/dataset/4/7_25.odb,Step-1,Increment      1: Step Time =    1.000,"PART-1-1",           161,      -10.1545,       27.3700,            0.,NA,NA,"",       2.59305,       2.36151,       1.07107,   4.35972E-09
C:/temp/dataset/4/7_25.odb,Step-1,Increment      1: Step Time =    1.000,"PART-1-1",           162,      -10.0546,      -2.87755,            0.,NA,NA,"",       1.29752,   666.692E-03,       1.11313,   91.1684E-06
C:/temp/dataset/4/7_25.odb,Step-1,Increment      1: Step Time =    1.000,"PART-1-1",           163,      -5.07747,      -2.66322,            0.,NA,NA,"",       1.07262,   671.374E-03,   836.521E-03,   1.31640E-03
C:/temp/dataset/4/7_25.odb,Step-1,Increment      1: Step Time =    1.000,"PART-1-1",           164,  -330.659E-03,      -3.26262,            0.,NA,NA,"",   852.171E-03,   636.587E-03,   566.527E-03,   3.58156E-03
C:/temp/dataset/4/7_25.odb,Step-1,Increment      1: Step Time =    1.000,"PART-1-1",           165,       3.93161,      -2.75002,            0.,NA,NA,"",   733.386E-03,   663.285E-03,   312.903E-03,   4.37622E-03
C:/temp/dataset/4/7_25.odb,Step-1,Increment      1: Step Time =    1.000,"PART-1-1",           166,       12.9585,      -10.1304,            0.,NA,NA,"",   354.176E-03,   344.226E-03,  -83.3603E-03,   4.33372E-03
C:/temp/dataset/4/7_25.odb,Step-1,Increment      1: Step Time =    1.000,"PART-1-1",           167,       13.1106,      -19.8561,            0.,NA,NA,"",   99.9571E-03,   89.6435E-03,  -44.2206E-03,   4.76337E-03
C:/temp/dataset/4/7_25.odb,Step-1,Increment      1: Step Time =    1.000,"PART-1-1",           168,       12.2637,      -27.1930,            0.,NA,NA,"",   9.17968E-03,   5.05689E-03,  -7.66122E-03,   3.50939E-03
C:/temp/dataset/4/7_25.odb,Step-1,Increment      1: Step Time =    1.000,"PART-1-1",           169,       13.0974,      -22.2394,            0.,NA,NA,"",   61.9820E-03,   52.1441E-03,  -33.5076E-03,   4.78108E-03
C:/temp/dataset/4/7_25.odb,Step-1,Increment      1: Step Time =    1.000,"PART-1-1",           170,       13.0625,      -15.0302,            0.,NA,NA,"",   205.929E-03,   195.532E-03,  -64.6063E-03,   4.59040E-03
C:/temp/dataset/4/7_25.odb,Step-1,Increment      1: Step Time =    1.000,"PART-1-1",           171,       12.8638,      -7.61343,            0.,NA,NA,"",   446.922E-03,   437.528E-03,  -91.1514E-03,   4.11974E-03
C:/temp/dataset/4/7_25.odb,Step-1,Increment      1: Step Time =    1.000,"PART-1-1",           172,       12.8109,      -2.41519,            0.,NA,NA,"",   677.260E-03,   668.182E-03,  -110.521E-03,   3.59600E-03
C:/temp/dataset/4/7_25.odb,Step-1,Increment      1: Step Time =    1.000,"PART-1-1",           173,       12.7001,   168.481E-03,            0.,NA,NA,"",   804.739E-03,   796.736E-03,  -113.212E-03,   2.85215E-03
C:/temp/dataset/4/7_25.odb,Step-1,Increment      1: Step Time =    1.000,"PART-1-1",           174,       12.6773,       5.28127,            0.,NA,NA,"",       1.06290,       1.05596,  -121.325E-03,   752.692E-06
C:/temp/dataset/4/7_25.odb,Step-1,Increment      1: Step Time =    1.000,"PART-1-1",           175,       12.8405,       7.80961,            0.,NA,NA,"",       1.18923,       1.18182,  -132.553E-03,   135.290E-06
C:/temp/dataset/4/7_25.odb,Step-1,Increment      1: Step Time =    1.000,"PART-1-1",           176,       12.9955,       12.7023,            0.,NA,NA,"",       1.43037,       1.42289,  -146.110E-03,   48.8971E-06
C:/temp/dataset/4/7_25.odb,Step-1,Increment      1: Step Time =    1.000,"PART-1-1",           177,       13.0102,       19.9477,            0.,NA,NA,"",       1.78599,       1.77920,  -155.590E-03,   1.90532E-06
C:/temp/dataset/4/7_25.odb,Step-1,Increment      1: Step Time =    1.000,"PART-1-1",           178,       9.88408,       27.1269,            0.,NA,NA,"",       2.13613,       2.13611,  -10.5157E-03,   116.569E-09
C:/temp/dataset/4/7_25.odb,Step-1,Increment      1: Step Time =    1.000,"PART-1-1",           179,       13.0301,       15.1161,            0.,NA,NA,"",       1.54891,       1.54156,  -150.727E-03,   23.7073E-06
C:/temp/dataset/4/7_25.odb,Step-1,Increment      1: Step Time =    1.000,"PART-1-1",           180,   300.490E-03,       3.00528,            0.,NA,NA,"",       1.10446,   976.244E-03,   516.510E-03,   2.41702E-03
C:/temp/dataset/4/7_25.odb,Step-1,Increment      1: Step Time =    1.000,"PART-1-1",           181,      -4.18418,       2.89078,            0.,NA,NA,"",       1.24851,   979.713E-03,   773.911E-03,   685.645E-06
C:/temp/dataset/4/7_25.odb,Step-1,Increment      1: Step Time =    1.000,"PART-1-1",           182,      -8.75093,       23.2164,            0.,NA,NA,"",       2.34941,       2.12647,   998.921E-03,   47.4251E-09
C:/temp/dataset/4/7_25.odb,Step-1,Increment      1: Step Time =    1.000,"PART-1-1",           183,       9.13120,      -23.8882,            0.,NA,NA,"",   34.5008E-03,   30.7534E-03,   15.6374E-03,   3.10487E-03
C:/temp/dataset/4/7_25.odb,Step-1,Increment      1: Step Time =    1.000,"PART-1-1",           184,       8.76025,       8.63504,            0.,NA,NA,"",       1.22996,       1.22811,   67.3746E-03,   133.463E-06
C:/temp/dataset/4/7_25.odb,Step-1,Increment      1: Step Time =    1.000,"PART-1-1",           185,       8.81891,       23.9948,            0.,NA,NA,"",       1.98386,       1.98334,   45.6679E-03,   174.548E-09
C:/temp/dataset/4/7_25.odb,Step-1,Increment      1: Step Time =    1.000,"PART-1-1",           186,       9.00734,       17.5557,            0.,NA,NA,"",       1.66696,       1.66638,   44.2046E-03,   10.0871E-06
C:/temp/dataset/4/7_25.odb,Step-1,Increment      1: Step Time =    1.000,"PART-1-1",           187,      -8.59230,       19.6811,            0.,NA,NA,"",       2.16994,       1.92806,   995.587E-03,   185.616E-09
C:/temp/dataset/4/7_25.odb,Step-1,Increment      1: Step Time =    1.000,"PART-1-1",           188,       9.06266,      -12.9142,            0.,NA,NA,"",   259.109E-03,   255.181E-03,   44.9439E-03,   3.13715E-03
C:/temp/dataset/4/7_25.odb,Step-1,Increment      1: Step Time =    1.000,"PART-1-1",           189,       9.13987,      -19.6571,            0.,NA,NA,"",   96.1711E-03,   92.4261E-03,   26.5760E-03,   2.99610E-03
C:/temp/dataset/4/7_25.odb,Step-1,Increment      1: Step Time =    1.000,"PART-1-1",           190,       9.00941,       15.3265,            0.,NA,NA,"",       1.55742,       1.55672,   46.8259E-03,   26.0778E-06
C:/temp/dataset/4/7_25.odb,Step-1,Increment      1: Step Time =    1.000,"PART-1-1",           191,      -8.96967,       13.7142,            0.,NA,NA,"",       1.89588,       1.59419,       1.02612,   987.470E-09
C:/temp/dataset/4/7_25.odb,Step-1,Increment      1: Step Time =    1.000,"PART-1-1",           192,       9.12973,      -17.4386,            0.,NA,NA,"",   141.021E-03,   137.273E-03,   32.2938E-03,   3.00413E-03
C:/temp/dataset/4/7_25.odb,Step-1,Increment      1: Step Time =    1.000,"PART-1-1",           193,       8.94484,       21.9321,            0.,NA,NA,"",       1.88219,       1.88172,   41.9708E-03,   662.406E-09
C:/temp/dataset/4/7_25.odb,Step-1,Increment      1: Step Time =    1.000,"PART-1-1",           194,      -8.78258,       17.8115,            0.,NA,NA,"",       2.08419,       1.82356,       1.00919,   291.455E-09
C:/temp/dataset/4/7_25.odb,Step-1,Increment      1: Step Time =    1.000,"PART-1-1",           195,       8.90333,       10.8666,            0.,NA,NA,"",       1.33874,       1.33750,   57.5878E-03,   73.9157E-06
C:/temp/dataset/4/7_25.odb,Step-1,Increment      1: Step Time =    1.000,"PART-1-1",           196,      -9.00437,       11.6266,            0.,NA,NA,"",       1.80163,       1.47723,       1.03135,   4.87547E-06
C:/temp/dataset/4/7_25.odb,Step-1,Increment      1: Step Time =    1.000,"PART-1-1",           197,      -9.03622,       9.53759,            0.,NA,NA,"",       1.71006,       1.36019,       1.03643,   16.5717E-06
C:/temp/dataset/4/7_25.odb,Step-1,Increment      1: Step Time =    1.000,"PART-1-1",           198,       8.99264,      -10.6281,            0.,NA,NA,"",   332.261E-03,   328.095E-03,   52.4543E-03,   3.20632E-03
C:/temp/dataset/4/7_25.odb,Step-1,Increment      1: Step Time =    1.000,"PART-1-1",           199,       8.82192,      -8.34759,            0.,NA,NA,"",   414.465E-03,   409.559E-03,   63.5796E-03,   3.13106E-03
C:/temp/dataset/4/7_25.odb,Step-1,Increment      1: Step Time =    1.000,"PART-1-1",           200,       8.98411,       13.0928,            0.,NA,NA,"",       1.44777,       1.44687,   50.8341E-03,   52.4071E-06
C:/temp/dataset/4/7_25.odb,Step-1,Increment      1: Step Time =    1.000,"PART-1-1",           201,       7.30685,       27.8134,            0.,NA,NA,"",       2.17606,       2.17299,   115.421E-03,   134.148E-09
C:/temp/dataset/4/7_25.odb,Step-1,Increment      1: Step Time =    1.000,"PART-1-1",           202,      -8.46063,       21.4565,            0.,NA,NA,"",       2.25417,       2.02737,   985.415E-03,   95.5048E-09
C:/temp/dataset/4/7_25.odb,Step-1,Increment      1: Step Time =    1.000,"PART-1-1",           203,       9.11250,      -15.1896,            0.,NA,NA,"",   195.224E-03,   191.461E-03,   38.1457E-03,   3.04091E-03
C:/temp/dataset/4/7_25.odb,Step-1,Increment      1: Step Time =    1.000,"PART-1-1",           204,       9.14200,      -21.8221,            0.,NA,NA,"",   60.6843E-03,   56.9400E-03,   20.9862E-03,   3.02033E-03
C:/temp/dataset/4/7_25.odb,Step-1,Increment      1: Step Time =    1.000,"PART-1-1",           205,      -8.90436,       15.8055,            0.,NA,NA,"",       1.99181,       1.71131,       1.01917,   359.841E-09
C:/temp/dataset/4/7_25.odb,Step-1,Increment      1: Step Time =    1.000,"PART-1-1",           206,       9.00445,       19.7587,            0.,NA,NA,"",       1.77523,       1.77474,   41.6716E-03,   3.11032E-06
C:/temp/dataset/4/7_25.odb,Step-1,Increment      1: Step Time =    1.000,"PART-1-1",           207,       8.39742,      -6.16188,            0.,NA,NA,"",   503.455E-03,   496.369E-03,   84.1708E-03,   2.69969E-03
C:/temp/dataset/4/7_25.odb,Step-1,Increment      1: Step Time =    1.000,"PART-1-1",           208,      -9.10294,       7.45394,            0.,NA,NA,"",       1.62332,       1.24350,       1.04348,   41.0319E-06
C:/temp/dataset/4/7_25.odb,Step-1,Increment      1: Step Time =    1.000,"PART-1-1",           209,       8.43260,       6.43235,            0.,NA,NA,"",       1.12396,       1.12069,   85.6458E-03,   945.126E-06
C:/temp/dataset/4/7_25.odb,Step-1,Increment      1: Step Time =    1.000,"PART-1-1",           210,       5.64784,       2.93298,            0.,NA,NA,"",   980.676E-03,   954.898E-03,   223.373E-03,   2.41464E-03
C:/temp/dataset/4/7_25.odb,Step-1,Increment      1: Step Time =    1.000,"PART-1-1",           211,      -10.7213,       1.88644,            0.,NA,NA,"",       1.47604,   933.907E-03,       1.14303,   48.6329E-06
C:/temp/dataset/4/7_25.odb,Step-1,Increment      1: Step Time =    1.000,"PART-1-1",           212,      -12.7178,       27.8380,            0.,NA,NA,"",       2.68223,       2.39177,       1.21401,   965.010E-12
C:/temp/dataset/4/7_25.odb,Step-1,Increment      1: Step Time =    1.000,"PART-1-1",           213,      -11.0298,       24.2524,            0.,NA,NA,"",       2.46041,       2.18813,       1.12503,   29.9056E-09
C:/temp/dataset/4/7_25.odb,Step-1,Increment      1: Step Time =    1.000,"PART-1-1",           214,      -10.4500,       20.0822,            0.,NA,NA,"",       2.24143,       1.95347,       1.09909,   165.908E-09
C:/temp/dataset/4/7_25.odb,Step-1,Increment      1: Step Time =    1.000,"PART-1-1",           215,      -10.9919,       14.0243,            0.,NA,NA,"",       1.97603,       1.61475,       1.13899,   744.632E-09
C:/temp/dataset/4/7_25.odb,Step-1,Increment      1: Step Time =    1.000,"PART-1-1",           216,      -11.0796,       9.82104,            0.,NA,NA,"",       1.79613,       1.37927,       1.15052,   12.1454E-06
C:/temp/dataset/4/7_25.odb,Step-1,Increment      1: Step Time =    1.000,"PART-1-1",           217,      -11.0365,       11.9204,            0.,NA,NA,"",       1.88447,       1.49689,       1.14479,   3.71106E-06
C:/temp/dataset/4/7_25.odb,Step-1,Increment      1: Step Time =    1.000,"PART-1-1",           218,      -10.5491,       22.5446,            0.,NA,NA,"",       2.36362,       2.09165,       1.10077,   67.7209E-09
C:/temp/dataset/4/7_25.odb,Step-1,Increment      1: Step Time =    1.000,"PART-1-1",           219,      -10.9277,       16.1478,            0.,NA,NA,"",       2.07055,       1.73368,       1.13205,   334.810E-09
C:/temp/dataset/4/7_25.odb,Step-1,Increment      1: Step Time =    1.000,"PART-1-1",           220,      -10.7891,       18.2216,            0.,NA,NA,"",       2.16289,       1.84970,       1.12102,   276.199E-09
C:/temp/dataset/4/7_25.odb,Step-1,Increment      1: Step Time =    1.000,"PART-1-1",           221,      -11.1555,       7.76515,            0.,NA,NA,"",       1.71436,       1.26413,       1.15803,   28.7166E-06
C:/temp/dataset/4/7_25.odb,Step-1,Increment      1: Step Time =    1.000,"PART-1-1",           222,      -9.80329,       4.04682,            0.,NA,NA,"",       1.51465,       1.05353,       1.08822,   63.9729E-06
C:/temp/dataset/4/7_25.odb,Step-1,Increment      1: Step Time =    1.000,"PART-1-1",           223,       9.22674,      -25.9093,            0.,NA,NA,"",   15.3703E-03,   12.1449E-03,   9.42055E-03,   2.89733E-03
C:/temp/dataset/4/7_25.odb,Step-1,Increment      1: Step Time =    1.000,"PART-1-1",           224,      -9.21421,       25.1107,            0.,NA,NA,"",       2.45608,       2.23339,       1.02191,   17.8316E-09
C:/temp/dataset/4/7_25.odb,Step-1,Increment      1: Step Time =    1.000,"PART-1-1",           225,       6.25241,      -4.60112,            0.,NA,NA,"",   594.408E-03,   565.939E-03,   181.753E-03,   5.18257E-03
C:/temp/dataset/4/7_25.odb,Step-1,Increment      1: Step Time =    1.000,"PART-1-1",           226,      -7.19550,       4.55405,            0.,NA,NA,"",       1.43105,       1.07797,   941.214E-03,   94.1752E-06
C:/temp/dataset/4/7_25.odb,Step-1,Increment      1: Step Time =    1.000,"PART-1-1",           227,       12.9551,      -24.6090,            0.,NA,NA,"",   32.6949E-03,   24.4650E-03,  -21.6892E-03,   4.66738E-03
C:/temp/dataset/4/7_25.odb,Step-1,Increment      1: Step Time =    1.000,"PART-1-1",           228,       10.9241,       22.1645,            0.,NA,NA,"",       1.89158,       1.89076,  -55.6667E-03,   548.308E-09
C:/temp/dataset/4/7_25.odb,Step-1,Increment      1: Step Time =    1.000,"PART-1-1",           229,      -4.91288,   464.762E-03,            0.,NA,NA,"",       1.17777,   845.614E-03,   819.806E-03,   795.762E-06
C:/temp/dataset/4/7_25.odb,Step-1,Increment      1: Step Time =    1.000,"PART-1-1",           230,  -831.143E-03,      -1.35374,            0.,NA,NA,"",   947.980E-03,   741.987E-03,   590.019E-03,   3.05857E-03
C:/temp/dataset/4/7_25.odb,Step-1,Increment      1: Step Time =    1.000,"PART-1-1",           231,       11.1616,      -19.7398,            0.,NA,NA,"",   90.1194E-03,   89.5873E-03,  -9.77827E-03,   952.033E-06
C:/temp/dataset/4/7_25.odb,Step-1,Increment      1: Step Time =    1.000,"PART-1-1",           232,       10.9730,      -10.3410,            0.,NA,NA,"",   336.118E-03,   335.808E-03,  -14.4311E-03,   616.073E-06
C:/temp/dataset/4/7_25.odb,Step-1,Increment      1: Step Time =    1.000,"PART-1-1",           233,       10.4844,      -5.04269,            0.,NA,NA,"",   544.537E-03,   544.530E-03,  -2.77541E-03,   2.40503E-03
C:/temp/dataset/4/7_25.odb,Step-1,Increment      1: Step Time =    1.000,"PART-1-1",           234,       10.9074,       10.5689,            0.,NA,NA,"",       1.32106,       1.32044,  -40.6270E-03,   68.3136E-06
C:/temp/dataset/4/7_25.odb,Step-1,Increment      1: Step Time =    1.000,"PART-1-1",           235,       11.0515,      -12.7377,            0.,NA,NA,"",   258.889E-03,   258.493E-03,  -14.3233E-03,   677.029E-06
C:/temp/dataset/4/7_25.odb,Step-1,Increment      1: Step Time =    1.000,"PART-1-1",           236,       10.9936,       12.8990,            0.,NA,NA,"",       1.43576,       1.43497,  -47.7741E-03,   52.0647E-06
C:/temp/dataset/4/7_25.odb,Step-1,Increment      1: Step Time =    1.000,"PART-1-1",           237,      -9.84553,  -403.770E-03,            0.,NA,NA,"",       1.36083,   804.382E-03,       1.09765,   66.5125E-06
C:/temp/dataset/4/7_25.odb,Step-1,Increment      1: Step Time =    1.000,"PART-1-1",           238,      -6.42098,  -599.403E-03,            0.,NA,NA,"",       1.20138,   788.178E-03,   906.694E-03,   398.669E-06
C:/temp/dataset/4/7_25.odb,Step-1,Increment      1: Step Time =    1.000,"PART-1-1",           239,      -2.35214,      -1.85066,            0.,NA,NA,"",   986.989E-03,   715.157E-03,   680.220E-03,   2.62518E-03
C:/temp/dataset/4/7_25.odb,Step-1,Increment      1: Step Time =    1.000,"PART-1-1",           240,       11.1625,      -21.9830,            0.,NA,NA,"",   53.9607E-03,   53.4244E-03,  -7.58882E-03,   973.561E-06
C:/temp/dataset/4/7_25.odb,Step-1,Increment      1: Step Time =    1.000,"PART-1-1",           241,       11.1073,      -15.0998,            0.,NA,NA,"",   192.528E-03,   192.063E-03,  -13.3821E-03,   802.104E-06
C:/temp/dataset/4/7_25.odb,Step-1,Increment      1: Step Time =    1.000,"PART-1-1",           242,       11.1457,      -17.4375,            0.,NA,NA,"",   136.304E-03,   135.789E-03,  -11.8388E-03,   904.144E-06
C:/temp/dataset/4/7_25.odb,Step-1,Increment      1: Step Time =    1.000,"PART-1-1",           243,       10.8340,      -7.85693,            0.,NA,NA,"",   427.035E-03,   426.851E-03,  -12.5194E-03,   1.04227E-03
C:/temp/dataset/4/7_25.odb,Step-1,Increment      1: Step Time =    1.000,"PART-1-1",           244,       10.5842,   120.255E-03,            0.,NA,NA,"",   796.532E-03,   796.398E-03,  -14.6350E-03,   3.31394E-03
C:/temp/dataset/4/7_25.odb,Step-1,Increment      1: Step Time =    1.000,"PART-1-1",           245,       10.8633,      -2.34188,            0.,NA,NA,"",   672.503E-03,   672.081E-03,  -23.8298E-03,   3.44311E-03
C:/temp/dataset/4/7_25.odb,Step-1,Increment      1: Step Time =    1.000,"PART-1-1",           246,       9.78574,       2.89226,            0.,NA,NA,"",   940.395E-03,   940.158E-03,   21.0922E-03,   2.55482E-03
C:/temp/dataset/4/7_25.odb,Step-1,Increment      1: Step Time =    1.000,"PART-1-1",           247,       10.7685,       8.18214,            0.,NA,NA,"",       1.20340,       1.20301,  -30.8972E-03,   197.207E-06
C:/temp/dataset/4/7_25.odb,Step-1,Increment      1: Step Time =    1.000,"PART-1-1",           248,       10.4587,       5.69287,            0.,NA,NA,"",       1.08013,       1.08005,  -13.1652E-03,   964.066E-06
C:/temp/dataset/4/7_25.odb,Step-1,Increment      1: Step Time =    1.000,"PART-1-1",           249,       11.0104,       19.8565,            0.,NA,NA,"",       1.77805,       1.77714,  -57.1166E-03,   2.86089E-06
C:/temp/dataset/4/7_25.odb,Step-1,Increment      1: Step Time =    1.000,"PART-1-1",           250,       11.0363,       17.5467,            0.,NA,NA,"",       1.66442,       1.66349,  -55.5827E-03,   10.0368E-06
C:/temp/dataset/4/7_25.odb,Step-1,Increment      1: Step Time =    1.000,"PART-1-1",           251,       11.0403,       15.2208,            0.,NA,NA,"",       1.55000,       1.54910,  -52.9429E-03,   26.4340E-06
C:/temp/dataset/4/7_25.odb,Step-1,Increment      1: Step Time =    1.000,"PART-1-1",           252,       1.19009,      -1.06873,            0.,NA,NA,"",   890.334E-03,   755.836E-03,   470.539E-03,   3.57816E-03
C:/temp/dataset/4/7_25.odb,Step-1,Increment      1: Step Time =    1.000,"PART-1-1",           253,       10.6932,       24.5073,            0.,NA,NA,"",       2.00683,       2.00628,  -47.1440E-03,   180.749E-09
C:/temp/dataset/4/7_25.odb,Step-1,Increment      1: Step Time =    1.000,"PART-1-1",           254,       8.51128,       25.6419,            0.,NA,NA,"",       2.06556,       2.06473,   58.8062E-03,   165.429E-09
C:/temp/dataset/4/7_25.odb,Step-1,Increment      1: Step Time =    1.000,"PART-1-1",           255,      -9.32324,       5.48290,            0.,NA,NA,"",       1.55111,       1.13333,       1.05901,   63.2067E-06
C:/temp/dataset/4/7_25.odb,Step-1,Increment      1: Step Time =    1.000,"PART-1-1",           256,      -11.4569,       25.7537,            0.,NA,NA,"",       2.54579,       2.27296,       1.14661,   10.7770E-09
C:/temp/dataset/4/7_25.odb,Step-1,Increment      1: Step Time =    1.000,"PART-1-1",           257,      -8.85145,       2.84717,            0.,NA,NA,"",       1.42999,   984.789E-03,       1.03685,   68.0988E-06
C:/temp/dataset/4/7_25.odb,Step-1,Increment      1: Step Time =    1.000,"PART-1-1",           258,       11.0896,      -24.0706,            0.,NA,NA,"",   28.0427E-03,   27.6233E-03,  -4.83223E-03,   863.876E-06
C:/temp/dataset/4/7_25.odb,Step-1,Increment      1: Step Time =    1.000,"PART-1-1",           259,       5.69240,      -2.12345,            0.,NA,NA,"",   725.040E-03,   691.908E-03,   216.671E-03,   4.57193E-03
C:/temp/dataset/4/7_25.odb,Step-1,Increment      1: Step Time =    1.000,"PART-1-1",           260,       7.72467,       1.38687,            0.,NA,NA,"",   876.421E-03,   868.173E-03,   119.955E-03,   3.25181E-03
C:/temp/dataset/4/7_25.odb,Step-1,Increment      1: Step Time =    1.000,"PART-1-1",           261,       8.83369,  -368.727E-03,            0.,NA,NA,"",   777.317E-03,   774.450E-03,   66.6976E-03,   3.60737E-03
C:/temp/dataset/4/7_25.odb,Step-1,Increment      1: Step Time =    1.000,"PART-1-1",           262,       7.58912,       4.39900,            0.,NA,NA,"",       1.03044,       1.02251,   127.629E-03,   2.60854E-03
C:/temp/dataset/4/7_25.odb,Step-1,Increment      1: Step Time =    1.000,"PART-1-1",           263,      -6.02595,       2.23751,            0.,NA,NA,"",       1.29167,   946.203E-03,   879.270E-03,   241.214E-06
C:/temp/dataset/4/7_25.odb,Step-1,Increment      1: Step Time =    1.000,"PART-1-1",           264,       4.92391,   813.983E-03,            0.,NA,NA,"",   885.978E-03,   846.849E-03,   260.393E-03,   2.22024E-03
C:/temp/dataset/4/7_25.odb,Step-1,Increment      1: Step Time =    1.000,"PART-1-1",           265,      -7.77287,       1.11371,            0.,NA,NA,"",       1.32060,   885.978E-03,   979.294E-03,   132.674E-06
C:/temp/dataset/4/7_25.odb,Step-1,Increment      1: Step Time =    1.000,"PART-1-1",           266,      -3.71710,       1.36231,            0.,NA,NA,"",       1.16686,   893.894E-03,   750.009E-03,   1.11611E-03
C:/temp/dataset/4/7_25.odb,Step-1,Increment      1: Step Time =    1.000,"PART-1-1",           267,       2.85817,       1.10052,            0.,NA,NA,"",   944.190E-03,   867.530E-03,   372.676E-03,   2.62462E-03
C:/temp/dataset/4/7_25.odb,Step-1,Increment      1: Step Time =    1.000,"PART-1-1",           268,       7.51165,      -2.37377,            0.,NA,NA,"",   686.332E-03,   674.469E-03,   127.053E-03,   4.01607E-03
C:/temp/dataset/4/7_25.odb,Step-1,Increment      1: Step Time =    1.000,"PART-1-1",           269,      -1.84913,   666.939E-03,            0.,NA,NA,"",       1.06899,   853.085E-03,   644.202E-03,   2.21437E-03
C:/temp/dataset/4/7_25.odb,Step-1,Increment      1: Step Time =    1.000,"PART-1-1",           270,   621.955E-03,   989.730E-03,            0.,NA,NA,"",       1.00077,   866.680E-03,   500.401E-03,   2.87982E-03
C:/temp/dataset/4/7_25.odb,Step-1,Increment      1: Step Time =    1.000,"PART-1-1",           271,       7.77182,      -4.29185,            0.,NA,NA,"",   590.670E-03,   579.728E-03,   113.164E-03,   3.64576E-03
C:/temp/dataset/4/7_25.odb,Step-1,Increment      1: Step Time =    1.000,"PART-1-1",           272,       6.40836,       5.42027,            0.,NA,NA,"",       1.09214,       1.07621,   185.865E-03,   2.25905E-03
C:/temp/dataset/4/7_25.odb,Step-1,Increment      1: Step Time =    1.000,"PART-1-1",           273,      -12.5139,      -2.82358,            0.,NA,NA,"",       1.42039,   673.538E-03,       1.25054,   77.9178E-06
C:/temp/dataset/4/7_25.odb,Step-1,Increment      1: Step Time =    1.000,"PART-1-1",           274,       10.8188,      -25.6946,            0.,NA,NA,"",   12.9596E-03,   12.8676E-03,  -1.54128E-03,   415.815E-06
C:/temp/dataset/4/7_25.odb,Step-1,Increment      1: Step Time =    1.000,"PART-1-1",           275,       6.49302,  -163.532E-03,            0.,NA,NA,"",   811.261E-03,   791.220E-03,   179.205E-03,   3.08474E-03
C:/temp/dataset/4/7_25.odb,Step-1,Increment      1: Step Time =    1.000,"PART-1-1",           276,       7.60941,  -936.337E-03,            0.,NA,NA,"",   758.140E-03,   747.939E-03,   123.951E-03,   3.69217E-03
C:/temp/dataset/4/7_25.odb,Step-1,Increment      1: Step Time =    1.000,"PART-1-1",           277,       9.17282,      -2.25688,            0.,NA,NA,"",   679.681E-03,   677.740E-03,   51.3314E-03,   3.61341E-03
C:/temp/dataset/4/7_25.odb,Step-1,Increment      1: Step Time =    1.000,"PART-1-1",           278,       9.10690,      -3.89703,            0.,NA,NA,"",   600.119E-03,   597.617E-03,   54.7482E-03,   3.05882E-03
C:/temp/dataset/4/7_25.odb,Step-1,Increment      1: Step Time =    1.000,"PART-1-1",           279,      -7.91199,      -1.40732,            0.,NA,NA,"",       1.24020,   745.257E-03,   991.311E-03,   164.332E-06
C:/temp/dataset/4/7_25.odb,Step-1,Increment      1: Step Time =    1.000,"PART-1-1",           280,      -9.83927,       21.3699,            0.,NA,NA,"",       2.28669,       2.02468,       1.06283,   107.966E-09
C:/temp/dataset/4/7_25.odb,Step-1,Increment      1: Step Time =    1.000,"PART-1-1",           281,      -11.2653,       5.77953,            0.,NA,NA,"",       1.64073,       1.15296,       1.16733,   45.6063E-06
C:/temp/dataset/4/7_25.odb,Step-1,Increment      1: Step Time =    1.000,"PART-1-1",           282,      -11.2487,       3.84080,            0.,NA,NA,"",       1.56784,       1.04424,       1.16947,   50.5206E-06
C:/temp/dataset/4/7_25.odb,Step-1,Increment      1: Step Time =    1.000,"PART-1-1",           283,       3.11059,  -868.354E-03,            0.,NA,NA,"",   843.964E-03,   763.694E-03,   359.229E-03,   3.00602E-03
C:/temp/dataset/4/7_25.odb,Step-1,Increment      1: Step Time =    1.000,"PART-1-1",           284,       4.50766,  -682.768E-03,            0.,NA,NA,"",   819.871E-03,   769.996E-03,   281.594E-03,   2.94464E-03
C:/temp/dataset/4/7_25.odb,Step-1,Increment      1: Step Time =    1.000,"PART-1-1",           285,      -3.56662,  -854.847E-03,            0.,NA,NA,"",       1.07326,   770.937E-03,   746.694E-03,   1.75095E-03
C:/temp/dataset/4/7_25.odb,Step-1,Increment      1: Step Time =    1.000,"PART-1-1",           286,      -7.33150,       26.6843,            0.,NA,NA,"",       2.49224,       2.31863,   913.905E-03,   5.02274E-09
C:/temp/dataset/4/7_25.odb,Step-1,Increment      1: Step Time =    1.000,"PART-1-1",           287,      -6.09303,       25.7233,            0.,NA,NA,"",       2.41579,       2.26282,   845.995E-03,   4.06595E-09
C:/temp/dataset/4/7_25.odb,Step-1,Increment      1: Step Time =    1.000,"PART-1-1",           288,           -5.,        26.875,            0.,NA,NA,"",       2.45390,       2.32566,   782.916E-03,   923.197E-12
C:/temp/dataset/4/7_25.odb,Step-1,Increment      1: Step Time =    1.000,"PART-1-1",           289,      -6.23847,       27.8360,            0.,NA,NA,"",       2.52889,       2.38147,   850.826E-03,   704.164E-12
C:/temp/dataset/4/7_25.odb,Step-1,Increment      1: Step Time =    1.000,"PART-1-1",           290,      -8.20013,       25.3620,            0.,NA,NA,"",       2.44429,       2.24588,   964.673E-03,   12.5182E-09
C:/temp/dataset/4/7_25.odb,Step-1,Increment      1: Step Time =    1.000,"PART-1-1",           291,      -8.98257,       24.1636,            0.,NA,NA,"",       2.40272,       2.17993,       1.01042,   32.5671E-09
C:/temp/dataset/4/7_25.odb,Step-1,Increment      1: Step Time =    1.000,"PART-1-1",           292,      -7.83587,       23.3915,            0.,NA,NA,"",       2.33561,       2.13485,   947.353E-03,   35.4278E-09
C:/temp/dataset/4/7_25.odb,Step-1,Increment      1: Step Time =    1.000,"PART-1-1",           293,      -7.05344,       24.5900,            0.,NA,NA,"",       2.37832,       2.20080,   901.611E-03,   19.9745E-09
C:/temp/dataset/4/7_25.odb,Step-1,Increment      1: Step Time =    1.000,"PART-1-1",           294,      -6.78951,       20.5788,            0.,NA,NA,"",       2.16805,       1.97554,   893.124E-03,   123.288E-09
C:/temp/dataset/4/7_25.odb,Step-1,Increment      1: Step Time =    1.000,"PART-1-1",           295,      -5.89603,       19.5861,            0.,NA,NA,"",       2.09618,       1.91850,   844.602E-03,   136.656E-09
C:/temp/dataset/4/7_25.odb,Step-1,Increment      1: Step Time =    1.000,"PART-1-1",           296,           -5.,        20.625,            0.,NA,NA,"",       2.12846,       1.97532,   792.743E-03,   108.328E-09
C:/temp/dataset/4/7_25.odb,Step-1,Increment      1: Step Time =    1.000,"PART-1-1",           297,      -5.89348,       21.6177,            0.,NA,NA,"",       2.19960,       2.03237,   841.265E-03,   54.1714E-09
C:/temp/dataset/4/7_25.odb,Step-1,Increment      1: Step Time =    1.000,"PART-1-1",           298,      -7.97413,       13.6001,            0.,NA,NA,"",       1.85957,       1.58623,   970.497E-03,   847.563E-09
C:/temp/dataset/4/7_25.odb,Step-1,Increment      1: Step Time =    1.000,"PART-1-1",           299,      -8.98702,       12.6704,            0.,NA,NA,"",       1.84843,       1.53571,       1.02874,   2.93057E-06
C:/temp/dataset/4/7_25.odb,Step-1,Increment      1: Step Time =    1.000,"PART-1-1",           300,      -8.00249,       11.5116,            0.,NA,NA,"",       1.76350,       1.46921,   975.371E-03,   3.91512E-06
C:/temp/dataset/4/7_25.odb,Step-1,Increment      1: Step Time =    1.000,"PART-1-1",           301,      -6.98959,       12.4413,            0.,NA,NA,"",       1.77503,       1.51973,   917.133E-03,   2.53096E-06
C:/temp/dataset/4/7_25.odb,Step-1,Increment      1: Step Time =    1.000,"PART-1-1",           302,      -9.95004,      -1.64066,            0.,NA,NA,"",       1.32771,   735.489E-03,       1.10539,   68.1639E-06
C:/temp/dataset/4/7_25.odb,Step-1,Increment      1: Step Time =    1.000,"PART-1-1",           303,      -11.1983,  -513.068E-03,            0.,NA,NA,"",       1.42044,   800.453E-03,       1.17343,   56.9713E-06
C:/temp/dataset/4/7_25.odb,Step-1,Increment      1: Step Time =    1.000,"PART-1-1",           304,      -12.5325,      -1.72297,            0.,NA,NA,"",       1.44999,   735.013E-03,       1.24989,   66.0411E-06
C:/temp/dataset/4/7_25.odb,Step-1,Increment      1: Step Time =    1.000,"PART-1-1",           305,      -11.2842,      -2.85056,            0.,NA,NA,"",       1.35859,   670.115E-03,       1.18183,   88.6566E-06
C:/temp/dataset/4/7_25.odb,Step-1,Increment      1: Step Time =    1.000,"PART-1-1",           306,      -10.2834,   741.336E-03,            0.,NA,NA,"",       1.41792,   869.111E-03,       1.12034,   51.0687E-06
C:/temp/dataset/4/7_25.odb,Step-1,Increment      1: Step Time =    1.000,"PART-1-1",           307,      -11.7661,       1.72477,            0.,NA,NA,"",       1.51744,   926.517E-03,       1.20174,   39.7322E-06
C:/temp/dataset/4/7_25.odb,Step-1,Increment      1: Step Time =    1.000,"PART-1-1",           308,      -12.6810,   470.366E-03,            0.,NA,NA,"",       1.52002,   857.795E-03,       1.25485,   44.5006E-06
C:/temp/dataset/4/7_25.odb,Step-1,Increment      1: Step Time =    1.000,"PART-1-1",           309,         -1.25,           -5.,            0.,NA,NA,"",   826.145E-03,   536.823E-03,   627.962E-03,   2.07544E-03
C:/temp/dataset/4/7_25.odb,Step-1,Increment      1: Step Time =    1.000,"PART-1-1",           310,  -165.329E-03,      -4.13131,            0.,NA,NA,"",   811.084E-03,   587.129E-03,   559.586E-03,   2.71924E-03
C:/temp/dataset/4/7_25.odb,Step-1,Increment      1: Step Time =    1.000,"PART-1-1",           311,      -1.46228,      -3.26668,            0.,NA,NA,"",   897.886E-03,   636.321E-03,   633.478E-03,   3.16173E-03
C:/temp/dataset/4/7_25.odb,Step-1,Increment      1: Step Time =    1.000,"PART-1-1",           312,      -2.54695,      -4.13537,            0.,NA,NA,"",   913.810E-03,   587.674E-03,   699.777E-03,   2.61689E-03
C:/temp/dataset/4/7_25.odb,Step-1,Increment      1: Step Time =    1.000,"PART-1-1",           313,   769.081E-03,      -3.16387,            0.,NA,NA,"",   813.820E-03,   641.828E-03,   500.361E-03,   3.28792E-03
C:/temp/dataset/4/7_25.odb,Step-1,Increment      1: Step Time =    1.000,"PART-1-1",           314,          1.25,           -5.,            0.,NA,NA,"",   716.936E-03,   535.666E-03,   476.507E-03,   2.77763E-03
C:/temp/dataset/4/7_25.odb,Step-1,Increment      1: Step Time =    1.000,"PART-1-1",           315,       2.18441,      -4.03256,            0.,NA,NA,"",   725.464E-03,   593.256E-03,   417.546E-03,   3.01534E-03
C:/temp/dataset/4/7_25.odb,Step-1,Increment      1: Step Time =    1.000,"PART-1-1",           316,       1.54561,       3.01681,            0.,NA,NA,"",       1.07021,   973.139E-03,   445.375E-03,   2.64286E-03
C:/temp/dataset/4/7_25.odb,Step-1,Increment      1: Step Time =    1.000,"PART-1-1",           317,       2.64536,       4.01417,            0.,NA,NA,"",       1.09211,       1.02272,   383.073E-03,   3.30064E-03
C:/temp/dataset/4/7_25.odb,Step-1,Increment      1: Step Time =    1.000,"PART-1-1",           318,          1.25,            5.,            0.,NA,NA,"",       1.17778,       1.08365,   461.375E-03,   3.04336E-03
C:/temp/dataset/4/7_25.odb,Step-1,Increment      1: Step Time =    1.000,"PART-1-1",           319,   150.245E-03,       4.00264,            0.,NA,NA,"",       1.15731,       1.03174,   524.288E-03,   2.00331E-03
C:/temp/dataset/4/7_25.odb,Step-1,Increment      1: Step Time =    1.000,"PART-1-1",           320,   179.474E-03,      -1.21124,            0.,NA,NA,"",   917.791E-03,   749.035E-03,   530.365E-03,   3.27418E-03
C:/temp/dataset/4/7_25.odb,Step-1,Increment      1: Step Time =    1.000,"PART-1-1",           321,  -580.901E-03,      -2.30818,            0.,NA,NA,"",   899.874E-03,   689.506E-03,   578.233E-03,   3.24602E-03
C:/temp/dataset/4/7_25.odb,Step-1,Increment      1: Step Time =    1.000,"PART-1-1",           322,       1.52946,      -2.06693,            0.,NA,NA,"",   835.141E-03,   701.838E-03,   452.641E-03,   3.58800E-03
C:/temp/dataset/4/7_25.odb,Step-1,Increment      1: Step Time =    1.000,"PART-1-1",           323,       12.7868,      -3.71378,            0.,NA,NA,"",   615.202E-03,   606.247E-03,  -104.587E-03,   3.71305E-03
C:/temp/dataset/4/7_25.odb,Step-1,Increment      1: Step Time =    1.000,"PART-1-1",           324,       13.8814,      -5.00619,            0.,NA,NA,"",   567.553E-03,   548.424E-03,  -146.105E-03,   5.29996E-03
C:/temp/dataset/4/7_25.odb,Step-1,Increment      1: Step Time =    1.000,"PART-1-1",           325,           15.,         -3.75,            0.,NA,NA,"",   640.313E-03,   607.008E-03,  -203.819E-03,   6.09946E-03
C:/temp/dataset/4/7_25.odb,Step-1,Increment      1: Step Time =    1.000,"PART-1-1",           326,       13.9054,      -2.45760,            0.,NA,NA,"",   685.626E-03,   666.625E-03,  -160.292E-03,   4.10206E-03
C:/temp/dataset/4/7_25.odb,Step-1,Increment      1: Step Time =    1.000,"PART-1-1",           327,       5.10003,      -1.40311,            0.,NA,NA,"",   772.184E-03,   730.905E-03,   249.092E-03,   3.52027E-03
C:/temp/dataset/4/7_25.odb,Step-1,Increment      1: Step Time =    1.000,"PART-1-1",           328,       3.80913,  -775.561E-03,            0.,NA,NA,"",   831.105E-03,   766.969E-03,   320.146E-03,   2.88180E-03
C:/temp/dataset/4/7_25.odb,Step-1,Increment      1: Step Time =    1.000,"PART-1-1",           329,       3.52110,      -1.80919,            0.,NA,NA,"",   788.564E-03,   713.248E-03,   336.320E-03,   3.59326E-03
C:/temp/dataset/4/7_25.odb,Step-1,Increment      1: Step Time =    1.000,"PART-1-1",           330,       4.81200,      -2.43673,            0.,NA,NA,"",   727.395E-03,   678.238E-03,   262.862E-03,   4.07027E-03
C:/temp/dataset/4/7_25.odb,Step-1,Increment      1: Step Time =    1.000,"PART-1-1",           331,           15.,          3.75,            0.,NA,NA,"",       1.00395,   976.280E-03,  -234.080E-03,   698.355E-06
C:/temp/dataset/4/7_25.odb,Step-1,Increment      1: Step Time =    1.000,"PART-1-1",           332,       13.8386,       5.14064,            0.,NA,NA,"",       1.06255,       1.04746,  -178.407E-03,   421.948E-06
C:/temp/dataset/4/7_25.odb,Step-1,Increment      1: Step Time =    1.000,"PART-1-1",           333,       12.6076,       4.00525,            0.,NA,NA,"",   998.513E-03,   991.735E-03,  -116.154E-03,   1.29038E-03
C:/temp/dataset/4/7_25.odb,Step-1,Increment      1: Step Time =    1.000,"PART-1-1",           334,       13.7689,       2.61462,            0.,NA,NA,"",   935.719E-03,   920.054E-03,  -170.498E-03,   1.28602E-03
C:/temp/dataset/4/7_25.odb,Step-1,Increment      1: Step Time =    1.000,"PART-1-1",           335,       9.76439,       8.40859,            0.,NA,NA,"",       1.21572,       1.21559,   18.2626E-03,   161.179E-06
C:/temp/dataset/4/7_25.odb,Step-1,Increment      1: Step Time =    1.000,"PART-1-1",           336,       8.59642,       7.53369,            0.,NA,NA,"",       1.17682,       1.17432,   76.6508E-03,   502.475E-06
C:/temp/dataset/4/7_25.odb,Step-1,Increment      1: Step Time =    1.000,"PART-1-1",           337,       9.44563,       6.06261,            0.,NA,NA,"",       1.10102,       1.10042,   36.1802E-03,   881.548E-06
C:/temp/dataset/4/7_25.odb,Step-1,Increment      1: Step Time =    1.000,"PART-1-1",           338,       10.6136,       6.93751,            0.,NA,NA,"",       1.14192,       1.14171,  -21.9099E-03,   546.449E-06
C:/temp/dataset/4/7_25.odb,Step-1,Increment      1: Step Time =    1.000,"PART-1-1",           339,       5.92452,       9.07762,            0.,NA,NA,"",       1.27009,       1.25331,   205.770E-03,   129.686E-06
C:/temp/dataset/4/7_25.odb,Step-1,Increment      1: Step Time =    1.000,"PART-1-1",           340,            5.,         8.125,            0.,NA,NA,"",       1.23391,       1.20795,   251.773E-03,   276.856E-06
C:/temp/dataset/4/7_25.odb,Step-1,Increment      1: Step Time =    1.000,"PART-1-1",           341,       5.83838,       7.03541,            0.,NA,NA,"",       1.17372,       1.15435,   212.364E-03,   495.129E-06
C:/temp/dataset/4/7_25.odb,Step-1,Increment      1: Step Time =    1.000,"PART-1-1",           342,       6.76290,       7.98803,            0.,NA,NA,"",       1.21059,       1.19914,   166.096E-03,   303.944E-06
C:/temp/dataset/4/7_25.odb,Step-1,Increment      1: Step Time =    1.000,"PART-1-1",           343,       6.00358,       15.4027,            0.,NA,NA,"",       1.57613,       1.56408,   194.535E-03,   15.2263E-06
C:/temp/dataset/4/7_25.odb,Step-1,Increment      1: Step Time =    1.000,"PART-1-1",           344,            5.,        14.375,            0.,NA,NA,"",       1.53445,       1.51474,   245.121E-03,   34.3127E-06
C:/temp/dataset/4/7_25.odb,Step-1,Increment      1: Step Time =    1.000,"PART-1-1",           345,       5.99171,       13.2884,            0.,NA,NA,"",       1.47339,       1.46007,   197.641E-03,   38.9819E-06
C:/temp/dataset/4/7_25.odb,Step-1,Increment      1: Step Time =    1.000,"PART-1-1",           346,       6.99529,       14.3161,            0.,NA,NA,"",       1.51657,       1.50942,   147.085E-03,   33.9007E-06
C:/temp/dataset/4/7_25.odb,Step-1,Increment      1: Step Time =    1.000,"PART-1-1",           347,       11.7328,       24.6815,            0.,NA,NA,"",       2.01599,       2.01359,  -98.4884E-03,   158.631E-09
C:/temp/dataset/4/7_25.odb,Step-1,Increment      1: Step Time =    1.000,"PART-1-1",           348,       12.6496,       26.1279,            0.,NA,NA,"",       2.08868,       2.08362,  -145.334E-03,   163.342E-09
C:/temp/dataset/4/7_25.odb,Step-1,Increment      1: Step Time =    1.000,"PART-1-1",           349,       11.2054,       27.2635,            0.,NA,NA,"",       2.14256,       2.14123,  -75.6755E-03,   108.897E-09
C:/temp/dataset/4/7_25.odb,Step-1,Increment      1: Step Time =    1.000,"PART-1-1",           350,       10.2886,       25.8171,            0.,NA,NA,"",       2.07139,       2.07119,  -28.8299E-03,   130.533E-09
C:/temp/dataset/4/7_25.odb,Step-1,Increment      1: Step Time =    1.000,"PART-1-1",           351,       12.5134,       28.7000,            0.,NA,NA,"",       2.21484,       2.21030,  -141.750E-03,   93.7358E-09
C:/temp/dataset/4/7_25.odb,Step-1,Increment      1: Step Time =    1.000,"PART-1-1",           352,       13.7634,       27.4500,            0.,NA,NA,"",       2.15676,       2.14731,  -201.721E-03,   94.5785E-09
C:/temp/dataset/4/7_25.odb,Step-1,Increment      1: Step Time =    1.000,"PART-1-1",           353,           15.,         28.75,            0.,NA,NA,"",       2.22548,       2.20975,  -264.119E-03,   30.0406E-09
C:/temp/dataset/4/7_25.odb,Step-1,Increment      1: Step Time =    1.000,"PART-1-1",           354,         13.75,           30.,            0.,NA,NA,"",       2.28190,       2.27275,  -204.148E-03,   23.0767E-09
C:/temp/dataset/4/7_25.odb,Step-1,Increment      1: Step Time =    1.000,"PART-1-1",           355,      -3.83569,      -2.96698,            0.,NA,NA,"",       1.00874,   653.550E-03,   768.388E-03,   2.10729E-03
C:/temp/dataset/4/7_25.odb,Step-1,Increment      1: Step Time =    1.000,"PART-1-1",           356,      -2.47303,      -2.56070,            0.,NA,NA,"",   965.626E-03,   675.838E-03,   689.694E-03,   2.68982E-03
C:/temp/dataset/4/7_25.odb,Step-1,Increment      1: Step Time =    1.000,"PART-1-1",           357,      -2.95938,      -1.35275,            0.,NA,NA,"",       1.03010,   742.972E-03,   713.510E-03,   2.18759E-03
C:/temp/dataset/4/7_25.odb,Step-1,Increment      1: Step Time =    1.000,"PART-1-1",           358,      -4.32205,      -1.75903,            0.,NA,NA,"",       1.07113,   721.184E-03,   791.964E-03,   1.39106E-03
C:/temp/dataset/4/7_25.odb,Step-1,Increment      1: Step Time =    1.000,"PART-1-1",           359,       8.60967,      -7.25473,            0.,NA,NA,"",   458.023E-03,   452.020E-03,   73.9117E-03,   2.96648E-03
C:/temp/dataset/4/7_25.odb,Step-1,Increment      1: Step Time =    1.000,"PART-1-1",           360,       7.51358,      -6.44375,            0.,NA,NA,"",   500.722E-03,   486.045E-03,   120.347E-03,   5.17817E-03
C:/temp/dataset/4/7_25.odb,Step-1,Increment      1: Step Time =    1.000,"PART-1-1",           361,       6.75300,      -7.77251,            0.,NA,NA,"",   459.860E-03,   436.499E-03,   144.706E-03,   7.47699E-03
C:/temp/dataset/4/7_25.odb,Step-1,Increment      1: Step Time =    1.000,"PART-1-1",           362,       7.84909,      -8.58350,            0.,NA,NA,"",   415.069E-03,   403.030E-03,   99.2450E-03,   5.20447E-03
C:/temp/dataset/4/7_25.odb,Step-1,Increment      1: Step Time =    1.000,"PART-1-1",           363,       7.07130,      -14.2100,            0.,NA,NA,"",   243.069E-03,   223.144E-03,   96.3808E-03,   6.90873E-03
C:/temp/dataset/4/7_25.odb,Step-1,Increment      1: Step Time =    1.000,"PART-1-1",           364,       6.02882,      -13.2279,            0.,NA,NA,"",   287.618E-03,   255.373E-03,   132.321E-03,   8.83065E-03
C:/temp/dataset/4/7_25.odb,Step-1,Increment      1: Step Time =    1.000,"PART-1-1",           365,            5.,       -14.375,            0.,NA,NA,"",   273.428E-03,   227.557E-03,   151.593E-03,   10.7896E-03
C:/temp/dataset/4/7_25.odb,Step-1,Increment      1: Step Time =    1.000,"PART-1-1",           366,       6.04247,      -15.3570,            0.,NA,NA,"",   228.002E-03,   196.384E-03,   115.837E-03,   8.86621E-03
C:/temp/dataset/4/7_25.odb,Step-1,Increment      1: Step Time =    1.000,"PART-1-1",           367,       7.02995,      -12.0379,            0.,NA,NA,"",   307.993E-03,   287.621E-03,   110.155E-03,   6.96230E-03
C:/temp/dataset/4/7_25.odb,Step-1,Increment      1: Step Time =    1.000,"PART-1-1",           368,       6.00113,      -11.1016,            0.,NA,NA,"",   354.738E-03,   321.907E-03,   149.047E-03,   8.83011E-03
C:/temp/dataset/4/7_25.odb,Step-1,Increment      1: Step Time =    1.000,"PART-1-1",           369,            5.,      -12.2917,            0.,NA,NA,"",   335.426E-03,   288.688E-03,   170.792E-03,   10.7066E-03
C:/temp/dataset/4/7_25.odb,Step-1,Increment      1: Step Time =    1.000,"PART-1-1",           370,            5.,      -22.7083,            0.,NA,NA,"",   92.2376E-03,   58.2771E-03,   71.4952E-03,   11.0279E-03
C:/temp/dataset/4/7_25.odb,Step-1,Increment      1: Step Time =    1.000,"PART-1-1",           371,       6.05922,      -23.7899,            0.,NA,NA,"",   63.7263E-03,   40.4299E-03,   49.2591E-03,   9.01633E-03
C:/temp/dataset/4/7_25.odb,Step-1,Increment      1: Step Time =    1.000,"PART-1-1",           372,       7.11013,      -22.7834,            0.,NA,NA,"",   65.6015E-03,   48.6236E-03,   44.0376E-03,   6.98091E-03
C:/temp/dataset/4/7_25.odb,Step-1,Increment      1: Step Time =    1.000,"PART-1-1",           373,       6.05091,      -21.7018,            0.,NA,NA,"",   94.4142E-03,   67.4355E-03,   66.0795E-03,   8.98976E-03
C:/temp/dataset/4/7_25.odb,Step-1,Increment      1: Step Time =    1.000,"PART-1-1",           374,          8.75,          -30.,            0.,NA,NA,"",            0.,  -1.51693E-39,   5.82835E-39,   3.18819E-03
C:/temp/dataset/4/7_25.odb,Step-1,Increment      1: Step Time =    1.000,"PART-1-1",           375,       9.84988,      -28.9274,            0.,NA,NA,"",   1.64053E-03,  -1.20541E-03,   1.11281E-03,   1.55103E-03
C:/temp/dataset/4/7_25.odb,Step-1,Increment      1: Step Time =    1.000,"PART-1-1",           376,       8.52411,      -27.9095,            0.,NA,NA,"",   7.02465E-03,   2.23235E-03,   6.66050E-03,   4.27526E-03
C:/temp/dataset/4/7_25.odb,Step-1,Increment      1: Step Time =    1.000,"PART-1-1",           377,       7.42422,      -28.9821,            0.,NA,NA,"",   4.68045E-03,   539.511E-06,   4.64926E-03,   5.65868E-03
C:/temp/dataset/4/7_25.odb,Step-1,Increment      1: Step Time =    1.000,"PART-1-1",           378,       10.1104,      -23.9794,            0.,NA,NA,"",   29.2066E-03,   28.7365E-03,   5.21911E-03,   1.16582E-03
C:/temp/dataset/4/7_25.odb,Step-1,Increment      1: Step Time =    1.000,"PART-1-1",           379,       11.1261,      -23.0268,            0.,NA,NA,"",   40.0505E-03,   39.5770E-03,  -6.14051E-03,   921.766E-06
C:/temp/dataset/4/7_25.odb,Step-1,Increment      1: Step Time =    1.000,"PART-1-1",           380,       10.1523,      -21.9025,            0.,NA,NA,"",   55.1151E-03,   54.7230E-03,   6.56267E-03,   1.04046E-03
C:/temp/dataset/4/7_25.odb,Step-1,Increment      1: Step Time =    1.000,"PART-1-1",           381,       9.13660,      -22.8552,            0.,NA,NA,"",   46.6660E-03,   42.9070E-03,   18.3494E-03,   3.06341E-03
C:/temp/dataset/4/7_25.odb,Step-1,Increment      1: Step Time =    1.000,"PART-1-1",           382,       7.09296,      -18.5383,            0.,NA,NA,"",   138.166E-03,   118.983E-03,   70.2339E-03,   6.92720E-03
C:/temp/dataset/4/7_25.odb,Step-1,Increment      1: Step Time =    1.000,"PART-1-1",           383,       6.04465,      -17.4814,            0.,NA,NA,"",   176.121E-03,   145.373E-03,   99.4239E-03,   8.91421E-03
C:/temp/dataset/4/7_25.odb,Step-1,Increment      1: Step Time =    1.000,"PART-1-1",           384,            5.,      -18.5417,            0.,NA,NA,"",   169.908E-03,   127.711E-03,   112.065E-03,   10.9444E-03
C:/temp/dataset/4/7_25.odb,Step-1,Increment      1: Step Time =    1.000,"PART-1-1",           385,       6.04831,      -19.5985,            0.,NA,NA,"",   131.651E-03,   102.362E-03,   82.7899E-03,   8.95569E-03
C:/temp/dataset/4/7_25.odb,Step-1,Increment      1: Step Time =    1.000,"PART-1-1",           386,       8.88188,       22.9635,            0.,NA,NA,"",       1.93303,       1.93253,   43.8192E-03,   360.296E-09
C:/temp/dataset/4/7_25.odb,Step-1,Increment      1: Step Time =    1.000,"PART-1-1",           387,       9.93448,       22.0483,            0.,NA,NA,"",       1.88626,       1.88624,  -6.84803E-03,   573.619E-09
C:/temp/dataset/4/7_25.odb,Step-1,Increment      1: Step Time =    1.000,"PART-1-1",           388,       10.8087,       23.3359,            0.,NA,NA,"",       1.94920,       1.94852,  -51.4054E-03,   282.998E-09
C:/temp/dataset/4/7_25.odb,Step-1,Increment      1: Step Time =    1.000,"PART-1-1",           389,       9.75606,       24.2511,            0.,NA,NA,"",       1.99481,       1.99481,  -738.129E-06,   161.341E-09
C:/temp/dataset/4/7_25.odb,Step-1,Increment      1: Step Time =    1.000,"PART-1-1",           390,       10.0218,       17.5512,            0.,NA,NA,"",       1.66495,       1.66494,  -5.68762E-03,   9.17882E-06
C:/temp/dataset/4/7_25.odb,Step-1,Increment      1: Step Time =    1.000,"PART-1-1",           391,       9.00837,       16.4411,            0.,NA,NA,"",       1.61219,       1.61155,   45.5119E-03,   17.6809E-06
C:/temp/dataset/4/7_25.odb,Step-1,Increment      1: Step Time =    1.000,"PART-1-1",           392,       10.0249,       15.2736,            0.,NA,NA,"",       1.55291,       1.55291,  -3.05237E-03,   23.9026E-06
C:/temp/dataset/4/7_25.odb,Step-1,Increment      1: Step Time =    1.000,"PART-1-1",           393,       11.0383,       16.3837,            0.,NA,NA,"",       1.60721,       1.60630,  -54.2661E-03,   17.8091E-06
C:/temp/dataset/4/7_25.odb,Step-1,Increment      1: Step Time =    1.000,"PART-1-1",           394,      -14.0638,       5.89996,            0.,NA,NA,"",       1.76292,       1.16411,       1.32391,   30.9945E-06
C:/temp/dataset/4/7_25.odb,Step-1,Increment      1: Step Time =    1.000,"PART-1-1",           395,      -13.1194,       6.91794,            0.,NA,NA,"",       1.76041,       1.21970,       1.26941,   27.6573E-06
C:/temp/dataset/4/7_25.odb,Step-1,Increment      1: Step Time =    1.000,"PART-1-1",           396,      -14.0556,       8.04923,            0.,NA,NA,"",       1.84197,       1.28460,       1.32010,   13.4933E-06
C:/temp/dataset/4/7_25.odb,Step-1,Increment      1: Step Time =    1.000,"PART-1-1",           397,          -15.,       7.03125,            0.,NA,NA,"",       1.84393,       1.22902,       1.37463,   24.2699E-06
C:/temp/dataset/4/7_25.odb,Step-1,Increment      1: Step Time =    1.000,"PART-1-1",           398,      -14.0181,       12.3521,            0.,NA,NA,"",       2.01180,       1.52577,       1.31125,   913.804E-09
C:/temp/dataset/4/7_25.odb,Step-1,Increment      1: Step Time =    1.000,"PART-1-1",           399,      -13.0189,       13.2775,            0.,NA,NA,"",       2.01395,       1.57608,       1.25378,   1.07592E-06
C:/temp/dataset/4/7_25.odb,Step-1,Increment      1: Step Time =    1.000,"PART-1-1",           400,      -14.0008,       14.5192,            0.,NA,NA,"",       2.10268,       1.64722,       1.30687,   452.275E-09
C:/temp/dataset/4/7_25.odb,Step-1,Increment      1: Step Time =    1.000,"PART-1-1",           401,          -15.,       13.5938,            0.,NA,NA,"",       2.10037,       1.59692,       1.36434,   812.200E-09
C:/temp/dataset/4/7_25.odb,Step-1,Increment      1: Step Time =    1.000,"PART-1-1",           402,      -10.1942,       21.9572,            0.,NA,NA,"",       2.32515,       2.05816,       1.08180,   86.2160E-09
C:/temp/dataset/4/7_25.odb,Step-1,Increment      1: Step Time =    1.000,"PART-1-1",           403,      -9.14995,       21.4132,            0.,NA,NA,"",       2.27016,       2.02603,       1.02412,   97.4893E-09
C:/temp/dataset/4/7_25.odb,Step-1,Increment      1: Step Time =    1.000,"PART-1-1",           404,      -8.60578,       22.3365,            0.,NA,NA,"",       2.30174,       2.07692,   992.168E-03,   71.4045E-09
C:/temp/dataset/4/7_25.odb,Step-1,Increment      1: Step Time =    1.000,"PART-1-1",           405,      -9.65000,       22.8805,            0.,NA,NA,"",       2.35591,       2.10906,       1.04984,   52.2380E-09
C:/temp/dataset/4/7_25.odb,Step-1,Increment      1: Step Time =    1.000,"PART-1-1",           406,      -14.0213,       25.7108,            0.,NA,NA,"",       2.61513,       2.27458,       1.29042,   3.21339E-09
C:/temp/dataset/4/7_25.odb,Step-1,Increment      1: Step Time =    1.000,"PART-1-1",           407,      -12.8802,       26.8172,            0.,NA,NA,"",       2.63652,       2.33481,       1.22472,   4.00150E-09
C:/temp/dataset/4/7_25.odb,Step-1,Increment      1: Step Time =    1.000,"PART-1-1",           408,      -13.8589,       27.8252,            0.,NA,NA,"",       2.71275,       2.39285,       1.27799,   673.632E-12
C:/temp/dataset/4/7_25.odb,Step-1,Increment      1: Step Time =    1.000,"PART-1-1",           409,          -15.,       26.7188,            0.,NA,NA,"",       2.69196,       2.33262,       1.34370,   802.596E-12
C:/temp/dataset/4/7_25.odb,Step-1,Increment      1: Step Time =    1.000,"PART-1-1",           410,        -13.75,           30.,            0.,NA,NA,"",       2.81640,       2.51458,       1.26847,   805.256E-12
C:/temp/dataset/4/7_25.odb,Step-1,Increment      1: Step Time =    1.000,"PART-1-1",           411,          -15.,       28.9063,            0.,NA,NA,"",       2.79723,       2.45524,       1.34026,   678.940E-12
C:/temp/dataset/4/7_25.odb,Step-1,Increment      1: Step Time =    1.000,"PART-1-1",           412,      -12.6089,       28.9190,            0.,NA,NA,"",       2.73280,       2.45219,       1.20621,   472.402E-12
C:/temp/dataset/4/7_25.odb,Step-1,Increment      1: Step Time =    1.000,"PART-1-1",           413,      -11.4362,       27.6040,            0.,NA,NA,"",       2.63701,       2.37664,       1.14254,   2.67034E-09
C:/temp/dataset/4/7_25.odb,Step-1,Increment      1: Step Time =    1.000,"PART-1-1",           414,      -10.0773,       28.6850,            0.,NA,NA,"",       2.65767,       2.43510,       1.06467,   1.14500E-09
C:/temp/dataset/4/7_25.odb,Step-1,Increment      1: Step Time =    1.000,"PART-1-1",           415,        -11.25,           30.,            0.,NA,NA,"",       2.75254,       2.51065,       1.12834,   1.81643E-09
C:/temp/dataset/4/7_25.odb,Step-1,Increment      1: Step Time =    1.000,"PART-1-1",           416,      -13.7240,       21.2404,            0.,NA,NA,"",       2.39480,       2.02353,       1.28079,   65.9017E-09
C:/temp/dataset/4/7_25.odb,Step-1,Increment      1: Step Time =    1.000,"PART-1-1",           417,      -12.6979,       22.4429,            0.,NA,NA,"",       2.42013,       2.08933,       1.22138,   63.7518E-09
C:/temp/dataset/4/7_25.odb,Step-1,Increment      1: Step Time =    1.000,"PART-1-1",           418,      -13.9739,       23.5463,            0.,NA,NA,"",       2.51064,       2.15318,       1.29117,   18.0297E-09
C:/temp/dataset/4/7_25.odb,Step-1,Increment      1: Step Time =    1.000,"PART-1-1",           419,          -15.,       22.3438,            0.,NA,NA,"",       2.48621,       2.08739,       1.35057,   43.7394E-09
C:/temp/dataset/4/7_25.odb,Step-1,Increment      1: Step Time =    1.000,"PART-1-1",           420,      -11.9375,       16.3352,            0.,NA,NA,"",       2.11185,       1.74577,       1.18835,   260.918E-09
C:/temp/dataset/4/7_25.odb,Step-1,Increment      1: Step Time =    1.000,"PART-1-1",           421,      -10.8584,       17.1847,            0.,NA,NA,"",       2.11642,       1.79169,       1.12653,   279.503E-09
C:/temp/dataset/4/7_25.odb,Step-1,Increment      1: Step Time =    1.000,"PART-1-1",           422,      -11.8099,       18.4796,            0.,NA,NA,"",       2.20644,       1.86577,       1.17783,   219.239E-09
C:/temp/dataset/4/7_25.odb,Step-1,Increment      1: Step Time =    1.000,"PART-1-1",           423,      -12.8889,       17.6301,            0.,NA,NA,"",       2.20195,       1.81985,       1.23965,   261.315E-09
C:/temp/dataset/4/7_25.odb,Step-1,Increment      1: Step Time =    1.000,"PART-1-1",           424,      -9.98079,       13.8692,            0.,NA,NA,"",       1.93552,       1.60447,       1.08255,   878.068E-09
C:/temp/dataset/4/7_25.odb,Step-1,Increment      1: Step Time =    1.000,"PART-1-1",           425,      -11.0142,       12.9724,            0.,NA,NA,"",       1.92989,       1.55582,       1.14189,   2.22928E-06
C:/temp/dataset/4/7_25.odb,Step-1,Increment      1: Step Time =    1.000,"PART-1-1",           426,      -10.0204,       11.7735,            0.,NA,NA,"",       1.84262,       1.48706,       1.08807,   3.74719E-06
C:/temp/dataset/4/7_25.odb,Step-1,Increment      1: Step Time =    1.000,"PART-1-1",           427,      -6.95613,       14.5250,            0.,NA,NA,"",       1.87343,       1.63647,   911.981E-03,   316.021E-09
C:/temp/dataset/4/7_25.odb,Step-1,Increment      1: Step Time =    1.000,"PART-1-1",           428,      -5.98929,       13.4097,            0.,NA,NA,"",       1.79203,       1.57244,   859.542E-03,   502.085E-09
C:/temp/dataset/4/7_25.odb,Step-1,Increment      1: Step Time =    1.000,"PART-1-1",           429,           -5.,        14.375,            0.,NA,NA,"",       1.81238,       1.62499,   802.572E-03,   1.03221E-06
C:/temp/dataset/4/7_25.odb,Step-1,Increment      1: Step Time =    1.000,"PART-1-1",           430,      -5.96684,       15.4903,            0.,NA,NA,"",       1.89311,       1.68902,   855.011E-03,   440.626E-09
C:/temp/dataset/4/7_25.odb,Step-1,Increment      1: Step Time =    1.000,"PART-1-1",           431,      -11.0581,       10.8707,            0.,NA,NA,"",       1.83989,       1.43808,       1.14766,   8.09829E-06
C:/temp/dataset/4/7_25.odb,Step-1,Increment      1: Step Time =    1.000,"PART-1-1",           432,      -10.0579,       9.67932,            0.,NA,NA,"",       1.75267,       1.36973,       1.09348,   13.1258E-06
C:/temp/dataset/4/7_25.odb,Step-1,Increment      1: Step Time =    1.000,"PART-1-1",           433,      -9.02030,       10.5821,            0.,NA,NA,"",       1.75547,       1.41871,       1.03389,   10.1636E-06
C:/temp/dataset/4/7_25.odb,Step-1,Increment      1: Step Time =    1.000,"PART-1-1",           434,      -7.04064,       8.20966,            0.,NA,NA,"",       1.58237,       1.28266,   926.648E-03,   40.9241E-06
C:/temp/dataset/4/7_25.odb,Step-1,Increment      1: Step Time =    1.000,"PART-1-1",           435,      -6.03068,       7.10065,            0.,NA,NA,"",       1.49859,       1.21895,   871.734E-03,   40.2889E-06
C:/temp/dataset/4/7_25.odb,Step-1,Increment      1: Step Time =    1.000,"PART-1-1",           436,           -5.,         8.125,            0.,NA,NA,"",       1.51157,       1.27470,   812.396E-03,   26.5304E-06
C:/temp/dataset/4/7_25.odb,Step-1,Increment      1: Step Time =    1.000,"PART-1-1",           437,      -6.00996,       9.23401,            0.,NA,NA,"",       1.59485,       1.33844,   867.261E-03,   9.32677E-06
C:/temp/dataset/4/7_25.odb,Step-1,Increment      1: Step Time =    1.000,"PART-1-1",           438,      -13.0926,       9.02789,            0.,NA,NA,"",       1.84101,       1.33796,       1.26459,   13.7170E-06
C:/temp/dataset/4/7_25.odb,Step-1,Increment      1: Step Time =    1.000,"PART-1-1",           439,      -14.0370,       10.1974,            0.,NA,NA,"",       1.92486,       1.40501,       1.31569,   4.24854E-06
C:/temp/dataset/4/7_25.odb,Step-1,Increment      1: Step Time =    1.000,"PART-1-1",           440,          -15.,       9.21875,            0.,NA,NA,"",       1.92541,       1.35166,       1.37121,   7.40968E-06
C:/temp/dataset/4/7_25.odb,Step-1,Increment      1: Step Time =    1.000,"PART-1-1",           441,      -13.9055,       1.56280,            0.,NA,NA,"",       1.61084,   920.861E-03,       1.32168,   64.1804E-06
C:/temp/dataset/4/7_25.odb,Step-1,Increment      1: Step Time =    1.000,"PART-1-1",           442,      -12.9296,       2.64306,            0.,NA,NA,"",       1.60040,   979.786E-03,       1.26542,   42.8154E-06
C:/temp/dataset/4/7_25.odb,Step-1,Increment      1: Step Time =    1.000,"PART-1-1",           443,      -14.0241,       3.73651,            0.,NA,NA,"",       1.68614,       1.04278,       1.32502,   52.4941E-06
C:/temp/dataset/4/7_25.odb,Step-1,Increment      1: Step Time =    1.000,"PART-1-1",           444,          -15.,       2.65625,            0.,NA,NA,"",       1.69585,   983.829E-03,       1.38129,   80.8672E-06
C:/temp/dataset/4/7_25.odb,Step-1,Increment      1: Step Time =    1.000,"PART-1-1",           445,      -13.7570,      -2.81804,            0.,NA,NA,"",       1.48297,   675.801E-03,       1.32003,   46.7559E-06
C:/temp/dataset/4/7_25.odb,Step-1,Increment      1: Step Time =    1.000,"PART-1-1",           446,      -13.7756,  -623.683E-03,            0.,NA,NA,"",       1.54072,   798.386E-03,       1.31772,   61.9898E-06
C:/temp/dataset/4/7_25.odb,Step-1,Increment      1: Step Time =    1.000,"PART-1-1",           447,          -15.,      -1.71875,            0.,NA,NA,"",       1.57238,   739.154E-03,       1.38781,   50.9370E-06
C:/temp/dataset/4/7_25.odb,Step-1,Increment      1: Step Time =    1.000,"PART-1-1",           448,        -13.75,           -5.,            0.,NA,NA,"",       1.43431,   553.915E-03,       1.32304,   13.9631E-06
C:/temp/dataset/4/7_25.odb,Step-1,Increment      1: Step Time =    1.000,"PART-1-1",           449,      -12.5070,      -3.91179,            0.,NA,NA,"",       1.39378,   612.787E-03,       1.25185,   50.8658E-06
C:/temp/dataset/4/7_25.odb,Step-1,Increment      1: Step Time =    1.000,"PART-1-1",           450,          -15.,      -3.90625,            0.,NA,NA,"",       1.52185,   616.972E-03,       1.39118,   10.2805E-06
C:/temp/dataset/4/7_25.odb,Step-1,Increment      1: Step Time =    1.000,"PART-1-1",           451,          -15.,    468.75E-03,            0.,NA,NA,"",       1.63064,   861.409E-03,       1.38454,   85.2398E-06
C:/temp/dataset/4/7_25.odb,Step-1,Increment      1: Step Time =    1.000,"PART-1-1",           452,      -5.10506,       2.56414,            0.,NA,NA,"",       1.26920,   963.011E-03,   826.727E-03,   448.145E-06
C:/temp/dataset/4/7_25.odb,Step-1,Increment      1: Step Time =    1.000,"PART-1-1",           453,      -4.59209,       3.94539,            0.,NA,NA,"",       1.30903,       1.03958,   795.501E-03,   358.925E-06
C:/temp/dataset/4/7_25.odb,Step-1,Increment      1: Step Time =    1.000,"PART-1-1",           454,      -6.09775,       4.77703,            0.,NA,NA,"",       1.39947,       1.08883,   879.180E-03,   80.0851E-06
C:/temp/dataset/4/7_25.odb,Step-1,Increment      1: Step Time =    1.000,"PART-1-1",           455,      -6.61072,       3.39578,            0.,NA,NA,"",       1.36119,       1.01206,   910.259E-03,   129.133E-06
C:/temp/dataset/4/7_25.odb,Step-1,Increment      1: Step Time =    1.000,"PART-1-1",           456,       9.44090,      -5.60228,            0.,NA,NA,"",   521.471E-03,   519.842E-03,   41.1847E-03,   1.86112E-03
C:/temp/dataset/4/7_25.odb,Step-1,Increment      1: Step Time =    1.000,"PART-1-1",           457,       9.79564,      -4.46986,            0.,NA,NA,"",   571.223E-03,   570.654E-03,   25.4957E-03,   2.63188E-03
C:/temp/dataset/4/7_25.odb,Step-1,Increment      1: Step Time =    1.000,"PART-1-1",           458,       8.43936,      -4.09444,            0.,NA,NA,"",   594.602E-03,   588.665E-03,   83.8144E-03,   3.14328E-03
C:/temp/dataset/4/7_25.odb,Step-1,Increment      1: Step Time =    1.000,"PART-1-1",           459,       8.08462,      -5.22686,            0.,NA,NA,"",   545.841E-03,   536.909E-03,   98.3405E-03,   2.97436E-03
C:/temp/dataset/4/7_25.odb,Step-1,Increment      1: Step Time =    1.000,"PART-1-1",           460,       6.93926,      -9.88629,            0.,NA,NA,"",   380.606E-03,   359.291E-03,   125.583E-03,   7.16213E-03
C:/temp/dataset/4/7_25.odb,Step-1,Increment      1: Step Time =    1.000,"PART-1-1",           461,       5.93813,      -8.99303,            0.,NA,NA,"",   428.978E-03,   395.269E-03,   166.687E-03,   9.03614E-03
C:/temp/dataset/4/7_25.odb,Step-1,Increment      1: Step Time =    1.000,"PART-1-1",           462,            5.,      -10.2083,            0.,NA,NA,"",   404.159E-03,   356.890E-03,   189.669E-03,   10.5697E-03
C:/temp/dataset/4/7_25.odb,Step-1,Increment      1: Step Time =    1.000,"PART-1-1",           463,       12.9852,      -11.3613,            0.,NA,NA,"",   312.947E-03,   302.881E-03,  -78.7339E-03,   4.39160E-03
C:/temp/dataset/4/7_25.odb,Step-1,Increment      1: Step Time =    1.000,"PART-1-1",           464,       14.0059,      -12.5461,            0.,NA,NA,"",   287.348E-03,   267.605E-03,  -104.672E-03,   6.40549E-03
C:/temp/dataset/4/7_25.odb,Step-1,Increment      1: Step Time =    1.000,"PART-1-1",           465,           15.,        -11.25,            0.,NA,NA,"",   343.537E-03,   311.203E-03,  -145.502E-03,   8.33687E-03
C:/temp/dataset/4/7_25.odb,Step-1,Increment      1: Step Time =    1.000,"PART-1-1",           466,       13.9793,      -10.0652,            0.,NA,NA,"",   368.193E-03,   348.334E-03,  -119.287E-03,   6.32382E-03
C:/temp/dataset/4/7_25.odb,Step-1,Increment      1: Step Time =    1.000,"PART-1-1",           467,       7.08713,      -16.3801,            0.,NA,NA,"",   186.456E-03,   166.845E-03,   83.2393E-03,   6.90472E-03
C:/temp/dataset/4/7_25.odb,Step-1,Increment      1: Step Time =    1.000,"PART-1-1",           468,            5.,      -16.4583,            0.,NA,NA,"",   218.288E-03,   173.865E-03,   131.986E-03,   10.8779E-03
C:/temp/dataset/4/7_25.odb,Step-1,Increment      1: Step Time =    1.000,"PART-1-1",           469,       13.0372,      -13.8111,            0.,NA,NA,"",   238.890E-03,   228.599E-03,  -69.3602E-03,   4.52546E-03
C:/temp/dataset/4/7_25.odb,Step-1,Increment      1: Step Time =    1.000,"PART-1-1",           470,       14.0313,      -15.0151,            0.,NA,NA,"",   217.540E-03,   197.995E-03,  -90.1220E-03,   6.47137E-03
C:/temp/dataset/4/7_25.odb,Step-1,Increment      1: Step Time =    1.000,"PART-1-1",           471,           15.,        -13.75,            0.,NA,NA,"",   266.638E-03,   235.217E-03,  -125.574E-03,   8.34924E-03
C:/temp/dataset/4/7_25.odb,Step-1,Increment      1: Step Time =    1.000,"PART-1-1",           472,       13.0981,      -18.6529,            0.,NA,NA,"",   122.641E-03,   112.286E-03,  -49.3213E-03,   4.71667E-03
C:/temp/dataset/4/7_25.odb,Step-1,Increment      1: Step Time =    1.000,"PART-1-1",           473,       14.0553,      -19.9280,            0.,NA,NA,"",   109.029E-03,   90.6318E-03,  -60.6078E-03,   6.60732E-03
C:/temp/dataset/4/7_25.odb,Step-1,Increment      1: Step Time =    1.000,"PART-1-1",           474,           15.,        -18.75,            0.,NA,NA,"",   144.399E-03,   115.614E-03,  -86.5134E-03,   8.41953E-03
C:/temp/dataset/4/7_25.odb,Step-1,Increment      1: Step Time =    1.000,"PART-1-1",           475,       14.0427,      -17.4749,            0.,NA,NA,"",   158.139E-03,   139.050E-03,  -75.3207E-03,   6.52972E-03
C:/temp/dataset/4/7_25.odb,Step-1,Increment      1: Step Time =    1.000,"PART-1-1",           476,       6.17422,      -27.9405,            0.,NA,NA,"",   16.9839E-03,   7.91588E-03,   15.0263E-03,   8.98348E-03
C:/temp/dataset/4/7_25.odb,Step-1,Increment      1: Step Time =    1.000,"PART-1-1",           477,            5.,      -28.9583,            0.,NA,NA,"",   13.0847E-03,   8.23557E-03,   10.1679E-03,   11.2077E-03
C:/temp/dataset/4/7_25.odb,Step-1,Increment      1: Step Time =    1.000,"PART-1-1",           478,          6.25,          -30.,            0.,NA,NA,"",            0.,  -454.049E-42,   13.2188E-39,   8.16403E-03
C:/temp/dataset/4/7_25.odb,Step-1,Increment      1: Step Time =    1.000,"PART-1-1",           479,       9.46325,      -26.8820,            0.,NA,NA,"",   8.09439E-03,   5.69740E-03,   5.74967E-03,   2.42474E-03
C:/temp/dataset/4/7_25.odb,Step-1,Increment      1: Step Time =    1.000,"PART-1-1",           480,       8.20536,      -25.9154,            0.,NA,NA,"",   21.6507E-03,   13.9463E-03,   16.5606E-03,   5.00918E-03
C:/temp/dataset/4/7_25.odb,Step-1,Increment      1: Step Time =    1.000,"PART-1-1",           481,       7.26622,      -26.9429,            0.,NA,NA,"",   19.5214E-03,   9.66072E-03,   16.9633E-03,   6.79991E-03
C:/temp/dataset/4/7_25.odb,Step-1,Increment      1: Step Time =    1.000,"PART-1-1",           482,       13.6319,      -27.3465,            0.,NA,NA,"",   14.9022E-03,   6.70438E-03,  -13.3090E-03,   6.14540E-03
C:/temp/dataset/4/7_25.odb,Step-1,Increment      1: Step Time =    1.000,"PART-1-1",           483,       12.3819,      -28.5965,            0.,NA,NA,"",   3.63988E-03,  -54.3655E-06,  -3.63948E-03,   3.26172E-03
C:/temp/dataset/4/7_25.odb,Step-1,Increment      1: Step Time =    1.000,"PART-1-1",           484,         13.75,          -30.,            0.,NA,NA,"",            0.,  -1.00902E-39,  -9.04444E-39,   5.55276E-03
C:/temp/dataset/4/7_25.odb,Step-1,Increment      1: Step Time =    1.000,"PART-1-1",           485,           15.,        -28.75,            0.,NA,NA,"",   10.9185E-03,   6.22498E-03,  -8.97019E-03,   8.35768E-03
C:/temp/dataset/4/7_25.odb,Step-1,Increment      1: Step Time =    1.000,"PART-1-1",           486,         11.25,          -30.,            0.,NA,NA,"",            0.,  -1.84245E-39,  -1.97890E-39,   1.79523E-03
C:/temp/dataset/4/7_25.odb,Step-1,Increment      1: Step Time =    1.000,"PART-1-1",           487,       10.9817,      -27.5238,            0.,NA,NA,"",   2.59336E-03,   2.13938E-03,  -1.46580E-03,   945.348E-06
C:/temp/dataset/4/7_25.odb,Step-1,Increment      1: Step Time =    1.000,"PART-1-1",           488,       10.1507,      -19.6985,            0.,NA,NA,"",   90.9392E-03,   90.5569E-03,   8.33029E-03,   1.03509E-03
C:/temp/dataset/4/7_25.odb,Step-1,Increment      1: Step Time =    1.000,"PART-1-1",           489,       9.14094,      -20.7396,            0.,NA,NA,"",   77.4104E-03,   73.6598E-03,   23.8033E-03,   3.00912E-03
C:/temp/dataset/4/7_25.odb,Step-1,Increment      1: Step Time =    1.000,"PART-1-1",           490,       11.1621,      -20.8614,            0.,NA,NA,"",   70.9449E-03,   70.4129E-03,  -8.67180E-03,   963.267E-06
C:/temp/dataset/4/7_25.odb,Step-1,Increment      1: Step Time =    1.000,"PART-1-1",           491,       7.09922,      -20.6753,            0.,NA,NA,"",   98.0036E-03,   79.6098E-03,   57.1576E-03,   6.95537E-03
C:/temp/dataset/4/7_25.odb,Step-1,Increment      1: Step Time =    1.000,"PART-1-1",           492,            5.,       -20.625,            0.,NA,NA,"",   128.032E-03,   89.1667E-03,   91.8776E-03,   10.9926E-03
C:/temp/dataset/4/7_25.odb,Step-1,Increment      1: Step Time =    1.000,"PART-1-1",           493,       9.08758,      -14.0519,            0.,NA,NA,"",   226.065E-03,   222.218E-03,   41.5287E-03,   3.08697E-03
C:/temp/dataset/4/7_25.odb,Step-1,Increment      1: Step Time =    1.000,"PART-1-1",           494,       10.1099,      -15.1447,            0.,NA,NA,"",   191.739E-03,   191.332E-03,   12.4833E-03,   1.12647E-03
C:/temp/dataset/4/7_25.odb,Step-1,Increment      1: Step Time =    1.000,"PART-1-1",           495,       11.0794,      -13.9187,            0.,NA,NA,"",   224.501E-03,   224.072E-03,  -13.8774E-03,   742.618E-06
C:/temp/dataset/4/7_25.odb,Step-1,Increment      1: Step Time =    1.000,"PART-1-1",           496,       10.0571,      -12.8260,            0.,NA,NA,"",   256.879E-03,   256.411E-03,   15.4880E-03,   1.23204E-03
C:/temp/dataset/4/7_25.odb,Step-1,Increment      1: Step Time =    1.000,"PART-1-1",           497,       9.02765,      -11.7712,            0.,NA,NA,"",   294.604E-03,   290.552E-03,   48.6910E-03,   3.15783E-03
C:/temp/dataset/4/7_25.odb,Step-1,Increment      1: Step Time =    1.000,"PART-1-1",           498,       11.0123,      -11.5393,            0.,NA,NA,"",   296.235E-03,   295.885E-03,  -14.3923E-03,   645.434E-06
C:/temp/dataset/4/7_25.odb,Step-1,Increment      1: Step Time =    1.000,"PART-1-1",           499,       9.98284,      -10.4845,            0.,NA,NA,"",   332.073E-03,   331.512E-03,   19.3012E-03,   1.30353E-03
C:/temp/dataset/4/7_25.odb,Step-1,Increment      1: Step Time =    1.000,"PART-1-1",           500,       12.6190,       1.44886,            0.,NA,NA,"",   869.104E-03,   861.823E-03,  -112.262E-03,   2.33266E-03
C:/temp/dataset/4/7_25.odb,Step-1,Increment      1: Step Time =    1.000,"PART-1-1",           501,       13.8500,   84.2405E-03,            0.,NA,NA,"",   809.609E-03,   792.053E-03,  -167.690E-03,   2.57340E-03
C:/temp/dataset/4/7_25.odb,Step-1,Increment      1: Step Time =    1.000,"PART-1-1",           502,           15.,          1.25,            0.,NA,NA,"",   880.448E-03,   850.375E-03,  -228.150E-03,   2.10903E-03
C:/temp/dataset/4/7_25.odb,Step-1,Increment      1: Step Time =    1.000,"PART-1-1",           503,       10.0180,      -2.29938,            0.,NA,NA,"",   674.911E-03,   674.773E-03,   13.6229E-03,   3.42322E-03
C:/temp/dataset/4/7_25.odb,Step-1,Increment      1: Step Time =    1.000,"PART-1-1",           504,       9.13986,      -3.07696,            0.,NA,NA,"",   639.387E-03,   637.184E-03,   53.0264E-03,   3.30595E-03
C:/temp/dataset/4/7_25.odb,Step-1,Increment      1: Step Time =    1.000,"PART-1-1",           505,       10.6738,      -3.69229,            0.,NA,NA,"",   606.978E-03,   606.836E-03,  -13.1383E-03,   2.91409E-03
C:/temp/dataset/4/7_25.odb,Step-1,Increment      1: Step Time =    1.000,"PART-1-1",           506,       12.7589,       6.54544,            0.,NA,NA,"",       1.12626,       1.11908,  -126.975E-03,   430.943E-06
C:/temp/dataset/4/7_25.odb,Step-1,Increment      1: Step Time =    1.000,"PART-1-1",           507,           15.,          6.25,            0.,NA,NA,"",       1.12689,       1.10154,  -237.660E-03,   36.3135E-06
C:/temp/dataset/4/7_25.odb,Step-1,Increment      1: Step Time =    1.000,"PART-1-1",           508,       13.9203,       7.65480,            0.,NA,NA,"",       1.18739,       1.17278,  -185.741E-03,   91.7442E-06
C:/temp/dataset/4/7_25.odb,Step-1,Increment      1: Step Time =    1.000,"PART-1-1",           509,       13.0275,       16.3263,            0.,NA,NA,"",       1.60828,       1.60108,  -152.059E-03,   15.4830E-06
C:/temp/dataset/4/7_25.odb,Step-1,Increment      1: Step Time =    1.000,"PART-1-1",           510,       14.0150,       15.0581,            0.,NA,NA,"",       1.55035,       1.53751,  -199.121E-03,   17.3246E-06
C:/temp/dataset/4/7_25.odb,Step-1,Increment      1: Step Time =    1.000,"PART-1-1",           511,           15.,         16.25,            0.,NA,NA,"",       1.61425,       1.59493,  -248.998E-03,   11.7673E-06
C:/temp/dataset/4/7_25.odb,Step-1,Increment      1: Step Time =    1.000,"PART-1-1",           512,       14.0124,       17.5182,            0.,NA,NA,"",       1.67075,       1.65850,  -201.951E-03,   4.85193E-06
C:/temp/dataset/4/7_25.odb,Step-1,Increment      1: Step Time =    1.000,"PART-1-1",           513,       13.0175,       18.7421,            0.,NA,NA,"",       1.72682,       1.71990,  -154.491E-03,   4.93190E-06
C:/temp/dataset/4/7_25.odb,Step-1,Increment      1: Step Time =    1.000,"PART-1-1",           514,           15.,         18.75,            0.,NA,NA,"",       1.73627,       1.71789,  -252.013E-03,   1.93035E-06
C:/temp/dataset/4/7_25.odb,Step-1,Increment      1: Step Time =    1.000,"PART-1-1",           515,       14.0051,       19.9738,            0.,NA,NA,"",       1.79100,       1.77928,  -204.558E-03,   876.670E-09
C:/temp/dataset/4/7_25.odb,Step-1,Increment      1: Step Time =    1.000,"PART-1-1",           516,       5.97628,       21.7197,            0.,NA,NA,"",       1.88430,       1.87487,   188.245E-03,   272.076E-09
C:/temp/dataset/4/7_25.odb,Step-1,Increment      1: Step Time =    1.000,"PART-1-1",           517,       6.92463,       22.7965,            0.,NA,NA,"",       1.93179,       1.92669,   140.294E-03,   154.613E-09
C:/temp/dataset/4/7_25.odb,Step-1,Increment      1: Step Time =    1.000,"PART-1-1",           518,       5.94835,       23.7852,            0.,NA,NA,"",       1.98534,       1.97650,   187.119E-03,   251.191E-09
C:/temp/dataset/4/7_25.odb,Step-1,Increment      1: Step Time =    1.000,"PART-1-1",           519,            5.,       22.7083,            0.,NA,NA,"",       1.93898,       1.92468,   235.070E-03,   488.557E-09
C:/temp/dataset/4/7_25.odb,Step-1,Increment      1: Step Time =    1.000,"PART-1-1",           520,       13.8862,       24.9278,            0.,NA,NA,"",       2.03343,       2.02310,  -204.706E-03,   192.276E-09
C:/temp/dataset/4/7_25.odb,Step-1,Increment      1: Step Time =    1.000,"PART-1-1",           521,           15.,         26.25,            0.,NA,NA,"",       2.10305,       2.08678,  -261.093E-03,   184.191E-09
C:/temp/dataset/4/7_25.odb,Step-1,Increment      1: Step Time =    1.000,"PART-1-1",           522,       6.15342,       27.8650,            0.,NA,NA,"",       2.18372,       2.17693,   172.093E-03,   78.6167E-09
C:/temp/dataset/4/7_25.odb,Step-1,Increment      1: Step Time =    1.000,"PART-1-1",           523,       7.40342,       28.9067,            0.,NA,NA,"",       2.22934,       2.22665,   109.347E-03,   86.6070E-09
C:/temp/dataset/4/7_25.odb,Step-1,Increment      1: Step Time =    1.000,"PART-1-1",           524,          6.25,           30.,            0.,NA,NA,"",       2.28777,       2.28183,   164.758E-03,   22.7339E-09
C:/temp/dataset/4/7_25.odb,Step-1,Increment      1: Step Time =    1.000,"PART-1-1",           525,            5.,       28.9583,            0.,NA,NA,"",       2.24367,       2.23210,   227.504E-03,   21.8289E-09
C:/temp/dataset/4/7_25.odb,Step-1,Increment      1: Step Time =    1.000,"PART-1-1",           526,       7.11917,       26.8292,            0.,NA,NA,"",       2.12853,       2.12481,   125.844E-03,   152.470E-09
C:/temp/dataset/4/7_25.odb,Step-1,Increment      1: Step Time =    1.000,"PART-1-1",           527,            5.,        26.875,            0.,NA,NA,"",       2.14202,       2.12963,   230.025E-03,   131.580E-09
C:/temp/dataset/4/7_25.odb,Step-1,Increment      1: Step Time =    1.000,"PART-1-1",           528,       5.96574,       25.8392,            0.,NA,NA,"",       2.08562,       2.07751,   183.777E-03,   156.746E-09
C:/temp/dataset/4/7_25.odb,Step-1,Increment      1: Step Time =    1.000,"PART-1-1",           529,       8.59546,       27.4701,            0.,NA,NA,"",       2.15519,       2.15455,   52.4527E-03,   103.255E-09
C:/temp/dataset/4/7_25.odb,Step-1,Increment      1: Step Time =    1.000,"PART-1-1",           530,       9.94204,       28.5635,            0.,NA,NA,"",       2.20675,       2.20670,  -15.1055E-03,   106.374E-09
C:/temp/dataset/4/7_25.odb,Step-1,Increment      1: Step Time =    1.000,"PART-1-1",           531,          8.75,           30.,            0.,NA,NA,"",       2.27918,       2.27880,   41.7891E-03,   99.9147E-09
C:/temp/dataset/4/7_25.odb,Step-1,Increment      1: Step Time =    1.000,"PART-1-1",           532,            5.,       24.7917,            0.,NA,NA,"",       2.04045,       2.02715,   232.548E-03,   321.975E-09
C:/temp/dataset/4/7_25.odb,Step-1,Increment      1: Step Time =    1.000,"PART-1-1",           533,       6.91409,       24.8327,            0.,NA,NA,"",       2.03157,       2.02685,   138.348E-03,   161.667E-09
C:/temp/dataset/4/7_25.odb,Step-1,Increment      1: Step Time =    1.000,"PART-1-1",           534,            5.,        20.625,            0.,NA,NA,"",       1.83763,       1.82220,   237.593E-03,   189.727E-09
C:/temp/dataset/4/7_25.odb,Step-1,Increment      1: Step Time =    1.000,"PART-1-1",           535,       5.99534,       19.6263,            0.,NA,NA,"",       1.78201,       1.77187,   189.842E-03,   1.19999E-06
C:/temp/dataset/4/7_25.odb,Step-1,Increment      1: Step Time =    1.000,"PART-1-1",           536,       6.97162,       20.7210,            0.,NA,NA,"",       1.82994,       1.82454,   140.495E-03,   1.40989E-06
C:/temp/dataset/4/7_25.odb,Step-1,Increment      1: Step Time =    1.000,"PART-1-1",           537,       9.90537,       10.7177,            0.,NA,NA,"",       1.32901,       1.32898,   8.51259E-03,   63.0220E-06
C:/temp/dataset/4/7_25.odb,Step-1,Increment      1: Step Time =    1.000,"PART-1-1",           538,       8.83179,       9.75083,            0.,NA,NA,"",       1.28428,       1.28276,   62.5080E-03,   74.6502E-06
C:/temp/dataset/4/7_25.odb,Step-1,Increment      1: Step Time =    1.000,"PART-1-1",           539,       10.8380,       9.37550,            0.,NA,NA,"",       1.26228,       1.26178,  -35.7295E-03,   94.0959E-06
C:/temp/dataset/4/7_25.odb,Step-1,Increment      1: Step Time =    1.000,"PART-1-1",           540,       5.96737,       11.1773,            0.,NA,NA,"",       1.37115,       1.35629,   201.311E-03,   71.9397E-06
C:/temp/dataset/4/7_25.odb,Step-1,Increment      1: Step Time =    1.000,"PART-1-1",           541,       6.95908,       12.1740,            0.,NA,NA,"",       1.41223,       1.40409,   151.453E-03,   57.5684E-06
C:/temp/dataset/4/7_25.odb,Step-1,Increment      1: Step Time =    1.000,"PART-1-1",           542,            5.,       12.2917,            0.,NA,NA,"",       1.43380,       1.41227,   247.544E-03,   81.0638E-06
C:/temp/dataset/4/7_25.odb,Step-1,Increment      1: Step Time =    1.000,"PART-1-1",           543,       6.89189,       10.0466,            0.,NA,NA,"",       1.30912,       1.29964,   157.326E-03,   66.1662E-06
C:/temp/dataset/4/7_25.odb,Step-1,Increment      1: Step Time =    1.000,"PART-1-1",           544,            5.,       10.2083,            0.,NA,NA,"",       1.33354,       1.30993,   249.844E-03,   190.352E-06
C:/temp/dataset/4/7_25.odb,Step-1,Increment      1: Step Time =    1.000,"PART-1-1",           545,  -883.251E-03,       2.97832,            0.,NA,NA,"",       1.13929,   977.898E-03,   584.558E-03,   1.88815E-03
C:/temp/dataset/4/7_25.odb,Step-1,Increment      1: Step Time =    1.000,"PART-1-1",           546,         -1.25,            5.,            0.,NA,NA,"",       1.24774,       1.09218,   603.321E-03,   1.32683E-03
C:/temp/dataset/4/7_25.odb,Step-1,Increment      1: Step Time =    1.000,"PART-1-1",           547,      -2.28350,       3.97568,            0.,NA,NA,"",       1.23099,       1.03674,   663.701E-03,   927.260E-06
C:/temp/dataset/4/7_25.odb,Step-1,Increment      1: Step Time =    1.000,"PART-1-1",           548,      -3.12559,       2.92107,            0.,NA,NA,"",       1.21180,   979.508E-03,   713.453E-03,   1.07431E-03
C:/temp/dataset/4/7_25.odb,Step-1,Increment      1: Step Time =    1.000,"PART-1-1",           549,         -3.75,            5.,            0.,NA,NA,"",       1.32719,       1.09770,   745.988E-03,   257.836E-06
C:/temp/dataset/4/7_25.odb,Step-1,Increment      1: Step Time =    1.000,"PART-1-1",           550,      -7.01026,       10.3490,            0.,NA,NA,"",       1.67818,       1.40250,   921.579E-03,   8.30867E-06
C:/temp/dataset/4/7_25.odb,Step-1,Increment      1: Step Time =    1.000,"PART-1-1",           551,           -5.,       10.2083,            0.,NA,NA,"",       1.60960,       1.39145,   809.122E-03,   5.45575E-06
C:/temp/dataset/4/7_25.odb,Step-1,Increment      1: Step Time =    1.000,"PART-1-1",           552,      -6.00030,       11.3233,            0.,NA,NA,"",       1.69235,       1.45552,   863.438E-03,   2.18967E-06
C:/temp/dataset/4/7_25.odb,Step-1,Increment      1: Step Time =    1.000,"PART-1-1",           553,      -6.90277,       16.5792,            0.,NA,NA,"",       1.97187,       1.75153,   905.760E-03,   281.243E-09
C:/temp/dataset/4/7_25.odb,Step-1,Increment      1: Step Time =    1.000,"PART-1-1",           554,           -5.,       16.4583,            0.,NA,NA,"",       1.91641,       1.74177,   799.295E-03,   592.694E-09
C:/temp/dataset/4/7_25.odb,Step-1,Increment      1: Step Time =    1.000,"PART-1-1",           555,      -5.93592,       17.5473,            0.,NA,NA,"",       1.99449,       1.80428,   850.044E-03,   293.402E-09
C:/temp/dataset/4/7_25.odb,Step-1,Increment      1: Step Time =    1.000,"PART-1-1",           556,      -5.96041,       23.6583,            0.,NA,NA,"",       2.30600,       2.14686,   841.808E-03,   17.1056E-09
C:/temp/dataset/4/7_25.odb,Step-1,Increment      1: Step Time =    1.000,"PART-1-1",           557,           -5.,       24.7917,            0.,NA,NA,"",       2.34462,       2.20888,   786.192E-03,   5.46739E-09
C:/temp/dataset/4/7_25.odb,Step-1,Increment      1: Step Time =    1.000,"PART-1-1",           558,      -7.48847,       28.8776,            0.,NA,NA,"",       2.60912,       2.44182,   919.255E-03,   354.062E-12
C:/temp/dataset/4/7_25.odb,Step-1,Increment      1: Step Time =    1.000,"PART-1-1",           559,           -5.,       28.9583,            0.,NA,NA,"",       2.56385,       2.44243,   779.641E-03,   628.564E-12
C:/temp/dataset/4/7_25.odb,Step-1,Increment      1: Step Time =    1.000,"PART-1-1",           560,         -6.25,           30.,            0.,NA,NA,"",       2.64257,       2.50279,   848.070E-03,   764.041E-12
C:/temp/dataset/4/7_25.odb,Step-1,Increment      1: Step Time =    1.000,"PART-1-1",           561,       12.9634,       11.4929,            0.,NA,NA,"",       1.37091,       1.36343,  -143.071E-03,   48.2137E-06
C:/temp/dataset/4/7_25.odb,Step-1,Increment      1: Step Time =    1.000,"PART-1-1",           562,       13.9657,       10.1417,            0.,NA,NA,"",       1.30964,       1.29565,  -190.895E-03,   78.3959E-06
C:/temp/dataset/4/7_25.odb,Step-1,Increment      1: Step Time =    1.000,"PART-1-1",           563,           15.,         11.25,            0.,NA,NA,"",       1.37069,       1.34895,  -243.140E-03,   97.5953E-06
C:/temp/dataset/4/7_25.odb,Step-1,Increment      1: Step Time =    1.000,"PART-1-1",           564,       13.9978,       12.6011,            0.,NA,NA,"",       1.43010,       1.41669,  -195.348E-03,   44.6742E-06
C:/temp/dataset/4/7_25.odb,Step-1,Increment      1: Step Time =    1.000,"PART-1-1",           565,       9.13480,      -18.5479,            0.,NA,NA,"",   117.529E-03,   113.780E-03,   29.4499E-03,   3.00025E-03
C:/temp/dataset/4/7_25.odb,Step-1,Increment      1: Step Time =    1.000,"PART-1-1",           566,       11.1537,      -18.5886,            0.,NA,NA,"",   112.064E-03,   111.542E-03,  -10.8055E-03,   929.162E-06
C:/temp/dataset/4/7_25.odb,Step-1,Increment      1: Step Time =    1.000,"PART-1-1",           567,       10.1377,      -17.4381,            0.,NA,NA,"",   136.475E-03,   136.090E-03,   10.2428E-03,   1.05970E-03
C:/temp/dataset/4/7_25.odb,Step-1,Increment      1: Step Time =    1.000,"PART-1-1",           568,      -8.81573,       27.5627,            0.,NA,NA,"",       2.57086,       2.37020,   995.720E-03,   2.75182E-09
C:/temp/dataset/4/7_25.odb,Step-1,Increment      1: Step Time =    1.000,"PART-1-1",           569,         -8.75,           30.,            0.,NA,NA,"",       2.69447,       2.50672,   988.203E-03,   1.79077E-09
C:/temp/dataset/4/7_25.odb,Step-1,Increment      1: Step Time =    1.000,"PART-1-1",           570,            5.,      -24.7917,            0.,NA,NA,"",   61.8382E-03,   34.9919E-03,   50.9856E-03,   10.9281E-03
C:/temp/dataset/4/7_25.odb,Step-1,Increment      1: Step Time =    1.000,"PART-1-1",           571,       6.09200,      -25.8775,            0.,NA,NA,"",   38.4840E-03,   21.0250E-03,   32.2331E-03,   8.97687E-03
C:/temp/dataset/4/7_25.odb,Step-1,Increment      1: Step Time =    1.000,"PART-1-1",           572,       7.15121,      -24.8757,            0.,NA,NA,"",   39.7885E-03,   25.4619E-03,   30.5748E-03,   7.03343E-03
C:/temp/dataset/4/7_25.odb,Step-1,Increment      1: Step Time =    1.000,"PART-1-1",           573,       13.1040,      -21.0477,            0.,NA,NA,"",   79.7515E-03,   69.6536E-03,  -38.8417E-03,   4.77093E-03
C:/temp/dataset/4/7_25.odb,Step-1,Increment      1: Step Time =    1.000,"PART-1-1",           574,       14.0487,      -22.3697,            0.,NA,NA,"",   69.7373E-03,   52.7256E-03,  -45.6432E-03,   6.67672E-03
C:/temp/dataset/4/7_25.odb,Step-1,Increment      1: Step Time =    1.000,"PART-1-1",           575,           15.,        -21.25,            0.,NA,NA,"",   98.4032E-03,   71.9469E-03,  -67.1330E-03,   8.51074E-03
C:/temp/dataset/4/7_25.odb,Step-1,Increment      1: Step Time =    1.000,"PART-1-1",           576,            5.,       -26.875,            0.,NA,NA,"",   36.3768E-03,   19.1867E-03,   30.9054E-03,   10.9581E-03
C:/temp/dataset/4/7_25.odb,Step-1,Increment      1: Step Time =    1.000,"PART-1-1",           577,       12.8133,      -6.31290,            0.,NA,NA,"",   499.668E-03,   490.575E-03,  -94.8947E-03,   3.96689E-03
C:/temp/dataset/4/7_25.odb,Step-1,Increment      1: Step Time =    1.000,"PART-1-1",           578,       13.9319,      -7.55671,            0.,NA,NA,"",   461.084E-03,   441.446E-03,  -133.130E-03,   6.03705E-03
C:/temp/dataset/4/7_25.odb,Step-1,Increment      1: Step Time =    1.000,"PART-1-1",           579,           15.,         -6.25,            0.,NA,NA,"",   530.591E-03,   497.045E-03,  -185.671E-03,   7.52448E-03
C:/temp/dataset/4/7_25.odb,Step-1,Increment      1: Step Time =    1.000,"PART-1-1",           580,            5.,       18.5417,            0.,NA,NA,"",       1.73640,       1.71972,   240.115E-03,   2.29886E-06
C:/temp/dataset/4/7_25.odb,Step-1,Increment      1: Step Time =    1.000,"PART-1-1",           581,       6.00122,       17.5195,            0.,NA,NA,"",       1.67925,       1.66822,   192.100E-03,   5.12808E-06
C:/temp/dataset/4/7_25.odb,Step-1,Increment      1: Step Time =    1.000,"PART-1-1",           582,       6.99656,       18.6041,            0.,NA,NA,"",       1.72621,       1.72038,   141.831E-03,   5.33130E-06
C:/temp/dataset/4/7_25.odb,Step-1,Increment      1: Step Time =    1.000,"PART-1-1",           583,       12.8545,       23.6160,            0.,NA,NA,"",       1.96573,       1.95982,  -152.372E-03,   95.5433E-09
C:/temp/dataset/4/7_25.odb,Step-1,Increment      1: Step Time =    1.000,"PART-1-1",           584,       13.9683,       22.4382,            0.,NA,NA,"",       1.91164,       1.90054,  -205.733E-03,   264.122E-09
C:/temp/dataset/4/7_25.odb,Step-1,Increment      1: Step Time =    1.000,"PART-1-1",           585,           15.,         23.75,            0.,NA,NA,"",       1.98070,       1.96381,  -258.066E-03,   413.589E-09
C:/temp/dataset/4/7_25.odb,Step-1,Increment      1: Step Time =    1.000,"PART-1-1",           586,            5.,       16.4583,            0.,NA,NA,"",       1.63533,       1.61723,   242.630E-03,   10.3823E-06
C:/temp/dataset/4/7_25.odb,Step-1,Increment      1: Step Time =    1.000,"PART-1-1",           587,       7.00480,       16.4638,            0.,NA,NA,"",       1.62148,       1.61507,   144.017E-03,   15.1973E-06
C:/temp/dataset/4/7_25.odb,Step-1,Increment      1: Step Time =    1.000,"PART-1-1",           588,       12.9734,       21.1620,            0.,NA,NA,"",       1.84551,       1.83897,  -155.251E-03,   1.03812E-06
C:/temp/dataset/4/7_25.odb,Step-1,Increment      1: Step Time =    1.000,"PART-1-1",           589,           15.,         21.25,            0.,NA,NA,"",       1.85843,       1.84085,  -255.039E-03,   327.941E-09
C:/temp/dataset/4/7_25.odb,Step-1,Increment      1: Step Time =    1.000,"PART-1-1",           590,            5.,       6.04167,            0.,NA,NA,"",       1.13663,       1.10790,   253.932E-03,   1.57621E-03
C:/temp/dataset/4/7_25.odb,Step-1,Increment      1: Step Time =    1.000,"PART-1-1",           591,       5.70418,       5.21013,            0.,NA,NA,"",       1.09152,       1.06893,   220.891E-03,   3.25340E-03
C:/temp/dataset/4/7_25.odb,Step-1,Increment      1: Step Time =    1.000,"PART-1-1",           592,       6.54256,       6.20387,            0.,NA,NA,"",       1.12780,       1.11352,   178.927E-03,   1.28307E-03
C:/temp/dataset/4/7_25.odb,Step-1,Increment      1: Step Time =    1.000,"PART-1-1",           593,       7.80464,       8.81181,            0.,NA,NA,"",       1.24323,       1.23799,   114.078E-03,   110.241E-06
C:/temp/dataset/4/7_25.odb,Step-1,Increment      1: Step Time =    1.000,"PART-1-1",           594,       7.55468,       6.70991,            0.,NA,NA,"",       1.14312,       1.13586,   128.636E-03,   765.566E-06
C:/temp/dataset/4/7_25.odb,Step-1,Increment      1: Step Time =    1.000,"PART-1-1",           595,           -5.,       12.2917,            0.,NA,NA,"",       1.71000,       1.50822,   805.850E-03,   1.02034E-06
C:/temp/dataset/4/7_25.odb,Step-1,Increment      1: Step Time =    1.000,"PART-1-1",           596,      -13.0551,       11.1433,            0.,NA,NA,"",       1.92532,       1.45649,       1.25917,   4.90263E-06
C:/temp/dataset/4/7_25.odb,Step-1,Increment      1: Step Time =    1.000,"PART-1-1",           597,          -15.,       11.4063,            0.,NA,NA,"",       2.01106,       1.47429,       1.36778,   767.463E-09
C:/temp/dataset/4/7_25.odb,Step-1,Increment      1: Step Time =    1.000,"PART-1-1",           598,           -5.,       18.5417,            0.,NA,NA,"",       2.02184,       1.85854,   796.019E-03,   291.721E-09
C:/temp/dataset/4/7_25.odb,Step-1,Increment      1: Step Time =    1.000,"PART-1-1",           599,      -6.83195,       18.5917,            0.,NA,NA,"",       2.06951,       1.86423,   898.627E-03,   227.001E-09
C:/temp/dataset/4/7_25.odb,Step-1,Increment      1: Step Time =    1.000,"PART-1-1",           600,      -12.9744,       15.4368,            0.,NA,NA,"",       2.10646,       1.69704,       1.24790,   164.811E-09
C:/temp/dataset/4/7_25.odb,Step-1,Increment      1: Step Time =    1.000,"PART-1-1",           601,      -13.9736,       16.6988,            0.,NA,NA,"",       2.19673,       1.76936,       1.30192,   335.052E-09
C:/temp/dataset/4/7_25.odb,Step-1,Increment      1: Step Time =    1.000,"PART-1-1",           602,          -15.,       15.7813,            0.,NA,NA,"",       2.19290,       1.71953,       1.36089,   698.179E-09
C:/temp/dataset/4/7_25.odb,Step-1,Increment      1: Step Time =    1.000,"PART-1-1",           603,      -6.85389,       22.5676,            0.,NA,NA,"",       2.27038,       2.08713,   893.605E-03,   54.4491E-09
C:/temp/dataset/4/7_25.odb,Step-1,Increment      1: Step Time =    1.000,"PART-1-1",           604,           -5.,       22.7083,            0.,NA,NA,"",       2.23610,       2.09210,   789.467E-03,   32.4915E-09
C:/temp/dataset/4/7_25.odb,Step-1,Increment      1: Step Time =    1.000,"PART-1-1",           605,      -7.62380,       21.5126,            0.,NA,NA,"",       2.23568,       2.02920,   938.420E-03,   80.8409E-09
C:/temp/dataset/4/7_25.odb,Step-1,Increment      1: Step Time =    1.000,"PART-1-1",           606,      -11.2433,       25.0031,            0.,NA,NA,"",       2.50308,       2.23054,       1.13582,   20.3759E-09
C:/temp/dataset/4/7_25.odb,Step-1,Increment      1: Step Time =    1.000,"PART-1-1",           607,      -10.1220,       24.6816,            0.,NA,NA,"",       2.45760,       2.21076,       1.07347,   21.6716E-09
C:/temp/dataset/4/7_25.odb,Step-1,Increment      1: Step Time =    1.000,"PART-1-1",           608,      -9.68436,       26.2404,            0.,NA,NA,"",       2.52456,       2.29745,       1.04649,   10.6150E-09
C:/temp/dataset/4/7_25.odb,Step-1,Increment      1: Step Time =    1.000,"PART-1-1",           609,      -10.8057,       26.5619,            0.,NA,NA,"",       2.56887,       2.31723,       1.10884,   7.35300E-09
C:/temp/dataset/4/7_25.odb,Step-1,Increment      1: Step Time =    1.000,"PART-1-1",           610,            5.,      -6.04167,            0.,NA,NA,"",   559.620E-03,   510.568E-03,   229.118E-03,   14.8763E-03
C:/temp/dataset/4/7_25.odb,Step-1,Increment      1: Step Time =    1.000,"PART-1-1",           611,       5.81487,      -6.90448,            0.,NA,NA,"",   508.906E-03,   472.921E-03,   187.966E-03,   9.75483E-03
C:/temp/dataset/4/7_25.odb,Step-1,Increment      1: Step Time =    1.000,"PART-1-1",           612,       6.44107,      -5.66337,            0.,NA,NA,"",   545.946E-03,   518.947E-03,   169.562E-03,   6.12701E-03
C:/temp/dataset/4/7_25.odb,Step-1,Increment      1: Step Time =    1.000,"PART-1-1",           613,       5.62621,      -4.80056,            0.,NA,NA,"",   594.661E-03,   555.834E-03,   211.353E-03,   10.0868E-03
C:/temp/dataset/4/7_25.odb,Step-1,Increment      1: Step Time =    1.000,"PART-1-1",           614,            5.,        -8.125,            0.,NA,NA,"",   479.362E-03,   432.032E-03,   207.694E-03,   10.9672E-03
C:/temp/dataset/4/7_25.odb,Step-1,Increment      1: Step Time =    1.000,"PART-1-1",           615,       8.00489,       17.5473,            0.,NA,NA,"",       1.66979,       1.66717,   93.5182E-03,   8.35591E-06
C:/temp/dataset/4/7_25.odb,Step-1,Increment      1: Step Time =    1.000,"PART-1-1",           616,       8.00828,       15.3576,            0.,NA,NA,"",       1.56239,       1.55944,   96.0166E-03,   21.3861E-06
C:/temp/dataset/4/7_25.odb,Step-1,Increment      1: Step Time =    1.000,"PART-1-1",           617,       11.1265,      -16.2686,            0.,NA,NA,"",   163.237E-03,   162.748E-03,  -12.6272E-03,   854.030E-06
C:/temp/dataset/4/7_25.odb,Step-1,Increment      1: Step Time =    1.000,"PART-1-1",           618,       9.12111,      -16.3141,            0.,NA,NA,"",   167.033E-03,   163.276E-03,   35.2290E-03,   3.02161E-03
C:/temp/dataset/4/7_25.odb,Step-1,Increment      1: Step Time =    1.000,"PART-1-1",           619,      -9.91602,       15.9767,            0.,NA,NA,"",       2.03074,       1.72249,       1.07561,   310.788E-09
C:/temp/dataset/4/7_25.odb,Step-1,Increment      1: Step Time =    1.000,"PART-1-1",           620,      -10.9598,       15.0860,            0.,NA,NA,"",       2.02296,       1.67421,       1.13552,   390.429E-09
C:/temp/dataset/4/7_25.odb,Step-1,Increment      1: Step Time =    1.000,"PART-1-1",           621,      -8.93702,       14.7598,            0.,NA,NA,"",       1.94355,       1.65275,       1.02265,   515.517E-09
C:/temp/dataset/4/7_25.odb,Step-1,Increment      1: Step Time =    1.000,"PART-1-1",           622,      -13.0880,       4.79273,            0.,NA,NA,"",       1.68120,       1.10050,       1.27096,   40.8460E-06
C:/temp/dataset/4/7_25.odb,Step-1,Increment      1: Step Time =    1.000,"PART-1-1",           623,          -15.,       4.84375,            0.,NA,NA,"",       1.76719,       1.10639,       1.37800,   52.5784E-06
C:/temp/dataset/4/7_25.odb,Step-1,Increment      1: Step Time =    1.000,"PART-1-1",           624,           -5.,       6.04167,            0.,NA,NA,"",       1.41635,       1.15800,   815.533E-03,   145.219E-06
C:/temp/dataset/4/7_25.odb,Step-1,Increment      1: Step Time =    1.000,"PART-1-1",           625,      -7.12843,       5.83601,            0.,NA,NA,"",       1.48219,       1.14978,   935.351E-03,   78.1897E-06
C:/temp/dataset/4/7_25.odb,Step-1,Increment      1: Step Time =    1.000,"PART-1-1",           626,       12.9112,      -8.87192,            0.,NA,NA,"",   399.052E-03,   389.378E-03,  -87.3341E-03,   4.20997E-03
C:/temp/dataset/4/7_25.odb,Step-1,Increment      1: Step Time =    1.000,"PART-1-1",           627,           15.,         -8.75,            0.,NA,NA,"",   431.434E-03,   398.335E-03,  -165.726E-03,   8.17585E-03
C:/temp/dataset/4/7_25.odb,Step-1,Increment      1: Step Time =    1.000,"PART-1-1",           628,       13.0740,      -16.2399,            0.,NA,NA,"",   175.610E-03,   165.222E-03,  -59.5040E-03,   4.62976E-03
C:/temp/dataset/4/7_25.odb,Step-1,Increment      1: Step Time =    1.000,"PART-1-1",           629,           15.,        -16.25,            0.,NA,NA,"",   200.357E-03,   170.049E-03,  -105.953E-03,   8.36899E-03
C:/temp/dataset/4/7_25.odb,Step-1,Increment      1: Step Time =    1.000,"PART-1-1",           630,       13.0128,       13.9092,            0.,NA,NA,"",       1.48964,       1.48223,  -148.418E-03,   35.1446E-06
C:/temp/dataset/4/7_25.odb,Step-1,Increment      1: Step Time =    1.000,"PART-1-1",           631,           15.,         13.75,            0.,NA,NA,"",       1.49239,       1.47198,  -246.020E-03,   40.6652E-06
C:/temp/dataset/4/7_25.odb,Step-1,Increment      1: Step Time =    1.000,"PART-1-1",           632,       10.9505,       11.7339,            0.,NA,NA,"",       1.37842,       1.37771,  -44.2014E-03,   52.4257E-06
C:/temp/dataset/4/7_25.odb,Step-1,Increment      1: Step Time =    1.000,"PART-1-1",           633,       9.98883,       12.9959,            0.,NA,NA,"",       1.44092,       1.44092,   1.54270E-03,   46.8663E-06
C:/temp/dataset/4/7_25.odb,Step-1,Increment      1: Step Time =    1.000,"PART-1-1",           634,       8.94372,       11.9797,            0.,NA,NA,"",       1.39323,       1.39217,   54.2080E-03,   55.2128E-06
C:/temp/dataset/4/7_25.odb,Step-1,Increment      1: Step Time =    1.000,"PART-1-1",           635,      -13.9153,       18.9000,            0.,NA,NA,"",       2.29339,       1.89265,       1.29519,   171.750E-09
C:/temp/dataset/4/7_25.odb,Step-1,Increment      1: Step Time =    1.000,"PART-1-1",           636,      -12.6393,       19.9841,            0.,NA,NA,"",       2.30243,       1.95141,       1.22196,   160.862E-09
C:/temp/dataset/4/7_25.odb,Step-1,Increment      1: Step Time =    1.000,"PART-1-1",           637,          -15.,       20.1563,            0.,NA,NA,"",       2.38614,       1.96477,       1.35401,   146.974E-09
C:/temp/dataset/4/7_25.odb,Step-1,Increment      1: Step Time =    1.000,"PART-1-1",           638,       8.12191,      -21.7795,            0.,NA,NA,"",   69.4271E-03,   59.5396E-03,   35.7094E-03,   5.00003E-03
C:/temp/dataset/4/7_25.odb,Step-1,Increment      1: Step Time =    1.000,"PART-1-1",           639,       8.12482,      -23.8590,            0.,NA,NA,"",   42.2793E-03,   32.9962E-03,   26.4346E-03,   5.04321E-03
C:/temp/dataset/4/7_25.odb,Step-1,Increment      1: Step Time =    1.000,"PART-1-1",           640,       8.11825,      -19.6354,            0.,NA,NA,"",   105.015E-03,   94.8489E-03,   45.0756E-03,   4.96698E-03
C:/temp/dataset/4/7_25.odb,Step-1,Increment      1: Step Time =    1.000,"PART-1-1",           641,       8.10952,      -17.4508,            0.,NA,NA,"",   149.417E-03,   139.105E-03,   54.5460E-03,   4.96071E-03
C:/temp/dataset/4/7_25.odb,Step-1,Increment      1: Step Time =    1.000,"PART-1-1",           642,       7.85781,       23.9076,            0.,NA,NA,"",       1.98239,       1.98021,   93.0483E-03,   127.650E-09
C:/temp/dataset/4/7_25.odb,Step-1,Increment      1: Step Time =    1.000,"PART-1-1",           643,       7.94870,       21.8524,            0.,NA,NA,"",       1.88121,       1.87901,   91.0650E-03,   516.493E-09
C:/temp/dataset/4/7_25.odb,Step-1,Increment      1: Step Time =    1.000,"PART-1-1",           644,       4.21929,       2.98066,            0.,NA,NA,"",       1.00704,   962.106E-03,   297.444E-03,   2.09247E-03
C:/temp/dataset/4/7_25.odb,Step-1,Increment      1: Step Time =    1.000,"PART-1-1",           645,       5.32392,       3.96649,            0.,NA,NA,"",       1.03710,       1.00910,   239.373E-03,   3.37959E-03
C:/temp/dataset/4/7_25.odb,Step-1,Increment      1: Step Time =    1.000,"PART-1-1",           646,          3.75,            5.,            0.,NA,NA,"",       1.11774,       1.07016,   322.640E-03,   5.02814E-03
C:/temp/dataset/4/7_25.odb,Step-1,Increment      1: Step Time =    1.000,"PART-1-1",           647,       12.8859,       9.04653,            0.,NA,NA,"",       1.25041,       1.24296,  -136.300E-03,   48.6769E-06
C:/temp/dataset/4/7_25.odb,Step-1,Increment      1: Step Time =    1.000,"PART-1-1",           648,           15.,          8.75,            0.,NA,NA,"",       1.24899,       1.22563,  -240.410E-03,   141.611E-06
C:/temp/dataset/4/7_25.odb,Step-1,Increment      1: Step Time =    1.000,"PART-1-1",           649,      -8.02807,       9.41948,            0.,NA,NA,"",       1.66988,       1.35200,   980.102E-03,   16.4106E-06
C:/temp/dataset/4/7_25.odb,Step-1,Increment      1: Step Time =    1.000,"PART-1-1",           650,      -8.84347,       16.8085,            0.,NA,NA,"",       2.03774,       1.76744,       1.01418,   280.439E-09
C:/temp/dataset/4/7_25.odb,Step-1,Increment      1: Step Time =    1.000,"PART-1-1",           651,      -9.78583,       18.0165,            0.,NA,NA,"",       2.12313,       1.83663,       1.06511,   255.615E-09
C:/temp/dataset/4/7_25.odb,Step-1,Increment      1: Step Time =    1.000,"PART-1-1",           652,          -15.,       17.9688,            0.,NA,NA,"",       2.28828,       1.84215,       1.35745,   365.506E-09
C:/temp/dataset/4/7_25.odb,Step-1,Increment      1: Step Time =    1.000,"PART-1-1",           653,          -15.,       24.5313,            0.,NA,NA,"",       2.58822,       2.21000,       1.34714,   6.62280E-09
C:/temp/dataset/4/7_25.odb,Step-1,Increment      1: Step Time =    1.000,"PART-1-1",           654,      -12.9952,       24.7258,            0.,NA,NA,"",       2.53817,       2.21776,       1.23445,   17.7050E-09
C:/temp/dataset/4/7_25.odb,Step-1,Increment      1: Step Time =    1.000,"PART-1-1",           655,      -11.4985,       21.8877,            0.,NA,NA,"",       2.35850,       2.05632,       1.15502,   77.2135E-09
C:/temp/dataset/4/7_25.odb,Step-1,Increment      1: Step Time =    1.000,"PART-1-1",           656,      -11.4490,       20.6565,            0.,NA,NA,"",       2.29809,       1.98722,       1.15418,   122.931E-09
C:/temp/dataset/4/7_25.odb,Step-1,Increment      1: Step Time =    1.000,"PART-1-1",           657,      -10.1446,       20.7260,            0.,NA,NA,"",       2.26382,       1.98907,       1.08096,   132.791E-09
C:/temp/dataset/4/7_25.odb,Step-1,Increment      1: Step Time =    1.000,"PART-1-1",           658,      -7.69218,       19.6350,            0.,NA,NA,"",       2.14370,       1.92406,   945.205E-03,   159.477E-09
C:/temp/dataset/4/7_25.odb,Step-1,Increment      1: Step Time =    1.000,"PART-1-1",           659,      -8.68744,       18.7463,            0.,NA,NA,"",       2.12684,       1.87581,       1.00239,   231.357E-09
C:/temp/dataset/4/7_25.odb,Step-1,Increment      1: Step Time =    1.000,"PART-1-1",           660,      -7.82721,       17.7030,            0.,NA,NA,"",       2.05216,       1.81598,   955.811E-03,   249.643E-09
C:/temp/dataset/4/7_25.odb,Step-1,Increment      1: Step Time =    1.000,"PART-1-1",           661,      -9.52114,       19.8817,            0.,NA,NA,"",       2.20533,       1.94076,       1.04734,   162.369E-09
C:/temp/dataset/4/7_25.odb,Step-1,Increment      1: Step Time =    1.000,"PART-1-1",           662,      -10.6195,       19.1519,            0.,NA,NA,"",       2.20187,       1.90158,       1.11005,   214.873E-09
C:/temp/dataset/4/7_25.odb,Step-1,Increment      1: Step Time =    1.000,"PART-1-1",           663,      -12.1485,       3.78191,            0.,NA,NA,"",       1.60460,       1.04236,       1.21994,   44.5475E-06
C:/temp/dataset/4/7_25.odb,Step-1,Increment      1: Step Time =    1.000,"PART-1-1",           664,      -10.9850,       2.86362,            0.,NA,NA,"",       1.52157,   989.064E-03,       1.15625,   47.0056E-06
C:/temp/dataset/4/7_25.odb,Step-1,Increment      1: Step Time =    1.000,"PART-1-1",           665,      -9.06958,       8.49577,            0.,NA,NA,"",       1.66623,       1.30185,       1.03995,   25.4663E-06
C:/temp/dataset/4/7_25.odb,Step-1,Increment      1: Step Time =    1.000,"PART-1-1",           666,      -8.08215,       7.28595,            0.,NA,NA,"",       1.57870,       1.23251,   986.522E-03,   42.1362E-06
C:/temp/dataset/4/7_25.odb,Step-1,Increment      1: Step Time =    1.000,"PART-1-1",           667,      -10.1292,       7.60955,            0.,NA,NA,"",       1.66845,       1.25381,       1.10076,   32.2184E-06
C:/temp/dataset/4/7_25.odb,Step-1,Increment      1: Step Time =    1.000,"PART-1-1",           668,      -11.2104,       6.77234,            0.,NA,NA,"",       1.67702,       1.20855,       1.16268,   36.2228E-06
C:/temp/dataset/4/7_25.odb,Step-1,Increment      1: Step Time =    1.000,"PART-1-1",           669,      -10.2942,       5.63122,            0.,NA,NA,"",       1.59560,       1.14314,       1.11317,   49.9783E-06
C:/temp/dataset/4/7_25.odb,Step-1,Increment      1: Step Time =    1.000,"PART-1-1",           670,      -9.21309,       6.46842,            0.,NA,NA,"",       1.58665,       1.18842,       1.05125,   52.8076E-06
C:/temp/dataset/4/7_25.odb,Step-1,Increment      1: Step Time =    1.000,"PART-1-1",           671,        -11.25,           -5.,            0.,NA,NA,"",       1.30492,   550.106E-03,       1.18330,   100.636E-06
C:/temp/dataset/4/7_25.odb,Step-1,Increment      1: Step Time =    1.000,"PART-1-1",           672,      -10.0273,      -3.93877,            0.,NA,NA,"",       1.26826,   607.505E-03,       1.11329,   109.672E-06
C:/temp/dataset/4/7_25.odb,Step-1,Increment      1: Step Time =    1.000,"PART-1-1",           673,         -8.75,           -5.,            0.,NA,NA,"",       1.17818,   546.559E-03,       1.04374,   247.840E-06
C:/temp/dataset/4/7_25.odb,Step-1,Increment      1: Step Time =    1.000,"PART-1-1",           674,      -7.59562,      -4.02918,            0.,NA,NA,"",       1.14679,   598.988E-03,   977.929E-03,   278.150E-06
C:/temp/dataset/4/7_25.odb,Step-1,Increment      1: Step Time =    1.000,"PART-1-1",           675,      -8.87289,      -2.96795,            0.,NA,NA,"",       1.23784,   659.804E-03,       1.04733,   109.012E-06
C:/temp/dataset/4/7_25.odb,Step-1,Increment      1: Step Time =    1.000,"PART-1-1",           676,         -6.25,           -5.,            0.,NA,NA,"",       1.05584,   543.705E-03,   905.083E-03,   361.957E-06
C:/temp/dataset/4/7_25.odb,Step-1,Increment      1: Step Time =    1.000,"PART-1-1",           677,      -5.03874,      -3.83161,            0.,NA,NA,"",       1.03376,   606.137E-03,   837.414E-03,   1.37326E-03
C:/temp/dataset/4/7_25.odb,Step-1,Increment      1: Step Time =    1.000,"PART-1-1",           678,      -6.38435,      -2.86079,            0.,NA,NA,"",       1.12455,   661.924E-03,   909.101E-03,   532.903E-06
C:/temp/dataset/4/7_25.odb,Step-1,Increment      1: Step Time =    1.000,"PART-1-1",           679,      -8.31216,       1.98044,            0.,NA,NA,"",       1.37516,   935.366E-03,       1.00805,   97.3213E-06
C:/temp/dataset/4/7_25.odb,Step-1,Increment      1: Step Time =    1.000,"PART-1-1",           680,      -6.89941,       1.67561,            0.,NA,NA,"",       1.30497,   916.096E-03,   929.359E-03,   178.176E-06
C:/temp/dataset/4/7_25.odb,Step-1,Increment      1: Step Time =    1.000,"PART-1-1",           681,      -8.02347,       3.70061,            0.,NA,NA,"",       1.42896,       1.03136,   989.054E-03,   65.4192E-06
C:/temp/dataset/4/7_25.odb,Step-1,Increment      1: Step Time =    1.000,"PART-1-1",           682,      -9.78636,       2.36681,            0.,NA,NA,"",       1.45201,   959.337E-03,       1.08996,   54.1417E-06
C:/temp/dataset/4/7_25.odb,Step-1,Increment      1: Step Time =    1.000,"PART-1-1",           683,      -8.80920,   354.969E-03,            0.,NA,NA,"",       1.33895,   845.145E-03,       1.03852,   72.1782E-06
C:/temp/dataset/4/7_25.odb,Step-1,Increment      1: Step Time =    1.000,"PART-1-1",           684,         -3.75,           -5.,            0.,NA,NA,"",   941.539E-03,   540.587E-03,   770.883E-03,   2.12873E-03
C:/temp/dataset/4/7_25.odb,Step-1,Increment      1: Step Time =    1.000,"PART-1-1",           685,          3.75,           -5.,            0.,NA,NA,"",   631.945E-03,   540.490E-03,   327.452E-03,   7.33335E-03
C:/temp/dataset/4/7_25.odb,Step-1,Increment      1: Step Time =    1.000,"PART-1-1",           686,       4.46580,      -3.87501,            0.,NA,NA,"",   665.953E-03,   604.609E-03,   279.181E-03,   8.10646E-03
C:/temp/dataset/4/7_25.odb,Step-1,Increment      1: Step Time =    1.000,"PART-1-1",           687,       2.90021,      -2.90757,            0.,NA,NA,"",   754.330E-03,   656.012E-03,   372.373E-03,   3.47390E-03
C:/temp/dataset/4/7_25.odb,Step-1,Increment      1: Step Time =    1.000,"PART-1-1",           688,       11.1618,       2.81075,            0.,NA,NA,"",   934.287E-03,   933.216E-03,  -44.7215E-03,   2.05539E-03
C:/temp/dataset/4/7_25.odb,Step-1,Increment      1: Step Time =    1.000,"PART-1-1",           689,       10.1850,       1.50626,            0.,NA,NA,"",   868.215E-03,   868.210E-03,   2.83451E-03,   2.88276E-03
C:/temp/dataset/4/7_25.odb,Step-1,Increment      1: Step Time =    1.000,"PART-1-1",           690,       11.6421,   144.368E-03,            0.,NA,NA,"",   798.874E-03,   796.331E-03,  -63.6906E-03,   2.93457E-03
C:/temp/dataset/4/7_25.odb,Step-1,Increment      1: Step Time =    1.000,"PART-1-1",           691,         11.25,           30.,            0.,NA,NA,"",       2.27722,       2.27577,  -81.1796E-03,   100.272E-09
C:/temp/dataset/4/7_25.odb,Step-1,Increment      1: Step Time =    1.000,"PART-1-1",           692,       9.19768,       26.3844,            0.,NA,NA,"",       2.10056,       2.10042,   24.1452E-03,   135.017E-09
C:/temp/dataset/4/7_25.odb,Step-1,Increment      1: Step Time =    1.000,"PART-1-1",           693,       7.72138,       25.7435,            0.,NA,NA,"",       2.07297,       2.07068,   97.5365E-03,   155.086E-09
C:/temp/dataset/4/7_25.odb,Step-1,Increment      1: Step Time =    1.000,"PART-1-1",           694,       9.17897,      -24.8987,            0.,NA,NA,"",   24.0384E-03,   20.5603E-03,   12.4548E-03,   3.00597E-03
C:/temp/dataset/4/7_25.odb,Step-1,Increment      1: Step Time =    1.000,"PART-1-1",           695,       9.00589,       18.6572,            0.,NA,NA,"",       1.72110,       1.72056,   42.9367E-03,   6.55824E-06
C:/temp/dataset/4/7_25.odb,Step-1,Increment      1: Step Time =    1.000,"PART-1-1",           696,       7.99757,       19.7140,            0.,NA,NA,"",       1.77611,       1.77376,   91.2510E-03,   2.54964E-06
C:/temp/dataset/4/7_25.odb,Step-1,Increment      1: Step Time =    1.000,"PART-1-1",           697,      -12.2498,       25.7751,            0.,NA,NA,"",       2.56826,       2.27540,       1.19102,   8.64810E-09
C:/temp/dataset/4/7_25.odb,Step-1,Increment      1: Step Time =    1.000,"PART-1-1",           698,      -11.9888,       23.9538,            0.,NA,NA,"",       2.47227,       2.17290,       1.17925,   27.6260E-09
C:/temp/dataset/4/7_25.odb,Step-1,Increment      1: Step Time =    1.000,"PART-1-1",           699,      -1.59164,      -1.60220,            0.,NA,NA,"",   966.716E-03,   728.675E-03,   635.274E-03,   2.82626E-03
C:/temp/dataset/4/7_25.odb,Step-1,Increment      1: Step Time =    1.000,"PART-1-1",           700,      -1.34014,  -343.401E-03,            0.,NA,NA,"",       1.00825,   797.391E-03,   617.038E-03,   2.64109E-03
C:/temp/dataset/4/7_25.odb,Step-1,Increment      1: Step Time =    1.000,"PART-1-1",           701,      -2.70787,  -93.9540E-03,            0.,NA,NA,"",       1.06937,   812.275E-03,   695.531E-03,   1.85722E-03
C:/temp/dataset/4/7_25.odb,Step-1,Increment      1: Step Time =    1.000,"PART-1-1",           702,       8.06015,      -13.0184,            0.,NA,NA,"",   264.970E-03,   254.370E-03,   74.1979E-03,   5.03327E-03
C:/temp/dataset/4/7_25.odb,Step-1,Increment      1: Step Time =    1.000,"PART-1-1",           703,       7.99745,      -10.7906,            0.,NA,NA,"",   335.956E-03,   324.970E-03,   85.2112E-03,   5.10224E-03
C:/temp/dataset/4/7_25.odb,Step-1,Increment      1: Step Time =    1.000,"PART-1-1",           704,           15.,        -26.25,            0.,NA,NA,"",   33.3184E-03,   17.4797E-03,  -28.3650E-03,   8.64055E-03
C:/temp/dataset/4/7_25.odb,Step-1,Increment      1: Step Time =    1.000,"PART-1-1",           705,       13.9776,      -24.8045,            0.,NA,NA,"",   39.3319E-03,   25.2207E-03,  -30.1814E-03,   6.61155E-03
C:/temp/dataset/4/7_25.odb,Step-1,Increment      1: Step Time =    1.000,"PART-1-1",           706,       12.6094,      -25.9010,            0.,NA,NA,"",   19.0389E-03,   13.0895E-03,  -13.8255E-03,   3.95715E-03
C:/temp/dataset/4/7_25.odb,Step-1,Increment      1: Step Time =    1.000,"PART-1-1",           707,       12.0224,      -24.3398,            0.,NA,NA,"",   29.0371E-03,   25.5936E-03,  -13.7156E-03,   2.76831E-03
C:/temp/dataset/4/7_25.odb,Step-1,Increment      1: Step Time =    1.000,"PART-1-1",           708,       13.0263,      -23.4242,            0.,NA,NA,"",   46.1221E-03,   37.0523E-03,  -27.4659E-03,   4.70215E-03
C:/temp/dataset/4/7_25.odb,Step-1,Increment      1: Step Time =    1.000,"PART-1-1",           709,       12.1300,      -22.1112,            0.,NA,NA,"",   56.3008E-03,   52.3426E-03,  -20.7372E-03,   2.87314E-03
C:/temp/dataset/4/7_25.odb,Step-1,Increment      1: Step Time =    1.000,"PART-1-1",           710,           15.,        -23.75,            0.,NA,NA,"",   61.7244E-03,   39.1843E-03,  -47.6917E-03,   8.56761E-03
C:/temp/dataset/4/7_25.odb,Step-1,Increment      1: Step Time =    1.000,"PART-1-1",           711,       10.9035,      -9.09896,            0.,NA,NA,"",   380.087E-03,   379.849E-03,  -13.4460E-03,   794.894E-06
C:/temp/dataset/4/7_25.odb,Step-1,Increment      1: Step Time =    1.000,"PART-1-1",           712,       9.82794,      -8.10226,            0.,NA,NA,"",   418.495E-03,   417.693E-03,   25.8961E-03,   1.24540E-03
C:/temp/dataset/4/7_25.odb,Step-1,Increment      1: Step Time =    1.000,"PART-1-1",           713,       8.90728,      -9.48784,            0.,NA,NA,"",   372.358E-03,   367.810E-03,   58.0187E-03,   3.14830E-03
C:/temp/dataset/4/7_25.odb,Step-1,Increment      1: Step Time =    1.000,"PART-1-1",           714,           15.,         -1.25,            0.,NA,NA,"",   758.153E-03,   726.048E-03,  -218.289E-03,   4.09095E-03
C:/temp/dataset/4/7_25.odb,Step-1,Increment      1: Step Time =    1.000,"PART-1-1",           715,       12.7555,      -1.12336,            0.,NA,NA,"",   740.343E-03,   731.791E-03,  -112.204E-03,   3.19130E-03
C:/temp/dataset/4/7_25.odb,Step-1,Increment      1: Step Time =    1.000,"PART-1-1",           716,       11.5680,       5.48707,            0.,NA,NA,"",       1.07000,       1.06789,  -67.2146E-03,   797.028E-06
C:/temp/dataset/4/7_25.odb,Step-1,Increment      1: Step Time =    1.000,"PART-1-1",           717,       10.1222,       4.29256,            0.,NA,NA,"",       1.01050,       1.01049,   4.22536E-03,   1.70929E-03
C:/temp/dataset/4/7_25.odb,Step-1,Increment      1: Step Time =    1.000,"PART-1-1",           718,       8.27918,   509.070E-03,            0.,NA,NA,"",   826.362E-03,   821.113E-03,   92.9930E-03,   3.35639E-03
C:/temp/dataset/4/7_25.odb,Step-1,Increment      1: Step Time =    1.000,"PART-1-1",           719,       9.70893,  -124.236E-03,            0.,NA,NA,"",   785.724E-03,   785.292E-03,   26.0488E-03,   3.40434E-03
C:/temp/dataset/4/7_25.odb,Step-1,Increment      1: Step Time =    1.000,"PART-1-1",           720,       8.75521,       2.13956,            0.,NA,NA,"",   906.847E-03,   904.096E-03,   70.5864E-03,   2.92926E-03
C:/temp/dataset/4/7_25.odb,Step-1,Increment      1: Step Time =    1.000,"PART-1-1",           721,       6.99874,       4.90963,            0.,NA,NA,"",       1.06132,       1.04968,   156.743E-03,   2.35320E-03
C:/temp/dataset/4/7_25.odb,Step-1,Increment      1: Step Time =    1.000,"PART-1-1",           722,       8.01086,       5.41567,            0.,NA,NA,"",       1.07700,       1.07169,   106.869E-03,   1.67186E-03
C:/temp/dataset/4/7_25.odb,Step-1,Increment      1: Step Time =    1.000,"PART-1-1",           723,       11.8045,       7.99587,            0.,NA,NA,"",       1.19520,       1.19240,  -81.6919E-03,   160.543E-06
C:/temp/dataset/4/7_25.odb,Step-1,Increment      1: Step Time =    1.000,"PART-1-1",           724,       7.91904,       10.9856,            0.,NA,NA,"",       1.34867,       1.34452,   105.789E-03,   58.4915E-06
C:/temp/dataset/4/7_25.odb,Step-1,Increment      1: Step Time =    1.000,"PART-1-1",           725,       11.0233,       18.7016,            0.,NA,NA,"",       1.72124,       1.72031,  -56.3510E-03,   6.40195E-06
C:/temp/dataset/4/7_25.odb,Step-1,Increment      1: Step Time =    1.000,"PART-1-1",           726,       10.0074,       19.8076,            0.,NA,NA,"",       1.77596,       1.77594,  -7.72224E-03,   2.76256E-06
C:/temp/dataset/4/7_25.odb,Step-1,Increment      1: Step Time =    1.000,"PART-1-1",           727,       10.9673,       21.0105,            0.,NA,NA,"",       1.83482,       1.83395,  -56.3921E-03,   1.69747E-06
C:/temp/dataset/4/7_25.odb,Step-1,Increment      1: Step Time =    1.000,"PART-1-1",           728,       8.97465,       20.8454,            0.,NA,NA,"",       1.82871,       1.82823,   41.8207E-03,   1.88437E-06
C:/temp/dataset/4/7_25.odb,Step-1,Increment      1: Step Time =    1.000,"PART-1-1",           729,       8.66510,       24.8184,            0.,NA,NA,"",       2.02471,       2.02403,   52.2371E-03,   140.451E-09
C:/temp/dataset/4/7_25.odb,Step-1,Increment      1: Step Time =    1.000,"PART-1-1",           730,       7.98376,       13.1681,            0.,NA,NA,"",       1.45519,       1.45176,   99.9047E-03,   42.6092E-06
C:/temp/dataset/4/7_25.odb,Step-1,Increment      1: Step Time =    1.000,"PART-1-1",           731,      -1.95806,       1.80915,            0.,NA,NA,"",       1.12204,   915.838E-03,   648.242E-03,   1.76186E-03
C:/temp/dataset/4/7_25.odb,Step-1,Increment      1: Step Time =    1.000,"PART-1-1",           732,  -613.587E-03,   828.335E-03,            0.,NA,NA,"",       1.03310,   860.135E-03,   572.250E-03,   2.51545E-03
C:/temp/dataset/4/7_25.odb,Step-1,Increment      1: Step Time =    1.000,"PART-1-1",           733,   461.223E-03,       1.99751,            0.,NA,NA,"",       1.05214,   921.187E-03,   508.340E-03,   2.57205E-03
C:/temp/dataset/4/7_25.odb,Step-1,Increment      1: Step Time =    1.000,"PART-1-1",           734,       1.74006,       1.04512,            0.,NA,NA,"",   970.784E-03,   867.359E-03,   436.016E-03,   2.72140E-03
C:/temp/dataset/4/7_25.odb,Step-1,Increment      1: Step Time =    1.000,"PART-1-1",           735,   906.022E-03,  -39.5003E-03,            0.,NA,NA,"",   945.374E-03,   811.220E-03,   485.442E-03,   3.11758E-03
C:/temp/dataset/4/7_25.odb,Step-1,Increment      1: Step Time =    1.000,"PART-1-1",           736,       2.15034,  -968.542E-03,            0.,NA,NA,"",   865.571E-03,   759.860E-03,   414.520E-03,   3.23815E-03
C:/temp/dataset/4/7_25.odb,Step-1,Increment      1: Step Time =    1.000,"PART-1-1",           737,       2.98438,   116.081E-03,            0.,NA,NA,"",   893.918E-03,   815.541E-03,   366.037E-03,   2.76720E-03
C:/temp/dataset/4/7_25.odb,Step-1,Increment      1: Step Time =    1.000,"PART-1-1",           738,      -8.25937,       5.01848,            0.,NA,NA,"",       1.49088,       1.10565,       1.00013,   75.3782E-06
C:/temp/dataset/4/7_25.odb,Step-1,Increment      1: Step Time =    1.000,"PART-1-1",           739,      -2.78312,       1.01462,            0.,NA,NA,"",       1.11758,   873.376E-03,   697.282E-03,   1.64262E-03
C:/temp/dataset/4/7_25.odb,Step-1,Increment      1: Step Time =    1.000,"PART-1-1",           740,      -4.31499,   913.536E-03,            0.,NA,NA,"",       1.17163,   869.794E-03,   784.975E-03,   955.845E-06
C:/temp/dataset/4/7_25.odb,Step-1,Increment      1: Step Time =    1.000,"PART-1-1",           741,      -4.23975,  -195.042E-03,            0.,NA,NA,"",       1.12539,   808.132E-03,   783.208E-03,   1.25970E-03
C:/temp/dataset/4/7_25.odb,Step-1,Increment      1: Step Time =    1.000,"PART-1-1",           742,      -8.52646,       20.5688,            0.,NA,NA,"",       2.21189,       1.97772,   990.501E-03,   138.300E-09
C:/temp/dataset/4/7_25.odb,Step-1,Increment      1: Step Time =    1.000,"PART-1-1",           743,       8.09873,      -15.2435,            0.,NA,NA,"",   202.623E-03,   192.247E-03,   64.0097E-03,   4.96677E-03
C:/temp/dataset/4/7_25.odb,Step-1,Increment      1: Step Time =    1.000,"PART-1-1",           744,       8.99676,       14.2096,            0.,NA,NA,"",       1.50259,       1.50179,   48.8245E-03,   37.8320E-06
C:/temp/dataset/4/7_25.odb,Step-1,Increment      1: Step Time =    1.000,"PART-1-1",           745,       11.0169,       14.0599,            0.,NA,NA,"",       1.49288,       1.49203,  -50.3638E-03,   37.5375E-06
C:/temp/dataset/4/7_25.odb,Step-1,Increment      1: Step Time =    1.000,"PART-1-1",           746,      -7.91902,       15.6847,            0.,NA,NA,"",       1.95697,       1.70299,   964.131E-03,   243.466E-09
C:/temp/dataset/4/7_25.odb,Step-1,Increment      1: Step Time =    1.000,"PART-1-1",           747,      -11.9968,       14.1876,            0.,NA,NA,"",       2.01751,       1.62548,       1.19506,   469.159E-09
C:/temp/dataset/4/7_25.odb,Step-1,Increment      1: Step Time =    1.000,"PART-1-1",           748,      -11.1175,       8.79310,            0.,NA,NA,"",       1.75478,       1.32170,       1.15427,   20.1505E-06
C:/temp/dataset/4/7_25.odb,Step-1,Increment      1: Step Time =    1.000,"PART-1-1",           749,       10.6592,      -6.44981,            0.,NA,NA,"",   483.656E-03,   483.595E-03,  -7.71258E-03,   1.61418E-03
C:/temp/dataset/4/7_25.odb,Step-1,Increment      1: Step Time =    1.000,"PART-1-1",           750,      -10.7894,       23.3985,            0.,NA,NA,"",       2.41198,       2.13989,       1.11290,   46.9097E-09
C:/temp/dataset/4/7_25.odb,Step-1,Increment      1: Step Time =    1.000,"PART-1-1",           751,       10.0228,      -25.8019,            0.,NA,NA,"",   12.9106E-03,   12.2455E-03,   4.09040E-03,   1.25204E-03
C:/temp/dataset/4/7_25.odb,Step-1,Increment      1: Step Time =    1.000,"PART-1-1",           752,       10.9542,      -24.8826,            0.,NA,NA,"",   19.9023E-03,   19.6731E-03,  -3.01206E-03,   629.667E-06
C:/temp/dataset/4/7_25.odb,Step-1,Increment      1: Step Time =    1.000,"PART-1-1",           753,       11.8371,      -2.37854,            0.,NA,NA,"",   673.286E-03,   669.946E-03,  -66.9842E-03,   3.33245E-03
C:/temp/dataset/4/7_25.odb,Step-1,Increment      1: Step Time =    1.000,"PART-1-1",           754,       11.6235,      -5.02753,            0.,NA,NA,"",   547.819E-03,   545.495E-03,  -50.4030E-03,   2.89785E-03
C:/temp/dataset/4/7_25.odb,Step-1,Increment      1: Step Time =    1.000,"PART-1-1",           755,      -12.1333,       7.86930,            0.,NA,NA,"",       1.75705,       1.27149,       1.21266,   21.9791E-06
C:/temp/dataset/4/7_25.odb,Step-1,Increment      1: Step Time =    1.000,"PART-1-1",           756,      -12.0768,       9.95169,            0.,NA,NA,"",       1.83900,       1.38815,       1.20621,   9.17572E-06
C:/temp/dataset/4/7_25.odb,Step-1,Increment      1: Step Time =    1.000,"PART-1-1",           757,       8.68743,       3.64563,            0.,NA,NA,"",   984.115E-03,   981.332E-03,   73.9567E-03,   2.36832E-03
C:/temp/dataset/4/7_25.odb,Step-1,Increment      1: Step Time =    1.000,"PART-1-1",           758,       6.61848,       3.66599,            0.,NA,NA,"",       1.00446,   989.088E-03,   175.032E-03,   2.68406E-03
C:/temp/dataset/4/7_25.odb,Step-1,Increment      1: Step Time =    1.000,"PART-1-1",           759,       4.71579,   65.6079E-03,            0.,NA,NA,"",   852.642E-03,   808.433E-03,   270.987E-03,   2.50379E-03
C:/temp/dataset/4/7_25.odb,Step-1,Increment      1: Step Time =    1.000,"PART-1-1",           760,       3.89104,   957.250E-03,            0.,NA,NA,"",   913.640E-03,   857.347E-03,   315.742E-03,   2.10506E-03
C:/temp/dataset/4/7_25.odb,Step-1,Increment      1: Step Time =    1.000,"PART-1-1",           761,      -12.0363,       12.0623,            0.,NA,NA,"",       1.92633,       1.50641,       1.20061,   2.75867E-06
C:/temp/dataset/4/7_25.odb,Step-1,Increment      1: Step Time =    1.000,"PART-1-1",           762,      -12.1964,       5.82098,            0.,NA,NA,"",       1.68079,       1.15674,       1.21942,   37.4906E-06
C:/temp/dataset/4/7_25.odb,Step-1,Increment      1: Step Time =    1.000,"PART-1-1",           763,      -11.2570,       4.81016,            0.,NA,NA,"",       1.60377,       1.09860,       1.16841,   47.3227E-06
C:/temp/dataset/4/7_25.odb,Step-1,Increment      1: Step Time =    1.000,"PART-1-1",           764,      -10.5260,       3.94381,            0.,NA,NA,"",       1.54093,       1.04888,       1.12885,   55.4151E-06
C:/temp/dataset/4/7_25.odb,Step-1,Increment      1: Step Time =    1.000,"PART-1-1",           765,      -9.56326,       4.76486,            0.,NA,NA,"",       1.53240,       1.09343,       1.07362,   64.2328E-06
C:/temp/dataset/4/7_25.odb,Step-1,Increment      1: Step Time =    1.000,"PART-1-1",           766,      -9.32737,       3.44699,            0.,NA,NA,"",       1.47230,       1.01916,       1.06253,   64.9838E-06
C:/temp/dataset/4/7_25.odb,Step-1,Increment      1: Step Time =    1.000,"PART-1-1",           767,       11.5413,      -26.4438,            0.,NA,NA,"",   9.94475E-03,   8.19451E-03,  -5.63455E-03,   1.84633E-03
C:/temp/dataset/4/7_25.odb,Step-1,Increment      1: Step Time =    1.000,"PART-1-1",           768,       5.97241,      -3.36228,            0.,NA,NA,"",   658.260E-03,   627.513E-03,   198.831E-03,   5.00936E-03
C:/temp/dataset/4/7_25.odb,Step-1,Increment      1: Step Time =    1.000,"PART-1-1",           769,       11.9304,       22.2704,            0.,NA,NA,"",       1.89768,       1.89475,  -105.290E-03,   346.578E-09
C:/temp/dataset/4/7_25.odb,Step-1,Increment      1: Step Time =    1.000,"PART-1-1",           770,      -3.95064,       2.12654,            0.,NA,NA,"",       1.20745,   936.718E-03,   761.907E-03,   892.473E-06
C:/temp/dataset/4/7_25.odb,Step-1,Increment      1: Step Time =    1.000,"PART-1-1",           771,       12.1361,      -19.7979,            0.,NA,NA,"",   93.2103E-03,   89.1893E-03,  -27.0819E-03,   2.85537E-03
C:/temp/dataset/4/7_25.odb,Step-1,Increment      1: Step Time =    1.000,"PART-1-1",           772,       12.1156,      -17.4436,            0.,NA,NA,"",   140.159E-03,   136.193E-03,  -33.1042E-03,   2.78394E-03
C:/temp/dataset/4/7_25.odb,Step-1,Increment      1: Step Time =    1.000,"PART-1-1",           773,       11.8489,      -7.73518,            0.,NA,NA,"",   434.914E-03,   431.844E-03,  -51.5848E-03,   2.49450E-03
C:/temp/dataset/4/7_25.odb,Step-1,Increment      1: Step Time =    1.000,"PART-1-1",           774,       11.9658,      -10.2357,            0.,NA,NA,"",   343.075E-03,   339.605E-03,  -48.6716E-03,   2.47216E-03
C:/temp/dataset/4/7_25.odb,Step-1,Increment      1: Step Time =    1.000,"PART-1-1",           775,       10.7237,      -1.11081,            0.,NA,NA,"",   733.883E-03,   733.624E-03,  -19.5079E-03,   3.31914E-03
C:/temp/dataset/4/7_25.odb,Step-1,Increment      1: Step Time =    1.000,"PART-1-1",           776,       11.9194,       10.4262,            0.,NA,NA,"",       1.31529,       1.31218,  -90.3068E-03,   48.2430E-06
C:/temp/dataset/4/7_25.odb,Step-1,Increment      1: Step Time =    1.000,"PART-1-1",           777,       11.9945,       12.8006,            0.,NA,NA,"",       1.43222,       1.42894,  -96.9343E-03,   43.5476E-06
C:/temp/dataset/4/7_25.odb,Step-1,Increment      1: Step Time =    1.000,"PART-1-1",           778,       12.0317,      -12.6649,            0.,NA,NA,"",   264.640E-03,   260.951E-03,  -44.0343E-03,   2.56849E-03
C:/temp/dataset/4/7_25.odb,Step-1,Increment      1: Step Time =    1.000,"PART-1-1",           779,       12.0352,       15.1685,            0.,NA,NA,"",       1.54869,       1.54533,  -101.833E-03,   22.3014E-06
C:/temp/dataset/4/7_25.odb,Step-1,Increment      1: Step Time =    1.000,"PART-1-1",           780,      -7.80161,      -2.23284,            0.,NA,NA,"",       1.20906,   699.035E-03,   986.494E-03,   125.120E-06
C:/temp/dataset/4/7_25.odb,Step-1,Increment      1: Step Time =    1.000,"PART-1-1",           781,      -8.87876,  -905.543E-03,            0.,NA,NA,"",       1.30044,   774.803E-03,       1.04442,   90.8578E-06
C:/temp/dataset/4/7_25.odb,Step-1,Increment      1: Step Time =    1.000,"PART-1-1",           782,      -7.16649,      -1.00336,            0.,NA,NA,"",       1.22006,   766.690E-03,   949.075E-03,   244.349E-06
C:/temp/dataset/4/7_25.odb,Step-1,Increment      1: Step Time =    1.000,"PART-1-1",           783,      -7.09692,   257.153E-03,            0.,NA,NA,"",       1.26085,   837.029E-03,   942.929E-03,   262.733E-06
C:/temp/dataset/4/7_25.odb,Step-1,Increment      1: Step Time =    1.000,"PART-1-1",           784,      -5.74923,      -1.63131,            0.,NA,NA,"",       1.13654,   729.698E-03,   871.353E-03,   763.204E-06
C:/temp/dataset/4/7_25.odb,Step-1,Increment      1: Step Time =    1.000,"PART-1-1",           785,      -5.66693,  -67.3201E-03,            0.,NA,NA,"",       1.18859,   816.896E-03,   863.381E-03,   562.213E-06
C:/temp/dataset/4/7_25.odb,Step-1,Increment      1: Step Time =    1.000,"PART-1-1",           786,      -5.46941,       1.35113,            0.,NA,NA,"",       1.23452,   895.797E-03,   849.468E-03,   511.796E-06
C:/temp/dataset/4/7_25.odb,Step-1,Increment      1: Step Time =    1.000,"PART-1-1",           787,       12.0849,      -15.0650,            0.,NA,NA,"",   197.253E-03,   193.377E-03,  -38.9086E-03,   2.69389E-03
C:/temp/dataset/4/7_25.odb,Step-1,Increment      1: Step Time =    1.000,"PART-1-1",           788,       7.01212,      -4.44648,            0.,NA,NA,"",   591.464E-03,   572.958E-03,   146.793E-03,   4.18434E-03
C:/temp/dataset/4/7_25.odb,Step-1,Increment      1: Step Time =    1.000,"PART-1-1",           789,       7.64174,      -3.33281,            0.,NA,NA,"",   637.553E-03,   626.151E-03,   120.040E-03,   3.72578E-03
C:/temp/dataset/4/7_25.odb,Step-1,Increment      1: Step Time =    1.000,"PART-1-1",           790,       6.60203,      -2.24861,            0.,NA,NA,"",   703.820E-03,   682.824E-03,   170.627E-03,   3.98012E-03
C:/temp/dataset/4/7_25.odb,Step-1,Increment      1: Step Time =    1.000,"PART-1-1",           791,       6.68626,       2.15992,            0.,NA,NA,"",   927.350E-03,   911.420E-03,   171.149E-03,   2.82114E-03
C:/temp/dataset/4/7_25.odb,Step-1,Increment      1: Step Time =    1.000,"PART-1-1",           792,       12.0103,       19.9021,            0.,NA,NA,"",       1.78135,       1.77817,  -106.353E-03,   2.22441E-06
C:/temp/dataset/4/7_25.odb,Step-1,Increment      1: Step Time =    1.000,"PART-1-1",           793,       12.0305,       17.5416,            0.,NA,NA,"",       1.66533,       1.66205,  -104.488E-03,   8.21958E-06
C:/temp/dataset/4/7_25.odb,Step-1,Increment      1: Step Time =    1.000,"PART-1-1",           794,       6.09271,      -1.14349,            0.,NA,NA,"",   767.486E-03,   741.489E-03,   198.060E-03,   3.42484E-03
C:/temp/dataset/4/7_25.odb,Step-1,Increment      1: Step Time =    1.000,"PART-1-1",           795,       7.56053,      -1.65505,            0.,NA,NA,"",   722.074E-03,   711.065E-03,   125.610E-03,   3.80003E-03
C:/temp/dataset/4/7_25.odb,Step-1,Increment      1: Step Time =    1.000,"PART-1-1",           796,       7.05122,  -549.935E-03,            0.,NA,NA,"",   784.261E-03,   769.528E-03,   151.303E-03,   3.39326E-03
C:/temp/dataset/4/7_25.odb,Step-1,Increment      1: Step Time =    1.000,"PART-1-1",           797,       5.28588,       1.87348,            0.,NA,NA,"",   932.956E-03,   901.071E-03,   241.822E-03,   2.14243E-03
C:/temp/dataset/4/7_25.odb,Step-1,Increment      1: Step Time =    1.000,"PART-1-1",           798,       5.70847,   325.226E-03,            0.,NA,NA,"",   847.867E-03,   819.018E-03,   219.293E-03,   2.53311E-03
C:/temp/dataset/4/7_25.odb,Step-1,Increment      1: Step Time =    1.000,"PART-1-1",           799,       7.10885,   611.668E-03,            0.,NA,NA,"",   843.050E-03,   829.691E-03,   149.485E-03,   3.09948E-03
C:/temp/dataset/4/7_25.odb,Step-1,Increment      1: Step Time =    1.000,"PART-1-1",           800,       9.00326,      -1.31280,            0.,NA,NA,"",   728.096E-03,   725.714E-03,   58.8505E-03,   3.58204E-03
C:/temp/dataset/4/7_25.odb,Step-1,Increment      1: Step Time =    1.000,"PART-1-1",           801,       8.22155,  -652.532E-03,            0.,NA,NA,"",   767.091E-03,   761.155E-03,   95.2420E-03,   3.58526E-03
C:/temp/dataset/4/7_25.odb,Step-1,Increment      1: Step Time =    1.000,"PART-1-1",           802,       8.34224,      -2.31533,            0.,NA,NA,"",   681.796E-03,   675.981E-03,   88.8565E-03,   3.65861E-03
C:/temp/dataset/4/7_25.odb,Step-1,Increment      1: Step Time =    1.000,"PART-1-1",           803,       2.82445,       2.06443,            0.,NA,NA,"",   991.735E-03,   918.459E-03,   374.125E-03,   2.64028E-03
