ODB Name,Step,Frame,Part Instance Name,    êﬂì_ÉâÉxÉã,X,Y,Z,Section Name,Material Name,Section Point,   U-Magnitude,          U-U1,          U-U2,       S-Mises
C:/temp/dataset/7/13_7.odb,Step-1,Increment      1: Step Time =    1.000,"PART-1-1",             1,          -15.,           20.,            0.,NA,NA,"",       3.51556,      -2.01520,      -2.88066,   2.95297E-06
C:/temp/dataset/7/13_7.odb,Step-1,Increment      1: Step Time =    1.000,"PART-1-1",             2,          -15.,           25.,            0.,NA,NA,"",       3.87293,      -2.55574,      -2.90995,   4.84187E-06
C:/temp/dataset/7/13_7.odb,Step-1,Increment      1: Step Time =    1.000,"PART-1-1",             3,      -11.6500,           20.,            0.,NA,NA,"",       3.23782,      -2.03482,      -2.51852,   6.35351E-06
C:/temp/dataset/7/13_7.odb,Step-1,Increment      1: Step Time =    1.000,"PART-1-1",             4,      -8.30000,           20.,            0.,NA,NA,"",       2.97835,      -2.05434,      -2.15645,   78.3270E-06
C:/temp/dataset/7/13_7.odb,Step-1,Increment      1: Step Time =    1.000,"PART-1-1",             5,           -5.,           20.,            0.,NA,NA,"",       2.74520,      -2.07310,      -1.79955,   385.902E-06
C:/temp/dataset/7/13_7.odb,Step-1,Increment      1: Step Time =    1.000,"PART-1-1",             6,      -1.65000,           20.,            0.,NA,NA,"",       2.53641,      -2.09117,      -1.43540,   806.936E-06
C:/temp/dataset/7/13_7.odb,Step-1,Increment      1: Step Time =    1.000,"PART-1-1",             7,       1.70000,           20.,            0.,NA,NA,"",       2.36153,      -2.10843,      -1.06364,   2.88980E-03
C:/temp/dataset/7/13_7.odb,Step-1,Increment      1: Step Time =    1.000,"PART-1-1",             8,            5.,           20.,            0.,NA,NA,"",       2.24435,      -2.14145,  -671.786E-03,   18.7115E-03
C:/temp/dataset/7/13_7.odb,Step-1,Increment      1: Step Time =    1.000,"PART-1-1",             9,            5.,         13.75,            0.,NA,NA,"",       1.70554,      -1.61353,  -552.626E-03,   14.9889E-03
C:/temp/dataset/7/13_7.odb,Step-1,Increment      1: Step Time =    1.000,"PART-1-1",            10,            5.,           7.5,            0.,NA,NA,"",       1.23851,      -1.15302,  -452.151E-03,   14.7030E-03
C:/temp/dataset/7/13_7.odb,Step-1,Increment      1: Step Time =    1.000,"PART-1-1",            11,            5.,          1.25,            0.,NA,NA,"",   855.338E-03,  -776.253E-03,  -359.213E-03,   14.2480E-03
C:/temp/dataset/7/13_7.odb,Step-1,Increment      1: Step Time =    1.000,"PART-1-1",            12,            5.,           -5.,            0.,NA,NA,"",   552.920E-03,  -480.430E-03,  -273.693E-03,   13.6523E-03
C:/temp/dataset/7/13_7.odb,Step-1,Increment      1: Step Time =    1.000,"PART-1-1",            13,            5.,        -11.25,            0.,NA,NA,"",   326.226E-03,  -261.445E-03,  -195.115E-03,   12.9274E-03
C:/temp/dataset/7/13_7.odb,Step-1,Increment      1: Step Time =    1.000,"PART-1-1",            14,            5.,         -17.5,            0.,NA,NA,"",   167.998E-03,  -114.356E-03,  -123.068E-03,   12.0818E-03
C:/temp/dataset/7/13_7.odb,Step-1,Increment      1: Step Time =    1.000,"PART-1-1",            15,            5.,        -23.75,            0.,NA,NA,"",   66.5341E-03,  -33.4447E-03,  -57.5172E-03,   11.0104E-03
C:/temp/dataset/7/13_7.odb,Step-1,Increment      1: Step Time =    1.000,"PART-1-1",            16,            5.,          -30.,            0.,NA,NA,"",            0.,  -3.08021E-39,  -5.91451E-39,   11.5651E-03
C:/temp/dataset/7/13_7.odb,Step-1,Increment      1: Step Time =    1.000,"PART-1-1",            17,           15.,          -30.,            0.,NA,NA,"",            0.,  -930.820E-42,   2.03428E-39,   3.96204E-03
C:/temp/dataset/7/13_7.odb,Step-1,Increment      1: Step Time =    1.000,"PART-1-1",            18,           15.,         -22.5,            0.,NA,NA,"",   49.4924E-03,  -33.6144E-03,   36.3258E-03,   6.26040E-03
C:/temp/dataset/7/13_7.odb,Step-1,Increment      1: Step Time =    1.000,"PART-1-1",            19,           15.,          -15.,            0.,NA,NA,"",   175.815E-03,  -156.137E-03,   80.8217E-03,   7.27373E-03
C:/temp/dataset/7/13_7.odb,Step-1,Increment      1: Step Time =    1.000,"PART-1-1",            20,           15.,          -7.5,            0.,NA,NA,"",   400.932E-03,  -379.360E-03,   129.741E-03,   8.21492E-03
C:/temp/dataset/7/13_7.odb,Step-1,Increment      1: Step Time =    1.000,"PART-1-1",            21,           15.,            0.,            0.,NA,NA,"",   735.442E-03,  -712.982E-03,   180.365E-03,   8.98878E-03
C:/temp/dataset/7/13_7.odb,Step-1,Increment      1: Step Time =    1.000,"PART-1-1",            22,           15.,           7.5,            0.,NA,NA,"",       1.18725,      -1.16487,   229.448E-03,   9.59361E-03
C:/temp/dataset/7/13_7.odb,Step-1,Increment      1: Step Time =    1.000,"PART-1-1",            23,           15.,           15.,            0.,NA,NA,"",       1.76320,      -1.74180,   273.824E-03,   10.0753E-03
C:/temp/dataset/7/13_7.odb,Step-1,Increment      1: Step Time =    1.000,"PART-1-1",            24,           15.,          22.5,            0.,NA,NA,"",       2.46943,      -2.45117,   299.806E-03,   5.98206E-03
C:/temp/dataset/7/13_7.odb,Step-1,Increment      1: Step Time =    1.000,"PART-1-1",            25,           15.,           30.,            0.,NA,NA,"",       3.24110,      -3.22952,   273.715E-03,   170.137E-06
C:/temp/dataset/7/13_7.odb,Step-1,Increment      1: Step Time =    1.000,"PART-1-1",            26,         11.25,           30.,            0.,NA,NA,"",       3.21315,      -3.21123,  -111.075E-03,   1.74170E-03
C:/temp/dataset/7/13_7.odb,Step-1,Increment      1: Step Time =    1.000,"PART-1-1",            27,           7.5,           30.,            0.,NA,NA,"",       3.24163,      -3.20283,  -500.052E-03,   4.87236E-03
C:/temp/dataset/7/13_7.odb,Step-1,Increment      1: Step Time =    1.000,"PART-1-1",            28,          3.75,           30.,            0.,NA,NA,"",       3.32678,      -3.19764,  -917.926E-03,   5.13227E-03
C:/temp/dataset/7/13_7.odb,Step-1,Increment      1: Step Time =    1.000,"PART-1-1",            29,            0.,           30.,            0.,NA,NA,"",       3.44328,      -3.17663,      -1.32861,   4.00269E-03
C:/temp/dataset/7/13_7.odb,Step-1,Increment      1: Step Time =    1.000,"PART-1-1",            30,         -3.75,           30.,            0.,NA,NA,"",       3.59995,      -3.16079,      -1.72310,   770.890E-06
C:/temp/dataset/7/13_7.odb,Step-1,Increment      1: Step Time =    1.000,"PART-1-1",            31,          -7.5,           30.,            0.,NA,NA,"",       3.79335,      -3.14011,      -2.12820,   150.534E-06
C:/temp/dataset/7/13_7.odb,Step-1,Increment      1: Step Time =    1.000,"PART-1-1",            32,        -11.25,           30.,            0.,NA,NA,"",       4.01794,      -3.11830,      -2.53378,   13.9958E-06
C:/temp/dataset/7/13_7.odb,Step-1,Increment      1: Step Time =    1.000,"PART-1-1",            33,          -15.,           30.,            0.,NA,NA,"",       4.26924,      -3.09632,      -2.93925,   660.030E-09
C:/temp/dataset/7/13_7.odb,Step-1,Increment      1: Step Time =    1.000,"PART-1-1",            34,          -15.,          22.5,            0.,NA,NA,"",       3.68865,      -2.28546,      -2.89531,   3.17452E-06
C:/temp/dataset/7/13_7.odb,Step-1,Increment      1: Step Time =    1.000,"PART-1-1",            35,            5.,       15.8333,            0.,NA,NA,"",       1.87939,      -1.78510,  -587.833E-03,   14.7386E-03
C:/temp/dataset/7/13_7.odb,Step-1,Increment      1: Step Time =    1.000,"PART-1-1",            36,            5.,       17.9167,            0.,NA,NA,"",       2.06015,      -1.96359,  -623.316E-03,   17.0985E-03
C:/temp/dataset/7/13_7.odb,Step-1,Increment      1: Step Time =    1.000,"PART-1-1",            37,            5.,       9.58333,            0.,NA,NA,"",       1.38482,      -1.29717,  -484.831E-03,   14.8062E-03
C:/temp/dataset/7/13_7.odb,Step-1,Increment      1: Step Time =    1.000,"PART-1-1",            38,            5.,       11.6667,            0.,NA,NA,"",       1.54051,      -1.45069,  -518.337E-03,   14.8424E-03
C:/temp/dataset/7/13_7.odb,Step-1,Increment      1: Step Time =    1.000,"PART-1-1",            39,            5.,       3.33333,            0.,NA,NA,"",   973.884E-03,  -892.670E-03,  -389.345E-03,   14.4198E-03
C:/temp/dataset/7/13_7.odb,Step-1,Increment      1: Step Time =    1.000,"PART-1-1",            40,            5.,       5.41667,            0.,NA,NA,"",       1.10156,      -1.01822,  -420.321E-03,   14.5737E-03
C:/temp/dataset/7/13_7.odb,Step-1,Increment      1: Step Time =    1.000,"PART-1-1",            41,            5.,      -2.91667,            0.,NA,NA,"",   645.033E-03,  -570.282E-03,  -301.407E-03,   13.8593E-03
C:/temp/dataset/7/13_7.odb,Step-1,Increment      1: Step Time =    1.000,"PART-1-1",            42,            5.,  -833.333E-03,            0.,NA,NA,"",   745.776E-03,  -668.838E-03,  -329.906E-03,   14.0621E-03
C:/temp/dataset/7/13_7.odb,Step-1,Increment      1: Step Time =    1.000,"PART-1-1",            43,            5.,      -9.16667,            0.,NA,NA,"",   393.765E-03,  -326.191E-03,  -220.569E-03,   13.1849E-03
C:/temp/dataset/7/13_7.odb,Step-1,Increment      1: Step Time =    1.000,"PART-1-1",            44,            5.,      -7.08333,            0.,NA,NA,"",   469.248E-03,  -399.131E-03,  -246.755E-03,   13.4151E-03
C:/temp/dataset/7/13_7.odb,Step-1,Increment      1: Step Time =    1.000,"PART-1-1",            45,            5.,      -15.4167,            0.,NA,NA,"",   213.724E-03,  -155.735E-03,  -146.371E-03,   12.3804E-03
C:/temp/dataset/7/13_7.odb,Step-1,Increment      1: Step Time =    1.000,"PART-1-1",            46,            5.,      -13.3333,            0.,NA,NA,"",   266.330E-03,  -204.692E-03,  -170.389E-03,   12.6623E-03
C:/temp/dataset/7/13_7.odb,Step-1,Increment      1: Step Time =    1.000,"PART-1-1",            47,            5.,      -21.6667,            0.,NA,NA,"",   95.0181E-03,  -53.4346E-03,  -78.5697E-03,   11.4164E-03
C:/temp/dataset/7/13_7.odb,Step-1,Increment      1: Step Time =    1.000,"PART-1-1",            48,            5.,      -19.5833,            0.,NA,NA,"",   128.619E-03,  -80.3458E-03,  -100.436E-03,   11.7513E-03
C:/temp/dataset/7/13_7.odb,Step-1,Increment      1: Step Time =    1.000,"PART-1-1",            49,            5.,      -27.9167,            0.,NA,NA,"",   21.6723E-03,  -10.8961E-03,  -18.7340E-03,   10.3651E-03
C:/temp/dataset/7/13_7.odb,Step-1,Increment      1: Step Time =    1.000,"PART-1-1",            50,            5.,      -25.8333,            0.,NA,NA,"",   42.2855E-03,  -19.6166E-03,  -37.4600E-03,   10.3447E-03
C:/temp/dataset/7/13_7.odb,Step-1,Increment      1: Step Time =    1.000,"PART-1-1",            51,          12.5,          -30.,            0.,NA,NA,"",            0.,   1.78154E-39,   1.29033E-39,   2.23823E-03
C:/temp/dataset/7/13_7.odb,Step-1,Increment      1: Step Time =    1.000,"PART-1-1",            52,           10.,          -30.,            0.,NA,NA,"",            0.,   1.12017E-39,  -5.81458E-39,   2.94298E-03
C:/temp/dataset/7/13_7.odb,Step-1,Increment      1: Step Time =    1.000,"PART-1-1",            53,           7.5,          -30.,            0.,NA,NA,"",            0.,   1.98052E-39,  -19.9173E-39,   4.92991E-03
C:/temp/dataset/7/13_7.odb,Step-1,Increment      1: Step Time =    1.000,"PART-1-1",            54,           15.,          -25.,            0.,NA,NA,"",   26.4245E-03,  -13.3810E-03,   22.7860E-03,   5.93288E-03
C:/temp/dataset/7/13_7.odb,Step-1,Increment      1: Step Time =    1.000,"PART-1-1",            55,           15.,         -27.5,            0.,NA,NA,"",   10.4917E-03,  -3.19757E-03,   9.99259E-03,   5.46877E-03
C:/temp/dataset/7/13_7.odb,Step-1,Increment      1: Step Time =    1.000,"PART-1-1",            56,           15.,         -17.5,            0.,NA,NA,"",   123.386E-03,  -104.628E-03,   65.4001E-03,   6.92795E-03
C:/temp/dataset/7/13_7.odb,Step-1,Increment      1: Step Time =    1.000,"PART-1-1",            57,           15.,          -20.,            0.,NA,NA,"",   81.4964E-03,  -63.9173E-03,   50.5593E-03,   6.58256E-03
C:/temp/dataset/7/13_7.odb,Step-1,Increment      1: Step Time =    1.000,"PART-1-1",            58,           15.,          -10.,            0.,NA,NA,"",   314.186E-03,  -293.126E-03,   113.093E-03,   7.92127E-03
C:/temp/dataset/7/13_7.odb,Step-1,Increment      1: Step Time =    1.000,"PART-1-1",            59,           15.,         -12.5,            0.,NA,NA,"",   239.274E-03,  -218.841E-03,   96.7505E-03,   7.60486E-03
C:/temp/dataset/7/13_7.odb,Step-1,Increment      1: Step Time =    1.000,"PART-1-1",            60,           15.,          -2.5,            0.,NA,NA,"",   611.252E-03,  -588.981E-03,   163.496E-03,   8.75206E-03
C:/temp/dataset/7/13_7.odb,Step-1,Increment      1: Step Time =    1.000,"PART-1-1",            61,           15.,           -5.,            0.,NA,NA,"",   499.847E-03,  -477.872E-03,   146.579E-03,   8.49572E-03
C:/temp/dataset/7/13_7.odb,Step-1,Increment      1: Step Time =    1.000,"PART-1-1",            62,           15.,            5.,            0.,NA,NA,"",       1.02321,      -1.00069,   213.464E-03,   9.40493E-03
C:/temp/dataset/7/13_7.odb,Step-1,Increment      1: Step Time =    1.000,"PART-1-1",            63,           15.,           2.5,            0.,NA,NA,"",   872.680E-03,  -850.139E-03,   197.063E-03,   9.20548E-03
C:/temp/dataset/7/13_7.odb,Step-1,Increment      1: Step Time =    1.000,"PART-1-1",            64,           15.,          12.5,            0.,NA,NA,"",       1.55686,      -1.53504,   259.774E-03,   9.97923E-03
C:/temp/dataset/7/13_7.odb,Step-1,Increment      1: Step Time =    1.000,"PART-1-1",            65,           15.,           10.,            0.,NA,NA,"",       1.36504,      -1.34289,   244.916E-03,   9.78430E-03
C:/temp/dataset/7/13_7.odb,Step-1,Increment      1: Step Time =    1.000,"PART-1-1",            66,           15.,           20.,            0.,NA,NA,"",       2.22075,      -2.20095,   295.932E-03,   8.37804E-03
C:/temp/dataset/7/13_7.odb,Step-1,Increment      1: Step Time =    1.000,"PART-1-1",            67,           15.,          17.5,            0.,NA,NA,"",       1.98458,      -1.96380,   286.418E-03,   9.60975E-03
C:/temp/dataset/7/13_7.odb,Step-1,Increment      1: Step Time =    1.000,"PART-1-1",            68,           15.,          27.5,            0.,NA,NA,"",       2.98449,      -2.97067,   286.965E-03,   598.336E-06
C:/temp/dataset/7/13_7.odb,Step-1,Increment      1: Step Time =    1.000,"PART-1-1",            69,           15.,           25.,            0.,NA,NA,"",       2.72587,      -2.70968,   296.676E-03,   3.05383E-03
C:/temp/dataset/7/13_7.odb,Step-1,Increment      1: Step Time =    1.000,"PART-1-1",            70,        13.125,           30.,            0.,NA,NA,"",       3.22058,      -3.21957,   80.7382E-03,   339.196E-06
C:/temp/dataset/7/13_7.odb,Step-1,Increment      1: Step Time =    1.000,"PART-1-1",            71,         9.375,           30.,            0.,NA,NA,"",       3.22017,      -3.20581,  -303.727E-03,   3.49895E-03
C:/temp/dataset/7/13_7.odb,Step-1,Increment      1: Step Time =    1.000,"PART-1-1",            72,         5.625,           30.,            0.,NA,NA,"",       3.27720,      -3.20092,  -702.953E-03,   4.70633E-03
C:/temp/dataset/7/13_7.odb,Step-1,Increment      1: Step Time =    1.000,"PART-1-1",            73,         1.875,           30.,            0.,NA,NA,"",       3.38246,      -3.18718,      -1.13265,   7.32017E-03
C:/temp/dataset/7/13_7.odb,Step-1,Increment      1: Step Time =    1.000,"PART-1-1",            74,        -1.875,           30.,            0.,NA,NA,"",       3.51642,      -3.16984,      -1.52230,   1.54452E-03
C:/temp/dataset/7/13_7.odb,Step-1,Increment      1: Step Time =    1.000,"PART-1-1",            75,        -5.625,           30.,            0.,NA,NA,"",       3.69248,      -3.15071,      -1.92546,   344.001E-06
C:/temp/dataset/7/13_7.odb,Step-1,Increment      1: Step Time =    1.000,"PART-1-1",            76,        -9.375,           30.,            0.,NA,NA,"",       3.90202,      -3.12926,      -2.33100,   52.7456E-06
C:/temp/dataset/7/13_7.odb,Step-1,Increment      1: Step Time =    1.000,"PART-1-1",            77,       -13.125,           30.,            0.,NA,NA,"",       4.14052,      -3.10731,      -2.73652,   1.54103E-06
C:/temp/dataset/7/13_7.odb,Step-1,Increment      1: Step Time =    1.000,"PART-1-1",            78,          -15.,          27.5,            0.,NA,NA,"",       4.06690,      -2.82602,      -2.92459,   1.82243E-06
C:/temp/dataset/7/13_7.odb,Step-1,Increment      1: Step Time =    1.000,"PART-1-1",            79,      -7.07467,       28.0475,            0.,NA,NA,"",       3.58924,      -2.93169,      -2.07071,   178.789E-06
C:/temp/dataset/7/13_7.odb,Step-1,Increment      1: Step Time =    1.000,"PART-1-1",            80,      -10.7971,       27.6072,            0.,NA,NA,"",       3.78117,      -2.86227,      -2.47077,   41.7236E-06
C:/temp/dataset/7/13_7.odb,Step-1,Increment      1: Step Time =    1.000,"PART-1-1",            81,      -3.50976,       28.2242,            0.,NA,NA,"",       3.41684,      -2.97153,      -1.68665,   351.260E-06
C:/temp/dataset/7/13_7.odb,Step-1,Increment      1: Step Time =    1.000,"PART-1-1",            82,       11.3028,       27.6605,            0.,NA,NA,"",       2.96991,      -2.96849,  -91.6951E-03,   2.85806E-03
C:/temp/dataset/7/13_7.odb,Step-1,Increment      1: Step Time =    1.000,"PART-1-1",            83,       7.46624,       27.7175,            0.,NA,NA,"",       3.00017,      -2.96041,  -486.809E-03,   2.49549E-03
C:/temp/dataset/7/13_7.odb,Step-1,Increment      1: Step Time =    1.000,"PART-1-1",            84,   523.838E-03,       28.1559,            0.,NA,NA,"",       3.23878,      -2.98471,      -1.25747,   5.29546E-03
C:/temp/dataset/7/13_7.odb,Step-1,Increment      1: Step Time =    1.000,"PART-1-1",            85,       13.1724,       27.5829,            0.,NA,NA,"",       2.97087,      -2.96923,   98.5408E-03,   1.92233E-03
C:/temp/dataset/7/13_7.odb,Step-1,Increment      1: Step Time =    1.000,"PART-1-1",            86,       9.41586,       27.7284,            0.,NA,NA,"",       2.98190,      -2.96832,  -284.225E-03,   3.02010E-03
C:/temp/dataset/7/13_7.odb,Step-1,Increment      1: Step Time =    1.000,"PART-1-1",            87,       5.17501,       27.3177,            0.,NA,NA,"",       2.99997,      -2.90939,  -731.613E-03,   4.07782E-03
C:/temp/dataset/7/13_7.odb,Step-1,Increment      1: Step Time =    1.000,"PART-1-1",            88,       1.85763,       28.7412,            0.,NA,NA,"",       3.25009,      -3.05097,      -1.12012,   8.18653E-03
C:/temp/dataset/7/13_7.odb,Step-1,Increment      1: Step Time =    1.000,"PART-1-1",            89,      -1.45910,       27.7280,            0.,NA,NA,"",       3.27557,      -2.93021,      -1.46399,   1.13536E-03
C:/temp/dataset/7/13_7.odb,Step-1,Increment      1: Step Time =    1.000,"PART-1-1",            90,      -5.31380,       28.2250,            0.,NA,NA,"",       3.50822,      -2.96112,      -1.88133,   290.933E-06
C:/temp/dataset/7/13_7.odb,Step-1,Increment      1: Step Time =    1.000,"PART-1-1",            91,      -8.92632,       27.8484,            0.,NA,NA,"",       3.68216,      -2.89932,      -2.26985,   91.5665E-06
C:/temp/dataset/7/13_7.odb,Step-1,Increment      1: Step Time =    1.000,"PART-1-1",            92,       7.03655,   996.185E-03,            0.,NA,NA,"",   793.550E-03,  -754.800E-03,  -244.945E-03,   9.44901E-03
C:/temp/dataset/7/13_7.odb,Step-1,Increment      1: Step Time =    1.000,"PART-1-1",            93,       6.93081,       13.7923,            0.,NA,NA,"",       1.66010,      -1.61248,  -394.760E-03,   10.1776E-03
C:/temp/dataset/7/13_7.odb,Step-1,Increment      1: Step Time =    1.000,"PART-1-1",            94,       7.08682,       7.47611,            0.,NA,NA,"",       1.18586,      -1.14481,  -309.303E-03,   9.61558E-03
C:/temp/dataset/7/13_7.odb,Step-1,Increment      1: Step Time =    1.000,"PART-1-1",            95,       6.96700,      -1.15199,            0.,NA,NA,"",   684.103E-03,  -645.181E-03,  -227.459E-03,   9.49383E-03
C:/temp/dataset/7/13_7.odb,Step-1,Increment      1: Step Time =    1.000,"PART-1-1",            96,       6.47578,      -21.8661,            0.,NA,NA,"",   74.5748E-03,  -44.6260E-03,  -59.7488E-03,   8.79658E-03
C:/temp/dataset/7/13_7.odb,Step-1,Increment      1: Step Time =    1.000,"PART-1-1",            97,       7.14087,      -13.1040,            0.,NA,NA,"",   232.415E-03,  -201.151E-03,  -116.426E-03,   8.34086E-03
C:/temp/dataset/7/13_7.odb,Step-1,Increment      1: Step Time =    1.000,"PART-1-1",            98,       6.53104,      -7.08024,            0.,NA,NA,"",   435.299E-03,  -392.195E-03,  -188.861E-03,   10.0870E-03
C:/temp/dataset/7/13_7.odb,Step-1,Increment      1: Step Time =    1.000,"PART-1-1",            99,       6.85322,      -3.24169,            0.,NA,NA,"",   587.617E-03,  -547.795E-03,  -212.636E-03,   9.63086E-03
C:/temp/dataset/7/13_7.odb,Step-1,Increment      1: Step Time =    1.000,"PART-1-1",           100,       6.74184,      -8.96518,            0.,NA,NA,"",   363.803E-03,  -324.984E-03,  -163.516E-03,   9.47813E-03
C:/temp/dataset/7/13_7.odb,Step-1,Increment      1: Step Time =    1.000,"PART-1-1",           101,       6.94703,      -23.6171,            0.,NA,NA,"",   49.3593E-03,  -26.3059E-03,  -41.7653E-03,   7.81766E-03
C:/temp/dataset/7/13_7.odb,Step-1,Increment      1: Step Time =    1.000,"PART-1-1",           102,       7.44695,      -27.8442,            0.,NA,NA,"",   11.6723E-03,  -2.76725E-03,  -11.3396E-03,   6.82974E-03
C:/temp/dataset/7/13_7.odb,Step-1,Increment      1: Step Time =    1.000,"PART-1-1",           103,       7.35225,      -17.6578,            0.,NA,NA,"",   128.021E-03,  -101.507E-03,  -78.0110E-03,   7.58819E-03
C:/temp/dataset/7/13_7.odb,Step-1,Increment      1: Step Time =    1.000,"PART-1-1",           104,       7.23832,      -15.2967,            0.,NA,NA,"",   177.662E-03,  -148.630E-03,  -97.3288E-03,   7.98637E-03
C:/temp/dataset/7/13_7.odb,Step-1,Increment      1: Step Time =    1.000,"PART-1-1",           105,       7.10099,       17.6583,            0.,NA,NA,"",       1.98642,      -1.93984,  -427.651E-03,   10.0923E-03
C:/temp/dataset/7/13_7.odb,Step-1,Increment      1: Step Time =    1.000,"PART-1-1",           106,       6.86948,       15.7920,            0.,NA,NA,"",       1.82820,      -1.77794,  -425.743E-03,   10.9007E-03
C:/temp/dataset/7/13_7.odb,Step-1,Increment      1: Step Time =    1.000,"PART-1-1",           107,       7.06799,       9.62990,            0.,NA,NA,"",       1.33708,      -1.29453,  -334.609E-03,   9.73682E-03
C:/temp/dataset/7/13_7.odb,Step-1,Increment      1: Step Time =    1.000,"PART-1-1",           108,       7.09093,       5.31052,            0.,NA,NA,"",       1.04432,      -1.00444,  -285.821E-03,   9.51917E-03
C:/temp/dataset/7/13_7.odb,Step-1,Increment      1: Step Time =    1.000,"PART-1-1",           109,       6.65187,      -5.22056,            0.,NA,NA,"",   506.186E-03,  -464.050E-03,  -202.194E-03,   9.94687E-03
C:/temp/dataset/7/13_7.odb,Step-1,Increment      1: Step Time =    1.000,"PART-1-1",           110,       7.26954,      -25.7037,            0.,NA,NA,"",   27.6161E-03,  -11.3683E-03,  -25.1677E-03,   7.31632E-03
C:/temp/dataset/7/13_7.odb,Step-1,Increment      1: Step Time =    1.000,"PART-1-1",           111,       7.53271,      -20.3934,            0.,NA,NA,"",   81.5760E-03,  -58.6277E-03,  -56.7224E-03,   7.06218E-03
C:/temp/dataset/7/13_7.odb,Step-1,Increment      1: Step Time =    1.000,"PART-1-1",           112,       7.01178,       11.7341,            0.,NA,NA,"",       1.49539,      -1.45058,  -363.313E-03,   9.95968E-03
C:/temp/dataset/7/13_7.odb,Step-1,Increment      1: Step Time =    1.000,"PART-1-1",           113,       7.07643,       3.14767,            0.,NA,NA,"",   913.410E-03,  -874.331E-03,  -264.316E-03,   9.45903E-03
C:/temp/dataset/7/13_7.odb,Step-1,Increment      1: Step Time =    1.000,"PART-1-1",           114,       6.98190,      -10.9751,            0.,NA,NA,"",   295.063E-03,  -260.699E-03,  -138.197E-03,   8.82560E-03
C:/temp/dataset/7/13_7.odb,Step-1,Increment      1: Step Time =    1.000,"PART-1-1",           115,       13.1254,       22.8014,            0.,NA,NA,"",       2.47147,      -2.46891,   112.567E-03,   4.20395E-03
C:/temp/dataset/7/13_7.odb,Step-1,Increment      1: Step Time =    1.000,"PART-1-1",           116,       12.8923,      -4.74502,            0.,NA,NA,"",   484.541E-03,  -480.890E-03,   59.3730E-03,   3.86351E-03
C:/temp/dataset/7/13_7.odb,Step-1,Increment      1: Step Time =    1.000,"PART-1-1",           117,       13.0513,      -12.4505,            0.,NA,NA,"",   218.923E-03,  -214.543E-03,   43.5747E-03,   3.66245E-03
C:/temp/dataset/7/13_7.odb,Step-1,Increment      1: Step Time =    1.000,"PART-1-1",           118,       12.2427,       17.8341,            0.,NA,NA,"",       1.97546,      -1.97510,   37.5963E-03,   3.43492E-03
C:/temp/dataset/7/13_7.odb,Step-1,Increment      1: Step Time =    1.000,"PART-1-1",           119,       13.0441,       9.90429,            0.,NA,NA,"",       1.32801,      -1.32412,   101.462E-03,   4.93046E-03
C:/temp/dataset/7/13_7.odb,Step-1,Increment      1: Step Time =    1.000,"PART-1-1",           120,       13.0522,       2.62582,            0.,NA,NA,"",   852.512E-03,  -848.134E-03,   86.2898E-03,   4.63584E-03
C:/temp/dataset/7/13_7.odb,Step-1,Increment      1: Step Time =    1.000,"PART-1-1",           121,       13.2006,      -19.7745,            0.,NA,NA,"",   67.8971E-03,  -62.9478E-03,   25.4478E-03,   3.31758E-03
C:/temp/dataset/7/13_7.odb,Step-1,Increment      1: Step Time =    1.000,"PART-1-1",           122,       9.90112,      -27.6522,            0.,NA,NA,"",   4.80782E-03,   1.14986E-03,  -4.66829E-03,   2.62634E-03
C:/temp/dataset/7/13_7.odb,Step-1,Increment      1: Step Time =    1.000,"PART-1-1",           123,       13.0591,      -22.1191,            0.,NA,NA,"",   37.6548E-03,  -33.4162E-03,   17.3564E-03,   2.85342E-03
C:/temp/dataset/7/13_7.odb,Step-1,Increment      1: Step Time =    1.000,"PART-1-1",           124,       13.1139,      -14.9356,            0.,NA,NA,"",   157.156E-03,  -152.520E-03,   37.8905E-03,   3.58445E-03
C:/temp/dataset/7/13_7.odb,Step-1,Increment      1: Step Time =    1.000,"PART-1-1",           125,       13.1678,      -17.3995,            0.,NA,NA,"",   106.732E-03,  -101.891E-03,   31.7789E-03,   3.47374E-03
C:/temp/dataset/7/13_7.odb,Step-1,Increment      1: Step Time =    1.000,"PART-1-1",           126,       12.7891,      -7.32383,            0.,NA,NA,"",   381.689E-03,  -378.555E-03,   48.8090E-03,   3.48183E-03
C:/temp/dataset/7/13_7.odb,Step-1,Increment      1: Step Time =    1.000,"PART-1-1",           127,       12.9162,      -9.94117,            0.,NA,NA,"",   292.301E-03,  -288.572E-03,   46.5420E-03,   3.57218E-03
C:/temp/dataset/7/13_7.odb,Step-1,Increment      1: Step Time =    1.000,"PART-1-1",           128,       13.0283,   193.158E-03,            0.,NA,NA,"",   718.782E-03,  -714.459E-03,   78.7153E-03,   4.45368E-03
C:/temp/dataset/7/13_7.odb,Step-1,Increment      1: Step Time =    1.000,"PART-1-1",           129,       12.9794,      -2.25409,            0.,NA,NA,"",   596.563E-03,  -592.465E-03,   69.8016E-03,   4.20423E-03
C:/temp/dataset/7/13_7.odb,Step-1,Increment      1: Step Time =    1.000,"PART-1-1",           130,       13.0689,       7.48049,            0.,NA,NA,"",       1.15702,      -1.15281,   98.5638E-03,   4.89650E-03
C:/temp/dataset/7/13_7.odb,Step-1,Increment      1: Step Time =    1.000,"PART-1-1",           131,       13.0764,       5.05734,            0.,NA,NA,"",   998.806E-03,  -994.404E-03,   93.6675E-03,   4.80949E-03
C:/temp/dataset/7/13_7.odb,Step-1,Increment      1: Step Time =    1.000,"PART-1-1",           132,       12.6962,       14.9270,            0.,NA,NA,"",       1.72173,      -1.71992,   78.9656E-03,   4.20388E-03
C:/temp/dataset/7/13_7.odb,Step-1,Increment      1: Step Time =    1.000,"PART-1-1",           133,       12.9459,       12.3607,            0.,NA,NA,"",       1.51395,      -1.51080,   97.5846E-03,   4.76170E-03
C:/temp/dataset/7/13_7.odb,Step-1,Increment      1: Step Time =    1.000,"PART-1-1",           134,       12.9476,       20.4489,            0.,NA,NA,"",       2.23211,      -2.22988,   99.7636E-03,   4.62419E-03
C:/temp/dataset/7/13_7.odb,Step-1,Increment      1: Step Time =    1.000,"PART-1-1",           135,       13.1802,       25.1793,            0.,NA,NA,"",       2.71921,      -2.71697,   110.285E-03,   3.26915E-03
C:/temp/dataset/7/13_7.odb,Step-1,Increment      1: Step Time =    1.000,"PART-1-1",           136,      -12.4062,       24.9250,            0.,NA,NA,"",       3.67156,      -2.56286,      -2.62909,   20.5937E-06
C:/temp/dataset/7/13_7.odb,Step-1,Increment      1: Step Time =    1.000,"PART-1-1",           137,       11.3078,       25.3904,            0.,NA,NA,"",       2.73040,      -2.72928,  -78.3717E-03,   3.70834E-03
C:/temp/dataset/7/13_7.odb,Step-1,Increment      1: Step Time =    1.000,"PART-1-1",           138,      -10.1009,       25.2443,            0.,NA,NA,"",       3.53408,      -2.61095,      -2.38173,   68.7229E-06
C:/temp/dataset/7/13_7.odb,Step-1,Increment      1: Step Time =    1.000,"PART-1-1",           139,      -4.83291,       26.5053,            0.,NA,NA,"",       3.32141,      -2.77870,      -1.81951,   287.742E-06
C:/temp/dataset/7/13_7.odb,Step-1,Increment      1: Step Time =    1.000,"PART-1-1",           140,       1.72347,       26.1851,            0.,NA,NA,"",       2.99048,      -2.77810,      -1.10688,   5.37605E-03
C:/temp/dataset/7/13_7.odb,Step-1,Increment      1: Step Time =    1.000,"PART-1-1",           141,       6.12189,       25.7754,            0.,NA,NA,"",       2.81781,      -2.74988,  -614.973E-03,   3.88076E-03
C:/temp/dataset/7/13_7.odb,Step-1,Increment      1: Step Time =    1.000,"PART-1-1",           142,       7.62725,       25.7499,            0.,NA,NA,"",       2.78975,      -2.75241,  -454.913E-03,   2.98083E-03
C:/temp/dataset/7/13_7.odb,Step-1,Increment      1: Step Time =    1.000,"PART-1-1",           143,       3.76931,       25.0880,            0.,NA,NA,"",       2.80705,      -2.66955,  -867.776E-03,   6.62316E-03
C:/temp/dataset/7/13_7.odb,Step-1,Increment      1: Step Time =    1.000,"PART-1-1",           144,  -231.428E-03,       26.1188,            0.,NA,NA,"",       3.06253,      -2.76315,      -1.32062,   2.62970E-03
C:/temp/dataset/7/13_7.odb,Step-1,Increment      1: Step Time =    1.000,"PART-1-1",           145,      -2.48530,       25.9891,            0.,NA,NA,"",       3.15206,      -2.73717,      -1.56314,   474.753E-06
C:/temp/dataset/7/13_7.odb,Step-1,Increment      1: Step Time =    1.000,"PART-1-1",           146,      -3.63425,       26.9302,            0.,NA,NA,"",       3.29897,      -2.83169,      -1.69257,   281.155E-06
C:/temp/dataset/7/13_7.odb,Step-1,Increment      1: Step Time =    1.000,"PART-1-1",           147,      -8.31738,       25.8431,            0.,NA,NA,"",       3.46734,      -2.68625,      -2.19237,   128.195E-06
C:/temp/dataset/7/13_7.odb,Step-1,Increment      1: Step Time =    1.000,"PART-1-1",           148,       9.04714,   705.037E-03,            0.,NA,NA,"",   747.964E-03,  -735.900E-03,  -133.799E-03,   4.76760E-03
C:/temp/dataset/7/13_7.odb,Step-1,Increment      1: Step Time =    1.000,"PART-1-1",           149,       7.85197,      -7.06885,            0.,NA,NA,"",   412.475E-03,  -388.458E-03,  -138.693E-03,   7.21280E-03
C:/temp/dataset/7/13_7.odb,Step-1,Increment      1: Step Time =    1.000,"PART-1-1",           150,       8.74205,      -22.9842,            0.,NA,NA,"",   38.7614E-03,  -26.7012E-03,  -28.0978E-03,   4.88274E-03
C:/temp/dataset/7/13_7.odb,Step-1,Increment      1: Step Time =    1.000,"PART-1-1",           151,       9.28078,      -15.1075,            0.,NA,NA,"",   156.556E-03,  -147.889E-03,  -51.3674E-03,   4.01675E-03
C:/temp/dataset/7/13_7.odb,Step-1,Increment      1: Step Time =    1.000,"PART-1-1",           152,       8.97855,      -1.55139,            0.,NA,NA,"",   634.171E-03,  -621.797E-03,  -124.665E-03,   4.88879E-03
C:/temp/dataset/7/13_7.odb,Step-1,Increment      1: Step Time =    1.000,"PART-1-1",           153,       9.09422,       9.69450,            0.,NA,NA,"",       1.31143,      -1.29801,  -187.162E-03,   4.80147E-03
C:/temp/dataset/7/13_7.odb,Step-1,Increment      1: Step Time =    1.000,"PART-1-1",           154,       8.44946,       15.5970,            0.,NA,NA,"",       1.78504,      -1.76190,  -286.464E-03,   5.99412E-03
C:/temp/dataset/7/13_7.odb,Step-1,Increment      1: Step Time =    1.000,"PART-1-1",           155,       9.11701,       7.46178,            0.,NA,NA,"",       1.15475,      -1.14208,  -170.560E-03,   4.70533E-03
C:/temp/dataset/7/13_7.odb,Step-1,Increment      1: Step Time =    1.000,"PART-1-1",           156,       8.83101,       13.9442,            0.,NA,NA,"",       1.64236,      -1.62476,  -239.837E-03,   5.43275E-03
C:/temp/dataset/7/13_7.odb,Step-1,Increment      1: Step Time =    1.000,"PART-1-1",           157,       9.61385,      -19.9311,            0.,NA,NA,"",   66.6964E-03,  -60.3053E-03,  -28.4899E-03,   3.36580E-03
C:/temp/dataset/7/13_7.odb,Step-1,Increment      1: Step Time =    1.000,"PART-1-1",           158,       9.10031,       2.95854,            0.,NA,NA,"",   872.453E-03,  -860.518E-03,  -143.814E-03,   4.67717E-03
C:/temp/dataset/7/13_7.odb,Step-1,Increment      1: Step Time =    1.000,"PART-1-1",           159,       9.17986,      -12.8049,            0.,NA,NA,"",   213.507E-03,  -203.976E-03,  -63.0766E-03,   4.25542E-03
C:/temp/dataset/7/13_7.odb,Step-1,Increment      1: Step Time =    1.000,"PART-1-1",           160,       8.54844,      -8.43147,            0.,NA,NA,"",   353.812E-03,  -338.089E-03,  -104.303E-03,   5.66516E-03
C:/temp/dataset/7/13_7.odb,Step-1,Increment      1: Step Time =    1.000,"PART-1-1",           161,       8.46228,      -5.79934,            0.,NA,NA,"",   452.918E-03,  -435.877E-03,  -123.070E-03,   5.92713E-03
C:/temp/dataset/7/13_7.odb,Step-1,Increment      1: Step Time =    1.000,"PART-1-1",           162,       8.97830,      -10.5487,            0.,NA,NA,"",   279.839E-03,  -268.475E-03,  -78.9373E-03,   4.71007E-03
C:/temp/dataset/7/13_7.odb,Step-1,Increment      1: Step Time =    1.000,"PART-1-1",           163,       8.84007,      -3.76868,            0.,NA,NA,"",   533.382E-03,  -519.974E-03,  -118.841E-03,   5.15480E-03
C:/temp/dataset/7/13_7.odb,Step-1,Increment      1: Step Time =    1.000,"PART-1-1",           164,       9.12644,       5.21383,            0.,NA,NA,"",       1.00817,  -996.067E-03,  -155.743E-03,   4.64742E-03
C:/temp/dataset/7/13_7.odb,Step-1,Increment      1: Step Time =    1.000,"PART-1-1",           165,       9.36869,      -17.5094,            0.,NA,NA,"",   107.411E-03,  -99.4132E-03,  -40.6717E-03,   3.81944E-03
C:/temp/dataset/7/13_7.odb,Step-1,Increment      1: Step Time =    1.000,"PART-1-1",           166,       9.01212,       11.8707,            0.,NA,NA,"",       1.47534,      -1.46045,  -209.069E-03,   5.02516E-03
C:/temp/dataset/7/13_7.odb,Step-1,Increment      1: Step Time =    1.000,"PART-1-1",           167,       9.60003,       16.9835,            0.,NA,NA,"",       1.89533,      -1.88516,  -196.098E-03,   2.64137E-03
C:/temp/dataset/7/13_7.odb,Step-1,Increment      1: Step Time =    1.000,"PART-1-1",           168,       7.13047,       19.6676,            0.,NA,NA,"",       2.17032,      -2.12358,  -448.002E-03,   6.17966E-03
C:/temp/dataset/7/13_7.odb,Step-1,Increment      1: Step Time =    1.000,"PART-1-1",           169,       9.55406,      -25.2995,            0.,NA,NA,"",   15.0907E-03,  -8.22177E-03,  -12.6543E-03,   3.47069E-03
C:/temp/dataset/7/13_7.odb,Step-1,Increment      1: Step Time =    1.000,"PART-1-1",           170,       12.3800,      -27.4389,            0.,NA,NA,"",   2.91542E-03,   625.903E-06,   2.84744E-03,   1.72235E-03
C:/temp/dataset/7/13_7.odb,Step-1,Increment      1: Step Time =    1.000,"PART-1-1",           171,      -11.9351,       22.4166,            0.,NA,NA,"",       3.44033,      -2.29441,      -2.56350,   19.3214E-06
C:/temp/dataset/7/13_7.odb,Step-1,Increment      1: Step Time =    1.000,"PART-1-1",           172,       10.9842,      -1.93535,            0.,NA,NA,"",   604.043E-03,  -603.503E-03,  -25.5147E-03,   521.585E-06
C:/temp/dataset/7/13_7.odb,Step-1,Increment      1: Step Time =    1.000,"PART-1-1",           173,       11.2234,      -14.9909,            0.,NA,NA,"",   149.404E-03,  -149.273E-03,  -6.26187E-03,   588.812E-06
C:/temp/dataset/7/13_7.odb,Step-1,Increment      1: Step Time =    1.000,"PART-1-1",           174,       11.0574,       21.1283,            0.,NA,NA,"",       2.28781,      -2.28634,  -81.9182E-03,   3.49107E-03
C:/temp/dataset/7/13_7.odb,Step-1,Increment      1: Step Time =    1.000,"PART-1-1",           175,       10.7466,       19.4847,            0.,NA,NA,"",       2.12514,      -2.12258,  -104.285E-03,   2.49535E-03
C:/temp/dataset/7/13_7.odb,Step-1,Increment      1: Step Time =    1.000,"PART-1-1",           176,       11.0568,   433.028E-03,            0.,NA,NA,"",   722.752E-03,  -722.311E-03,  -25.2524E-03,   394.258E-06
C:/temp/dataset/7/13_7.odb,Step-1,Increment      1: Step Time =    1.000,"PART-1-1",           177,       10.9662,       12.1205,            0.,NA,NA,"",       1.48477,      -1.48365,  -57.6761E-03,   294.470E-06
C:/temp/dataset/7/13_7.odb,Step-1,Increment      1: Step Time =    1.000,"PART-1-1",           178,       11.6216,      -21.4567,            0.,NA,NA,"",   39.7208E-03,  -39.6990E-03,   1.31629E-03,   647.385E-06
C:/temp/dataset/7/13_7.odb,Step-1,Increment      1: Step Time =    1.000,"PART-1-1",           179,       11.2975,      -17.3958,            0.,NA,NA,"",   100.263E-03,  -100.187E-03,  -3.90039E-03,   591.917E-06
C:/temp/dataset/7/13_7.odb,Step-1,Increment      1: Step Time =    1.000,"PART-1-1",           180,       10.6273,       14.4803,            0.,NA,NA,"",       1.67561,      -1.67298,  -93.9014E-03,   928.356E-06
C:/temp/dataset/7/13_7.odb,Step-1,Increment      1: Step Time =    1.000,"PART-1-1",           181,       11.1012,       2.78293,            0.,NA,NA,"",   852.213E-03,  -851.804E-03,  -26.4080E-03,   352.140E-06
C:/temp/dataset/7/13_7.odb,Step-1,Increment      1: Step Time =    1.000,"PART-1-1",           182,       11.1153,       7.46695,            0.,NA,NA,"",       1.14562,      -1.14511,  -34.3147E-03,   325.350E-06
C:/temp/dataset/7/13_7.odb,Step-1,Increment      1: Step Time =    1.000,"PART-1-1",           183,       11.1247,      -12.5851,            0.,NA,NA,"",   208.897E-03,  -208.658E-03,  -9.98343E-03,   608.512E-06
C:/temp/dataset/7/13_7.odb,Step-1,Increment      1: Step Time =    1.000,"PART-1-1",           184,       10.4094,      -7.19663,            0.,NA,NA,"",   382.719E-03,  -380.538E-03,  -40.8018E-03,   1.74290E-03
C:/temp/dataset/7/13_7.odb,Step-1,Increment      1: Step Time =    1.000,"PART-1-1",           185,       10.4303,      -22.2648,            0.,NA,NA,"",   33.4554E-03,  -31.1633E-03,  -12.1702E-03,   1.98701E-03
C:/temp/dataset/7/13_7.odb,Step-1,Increment      1: Step Time =    1.000,"PART-1-1",           186,       10.9130,      -10.1038,            0.,NA,NA,"",   281.594E-03,  -280.991E-03,  -18.4125E-03,   830.873E-06
C:/temp/dataset/7/13_7.odb,Step-1,Increment      1: Step Time =    1.000,"PART-1-1",           187,       10.8491,      -4.38491,            0.,NA,NA,"",   493.548E-03,  -492.746E-03,  -28.1336E-03,   802.738E-06
C:/temp/dataset/7/13_7.odb,Step-1,Increment      1: Step Time =    1.000,"PART-1-1",           188,       11.1275,       5.13070,            0.,NA,NA,"",   993.341E-03,  -992.922E-03,  -28.8535E-03,   350.599E-06
C:/temp/dataset/7/13_7.odb,Step-1,Increment      1: Step Time =    1.000,"PART-1-1",           189,       11.0819,       9.79848,            0.,NA,NA,"",       1.30953,      -1.30885,  -42.1969E-03,   279.761E-06
C:/temp/dataset/7/13_7.odb,Step-1,Increment      1: Step Time =    1.000,"PART-1-1",           190,       12.1026,      -24.5603,            0.,NA,NA,"",   12.4104E-03,  -11.5881E-03,   4.44230E-03,   1.10071E-03
C:/temp/dataset/7/13_7.odb,Step-1,Increment      1: Step Time =    1.000,"PART-1-1",           191,      -7.61069,       24.2264,            0.,NA,NA,"",       3.28124,      -2.51565,      -2.10666,   161.264E-06
C:/temp/dataset/7/13_7.odb,Step-1,Increment      1: Step Time =    1.000,"PART-1-1",           192,      -5.77678,       24.2650,            0.,NA,NA,"",       3.16990,      -2.53084,      -1.90870,   261.209E-06
C:/temp/dataset/7/13_7.odb,Step-1,Increment      1: Step Time =    1.000,"PART-1-1",           193,       1.00958,       23.8763,            0.,NA,NA,"",       2.78492,      -2.52880,      -1.16659,   3.18362E-03
C:/temp/dataset/7/13_7.odb,Step-1,Increment      1: Step Time =    1.000,"PART-1-1",           194,      -3.86757,       24.8145,            0.,NA,NA,"",       3.11106,      -2.60192,      -1.70549,   269.196E-06
C:/temp/dataset/7/13_7.odb,Step-1,Increment      1: Step Time =    1.000,"PART-1-1",           195,  -996.969E-03,       24.6602,            0.,NA,NA,"",       2.95167,      -2.60214,      -1.39329,   1.14581E-03
C:/temp/dataset/7/13_7.odb,Step-1,Increment      1: Step Time =    1.000,"PART-1-1",           196,       7.19995,       21.7613,            0.,NA,NA,"",       2.37874,      -2.33349,  -461.775E-03,   6.40046E-03
C:/temp/dataset/7/13_7.odb,Step-1,Increment      1: Step Time =    1.000,"PART-1-1",           197,       2.92747,       22.7842,            0.,NA,NA,"",       2.60044,      -2.42320,  -943.616E-03,   6.66761E-03
C:/temp/dataset/7/13_7.odb,Step-1,Increment      1: Step Time =    1.000,"PART-1-1",           198,       5.53232,       24.2100,            0.,NA,NA,"",       2.66782,      -2.58381,  -664.219E-03,   5.64070E-03
C:/temp/dataset/7/13_7.odb,Step-1,Increment      1: Step Time =    1.000,"PART-1-1",           199,       9.18626,       19.3402,            0.,NA,NA,"",       2.11545,      -2.10071,  -249.320E-03,   3.29500E-03
C:/temp/dataset/7/13_7.odb,Step-1,Increment      1: Step Time =    1.000,"PART-1-1",           200,       11.2321,       23.1770,            0.,NA,NA,"",       2.49806,      -2.49695,  -74.4272E-03,   4.03220E-03
C:/temp/dataset/7/13_7.odb,Step-1,Increment      1: Step Time =    1.000,"PART-1-1",           201,       5.11021,       22.1378,            0.,NA,NA,"",       2.46420,      -2.36613,  -688.283E-03,   9.08691E-03
C:/temp/dataset/7/13_7.odb,Step-1,Increment      1: Step Time =    1.000,"PART-1-1",           202,   167.280E-03,       22.2372,            0.,NA,NA,"",       2.65869,      -2.34692,      -1.24923,   1.86280E-03
C:/temp/dataset/7/13_7.odb,Step-1,Increment      1: Step Time =    1.000,"PART-1-1",           203,      -2.32264,       22.6339,            0.,NA,NA,"",       2.82214,      -2.37464,      -1.52498,   227.497E-06
C:/temp/dataset/7/13_7.odb,Step-1,Increment      1: Step Time =    1.000,"PART-1-1",           204,       9.17324,       21.4477,            0.,NA,NA,"",       2.32410,      -2.30900,  -264.473E-03,   4.00858E-03
C:/temp/dataset/7/13_7.odb,Step-1,Increment      1: Step Time =    1.000,"PART-1-1",           205,       9.43619,       25.5889,            0.,NA,NA,"",       2.75511,      -2.74207,  -267.764E-03,   3.47670E-03
C:/temp/dataset/7/13_7.odb,Step-1,Increment      1: Step Time =    1.000,"PART-1-1",           206,      -5.39738,       22.2321,            0.,NA,NA,"",       2.96534,      -2.31279,      -1.85587,   275.146E-06
C:/temp/dataset/7/13_7.odb,Step-1,Increment      1: Step Time =    1.000,"PART-1-1",           207,      -8.66915,       22.6604,            0.,NA,NA,"",       3.21995,      -2.33994,      -2.21196,   103.768E-06
C:/temp/dataset/7/13_7.odb,Step-1,Increment      1: Step Time =    1.000,"PART-1-1",           208,      -12.8188,       27.4435,            0.,NA,NA,"",       3.90536,      -2.83270,      -2.68843,   13.1114E-06
C:/temp/dataset/7/13_7.odb,Step-1,Increment      1: Step Time =    1.000,"PART-1-1",           209,       7.43992,       23.7550,            0.,NA,NA,"",       2.58247,      -2.54171,  -457.047E-03,   4.76715E-03
C:/temp/dataset/7/13_7.odb,Step-1,Increment      1: Step Time =    1.000,"PART-1-1",           210,      -6.48406,       26.1481,            0.,NA,NA,"",       3.38194,      -2.73018,      -1.99591,   225.653E-06
C:/temp/dataset/7/13_7.odb,Step-1,Increment      1: Step Time =    1.000,"PART-1-1",           211,       3.18484,       28.0088,            0.,NA,NA,"",       3.12789,      -2.97614,  -962.425E-03,   7.70318E-03
C:/temp/dataset/7/13_7.odb,Step-1,Increment      1: Step Time =    1.000,"PART-1-1",           212,       11.4304,      -19.6429,            0.,NA,NA,"",   63.3294E-03,  -63.3174E-03,  -1.23263E-03,   573.429E-06
C:/temp/dataset/7/13_7.odb,Step-1,Increment      1: Step Time =    1.000,"PART-1-1",           213,       9.33060,       23.4727,            0.,NA,NA,"",       2.53266,      -2.51892,  -263.490E-03,   4.10423E-03
C:/temp/dataset/7/13_7.odb,Step-1,Increment      1: Step Time =    1.000,"PART-1-1",           214,      -12.1707,       23.6708,            0.,NA,NA,"",       3.55514,      -2.42863,      -2.59630,   18.3760E-06
C:/temp/dataset/7/13_7.odb,Step-1,Increment      1: Step Time =    1.000,"PART-1-1",           215,      -13.7031,       24.9625,            0.,NA,NA,"",       3.77097,      -2.55930,      -2.76952,   12.7419E-06
C:/temp/dataset/7/13_7.odb,Step-1,Increment      1: Step Time =    1.000,"PART-1-1",           216,          -15.,         23.75,            0.,NA,NA,"",       3.77949,      -2.42060,      -2.90263,   3.05050E-06
C:/temp/dataset/7/13_7.odb,Step-1,Increment      1: Step Time =    1.000,"PART-1-1",           217,      -13.4675,       22.4583,            0.,NA,NA,"",       3.56278,      -2.28994,      -2.72940,   9.50476E-06
C:/temp/dataset/7/13_7.odb,Step-1,Increment      1: Step Time =    1.000,"PART-1-1",           218,      -9.86170,       27.7278,            0.,NA,NA,"",       3.73060,      -2.88080,      -2.37031,   66.2937E-06
C:/temp/dataset/7/13_7.odb,Step-1,Increment      1: Step Time =    1.000,"PART-1-1",           219,      -10.4490,       26.4258,            0.,NA,NA,"",       3.65728,      -2.73661,      -2.42624,   46.7557E-06
C:/temp/dataset/7/13_7.odb,Step-1,Increment      1: Step Time =    1.000,"PART-1-1",           220,      -9.20914,       25.5437,            0.,NA,NA,"",       3.49938,      -2.64859,      -2.28705,   98.4270E-06
C:/temp/dataset/7/13_7.odb,Step-1,Increment      1: Step Time =    1.000,"PART-1-1",           221,      -8.62185,       26.8458,            0.,NA,NA,"",       3.57455,      -2.79279,      -2.23109,   98.2456E-06
C:/temp/dataset/7/13_7.odb,Step-1,Increment      1: Step Time =    1.000,"PART-1-1",           222,      -9.15066,       28.9242,            0.,NA,NA,"",       3.79178,      -3.01426,      -2.30041,   55.3474E-06
C:/temp/dataset/7/13_7.odb,Step-1,Increment      1: Step Time =    1.000,"PART-1-1",           223,      -10.3125,           30.,            0.,NA,NA,"",       3.95911,      -3.12379,      -2.43239,   33.8809E-06
C:/temp/dataset/7/13_7.odb,Step-1,Increment      1: Step Time =    1.000,"PART-1-1",           224,      -11.0235,       28.8036,            0.,NA,NA,"",       3.89911,      -2.99027,      -2.50227,   21.3498E-06
C:/temp/dataset/7/13_7.odb,Step-1,Increment      1: Step Time =    1.000,"PART-1-1",           225,      -11.2536,       25.0847,            0.,NA,NA,"",       3.60127,      -2.58689,      -2.50541,   42.4481E-06
C:/temp/dataset/7/13_7.odb,Step-1,Increment      1: Step Time =    1.000,"PART-1-1",           226,      -10.3021,       22.5385,            0.,NA,NA,"",       3.32723,      -2.31716,      -2.38772,   57.9733E-06
C:/temp/dataset/7/13_7.odb,Step-1,Increment      1: Step Time =    1.000,"PART-1-1",           227,      -9.38503,       23.9523,            0.,NA,NA,"",       3.37690,      -2.47548,      -2.29684,   71.9945E-06
C:/temp/dataset/7/13_7.odb,Step-1,Increment      1: Step Time =    1.000,"PART-1-1",           228,      -12.9719,       28.7217,            0.,NA,NA,"",       4.02224,      -2.97000,      -2.71247,   5.83611E-06
C:/temp/dataset/7/13_7.odb,Step-1,Increment      1: Step Time =    1.000,"PART-1-1",           229,      -14.0625,           30.,            0.,NA,NA,"",       4.20415,      -3.10182,      -2.83789,   944.691E-09
C:/temp/dataset/7/13_7.odb,Step-1,Increment      1: Step Time =    1.000,"PART-1-1",           230,          -15.,         28.75,            0.,NA,NA,"",       4.16710,      -2.96117,      -2.93192,   925.413E-09
C:/temp/dataset/7/13_7.odb,Step-1,Increment      1: Step Time =    1.000,"PART-1-1",           231,      -13.9094,       27.4717,            0.,NA,NA,"",       3.98520,      -2.82936,      -2.80651,   7.05378E-06
C:/temp/dataset/7/13_7.odb,Step-1,Increment      1: Step Time =    1.000,"PART-1-1",           232,      -7.40072,       25.9956,            0.,NA,NA,"",       3.42341,      -2.70820,      -2.09414,   176.143E-06
C:/temp/dataset/7/13_7.odb,Step-1,Increment      1: Step Time =    1.000,"PART-1-1",           233,      -7.96404,       25.0347,            0.,NA,NA,"",       3.37424,      -2.60097,      -2.14951,   136.069E-06
C:/temp/dataset/7/13_7.odb,Step-1,Increment      1: Step Time =    1.000,"PART-1-1",           234,      -6.69374,       24.2457,            0.,NA,NA,"",       3.22451,      -2.52323,      -2.00768,   195.286E-06
C:/temp/dataset/7/13_7.odb,Step-1,Increment      1: Step Time =    1.000,"PART-1-1",           235,      -6.13042,       25.2066,            0.,NA,NA,"",       3.27588,      -2.63057,      -1.95231,   221.699E-06
C:/temp/dataset/7/13_7.odb,Step-1,Increment      1: Step Time =    1.000,"PART-1-1",           236,      -5.46940,       29.1125,            0.,NA,NA,"",       3.60012,      -3.05583,      -1.90335,   260.392E-06
C:/temp/dataset/7/13_7.odb,Step-1,Increment      1: Step Time =    1.000,"PART-1-1",           237,      -4.41178,       28.2246,            0.,NA,NA,"",       3.46141,      -2.96632,      -1.78389,   316.539E-06
C:/temp/dataset/7/13_7.odb,Step-1,Increment      1: Step Time =    1.000,"PART-1-1",           238,      -3.62988,       29.1121,            0.,NA,NA,"",       3.50810,      -3.06603,      -1.70477,   437.354E-06
C:/temp/dataset/7/13_7.odb,Step-1,Increment      1: Step Time =    1.000,"PART-1-1",           239,       -4.6875,           30.,            0.,NA,NA,"",       3.64514,      -3.15585,      -1.82420,   542.083E-06
C:/temp/dataset/7/13_7.odb,Step-1,Increment      1: Step Time =    1.000,"PART-1-1",           240,  -467.629E-03,       27.9420,            0.,NA,NA,"",       3.25606,      -2.95809,      -1.36076,   2.95950E-03
C:/temp/dataset/7/13_7.odb,Step-1,Increment      1: Step Time =    1.000,"PART-1-1",           241,  -845.263E-03,       26.9234,            0.,NA,NA,"",       3.16943,      -2.84689,      -1.39303,   1.76438E-03
C:/temp/dataset/7/13_7.odb,Step-1,Increment      1: Step Time =    1.000,"PART-1-1",           242,   746.021E-03,       26.1520,            0.,NA,NA,"",       3.02537,      -2.77091,      -1.21448,   3.80042E-03
C:/temp/dataset/7/13_7.odb,Step-1,Increment      1: Step Time =    1.000,"PART-1-1",           243,       1.12365,       27.1705,            0.,NA,NA,"",       3.11451,      -2.88114,      -1.18287,   4.95889E-03
C:/temp/dataset/7/13_7.odb,Step-1,Increment      1: Step Time =    1.000,"PART-1-1",           244,       14.0901,       25.0896,            0.,NA,NA,"",       2.72065,      -2.71309,   202.769E-03,   2.82241E-03
C:/temp/dataset/7/13_7.odb,Step-1,Increment      1: Step Time =    1.000,"PART-1-1",           245,       13.1528,       23.9903,            0.,NA,NA,"",       2.59478,      -2.59237,   111.816E-03,   3.69987E-03
C:/temp/dataset/7/13_7.odb,Step-1,Increment      1: Step Time =    1.000,"PART-1-1",           246,       14.0627,       22.6507,            0.,NA,NA,"",       2.46822,      -2.45964,   205.601E-03,   4.76759E-03
C:/temp/dataset/7/13_7.odb,Step-1,Increment      1: Step Time =    1.000,"PART-1-1",           247,           15.,         23.75,            0.,NA,NA,"",       2.59701,      -2.57973,   299.112E-03,   4.52299E-03
C:/temp/dataset/7/13_7.odb,Step-1,Increment      1: Step Time =    1.000,"PART-1-1",           248,       11.2764,       28.8302,            0.,NA,NA,"",       3.09244,      -3.09078,  -101.346E-03,   2.02055E-03
C:/temp/dataset/7/13_7.odb,Step-1,Increment      1: Step Time =    1.000,"PART-1-1",           249,       10.3125,           30.,            0.,NA,NA,"",       3.21487,      -3.20819,  -207.122E-03,   2.62127E-03
C:/temp/dataset/7/13_7.odb,Step-1,Increment      1: Step Time =    1.000,"PART-1-1",           250,       9.39543,       28.8642,            0.,NA,NA,"",       3.10177,      -3.08782,  -293.898E-03,   2.96758E-03
C:/temp/dataset/7/13_7.odb,Step-1,Increment      1: Step Time =    1.000,"PART-1-1",           251,       10.3594,       27.6945,            0.,NA,NA,"",       2.97418,      -2.96826,  -187.679E-03,   2.89548E-03
C:/temp/dataset/7/13_7.odb,Step-1,Increment      1: Step Time =    1.000,"PART-1-1",           252,        8.4375,           30.,            0.,NA,NA,"",       3.22915,      -3.20412,  -401.282E-03,   4.16307E-03
C:/temp/dataset/7/13_7.odb,Step-1,Increment      1: Step Time =    1.000,"PART-1-1",           253,       7.48312,       28.8587,            0.,NA,NA,"",       3.12123,      -3.08201,  -493.257E-03,   3.54143E-03
C:/temp/dataset/7/13_7.odb,Step-1,Increment      1: Step Time =    1.000,"PART-1-1",           254,       8.44105,       27.7230,            0.,NA,NA,"",       2.98922,      -2.96436,  -384.752E-03,   2.66593E-03
C:/temp/dataset/7/13_7.odb,Step-1,Increment      1: Step Time =    1.000,"PART-1-1",           255,       13.0365,       21.6252,            0.,NA,NA,"",       2.35059,      -2.34818,   106.442E-03,   4.38026E-03
C:/temp/dataset/7/13_7.odb,Step-1,Increment      1: Step Time =    1.000,"PART-1-1",           256,       13.9738,       20.2245,            0.,NA,NA,"",       2.22366,      -2.21486,   197.619E-03,   6.28321E-03
C:/temp/dataset/7/13_7.odb,Step-1,Increment      1: Step Time =    1.000,"PART-1-1",           257,           15.,         21.25,            0.,NA,NA,"",       2.34379,      -2.32468,   298.655E-03,   7.18065E-03
C:/temp/dataset/7/13_7.odb,Step-1,Increment      1: Step Time =    1.000,"PART-1-1",           258,       6.90015,       14.7921,            0.,NA,NA,"",       1.74314,      -1.69423,  -410.011E-03,   10.4218E-03
C:/temp/dataset/7/13_7.odb,Step-1,Increment      1: Step Time =    1.000,"PART-1-1",           259,       5.93474,       15.8126,            0.,NA,NA,"",       1.85190,      -1.78126,  -506.601E-03,   12.8863E-03
C:/temp/dataset/7/13_7.odb,Step-1,Increment      1: Step Time =    1.000,"PART-1-1",           260,            5.,       14.7917,            0.,NA,NA,"",       1.79142,      -1.69825,  -570.187E-03,   14.8906E-03
C:/temp/dataset/7/13_7.odb,Step-1,Increment      1: Step Time =    1.000,"PART-1-1",           261,       5.96541,       13.7711,            0.,NA,NA,"",       1.68057,      -1.61239,  -473.818E-03,   12.5757E-03
C:/temp/dataset/7/13_7.odb,Step-1,Increment      1: Step Time =    1.000,"PART-1-1",           262,       7.07741,       8.55300,            0.,NA,NA,"",       1.26020,      -1.21841,  -321.827E-03,   9.67637E-03
C:/temp/dataset/7/13_7.odb,Step-1,Increment      1: Step Time =    1.000,"PART-1-1",           263,       6.03400,       9.60662,            0.,NA,NA,"",       1.35851,      -1.29524,  -409.777E-03,   12.2700E-03
C:/temp/dataset/7/13_7.odb,Step-1,Increment      1: Step Time =    1.000,"PART-1-1",           264,            5.,       8.54167,            0.,NA,NA,"",       1.31049,      -1.22392,  -468.384E-03,   14.7548E-03
C:/temp/dataset/7/13_7.odb,Step-1,Increment      1: Step Time =    1.000,"PART-1-1",           265,       6.04341,       7.48805,            0.,NA,NA,"",       1.20977,      -1.14830,  -380.715E-03,   12.1576E-03
C:/temp/dataset/7/13_7.odb,Step-1,Increment      1: Step Time =    1.000,"PART-1-1",           266,            5.,         4.375,            0.,NA,NA,"",       1.03657,  -954.296E-03,  -404.727E-03,   14.4966E-03
C:/temp/dataset/7/13_7.odb,Step-1,Increment      1: Step Time =    1.000,"PART-1-1",           267,       6.03822,       3.24050,            0.,NA,NA,"",   941.397E-03,  -882.903E-03,  -326.665E-03,   11.9381E-03
C:/temp/dataset/7/13_7.odb,Step-1,Increment      1: Step Time =    1.000,"PART-1-1",           268,       7.08368,       4.22909,            0.,NA,NA,"",   977.611E-03,  -938.140E-03,  -274.986E-03,   9.48907E-03
C:/temp/dataset/7/13_7.odb,Step-1,Increment      1: Step Time =    1.000,"PART-1-1",           269,       6.04546,       5.36359,            0.,NA,NA,"",       1.07058,      -1.01072,  -352.981E-03,   12.0451E-03
C:/temp/dataset/7/13_7.odb,Step-1,Increment      1: Step Time =    1.000,"PART-1-1",           270,            5.,       2.29167,            0.,NA,NA,"",   913.478E-03,  -833.328E-03,  -374.175E-03,   14.3338E-03
C:/temp/dataset/7/13_7.odb,Step-1,Increment      1: Step Time =    1.000,"PART-1-1",           271,       6.01828,       1.12309,            0.,NA,NA,"",   822.357E-03,  -764.954E-03,  -301.855E-03,   11.8473E-03
C:/temp/dataset/7/13_7.odb,Step-1,Increment      1: Step Time =    1.000,"PART-1-1",           272,       7.05649,       2.07193,            0.,NA,NA,"",   852.260E-03,  -813.348E-03,  -254.582E-03,   9.45396E-03
C:/temp/dataset/7/13_7.odb,Step-1,Increment      1: Step Time =    1.000,"PART-1-1",           273,       7.00178,  -77.9012E-03,            0.,NA,NA,"",   737.632E-03,  -698.796E-03,  -236.189E-03,   9.47145E-03
C:/temp/dataset/7/13_7.odb,Step-1,Increment      1: Step Time =    1.000,"PART-1-1",           274,            5.,   208.333E-03,            0.,NA,NA,"",   799.444E-03,  -721.429E-03,  -344.457E-03,   14.1547E-03
C:/temp/dataset/7/13_7.odb,Step-1,Increment      1: Step Time =    1.000,"PART-1-1",           275,       5.98350,  -992.661E-03,            0.,NA,NA,"",   713.072E-03,  -656.474E-03,  -278.412E-03,   11.7769E-03
C:/temp/dataset/7/13_7.odb,Step-1,Increment      1: Step Time =    1.000,"PART-1-1",           276,       6.59145,      -6.15040,            0.,NA,NA,"",   469.923E-03,  -427.283E-03,  -195.593E-03,   10.0184E-03
C:/temp/dataset/7/13_7.odb,Step-1,Increment      1: Step Time =    1.000,"PART-1-1",           277,       5.82593,      -5.11028,            0.,NA,NA,"",   528.418E-03,  -471.877E-03,  -237.820E-03,   11.7928E-03
C:/temp/dataset/7/13_7.odb,Step-1,Increment      1: Step Time =    1.000,"PART-1-1",           278,            5.,      -6.04167,            0.,NA,NA,"",   510.043E-03,  -438.723E-03,  -260.128E-03,   13.5343E-03
C:/temp/dataset/7/13_7.odb,Step-1,Increment      1: Step Time =    1.000,"PART-1-1",           279,       5.76552,      -7.08179,            0.,NA,NA,"",   451.422E-03,  -395.369E-03,  -217.864E-03,   11.7563E-03
C:/temp/dataset/7/13_7.odb,Step-1,Increment      1: Step Time =    1.000,"PART-1-1",           280,       8.25955,      -15.2021,            0.,NA,NA,"",   165.529E-03,  -147.783E-03,  -74.5652E-03,   5.99592E-03
C:/temp/dataset/7/13_7.odb,Step-1,Increment      1: Step Time =    1.000,"PART-1-1",           281,       9.23032,      -13.9562,            0.,NA,NA,"",   183.826E-03,  -174.740E-03,  -57.0769E-03,   4.13621E-03
C:/temp/dataset/7/13_7.odb,Step-1,Increment      1: Step Time =    1.000,"PART-1-1",           282,       8.16037,      -12.9544,            0.,NA,NA,"",   221.226E-03,  -202.060E-03,  -90.0695E-03,   6.29358E-03
C:/temp/dataset/7/13_7.odb,Step-1,Increment      1: Step Time =    1.000,"PART-1-1",           283,       7.18960,      -14.2003,            0.,NA,NA,"",   203.963E-03,  -173.817E-03,  -106.717E-03,   8.16397E-03
C:/temp/dataset/7/13_7.odb,Step-1,Increment      1: Step Time =    1.000,"PART-1-1",           284,            5.,      -22.7083,            0.,NA,NA,"",   80.1919E-03,  -42.6205E-03,  -67.9281E-03,   11.2046E-03
C:/temp/dataset/7/13_7.odb,Step-1,Increment      1: Step Time =    1.000,"PART-1-1",           285,       5.97351,      -23.6835,            0.,NA,NA,"",   57.9628E-03,  -29.4948E-03,  -49.8973E-03,   9.41495E-03
C:/temp/dataset/7/13_7.odb,Step-1,Increment      1: Step Time =    1.000,"PART-1-1",           286,       6.71140,      -22.7416,            0.,NA,NA,"",   61.2946E-03,  -34.8530E-03,  -50.4211E-03,   8.31263E-03
C:/temp/dataset/7/13_7.odb,Step-1,Increment      1: Step Time =    1.000,"PART-1-1",           287,       5.73789,      -21.7664,            0.,NA,NA,"",   84.6457E-03,  -48.8207E-03,  -69.1479E-03,   10.0829E-03
C:/temp/dataset/7/13_7.odb,Step-1,Increment      1: Step Time =    1.000,"PART-1-1",           288,       9.95056,      -28.8261,            0.,NA,NA,"",   3.02655E-03,   2.17181E-03,  -2.10790E-03,   2.58815E-03
C:/temp/dataset/7/13_7.odb,Step-1,Increment      1: Step Time =    1.000,"PART-1-1",           289,       8.67404,      -27.7482,            0.,NA,NA,"",   7.96326E-03,  -218.812E-06,  -7.96025E-03,   4.68123E-03
C:/temp/dataset/7/13_7.odb,Step-1,Increment      1: Step Time =    1.000,"PART-1-1",           290,       7.47347,      -28.9221,            0.,NA,NA,"",   4.99591E-03,   25.1076E-06,  -4.99585E-03,   5.84195E-03
C:/temp/dataset/7/13_7.odb,Step-1,Increment      1: Step Time =    1.000,"PART-1-1",           291,          8.75,          -30.,            0.,NA,NA,"",            0.,   1.64247E-39,  -7.03282E-39,   3.87147E-03
C:/temp/dataset/7/13_7.odb,Step-1,Increment      1: Step Time =    1.000,"PART-1-1",           292,       9.14805,      -24.1419,            0.,NA,NA,"",   25.5813E-03,  -16.3992E-03,  -19.6334E-03,   4.17194E-03
C:/temp/dataset/7/13_7.odb,Step-1,Increment      1: Step Time =    1.000,"PART-1-1",           293,       7.84454,      -23.3007,            0.,NA,NA,"",   44.0139E-03,  -26.1342E-03,  -35.4151E-03,   6.33839E-03
C:/temp/dataset/7/13_7.odb,Step-1,Increment      1: Step Time =    1.000,"PART-1-1",           294,       7.10828,      -24.6604,            0.,NA,NA,"",   37.8163E-03,  -18.0625E-03,  -33.2238E-03,   7.54896E-03
C:/temp/dataset/7/13_7.odb,Step-1,Increment      1: Step Time =    1.000,"PART-1-1",           295,       8.41180,      -25.5016,            0.,NA,NA,"",   21.4036E-03,  -9.28956E-03,  -19.2826E-03,   5.37835E-03
C:/temp/dataset/7/13_7.odb,Step-1,Increment      1: Step Time =    1.000,"PART-1-1",           296,       7.00425,      -21.1298,            0.,NA,NA,"",   77.9993E-03,  -51.1245E-03,  -58.9082E-03,   7.94539E-03
C:/temp/dataset/7/13_7.odb,Step-1,Increment      1: Step Time =    1.000,"PART-1-1",           297,       6.26636,      -19.9884,            0.,NA,NA,"",   103.913E-03,  -68.6908E-03,  -77.9706E-03,   9.39728E-03
C:/temp/dataset/7/13_7.odb,Step-1,Increment      1: Step Time =    1.000,"PART-1-1",           298,            5.,       -20.625,            0.,NA,NA,"",   111.197E-03,  -66.0544E-03,  -89.4514E-03,   11.5878E-03
C:/temp/dataset/7/13_7.odb,Step-1,Increment      1: Step Time =    1.000,"PART-1-1",           299,       12.8526,      -8.63250,            0.,NA,NA,"",   335.343E-03,  -331.914E-03,   47.8320E-03,   3.52670E-03
C:/temp/dataset/7/13_7.odb,Step-1,Increment      1: Step Time =    1.000,"PART-1-1",           300,       13.9581,      -9.97058,            0.,NA,NA,"",   301.174E-03,  -290.353E-03,   80.0067E-03,   5.73948E-03
C:/temp/dataset/7/13_7.odb,Step-1,Increment      1: Step Time =    1.000,"PART-1-1",           301,           15.,         -8.75,            0.,NA,NA,"",   356.059E-03,  -334.729E-03,   121.386E-03,   8.06830E-03
C:/temp/dataset/7/13_7.odb,Step-1,Increment      1: Step Time =    1.000,"PART-1-1",           302,       13.8945,      -7.41192,            0.,NA,NA,"",   388.850E-03,  -378.385E-03,   89.6029E-03,   5.84504E-03
C:/temp/dataset/7/13_7.odb,Step-1,Increment      1: Step Time =    1.000,"PART-1-1",           303,            5.,        10.625,            0.,NA,NA,"",       1.46149,      -1.37276,  -501.487E-03,   14.8262E-03
C:/temp/dataset/7/13_7.odb,Step-1,Increment      1: Step Time =    1.000,"PART-1-1",           304,       7.03988,       10.6820,            0.,NA,NA,"",       1.41502,      -1.37136,  -348.786E-03,   9.84768E-03
C:/temp/dataset/7/13_7.odb,Step-1,Increment      1: Step Time =    1.000,"PART-1-1",           305,       6.00589,       11.7004,            0.,NA,NA,"",       1.51561,      -1.45007,  -440.877E-03,   12.4015E-03
C:/temp/dataset/7/13_7.odb,Step-1,Increment      1: Step Time =    1.000,"PART-1-1",           306,       2.74639,       25.6366,            0.,NA,NA,"",       2.89728,      -2.72369,  -987.795E-03,   6.03589E-03
C:/temp/dataset/7/13_7.odb,Step-1,Increment      1: Step Time =    1.000,"PART-1-1",           307,       1.36653,       25.0307,            0.,NA,NA,"",       2.88688,      -2.65386,      -1.13628,   4.11946E-03
C:/temp/dataset/7/13_7.odb,Step-1,Increment      1: Step Time =    1.000,"PART-1-1",           308,       1.96853,       23.3303,            0.,NA,NA,"",       2.69104,      -2.47543,      -1.05543,   4.17803E-03
C:/temp/dataset/7/13_7.odb,Step-1,Increment      1: Step Time =    1.000,"PART-1-1",           309,       3.34839,       23.9361,            0.,NA,NA,"",       2.70306,      -2.54721,  -904.590E-03,   6.37580E-03
C:/temp/dataset/7/13_7.odb,Step-1,Increment      1: Step Time =    1.000,"PART-1-1",           310,       4.47216,       26.2029,            0.,NA,NA,"",       2.90158,      -2.78915,  -799.902E-03,   5.44571E-03
C:/temp/dataset/7/13_7.odb,Step-1,Increment      1: Step Time =    1.000,"PART-1-1",           311,       4.17993,       27.6633,            0.,NA,NA,"",       3.06167,      -2.94242,  -846.191E-03,   5.89513E-03
C:/temp/dataset/7/13_7.odb,Step-1,Increment      1: Step Time =    1.000,"PART-1-1",           312,       2.45416,       27.0970,            0.,NA,NA,"",       3.05757,      -2.87707,      -1.03500,   6.35208E-03
C:/temp/dataset/7/13_7.odb,Step-1,Increment      1: Step Time =    1.000,"PART-1-1",           313,      -1.66705,       28.8640,            0.,NA,NA,"",       3.39604,      -3.05017,      -1.49316,   533.495E-06
C:/temp/dataset/7/13_7.odb,Step-1,Increment      1: Step Time =    1.000,"PART-1-1",           314,   261.919E-03,       29.0779,            0.,NA,NA,"",       3.34334,      -3.08271,      -1.29415,   4.76729E-03
C:/temp/dataset/7/13_7.odb,Step-1,Increment      1: Step Time =    1.000,"PART-1-1",           315,    -937.5E-03,           30.,            0.,NA,NA,"",       3.47801,      -3.17360,      -1.42296,   1.15918E-03
C:/temp/dataset/7/13_7.odb,Step-1,Increment      1: Step Time =    1.000,"PART-1-1",           316,          -15.,         21.25,            0.,NA,NA,"",       3.60060,      -2.15033,      -2.88798,   2.14494E-06
C:/temp/dataset/7/13_7.odb,Step-1,Increment      1: Step Time =    1.000,"PART-1-1",           317,      -13.3250,           20.,            0.,NA,NA,"",       3.37467,      -2.02501,      -2.69958,   2.30940E-06
C:/temp/dataset/7/13_7.odb,Step-1,Increment      1: Step Time =    1.000,"PART-1-1",           318,      -11.7925,       21.2083,            0.,NA,NA,"",       3.33801,      -2.16461,      -2.54101,   10.0639E-06
C:/temp/dataset/7/13_7.odb,Step-1,Increment      1: Step Time =    1.000,"PART-1-1",           319,       10.1137,       15.7319,            0.,NA,NA,"",       1.78322,      -1.77742,  -143.681E-03,   1.87686E-03
C:/temp/dataset/7/13_7.odb,Step-1,Increment      1: Step Time =    1.000,"PART-1-1",           320,       9.02474,       16.2903,            0.,NA,NA,"",       1.83868,      -1.82266,  -242.126E-03,   4.47528E-03
C:/temp/dataset/7/13_7.odb,Step-1,Increment      1: Step Time =    1.000,"PART-1-1",           321,       8.64023,       14.7706,            0.,NA,NA,"",       1.71292,      -1.69264,  -262.810E-03,   5.74761E-03
C:/temp/dataset/7/13_7.odb,Step-1,Increment      1: Step Time =    1.000,"PART-1-1",           322,       9.72917,       14.2122,            0.,NA,NA,"",       1.65675,      -1.64826,  -167.422E-03,   3.15852E-03
C:/temp/dataset/7/13_7.odb,Step-1,Increment      1: Step Time =    1.000,"PART-1-1",           323,       12.8210,       13.6438,            0.,NA,NA,"",       1.61584,      -1.61340,   88.7738E-03,   4.48635E-03
C:/temp/dataset/7/13_7.odb,Step-1,Increment      1: Step Time =    1.000,"PART-1-1",           324,       13.9730,       12.4303,            0.,NA,NA,"",       1.53276,      -1.52232,   178.615E-03,   7.36824E-03
C:/temp/dataset/7/13_7.odb,Step-1,Increment      1: Step Time =    1.000,"PART-1-1",           325,           15.,         13.75,            0.,NA,NA,"",       1.65820,      -1.63657,   266.941E-03,   10.0105E-03
C:/temp/dataset/7/13_7.odb,Step-1,Increment      1: Step Time =    1.000,"PART-1-1",           326,       13.8481,       14.9635,            0.,NA,NA,"",       1.73909,      -1.73013,   176.330E-03,   7.11807E-03
C:/temp/dataset/7/13_7.odb,Step-1,Increment      1: Step Time =    1.000,"PART-1-1",           327,       10.1008,       2.87074,            0.,NA,NA,"",   859.836E-03,  -855.635E-03,  -84.8924E-03,   2.33472E-03
C:/temp/dataset/7/13_7.odb,Step-1,Increment      1: Step Time =    1.000,"PART-1-1",           328,       9.07373,       1.83179,            0.,NA,NA,"",   808.864E-03,  -796.868E-03,  -138.786E-03,   4.72246E-03
C:/temp/dataset/7/13_7.odb,Step-1,Increment      1: Step Time =    1.000,"PART-1-1",           329,       10.0520,   569.032E-03,            0.,NA,NA,"",   732.870E-03,  -728.577E-03,  -79.2111E-03,   2.45562E-03
C:/temp/dataset/7/13_7.odb,Step-1,Increment      1: Step Time =    1.000,"PART-1-1",           330,       11.0790,       1.60798,            0.,NA,NA,"",   786.019E-03,  -785.595E-03,  -25.8156E-03,   365.714E-06
C:/temp/dataset/7/13_7.odb,Step-1,Increment      1: Step Time =    1.000,"PART-1-1",           331,       9.98138,      -1.74337,            0.,NA,NA,"",   616.655E-03,  -612.117E-03,  -74.6726E-03,   2.62411E-03
C:/temp/dataset/7/13_7.odb,Step-1,Increment      1: Step Time =    1.000,"PART-1-1",           332,       8.90931,      -2.66004,            0.,NA,NA,"",   582.511E-03,  -569.627E-03,  -121.838E-03,   5.01963E-03
C:/temp/dataset/7/13_7.odb,Step-1,Increment      1: Step Time =    1.000,"PART-1-1",           333,       9.84458,      -4.07679,            0.,NA,NA,"",   511.016E-03,  -505.799E-03,  -72.8362E-03,   2.93234E-03
C:/temp/dataset/7/13_7.odb,Step-1,Increment      1: Step Time =    1.000,"PART-1-1",           334,       10.9167,      -3.16013,            0.,NA,NA,"",   547.258E-03,  -546.595E-03,  -26.9353E-03,   650.839E-06
C:/temp/dataset/7/13_7.odb,Step-1,Increment      1: Step Time =    1.000,"PART-1-1",           335,            5.,      -3.95833,            0.,NA,NA,"",   597.913E-03,  -524.280E-03,  -287.455E-03,   13.7537E-03
C:/temp/dataset/7/13_7.odb,Step-1,Increment      1: Step Time =    1.000,"PART-1-1",           336,       6.75254,      -4.23112,            0.,NA,NA,"",   545.923E-03,  -504.933E-03,  -207.545E-03,   9.78710E-03
C:/temp/dataset/7/13_7.odb,Step-1,Increment      1: Step Time =    1.000,"PART-1-1",           337,       5.92661,      -3.07918,            0.,NA,NA,"",   614.761E-03,  -558.568E-03,  -256.772E-03,   11.7454E-03
C:/temp/dataset/7/13_7.odb,Step-1,Increment      1: Step Time =    1.000,"PART-1-1",           338,       7.06139,      -12.0396,            0.,NA,NA,"",   262.675E-03,  -229.885E-03,  -127.088E-03,   8.58432E-03
C:/temp/dataset/7/13_7.odb,Step-1,Increment      1: Step Time =    1.000,"PART-1-1",           339,       5.99095,      -11.1126,            0.,NA,NA,"",   309.504E-03,  -260.578E-03,  -167.009E-03,   10.8742E-03
C:/temp/dataset/7/13_7.odb,Step-1,Increment      1: Step Time =    1.000,"PART-1-1",           340,            5.,      -12.2917,            0.,NA,NA,"",   295.344E-03,  -232.082E-03,  -182.664E-03,   12.7947E-03
C:/temp/dataset/7/13_7.odb,Step-1,Increment      1: Step Time =    1.000,"PART-1-1",           341,       6.07044,      -13.2187,            0.,NA,NA,"",   248.229E-03,  -202.369E-03,  -143.751E-03,   10.4979E-03
C:/temp/dataset/7/13_7.odb,Step-1,Increment      1: Step Time =    1.000,"PART-1-1",           342,       6.63644,      -8.02271,            0.,NA,NA,"",   398.661E-03,  -357.745E-03,  -175.924E-03,   9.78116E-03
C:/temp/dataset/7/13_7.odb,Step-1,Increment      1: Step Time =    1.000,"PART-1-1",           343,            5.,        -8.125,            0.,NA,NA,"",   430.495E-03,  -361.624E-03,  -233.568E-03,   13.3029E-03
C:/temp/dataset/7/13_7.odb,Step-1,Increment      1: Step Time =    1.000,"PART-1-1",           344,       5.87092,      -9.06592,            0.,NA,NA,"",   377.789E-03,  -325.198E-03,  -192.278E-03,   11.3239E-03
C:/temp/dataset/7/13_7.odb,Step-1,Increment      1: Step Time =    1.000,"PART-1-1",           345,       13.0826,      -13.6930,            0.,NA,NA,"",   186.639E-03,  -182.130E-03,   40.7806E-03,   3.62373E-03
C:/temp/dataset/7/13_7.odb,Step-1,Increment      1: Step Time =    1.000,"PART-1-1",           346,       14.0569,      -14.9678,            0.,NA,NA,"",   165.054E-03,  -153.946E-03,   59.5278E-03,   5.42315E-03
C:/temp/dataset/7/13_7.odb,Step-1,Increment      1: Step Time =    1.000,"PART-1-1",           347,           15.,        -13.75,            0.,NA,NA,"",   206.140E-03,  -186.066E-03,   88.7291E-03,   7.43898E-03
C:/temp/dataset/7/13_7.odb,Step-1,Increment      1: Step Time =    1.000,"PART-1-1",           348,       14.0257,      -12.4752,            0.,NA,NA,"",   227.419E-03,  -216.271E-03,   70.3282E-03,   5.62828E-03
C:/temp/dataset/7/13_7.odb,Step-1,Increment      1: Step Time =    1.000,"PART-1-1",           349,       8.13738,      -21.6888,            0.,NA,NA,"",   58.2491E-03,  -41.2031E-03,  -41.1736E-03,   5.95983E-03
C:/temp/dataset/7/13_7.odb,Step-1,Increment      1: Step Time =    1.000,"PART-1-1",           350,            5.,      -28.9583,            0.,NA,NA,"",   11.6757E-03,  -7.28027E-03,  -9.12792E-03,   10.1144E-03
C:/temp/dataset/7/13_7.odb,Step-1,Increment      1: Step Time =    1.000,"PART-1-1",           351,          6.25,          -30.,            0.,NA,NA,"",            0.,   309.857E-42,  -12.5636E-39,   7.68009E-03
C:/temp/dataset/7/13_7.odb,Step-1,Increment      1: Step Time =    1.000,"PART-1-1",           352,       6.22347,      -27.8804,            0.,NA,NA,"",   15.8027E-03,  -5.95829E-03,  -14.6364E-03,   8.55125E-03
C:/temp/dataset/7/13_7.odb,Step-1,Increment      1: Step Time =    1.000,"PART-1-1",           353,           15.,        -28.75,            0.,NA,NA,"",   4.76651E-03,  -1.69938E-03,   4.45328E-03,   4.57524E-03
C:/temp/dataset/7/13_7.odb,Step-1,Increment      1: Step Time =    1.000,"PART-1-1",           354,       13.6900,      -27.4695,            0.,NA,NA,"",   6.86537E-03,  -679.984E-06,   6.83161E-03,   3.55160E-03
C:/temp/dataset/7/13_7.odb,Step-1,Increment      1: Step Time =    1.000,"PART-1-1",           355,       12.4400,      -28.7195,            0.,NA,NA,"",   2.41634E-03,   2.02783E-03,   1.31401E-03,   1.84843E-03
C:/temp/dataset/7/13_7.odb,Step-1,Increment      1: Step Time =    1.000,"PART-1-1",           356,         13.75,          -30.,            0.,NA,NA,"",            0.,   1.37076E-39,   4.30900E-39,   2.53886E-03
C:/temp/dataset/7/13_7.odb,Step-1,Increment      1: Step Time =    1.000,"PART-1-1",           357,       9.58617,      -22.6245,            0.,NA,NA,"",   35.2035E-03,  -28.5501E-03,  -20.5956E-03,   3.42611E-03
C:/temp/dataset/7/13_7.odb,Step-1,Increment      1: Step Time =    1.000,"PART-1-1",           358,       10.0221,      -21.0980,            0.,NA,NA,"",   48.7141E-03,  -44.6130E-03,  -19.5639E-03,   2.66640E-03
C:/temp/dataset/7/13_7.odb,Step-1,Increment      1: Step Time =    1.000,"PART-1-1",           359,       8.57328,      -20.1623,            0.,NA,NA,"",   73.0205E-03,  -58.9804E-03,  -43.0501E-03,   5.20329E-03
C:/temp/dataset/7/13_7.odb,Step-1,Increment      1: Step Time =    1.000,"PART-1-1",           360,       11.1406,      -27.5456,            0.,NA,NA,"",   1.79734E-03,   1.43055E-03,  -1.08810E-03,   859.373E-06
C:/temp/dataset/7/13_7.odb,Step-1,Increment      1: Step Time =    1.000,"PART-1-1",           361,         11.25,          -30.,            0.,NA,NA,"",            0.,   2.28429E-39,  -902.220E-42,   2.05655E-03
C:/temp/dataset/7/13_7.odb,Step-1,Increment      1: Step Time =    1.000,"PART-1-1",           362,       11.2605,      -16.1933,            0.,NA,NA,"",   123.568E-03,  -123.466E-03,  -5.00330E-03,   590.880E-06
C:/temp/dataset/7/13_7.odb,Step-1,Increment      1: Step Time =    1.000,"PART-1-1",           363,       10.2521,      -15.0492,            0.,NA,NA,"",   150.952E-03,  -148.160E-03,  -28.8984E-03,   2.14442E-03
C:/temp/dataset/7/13_7.odb,Step-1,Increment      1: Step Time =    1.000,"PART-1-1",           364,       9.32474,      -16.3084,            0.,NA,NA,"",   130.714E-03,  -122.393E-03,  -45.8925E-03,   3.91770E-03
C:/temp/dataset/7/13_7.odb,Step-1,Increment      1: Step Time =    1.000,"PART-1-1",           365,       10.3331,      -17.4526,            0.,NA,NA,"",   101.883E-03,  -99.3992E-03,  -22.3597E-03,   2.02964E-03
C:/temp/dataset/7/13_7.odb,Step-1,Increment      1: Step Time =    1.000,"PART-1-1",           366,       7.44248,      -19.0256,            0.,NA,NA,"",   103.276E-03,  -78.5204E-03,  -67.0861E-03,   7.32963E-03
C:/temp/dataset/7/13_7.odb,Step-1,Increment      1: Step Time =    1.000,"PART-1-1",           367,       6.17612,      -17.5789,            0.,NA,NA,"",   147.056E-03,  -107.322E-03,  -100.536E-03,   9.82857E-03
C:/temp/dataset/7/13_7.odb,Step-1,Increment      1: Step Time =    1.000,"PART-1-1",           368,            5.,      -18.5417,            0.,NA,NA,"",   147.550E-03,  -96.4486E-03,  -111.663E-03,   11.9145E-03
C:/temp/dataset/7/13_7.odb,Step-1,Increment      1: Step Time =    1.000,"PART-1-1",           369,       12.8407,      -6.03443,            0.,NA,NA,"",   431.453E-03,  -428.062E-03,   53.9824E-03,   3.67056E-03
C:/temp/dataset/7/13_7.odb,Step-1,Increment      1: Step Time =    1.000,"PART-1-1",           370,           15.,         -6.25,            0.,NA,NA,"",   448.847E-03,  -427.060E-03,   138.142E-03,   8.35668E-03
C:/temp/dataset/7/13_7.odb,Step-1,Increment      1: Step Time =    1.000,"PART-1-1",           371,       13.9462,      -4.87251,            0.,NA,NA,"",   489.873E-03,  -478.842E-03,   103.371E-03,   6.17336E-03
C:/temp/dataset/7/13_7.odb,Step-1,Increment      1: Step Time =    1.000,"PART-1-1",           372,       7.64514,      -8.69832,            0.,NA,NA,"",   357.305E-03,  -331.066E-03,  -134.394E-03,   7.58065E-03
C:/temp/dataset/7/13_7.odb,Step-1,Increment      1: Step Time =    1.000,"PART-1-1",           373,       8.20020,      -7.75016,            0.,NA,NA,"",   382.448E-03,  -362.800E-03,  -121.006E-03,   6.44240E-03
C:/temp/dataset/7/13_7.odb,Step-1,Increment      1: Step Time =    1.000,"PART-1-1",           374,       7.19150,      -7.07454,            0.,NA,NA,"",   423.119E-03,  -390.124E-03,  -163.809E-03,   8.62500E-03
C:/temp/dataset/7/13_7.odb,Step-1,Increment      1: Step Time =    1.000,"PART-1-1",           375,       7.97278,      -1.35169,            0.,NA,NA,"",   656.862E-03,  -632.937E-03,  -175.666E-03,   7.18873E-03
C:/temp/dataset/7/13_7.odb,Step-1,Increment      1: Step Time =    1.000,"PART-1-1",           376,       9.01285,  -423.179E-03,            0.,NA,NA,"",   689.741E-03,  -677.526E-03,  -129.235E-03,   4.82832E-03
C:/temp/dataset/7/13_7.odb,Step-1,Increment      1: Step Time =    1.000,"PART-1-1",           377,       8.04185,   850.611E-03,            0.,NA,NA,"",   768.429E-03,  -744.805E-03,  -189.074E-03,   7.10613E-03
C:/temp/dataset/7/13_7.odb,Step-1,Increment      1: Step Time =    1.000,"PART-1-1",           378,       8.08837,       3.05311,            0.,NA,NA,"",   890.522E-03,  -866.873E-03,  -203.864E-03,   7.06630E-03
C:/temp/dataset/7/13_7.odb,Step-1,Increment      1: Step Time =    1.000,"PART-1-1",           379,       9.11337,       4.08618,            0.,NA,NA,"",   938.944E-03,  -926.930E-03,  -149.718E-03,   4.66230E-03
C:/temp/dataset/7/13_7.odb,Step-1,Increment      1: Step Time =    1.000,"PART-1-1",           380,       8.10868,       5.26217,            0.,NA,NA,"",       1.02376,  -999.692E-03,  -220.673E-03,   7.08189E-03
C:/temp/dataset/7/13_7.odb,Step-1,Increment      1: Step Time =    1.000,"PART-1-1",           381,       7.08888,       6.39331,            0.,NA,NA,"",       1.11382,      -1.07336,  -297.453E-03,   9.56734E-03
C:/temp/dataset/7/13_7.odb,Step-1,Increment      1: Step Time =    1.000,"PART-1-1",           382,            5.,       6.45833,            0.,NA,NA,"",       1.16887,      -1.08446,  -436.129E-03,   14.6382E-03
C:/temp/dataset/7/13_7.odb,Step-1,Increment      1: Step Time =    1.000,"PART-1-1",           383,           15.,         16.25,            0.,NA,NA,"",       1.87200,      -1.85088,   280.436E-03,   9.86568E-03
C:/temp/dataset/7/13_7.odb,Step-1,Increment      1: Step Time =    1.000,"PART-1-1",           384,       13.6214,       17.6671,            0.,NA,NA,"",       1.97522,      -1.96856,   162.145E-03,   6.42403E-03
C:/temp/dataset/7/13_7.odb,Step-1,Increment      1: Step Time =    1.000,"PART-1-1",           385,       12.4694,       16.3805,            0.,NA,NA,"",       1.84579,      -1.84484,   59.1686E-03,   3.74340E-03
C:/temp/dataset/7/13_7.odb,Step-1,Increment      1: Step Time =    1.000,"PART-1-1",           386,       10.0881,       9.74649,            0.,NA,NA,"",       1.30792,      -1.30287,  -114.767E-03,   2.37246E-03
C:/temp/dataset/7/13_7.odb,Step-1,Increment      1: Step Time =    1.000,"PART-1-1",           387,       9.10561,       8.57814,            0.,NA,NA,"",       1.23172,      -1.21868,  -178.727E-03,   4.75254E-03
C:/temp/dataset/7/13_7.odb,Step-1,Increment      1: Step Time =    1.000,"PART-1-1",           388,       10.1162,       7.46436,            0.,NA,NA,"",       1.14763,      -1.14305,  -102.409E-03,   2.29454E-03
C:/temp/dataset/7/13_7.odb,Step-1,Increment      1: Step Time =    1.000,"PART-1-1",           389,       11.0986,       8.63272,            0.,NA,NA,"",       1.22607,      -1.22548,  -38.1125E-03,   302.343E-06
C:/temp/dataset/7/13_7.odb,Step-1,Increment      1: Step Time =    1.000,"PART-1-1",           390,       9.96644,       19.4124,            0.,NA,NA,"",       2.11894,      -2.11157,  -176.593E-03,   2.42012E-03
C:/temp/dataset/7/13_7.odb,Step-1,Increment      1: Step Time =    1.000,"PART-1-1",           391,       10.9020,       20.3065,            0.,NA,NA,"",       2.20562,      -2.20365,  -93.1583E-03,   2.97974E-03
C:/temp/dataset/7/13_7.odb,Step-1,Increment      1: Step Time =    1.000,"PART-1-1",           392,       10.1153,       21.2880,            0.,NA,NA,"",       2.30394,      -2.29746,  -172.793E-03,   3.47536E-03
C:/temp/dataset/7/13_7.odb,Step-1,Increment      1: Step Time =    1.000,"PART-1-1",           393,       9.17975,       20.3940,            0.,NA,NA,"",       2.21846,      -2.20354,  -256.846E-03,   3.46340E-03
C:/temp/dataset/7/13_7.odb,Step-1,Increment      1: Step Time =    1.000,"PART-1-1",           394,           15.,         28.75,            0.,NA,NA,"",       3.11307,      -3.10041,   280.492E-03,   204.788E-06
C:/temp/dataset/7/13_7.odb,Step-1,Increment      1: Step Time =    1.000,"PART-1-1",           395,       14.0625,           30.,            0.,NA,NA,"",       3.22933,      -3.22447,   177.115E-03,   166.993E-06
C:/temp/dataset/7/13_7.odb,Step-1,Increment      1: Step Time =    1.000,"PART-1-1",           396,       13.1487,       28.7914,            0.,NA,NA,"",       3.09633,      -3.09503,   89.7463E-03,   997.280E-06
C:/temp/dataset/7/13_7.odb,Step-1,Increment      1: Step Time =    1.000,"PART-1-1",           397,       14.0862,       27.5414,            0.,NA,NA,"",       2.97604,      -2.96982,   192.271E-03,   1.11404E-03
C:/temp/dataset/7/13_7.odb,Step-1,Increment      1: Step Time =    1.000,"PART-1-1",           398,       12.2440,       25.2848,            0.,NA,NA,"",       2.72293,      -2.72288,   15.8045E-03,   3.35772E-03
C:/temp/dataset/7/13_7.odb,Step-1,Increment      1: Step Time =    1.000,"PART-1-1",           399,       13.1763,       26.3811,            0.,NA,NA,"",       2.84514,      -2.84321,   104.735E-03,   2.56973E-03
C:/temp/dataset/7/13_7.odb,Step-1,Increment      1: Step Time =    1.000,"PART-1-1",           400,       12.2376,       27.6217,            0.,NA,NA,"",       2.96866,      -2.96866,   3.28810E-03,   2.34326E-03
C:/temp/dataset/7/13_7.odb,Step-1,Increment      1: Step Time =    1.000,"PART-1-1",           401,       11.3053,       26.5254,            0.,NA,NA,"",       2.85027,      -2.84901,  -84.9130E-03,   3.20441E-03
C:/temp/dataset/7/13_7.odb,Step-1,Increment      1: Step Time =    1.000,"PART-1-1",           402,       12.1875,           30.,            0.,NA,NA,"",       3.21515,      -3.21511,  -15.2493E-03,   1.03489E-03
C:/temp/dataset/7/13_7.odb,Step-1,Increment      1: Step Time =    1.000,"PART-1-1",           403,        6.5625,           30.,            0.,NA,NA,"",       3.25791,      -3.20210,  -600.437E-03,   4.79863E-03
C:/temp/dataset/7/13_7.odb,Step-1,Increment      1: Step Time =    1.000,"PART-1-1",           404,       5.40000,       28.6589,            0.,NA,NA,"",       3.13728,      -3.05421,  -717.191E-03,   3.31871E-03
C:/temp/dataset/7/13_7.odb,Step-1,Increment      1: Step Time =    1.000,"PART-1-1",           405,       6.32063,       27.5176,            0.,NA,NA,"",       2.99735,      -2.93509,  -607.736E-03,   2.58385E-03
C:/temp/dataset/7/13_7.odb,Step-1,Increment      1: Step Time =    1.000,"PART-1-1",           406,        2.8125,           30.,            0.,NA,NA,"",       3.35427,      -3.19277,      -1.02826,   5.83737E-03
C:/temp/dataset/7/13_7.odb,Step-1,Increment      1: Step Time =    1.000,"PART-1-1",           407,       1.86631,       29.3706,            0.,NA,NA,"",       3.31601,      -3.11881,      -1.12646,   7.15268E-03
C:/temp/dataset/7/13_7.odb,Step-1,Increment      1: Step Time =    1.000,"PART-1-1",           408,       2.52123,       28.3750,            0.,NA,NA,"",       3.18823,      -3.01333,      -1.04146,   7.80238E-03
C:/temp/dataset/7/13_7.odb,Step-1,Increment      1: Step Time =    1.000,"PART-1-1",           409,       3.46742,       29.0044,            0.,NA,NA,"",       3.22392,      -3.08365,  -940.634E-03,   6.65490E-03
C:/temp/dataset/7/13_7.odb,Step-1,Increment      1: Step Time =    1.000,"PART-1-1",           410,       1.19073,       28.4486,            0.,NA,NA,"",       3.24387,      -3.01804,      -1.18916,   6.74704E-03
C:/temp/dataset/7/13_7.odb,Step-1,Increment      1: Step Time =    1.000,"PART-1-1",           411,      -2.48443,       27.9761,            0.,NA,NA,"",       3.34493,      -2.95088,      -1.57507,   302.976E-06
C:/temp/dataset/7/13_7.odb,Step-1,Increment      1: Step Time =    1.000,"PART-1-1",           412,       -2.8125,           30.,            0.,NA,NA,"",       3.55690,      -3.16541,      -1.62227,   908.489E-06
C:/temp/dataset/7/13_7.odb,Step-1,Increment      1: Step Time =    1.000,"PART-1-1",           413,      -7.28733,       29.0238,            0.,NA,NA,"",       3.69106,      -3.03584,      -2.09943,   128.898E-06
C:/temp/dataset/7/13_7.odb,Step-1,Increment      1: Step Time =    1.000,"PART-1-1",           414,      -6.19423,       28.1363,            0.,NA,NA,"",       3.54767,      -2.94642,      -1.97600,   230.770E-06
C:/temp/dataset/7/13_7.odb,Step-1,Increment      1: Step Time =    1.000,"PART-1-1",           415,       -6.5625,           30.,            0.,NA,NA,"",       3.74190,      -3.14545,      -2.02681,   247.987E-06
C:/temp/dataset/7/13_7.odb,Step-1,Increment      1: Step Time =    1.000,"PART-1-1",           416,      -11.8079,       27.5253,            0.,NA,NA,"",       3.84220,      -2.84748,      -2.57960,   27.0046E-06
C:/temp/dataset/7/13_7.odb,Step-1,Increment      1: Step Time =    1.000,"PART-1-1",           417,      -12.6125,       26.1842,            0.,NA,NA,"",       3.78774,      -2.69778,      -2.65876,   14.9774E-06
C:/temp/dataset/7/13_7.odb,Step-1,Increment      1: Step Time =    1.000,"PART-1-1",           418,      -8.13992,       23.4434,            0.,NA,NA,"",       3.24913,      -2.42778,      -2.15933,   125.940E-06
C:/temp/dataset/7/13_7.odb,Step-1,Increment      1: Step Time =    1.000,"PART-1-1",           419,       -8.4375,           30.,            0.,NA,NA,"",       3.84675,      -3.13470,      -2.22960,   101.878E-06
C:/temp/dataset/7/13_7.odb,Step-1,Increment      1: Step Time =    1.000,"PART-1-1",           420,      -8.00049,       27.9480,            0.,NA,NA,"",       3.63460,      -2.91551,      -2.17028,   134.724E-06
C:/temp/dataset/7/13_7.odb,Step-1,Increment      1: Step Time =    1.000,"PART-1-1",           421,      -12.1875,           30.,            0.,NA,NA,"",       4.07843,      -3.11281,      -2.63515,   7.83303E-06
C:/temp/dataset/7/13_7.odb,Step-1,Increment      1: Step Time =    1.000,"PART-1-1",           422,          -15.,         26.25,            0.,NA,NA,"",       3.96879,      -2.69088,      -2.91727,   3.66457E-06
C:/temp/dataset/7/13_7.odb,Step-1,Increment      1: Step Time =    1.000,"PART-1-1",           423,  -614.199E-03,       25.3895,            0.,NA,NA,"",       3.00632,      -2.68283,      -1.35660,   1.80772E-03
C:/temp/dataset/7/13_7.odb,Step-1,Increment      1: Step Time =    1.000,"PART-1-1",           424,      -1.97220,       26.8586,            0.,NA,NA,"",       3.21261,      -2.83382,      -1.51338,   678.134E-06
C:/temp/dataset/7/13_7.odb,Step-1,Increment      1: Step Time =    1.000,"PART-1-1",           425,      -1.74113,       25.3247,            0.,NA,NA,"",       3.05176,      -2.66968,      -1.47852,   757.217E-06
C:/temp/dataset/7/13_7.odb,Step-1,Increment      1: Step Time =    1.000,"PART-1-1",           426,       8.18659,       21.6045,            0.,NA,NA,"",       2.34891,      -2.32085,  -361.983E-03,   4.87316E-03
C:/temp/dataset/7/13_7.odb,Step-1,Increment      1: Step Time =    1.000,"PART-1-1",           427,       9.25192,       22.4602,            0.,NA,NA,"",       2.42769,      -2.41329,  -263.968E-03,   4.14517E-03
C:/temp/dataset/7/13_7.odb,Step-1,Increment      1: Step Time =    1.000,"PART-1-1",           428,       8.38526,       23.6138,            0.,NA,NA,"",       2.55545,      -2.53006,  -359.277E-03,   4.08993E-03
C:/temp/dataset/7/13_7.odb,Step-1,Increment      1: Step Time =    1.000,"PART-1-1",           429,       7.31993,       22.7581,            0.,NA,NA,"",       2.48010,      -2.43711,  -459.767E-03,   5.47805E-03
C:/temp/dataset/7/13_7.odb,Step-1,Increment      1: Step Time =    1.000,"PART-1-1",           430,           15.,         26.25,            0.,NA,NA,"",       2.85523,      -2.84021,   292.478E-03,   1.83227E-03
C:/temp/dataset/7/13_7.odb,Step-1,Increment      1: Step Time =    1.000,"PART-1-1",           431,        4.6875,           30.,            0.,NA,NA,"",       3.30002,      -3.19970,  -807.526E-03,   4.02554E-03
C:/temp/dataset/7/13_7.odb,Step-1,Increment      1: Step Time =    1.000,"PART-1-1",           432,       9.38339,       24.5308,            0.,NA,NA,"",       2.64358,      -2.63019,  -265.710E-03,   3.77596E-03
C:/temp/dataset/7/13_7.odb,Step-1,Increment      1: Step Time =    1.000,"PART-1-1",           433,       8.53172,       25.6694,            0.,NA,NA,"",       2.77070,      -2.74713,  -360.616E-03,   3.04254E-03
C:/temp/dataset/7/13_7.odb,Step-1,Increment      1: Step Time =    1.000,"PART-1-1",           434,       7.53359,       24.7524,            0.,NA,NA,"",       2.68592,      -2.64686,  -456.425E-03,   3.82663E-03
C:/temp/dataset/7/13_7.odb,Step-1,Increment      1: Step Time =    1.000,"PART-1-1",           435,     937.5E-03,           30.,            0.,NA,NA,"",       3.41221,      -3.18138,      -1.23368,   5.64011E-03
C:/temp/dataset/7/13_7.odb,Step-1,Increment      1: Step Time =    1.000,"PART-1-1",           436,       5.64845,       26.5466,            0.,NA,NA,"",       2.90858,      -2.82963,  -673.069E-03,   3.91729E-03
C:/temp/dataset/7/13_7.odb,Step-1,Increment      1: Step Time =    1.000,"PART-1-1",           437,       4.65082,       24.6490,            0.,NA,NA,"",       2.73585,      -2.62656,  -765.554E-03,   6.00019E-03
C:/temp/dataset/7/13_7.odb,Step-1,Increment      1: Step Time =    1.000,"PART-1-1",           438,       5.82711,       24.9927,            0.,NA,NA,"",       2.74226,      -2.66659,  -639.737E-03,   4.79159E-03
C:/temp/dataset/7/13_7.odb,Step-1,Increment      1: Step Time =    1.000,"PART-1-1",           439,      -3.57200,       27.5772,            0.,NA,NA,"",       3.35778,      -2.90169,      -1.68963,   230.024E-06
C:/temp/dataset/7/13_7.odb,Step-1,Increment      1: Step Time =    1.000,"PART-1-1",           440,      -3.05977,       26.4597,            0.,NA,NA,"",       3.22546,      -2.78449,      -1.62794,   276.014E-06
C:/temp/dataset/7/13_7.odb,Step-1,Increment      1: Step Time =    1.000,"PART-1-1",           441,      -4.23358,       26.7178,            0.,NA,NA,"",       3.30950,      -2.80522,      -1.75600,   258.994E-06
C:/temp/dataset/7/13_7.odb,Step-1,Increment      1: Step Time =    1.000,"PART-1-1",           442,      -5.07335,       27.3652,            0.,NA,NA,"",       3.41474,      -2.86993,      -1.85039,   250.178E-06
C:/temp/dataset/7/13_7.odb,Step-1,Increment      1: Step Time =    1.000,"PART-1-1",           443,      -5.65848,       26.3267,            0.,NA,NA,"",       3.35055,      -2.75444,      -1.90769,   251.822E-06
C:/temp/dataset/7/13_7.odb,Step-1,Increment      1: Step Time =    1.000,"PART-1-1",           444,      -6.77936,       27.0978,            0.,NA,NA,"",       3.48546,      -2.83094,      -2.03328,   176.803E-06
C:/temp/dataset/7/13_7.odb,Step-1,Increment      1: Step Time =    1.000,"PART-1-1",           445,       13.0726,       6.26892,            0.,NA,NA,"",       1.07631,      -1.07201,   96.2016E-03,   4.85291E-03
C:/temp/dataset/7/13_7.odb,Step-1,Increment      1: Step Time =    1.000,"PART-1-1",           446,       14.0382,       5.02867,            0.,NA,NA,"",       1.00885,  -997.071E-03,   153.719E-03,   7.10565E-03
C:/temp/dataset/7/13_7.odb,Step-1,Increment      1: Step Time =    1.000,"PART-1-1",           447,           15.,          6.25,            0.,NA,NA,"",       1.10353,      -1.08107,   221.514E-03,   9.49903E-03
C:/temp/dataset/7/13_7.odb,Step-1,Increment      1: Step Time =    1.000,"PART-1-1",           448,       14.0344,       7.49025,            0.,NA,NA,"",       1.16991,      -1.15835,   164.080E-03,   7.24399E-03
C:/temp/dataset/7/13_7.odb,Step-1,Increment      1: Step Time =    1.000,"PART-1-1",           449,            5.,       12.7083,            0.,NA,NA,"",       1.62188,      -1.53098,  -535.358E-03,   14.9101E-03
C:/temp/dataset/7/13_7.odb,Step-1,Increment      1: Step Time =    1.000,"PART-1-1",           450,       6.97129,       12.7632,            0.,NA,NA,"",       1.57660,      -1.53041,  -378.849E-03,   10.0752E-03
C:/temp/dataset/7/13_7.odb,Step-1,Increment      1: Step Time =    1.000,"PART-1-1",           451,       8.08110,       9.66220,            0.,NA,NA,"",       1.32171,      -1.29569,  -260.955E-03,   7.26847E-03
C:/temp/dataset/7/13_7.odb,Step-1,Increment      1: Step Time =    1.000,"PART-1-1",           452,       8.10192,       7.46894,            0.,NA,NA,"",       1.16779,      -1.14288,  -239.907E-03,   7.16001E-03
C:/temp/dataset/7/13_7.odb,Step-1,Increment      1: Step Time =    1.000,"PART-1-1",           453,            5.,        -1.875,            0.,NA,NA,"",   694.313E-03,  -618.462E-03,  -315.556E-03,   13.9603E-03
C:/temp/dataset/7/13_7.odb,Step-1,Increment      1: Step Time =    1.000,"PART-1-1",           454,       6.91011,      -2.19684,            0.,NA,NA,"",   634.752E-03,  -595.374E-03,  -220.088E-03,   9.56367E-03
C:/temp/dataset/7/13_7.odb,Step-1,Increment      1: Step Time =    1.000,"PART-1-1",           455,       11.0205,  -751.161E-03,            0.,NA,NA,"",   661.935E-03,  -661.447E-03,  -25.4104E-03,   448.139E-06
C:/temp/dataset/7/13_7.odb,Step-1,Increment      1: Step Time =    1.000,"PART-1-1",           456,       13.1408,      -16.1676,            0.,NA,NA,"",   130.614E-03,  -125.876E-03,   34.8606E-03,   3.52923E-03
C:/temp/dataset/7/13_7.odb,Step-1,Increment      1: Step Time =    1.000,"PART-1-1",           457,       14.0839,      -17.4497,            0.,NA,NA,"",   113.887E-03,  -102.911E-03,   48.7814E-03,   5.19490E-03
C:/temp/dataset/7/13_7.odb,Step-1,Increment      1: Step Time =    1.000,"PART-1-1",           458,           15.,        -16.25,            0.,NA,NA,"",   148.250E-03,  -129.007E-03,   73.0425E-03,   7.10097E-03
C:/temp/dataset/7/13_7.odb,Step-1,Increment      1: Step Time =    1.000,"PART-1-1",           459,            5.,       -14.375,            0.,NA,NA,"",   239.139E-03,  -179.252E-03,  -158.292E-03,   12.5208E-03
C:/temp/dataset/7/13_7.odb,Step-1,Increment      1: Step Time =    1.000,"PART-1-1",           460,       6.11916,      -15.3567,            0.,NA,NA,"",   194.670E-03,  -151.609E-03,  -122.112E-03,   10.1794E-03
C:/temp/dataset/7/13_7.odb,Step-1,Increment      1: Step Time =    1.000,"PART-1-1",           461,       13.0403,       1.40949,            0.,NA,NA,"",   784.082E-03,  -779.727E-03,   82.5229E-03,   4.54459E-03
C:/temp/dataset/7/13_7.odb,Step-1,Increment      1: Step Time =    1.000,"PART-1-1",           462,       14.0142,   96.5788E-03,            0.,NA,NA,"",   724.957E-03,  -713.235E-03,   129.842E-03,   6.71853E-03
C:/temp/dataset/7/13_7.odb,Step-1,Increment      1: Step Time =    1.000,"PART-1-1",           463,           15.,          1.25,            0.,NA,NA,"",   802.415E-03,  -779.901E-03,   188.743E-03,   9.09708E-03
C:/temp/dataset/7/13_7.odb,Step-1,Increment      1: Step Time =    1.000,"PART-1-1",           464,       14.0261,       2.56291,            0.,NA,NA,"",   860.438E-03,  -848.655E-03,   141.904E-03,   6.91861E-03
C:/temp/dataset/7/13_7.odb,Step-1,Increment      1: Step Time =    1.000,"PART-1-1",           465,            5.,      -10.2083,            0.,NA,NA,"",   359.021E-03,  -292.808E-03,  -207.749E-03,   13.0550E-03
C:/temp/dataset/7/13_7.odb,Step-1,Increment      1: Step Time =    1.000,"PART-1-1",           466,       6.86187,      -9.97015,            0.,NA,NA,"",   328.431E-03,  -291.886E-03,  -150.564E-03,   9.15093E-03
C:/temp/dataset/7/13_7.odb,Step-1,Increment      1: Step Time =    1.000,"PART-1-1",           467,            5.,      -24.7917,            0.,NA,NA,"",   53.9004E-03,  -25.8017E-03,  -47.3236E-03,   10.6876E-03
C:/temp/dataset/7/13_7.odb,Step-1,Increment      1: Step Time =    1.000,"PART-1-1",           468,       6.13477,      -25.7685,            0.,NA,NA,"",   35.1069E-03,  -15.1694E-03,  -31.6604E-03,   8.83539E-03
C:/temp/dataset/7/13_7.odb,Step-1,Increment      1: Step Time =    1.000,"PART-1-1",           469,       13.1299,      -20.9468,            0.,NA,NA,"",   51.6507E-03,  -47.0860E-03,   21.2298E-03,   3.07792E-03
C:/temp/dataset/7/13_7.odb,Step-1,Increment      1: Step Time =    1.000,"PART-1-1",           470,       14.0295,      -22.3095,            0.,NA,NA,"",   42.9019E-03,  -33.1296E-03,   27.2580E-03,   4.55080E-03
C:/temp/dataset/7/13_7.odb,Step-1,Increment      1: Step Time =    1.000,"PART-1-1",           471,           15.,        -21.25,            0.,NA,NA,"",   64.2903E-03,  -47.4601E-03,   43.3681E-03,   6.42166E-03
C:/temp/dataset/7/13_7.odb,Step-1,Increment      1: Step Time =    1.000,"PART-1-1",           472,       14.1003,      -19.8873,            0.,NA,NA,"",   73.8024E-03,  -63.0993E-03,   38.2789E-03,   4.94106E-03
C:/temp/dataset/7/13_7.odb,Step-1,Increment      1: Step Time =    1.000,"PART-1-1",           473,            5.,       -26.875,            0.,NA,NA,"",   31.8165E-03,  -14.9923E-03,  -28.0627E-03,   10.2485E-03
C:/temp/dataset/7/13_7.odb,Step-1,Increment      1: Step Time =    1.000,"PART-1-1",           474,       7.35824,      -26.7740,            0.,NA,NA,"",   19.0490E-03,  -6.25826E-03,  -17.9916E-03,   6.94700E-03
C:/temp/dataset/7/13_7.odb,Step-1,Increment      1: Step Time =    1.000,"PART-1-1",           475,       11.2665,      -23.4125,            0.,NA,NA,"",   20.2641E-03,  -20.1301E-03,  -2.32630E-03,   753.532E-06
C:/temp/dataset/7/13_7.odb,Step-1,Increment      1: Step Time =    1.000,"PART-1-1",           476,       10.8283,      -24.9299,            0.,NA,NA,"",   10.3533E-03,  -9.20414E-03,  -4.74076E-03,   1.32547E-03
C:/temp/dataset/7/13_7.odb,Step-1,Increment      1: Step Time =    1.000,"PART-1-1",           477,            5.,      -16.4583,            0.,NA,NA,"",   190.033E-03,  -134.116E-03,  -134.632E-03,   12.2295E-03
C:/temp/dataset/7/13_7.odb,Step-1,Increment      1: Step Time =    1.000,"PART-1-1",           478,       7.29529,      -16.4772,            0.,NA,NA,"",   151.642E-03,  -123.863E-03,  -87.4836E-03,   7.78933E-03
C:/temp/dataset/7/13_7.odb,Step-1,Increment      1: Step Time =    1.000,"PART-1-1",           479,            5.,       18.9583,            0.,NA,NA,"",       2.15407,      -2.05471,  -646.681E-03,   20.6335E-03
C:/temp/dataset/7/13_7.odb,Step-1,Increment      1: Step Time =    1.000,"PART-1-1",           480,       6.05050,       17.7875,            0.,NA,NA,"",       2.01993,      -1.94983,  -527.521E-03,   13.0221E-03
C:/temp/dataset/7/13_7.odb,Step-1,Increment      1: Step Time =    1.000,"PART-1-1",           481,       7.11573,       18.6629,            0.,NA,NA,"",       2.07555,      -2.02858,  -439.058E-03,   7.05708E-03
C:/temp/dataset/7/13_7.odb,Step-1,Increment      1: Step Time =    1.000,"PART-1-1",           482,       6.06524,       19.8338,            0.,NA,NA,"",       2.20334,      -2.13234,  -554.829E-03,   11.8919E-03
C:/temp/dataset/7/13_7.odb,Step-1,Increment      1: Step Time =    1.000,"PART-1-1",           483,       6.98524,       16.7251,            0.,NA,NA,"",       1.90611,      -1.85761,  -427.267E-03,   10.0480E-03
C:/temp/dataset/7/13_7.odb,Step-1,Increment      1: Step Time =    1.000,"PART-1-1",           484,            5.,        16.875,            0.,NA,NA,"",       1.96967,      -1.87442,  -605.089E-03,   15.6767E-03
C:/temp/dataset/7/13_7.odb,Step-1,Increment      1: Step Time =    1.000,"PART-1-1",           485,       7.88091,       13.8682,            0.,NA,NA,"",       1.64891,      -1.61804,  -317.539E-03,   7.80944E-03
C:/temp/dataset/7/13_7.odb,Step-1,Increment      1: Step Time =    1.000,"PART-1-1",           486,       7.65947,       15.6945,            0.,NA,NA,"",       1.80493,      -1.76953,  -355.726E-03,   8.33494E-03
C:/temp/dataset/7/13_7.odb,Step-1,Increment      1: Step Time =    1.000,"PART-1-1",           487,       8.92157,       12.9075,            0.,NA,NA,"",       1.55766,      -1.54145,  -224.164E-03,   5.22744E-03
C:/temp/dataset/7/13_7.odb,Step-1,Increment      1: Step Time =    1.000,"PART-1-1",           488,       9.98918,       11.9956,            0.,NA,NA,"",       1.47753,      -1.47148,  -133.611E-03,   2.60699E-03
C:/temp/dataset/7/13_7.odb,Step-1,Increment      1: Step Time =    1.000,"PART-1-1",           489,       10.7968,       13.3004,            0.,NA,NA,"",       1.57857,      -1.57677,  -75.2705E-03,   572.284E-06
C:/temp/dataset/7/13_7.odb,Step-1,Increment      1: Step Time =    1.000,"PART-1-1",           490,       13.0565,       8.69239,            0.,NA,NA,"",       1.24089,      -1.23684,   100.136E-03,   4.91285E-03
C:/temp/dataset/7/13_7.odb,Step-1,Increment      1: Step Time =    1.000,"PART-1-1",           491,           15.,          8.75,            0.,NA,NA,"",       1.27441,      -1.25213,   237.253E-03,   9.68751E-03
C:/temp/dataset/7/13_7.odb,Step-1,Increment      1: Step Time =    1.000,"PART-1-1",           492,       14.0220,       9.95215,            0.,NA,NA,"",       1.34418,      -1.33298,   173.182E-03,   7.35616E-03
C:/temp/dataset/7/13_7.odb,Step-1,Increment      1: Step Time =    1.000,"PART-1-1",           493,       8.15713,      -6.43409,            0.,NA,NA,"",   432.157E-03,  -411.738E-03,  -131.266E-03,   6.57507E-03
C:/temp/dataset/7/13_7.odb,Step-1,Increment      1: Step Time =    1.000,"PART-1-1",           494,       7.55707,      -5.50995,            0.,NA,NA,"",   477.847E-03,  -449.491E-03,  -162.159E-03,   7.94717E-03
C:/temp/dataset/7/13_7.odb,Step-1,Increment      1: Step Time =    1.000,"PART-1-1",           495,       13.0039,      -1.03047,            0.,NA,NA,"",   656.114E-03,  -651.900E-03,   74.2362E-03,   4.32928E-03
C:/temp/dataset/7/13_7.odb,Step-1,Increment      1: Step Time =    1.000,"PART-1-1",           496,       13.9897,      -2.37705,            0.,NA,NA,"",   601.707E-03,  -590.219E-03,   117.014E-03,   6.47478E-03
C:/temp/dataset/7/13_7.odb,Step-1,Increment      1: Step Time =    1.000,"PART-1-1",           497,           15.,         -1.25,            0.,NA,NA,"",   671.733E-03,  -649.354E-03,   171.944E-03,   8.86999E-03
C:/temp/dataset/7/13_7.odb,Step-1,Increment      1: Step Time =    1.000,"PART-1-1",           498,       11.0188,      -11.3444,            0.,NA,NA,"",   243.797E-03,  -243.399E-03,  -13.9302E-03,   707.319E-06
C:/temp/dataset/7/13_7.odb,Step-1,Increment      1: Step Time =    1.000,"PART-1-1",           499,       9.94563,      -10.3262,            0.,NA,NA,"",   278.602E-03,  -274.247E-03,  -49.0681E-03,   2.71598E-03
C:/temp/dataset/7/13_7.odb,Step-1,Increment      1: Step Time =    1.000,"PART-1-1",           500,       9.07908,      -11.6768,            0.,NA,NA,"",   245.464E-03,  -235.046E-03,  -70.7518E-03,   4.48064E-03
C:/temp/dataset/7/13_7.odb,Step-1,Increment      1: Step Time =    1.000,"PART-1-1",           501,       10.1523,      -12.6950,            0.,NA,NA,"",   209.116E-03,  -205.869E-03,  -36.7058E-03,   2.31327E-03
C:/temp/dataset/7/13_7.odb,Step-1,Increment      1: Step Time =    1.000,"PART-1-1",           502,       11.2699,       24.2837,            0.,NA,NA,"",       2.61379,      -2.61267,  -76.2670E-03,   3.83998E-03
C:/temp/dataset/7/13_7.odb,Step-1,Increment      1: Step Time =    1.000,"PART-1-1",           503,       12.1787,       22.9892,            0.,NA,NA,"",       2.48268,      -2.48261,   19.0418E-03,   3.87388E-03
C:/temp/dataset/7/13_7.odb,Step-1,Increment      1: Step Time =    1.000,"PART-1-1",           504,           15.,         -3.75,            0.,NA,NA,"",   553.970E-03,  -531.834E-03,   155.035E-03,   8.62357E-03
C:/temp/dataset/7/13_7.odb,Step-1,Increment      1: Step Time =    1.000,"PART-1-1",           505,       12.9359,      -3.49956,            0.,NA,NA,"",   538.962E-03,  -535.087E-03,   64.5079E-03,   4.03398E-03
C:/temp/dataset/7/13_7.odb,Step-1,Increment      1: Step Time =    1.000,"PART-1-1",           506,           15.,        -11.25,            0.,NA,NA,"",   275.276E-03,  -254.515E-03,   104.877E-03,   7.76251E-03
C:/temp/dataset/7/13_7.odb,Step-1,Increment      1: Step Time =    1.000,"PART-1-1",           507,       12.9838,      -11.1958,            0.,NA,NA,"",   254.134E-03,  -250.081E-03,   45.2058E-03,   3.61818E-03
C:/temp/dataset/7/13_7.odb,Step-1,Increment      1: Step Time =    1.000,"PART-1-1",           508,           15.,         11.25,            0.,NA,NA,"",       1.45918,      -1.43718,   252.432E-03,   9.87513E-03
C:/temp/dataset/7/13_7.odb,Step-1,Increment      1: Step Time =    1.000,"PART-1-1",           509,       12.9950,       11.1325,            0.,NA,NA,"",       1.41926,      -1.41575,   99.7685E-03,   4.84591E-03
C:/temp/dataset/7/13_7.odb,Step-1,Increment      1: Step Time =    1.000,"PART-1-1",           510,           15.,          3.75,            0.,NA,NA,"",   946.269E-03,  -923.728E-03,   205.308E-03,   9.30517E-03
C:/temp/dataset/7/13_7.odb,Step-1,Increment      1: Step Time =    1.000,"PART-1-1",           511,       13.0643,       3.84158,            0.,NA,NA,"",   924.069E-03,  -919.675E-03,   90.0108E-03,   4.72249E-03
C:/temp/dataset/7/13_7.odb,Step-1,Increment      1: Step Time =    1.000,"PART-1-1",           512,           15.,        -18.75,            0.,NA,NA,"",   101.157E-03,  -82.9441E-03,   57.9056E-03,   6.75579E-03
C:/temp/dataset/7/13_7.odb,Step-1,Increment      1: Step Time =    1.000,"PART-1-1",           513,       13.1842,      -18.5870,            0.,NA,NA,"",   86.1223E-03,  -81.2314E-03,   28.6096E-03,   3.39628E-03
C:/temp/dataset/7/13_7.odb,Step-1,Increment      1: Step Time =    1.000,"PART-1-1",           514,       13.5513,      -24.7801,            0.,NA,NA,"",   18.5029E-03,  -11.6953E-03,   14.3379E-03,   3.44886E-03
C:/temp/dataset/7/13_7.odb,Step-1,Increment      1: Step Time =    1.000,"PART-1-1",           515,       12.2413,      -25.9996,            0.,NA,NA,"",   5.45361E-03,  -3.77250E-03,   3.93829E-03,   1.37512E-03
C:/temp/dataset/7/13_7.odb,Step-1,Increment      1: Step Time =    1.000,"PART-1-1",           516,           15.,        -26.25,            0.,NA,NA,"",   17.6969E-03,  -7.09473E-03,   16.2125E-03,   5.65860E-03
C:/temp/dataset/7/13_7.odb,Step-1,Increment      1: Step Time =    1.000,"PART-1-1",           517,           15.,        -23.75,            0.,NA,NA,"",   36.9212E-03,  -22.2557E-03,   29.4594E-03,   6.07766E-03
C:/temp/dataset/7/13_7.odb,Step-1,Increment      1: Step Time =    1.000,"PART-1-1",           518,       12.5809,      -23.3397,            0.,NA,NA,"",   23.4845E-03,  -21.2718E-03,   9.95148E-03,   1.96334E-03
C:/temp/dataset/7/13_7.odb,Step-1,Increment      1: Step Time =    1.000,"PART-1-1",           519,       9.49127,      -18.7202,            0.,NA,NA,"",   85.7838E-03,  -78.6243E-03,  -34.3087E-03,   3.59024E-03
C:/temp/dataset/7/13_7.odb,Step-1,Increment      1: Step Time =    1.000,"PART-1-1",           520,       8.36047,      -17.5836,            0.,NA,NA,"",   116.383E-03,  -100.017E-03,  -59.5105E-03,   5.69914E-03
C:/temp/dataset/7/13_7.odb,Step-1,Increment      1: Step Time =    1.000,"PART-1-1",           521,       11.5260,      -20.5498,            0.,NA,NA,"",   50.8158E-03,  -50.8155E-03,   171.410E-06,   607.340E-06
C:/temp/dataset/7/13_7.odb,Step-1,Increment      1: Step Time =    1.000,"PART-1-1",           522,       10.5221,      -19.7870,            0.,NA,NA,"",   63.2700E-03,  -61.4510E-03,  -15.0621E-03,   1.75486E-03
C:/temp/dataset/7/13_7.odb,Step-1,Increment      1: Step Time =    1.000,"PART-1-1",           523,       11.0260,      -21.8608,            0.,NA,NA,"",   35.6773E-03,  -35.1974E-03,  -5.83210E-03,   984.486E-06
C:/temp/dataset/7/13_7.odb,Step-1,Increment      1: Step Time =    1.000,"PART-1-1",           524,       7.98010,      -10.7619,            0.,NA,NA,"",   285.677E-03,  -264.061E-03,  -109.010E-03,   6.76233E-03
C:/temp/dataset/7/13_7.odb,Step-1,Increment      1: Step Time =    1.000,"PART-1-1",           525,       8.65118,      -4.78401,            0.,NA,NA,"",   492.061E-03,  -476.881E-03,  -121.279E-03,   5.54710E-03
C:/temp/dataset/7/13_7.odb,Step-1,Increment      1: Step Time =    1.000,"PART-1-1",           526,       7.84665,      -3.50518,            0.,NA,NA,"",   558.333E-03,  -533.325E-03,  -165.227E-03,   7.38926E-03
C:/temp/dataset/7/13_7.odb,Step-1,Increment      1: Step Time =    1.000,"PART-1-1",           527,       9.43586,      -6.49799,            0.,NA,NA,"",   415.238E-03,  -407.343E-03,  -80.5878E-03,   3.81424E-03
C:/temp/dataset/7/13_7.odb,Step-1,Increment      1: Step Time =    1.000,"PART-1-1",           528,       10.6293,      -5.79077,            0.,NA,NA,"",   436.059E-03,  -434.652E-03,  -35.0027E-03,   1.25862E-03
C:/temp/dataset/7/13_7.odb,Step-1,Increment      1: Step Time =    1.000,"PART-1-1",           529,       11.1144,       3.95682,            0.,NA,NA,"",   921.295E-03,  -920.882E-03,  -27.5841E-03,   347.285E-06
C:/temp/dataset/7/13_7.odb,Step-1,Increment      1: Step Time =    1.000,"PART-1-1",           530,       10.1270,       5.17226,            0.,NA,NA,"",   998.226E-03,  -993.961E-03,  -92.1746E-03,   2.26742E-03
C:/temp/dataset/7/13_7.odb,Step-1,Increment      1: Step Time =    1.000,"PART-1-1",           531,       9.05317,       10.7826,            0.,NA,NA,"",       1.39208,      -1.37794,  -197.914E-03,   4.91385E-03
C:/temp/dataset/7/13_7.odb,Step-1,Increment      1: Step Time =    1.000,"PART-1-1",           532,       8.01195,       11.8024,            0.,NA,NA,"",       1.48284,      -1.45494,  -286.319E-03,   7.49472E-03
C:/temp/dataset/7/13_7.odb,Step-1,Increment      1: Step Time =    1.000,"PART-1-1",           533,       11.0241,       10.9595,            0.,NA,NA,"",       1.39564,      -1.39475,  -49.6862E-03,   256.811E-06
C:/temp/dataset/7/13_7.odb,Step-1,Increment      1: Step Time =    1.000,"PART-1-1",           534,       8.35051,       17.3209,            0.,NA,NA,"",       1.93684,      -1.91173,  -310.862E-03,   6.12542E-03
C:/temp/dataset/7/13_7.odb,Step-1,Increment      1: Step Time =    1.000,"PART-1-1",           535,       12.5952,       19.1415,            0.,NA,NA,"",       2.10144,      -2.10033,   68.2440E-03,   4.02963E-03
C:/temp/dataset/7/13_7.odb,Step-1,Increment      1: Step Time =    1.000,"PART-1-1",           536,           15.,         18.75,            0.,NA,NA,"",       2.10089,      -2.08054,   291.670E-03,   9.01167E-03
C:/temp/dataset/7/13_7.odb,Step-1,Increment      1: Step Time =    1.000,"PART-1-1",           537,      -7.03326,       22.4462,            0.,NA,NA,"",       3.09014,      -2.32638,      -2.03394,   178.293E-06
C:/temp/dataset/7/13_7.odb,Step-1,Increment      1: Step Time =    1.000,"PART-1-1",           538,      -8.48458,       21.3302,            0.,NA,NA,"",       3.09808,      -2.19711,      -2.18422,   69.7759E-06
C:/temp/dataset/7/13_7.odb,Step-1,Increment      1: Step Time =    1.000,"PART-1-1",           539,      -6.65000,           20.,            0.,NA,NA,"",       2.85870,      -2.06382,      -1.97808,   214.268E-06
C:/temp/dataset/7/13_7.odb,Step-1,Increment      1: Step Time =    1.000,"PART-1-1",           540,      -5.19869,       21.1160,            0.,NA,NA,"",       2.85473,      -2.19288,      -1.82777,   244.416E-06
C:/temp/dataset/7/13_7.odb,Step-1,Increment      1: Step Time =    1.000,"PART-1-1",           541,       9.42603,       26.6587,            0.,NA,NA,"",       2.86853,      -2.85522,  -276.041E-03,   3.17118E-03
C:/temp/dataset/7/13_7.odb,Step-1,Increment      1: Step Time =    1.000,"PART-1-1",           542,       10.3720,       25.4897,            0.,NA,NA,"",       2.74092,      -2.73548,  -172.720E-03,   3.49319E-03
C:/temp/dataset/7/13_7.odb,Step-1,Increment      1: Step Time =    1.000,"PART-1-1",           543,       6.87457,       25.7626,            0.,NA,NA,"",       2.80249,      -2.75107,  -534.372E-03,   3.23495E-03
C:/temp/dataset/7/13_7.odb,Step-1,Increment      1: Step Time =    1.000,"PART-1-1",           544,       7.54675,       26.7337,            0.,NA,NA,"",       2.89481,      -2.85623,  -471.064E-03,   2.72082E-03
C:/temp/dataset/7/13_7.odb,Step-1,Increment      1: Step Time =    1.000,"PART-1-1",           545,      -3.17643,       25.4018,            0.,NA,NA,"",       3.13008,      -2.66959,      -1.63423,   316.779E-06
C:/temp/dataset/7/13_7.odb,Step-1,Increment      1: Step Time =    1.000,"PART-1-1",           546,      -4.35024,       25.6599,            0.,NA,NA,"",       3.21630,      -2.69037,      -1.76253,   251.276E-06
C:/temp/dataset/7/13_7.odb,Step-1,Increment      1: Step Time =    1.000,"PART-1-1",           547,       4.01884,       22.4610,            0.,NA,NA,"",       2.53044,      -2.39590,  -814.098E-03,   7.29769E-03
C:/temp/dataset/7/13_7.odb,Step-1,Increment      1: Step Time =    1.000,"PART-1-1",           548,       5.32127,       23.1739,            0.,NA,NA,"",       2.56568,      -2.47481,  -676.772E-03,   6.83193E-03
C:/temp/dataset/7/13_7.odb,Step-1,Increment      1: Step Time =    1.000,"PART-1-1",           549,       11.1447,       22.1526,            0.,NA,NA,"",       2.39204,      -2.39076,  -78.0732E-03,   3.74300E-03
C:/temp/dataset/7/13_7.odb,Step-1,Increment      1: Step Time =    1.000,"PART-1-1",           550,       10.2813,       23.3249,            0.,NA,NA,"",       2.51329,      -2.50764,  -168.500E-03,   3.85899E-03
C:/temp/dataset/7/13_7.odb,Step-1,Increment      1: Step Time =    1.000,"PART-1-1",           551,       6.15508,       21.9496,            0.,NA,NA,"",       2.41817,      -2.34948,  -572.291E-03,   7.75689E-03
C:/temp/dataset/7/13_7.odb,Step-1,Increment      1: Step Time =    1.000,"PART-1-1",           552,       6.48612,       23.9825,            0.,NA,NA,"",       2.62322,      -2.56289,  -559.352E-03,   4.86739E-03
C:/temp/dataset/7/13_7.odb,Step-1,Increment      1: Step Time =    1.000,"PART-1-1",           553,   6.30745E-03,       24.2683,            0.,NA,NA,"",       2.86732,      -2.56547,      -1.28057,   2.05612E-03
C:/temp/dataset/7/13_7.odb,Step-1,Increment      1: Step Time =    1.000,"PART-1-1",           554,      -1.65981,       23.6471,            0.,NA,NA,"",       2.88482,      -2.48870,      -1.45895,   602.532E-06
C:/temp/dataset/7/13_7.odb,Step-1,Increment      1: Step Time =    1.000,"PART-1-1",           555,      -1.07768,       22.4355,            0.,NA,NA,"",       2.73822,      -2.36058,      -1.38764,   842.354E-06
C:/temp/dataset/7/13_7.odb,Step-1,Increment      1: Step Time =    1.000,"PART-1-1",           556,   588.432E-03,       23.0567,            0.,NA,NA,"",       2.72074,      -2.43798,      -1.20775,   2.42665E-03
C:/temp/dataset/7/13_7.odb,Step-1,Increment      1: Step Time =    1.000,"PART-1-1",           557,      -4.82218,       24.5397,            0.,NA,NA,"",       3.13876,      -2.56638,      -1.80708,   272.224E-06
C:/temp/dataset/7/13_7.odb,Step-1,Increment      1: Step Time =    1.000,"PART-1-1",           558,      -3.09511,       23.7242,            0.,NA,NA,"",       2.96680,      -2.48845,      -1.61540,   238.747E-06
C:/temp/dataset/7/13_7.odb,Step-1,Increment      1: Step Time =    1.000,"PART-1-1",           559,      -5.58708,       23.2486,            0.,NA,NA,"",       3.06733,      -2.42187,      -1.88231,   229.628E-06
C:/temp/dataset/7/13_7.odb,Step-1,Increment      1: Step Time =    1.000,"PART-1-1",           560,       8.76337,      -9.49006,            0.,NA,NA,"",   315.668E-03,  -302.223E-03,  -91.1443E-03,   5.19271E-03
C:/temp/dataset/7/13_7.odb,Step-1,Increment      1: Step Time =    1.000,"PART-1-1",           561,       9.72759,      -26.4759,            0.,NA,NA,"",   8.64951E-03,  -2.49322E-03,  -8.28238E-03,   3.08930E-03
C:/temp/dataset/7/13_7.odb,Step-1,Increment      1: Step Time =    1.000,"PART-1-1",           562,       9.12173,       6.33780,            0.,NA,NA,"",       1.08008,      -1.06771,  -163.041E-03,   4.67628E-03
C:/temp/dataset/7/13_7.odb,Step-1,Increment      1: Step Time =    1.000,"PART-1-1",           563,       11.1214,       6.29882,            0.,NA,NA,"",       1.06799,      -1.06753,  -31.4787E-03,   338.141E-06
C:/temp/dataset/7/13_7.odb,Step-1,Increment      1: Step Time =    1.000,"PART-1-1",           564,       11.1740,      -13.7880,            0.,NA,NA,"",   177.840E-03,  -177.659E-03,  -8.00499E-03,   597.390E-06
C:/temp/dataset/7/13_7.odb,Step-1,Increment      1: Step Time =    1.000,"PART-1-1",           565,       10.6612,      -8.65022,            0.,NA,NA,"",   330.014E-03,  -328.749E-03,  -28.8576E-03,   1.26280E-03
C:/temp/dataset/7/13_7.odb,Step-1,Increment      1: Step Time =    1.000,"PART-1-1",           566,       9.47894,      -7.81405,            0.,NA,NA,"",   366.004E-03,  -358.518E-03,  -73.6455E-03,   3.68469E-03
C:/temp/dataset/7/13_7.odb,Step-1,Increment      1: Step Time =    1.000,"PART-1-1",           567,       11.3640,      -18.5194,            0.,NA,NA,"",   80.7239E-03,  -80.6866E-03,  -2.45104E-03,   589.727E-06
C:/temp/dataset/7/13_7.odb,Step-1,Increment      1: Step Time =    1.000,"PART-1-1",           568,       12.0025,       20.7886,            0.,NA,NA,"",       2.25776,      -2.25774,   9.26065E-03,   3.75736E-03
C:/temp/dataset/7/13_7.odb,Step-1,Increment      1: Step Time =    1.000,"PART-1-1",           569,       11.4947,       18.6594,            0.,NA,NA,"",       2.04819,      -2.04794,  -32.1988E-03,   2.59613E-03
C:/temp/dataset/7/13_7.odb,Step-1,Increment      1: Step Time =    1.000,"PART-1-1",           570,       9.39315,       18.1618,            0.,NA,NA,"",       2.00363,      -1.99128,  -222.157E-03,   2.70600E-03
C:/temp/dataset/7/13_7.odb,Step-1,Increment      1: Step Time =    1.000,"PART-1-1",           571,       10.9214,       17.4088,            0.,NA,NA,"",       1.93072,      -1.92905,  -80.1152E-03,   1.04288E-03
C:/temp/dataset/7/13_7.odb,Step-1,Increment      1: Step Time =    1.000,"PART-1-1",           572,      -9.97500,           20.,            0.,NA,NA,"",       3.10552,      -2.04462,      -2.33748,   41.1316E-06
C:/temp/dataset/7/13_7.odb,Step-1,Increment      1: Step Time =    1.000,"PART-1-1",           573,       11.9818,      -2.09472,            0.,NA,NA,"",   597.902E-03,  -597.478E-03,   22.5338E-03,   1.97398E-03
C:/temp/dataset/7/13_7.odb,Step-1,Increment      1: Step Time =    1.000,"PART-1-1",           574,       12.0426,   313.093E-03,            0.,NA,NA,"",   718.398E-03,  -717.889E-03,   27.0432E-03,   2.19709E-03
C:/temp/dataset/7/13_7.odb,Step-1,Increment      1: Step Time =    1.000,"PART-1-1",           575,       12.1686,      -14.9632,            0.,NA,NA,"",   151.335E-03,  -150.504E-03,   15.8362E-03,   1.76789E-03
C:/temp/dataset/7/13_7.odb,Step-1,Increment      1: Step Time =    1.000,"PART-1-1",           576,       12.0880,      -12.5178,            0.,NA,NA,"",   211.836E-03,  -211.173E-03,   16.7455E-03,   1.74504E-03
C:/temp/dataset/7/13_7.odb,Step-1,Increment      1: Step Time =    1.000,"PART-1-1",           577,       12.0767,       2.70437,            0.,NA,NA,"",   850.014E-03,  -849.479E-03,   30.1678E-03,   2.35702E-03
C:/temp/dataset/7/13_7.odb,Step-1,Increment      1: Step Time =    1.000,"PART-1-1",           578,       11.6617,       14.7036,            0.,NA,NA,"",       1.69577,      -1.69575,  -7.95509E-03,   1.68184E-03
C:/temp/dataset/7/13_7.odb,Step-1,Increment      1: Step Time =    1.000,"PART-1-1",           579,       11.9561,       12.2406,            0.,NA,NA,"",       1.49678,      -1.49665,   19.7397E-03,   2.29926E-03
C:/temp/dataset/7/13_7.odb,Step-1,Increment      1: Step Time =    1.000,"PART-1-1",           580,       12.3155,      -19.7087,            0.,NA,NA,"",   63.9987E-03,  -62.8100E-03,   12.2778E-03,   1.74308E-03
C:/temp/dataset/7/13_7.odb,Step-1,Increment      1: Step Time =    1.000,"PART-1-1",           581,       12.3404,      -21.7879,            0.,NA,NA,"",   37.6113E-03,  -36.3192E-03,   9.77390E-03,   1.60650E-03
C:/temp/dataset/7/13_7.odb,Step-1,Increment      1: Step Time =    1.000,"PART-1-1",           582,       12.2327,      -17.3977,            0.,NA,NA,"",   101.640E-03,  -100.670E-03,   14.0109E-03,   1.74166E-03
C:/temp/dataset/7/13_7.odb,Step-1,Increment      1: Step Time =    1.000,"PART-1-1",           583,       12.1020,       5.09402,            0.,NA,NA,"",   993.698E-03,  -993.165E-03,   32.5480E-03,   2.49013E-03
C:/temp/dataset/7/13_7.odb,Step-1,Increment      1: Step Time =    1.000,"PART-1-1",           584,       12.0630,       9.85139,            0.,NA,NA,"",       1.31628,      -1.31595,   29.5749E-03,   2.51242E-03
C:/temp/dataset/7/13_7.odb,Step-1,Increment      1: Step Time =    1.000,"PART-1-1",           585,       12.0921,       7.47372,            0.,NA,NA,"",       1.14890,      -1.14845,   32.1734E-03,   2.53014E-03
C:/temp/dataset/7/13_7.odb,Step-1,Increment      1: Step Time =    1.000,"PART-1-1",           586,       11.9146,      -10.0225,            0.,NA,NA,"",   284.650E-03,  -284.307E-03,   13.9731E-03,   1.52457E-03
C:/temp/dataset/7/13_7.odb,Step-1,Increment      1: Step Time =    1.000,"PART-1-1",           587,       11.5993,      -7.26023,            0.,NA,NA,"",   378.902E-03,  -378.878E-03,   4.22813E-03,   995.238E-06
C:/temp/dataset/7/13_7.odb,Step-1,Increment      1: Step Time =    1.000,"PART-1-1",           588,       11.8707,      -4.56496,            0.,NA,NA,"",   486.558E-03,  -486.293E-03,   16.0581E-03,   1.64188E-03
C:/temp/dataset/7/13_7.odb,Step-1,Increment      1: Step Time =    1.000,"PART-1-1",           589,      -3.86001,       22.4330,            0.,NA,NA,"",       2.88982,      -2.34365,      -1.69067,   205.254E-06
C:/temp/dataset/7/13_7.odb,Step-1,Increment      1: Step Time =    1.000,"PART-1-1",           590,       3.35000,           20.,            0.,NA,NA,"",       2.29644,      -2.12293,  -875.691E-03,   6.41972E-03
C:/temp/dataset/7/13_7.odb,Step-1,Increment      1: Step Time =    1.000,"PART-1-1",           591,       5.05511,       21.0689,            0.,NA,NA,"",       2.35563,      -2.25553,  -679.418E-03,   11.1291E-03
C:/temp/dataset/7/13_7.odb,Step-1,Increment      1: Step Time =    1.000,"PART-1-1",           592,       2.31373,       21.3921,            0.,NA,NA,"",       2.48086,      -2.26922,      -1.00264,   2.62477E-03
C:/temp/dataset/7/13_7.odb,Step-1,Increment      1: Step Time =    1.000,"PART-1-1",           593,      -1.98632,       21.3170,            0.,NA,NA,"",       2.67911,      -2.23302,      -1.48029,   326.688E-06
C:/temp/dataset/7/13_7.odb,Step-1,Increment      1: Step Time =    1.000,"PART-1-1",           594,   25.0000E-03,           20.,            0.,NA,NA,"",       2.44412,      -2.09960,      -1.25115,   844.127E-06
C:/temp/dataset/7/13_7.odb,Step-1,Increment      1: Step Time =    1.000,"PART-1-1",           595,   933.640E-03,       21.1186,            0.,NA,NA,"",       2.51159,      -2.22915,      -1.15715,   1.07173E-03
C:/temp/dataset/7/13_7.odb,Step-1,Increment      1: Step Time =    1.000,"PART-1-1",           596,       7.16521,       20.7144,            0.,NA,NA,"",       2.27172,      -2.22572,  -454.820E-03,   6.44428E-03
C:/temp/dataset/7/13_7.odb,Step-1,Increment      1: Step Time =    1.000,"PART-1-1",           597,       8.15837,       19.5039,            0.,NA,NA,"",       2.14057,      -2.11220,  -347.338E-03,   4.42652E-03
C:/temp/dataset/7/13_7.odb,Step-1,Increment      1: Step Time =    1.000,"PART-1-1",           598,      -3.32500,           20.,            0.,NA,NA,"",       2.63688,      -2.08220,      -1.61791,   555.560E-06
