ODB Name,Step,Frame,Part Instance Name,    êﬂì_ÉâÉxÉã,X,Y,Z,Section Name,Material Name,Section Point,   U-Magnitude,          U-U1,          U-U2,       S-Mises
C:/temp/dataset/7/14_7.odb,Step-1,Increment      1: Step Time =    1.000,"PART-1-1",             1,          -15.,           20.,            0.,NA,NA,"",       1.95718,      -1.17169,      -1.56771,   950.975E-09
C:/temp/dataset/7/14_7.odb,Step-1,Increment      1: Step Time =    1.000,"PART-1-1",             2,          -15.,           25.,            0.,NA,NA,"",       2.14527,      -1.45570,      -1.57578,   2.63754E-06
C:/temp/dataset/7/14_7.odb,Step-1,Increment      1: Step Time =    1.000,"PART-1-1",             3,      -11.6500,           20.,            0.,NA,NA,"",       1.81186,      -1.17710,      -1.37742,   3.95168E-06
C:/temp/dataset/7/14_7.odb,Step-1,Increment      1: Step Time =    1.000,"PART-1-1",             4,      -8.30000,           20.,            0.,NA,NA,"",       1.67562,      -1.18251,      -1.18717,   7.59929E-06
C:/temp/dataset/7/14_7.odb,Step-1,Increment      1: Step Time =    1.000,"PART-1-1",             5,           -5.,           20.,            0.,NA,NA,"",       1.55249,      -1.18768,  -999.821E-03,   99.3443E-06
C:/temp/dataset/7/14_7.odb,Step-1,Increment      1: Step Time =    1.000,"PART-1-1",             6,      -1.65000,           20.,            0.,NA,NA,"",       1.44118,      -1.19240,  -809.427E-03,   458.541E-06
C:/temp/dataset/7/14_7.odb,Step-1,Increment      1: Step Time =    1.000,"PART-1-1",             7,       1.70000,           20.,            0.,NA,NA,"",       1.34428,      -1.19491,  -615.871E-03,   1.76493E-03
C:/temp/dataset/7/14_7.odb,Step-1,Increment      1: Step Time =    1.000,"PART-1-1",             8,            5.,           20.,            0.,NA,NA,"",       1.26796,      -1.20072,  -407.417E-03,   10.0705E-03
C:/temp/dataset/7/14_7.odb,Step-1,Increment      1: Step Time =    1.000,"PART-1-1",             9,            5.,         13.75,            0.,NA,NA,"",   966.556E-03,  -904.530E-03,  -340.671E-03,   9.37431E-03
C:/temp/dataset/7/14_7.odb,Step-1,Increment      1: Step Time =    1.000,"PART-1-1",            10,            5.,           7.5,            0.,NA,NA,"",   707.859E-03,  -648.684E-03,  -283.325E-03,   9.20680E-03
C:/temp/dataset/7/14_7.odb,Step-1,Increment      1: Step Time =    1.000,"PART-1-1",            11,            5.,          1.25,            0.,NA,NA,"",   494.744E-03,  -438.751E-03,  -228.625E-03,   8.98760E-03
C:/temp/dataset/7/14_7.odb,Step-1,Increment      1: Step Time =    1.000,"PART-1-1",            12,            5.,           -5.,            0.,NA,NA,"",   325.537E-03,  -273.384E-03,  -176.736E-03,   8.69306E-03
C:/temp/dataset/7/14_7.odb,Step-1,Increment      1: Step Time =    1.000,"PART-1-1",            13,            5.,        -11.25,            0.,NA,NA,"",   197.392E-03,  -150.519E-03,  -127.701E-03,   8.32743E-03
C:/temp/dataset/7/14_7.odb,Step-1,Increment      1: Step Time =    1.000,"PART-1-1",            14,            5.,         -17.5,            0.,NA,NA,"",   105.960E-03,  -67.6366E-03,  -81.5649E-03,   7.89265E-03
C:/temp/dataset/7/14_7.odb,Step-1,Increment      1: Step Time =    1.000,"PART-1-1",            15,            5.,        -23.75,            0.,NA,NA,"",   44.3579E-03,  -21.7599E-03,  -38.6540E-03,   7.27629E-03
C:/temp/dataset/7/14_7.odb,Step-1,Increment      1: Step Time =    1.000,"PART-1-1",            16,            5.,          -30.,            0.,NA,NA,"",            0.,  -2.24753E-39,  -4.22780E-39,   8.27856E-03
C:/temp/dataset/7/14_7.odb,Step-1,Increment      1: Step Time =    1.000,"PART-1-1",            17,           15.,          -30.,            0.,NA,NA,"",            0.,  -10.5798E-42,   282.666E-42,   906.010E-06
C:/temp/dataset/7/14_7.odb,Step-1,Increment      1: Step Time =    1.000,"PART-1-1",            18,           15.,         -22.5,            0.,NA,NA,"",   21.0760E-03,  -16.5349E-03,   13.0689E-03,   2.38247E-03
C:/temp/dataset/7/14_7.odb,Step-1,Increment      1: Step Time =    1.000,"PART-1-1",            19,           15.,          -15.,            0.,NA,NA,"",   90.5604E-03,  -85.3271E-03,   30.3391E-03,   2.86588E-03
C:/temp/dataset/7/14_7.odb,Step-1,Increment      1: Step Time =    1.000,"PART-1-1",            20,           15.,          -7.5,            0.,NA,NA,"",   215.691E-03,  -209.753E-03,   50.2616E-03,   3.34274E-03
C:/temp/dataset/7/14_7.odb,Step-1,Increment      1: Step Time =    1.000,"PART-1-1",            21,           15.,            0.,            0.,NA,NA,"",   401.204E-03,  -394.719E-03,   71.8426E-03,   3.72763E-03
C:/temp/dataset/7/14_7.odb,Step-1,Increment      1: Step Time =    1.000,"PART-1-1",            22,           15.,           7.5,            0.,NA,NA,"",   650.931E-03,  -644.134E-03,   93.8241E-03,   4.01850E-03
C:/temp/dataset/7/14_7.odb,Step-1,Increment      1: Step Time =    1.000,"PART-1-1",            23,           15.,           15.,            0.,NA,NA,"",   968.116E-03,  -961.268E-03,   114.948E-03,   4.18297E-03
C:/temp/dataset/7/14_7.odb,Step-1,Increment      1: Step Time =    1.000,"PART-1-1",            24,           15.,          22.5,            0.,NA,NA,"",       1.35424,      -1.34807,   129.111E-03,   2.44281E-03
C:/temp/dataset/7/14_7.odb,Step-1,Increment      1: Step Time =    1.000,"PART-1-1",            25,           15.,           30.,            0.,NA,NA,"",       1.78034,      -1.77604,   123.733E-03,   82.4953E-06
C:/temp/dataset/7/14_7.odb,Step-1,Increment      1: Step Time =    1.000,"PART-1-1",            26,         11.25,           30.,            0.,NA,NA,"",       1.77347,      -1.77114,  -90.7885E-03,   1.09472E-03
C:/temp/dataset/7/14_7.odb,Step-1,Increment      1: Step Time =    1.000,"PART-1-1",            27,           7.5,           30.,            0.,NA,NA,"",       1.79944,      -1.77101,  -318.589E-03,   3.97839E-03
C:/temp/dataset/7/14_7.odb,Step-1,Increment      1: Step Time =    1.000,"PART-1-1",            28,          3.75,           30.,            0.,NA,NA,"",       1.84077,      -1.76197,  -532.801E-03,   3.57163E-03
C:/temp/dataset/7/14_7.odb,Step-1,Increment      1: Step Time =    1.000,"PART-1-1",            29,            0.,           30.,            0.,NA,NA,"",       1.90798,      -1.76187,  -732.267E-03,   944.309E-06
C:/temp/dataset/7/14_7.odb,Step-1,Increment      1: Step Time =    1.000,"PART-1-1",            30,         -3.75,           30.,            0.,NA,NA,"",       1.99535,      -1.75763,  -944.533E-03,   207.446E-06
C:/temp/dataset/7/14_7.odb,Step-1,Increment      1: Step Time =    1.000,"PART-1-1",            31,          -7.5,           30.,            0.,NA,NA,"",       2.09984,      -1.75186,      -1.15772,   23.1357E-06
C:/temp/dataset/7/14_7.odb,Step-1,Increment      1: Step Time =    1.000,"PART-1-1",            32,        -11.25,           30.,            0.,NA,NA,"",       2.21969,      -1.74581,      -1.37082,   1.64909E-06
C:/temp/dataset/7/14_7.odb,Step-1,Increment      1: Step Time =    1.000,"PART-1-1",            33,          -15.,           30.,            0.,NA,NA,"",       2.35274,      -1.73975,      -1.58387,   150.322E-09
C:/temp/dataset/7/14_7.odb,Step-1,Increment      1: Step Time =    1.000,"PART-1-1",            34,          -15.,          22.5,            0.,NA,NA,"",       2.04846,      -1.31369,      -1.57174,   1.25868E-06
C:/temp/dataset/7/14_7.odb,Step-1,Increment      1: Step Time =    1.000,"PART-1-1",            35,            5.,       15.8333,            0.,NA,NA,"",       1.06281,  -999.811E-03,  -360.468E-03,   9.30942E-03
C:/temp/dataset/7/14_7.odb,Step-1,Increment      1: Step Time =    1.000,"PART-1-1",            36,            5.,       17.9167,            0.,NA,NA,"",       1.16319,      -1.09923,  -380.383E-03,   10.4850E-03
C:/temp/dataset/7/14_7.odb,Step-1,Increment      1: Step Time =    1.000,"PART-1-1",            37,            5.,       9.58333,            0.,NA,NA,"",   788.995E-03,  -728.842E-03,  -302.162E-03,   9.25771E-03
C:/temp/dataset/7/14_7.odb,Step-1,Increment      1: Step Time =    1.000,"PART-1-1",            38,            5.,       11.6667,            0.,NA,NA,"",   875.233E-03,  -814.132E-03,  -321.282E-03,   9.28208E-03
C:/temp/dataset/7/14_7.odb,Step-1,Increment      1: Step Time =    1.000,"PART-1-1",            39,            5.,       3.33333,            0.,NA,NA,"",   560.793E-03,  -503.689E-03,  -246.549E-03,   9.07107E-03
C:/temp/dataset/7/14_7.odb,Step-1,Increment      1: Step Time =    1.000,"PART-1-1",            40,            5.,       5.41667,            0.,NA,NA,"",   631.809E-03,  -573.648E-03,  -264.784E-03,   9.14497E-03
C:/temp/dataset/7/14_7.odb,Step-1,Increment      1: Step Time =    1.000,"PART-1-1",            41,            5.,      -2.91667,            0.,NA,NA,"",   377.215E-03,  -323.673E-03,  -193.718E-03,   8.79597E-03
C:/temp/dataset/7/14_7.odb,Step-1,Increment      1: Step Time =    1.000,"PART-1-1",            42,            5.,  -833.333E-03,            0.,NA,NA,"",   433.582E-03,  -378.770E-03,  -211.013E-03,   8.89644E-03
C:/temp/dataset/7/14_7.odb,Step-1,Increment      1: Step Time =    1.000,"PART-1-1",            43,            5.,      -9.16667,            0.,NA,NA,"",   235.774E-03,  -186.899E-03,  -143.730E-03,   8.45797E-03
C:/temp/dataset/7/14_7.odb,Step-1,Increment      1: Step Time =    1.000,"PART-1-1",            44,            5.,      -7.08333,            0.,NA,NA,"",   278.439E-03,  -227.826E-03,  -160.074E-03,   8.57361E-03
C:/temp/dataset/7/14_7.odb,Step-1,Increment      1: Step Time =    1.000,"PART-1-1",            45,            5.,      -15.4167,            0.,NA,NA,"",   132.717E-03,  -90.9942E-03,  -96.6120E-03,   8.04818E-03
C:/temp/dataset/7/14_7.odb,Step-1,Increment      1: Step Time =    1.000,"PART-1-1",            46,            5.,      -13.3333,            0.,NA,NA,"",   163.112E-03,  -118.585E-03,  -111.996E-03,   8.19269E-03
C:/temp/dataset/7/14_7.odb,Step-1,Increment      1: Step Time =    1.000,"PART-1-1",            47,            5.,      -21.6667,            0.,NA,NA,"",   62.1055E-03,  -33.1506E-03,  -52.5179E-03,   7.52116E-03
C:/temp/dataset/7/14_7.odb,Step-1,Increment      1: Step Time =    1.000,"PART-1-1",            48,            5.,      -19.5833,            0.,NA,NA,"",   82.5275E-03,  -48.4048E-03,  -66.8413E-03,   7.71347E-03
C:/temp/dataset/7/14_7.odb,Step-1,Increment      1: Step Time =    1.000,"PART-1-1",            49,            5.,      -27.9167,            0.,NA,NA,"",   15.3256E-03,  -8.13191E-03,  -12.9903E-03,   6.98114E-03
C:/temp/dataset/7/14_7.odb,Step-1,Increment      1: Step Time =    1.000,"PART-1-1",            50,            5.,      -25.8333,            0.,NA,NA,"",   28.8606E-03,  -13.6970E-03,  -25.4033E-03,   6.84432E-03
C:/temp/dataset/7/14_7.odb,Step-1,Increment      1: Step Time =    1.000,"PART-1-1",            51,          12.5,          -30.,            0.,NA,NA,"",            0.,   2.46834E-39,  -2.41905E-39,   1.31373E-03
C:/temp/dataset/7/14_7.odb,Step-1,Increment      1: Step Time =    1.000,"PART-1-1",            52,           10.,          -30.,            0.,NA,NA,"",            0.,  -430.531E-42,  -5.98360E-39,   2.38180E-03
C:/temp/dataset/7/14_7.odb,Step-1,Increment      1: Step Time =    1.000,"PART-1-1",            53,           7.5,          -30.,            0.,NA,NA,"",            0.,   635.869E-42,  -12.4927E-39,   3.55799E-03
C:/temp/dataset/7/14_7.odb,Step-1,Increment      1: Step Time =    1.000,"PART-1-1",            54,           15.,          -25.,            0.,NA,NA,"",   9.44569E-03,  -5.18579E-03,   7.89485E-03,   2.28491E-03
C:/temp/dataset/7/14_7.odb,Step-1,Increment      1: Step Time =    1.000,"PART-1-1",            55,           15.,         -27.5,            0.,NA,NA,"",   2.93897E-03,   141.580E-06,   2.93556E-03,   1.99818E-03
C:/temp/dataset/7/14_7.odb,Step-1,Increment      1: Step Time =    1.000,"PART-1-1",            56,           15.,         -17.5,            0.,NA,NA,"",   61.4696E-03,  -56.4776E-03,   24.2651E-03,   2.69078E-03
C:/temp/dataset/7/14_7.odb,Step-1,Increment      1: Step Time =    1.000,"PART-1-1",            57,           15.,          -20.,            0.,NA,NA,"",   38.3723E-03,  -33.6104E-03,   18.5141E-03,   2.52503E-03
C:/temp/dataset/7/14_7.odb,Step-1,Increment      1: Step Time =    1.000,"PART-1-1",            58,           15.,          -10.,            0.,NA,NA,"",   167.487E-03,  -161.772E-03,   43.3761E-03,   3.19485E-03
C:/temp/dataset/7/14_7.odb,Step-1,Increment      1: Step Time =    1.000,"PART-1-1",            59,           15.,         -12.5,            0.,NA,NA,"",   125.836E-03,  -120.359E-03,   36.7211E-03,   3.03424E-03
C:/temp/dataset/7/14_7.odb,Step-1,Increment      1: Step Time =    1.000,"PART-1-1",            60,           15.,          -2.5,            0.,NA,NA,"",   332.400E-03,  -326.074E-03,   64.5413E-03,   3.61093E-03
C:/temp/dataset/7/14_7.odb,Step-1,Increment      1: Step Time =    1.000,"PART-1-1",            61,           15.,           -5.,            0.,NA,NA,"",   270.610E-03,  -264.467E-03,   57.3306E-03,   3.48357E-03
C:/temp/dataset/7/14_7.odb,Step-1,Increment      1: Step Time =    1.000,"PART-1-1",            62,           15.,            5.,            0.,NA,NA,"",   560.357E-03,  -553.636E-03,   86.5307E-03,   3.92955E-03
C:/temp/dataset/7/14_7.odb,Step-1,Increment      1: Step Time =    1.000,"PART-1-1",            63,           15.,           2.5,            0.,NA,NA,"",   477.151E-03,  -470.534E-03,   79.1886E-03,   3.83341E-03
C:/temp/dataset/7/14_7.odb,Step-1,Increment      1: Step Time =    1.000,"PART-1-1",            64,           15.,          12.5,            0.,NA,NA,"",   854.648E-03,  -847.783E-03,   108.107E-03,   4.17924E-03
C:/temp/dataset/7/14_7.odb,Step-1,Increment      1: Step Time =    1.000,"PART-1-1",            65,           15.,           10.,            0.,NA,NA,"",   748.984E-03,  -742.139E-03,   101.031E-03,   4.10329E-03
C:/temp/dataset/7/14_7.odb,Step-1,Increment      1: Step Time =    1.000,"PART-1-1",            66,           15.,           20.,            0.,NA,NA,"",       1.21863,      -1.21208,   126.253E-03,   3.35578E-03
C:/temp/dataset/7/14_7.odb,Step-1,Increment      1: Step Time =    1.000,"PART-1-1",            67,           15.,          17.5,            0.,NA,NA,"",       1.08954,      -1.08277,   121.228E-03,   3.92263E-03
C:/temp/dataset/7/14_7.odb,Step-1,Increment      1: Step Time =    1.000,"PART-1-1",            68,           15.,          27.5,            0.,NA,NA,"",       1.63731,      -1.63233,   127.589E-03,   448.980E-06
C:/temp/dataset/7/14_7.odb,Step-1,Increment      1: Step Time =    1.000,"PART-1-1",            69,           15.,           25.,            0.,NA,NA,"",       1.49445,      -1.48883,   129.539E-03,   1.45605E-03
C:/temp/dataset/7/14_7.odb,Step-1,Increment      1: Step Time =    1.000,"PART-1-1",            70,        13.125,           30.,            0.,NA,NA,"",       1.77311,      -1.77303,   16.4872E-03,   289.731E-06
C:/temp/dataset/7/14_7.odb,Step-1,Increment      1: Step Time =    1.000,"PART-1-1",            71,         9.375,           30.,            0.,NA,NA,"",       1.78168,      -1.77041,  -200.166E-03,   1.96428E-03
C:/temp/dataset/7/14_7.odb,Step-1,Increment      1: Step Time =    1.000,"PART-1-1",            72,         5.625,           30.,            0.,NA,NA,"",       1.81864,      -1.76590,  -434.799E-03,   7.43148E-03
C:/temp/dataset/7/14_7.odb,Step-1,Increment      1: Step Time =    1.000,"PART-1-1",            73,         1.875,           30.,            0.,NA,NA,"",       1.87161,      -1.76300,  -628.290E-03,   2.03226E-03
C:/temp/dataset/7/14_7.odb,Step-1,Increment      1: Step Time =    1.000,"PART-1-1",            74,        -1.875,           30.,            0.,NA,NA,"",       1.94945,      -1.76011,  -838.069E-03,   469.078E-06
C:/temp/dataset/7/14_7.odb,Step-1,Increment      1: Step Time =    1.000,"PART-1-1",            75,        -5.625,           30.,            0.,NA,NA,"",       2.04555,      -1.75482,      -1.05113,   78.7006E-06
C:/temp/dataset/7/14_7.odb,Step-1,Increment      1: Step Time =    1.000,"PART-1-1",            76,        -9.375,           30.,            0.,NA,NA,"",       2.15798,      -1.74885,      -1.26428,   3.83677E-06
C:/temp/dataset/7/14_7.odb,Step-1,Increment      1: Step Time =    1.000,"PART-1-1",            77,       -13.125,           30.,            0.,NA,NA,"",       2.28470,      -1.74278,      -1.47734,   1.06139E-06
C:/temp/dataset/7/14_7.odb,Step-1,Increment      1: Step Time =    1.000,"PART-1-1",            78,          -15.,          27.5,            0.,NA,NA,"",       2.24690,      -1.59773,      -1.57983,   1.46631E-06
C:/temp/dataset/7/14_7.odb,Step-1,Increment      1: Step Time =    1.000,"PART-1-1",            79,      -7.07467,       28.0475,            0.,NA,NA,"",       1.99317,      -1.64163,      -1.13038,   54.8178E-06
C:/temp/dataset/7/14_7.odb,Step-1,Increment      1: Step Time =    1.000,"PART-1-1",            80,      -10.7971,       27.6072,            0.,NA,NA,"",       2.09593,      -1.61060,      -1.34122,   6.37511E-06
C:/temp/dataset/7/14_7.odb,Step-1,Increment      1: Step Time =    1.000,"PART-1-1",            81,      -3.50976,       28.2242,            0.,NA,NA,"",       1.89945,      -1.65736,  -927.930E-03,   217.840E-06
C:/temp/dataset/7/14_7.odb,Step-1,Increment      1: Step Time =    1.000,"PART-1-1",            82,       11.3028,       27.6605,            0.,NA,NA,"",       1.63761,      -1.63550,  -83.1107E-03,   803.318E-06
C:/temp/dataset/7/14_7.odb,Step-1,Increment      1: Step Time =    1.000,"PART-1-1",            83,       7.46624,       27.7175,            0.,NA,NA,"",       1.66410,      -1.63503,  -309.691E-03,   5.17318E-03
C:/temp/dataset/7/14_7.odb,Step-1,Increment      1: Step Time =    1.000,"PART-1-1",            84,   523.838E-03,       28.1559,            0.,NA,NA,"",       1.80130,      -1.65987,  -699.667E-03,   230.232E-06
C:/temp/dataset/7/14_7.odb,Step-1,Increment      1: Step Time =    1.000,"PART-1-1",            85,       13.1724,       27.5829,            0.,NA,NA,"",       1.63401,      -1.63385,   23.2076E-03,   871.096E-06
C:/temp/dataset/7/14_7.odb,Step-1,Increment      1: Step Time =    1.000,"PART-1-1",            86,       9.41586,       27.7284,            0.,NA,NA,"",       1.64798,      -1.63673,  -192.302E-03,   1.08704E-03
C:/temp/dataset/7/14_7.odb,Step-1,Increment      1: Step Time =    1.000,"PART-1-1",            87,       5.17501,       27.3177,            0.,NA,NA,"",       1.67436,      -1.61491,  -442.219E-03,   6.31222E-03
C:/temp/dataset/7/14_7.odb,Step-1,Increment      1: Step Time =    1.000,"PART-1-1",            88,       1.85763,       28.7412,            0.,NA,NA,"",       1.80650,      -1.69426,  -626.821E-03,   906.604E-06
C:/temp/dataset/7/14_7.odb,Step-1,Increment      1: Step Time =    1.000,"PART-1-1",            89,      -1.45910,       27.7280,            0.,NA,NA,"",       1.82290,      -1.63270,  -810.712E-03,   336.609E-06
C:/temp/dataset/7/14_7.odb,Step-1,Increment      1: Step Time =    1.000,"PART-1-1",            90,      -5.31380,       28.2250,            0.,NA,NA,"",       1.94923,      -1.65454,      -1.03053,   113.789E-06
C:/temp/dataset/7/14_7.odb,Step-1,Increment      1: Step Time =    1.000,"PART-1-1",            91,      -8.92632,       27.8484,            0.,NA,NA,"",       2.04309,      -1.62733,      -1.23531,   20.9433E-06
C:/temp/dataset/7/14_7.odb,Step-1,Increment      1: Step Time =    1.000,"PART-1-1",            92,       7.03655,   996.185E-03,            0.,NA,NA,"",   456.006E-03,  -425.057E-03,  -165.131E-03,   6.36854E-03
C:/temp/dataset/7/14_7.odb,Step-1,Increment      1: Step Time =    1.000,"PART-1-1",            93,       6.93081,       13.7923,            0.,NA,NA,"",   936.408E-03,  -901.401E-03,  -253.646E-03,   6.72990E-03
C:/temp/dataset/7/14_7.odb,Step-1,Increment      1: Step Time =    1.000,"PART-1-1",            94,       7.08682,       7.47611,            0.,NA,NA,"",   673.673E-03,  -641.914E-03,  -204.407E-03,   6.44198E-03
C:/temp/dataset/7/14_7.odb,Step-1,Increment      1: Step Time =    1.000,"PART-1-1",            95,       6.96700,      -1.15199,            0.,NA,NA,"",   395.217E-03,  -364.003E-03,  -153.943E-03,   6.39912E-03
C:/temp/dataset/7/14_7.odb,Step-1,Increment      1: Step Time =    1.000,"PART-1-1",            96,       6.47578,      -21.8661,            0.,NA,NA,"",   49.8928E-03,  -27.4234E-03,  -41.6803E-03,   6.07591E-03
C:/temp/dataset/7/14_7.odb,Step-1,Increment      1: Step Time =    1.000,"PART-1-1",            97,       7.14087,      -13.1040,            0.,NA,NA,"",   141.552E-03,  -115.365E-03,  -82.0237E-03,   5.79907E-03
C:/temp/dataset/7/14_7.odb,Step-1,Increment      1: Step Time =    1.000,"PART-1-1",            98,       6.53104,      -7.08024,            0.,NA,NA,"",   256.982E-03,  -222.933E-03,  -127.831E-03,   6.74347E-03
C:/temp/dataset/7/14_7.odb,Step-1,Increment      1: Step Time =    1.000,"PART-1-1",            99,       6.85322,      -3.24169,            0.,NA,NA,"",   341.633E-03,  -309.730E-03,  -144.155E-03,   6.48041E-03
C:/temp/dataset/7/14_7.odb,Step-1,Increment      1: Step Time =    1.000,"PART-1-1",           100,       6.74184,      -8.96518,            0.,NA,NA,"",   216.418E-03,  -185.131E-03,  -112.085E-03,   6.41460E-03
C:/temp/dataset/7/14_7.odb,Step-1,Increment      1: Step Time =    1.000,"PART-1-1",           101,       6.94703,      -23.6171,            0.,NA,NA,"",   34.1652E-03,  -16.7611E-03,  -29.7712E-03,   5.53936E-03
C:/temp/dataset/7/14_7.odb,Step-1,Increment      1: Step Time =    1.000,"PART-1-1",           102,       7.44695,      -27.8442,            0.,NA,NA,"",   8.68673E-03,  -2.54972E-03,  -8.30411E-03,   4.98929E-03
C:/temp/dataset/7/14_7.odb,Step-1,Increment      1: Step Time =    1.000,"PART-1-1",           103,       7.35225,      -17.6578,            0.,NA,NA,"",   81.5175E-03,  -59.1273E-03,  -56.1165E-03,   5.39500E-03
C:/temp/dataset/7/14_7.odb,Step-1,Increment      1: Step Time =    1.000,"PART-1-1",           104,       7.23832,      -15.2967,            0.,NA,NA,"",   110.224E-03,  -85.7553E-03,  -69.2482E-03,   5.60907E-03
C:/temp/dataset/7/14_7.odb,Step-1,Increment      1: Step Time =    1.000,"PART-1-1",           105,       7.10099,       17.6583,            0.,NA,NA,"",       1.11631,      -1.08261,  -272.217E-03,   6.46474E-03
C:/temp/dataset/7/14_7.odb,Step-1,Increment      1: Step Time =    1.000,"PART-1-1",           106,       6.86948,       15.7920,            0.,NA,NA,"",       1.02949,  -993.182E-03,  -271.006E-03,   7.07394E-03
C:/temp/dataset/7/14_7.odb,Step-1,Increment      1: Step Time =    1.000,"PART-1-1",           107,       7.06799,       9.62990,            0.,NA,NA,"",   757.452E-03,  -725.019E-03,  -219.277E-03,   6.50221E-03
C:/temp/dataset/7/14_7.odb,Step-1,Increment      1: Step Time =    1.000,"PART-1-1",           108,       7.09093,       5.31052,            0.,NA,NA,"",   595.188E-03,  -563.927E-03,  -190.355E-03,   6.39521E-03
C:/temp/dataset/7/14_7.odb,Step-1,Increment      1: Step Time =    1.000,"PART-1-1",           109,       6.65187,      -5.22056,            0.,NA,NA,"",   296.505E-03,  -263.067E-03,  -136.788E-03,   6.66014E-03
C:/temp/dataset/7/14_7.odb,Step-1,Increment      1: Step Time =    1.000,"PART-1-1",           110,       7.26954,      -25.7037,            0.,NA,NA,"",   19.8926E-03,  -7.95867E-03,  -18.2312E-03,   5.30049E-03
C:/temp/dataset/7/14_7.odb,Step-1,Increment      1: Step Time =    1.000,"PART-1-1",           111,       7.53271,      -20.3934,            0.,NA,NA,"",   54.1093E-03,  -34.8046E-03,  -41.4301E-03,   5.11295E-03
C:/temp/dataset/7/14_7.odb,Step-1,Increment      1: Step Time =    1.000,"PART-1-1",           112,       7.01178,       11.7341,            0.,NA,NA,"",   845.166E-03,  -811.604E-03,  -235.807E-03,   6.61646E-03
C:/temp/dataset/7/14_7.odb,Step-1,Increment      1: Step Time =    1.000,"PART-1-1",           113,       7.07643,       3.14767,            0.,NA,NA,"",   522.549E-03,  -491.577E-03,  -177.226E-03,   6.36817E-03
C:/temp/dataset/7/14_7.odb,Step-1,Increment      1: Step Time =    1.000,"PART-1-1",           114,       6.98190,      -10.9751,            0.,NA,NA,"",   177.263E-03,  -148.915E-03,  -96.1588E-03,   6.06079E-03
C:/temp/dataset/7/14_7.odb,Step-1,Increment      1: Step Time =    1.000,"PART-1-1",           115,       13.1254,       22.8014,            0.,NA,NA,"",       1.36094,      -1.36068,   26.3737E-03,   1.23501E-03
C:/temp/dataset/7/14_7.odb,Step-1,Increment      1: Step Time =    1.000,"PART-1-1",           116,       12.8923,      -4.74502,            0.,NA,NA,"",   267.888E-03,  -267.755E-03,   8.43277E-03,   937.592E-06
C:/temp/dataset/7/14_7.odb,Step-1,Increment      1: Step Time =    1.000,"PART-1-1",           117,       13.0513,      -12.4505,            0.,NA,NA,"",   119.387E-03,  -119.190E-03,   6.84804E-03,   857.964E-06
C:/temp/dataset/7/14_7.odb,Step-1,Increment      1: Step Time =    1.000,"PART-1-1",           118,       12.2427,       17.8341,            0.,NA,NA,"",       1.09347,      -1.09336,  -15.8453E-03,   759.175E-06
C:/temp/dataset/7/14_7.odb,Step-1,Increment      1: Step Time =    1.000,"PART-1-1",           119,       13.0441,       9.90429,            0.,NA,NA,"",   734.518E-03,  -734.200E-03,   21.6188E-03,   1.46785E-03
C:/temp/dataset/7/14_7.odb,Step-1,Increment      1: Step Time =    1.000,"PART-1-1",           120,       13.0522,       2.62582,            0.,NA,NA,"",   471.616E-03,  -471.291E-03,   17.5183E-03,   1.33243E-03
C:/temp/dataset/7/14_7.odb,Step-1,Increment      1: Step Time =    1.000,"PART-1-1",           121,       13.2006,      -19.7745,            0.,NA,NA,"",   34.3125E-03,  -34.0643E-03,   4.11970E-03,   699.283E-06
C:/temp/dataset/7/14_7.odb,Step-1,Increment      1: Step Time =    1.000,"PART-1-1",           122,       9.90112,      -27.6522,            0.,NA,NA,"",   4.61246E-03,   520.013E-06,  -4.58305E-03,   2.53703E-03
C:/temp/dataset/7/14_7.odb,Step-1,Increment      1: Step Time =    1.000,"PART-1-1",           123,       13.0591,      -22.1191,            0.,NA,NA,"",   17.5777E-03,  -17.4646E-03,   1.98997E-03,   461.607E-06
C:/temp/dataset/7/14_7.odb,Step-1,Increment      1: Step Time =    1.000,"PART-1-1",           124,       13.1139,      -14.9356,            0.,NA,NA,"",   84.6603E-03,  -84.4366E-03,   6.15015E-03,   825.459E-06
C:/temp/dataset/7/14_7.odb,Step-1,Increment      1: Step Time =    1.000,"PART-1-1",           125,       13.1678,      -17.3995,            0.,NA,NA,"",   56.2418E-03,  -55.9980E-03,   5.23066E-03,   775.289E-06
C:/temp/dataset/7/14_7.odb,Step-1,Increment      1: Step Time =    1.000,"PART-1-1",           126,       12.7891,      -7.32383,            0.,NA,NA,"",   210.939E-03,  -210.883E-03,   4.86204E-03,   741.375E-06
C:/temp/dataset/7/14_7.odb,Step-1,Increment      1: Step Time =    1.000,"PART-1-1",           127,       12.9162,      -9.94117,            0.,NA,NA,"",   160.742E-03,  -160.627E-03,   6.06023E-03,   799.548E-06
C:/temp/dataset/7/14_7.odb,Step-1,Increment      1: Step Time =    1.000,"PART-1-1",           128,       13.0283,   193.158E-03,            0.,NA,NA,"",   397.572E-03,  -397.284E-03,   15.1117E-03,   1.24140E-03
C:/temp/dataset/7/14_7.odb,Step-1,Increment      1: Step Time =    1.000,"PART-1-1",           129,       12.9794,      -2.25409,            0.,NA,NA,"",   329.889E-03,  -329.667E-03,   12.1139E-03,   1.11392E-03
C:/temp/dataset/7/14_7.odb,Step-1,Increment      1: Step Time =    1.000,"PART-1-1",           130,       13.0689,       7.48049,            0.,NA,NA,"",   640.014E-03,  -639.662E-03,   21.2501E-03,   1.45797E-03
C:/temp/dataset/7/14_7.odb,Step-1,Increment      1: Step Time =    1.000,"PART-1-1",           131,       13.0764,       5.05734,            0.,NA,NA,"",   552.520E-03,  -552.159E-03,   19.9785E-03,   1.41889E-03
C:/temp/dataset/7/14_7.odb,Step-1,Increment      1: Step Time =    1.000,"PART-1-1",           132,       12.6962,       14.9270,            0.,NA,NA,"",   952.645E-03,  -952.616E-03,   7.41182E-03,   1.06370E-03
C:/temp/dataset/7/14_7.odb,Step-1,Increment      1: Step Time =    1.000,"PART-1-1",           133,       12.9459,       12.3607,            0.,NA,NA,"",   837.397E-03,  -837.194E-03,   18.4579E-03,   1.36636E-03
C:/temp/dataset/7/14_7.odb,Step-1,Increment      1: Step Time =    1.000,"PART-1-1",           134,       12.9476,       20.4489,            0.,NA,NA,"",       1.23136,      -1.23122,   18.5057E-03,   1.36973E-03
C:/temp/dataset/7/14_7.odb,Step-1,Increment      1: Step Time =    1.000,"PART-1-1",           135,       13.1802,       25.1793,            0.,NA,NA,"",       1.49563,      -1.49538,   26.9096E-03,   1.00838E-03
C:/temp/dataset/7/14_7.odb,Step-1,Increment      1: Step Time =    1.000,"PART-1-1",           136,      -12.4062,       24.9250,            0.,NA,NA,"",       2.03936,      -1.45564,      -1.42832,   3.04017E-06
C:/temp/dataset/7/14_7.odb,Step-1,Increment      1: Step Time =    1.000,"PART-1-1",           137,       11.3078,       25.3904,            0.,NA,NA,"",       1.50667,      -1.50464,  -78.1925E-03,   989.210E-06
C:/temp/dataset/7/14_7.odb,Step-1,Increment      1: Step Time =    1.000,"PART-1-1",           138,      -10.1009,       25.2443,            0.,NA,NA,"",       1.96660,      -1.47751,      -1.29788,   15.6108E-06
C:/temp/dataset/7/14_7.odb,Step-1,Increment      1: Step Time =    1.000,"PART-1-1",           139,      -4.83291,       26.5053,            0.,NA,NA,"",       1.85144,      -1.55783,      -1.00051,   155.873E-06
C:/temp/dataset/7/14_7.odb,Step-1,Increment      1: Step Time =    1.000,"PART-1-1",           140,       1.72347,       26.1851,            0.,NA,NA,"",       1.67373,      -1.55110,  -628.876E-03,   938.192E-06
C:/temp/dataset/7/14_7.odb,Step-1,Increment      1: Step Time =    1.000,"PART-1-1",           141,       6.12189,       25.7754,            0.,NA,NA,"",       1.57264,      -1.52657,  -377.864E-03,   5.10814E-03
C:/temp/dataset/7/14_7.odb,Step-1,Increment      1: Step Time =    1.000,"PART-1-1",           142,       7.62725,       25.7499,            0.,NA,NA,"",       1.55089,      -1.52352,  -290.101E-03,   4.13001E-03
C:/temp/dataset/7/14_7.odb,Step-1,Increment      1: Step Time =    1.000,"PART-1-1",           143,       3.76931,       25.0880,            0.,NA,NA,"",       1.57463,      -1.49000,  -509.266E-03,   3.52882E-03
C:/temp/dataset/7/14_7.odb,Step-1,Increment      1: Step Time =    1.000,"PART-1-1",           144,  -231.428E-03,       26.1188,            0.,NA,NA,"",       1.71182,      -1.54418,  -738.811E-03,   315.058E-06
C:/temp/dataset/7/14_7.odb,Step-1,Increment      1: Step Time =    1.000,"PART-1-1",           145,      -2.48530,       25.9891,            0.,NA,NA,"",       1.76061,      -1.53270,  -866.344E-03,   286.774E-06
C:/temp/dataset/7/14_7.odb,Step-1,Increment      1: Step Time =    1.000,"PART-1-1",           146,      -3.63425,       26.9302,            0.,NA,NA,"",       1.83832,      -1.58395,  -933.009E-03,   222.974E-06
C:/temp/dataset/7/14_7.odb,Step-1,Increment      1: Step Time =    1.000,"PART-1-1",           147,      -8.31738,       25.8431,            0.,NA,NA,"",       1.93068,      -1.51443,      -1.19751,   37.6027E-06
C:/temp/dataset/7/14_7.odb,Step-1,Increment      1: Step Time =    1.000,"PART-1-1",           148,       9.04714,   705.037E-03,            0.,NA,NA,"",   425.492E-03,  -412.763E-03,  -103.296E-03,   3.80726E-03
C:/temp/dataset/7/14_7.odb,Step-1,Increment      1: Step Time =    1.000,"PART-1-1",           149,       7.85197,      -7.06885,            0.,NA,NA,"",   241.563E-03,  -219.938E-03,  -99.8995E-03,   5.16070E-03
C:/temp/dataset/7/14_7.odb,Step-1,Increment      1: Step Time =    1.000,"PART-1-1",           150,       8.74205,      -22.9842,            0.,NA,NA,"",   27.7542E-03,  -16.0535E-03,  -22.6402E-03,   3.92162E-03
C:/temp/dataset/7/14_7.odb,Step-1,Increment      1: Step Time =    1.000,"PART-1-1",           151,       9.28078,      -15.1075,            0.,NA,NA,"",   94.8189E-03,  -84.1494E-03,  -43.6980E-03,   3.39789E-03
C:/temp/dataset/7/14_7.odb,Step-1,Increment      1: Step Time =    1.000,"PART-1-1",           152,       8.97855,      -1.55139,            0.,NA,NA,"",   362.422E-03,  -349.317E-03,  -96.5779E-03,   3.87503E-03
C:/temp/dataset/7/14_7.odb,Step-1,Increment      1: Step Time =    1.000,"PART-1-1",           153,       9.09422,       9.69450,            0.,NA,NA,"",   737.561E-03,  -724.561E-03,  -137.869E-03,   3.81262E-03
C:/temp/dataset/7/14_7.odb,Step-1,Increment      1: Step Time =    1.000,"PART-1-1",           154,       8.44946,       15.5970,            0.,NA,NA,"",       1.00102,  -982.006E-03,  -194.187E-03,   4.43296E-03
C:/temp/dataset/7/14_7.odb,Step-1,Increment      1: Step Time =    1.000,"PART-1-1",           155,       9.11701,       7.46178,            0.,NA,NA,"",   650.827E-03,  -638.174E-03,  -127.706E-03,   3.76709E-03
C:/temp/dataset/7/14_7.odb,Step-1,Increment      1: Step Time =    1.000,"PART-1-1",           156,       8.83101,       13.9442,            0.,NA,NA,"",   921.124E-03,  -905.635E-03,  -168.211E-03,   4.12662E-03
C:/temp/dataset/7/14_7.odb,Step-1,Increment      1: Step Time =    1.000,"PART-1-1",           157,       9.61385,      -19.9311,            0.,NA,NA,"",   43.2968E-03,  -34.6062E-03,  -26.0197E-03,   3.04431E-03
C:/temp/dataset/7/14_7.odb,Step-1,Increment      1: Step Time =    1.000,"PART-1-1",           158,       9.10031,       2.95854,            0.,NA,NA,"",   494.453E-03,  -481.980E-03,  -110.358E-03,   3.75652E-03
C:/temp/dataset/7/14_7.odb,Step-1,Increment      1: Step Time =    1.000,"PART-1-1",           159,       9.17986,      -12.8049,            0.,NA,NA,"",   127.061E-03,  -115.716E-03,  -52.4818E-03,   3.52960E-03
C:/temp/dataset/7/14_7.odb,Step-1,Increment      1: Step Time =    1.000,"PART-1-1",           160,       8.54844,      -8.43147,            0.,NA,NA,"",   207.157E-03,  -191.277E-03,  -79.5440E-03,   4.30838E-03
C:/temp/dataset/7/14_7.odb,Step-1,Increment      1: Step Time =    1.000,"PART-1-1",           161,       8.46228,      -5.79934,            0.,NA,NA,"",   262.753E-03,  -246.015E-03,  -92.2823E-03,   4.45020E-03
C:/temp/dataset/7/14_7.odb,Step-1,Increment      1: Step Time =    1.000,"PART-1-1",           162,       8.97830,      -10.5487,            0.,NA,NA,"",   164.728E-03,  -152.010E-03,  -63.4683E-03,   3.78134E-03
C:/temp/dataset/7/14_7.odb,Step-1,Increment      1: Step Time =    1.000,"PART-1-1",           163,       8.84007,      -3.76868,            0.,NA,NA,"",   306.677E-03,  -292.676E-03,  -91.6051E-03,   4.02274E-03
C:/temp/dataset/7/14_7.odb,Step-1,Increment      1: Step Time =    1.000,"PART-1-1",           164,       9.12644,       5.21383,            0.,NA,NA,"",   569.625E-03,  -557.201E-03,  -118.324E-03,   3.73862E-03
C:/temp/dataset/7/14_7.odb,Step-1,Increment      1: Step Time =    1.000,"PART-1-1",           165,       9.36869,      -17.5094,            0.,NA,NA,"",   66.8954E-03,  -56.8118E-03,  -35.3187E-03,   3.29102E-03
C:/temp/dataset/7/14_7.odb,Step-1,Increment      1: Step Time =    1.000,"PART-1-1",           166,       9.01212,       11.8707,            0.,NA,NA,"",   828.376E-03,  -814.549E-03,  -150.722E-03,   3.92280E-03
C:/temp/dataset/7/14_7.odb,Step-1,Increment      1: Step Time =    1.000,"PART-1-1",           167,       9.60003,       16.9835,            0.,NA,NA,"",       1.05822,      -1.04830,  -144.549E-03,   2.62013E-03
C:/temp/dataset/7/14_7.odb,Step-1,Increment      1: Step Time =    1.000,"PART-1-1",           168,       7.13047,       19.6676,            0.,NA,NA,"",       1.21821,      -1.18472,  -283.707E-03,   4.63974E-03
C:/temp/dataset/7/14_7.odb,Step-1,Increment      1: Step Time =    1.000,"PART-1-1",           169,       9.55406,      -25.2995,            0.,NA,NA,"",   12.5364E-03,  -5.06831E-03,  -11.4662E-03,   3.12783E-03
C:/temp/dataset/7/14_7.odb,Step-1,Increment      1: Step Time =    1.000,"PART-1-1",           170,       12.3800,      -27.4389,            0.,NA,NA,"",   1.37741E-03,   1.19908E-03,  -677.847E-06,   646.254E-06
C:/temp/dataset/7/14_7.odb,Step-1,Increment      1: Step Time =    1.000,"PART-1-1",           171,      -11.9351,       22.4166,            0.,NA,NA,"",       1.91817,      -1.31390,      -1.39751,   2.00364E-06
C:/temp/dataset/7/14_7.odb,Step-1,Increment      1: Step Time =    1.000,"PART-1-1",           172,       10.9842,      -1.93535,            0.,NA,NA,"",   339.966E-03,  -337.463E-03,  -41.1808E-03,   1.38442E-03
C:/temp/dataset/7/14_7.odb,Step-1,Increment      1: Step Time =    1.000,"PART-1-1",           173,       11.2234,      -14.9909,            0.,NA,NA,"",   85.7914E-03,  -83.7616E-03,  -18.5515E-03,   1.29745E-03
C:/temp/dataset/7/14_7.odb,Step-1,Increment      1: Step Time =    1.000,"PART-1-1",           174,       11.0574,       21.1283,            0.,NA,NA,"",       1.26788,      -1.26523,  -81.8299E-03,   1.53350E-03
C:/temp/dataset/7/14_7.odb,Step-1,Increment      1: Step Time =    1.000,"PART-1-1",           175,       10.7466,       19.4847,            0.,NA,NA,"",       1.18038,      -1.17662,  -94.1834E-03,   1.49247E-03
C:/temp/dataset/7/14_7.odb,Step-1,Increment      1: Step Time =    1.000,"PART-1-1",           176,       11.0568,   433.028E-03,            0.,NA,NA,"",   405.679E-03,  -403.410E-03,  -42.8494E-03,   1.26986E-03
C:/temp/dataset/7/14_7.odb,Step-1,Increment      1: Step Time =    1.000,"PART-1-1",           177,       10.9662,       12.1205,            0.,NA,NA,"",   827.577E-03,  -824.842E-03,  -67.2202E-03,   1.29858E-03
C:/temp/dataset/7/14_7.odb,Step-1,Increment      1: Step Time =    1.000,"PART-1-1",           178,       11.6216,      -21.4567,            0.,NA,NA,"",   23.1370E-03,  -21.8196E-03,  -7.69595E-03,   1.06099E-03
C:/temp/dataset/7/14_7.odb,Step-1,Increment      1: Step Time =    1.000,"PART-1-1",           179,       11.2975,      -17.3958,            0.,NA,NA,"",   58.0510E-03,  -56.1305E-03,  -14.8083E-03,   1.26976E-03
C:/temp/dataset/7/14_7.odb,Step-1,Increment      1: Step Time =    1.000,"PART-1-1",           180,       10.6273,       14.4803,            0.,NA,NA,"",   933.899E-03,  -929.759E-03,  -87.8352E-03,   1.67475E-03
C:/temp/dataset/7/14_7.odb,Step-1,Increment      1: Step Time =    1.000,"PART-1-1",           181,       11.1012,       2.78293,            0.,NA,NA,"",   477.353E-03,  -475.213E-03,  -45.1485E-03,   1.19069E-03
C:/temp/dataset/7/14_7.odb,Step-1,Increment      1: Step Time =    1.000,"PART-1-1",           182,       11.1153,       7.46695,            0.,NA,NA,"",   639.754E-03,  -637.610E-03,  -52.3331E-03,   1.13757E-03
C:/temp/dataset/7/14_7.odb,Step-1,Increment      1: Step Time =    1.000,"PART-1-1",           183,       11.1247,      -12.5851,            0.,NA,NA,"",   119.359E-03,  -117.122E-03,  -23.0027E-03,   1.36180E-03
C:/temp/dataset/7/14_7.odb,Step-1,Increment      1: Step Time =    1.000,"PART-1-1",           184,       10.4094,      -7.19663,            0.,NA,NA,"",   218.440E-03,  -213.703E-03,  -45.2445E-03,   2.12507E-03
C:/temp/dataset/7/14_7.odb,Step-1,Increment      1: Step Time =    1.000,"PART-1-1",           185,       10.4303,      -22.2648,            0.,NA,NA,"",   22.7937E-03,  -17.6543E-03,  -14.4180E-03,   2.27127E-03
C:/temp/dataset/7/14_7.odb,Step-1,Increment      1: Step Time =    1.000,"PART-1-1",           186,       10.9130,      -10.1038,            0.,NA,NA,"",   160.584E-03,  -157.740E-03,  -30.0876E-03,   1.56357E-03
C:/temp/dataset/7/14_7.odb,Step-1,Increment      1: Step Time =    1.000,"PART-1-1",           187,       10.8491,      -4.38491,            0.,NA,NA,"",   278.914E-03,  -275.939E-03,  -40.6293E-03,   1.57549E-03
C:/temp/dataset/7/14_7.odb,Step-1,Increment      1: Step Time =    1.000,"PART-1-1",           188,       11.1275,       5.13070,            0.,NA,NA,"",   555.455E-03,  -553.377E-03,  -48.0001E-03,   1.13709E-03
C:/temp/dataset/7/14_7.odb,Step-1,Increment      1: Step Time =    1.000,"PART-1-1",           189,       11.0819,       9.79848,            0.,NA,NA,"",   730.454E-03,  -728.164E-03,  -57.7971E-03,   1.16923E-03
C:/temp/dataset/7/14_7.odb,Step-1,Increment      1: Step Time =    1.000,"PART-1-1",           190,       12.1026,      -24.5603,            0.,NA,NA,"",   6.24753E-03,  -5.64448E-03,  -2.67798E-03,   684.315E-06
C:/temp/dataset/7/14_7.odb,Step-1,Increment      1: Step Time =    1.000,"PART-1-1",           191,      -7.61069,       24.2264,            0.,NA,NA,"",       1.83320,      -1.42374,      -1.15481,   51.3722E-06
C:/temp/dataset/7/14_7.odb,Step-1,Increment      1: Step Time =    1.000,"PART-1-1",           192,      -5.77678,       24.2650,            0.,NA,NA,"",       1.77372,      -1.42901,      -1.05073,   119.191E-06
C:/temp/dataset/7/14_7.odb,Step-1,Increment      1: Step Time =    1.000,"PART-1-1",           193,       1.00958,       23.8763,            0.,NA,NA,"",       1.56658,      -1.41890,  -663.999E-03,   610.041E-06
C:/temp/dataset/7/14_7.odb,Step-1,Increment      1: Step Time =    1.000,"PART-1-1",           194,      -3.86757,       24.8145,            0.,NA,NA,"",       1.74112,      -1.46355,  -943.144E-03,   218.892E-06
C:/temp/dataset/7/14_7.odb,Step-1,Increment      1: Step Time =    1.000,"PART-1-1",           195,  -996.969E-03,       24.6602,            0.,NA,NA,"",       1.65526,      -1.46003,  -779.862E-03,   342.860E-06
C:/temp/dataset/7/14_7.odb,Step-1,Increment      1: Step Time =    1.000,"PART-1-1",           196,       7.19995,       21.7613,            0.,NA,NA,"",       1.33203,      -1.29964,  -291.953E-03,   5.23962E-03
C:/temp/dataset/7/14_7.odb,Step-1,Increment      1: Step Time =    1.000,"PART-1-1",           197,       2.92747,       22.7842,            0.,NA,NA,"",       1.46629,      -1.35917,  -550.134E-03,   2.49083E-03
C:/temp/dataset/7/14_7.odb,Step-1,Increment      1: Step Time =    1.000,"PART-1-1",           198,       5.53232,       24.2100,            0.,NA,NA,"",       1.49455,      -1.43929,  -402.655E-03,   5.02357E-03
C:/temp/dataset/7/14_7.odb,Step-1,Increment      1: Step Time =    1.000,"PART-1-1",           199,       9.18626,       19.3402,            0.,NA,NA,"",       1.18061,      -1.16769,  -174.204E-03,   2.91574E-03
C:/temp/dataset/7/14_7.odb,Step-1,Increment      1: Step Time =    1.000,"PART-1-1",           200,       11.2321,       23.1770,            0.,NA,NA,"",       1.38117,      -1.37901,  -77.2697E-03,   1.45194E-03
C:/temp/dataset/7/14_7.odb,Step-1,Increment      1: Step Time =    1.000,"PART-1-1",           201,       5.11021,       22.1378,            0.,NA,NA,"",       1.38679,      -1.32308,  -415.480E-03,   6.05914E-03
C:/temp/dataset/7/14_7.odb,Step-1,Increment      1: Step Time =    1.000,"PART-1-1",           202,   167.280E-03,       22.2372,            0.,NA,NA,"",       1.50163,      -1.32349,  -709.397E-03,   300.127E-06
C:/temp/dataset/7/14_7.odb,Step-1,Increment      1: Step Time =    1.000,"PART-1-1",           203,      -2.32264,       22.6339,            0.,NA,NA,"",       1.58970,      -1.34200,  -852.165E-03,   347.372E-06
C:/temp/dataset/7/14_7.odb,Step-1,Increment      1: Step Time =    1.000,"PART-1-1",           204,       9.17324,       21.4477,            0.,NA,NA,"",       1.29445,      -1.28145,  -183.000E-03,   3.03697E-03
C:/temp/dataset/7/14_7.odb,Step-1,Increment      1: Step Time =    1.000,"PART-1-1",           205,       9.43619,       25.5889,            0.,NA,NA,"",       1.52555,      -1.51432,  -184.749E-03,   2.17121E-03
C:/temp/dataset/7/14_7.odb,Step-1,Increment      1: Step Time =    1.000,"PART-1-1",           206,      -5.39738,       22.2321,            0.,NA,NA,"",       1.66712,      -1.31398,      -1.02603,   113.044E-06
C:/temp/dataset/7/14_7.odb,Step-1,Increment      1: Step Time =    1.000,"PART-1-1",           207,      -8.66915,       22.6604,            0.,NA,NA,"",       1.80193,      -1.33303,      -1.21242,   26.3412E-06
C:/temp/dataset/7/14_7.odb,Step-1,Increment      1: Step Time =    1.000,"PART-1-1",           208,      -12.8188,       27.4435,            0.,NA,NA,"",       2.16174,      -1.59804,      -1.45582,   1.13248E-06
C:/temp/dataset/7/14_7.odb,Step-1,Increment      1: Step Time =    1.000,"PART-1-1",           209,       7.43992,       23.7550,            0.,NA,NA,"",       1.44083,      -1.41132,  -290.109E-03,   4.66365E-03
C:/temp/dataset/7/14_7.odb,Step-1,Increment      1: Step Time =    1.000,"PART-1-1",           210,      -6.48406,       26.1481,            0.,NA,NA,"",       1.88466,      -1.53478,      -1.09381,   85.9453E-06
C:/temp/dataset/7/14_7.odb,Step-1,Increment      1: Step Time =    1.000,"PART-1-1",           211,       3.18484,       28.0088,            0.,NA,NA,"",       1.74537,      -1.65503,  -554.266E-03,   3.57742E-03
C:/temp/dataset/7/14_7.odb,Step-1,Increment      1: Step Time =    1.000,"PART-1-1",           212,       11.4304,      -19.6429,            0.,NA,NA,"",   36.9547E-03,  -35.2767E-03,  -11.0094E-03,   1.19175E-03
C:/temp/dataset/7/14_7.odb,Step-1,Increment      1: Step Time =    1.000,"PART-1-1",           213,       9.33060,       23.4727,            0.,NA,NA,"",       1.40646,      -1.39455,  -182.656E-03,   2.87415E-03
C:/temp/dataset/7/14_7.odb,Step-1,Increment      1: Step Time =    1.000,"PART-1-1",           214,      -12.1707,       23.6708,            0.,NA,NA,"",       1.97836,      -1.38477,      -1.41292,   2.09838E-06
C:/temp/dataset/7/14_7.odb,Step-1,Increment      1: Step Time =    1.000,"PART-1-1",           215,      -13.7031,       24.9625,            0.,NA,NA,"",       2.09168,      -1.45567,      -1.50205,   603.421E-09
C:/temp/dataset/7/14_7.odb,Step-1,Increment      1: Step Time =    1.000,"PART-1-1",           216,          -15.,         23.75,            0.,NA,NA,"",       2.09622,      -1.38470,      -1.57376,   2.14137E-06
C:/temp/dataset/7/14_7.odb,Step-1,Increment      1: Step Time =    1.000,"PART-1-1",           217,      -13.4675,       22.4583,            0.,NA,NA,"",       1.98247,      -1.31380,      -1.48463,   642.378E-09
C:/temp/dataset/7/14_7.odb,Step-1,Increment      1: Step Time =    1.000,"PART-1-1",           218,      -9.86170,       27.7278,            0.,NA,NA,"",       2.06899,      -1.61897,      -1.28827,   13.7108E-06
C:/temp/dataset/7/14_7.odb,Step-1,Increment      1: Step Time =    1.000,"PART-1-1",           219,      -10.4490,       26.4258,            0.,NA,NA,"",       2.03109,      -1.54405,      -1.31955,   9.69007E-06
C:/temp/dataset/7/14_7.odb,Step-1,Increment      1: Step Time =    1.000,"PART-1-1",           220,      -9.20914,       25.5437,            0.,NA,NA,"",       1.94799,      -1.49596,      -1.24769,   26.5281E-06
C:/temp/dataset/7/14_7.odb,Step-1,Increment      1: Step Time =    1.000,"PART-1-1",           221,      -8.62185,       26.8458,            0.,NA,NA,"",       1.98678,      -1.57088,      -1.21640,   26.6708E-06
C:/temp/dataset/7/14_7.odb,Step-1,Increment      1: Step Time =    1.000,"PART-1-1",           222,      -9.15066,       28.9242,            0.,NA,NA,"",       2.10038,      -1.68808,      -1.24979,   10.1123E-06
C:/temp/dataset/7/14_7.odb,Step-1,Increment      1: Step Time =    1.000,"PART-1-1",           223,      -10.3125,           30.,            0.,NA,NA,"",       2.18840,      -1.74733,      -1.31755,   1.53410E-06
C:/temp/dataset/7/14_7.odb,Step-1,Increment      1: Step Time =    1.000,"PART-1-1",           224,      -11.0235,       28.8036,            0.,NA,NA,"",       2.15759,      -1.67821,      -1.35602,   2.32596E-06
C:/temp/dataset/7/14_7.odb,Step-1,Increment      1: Step Time =    1.000,"PART-1-1",           225,      -11.2536,       25.0847,            0.,NA,NA,"",       2.00221,      -1.46657,      -1.36310,   8.37853E-06
C:/temp/dataset/7/14_7.odb,Step-1,Increment      1: Step Time =    1.000,"PART-1-1",           226,      -10.3021,       22.5385,            0.,NA,NA,"",       1.85862,      -1.32347,      -1.30496,   13.1246E-06
C:/temp/dataset/7/14_7.odb,Step-1,Increment      1: Step Time =    1.000,"PART-1-1",           227,      -9.38503,       23.9523,            0.,NA,NA,"",       1.88419,      -1.40527,      -1.25515,   18.6992E-06
C:/temp/dataset/7/14_7.odb,Step-1,Increment      1: Step Time =    1.000,"PART-1-1",           228,      -12.9719,       28.7217,            0.,NA,NA,"",       2.22286,      -1.67041,      -1.46658,   836.278E-09
C:/temp/dataset/7/14_7.odb,Step-1,Increment      1: Step Time =    1.000,"PART-1-1",           229,      -14.0625,           30.,            0.,NA,NA,"",       2.31835,      -1.74127,      -1.53060,   424.073E-09
C:/temp/dataset/7/14_7.odb,Step-1,Increment      1: Step Time =    1.000,"PART-1-1",           230,          -15.,         28.75,            0.,NA,NA,"",       2.29933,      -1.66874,      -1.58185,   581.850E-09
C:/temp/dataset/7/14_7.odb,Step-1,Increment      1: Step Time =    1.000,"PART-1-1",           231,      -13.9094,       27.4717,            0.,NA,NA,"",       2.20386,      -1.59788,      -1.51782,   634.747E-09
C:/temp/dataset/7/14_7.odb,Step-1,Increment      1: Step Time =    1.000,"PART-1-1",           232,      -7.40072,       25.9956,            0.,NA,NA,"",       1.90707,      -1.52460,      -1.14566,   61.2798E-06
C:/temp/dataset/7/14_7.odb,Step-1,Increment      1: Step Time =    1.000,"PART-1-1",           233,      -7.96404,       25.0347,            0.,NA,NA,"",       1.88190,      -1.46909,      -1.17615,   42.0697E-06
C:/temp/dataset/7/14_7.odb,Step-1,Increment      1: Step Time =    1.000,"PART-1-1",           234,      -6.69374,       24.2457,            0.,NA,NA,"",       1.80294,      -1.42636,      -1.10277,   82.7757E-06
C:/temp/dataset/7/14_7.odb,Step-1,Increment      1: Step Time =    1.000,"PART-1-1",           235,      -6.13042,       25.2066,            0.,NA,NA,"",       1.82915,      -1.48191,      -1.07226,   93.2709E-06
C:/temp/dataset/7/14_7.odb,Step-1,Increment      1: Step Time =    1.000,"PART-1-1",           236,      -5.46940,       29.1125,            0.,NA,NA,"",       1.99728,      -1.70465,      -1.04082,   78.1888E-06
C:/temp/dataset/7/14_7.odb,Step-1,Increment      1: Step Time =    1.000,"PART-1-1",           237,      -4.41178,       28.2246,            0.,NA,NA,"",       1.92382,      -1.65596,  -979.230E-03,   159.716E-06
C:/temp/dataset/7/14_7.odb,Step-1,Increment      1: Step Time =    1.000,"PART-1-1",           238,      -3.62988,       29.1121,            0.,NA,NA,"",       1.94727,      -1.70744,  -936.210E-03,   176.811E-06
C:/temp/dataset/7/14_7.odb,Step-1,Increment      1: Step Time =    1.000,"PART-1-1",           239,       -4.6875,           30.,            0.,NA,NA,"",       2.01992,      -1.75625,  -997.825E-03,   143.376E-06
C:/temp/dataset/7/14_7.odb,Step-1,Increment      1: Step Time =    1.000,"PART-1-1",           240,  -467.629E-03,       27.9420,            0.,NA,NA,"",       1.81117,      -1.64631,  -754.979E-03,   260.361E-06
C:/temp/dataset/7/14_7.odb,Step-1,Increment      1: Step Time =    1.000,"PART-1-1",           241,  -845.263E-03,       26.9234,            0.,NA,NA,"",       1.76732,      -1.58846,  -774.733E-03,   259.206E-06
C:/temp/dataset/7/14_7.odb,Step-1,Increment      1: Step Time =    1.000,"PART-1-1",           242,   746.021E-03,       26.1520,            0.,NA,NA,"",       1.69202,      -1.54774,  -683.692E-03,   494.159E-06
C:/temp/dataset/7/14_7.odb,Step-1,Increment      1: Step Time =    1.000,"PART-1-1",           243,       1.12365,       27.1705,            0.,NA,NA,"",       1.73777,      -1.60571,  -664.482E-03,   475.819E-06
C:/temp/dataset/7/14_7.odb,Step-1,Increment      1: Step Time =    1.000,"PART-1-1",           244,       14.0901,       25.0896,            0.,NA,NA,"",       1.49403,      -1.49199,   78.0230E-03,   1.07682E-03
C:/temp/dataset/7/14_7.odb,Step-1,Increment      1: Step Time =    1.000,"PART-1-1",           245,       13.1528,       23.9903,            0.,NA,NA,"",       1.42788,      -1.42763,   26.7324E-03,   1.10525E-03
C:/temp/dataset/7/14_7.odb,Step-1,Increment      1: Step Time =    1.000,"PART-1-1",           246,       14.0627,       22.6507,            0.,NA,NA,"",       1.35639,      -1.35417,   77.5906E-03,   1.68557E-03
C:/temp/dataset/7/14_7.odb,Step-1,Increment      1: Step Time =    1.000,"PART-1-1",           247,           15.,         23.75,            0.,NA,NA,"",       1.42388,      -1.41797,   129.624E-03,   1.94804E-03
C:/temp/dataset/7/14_7.odb,Step-1,Increment      1: Step Time =    1.000,"PART-1-1",           248,       11.2764,       28.8302,            0.,NA,NA,"",       1.70569,      -1.70348,  -86.8461E-03,   805.113E-06
C:/temp/dataset/7/14_7.odb,Step-1,Increment      1: Step Time =    1.000,"PART-1-1",           249,       10.3125,           30.,            0.,NA,NA,"",       1.77663,      -1.77070,  -144.990E-03,   1.33953E-03
C:/temp/dataset/7/14_7.odb,Step-1,Increment      1: Step Time =    1.000,"PART-1-1",           250,       9.39543,       28.8642,            0.,NA,NA,"",       1.71468,      -1.70342,  -196.232E-03,   778.416E-06
C:/temp/dataset/7/14_7.odb,Step-1,Increment      1: Step Time =    1.000,"PART-1-1",           251,       10.3594,       27.6945,            0.,NA,NA,"",       1.64186,      -1.63611,  -137.295E-03,   531.736E-06
C:/temp/dataset/7/14_7.odb,Step-1,Increment      1: Step Time =    1.000,"PART-1-1",           252,        8.4375,           30.,            0.,NA,NA,"",       1.78953,      -1.77102,  -256.739E-03,   1.45923E-03
C:/temp/dataset/7/14_7.odb,Step-1,Increment      1: Step Time =    1.000,"PART-1-1",           253,       7.48312,       28.8587,            0.,NA,NA,"",       1.72859,      -1.69979,  -314.228E-03,   4.74726E-03
C:/temp/dataset/7/14_7.odb,Step-1,Increment      1: Step Time =    1.000,"PART-1-1",           254,       8.44105,       27.7230,            0.,NA,NA,"",       1.65455,      -1.63543,  -250.782E-03,   2.92439E-03
C:/temp/dataset/7/14_7.odb,Step-1,Increment      1: Step Time =    1.000,"PART-1-1",           255,       13.0365,       21.6252,            0.,NA,NA,"",       1.29553,      -1.29534,   22.4844E-03,   1.29740E-03
C:/temp/dataset/7/14_7.odb,Step-1,Increment      1: Step Time =    1.000,"PART-1-1",           256,       13.9738,       20.2245,            0.,NA,NA,"",       1.22349,      -1.22135,   72.3401E-03,   2.23080E-03
C:/temp/dataset/7/14_7.odb,Step-1,Increment      1: Step Time =    1.000,"PART-1-1",           257,           15.,         21.25,            0.,NA,NA,"",       1.28574,      -1.27935,   127.968E-03,   2.89410E-03
C:/temp/dataset/7/14_7.odb,Step-1,Increment      1: Step Time =    1.000,"PART-1-1",           258,       6.90015,       14.7921,            0.,NA,NA,"",   982.383E-03,  -946.739E-03,  -262.221E-03,   6.84630E-03
C:/temp/dataset/7/14_7.odb,Step-1,Increment      1: Step Time =    1.000,"PART-1-1",           259,       5.93474,       15.8126,            0.,NA,NA,"",       1.04513,  -996.330E-03,  -315.644E-03,   8.22845E-03
C:/temp/dataset/7/14_7.odb,Step-1,Increment      1: Step Time =    1.000,"PART-1-1",           260,            5.,       14.7917,            0.,NA,NA,"",       1.01408,  -951.566E-03,  -350.551E-03,   9.35538E-03
C:/temp/dataset/7/14_7.odb,Step-1,Increment      1: Step Time =    1.000,"PART-1-1",           261,       5.96541,       13.7711,            0.,NA,NA,"",   950.322E-03,  -902.639E-03,  -297.243E-03,   8.04890E-03
C:/temp/dataset/7/14_7.odb,Step-1,Increment      1: Step Time =    1.000,"PART-1-1",           262,       7.07741,       8.55300,            0.,NA,NA,"",   714.872E-03,  -682.778E-03,  -211.794E-03,   6.47221E-03
C:/temp/dataset/7/14_7.odb,Step-1,Increment      1: Step Time =    1.000,"PART-1-1",           263,       6.03400,       9.60662,            0.,NA,NA,"",   771.974E-03,  -726.601E-03,  -260.759E-03,   7.87952E-03
C:/temp/dataset/7/14_7.odb,Step-1,Increment      1: Step Time =    1.000,"PART-1-1",           264,            5.,       8.54167,            0.,NA,NA,"",   747.788E-03,  -688.121E-03,  -292.707E-03,   9.23244E-03
C:/temp/dataset/7/14_7.odb,Step-1,Increment      1: Step Time =    1.000,"PART-1-1",           265,       6.04341,       7.48805,            0.,NA,NA,"",   689.533E-03,  -644.969E-03,  -243.866E-03,   7.82376E-03
C:/temp/dataset/7/14_7.odb,Step-1,Increment      1: Step Time =    1.000,"PART-1-1",           266,            5.,         4.375,            0.,NA,NA,"",   595.675E-03,  -538.037E-03,  -255.628E-03,   9.10798E-03
C:/temp/dataset/7/14_7.odb,Step-1,Increment      1: Step Time =    1.000,"PART-1-1",           267,       6.03822,       3.24050,            0.,NA,NA,"",   540.533E-03,  -497.309E-03,  -211.801E-03,   7.71911E-03
C:/temp/dataset/7/14_7.odb,Step-1,Increment      1: Step Time =    1.000,"PART-1-1",           268,       7.08368,       4.22909,            0.,NA,NA,"",   558.186E-03,  -527.069E-03,  -183.766E-03,   6.38169E-03
C:/temp/dataset/7/14_7.odb,Step-1,Increment      1: Step Time =    1.000,"PART-1-1",           269,       6.04546,       5.36359,            0.,NA,NA,"",   612.300E-03,  -568.458E-03,  -227.525E-03,   7.76957E-03
C:/temp/dataset/7/14_7.odb,Step-1,Increment      1: Step Time =    1.000,"PART-1-1",           270,            5.,       2.29167,            0.,NA,NA,"",   527.152E-03,  -470.596E-03,  -237.547E-03,   9.02930E-03
C:/temp/dataset/7/14_7.odb,Step-1,Increment      1: Step Time =    1.000,"PART-1-1",           271,       6.01828,       1.12309,            0.,NA,NA,"",   474.326E-03,  -431.592E-03,  -196.758E-03,   7.67762E-03
C:/temp/dataset/7/14_7.odb,Step-1,Increment      1: Step Time =    1.000,"PART-1-1",           272,       7.05649,       2.07193,            0.,NA,NA,"",   488.613E-03,  -457.649E-03,  -171.170E-03,   6.36834E-03
C:/temp/dataset/7/14_7.odb,Step-1,Increment      1: Step Time =    1.000,"PART-1-1",           273,       7.00178,  -77.9012E-03,            0.,NA,NA,"",   424.961E-03,  -393.874E-03,  -159.547E-03,   6.38387E-03
C:/temp/dataset/7/14_7.odb,Step-1,Increment      1: Step Time =    1.000,"PART-1-1",           274,            5.,   208.333E-03,            0.,NA,NA,"",   463.558E-03,  -408.145E-03,  -219.780E-03,   8.94188E-03
C:/temp/dataset/7/14_7.odb,Step-1,Increment      1: Step Time =    1.000,"PART-1-1",           275,       5.98350,  -992.661E-03,            0.,NA,NA,"",   413.468E-03,  -371.094E-03,  -182.333E-03,   7.64741E-03
C:/temp/dataset/7/14_7.odb,Step-1,Increment      1: Step Time =    1.000,"PART-1-1",           276,       6.59145,      -6.15040,            0.,NA,NA,"",   276.301E-03,  -242.537E-03,  -132.355E-03,   6.70259E-03
C:/temp/dataset/7/14_7.odb,Step-1,Increment      1: Step Time =    1.000,"PART-1-1",           277,       5.82593,      -5.11028,            0.,NA,NA,"",   310.470E-03,  -268.027E-03,  -156.694E-03,   7.67298E-03
C:/temp/dataset/7/14_7.odb,Step-1,Increment      1: Step Time =    1.000,"PART-1-1",           278,            5.,      -6.04167,            0.,NA,NA,"",   301.424E-03,  -250.019E-03,  -168.365E-03,   8.63371E-03
C:/temp/dataset/7/14_7.odb,Step-1,Increment      1: Step Time =    1.000,"PART-1-1",           279,       5.76552,      -7.08179,            0.,NA,NA,"",   267.311E-03,  -225.220E-03,  -143.983E-03,   7.66160E-03
C:/temp/dataset/7/14_7.odb,Step-1,Increment      1: Step Time =    1.000,"PART-1-1",           280,       8.25955,      -15.2021,            0.,NA,NA,"",   101.859E-03,  -84.6905E-03,  -56.5937E-03,   4.50242E-03
C:/temp/dataset/7/14_7.odb,Step-1,Increment      1: Step Time =    1.000,"PART-1-1",           281,       9.23032,      -13.9562,            0.,NA,NA,"",   110.273E-03,  -99.2703E-03,  -48.0172E-03,   3.46386E-03
C:/temp/dataset/7/14_7.odb,Step-1,Increment      1: Step Time =    1.000,"PART-1-1",           282,       8.16037,      -12.9544,            0.,NA,NA,"",   133.539E-03,  -115.265E-03,  -67.4296E-03,   4.66350E-03
C:/temp/dataset/7/14_7.odb,Step-1,Increment      1: Step Time =    1.000,"PART-1-1",           283,       7.18960,      -14.2003,            0.,NA,NA,"",   125.304E-03,  -99.9623E-03,  -75.5546E-03,   5.70426E-03
C:/temp/dataset/7/14_7.odb,Step-1,Increment      1: Step Time =    1.000,"PART-1-1",           284,            5.,      -22.7083,            0.,NA,NA,"",   52.9247E-03,  -26.9996E-03,  -45.5198E-03,   7.39514E-03
C:/temp/dataset/7/14_7.odb,Step-1,Increment      1: Step Time =    1.000,"PART-1-1",           285,       5.97351,      -23.6835,            0.,NA,NA,"",   39.2874E-03,  -19.0521E-03,  -34.3586E-03,   6.40914E-03
C:/temp/dataset/7/14_7.odb,Step-1,Increment      1: Step Time =    1.000,"PART-1-1",           286,       6.71140,      -22.7416,            0.,NA,NA,"",   41.6722E-03,  -21.7528E-03,  -35.5441E-03,   5.80966E-03
C:/temp/dataset/7/14_7.odb,Step-1,Increment      1: Step Time =    1.000,"PART-1-1",           287,       5.73789,      -21.7664,            0.,NA,NA,"",   55.9333E-03,  -30.1736E-03,  -47.0966E-03,   6.78527E-03
C:/temp/dataset/7/14_7.odb,Step-1,Increment      1: Step Time =    1.000,"PART-1-1",           288,       9.95056,      -28.8261,            0.,NA,NA,"",   2.40505E-03,   1.16603E-03,  -2.10348E-03,   2.33431E-03
C:/temp/dataset/7/14_7.odb,Step-1,Increment      1: Step Time =    1.000,"PART-1-1",           289,       8.67404,      -27.7482,            0.,NA,NA,"",   6.40155E-03,  -672.493E-06,  -6.36613E-03,   3.72935E-03
C:/temp/dataset/7/14_7.odb,Step-1,Increment      1: Step Time =    1.000,"PART-1-1",           290,       7.47347,      -28.9221,            0.,NA,NA,"",   3.69899E-03,  -455.518E-06,  -3.67084E-03,   4.26788E-03
C:/temp/dataset/7/14_7.odb,Step-1,Increment      1: Step Time =    1.000,"PART-1-1",           291,          8.75,          -30.,            0.,NA,NA,"",            0.,   771.719E-42,  -5.73140E-39,   2.99743E-03
C:/temp/dataset/7/14_7.odb,Step-1,Increment      1: Step Time =    1.000,"PART-1-1",           292,       9.14805,      -24.1419,            0.,NA,NA,"",   19.3900E-03,  -9.96123E-03,  -16.6357E-03,   3.52236E-03
C:/temp/dataset/7/14_7.odb,Step-1,Increment      1: Step Time =    1.000,"PART-1-1",           293,       7.84454,      -23.3007,            0.,NA,NA,"",   31.0294E-03,  -16.2063E-03,  -26.4609E-03,   4.72644E-03
C:/temp/dataset/7/14_7.odb,Step-1,Increment      1: Step Time =    1.000,"PART-1-1",           294,       7.10828,      -24.6604,            0.,NA,NA,"",   26.6994E-03,  -11.9494E-03,  -23.8761E-03,   5.40478E-03
C:/temp/dataset/7/14_7.odb,Step-1,Increment      1: Step Time =    1.000,"PART-1-1",           295,       8.41180,      -25.5016,            0.,NA,NA,"",   16.2858E-03,  -6.23780E-03,  -15.0439E-03,   4.20101E-03
C:/temp/dataset/7/14_7.odb,Step-1,Increment      1: Step Time =    1.000,"PART-1-1",           296,       7.00425,      -21.1298,            0.,NA,NA,"",   52.0473E-03,  -30.8360E-03,  -41.9292E-03,   5.60419E-03
C:/temp/dataset/7/14_7.odb,Step-1,Increment      1: Step Time =    1.000,"PART-1-1",           297,       6.26636,      -19.9884,            0.,NA,NA,"",   67.7413E-03,  -41.1650E-03,  -53.7990E-03,   6.40796E-03
C:/temp/dataset/7/14_7.odb,Step-1,Increment      1: Step Time =    1.000,"PART-1-1",           298,            5.,       -20.625,            0.,NA,NA,"",   71.9949E-03,  -40.3095E-03,  -59.6524E-03,   7.61969E-03
C:/temp/dataset/7/14_7.odb,Step-1,Increment      1: Step Time =    1.000,"PART-1-1",           299,       12.8526,      -8.63250,            0.,NA,NA,"",   184.930E-03,  -184.847E-03,   5.53639E-03,   770.178E-06
C:/temp/dataset/7/14_7.odb,Step-1,Increment      1: Step Time =    1.000,"PART-1-1",           300,       13.9581,      -9.97058,            0.,NA,NA,"",   162.823E-03,  -160.921E-03,   24.8140E-03,   1.98818E-03
C:/temp/dataset/7/14_7.odb,Step-1,Increment      1: Step Time =    1.000,"PART-1-1",           301,           15.,         -8.75,            0.,NA,NA,"",   190.760E-03,  -184.932E-03,   46.7930E-03,   3.26895E-03
C:/temp/dataset/7/14_7.odb,Step-1,Increment      1: Step Time =    1.000,"PART-1-1",           302,       13.8945,      -7.41192,            0.,NA,NA,"",   211.819E-03,  -209.996E-03,   27.7322E-03,   2.03474E-03
C:/temp/dataset/7/14_7.odb,Step-1,Increment      1: Step Time =    1.000,"PART-1-1",           303,            5.,        10.625,            0.,NA,NA,"",   831.476E-03,  -770.845E-03,  -311.689E-03,   9.27091E-03
C:/temp/dataset/7/14_7.odb,Step-1,Increment      1: Step Time =    1.000,"PART-1-1",           304,       7.03988,       10.6820,            0.,NA,NA,"",   800.649E-03,  -767.656E-03,  -227.470E-03,   6.55907E-03
C:/temp/dataset/7/14_7.odb,Step-1,Increment      1: Step Time =    1.000,"PART-1-1",           305,       6.00589,       11.7004,            0.,NA,NA,"",   858.993E-03,  -812.563E-03,  -278.585E-03,   7.95026E-03
C:/temp/dataset/7/14_7.odb,Step-1,Increment      1: Step Time =    1.000,"PART-1-1",           306,       2.74639,       25.6366,            0.,NA,NA,"",       1.62416,      -1.52096,  -569.723E-03,   2.20808E-03
C:/temp/dataset/7/14_7.odb,Step-1,Increment      1: Step Time =    1.000,"PART-1-1",           307,       1.36653,       25.0307,            0.,NA,NA,"",       1.61968,      -1.48515,  -646.289E-03,   822.317E-06
C:/temp/dataset/7/14_7.odb,Step-1,Increment      1: Step Time =    1.000,"PART-1-1",           308,       1.96853,       23.3303,            0.,NA,NA,"",       1.51603,      -1.38898,  -607.504E-03,   1.13255E-03
C:/temp/dataset/7/14_7.odb,Step-1,Increment      1: Step Time =    1.000,"PART-1-1",           309,       3.34839,       23.9361,            0.,NA,NA,"",       1.51992,      -1.42497,  -528.798E-03,   2.78005E-03
C:/temp/dataset/7/14_7.odb,Step-1,Increment      1: Step Time =    1.000,"PART-1-1",           310,       4.47216,       26.2029,            0.,NA,NA,"",       1.62376,      -1.55273,  -474.993E-03,   4.58552E-03
C:/temp/dataset/7/14_7.odb,Step-1,Increment      1: Step Time =    1.000,"PART-1-1",           311,       4.17993,       27.6633,            0.,NA,NA,"",       1.71005,      -1.63559,  -499.118E-03,   4.72988E-03
C:/temp/dataset/7/14_7.odb,Step-1,Increment      1: Step Time =    1.000,"PART-1-1",           312,       2.45416,       27.0970,            0.,NA,NA,"",       1.70871,      -1.60333,  -590.766E-03,   2.00717E-03
C:/temp/dataset/7/14_7.odb,Step-1,Increment      1: Step Time =    1.000,"PART-1-1",           313,      -1.66705,       28.8640,            0.,NA,NA,"",       1.88595,      -1.69626,  -824.313E-03,   310.934E-06
C:/temp/dataset/7/14_7.odb,Step-1,Increment      1: Step Time =    1.000,"PART-1-1",           314,   261.919E-03,       29.0779,            0.,NA,NA,"",       1.85452,      -1.71079,  -715.850E-03,   504.089E-06
C:/temp/dataset/7/14_7.odb,Step-1,Increment      1: Step Time =    1.000,"PART-1-1",           315,    -937.5E-03,           30.,            0.,NA,NA,"",       1.92815,      -1.76111,  -785.023E-03,   719.662E-06
C:/temp/dataset/7/14_7.odb,Step-1,Increment      1: Step Time =    1.000,"PART-1-1",           316,          -15.,         21.25,            0.,NA,NA,"",       2.00208,      -1.24269,      -1.56973,   843.643E-09
C:/temp/dataset/7/14_7.odb,Step-1,Increment      1: Step Time =    1.000,"PART-1-1",           317,      -13.3250,           20.,            0.,NA,NA,"",       1.88352,      -1.17439,      -1.47256,   863.462E-09
C:/temp/dataset/7/14_7.odb,Step-1,Increment      1: Step Time =    1.000,"PART-1-1",           318,      -11.7925,       21.2083,            0.,NA,NA,"",       1.86449,      -1.24550,      -1.38747,   1.43802E-06
C:/temp/dataset/7/14_7.odb,Step-1,Increment      1: Step Time =    1.000,"PART-1-1",           319,       10.1137,       15.7319,            0.,NA,NA,"",   994.819E-03,  -988.092E-03,  -115.492E-03,   2.19872E-03
C:/temp/dataset/7/14_7.odb,Step-1,Increment      1: Step Time =    1.000,"PART-1-1",           320,       9.02474,       16.2903,            0.,NA,NA,"",       1.02883,      -1.01472,  -169.833E-03,   3.61935E-03
C:/temp/dataset/7/14_7.odb,Step-1,Increment      1: Step Time =    1.000,"PART-1-1",           321,       8.64023,       14.7706,            0.,NA,NA,"",   960.641E-03,  -943.430E-03,  -181.027E-03,   4.29846E-03
C:/temp/dataset/7/14_7.odb,Step-1,Increment      1: Step Time =    1.000,"PART-1-1",           322,       9.72917,       14.2122,            0.,NA,NA,"",   926.317E-03,  -917.386E-03,  -128.323E-03,   2.89364E-03
C:/temp/dataset/7/14_7.odb,Step-1,Increment      1: Step Time =    1.000,"PART-1-1",           323,       12.8210,       13.6438,            0.,NA,NA,"",   893.947E-03,  -893.850E-03,   13.1653E-03,   1.21511E-03
C:/temp/dataset/7/14_7.odb,Step-1,Increment      1: Step Time =    1.000,"PART-1-1",           324,       13.9730,       12.4303,            0.,NA,NA,"",   844.534E-03,  -842.164E-03,   63.2269E-03,   2.77114E-03
C:/temp/dataset/7/14_7.odb,Step-1,Increment      1: Step Time =    1.000,"PART-1-1",           325,           15.,         13.75,            0.,NA,NA,"",   910.402E-03,  -903.539E-03,   111.579E-03,   4.17504E-03
C:/temp/dataset/7/14_7.odb,Step-1,Increment      1: Step Time =    1.000,"PART-1-1",           326,       13.8481,       14.9635,            0.,NA,NA,"",   958.498E-03,  -956.548E-03,   61.1154E-03,   2.61194E-03
C:/temp/dataset/7/14_7.odb,Step-1,Increment      1: Step Time =    1.000,"PART-1-1",           327,       10.1008,       2.87074,            0.,NA,NA,"",   484.567E-03,  -478.306E-03,  -77.6417E-03,   2.47155E-03
C:/temp/dataset/7/14_7.odb,Step-1,Increment      1: Step Time =    1.000,"PART-1-1",           328,       9.07373,       1.83179,            0.,NA,NA,"",   459.237E-03,  -446.638E-03,  -106.834E-03,   3.78192E-03
C:/temp/dataset/7/14_7.odb,Step-1,Increment      1: Step Time =    1.000,"PART-1-1",           329,       10.0520,   569.032E-03,            0.,NA,NA,"",   414.259E-03,  -407.793E-03,  -72.9073E-03,   2.53620E-03
C:/temp/dataset/7/14_7.odb,Step-1,Increment      1: Step Time =    1.000,"PART-1-1",           330,       11.0790,       1.60798,            0.,NA,NA,"",   440.716E-03,  -438.513E-03,  -44.0098E-03,   1.23023E-03
C:/temp/dataset/7/14_7.odb,Step-1,Increment      1: Step Time =    1.000,"PART-1-1",           331,       9.98138,      -1.74337,            0.,NA,NA,"",   349.894E-03,  -343.092E-03,  -68.6568E-03,   2.62732E-03
C:/temp/dataset/7/14_7.odb,Step-1,Increment      1: Step Time =    1.000,"PART-1-1",           332,       8.90931,      -2.66004,            0.,NA,NA,"",   333.858E-03,  -320.306E-03,  -94.1524E-03,   3.94770E-03
C:/temp/dataset/7/14_7.odb,Step-1,Increment      1: Step Time =    1.000,"PART-1-1",           333,       9.84458,      -4.07679,            0.,NA,NA,"",   291.508E-03,  -283.992E-03,  -65.7655E-03,   2.79627E-03
C:/temp/dataset/7/14_7.odb,Step-1,Increment      1: Step Time =    1.000,"PART-1-1",           334,       10.9167,      -3.16013,            0.,NA,NA,"",   308.597E-03,  -305.863E-03,  -40.9822E-03,   1.47994E-03
C:/temp/dataset/7/14_7.odb,Step-1,Increment      1: Step Time =    1.000,"PART-1-1",           335,            5.,      -3.95833,            0.,NA,NA,"",   350.799E-03,  -297.934E-03,  -185.189E-03,   8.74342E-03
C:/temp/dataset/7/14_7.odb,Step-1,Increment      1: Step Time =    1.000,"PART-1-1",           336,       6.75254,      -4.23112,            0.,NA,NA,"",   318.541E-03,  -285.854E-03,  -140.555E-03,   6.56935E-03
C:/temp/dataset/7/14_7.odb,Step-1,Increment      1: Step Time =    1.000,"PART-1-1",           337,       5.92661,      -3.07918,            0.,NA,NA,"",   358.651E-03,  -316.444E-03,  -168.801E-03,   7.63854E-03
C:/temp/dataset/7/14_7.odb,Step-1,Increment      1: Step Time =    1.000,"PART-1-1",           338,       7.06139,      -12.0396,            0.,NA,NA,"",   158.824E-03,  -131.561E-03,  -88.9764E-03,   5.93054E-03
C:/temp/dataset/7/14_7.odb,Step-1,Increment      1: Step Time =    1.000,"PART-1-1",           339,       5.99095,      -11.1126,            0.,NA,NA,"",   186.833E-03,  -149.449E-03,  -112.123E-03,   7.19333E-03
C:/temp/dataset/7/14_7.odb,Step-1,Increment      1: Step Time =    1.000,"PART-1-1",           340,            5.,      -12.2917,            0.,NA,NA,"",   179.752E-03,  -134.003E-03,  -119.809E-03,   8.25998E-03
C:/temp/dataset/7/14_7.odb,Step-1,Increment      1: Step Time =    1.000,"PART-1-1",           341,       6.07044,      -13.2187,            0.,NA,NA,"",   151.855E-03,  -116.674E-03,  -97.1971E-03,   6.99444E-03
C:/temp/dataset/7/14_7.odb,Step-1,Increment      1: Step Time =    1.000,"PART-1-1",           342,       6.63644,      -8.02271,            0.,NA,NA,"",   236.210E-03,  -203.563E-03,  -119.821E-03,   6.57830E-03
C:/temp/dataset/7/14_7.odb,Step-1,Increment      1: Step Time =    1.000,"PART-1-1",           343,            5.,        -8.125,            0.,NA,NA,"",   256.560E-03,  -206.787E-03,  -151.862E-03,   8.51738E-03
C:/temp/dataset/7/14_7.odb,Step-1,Increment      1: Step Time =    1.000,"PART-1-1",           344,       5.87092,      -9.06592,            0.,NA,NA,"",   225.647E-03,  -185.804E-03,  -128.036E-03,   7.43240E-03
C:/temp/dataset/7/14_7.odb,Step-1,Increment      1: Step Time =    1.000,"PART-1-1",           345,       13.0826,      -13.6930,            0.,NA,NA,"",   101.248E-03,  -101.038E-03,   6.51991E-03,   841.782E-06
C:/temp/dataset/7/14_7.odb,Step-1,Increment      1: Step Time =    1.000,"PART-1-1",           346,       14.0569,      -14.9678,            0.,NA,NA,"",   86.6278E-03,  -84.6656E-03,   18.3331E-03,   1.83745E-03
C:/temp/dataset/7/14_7.odb,Step-1,Increment      1: Step Time =    1.000,"PART-1-1",           347,           15.,        -13.75,            0.,NA,NA,"",   107.414E-03,  -102.058E-03,   33.4942E-03,   2.94996E-03
C:/temp/dataset/7/14_7.odb,Step-1,Increment      1: Step Time =    1.000,"PART-1-1",           348,       14.0257,      -12.4752,            0.,NA,NA,"",   121.521E-03,  -119.537E-03,   21.8689E-03,   1.93859E-03
C:/temp/dataset/7/14_7.odb,Step-1,Increment      1: Step Time =    1.000,"PART-1-1",           349,       8.13738,      -21.6888,            0.,NA,NA,"",   39.8615E-03,  -24.6113E-03,  -31.3564E-03,   4.50981E-03
C:/temp/dataset/7/14_7.odb,Step-1,Increment      1: Step Time =    1.000,"PART-1-1",           350,            5.,      -28.9583,            0.,NA,NA,"",   8.40329E-03,  -5.43942E-03,  -6.40532E-03,   7.00242E-03
C:/temp/dataset/7/14_7.odb,Step-1,Increment      1: Step Time =    1.000,"PART-1-1",           351,          6.25,          -30.,            0.,NA,NA,"",            0.,  -44.4842E-42,  -8.94511E-39,   5.57255E-03
C:/temp/dataset/7/14_7.odb,Step-1,Increment      1: Step Time =    1.000,"PART-1-1",           352,       6.22347,      -27.8804,            0.,NA,NA,"",   11.2924E-03,  -4.77497E-03,  -10.2332E-03,   5.94224E-03
C:/temp/dataset/7/14_7.odb,Step-1,Increment      1: Step Time =    1.000,"PART-1-1",           353,           15.,        -28.75,            0.,NA,NA,"",   1.19494E-03,   446.215E-06,   1.10850E-03,   1.43745E-03
C:/temp/dataset/7/14_7.odb,Step-1,Increment      1: Step Time =    1.000,"PART-1-1",           354,       13.6900,      -27.4695,            0.,NA,NA,"",   1.78390E-03,   958.051E-06,   1.50480E-03,   935.035E-06
C:/temp/dataset/7/14_7.odb,Step-1,Increment      1: Step Time =    1.000,"PART-1-1",           355,       12.4400,      -28.7195,            0.,NA,NA,"",   1.60731E-03,   1.58305E-03,  -278.185E-06,   937.922E-06
C:/temp/dataset/7/14_7.odb,Step-1,Increment      1: Step Time =    1.000,"PART-1-1",           356,         13.75,          -30.,            0.,NA,NA,"",            0.,   928.950E-42,   637.912E-42,   906.584E-06
C:/temp/dataset/7/14_7.odb,Step-1,Increment      1: Step Time =    1.000,"PART-1-1",           357,       9.58617,      -22.6245,            0.,NA,NA,"",   25.0912E-03,  -16.6427E-03,  -18.7774E-03,   3.09746E-03
C:/temp/dataset/7/14_7.odb,Step-1,Increment      1: Step Time =    1.000,"PART-1-1",           358,       10.0221,      -21.0980,            0.,NA,NA,"",   32.2839E-03,  -25.5022E-03,  -19.7962E-03,   2.65490E-03
C:/temp/dataset/7/14_7.odb,Step-1,Increment      1: Step Time =    1.000,"PART-1-1",           359,       8.57328,      -20.1623,            0.,NA,NA,"",   48.3717E-03,  -34.4373E-03,  -33.9690E-03,   4.07691E-03
C:/temp/dataset/7/14_7.odb,Step-1,Increment      1: Step Time =    1.000,"PART-1-1",           360,       11.1406,      -27.5456,            0.,NA,NA,"",   2.90387E-03,   1.12073E-03,  -2.67889E-03,   1.47894E-03
C:/temp/dataset/7/14_7.odb,Step-1,Increment      1: Step Time =    1.000,"PART-1-1",           361,         11.25,          -30.,            0.,NA,NA,"",            0.,   1.38771E-39,  -2.26459E-39,   1.69554E-03
C:/temp/dataset/7/14_7.odb,Step-1,Increment      1: Step Time =    1.000,"PART-1-1",           362,       11.2605,      -16.1933,            0.,NA,NA,"",   71.2161E-03,  -69.2442E-03,  -16.6425E-03,   1.28395E-03
C:/temp/dataset/7/14_7.odb,Step-1,Increment      1: Step Time =    1.000,"PART-1-1",           363,       10.2521,      -15.0492,            0.,NA,NA,"",   89.3373E-03,  -83.7218E-03,  -31.1738E-03,   2.34344E-03
C:/temp/dataset/7/14_7.odb,Step-1,Increment      1: Step Time =    1.000,"PART-1-1",           364,       9.32474,      -16.3084,            0.,NA,NA,"",   80.1573E-03,  -69.7801E-03,  -39.4453E-03,   3.34430E-03
C:/temp/dataset/7/14_7.odb,Step-1,Increment      1: Step Time =    1.000,"PART-1-1",           365,       10.3331,      -17.4526,            0.,NA,NA,"",   61.5966E-03,  -56.2480E-03,  -25.1058E-03,   2.27669E-03
C:/temp/dataset/7/14_7.odb,Step-1,Increment      1: Step Time =    1.000,"PART-1-1",           366,       7.44248,      -19.0256,            0.,NA,NA,"",   67.0051E-03,  -46.0993E-03,  -48.6266E-03,   5.25640E-03
C:/temp/dataset/7/14_7.odb,Step-1,Increment      1: Step Time =    1.000,"PART-1-1",           367,       6.17612,      -17.5789,            0.,NA,NA,"",   93.3446E-03,  -63.0468E-03,  -68.8354E-03,   6.64081E-03
C:/temp/dataset/7/14_7.odb,Step-1,Increment      1: Step Time =    1.000,"PART-1-1",           368,            5.,      -18.5417,            0.,NA,NA,"",   93.8472E-03,  -57.5148E-03,  -74.1575E-03,   7.80168E-03
C:/temp/dataset/7/14_7.odb,Step-1,Increment      1: Step Time =    1.000,"PART-1-1",           369,       12.8407,      -6.03443,            0.,NA,NA,"",   238.500E-03,  -238.409E-03,   6.57405E-03,   838.018E-06
C:/temp/dataset/7/14_7.odb,Step-1,Increment      1: Step Time =    1.000,"PART-1-1",           370,           15.,         -6.25,            0.,NA,NA,"",   242.301E-03,  -236.258E-03,   53.7754E-03,   3.41392E-03
C:/temp/dataset/7/14_7.odb,Step-1,Increment      1: Step Time =    1.000,"PART-1-1",           371,       13.9462,      -4.87251,            0.,NA,NA,"",   267.859E-03,  -265.807E-03,   33.0887E-03,   2.20428E-03
C:/temp/dataset/7/14_7.odb,Step-1,Increment      1: Step Time =    1.000,"PART-1-1",           372,       7.64514,      -8.69832,            0.,NA,NA,"",   211.086E-03,  -187.950E-03,  -96.0826E-03,   5.36710E-03
C:/temp/dataset/7/14_7.odb,Step-1,Increment      1: Step Time =    1.000,"PART-1-1",           373,       8.20020,      -7.75016,            0.,NA,NA,"",   223.981E-03,  -205.342E-03,  -89.4552E-03,   4.73655E-03
C:/temp/dataset/7/14_7.odb,Step-1,Increment      1: Step Time =    1.000,"PART-1-1",           374,       7.19150,      -7.07454,            0.,NA,NA,"",   248.906E-03,  -221.325E-03,  -113.883E-03,   5.93863E-03
C:/temp/dataset/7/14_7.odb,Step-1,Increment      1: Step Time =    1.000,"PART-1-1",           375,       7.97278,      -1.35169,            0.,NA,NA,"",   377.658E-03,  -356.354E-03,  -125.048E-03,   5.13640E-03
C:/temp/dataset/7/14_7.odb,Step-1,Increment      1: Step Time =    1.000,"PART-1-1",           376,       9.01285,  -423.179E-03,            0.,NA,NA,"",   393.231E-03,  -380.315E-03,  -99.9552E-03,   3.84122E-03
C:/temp/dataset/7/14_7.odb,Step-1,Increment      1: Step Time =    1.000,"PART-1-1",           377,       8.04185,   850.611E-03,            0.,NA,NA,"",   439.551E-03,  -418.610E-03,  -134.055E-03,   5.08740E-03
C:/temp/dataset/7/14_7.odb,Step-1,Increment      1: Step Time =    1.000,"PART-1-1",           378,       8.08837,       3.05311,            0.,NA,NA,"",   507.254E-03,  -486.477E-03,  -143.689E-03,   5.06197E-03
C:/temp/dataset/7/14_7.odb,Step-1,Increment      1: Step Time =    1.000,"PART-1-1",           379,       9.11337,       4.08618,            0.,NA,NA,"",   531.293E-03,  -518.846E-03,  -114.329E-03,   3.74755E-03
C:/temp/dataset/7/14_7.odb,Step-1,Increment      1: Step Time =    1.000,"PART-1-1",           380,       8.10868,       5.26217,            0.,NA,NA,"",   581.113E-03,  -560.257E-03,  -154.287E-03,   5.06666E-03
C:/temp/dataset/7/14_7.odb,Step-1,Increment      1: Step Time =    1.000,"PART-1-1",           381,       7.08888,       6.39331,            0.,NA,NA,"",   633.738E-03,  -602.228E-03,  -197.343E-03,   6.41858E-03
C:/temp/dataset/7/14_7.odb,Step-1,Increment      1: Step Time =    1.000,"PART-1-1",           382,            5.,       6.45833,            0.,NA,NA,"",   669.201E-03,  -610.528E-03,  -274.017E-03,   9.17593E-03
C:/temp/dataset/7/14_7.odb,Step-1,Increment      1: Step Time =    1.000,"PART-1-1",           383,           15.,         16.25,            0.,NA,NA,"",       1.02784,      -1.02102,   118.211E-03,   4.06569E-03
C:/temp/dataset/7/14_7.odb,Step-1,Increment      1: Step Time =    1.000,"PART-1-1",           384,       13.6214,       17.6671,            0.,NA,NA,"",       1.08885,      -1.08757,   52.7753E-03,   2.22582E-03
C:/temp/dataset/7/14_7.odb,Step-1,Increment      1: Step Time =    1.000,"PART-1-1",           385,       12.4694,       16.3805,            0.,NA,NA,"",       1.02160,      -1.02159,  -3.78947E-03,   835.008E-06
C:/temp/dataset/7/14_7.odb,Step-1,Increment      1: Step Time =    1.000,"PART-1-1",           386,       10.0881,       9.74649,            0.,NA,NA,"",   732.631E-03,  -726.062E-03,  -97.8883E-03,   2.48963E-03
C:/temp/dataset/7/14_7.odb,Step-1,Increment      1: Step Time =    1.000,"PART-1-1",           387,       9.10561,       8.57814,            0.,NA,NA,"",   693.447E-03,  -680.624E-03,  -132.740E-03,   3.78940E-03
C:/temp/dataset/7/14_7.odb,Step-1,Increment      1: Step Time =    1.000,"PART-1-1",           388,       10.1162,       7.46436,            0.,NA,NA,"",   643.919E-03,  -637.596E-03,  -90.0126E-03,   2.45082E-03
C:/temp/dataset/7/14_7.odb,Step-1,Increment      1: Step Time =    1.000,"PART-1-1",           389,       11.0986,       8.63272,            0.,NA,NA,"",   684.286E-03,  -682.071E-03,  -55.0135E-03,   1.15276E-03
C:/temp/dataset/7/14_7.odb,Step-1,Increment      1: Step Time =    1.000,"PART-1-1",           390,       9.96644,       19.4124,            0.,NA,NA,"",       1.17973,      -1.17208,  -134.102E-03,   2.11685E-03
C:/temp/dataset/7/14_7.odb,Step-1,Increment      1: Step Time =    1.000,"PART-1-1",           391,       10.9020,       20.3065,            0.,NA,NA,"",       1.22373,      -1.22055,  -88.0763E-03,   1.51432E-03
C:/temp/dataset/7/14_7.odb,Step-1,Increment      1: Step Time =    1.000,"PART-1-1",           392,       10.1153,       21.2880,            0.,NA,NA,"",       1.27998,      -1.27313,  -132.183E-03,   2.20869E-03
C:/temp/dataset/7/14_7.odb,Step-1,Increment      1: Step Time =    1.000,"PART-1-1",           393,       9.17975,       20.3940,            0.,NA,NA,"",       1.23693,      -1.22398,  -178.551E-03,   2.90037E-03
C:/temp/dataset/7/14_7.odb,Step-1,Increment      1: Step Time =    1.000,"PART-1-1",           394,           15.,         28.75,            0.,NA,NA,"",       1.70891,      -1.70428,   125.782E-03,   165.600E-06
C:/temp/dataset/7/14_7.odb,Step-1,Increment      1: Step Time =    1.000,"PART-1-1",           395,       14.0625,           30.,            0.,NA,NA,"",       1.77586,      -1.77448,   70.0367E-03,   121.670E-06
C:/temp/dataset/7/14_7.odb,Step-1,Increment      1: Step Time =    1.000,"PART-1-1",           396,       13.1487,       28.7914,            0.,NA,NA,"",       1.70382,      -1.70371,   19.9162E-03,   525.973E-06
C:/temp/dataset/7/14_7.odb,Step-1,Increment      1: Step Time =    1.000,"PART-1-1",           397,       14.0862,       27.5414,            0.,NA,NA,"",       1.63477,      -1.63304,   75.1996E-03,   565.337E-06
C:/temp/dataset/7/14_7.odb,Step-1,Increment      1: Step Time =    1.000,"PART-1-1",           398,       12.2440,       25.2848,            0.,NA,NA,"",       1.50011,      -1.49989,  -25.5791E-03,   843.917E-06
C:/temp/dataset/7/14_7.odb,Step-1,Increment      1: Step Time =    1.000,"PART-1-1",           399,       13.1763,       26.3811,            0.,NA,NA,"",       1.56464,      -1.56444,   25.1453E-03,   912.908E-06
C:/temp/dataset/7/14_7.odb,Step-1,Increment      1: Step Time =    1.000,"PART-1-1",           400,       12.2376,       27.6217,            0.,NA,NA,"",       1.63491,      -1.63464,  -29.8703E-03,   812.662E-06
C:/temp/dataset/7/14_7.odb,Step-1,Increment      1: Step Time =    1.000,"PART-1-1",           401,       11.3053,       26.5254,            0.,NA,NA,"",       1.57191,      -1.56983,  -80.7294E-03,   841.278E-06
C:/temp/dataset/7/14_7.odb,Step-1,Increment      1: Step Time =    1.000,"PART-1-1",           402,       12.1875,           30.,            0.,NA,NA,"",       1.77233,      -1.77194,  -37.0397E-03,   686.847E-06
C:/temp/dataset/7/14_7.odb,Step-1,Increment      1: Step Time =    1.000,"PART-1-1",           403,        6.5625,           30.,            0.,NA,NA,"",       1.80869,      -1.76829,  -380.132E-03,   5.81021E-03
C:/temp/dataset/7/14_7.odb,Step-1,Increment      1: Step Time =    1.000,"PART-1-1",           404,       5.40000,       28.6589,            0.,NA,NA,"",       1.74624,      -1.69026,  -438.609E-03,   6.67149E-03
C:/temp/dataset/7/14_7.odb,Step-1,Increment      1: Step Time =    1.000,"PART-1-1",           405,       6.32063,       27.5176,            0.,NA,NA,"",       1.66768,      -1.62452,  -376.963E-03,   5.76364E-03
C:/temp/dataset/7/14_7.odb,Step-1,Increment      1: Step Time =    1.000,"PART-1-1",           406,        2.8125,           30.,            0.,NA,NA,"",       1.85466,      -1.76226,  -578.086E-03,   1.52019E-03
C:/temp/dataset/7/14_7.odb,Step-1,Increment      1: Step Time =    1.000,"PART-1-1",           407,       1.86631,       29.3706,            0.,NA,NA,"",       1.83882,      -1.72843,  -627.513E-03,   878.148E-06
C:/temp/dataset/7/14_7.odb,Step-1,Increment      1: Step Time =    1.000,"PART-1-1",           408,       2.52123,       28.3750,            0.,NA,NA,"",       1.77615,      -1.67504,  -590.723E-03,   1.70463E-03
C:/temp/dataset/7/14_7.odb,Step-1,Increment      1: Step Time =    1.000,"PART-1-1",           409,       3.46742,       29.0044,            0.,NA,NA,"",       1.79513,      -1.71105,  -542.963E-03,   3.63179E-03
C:/temp/dataset/7/14_7.odb,Step-1,Increment      1: Step Time =    1.000,"PART-1-1",           410,       1.19073,       28.4486,            0.,NA,NA,"",       1.80344,      -1.67714,  -662.999E-03,   354.785E-06
C:/temp/dataset/7/14_7.odb,Step-1,Increment      1: Step Time =    1.000,"PART-1-1",           411,      -2.48443,       27.9761,            0.,NA,NA,"",       1.86054,      -1.64499,  -869.265E-03,   269.004E-06
C:/temp/dataset/7/14_7.odb,Step-1,Increment      1: Step Time =    1.000,"PART-1-1",           412,       -2.8125,           30.,            0.,NA,NA,"",       1.97185,      -1.75893,  -891.271E-03,   339.288E-06
C:/temp/dataset/7/14_7.odb,Step-1,Increment      1: Step Time =    1.000,"PART-1-1",           413,      -7.28733,       29.0238,            0.,NA,NA,"",       2.04640,      -1.69673,      -1.14405,   31.2266E-06
C:/temp/dataset/7/14_7.odb,Step-1,Increment      1: Step Time =    1.000,"PART-1-1",           414,      -6.19423,       28.1363,            0.,NA,NA,"",       1.97068,      -1.64809,      -1.08046,   83.9518E-06
C:/temp/dataset/7/14_7.odb,Step-1,Increment      1: Step Time =    1.000,"PART-1-1",           415,       -6.5625,           30.,            0.,NA,NA,"",       2.07220,      -1.75335,      -1.10443,   51.4158E-06
C:/temp/dataset/7/14_7.odb,Step-1,Increment      1: Step Time =    1.000,"PART-1-1",           416,      -11.8079,       27.5253,            0.,NA,NA,"",       2.12831,      -1.60432,      -1.39852,   3.13405E-06
C:/temp/dataset/7/14_7.odb,Step-1,Increment      1: Step Time =    1.000,"PART-1-1",           417,      -12.6125,       26.1842,            0.,NA,NA,"",       2.10019,      -1.52683,      -1.44207,   1.70882E-06
C:/temp/dataset/7/14_7.odb,Step-1,Increment      1: Step Time =    1.000,"PART-1-1",           418,      -8.13992,       23.4434,            0.,NA,NA,"",       1.81684,      -1.37838,      -1.18362,   36.5687E-06
C:/temp/dataset/7/14_7.odb,Step-1,Increment      1: Step Time =    1.000,"PART-1-1",           419,       -8.4375,           30.,            0.,NA,NA,"",       2.12845,      -1.75036,      -1.21101,   13.6472E-06
C:/temp/dataset/7/14_7.odb,Step-1,Increment      1: Step Time =    1.000,"PART-1-1",           420,      -8.00049,       27.9480,            0.,NA,NA,"",       2.01759,      -1.63448,      -1.18285,   37.6896E-06
C:/temp/dataset/7/14_7.odb,Step-1,Increment      1: Step Time =    1.000,"PART-1-1",           421,      -12.1875,           30.,            0.,NA,NA,"",       2.25180,      -1.74430,      -1.42408,   1.24668E-06
C:/temp/dataset/7/14_7.odb,Step-1,Increment      1: Step Time =    1.000,"PART-1-1",           422,          -15.,         26.25,            0.,NA,NA,"",       2.19552,      -1.52671,      -1.57781,   1.94689E-06
C:/temp/dataset/7/14_7.odb,Step-1,Increment      1: Step Time =    1.000,"PART-1-1",           423,  -614.199E-03,       25.3895,            0.,NA,NA,"",       1.68318,      -1.50220,  -759.286E-03,   311.482E-06
C:/temp/dataset/7/14_7.odb,Step-1,Increment      1: Step Time =    1.000,"PART-1-1",           424,      -1.97220,       26.8586,            0.,NA,NA,"",       1.79119,      -1.58280,  -838.502E-03,   269.371E-06
C:/temp/dataset/7/14_7.odb,Step-1,Increment      1: Step Time =    1.000,"PART-1-1",           425,      -1.74113,       25.3247,            0.,NA,NA,"",       1.70787,      -1.49642,  -823.142E-03,   284.489E-06
C:/temp/dataset/7/14_7.odb,Step-1,Increment      1: Step Time =    1.000,"PART-1-1",           426,       8.18659,       21.6045,            0.,NA,NA,"",       1.31180,      -1.29022,  -236.944E-03,   4.00405E-03
C:/temp/dataset/7/14_7.odb,Step-1,Increment      1: Step Time =    1.000,"PART-1-1",           427,       9.25192,       22.4602,            0.,NA,NA,"",       1.35018,      -1.33774,  -182.866E-03,   2.97996E-03
C:/temp/dataset/7/14_7.odb,Step-1,Increment      1: Step Time =    1.000,"PART-1-1",           428,       8.38526,       23.6138,            0.,NA,NA,"",       1.42240,      -1.40269,  -236.013E-03,   3.69488E-03
C:/temp/dataset/7/14_7.odb,Step-1,Increment      1: Step Time =    1.000,"PART-1-1",           429,       7.31993,       22.7581,            0.,NA,NA,"",       1.38634,      -1.35541,  -291.217E-03,   4.94874E-03
C:/temp/dataset/7/14_7.odb,Step-1,Increment      1: Step Time =    1.000,"PART-1-1",           430,           15.,         26.25,            0.,NA,NA,"",       1.56568,      -1.56037,   128.844E-03,   975.287E-06
C:/temp/dataset/7/14_7.odb,Step-1,Increment      1: Step Time =    1.000,"PART-1-1",           431,        4.6875,           30.,            0.,NA,NA,"",       1.82999,      -1.76400,  -487.030E-03,   5.70609E-03
C:/temp/dataset/7/14_7.odb,Step-1,Increment      1: Step Time =    1.000,"PART-1-1",           432,       9.38339,       24.5308,            0.,NA,NA,"",       1.46584,      -1.45426,  -183.871E-03,   2.47406E-03
C:/temp/dataset/7/14_7.odb,Step-1,Increment      1: Step Time =    1.000,"PART-1-1",           433,       8.53172,       25.6694,            0.,NA,NA,"",       1.53710,      -1.51870,  -237.141E-03,   3.11535E-03
C:/temp/dataset/7/14_7.odb,Step-1,Increment      1: Step Time =    1.000,"PART-1-1",           434,       7.53359,       24.7524,            0.,NA,NA,"",       1.49587,      -1.46744,  -290.268E-03,   4.37886E-03
C:/temp/dataset/7/14_7.odb,Step-1,Increment      1: Step Time =    1.000,"PART-1-1",           435,     937.5E-03,           30.,            0.,NA,NA,"",       1.88917,      -1.76256,  -679.940E-03,   1.18290E-03
C:/temp/dataset/7/14_7.odb,Step-1,Increment      1: Step Time =    1.000,"PART-1-1",           436,       5.64845,       26.5466,            0.,NA,NA,"",       1.62325,      -1.57063,  -409.964E-03,   5.52791E-03
C:/temp/dataset/7/14_7.odb,Step-1,Increment      1: Step Time =    1.000,"PART-1-1",           437,       4.65082,       24.6490,            0.,NA,NA,"",       1.53419,      -1.46471,  -456.452E-03,   4.23583E-03
C:/temp/dataset/7/14_7.odb,Step-1,Increment      1: Step Time =    1.000,"PART-1-1",           438,       5.82711,       24.9927,            0.,NA,NA,"",       1.53336,      -1.48286,  -390.285E-03,   5.05209E-03
C:/temp/dataset/7/14_7.odb,Step-1,Increment      1: Step Time =    1.000,"PART-1-1",           439,      -3.57200,       27.5772,            0.,NA,NA,"",       1.86877,      -1.62066,  -930.455E-03,   204.524E-06
C:/temp/dataset/7/14_7.odb,Step-1,Increment      1: Step Time =    1.000,"PART-1-1",           440,      -3.05977,       26.4597,            0.,NA,NA,"",       1.79938,      -1.55832,  -899.666E-03,   238.294E-06
C:/temp/dataset/7/14_7.odb,Step-1,Increment      1: Step Time =    1.000,"PART-1-1",           441,      -4.23358,       26.7178,            0.,NA,NA,"",       1.84454,      -1.57089,  -966.758E-03,   185.377E-06
C:/temp/dataset/7/14_7.odb,Step-1,Increment      1: Step Time =    1.000,"PART-1-1",           442,      -5.07335,       27.3652,            0.,NA,NA,"",       1.90027,      -1.60618,      -1.01550,   121.336E-06
C:/temp/dataset/7/14_7.odb,Step-1,Increment      1: Step Time =    1.000,"PART-1-1",           443,      -5.65848,       26.3267,            0.,NA,NA,"",       1.86751,      -1.54630,      -1.04716,   120.442E-06
C:/temp/dataset/7/14_7.odb,Step-1,Increment      1: Step Time =    1.000,"PART-1-1",           444,      -6.77936,       27.0978,            0.,NA,NA,"",       1.93884,      -1.58820,      -1.11208,   63.5996E-06
C:/temp/dataset/7/14_7.odb,Step-1,Increment      1: Step Time =    1.000,"PART-1-1",           445,       13.0726,       6.26892,            0.,NA,NA,"",   595.395E-03,  -595.037E-03,   20.6378E-03,   1.43840E-03
C:/temp/dataset/7/14_7.odb,Step-1,Increment      1: Step Time =    1.000,"PART-1-1",           446,       14.0382,       5.02867,            0.,NA,NA,"",   555.197E-03,  -552.630E-03,   53.3268E-03,   2.67285E-03
C:/temp/dataset/7/14_7.odb,Step-1,Increment      1: Step Time =    1.000,"PART-1-1",           447,           15.,          6.25,            0.,NA,NA,"",   604.717E-03,  -597.954E-03,   90.1861E-03,   3.97387E-03
C:/temp/dataset/7/14_7.odb,Step-1,Increment      1: Step Time =    1.000,"PART-1-1",           448,       14.0344,       7.49025,            0.,NA,NA,"",   644.200E-03,  -641.623E-03,   57.5647E-03,   2.73718E-03
C:/temp/dataset/7/14_7.odb,Step-1,Increment      1: Step Time =    1.000,"PART-1-1",           449,            5.,       12.7083,            0.,NA,NA,"",   920.267E-03,  -858.707E-03,  -330.928E-03,   9.32541E-03
C:/temp/dataset/7/14_7.odb,Step-1,Increment      1: Step Time =    1.000,"PART-1-1",           450,       6.97129,       12.7632,            0.,NA,NA,"",   890.164E-03,  -855.885E-03,  -244.647E-03,   6.67695E-03
C:/temp/dataset/7/14_7.odb,Step-1,Increment      1: Step Time =    1.000,"PART-1-1",           451,       8.08110,       9.66220,            0.,NA,NA,"",   746.171E-03,  -724.477E-03,  -178.618E-03,   5.15721E-03
C:/temp/dataset/7/14_7.odb,Step-1,Increment      1: Step Time =    1.000,"PART-1-1",           452,       8.10192,       7.46894,            0.,NA,NA,"",   660.935E-03,  -639.736E-03,  -166.051E-03,   5.10460E-03
C:/temp/dataset/7/14_7.odb,Step-1,Increment      1: Step Time =    1.000,"PART-1-1",           453,            5.,        -1.875,            0.,NA,NA,"",   404.805E-03,  -350.616E-03,  -202.326E-03,   8.84606E-03
C:/temp/dataset/7/14_7.odb,Step-1,Increment      1: Step Time =    1.000,"PART-1-1",           454,       6.91011,      -2.19684,            0.,NA,NA,"",   367.823E-03,  -336.254E-03,  -149.086E-03,   6.44050E-03
C:/temp/dataset/7/14_7.odb,Step-1,Increment      1: Step Time =    1.000,"PART-1-1",           455,       11.0205,  -751.161E-03,            0.,NA,NA,"",   372.021E-03,  -369.638E-03,  -42.0469E-03,   1.32697E-03
C:/temp/dataset/7/14_7.odb,Step-1,Increment      1: Step Time =    1.000,"PART-1-1",           456,       13.1408,      -16.1676,            0.,NA,NA,"",   69.7144E-03,  -69.4809E-03,   5.70118E-03,   800.382E-06
C:/temp/dataset/7/14_7.odb,Step-1,Increment      1: Step Time =    1.000,"PART-1-1",           457,       14.0839,      -17.4497,            0.,NA,NA,"",   57.9739E-03,  -56.0405E-03,   14.8474E-03,   1.72457E-03
C:/temp/dataset/7/14_7.odb,Step-1,Increment      1: Step Time =    1.000,"PART-1-1",           458,           15.,        -16.25,            0.,NA,NA,"",   75.2537E-03,  -70.1420E-03,   27.2621E-03,   2.77855E-03
C:/temp/dataset/7/14_7.odb,Step-1,Increment      1: Step Time =    1.000,"PART-1-1",           459,            5.,       -14.375,            0.,NA,NA,"",   147.443E-03,  -104.253E-03,  -104.263E-03,   8.12012E-03
C:/temp/dataset/7/14_7.odb,Step-1,Increment      1: Step Time =    1.000,"PART-1-1",           460,       6.11916,      -15.3567,            0.,NA,NA,"",   121.061E-03,  -88.0606E-03,  -83.0721E-03,   6.82702E-03
C:/temp/dataset/7/14_7.odb,Step-1,Increment      1: Step Time =    1.000,"PART-1-1",           461,       13.0403,       1.40949,            0.,NA,NA,"",   433.738E-03,  -433.431E-03,   16.3073E-03,   1.28682E-03
C:/temp/dataset/7/14_7.odb,Step-1,Increment      1: Step Time =    1.000,"PART-1-1",           462,       14.0142,   96.5788E-03,            0.,NA,NA,"",   398.126E-03,  -395.728E-03,   43.6323E-03,   2.48199E-03
C:/temp/dataset/7/14_7.odb,Step-1,Increment      1: Step Time =    1.000,"PART-1-1",           463,           15.,          1.25,            0.,NA,NA,"",   438.277E-03,  -431.723E-03,   75.5131E-03,   3.78052E-03
C:/temp/dataset/7/14_7.odb,Step-1,Increment      1: Step Time =    1.000,"PART-1-1",           464,       14.0261,       2.56291,            0.,NA,NA,"",   473.131E-03,  -470.642E-03,   48.4674E-03,   2.58108E-03
C:/temp/dataset/7/14_7.odb,Step-1,Increment      1: Step Time =    1.000,"PART-1-1",           465,            5.,      -10.2083,            0.,NA,NA,"",   216.058E-03,  -168.148E-03,  -135.674E-03,   8.39213E-03
C:/temp/dataset/7/14_7.odb,Step-1,Increment      1: Step Time =    1.000,"PART-1-1",           466,       6.86187,      -9.97015,            0.,NA,NA,"",   196.288E-03,  -166.492E-03,  -103.969E-03,   6.23717E-03
C:/temp/dataset/7/14_7.odb,Step-1,Increment      1: Step Time =    1.000,"PART-1-1",           467,            5.,      -24.7917,            0.,NA,NA,"",   36.3331E-03,  -17.3444E-03,  -31.9259E-03,   7.06888E-03
C:/temp/dataset/7/14_7.odb,Step-1,Increment      1: Step Time =    1.000,"PART-1-1",           468,       6.13477,      -25.7685,            0.,NA,NA,"",   24.4691E-03,  -10.6801E-03,  -22.0152E-03,   6.08044E-03
C:/temp/dataset/7/14_7.odb,Step-1,Increment      1: Step Time =    1.000,"PART-1-1",           469,       13.1299,      -20.9468,            0.,NA,NA,"",   25.3262E-03,  -25.1528E-03,   2.95835E-03,   573.396E-06
C:/temp/dataset/7/14_7.odb,Step-1,Increment      1: Step Time =    1.000,"PART-1-1",           470,       14.0295,      -22.3095,            0.,NA,NA,"",   18.4835E-03,  -16.7801E-03,   7.75025E-03,   1.40957E-03
C:/temp/dataset/7/14_7.odb,Step-1,Increment      1: Step Time =    1.000,"PART-1-1",           471,           15.,        -21.25,            0.,NA,NA,"",   28.9980E-03,  -24.3439E-03,   15.7562E-03,   2.45292E-03
C:/temp/dataset/7/14_7.odb,Step-1,Increment      1: Step Time =    1.000,"PART-1-1",           472,       14.1003,      -19.8873,            0.,NA,NA,"",   35.5445E-03,  -33.6456E-03,   11.4622E-03,   1.60194E-03
C:/temp/dataset/7/14_7.odb,Step-1,Increment      1: Step Time =    1.000,"PART-1-1",           473,            5.,       -26.875,            0.,NA,NA,"",   22.0751E-03,  -10.8837E-03,  -19.2056E-03,   6.83564E-03
C:/temp/dataset/7/14_7.odb,Step-1,Increment      1: Step Time =    1.000,"PART-1-1",           474,       7.35824,      -26.7740,            0.,NA,NA,"",   13.9594E-03,  -4.83355E-03,  -13.0959E-03,   5.05270E-03
C:/temp/dataset/7/14_7.odb,Step-1,Increment      1: Step Time =    1.000,"PART-1-1",           475,       11.2665,      -23.4125,            0.,NA,NA,"",   13.3590E-03,  -10.9346E-03,  -7.67448E-03,   1.47036E-03
C:/temp/dataset/7/14_7.odb,Step-1,Increment      1: Step Time =    1.000,"PART-1-1",           476,       10.8283,      -24.9299,            0.,NA,NA,"",   8.92745E-03,  -4.96398E-03,  -7.42013E-03,   1.88400E-03
C:/temp/dataset/7/14_7.odb,Step-1,Increment      1: Step Time =    1.000,"PART-1-1",           477,            5.,      -16.4583,            0.,NA,NA,"",   118.903E-03,  -78.7952E-03,  -89.0464E-03,   7.96937E-03
C:/temp/dataset/7/14_7.odb,Step-1,Increment      1: Step Time =    1.000,"PART-1-1",           478,       7.29529,      -16.4772,            0.,NA,NA,"",   95.2245E-03,  -71.7677E-03,  -62.5868E-03,   5.50325E-03
C:/temp/dataset/7/14_7.odb,Step-1,Increment      1: Step Time =    1.000,"PART-1-1",           479,            5.,       18.9583,            0.,NA,NA,"",       1.21579,      -1.15039,  -393.378E-03,   12.2205E-03
C:/temp/dataset/7/14_7.odb,Step-1,Increment      1: Step Time =    1.000,"PART-1-1",           480,       6.05050,       17.7875,            0.,NA,NA,"",       1.13809,      -1.09000,  -327.336E-03,   8.24418E-03
C:/temp/dataset/7/14_7.odb,Step-1,Increment      1: Step Time =    1.000,"PART-1-1",           481,       7.11573,       18.6629,            0.,NA,NA,"",       1.16588,      -1.13211,  -278.565E-03,   5.02142E-03
C:/temp/dataset/7/14_7.odb,Step-1,Increment      1: Step Time =    1.000,"PART-1-1",           482,       6.06524,       19.8338,            0.,NA,NA,"",       1.24064,      -1.19242,  -342.506E-03,   7.28457E-03
C:/temp/dataset/7/14_7.odb,Step-1,Increment      1: Step Time =    1.000,"PART-1-1",           483,       6.98524,       16.7251,            0.,NA,NA,"",       1.07226,      -1.03720,  -271.931E-03,   6.61421E-03
C:/temp/dataset/7/14_7.odb,Step-1,Increment      1: Step Time =    1.000,"PART-1-1",           484,            5.,        16.875,            0.,NA,NA,"",       1.11281,      -1.04943,  -370.170E-03,   9.79169E-03
C:/temp/dataset/7/14_7.odb,Step-1,Increment      1: Step Time =    1.000,"PART-1-1",           485,       7.88091,       13.8682,            0.,NA,NA,"",   927.543E-03,  -903.211E-03,  -211.058E-03,   5.43157E-03
C:/temp/dataset/7/14_7.odb,Step-1,Increment      1: Step Time =    1.000,"PART-1-1",           486,       7.65947,       15.6945,            0.,NA,NA,"",       1.01436,  -987.378E-03,  -232.392E-03,   5.69480E-03
C:/temp/dataset/7/14_7.odb,Step-1,Increment      1: Step Time =    1.000,"PART-1-1",           487,       8.92157,       12.9075,            0.,NA,NA,"",   874.101E-03,  -859.456E-03,  -159.336E-03,   4.02400E-03
C:/temp/dataset/7/14_7.odb,Step-1,Increment      1: Step Time =    1.000,"PART-1-1",           488,       9.98918,       11.9956,            0.,NA,NA,"",   826.623E-03,  -819.391E-03,  -109.106E-03,   2.60821E-03
C:/temp/dataset/7/14_7.odb,Step-1,Increment      1: Step Time =    1.000,"PART-1-1",           489,       10.7968,       13.3004,            0.,NA,NA,"",   879.853E-03,  -876.453E-03,  -77.2767E-03,   1.48133E-03
C:/temp/dataset/7/14_7.odb,Step-1,Increment      1: Step Time =    1.000,"PART-1-1",           490,       13.0565,       8.69239,            0.,NA,NA,"",   686.380E-03,  -686.044E-03,   21.4755E-03,   1.46260E-03
C:/temp/dataset/7/14_7.odb,Step-1,Increment      1: Step Time =    1.000,"PART-1-1",           491,           15.,          8.75,            0.,NA,NA,"",   699.017E-03,  -692.192E-03,   97.4413E-03,   4.06019E-03
C:/temp/dataset/7/14_7.odb,Step-1,Increment      1: Step Time =    1.000,"PART-1-1",           492,       14.0220,       9.95215,            0.,NA,NA,"",   740.422E-03,  -737.880E-03,   61.3052E-03,   2.78444E-03
C:/temp/dataset/7/14_7.odb,Step-1,Increment      1: Step Time =    1.000,"PART-1-1",           493,       8.15713,      -6.43409,            0.,NA,NA,"",   251.882E-03,  -232.744E-03,  -96.3062E-03,   4.80836E-03
C:/temp/dataset/7/14_7.odb,Step-1,Increment      1: Step Time =    1.000,"PART-1-1",           494,       7.55707,      -5.50995,            0.,NA,NA,"",   278.777E-03,  -254.278E-03,  -114.278E-03,   5.56131E-03
C:/temp/dataset/7/14_7.odb,Step-1,Increment      1: Step Time =    1.000,"PART-1-1",           495,       13.0039,      -1.03047,            0.,NA,NA,"",   362.877E-03,  -362.623E-03,   13.5838E-03,   1.17783E-03
C:/temp/dataset/7/14_7.odb,Step-1,Increment      1: Step Time =    1.000,"PART-1-1",           496,       13.9897,      -2.37705,            0.,NA,NA,"",   329.843E-03,  -327.586E-03,   38.5178E-03,   2.35897E-03
C:/temp/dataset/7/14_7.odb,Step-1,Increment      1: Step Time =    1.000,"PART-1-1",           497,           15.,         -1.25,            0.,NA,NA,"",   365.918E-03,  -359.509E-03,   68.1832E-03,   3.66908E-03
C:/temp/dataset/7/14_7.odb,Step-1,Increment      1: Step Time =    1.000,"PART-1-1",           498,       11.0188,      -11.3444,            0.,NA,NA,"",   139.169E-03,  -136.641E-03,  -26.4063E-03,   1.46385E-03
C:/temp/dataset/7/14_7.odb,Step-1,Increment      1: Step Time =    1.000,"PART-1-1",           499,       9.94563,      -10.3262,            0.,NA,NA,"",   161.596E-03,  -154.610E-03,  -46.9989E-03,   2.67128E-03
C:/temp/dataset/7/14_7.odb,Step-1,Increment      1: Step Time =    1.000,"PART-1-1",           500,       9.07908,      -11.6768,            0.,NA,NA,"",   145.225E-03,  -133.209E-03,  -57.8426E-03,   3.65437E-03
C:/temp/dataset/7/14_7.odb,Step-1,Increment      1: Step Time =    1.000,"PART-1-1",           501,       10.1523,      -12.6950,            0.,NA,NA,"",   122.180E-03,  -116.172E-03,  -37.8428E-03,   2.44210E-03
C:/temp/dataset/7/14_7.odb,Step-1,Increment      1: Step Time =    1.000,"PART-1-1",           502,       11.2699,       24.2837,            0.,NA,NA,"",       1.44362,      -1.44152,  -77.7962E-03,   1.22858E-03
C:/temp/dataset/7/14_7.odb,Step-1,Increment      1: Step Time =    1.000,"PART-1-1",           503,       12.1787,       22.9892,            0.,NA,NA,"",       1.36987,      -1.36964,  -25.3527E-03,   1.05765E-03
C:/temp/dataset/7/14_7.odb,Step-1,Increment      1: Step Time =    1.000,"PART-1-1",           504,           15.,         -3.75,            0.,NA,NA,"",   300.637E-03,  -294.400E-03,   60.9212E-03,   3.54711E-03
C:/temp/dataset/7/14_7.odb,Step-1,Increment      1: Step Time =    1.000,"PART-1-1",           505,       12.9359,      -3.49956,            0.,NA,NA,"",   298.016E-03,  -297.841E-03,   10.2146E-03,   1.02565E-03
C:/temp/dataset/7/14_7.odb,Step-1,Increment      1: Step Time =    1.000,"PART-1-1",           506,           15.,        -11.25,            0.,NA,NA,"",   145.854E-03,  -140.257E-03,   40.0173E-03,   3.11429E-03
C:/temp/dataset/7/14_7.odb,Step-1,Increment      1: Step Time =    1.000,"PART-1-1",           507,       12.9838,      -11.1958,            0.,NA,NA,"",   139.247E-03,  -139.094E-03,   6.52772E-03,   829.240E-06
C:/temp/dataset/7/14_7.odb,Step-1,Increment      1: Step Time =    1.000,"PART-1-1",           508,           15.,         11.25,            0.,NA,NA,"",   800.857E-03,  -793.998E-03,   104.591E-03,   4.13828E-03
C:/temp/dataset/7/14_7.odb,Step-1,Increment      1: Step Time =    1.000,"PART-1-1",           509,       12.9950,       11.1325,            0.,NA,NA,"",   785.026E-03,  -784.767E-03,   20.1419E-03,   1.41720E-03
C:/temp/dataset/7/14_7.odb,Step-1,Increment      1: Step Time =    1.000,"PART-1-1",           510,           15.,          3.75,            0.,NA,NA,"",   517.840E-03,  -511.167E-03,   82.8629E-03,   3.88147E-03
C:/temp/dataset/7/14_7.odb,Step-1,Increment      1: Step Time =    1.000,"PART-1-1",           511,       13.0643,       3.84158,            0.,NA,NA,"",   511.200E-03,  -510.857E-03,   18.7448E-03,   1.37557E-03
C:/temp/dataset/7/14_7.odb,Step-1,Increment      1: Step Time =    1.000,"PART-1-1",           512,           15.,        -18.75,            0.,NA,NA,"",   49.1824E-03,  -44.3063E-03,   21.3507E-03,   2.60827E-03
C:/temp/dataset/7/14_7.odb,Step-1,Increment      1: Step Time =    1.000,"PART-1-1",           513,       13.1842,      -18.5870,            0.,NA,NA,"",   44.6168E-03,  -44.3716E-03,   4.67120E-03,   736.717E-06
C:/temp/dataset/7/14_7.odb,Step-1,Increment      1: Step Time =    1.000,"PART-1-1",           514,       13.5513,      -24.7801,            0.,NA,NA,"",   5.76961E-03,  -4.92979E-03,   2.99760E-03,   812.472E-06
C:/temp/dataset/7/14_7.odb,Step-1,Increment      1: Step Time =    1.000,"PART-1-1",           515,       12.2413,      -25.9996,            0.,NA,NA,"",   1.91059E-03,  -1.20067E-03,  -1.48619E-03,   636.337E-06
C:/temp/dataset/7/14_7.odb,Step-1,Increment      1: Step Time =    1.000,"PART-1-1",           516,           15.,        -26.25,            0.,NA,NA,"",   5.58332E-03,  -1.72115E-03,   5.31141E-03,   2.12941E-03
C:/temp/dataset/7/14_7.odb,Step-1,Increment      1: Step Time =    1.000,"PART-1-1",           517,           15.,        -23.75,            0.,NA,NA,"",   14.5596E-03,  -10.1413E-03,   10.4468E-03,   2.31963E-03
C:/temp/dataset/7/14_7.odb,Step-1,Increment      1: Step Time =    1.000,"PART-1-1",           518,       12.5809,      -23.3397,            0.,NA,NA,"",   10.8916E-03,  -10.8547E-03,  -895.400E-06,   229.431E-06
C:/temp/dataset/7/14_7.odb,Step-1,Increment      1: Step Time =    1.000,"PART-1-1",           519,       9.49127,      -18.7202,            0.,NA,NA,"",   54.3924E-03,  -45.0193E-03,  -30.5254E-03,   3.16661E-03
C:/temp/dataset/7/14_7.odb,Step-1,Increment      1: Step Time =    1.000,"PART-1-1",           520,       8.36047,      -17.5836,            0.,NA,NA,"",   73.6946E-03,  -57.7258E-03,  -45.8108E-03,   4.34298E-03
C:/temp/dataset/7/14_7.odb,Step-1,Increment      1: Step Time =    1.000,"PART-1-1",           521,       11.5260,      -20.5498,            0.,NA,NA,"",   29.6514E-03,  -28.1608E-03,  -9.28301E-03,   1.12409E-03
C:/temp/dataset/7/14_7.odb,Step-1,Increment      1: Step Time =    1.000,"PART-1-1",           522,       10.5221,      -19.7870,            0.,NA,NA,"",   39.4178E-03,  -34.7394E-03,  -18.6264E-03,   2.12018E-03
C:/temp/dataset/7/14_7.odb,Step-1,Increment      1: Step Time =    1.000,"PART-1-1",           523,       11.0260,      -21.8608,            0.,NA,NA,"",   22.6208E-03,  -19.6071E-03,  -11.2811E-03,   1.65483E-03
C:/temp/dataset/7/14_7.odb,Step-1,Increment      1: Step Time =    1.000,"PART-1-1",           524,       7.98010,      -10.7619,            0.,NA,NA,"",   170.184E-03,  -150.177E-03,  -80.0592E-03,   4.91930E-03
C:/temp/dataset/7/14_7.odb,Step-1,Increment      1: Step Time =    1.000,"PART-1-1",           525,       8.65118,      -4.78401,            0.,NA,NA,"",   284.127E-03,  -268.774E-03,  -92.1324E-03,   4.23997E-03
C:/temp/dataset/7/14_7.odb,Step-1,Increment      1: Step Time =    1.000,"PART-1-1",           526,       7.84665,      -3.50518,            0.,NA,NA,"",   323.058E-03,  -300.892E-03,  -117.603E-03,   5.25034E-03
C:/temp/dataset/7/14_7.odb,Step-1,Increment      1: Step Time =    1.000,"PART-1-1",           527,       9.43586,      -6.49799,            0.,NA,NA,"",   239.246E-03,  -229.370E-03,  -68.0287E-03,   3.28315E-03
C:/temp/dataset/7/14_7.odb,Step-1,Increment      1: Step Time =    1.000,"PART-1-1",           528,       10.6293,      -5.79077,            0.,NA,NA,"",   247.540E-03,  -243.732E-03,  -43.2499E-03,   1.84943E-03
C:/temp/dataset/7/14_7.odb,Step-1,Increment      1: Step Time =    1.000,"PART-1-1",           529,       11.1144,       3.95682,            0.,NA,NA,"",   515.594E-03,  -513.487E-03,  -46.5699E-03,   1.16387E-03
C:/temp/dataset/7/14_7.odb,Step-1,Increment      1: Step Time =    1.000,"PART-1-1",           530,       10.1270,       5.17226,            0.,NA,NA,"",   561.184E-03,  -554.996E-03,  -83.1031E-03,   2.43607E-03
C:/temp/dataset/7/14_7.odb,Step-1,Increment      1: Step Time =    1.000,"PART-1-1",           531,       9.05317,       10.7826,            0.,NA,NA,"",   782.255E-03,  -768.847E-03,  -144.213E-03,   3.86779E-03
C:/temp/dataset/7/14_7.odb,Step-1,Increment      1: Step Time =    1.000,"PART-1-1",           532,       8.01195,       11.8024,            0.,NA,NA,"",   835.444E-03,  -812.764E-03,  -193.341E-03,   5.27039E-03
C:/temp/dataset/7/14_7.odb,Step-1,Increment      1: Step Time =    1.000,"PART-1-1",           533,       11.0241,       10.9595,            0.,NA,NA,"",   778.192E-03,  -775.686E-03,  -62.4021E-03,   1.23113E-03
C:/temp/dataset/7/14_7.odb,Step-1,Increment      1: Step Time =    1.000,"PART-1-1",           534,       8.35051,       17.3209,            0.,NA,NA,"",       1.08509,      -1.06501,  -207.812E-03,   4.47881E-03
C:/temp/dataset/7/14_7.odb,Step-1,Increment      1: Step Time =    1.000,"PART-1-1",           535,       12.5952,       19.1415,            0.,NA,NA,"",       1.16123,      -1.16123,   1.00839E-03,   1.07038E-03
C:/temp/dataset/7/14_7.odb,Step-1,Increment      1: Step Time =    1.000,"PART-1-1",           536,           15.,         18.75,            0.,NA,NA,"",       1.15317,      -1.14649,   123.936E-03,   3.64495E-03
C:/temp/dataset/7/14_7.odb,Step-1,Increment      1: Step Time =    1.000,"PART-1-1",           537,      -7.03326,       22.4462,            0.,NA,NA,"",       1.73329,      -1.32351,      -1.11921,   66.0701E-06
C:/temp/dataset/7/14_7.odb,Step-1,Increment      1: Step Time =    1.000,"PART-1-1",           538,      -8.48458,       21.3302,            0.,NA,NA,"",       1.73824,      -1.25775,      -1.19980,   14.8156E-06
C:/temp/dataset/7/14_7.odb,Step-1,Increment      1: Step Time =    1.000,"PART-1-1",           539,      -6.65000,           20.,            0.,NA,NA,"",       1.61254,      -1.18513,      -1.09350,   54.5337E-06
C:/temp/dataset/7/14_7.odb,Step-1,Increment      1: Step Time =    1.000,"PART-1-1",           540,      -5.19869,       21.1160,            0.,NA,NA,"",       1.60953,      -1.25081,      -1.01294,   82.4302E-06
C:/temp/dataset/7/14_7.odb,Step-1,Increment      1: Step Time =    1.000,"PART-1-1",           541,       9.42603,       26.6587,            0.,NA,NA,"",       1.58657,      -1.57529,  -188.849E-03,   1.58175E-03
C:/temp/dataset/7/14_7.odb,Step-1,Increment      1: Step Time =    1.000,"PART-1-1",           542,       10.3720,       25.4897,            0.,NA,NA,"",       1.51499,      -1.50930,  -131.168E-03,   1.39656E-03
C:/temp/dataset/7/14_7.odb,Step-1,Increment      1: Step Time =    1.000,"PART-1-1",           543,       6.87457,       25.7626,            0.,NA,NA,"",       1.56106,      -1.52493,  -333.951E-03,   4.71784E-03
C:/temp/dataset/7/14_7.odb,Step-1,Increment      1: Step Time =    1.000,"PART-1-1",           544,       7.54675,       26.7337,            0.,NA,NA,"",       1.60735,      -1.57915,  -299.756E-03,   4.34641E-03
C:/temp/dataset/7/14_7.odb,Step-1,Increment      1: Step Time =    1.000,"PART-1-1",           545,      -3.17643,       25.4018,            0.,NA,NA,"",       1.75014,      -1.49814,  -904.745E-03,   245.648E-06
C:/temp/dataset/7/14_7.odb,Step-1,Increment      1: Step Time =    1.000,"PART-1-1",           546,      -4.35024,       25.6599,            0.,NA,NA,"",       1.79628,      -1.51070,  -971.806E-03,   172.051E-06
C:/temp/dataset/7/14_7.odb,Step-1,Increment      1: Step Time =    1.000,"PART-1-1",           547,       4.01884,       22.4610,            0.,NA,NA,"",       1.42596,      -1.34189,  -482.365E-03,   3.92551E-03
C:/temp/dataset/7/14_7.odb,Step-1,Increment      1: Step Time =    1.000,"PART-1-1",           548,       5.32127,       23.1739,            0.,NA,NA,"",       1.44049,      -1.38117,  -409.133E-03,   5.22033E-03
C:/temp/dataset/7/14_7.odb,Step-1,Increment      1: Step Time =    1.000,"PART-1-1",           549,       11.1447,       22.1526,            0.,NA,NA,"",       1.32410,      -1.32171,  -79.5720E-03,   1.49169E-03
C:/temp/dataset/7/14_7.odb,Step-1,Increment      1: Step Time =    1.000,"PART-1-1",           550,       10.2813,       23.3249,            0.,NA,NA,"",       1.39258,      -1.38653,  -129.698E-03,   2.04660E-03
C:/temp/dataset/7/14_7.odb,Step-1,Increment      1: Step Time =    1.000,"PART-1-1",           551,       6.15508,       21.9496,            0.,NA,NA,"",       1.35784,      -1.31126,  -352.620E-03,   5.94303E-03
C:/temp/dataset/7/14_7.odb,Step-1,Increment      1: Step Time =    1.000,"PART-1-1",           552,       6.48612,       23.9825,            0.,NA,NA,"",       1.46674,      -1.42530,  -346.181E-03,   4.87244E-03
C:/temp/dataset/7/14_7.odb,Step-1,Increment      1: Step Time =    1.000,"PART-1-1",           553,   6.30745E-03,       24.2683,            0.,NA,NA,"",       1.61056,      -1.43958,  -722.150E-03,   339.378E-06
C:/temp/dataset/7/14_7.odb,Step-1,Increment      1: Step Time =    1.000,"PART-1-1",           554,      -1.65981,       23.6471,            0.,NA,NA,"",       1.62138,      -1.40107,  -816.021E-03,   271.427E-06
C:/temp/dataset/7/14_7.odb,Step-1,Increment      1: Step Time =    1.000,"PART-1-1",           555,      -1.07768,       22.4355,            0.,NA,NA,"",       1.54465,      -1.33270,  -780.934E-03,   274.313E-06
C:/temp/dataset/7/14_7.odb,Step-1,Increment      1: Step Time =    1.000,"PART-1-1",           556,   588.432E-03,       23.0567,            0.,NA,NA,"",       1.53351,      -1.37120,  -686.636E-03,   325.342E-06
C:/temp/dataset/7/14_7.odb,Step-1,Increment      1: Step Time =    1.000,"PART-1-1",           557,      -4.82218,       24.5397,            0.,NA,NA,"",       1.75657,      -1.44626,  -996.941E-03,   167.873E-06
C:/temp/dataset/7/14_7.odb,Step-1,Increment      1: Step Time =    1.000,"PART-1-1",           558,      -3.09511,       23.7242,            0.,NA,NA,"",       1.66550,      -1.40288,  -897.672E-03,   232.150E-06
C:/temp/dataset/7/14_7.odb,Step-1,Increment      1: Step Time =    1.000,"PART-1-1",           559,      -5.58708,       23.2486,            0.,NA,NA,"",       1.72026,      -1.37151,      -1.03839,   108.026E-06
C:/temp/dataset/7/14_7.odb,Step-1,Increment      1: Step Time =    1.000,"PART-1-1",           560,       8.76337,      -9.49006,            0.,NA,NA,"",   185.301E-03,  -171.055E-03,  -71.2525E-03,   4.04778E-03
C:/temp/dataset/7/14_7.odb,Step-1,Increment      1: Step Time =    1.000,"PART-1-1",           561,       9.72759,      -26.4759,            0.,NA,NA,"",   7.96313E-03,  -1.67936E-03,  -7.78403E-03,   2.86934E-03
C:/temp/dataset/7/14_7.odb,Step-1,Increment      1: Step Time =    1.000,"PART-1-1",           562,       9.12173,       6.33780,            0.,NA,NA,"",   609.476E-03,  -596.940E-03,  -122.978E-03,   3.75277E-03
C:/temp/dataset/7/14_7.odb,Step-1,Increment      1: Step Time =    1.000,"PART-1-1",           563,       11.1214,       6.29882,            0.,NA,NA,"",   596.793E-03,  -594.684E-03,  -50.1326E-03,   1.13710E-03
C:/temp/dataset/7/14_7.odb,Step-1,Increment      1: Step Time =    1.000,"PART-1-1",           564,       11.1740,      -13.7880,            0.,NA,NA,"",   101.847E-03,  -99.7176E-03,  -20.7188E-03,   1.33002E-03
C:/temp/dataset/7/14_7.odb,Step-1,Increment      1: Step Time =    1.000,"PART-1-1",           565,       10.6612,      -8.65022,            0.,NA,NA,"",   188.328E-03,  -184.604E-03,  -37.2684E-03,   1.84188E-03
C:/temp/dataset/7/14_7.odb,Step-1,Increment      1: Step Time =    1.000,"PART-1-1",           566,       9.47894,      -7.81405,            0.,NA,NA,"",   211.656E-03,  -202.062E-03,  -63.0029E-03,   3.21298E-03
C:/temp/dataset/7/14_7.odb,Step-1,Increment      1: Step Time =    1.000,"PART-1-1",           567,       11.3640,      -18.5194,            0.,NA,NA,"",   46.9046E-03,  -45.1104E-03,  -12.8488E-03,   1.23131E-03
C:/temp/dataset/7/14_7.odb,Step-1,Increment      1: Step Time =    1.000,"PART-1-1",           568,       12.0025,       20.7886,            0.,NA,NA,"",       1.24838,      -1.24798,  -31.4082E-03,   1.07625E-03
C:/temp/dataset/7/14_7.odb,Step-1,Increment      1: Step Time =    1.000,"PART-1-1",           569,       11.4947,       18.6594,            0.,NA,NA,"",       1.13578,      -1.13448,  -54.3660E-03,   834.441E-06
C:/temp/dataset/7/14_7.odb,Step-1,Increment      1: Step Time =    1.000,"PART-1-1",           570,       9.39315,       18.1618,            0.,NA,NA,"",       1.11847,      -1.10711,  -159.063E-03,   2.67036E-03
C:/temp/dataset/7/14_7.odb,Step-1,Increment      1: Step Time =    1.000,"PART-1-1",           571,       10.9214,       17.4088,            0.,NA,NA,"",       1.07331,      -1.07028,  -80.6790E-03,   1.12130E-03
C:/temp/dataset/7/14_7.odb,Step-1,Increment      1: Step Time =    1.000,"PART-1-1",           572,      -9.97500,           20.,            0.,NA,NA,"",       1.74247,      -1.17981,      -1.28229,   3.49247E-06
C:/temp/dataset/7/14_7.odb,Step-1,Increment      1: Step Time =    1.000,"PART-1-1",           573,       11.9818,      -2.09472,            0.,NA,NA,"",   333.588E-03,  -333.280E-03,  -14.3272E-03,   218.048E-06
C:/temp/dataset/7/14_7.odb,Step-1,Increment      1: Step Time =    1.000,"PART-1-1",           574,       12.0426,   313.093E-03,            0.,NA,NA,"",   400.304E-03,  -400.069E-03,  -13.7066E-03,   156.870E-06
C:/temp/dataset/7/14_7.odb,Step-1,Increment      1: Step Time =    1.000,"PART-1-1",           575,       12.1686,      -14.9632,            0.,NA,NA,"",   84.1081E-03,  -83.8798E-03,  -6.19335E-03,   332.435E-06
C:/temp/dataset/7/14_7.odb,Step-1,Increment      1: Step Time =    1.000,"PART-1-1",           576,       12.0880,      -12.5178,            0.,NA,NA,"",   118.197E-03,  -117.918E-03,  -8.11041E-03,   339.167E-06
C:/temp/dataset/7/14_7.odb,Step-1,Increment      1: Step Time =    1.000,"PART-1-1",           577,       12.0767,       2.70437,            0.,NA,NA,"",   473.177E-03,  -472.979E-03,  -13.7001E-03,   159.400E-06
C:/temp/dataset/7/14_7.odb,Step-1,Increment      1: Step Time =    1.000,"PART-1-1",           578,       11.6617,       14.7036,            0.,NA,NA,"",   941.693E-03,  -940.823E-03,  -40.4793E-03,   314.884E-06
C:/temp/dataset/7/14_7.odb,Step-1,Increment      1: Step Time =    1.000,"PART-1-1",           579,       11.9561,       12.2406,            0.,NA,NA,"",   831.075E-03,  -830.713E-03,  -24.5071E-03,   85.6887E-06
C:/temp/dataset/7/14_7.odb,Step-1,Increment      1: Step Time =    1.000,"PART-1-1",           580,       12.3155,      -19.7087,            0.,NA,NA,"",   34.6495E-03,  -34.4868E-03,  -3.35360E-03,   330.639E-06
C:/temp/dataset/7/14_7.odb,Step-1,Increment      1: Step Time =    1.000,"PART-1-1",           581,       12.3404,      -21.7879,            0.,NA,NA,"",   19.6777E-03,  -19.5045E-03,  -2.60450E-03,   368.181E-06
C:/temp/dataset/7/14_7.odb,Step-1,Increment      1: Step Time =    1.000,"PART-1-1",           582,       12.2327,      -17.3977,            0.,NA,NA,"",   56.0584E-03,  -55.8565E-03,  -4.75310E-03,   342.022E-06
C:/temp/dataset/7/14_7.odb,Step-1,Increment      1: Step Time =    1.000,"PART-1-1",           583,       12.1020,       5.09402,            0.,NA,NA,"",   552.668E-03,  -552.492E-03,  -13.9436E-03,   191.854E-06
C:/temp/dataset/7/14_7.odb,Step-1,Increment      1: Step Time =    1.000,"PART-1-1",           584,       12.0630,       9.85139,            0.,NA,NA,"",   731.114E-03,  -730.889E-03,  -18.1315E-03,   182.343E-06
C:/temp/dataset/7/14_7.odb,Step-1,Increment      1: Step Time =    1.000,"PART-1-1",           585,       12.0921,       7.47372,            0.,NA,NA,"",   638.543E-03,  -638.354E-03,  -15.5255E-03,   199.070E-06
C:/temp/dataset/7/14_7.odb,Step-1,Increment      1: Step Time =    1.000,"PART-1-1",           586,       11.9146,      -10.0225,            0.,NA,NA,"",   159.379E-03,  -158.921E-03,  -12.0703E-03,   440.661E-06
C:/temp/dataset/7/14_7.odb,Step-1,Increment      1: Step Time =    1.000,"PART-1-1",           587,       11.5993,      -7.26023,            0.,NA,NA,"",   212.870E-03,  -211.921E-03,  -20.0760E-03,   729.846E-06
C:/temp/dataset/7/14_7.odb,Step-1,Increment      1: Step Time =    1.000,"PART-1-1",           588,       11.8707,      -4.56496,            0.,NA,NA,"",   272.015E-03,  -271.552E-03,  -15.8648E-03,   371.604E-06
C:/temp/dataset/7/14_7.odb,Step-1,Increment      1: Step Time =    1.000,"PART-1-1",           589,      -3.86001,       22.4330,            0.,NA,NA,"",       1.62646,      -1.32794,  -939.118E-03,   219.183E-06
C:/temp/dataset/7/14_7.odb,Step-1,Increment      1: Step Time =    1.000,"PART-1-1",           590,       3.35000,           20.,            0.,NA,NA,"",       1.30430,      -1.19739,  -517.156E-03,   2.48033E-03
C:/temp/dataset/7/14_7.odb,Step-1,Increment      1: Step Time =    1.000,"PART-1-1",           591,       5.05511,       21.0689,            0.,NA,NA,"",       1.32853,      -1.26332,  -411.106E-03,   6.67345E-03
C:/temp/dataset/7/14_7.odb,Step-1,Increment      1: Step Time =    1.000,"PART-1-1",           592,       2.31373,       21.3921,            0.,NA,NA,"",       1.40449,      -1.27801,  -582.498E-03,   851.774E-06
C:/temp/dataset/7/14_7.odb,Step-1,Increment      1: Step Time =    1.000,"PART-1-1",           593,      -1.98632,       21.3170,            0.,NA,NA,"",       1.51520,      -1.26708,  -830.870E-03,   279.757E-06
C:/temp/dataset/7/14_7.odb,Step-1,Increment      1: Step Time =    1.000,"PART-1-1",           594,   25.0000E-03,           20.,            0.,NA,NA,"",       1.39085,      -1.19390,  -713.503E-03,   890.268E-06
C:/temp/dataset/7/14_7.odb,Step-1,Increment      1: Step Time =    1.000,"PART-1-1",           595,   933.640E-03,       21.1186,            0.,NA,NA,"",       1.42379,      -1.25993,  -663.139E-03,   275.232E-06
C:/temp/dataset/7/14_7.odb,Step-1,Increment      1: Step Time =    1.000,"PART-1-1",           596,       7.16521,       20.7144,            0.,NA,NA,"",       1.27391,      -1.24098,  -287.814E-03,   5.15580E-03
C:/temp/dataset/7/14_7.odb,Step-1,Increment      1: Step Time =    1.000,"PART-1-1",           597,       8.15837,       19.5039,            0.,NA,NA,"",       1.19806,      -1.17611,  -228.255E-03,   3.71823E-03
C:/temp/dataset/7/14_7.odb,Step-1,Increment      1: Step Time =    1.000,"PART-1-1",           598,      -3.32500,           20.,            0.,NA,NA,"",       1.49498,      -1.19016,  -904.692E-03,   250.214E-06
