ODB Name,Step,Frame,Part Instance Name,    êﬂì_ÉâÉxÉã,X,Y,Z,Section Name,Material Name,Section Point,   U-Magnitude,          U-U1,          U-U2,       S-Mises
C:/temp/dataset/7/16_10.odb,Step-1,Increment      1: Step Time =    1.000,"PART-1-1",             1,          -15.,           20.,            0.,NA,NA,"",       1.43113,   964.367E-03,       1.05741,   155.423E-09
C:/temp/dataset/7/16_10.odb,Step-1,Increment      1: Step Time =    1.000,"PART-1-1",             2,          -15.,           25.,            0.,NA,NA,"",       1.60665,       1.21510,       1.05112,   415.624E-09
C:/temp/dataset/7/16_10.odb,Step-1,Increment      1: Step Time =    1.000,"PART-1-1",             3,      -11.6500,           20.,            0.,NA,NA,"",       1.30880,   960.152E-03,   889.419E-03,   558.611E-09
C:/temp/dataset/7/16_10.odb,Step-1,Increment      1: Step Time =    1.000,"PART-1-1",             4,      -8.30000,           20.,            0.,NA,NA,"",       1.19761,   955.932E-03,   721.432E-03,   3.92378E-06
C:/temp/dataset/7/16_10.odb,Step-1,Increment      1: Step Time =    1.000,"PART-1-1",             5,           -5.,           20.,            0.,NA,NA,"",       1.10222,   951.747E-03,   555.938E-03,   21.1507E-06
C:/temp/dataset/7/16_10.odb,Step-1,Increment      1: Step Time =    1.000,"PART-1-1",             6,      -1.65000,           20.,            0.,NA,NA,"",       1.02376,   947.451E-03,   387.838E-03,   39.5096E-06
C:/temp/dataset/7/16_10.odb,Step-1,Increment      1: Step Time =    1.000,"PART-1-1",             7,       1.70000,           20.,            0.,NA,NA,"",   968.094E-03,   942.967E-03,   219.134E-03,   518.384E-06
C:/temp/dataset/7/16_10.odb,Step-1,Increment      1: Step Time =    1.000,"PART-1-1",             8,            5.,           20.,            0.,NA,NA,"",   942.260E-03,   940.946E-03,   49.7387E-03,   3.52069E-03
C:/temp/dataset/7/16_10.odb,Step-1,Increment      1: Step Time =    1.000,"PART-1-1",             9,            5.,         13.75,            0.,NA,NA,"",   684.147E-03,   683.212E-03,   35.7513E-03,   2.89820E-03
C:/temp/dataset/7/16_10.odb,Step-1,Increment      1: Step Time =    1.000,"PART-1-1",            10,            5.,           7.5,            0.,NA,NA,"",   470.732E-03,   470.112E-03,   24.1377E-03,   2.54024E-03
C:/temp/dataset/7/16_10.odb,Step-1,Increment      1: Step Time =    1.000,"PART-1-1",            11,            5.,          1.25,            0.,NA,NA,"",   301.693E-03,   301.398E-03,   13.3368E-03,   2.10047E-03
C:/temp/dataset/7/16_10.odb,Step-1,Increment      1: Step Time =    1.000,"PART-1-1",            12,            5.,           -5.,            0.,NA,NA,"",   174.073E-03,   174.020E-03,   4.29009E-03,   1.57022E-03
C:/temp/dataset/7/16_10.odb,Step-1,Increment      1: Step Time =    1.000,"PART-1-1",            13,            5.,        -11.25,            0.,NA,NA,"",   84.2250E-03,   84.1970E-03,  -2.17108E-03,   953.093E-06
C:/temp/dataset/7/16_10.odb,Step-1,Increment      1: Step Time =    1.000,"PART-1-1",            14,            5.,         -17.5,            0.,NA,NA,"",   28.0260E-03,   27.5115E-03,  -5.34547E-03,   268.222E-06
C:/temp/dataset/7/16_10.odb,Step-1,Increment      1: Step Time =    1.000,"PART-1-1",            15,            5.,        -23.75,            0.,NA,NA,"",   5.10527E-03,  -865.794E-06,  -5.03132E-03,   303.870E-06
C:/temp/dataset/7/16_10.odb,Step-1,Increment      1: Step Time =    1.000,"PART-1-1",            16,            5.,          -30.,            0.,NA,NA,"",            0.,  -1.03342E-39,  -1.62043E-39,   3.34236E-03
C:/temp/dataset/7/16_10.odb,Step-1,Increment      1: Step Time =    1.000,"PART-1-1",            17,           15.,          -30.,            0.,NA,NA,"",            0.,   2.32181E-39,  -4.08572E-39,   7.74660E-03
C:/temp/dataset/7/16_10.odb,Step-1,Increment      1: Step Time =    1.000,"PART-1-1",            18,           15.,         -22.5,            0.,NA,NA,"",   47.4016E-03,   19.6863E-03,  -43.1203E-03,   7.04338E-03
C:/temp/dataset/7/16_10.odb,Step-1,Increment      1: Step Time =    1.000,"PART-1-1",            19,           15.,          -15.,            0.,NA,NA,"",   113.299E-03,   62.9432E-03,  -94.2060E-03,   8.02466E-03
C:/temp/dataset/7/16_10.odb,Step-1,Increment      1: Step Time =    1.000,"PART-1-1",            20,           15.,          -7.5,            0.,NA,NA,"",   212.797E-03,   149.442E-03,  -151.491E-03,   8.80771E-03
C:/temp/dataset/7/16_10.odb,Step-1,Increment      1: Step Time =    1.000,"PART-1-1",            21,           15.,            0.,            0.,NA,NA,"",   358.231E-03,   286.954E-03,  -214.446E-03,   9.47802E-03
C:/temp/dataset/7/16_10.odb,Step-1,Increment      1: Step Time =    1.000,"PART-1-1",            22,           15.,           7.5,            0.,NA,NA,"",   558.968E-03,   482.163E-03,  -282.780E-03,   10.0183E-03
C:/temp/dataset/7/16_10.odb,Step-1,Increment      1: Step Time =    1.000,"PART-1-1",            23,           15.,           15.,            0.,NA,NA,"",   821.796E-03,   740.576E-03,  -356.225E-03,   10.3913E-03
C:/temp/dataset/7/16_10.odb,Step-1,Increment      1: Step Time =    1.000,"PART-1-1",            24,           15.,          22.5,            0.,NA,NA,"",       1.15029,       1.06558,  -433.248E-03,   10.3665E-03
C:/temp/dataset/7/16_10.odb,Step-1,Increment      1: Step Time =    1.000,"PART-1-1",            25,           15.,           30.,            0.,NA,NA,"",       1.54480,       1.45606,  -516.034E-03,   9.85793E-03
C:/temp/dataset/7/16_10.odb,Step-1,Increment      1: Step Time =    1.000,"PART-1-1",            26,         11.25,           30.,            0.,NA,NA,"",       1.48062,       1.45071,  -296.096E-03,   6.51413E-03
C:/temp/dataset/7/16_10.odb,Step-1,Increment      1: Step Time =    1.000,"PART-1-1",            27,           7.5,           30.,            0.,NA,NA,"",       1.44503,       1.44263,  -83.2357E-03,   2.47659E-03
C:/temp/dataset/7/16_10.odb,Step-1,Increment      1: Step Time =    1.000,"PART-1-1",            28,          3.75,           30.,            0.,NA,NA,"",       1.44663,       1.44276,   105.778E-03,   498.387E-06
C:/temp/dataset/7/16_10.odb,Step-1,Increment      1: Step Time =    1.000,"PART-1-1",            29,            0.,           30.,            0.,NA,NA,"",       1.47619,       1.44683,   292.934E-03,   17.0589E-06
C:/temp/dataset/7/16_10.odb,Step-1,Increment      1: Step Time =    1.000,"PART-1-1",            30,         -3.75,           30.,            0.,NA,NA,"",       1.52914,       1.45162,   480.704E-03,   25.4962E-06
C:/temp/dataset/7/16_10.odb,Step-1,Increment      1: Step Time =    1.000,"PART-1-1",            31,          -7.5,           30.,            0.,NA,NA,"",       1.60258,       1.45639,   668.720E-03,   7.12040E-06
C:/temp/dataset/7/16_10.odb,Step-1,Increment      1: Step Time =    1.000,"PART-1-1",            32,        -11.25,           30.,            0.,NA,NA,"",       1.69379,       1.46112,   856.774E-03,   883.374E-09
C:/temp/dataset/7/16_10.odb,Step-1,Increment      1: Step Time =    1.000,"PART-1-1",            33,          -15.,           30.,            0.,NA,NA,"",       1.80009,       1.46584,       1.04483,   45.8418E-09
C:/temp/dataset/7/16_10.odb,Step-1,Increment      1: Step Time =    1.000,"PART-1-1",            34,          -15.,          22.5,            0.,NA,NA,"",       1.51624,       1.08973,       1.05426,   158.233E-09
C:/temp/dataset/7/16_10.odb,Step-1,Increment      1: Step Time =    1.000,"PART-1-1",            35,            5.,       15.8333,            0.,NA,NA,"",   765.462E-03,   764.432E-03,   39.6867E-03,   2.94642E-03
C:/temp/dataset/7/16_10.odb,Step-1,Increment      1: Step Time =    1.000,"PART-1-1",            36,            5.,       17.9167,            0.,NA,NA,"",   851.691E-03,   850.578E-03,   43.5284E-03,   3.44640E-03
C:/temp/dataset/7/16_10.odb,Step-1,Increment      1: Step Time =    1.000,"PART-1-1",            37,            5.,       9.58333,            0.,NA,NA,"",   536.821E-03,   536.092E-03,   27.9676E-03,   2.66419E-03
C:/temp/dataset/7/16_10.odb,Step-1,Increment      1: Step Time =    1.000,"PART-1-1",            38,            5.,       11.6667,            0.,NA,NA,"",   607.935E-03,   607.100E-03,   31.8500E-03,   2.77104E-03
C:/temp/dataset/7/16_10.odb,Step-1,Increment      1: Step Time =    1.000,"PART-1-1",            39,            5.,       3.33333,            0.,NA,NA,"",   353.274E-03,   352.875E-03,   16.7861E-03,   2.25840E-03
C:/temp/dataset/7/16_10.odb,Step-1,Increment      1: Step Time =    1.000,"PART-1-1",            40,            5.,       5.41667,            0.,NA,NA,"",   409.583E-03,   409.075E-03,   20.3982E-03,   2.40526E-03
C:/temp/dataset/7/16_10.odb,Step-1,Increment      1: Step Time =    1.000,"PART-1-1",            41,            5.,      -2.91667,            0.,NA,NA,"",   212.225E-03,   212.108E-03,   7.05824E-03,   1.75387E-03
C:/temp/dataset/7/16_10.odb,Step-1,Increment      1: Step Time =    1.000,"PART-1-1",            42,            5.,  -833.333E-03,            0.,NA,NA,"",   254.720E-03,   254.520E-03,   10.0831E-03,   1.93269E-03
C:/temp/dataset/7/16_10.odb,Step-1,Increment      1: Step Time =    1.000,"PART-1-1",            43,            5.,      -9.16667,            0.,NA,NA,"",   110.226E-03,   110.225E-03,  -349.411E-06,   1.16909E-03
C:/temp/dataset/7/16_10.odb,Step-1,Increment      1: Step Time =    1.000,"PART-1-1",            44,            5.,      -7.08333,            0.,NA,NA,"",   140.126E-03,   140.114E-03,   1.81247E-03,   1.36960E-03
C:/temp/dataset/7/16_10.odb,Step-1,Increment      1: Step Time =    1.000,"PART-1-1",            45,            5.,      -15.4167,            0.,NA,NA,"",   43.2783E-03,   43.0237E-03,  -4.68828E-03,   500.151E-06
C:/temp/dataset/7/16_10.odb,Step-1,Increment      1: Step Time =    1.000,"PART-1-1",            46,            5.,      -13.3333,            0.,NA,NA,"",   61.9622E-03,   61.8561E-03,  -3.62364E-03,   730.854E-06
C:/temp/dataset/7/16_10.odb,Step-1,Increment      1: Step Time =    1.000,"PART-1-1",            47,            5.,      -21.6667,            0.,NA,NA,"",   7.90526E-03,   5.69569E-03,  -5.48200E-03,   143.575E-06
C:/temp/dataset/7/16_10.odb,Step-1,Increment      1: Step Time =    1.000,"PART-1-1",            48,            5.,      -19.5833,            0.,NA,NA,"",   16.1333E-03,   15.1277E-03,  -5.60675E-03,   44.3770E-06
C:/temp/dataset/7/16_10.odb,Step-1,Increment      1: Step Time =    1.000,"PART-1-1",            49,            5.,      -27.9167,            0.,NA,NA,"",   5.75164E-03,  -4.59587E-03,  -3.45823E-03,   1.01763E-03
C:/temp/dataset/7/16_10.odb,Step-1,Increment      1: Step Time =    1.000,"PART-1-1",            50,            5.,      -25.8333,            0.,NA,NA,"",   6.24290E-03,  -4.46395E-03,  -4.36428E-03,   398.175E-06
C:/temp/dataset/7/16_10.odb,Step-1,Increment      1: Step Time =    1.000,"PART-1-1",            51,          12.5,          -30.,            0.,NA,NA,"",            0.,   6.74719E-39,  -15.0585E-39,   3.79124E-03
C:/temp/dataset/7/16_10.odb,Step-1,Increment      1: Step Time =    1.000,"PART-1-1",            52,           10.,          -30.,            0.,NA,NA,"",            0.,  -5.80644E-39,  -12.4230E-39,   3.15841E-03
C:/temp/dataset/7/16_10.odb,Step-1,Increment      1: Step Time =    1.000,"PART-1-1",            53,           7.5,          -30.,            0.,NA,NA,"",            0.,  -2.00326E-39,  -5.00292E-39,   2.17352E-03
C:/temp/dataset/7/16_10.odb,Step-1,Increment      1: Step Time =    1.000,"PART-1-1",            54,           15.,          -25.,            0.,NA,NA,"",   30.8230E-03,   12.9806E-03,  -27.9564E-03,   6.48205E-03
C:/temp/dataset/7/16_10.odb,Step-1,Increment      1: Step Time =    1.000,"PART-1-1",            55,           15.,         -27.5,            0.,NA,NA,"",   16.4791E-03,   8.38776E-03,  -14.1847E-03,   6.31732E-03
C:/temp/dataset/7/16_10.odb,Step-1,Increment      1: Step Time =    1.000,"PART-1-1",            56,           15.,         -17.5,            0.,NA,NA,"",   88.2613E-03,   44.1370E-03,  -76.4328E-03,   7.73589E-03
C:/temp/dataset/7/16_10.odb,Step-1,Increment      1: Step Time =    1.000,"PART-1-1",            57,           15.,          -20.,            0.,NA,NA,"",   66.4554E-03,   29.8329E-03,  -59.3828E-03,   7.40742E-03
C:/temp/dataset/7/16_10.odb,Step-1,Increment      1: Step Time =    1.000,"PART-1-1",            58,           15.,          -10.,            0.,NA,NA,"",   175.079E-03,   115.302E-03,  -131.750E-03,   8.55952E-03
C:/temp/dataset/7/16_10.odb,Step-1,Increment      1: Step Time =    1.000,"PART-1-1",            59,           15.,         -12.5,            0.,NA,NA,"",   142.070E-03,   86.5664E-03,  -112.650E-03,   8.29790E-03
C:/temp/dataset/7/16_10.odb,Step-1,Increment      1: Step Time =    1.000,"PART-1-1",            60,           15.,          -2.5,            0.,NA,NA,"",   304.008E-03,   235.010E-03,  -192.850E-03,   9.26918E-03
C:/temp/dataset/7/16_10.odb,Step-1,Increment      1: Step Time =    1.000,"PART-1-1",            61,           15.,           -5.,            0.,NA,NA,"",   255.644E-03,   189.256E-03,  -171.860E-03,   9.04636E-03
C:/temp/dataset/7/16_10.odb,Step-1,Increment      1: Step Time =    1.000,"PART-1-1",            62,           15.,            5.,            0.,NA,NA,"",   485.451E-03,   410.321E-03,  -259.421E-03,   9.85247E-03
C:/temp/dataset/7/16_10.odb,Step-1,Increment      1: Step Time =    1.000,"PART-1-1",            63,           15.,           2.5,            0.,NA,NA,"",   418.621E-03,   345.318E-03,  -236.641E-03,   9.67246E-03
C:/temp/dataset/7/16_10.odb,Step-1,Increment      1: Step Time =    1.000,"PART-1-1",            64,           15.,          12.5,            0.,NA,NA,"",   726.941E-03,   647.108E-03,  -331.200E-03,   10.3034E-03
C:/temp/dataset/7/16_10.odb,Step-1,Increment      1: Step Time =    1.000,"PART-1-1",            65,           15.,           10.,            0.,NA,NA,"",   639.396E-03,   561.032E-03,  -306.710E-03,   10.1690E-03
C:/temp/dataset/7/16_10.odb,Step-1,Increment      1: Step Time =    1.000,"PART-1-1",            66,           15.,           20.,            0.,NA,NA,"",       1.03367,   950.023E-03,  -407.356E-03,   10.3409E-03
C:/temp/dataset/7/16_10.odb,Step-1,Increment      1: Step Time =    1.000,"PART-1-1",            67,           15.,          17.5,            0.,NA,NA,"",   924.064E-03,   841.558E-03,  -381.673E-03,   10.3982E-03
C:/temp/dataset/7/16_10.odb,Step-1,Increment      1: Step Time =    1.000,"PART-1-1",            68,           15.,          27.5,            0.,NA,NA,"",       1.40593,       1.31835,  -488.465E-03,   11.2260E-03
C:/temp/dataset/7/16_10.odb,Step-1,Increment      1: Step Time =    1.000,"PART-1-1",            69,           15.,           25.,            0.,NA,NA,"",       1.27392,       1.18797,  -459.987E-03,   10.9228E-03
C:/temp/dataset/7/16_10.odb,Step-1,Increment      1: Step Time =    1.000,"PART-1-1",            70,        13.125,           30.,            0.,NA,NA,"",       1.50807,       1.45098,  -411.002E-03,   10.4818E-03
C:/temp/dataset/7/16_10.odb,Step-1,Increment      1: Step Time =    1.000,"PART-1-1",            71,         9.375,           30.,            0.,NA,NA,"",       1.45667,       1.44520,  -182.443E-03,   3.89107E-03
C:/temp/dataset/7/16_10.odb,Step-1,Increment      1: Step Time =    1.000,"PART-1-1",            72,         5.625,           30.,            0.,NA,NA,"",       1.44196,       1.44191,   12.0098E-03,   1.26095E-03
C:/temp/dataset/7/16_10.odb,Step-1,Increment      1: Step Time =    1.000,"PART-1-1",            73,         1.875,           30.,            0.,NA,NA,"",       1.45827,       1.44459,   199.277E-03,   130.914E-06
C:/temp/dataset/7/16_10.odb,Step-1,Increment      1: Step Time =    1.000,"PART-1-1",            74,        -1.875,           30.,            0.,NA,NA,"",       1.49994,       1.44922,   386.764E-03,   21.6115E-06
C:/temp/dataset/7/16_10.odb,Step-1,Increment      1: Step Time =    1.000,"PART-1-1",            75,        -5.625,           30.,            0.,NA,NA,"",       1.56347,       1.45401,   574.701E-03,   14.5260E-06
C:/temp/dataset/7/16_10.odb,Step-1,Increment      1: Step Time =    1.000,"PART-1-1",            76,        -9.375,           30.,            0.,NA,NA,"",       1.64613,       1.45875,   762.747E-03,   2.84565E-06
C:/temp/dataset/7/16_10.odb,Step-1,Increment      1: Step Time =    1.000,"PART-1-1",            77,       -13.125,           30.,            0.,NA,NA,"",       1.74522,       1.46348,   950.801E-03,   126.219E-09
C:/temp/dataset/7/16_10.odb,Step-1,Increment      1: Step Time =    1.000,"PART-1-1",            78,          -15.,          27.5,            0.,NA,NA,"",       1.70150,       1.34047,       1.04797,   158.370E-09
C:/temp/dataset/7/16_10.odb,Step-1,Increment      1: Step Time =    1.000,"PART-1-1",            79,      -7.07467,       28.0475,            0.,NA,NA,"",       1.50543,       1.35795,   649.844E-03,   7.07962E-06
C:/temp/dataset/7/16_10.odb,Step-1,Increment      1: Step Time =    1.000,"PART-1-1",            80,      -10.7971,       27.6072,            0.,NA,NA,"",       1.58044,       1.34056,   837.072E-03,   2.09309E-06
C:/temp/dataset/7/16_10.odb,Step-1,Increment      1: Step Time =    1.000,"PART-1-1",            81,      -3.50976,       28.2242,            0.,NA,NA,"",       1.44140,       1.36232,   470.884E-03,   6.71726E-06
C:/temp/dataset/7/16_10.odb,Step-1,Increment      1: Step Time =    1.000,"PART-1-1",            82,       11.3028,       27.6605,            0.,NA,NA,"",       1.34789,       1.31759,  -284.193E-03,   6.07298E-03
C:/temp/dataset/7/16_10.odb,Step-1,Increment      1: Step Time =    1.000,"PART-1-1",            83,       7.46624,       27.7175,            0.,NA,NA,"",       1.32556,       1.32332,  -77.0784E-03,   1.17065E-03
C:/temp/dataset/7/16_10.odb,Step-1,Increment      1: Step Time =    1.000,"PART-1-1",            84,   523.838E-03,       28.1559,            0.,NA,NA,"",       1.38032,       1.35384,   269.073E-03,   156.597E-06
C:/temp/dataset/7/16_10.odb,Step-1,Increment      1: Step Time =    1.000,"PART-1-1",            85,       13.1724,       27.5829,            0.,NA,NA,"",       1.37307,       1.31675,  -389.237E-03,   9.52713E-03
C:/temp/dataset/7/16_10.odb,Step-1,Increment      1: Step Time =    1.000,"PART-1-1",            86,       9.41586,       27.7284,            0.,NA,NA,"",       1.33347,       1.32143,  -178.777E-03,   1.23299E-03
C:/temp/dataset/7/16_10.odb,Step-1,Increment      1: Step Time =    1.000,"PART-1-1",            87,       5.17501,       27.3177,            0.,NA,NA,"",       1.30609,       1.30553,   38.4823E-03,   1.08012E-03
C:/temp/dataset/7/16_10.odb,Step-1,Increment      1: Step Time =    1.000,"PART-1-1",            88,       1.85763,       28.7412,            0.,NA,NA,"",       1.39627,       1.38162,   201.788E-03,   252.469E-06
C:/temp/dataset/7/16_10.odb,Step-1,Increment      1: Step Time =    1.000,"PART-1-1",            89,      -1.45910,       27.7280,            0.,NA,NA,"",       1.38487,       1.33487,   368.769E-03,   40.9508E-06
C:/temp/dataset/7/16_10.odb,Step-1,Increment      1: Step Time =    1.000,"PART-1-1",            90,      -5.31380,       28.2250,            0.,NA,NA,"",       1.47557,       1.36463,   561.322E-03,   9.28413E-06
C:/temp/dataset/7/16_10.odb,Step-1,Increment      1: Step Time =    1.000,"PART-1-1",            91,      -8.92632,       27.8484,            0.,NA,NA,"",       1.54120,       1.35030,   742.952E-03,   4.08182E-06
C:/temp/dataset/7/16_10.odb,Step-1,Increment      1: Step Time =    1.000,"PART-1-1",            92,       7.03655,   996.185E-03,            0.,NA,NA,"",   296.114E-03,   294.064E-03,  -34.7842E-03,   372.827E-06
C:/temp/dataset/7/16_10.odb,Step-1,Increment      1: Step Time =    1.000,"PART-1-1",            93,       6.93081,       13.7923,            0.,NA,NA,"",   683.051E-03,   682.040E-03,  -37.1500E-03,   352.369E-06
C:/temp/dataset/7/16_10.odb,Step-1,Increment      1: Step Time =    1.000,"PART-1-1",            94,       7.08682,       7.47611,            0.,NA,NA,"",   468.929E-03,   467.260E-03,  -39.5279E-03,   202.928E-06
C:/temp/dataset/7/16_10.odb,Step-1,Increment      1: Step Time =    1.000,"PART-1-1",            95,       6.96700,      -1.15199,            0.,NA,NA,"",   248.682E-03,   246.600E-03,  -32.1115E-03,   398.363E-06
C:/temp/dataset/7/16_10.odb,Step-1,Increment      1: Step Time =    1.000,"PART-1-1",            96,       6.47578,      -21.8661,            0.,NA,NA,"",   12.3573E-03,   5.41877E-03,  -11.1059E-03,   1.27281E-03
C:/temp/dataset/7/16_10.odb,Step-1,Increment      1: Step Time =    1.000,"PART-1-1",            97,       7.14087,      -13.1040,            0.,NA,NA,"",   69.0941E-03,   64.2287E-03,  -25.4688E-03,   1.21888E-03
C:/temp/dataset/7/16_10.odb,Step-1,Increment      1: Step Time =    1.000,"PART-1-1",            98,       6.53104,      -7.08024,            0.,NA,NA,"",   141.260E-03,   139.567E-03,  -21.8049E-03,   295.681E-06
C:/temp/dataset/7/16_10.odb,Step-1,Increment      1: Step Time =    1.000,"PART-1-1",            99,       6.85322,      -3.24169,            0.,NA,NA,"",   206.966E-03,   204.952E-03,  -28.8072E-03,   387.229E-06
C:/temp/dataset/7/16_10.odb,Step-1,Increment      1: Step Time =    1.000,"PART-1-1",           100,       6.74184,      -8.96518,            0.,NA,NA,"",   115.076E-03,   112.526E-03,  -24.0912E-03,   593.675E-06
C:/temp/dataset/7/16_10.odb,Step-1,Increment      1: Step Time =    1.000,"PART-1-1",           101,       6.94703,      -23.6171,            0.,NA,NA,"",   10.3734E-03,   357.849E-06,  -10.3673E-03,   1.74741E-03
C:/temp/dataset/7/16_10.odb,Step-1,Increment      1: Step Time =    1.000,"PART-1-1",           102,       7.44695,      -27.8442,            0.,NA,NA,"",   5.07770E-03,  -3.43008E-03,  -3.74400E-03,   2.40814E-03
C:/temp/dataset/7/16_10.odb,Step-1,Increment      1: Step Time =    1.000,"PART-1-1",           103,       7.35225,      -17.6578,            0.,NA,NA,"",   34.5653E-03,   27.1442E-03,  -21.3998E-03,   1.67808E-03
C:/temp/dataset/7/16_10.odb,Step-1,Increment      1: Step Time =    1.000,"PART-1-1",           104,       7.23832,      -15.2967,            0.,NA,NA,"",   50.3488E-03,   44.3774E-03,  -23.7833E-03,   1.43767E-03
C:/temp/dataset/7/16_10.odb,Step-1,Increment      1: Step Time =    1.000,"PART-1-1",           105,       7.10099,       17.6583,            0.,NA,NA,"",   837.786E-03,   836.499E-03,  -46.4322E-03,   710.056E-06
C:/temp/dataset/7/16_10.odb,Step-1,Increment      1: Step Time =    1.000,"PART-1-1",           106,       6.86948,       15.7920,            0.,NA,NA,"",   760.648E-03,   759.820E-03,  -35.4881E-03,   606.779E-06
C:/temp/dataset/7/16_10.odb,Step-1,Increment      1: Step Time =    1.000,"PART-1-1",           107,       7.06799,       9.62990,            0.,NA,NA,"",   536.749E-03,   535.252E-03,  -40.0649E-03,   168.088E-06
C:/temp/dataset/7/16_10.odb,Step-1,Increment      1: Step Time =    1.000,"PART-1-1",           108,       7.09093,       5.31052,            0.,NA,NA,"",   406.050E-03,   404.222E-03,  -38.4863E-03,   265.212E-06
C:/temp/dataset/7/16_10.odb,Step-1,Increment      1: Step Time =    1.000,"PART-1-1",           109,       6.65187,      -5.22056,            0.,NA,NA,"",   171.235E-03,   169.492E-03,  -24.3658E-03,   306.693E-06
C:/temp/dataset/7/16_10.odb,Step-1,Increment      1: Step Time =    1.000,"PART-1-1",           110,       7.26954,      -25.7037,            0.,NA,NA,"",   8.05876E-03,  -3.07843E-03,  -7.44761E-03,   2.18973E-03
C:/temp/dataset/7/16_10.odb,Step-1,Increment      1: Step Time =    1.000,"PART-1-1",           111,       7.53271,      -20.3934,            0.,NA,NA,"",   21.7996E-03,   12.2229E-03,  -18.0506E-03,   1.98666E-03
C:/temp/dataset/7/16_10.odb,Step-1,Increment      1: Step Time =    1.000,"PART-1-1",           112,       7.01178,       11.7341,            0.,NA,NA,"",   608.159E-03,   606.895E-03,  -39.1855E-03,   223.053E-06
C:/temp/dataset/7/16_10.odb,Step-1,Increment      1: Step Time =    1.000,"PART-1-1",           113,       7.07643,       3.14767,            0.,NA,NA,"",   348.436E-03,   346.474E-03,  -36.9234E-03,   326.806E-06
C:/temp/dataset/7/16_10.odb,Step-1,Increment      1: Step Time =    1.000,"PART-1-1",           114,       6.98190,      -10.9751,            0.,NA,NA,"",   90.9616E-03,   87.2338E-03,  -25.7734E-03,   942.112E-06
C:/temp/dataset/7/16_10.odb,Step-1,Increment      1: Step Time =    1.000,"PART-1-1",           115,       13.1254,       22.8014,            0.,NA,NA,"",       1.12852,       1.07448,  -345.043E-03,   7.85951E-03
C:/temp/dataset/7/16_10.odb,Step-1,Increment      1: Step Time =    1.000,"PART-1-1",           116,       12.8923,      -4.74502,            0.,NA,NA,"",   231.119E-03,   186.434E-03,  -136.596E-03,   6.81433E-03
C:/temp/dataset/7/16_10.odb,Step-1,Increment      1: Step Time =    1.000,"PART-1-1",           117,       13.0513,      -12.4505,            0.,NA,NA,"",   122.336E-03,   80.6906E-03,  -91.9511E-03,   6.52047E-03
C:/temp/dataset/7/16_10.odb,Step-1,Increment      1: Step Time =    1.000,"PART-1-1",           118,       12.2427,       17.8341,            0.,NA,NA,"",   888.512E-03,   847.465E-03,  -266.941E-03,   6.76940E-03
C:/temp/dataset/7/16_10.odb,Step-1,Increment      1: Step Time =    1.000,"PART-1-1",           119,       13.0441,       9.90429,            0.,NA,NA,"",   601.280E-03,   551.118E-03,  -240.430E-03,   7.63134E-03
C:/temp/dataset/7/16_10.odb,Step-1,Increment      1: Step Time =    1.000,"PART-1-1",           120,       13.0522,       2.62582,            0.,NA,NA,"",   390.171E-03,   341.566E-03,  -188.589E-03,   7.35357E-03
C:/temp/dataset/7/16_10.odb,Step-1,Increment      1: Step Time =    1.000,"PART-1-1",           121,       13.2006,      -19.7745,            0.,NA,NA,"",   57.2966E-03,   25.4687E-03,  -51.3250E-03,   6.12783E-03
C:/temp/dataset/7/16_10.odb,Step-1,Increment      1: Step Time =    1.000,"PART-1-1",           122,       9.90112,      -27.6522,            0.,NA,NA,"",   6.40470E-03,  -1.44270E-03,  -6.24010E-03,   3.44697E-03
C:/temp/dataset/7/16_10.odb,Step-1,Increment      1: Step Time =    1.000,"PART-1-1",           123,       13.0591,      -22.1191,            0.,NA,NA,"",   41.0209E-03,   15.3107E-03,  -38.0565E-03,   5.83088E-03
C:/temp/dataset/7/16_10.odb,Step-1,Increment      1: Step Time =    1.000,"PART-1-1",           124,       13.1139,      -14.9356,            0.,NA,NA,"",   96.8936E-03,   57.4254E-03,  -78.0429E-03,   6.40993E-03
C:/temp/dataset/7/16_10.odb,Step-1,Increment      1: Step Time =    1.000,"PART-1-1",           125,       13.1678,      -17.3995,            0.,NA,NA,"",   75.3006E-03,   39.0572E-03,  -64.3795E-03,   6.27869E-03
C:/temp/dataset/7/16_10.odb,Step-1,Increment      1: Step Time =    1.000,"PART-1-1",           126,       12.7891,      -7.32383,            0.,NA,NA,"",   187.339E-03,   144.645E-03,  -119.054E-03,   6.57121E-03
C:/temp/dataset/7/16_10.odb,Step-1,Increment      1: Step Time =    1.000,"PART-1-1",           127,       12.9162,      -9.94117,            0.,NA,NA,"",   151.581E-03,   109.122E-03,  -105.210E-03,   6.54849E-03
C:/temp/dataset/7/16_10.odb,Step-1,Increment      1: Step Time =    1.000,"PART-1-1",           128,       13.0283,   193.158E-03,            0.,NA,NA,"",   331.993E-03,   284.310E-03,  -171.426E-03,   7.21266E-03
C:/temp/dataset/7/16_10.odb,Step-1,Increment      1: Step Time =    1.000,"PART-1-1",           129,       12.9794,      -2.25409,            0.,NA,NA,"",   279.236E-03,   232.816E-03,  -154.175E-03,   7.03639E-03
C:/temp/dataset/7/16_10.odb,Step-1,Increment      1: Step Time =    1.000,"PART-1-1",           130,       13.0689,       7.48049,            0.,NA,NA,"",   524.769E-03,   474.815E-03,  -223.458E-03,   7.57520E-03
C:/temp/dataset/7/16_10.odb,Step-1,Increment      1: Step Time =    1.000,"PART-1-1",           131,       13.0764,       5.05734,            0.,NA,NA,"",   454.606E-03,   405.113E-03,  -206.276E-03,   7.48819E-03
C:/temp/dataset/7/16_10.odb,Step-1,Increment      1: Step Time =    1.000,"PART-1-1",           132,       12.6962,       14.9270,            0.,NA,NA,"",   776.821E-03,   730.307E-03,  -264.770E-03,   7.32249E-03
C:/temp/dataset/7/16_10.odb,Step-1,Increment      1: Step Time =    1.000,"PART-1-1",           133,       12.9459,       12.3607,            0.,NA,NA,"",   684.551E-03,   635.184E-03,  -255.245E-03,   7.57810E-03
C:/temp/dataset/7/16_10.odb,Step-1,Increment      1: Step Time =    1.000,"PART-1-1",           134,       12.9476,       20.4489,            0.,NA,NA,"",       1.01511,   964.113E-03,  -317.693E-03,   7.63443E-03
C:/temp/dataset/7/16_10.odb,Step-1,Increment      1: Step Time =    1.000,"PART-1-1",           135,       13.1802,       25.1793,            0.,NA,NA,"",       1.24703,       1.19160,  -367.663E-03,   8.12829E-03
C:/temp/dataset/7/16_10.odb,Step-1,Increment      1: Step Time =    1.000,"PART-1-1",           136,      -12.4062,       24.9250,            0.,NA,NA,"",       1.51920,       1.20808,   921.142E-03,   1.03715E-06
C:/temp/dataset/7/16_10.odb,Step-1,Increment      1: Step Time =    1.000,"PART-1-1",           137,       11.3078,       25.3904,            0.,NA,NA,"",       1.22986,       1.19960,  -271.124E-03,   5.01024E-03
C:/temp/dataset/7/16_10.odb,Step-1,Increment      1: Step Time =    1.000,"PART-1-1",           138,      -10.1009,       25.2443,            0.,NA,NA,"",       1.46272,       1.22119,   805.136E-03,   3.25883E-06
C:/temp/dataset/7/16_10.odb,Step-1,Increment      1: Step Time =    1.000,"PART-1-1",           139,      -4.83291,       26.5053,            0.,NA,NA,"",       1.38699,       1.27782,   539.373E-03,   7.64017E-06
C:/temp/dataset/7/16_10.odb,Step-1,Increment      1: Step Time =    1.000,"PART-1-1",           140,       1.72347,       26.1851,            0.,NA,NA,"",       1.27091,       1.25321,   211.411E-03,   366.802E-06
C:/temp/dataset/7/16_10.odb,Step-1,Increment      1: Step Time =    1.000,"PART-1-1",           141,       6.12189,       25.7754,            0.,NA,NA,"",       1.22504,       1.22502,  -7.20718E-03,   1.17328E-03
C:/temp/dataset/7/16_10.odb,Step-1,Increment      1: Step Time =    1.000,"PART-1-1",           142,       7.62725,       25.7499,            0.,NA,NA,"",       1.22374,       1.22096,  -82.4655E-03,   949.454E-06
C:/temp/dataset/7/16_10.odb,Step-1,Increment      1: Step Time =    1.000,"PART-1-1",           143,       3.76931,       25.0880,            0.,NA,NA,"",       1.19969,       1.19462,   110.235E-03,   994.994E-06
C:/temp/dataset/7/16_10.odb,Step-1,Increment      1: Step Time =    1.000,"PART-1-1",           144,  -231.428E-03,       26.1188,            0.,NA,NA,"",       1.29019,       1.25258,   309.259E-03,   144.002E-06
C:/temp/dataset/7/16_10.odb,Step-1,Increment      1: Step Time =    1.000,"PART-1-1",           145,      -2.48530,       25.9891,            0.,NA,NA,"",       1.31846,       1.24899,   422.317E-03,   31.7670E-06
C:/temp/dataset/7/16_10.odb,Step-1,Increment      1: Step Time =    1.000,"PART-1-1",           146,      -3.63425,       26.9302,            0.,NA,NA,"",       1.38311,       1.29761,   478.743E-03,   7.91564E-06
C:/temp/dataset/7/16_10.odb,Step-1,Increment      1: Step Time =    1.000,"PART-1-1",           147,      -8.31738,       25.8431,            0.,NA,NA,"",       1.43913,       1.24898,   714.942E-03,   5.56652E-06
C:/temp/dataset/7/16_10.odb,Step-1,Increment      1: Step Time =    1.000,"PART-1-1",           148,       9.04714,   705.037E-03,            0.,NA,NA,"",   299.447E-03,   288.114E-03,  -81.6005E-03,   2.65208E-03
C:/temp/dataset/7/16_10.odb,Step-1,Increment      1: Step Time =    1.000,"PART-1-1",           149,       7.85197,      -7.06885,            0.,NA,NA,"",   146.399E-03,   140.094E-03,  -42.5014E-03,   1.58338E-03
C:/temp/dataset/7/16_10.odb,Step-1,Increment      1: Step Time =    1.000,"PART-1-1",           150,       8.74205,      -22.9842,            0.,NA,NA,"",   17.9696E-03,   3.95626E-03,  -17.5286E-03,   3.03364E-03
C:/temp/dataset/7/16_10.odb,Step-1,Increment      1: Step Time =    1.000,"PART-1-1",           151,       9.28078,      -15.1075,            0.,NA,NA,"",   64.0089E-03,   47.9341E-03,  -42.4200E-03,   3.16295E-03
C:/temp/dataset/7/16_10.odb,Step-1,Increment      1: Step Time =    1.000,"PART-1-1",           152,       8.97855,      -1.55139,            0.,NA,NA,"",   250.428E-03,   239.165E-03,  -74.2559E-03,   2.61420E-03
C:/temp/dataset/7/16_10.odb,Step-1,Increment      1: Step Time =    1.000,"PART-1-1",           153,       9.09422,       9.69450,            0.,NA,NA,"",   548.026E-03,   537.402E-03,  -107.386E-03,   2.57889E-03
C:/temp/dataset/7/16_10.odb,Step-1,Increment      1: Step Time =    1.000,"PART-1-1",           154,       8.44946,       15.5970,            0.,NA,NA,"",   757.737E-03,   751.252E-03,  -98.9194E-03,   1.76452E-03
C:/temp/dataset/7/16_10.odb,Step-1,Increment      1: Step Time =    1.000,"PART-1-1",           155,       9.11701,       7.46178,            0.,NA,NA,"",   478.053E-03,   467.088E-03,  -101.799E-03,   2.63496E-03
C:/temp/dataset/7/16_10.odb,Step-1,Increment      1: Step Time =    1.000,"PART-1-1",           156,       8.83101,       13.9442,            0.,NA,NA,"",   695.911E-03,   687.203E-03,  -109.745E-03,   2.21420E-03
C:/temp/dataset/7/16_10.odb,Step-1,Increment      1: Step Time =    1.000,"PART-1-1",           157,       9.61385,      -19.9311,            0.,NA,NA,"",   34.8121E-03,   16.9503E-03,  -30.4067E-03,   3.54014E-03
C:/temp/dataset/7/16_10.odb,Step-1,Increment      1: Step Time =    1.000,"PART-1-1",           158,       9.10031,       2.95854,            0.,NA,NA,"",   353.666E-03,   342.307E-03,  -88.9134E-03,   2.67791E-03
C:/temp/dataset/7/16_10.odb,Step-1,Increment      1: Step Time =    1.000,"PART-1-1",           159,       9.17986,      -12.8049,            0.,NA,NA,"",   83.9808E-03,   69.0208E-03,  -47.8424E-03,   3.02994E-03
C:/temp/dataset/7/16_10.odb,Step-1,Increment      1: Step Time =    1.000,"PART-1-1",           160,       8.54844,      -8.43147,            0.,NA,NA,"",   130.942E-03,   120.787E-03,  -50.5609E-03,   2.32765E-03
C:/temp/dataset/7/16_10.odb,Step-1,Increment      1: Step Time =    1.000,"PART-1-1",           161,       8.46228,      -5.79934,            0.,NA,NA,"",   169.597E-03,   160.520E-03,  -54.7405E-03,   2.16936E-03
C:/temp/dataset/7/16_10.odb,Step-1,Increment      1: Step Time =    1.000,"PART-1-1",           162,       8.97830,      -10.5487,            0.,NA,NA,"",   106.961E-03,   93.7781E-03,  -51.4421E-03,   2.79786E-03
C:/temp/dataset/7/16_10.odb,Step-1,Increment      1: Step Time =    1.000,"PART-1-1",           163,       8.84007,      -3.76868,            0.,NA,NA,"",   206.844E-03,   196.027E-03,  -66.0148E-03,   2.50980E-03
C:/temp/dataset/7/16_10.odb,Step-1,Increment      1: Step Time =    1.000,"PART-1-1",           164,       9.12644,       5.21383,            0.,NA,NA,"",   413.261E-03,   402.004E-03,  -95.7989E-03,   2.67673E-03
C:/temp/dataset/7/16_10.odb,Step-1,Increment      1: Step Time =    1.000,"PART-1-1",           165,       9.36869,      -17.5094,            0.,NA,NA,"",   47.1946E-03,   30.2839E-03,  -36.1969E-03,   3.28506E-03
C:/temp/dataset/7/16_10.odb,Step-1,Increment      1: Step Time =    1.000,"PART-1-1",           166,       9.01212,       11.8707,            0.,NA,NA,"",   621.409E-03,   611.467E-03,  -110.713E-03,   2.45220E-03
C:/temp/dataset/7/16_10.odb,Step-1,Increment      1: Step Time =    1.000,"PART-1-1",           167,       9.60003,       16.9835,            0.,NA,NA,"",   821.856E-03,   807.969E-03,  -150.445E-03,   3.36444E-03
C:/temp/dataset/7/16_10.odb,Step-1,Increment      1: Step Time =    1.000,"PART-1-1",           168,       7.13047,       19.6676,            0.,NA,NA,"",   925.714E-03,   924.374E-03,  -49.7948E-03,   932.827E-06
C:/temp/dataset/7/16_10.odb,Step-1,Increment      1: Step Time =    1.000,"PART-1-1",           169,       9.55406,      -25.2995,            0.,NA,NA,"",   13.0338E-03,   91.1494E-06,  -13.0335E-03,   3.61000E-03
C:/temp/dataset/7/16_10.odb,Step-1,Increment      1: Step Time =    1.000,"PART-1-1",           170,       12.3800,      -27.4389,            0.,NA,NA,"",   10.5505E-03,   2.56989E-03,  -10.2328E-03,   5.22868E-03
C:/temp/dataset/7/16_10.odb,Step-1,Increment      1: Step Time =    1.000,"PART-1-1",           171,      -11.9351,       22.4166,            0.,NA,NA,"",       1.40758,       1.08170,   900.675E-03,   1.09249E-06
C:/temp/dataset/7/16_10.odb,Step-1,Increment      1: Step Time =    1.000,"PART-1-1",           172,       10.9842,      -1.93535,            0.,NA,NA,"",   260.940E-03,   234.265E-03,  -114.932E-03,   4.83905E-03
C:/temp/dataset/7/16_10.odb,Step-1,Increment      1: Step Time =    1.000,"PART-1-1",           173,       11.2234,      -14.9909,            0.,NA,NA,"",   80.0207E-03,   52.2803E-03,  -60.5811E-03,   4.80450E-03
C:/temp/dataset/7/16_10.odb,Step-1,Increment      1: Step Time =    1.000,"PART-1-1",           174,       11.0574,       21.1283,            0.,NA,NA,"",       1.01953,   992.126E-03,  -234.791E-03,   5.03093E-03
C:/temp/dataset/7/16_10.odb,Step-1,Increment      1: Step Time =    1.000,"PART-1-1",           175,       10.7466,       19.4847,            0.,NA,NA,"",   940.950E-03,   916.845E-03,  -211.616E-03,   4.80489E-03
C:/temp/dataset/7/16_10.odb,Step-1,Increment      1: Step Time =    1.000,"PART-1-1",           176,       11.0568,   433.028E-03,            0.,NA,NA,"",   312.031E-03,   284.812E-03,  -127.458E-03,   4.95708E-03
C:/temp/dataset/7/16_10.odb,Step-1,Increment      1: Step Time =    1.000,"PART-1-1",           177,       10.9662,       12.1205,            0.,NA,NA,"",   648.380E-03,   622.318E-03,  -181.979E-03,   4.99429E-03
C:/temp/dataset/7/16_10.odb,Step-1,Increment      1: Step Time =    1.000,"PART-1-1",           178,       11.6216,      -21.4567,            0.,NA,NA,"",   37.7353E-03,   14.2286E-03,  -34.9500E-03,   4.97626E-03
C:/temp/dataset/7/16_10.odb,Step-1,Increment      1: Step Time =    1.000,"PART-1-1",           179,       11.2975,      -17.3958,            0.,NA,NA,"",   61.3832E-03,   34.4702E-03,  -50.7908E-03,   4.80979E-03
C:/temp/dataset/7/16_10.odb,Step-1,Increment      1: Step Time =    1.000,"PART-1-1",           180,       10.6273,       14.4803,            0.,NA,NA,"",   731.807E-03,   709.059E-03,  -181.043E-03,   4.58973E-03
C:/temp/dataset/7/16_10.odb,Step-1,Increment      1: Step Time =    1.000,"PART-1-1",           181,       11.1012,       2.78293,            0.,NA,NA,"",   368.228E-03,   340.682E-03,  -139.741E-03,   5.04498E-03
C:/temp/dataset/7/16_10.odb,Step-1,Increment      1: Step Time =    1.000,"PART-1-1",           182,       11.1153,       7.46695,            0.,NA,NA,"",   497.334E-03,   469.759E-03,  -163.300E-03,   5.12674E-03
C:/temp/dataset/7/16_10.odb,Step-1,Increment      1: Step Time =    1.000,"PART-1-1",           183,       11.1247,      -12.5851,            0.,NA,NA,"",   102.246E-03,   74.5313E-03,  -69.9957E-03,   4.77487E-03
C:/temp/dataset/7/16_10.odb,Step-1,Increment      1: Step Time =    1.000,"PART-1-1",           184,       10.4094,      -7.19663,            0.,NA,NA,"",   163.445E-03,   141.105E-03,  -82.4850E-03,   4.16931E-03
C:/temp/dataset/7/16_10.odb,Step-1,Increment      1: Step Time =    1.000,"PART-1-1",           185,       10.4303,      -22.2648,            0.,NA,NA,"",   27.8475E-03,   8.88929E-03,  -26.3906E-03,   4.17304E-03
C:/temp/dataset/7/16_10.odb,Step-1,Increment      1: Step Time =    1.000,"PART-1-1",           186,       10.9130,      -10.1038,            0.,NA,NA,"",   128.618E-03,   102.242E-03,  -78.0337E-03,   4.63059E-03
C:/temp/dataset/7/16_10.odb,Step-1,Increment      1: Step Time =    1.000,"PART-1-1",           187,       10.8491,      -4.38491,            0.,NA,NA,"",   213.447E-03,   187.802E-03,  -101.440E-03,   4.65422E-03
C:/temp/dataset/7/16_10.odb,Step-1,Increment      1: Step Time =    1.000,"PART-1-1",           188,       11.1275,       5.13070,            0.,NA,NA,"",   430.123E-03,   402.387E-03,  -151.955E-03,   5.11068E-03
C:/temp/dataset/7/16_10.odb,Step-1,Increment      1: Step Time =    1.000,"PART-1-1",           189,       11.0819,       9.79848,            0.,NA,NA,"",   570.346E-03,   543.123E-03,  -174.105E-03,   5.11240E-03
C:/temp/dataset/7/16_10.odb,Step-1,Increment      1: Step Time =    1.000,"PART-1-1",           190,       12.1026,      -24.5603,            0.,NA,NA,"",   23.4766E-03,   6.28830E-03,  -22.6188E-03,   5.23325E-03
C:/temp/dataset/7/16_10.odb,Step-1,Increment      1: Step Time =    1.000,"PART-1-1",           191,      -7.61069,       24.2264,            0.,NA,NA,"",       1.35146,       1.16702,   681.544E-03,   7.14729E-06
C:/temp/dataset/7/16_10.odb,Step-1,Increment      1: Step Time =    1.000,"PART-1-1",           192,      -5.77678,       24.2650,            0.,NA,NA,"",       1.30715,       1.16666,   589.530E-03,   10.0187E-06
C:/temp/dataset/7/16_10.odb,Step-1,Increment      1: Step Time =    1.000,"PART-1-1",           193,       1.00958,       23.8763,            0.,NA,NA,"",       1.16543,       1.13842,   249.425E-03,   349.198E-06
C:/temp/dataset/7/16_10.odb,Step-1,Increment      1: Step Time =    1.000,"PART-1-1",           194,      -3.86757,       24.8145,            0.,NA,NA,"",       1.28981,       1.19183,   493.091E-03,   12.5335E-06
C:/temp/dataset/7/16_10.odb,Step-1,Increment      1: Step Time =    1.000,"PART-1-1",           195,  -996.969E-03,       24.6602,            0.,NA,NA,"",       1.23103,       1.18043,   349.306E-03,   80.0808E-06
C:/temp/dataset/7/16_10.odb,Step-1,Increment      1: Step Time =    1.000,"PART-1-1",           196,       7.19995,       21.7613,            0.,NA,NA,"",       1.02434,       1.02280,  -56.0724E-03,   928.727E-06
C:/temp/dataset/7/16_10.odb,Step-1,Increment      1: Step Time =    1.000,"PART-1-1",           197,       2.92747,       22.7842,            0.,NA,NA,"",       1.09189,       1.08095,   154.126E-03,   932.369E-06
C:/temp/dataset/7/16_10.odb,Step-1,Increment      1: Step Time =    1.000,"PART-1-1",           198,       5.53232,       24.2100,            0.,NA,NA,"",       1.14721,       1.14697,   23.1557E-03,   1.16448E-03
C:/temp/dataset/7/16_10.odb,Step-1,Increment      1: Step Time =    1.000,"PART-1-1",           199,       9.18626,       19.3402,            0.,NA,NA,"",   920.120E-03,   909.206E-03,  -141.300E-03,   2.84778E-03
C:/temp/dataset/7/16_10.odb,Step-1,Increment      1: Step Time =    1.000,"PART-1-1",           200,       11.2321,       23.1770,            0.,NA,NA,"",       1.11909,       1.08972,  -254.714E-03,   4.98738E-03
C:/temp/dataset/7/16_10.odb,Step-1,Increment      1: Step Time =    1.000,"PART-1-1",           201,       5.11021,       22.1378,            0.,NA,NA,"",       1.04589,       1.04493,   44.7692E-03,   1.65577E-03
C:/temp/dataset/7/16_10.odb,Step-1,Increment      1: Step Time =    1.000,"PART-1-1",           202,   167.280E-03,       22.2372,            0.,NA,NA,"",       1.09754,       1.05753,   293.644E-03,   250.568E-06
C:/temp/dataset/7/16_10.odb,Step-1,Increment      1: Step Time =    1.000,"PART-1-1",           203,      -2.32264,       22.6339,            0.,NA,NA,"",       1.15867,       1.08052,   418.313E-03,   24.5066E-06
C:/temp/dataset/7/16_10.odb,Step-1,Increment      1: Step Time =    1.000,"PART-1-1",           204,       9.17324,       21.4477,            0.,NA,NA,"",       1.01712,       1.00627,  -148.161E-03,   2.59351E-03
C:/temp/dataset/7/16_10.odb,Step-1,Increment      1: Step Time =    1.000,"PART-1-1",           205,       9.43619,       25.5889,            0.,NA,NA,"",       1.22260,       1.21011,  -174.367E-03,   1.96749E-03
C:/temp/dataset/7/16_10.odb,Step-1,Increment      1: Step Time =    1.000,"PART-1-1",           206,      -5.39738,       22.2321,            0.,NA,NA,"",       1.20871,       1.06422,   573.067E-03,   12.1531E-06
C:/temp/dataset/7/16_10.odb,Step-1,Increment      1: Step Time =    1.000,"PART-1-1",           207,      -8.66915,       22.6604,            0.,NA,NA,"",       1.31540,       1.08981,   736.597E-03,   4.94567E-06
C:/temp/dataset/7/16_10.odb,Step-1,Increment      1: Step Time =    1.000,"PART-1-1",           208,      -12.8188,       27.4435,            0.,NA,NA,"",       1.63187,       1.33489,   938.660E-03,   767.959E-09
C:/temp/dataset/7/16_10.odb,Step-1,Increment      1: Step Time =    1.000,"PART-1-1",           209,       7.43992,       23.7550,            0.,NA,NA,"",       1.12261,       1.12041,  -70.3498E-03,   995.621E-06
C:/temp/dataset/7/16_10.odb,Step-1,Increment      1: Step Time =    1.000,"PART-1-1",           210,      -6.48406,       26.1481,            0.,NA,NA,"",       1.40721,       1.26198,   622.620E-03,   8.66010E-06
C:/temp/dataset/7/16_10.odb,Step-1,Increment      1: Step Time =    1.000,"PART-1-1",           211,       3.18484,       28.0088,            0.,NA,NA,"",       1.35013,       1.34319,   136.645E-03,   572.273E-06
C:/temp/dataset/7/16_10.odb,Step-1,Increment      1: Step Time =    1.000,"PART-1-1",           212,       11.4304,      -19.6429,            0.,NA,NA,"",   47.2347E-03,   21.7714E-03,  -41.9180E-03,   4.85892E-03
C:/temp/dataset/7/16_10.odb,Step-1,Increment      1: Step Time =    1.000,"PART-1-1",           213,       9.33060,       23.4727,            0.,NA,NA,"",       1.11599,       1.10411,  -162.421E-03,   2.30344E-03
C:/temp/dataset/7/16_10.odb,Step-1,Increment      1: Step Time =    1.000,"PART-1-1",           214,      -12.1707,       23.6708,            0.,NA,NA,"",       1.46305,       1.14489,   910.909E-03,   980.028E-09
C:/temp/dataset/7/16_10.odb,Step-1,Increment      1: Step Time =    1.000,"PART-1-1",           215,      -13.7031,       24.9625,            0.,NA,NA,"",       1.56218,       1.21159,   986.130E-03,   717.140E-09
C:/temp/dataset/7/16_10.odb,Step-1,Increment      1: Step Time =    1.000,"PART-1-1",           216,          -15.,         23.75,            0.,NA,NA,"",       1.56084,       1.15242,       1.05269,   285.824E-09
C:/temp/dataset/7/16_10.odb,Step-1,Increment      1: Step Time =    1.000,"PART-1-1",           217,      -13.4675,       22.4583,            0.,NA,NA,"",       1.46090,       1.08571,   977.469E-03,   573.533E-09
C:/temp/dataset/7/16_10.odb,Step-1,Increment      1: Step Time =    1.000,"PART-1-1",           218,      -9.86170,       27.7278,            0.,NA,NA,"",       1.56022,       1.34543,   790.012E-03,   3.06852E-06
C:/temp/dataset/7/16_10.odb,Step-1,Increment      1: Step Time =    1.000,"PART-1-1",           219,      -10.4490,       26.4258,            0.,NA,NA,"",       1.52146,       1.28088,   821.103E-03,   2.24076E-06
C:/temp/dataset/7/16_10.odb,Step-1,Increment      1: Step Time =    1.000,"PART-1-1",           220,      -9.20914,       25.5437,            0.,NA,NA,"",       1.45021,       1.23509,   760.039E-03,   4.38301E-06
C:/temp/dataset/7/16_10.odb,Step-1,Increment      1: Step Time =    1.000,"PART-1-1",           221,      -8.62185,       26.8458,            0.,NA,NA,"",       1.49011,       1.29964,   728.946E-03,   4.30555E-06
C:/temp/dataset/7/16_10.odb,Step-1,Increment      1: Step Time =    1.000,"PART-1-1",           222,      -9.15066,       28.9242,            0.,NA,NA,"",       1.59357,       1.40453,   752.849E-03,   2.67047E-06
C:/temp/dataset/7/16_10.odb,Step-1,Increment      1: Step Time =    1.000,"PART-1-1",           223,      -10.3125,           30.,            0.,NA,NA,"",       1.66947,       1.45994,   809.760E-03,   1.88010E-06
C:/temp/dataset/7/16_10.odb,Step-1,Increment      1: Step Time =    1.000,"PART-1-1",           224,      -11.0235,       28.8036,            0.,NA,NA,"",       1.63695,       1.40084,   846.923E-03,   1.12970E-06
C:/temp/dataset/7/16_10.odb,Step-1,Increment      1: Step Time =    1.000,"PART-1-1",           225,      -11.2536,       25.0847,            0.,NA,NA,"",       1.49008,       1.21464,   863.139E-03,   2.03519E-06
C:/temp/dataset/7/16_10.odb,Step-1,Increment      1: Step Time =    1.000,"PART-1-1",           226,      -10.3021,       22.5385,            0.,NA,NA,"",       1.35979,       1.08575,   818.636E-03,   2.83422E-06
C:/temp/dataset/7/16_10.odb,Step-1,Increment      1: Step Time =    1.000,"PART-1-1",           227,      -9.38503,       23.9523,            0.,NA,NA,"",       1.38904,       1.15551,   770.866E-03,   3.36245E-06
C:/temp/dataset/7/16_10.odb,Step-1,Increment      1: Step Time =    1.000,"PART-1-1",           228,      -12.9719,       28.7217,            0.,NA,NA,"",       1.68826,       1.39918,   944.730E-03,   370.246E-09
C:/temp/dataset/7/16_10.odb,Step-1,Increment      1: Step Time =    1.000,"PART-1-1",           229,      -14.0625,           30.,            0.,NA,NA,"",       1.77224,       1.46466,   997.814E-03,   64.3907E-09
C:/temp/dataset/7/16_10.odb,Step-1,Increment      1: Step Time =    1.000,"PART-1-1",           230,          -15.,         28.75,            0.,NA,NA,"",       1.75037,       1.40315,       1.04640,   60.4578E-09
C:/temp/dataset/7/16_10.odb,Step-1,Increment      1: Step Time =    1.000,"PART-1-1",           231,      -13.9094,       27.4717,            0.,NA,NA,"",       1.66615,       1.33768,   993.316E-03,   437.313E-09
C:/temp/dataset/7/16_10.odb,Step-1,Increment      1: Step Time =    1.000,"PART-1-1",           232,      -7.40072,       25.9956,            0.,NA,NA,"",       1.42250,       1.25548,   668.781E-03,   7.00000E-06
C:/temp/dataset/7/16_10.odb,Step-1,Increment      1: Step Time =    1.000,"PART-1-1",           233,      -7.96404,       25.0347,            0.,NA,NA,"",       1.39528,       1.20800,   698.243E-03,   5.97042E-06
C:/temp/dataset/7/16_10.odb,Step-1,Increment      1: Step Time =    1.000,"PART-1-1",           234,      -6.69374,       24.2457,            0.,NA,NA,"",       1.32869,       1.16684,   635.537E-03,   7.65922E-06
C:/temp/dataset/7/16_10.odb,Step-1,Increment      1: Step Time =    1.000,"PART-1-1",           235,      -6.13042,       25.2066,            0.,NA,NA,"",       1.35717,       1.21432,   606.075E-03,   8.39964E-06
C:/temp/dataset/7/16_10.odb,Step-1,Increment      1: Step Time =    1.000,"PART-1-1",           236,      -5.46940,       29.1125,            0.,NA,NA,"",       1.51948,       1.40932,   568.011E-03,   10.0438E-06
C:/temp/dataset/7/16_10.odb,Step-1,Increment      1: Step Time =    1.000,"PART-1-1",           237,      -4.41178,       28.2246,            0.,NA,NA,"",       1.45788,       1.36347,   516.098E-03,   6.99357E-06
C:/temp/dataset/7/16_10.odb,Step-1,Increment      1: Step Time =    1.000,"PART-1-1",           238,      -3.62988,       29.1121,            0.,NA,NA,"",       1.48524,       1.40697,   475.792E-03,   13.7585E-06
C:/temp/dataset/7/16_10.odb,Step-1,Increment      1: Step Time =    1.000,"PART-1-1",           239,       -4.6875,           30.,            0.,NA,NA,"",       1.54569,       1.45282,   527.698E-03,   19.3196E-06
C:/temp/dataset/7/16_10.odb,Step-1,Increment      1: Step Time =    1.000,"PART-1-1",           240,  -467.629E-03,       27.9420,            0.,NA,NA,"",       1.38165,       1.34434,   318.892E-03,   94.4310E-06
C:/temp/dataset/7/16_10.odb,Step-1,Increment      1: Step Time =    1.000,"PART-1-1",           241,  -845.263E-03,       26.9234,            0.,NA,NA,"",       1.33742,       1.29374,   339.027E-03,   88.0596E-06
C:/temp/dataset/7/16_10.odb,Step-1,Increment      1: Step Time =    1.000,"PART-1-1",           242,   746.021E-03,       26.1520,            0.,NA,NA,"",       1.27968,       1.25292,   260.300E-03,   238.741E-06
C:/temp/dataset/7/16_10.odb,Step-1,Increment      1: Step Time =    1.000,"PART-1-1",           243,       1.12365,       27.1705,            0.,NA,NA,"",       1.32556,       1.30360,   240.295E-03,   247.760E-06
C:/temp/dataset/7/16_10.odb,Step-1,Increment      1: Step Time =    1.000,"PART-1-1",           244,       14.0901,       25.0896,            0.,NA,NA,"",       1.25949,       1.18945,  -414.144E-03,   9.51624E-03
C:/temp/dataset/7/16_10.odb,Step-1,Increment      1: Step Time =    1.000,"PART-1-1",           245,       13.1528,       23.9903,            0.,NA,NA,"",       1.18701,       1.13230,  -356.220E-03,   7.99879E-03
C:/temp/dataset/7/16_10.odb,Step-1,Increment      1: Step Time =    1.000,"PART-1-1",           246,       14.0627,       22.6507,            0.,NA,NA,"",       1.13838,       1.06973,  -389.359E-03,   9.11790E-03
C:/temp/dataset/7/16_10.odb,Step-1,Increment      1: Step Time =    1.000,"PART-1-1",           247,           15.,         23.75,            0.,NA,NA,"",       1.21117,       1.12589,  -446.428E-03,   10.6151E-03
C:/temp/dataset/7/16_10.odb,Step-1,Increment      1: Step Time =    1.000,"PART-1-1",           248,       11.2764,       28.8302,            0.,NA,NA,"",       1.41015,       1.38004,  -289.865E-03,   6.47663E-03
C:/temp/dataset/7/16_10.odb,Step-1,Increment      1: Step Time =    1.000,"PART-1-1",           249,       10.3125,           30.,            0.,NA,NA,"",       1.46712,       1.44813,  -235.268E-03,   3.80881E-03
C:/temp/dataset/7/16_10.odb,Step-1,Increment      1: Step Time =    1.000,"PART-1-1",           250,       9.39543,       28.8642,            0.,NA,NA,"",       1.39503,       1.38331,  -180.422E-03,   1.62540E-03
C:/temp/dataset/7/16_10.odb,Step-1,Increment      1: Step Time =    1.000,"PART-1-1",           251,       10.3594,       27.6945,            0.,NA,NA,"",       1.33905,       1.31895,  -231.145E-03,   3.25172E-03
C:/temp/dataset/7/16_10.odb,Step-1,Increment      1: Step Time =    1.000,"PART-1-1",           252,        8.4375,           30.,            0.,NA,NA,"",       1.44978,       1.44375,  -132.018E-03,   2.97272E-03
C:/temp/dataset/7/16_10.odb,Step-1,Increment      1: Step Time =    1.000,"PART-1-1",           253,       7.48312,       28.8587,            0.,NA,NA,"",       1.38553,       1.38323,  -79.8249E-03,   1.46256E-03
C:/temp/dataset/7/16_10.odb,Step-1,Increment      1: Step Time =    1.000,"PART-1-1",           254,       8.44105,       27.7230,            0.,NA,NA,"",       1.32851,       1.32240,  -127.224E-03,   741.379E-06
C:/temp/dataset/7/16_10.odb,Step-1,Increment      1: Step Time =    1.000,"PART-1-1",           255,       13.0365,       21.6252,            0.,NA,NA,"",       1.07107,       1.01858,  -331.205E-03,   7.74758E-03
C:/temp/dataset/7/16_10.odb,Step-1,Increment      1: Step Time =    1.000,"PART-1-1",           256,       13.9738,       20.2245,            0.,NA,NA,"",       1.02317,   956.704E-03,  -362.764E-03,   8.98857E-03
C:/temp/dataset/7/16_10.odb,Step-1,Increment      1: Step Time =    1.000,"PART-1-1",           257,           15.,         21.25,            0.,NA,NA,"",       1.09112,       1.00694,  -420.247E-03,   10.3518E-03
C:/temp/dataset/7/16_10.odb,Step-1,Increment      1: Step Time =    1.000,"PART-1-1",           258,       6.90015,       14.7921,            0.,NA,NA,"",   721.257E-03,   720.339E-03,  -36.3630E-03,   444.863E-06
C:/temp/dataset/7/16_10.odb,Step-1,Increment      1: Step Time =    1.000,"PART-1-1",           259,       5.93474,       15.8126,            0.,NA,NA,"",   761.908E-03,   761.905E-03,   2.08872E-03,   1.76446E-03
C:/temp/dataset/7/16_10.odb,Step-1,Increment      1: Step Time =    1.000,"PART-1-1",           260,            5.,       14.7917,            0.,NA,NA,"",   724.164E-03,   723.181E-03,   37.7312E-03,   2.92806E-03
C:/temp/dataset/7/16_10.odb,Step-1,Increment      1: Step Time =    1.000,"PART-1-1",           261,       5.96541,       13.7711,            0.,NA,NA,"",   682.340E-03,   682.340E-03,  -604.475E-06,   1.60786E-03
C:/temp/dataset/7/16_10.odb,Step-1,Increment      1: Step Time =    1.000,"PART-1-1",           262,       7.07741,       8.55300,            0.,NA,NA,"",   502.170E-03,   500.589E-03,  -39.8052E-03,   179.245E-06
C:/temp/dataset/7/16_10.odb,Step-1,Increment      1: Step Time =    1.000,"PART-1-1",           263,       6.03400,       9.60662,            0.,NA,NA,"",   535.402E-03,   535.369E-03,  -5.95629E-03,   1.34320E-03
C:/temp/dataset/7/16_10.odb,Step-1,Increment      1: Step Time =    1.000,"PART-1-1",           264,            5.,       8.54167,            0.,NA,NA,"",   503.153E-03,   502.479E-03,   26.0434E-03,   2.60225E-03
C:/temp/dataset/7/16_10.odb,Step-1,Increment      1: Step Time =    1.000,"PART-1-1",           265,       6.04341,       7.48805,            0.,NA,NA,"",   468.444E-03,   468.382E-03,  -7.64032E-03,   1.23227E-03
C:/temp/dataset/7/16_10.odb,Step-1,Increment      1: Step Time =    1.000,"PART-1-1",           266,            5.,         4.375,            0.,NA,NA,"",   380.831E-03,   380.378E-03,   18.5738E-03,   2.33183E-03
C:/temp/dataset/7/16_10.odb,Step-1,Increment      1: Step Time =    1.000,"PART-1-1",           267,       6.03822,       3.24050,            0.,NA,NA,"",   349.524E-03,   349.378E-03,  -10.0955E-03,   1.01364E-03
C:/temp/dataset/7/16_10.odb,Step-1,Increment      1: Step Time =    1.000,"PART-1-1",           268,       7.08368,       4.22909,            0.,NA,NA,"",   376.598E-03,   374.706E-03,  -37.7012E-03,   295.256E-06
C:/temp/dataset/7/16_10.odb,Step-1,Increment      1: Step Time =    1.000,"PART-1-1",           269,       6.04546,       5.36359,            0.,NA,NA,"",   406.446E-03,   406.346E-03,  -9.03159E-03,   1.12188E-03
C:/temp/dataset/7/16_10.odb,Step-1,Increment      1: Step Time =    1.000,"PART-1-1",           270,            5.,       2.29167,            0.,NA,NA,"",   326.900E-03,   326.554E-03,   15.0387E-03,   2.17944E-03
C:/temp/dataset/7/16_10.odb,Step-1,Increment      1: Step Time =    1.000,"PART-1-1",           271,       6.01828,       1.12309,            0.,NA,NA,"",   297.642E-03,   297.447E-03,  -10.7811E-03,   911.366E-06
C:/temp/dataset/7/16_10.odb,Step-1,Increment      1: Step Time =    1.000,"PART-1-1",           272,       7.05649,       2.07193,            0.,NA,NA,"",   321.654E-03,   319.651E-03,  -35.8396E-03,   349.603E-06
C:/temp/dataset/7/16_10.odb,Step-1,Increment      1: Step Time =    1.000,"PART-1-1",           273,       7.00178,  -77.9012E-03,            0.,NA,NA,"",   271.797E-03,   269.734E-03,  -33.4218E-03,   385.573E-06
C:/temp/dataset/7/16_10.odb,Step-1,Increment      1: Step Time =    1.000,"PART-1-1",           274,            5.,   208.333E-03,            0.,NA,NA,"",   277.639E-03,   277.393E-03,   11.6832E-03,   2.01647E-03
C:/temp/dataset/7/16_10.odb,Step-1,Increment      1: Step Time =    1.000,"PART-1-1",           275,       5.98350,  -992.661E-03,            0.,NA,NA,"",   250.541E-03,   250.296E-03,  -11.0965E-03,   816.143E-06
C:/temp/dataset/7/16_10.odb,Step-1,Increment      1: Step Time =    1.000,"PART-1-1",           276,       6.59145,      -6.15040,            0.,NA,NA,"",   155.843E-03,   154.130E-03,  -23.0436E-03,   302.528E-06
C:/temp/dataset/7/16_10.odb,Step-1,Increment      1: Step Time =    1.000,"PART-1-1",           277,       5.82593,      -5.11028,            0.,NA,NA,"",   171.879E-03,   171.585E-03,  -10.0607E-03,   690.725E-06
C:/temp/dataset/7/16_10.odb,Step-1,Increment      1: Step Time =    1.000,"PART-1-1",           278,            5.,      -6.04167,            0.,NA,NA,"",   156.584E-03,   156.555E-03,   3.01317E-03,   1.47010E-03
C:/temp/dataset/7/16_10.odb,Step-1,Increment      1: Step Time =    1.000,"PART-1-1",           279,       5.76552,      -7.08179,            0.,NA,NA,"",   140.062E-03,   139.709E-03,  -9.93865E-03,   602.207E-06
C:/temp/dataset/7/16_10.odb,Step-1,Increment      1: Step Time =    1.000,"PART-1-1",           280,       8.25955,      -15.2021,            0.,NA,NA,"",   56.5657E-03,   45.9558E-03,  -32.9810E-03,   2.29809E-03
C:/temp/dataset/7/16_10.odb,Step-1,Increment      1: Step Time =    1.000,"PART-1-1",           281,       9.23032,      -13.9562,            0.,NA,NA,"",   73.4822E-03,   57.9488E-03,  -45.1838E-03,   3.09642E-03
C:/temp/dataset/7/16_10.odb,Step-1,Increment      1: Step Time =    1.000,"PART-1-1",           282,       8.16037,      -12.9544,            0.,NA,NA,"",   75.7734E-03,   66.4108E-03,  -36.4858E-03,   2.12084E-03
C:/temp/dataset/7/16_10.odb,Step-1,Increment      1: Step Time =    1.000,"PART-1-1",           283,       7.18960,      -14.2003,            0.,NA,NA,"",   59.2219E-03,   53.8265E-03,  -24.6969E-03,   1.32782E-03
C:/temp/dataset/7/16_10.odb,Step-1,Increment      1: Step Time =    1.000,"PART-1-1",           284,            5.,      -22.7083,            0.,NA,NA,"",   5.69084E-03,   2.07246E-03,  -5.30005E-03,   232.582E-06
C:/temp/dataset/7/16_10.odb,Step-1,Increment      1: Step Time =    1.000,"PART-1-1",           285,       5.97351,      -23.6835,            0.,NA,NA,"",   7.58857E-03,  -403.434E-06,  -7.57783E-03,   1.02314E-03
C:/temp/dataset/7/16_10.odb,Step-1,Increment      1: Step Time =    1.000,"PART-1-1",           286,       6.71140,      -22.7416,            0.,NA,NA,"",   11.2016E-03,   2.62305E-03,  -10.8901E-03,   1.50601E-03
C:/temp/dataset/7/16_10.odb,Step-1,Increment      1: Step Time =    1.000,"PART-1-1",           287,       5.73789,      -21.7664,            0.,NA,NA,"",   9.93227E-03,   5.46594E-03,  -8.29298E-03,   714.576E-06
C:/temp/dataset/7/16_10.odb,Step-1,Increment      1: Step Time =    1.000,"PART-1-1",           288,       9.95056,      -28.8261,            0.,NA,NA,"",   3.21812E-03,  -1.25746E-03,  -2.96228E-03,   3.18505E-03
C:/temp/dataset/7/16_10.odb,Step-1,Increment      1: Step Time =    1.000,"PART-1-1",           289,       8.67404,      -27.7482,            0.,NA,NA,"",   5.44172E-03,  -2.60326E-03,  -4.77863E-03,   2.86621E-03
C:/temp/dataset/7/16_10.odb,Step-1,Increment      1: Step Time =    1.000,"PART-1-1",           290,       7.47347,      -28.9221,            0.,NA,NA,"",   2.69227E-03,  -2.08564E-03,  -1.70248E-03,   2.28765E-03
C:/temp/dataset/7/16_10.odb,Step-1,Increment      1: Step Time =    1.000,"PART-1-1",           291,          8.75,          -30.,            0.,NA,NA,"",            0.,  -1.32584E-39,  -4.70529E-39,   2.71128E-03
C:/temp/dataset/7/16_10.odb,Step-1,Increment      1: Step Time =    1.000,"PART-1-1",           292,       9.14805,      -24.1419,            0.,NA,NA,"",   15.6328E-03,   1.62332E-03,  -15.5483E-03,   3.32316E-03
C:/temp/dataset/7/16_10.odb,Step-1,Increment      1: Step Time =    1.000,"PART-1-1",           293,       7.84454,      -23.3007,            0.,NA,NA,"",   13.8264E-03,   2.00526E-03,  -13.6802E-03,   2.39784E-03
C:/temp/dataset/7/16_10.odb,Step-1,Increment      1: Step Time =    1.000,"PART-1-1",           294,       7.10828,      -24.6604,            0.,NA,NA,"",   9.21562E-03,  -1.75985E-03,  -9.04603E-03,   1.95212E-03
C:/temp/dataset/7/16_10.odb,Step-1,Increment      1: Step Time =    1.000,"PART-1-1",           295,       8.41180,      -25.5016,            0.,NA,NA,"",   10.1742E-03,  -1.70341E-03,  -10.0305E-03,   2.87055E-03
C:/temp/dataset/7/16_10.odb,Step-1,Increment      1: Step Time =    1.000,"PART-1-1",           296,       7.00425,      -21.1298,            0.,NA,NA,"",   16.6952E-03,   8.62649E-03,  -14.2939E-03,   1.62337E-03
C:/temp/dataset/7/16_10.odb,Step-1,Increment      1: Step Time =    1.000,"PART-1-1",           297,       6.26636,      -19.9884,            0.,NA,NA,"",   17.9586E-03,   13.3341E-03,  -12.0297E-03,   972.759E-06
C:/temp/dataset/7/16_10.odb,Step-1,Increment      1: Step Time =    1.000,"PART-1-1",           298,            5.,       -20.625,            0.,NA,NA,"",   11.5065E-03,   10.0677E-03,  -5.57138E-03,   52.0687E-06
C:/temp/dataset/7/16_10.odb,Step-1,Increment      1: Step Time =    1.000,"PART-1-1",           299,       12.8526,      -8.63250,            0.,NA,NA,"",   168.771E-03,   126.120E-03,  -112.149E-03,   6.56006E-03
C:/temp/dataset/7/16_10.odb,Step-1,Increment      1: Step Time =    1.000,"PART-1-1",           300,       13.9581,      -9.97058,            0.,NA,NA,"",   163.108E-03,   111.971E-03,  -118.603E-03,   7.55177E-03
C:/temp/dataset/7/16_10.odb,Step-1,Increment      1: Step Time =    1.000,"PART-1-1",           301,           15.,         -8.75,            0.,NA,NA,"",   193.322E-03,   131.680E-03,  -141.541E-03,   8.68359E-03
C:/temp/dataset/7/16_10.odb,Step-1,Increment      1: Step Time =    1.000,"PART-1-1",           302,       13.8945,      -7.41192,            0.,NA,NA,"",   199.717E-03,   146.756E-03,  -135.460E-03,   7.68882E-03
C:/temp/dataset/7/16_10.odb,Step-1,Increment      1: Step Time =    1.000,"PART-1-1",           303,            5.,        10.625,            0.,NA,NA,"",   571.745E-03,   570.963E-03,   29.9054E-03,   2.71750E-03
C:/temp/dataset/7/16_10.odb,Step-1,Increment      1: Step Time =    1.000,"PART-1-1",           304,       7.03988,       10.6820,            0.,NA,NA,"",   571.802E-03,   570.426E-03,  -39.6544E-03,   183.152E-06
C:/temp/dataset/7/16_10.odb,Step-1,Increment      1: Step Time =    1.000,"PART-1-1",           305,       6.00589,       11.7004,            0.,NA,NA,"",   606.720E-03,   606.709E-03,  -3.57286E-03,   1.46786E-03
C:/temp/dataset/7/16_10.odb,Step-1,Increment      1: Step Time =    1.000,"PART-1-1",           306,       2.74639,       25.6366,            0.,NA,NA,"",       1.23457,       1.22405,   160.866E-03,   651.231E-06
C:/temp/dataset/7/16_10.odb,Step-1,Increment      1: Step Time =    1.000,"PART-1-1",           307,       1.36653,       25.0307,            0.,NA,NA,"",       1.21775,       1.19575,   230.427E-03,   334.524E-06
C:/temp/dataset/7/16_10.odb,Step-1,Increment      1: Step Time =    1.000,"PART-1-1",           308,       1.96853,       23.3303,            0.,NA,NA,"",       1.12781,       1.10961,   201.808E-03,   518.736E-06
C:/temp/dataset/7/16_10.odb,Step-1,Increment      1: Step Time =    1.000,"PART-1-1",           309,       3.34839,       23.9361,            0.,NA,NA,"",       1.14529,       1.13766,   132.001E-03,   754.536E-06
C:/temp/dataset/7/16_10.odb,Step-1,Increment      1: Step Time =    1.000,"PART-1-1",           310,       4.47216,       26.2029,            0.,NA,NA,"",       1.25198,       1.24977,   74.4702E-03,   897.917E-06
C:/temp/dataset/7/16_10.odb,Step-1,Increment      1: Step Time =    1.000,"PART-1-1",           311,       4.17993,       27.6633,            0.,NA,NA,"",       1.32738,       1.32449,   87.5675E-03,   816.413E-06
C:/temp/dataset/7/16_10.odb,Step-1,Increment      1: Step Time =    1.000,"PART-1-1",           312,       2.45416,       27.0970,            0.,NA,NA,"",       1.30973,       1.29812,   174.026E-03,   439.245E-06
C:/temp/dataset/7/16_10.odb,Step-1,Increment      1: Step Time =    1.000,"PART-1-1",           313,      -1.66705,       28.8640,            0.,NA,NA,"",       1.44240,       1.39206,   377.768E-03,   20.3312E-06
C:/temp/dataset/7/16_10.odb,Step-1,Increment      1: Step Time =    1.000,"PART-1-1",           314,   261.919E-03,       29.0779,            0.,NA,NA,"",       1.42830,       1.40038,   281.004E-03,   75.3522E-06
C:/temp/dataset/7/16_10.odb,Step-1,Increment      1: Step Time =    1.000,"PART-1-1",           315,    -937.5E-03,           30.,            0.,NA,NA,"",       1.48736,       1.44802,   339.830E-03,   8.43430E-06
C:/temp/dataset/7/16_10.odb,Step-1,Increment      1: Step Time =    1.000,"PART-1-1",           316,          -15.,         21.25,            0.,NA,NA,"",       1.47296,       1.02705,       1.05584,   117.061E-09
C:/temp/dataset/7/16_10.odb,Step-1,Increment      1: Step Time =    1.000,"PART-1-1",           317,      -13.3250,           20.,            0.,NA,NA,"",       1.36875,   962.260E-03,   973.414E-03,   229.208E-09
C:/temp/dataset/7/16_10.odb,Step-1,Increment      1: Step Time =    1.000,"PART-1-1",           318,      -11.7925,       21.2083,            0.,NA,NA,"",       1.35772,       1.02092,   895.048E-03,   617.561E-09
C:/temp/dataset/7/16_10.odb,Step-1,Increment      1: Step Time =    1.000,"PART-1-1",           319,       10.1137,       15.7319,            0.,NA,NA,"",   775.552E-03,   757.483E-03,  -166.437E-03,   3.95811E-03
C:/temp/dataset/7/16_10.odb,Step-1,Increment      1: Step Time =    1.000,"PART-1-1",           320,       9.02474,       16.2903,            0.,NA,NA,"",   789.092E-03,   779.261E-03,  -124.175E-03,   2.51639E-03
C:/temp/dataset/7/16_10.odb,Step-1,Increment      1: Step Time =    1.000,"PART-1-1",           321,       8.64023,       14.7706,            0.,NA,NA,"",   726.364E-03,   718.809E-03,  -104.487E-03,   1.98012E-03
C:/temp/dataset/7/16_10.odb,Step-1,Increment      1: Step Time =    1.000,"PART-1-1",           322,       9.72917,       14.2122,            0.,NA,NA,"",   712.786E-03,   697.866E-03,  -145.078E-03,   3.41051E-03
C:/temp/dataset/7/16_10.odb,Step-1,Increment      1: Step Time =    1.000,"PART-1-1",           323,       12.8210,       13.6438,            0.,NA,NA,"",   729.693E-03,   681.748E-03,  -260.139E-03,   7.44956E-03
C:/temp/dataset/7/16_10.odb,Step-1,Increment      1: Step Time =    1.000,"PART-1-1",           324,       13.9730,       12.4303,            0.,NA,NA,"",   704.702E-03,   640.824E-03,  -293.173E-03,   8.93981E-03
C:/temp/dataset/7/16_10.odb,Step-1,Increment      1: Step Time =    1.000,"PART-1-1",           325,           15.,         13.75,            0.,NA,NA,"",   773.444E-03,   692.905E-03,  -343.653E-03,   10.3475E-03
C:/temp/dataset/7/16_10.odb,Step-1,Increment      1: Step Time =    1.000,"PART-1-1",           326,       13.8481,       14.9635,            0.,NA,NA,"",   797.917E-03,   735.043E-03,  -310.456E-03,   8.85605E-03
C:/temp/dataset/7/16_10.odb,Step-1,Increment      1: Step Time =    1.000,"PART-1-1",           327,       10.1008,       2.87074,            0.,NA,NA,"",   359.892E-03,   341.220E-03,  -114.416E-03,   3.86002E-03
C:/temp/dataset/7/16_10.odb,Step-1,Increment      1: Step Time =    1.000,"PART-1-1",           328,       9.07373,       1.83179,            0.,NA,NA,"",   325.875E-03,   314.536E-03,  -85.2178E-03,   2.66497E-03
C:/temp/dataset/7/16_10.odb,Step-1,Increment      1: Step Time =    1.000,"PART-1-1",           329,       10.0520,   569.032E-03,            0.,NA,NA,"",   304.727E-03,   286.188E-03,  -104.666E-03,   3.80313E-03
C:/temp/dataset/7/16_10.odb,Step-1,Increment      1: Step Time =    1.000,"PART-1-1",           330,       11.0790,       1.60798,            0.,NA,NA,"",   339.394E-03,   312.017E-03,  -133.545E-03,   5.00107E-03
C:/temp/dataset/7/16_10.odb,Step-1,Increment      1: Step Time =    1.000,"PART-1-1",           331,       9.98138,      -1.74337,            0.,NA,NA,"",   254.729E-03,   236.440E-03,  -94.7805E-03,   3.72493E-03
C:/temp/dataset/7/16_10.odb,Step-1,Increment      1: Step Time =    1.000,"PART-1-1",           332,       8.90931,      -2.66004,            0.,NA,NA,"",   228.014E-03,   216.984E-03,  -70.0594E-03,   2.56318E-03
C:/temp/dataset/7/16_10.odb,Step-1,Increment      1: Step Time =    1.000,"PART-1-1",           333,       9.84458,      -4.07679,            0.,NA,NA,"",   209.236E-03,   191.624E-03,  -84.0238E-03,   3.58127E-03
C:/temp/dataset/7/16_10.odb,Step-1,Increment      1: Step Time =    1.000,"PART-1-1",           334,       10.9167,      -3.16013,            0.,NA,NA,"",   236.444E-03,   210.295E-03,  -108.080E-03,   4.74671E-03
C:/temp/dataset/7/16_10.odb,Step-1,Increment      1: Step Time =    1.000,"PART-1-1",           335,            5.,      -3.95833,            0.,NA,NA,"",   192.616E-03,   192.534E-03,   5.64128E-03,   1.66104E-03
C:/temp/dataset/7/16_10.odb,Step-1,Increment      1: Step Time =    1.000,"PART-1-1",           336,       6.75254,      -4.23112,            0.,NA,NA,"",   188.617E-03,   186.745E-03,  -26.5062E-03,   346.081E-06
C:/temp/dataset/7/16_10.odb,Step-1,Increment      1: Step Time =    1.000,"PART-1-1",           337,       5.92661,      -3.07918,            0.,NA,NA,"",   208.588E-03,   208.301E-03,  -10.9504E-03,   736.436E-06
C:/temp/dataset/7/16_10.odb,Step-1,Increment      1: Step Time =    1.000,"PART-1-1",           338,       7.06139,      -12.0396,            0.,NA,NA,"",   79.5278E-03,   75.2547E-03,  -25.7176E-03,   1.07951E-03
C:/temp/dataset/7/16_10.odb,Step-1,Increment      1: Step Time =    1.000,"PART-1-1",           339,       5.99095,      -11.1126,            0.,NA,NA,"",   86.6083E-03,   85.5079E-03,  -13.7622E-03,   159.249E-06
C:/temp/dataset/7/16_10.odb,Step-1,Increment      1: Step Time =    1.000,"PART-1-1",           340,            5.,      -12.2917,            0.,NA,NA,"",   72.6364E-03,   72.5767E-03,  -2.94424E-03,   842.009E-06
C:/temp/dataset/7/16_10.odb,Step-1,Increment      1: Step Time =    1.000,"PART-1-1",           341,       6.07044,      -13.2187,            0.,NA,NA,"",   64.4282E-03,   62.8129E-03,  -14.3363E-03,   280.952E-06
C:/temp/dataset/7/16_10.odb,Step-1,Increment      1: Step Time =    1.000,"PART-1-1",           342,       6.63644,      -8.02271,            0.,NA,NA,"",   127.739E-03,   125.640E-03,  -23.0628E-03,   435.531E-06
C:/temp/dataset/7/16_10.odb,Step-1,Increment      1: Step Time =    1.000,"PART-1-1",           343,            5.,        -8.125,            0.,NA,NA,"",   124.678E-03,   124.676E-03,   690.016E-06,   1.27081E-03
C:/temp/dataset/7/16_10.odb,Step-1,Increment      1: Step Time =    1.000,"PART-1-1",           344,       5.87092,      -9.06592,            0.,NA,NA,"",   111.861E-03,   111.208E-03,  -12.0717E-03,   341.377E-06
C:/temp/dataset/7/16_10.odb,Step-1,Increment      1: Step Time =    1.000,"PART-1-1",           345,       13.0826,      -13.6930,            0.,NA,NA,"",   109.111E-03,   68.4417E-03,  -84.9759E-03,   6.46529E-03
C:/temp/dataset/7/16_10.odb,Step-1,Increment      1: Step Time =    1.000,"PART-1-1",           346,       14.0569,      -14.9678,            0.,NA,NA,"",   105.063E-03,   60.0092E-03,  -86.2387E-03,   7.21531E-03
C:/temp/dataset/7/16_10.odb,Step-1,Increment      1: Step Time =    1.000,"PART-1-1",           347,           15.,        -13.75,            0.,NA,NA,"",   127.186E-03,   74.1347E-03,  -103.345E-03,   8.16094E-03
C:/temp/dataset/7/16_10.odb,Step-1,Increment      1: Step Time =    1.000,"PART-1-1",           348,       14.0257,      -12.4752,            0.,NA,NA,"",   132.093E-03,   83.4293E-03,  -102.412E-03,   7.40766E-03
C:/temp/dataset/7/16_10.odb,Step-1,Increment      1: Step Time =    1.000,"PART-1-1",           349,       8.13738,      -21.6888,            0.,NA,NA,"",   19.7781E-03,   7.47936E-03,  -18.3094E-03,   2.50803E-03
C:/temp/dataset/7/16_10.odb,Step-1,Increment      1: Step Time =    1.000,"PART-1-1",           350,            5.,      -28.9583,            0.,NA,NA,"",   3.64435E-03,  -3.03653E-03,  -2.01513E-03,   1.93284E-03
C:/temp/dataset/7/16_10.odb,Step-1,Increment      1: Step Time =    1.000,"PART-1-1",           351,          6.25,          -30.,            0.,NA,NA,"",            0.,  -1.04935E-39,  -3.20222E-39,   2.68175E-03
C:/temp/dataset/7/16_10.odb,Step-1,Increment      1: Step Time =    1.000,"PART-1-1",           352,       6.22347,      -27.8804,            0.,NA,NA,"",   4.94153E-03,  -3.99234E-03,  -2.91203E-03,   1.65239E-03
C:/temp/dataset/7/16_10.odb,Step-1,Increment      1: Step Time =    1.000,"PART-1-1",           353,           15.,        -28.75,            0.,NA,NA,"",   9.27626E-03,   5.99750E-03,  -7.07665E-03,   6.40054E-03
C:/temp/dataset/7/16_10.odb,Step-1,Increment      1: Step Time =    1.000,"PART-1-1",           354,       13.6900,      -27.4695,            0.,NA,NA,"",   12.8808E-03,   5.04849E-03,  -11.8502E-03,   5.72566E-03
C:/temp/dataset/7/16_10.odb,Step-1,Increment      1: Step Time =    1.000,"PART-1-1",           355,       12.4400,      -28.7195,            0.,NA,NA,"",   4.64599E-03,   770.437E-06,  -4.58166E-03,   4.51586E-03
C:/temp/dataset/7/16_10.odb,Step-1,Increment      1: Step Time =    1.000,"PART-1-1",           356,         13.75,          -30.,            0.,NA,NA,"",            0.,   110.560E-42,  -8.66030E-39,   5.50739E-03
C:/temp/dataset/7/16_10.odb,Step-1,Increment      1: Step Time =    1.000,"PART-1-1",           357,       9.58617,      -22.6245,            0.,NA,NA,"",   22.6169E-03,   6.27256E-03,  -21.7296E-03,   3.60231E-03
C:/temp/dataset/7/16_10.odb,Step-1,Increment      1: Step Time =    1.000,"PART-1-1",           358,       10.0221,      -21.0980,            0.,NA,NA,"",   31.2954E-03,   12.4595E-03,  -28.7083E-03,   3.85411E-03
C:/temp/dataset/7/16_10.odb,Step-1,Increment      1: Step Time =    1.000,"PART-1-1",           359,       8.57328,      -20.1623,            0.,NA,NA,"",   27.9972E-03,   14.3935E-03,  -24.0139E-03,   2.76491E-03
C:/temp/dataset/7/16_10.odb,Step-1,Increment      1: Step Time =    1.000,"PART-1-1",           360,       11.1406,      -27.5456,            0.,NA,NA,"",   7.98021E-03,   183.791E-06,  -7.97810E-03,   4.31152E-03
C:/temp/dataset/7/16_10.odb,Step-1,Increment      1: Step Time =    1.000,"PART-1-1",           361,         11.25,          -30.,            0.,NA,NA,"",            0.,  -532.356E-42,  -6.80017E-39,   3.49691E-03
C:/temp/dataset/7/16_10.odb,Step-1,Increment      1: Step Time =    1.000,"PART-1-1",           362,       11.2605,      -16.1933,            0.,NA,NA,"",   70.2637E-03,   42.8321E-03,  -55.6992E-03,   4.80670E-03
C:/temp/dataset/7/16_10.odb,Step-1,Increment      1: Step Time =    1.000,"PART-1-1",           363,       10.2521,      -15.0492,            0.,NA,NA,"",   71.6998E-03,   49.9256E-03,  -51.4615E-03,   3.98232E-03
C:/temp/dataset/7/16_10.odb,Step-1,Increment      1: Step Time =    1.000,"PART-1-1",           364,       9.32474,      -16.3084,            0.,NA,NA,"",   55.1044E-03,   38.5682E-03,  -39.3573E-03,   3.22432E-03
C:/temp/dataset/7/16_10.odb,Step-1,Increment      1: Step Time =    1.000,"PART-1-1",           365,       10.3331,      -17.4526,            0.,NA,NA,"",   54.0933E-03,   32.2090E-03,  -43.4588E-03,   4.04608E-03
C:/temp/dataset/7/16_10.odb,Step-1,Increment      1: Step Time =    1.000,"PART-1-1",           366,       7.44248,      -19.0256,            0.,NA,NA,"",   27.5130E-03,   19.0435E-03,  -19.8573E-03,   1.83009E-03
C:/temp/dataset/7/16_10.odb,Step-1,Increment      1: Step Time =    1.000,"PART-1-1",           367,       6.17612,      -17.5789,            0.,NA,NA,"",   30.1681E-03,   27.0735E-03,  -13.3095E-03,   711.636E-06
C:/temp/dataset/7/16_10.odb,Step-1,Increment      1: Step Time =    1.000,"PART-1-1",           368,            5.,      -18.5417,            0.,NA,NA,"",   21.6577E-03,   20.9413E-03,  -5.52429E-03,   154.566E-06
C:/temp/dataset/7/16_10.odb,Step-1,Increment      1: Step Time =    1.000,"PART-1-1",           369,       12.8407,      -6.03443,            0.,NA,NA,"",   208.461E-03,   164.759E-03,  -127.712E-03,   6.69172E-03
C:/temp/dataset/7/16_10.odb,Step-1,Increment      1: Step Time =    1.000,"PART-1-1",           370,           15.,         -6.25,            0.,NA,NA,"",   233.553E-03,   168.622E-03,  -161.597E-03,   8.92782E-03
C:/temp/dataset/7/16_10.odb,Step-1,Increment      1: Step Time =    1.000,"PART-1-1",           371,       13.9462,      -4.87251,            0.,NA,NA,"",   242.969E-03,   187.565E-03,  -154.444E-03,   7.92764E-03
C:/temp/dataset/7/16_10.odb,Step-1,Increment      1: Step Time =    1.000,"PART-1-1",           372,       7.64514,      -8.69832,            0.,NA,NA,"",   122.214E-03,   116.455E-03,  -37.0723E-03,   1.44740E-03
C:/temp/dataset/7/16_10.odb,Step-1,Increment      1: Step Time =    1.000,"PART-1-1",           373,       8.20020,      -7.75016,            0.,NA,NA,"",   138.342E-03,   130.204E-03,  -46.7491E-03,   1.95493E-03
C:/temp/dataset/7/16_10.odb,Step-1,Increment      1: Step Time =    1.000,"PART-1-1",           374,       7.19150,      -7.07454,            0.,NA,NA,"",   143.383E-03,   139.739E-03,  -32.1209E-03,   924.957E-06
C:/temp/dataset/7/16_10.odb,Step-1,Increment      1: Step Time =    1.000,"PART-1-1",           375,       7.97278,      -1.35169,            0.,NA,NA,"",   248.397E-03,   242.602E-03,  -53.3420E-03,   1.48504E-03
C:/temp/dataset/7/16_10.odb,Step-1,Increment      1: Step Time =    1.000,"PART-1-1",           376,       9.01285,  -423.179E-03,            0.,NA,NA,"",   274.274E-03,   262.984E-03,  -77.8839E-03,   2.63315E-03
C:/temp/dataset/7/16_10.odb,Step-1,Increment      1: Step Time =    1.000,"PART-1-1",           377,       8.04185,   850.611E-03,            0.,NA,NA,"",   296.598E-03,   290.811E-03,  -58.3041E-03,   1.48929E-03
C:/temp/dataset/7/16_10.odb,Step-1,Increment      1: Step Time =    1.000,"PART-1-1",           378,       8.08837,       3.05311,            0.,NA,NA,"",   349.826E-03,   344.110E-03,  -62.9818E-03,   1.47574E-03
C:/temp/dataset/7/16_10.odb,Step-1,Increment      1: Step Time =    1.000,"PART-1-1",           379,       9.11337,       4.08618,            0.,NA,NA,"",   382.763E-03,   371.460E-03,  -92.3295E-03,   2.67732E-03
C:/temp/dataset/7/16_10.odb,Step-1,Increment      1: Step Time =    1.000,"PART-1-1",           380,       8.10868,       5.26217,            0.,NA,NA,"",   408.387E-03,   402.827E-03,  -67.1588E-03,   1.43739E-03
C:/temp/dataset/7/16_10.odb,Step-1,Increment      1: Step Time =    1.000,"PART-1-1",           381,       7.08888,       6.39331,            0.,NA,NA,"",   436.827E-03,   435.081E-03,  -39.0107E-03,   231.744E-06
C:/temp/dataset/7/16_10.odb,Step-1,Increment      1: Step Time =    1.000,"PART-1-1",           382,            5.,       6.45833,            0.,NA,NA,"",   439.546E-03,   438.982E-03,   22.2542E-03,   2.47278E-03
C:/temp/dataset/7/16_10.odb,Step-1,Increment      1: Step Time =    1.000,"PART-1-1",           383,           15.,         16.25,            0.,NA,NA,"",   872.000E-03,   790.126E-03,  -368.897E-03,   10.4032E-03
C:/temp/dataset/7/16_10.odb,Step-1,Increment      1: Step Time =    1.000,"PART-1-1",           384,       13.6214,       17.6671,            0.,NA,NA,"",   904.181E-03,   843.924E-03,  -324.555E-03,   8.58006E-03
C:/temp/dataset/7/16_10.odb,Step-1,Increment      1: Step Time =    1.000,"PART-1-1",           385,       12.4694,       16.3805,            0.,NA,NA,"",   831.334E-03,   787.569E-03,  -266.179E-03,   7.04124E-03
C:/temp/dataset/7/16_10.odb,Step-1,Increment      1: Step Time =    1.000,"PART-1-1",           386,       10.0881,       9.74649,            0.,NA,NA,"",   558.003E-03,   539.979E-03,  -140.676E-03,   3.84465E-03
C:/temp/dataset/7/16_10.odb,Step-1,Increment      1: Step Time =    1.000,"PART-1-1",           387,       9.10561,       8.57814,            0.,NA,NA,"",   512.320E-03,   501.530E-03,  -104.591E-03,   2.60709E-03
C:/temp/dataset/7/16_10.odb,Step-1,Increment      1: Step Time =    1.000,"PART-1-1",           388,       10.1162,       7.46436,            0.,NA,NA,"",   486.544E-03,   468.143E-03,  -132.540E-03,   3.87973E-03
C:/temp/dataset/7/16_10.odb,Step-1,Increment      1: Step Time =    1.000,"PART-1-1",           389,       11.0986,       8.63272,            0.,NA,NA,"",   533.058E-03,   505.662E-03,  -168.692E-03,   5.11968E-03
C:/temp/dataset/7/16_10.odb,Step-1,Increment      1: Step Time =    1.000,"PART-1-1",           390,       9.96644,       19.4124,            0.,NA,NA,"",   929.788E-03,   912.895E-03,  -176.432E-03,   3.84127E-03
C:/temp/dataset/7/16_10.odb,Step-1,Increment      1: Step Time =    1.000,"PART-1-1",           391,       10.9020,       20.3065,            0.,NA,NA,"",   979.846E-03,   954.115E-03,  -223.073E-03,   4.91004E-03
C:/temp/dataset/7/16_10.odb,Step-1,Increment      1: Step Time =    1.000,"PART-1-1",           392,       10.1153,       21.2880,            0.,NA,NA,"",       1.01710,   998.888E-03,  -191.604E-03,   3.79054E-03
C:/temp/dataset/7/16_10.odb,Step-1,Increment      1: Step Time =    1.000,"PART-1-1",           393,       9.17975,       20.3940,            0.,NA,NA,"",   967.972E-03,   957.084E-03,  -144.773E-03,   2.74214E-03
C:/temp/dataset/7/16_10.odb,Step-1,Increment      1: Step Time =    1.000,"PART-1-1",           394,           15.,         28.75,            0.,NA,NA,"",       1.47503,       1.38675,  -502.603E-03,   10.5372E-03
C:/temp/dataset/7/16_10.odb,Step-1,Increment      1: Step Time =    1.000,"PART-1-1",           395,       14.0625,           30.,            0.,NA,NA,"",       1.52552,       1.45340,  -463.497E-03,   9.82864E-03
C:/temp/dataset/7/16_10.odb,Step-1,Increment      1: Step Time =    1.000,"PART-1-1",           396,       13.1487,       28.7914,            0.,NA,NA,"",       1.44027,       1.38363,  -399.937E-03,   10.0478E-03
C:/temp/dataset/7/16_10.odb,Step-1,Increment      1: Step Time =    1.000,"PART-1-1",           397,       14.0862,       27.5414,            0.,NA,NA,"",       1.38862,       1.31741,  -438.964E-03,   10.1980E-03
C:/temp/dataset/7/16_10.odb,Step-1,Increment      1: Step Time =    1.000,"PART-1-1",           398,       12.2440,       25.2848,            0.,NA,NA,"",       1.23720,       1.19521,  -319.595E-03,   6.56260E-03
C:/temp/dataset/7/16_10.odb,Step-1,Increment      1: Step Time =    1.000,"PART-1-1",           399,       13.1763,       26.3811,            0.,NA,NA,"",       1.30903,       1.25324,  -378.099E-03,   8.67276E-03
C:/temp/dataset/7/16_10.odb,Step-1,Increment      1: Step Time =    1.000,"PART-1-1",           400,       12.2376,       27.6217,            0.,NA,NA,"",       1.35908,       1.31669,  -336.775E-03,   8.01497E-03
C:/temp/dataset/7/16_10.odb,Step-1,Increment      1: Step Time =    1.000,"PART-1-1",           401,       11.3053,       26.5254,            0.,NA,NA,"",       1.28801,       1.25775,  -277.540E-03,   5.22090E-03
C:/temp/dataset/7/16_10.odb,Step-1,Increment      1: Step Time =    1.000,"PART-1-1",           402,       12.1875,           30.,            0.,NA,NA,"",       1.49381,       1.45049,  -357.110E-03,   8.85052E-03
C:/temp/dataset/7/16_10.odb,Step-1,Increment      1: Step Time =    1.000,"PART-1-1",           403,        6.5625,           30.,            0.,NA,NA,"",       1.44246,       1.44203,  -35.2994E-03,   1.84487E-03
C:/temp/dataset/7/16_10.odb,Step-1,Increment      1: Step Time =    1.000,"PART-1-1",           404,       5.40000,       28.6589,            0.,NA,NA,"",       1.37423,       1.37399,   25.5040E-03,   885.019E-06
C:/temp/dataset/7/16_10.odb,Step-1,Increment      1: Step Time =    1.000,"PART-1-1",           405,       6.32063,       27.5176,            0.,NA,NA,"",       1.31447,       1.31433,  -18.9631E-03,   1.12436E-03
C:/temp/dataset/7/16_10.odb,Step-1,Increment      1: Step Time =    1.000,"PART-1-1",           406,        2.8125,           30.,            0.,NA,NA,"",       1.45163,       1.44359,   152.512E-03,   313.240E-06
C:/temp/dataset/7/16_10.odb,Step-1,Increment      1: Step Time =    1.000,"PART-1-1",           407,       1.86631,       29.3706,            0.,NA,NA,"",       1.42730,       1.41315,   200.533E-03,   170.880E-06
C:/temp/dataset/7/16_10.odb,Step-1,Increment      1: Step Time =    1.000,"PART-1-1",           408,       2.52123,       28.3750,            0.,NA,NA,"",       1.37292,       1.36245,   169.194E-03,   405.395E-06
C:/temp/dataset/7/16_10.odb,Step-1,Increment      1: Step Time =    1.000,"PART-1-1",           409,       3.46742,       29.0044,            0.,NA,NA,"",       1.39840,       1.39313,   121.262E-03,   445.428E-06
C:/temp/dataset/7/16_10.odb,Step-1,Increment      1: Step Time =    1.000,"PART-1-1",           410,       1.19073,       28.4486,            0.,NA,NA,"",       1.38783,       1.36772,   235.418E-03,   203.326E-06
C:/temp/dataset/7/16_10.odb,Step-1,Increment      1: Step Time =    1.000,"PART-1-1",           411,      -2.48443,       27.9761,            0.,NA,NA,"",       1.41243,       1.34859,   419.813E-03,   17.4950E-06
C:/temp/dataset/7/16_10.odb,Step-1,Increment      1: Step Time =    1.000,"PART-1-1",           412,       -2.8125,           30.,            0.,NA,NA,"",       1.51388,       1.45042,   433.723E-03,   23.5812E-06
C:/temp/dataset/7/16_10.odb,Step-1,Increment      1: Step Time =    1.000,"PART-1-1",           413,      -7.28733,       29.0238,            0.,NA,NA,"",       1.55395,       1.40717,   659.281E-03,   5.63616E-06
C:/temp/dataset/7/16_10.odb,Step-1,Increment      1: Step Time =    1.000,"PART-1-1",           414,      -6.19423,       28.1363,            0.,NA,NA,"",       1.48992,       1.36129,   605.582E-03,   7.88447E-06
C:/temp/dataset/7/16_10.odb,Step-1,Increment      1: Step Time =    1.000,"PART-1-1",           415,       -6.5625,           30.,            0.,NA,NA,"",       1.58245,       1.45520,   621.709E-03,   10.6828E-06
C:/temp/dataset/7/16_10.odb,Step-1,Increment      1: Step Time =    1.000,"PART-1-1",           416,      -11.8079,       27.5253,            0.,NA,NA,"",       1.60556,       1.33772,   887.866E-03,   1.40668E-06
C:/temp/dataset/7/16_10.odb,Step-1,Increment      1: Step Time =    1.000,"PART-1-1",           417,      -12.6125,       26.1842,            0.,NA,NA,"",       1.57524,       1.27148,   929.901E-03,   793.127E-09
C:/temp/dataset/7/16_10.odb,Step-1,Increment      1: Step Time =    1.000,"PART-1-1",           418,      -8.13992,       23.4434,            0.,NA,NA,"",       1.33271,       1.12842,   709.071E-03,   5.59526E-06
C:/temp/dataset/7/16_10.odb,Step-1,Increment      1: Step Time =    1.000,"PART-1-1",           419,       -8.4375,           30.,            0.,NA,NA,"",       1.62382,       1.45757,   715.733E-03,   4.95953E-06
C:/temp/dataset/7/16_10.odb,Step-1,Increment      1: Step Time =    1.000,"PART-1-1",           420,      -8.00049,       27.9480,            0.,NA,NA,"",       1.52270,       1.35413,   696.398E-03,   5.52012E-06
C:/temp/dataset/7/16_10.odb,Step-1,Increment      1: Step Time =    1.000,"PART-1-1",           421,      -12.1875,           30.,            0.,NA,NA,"",       1.71905,       1.46230,   903.787E-03,   507.390E-09
C:/temp/dataset/7/16_10.odb,Step-1,Increment      1: Step Time =    1.000,"PART-1-1",           422,          -15.,         26.25,            0.,NA,NA,"",       1.65357,       1.27778,       1.04954,   314.982E-09
C:/temp/dataset/7/16_10.odb,Step-1,Increment      1: Step Time =    1.000,"PART-1-1",           423,  -614.199E-03,       25.3895,            0.,NA,NA,"",       1.26028,       1.21651,   329.253E-03,   103.725E-06
C:/temp/dataset/7/16_10.odb,Step-1,Increment      1: Step Time =    1.000,"PART-1-1",           424,      -1.97220,       26.8586,            0.,NA,NA,"",       1.35112,       1.29193,   395.541E-03,   36.5125E-06
C:/temp/dataset/7/16_10.odb,Step-1,Increment      1: Step Time =    1.000,"PART-1-1",           425,      -1.74113,       25.3247,            0.,NA,NA,"",       1.27452,       1.21472,   385.832E-03,   55.7785E-06
C:/temp/dataset/7/16_10.odb,Step-1,Increment      1: Step Time =    1.000,"PART-1-1",           426,       8.18659,       21.6045,            0.,NA,NA,"",       1.01935,       1.01420,  -102.322E-03,   1.53102E-03
C:/temp/dataset/7/16_10.odb,Step-1,Increment      1: Step Time =    1.000,"PART-1-1",           427,       9.25192,       22.4602,            0.,NA,NA,"",       1.06609,       1.05472,  -155.297E-03,   2.41667E-03
C:/temp/dataset/7/16_10.odb,Step-1,Increment      1: Step Time =    1.000,"PART-1-1",           428,       8.38526,       23.6138,            0.,NA,NA,"",       1.11807,       1.11199,  -116.431E-03,   1.39460E-03
C:/temp/dataset/7/16_10.odb,Step-1,Increment      1: Step Time =    1.000,"PART-1-1",           429,       7.31993,       22.7581,            0.,NA,NA,"",       1.07308,       1.07123,  -63.1373E-03,   860.555E-06
C:/temp/dataset/7/16_10.odb,Step-1,Increment      1: Step Time =    1.000,"PART-1-1",           430,           15.,         26.25,            0.,NA,NA,"",       1.33872,       1.25196,  -474.087E-03,   11.1015E-03
C:/temp/dataset/7/16_10.odb,Step-1,Increment      1: Step Time =    1.000,"PART-1-1",           431,        4.6875,           30.,            0.,NA,NA,"",       1.44338,       1.44217,   58.9687E-03,   874.446E-06
C:/temp/dataset/7/16_10.odb,Step-1,Increment      1: Step Time =    1.000,"PART-1-1",           432,       9.38339,       24.5308,            0.,NA,NA,"",       1.16886,       1.15666,  -168.440E-03,   2.11331E-03
C:/temp/dataset/7/16_10.odb,Step-1,Increment      1: Step Time =    1.000,"PART-1-1",           433,       8.53172,       25.6694,            0.,NA,NA,"",       1.22209,       1.21535,  -128.143E-03,   1.15519E-03
C:/temp/dataset/7/16_10.odb,Step-1,Increment      1: Step Time =    1.000,"PART-1-1",           434,       7.53359,       24.7524,            0.,NA,NA,"",       1.17284,       1.17035,  -76.3604E-03,   958.787E-06
C:/temp/dataset/7/16_10.odb,Step-1,Increment      1: Step Time =    1.000,"PART-1-1",           435,     937.5E-03,           30.,            0.,NA,NA,"",       1.46648,       1.44569,   246.085E-03,   72.0925E-06
C:/temp/dataset/7/16_10.odb,Step-1,Increment      1: Step Time =    1.000,"PART-1-1",           436,       5.64845,       26.5466,            0.,NA,NA,"",       1.26542,       1.26533,   15.6828E-03,   1.06720E-03
C:/temp/dataset/7/16_10.odb,Step-1,Increment      1: Step Time =    1.000,"PART-1-1",           437,       4.65082,       24.6490,            0.,NA,NA,"",       1.17269,       1.17079,   66.6759E-03,   1.07997E-03
C:/temp/dataset/7/16_10.odb,Step-1,Increment      1: Step Time =    1.000,"PART-1-1",           438,       5.82711,       24.9927,            0.,NA,NA,"",       1.18581,       1.18578,   8.08414E-03,   1.11165E-03
C:/temp/dataset/7/16_10.odb,Step-1,Increment      1: Step Time =    1.000,"PART-1-1",           439,      -3.57200,       27.5772,            0.,NA,NA,"",       1.41218,       1.32997,   474.813E-03,   5.33726E-06
C:/temp/dataset/7/16_10.odb,Step-1,Increment      1: Step Time =    1.000,"PART-1-1",           440,      -3.05977,       26.4597,            0.,NA,NA,"",       1.35066,       1.27331,   450.534E-03,   17.5418E-06
C:/temp/dataset/7/16_10.odb,Step-1,Increment      1: Step Time =    1.000,"PART-1-1",           441,      -4.23358,       26.7178,            0.,NA,NA,"",       1.38468,       1.28772,   509.056E-03,   6.73395E-06
C:/temp/dataset/7/16_10.odb,Step-1,Increment      1: Step Time =    1.000,"PART-1-1",           442,      -5.07335,       27.3652,            0.,NA,NA,"",       1.43126,       1.32123,   550.347E-03,   7.24660E-06
C:/temp/dataset/7/16_10.odb,Step-1,Increment      1: Step Time =    1.000,"PART-1-1",           443,      -5.65848,       26.3267,            0.,NA,NA,"",       1.39649,       1.26990,   580.995E-03,   7.46775E-06
C:/temp/dataset/7/16_10.odb,Step-1,Increment      1: Step Time =    1.000,"PART-1-1",           444,      -6.77936,       27.0978,            0.,NA,NA,"",       1.45630,       1.30996,   636.231E-03,   6.71352E-06
C:/temp/dataset/7/16_10.odb,Step-1,Increment      1: Step Time =    1.000,"PART-1-1",           445,       13.0726,       6.26892,            0.,NA,NA,"",   488.874E-03,   439.146E-03,  -214.822E-03,   7.53173E-03
C:/temp/dataset/7/16_10.odb,Step-1,Increment      1: Step Time =    1.000,"PART-1-1",           446,       14.0382,       5.02867,            0.,NA,NA,"",   469.335E-03,   407.454E-03,  -232.931E-03,   8.66943E-03
C:/temp/dataset/7/16_10.odb,Step-1,Increment      1: Step Time =    1.000,"PART-1-1",           447,           15.,          6.25,            0.,NA,NA,"",   521.360E-03,   445.375E-03,  -271.029E-03,   9.93526E-03
C:/temp/dataset/7/16_10.odb,Step-1,Increment      1: Step Time =    1.000,"PART-1-1",           448,       14.0344,       7.49025,            0.,NA,NA,"",   541.090E-03,   478.217E-03,  -253.155E-03,   8.79598E-03
C:/temp/dataset/7/16_10.odb,Step-1,Increment      1: Step Time =    1.000,"PART-1-1",           449,            5.,       12.7083,            0.,NA,NA,"",   645.404E-03,   644.518E-03,   33.7951E-03,   2.83287E-03
C:/temp/dataset/7/16_10.odb,Step-1,Increment      1: Step Time =    1.000,"PART-1-1",           450,       6.97129,       12.7632,            0.,NA,NA,"",   644.971E-03,   643.838E-03,  -38.2077E-03,   286.975E-06
C:/temp/dataset/7/16_10.odb,Step-1,Increment      1: Step Time =    1.000,"PART-1-1",           451,       8.08110,       9.66220,            0.,NA,NA,"",   541.072E-03,   536.036E-03,  -73.6507E-03,   1.29191E-03
C:/temp/dataset/7/16_10.odb,Step-1,Increment      1: Step Time =    1.000,"PART-1-1",           452,       8.10192,       7.46894,            0.,NA,NA,"",   472.199E-03,   466.886E-03,  -70.6355E-03,   1.37076E-03
C:/temp/dataset/7/16_10.odb,Step-1,Increment      1: Step Time =    1.000,"PART-1-1",           453,            5.,        -1.875,            0.,NA,NA,"",   232.921E-03,   232.765E-03,   8.53991E-03,   1.84317E-03
C:/temp/dataset/7/16_10.odb,Step-1,Increment      1: Step Time =    1.000,"PART-1-1",           454,       6.91011,      -2.19684,            0.,NA,NA,"",   227.273E-03,   225.228E-03,  -30.4147E-03,   392.496E-06
C:/temp/dataset/7/16_10.odb,Step-1,Increment      1: Step Time =    1.000,"PART-1-1",           455,       11.0205,  -751.161E-03,            0.,NA,NA,"",   285.762E-03,   258.821E-03,  -121.126E-03,   4.89812E-03
C:/temp/dataset/7/16_10.odb,Step-1,Increment      1: Step Time =    1.000,"PART-1-1",           456,       13.1408,      -16.1676,            0.,NA,NA,"",   85.6717E-03,   47.6720E-03,  -71.1830E-03,   6.34439E-03
C:/temp/dataset/7/16_10.odb,Step-1,Increment      1: Step Time =    1.000,"PART-1-1",           457,       14.0839,      -17.4497,            0.,NA,NA,"",   81.8077E-03,   41.4433E-03,  -70.5333E-03,   7.00494E-03
C:/temp/dataset/7/16_10.odb,Step-1,Increment      1: Step Time =    1.000,"PART-1-1",           458,           15.,        -16.25,            0.,NA,NA,"",   100.345E-03,   52.9563E-03,  -85.2337E-03,   7.87985E-03
C:/temp/dataset/7/16_10.odb,Step-1,Increment      1: Step Time =    1.000,"PART-1-1",           459,            5.,       -14.375,            0.,NA,NA,"",   52.1823E-03,   52.0126E-03,  -4.20575E-03,   615.493E-06
C:/temp/dataset/7/16_10.odb,Step-1,Increment      1: Step Time =    1.000,"PART-1-1",           460,       6.11916,      -15.3567,            0.,NA,NA,"",   45.6823E-03,   43.4643E-03,  -14.0616E-03,   483.573E-06
C:/temp/dataset/7/16_10.odb,Step-1,Increment      1: Step Time =    1.000,"PART-1-1",           461,       13.0403,       1.40949,            0.,NA,NA,"",   360.310E-03,   312.160E-03,  -179.943E-03,   7.28312E-03
C:/temp/dataset/7/16_10.odb,Step-1,Increment      1: Step Time =    1.000,"PART-1-1",           462,       14.0142,   96.5788E-03,            0.,NA,NA,"",   344.562E-03,   285.369E-03,  -193.101E-03,   8.34402E-03
C:/temp/dataset/7/16_10.odb,Step-1,Increment      1: Step Time =    1.000,"PART-1-1",           463,           15.,          1.25,            0.,NA,NA,"",   387.638E-03,   315.320E-03,  -225.470E-03,   9.57522E-03
C:/temp/dataset/7/16_10.odb,Step-1,Increment      1: Step Time =    1.000,"PART-1-1",           464,       14.0261,       2.56291,            0.,NA,NA,"",   403.769E-03,   343.179E-03,  -212.740E-03,   8.51195E-03
C:/temp/dataset/7/16_10.odb,Step-1,Increment      1: Step Time =    1.000,"PART-1-1",           465,            5.,      -10.2083,            0.,NA,NA,"",   96.7490E-03,   96.7401E-03,  -1.30531E-03,   1.06076E-03
C:/temp/dataset/7/16_10.odb,Step-1,Increment      1: Step Time =    1.000,"PART-1-1",           466,       6.86187,      -9.97015,            0.,NA,NA,"",   102.539E-03,   99.4293E-03,  -25.0592E-03,   766.713E-06
C:/temp/dataset/7/16_10.odb,Step-1,Increment      1: Step Time =    1.000,"PART-1-1",           467,            5.,      -24.7917,            0.,NA,NA,"",   5.62826E-03,  -3.05206E-03,  -4.72888E-03,   356.449E-06
C:/temp/dataset/7/16_10.odb,Step-1,Increment      1: Step Time =    1.000,"PART-1-1",           468,       6.13477,      -25.7685,            0.,NA,NA,"",   7.01262E-03,  -4.01442E-03,  -5.74989E-03,   1.29612E-03
C:/temp/dataset/7/16_10.odb,Step-1,Increment      1: Step Time =    1.000,"PART-1-1",           469,       13.1299,      -20.9468,            0.,NA,NA,"",   48.8521E-03,   19.9574E-03,  -44.5896E-03,   5.98111E-03
C:/temp/dataset/7/16_10.odb,Step-1,Increment      1: Step Time =    1.000,"PART-1-1",           470,       14.0295,      -22.3095,            0.,NA,NA,"",   44.3629E-03,   17.3440E-03,  -40.8320E-03,   6.43547E-03
C:/temp/dataset/7/16_10.odb,Step-1,Increment      1: Step Time =    1.000,"PART-1-1",           471,           15.,        -21.25,            0.,NA,NA,"",   56.6063E-03,   24.2513E-03,  -51.1483E-03,   7.22928E-03
C:/temp/dataset/7/16_10.odb,Step-1,Increment      1: Step Time =    1.000,"PART-1-1",           472,       14.1003,      -19.8873,            0.,NA,NA,"",   61.9669E-03,   27.5201E-03,  -55.5207E-03,   6.76252E-03
C:/temp/dataset/7/16_10.odb,Step-1,Increment      1: Step Time =    1.000,"PART-1-1",           473,            5.,       -26.875,            0.,NA,NA,"",   6.53238E-03,  -5.11727E-03,  -4.06024E-03,   670.668E-06
C:/temp/dataset/7/16_10.odb,Step-1,Increment      1: Step Time =    1.000,"PART-1-1",           474,       7.35824,      -26.7740,            0.,NA,NA,"",   6.69853E-03,  -3.68757E-03,  -5.59215E-03,   2.24911E-03
C:/temp/dataset/7/16_10.odb,Step-1,Increment      1: Step Time =    1.000,"PART-1-1",           475,       11.2665,      -23.4125,            0.,NA,NA,"",   26.0385E-03,   7.15776E-03,  -25.0354E-03,   4.69592E-03
C:/temp/dataset/7/16_10.odb,Step-1,Increment      1: Step Time =    1.000,"PART-1-1",           476,       10.8283,      -24.9299,            0.,NA,NA,"",   17.7993E-03,   2.92597E-03,  -17.5572E-03,   4.40996E-03
C:/temp/dataset/7/16_10.odb,Step-1,Increment      1: Step Time =    1.000,"PART-1-1",           477,            5.,      -16.4583,            0.,NA,NA,"",   35.2317E-03,   34.8654E-03,  -5.06747E-03,   384.128E-06
C:/temp/dataset/7/16_10.odb,Step-1,Increment      1: Step Time =    1.000,"PART-1-1",           478,       7.29529,      -16.4772,            0.,NA,NA,"",   41.9080E-03,   35.2429E-03,  -22.6764E-03,   1.55676E-03
C:/temp/dataset/7/16_10.odb,Step-1,Increment      1: Step Time =    1.000,"PART-1-1",           479,            5.,       18.9583,            0.,NA,NA,"",   896.782E-03,   895.578E-03,   46.4588E-03,   4.07376E-03
C:/temp/dataset/7/16_10.odb,Step-1,Increment      1: Step Time =    1.000,"PART-1-1",           480,       6.05050,       17.7875,            0.,NA,NA,"",   843.014E-03,   843.014E-03,  -1.12502E-03,   1.72996E-03
C:/temp/dataset/7/16_10.odb,Step-1,Increment      1: Step Time =    1.000,"PART-1-1",           481,       7.11573,       18.6629,            0.,NA,NA,"",   880.738E-03,   879.440E-03,  -47.8014E-03,   527.927E-06
C:/temp/dataset/7/16_10.odb,Step-1,Increment      1: Step Time =    1.000,"PART-1-1",           482,       6.06524,       19.8338,            0.,NA,NA,"",   932.297E-03,   932.296E-03,  -1.25916E-03,   1.55471E-03
C:/temp/dataset/7/16_10.odb,Step-1,Increment      1: Step Time =    1.000,"PART-1-1",           483,       6.98524,       16.7251,            0.,NA,NA,"",   798.616E-03,   797.577E-03,  -40.7253E-03,   472.861E-06
C:/temp/dataset/7/16_10.odb,Step-1,Increment      1: Step Time =    1.000,"PART-1-1",           484,            5.,        16.875,            0.,NA,NA,"",   808.101E-03,   807.033E-03,   41.5230E-03,   3.15388E-03
C:/temp/dataset/7/16_10.odb,Step-1,Increment      1: Step Time =    1.000,"PART-1-1",           485,       7.88091,       13.8682,            0.,NA,NA,"",   688.266E-03,   684.350E-03,  -73.3147E-03,   952.469E-06
C:/temp/dataset/7/16_10.odb,Step-1,Increment      1: Step Time =    1.000,"PART-1-1",           486,       7.65947,       15.6945,            0.,NA,NA,"",   758.331E-03,   755.337E-03,  -67.3156E-03,   685.894E-06
C:/temp/dataset/7/16_10.odb,Step-1,Increment      1: Step Time =    1.000,"PART-1-1",           487,       8.92157,       12.9075,            0.,NA,NA,"",   658.009E-03,   648.696E-03,  -110.314E-03,   2.33378E-03
C:/temp/dataset/7/16_10.odb,Step-1,Increment      1: Step Time =    1.000,"PART-1-1",           488,       9.98918,       11.9956,            0.,NA,NA,"",   633.702E-03,   616.608E-03,  -146.195E-03,   3.72293E-03
C:/temp/dataset/7/16_10.odb,Step-1,Increment      1: Step Time =    1.000,"PART-1-1",           489,       10.7968,       13.3004,            0.,NA,NA,"",   689.225E-03,   664.842E-03,  -181.705E-03,   4.79129E-03
C:/temp/dataset/7/16_10.odb,Step-1,Increment      1: Step Time =    1.000,"PART-1-1",           490,       13.0565,       8.69239,            0.,NA,NA,"",   562.189E-03,   512.127E-03,  -231.911E-03,   7.60309E-03
C:/temp/dataset/7/16_10.odb,Step-1,Increment      1: Step Time =    1.000,"PART-1-1",           491,           15.,          8.75,            0.,NA,NA,"",   598.305E-03,   520.707E-03,  -294.675E-03,   10.0934E-03
C:/temp/dataset/7/16_10.odb,Step-1,Increment      1: Step Time =    1.000,"PART-1-1",           492,       14.0220,       9.95215,            0.,NA,NA,"",   619.462E-03,   555.789E-03,  -273.556E-03,   8.89943E-03
C:/temp/dataset/7/16_10.odb,Step-1,Increment      1: Step Time =    1.000,"PART-1-1",           493,       8.15713,      -6.43409,            0.,NA,NA,"",   157.733E-03,   150.115E-03,  -48.4289E-03,   1.87211E-03
C:/temp/dataset/7/16_10.odb,Step-1,Increment      1: Step Time =    1.000,"PART-1-1",           494,       7.55707,      -5.50995,            0.,NA,NA,"",   169.496E-03,   164.770E-03,  -39.7467E-03,   1.20248E-03
C:/temp/dataset/7/16_10.odb,Step-1,Increment      1: Step Time =    1.000,"PART-1-1",           495,       13.0039,      -1.03047,            0.,NA,NA,"",   304.860E-03,   257.801E-03,  -162.721E-03,   7.12476E-03
C:/temp/dataset/7/16_10.odb,Step-1,Increment      1: Step Time =    1.000,"PART-1-1",           496,       13.9897,      -2.37705,            0.,NA,NA,"",   291.145E-03,   233.644E-03,  -173.711E-03,   8.15122E-03
C:/temp/dataset/7/16_10.odb,Step-1,Increment      1: Step Time =    1.000,"PART-1-1",           497,           15.,         -1.25,            0.,NA,NA,"",   330.368E-03,   260.194E-03,  -203.573E-03,   9.37341E-03
C:/temp/dataset/7/16_10.odb,Step-1,Increment      1: Step Time =    1.000,"PART-1-1",           498,       11.0188,      -11.3444,            0.,NA,NA,"",   114.844E-03,   87.7371E-03,  -74.1040E-03,   4.70142E-03
C:/temp/dataset/7/16_10.odb,Step-1,Increment      1: Step Time =    1.000,"PART-1-1",           499,       9.94563,      -10.3262,            0.,NA,NA,"",   117.178E-03,   97.7961E-03,  -64.5500E-03,   3.71065E-03
C:/temp/dataset/7/16_10.odb,Step-1,Increment      1: Step Time =    1.000,"PART-1-1",           500,       9.07908,      -11.6768,            0.,NA,NA,"",   94.9347E-03,   80.8600E-03,  -49.7419E-03,   2.91471E-03
C:/temp/dataset/7/16_10.odb,Step-1,Increment      1: Step Time =    1.000,"PART-1-1",           501,       10.1523,      -12.6950,            0.,NA,NA,"",   92.6560E-03,   71.5788E-03,  -58.8355E-03,   3.90075E-03
C:/temp/dataset/7/16_10.odb,Step-1,Increment      1: Step Time =    1.000,"PART-1-1",           502,       11.2699,       24.2837,            0.,NA,NA,"",       1.17387,       1.14406,  -262.871E-03,   4.98165E-03
C:/temp/dataset/7/16_10.odb,Step-1,Increment      1: Step Time =    1.000,"PART-1-1",           503,       12.1787,       22.9892,            0.,NA,NA,"",       1.12257,       1.08172,  -300.082E-03,   6.42861E-03
C:/temp/dataset/7/16_10.odb,Step-1,Increment      1: Step Time =    1.000,"PART-1-1",           504,           15.,         -3.75,            0.,NA,NA,"",   279.114E-03,   211.375E-03,  -182.278E-03,   9.15768E-03
C:/temp/dataset/7/16_10.odb,Step-1,Increment      1: Step Time =    1.000,"PART-1-1",           505,       12.9359,      -3.49956,            0.,NA,NA,"",   254.423E-03,   208.863E-03,  -145.283E-03,   6.92547E-03
C:/temp/dataset/7/16_10.odb,Step-1,Increment      1: Step Time =    1.000,"PART-1-1",           506,           15.,        -11.25,            0.,NA,NA,"",   158.015E-03,   100.278E-03,  -122.119E-03,   8.42833E-03
C:/temp/dataset/7/16_10.odb,Step-1,Increment      1: Step Time =    1.000,"PART-1-1",           507,       12.9838,      -11.1958,            0.,NA,NA,"",   136.394E-03,   94.2395E-03,  -98.6011E-03,   6.53493E-03
C:/temp/dataset/7/16_10.odb,Step-1,Increment      1: Step Time =    1.000,"PART-1-1",           508,           15.,         11.25,            0.,NA,NA,"",   682.267E-03,   603.158E-03,  -318.886E-03,   10.2353E-03
C:/temp/dataset/7/16_10.odb,Step-1,Increment      1: Step Time =    1.000,"PART-1-1",           509,       12.9950,       11.1325,            0.,NA,NA,"",   642.037E-03,   592.265E-03,  -247.857E-03,   7.60514E-03
C:/temp/dataset/7/16_10.odb,Step-1,Increment      1: Step Time =    1.000,"PART-1-1",           510,           15.,          3.75,            0.,NA,NA,"",   451.215E-03,   376.977E-03,  -247.958E-03,   9.76242E-03
C:/temp/dataset/7/16_10.odb,Step-1,Increment      1: Step Time =    1.000,"PART-1-1",           511,       13.0643,       3.84158,            0.,NA,NA,"",   421.591E-03,   372.539E-03,  -197.367E-03,   7.42084E-03
C:/temp/dataset/7/16_10.odb,Step-1,Increment      1: Step Time =    1.000,"PART-1-1",           512,           15.,        -18.75,            0.,NA,NA,"",   76.9845E-03,   36.4432E-03,  -67.8123E-03,   7.57160E-03
C:/temp/dataset/7/16_10.odb,Step-1,Increment      1: Step Time =    1.000,"PART-1-1",           513,       13.1842,      -18.5870,            0.,NA,NA,"",   65.9703E-03,   31.7695E-03,  -57.8168E-03,   6.20438E-03
C:/temp/dataset/7/16_10.odb,Step-1,Increment      1: Step Time =    1.000,"PART-1-1",           514,       13.5513,      -24.7801,            0.,NA,NA,"",   27.3808E-03,   9.48135E-03,  -25.6869E-03,   5.86938E-03
C:/temp/dataset/7/16_10.odb,Step-1,Increment      1: Step Time =    1.000,"PART-1-1",           515,       12.2413,      -25.9996,            0.,NA,NA,"",   16.9026E-03,   4.06114E-03,  -16.4075E-03,   5.14892E-03
C:/temp/dataset/7/16_10.odb,Step-1,Increment      1: Step Time =    1.000,"PART-1-1",           516,           15.,        -26.25,            0.,NA,NA,"",   23.5897E-03,   10.7768E-03,  -20.9842E-03,   6.33048E-03
C:/temp/dataset/7/16_10.odb,Step-1,Increment      1: Step Time =    1.000,"PART-1-1",           517,           15.,        -23.75,            0.,NA,NA,"",   38.8190E-03,   15.9656E-03,  -35.3838E-03,   6.76810E-03
C:/temp/dataset/7/16_10.odb,Step-1,Increment      1: Step Time =    1.000,"PART-1-1",           518,       12.5809,      -23.3397,            0.,NA,NA,"",   31.7752E-03,   10.3806E-03,  -30.0317E-03,   5.52863E-03
C:/temp/dataset/7/16_10.odb,Step-1,Increment      1: Step Time =    1.000,"PART-1-1",           519,       9.49127,      -18.7202,            0.,NA,NA,"",   40.6259E-03,   23.1007E-03,  -33.4189E-03,   3.41063E-03
C:/temp/dataset/7/16_10.odb,Step-1,Increment      1: Step Time =    1.000,"PART-1-1",           520,       8.36047,      -17.5836,            0.,NA,NA,"",   40.4677E-03,   28.5302E-03,  -28.6994E-03,   2.48030E-03
C:/temp/dataset/7/16_10.odb,Step-1,Increment      1: Step Time =    1.000,"PART-1-1",           521,       11.5260,      -20.5498,            0.,NA,NA,"",   42.3663E-03,   17.7223E-03,  -38.4815E-03,   4.91719E-03
C:/temp/dataset/7/16_10.odb,Step-1,Increment      1: Step Time =    1.000,"PART-1-1",           522,       10.5221,      -19.7870,            0.,NA,NA,"",   40.8770E-03,   19.2220E-03,  -36.0755E-03,   4.19458E-03
C:/temp/dataset/7/16_10.odb,Step-1,Increment      1: Step Time =    1.000,"PART-1-1",           523,       11.0260,      -21.8608,            0.,NA,NA,"",   32.5839E-03,   11.4689E-03,  -30.4988E-03,   4.57281E-03
C:/temp/dataset/7/16_10.odb,Step-1,Increment      1: Step Time =    1.000,"PART-1-1",           524,       7.98010,      -10.7619,            0.,NA,NA,"",   98.0996E-03,   90.2815E-03,  -38.3768E-03,   1.86547E-03
C:/temp/dataset/7/16_10.odb,Step-1,Increment      1: Step Time =    1.000,"PART-1-1",           525,       8.65118,      -4.78401,            0.,NA,NA,"",   187.696E-03,   177.780E-03,  -60.1988E-03,   2.33560E-03
C:/temp/dataset/7/16_10.odb,Step-1,Increment      1: Step Time =    1.000,"PART-1-1",           526,       7.84665,      -3.50518,            0.,NA,NA,"",   205.792E-03,   200.206E-03,  -47.6228E-03,   1.42666E-03
C:/temp/dataset/7/16_10.odb,Step-1,Increment      1: Step Time =    1.000,"PART-1-1",           527,       9.43586,      -6.49799,            0.,NA,NA,"",   165.535E-03,   150.366E-03,  -69.2226E-03,   3.17043E-03
C:/temp/dataset/7/16_10.odb,Step-1,Increment      1: Step Time =    1.000,"PART-1-1",           528,       10.6293,      -5.79077,            0.,NA,NA,"",   187.454E-03,   163.521E-03,  -91.6515E-03,   4.41159E-03
C:/temp/dataset/7/16_10.odb,Step-1,Increment      1: Step Time =    1.000,"PART-1-1",           529,       11.1144,       3.95682,            0.,NA,NA,"",   398.421E-03,   370.784E-03,  -145.802E-03,   5.07781E-03
C:/temp/dataset/7/16_10.odb,Step-1,Increment      1: Step Time =    1.000,"PART-1-1",           530,       10.1270,       5.17226,            0.,NA,NA,"",   420.587E-03,   401.918E-03,  -123.917E-03,   3.89241E-03
C:/temp/dataset/7/16_10.odb,Step-1,Increment      1: Step Time =    1.000,"PART-1-1",           531,       9.05317,       10.7826,            0.,NA,NA,"",   584.019E-03,   573.742E-03,  -109.082E-03,   2.51590E-03
C:/temp/dataset/7/16_10.odb,Step-1,Increment      1: Step Time =    1.000,"PART-1-1",           532,       8.01195,       11.8024,            0.,NA,NA,"",   613.472E-03,   608.890E-03,  -74.8394E-03,   1.15615E-03
C:/temp/dataset/7/16_10.odb,Step-1,Increment      1: Step Time =    1.000,"PART-1-1",           533,       11.0241,       10.9595,            0.,NA,NA,"",   608.567E-03,   581.928E-03,  -178.084E-03,   5.05358E-03
C:/temp/dataset/7/16_10.odb,Step-1,Increment      1: Step Time =    1.000,"PART-1-1",           534,       8.35051,       17.3209,            0.,NA,NA,"",   827.632E-03,   821.701E-03,  -98.9088E-03,   1.65754E-03
C:/temp/dataset/7/16_10.odb,Step-1,Increment      1: Step Time =    1.000,"PART-1-1",           535,       12.5952,       19.1415,            0.,NA,NA,"",   950.675E-03,   904.798E-03,  -291.757E-03,   7.20884E-03
C:/temp/dataset/7/16_10.odb,Step-1,Increment      1: Step Time =    1.000,"PART-1-1",           536,           15.,         18.75,            0.,NA,NA,"",   977.970E-03,   894.878E-03,  -394.485E-03,   10.3702E-03
C:/temp/dataset/7/16_10.odb,Step-1,Increment      1: Step Time =    1.000,"PART-1-1",           537,      -7.03326,       22.4462,            0.,NA,NA,"",       1.26047,       1.07702,   654.834E-03,   8.04472E-06
C:/temp/dataset/7/16_10.odb,Step-1,Increment      1: Step Time =    1.000,"PART-1-1",           538,      -8.48458,       21.3302,            0.,NA,NA,"",       1.25608,       1.02287,   729.015E-03,   3.47194E-06
C:/temp/dataset/7/16_10.odb,Step-1,Increment      1: Step Time =    1.000,"PART-1-1",           539,      -6.65000,           20.,            0.,NA,NA,"",       1.14793,   953.846E-03,   638.691E-03,   11.2232E-06
C:/temp/dataset/7/16_10.odb,Step-1,Increment      1: Step Time =    1.000,"PART-1-1",           540,      -5.19869,       21.1160,            0.,NA,NA,"",       1.15529,       1.00798,   564.508E-03,   11.4315E-06
C:/temp/dataset/7/16_10.odb,Step-1,Increment      1: Step Time =    1.000,"PART-1-1",           541,       9.42603,       26.6587,            0.,NA,NA,"",       1.27753,       1.26524,  -176.811E-03,   1.52403E-03
C:/temp/dataset/7/16_10.odb,Step-1,Increment      1: Step Time =    1.000,"PART-1-1",           542,       10.3720,       25.4897,            0.,NA,NA,"",       1.22489,       1.20449,  -222.597E-03,   3.46217E-03
C:/temp/dataset/7/16_10.odb,Step-1,Increment      1: Step Time =    1.000,"PART-1-1",           543,       6.87457,       25.7626,            0.,NA,NA,"",       1.22379,       1.22297,  -44.7166E-03,   1.00200E-03
C:/temp/dataset/7/16_10.odb,Step-1,Increment      1: Step Time =    1.000,"PART-1-1",           544,       7.54675,       26.7337,            0.,NA,NA,"",       1.27438,       1.27188,  -79.7593E-03,   925.417E-06
C:/temp/dataset/7/16_10.odb,Step-1,Increment      1: Step Time =    1.000,"PART-1-1",           545,      -3.17643,       25.4018,            0.,NA,NA,"",       1.30341,       1.22041,   457.699E-03,   17.3439E-06
C:/temp/dataset/7/16_10.odb,Step-1,Increment      1: Step Time =    1.000,"PART-1-1",           546,      -4.35024,       25.6599,            0.,NA,NA,"",       1.33839,       1.23483,   516.233E-03,   8.05901E-06
C:/temp/dataset/7/16_10.odb,Step-1,Increment      1: Step Time =    1.000,"PART-1-1",           547,       4.01884,       22.4610,            0.,NA,NA,"",       1.06771,       1.06311,   98.9521E-03,   1.14752E-03
C:/temp/dataset/7/16_10.odb,Step-1,Increment      1: Step Time =    1.000,"PART-1-1",           548,       5.32127,       23.1739,            0.,NA,NA,"",       1.09620,       1.09567,   34.1253E-03,   1.29351E-03
C:/temp/dataset/7/16_10.odb,Step-1,Increment      1: Step Time =    1.000,"PART-1-1",           549,       11.1447,       22.1526,            0.,NA,NA,"",       1.06878,       1.04040,  -244.682E-03,   5.01132E-03
C:/temp/dataset/7/16_10.odb,Step-1,Increment      1: Step Time =    1.000,"PART-1-1",           550,       10.2813,       23.3249,            0.,NA,NA,"",       1.11622,       1.09654,  -208.639E-03,   3.61680E-03
C:/temp/dataset/7/16_10.odb,Step-1,Increment      1: Step Time =    1.000,"PART-1-1",           551,       6.15508,       21.9496,            0.,NA,NA,"",       1.03359,       1.03357,  -6.23245E-03,   1.04240E-03
C:/temp/dataset/7/16_10.odb,Step-1,Increment      1: Step Time =    1.000,"PART-1-1",           552,       6.48612,       23.9825,            0.,NA,NA,"",       1.13385,       1.13361,  -23.7168E-03,   1.01199E-03
C:/temp/dataset/7/16_10.odb,Step-1,Increment      1: Step Time =    1.000,"PART-1-1",           553,   6.30745E-03,       24.2683,            0.,NA,NA,"",       1.19751,       1.15947,   299.408E-03,   188.682E-06
C:/temp/dataset/7/16_10.odb,Step-1,Increment      1: Step Time =    1.000,"PART-1-1",           554,      -1.65981,       23.6471,            0.,NA,NA,"",       1.19387,       1.13050,   383.779E-03,   49.5313E-06
C:/temp/dataset/7/16_10.odb,Step-1,Increment      1: Step Time =    1.000,"PART-1-1",           555,      -1.07768,       22.4355,            0.,NA,NA,"",       1.12673,       1.06901,   356.013E-03,   113.946E-06
C:/temp/dataset/7/16_10.odb,Step-1,Increment      1: Step Time =    1.000,"PART-1-1",           556,   588.432E-03,       23.0567,            0.,NA,NA,"",       1.13101,       1.09794,   271.510E-03,   253.863E-06
C:/temp/dataset/7/16_10.odb,Step-1,Increment      1: Step Time =    1.000,"PART-1-1",           557,      -4.82218,       24.5397,            0.,NA,NA,"",       1.29755,       1.17925,   541.309E-03,   10.0557E-06
C:/temp/dataset/7/16_10.odb,Step-1,Increment      1: Step Time =    1.000,"PART-1-1",           558,      -3.09511,       23.7242,            0.,NA,NA,"",       1.22416,       1.13618,   455.710E-03,   17.2843E-06
C:/temp/dataset/7/16_10.odb,Step-1,Increment      1: Step Time =    1.000,"PART-1-1",           559,      -5.58708,       23.2486,            0.,NA,NA,"",       1.25783,       1.11545,   581.298E-03,   9.15066E-06
C:/temp/dataset/7/16_10.odb,Step-1,Increment      1: Step Time =    1.000,"PART-1-1",           560,       8.76337,      -9.49006,            0.,NA,NA,"",   118.423E-03,   106.781E-03,  -51.2037E-03,   2.56065E-03
C:/temp/dataset/7/16_10.odb,Step-1,Increment      1: Step Time =    1.000,"PART-1-1",           561,       9.72759,      -26.4759,            0.,NA,NA,"",   9.71649E-03,  -1.02374E-03,  -9.66241E-03,   3.57760E-03
C:/temp/dataset/7/16_10.odb,Step-1,Increment      1: Step Time =    1.000,"PART-1-1",           562,       9.12173,       6.33780,            0.,NA,NA,"",   444.943E-03,   433.837E-03,  -98.7913E-03,   2.65591E-03
C:/temp/dataset/7/16_10.odb,Step-1,Increment      1: Step Time =    1.000,"PART-1-1",           563,       11.1214,       6.29882,            0.,NA,NA,"",   462.962E-03,   435.310E-03,  -157.605E-03,   5.11880E-03
C:/temp/dataset/7/16_10.odb,Step-1,Increment      1: Step Time =    1.000,"PART-1-1",           564,       11.1740,      -13.7880,            0.,NA,NA,"",   90.6277E-03,   62.8282E-03,  -65.3145E-03,   4.78956E-03
C:/temp/dataset/7/16_10.odb,Step-1,Increment      1: Step Time =    1.000,"PART-1-1",           565,       10.6612,      -8.65022,            0.,NA,NA,"",   145.132E-03,   120.721E-03,  -80.5585E-03,   4.40227E-03
C:/temp/dataset/7/16_10.odb,Step-1,Increment      1: Step Time =    1.000,"PART-1-1",           566,       9.47894,      -7.81405,            0.,NA,NA,"",   146.328E-03,   130.603E-03,  -65.9896E-03,   3.24752E-03
C:/temp/dataset/7/16_10.odb,Step-1,Increment      1: Step Time =    1.000,"PART-1-1",           567,       11.3640,      -18.5194,            0.,NA,NA,"",   54.0176E-03,   27.6756E-03,  -46.3893E-03,   4.83585E-03
C:/temp/dataset/7/16_10.odb,Step-1,Increment      1: Step Time =    1.000,"PART-1-1",           568,       12.0025,       20.7886,            0.,NA,NA,"",       1.01612,   977.741E-03,  -276.620E-03,   6.34552E-03
C:/temp/dataset/7/16_10.odb,Step-1,Increment      1: Step Time =    1.000,"PART-1-1",           569,       11.4947,       18.6594,            0.,NA,NA,"",   913.640E-03,   881.551E-03,  -240.013E-03,   5.78513E-03
C:/temp/dataset/7/16_10.odb,Step-1,Increment      1: Step Time =    1.000,"PART-1-1",           570,       9.39315,       18.1618,            0.,NA,NA,"",   870.061E-03,   857.698E-03,  -146.154E-03,   3.12657E-03
C:/temp/dataset/7/16_10.odb,Step-1,Increment      1: Step Time =    1.000,"PART-1-1",           571,       10.9214,       17.4088,            0.,NA,NA,"",   852.923E-03,   827.154E-03,  -208.074E-03,   5.06771E-03
C:/temp/dataset/7/16_10.odb,Step-1,Increment      1: Step Time =    1.000,"PART-1-1",           572,      -9.97500,           20.,            0.,NA,NA,"",       1.25162,   958.044E-03,   805.425E-03,   2.12018E-06
C:/temp/dataset/7/16_10.odb,Step-1,Increment      1: Step Time =    1.000,"PART-1-1",           573,       11.9818,      -2.09472,            0.,NA,NA,"",   269.395E-03,   233.275E-03,  -134.745E-03,   5.93663E-03
C:/temp/dataset/7/16_10.odb,Step-1,Increment      1: Step Time =    1.000,"PART-1-1",           574,       12.0426,   313.093E-03,            0.,NA,NA,"",   321.253E-03,   284.298E-03,  -149.595E-03,   6.08387E-03
C:/temp/dataset/7/16_10.odb,Step-1,Increment      1: Step Time =    1.000,"PART-1-1",           575,       12.1686,      -14.9632,            0.,NA,NA,"",   88.3056E-03,   54.6790E-03,  -69.3404E-03,   5.60543E-03
C:/temp/dataset/7/16_10.odb,Step-1,Increment      1: Step Time =    1.000,"PART-1-1",           576,       12.0880,      -12.5178,            0.,NA,NA,"",   112.021E-03,   77.4161E-03,  -80.9661E-03,   5.64573E-03
C:/temp/dataset/7/16_10.odb,Step-1,Increment      1: Step Time =    1.000,"PART-1-1",           577,       12.0767,       2.70437,            0.,NA,NA,"",   378.382E-03,   340.862E-03,  -164.274E-03,   6.19840E-03
C:/temp/dataset/7/16_10.odb,Step-1,Increment      1: Step Time =    1.000,"PART-1-1",           578,       11.6617,       14.7036,            0.,NA,NA,"",   753.008E-03,   719.342E-03,  -222.639E-03,   5.95137E-03
C:/temp/dataset/7/16_10.odb,Step-1,Increment      1: Step Time =    1.000,"PART-1-1",           579,       11.9561,       12.2406,            0.,NA,NA,"",   665.353E-03,   628.458E-03,  -218.484E-03,   6.28636E-03
C:/temp/dataset/7/16_10.odb,Step-1,Increment      1: Step Time =    1.000,"PART-1-1",           580,       12.3155,      -19.7087,            0.,NA,NA,"",   52.2885E-03,   23.4925E-03,  -46.7139E-03,   5.49872E-03
C:/temp/dataset/7/16_10.odb,Step-1,Increment      1: Step Time =    1.000,"PART-1-1",           581,       12.3404,      -21.7879,            0.,NA,NA,"",   39.4990E-03,   14.6818E-03,  -36.6690E-03,   5.39388E-03
C:/temp/dataset/7/16_10.odb,Step-1,Increment      1: Step Time =    1.000,"PART-1-1",           582,       12.2327,      -17.3977,            0.,NA,NA,"",   68.2792E-03,   36.6071E-03,  -57.6365E-03,   5.54270E-03
C:/temp/dataset/7/16_10.odb,Step-1,Increment      1: Step Time =    1.000,"PART-1-1",           583,       12.1020,       5.09402,            0.,NA,NA,"",   441.480E-03,   403.484E-03,  -179.178E-03,   6.29869E-03
C:/temp/dataset/7/16_10.odb,Step-1,Increment      1: Step Time =    1.000,"PART-1-1",           584,       12.0630,       9.85139,            0.,NA,NA,"",   584.785E-03,   546.839E-03,  -207.223E-03,   6.37124E-03
C:/temp/dataset/7/16_10.odb,Step-1,Increment      1: Step Time =    1.000,"PART-1-1",           585,       12.0921,       7.47372,            0.,NA,NA,"",   510.096E-03,   472.015E-03,  -193.392E-03,   6.35032E-03
C:/temp/dataset/7/16_10.odb,Step-1,Increment      1: Step Time =    1.000,"PART-1-1",           586,       11.9146,      -10.0225,            0.,NA,NA,"",   139.682E-03,   105.462E-03,  -91.5908E-03,   5.58933E-03
C:/temp/dataset/7/16_10.odb,Step-1,Increment      1: Step Time =    1.000,"PART-1-1",           587,       11.5993,      -7.26023,            0.,NA,NA,"",   174.635E-03,   142.551E-03,  -100.880E-03,   5.36701E-03
C:/temp/dataset/7/16_10.odb,Step-1,Increment      1: Step Time =    1.000,"PART-1-1",           588,       11.8707,      -4.56496,            0.,NA,NA,"",   221.649E-03,   186.848E-03,  -119.232E-03,   5.73327E-03
C:/temp/dataset/7/16_10.odb,Step-1,Increment      1: Step Time =    1.000,"PART-1-1",           589,      -3.86001,       22.4330,            0.,NA,NA,"",       1.18140,       1.07237,   495.704E-03,   8.16666E-06
C:/temp/dataset/7/16_10.odb,Step-1,Increment      1: Step Time =    1.000,"PART-1-1",           590,       3.35000,           20.,            0.,NA,NA,"",   951.495E-03,   941.802E-03,   135.468E-03,   1.33920E-03
C:/temp/dataset/7/16_10.odb,Step-1,Increment      1: Step Time =    1.000,"PART-1-1",           591,       5.05511,       21.0689,            0.,NA,NA,"",   994.003E-03,   992.885E-03,   47.1172E-03,   1.84989E-03
C:/temp/dataset/7/16_10.odb,Step-1,Increment      1: Step Time =    1.000,"PART-1-1",           592,       2.31373,       21.3921,            0.,NA,NA,"",       1.02950,       1.01252,   186.224E-03,   331.896E-06
C:/temp/dataset/7/16_10.odb,Step-1,Increment      1: Step Time =    1.000,"PART-1-1",           593,      -1.98632,       21.3170,            0.,NA,NA,"",       1.09117,       1.01399,   403.074E-03,   11.4233E-06
C:/temp/dataset/7/16_10.odb,Step-1,Increment      1: Step Time =    1.000,"PART-1-1",           594,   25.0000E-03,           20.,            0.,NA,NA,"",   992.794E-03,   945.219E-03,   303.648E-03,   47.3494E-06
C:/temp/dataset/7/16_10.odb,Step-1,Increment      1: Step Time =    1.000,"PART-1-1",           595,   933.640E-03,       21.1186,            0.,NA,NA,"",       1.03276,       1.00041,   256.444E-03,   180.146E-06
C:/temp/dataset/7/16_10.odb,Step-1,Increment      1: Step Time =    1.000,"PART-1-1",           596,       7.16521,       20.7144,            0.,NA,NA,"",   974.076E-03,   972.637E-03,  -52.9178E-03,   662.166E-06
C:/temp/dataset/7/16_10.odb,Step-1,Increment      1: Step Time =    1.000,"PART-1-1",           597,       8.15837,       19.5039,            0.,NA,NA,"",   921.543E-03,   916.541E-03,  -95.8879E-03,   1.71713E-03
C:/temp/dataset/7/16_10.odb,Step-1,Increment      1: Step Time =    1.000,"PART-1-1",           598,      -3.32500,           20.,            0.,NA,NA,"",       1.06040,   949.601E-03,   471.913E-03,   24.1185E-06
