ODB Name,Step,Frame,Part Instance Name,    êﬂì_ÉâÉxÉã,X,Y,Z,Section Name,Material Name,Section Point,   U-Magnitude,          U-U1,          U-U2,       S-Mises
C:/temp/dataset/7/17_6.odb,Step-1,Increment      1: Step Time =    1.000,"PART-1-1",             1,          -15.,           20.,            0.,NA,NA,"",       21.7039,       19.5174,       9.49365,   137.111E-06
C:/temp/dataset/7/17_6.odb,Step-1,Increment      1: Step Time =    1.000,"PART-1-1",             2,          -15.,           25.,            0.,NA,NA,"",       23.7841,       22.1051,       8.77787,   3.28940E-03
C:/temp/dataset/7/17_6.odb,Step-1,Increment      1: Step Time =    1.000,"PART-1-1",             3,      -11.6500,           20.,            0.,NA,NA,"",       20.5613,       19.0386,       7.76511,   1.05427E-03
C:/temp/dataset/7/17_6.odb,Step-1,Increment      1: Step Time =    1.000,"PART-1-1",             4,      -8.30000,           20.,            0.,NA,NA,"",       19.5233,       18.5654,       6.04048,   1.49748E-03
C:/temp/dataset/7/17_6.odb,Step-1,Increment      1: Step Time =    1.000,"PART-1-1",             5,           -5.,           20.,            0.,NA,NA,"",       18.6191,       18.1040,       4.34922,   1.41573E-03
C:/temp/dataset/7/17_6.odb,Step-1,Increment      1: Step Time =    1.000,"PART-1-1",             6,      -1.65000,           20.,            0.,NA,NA,"",       17.8364,       17.6400,       2.64021,   1.20185E-03
C:/temp/dataset/7/17_6.odb,Step-1,Increment      1: Step Time =    1.000,"PART-1-1",             7,       1.70000,           20.,            0.,NA,NA,"",       17.2036,       17.1780,   938.452E-03,   1.93712E-03
C:/temp/dataset/7/17_6.odb,Step-1,Increment      1: Step Time =    1.000,"PART-1-1",             8,            5.,           20.,            0.,NA,NA,"",       16.7356,       16.7191,  -743.486E-03,   11.7709E-03
C:/temp/dataset/7/17_6.odb,Step-1,Increment      1: Step Time =    1.000,"PART-1-1",             9,            5.,         13.75,            0.,NA,NA,"",       13.6023,       13.6023,  -40.6475E-03,   24.4774E-03
C:/temp/dataset/7/17_6.odb,Step-1,Increment      1: Step Time =    1.000,"PART-1-1",            10,            5.,           7.5,            0.,NA,NA,"",       10.6224,       10.6091,   531.341E-03,   35.7784E-03
C:/temp/dataset/7/17_6.odb,Step-1,Increment      1: Step Time =    1.000,"PART-1-1",            11,            5.,          1.25,            0.,NA,NA,"",       7.87360,       7.81841,   930.555E-03,   47.1883E-03
C:/temp/dataset/7/17_6.odb,Step-1,Increment      1: Step Time =    1.000,"PART-1-1",            12,            5.,           -5.,            0.,NA,NA,"",       5.43513,       5.31590,       1.13219,   58.5455E-03
C:/temp/dataset/7/17_6.odb,Step-1,Increment      1: Step Time =    1.000,"PART-1-1",            13,            5.,        -11.25,            0.,NA,NA,"",       3.38530,       3.19335,       1.12373,   69.7295E-03
C:/temp/dataset/7/17_6.odb,Step-1,Increment      1: Step Time =    1.000,"PART-1-1",            14,            5.,         -17.5,            0.,NA,NA,"",       1.79539,       1.54823,   909.087E-03,   80.8713E-03
C:/temp/dataset/7/17_6.odb,Step-1,Increment      1: Step Time =    1.000,"PART-1-1",            15,            5.,        -23.75,            0.,NA,NA,"",   704.237E-03,   481.386E-03,   514.021E-03,   91.1827E-03
C:/temp/dataset/7/17_6.odb,Step-1,Increment      1: Step Time =    1.000,"PART-1-1",            16,            5.,          -30.,            0.,NA,NA,"",            0.,   31.0137E-39,   58.1149E-39,   114.655E-03
C:/temp/dataset/7/17_6.odb,Step-1,Increment      1: Step Time =    1.000,"PART-1-1",            17,           15.,          -30.,            0.,NA,NA,"",            0.,   28.9683E-39,  -54.8524E-39,   106.494E-03
C:/temp/dataset/7/17_6.odb,Step-1,Increment      1: Step Time =    1.000,"PART-1-1",            18,           15.,         -22.5,            0.,NA,NA,"",   842.016E-03,   547.693E-03,  -639.549E-03,   87.4737E-03
C:/temp/dataset/7/17_6.odb,Step-1,Increment      1: Step Time =    1.000,"PART-1-1",            19,           15.,          -15.,            0.,NA,NA,"",       2.27100,       1.85347,      -1.31229,   74.8047E-03
C:/temp/dataset/7/17_6.odb,Step-1,Increment      1: Step Time =    1.000,"PART-1-1",            20,           15.,          -7.5,            0.,NA,NA,"",       4.39110,       3.87232,      -2.07049,   61.8526E-03
C:/temp/dataset/7/17_6.odb,Step-1,Increment      1: Step Time =    1.000,"PART-1-1",            21,           15.,            0.,            0.,NA,NA,"",       7.11822,       6.48275,      -2.93990,   48.7103E-03
C:/temp/dataset/7/17_6.odb,Step-1,Increment      1: Step Time =    1.000,"PART-1-1",            22,           15.,           7.5,            0.,NA,NA,"",       10.3336,       9.56328,      -3.91486,   35.4354E-03
C:/temp/dataset/7/17_6.odb,Step-1,Increment      1: Step Time =    1.000,"PART-1-1",            23,           15.,           15.,            0.,NA,NA,"",       13.9113,       12.9951,      -4.96497,   21.9871E-03
C:/temp/dataset/7/17_6.odb,Step-1,Increment      1: Step Time =    1.000,"PART-1-1",            24,           15.,          22.5,            0.,NA,NA,"",       17.7212,       16.6618,      -6.03557,   7.11854E-03
C:/temp/dataset/7/17_6.odb,Step-1,Increment      1: Step Time =    1.000,"PART-1-1",            25,           15.,           30.,            0.,NA,NA,"",       21.6041,       20.4178,      -7.06035,   168.187E-06
C:/temp/dataset/7/17_6.odb,Step-1,Increment      1: Step Time =    1.000,"PART-1-1",            26,         11.25,           30.,            0.,NA,NA,"",       21.5538,       20.9205,      -5.18651,   1.41877E-03
C:/temp/dataset/7/17_6.odb,Step-1,Increment      1: Step Time =    1.000,"PART-1-1",            27,           7.5,           30.,            0.,NA,NA,"",       21.6865,       21.4307,      -3.32110,   5.39848E-03
C:/temp/dataset/7/17_6.odb,Step-1,Increment      1: Step Time =    1.000,"PART-1-1",            28,          3.75,           30.,            0.,NA,NA,"",       22.0044,       21.9564,      -1.45171,   7.61622E-03
C:/temp/dataset/7/17_6.odb,Step-1,Increment      1: Step Time =    1.000,"PART-1-1",            29,            0.,           30.,            0.,NA,NA,"",       22.4972,       22.4930,   430.388E-03,   7.68264E-03
C:/temp/dataset/7/17_6.odb,Step-1,Increment      1: Step Time =    1.000,"PART-1-1",            30,         -3.75,           30.,            0.,NA,NA,"",       23.1530,       23.0361,       2.32433,   7.48781E-03
C:/temp/dataset/7/17_6.odb,Step-1,Increment      1: Step Time =    1.000,"PART-1-1",            31,          -7.5,           30.,            0.,NA,NA,"",       23.9606,       23.5846,       4.22831,   7.45809E-03
C:/temp/dataset/7/17_6.odb,Step-1,Increment      1: Step Time =    1.000,"PART-1-1",            32,        -11.25,           30.,            0.,NA,NA,"",       24.9079,       24.1387,       6.14219,   7.22261E-03
C:/temp/dataset/7/17_6.odb,Step-1,Increment      1: Step Time =    1.000,"PART-1-1",            33,          -15.,           30.,            0.,NA,NA,"",       25.9780,       24.6945,       8.06469,   6.02445E-03
C:/temp/dataset/7/17_6.odb,Step-1,Increment      1: Step Time =    1.000,"PART-1-1",            34,          -15.,          22.5,            0.,NA,NA,"",       22.7243,       20.8069,       9.13593,   1.18808E-03
C:/temp/dataset/7/17_6.odb,Step-1,Increment      1: Step Time =    1.000,"PART-1-1",            35,            5.,       15.8333,            0.,NA,NA,"",       14.6334,       14.6311,  -263.798E-03,   20.6613E-03
C:/temp/dataset/7/17_6.odb,Step-1,Increment      1: Step Time =    1.000,"PART-1-1",            36,            5.,       17.9167,            0.,NA,NA,"",       15.6781,       15.6701,  -500.802E-03,   18.0934E-03
C:/temp/dataset/7/17_6.odb,Step-1,Increment      1: Step Time =    1.000,"PART-1-1",            37,            5.,       9.58333,            0.,NA,NA,"",       11.5939,       11.5884,   358.358E-03,   31.9742E-03
C:/temp/dataset/7/17_6.odb,Step-1,Increment      1: Step Time =    1.000,"PART-1-1",            38,            5.,       11.6667,            0.,NA,NA,"",       12.5882,       12.5871,   167.273E-03,   28.1684E-03
C:/temp/dataset/7/17_6.odb,Step-1,Increment      1: Step Time =    1.000,"PART-1-1",            39,            5.,       3.33333,            0.,NA,NA,"",       8.75929,       8.72097,   818.429E-03,   43.3899E-03
C:/temp/dataset/7/17_6.odb,Step-1,Increment      1: Step Time =    1.000,"PART-1-1",            40,            5.,       5.41667,            0.,NA,NA,"",       9.67652,       9.65224,   685.047E-03,   39.5854E-03
C:/temp/dataset/7/17_6.odb,Step-1,Increment      1: Step Time =    1.000,"PART-1-1",            41,            5.,      -2.91667,            0.,NA,NA,"",       6.20860,       6.11252,       1.08800,   54.7592E-03
C:/temp/dataset/7/17_6.odb,Step-1,Increment      1: Step Time =    1.000,"PART-1-1",            42,            5.,  -833.333E-03,            0.,NA,NA,"",       7.02239,       6.94782,       1.02063,   50.9890E-03
C:/temp/dataset/7/17_6.odb,Step-1,Increment      1: Step Time =    1.000,"PART-1-1",            43,            5.,      -9.16667,            0.,NA,NA,"",       4.02071,       3.85272,       1.15007,   66.0252E-03
C:/temp/dataset/7/17_6.odb,Step-1,Increment      1: Step Time =    1.000,"PART-1-1",            44,            5.,      -7.08333,            0.,NA,NA,"",       4.70493,       4.56148,       1.15291,   62.2347E-03
C:/temp/dataset/7/17_6.odb,Step-1,Increment      1: Step Time =    1.000,"PART-1-1",            45,            5.,      -15.4167,            0.,NA,NA,"",       2.27066,       2.03737,       1.00249,   77.1795E-03
C:/temp/dataset/7/17_6.odb,Step-1,Increment      1: Step Time =    1.000,"PART-1-1",            46,            5.,      -13.3333,            0.,NA,NA,"",       2.80121,       2.58699,       1.07436,   73.4694E-03
C:/temp/dataset/7/17_6.odb,Step-1,Increment      1: Step Time =    1.000,"PART-1-1",            47,            5.,      -21.6667,            0.,NA,NA,"",       1.01326,   766.218E-03,   663.021E-03,   87.9759E-03
C:/temp/dataset/7/17_6.odb,Step-1,Increment      1: Step Time =    1.000,"PART-1-1",            48,            5.,      -19.5833,            0.,NA,NA,"",       1.37630,       1.12331,   795.221E-03,   84.6147E-03
C:/temp/dataset/7/17_6.odb,Step-1,Increment      1: Step Time =    1.000,"PART-1-1",            49,            5.,      -27.9167,            0.,NA,NA,"",   224.022E-03,   128.701E-03,   183.363E-03,   98.8064E-03
C:/temp/dataset/7/17_6.odb,Step-1,Increment      1: Step Time =    1.000,"PART-1-1",            50,            5.,      -25.8333,            0.,NA,NA,"",   443.356E-03,   269.368E-03,   352.144E-03,   92.2197E-03
C:/temp/dataset/7/17_6.odb,Step-1,Increment      1: Step Time =    1.000,"PART-1-1",            51,          12.5,          -30.,            0.,NA,NA,"",            0.,   65.1213E-39,  -162.361E-39,   36.1003E-03
C:/temp/dataset/7/17_6.odb,Step-1,Increment      1: Step Time =    1.000,"PART-1-1",            52,           10.,          -30.,            0.,NA,NA,"",            0.,  -33.8036E-39,  -7.01526E-39,   13.4345E-03
C:/temp/dataset/7/17_6.odb,Step-1,Increment      1: Step Time =    1.000,"PART-1-1",            53,           7.5,          -30.,            0.,NA,NA,"",            0.,  -1.54435E-39,   187.960E-39,   36.5502E-03
C:/temp/dataset/7/17_6.odb,Step-1,Increment      1: Step Time =    1.000,"PART-1-1",            54,           15.,          -25.,            0.,NA,NA,"",   514.896E-03,   289.800E-03,  -425.598E-03,   90.3959E-03
C:/temp/dataset/7/17_6.odb,Step-1,Increment      1: Step Time =    1.000,"PART-1-1",            55,           15.,         -27.5,            0.,NA,NA,"",   248.406E-03,   126.537E-03,  -213.762E-03,   98.0967E-03
C:/temp/dataset/7/17_6.odb,Step-1,Increment      1: Step Time =    1.000,"PART-1-1",            56,           15.,         -17.5,            0.,NA,NA,"",       1.71614,       1.33300,      -1.08086,   79.0442E-03
C:/temp/dataset/7/17_6.odb,Step-1,Increment      1: Step Time =    1.000,"PART-1-1",            57,           15.,          -20.,            0.,NA,NA,"",       1.24031,   896.212E-03,  -857.429E-03,   83.1962E-03
C:/temp/dataset/7/17_6.odb,Step-1,Increment      1: Step Time =    1.000,"PART-1-1",            58,           15.,          -10.,            0.,NA,NA,"",       3.61158,       3.12761,      -1.80597,   66.2334E-03
C:/temp/dataset/7/17_6.odb,Step-1,Increment      1: Step Time =    1.000,"PART-1-1",            59,           15.,         -12.5,            0.,NA,NA,"",       2.90370,       2.45315,      -1.55355,   70.5388E-03
C:/temp/dataset/7/17_6.odb,Step-1,Increment      1: Step Time =    1.000,"PART-1-1",            60,           15.,          -2.5,            0.,NA,NA,"",       6.14881,       5.55439,      -2.63752,   53.1034E-03
C:/temp/dataset/7/17_6.odb,Step-1,Increment      1: Step Time =    1.000,"PART-1-1",            61,           15.,           -5.,            0.,NA,NA,"",       5.23826,       4.68273,      -2.34764,   57.4966E-03
C:/temp/dataset/7/17_6.odb,Step-1,Increment      1: Step Time =    1.000,"PART-1-1",            62,           15.,            5.,            0.,NA,NA,"",       9.21526,       8.49162,      -3.57958,   39.8688E-03
C:/temp/dataset/7/17_6.odb,Step-1,Increment      1: Step Time =    1.000,"PART-1-1",            63,           15.,           2.5,            0.,NA,NA,"",       8.14192,       7.46330,      -3.25421,   44.2944E-03
C:/temp/dataset/7/17_6.odb,Step-1,Increment      1: Step Time =    1.000,"PART-1-1",            64,           15.,          12.5,            0.,NA,NA,"",       12.6862,       11.8193,      -4.60930,   26.5390E-03
C:/temp/dataset/7/17_6.odb,Step-1,Increment      1: Step Time =    1.000,"PART-1-1",            65,           15.,           10.,            0.,NA,NA,"",       11.4921,       10.6739,      -4.25866,   30.9970E-03
C:/temp/dataset/7/17_6.odb,Step-1,Increment      1: Step Time =    1.000,"PART-1-1",            66,           15.,           20.,            0.,NA,NA,"",       16.4345,       15.4212,      -5.68129,   12.0219E-03
C:/temp/dataset/7/17_6.odb,Step-1,Increment      1: Step Time =    1.000,"PART-1-1",            67,           15.,          17.5,            0.,NA,NA,"",       15.1624,       14.1973,      -5.32313,   17.0766E-03
C:/temp/dataset/7/17_6.odb,Step-1,Increment      1: Step Time =    1.000,"PART-1-1",            68,           15.,          27.5,            0.,NA,NA,"",       20.3112,       19.1658,      -6.72433,   319.246E-06
C:/temp/dataset/7/17_6.odb,Step-1,Increment      1: Step Time =    1.000,"PART-1-1",            69,           15.,           25.,            0.,NA,NA,"",       19.0156,       17.9121,      -6.38353,   2.91551E-03
C:/temp/dataset/7/17_6.odb,Step-1,Increment      1: Step Time =    1.000,"PART-1-1",            70,        13.125,           30.,            0.,NA,NA,"",       21.5569,       20.6692,      -6.12229,   199.913E-06
C:/temp/dataset/7/17_6.odb,Step-1,Increment      1: Step Time =    1.000,"PART-1-1",            71,         9.375,           30.,            0.,NA,NA,"",       21.5968,       21.1738,      -4.25332,   3.43579E-03
C:/temp/dataset/7/17_6.odb,Step-1,Increment      1: Step Time =    1.000,"PART-1-1",            72,         5.625,           30.,            0.,NA,NA,"",       21.8228,       21.6918,      -2.38778,   6.77681E-03
C:/temp/dataset/7/17_6.odb,Step-1,Increment      1: Step Time =    1.000,"PART-1-1",            73,         1.875,           30.,            0.,NA,NA,"",       22.2297,       22.2238,  -512.335E-03,   7.78693E-03
C:/temp/dataset/7/17_6.odb,Step-1,Increment      1: Step Time =    1.000,"PART-1-1",            74,        -1.875,           30.,            0.,NA,NA,"",       22.8054,       22.7639,       1.37602,   7.56872E-03
C:/temp/dataset/7/17_6.odb,Step-1,Increment      1: Step Time =    1.000,"PART-1-1",            75,        -5.625,           30.,            0.,NA,NA,"",       23.5386,       23.3096,       3.27510,   7.46982E-03
C:/temp/dataset/7/17_6.odb,Step-1,Increment      1: Step Time =    1.000,"PART-1-1",            76,        -9.375,           30.,            0.,NA,NA,"",       24.4177,       23.8610,       5.18398,   7.42859E-03
C:/temp/dataset/7/17_6.odb,Step-1,Increment      1: Step Time =    1.000,"PART-1-1",            77,       -13.125,           30.,            0.,NA,NA,"",       25.4292,       24.4170,       7.10291,   6.45516E-03
C:/temp/dataset/7/17_6.odb,Step-1,Increment      1: Step Time =    1.000,"PART-1-1",            78,          -15.,          27.5,            0.,NA,NA,"",       24.8699,       23.4020,       8.41755,   6.13567E-03
C:/temp/dataset/7/17_6.odb,Step-1,Increment      1: Step Time =    1.000,"PART-1-1",            79,      -7.07467,       28.0475,            0.,NA,NA,"",       22.9227,       22.5192,       4.28240,   5.70893E-03
C:/temp/dataset/7/17_6.odb,Step-1,Increment      1: Step Time =    1.000,"PART-1-1",            80,      -10.7971,       27.6072,            0.,NA,NA,"",       23.6754,       22.8367,       6.24557,   5.55254E-03
C:/temp/dataset/7/17_6.odb,Step-1,Increment      1: Step Time =    1.000,"PART-1-1",            81,      -3.50976,       28.2242,            0.,NA,NA,"",       22.2283,       22.0933,       2.44602,   5.86185E-03
C:/temp/dataset/7/17_6.odb,Step-1,Increment      1: Step Time =    1.000,"PART-1-1",            82,       11.3028,       27.6605,            0.,NA,NA,"",       20.3403,       19.7414,      -4.89955,   3.49289E-03
C:/temp/dataset/7/17_6.odb,Step-1,Increment      1: Step Time =    1.000,"PART-1-1",            83,       7.46624,       27.7175,            0.,NA,NA,"",       20.5089,       20.2881,      -3.00083,   5.06239E-03
C:/temp/dataset/7/17_6.odb,Step-1,Increment      1: Step Time =    1.000,"PART-1-1",            84,   523.838E-03,       28.1559,            0.,NA,NA,"",       21.4846,       21.4806,   416.027E-03,   5.75933E-03
C:/temp/dataset/7/17_6.odb,Step-1,Increment      1: Step Time =    1.000,"PART-1-1",            85,       13.1724,       27.5829,            0.,NA,NA,"",       20.3046,       19.4524,      -5.82084,   1.93557E-03
C:/temp/dataset/7/17_6.odb,Step-1,Increment      1: Step Time =    1.000,"PART-1-1",            86,       9.41586,       27.7284,            0.,NA,NA,"",       20.4189,       20.0290,      -3.97096,   4.50571E-03
C:/temp/dataset/7/17_6.odb,Step-1,Increment      1: Step Time =    1.000,"PART-1-1",            87,       5.17501,       27.3177,            0.,NA,NA,"",       20.4816,       20.4019,      -1.80562,   5.15530E-03
C:/temp/dataset/7/17_6.odb,Step-1,Increment      1: Step Time =    1.000,"PART-1-1",            88,       1.85763,       28.7412,            0.,NA,NA,"",       21.5905,       21.5879,  -334.397E-03,   6.35144E-03
C:/temp/dataset/7/17_6.odb,Step-1,Increment      1: Step Time =    1.000,"PART-1-1",            89,      -1.45910,       27.7280,            0.,NA,NA,"",       21.5963,       21.5458,       1.47552,   5.36314E-03
C:/temp/dataset/7/17_6.odb,Step-1,Increment      1: Step Time =    1.000,"PART-1-1",            90,      -5.31380,       28.2250,            0.,NA,NA,"",       22.6059,       22.3545,       3.36172,   5.85693E-03
C:/temp/dataset/7/17_6.odb,Step-1,Increment      1: Step Time =    1.000,"PART-1-1",            91,      -8.92632,       27.8484,            0.,NA,NA,"",       23.2875,       22.6869,       5.25485,   5.56014E-03
C:/temp/dataset/7/17_6.odb,Step-1,Increment      1: Step Time =    1.000,"PART-1-1",            92,       7.03655,   996.185E-03,            0.,NA,NA,"",       7.50717,       7.50596,   135.018E-03,   29.1251E-03
C:/temp/dataset/7/17_6.odb,Step-1,Increment      1: Step Time =    1.000,"PART-1-1",            93,       6.93081,       13.7923,            0.,NA,NA,"",       13.4081,       13.3738,  -958.978E-03,   15.7800E-03
C:/temp/dataset/7/17_6.odb,Step-1,Increment      1: Step Time =    1.000,"PART-1-1",            94,       7.08682,       7.47611,            0.,NA,NA,"",       10.3613,       10.3541,  -388.068E-03,   21.7636E-03
C:/temp/dataset/7/17_6.odb,Step-1,Increment      1: Step Time =    1.000,"PART-1-1",            95,       6.96700,      -1.15199,            0.,NA,NA,"",       6.63797,       6.63176,   287.092E-03,   32.1464E-03
C:/temp/dataset/7/17_6.odb,Step-1,Increment      1: Step Time =    1.000,"PART-1-1",            96,       6.47578,      -21.8661,            0.,NA,NA,"",   811.574E-03,   673.678E-03,   452.561E-03,   63.4224E-03
C:/temp/dataset/7/17_6.odb,Step-1,Increment      1: Step Time =    1.000,"PART-1-1",            97,       7.14087,      -13.1040,            0.,NA,NA,"",       2.58115,       2.52442,   538.167E-03,   43.1398E-03
C:/temp/dataset/7/17_6.odb,Step-1,Increment      1: Step Time =    1.000,"PART-1-1",            98,       6.53104,      -7.08024,            0.,NA,NA,"",       4.49143,       4.44284,   658.830E-03,   43.9879E-03
C:/temp/dataset/7/17_6.odb,Step-1,Increment      1: Step Time =    1.000,"PART-1-1",            99,       6.85322,      -3.24169,            0.,NA,NA,"",       5.83700,       5.82124,   428.624E-03,   35.6942E-03
C:/temp/dataset/7/17_6.odb,Step-1,Increment      1: Step Time =    1.000,"PART-1-1",           100,       6.74184,      -8.96518,            0.,NA,NA,"",       3.84487,       3.79376,   624.819E-03,   43.7078E-03
C:/temp/dataset/7/17_6.odb,Step-1,Increment      1: Step Time =    1.000,"PART-1-1",           101,       6.94703,      -23.6171,            0.,NA,NA,"",   528.372E-03,   422.755E-03,   316.946E-03,   57.3748E-03
C:/temp/dataset/7/17_6.odb,Step-1,Increment      1: Step Time =    1.000,"PART-1-1",           102,       7.44695,      -27.8442,            0.,NA,NA,"",   105.802E-03,   57.9672E-03,   88.5087E-03,   54.2896E-03
C:/temp/dataset/7/17_6.odb,Step-1,Increment      1: Step Time =    1.000,"PART-1-1",           103,       7.35225,      -17.6578,            0.,NA,NA,"",       1.47183,       1.40267,   445.883E-03,   44.7088E-03
C:/temp/dataset/7/17_6.odb,Step-1,Increment      1: Step Time =    1.000,"PART-1-1",           104,       7.23832,      -15.2967,            0.,NA,NA,"",       2.01225,       1.94849,   502.531E-03,   44.0516E-03
C:/temp/dataset/7/17_6.odb,Step-1,Increment      1: Step Time =    1.000,"PART-1-1",           105,       7.10099,       17.6583,            0.,NA,NA,"",       15.3331,       15.2600,      -1.49519,   10.6193E-03
C:/temp/dataset/7/17_6.odb,Step-1,Increment      1: Step Time =    1.000,"PART-1-1",           106,       6.86948,       15.7920,            0.,NA,NA,"",       14.4105,       14.3639,      -1.15856,   13.9677E-03
C:/temp/dataset/7/17_6.odb,Step-1,Increment      1: Step Time =    1.000,"PART-1-1",           107,       7.06799,       9.62990,            0.,NA,NA,"",       11.3742,       11.3592,  -583.809E-03,   19.6072E-03
C:/temp/dataset/7/17_6.odb,Step-1,Increment      1: Step Time =    1.000,"PART-1-1",           108,       7.09093,       5.31052,            0.,NA,NA,"",       9.37269,       9.37050,  -202.326E-03,   24.0300E-03
C:/temp/dataset/7/17_6.odb,Step-1,Increment      1: Step Time =    1.000,"PART-1-1",           109,       6.65187,      -5.22056,            0.,NA,NA,"",       5.12825,       5.09633,   571.275E-03,   40.2134E-03
C:/temp/dataset/7/17_6.odb,Step-1,Increment      1: Step Time =    1.000,"PART-1-1",           110,       7.26954,      -25.7037,            0.,NA,NA,"",   278.949E-03,   201.012E-03,   193.409E-03,   55.6982E-03
C:/temp/dataset/7/17_6.odb,Step-1,Increment      1: Step Time =    1.000,"PART-1-1",           111,       7.53271,      -20.3934,            0.,NA,NA,"",   941.439E-03,   872.029E-03,   354.786E-03,   44.4705E-03
C:/temp/dataset/7/17_6.odb,Step-1,Increment      1: Step Time =    1.000,"PART-1-1",           112,       7.01178,       11.7341,            0.,NA,NA,"",       12.3911,       12.3670,  -773.059E-03,   17.6768E-03
C:/temp/dataset/7/17_6.odb,Step-1,Increment      1: Step Time =    1.000,"PART-1-1",           113,       7.07643,       3.14767,            0.,NA,NA,"",       8.41878,       8.41873,  -28.0705E-03,   26.4528E-03
C:/temp/dataset/7/17_6.odb,Step-1,Increment      1: Step Time =    1.000,"PART-1-1",           114,       6.98190,      -10.9751,            0.,NA,NA,"",       3.19963,       3.14753,   575.038E-03,   42.9724E-03
C:/temp/dataset/7/17_6.odb,Step-1,Increment      1: Step Time =    1.000,"PART-1-1",           115,       13.1254,       22.8014,            0.,NA,NA,"",       17.8158,       17.0583,      -5.13979,   6.71614E-03
C:/temp/dataset/7/17_6.odb,Step-1,Increment      1: Step Time =    1.000,"PART-1-1",           116,       12.8923,      -4.74502,            0.,NA,NA,"",       5.12651,       4.86534,      -1.61544,   32.7146E-03
C:/temp/dataset/7/17_6.odb,Step-1,Increment      1: Step Time =    1.000,"PART-1-1",           117,       13.0513,      -12.4505,            0.,NA,NA,"",       2.69050,       2.48979,      -1.01968,   42.1993E-03
C:/temp/dataset/7/17_6.odb,Step-1,Increment      1: Step Time =    1.000,"PART-1-1",           118,       12.2427,       17.8341,            0.,NA,NA,"",       15.2379,       14.6998,      -4.01356,   10.4466E-03
C:/temp/dataset/7/17_6.odb,Step-1,Increment      1: Step Time =    1.000,"PART-1-1",           119,       13.0441,       9.90429,            0.,NA,NA,"",       11.3326,       10.8311,      -3.33389,   19.4843E-03
C:/temp/dataset/7/17_6.odb,Step-1,Increment      1: Step Time =    1.000,"PART-1-1",           120,       13.0522,       2.62582,            0.,NA,NA,"",       8.04347,       7.66246,      -2.44625,   27.0099E-03
C:/temp/dataset/7/17_6.odb,Step-1,Increment      1: Step Time =    1.000,"PART-1-1",           121,       13.2006,      -19.7745,            0.,NA,NA,"",       1.06372,   903.514E-03,  -561.396E-03,   51.7911E-03
C:/temp/dataset/7/17_6.odb,Step-1,Increment      1: Step Time =    1.000,"PART-1-1",           122,       9.90112,      -27.6522,            0.,NA,NA,"",   31.9449E-03,   31.1715E-03,   6.98644E-03,   10.6323E-03
C:/temp/dataset/7/17_6.odb,Step-1,Increment      1: Step Time =    1.000,"PART-1-1",           123,       13.0591,      -22.1191,            0.,NA,NA,"",   682.996E-03,   550.825E-03,  -403.826E-03,   51.6907E-03
C:/temp/dataset/7/17_6.odb,Step-1,Increment      1: Step Time =    1.000,"PART-1-1",           124,       13.1139,      -14.9356,            0.,NA,NA,"",       2.05876,       1.87181,  -857.202E-03,   45.5730E-03
C:/temp/dataset/7/17_6.odb,Step-1,Increment      1: Step Time =    1.000,"PART-1-1",           125,       13.1678,      -17.3995,            0.,NA,NA,"",       1.51261,       1.33863,  -704.326E-03,   48.8486E-03
C:/temp/dataset/7/17_6.odb,Step-1,Increment      1: Step Time =    1.000,"PART-1-1",           126,       12.7891,      -7.32383,            0.,NA,NA,"",       4.22556,       4.00434,      -1.34928,   33.9170E-03
C:/temp/dataset/7/17_6.odb,Step-1,Increment      1: Step Time =    1.000,"PART-1-1",           127,       12.9162,      -9.94117,            0.,NA,NA,"",       3.40181,       3.19283,      -1.17395,   37.9432E-03
C:/temp/dataset/7/17_6.odb,Step-1,Increment      1: Step Time =    1.000,"PART-1-1",           128,       13.0283,   193.158E-03,            0.,NA,NA,"",       7.02960,       6.68769,      -2.16563,   29.2731E-03
C:/temp/dataset/7/17_6.odb,Step-1,Increment      1: Step Time =    1.000,"PART-1-1",           129,       12.9794,      -2.25409,            0.,NA,NA,"",       6.05933,       5.75695,      -1.89023,   31.2449E-03
C:/temp/dataset/7/17_6.odb,Step-1,Increment      1: Step Time =    1.000,"PART-1-1",           130,       13.0689,       7.48049,            0.,NA,NA,"",       10.1993,       9.73695,      -3.03616,   22.1300E-03
C:/temp/dataset/7/17_6.odb,Step-1,Increment      1: Step Time =    1.000,"PART-1-1",           131,       13.0764,       5.05734,            0.,NA,NA,"",       9.10312,       8.68035,      -2.74197,   24.6954E-03
C:/temp/dataset/7/17_6.odb,Step-1,Increment      1: Step Time =    1.000,"PART-1-1",           132,       12.6962,       14.9270,            0.,NA,NA,"",       13.7747,       13.2296,      -3.83663,   13.2786E-03
C:/temp/dataset/7/17_6.odb,Step-1,Increment      1: Step Time =    1.000,"PART-1-1",           133,       12.9459,       12.3607,            0.,NA,NA,"",       12.5127,       11.9804,      -3.61082,   16.5203E-03
C:/temp/dataset/7/17_6.odb,Step-1,Increment      1: Step Time =    1.000,"PART-1-1",           134,       12.9476,       20.4489,            0.,NA,NA,"",       16.5924,       15.9060,      -4.72304,   9.10856E-03
C:/temp/dataset/7/17_6.odb,Step-1,Increment      1: Step Time =    1.000,"PART-1-1",           135,       13.1802,       25.1793,            0.,NA,NA,"",       19.0545,       18.2445,      -5.49652,   4.29294E-03
C:/temp/dataset/7/17_6.odb,Step-1,Increment      1: Step Time =    1.000,"PART-1-1",           136,      -12.4062,       24.9250,            0.,NA,NA,"",       22.9305,       21.6864,       7.45046,   3.18357E-03
C:/temp/dataset/7/17_6.odb,Step-1,Increment      1: Step Time =    1.000,"PART-1-1",           137,       11.3078,       25.3904,            0.,NA,NA,"",       19.1576,       18.5987,      -4.59367,   5.52358E-03
C:/temp/dataset/7/17_6.odb,Step-1,Increment      1: Step Time =    1.000,"PART-1-1",           138,      -10.1009,       25.2443,            0.,NA,NA,"",       22.3982,       21.5168,       6.22154,   3.26385E-03
C:/temp/dataset/7/17_6.odb,Step-1,Increment      1: Step Time =    1.000,"PART-1-1",           139,      -4.83291,       26.5053,            0.,NA,NA,"",       21.6661,       21.4048,       3.35510,   4.27536E-03
C:/temp/dataset/7/17_6.odb,Step-1,Increment      1: Step Time =    1.000,"PART-1-1",           140,       1.72347,       26.1851,            0.,NA,NA,"",       20.3110,       20.3109,   78.7593E-03,   3.95213E-03
C:/temp/dataset/7/17_6.odb,Step-1,Increment      1: Step Time =    1.000,"PART-1-1",           141,       6.12189,       25.7754,            0.,NA,NA,"",       19.6013,       19.4916,      -2.07132,   5.35776E-03
C:/temp/dataset/7/17_6.odb,Step-1,Increment      1: Step Time =    1.000,"PART-1-1",           142,       7.62725,       25.7499,            0.,NA,NA,"",       19.4778,       19.2731,      -2.81675,   5.81454E-03
C:/temp/dataset/7/17_6.odb,Step-1,Increment      1: Step Time =    1.000,"PART-1-1",           143,       3.76931,       25.0880,            0.,NA,NA,"",       19.4857,       19.4692,  -802.133E-03,   4.18777E-03
C:/temp/dataset/7/17_6.odb,Step-1,Increment      1: Step Time =    1.000,"PART-1-1",           144,  -231.428E-03,       26.1188,            0.,NA,NA,"",       20.5807,       20.5526,       1.07471,   3.85480E-03
C:/temp/dataset/7/17_6.odb,Step-1,Increment      1: Step Time =    1.000,"PART-1-1",           145,      -2.48530,       25.9891,            0.,NA,NA,"",       20.9255,       20.8059,       2.23395,   3.74104E-03
C:/temp/dataset/7/17_6.odb,Step-1,Increment      1: Step Time =    1.000,"PART-1-1",           146,      -3.63425,       26.9302,            0.,NA,NA,"",       21.6178,       21.4501,       2.68728,   4.64600E-03
C:/temp/dataset/7/17_6.odb,Step-1,Increment      1: Step Time =    1.000,"PART-1-1",           147,      -8.31738,       25.8431,            0.,NA,NA,"",       22.1907,       21.5670,       5.22426,   3.77936E-03
C:/temp/dataset/7/17_6.odb,Step-1,Increment      1: Step Time =    1.000,"PART-1-1",           148,       9.04714,   705.037E-03,            0.,NA,NA,"",       7.23062,       7.20247,  -637.398E-03,   12.5457E-03
C:/temp/dataset/7/17_6.odb,Step-1,Increment      1: Step Time =    1.000,"PART-1-1",           149,       7.85197,      -7.06885,            0.,NA,NA,"",       4.36002,       4.35374,   233.829E-03,   28.4181E-03
C:/temp/dataset/7/17_6.odb,Step-1,Increment      1: Step Time =    1.000,"PART-1-1",           150,       8.74205,      -22.9842,            0.,NA,NA,"",   475.226E-03,   453.841E-03,   140.954E-03,   26.7546E-03
C:/temp/dataset/7/17_6.odb,Step-1,Increment      1: Step Time =    1.000,"PART-1-1",           151,       9.28078,      -15.1075,            0.,NA,NA,"",       1.91335,       1.91291,   41.2501E-03,   15.1399E-03
C:/temp/dataset/7/17_6.odb,Step-1,Increment      1: Step Time =    1.000,"PART-1-1",           152,       8.97855,      -1.55139,            0.,NA,NA,"",       6.31910,       6.30339,  -445.354E-03,   13.8529E-03
C:/temp/dataset/7/17_6.odb,Step-1,Increment      1: Step Time =    1.000,"PART-1-1",           153,       9.09422,       9.69450,            0.,NA,NA,"",       11.2587,       11.1574,      -1.50668,   9.81452E-03
C:/temp/dataset/7/17_6.odb,Step-1,Increment      1: Step Time =    1.000,"PART-1-1",           154,       8.44946,       15.5970,            0.,NA,NA,"",       14.1938,       14.0672,      -1.89158,   9.43676E-03
C:/temp/dataset/7/17_6.odb,Step-1,Increment      1: Step Time =    1.000,"PART-1-1",           155,       9.11701,       7.46178,            0.,NA,NA,"",       10.2063,       10.1258,      -1.27997,   10.2546E-03
C:/temp/dataset/7/17_6.odb,Step-1,Increment      1: Step Time =    1.000,"PART-1-1",           156,       8.83101,       13.9442,            0.,NA,NA,"",       13.3451,       13.2131,      -1.87265,   9.36932E-03
C:/temp/dataset/7/17_6.odb,Step-1,Increment      1: Step Time =    1.000,"PART-1-1",           157,       9.61385,      -19.9311,            0.,NA,NA,"",   898.074E-03,   897.417E-03,   34.3366E-03,   12.0329E-03
C:/temp/dataset/7/17_6.odb,Step-1,Increment      1: Step Time =    1.000,"PART-1-1",           158,       9.10031,       2.95854,            0.,NA,NA,"",       8.18418,       8.14044,  -844.965E-03,   11.5159E-03
C:/temp/dataset/7/17_6.odb,Step-1,Increment      1: Step Time =    1.000,"PART-1-1",           159,       9.17986,      -12.8049,            0.,NA,NA,"",       2.51052,       2.51047,   16.2180E-03,   15.6742E-03
C:/temp/dataset/7/17_6.odb,Step-1,Increment      1: Step Time =    1.000,"PART-1-1",           160,       8.54844,      -8.43147,            0.,NA,NA,"",       3.85449,       3.85398,   62.4936E-03,   21.2116E-03
C:/temp/dataset/7/17_6.odb,Step-1,Increment      1: Step Time =    1.000,"PART-1-1",           161,       8.46228,      -5.79934,            0.,NA,NA,"",       4.75513,       4.75509,  -17.4520E-03,   20.7620E-03
C:/temp/dataset/7/17_6.odb,Step-1,Increment      1: Step Time =    1.000,"PART-1-1",           162,       8.97830,      -10.5487,            0.,NA,NA,"",       3.16690,       3.16689,   6.55012E-03,   17.2556E-03
C:/temp/dataset/7/17_6.odb,Step-1,Increment      1: Step Time =    1.000,"PART-1-1",           163,       8.84007,      -3.76868,            0.,NA,NA,"",       5.47236,       5.46646,  -253.902E-03,   15.9455E-03
C:/temp/dataset/7/17_6.odb,Step-1,Increment      1: Step Time =    1.000,"PART-1-1",           164,       9.12644,       5.21383,            0.,NA,NA,"",       9.17856,       9.11697,      -1.06152,   10.7658E-03
C:/temp/dataset/7/17_6.odb,Step-1,Increment      1: Step Time =    1.000,"PART-1-1",           165,       9.36869,      -17.5094,            0.,NA,NA,"",       1.36816,       1.36697,   56.9032E-03,   14.7169E-03
C:/temp/dataset/7/17_6.odb,Step-1,Increment      1: Step Time =    1.000,"PART-1-1",           166,       9.01212,       11.8707,            0.,NA,NA,"",       12.3136,       12.1938,      -1.71359,   9.54505E-03
C:/temp/dataset/7/17_6.odb,Step-1,Increment      1: Step Time =    1.000,"PART-1-1",           167,       9.60003,       16.9835,            0.,NA,NA,"",       14.8397,       14.6068,      -2.61866,   8.22713E-03
C:/temp/dataset/7/17_6.odb,Step-1,Increment      1: Step Time =    1.000,"PART-1-1",           168,       7.13047,       19.6676,            0.,NA,NA,"",       16.3580,       16.2628,      -1.76245,   9.14006E-03
C:/temp/dataset/7/17_6.odb,Step-1,Increment      1: Step Time =    1.000,"PART-1-1",           169,       9.55406,      -25.2995,            0.,NA,NA,"",   195.009E-03,   191.117E-03,   38.7656E-03,   14.4447E-03
C:/temp/dataset/7/17_6.odb,Step-1,Increment      1: Step Time =    1.000,"PART-1-1",           170,       12.3800,      -27.4389,            0.,NA,NA,"",   108.715E-03,   57.0705E-03,  -92.5305E-03,   46.0326E-03
C:/temp/dataset/7/17_6.odb,Step-1,Increment      1: Step Time =    1.000,"PART-1-1",           171,      -11.9351,       22.4166,            0.,NA,NA,"",       21.6863,       20.3236,       7.56638,   692.585E-06
C:/temp/dataset/7/17_6.odb,Step-1,Increment      1: Step Time =    1.000,"PART-1-1",           172,       10.9842,      -1.93535,            0.,NA,NA,"",       6.11840,       6.00594,      -1.16769,   12.1134E-03
C:/temp/dataset/7/17_6.odb,Step-1,Increment      1: Step Time =    1.000,"PART-1-1",           173,       11.2234,      -14.9909,            0.,NA,NA,"",       1.93096,       1.88730,  -408.281E-03,   18.0538E-03
C:/temp/dataset/7/17_6.odb,Step-1,Increment      1: Step Time =    1.000,"PART-1-1",           174,       11.0574,       21.1283,            0.,NA,NA,"",       16.9386,       16.4871,      -3.88490,   8.54766E-03
C:/temp/dataset/7/17_6.odb,Step-1,Increment      1: Step Time =    1.000,"PART-1-1",           175,       10.7466,       19.4847,            0.,NA,NA,"",       16.0917,       15.7047,      -3.50793,   8.80197E-03
C:/temp/dataset/7/17_6.odb,Step-1,Increment      1: Step Time =    1.000,"PART-1-1",           176,       11.0568,   433.028E-03,            0.,NA,NA,"",       7.06902,       6.92771,      -1.40637,   12.1211E-03
C:/temp/dataset/7/17_6.odb,Step-1,Increment      1: Step Time =    1.000,"PART-1-1",           177,       10.9662,       12.1205,            0.,NA,NA,"",       12.3756,       12.0883,      -2.65106,   9.27872E-03
C:/temp/dataset/7/17_6.odb,Step-1,Increment      1: Step Time =    1.000,"PART-1-1",           178,       11.6216,      -21.4567,            0.,NA,NA,"",   676.810E-03,   634.174E-03,  -236.421E-03,   26.3640E-03
C:/temp/dataset/7/17_6.odb,Step-1,Increment      1: Step Time =    1.000,"PART-1-1",           179,       11.2975,      -17.3958,            0.,NA,NA,"",       1.39040,       1.35172,  -325.661E-03,   19.8279E-03
C:/temp/dataset/7/17_6.odb,Step-1,Increment      1: Step Time =    1.000,"PART-1-1",           180,       10.6273,       14.4803,            0.,NA,NA,"",       13.5479,       13.2577,      -2.78911,   8.45771E-03
C:/temp/dataset/7/17_6.odb,Step-1,Increment      1: Step Time =    1.000,"PART-1-1",           181,       11.1012,       2.78293,            0.,NA,NA,"",       8.05898,       7.88777,      -1.65237,   11.8373E-03
C:/temp/dataset/7/17_6.odb,Step-1,Increment      1: Step Time =    1.000,"PART-1-1",           182,       11.1153,       7.46695,            0.,NA,NA,"",       10.1554,       9.92238,      -2.16293,   10.7359E-03
C:/temp/dataset/7/17_6.odb,Step-1,Increment      1: Step Time =    1.000,"PART-1-1",           183,       11.1247,      -12.5851,            0.,NA,NA,"",       2.54956,       2.50068,  -496.875E-03,   16.1271E-03
C:/temp/dataset/7/17_6.odb,Step-1,Increment      1: Step Time =    1.000,"PART-1-1",           184,       10.4094,      -7.19663,            0.,NA,NA,"",       4.19786,       4.15715,  -583.209E-03,   8.80332E-03
C:/temp/dataset/7/17_6.odb,Step-1,Increment      1: Step Time =    1.000,"PART-1-1",           185,       10.4303,      -22.2648,            0.,NA,NA,"",   527.983E-03,   524.654E-03,  -59.1931E-03,   9.16278E-03
C:/temp/dataset/7/17_6.odb,Step-1,Increment      1: Step Time =    1.000,"PART-1-1",           186,       10.9130,      -10.1038,            0.,NA,NA,"",       3.26383,       3.21378,  -569.375E-03,   13.1022E-03
C:/temp/dataset/7/17_6.odb,Step-1,Increment      1: Step Time =    1.000,"PART-1-1",           187,       10.8491,      -4.38491,            0.,NA,NA,"",       5.18925,       5.10656,  -922.695E-03,   11.5533E-03
C:/temp/dataset/7/17_6.odb,Step-1,Increment      1: Step Time =    1.000,"PART-1-1",           188,       11.1275,       5.13070,            0.,NA,NA,"",       9.09056,       8.88793,      -1.90866,   11.3890E-03
C:/temp/dataset/7/17_6.odb,Step-1,Increment      1: Step Time =    1.000,"PART-1-1",           189,       11.0819,       9.79848,            0.,NA,NA,"",       11.2523,       10.9888,      -2.42082,   10.0526E-03
C:/temp/dataset/7/17_6.odb,Step-1,Increment      1: Step Time =    1.000,"PART-1-1",           190,       12.1026,      -24.5603,            0.,NA,NA,"",   317.034E-03,   259.359E-03,  -182.328E-03,   37.1537E-03
C:/temp/dataset/7/17_6.odb,Step-1,Increment      1: Step Time =    1.000,"PART-1-1",           191,      -7.61069,       24.2264,            0.,NA,NA,"",       21.2536,       20.6351,       5.08983,   2.26124E-03
C:/temp/dataset/7/17_6.odb,Step-1,Increment      1: Step Time =    1.000,"PART-1-1",           192,      -5.77678,       24.2650,            0.,NA,NA,"",       20.8108,       20.3933,       4.14764,   2.29244E-03
C:/temp/dataset/7/17_6.odb,Step-1,Increment      1: Step Time =    1.000,"PART-1-1",           193,       1.00958,       23.8763,            0.,NA,NA,"",       19.2546,       19.2398,   754.080E-03,   1.99599E-03
C:/temp/dataset/7/17_6.odb,Step-1,Increment      1: Step Time =    1.000,"PART-1-1",           194,      -3.86757,       24.8145,            0.,NA,NA,"",       20.6368,       20.4029,       3.09856,   2.73624E-03
C:/temp/dataset/7/17_6.odb,Step-1,Increment      1: Step Time =    1.000,"PART-1-1",           195,  -996.969E-03,       24.6602,            0.,NA,NA,"",       19.9881,       19.9189,       1.66239,   2.48967E-03
C:/temp/dataset/7/17_6.odb,Step-1,Increment      1: Step Time =    1.000,"PART-1-1",           196,       7.19995,       21.7613,            0.,NA,NA,"",       17.4349,       17.3114,      -2.07154,   8.64017E-03
C:/temp/dataset/7/17_6.odb,Step-1,Increment      1: Step Time =    1.000,"PART-1-1",           197,       2.92747,       22.7842,            0.,NA,NA,"",       18.4203,       18.4202,  -65.8479E-03,   1.92965E-03
C:/temp/dataset/7/17_6.odb,Step-1,Increment      1: Step Time =    1.000,"PART-1-1",           198,       5.53232,       24.2100,            0.,NA,NA,"",       18.8458,       18.7805,      -1.56756,   5.17992E-03
C:/temp/dataset/7/17_6.odb,Step-1,Increment      1: Step Time =    1.000,"PART-1-1",           199,       9.18626,       19.3402,            0.,NA,NA,"",       16.0638,       15.8308,      -2.72614,   8.62915E-03
C:/temp/dataset/7/17_6.odb,Step-1,Increment      1: Step Time =    1.000,"PART-1-1",           200,       11.2321,       23.1770,            0.,NA,NA,"",       18.0034,       17.4940,      -4.25265,   7.37022E-03
C:/temp/dataset/7/17_6.odb,Step-1,Increment      1: Step Time =    1.000,"PART-1-1",           201,       5.11021,       22.1378,            0.,NA,NA,"",       17.8220,       17.7892,      -1.08020,   6.07517E-03
C:/temp/dataset/7/17_6.odb,Step-1,Increment      1: Step Time =    1.000,"PART-1-1",           202,   167.280E-03,       22.2372,            0.,NA,NA,"",       18.5784,       18.5251,       1.40640,   364.493E-06
C:/temp/dataset/7/17_6.odb,Step-1,Increment      1: Step Time =    1.000,"PART-1-1",           203,      -2.32264,       22.6339,            0.,NA,NA,"",       19.2519,       19.0734,       2.61575,   878.058E-06
C:/temp/dataset/7/17_6.odb,Step-1,Increment      1: Step Time =    1.000,"PART-1-1",           204,       9.17324,       21.4477,            0.,NA,NA,"",       17.1562,       16.8916,      -3.00189,   8.62313E-03
C:/temp/dataset/7/17_6.odb,Step-1,Increment      1: Step Time =    1.000,"PART-1-1",           205,       9.43619,       25.5889,            0.,NA,NA,"",       19.3044,       18.9480,      -3.69241,   6.07765E-03
C:/temp/dataset/7/17_6.odb,Step-1,Increment      1: Step Time =    1.000,"PART-1-1",           206,      -5.39738,       22.2321,            0.,NA,NA,"",       19.7597,       19.2997,       4.23861,   542.022E-06
C:/temp/dataset/7/17_6.odb,Step-1,Increment      1: Step Time =    1.000,"PART-1-1",           207,      -8.66915,       22.6604,            0.,NA,NA,"",       20.8219,       19.9825,       5.85268,   859.371E-06
C:/temp/dataset/7/17_6.odb,Step-1,Increment      1: Step Time =    1.000,"PART-1-1",           208,      -12.8188,       27.4435,            0.,NA,NA,"",       24.1802,       23.0503,       7.30505,   6.23608E-03
C:/temp/dataset/7/17_6.odb,Step-1,Increment      1: Step Time =    1.000,"PART-1-1",           209,       7.43992,       23.7550,            0.,NA,NA,"",       18.4532,       18.2891,      -2.45592,   7.01325E-03
C:/temp/dataset/7/17_6.odb,Step-1,Increment      1: Step Time =    1.000,"PART-1-1",           210,      -6.48406,       26.1481,            0.,NA,NA,"",       21.8751,       21.4592,       4.24561,   3.98835E-03
C:/temp/dataset/7/17_6.odb,Step-1,Increment      1: Step Time =    1.000,"PART-1-1",           211,       3.18484,       28.0088,            0.,NA,NA,"",       21.0487,       21.0294,  -902.176E-03,   5.54257E-03
C:/temp/dataset/7/17_6.odb,Step-1,Increment      1: Step Time =    1.000,"PART-1-1",           212,       11.4304,      -19.6429,            0.,NA,NA,"",   962.526E-03,   924.326E-03,  -268.472E-03,   22.5240E-03
C:/temp/dataset/7/17_6.odb,Step-1,Increment      1: Step Time =    1.000,"PART-1-1",           213,       9.33060,       23.4727,            0.,NA,NA,"",       18.2047,       17.8932,      -3.35330,   7.64256E-03
C:/temp/dataset/7/17_6.odb,Step-1,Increment      1: Step Time =    1.000,"PART-1-1",           214,      -12.1707,       23.6708,            0.,NA,NA,"",       22.3061,       21.0044,       7.50835,   1.36528E-03
C:/temp/dataset/7/17_6.odb,Step-1,Increment      1: Step Time =    1.000,"PART-1-1",           215,      -13.7031,       24.9625,            0.,NA,NA,"",       23.3489,       21.8944,       8.11208,   3.33180E-03
C:/temp/dataset/7/17_6.odb,Step-1,Increment      1: Step Time =    1.000,"PART-1-1",           216,          -15.,         23.75,            0.,NA,NA,"",       23.2486,       21.4534,       8.95817,   1.22397E-03
C:/temp/dataset/7/17_6.odb,Step-1,Increment      1: Step Time =    1.000,"PART-1-1",           217,      -13.4675,       22.4583,            0.,NA,NA,"",       22.1962,       20.5653,       8.35121,   811.611E-06
C:/temp/dataset/7/17_6.odb,Step-1,Increment      1: Step Time =    1.000,"PART-1-1",           218,      -9.86170,       27.7278,            0.,NA,NA,"",       23.4767,       22.7616,       5.74990,   5.56237E-03
C:/temp/dataset/7/17_6.odb,Step-1,Increment      1: Step Time =    1.000,"PART-1-1",           219,      -10.4490,       26.4258,            0.,NA,NA,"",       23.0357,       22.1764,       6.23334,   4.42841E-03
C:/temp/dataset/7/17_6.odb,Step-1,Increment      1: Step Time =    1.000,"PART-1-1",           220,      -9.20914,       25.5437,            0.,NA,NA,"",       22.2891,       21.5420,       5.72251,   3.51365E-03
C:/temp/dataset/7/17_6.odb,Step-1,Increment      1: Step Time =    1.000,"PART-1-1",           221,      -8.62185,       26.8458,            0.,NA,NA,"",       22.7385,       22.1266,       5.23946,   4.68342E-03
C:/temp/dataset/7/17_6.odb,Step-1,Increment      1: Step Time =    1.000,"PART-1-1",           222,      -9.15066,       28.9242,            0.,NA,NA,"",       23.8517,       23.2736,       5.21931,   6.48981E-03
C:/temp/dataset/7/17_6.odb,Step-1,Increment      1: Step Time =    1.000,"PART-1-1",           223,      -10.3125,           30.,            0.,NA,NA,"",       24.6588,       23.9997,       5.66275,   7.31836E-03
C:/temp/dataset/7/17_6.odb,Step-1,Increment      1: Step Time =    1.000,"PART-1-1",           224,      -11.0235,       28.8036,            0.,NA,NA,"",       24.2904,       23.4874,       6.19381,   6.37534E-03
C:/temp/dataset/7/17_6.odb,Step-1,Increment      1: Step Time =    1.000,"PART-1-1",           225,      -11.2536,       25.0847,            0.,NA,NA,"",       22.6572,       21.6015,       6.83545,   3.06757E-03
C:/temp/dataset/7/17_6.odb,Step-1,Increment      1: Step Time =    1.000,"PART-1-1",           226,      -10.3021,       22.5385,            0.,NA,NA,"",       21.2400,       20.1527,       6.70847,   567.358E-06
C:/temp/dataset/7/17_6.odb,Step-1,Increment      1: Step Time =    1.000,"PART-1-1",           227,      -9.38503,       23.9523,            0.,NA,NA,"",       21.6091,       20.7487,       6.03707,   2.02333E-03
C:/temp/dataset/7/17_6.odb,Step-1,Increment      1: Step Time =    1.000,"PART-1-1",           228,      -12.9719,       28.7217,            0.,NA,NA,"",       24.8028,       23.7335,       7.20407,   6.22131E-03
C:/temp/dataset/7/17_6.odb,Step-1,Increment      1: Step Time =    1.000,"PART-1-1",           229,      -14.0625,           30.,            0.,NA,NA,"",       25.7002,       24.5558,       7.58374,   6.22611E-03
C:/temp/dataset/7/17_6.odb,Step-1,Increment      1: Step Time =    1.000,"PART-1-1",           230,          -15.,         28.75,            0.,NA,NA,"",       25.4210,       24.0482,       8.24088,   5.76733E-03
C:/temp/dataset/7/17_6.odb,Step-1,Increment      1: Step Time =    1.000,"PART-1-1",           231,      -13.9094,       27.4717,            0.,NA,NA,"",       24.5209,       23.2265,       7.86162,   6.15434E-03
C:/temp/dataset/7/17_6.odb,Step-1,Increment      1: Step Time =    1.000,"PART-1-1",           232,      -7.40072,       25.9956,            0.,NA,NA,"",       22.0278,       21.5130,       4.73460,   3.87840E-03
C:/temp/dataset/7/17_6.odb,Step-1,Increment      1: Step Time =    1.000,"PART-1-1",           233,      -7.96404,       25.0347,            0.,NA,NA,"",       21.7218,       21.1008,       5.15699,   3.00217E-03
C:/temp/dataset/7/17_6.odb,Step-1,Increment      1: Step Time =    1.000,"PART-1-1",           234,      -6.69374,       24.2457,            0.,NA,NA,"",       21.0275,       20.5141,       4.61845,   2.28327E-03
C:/temp/dataset/7/17_6.odb,Step-1,Increment      1: Step Time =    1.000,"PART-1-1",           235,      -6.13042,       25.2066,            0.,NA,NA,"",       21.3425,       20.9259,       4.19656,   3.14462E-03
C:/temp/dataset/7/17_6.odb,Step-1,Increment      1: Step Time =    1.000,"PART-1-1",           236,      -5.46940,       29.1125,            0.,NA,NA,"",       23.0717,       22.8319,       3.31832,   6.66110E-03
C:/temp/dataset/7/17_6.odb,Step-1,Increment      1: Step Time =    1.000,"PART-1-1",           237,      -4.41178,       28.2246,            0.,NA,NA,"",       22.4126,       22.2237,       2.90360,   5.85714E-03
C:/temp/dataset/7/17_6.odb,Step-1,Increment      1: Step Time =    1.000,"PART-1-1",           238,      -3.62988,       29.1121,            0.,NA,NA,"",       22.6902,       22.5645,       2.38508,   6.68075E-03
C:/temp/dataset/7/17_6.odb,Step-1,Increment      1: Step Time =    1.000,"PART-1-1",           239,       -4.6875,           30.,            0.,NA,NA,"",       23.3411,       23.1727,       2.79940,   7.48018E-03
C:/temp/dataset/7/17_6.odb,Step-1,Increment      1: Step Time =    1.000,"PART-1-1",           240,  -467.629E-03,       27.9420,            0.,NA,NA,"",       21.5339,       21.5131,   945.288E-03,   5.56641E-03
C:/temp/dataset/7/17_6.odb,Step-1,Increment      1: Step Time =    1.000,"PART-1-1",           241,  -845.263E-03,       26.9234,            0.,NA,NA,"",       21.0873,       21.0487,       1.27507,   4.60143E-03
C:/temp/dataset/7/17_6.odb,Step-1,Increment      1: Step Time =    1.000,"PART-1-1",           242,   746.021E-03,       26.1520,            0.,NA,NA,"",       20.4397,       20.4316,   576.346E-03,   3.90419E-03
C:/temp/dataset/7/17_6.odb,Step-1,Increment      1: Step Time =    1.000,"PART-1-1",           243,       1.12365,       27.1705,            0.,NA,NA,"",       20.8967,       20.8952,   247.345E-03,   4.86631E-03
C:/temp/dataset/7/17_6.odb,Step-1,Increment      1: Step Time =    1.000,"PART-1-1",           244,       14.0901,       25.0896,            0.,NA,NA,"",       19.0292,       18.0787,      -5.93906,   3.23489E-03
C:/temp/dataset/7/17_6.odb,Step-1,Increment      1: Step Time =    1.000,"PART-1-1",           245,       13.1528,       23.9903,            0.,NA,NA,"",       18.4350,       17.6511,      -5.31863,   5.47843E-03
C:/temp/dataset/7/17_6.odb,Step-1,Increment      1: Step Time =    1.000,"PART-1-1",           246,       14.0627,       22.6507,            0.,NA,NA,"",       17.7617,       16.8604,      -5.58637,   6.38941E-03
C:/temp/dataset/7/17_6.odb,Step-1,Increment      1: Step Time =    1.000,"PART-1-1",           247,           15.,         23.75,            0.,NA,NA,"",       18.3679,       17.2861,      -6.21042,   5.01996E-03
C:/temp/dataset/7/17_6.odb,Step-1,Increment      1: Step Time =    1.000,"PART-1-1",           248,       11.2764,       28.8302,            0.,NA,NA,"",       20.9481,       20.3319,      -5.04367,   2.21370E-03
C:/temp/dataset/7/17_6.odb,Step-1,Increment      1: Step Time =    1.000,"PART-1-1",           249,       10.3125,           30.,            0.,NA,NA,"",       21.5695,       21.0468,      -4.71969,   2.42790E-03
C:/temp/dataset/7/17_6.odb,Step-1,Increment      1: Step Time =    1.000,"PART-1-1",           250,       9.39543,       28.8642,            0.,NA,NA,"",       21.0089,       20.6024,      -4.11282,   3.63070E-03
C:/temp/dataset/7/17_6.odb,Step-1,Increment      1: Step Time =    1.000,"PART-1-1",           251,       10.3594,       27.6945,            0.,NA,NA,"",       20.3735,       19.8850,      -4.43507,   3.97103E-03
C:/temp/dataset/7/17_6.odb,Step-1,Increment      1: Step Time =    1.000,"PART-1-1",           252,        8.4375,           30.,            0.,NA,NA,"",       21.6358,       21.3018,      -3.78724,   4.41747E-03
C:/temp/dataset/7/17_6.odb,Step-1,Increment      1: Step Time =    1.000,"PART-1-1",           253,       7.48312,       28.8587,            0.,NA,NA,"",       21.0985,       20.8603,      -3.16158,   4.97489E-03
C:/temp/dataset/7/17_6.odb,Step-1,Increment      1: Step Time =    1.000,"PART-1-1",           254,       8.44105,       27.7230,            0.,NA,NA,"",       20.4574,       20.1582,      -3.48604,   4.73234E-03
C:/temp/dataset/7/17_6.odb,Step-1,Increment      1: Step Time =    1.000,"PART-1-1",           255,       13.0365,       21.6252,            0.,NA,NA,"",       17.2032,       16.4812,      -4.93148,   7.88197E-03
C:/temp/dataset/7/17_6.odb,Step-1,Increment      1: Step Time =    1.000,"PART-1-1",           256,       13.9738,       20.2245,            0.,NA,NA,"",       16.5045,       15.6637,      -5.20056,   9.98421E-03
C:/temp/dataset/7/17_6.odb,Step-1,Increment      1: Step Time =    1.000,"PART-1-1",           257,           15.,         21.25,            0.,NA,NA,"",       17.0765,       16.0399,      -5.85906,   9.56940E-03
C:/temp/dataset/7/17_6.odb,Step-1,Increment      1: Step Time =    1.000,"PART-1-1",           258,       6.90015,       14.7921,            0.,NA,NA,"",       13.9075,       13.8672,      -1.05752,   14.8515E-03
C:/temp/dataset/7/17_6.odb,Step-1,Increment      1: Step Time =    1.000,"PART-1-1",           259,       5.93474,       15.8126,            0.,NA,NA,"",       14.5136,       14.4961,  -712.230E-03,   17.1619E-03
C:/temp/dataset/7/17_6.odb,Step-1,Increment      1: Step Time =    1.000,"PART-1-1",           260,            5.,       14.7917,            0.,NA,NA,"",       14.1160,       14.1152,  -150.371E-03,   22.5769E-03
C:/temp/dataset/7/17_6.odb,Step-1,Increment      1: Step Time =    1.000,"PART-1-1",           261,       5.96541,       13.7711,            0.,NA,NA,"",       13.4958,       13.4865,  -500.485E-03,   19.9019E-03
C:/temp/dataset/7/17_6.odb,Step-1,Increment      1: Step Time =    1.000,"PART-1-1",           262,       7.07741,       8.55300,            0.,NA,NA,"",       10.8645,       10.8537,  -483.849E-03,   20.6784E-03
C:/temp/dataset/7/17_6.odb,Step-1,Increment      1: Step Time =    1.000,"PART-1-1",           263,       6.03400,       9.60662,            0.,NA,NA,"",       11.4724,       11.4718,  -113.406E-03,   25.5837E-03
C:/temp/dataset/7/17_6.odb,Step-1,Increment      1: Step Time =    1.000,"PART-1-1",           264,            5.,       8.54167,            0.,NA,NA,"",       11.1051,       11.0961,   447.192E-03,   33.8744E-03
C:/temp/dataset/7/17_6.odb,Step-1,Increment      1: Step Time =    1.000,"PART-1-1",           265,       6.04341,       7.48805,            0.,NA,NA,"",       10.4796,       10.4794,   70.7909E-03,   28.5827E-03
C:/temp/dataset/7/17_6.odb,Step-1,Increment      1: Step Time =    1.000,"PART-1-1",           266,            5.,         4.375,            0.,NA,NA,"",       9.21415,       9.18322,   754.344E-03,   41.4834E-03
C:/temp/dataset/7/17_6.odb,Step-1,Increment      1: Step Time =    1.000,"PART-1-1",           267,       6.03822,       3.24050,            0.,NA,NA,"",       8.57622,       8.56717,   393.816E-03,   34.7723E-03
C:/temp/dataset/7/17_6.odb,Step-1,Increment      1: Step Time =    1.000,"PART-1-1",           268,       7.08368,       4.22909,            0.,NA,NA,"",       8.89157,       8.89085,  -112.696E-03,   25.2333E-03
C:/temp/dataset/7/17_6.odb,Step-1,Increment      1: Step Time =    1.000,"PART-1-1",           269,       6.04546,       5.36359,            0.,NA,NA,"",       9.51196,       9.50892,   240.273E-03,   31.6392E-03
C:/temp/dataset/7/17_6.odb,Step-1,Increment      1: Step Time =    1.000,"PART-1-1",           270,            5.,       2.29167,            0.,NA,NA,"",       8.31232,       8.26590,   877.204E-03,   45.2838E-03
C:/temp/dataset/7/17_6.odb,Step-1,Increment      1: Step Time =    1.000,"PART-1-1",           271,       6.01828,       1.12309,            0.,NA,NA,"",       7.67774,       7.65935,   531.163E-03,   38.0275E-03
C:/temp/dataset/7/17_6.odb,Step-1,Increment      1: Step Time =    1.000,"PART-1-1",           272,       7.05649,       2.07193,            0.,NA,NA,"",       7.95843,       7.95824,   56.1763E-03,   27.7791E-03
C:/temp/dataset/7/17_6.odb,Step-1,Increment      1: Step Time =    1.000,"PART-1-1",           273,       7.00178,  -77.9012E-03,            0.,NA,NA,"",       7.06762,       7.06438,   213.995E-03,   30.6237E-03
C:/temp/dataset/7/17_6.odb,Step-1,Increment      1: Step Time =    1.000,"PART-1-1",           274,            5.,   208.333E-03,            0.,NA,NA,"",       7.44350,       7.37892,   978.393E-03,   49.0812E-03
C:/temp/dataset/7/17_6.odb,Step-1,Increment      1: Step Time =    1.000,"PART-1-1",           275,       5.98350,  -992.661E-03,            0.,NA,NA,"",       6.81811,       6.78687,   651.985E-03,   41.4573E-03
C:/temp/dataset/7/17_6.odb,Step-1,Increment      1: Step Time =    1.000,"PART-1-1",           276,       6.59145,      -6.15040,            0.,NA,NA,"",       4.80531,       4.76543,   617.792E-03,   42.0856E-03
C:/temp/dataset/7/17_6.odb,Step-1,Increment      1: Step Time =    1.000,"PART-1-1",           277,       5.82593,      -5.11028,            0.,NA,NA,"",       5.27300,       5.20397,   850.418E-03,   49.2734E-03
C:/temp/dataset/7/17_6.odb,Step-1,Increment      1: Step Time =    1.000,"PART-1-1",           278,            5.,      -6.04167,            0.,NA,NA,"",       5.06444,       4.93320,       1.14549,   60.3880E-03
C:/temp/dataset/7/17_6.odb,Step-1,Increment      1: Step Time =    1.000,"PART-1-1",           279,       5.76552,      -7.08179,            0.,NA,NA,"",       4.59077,       4.50059,   905.446E-03,   53.1003E-03
C:/temp/dataset/7/17_6.odb,Step-1,Increment      1: Step Time =    1.000,"PART-1-1",           280,       8.25955,      -15.2021,            0.,NA,NA,"",       1.94687,       1.92758,   273.322E-03,   29.1022E-03
C:/temp/dataset/7/17_6.odb,Step-1,Increment      1: Step Time =    1.000,"PART-1-1",           281,       9.23032,      -13.9562,            0.,NA,NA,"",       2.20314,       2.20293,   30.4758E-03,   15.3974E-03
C:/temp/dataset/7/17_6.odb,Step-1,Increment      1: Step Time =    1.000,"PART-1-1",           282,       8.16037,      -12.9544,            0.,NA,NA,"",       2.53007,       2.51460,   279.272E-03,   28.9522E-03
C:/temp/dataset/7/17_6.odb,Step-1,Increment      1: Step Time =    1.000,"PART-1-1",           283,       7.18960,      -14.2003,            0.,NA,NA,"",       2.28876,       2.22836,   522.318E-03,   43.5821E-03
C:/temp/dataset/7/17_6.odb,Step-1,Increment      1: Step Time =    1.000,"PART-1-1",           284,            5.,      -22.7083,            0.,NA,NA,"",   852.289E-03,   614.778E-03,   590.292E-03,   89.4567E-03
C:/temp/dataset/7/17_6.odb,Step-1,Increment      1: Step Time =    1.000,"PART-1-1",           285,       5.97351,      -23.6835,            0.,NA,NA,"",   611.713E-03,   448.877E-03,   415.574E-03,   74.3383E-03
C:/temp/dataset/7/17_6.odb,Step-1,Increment      1: Step Time =    1.000,"PART-1-1",           286,       6.71140,      -22.7416,            0.,NA,NA,"",   663.126E-03,   541.441E-03,   382.855E-03,   60.4334E-03
C:/temp/dataset/7/17_6.odb,Step-1,Increment      1: Step Time =    1.000,"PART-1-1",           287,       5.73789,      -21.7664,            0.,NA,NA,"",   908.432E-03,   718.237E-03,   556.223E-03,   75.5114E-03
C:/temp/dataset/7/17_6.odb,Step-1,Increment      1: Step Time =    1.000,"PART-1-1",           288,       9.95056,      -28.8261,            0.,NA,NA,"",   4.46370E-03,  -4.05982E-03,   1.85539E-03,   3.91582E-03
C:/temp/dataset/7/17_6.odb,Step-1,Increment      1: Step Time =    1.000,"PART-1-1",           289,       8.67404,      -27.7482,            0.,NA,NA,"",   61.1600E-03,   38.7220E-03,   47.3408E-03,   30.4168E-03
C:/temp/dataset/7/17_6.odb,Step-1,Increment      1: Step Time =    1.000,"PART-1-1",           290,       7.47347,      -28.9221,            0.,NA,NA,"",   40.5242E-03,   11.4050E-03,   38.8862E-03,   44.8271E-03
C:/temp/dataset/7/17_6.odb,Step-1,Increment      1: Step Time =    1.000,"PART-1-1",           291,          8.75,          -30.,            0.,NA,NA,"",            0.,  -11.2980E-39,   37.7004E-39,   21.1917E-03
C:/temp/dataset/7/17_6.odb,Step-1,Increment      1: Step Time =    1.000,"PART-1-1",           292,       9.14805,      -24.1419,            0.,NA,NA,"",   321.484E-03,   310.441E-03,   83.5362E-03,   20.4235E-03
C:/temp/dataset/7/17_6.odb,Step-1,Increment      1: Step Time =    1.000,"PART-1-1",           293,       7.84454,      -23.3007,            0.,NA,NA,"",   493.752E-03,   435.151E-03,   233.313E-03,   41.7810E-03
C:/temp/dataset/7/17_6.odb,Step-1,Increment      1: Step Time =    1.000,"PART-1-1",           294,       7.10828,      -24.6604,            0.,NA,NA,"",   395.130E-03,   302.402E-03,   254.325E-03,   56.3392E-03
C:/temp/dataset/7/17_6.odb,Step-1,Increment      1: Step Time =    1.000,"PART-1-1",           295,       8.41180,      -25.5016,            0.,NA,NA,"",   225.372E-03,   191.031E-03,   119.581E-03,   34.3865E-03
C:/temp/dataset/7/17_6.odb,Step-1,Increment      1: Step Time =    1.000,"PART-1-1",           296,       7.00425,      -21.1298,            0.,NA,NA,"",   871.473E-03,   768.661E-03,   410.640E-03,   53.9583E-03
C:/temp/dataset/7/17_6.odb,Step-1,Increment      1: Step Time =    1.000,"PART-1-1",           297,       6.26636,      -19.9884,            0.,NA,NA,"",       1.14127,   990.489E-03,   566.940E-03,   64.4141E-03
C:/temp/dataset/7/17_6.odb,Step-1,Increment      1: Step Time =    1.000,"PART-1-1",           298,            5.,       -20.625,            0.,NA,NA,"",       1.18834,   936.430E-03,   731.615E-03,   86.2816E-03
C:/temp/dataset/7/17_6.odb,Step-1,Increment      1: Step Time =    1.000,"PART-1-1",           299,       12.8526,      -8.63250,            0.,NA,NA,"",       3.80373,       3.58893,      -1.26014,   35.9153E-03
C:/temp/dataset/7/17_6.odb,Step-1,Increment      1: Step Time =    1.000,"PART-1-1",           300,       13.9581,      -9.97058,            0.,NA,NA,"",       3.48984,       3.15699,      -1.48741,   51.9395E-03
C:/temp/dataset/7/17_6.odb,Step-1,Increment      1: Step Time =    1.000,"PART-1-1",           301,           15.,         -8.75,            0.,NA,NA,"",       3.99263,       3.49146,      -1.93668,   64.0311E-03
C:/temp/dataset/7/17_6.odb,Step-1,Increment      1: Step Time =    1.000,"PART-1-1",           302,       13.8945,      -7.41192,            0.,NA,NA,"",       4.28941,       3.93481,      -1.70771,   47.7421E-03
C:/temp/dataset/7/17_6.odb,Step-1,Increment      1: Step Time =    1.000,"PART-1-1",           303,            5.,        10.625,            0.,NA,NA,"",       12.0884,       12.0855,   265.005E-03,   30.0699E-03
C:/temp/dataset/7/17_6.odb,Step-1,Increment      1: Step Time =    1.000,"PART-1-1",           304,       7.03988,       10.6820,            0.,NA,NA,"",       11.8799,       11.8606,  -676.685E-03,   18.6389E-03
C:/temp/dataset/7/17_6.odb,Step-1,Increment      1: Step Time =    1.000,"PART-1-1",           305,       6.00589,       11.7004,            0.,NA,NA,"",       12.4790,       12.4753,  -303.576E-03,   22.7098E-03
C:/temp/dataset/7/17_6.odb,Step-1,Increment      1: Step Time =    1.000,"PART-1-1",           306,       2.74639,       25.6366,            0.,NA,NA,"",       19.8930,       19.8897,  -361.953E-03,   3.95836E-03
C:/temp/dataset/7/17_6.odb,Step-1,Increment      1: Step Time =    1.000,"PART-1-1",           307,       1.36653,       25.0307,            0.,NA,NA,"",       19.7799,       19.7756,   415.970E-03,   2.95942E-03
C:/temp/dataset/7/17_6.odb,Step-1,Increment      1: Step Time =    1.000,"PART-1-1",           308,       1.96853,       23.3303,            0.,NA,NA,"",       18.8327,       18.8295,   344.079E-03,   1.68331E-03
C:/temp/dataset/7/17_6.odb,Step-1,Increment      1: Step Time =    1.000,"PART-1-1",           309,       3.34839,       23.9361,            0.,NA,NA,"",       18.9497,       18.9447,  -435.010E-03,   2.83892E-03
C:/temp/dataset/7/17_6.odb,Step-1,Increment      1: Step Time =    1.000,"PART-1-1",           310,       4.47216,       26.2029,            0.,NA,NA,"",       19.9784,       19.9358,      -1.30456,   4.60531E-03
C:/temp/dataset/7/17_6.odb,Step-1,Increment      1: Step Time =    1.000,"PART-1-1",           311,       4.17993,       27.6633,            0.,NA,NA,"",       20.7593,       20.7150,      -1.35443,   5.29023E-03
C:/temp/dataset/7/17_6.odb,Step-1,Increment      1: Step Time =    1.000,"PART-1-1",           312,       2.45416,       27.0970,            0.,NA,NA,"",       20.6745,       20.6704,  -412.434E-03,   4.80487E-03
C:/temp/dataset/7/17_6.odb,Step-1,Increment      1: Step Time =    1.000,"PART-1-1",           313,      -1.66705,       28.8640,            0.,NA,NA,"",       22.2003,       22.1545,       1.42563,   6.46639E-03
C:/temp/dataset/7/17_6.odb,Step-1,Increment      1: Step Time =    1.000,"PART-1-1",           314,   261.919E-03,       29.0779,            0.,NA,NA,"",       21.9906,       21.9865,   423.128E-03,   6.73029E-03
C:/temp/dataset/7/17_6.odb,Step-1,Increment      1: Step Time =    1.000,"PART-1-1",           315,    -937.5E-03,           30.,            0.,NA,NA,"",       22.6463,       22.6283,   902.857E-03,   7.62114E-03
C:/temp/dataset/7/17_6.odb,Step-1,Increment      1: Step Time =    1.000,"PART-1-1",           316,          -15.,         21.25,            0.,NA,NA,"",       22.2098,       20.1622,       9.31461,   341.456E-06
C:/temp/dataset/7/17_6.odb,Step-1,Increment      1: Step Time =    1.000,"PART-1-1",           317,      -13.3250,           20.,            0.,NA,NA,"",       21.1208,       19.2776,       8.62935,   485.754E-06
C:/temp/dataset/7/17_6.odb,Step-1,Increment      1: Step Time =    1.000,"PART-1-1",           318,      -11.7925,       21.2083,            0.,NA,NA,"",       21.1212,       19.6811,       7.66561,   592.002E-06
C:/temp/dataset/7/17_6.odb,Step-1,Increment      1: Step Time =    1.000,"PART-1-1",           319,       10.1137,       15.7319,            0.,NA,NA,"",       14.1886,       13.9285,      -2.70434,   8.12200E-03
C:/temp/dataset/7/17_6.odb,Step-1,Increment      1: Step Time =    1.000,"PART-1-1",           320,       9.02474,       16.2903,            0.,NA,NA,"",       14.5127,       14.3367,      -2.25336,   8.41380E-03
C:/temp/dataset/7/17_6.odb,Step-1,Increment      1: Step Time =    1.000,"PART-1-1",           321,       8.64023,       14.7706,            0.,NA,NA,"",       13.7680,       13.6388,      -1.88188,   9.36169E-03
C:/temp/dataset/7/17_6.odb,Step-1,Increment      1: Step Time =    1.000,"PART-1-1",           322,       9.72917,       14.2122,            0.,NA,NA,"",       13.4384,       13.2350,      -2.32952,   7.82702E-03
C:/temp/dataset/7/17_6.odb,Step-1,Increment      1: Step Time =    1.000,"PART-1-1",           323,       12.8210,       13.6438,            0.,NA,NA,"",       13.1396,       12.6011,      -3.72317,   14.8809E-03
C:/temp/dataset/7/17_6.odb,Step-1,Increment      1: Step Time =    1.000,"PART-1-1",           324,       13.9730,       12.4303,            0.,NA,NA,"",       12.5887,       11.8997,      -4.10759,   21.2476E-03
C:/temp/dataset/7/17_6.odb,Step-1,Increment      1: Step Time =    1.000,"PART-1-1",           325,           15.,         13.75,            0.,NA,NA,"",       13.2952,       12.4036,      -4.78666,   24.2546E-03
C:/temp/dataset/7/17_6.odb,Step-1,Increment      1: Step Time =    1.000,"PART-1-1",           326,       13.8481,       14.9635,            0.,NA,NA,"",       13.8302,       13.1123,      -4.39807,   17.1571E-03
C:/temp/dataset/7/17_6.odb,Step-1,Increment      1: Step Time =    1.000,"PART-1-1",           327,       10.1008,       2.87074,            0.,NA,NA,"",       8.10871,       8.01203,      -1.24840,   7.70770E-03
C:/temp/dataset/7/17_6.odb,Step-1,Increment      1: Step Time =    1.000,"PART-1-1",           328,       9.07373,       1.83179,            0.,NA,NA,"",       7.70233,       7.66684,  -738.556E-03,   12.0117E-03
C:/temp/dataset/7/17_6.odb,Step-1,Increment      1: Step Time =    1.000,"PART-1-1",           329,       10.0520,   569.032E-03,            0.,NA,NA,"",       7.13615,       7.06259,      -1.02202,   7.71296E-03
C:/temp/dataset/7/17_6.odb,Step-1,Increment      1: Step Time =    1.000,"PART-1-1",           330,       11.0790,       1.60798,            0.,NA,NA,"",       7.55843,       7.40257,      -1.52700,   11.9777E-03
C:/temp/dataset/7/17_6.odb,Step-1,Increment      1: Step Time =    1.000,"PART-1-1",           331,       9.98138,      -1.74337,            0.,NA,NA,"",       6.20441,       6.15168,  -807.199E-03,   7.79537E-03
C:/temp/dataset/7/17_6.odb,Step-1,Increment      1: Step Time =    1.000,"PART-1-1",           332,       8.90931,      -2.66004,            0.,NA,NA,"",       5.88987,       5.87968,  -346.409E-03,   14.8566E-03
C:/temp/dataset/7/17_6.odb,Step-1,Increment      1: Step Time =    1.000,"PART-1-1",           333,       9.84458,      -4.07679,            0.,NA,NA,"",       5.31554,       5.28268,  -590.175E-03,   8.25277E-03
C:/temp/dataset/7/17_6.odb,Step-1,Increment      1: Step Time =    1.000,"PART-1-1",           334,       10.9167,      -3.16013,            0.,NA,NA,"",       5.64666,       5.54972,      -1.04185,   11.7998E-03
C:/temp/dataset/7/17_6.odb,Step-1,Increment      1: Step Time =    1.000,"PART-1-1",           335,            5.,      -3.95833,            0.,NA,NA,"",       5.81666,       5.70917,       1.11302,   56.6384E-03
C:/temp/dataset/7/17_6.odb,Step-1,Increment      1: Step Time =    1.000,"PART-1-1",           336,       6.75254,      -4.23112,            0.,NA,NA,"",       5.47759,       5.45442,   503.268E-03,   37.9336E-03
C:/temp/dataset/7/17_6.odb,Step-1,Increment      1: Step Time =    1.000,"PART-1-1",           337,       5.92661,      -3.07918,            0.,NA,NA,"",       6.01192,       5.96414,   756.446E-03,   45.1380E-03
C:/temp/dataset/7/17_6.odb,Step-1,Increment      1: Step Time =    1.000,"PART-1-1",           338,       7.06139,      -12.0396,            0.,NA,NA,"",       2.88324,       2.82870,   558.190E-03,   43.0546E-03
C:/temp/dataset/7/17_6.odb,Step-1,Increment      1: Step Time =    1.000,"PART-1-1",           339,       5.99095,      -11.1126,            0.,NA,NA,"",       3.28005,       3.16789,   850.396E-03,   56.2734E-03
C:/temp/dataset/7/17_6.odb,Step-1,Increment      1: Step Time =    1.000,"PART-1-1",           340,            5.,      -12.2917,            0.,NA,NA,"",       3.08670,       2.88332,       1.10191,   71.5800E-03
C:/temp/dataset/7/17_6.odb,Step-1,Increment      1: Step Time =    1.000,"PART-1-1",           341,       6.07044,      -13.2187,            0.,NA,NA,"",       2.67710,       2.55254,   807.071E-03,   58.2061E-03
C:/temp/dataset/7/17_6.odb,Step-1,Increment      1: Step Time =    1.000,"PART-1-1",           342,       6.63644,      -8.02271,            0.,NA,NA,"",       4.16312,       4.11319,   642.828E-03,   43.8491E-03
C:/temp/dataset/7/17_6.odb,Step-1,Increment      1: Step Time =    1.000,"PART-1-1",           343,            5.,        -8.125,            0.,NA,NA,"",       4.35688,       4.20116,       1.15443,   64.1250E-03
C:/temp/dataset/7/17_6.odb,Step-1,Increment      1: Step Time =    1.000,"PART-1-1",           344,       5.87092,      -9.06592,            0.,NA,NA,"",       3.92311,       3.82131,   887.897E-03,   54.7769E-03
C:/temp/dataset/7/17_6.odb,Step-1,Increment      1: Step Time =    1.000,"PART-1-1",           345,       13.0826,      -13.6930,            0.,NA,NA,"",       2.36462,       2.17102,  -937.073E-03,   43.8812E-03
C:/temp/dataset/7/17_6.odb,Step-1,Increment      1: Step Time =    1.000,"PART-1-1",           346,       14.0569,      -14.9678,            0.,NA,NA,"",       2.15166,       1.85936,      -1.08279,   60.0914E-03
C:/temp/dataset/7/17_6.odb,Step-1,Increment      1: Step Time =    1.000,"PART-1-1",           347,           15.,        -13.75,            0.,NA,NA,"",       2.57776,       2.14369,      -1.43160,   72.6420E-03
C:/temp/dataset/7/17_6.odb,Step-1,Increment      1: Step Time =    1.000,"PART-1-1",           348,       14.0257,      -12.4752,            0.,NA,NA,"",       2.78249,       2.46833,      -1.28436,   56.2566E-03
C:/temp/dataset/7/17_6.odb,Step-1,Increment      1: Step Time =    1.000,"PART-1-1",           349,       8.13738,      -21.6888,            0.,NA,NA,"",   689.810E-03,   647.215E-03,   238.644E-03,   35.5778E-03
C:/temp/dataset/7/17_6.odb,Step-1,Increment      1: Step Time =    1.000,"PART-1-1",           350,            5.,      -28.9583,            0.,NA,NA,"",   118.542E-03,   76.5191E-03,   90.5372E-03,   99.7143E-03
C:/temp/dataset/7/17_6.odb,Step-1,Increment      1: Step Time =    1.000,"PART-1-1",           351,          6.25,          -30.,            0.,NA,NA,"",            0.,  -2.76707E-39,   111.572E-39,   70.8532E-03
C:/temp/dataset/7/17_6.odb,Step-1,Increment      1: Step Time =    1.000,"PART-1-1",           352,       6.22347,      -27.8804,            0.,NA,NA,"",   155.184E-03,   84.5938E-03,   130.100E-03,   75.7996E-03
C:/temp/dataset/7/17_6.odb,Step-1,Increment      1: Step Time =    1.000,"PART-1-1",           353,           15.,        -28.75,            0.,NA,NA,"",   128.993E-03,   76.2322E-03,  -104.057E-03,   94.6341E-03
C:/temp/dataset/7/17_6.odb,Step-1,Increment      1: Step Time =    1.000,"PART-1-1",           354,       13.6900,      -27.4695,            0.,NA,NA,"",   167.272E-03,   79.6028E-03,  -147.117E-03,   70.7807E-03
C:/temp/dataset/7/17_6.odb,Step-1,Increment      1: Step Time =    1.000,"PART-1-1",           355,       12.4400,      -28.7195,            0.,NA,NA,"",   42.3697E-03,   5.02591E-03,  -42.0706E-03,   40.6557E-03
C:/temp/dataset/7/17_6.odb,Step-1,Increment      1: Step Time =    1.000,"PART-1-1",           356,         13.75,          -30.,            0.,NA,NA,"",            0.,  -9.34195E-39,  -108.335E-39,   66.4761E-03
C:/temp/dataset/7/17_6.odb,Step-1,Increment      1: Step Time =    1.000,"PART-1-1",           357,       9.58617,      -22.6245,            0.,NA,NA,"",   488.220E-03,   486.050E-03,   45.9832E-03,   13.0387E-03
C:/temp/dataset/7/17_6.odb,Step-1,Increment      1: Step Time =    1.000,"PART-1-1",           358,       10.0221,      -21.0980,            0.,NA,NA,"",   699.520E-03,   699.292E-03,  -17.8297E-03,   8.57134E-03
C:/temp/dataset/7/17_6.odb,Step-1,Increment      1: Step Time =    1.000,"PART-1-1",           359,       8.57328,      -20.1623,            0.,NA,NA,"",   903.104E-03,   881.056E-03,   198.338E-03,   27.5040E-03
C:/temp/dataset/7/17_6.odb,Step-1,Increment      1: Step Time =    1.000,"PART-1-1",           360,       11.1406,      -27.5456,            0.,NA,NA,"",   52.5972E-03,   36.6045E-03,  -37.7700E-03,   21.3077E-03
C:/temp/dataset/7/17_6.odb,Step-1,Increment      1: Step Time =    1.000,"PART-1-1",           361,         11.25,          -30.,            0.,NA,NA,"",            0.,  -13.9445E-39,  -38.2223E-39,   21.3348E-03
C:/temp/dataset/7/17_6.odb,Step-1,Increment      1: Step Time =    1.000,"PART-1-1",           362,       11.2605,      -16.1933,            0.,NA,NA,"",       1.65061,       1.60962,  -365.535E-03,   18.9365E-03
C:/temp/dataset/7/17_6.odb,Step-1,Increment      1: Step Time =    1.000,"PART-1-1",           363,       10.2521,      -15.0492,            0.,NA,NA,"",       1.90586,       1.89716,  -181.879E-03,   7.86494E-03
C:/temp/dataset/7/17_6.odb,Step-1,Increment      1: Step Time =    1.000,"PART-1-1",           364,       9.32474,      -16.3084,            0.,NA,NA,"",       1.63064,       1.62984,   50.8641E-03,   14.9183E-03
C:/temp/dataset/7/17_6.odb,Step-1,Increment      1: Step Time =    1.000,"PART-1-1",           365,       10.3331,      -17.4526,            0.,NA,NA,"",       1.36270,       1.35621,  -132.788E-03,   8.19639E-03
C:/temp/dataset/7/17_6.odb,Step-1,Increment      1: Step Time =    1.000,"PART-1-1",           366,       7.44248,      -19.0256,            0.,NA,NA,"",       1.19293,       1.12313,   402.078E-03,   44.6162E-03
C:/temp/dataset/7/17_6.odb,Step-1,Increment      1: Step Time =    1.000,"PART-1-1",           367,       6.17612,      -17.5789,            0.,NA,NA,"",       1.61851,       1.47091,   675.279E-03,   62.7180E-03
C:/temp/dataset/7/17_6.odb,Step-1,Increment      1: Step Time =    1.000,"PART-1-1",           368,            5.,      -18.5417,            0.,NA,NA,"",       1.57890,       1.32755,   854.706E-03,   82.6729E-03
C:/temp/dataset/7/17_6.odb,Step-1,Increment      1: Step Time =    1.000,"PART-1-1",           369,       12.8407,      -6.03443,            0.,NA,NA,"",       4.66738,       4.42672,      -1.47937,   33.3112E-03
C:/temp/dataset/7/17_6.odb,Step-1,Increment      1: Step Time =    1.000,"PART-1-1",           370,           15.,         -6.25,            0.,NA,NA,"",       4.80649,       4.26960,      -2.20747,   59.6577E-03
C:/temp/dataset/7/17_6.odb,Step-1,Increment      1: Step Time =    1.000,"PART-1-1",           371,       13.9462,      -4.87251,            0.,NA,NA,"",       5.16546,       4.77096,      -1.97989,   44.9612E-03
C:/temp/dataset/7/17_6.odb,Step-1,Increment      1: Step Time =    1.000,"PART-1-1",           372,       7.64514,      -8.69832,            0.,NA,NA,"",       3.83766,       3.82200,   346.357E-03,   32.2846E-03
C:/temp/dataset/7/17_6.odb,Step-1,Increment      1: Step Time =    1.000,"PART-1-1",           373,       8.20020,      -7.75016,            0.,NA,NA,"",       4.10300,       4.10038,   146.480E-03,   24.8165E-03
C:/temp/dataset/7/17_6.odb,Step-1,Increment      1: Step Time =    1.000,"PART-1-1",           374,       7.19150,      -7.07454,            0.,NA,NA,"",       4.41982,       4.39723,   446.239E-03,   35.9943E-03
C:/temp/dataset/7/17_6.odb,Step-1,Increment      1: Step Time =    1.000,"PART-1-1",           375,       7.97278,      -1.35169,            0.,NA,NA,"",       6.46497,       6.46447,  -80.6460E-03,   22.5810E-03
C:/temp/dataset/7/17_6.odb,Step-1,Increment      1: Step Time =    1.000,"PART-1-1",           376,       9.01285,  -423.179E-03,            0.,NA,NA,"",       6.76932,       6.74786,  -538.536E-03,   13.1786E-03
C:/temp/dataset/7/17_6.odb,Step-1,Increment      1: Step Time =    1.000,"PART-1-1",           377,       8.04185,   850.611E-03,            0.,NA,NA,"",       7.35585,       7.35153,  -252.174E-03,   20.3495E-03
C:/temp/dataset/7/17_6.odb,Step-1,Increment      1: Step Time =    1.000,"PART-1-1",           378,       8.08837,       3.05311,            0.,NA,NA,"",       8.28877,       8.27724,  -437.072E-03,   18.4270E-03
C:/temp/dataset/7/17_6.odb,Step-1,Increment      1: Step Time =    1.000,"PART-1-1",           379,       9.11337,       4.08618,            0.,NA,NA,"",       8.67676,       8.62450,  -950.868E-03,   11.1266E-03
C:/temp/dataset/7/17_6.odb,Step-1,Increment      1: Step Time =    1.000,"PART-1-1",           380,       8.10868,       5.26217,            0.,NA,NA,"",       9.26328,       9.24169,  -632.152E-03,   16.7859E-03
C:/temp/dataset/7/17_6.odb,Step-1,Increment      1: Step Time =    1.000,"PART-1-1",           381,       7.08888,       6.39331,            0.,NA,NA,"",       9.86326,       9.85891,  -292.891E-03,   22.8897E-03
C:/temp/dataset/7/17_6.odb,Step-1,Increment      1: Step Time =    1.000,"PART-1-1",           382,            5.,       6.45833,            0.,NA,NA,"",       10.1461,       10.1277,   610.677E-03,   37.6788E-03
C:/temp/dataset/7/17_6.odb,Step-1,Increment      1: Step Time =    1.000,"PART-1-1",           383,           15.,         16.25,            0.,NA,NA,"",       14.5339,       13.5932,      -5.14394,   19.5519E-03
C:/temp/dataset/7/17_6.odb,Step-1,Increment      1: Step Time =    1.000,"PART-1-1",           384,       13.6214,       17.6671,            0.,NA,NA,"",       15.1829,       14.4483,      -4.66564,   12.9087E-03
C:/temp/dataset/7/17_6.odb,Step-1,Increment      1: Step Time =    1.000,"PART-1-1",           385,       12.4694,       16.3805,            0.,NA,NA,"",       14.5017,       13.9604,      -3.92484,   11.7322E-03
C:/temp/dataset/7/17_6.odb,Step-1,Increment      1: Step Time =    1.000,"PART-1-1",           386,       10.0881,       9.74649,            0.,NA,NA,"",       11.2447,       11.0720,      -1.96278,   7.70387E-03
C:/temp/dataset/7/17_6.odb,Step-1,Increment      1: Step Time =    1.000,"PART-1-1",           387,       9.10561,       8.57814,            0.,NA,NA,"",       10.7289,       10.6383,      -1.39147,   10.0263E-03
C:/temp/dataset/7/17_6.odb,Step-1,Increment      1: Step Time =    1.000,"PART-1-1",           388,       10.1162,       7.46436,            0.,NA,NA,"",       10.1693,       10.0227,      -1.72065,   7.70919E-03
C:/temp/dataset/7/17_6.odb,Step-1,Increment      1: Step Time =    1.000,"PART-1-1",           389,       11.0986,       8.63272,            0.,NA,NA,"",       10.6998,       10.4518,      -2.29029,   10.3921E-03
C:/temp/dataset/7/17_6.odb,Step-1,Increment      1: Step Time =    1.000,"PART-1-1",           390,       9.96644,       19.4124,            0.,NA,NA,"",       16.0726,       15.7675,      -3.11702,   8.47273E-03
C:/temp/dataset/7/17_6.odb,Step-1,Increment      1: Step Time =    1.000,"PART-1-1",           391,       10.9020,       20.3065,            0.,NA,NA,"",       16.5143,       16.0954,      -3.69599,   8.65651E-03
C:/temp/dataset/7/17_6.odb,Step-1,Increment      1: Step Time =    1.000,"PART-1-1",           392,       10.1153,       21.2880,            0.,NA,NA,"",       17.0402,       16.6887,      -3.44338,   8.33767E-03
C:/temp/dataset/7/17_6.odb,Step-1,Increment      1: Step Time =    1.000,"PART-1-1",           393,       9.17975,       20.3940,            0.,NA,NA,"",       16.6090,       16.3603,      -2.86353,   8.63807E-03
C:/temp/dataset/7/17_6.odb,Step-1,Increment      1: Step Time =    1.000,"PART-1-1",           394,           15.,         28.75,            0.,NA,NA,"",       20.9579,       19.7921,      -6.89262,   114.292E-06
C:/temp/dataset/7/17_6.odb,Step-1,Increment      1: Step Time =    1.000,"PART-1-1",           395,       14.0625,           30.,            0.,NA,NA,"",       21.5750,       20.5436,      -6.59122,   150.427E-06
C:/temp/dataset/7/17_6.odb,Step-1,Increment      1: Step Time =    1.000,"PART-1-1",           396,       13.1487,       28.7914,            0.,NA,NA,"",       20.9314,       20.0613,      -5.97205,   914.506E-06
C:/temp/dataset/7/17_6.odb,Step-1,Increment      1: Step Time =    1.000,"PART-1-1",           397,       14.0862,       27.5414,            0.,NA,NA,"",       20.3024,       19.3093,      -6.27211,   1.01675E-03
C:/temp/dataset/7/17_6.odb,Step-1,Increment      1: Step Time =    1.000,"PART-1-1",           398,       12.2440,       25.2848,            0.,NA,NA,"",       19.0998,       18.4216,      -5.04452,   4.76655E-03
C:/temp/dataset/7/17_6.odb,Step-1,Increment      1: Step Time =    1.000,"PART-1-1",           399,       13.1763,       26.3811,            0.,NA,NA,"",       19.6799,       18.8487,      -5.65933,   3.10089E-03
C:/temp/dataset/7/17_6.odb,Step-1,Increment      1: Step Time =    1.000,"PART-1-1",           400,       12.2376,       27.6217,            0.,NA,NA,"",       20.3166,       19.5968,      -5.35976,   2.66861E-03
C:/temp/dataset/7/17_6.odb,Step-1,Increment      1: Step Time =    1.000,"PART-1-1",           401,       11.3053,       26.5254,            0.,NA,NA,"",       19.7494,       19.1704,      -4.74709,   4.42651E-03
C:/temp/dataset/7/17_6.odb,Step-1,Increment      1: Step Time =    1.000,"PART-1-1",           402,       12.1875,           30.,            0.,NA,NA,"",       21.5497,       20.7948,      -5.65403,   771.438E-06
C:/temp/dataset/7/17_6.odb,Step-1,Increment      1: Step Time =    1.000,"PART-1-1",           403,        6.5625,           30.,            0.,NA,NA,"",       21.7489,       21.5608,      -2.85471,   6.11120E-03
C:/temp/dataset/7/17_6.odb,Step-1,Increment      1: Step Time =    1.000,"PART-1-1",           404,       5.40000,       28.6589,            0.,NA,NA,"",       21.1519,       21.0476,      -2.09736,   5.84603E-03
C:/temp/dataset/7/17_6.odb,Step-1,Increment      1: Step Time =    1.000,"PART-1-1",           405,       6.32063,       27.5176,            0.,NA,NA,"",       20.4860,       20.3445,      -2.40388,   5.05950E-03
C:/temp/dataset/7/17_6.odb,Step-1,Increment      1: Step Time =    1.000,"PART-1-1",           406,        2.8125,           30.,            0.,NA,NA,"",       22.1116,       22.0898,  -982.411E-03,   7.69604E-03
C:/temp/dataset/7/17_6.odb,Step-1,Increment      1: Step Time =    1.000,"PART-1-1",           407,       1.86631,       29.3706,            0.,NA,NA,"",       21.9099,       21.9058,  -423.443E-03,   7.04962E-03
C:/temp/dataset/7/17_6.odb,Step-1,Increment      1: Step Time =    1.000,"PART-1-1",           408,       2.52123,       28.3750,            0.,NA,NA,"",       21.3173,       21.3083,  -618.432E-03,   5.94434E-03
C:/temp/dataset/7/17_6.odb,Step-1,Increment      1: Step Time =    1.000,"PART-1-1",           409,       3.46742,       29.0044,            0.,NA,NA,"",       21.5254,       21.4931,      -1.17739,   6.54703E-03
C:/temp/dataset/7/17_6.odb,Step-1,Increment      1: Step Time =    1.000,"PART-1-1",           410,       1.19073,       28.4486,            0.,NA,NA,"",       21.5343,       21.5343,   40.5064E-03,   6.06372E-03
C:/temp/dataset/7/17_6.odb,Step-1,Increment      1: Step Time =    1.000,"PART-1-1",           411,      -2.48443,       27.9761,            0.,NA,NA,"",       21.9070,       21.8191,       1.96052,   5.61648E-03
C:/temp/dataset/7/17_6.odb,Step-1,Increment      1: Step Time =    1.000,"PART-1-1",           412,       -2.8125,           30.,            0.,NA,NA,"",       22.9744,       22.8998,       1.84985,   7.52812E-03
C:/temp/dataset/7/17_6.odb,Step-1,Increment      1: Step Time =    1.000,"PART-1-1",           413,      -7.28733,       29.0238,            0.,NA,NA,"",       23.4411,       23.0516,       4.25526,   6.58237E-03
C:/temp/dataset/7/17_6.odb,Step-1,Increment      1: Step Time =    1.000,"PART-1-1",           414,      -6.19423,       28.1363,            0.,NA,NA,"",       22.7599,       22.4367,       3.82176,   5.78363E-03
C:/temp/dataset/7/17_6.odb,Step-1,Increment      1: Step Time =    1.000,"PART-1-1",           415,       -6.5625,           30.,            0.,NA,NA,"",       23.7451,       23.4469,       3.75140,   7.46224E-03
C:/temp/dataset/7/17_6.odb,Step-1,Increment      1: Step Time =    1.000,"PART-1-1",           416,      -11.8079,       27.5253,            0.,NA,NA,"",       23.9227,       22.9432,       6.77507,   5.83264E-03
C:/temp/dataset/7/17_6.odb,Step-1,Increment      1: Step Time =    1.000,"PART-1-1",           417,      -12.6125,       26.1842,            0.,NA,NA,"",       23.5533,       22.3681,       7.37725,   4.89261E-03
C:/temp/dataset/7/17_6.odb,Step-1,Increment      1: Step Time =    1.000,"PART-1-1",           418,      -8.13992,       23.4434,            0.,NA,NA,"",       21.0330,       20.3090,       5.47089,   1.55148E-03
C:/temp/dataset/7/17_6.odb,Step-1,Increment      1: Step Time =    1.000,"PART-1-1",           419,       -8.4375,           30.,            0.,NA,NA,"",       24.1849,       23.7226,       4.70583,   7.44074E-03
C:/temp/dataset/7/17_6.odb,Step-1,Increment      1: Step Time =    1.000,"PART-1-1",           420,      -8.00049,       27.9480,            0.,NA,NA,"",       23.1004,       22.6029,       4.76830,   5.63977E-03
C:/temp/dataset/7/17_6.odb,Step-1,Increment      1: Step Time =    1.000,"PART-1-1",           421,      -12.1875,           30.,            0.,NA,NA,"",       25.1649,       24.2779,       6.62225,   6.86326E-03
C:/temp/dataset/7/17_6.odb,Step-1,Increment      1: Step Time =    1.000,"PART-1-1",           422,          -15.,         26.25,            0.,NA,NA,"",       24.3256,       22.7562,       8.59597,   5.15835E-03
C:/temp/dataset/7/17_6.odb,Step-1,Increment      1: Step Time =    1.000,"PART-1-1",           423,  -614.199E-03,       25.3895,            0.,NA,NA,"",       20.2821,       20.2359,       1.36824,   3.17564E-03
C:/temp/dataset/7/17_6.odb,Step-1,Increment      1: Step Time =    1.000,"PART-1-1",           424,      -1.97220,       26.8586,            0.,NA,NA,"",       21.2571,       21.1761,       1.85432,   4.55452E-03
C:/temp/dataset/7/17_6.odb,Step-1,Increment      1: Step Time =    1.000,"PART-1-1",           425,      -1.74113,       25.3247,            0.,NA,NA,"",       20.4549,       20.3619,       1.94811,   3.12905E-03
C:/temp/dataset/7/17_6.odb,Step-1,Increment      1: Step Time =    1.000,"PART-1-1",           426,       8.18659,       21.6045,            0.,NA,NA,"",       17.2877,       17.1005,      -2.53740,   8.37674E-03
C:/temp/dataset/7/17_6.odb,Step-1,Increment      1: Step Time =    1.000,"PART-1-1",           427,       9.25192,       22.4602,            0.,NA,NA,"",       17.6800,       17.3922,      -3.17736,   8.17910E-03
C:/temp/dataset/7/17_6.odb,Step-1,Increment      1: Step Time =    1.000,"PART-1-1",           428,       8.38526,       23.6138,            0.,NA,NA,"",       18.3222,       18.0905,      -2.90508,   7.19903E-03
C:/temp/dataset/7/17_6.odb,Step-1,Increment      1: Step Time =    1.000,"PART-1-1",           429,       7.31993,       22.7581,            0.,NA,NA,"",       17.9437,       17.8004,      -2.26327,   7.66941E-03
C:/temp/dataset/7/17_6.odb,Step-1,Increment      1: Step Time =    1.000,"PART-1-1",           430,           15.,         26.25,            0.,NA,NA,"",       19.6636,       18.5389,      -6.55475,   1.60255E-03
C:/temp/dataset/7/17_6.odb,Step-1,Increment      1: Step Time =    1.000,"PART-1-1",           431,        4.6875,           30.,            0.,NA,NA,"",       21.9080,       21.8237,      -1.92010,   7.20646E-03
C:/temp/dataset/7/17_6.odb,Step-1,Increment      1: Step Time =    1.000,"PART-1-1",           432,       9.38339,       24.5308,            0.,NA,NA,"",       18.7546,       18.4208,      -3.52287,   6.83283E-03
C:/temp/dataset/7/17_6.odb,Step-1,Increment      1: Step Time =    1.000,"PART-1-1",           433,       8.53172,       25.6694,            0.,NA,NA,"",       19.3853,       19.1101,      -3.25480,   5.89508E-03
C:/temp/dataset/7/17_6.odb,Step-1,Increment      1: Step Time =    1.000,"PART-1-1",           434,       7.53359,       24.7524,            0.,NA,NA,"",       18.9655,       18.7814,      -2.63617,   6.39194E-03
C:/temp/dataset/7/17_6.odb,Step-1,Increment      1: Step Time =    1.000,"PART-1-1",           435,     937.5E-03,           30.,            0.,NA,NA,"",       22.3582,       22.3582,  -41.3531E-03,   7.72881E-03
C:/temp/dataset/7/17_6.odb,Step-1,Increment      1: Step Time =    1.000,"PART-1-1",           436,       5.64845,       26.5466,            0.,NA,NA,"",       20.0407,       19.9467,      -1.93859,   5.19241E-03
C:/temp/dataset/7/17_6.odb,Step-1,Increment      1: Step Time =    1.000,"PART-1-1",           437,       4.65082,       24.6490,            0.,NA,NA,"",       19.1612,       19.1245,      -1.18518,   4.61335E-03
C:/temp/dataset/7/17_6.odb,Step-1,Increment      1: Step Time =    1.000,"PART-1-1",           438,       5.82711,       24.9927,            0.,NA,NA,"",       19.2223,       19.1361,      -1.81937,   5.22003E-03
C:/temp/dataset/7/17_6.odb,Step-1,Increment      1: Step Time =    1.000,"PART-1-1",           439,      -3.57200,       27.5772,            0.,NA,NA,"",       21.9225,       21.7717,       2.56656,   5.23689E-03
C:/temp/dataset/7/17_6.odb,Step-1,Increment      1: Step Time =    1.000,"PART-1-1",           440,      -3.05977,       26.4597,            0.,NA,NA,"",       21.2705,       21.1277,       2.46059,   4.19908E-03
C:/temp/dataset/7/17_6.odb,Step-1,Increment      1: Step Time =    1.000,"PART-1-1",           441,      -4.23358,       26.7178,            0.,NA,NA,"",       21.6394,       21.4275,       3.02100,   4.46383E-03
C:/temp/dataset/7/17_6.odb,Step-1,Increment      1: Step Time =    1.000,"PART-1-1",           442,      -5.07335,       27.3652,            0.,NA,NA,"",       22.1357,       21.8794,       3.35834,   5.07324E-03
C:/temp/dataset/7/17_6.odb,Step-1,Increment      1: Step Time =    1.000,"PART-1-1",           443,      -5.65848,       26.3267,            0.,NA,NA,"",       21.7662,       21.4319,       3.80006,   4.13686E-03
C:/temp/dataset/7/17_6.odb,Step-1,Increment      1: Step Time =    1.000,"PART-1-1",           444,      -6.77936,       27.0978,            0.,NA,NA,"",       22.3985,       21.9889,       4.26392,   4.85066E-03
C:/temp/dataset/7/17_6.odb,Step-1,Increment      1: Step Time =    1.000,"PART-1-1",           445,       13.0726,       6.26892,            0.,NA,NA,"",       9.64628,       9.20396,      -2.88754,   23.4121E-03
C:/temp/dataset/7/17_6.odb,Step-1,Increment      1: Step Time =    1.000,"PART-1-1",           446,       14.0382,       5.02867,            0.,NA,NA,"",       9.14759,       8.58492,      -3.15872,   32.1183E-03
C:/temp/dataset/7/17_6.odb,Step-1,Increment      1: Step Time =    1.000,"PART-1-1",           447,           15.,          6.25,            0.,NA,NA,"",       9.76909,       9.02231,      -3.74606,   37.6475E-03
C:/temp/dataset/7/17_6.odb,Step-1,Increment      1: Step Time =    1.000,"PART-1-1",           448,       14.0344,       7.49025,            0.,NA,NA,"",       10.2555,       9.64941,      -3.47331,   28.5983E-03
C:/temp/dataset/7/17_6.odb,Step-1,Increment      1: Step Time =    1.000,"PART-1-1",           449,            5.,       12.7083,            0.,NA,NA,"",       13.0930,       13.0928,   65.3104E-03,   26.3125E-03
C:/temp/dataset/7/17_6.odb,Step-1,Increment      1: Step Time =    1.000,"PART-1-1",           450,       6.97129,       12.7632,            0.,NA,NA,"",       12.8974,       12.8684,  -864.530E-03,   16.7351E-03
C:/temp/dataset/7/17_6.odb,Step-1,Increment      1: Step Time =    1.000,"PART-1-1",           451,       8.08110,       9.66220,            0.,NA,NA,"",       11.3052,       11.2568,      -1.04510,   14.0632E-03
C:/temp/dataset/7/17_6.odb,Step-1,Increment      1: Step Time =    1.000,"PART-1-1",           452,       8.10192,       7.46894,            0.,NA,NA,"",       10.2721,       10.2381,  -834.028E-03,   15.3738E-03
C:/temp/dataset/7/17_6.odb,Step-1,Increment      1: Step Time =    1.000,"PART-1-1",           453,            5.,        -1.875,            0.,NA,NA,"",       6.61063,       6.52555,       1.05718,   52.8648E-03
C:/temp/dataset/7/17_6.odb,Step-1,Increment      1: Step Time =    1.000,"PART-1-1",           454,       6.91011,      -2.19684,            0.,NA,NA,"",       6.23239,       6.22193,   360.961E-03,   33.9086E-03
C:/temp/dataset/7/17_6.odb,Step-1,Increment      1: Step Time =    1.000,"PART-1-1",           455,       11.0205,  -751.161E-03,            0.,NA,NA,"",       6.58753,       6.46111,      -1.28435,   12.1153E-03
C:/temp/dataset/7/17_6.odb,Step-1,Increment      1: Step Time =    1.000,"PART-1-1",           456,       13.1408,      -16.1676,            0.,NA,NA,"",       1.77538,       1.59506,  -779.587E-03,   47.1996E-03
C:/temp/dataset/7/17_6.odb,Step-1,Increment      1: Step Time =    1.000,"PART-1-1",           457,       14.0839,      -17.4497,            0.,NA,NA,"",       1.60285,       1.33235,  -891.055E-03,   63.8631E-03
C:/temp/dataset/7/17_6.odb,Step-1,Increment      1: Step Time =    1.000,"PART-1-1",           458,           15.,        -16.25,            0.,NA,NA,"",       1.98372,       1.58305,      -1.19545,   76.8890E-03
C:/temp/dataset/7/17_6.odb,Step-1,Increment      1: Step Time =    1.000,"PART-1-1",           459,            5.,       -14.375,            0.,NA,NA,"",       2.52912,       2.30485,       1.04120,   75.3019E-03
C:/temp/dataset/7/17_6.odb,Step-1,Increment      1: Step Time =    1.000,"PART-1-1",           460,       6.11916,      -15.3567,            0.,NA,NA,"",       2.12685,       1.98924,   752.585E-03,   60.5176E-03
C:/temp/dataset/7/17_6.odb,Step-1,Increment      1: Step Time =    1.000,"PART-1-1",           461,       13.0403,       1.40949,            0.,NA,NA,"",       7.53047,       7.16936,      -2.30397,   28.1380E-03
C:/temp/dataset/7/17_6.odb,Step-1,Increment      1: Step Time =    1.000,"PART-1-1",           462,       14.0142,   96.5788E-03,            0.,NA,NA,"",       7.06024,       6.58325,      -2.55102,   38.8495E-03
C:/temp/dataset/7/17_6.odb,Step-1,Increment      1: Step Time =    1.000,"PART-1-1",           463,           15.,          1.25,            0.,NA,NA,"",       7.62357,       6.96678,      -3.09560,   46.4940E-03
C:/temp/dataset/7/17_6.odb,Step-1,Increment      1: Step Time =    1.000,"PART-1-1",           464,       14.0261,       2.56291,            0.,NA,NA,"",       8.08006,       7.56139,      -2.84830,   35.5003E-03
C:/temp/dataset/7/17_6.odb,Step-1,Increment      1: Step Time =    1.000,"PART-1-1",           465,            5.,      -10.2083,            0.,NA,NA,"",       3.69675,       3.51665,       1.13980,   67.8521E-03
C:/temp/dataset/7/17_6.odb,Step-1,Increment      1: Step Time =    1.000,"PART-1-1",           466,       6.86187,      -9.97015,            0.,NA,NA,"",       3.51611,       3.46438,   600.960E-03,   43.3208E-03
C:/temp/dataset/7/17_6.odb,Step-1,Increment      1: Step Time =    1.000,"PART-1-1",           467,            5.,      -24.7917,            0.,NA,NA,"",   567.990E-03,   366.268E-03,   434.121E-03,   91.7641E-03
C:/temp/dataset/7/17_6.odb,Step-1,Increment      1: Step Time =    1.000,"PART-1-1",           468,       6.13477,      -25.7685,            0.,NA,NA,"",   358.481E-03,   232.104E-03,   273.197E-03,   73.9007E-03
C:/temp/dataset/7/17_6.odb,Step-1,Increment      1: Step Time =    1.000,"PART-1-1",           469,       13.1299,      -20.9468,            0.,NA,NA,"",   863.530E-03,   717.575E-03,  -480.386E-03,   51.6321E-03
C:/temp/dataset/7/17_6.odb,Step-1,Increment      1: Step Time =    1.000,"PART-1-1",           470,       14.0295,      -22.3095,            0.,NA,NA,"",   754.239E-03,   544.066E-03,  -522.369E-03,   69.5650E-03
C:/temp/dataset/7/17_6.odb,Step-1,Increment      1: Step Time =    1.000,"PART-1-1",           471,           15.,        -21.25,            0.,NA,NA,"",       1.03148,   710.333E-03,  -747.913E-03,   85.3277E-03
C:/temp/dataset/7/17_6.odb,Step-1,Increment      1: Step Time =    1.000,"PART-1-1",           472,       14.1003,      -19.8873,            0.,NA,NA,"",       1.14252,   895.986E-03,  -708.920E-03,   67.3866E-03
C:/temp/dataset/7/17_6.odb,Step-1,Increment      1: Step Time =    1.000,"PART-1-1",           473,            5.,       -26.875,            0.,NA,NA,"",   331.366E-03,   193.004E-03,   269.356E-03,   94.6356E-03
C:/temp/dataset/7/17_6.odb,Step-1,Increment      1: Step Time =    1.000,"PART-1-1",           474,       7.35824,      -26.7740,            0.,NA,NA,"",   183.177E-03,   118.462E-03,   139.716E-03,   53.5396E-03
C:/temp/dataset/7/17_6.odb,Step-1,Increment      1: Step Time =    1.000,"PART-1-1",           475,       11.2665,      -23.4125,            0.,NA,NA,"",   400.623E-03,   377.242E-03,  -134.861E-03,   21.6516E-03
C:/temp/dataset/7/17_6.odb,Step-1,Increment      1: Step Time =    1.000,"PART-1-1",           476,       10.8283,      -24.9299,            0.,NA,NA,"",   227.168E-03,   218.243E-03,  -63.0474E-03,   14.6206E-03
C:/temp/dataset/7/17_6.odb,Step-1,Increment      1: Step Time =    1.000,"PART-1-1",           477,            5.,      -16.4583,            0.,NA,NA,"",       2.02604,       1.78499,   958.454E-03,   78.9968E-03
C:/temp/dataset/7/17_6.odb,Step-1,Increment      1: Step Time =    1.000,"PART-1-1",           478,       7.29529,      -16.4772,            0.,NA,NA,"",       1.73235,       1.66562,   476.175E-03,   44.3673E-03
C:/temp/dataset/7/17_6.odb,Step-1,Increment      1: Step Time =    1.000,"PART-1-1",           479,            5.,       18.9583,            0.,NA,NA,"",       16.2061,       16.1941,  -621.443E-03,   17.6634E-03
C:/temp/dataset/7/17_6.odb,Step-1,Increment      1: Step Time =    1.000,"PART-1-1",           480,       6.05050,       17.7875,            0.,NA,NA,"",       15.4956,       15.4634,  -998.173E-03,   13.9677E-03
C:/temp/dataset/7/17_6.odb,Step-1,Increment      1: Step Time =    1.000,"PART-1-1",           481,       7.11573,       18.6629,            0.,NA,NA,"",       15.8436,       15.7599,      -1.62663,   9.21007E-03
C:/temp/dataset/7/17_6.odb,Step-1,Increment      1: Step Time =    1.000,"PART-1-1",           482,       6.06524,       19.8338,            0.,NA,NA,"",       16.5357,       16.4878,      -1.25743,   9.45546E-03
C:/temp/dataset/7/17_6.odb,Step-1,Increment      1: Step Time =    1.000,"PART-1-1",           483,       6.98524,       16.7251,            0.,NA,NA,"",       14.8701,       14.8109,      -1.32515,   12.2219E-03
C:/temp/dataset/7/17_6.odb,Step-1,Increment      1: Step Time =    1.000,"PART-1-1",           484,            5.,        16.875,            0.,NA,NA,"",       15.1544,       15.1496,  -381.064E-03,   19.3024E-03
C:/temp/dataset/7/17_6.odb,Step-1,Increment      1: Step Time =    1.000,"PART-1-1",           485,       7.88091,       13.8682,            0.,NA,NA,"",       13.3675,       13.2923,      -1.41570,   12.0718E-03
C:/temp/dataset/7/17_6.odb,Step-1,Increment      1: Step Time =    1.000,"PART-1-1",           486,       7.65947,       15.6945,            0.,NA,NA,"",       14.2962,       14.2146,      -1.52569,   11.2350E-03
C:/temp/dataset/7/17_6.odb,Step-1,Increment      1: Step Time =    1.000,"PART-1-1",           487,       8.92157,       12.9075,            0.,NA,NA,"",       12.8270,       12.7011,      -1.79212,   9.46976E-03
C:/temp/dataset/7/17_6.odb,Step-1,Increment      1: Step Time =    1.000,"PART-1-1",           488,       9.98918,       11.9956,            0.,NA,NA,"",       12.3347,       12.1403,      -2.18120,   7.71345E-03
C:/temp/dataset/7/17_6.odb,Step-1,Increment      1: Step Time =    1.000,"PART-1-1",           489,       10.7968,       13.3004,            0.,NA,NA,"",       12.9583,       12.6697,      -2.71946,   8.80160E-03
C:/temp/dataset/7/17_6.odb,Step-1,Increment      1: Step Time =    1.000,"PART-1-1",           490,       13.0565,       8.69239,            0.,NA,NA,"",       10.7616,       10.2798,      -3.18374,   20.8083E-03
C:/temp/dataset/7/17_6.odb,Step-1,Increment      1: Step Time =    1.000,"PART-1-1",           491,           15.,          8.75,            0.,NA,NA,"",       10.9081,       10.1140,      -4.08579,   33.2128E-03
C:/temp/dataset/7/17_6.odb,Step-1,Increment      1: Step Time =    1.000,"PART-1-1",           492,       14.0220,       9.95215,            0.,NA,NA,"",       11.4019,       10.7521,      -3.79394,   25.0247E-03
C:/temp/dataset/7/17_6.odb,Step-1,Increment      1: Step Time =    1.000,"PART-1-1",           493,       8.15713,      -6.43409,            0.,NA,NA,"",       4.55426,       4.55290,   111.087E-03,   24.5430E-03
C:/temp/dataset/7/17_6.odb,Step-1,Increment      1: Step Time =    1.000,"PART-1-1",           494,       7.55707,      -5.50995,            0.,NA,NA,"",       4.93005,       4.92241,   274.495E-03,   30.3700E-03
C:/temp/dataset/7/17_6.odb,Step-1,Increment      1: Step Time =    1.000,"PART-1-1",           495,       13.0039,      -1.03047,            0.,NA,NA,"",       6.53778,       6.21604,      -2.02569,   30.2557E-03
C:/temp/dataset/7/17_6.odb,Step-1,Increment      1: Step Time =    1.000,"PART-1-1",           496,       13.9897,      -2.37705,            0.,NA,NA,"",       6.08903,       5.65317,      -2.26229,   42.0380E-03
C:/temp/dataset/7/17_6.odb,Step-1,Increment      1: Step Time =    1.000,"PART-1-1",           497,           15.,         -1.25,            0.,NA,NA,"",       6.62645,       6.01178,      -2.78717,   50.8949E-03
C:/temp/dataset/7/17_6.odb,Step-1,Increment      1: Step Time =    1.000,"PART-1-1",           498,       11.0188,      -11.3444,            0.,NA,NA,"",       2.89692,       2.84763,  -532.136E-03,   14.6010E-03
C:/temp/dataset/7/17_6.odb,Step-1,Increment      1: Step Time =    1.000,"PART-1-1",           499,       9.94563,      -10.3262,            0.,NA,NA,"",       3.20026,       3.18817,  -277.928E-03,   8.02935E-03
C:/temp/dataset/7/17_6.odb,Step-1,Increment      1: Step Time =    1.000,"PART-1-1",           500,       9.07908,      -11.6768,            0.,NA,NA,"",       2.83061,       2.83058,   12.5622E-03,   16.4510E-03
C:/temp/dataset/7/17_6.odb,Step-1,Increment      1: Step Time =    1.000,"PART-1-1",           501,       10.1523,      -12.6950,            0.,NA,NA,"",       2.51423,       2.50293,  -238.086E-03,   7.67607E-03
C:/temp/dataset/7/17_6.odb,Step-1,Increment      1: Step Time =    1.000,"PART-1-1",           502,       11.2699,       24.2837,            0.,NA,NA,"",       18.5805,       18.0463,      -4.42338,   6.42304E-03
C:/temp/dataset/7/17_6.odb,Step-1,Increment      1: Step Time =    1.000,"PART-1-1",           503,       12.1787,       22.9892,            0.,NA,NA,"",       17.9027,       17.2760,      -4.69558,   6.78007E-03
C:/temp/dataset/7/17_6.odb,Step-1,Increment      1: Step Time =    1.000,"PART-1-1",           504,           15.,         -3.75,            0.,NA,NA,"",       5.68590,       5.11121,      -2.49100,   55.2838E-03
C:/temp/dataset/7/17_6.odb,Step-1,Increment      1: Step Time =    1.000,"PART-1-1",           505,       12.9359,      -3.49956,            0.,NA,NA,"",       5.58542,       5.30413,      -1.75018,   31.9786E-03
C:/temp/dataset/7/17_6.odb,Step-1,Increment      1: Step Time =    1.000,"PART-1-1",           506,           15.,        -11.25,            0.,NA,NA,"",       3.24845,       2.78132,      -1.67830,   68.3617E-03
C:/temp/dataset/7/17_6.odb,Step-1,Increment      1: Step Time =    1.000,"PART-1-1",           507,       12.9838,      -11.1958,            0.,NA,NA,"",       3.03635,       2.83174,      -1.09575,   40.0635E-03
C:/temp/dataset/7/17_6.odb,Step-1,Increment      1: Step Time =    1.000,"PART-1-1",           508,           15.,         11.25,            0.,NA,NA,"",       12.0850,       11.2425,      -4.43323,   28.7615E-03
C:/temp/dataset/7/17_6.odb,Step-1,Increment      1: Step Time =    1.000,"PART-1-1",           509,       12.9950,       11.1325,            0.,NA,NA,"",       11.9186,       11.4018,      -3.47142,   18.0050E-03
C:/temp/dataset/7/17_6.odb,Step-1,Increment      1: Step Time =    1.000,"PART-1-1",           510,           15.,          3.75,            0.,NA,NA,"",       8.67268,       7.97177,      -3.41557,   42.0760E-03
C:/temp/dataset/7/17_6.odb,Step-1,Increment      1: Step Time =    1.000,"PART-1-1",           511,       13.0643,       3.84158,            0.,NA,NA,"",       8.56780,       8.16622,      -2.59229,   25.8527E-03
C:/temp/dataset/7/17_6.odb,Step-1,Increment      1: Step Time =    1.000,"PART-1-1",           512,           15.,        -18.75,            0.,NA,NA,"",       1.46833,       1.10385,  -968.255E-03,   81.0783E-03
C:/temp/dataset/7/17_6.odb,Step-1,Increment      1: Step Time =    1.000,"PART-1-1",           513,       13.1842,      -18.5870,            0.,NA,NA,"",       1.27827,       1.11117,  -631.889E-03,   50.3189E-03
C:/temp/dataset/7/17_6.odb,Step-1,Increment      1: Step Time =    1.000,"PART-1-1",           514,       13.5513,      -24.7801,            0.,NA,NA,"",   404.141E-03,   264.735E-03,  -305.361E-03,   63.5523E-03
C:/temp/dataset/7/17_6.odb,Step-1,Increment      1: Step Time =    1.000,"PART-1-1",           515,       12.2413,      -25.9996,            0.,NA,NA,"",   197.465E-03,   139.684E-03,  -139.574E-03,   40.2109E-03
C:/temp/dataset/7/17_6.odb,Step-1,Increment      1: Step Time =    1.000,"PART-1-1",           516,           15.,        -26.25,            0.,NA,NA,"",   377.137E-03,   199.077E-03,  -320.313E-03,   92.9704E-03
C:/temp/dataset/7/17_6.odb,Step-1,Increment      1: Step Time =    1.000,"PART-1-1",           517,           15.,        -23.75,            0.,NA,NA,"",   670.108E-03,   407.390E-03,  -532.050E-03,   88.7516E-03
C:/temp/dataset/7/17_6.odb,Step-1,Increment      1: Step Time =    1.000,"PART-1-1",           518,       12.5809,      -23.3397,            0.,NA,NA,"",   485.290E-03,   394.591E-03,  -282.497E-03,   44.4091E-03
C:/temp/dataset/7/17_6.odb,Step-1,Increment      1: Step Time =    1.000,"PART-1-1",           519,       9.49127,      -18.7202,            0.,NA,NA,"",       1.12205,       1.12112,   45.7074E-03,   13.3882E-03
C:/temp/dataset/7/17_6.odb,Step-1,Increment      1: Step Time =    1.000,"PART-1-1",           520,       8.36047,      -17.5836,            0.,NA,NA,"",       1.40449,       1.38161,   252.497E-03,   29.1587E-03
C:/temp/dataset/7/17_6.odb,Step-1,Increment      1: Step Time =    1.000,"PART-1-1",           521,       11.5260,      -20.5498,            0.,NA,NA,"",   813.021E-03,   772.705E-03,  -252.846E-03,   24.4349E-03
C:/temp/dataset/7/17_6.odb,Step-1,Increment      1: Step Time =    1.000,"PART-1-1",           522,       10.5221,      -19.7870,            0.,NA,NA,"",   915.153E-03,   907.977E-03,  -114.374E-03,   9.70845E-03
C:/temp/dataset/7/17_6.odb,Step-1,Increment      1: Step Time =    1.000,"PART-1-1",           523,       11.0260,      -21.8608,            0.,NA,NA,"",   595.176E-03,   577.727E-03,  -143.058E-03,   16.6540E-03
C:/temp/dataset/7/17_6.odb,Step-1,Increment      1: Step Time =    1.000,"PART-1-1",           524,       7.98010,      -10.7619,            0.,NA,NA,"",       3.16836,       3.15473,   293.525E-03,   29.7347E-03
C:/temp/dataset/7/17_6.odb,Step-1,Increment      1: Step Time =    1.000,"PART-1-1",           525,       8.65118,      -4.78401,            0.,NA,NA,"",       5.10811,       5.10642,  -131.638E-03,   18.3070E-03
C:/temp/dataset/7/17_6.odb,Step-1,Increment      1: Step Time =    1.000,"PART-1-1",           526,       7.84665,      -3.50518,            0.,NA,NA,"",       5.64093,       5.64028,   85.1564E-03,   25.4751E-03
C:/temp/dataset/7/17_6.odb,Step-1,Increment      1: Step Time =    1.000,"PART-1-1",           527,       9.43586,      -6.49799,            0.,NA,NA,"",       4.45952,       4.44903,  -305.782E-03,   11.0461E-03
C:/temp/dataset/7/17_6.odb,Step-1,Increment      1: Step Time =    1.000,"PART-1-1",           528,       10.6293,      -5.79077,            0.,NA,NA,"",       4.68291,       4.62306,  -746.273E-03,   9.96480E-03
C:/temp/dataset/7/17_6.odb,Step-1,Increment      1: Step Time =    1.000,"PART-1-1",           529,       11.1144,       3.95682,            0.,NA,NA,"",       8.56971,       8.38316,      -1.77838,   11.6130E-03
C:/temp/dataset/7/17_6.odb,Step-1,Increment      1: Step Time =    1.000,"PART-1-1",           530,       10.1270,       5.17226,            0.,NA,NA,"",       9.12234,       9.00074,      -1.48451,   7.71475E-03
C:/temp/dataset/7/17_6.odb,Step-1,Increment      1: Step Time =    1.000,"PART-1-1",           531,       9.05317,       10.7826,            0.,NA,NA,"",       11.7831,       11.6728,      -1.60867,   9.67674E-03
C:/temp/dataset/7/17_6.odb,Step-1,Increment      1: Step Time =    1.000,"PART-1-1",           532,       8.01195,       11.8024,            0.,NA,NA,"",       12.3419,       12.2791,      -1.24313,   12.9914E-03
C:/temp/dataset/7/17_6.odb,Step-1,Increment      1: Step Time =    1.000,"PART-1-1",           533,       11.0241,       10.9595,            0.,NA,NA,"",       11.8104,       11.5352,      -2.53474,   9.65220E-03
C:/temp/dataset/7/17_6.odb,Step-1,Increment      1: Step Time =    1.000,"PART-1-1",           534,       8.35051,       17.3209,            0.,NA,NA,"",       15.0724,       14.9312,      -2.05840,   8.48510E-03
C:/temp/dataset/7/17_6.odb,Step-1,Increment      1: Step Time =    1.000,"PART-1-1",           535,       12.5952,       19.1415,            0.,NA,NA,"",       15.9125,       15.3015,      -4.36694,   9.82171E-03
C:/temp/dataset/7/17_6.odb,Step-1,Increment      1: Step Time =    1.000,"PART-1-1",           536,           15.,         18.75,            0.,NA,NA,"",       15.7962,       14.8068,      -5.50246,   14.5560E-03
C:/temp/dataset/7/17_6.odb,Step-1,Increment      1: Step Time =    1.000,"PART-1-1",           537,      -7.03326,       22.4462,            0.,NA,NA,"",       20.2779,       19.6403,       5.04485,   700.572E-06
C:/temp/dataset/7/17_6.odb,Step-1,Increment      1: Step Time =    1.000,"PART-1-1",           538,      -8.48458,       21.3302,            0.,NA,NA,"",       20.1700,       19.2735,       5.94639,   304.057E-06
C:/temp/dataset/7/17_6.odb,Step-1,Increment      1: Step Time =    1.000,"PART-1-1",           539,      -6.65000,           20.,            0.,NA,NA,"",       19.0556,       18.3341,       5.19389,   1.43811E-03
C:/temp/dataset/7/17_6.odb,Step-1,Increment      1: Step Time =    1.000,"PART-1-1",           540,      -5.19869,       21.1160,            0.,NA,NA,"",       19.1882,       18.7016,       4.29380,   436.620E-06
C:/temp/dataset/7/17_6.odb,Step-1,Increment      1: Step Time =    1.000,"PART-1-1",           541,       9.42603,       26.6587,            0.,NA,NA,"",       19.8621,       19.4889,      -3.83197,   5.21111E-03
C:/temp/dataset/7/17_6.odb,Step-1,Increment      1: Step Time =    1.000,"PART-1-1",           542,       10.3720,       25.4897,            0.,NA,NA,"",       19.2247,       18.7730,      -4.14288,   5.72080E-03
C:/temp/dataset/7/17_6.odb,Step-1,Increment      1: Step Time =    1.000,"PART-1-1",           543,       6.87457,       25.7626,            0.,NA,NA,"",       19.5355,       19.3820,      -2.44432,   5.52317E-03
C:/temp/dataset/7/17_6.odb,Step-1,Increment      1: Step Time =    1.000,"PART-1-1",           544,       7.54675,       26.7337,            0.,NA,NA,"",       19.9937,       19.7809,      -2.90894,   5.38252E-03
C:/temp/dataset/7/17_6.odb,Step-1,Increment      1: Step Time =    1.000,"PART-1-1",           545,      -3.17643,       25.4018,            0.,NA,NA,"",       20.7763,       20.6045,       2.66588,   3.23612E-03
C:/temp/dataset/7/17_6.odb,Step-1,Increment      1: Step Time =    1.000,"PART-1-1",           546,      -4.35024,       25.6599,            0.,NA,NA,"",       21.1510,       20.9034,       3.22678,   3.50508E-03
C:/temp/dataset/7/17_6.odb,Step-1,Increment      1: Step Time =    1.000,"PART-1-1",           547,       4.01884,       22.4610,            0.,NA,NA,"",       18.1135,       18.1044,  -574.621E-03,   3.30296E-03
C:/temp/dataset/7/17_6.odb,Step-1,Increment      1: Step Time =    1.000,"PART-1-1",           548,       5.32127,       23.1739,            0.,NA,NA,"",       18.3327,       18.2848,      -1.32352,   5.35485E-03
C:/temp/dataset/7/17_6.odb,Step-1,Increment      1: Step Time =    1.000,"PART-1-1",           549,       11.1447,       22.1526,            0.,NA,NA,"",       17.4704,       16.9901,      -4.06864,   7.94466E-03
C:/temp/dataset/7/17_6.odb,Step-1,Increment      1: Step Time =    1.000,"PART-1-1",           550,       10.2813,       23.3249,            0.,NA,NA,"",       18.0972,       17.6931,      -3.80289,   7.34342E-03
C:/temp/dataset/7/17_6.odb,Step-1,Increment      1: Step Time =    1.000,"PART-1-1",           551,       6.15508,       21.9496,            0.,NA,NA,"",       17.6199,       17.5492,      -1.57759,   7.33050E-03
C:/temp/dataset/7/17_6.odb,Step-1,Increment      1: Step Time =    1.000,"PART-1-1",           552,       6.48612,       23.9825,            0.,NA,NA,"",       18.6432,       18.5343,      -2.01258,   6.03613E-03
C:/temp/dataset/7/17_6.odb,Step-1,Increment      1: Step Time =    1.000,"PART-1-1",           553,   6.30745E-03,       24.2683,            0.,NA,NA,"",       19.6162,       19.5789,       1.20806,   2.20168E-03
C:/temp/dataset/7/17_6.odb,Step-1,Increment      1: Step Time =    1.000,"PART-1-1",           554,      -1.65981,       23.6471,            0.,NA,NA,"",       19.6134,       19.4964,       2.13847,   1.68403E-03
C:/temp/dataset/7/17_6.odb,Step-1,Increment      1: Step Time =    1.000,"PART-1-1",           555,      -1.07768,       22.4355,            0.,NA,NA,"",       18.9060,       18.7987,       2.01070,   628.346E-06
C:/temp/dataset/7/17_6.odb,Step-1,Increment      1: Step Time =    1.000,"PART-1-1",           556,   588.432E-03,       23.0567,            0.,NA,NA,"",       18.9134,       18.8826,       1.07994,   1.15740E-03
C:/temp/dataset/7/17_6.odb,Step-1,Increment      1: Step Time =    1.000,"PART-1-1",           557,      -4.82218,       24.5397,            0.,NA,NA,"",       20.7173,       20.3981,       3.62269,   2.51163E-03
C:/temp/dataset/7/17_6.odb,Step-1,Increment      1: Step Time =    1.000,"PART-1-1",           558,      -3.09511,       23.7242,            0.,NA,NA,"",       19.9431,       19.7374,       2.85707,   1.77746E-03
C:/temp/dataset/7/17_6.odb,Step-1,Increment      1: Step Time =    1.000,"PART-1-1",           559,      -5.58708,       23.2486,            0.,NA,NA,"",       20.2844,       19.8463,       4.19305,   1.40464E-03
C:/temp/dataset/7/17_6.odb,Step-1,Increment      1: Step Time =    1.000,"PART-1-1",           560,       8.76337,      -9.49006,            0.,NA,NA,"",       3.50346,       3.50329,   34.3204E-03,   19.2517E-03
C:/temp/dataset/7/17_6.odb,Step-1,Increment      1: Step Time =    1.000,"PART-1-1",           561,       9.72759,      -26.4759,            0.,NA,NA,"",   100.802E-03,   98.7702E-03,   20.1350E-03,   12.2699E-03
C:/temp/dataset/7/17_6.odb,Step-1,Increment      1: Step Time =    1.000,"PART-1-1",           562,       9.12173,       6.33780,            0.,NA,NA,"",       9.68833,       9.61759,      -1.16866,   10.5014E-03
C:/temp/dataset/7/17_6.odb,Step-1,Increment      1: Step Time =    1.000,"PART-1-1",           563,       11.1214,       6.29882,            0.,NA,NA,"",       9.61844,       9.40093,      -2.03398,   11.0598E-03
C:/temp/dataset/7/17_6.odb,Step-1,Increment      1: Step Time =    1.000,"PART-1-1",           564,       11.1740,      -13.7880,            0.,NA,NA,"",       2.23070,       2.18461,  -451.091E-03,   17.0894E-03
C:/temp/dataset/7/17_6.odb,Step-1,Increment      1: Step Time =    1.000,"PART-1-1",           565,       10.6612,      -8.65022,            0.,NA,NA,"",       3.71749,       3.67252,  -576.502E-03,   10.6531E-03
C:/temp/dataset/7/17_6.odb,Step-1,Increment      1: Step Time =    1.000,"PART-1-1",           566,       9.47894,      -7.81405,            0.,NA,NA,"",       4.01131,       4.00333,  -252.877E-03,   11.0680E-03
C:/temp/dataset/7/17_6.odb,Step-1,Increment      1: Step Time =    1.000,"PART-1-1",           567,       11.3640,      -18.5194,            0.,NA,NA,"",       1.16712,       1.12882,  -296.556E-03,   21.1626E-03
C:/temp/dataset/7/17_6.odb,Step-1,Increment      1: Step Time =    1.000,"PART-1-1",           568,       12.0025,       20.7886,            0.,NA,NA,"",       16.7580,       16.1960,      -4.30354,   8.43974E-03
C:/temp/dataset/7/17_6.odb,Step-1,Increment      1: Step Time =    1.000,"PART-1-1",           569,       11.4947,       18.6594,            0.,NA,NA,"",       15.6587,       15.2002,      -3.76148,   9.18627E-03
C:/temp/dataset/7/17_6.odb,Step-1,Increment      1: Step Time =    1.000,"PART-1-1",           570,       9.39315,       18.1618,            0.,NA,NA,"",       15.4496,       15.2168,      -2.67201,   8.39107E-03
C:/temp/dataset/7/17_6.odb,Step-1,Increment      1: Step Time =    1.000,"PART-1-1",           571,       10.9214,       17.4088,            0.,NA,NA,"",       15.0231,       14.6531,      -3.31351,   8.38757E-03
C:/temp/dataset/7/17_6.odb,Step-1,Increment      1: Step Time =    1.000,"PART-1-1",           572,      -9.97500,           20.,            0.,NA,NA,"",       20.0281,       18.8013,       6.90187,   1.31086E-03
C:/temp/dataset/7/17_6.odb,Step-1,Increment      1: Step Time =    1.000,"PART-1-1",           573,       11.9818,      -2.09472,            0.,NA,NA,"",       6.07420,       5.87872,      -1.52859,   21.0974E-03
C:/temp/dataset/7/17_6.odb,Step-1,Increment      1: Step Time =    1.000,"PART-1-1",           574,       12.0426,   313.093E-03,            0.,NA,NA,"",       7.03575,       6.80549,      -1.78525,   20.1463E-03
C:/temp/dataset/7/17_6.odb,Step-1,Increment      1: Step Time =    1.000,"PART-1-1",           575,       12.1686,      -14.9632,            0.,NA,NA,"",       1.97978,       1.87660,  -630.813E-03,   31.4725E-03
C:/temp/dataset/7/17_6.odb,Step-1,Increment      1: Step Time =    1.000,"PART-1-1",           576,       12.0880,      -12.5178,            0.,NA,NA,"",       2.60461,       2.49254,  -755.809E-03,   28.7538E-03
C:/temp/dataset/7/17_6.odb,Step-1,Increment      1: Step Time =    1.000,"PART-1-1",           577,       12.0767,       2.70437,            0.,NA,NA,"",       8.03868,       7.77336,      -2.04826,   18.8860E-03
C:/temp/dataset/7/17_6.odb,Step-1,Increment      1: Step Time =    1.000,"PART-1-1",           578,       11.6617,       14.7036,            0.,NA,NA,"",       13.6510,       13.2434,      -3.31079,   10.1551E-03
C:/temp/dataset/7/17_6.odb,Step-1,Increment      1: Step Time =    1.000,"PART-1-1",           579,       11.9561,       12.2406,            0.,NA,NA,"",       12.4341,       12.0340,      -3.12914,   12.2560E-03
C:/temp/dataset/7/17_6.odb,Step-1,Increment      1: Step Time =    1.000,"PART-1-1",           580,       12.3155,      -19.7087,            0.,NA,NA,"",       1.00050,   910.545E-03,  -414.629E-03,   37.0078E-03
C:/temp/dataset/7/17_6.odb,Step-1,Increment      1: Step Time =    1.000,"PART-1-1",           581,       12.3404,      -21.7879,            0.,NA,NA,"",   671.951E-03,   589.304E-03,  -322.861E-03,   38.6803E-03
C:/temp/dataset/7/17_6.odb,Step-1,Increment      1: Step Time =    1.000,"PART-1-1",           582,       12.2327,      -17.3977,            0.,NA,NA,"",       1.43683,       1.34194,  -513.491E-03,   34.0285E-03
C:/temp/dataset/7/17_6.odb,Step-1,Increment      1: Step Time =    1.000,"PART-1-1",           583,       12.1020,       5.09402,            0.,NA,NA,"",       9.08505,       8.78277,      -2.32400,   17.4997E-03
C:/temp/dataset/7/17_6.odb,Step-1,Increment      1: Step Time =    1.000,"PART-1-1",           584,       12.0630,       9.85139,            0.,NA,NA,"",       11.2819,       10.9093,      -2.87570,   14.1716E-03
C:/temp/dataset/7/17_6.odb,Step-1,Increment      1: Step Time =    1.000,"PART-1-1",           585,       12.0921,       7.47372,            0.,NA,NA,"",       10.1662,       9.82864,      -2.59804,   15.8652E-03
C:/temp/dataset/7/17_6.odb,Step-1,Increment      1: Step Time =    1.000,"PART-1-1",           586,       11.9146,      -10.0225,            0.,NA,NA,"",       3.31659,       3.20073,  -868.963E-03,   24.9400E-03
C:/temp/dataset/7/17_6.odb,Step-1,Increment      1: Step Time =    1.000,"PART-1-1",           587,       11.5993,      -7.26023,            0.,NA,NA,"",       4.18946,       4.07685,  -964.807E-03,   19.7517E-03
C:/temp/dataset/7/17_6.odb,Step-1,Increment      1: Step Time =    1.000,"PART-1-1",           588,       11.8707,      -4.56496,            0.,NA,NA,"",       5.14180,       4.98274,      -1.26902,   21.4575E-03
C:/temp/dataset/7/17_6.odb,Step-1,Increment      1: Step Time =    1.000,"PART-1-1",           589,      -3.86001,       22.4330,            0.,NA,NA,"",       19.4898,       19.1863,       3.42626,   720.727E-06
C:/temp/dataset/7/17_6.odb,Step-1,Increment      1: Step Time =    1.000,"PART-1-1",           590,       3.35000,           20.,            0.,NA,NA,"",       16.9518,       16.9515,   101.113E-03,   2.63099E-03
C:/temp/dataset/7/17_6.odb,Step-1,Increment      1: Step Time =    1.000,"PART-1-1",           591,       5.05511,       21.0689,            0.,NA,NA,"",       17.2790,       17.2549,  -912.462E-03,   6.84375E-03
C:/temp/dataset/7/17_6.odb,Step-1,Increment      1: Step Time =    1.000,"PART-1-1",           592,       2.31373,       21.3921,            0.,NA,NA,"",       17.8049,       17.7996,   434.792E-03,   916.178E-06
C:/temp/dataset/7/17_6.odb,Step-1,Increment      1: Step Time =    1.000,"PART-1-1",           593,      -1.98632,       21.3170,            0.,NA,NA,"",       18.5432,       18.3561,       2.62792,   248.903E-06
C:/temp/dataset/7/17_6.odb,Step-1,Increment      1: Step Time =    1.000,"PART-1-1",           594,   25.0000E-03,           20.,            0.,NA,NA,"",       17.5006,       17.4089,       1.78870,   846.086E-06
C:/temp/dataset/7/17_6.odb,Step-1,Increment      1: Step Time =    1.000,"PART-1-1",           595,   933.640E-03,       21.1186,            0.,NA,NA,"",       17.8898,       17.8513,       1.17243,   293.227E-06
C:/temp/dataset/7/17_6.odb,Step-1,Increment      1: Step Time =    1.000,"PART-1-1",           596,       7.16521,       20.7144,            0.,NA,NA,"",       16.8949,       16.7860,      -1.91574,   9.04003E-03
C:/temp/dataset/7/17_6.odb,Step-1,Increment      1: Step Time =    1.000,"PART-1-1",           597,       8.15837,       19.5039,            0.,NA,NA,"",       16.2020,       16.0456,      -2.24551,   8.18545E-03
C:/temp/dataset/7/17_6.odb,Step-1,Increment      1: Step Time =    1.000,"PART-1-1",           598,      -3.32500,           20.,            0.,NA,NA,"",       18.2098,       17.8715,       3.49371,   1.31433E-03
