ODB Name,Step,Frame,Part Instance Name,    êﬂì_ÉâÉxÉã,X,Y,Z,Section Name,Material Name,Section Point,   U-Magnitude,          U-U1,          U-U2,       S-Mises
C:/temp/dataset/7/18_10.odb,Step-1,Increment      4: Step Time =    1.000,"PART-1-1",             1,          -15.,           20.,            0.,NA,NA,"",       31.2744,       29.7368,       9.68558,   9.85000E-03
C:/temp/dataset/7/18_10.odb,Step-1,Increment      4: Step Time =    1.000,"PART-1-1",             2,          -15.,           25.,            0.,NA,NA,"",       34.1088,       33.0446,       8.45399,   5.78664E-03
C:/temp/dataset/7/18_10.odb,Step-1,Increment      4: Step Time =    1.000,"PART-1-1",             3,      -11.6500,           20.,            0.,NA,NA,"",       29.8308,       28.8749,       7.49090,   11.6606E-03
C:/temp/dataset/7/18_10.odb,Step-1,Increment      4: Step Time =    1.000,"PART-1-1",             4,      -8.30000,           20.,            0.,NA,NA,"",       28.4986,       28.0030,       5.29150,   12.3912E-03
C:/temp/dataset/7/18_10.odb,Step-1,Increment      4: Step Time =    1.000,"PART-1-1",             5,           -5.,           20.,            0.,NA,NA,"",       27.3122,       27.1341,       3.11424,   12.2743E-03
C:/temp/dataset/7/18_10.odb,Step-1,Increment      4: Step Time =    1.000,"PART-1-1",             6,      -1.65000,           20.,            0.,NA,NA,"",       26.2577,       26.2425,   893.073E-03,   12.2167E-03
C:/temp/dataset/7/18_10.odb,Step-1,Increment      4: Step Time =    1.000,"PART-1-1",             7,       1.70000,           20.,            0.,NA,NA,"",       25.3768,       25.3415,      -1.33847,   12.9246E-03
C:/temp/dataset/7/18_10.odb,Step-1,Increment      4: Step Time =    1.000,"PART-1-1",             8,            5.,           20.,            0.,NA,NA,"",       24.6885,       24.4328,      -3.54422,   14.7519E-03
C:/temp/dataset/7/18_10.odb,Step-1,Increment      4: Step Time =    1.000,"PART-1-1",             9,            5.,         13.75,            0.,NA,NA,"",       20.2055,       20.1104,      -1.95776,   28.1147E-03
C:/temp/dataset/7/18_10.odb,Step-1,Increment      4: Step Time =    1.000,"PART-1-1",            10,            5.,           7.5,            0.,NA,NA,"",       15.8970,       15.8859,  -594.463E-03,   46.8402E-03
C:/temp/dataset/7/18_10.odb,Step-1,Increment      4: Step Time =    1.000,"PART-1-1",            11,            5.,          1.25,            0.,NA,NA,"",       11.8669,       11.8576,   471.119E-03,   66.0294E-03
C:/temp/dataset/7/18_10.odb,Step-1,Increment      4: Step Time =    1.000,"PART-1-1",            12,            5.,           -5.,            0.,NA,NA,"",       8.24464,       8.16173,       1.16629,   85.2117E-03
C:/temp/dataset/7/18_10.odb,Step-1,Increment      4: Step Time =    1.000,"PART-1-1",            13,            5.,        -11.25,            0.,NA,NA,"",       5.16328,       4.95727,       1.44394,   104.106E-03
C:/temp/dataset/7/18_10.odb,Step-1,Increment      4: Step Time =    1.000,"PART-1-1",            14,            5.,         -17.5,            0.,NA,NA,"",       2.74904,       2.42449,       1.29580,   122.732E-03
C:/temp/dataset/7/18_10.odb,Step-1,Increment      4: Step Time =    1.000,"PART-1-1",            15,            5.,        -23.75,            0.,NA,NA,"",       1.08016,   757.739E-03,   769.786E-03,   139.303E-03
C:/temp/dataset/7/18_10.odb,Step-1,Increment      4: Step Time =    1.000,"PART-1-1",            16,            5.,          -30.,            0.,NA,NA,"",            0.,  -244.990E-42,  -519.882E-42,   176.861E-03
C:/temp/dataset/7/18_10.odb,Step-1,Increment      4: Step Time =    1.000,"PART-1-1",            17,           15.,          -30.,            0.,NA,NA,"",            0.,  -1.77702E-39,   3.13465E-39,   158.690E-03
C:/temp/dataset/7/18_10.odb,Step-1,Increment      4: Step Time =    1.000,"PART-1-1",            18,           15.,         -22.5,            0.,NA,NA,"",       1.25677,   791.151E-03,  -976.505E-03,   131.727E-03
C:/temp/dataset/7/18_10.odb,Step-1,Increment      4: Step Time =    1.000,"PART-1-1",            19,           15.,          -15.,            0.,NA,NA,"",       3.39441,       2.68747,      -2.07353,   111.174E-03
C:/temp/dataset/7/18_10.odb,Step-1,Increment      4: Step Time =    1.000,"PART-1-1",            20,           15.,          -7.5,            0.,NA,NA,"",       6.55145,       5.59668,      -3.40569,   89.7645E-03
C:/temp/dataset/7/18_10.odb,Step-1,Increment      4: Step Time =    1.000,"PART-1-1",            21,           15.,            0.,            0.,NA,NA,"",       10.5828,       9.31811,      -5.01678,   67.8623E-03
C:/temp/dataset/7/18_10.odb,Step-1,Increment      4: Step Time =    1.000,"PART-1-1",            22,           15.,           7.5,            0.,NA,NA,"",       15.2925,       13.6586,      -6.87777,   45.6785E-03
C:/temp/dataset/7/18_10.odb,Step-1,Increment      4: Step Time =    1.000,"PART-1-1",            23,           15.,           15.,            0.,NA,NA,"",       20.4764,       18.4394,      -8.90342,   22.9252E-03
C:/temp/dataset/7/18_10.odb,Step-1,Increment      4: Step Time =    1.000,"PART-1-1",            24,           15.,          22.5,            0.,NA,NA,"",       25.9129,       23.4808,      -10.9603,   3.18919E-03
C:/temp/dataset/7/18_10.odb,Step-1,Increment      4: Step Time =    1.000,"PART-1-1",            25,           15.,           30.,            0.,NA,NA,"",       31.3855,       28.5816,      -12.9670,   32.3337E-06
C:/temp/dataset/7/18_10.odb,Step-1,Increment      4: Step Time =    1.000,"PART-1-1",            26,         11.25,           30.,            0.,NA,NA,"",       31.3611,       29.5797,      -10.4191,   49.6390E-06
C:/temp/dataset/7/18_10.odb,Step-1,Increment      4: Step Time =    1.000,"PART-1-1",            27,           7.5,           30.,            0.,NA,NA,"",       31.5737,       30.5760,      -7.87467,   242.378E-06
C:/temp/dataset/7/18_10.odb,Step-1,Increment      4: Step Time =    1.000,"PART-1-1",            28,          3.75,           30.,            0.,NA,NA,"",       32.0154,       31.5680,      -5.33311,   769.907E-06
C:/temp/dataset/7/18_10.odb,Step-1,Increment      4: Step Time =    1.000,"PART-1-1",            29,            0.,           30.,            0.,NA,NA,"",       32.6691,       32.5492,      -2.79732,   1.83175E-03
C:/temp/dataset/7/18_10.odb,Step-1,Increment      4: Step Time =    1.000,"PART-1-1",            30,         -3.75,           30.,            0.,NA,NA,"",       33.5177,       33.5166,  -272.750E-03,   2.27216E-03
C:/temp/dataset/7/18_10.odb,Step-1,Increment      4: Step Time =    1.000,"PART-1-1",            31,          -7.5,           30.,            0.,NA,NA,"",       34.5435,       34.4709,       2.23839,   2.40326E-03
C:/temp/dataset/7/18_10.odb,Step-1,Increment      4: Step Time =    1.000,"PART-1-1",            32,        -11.25,           30.,            0.,NA,NA,"",       35.7277,       35.4125,       4.73512,   2.06644E-03
C:/temp/dataset/7/18_10.odb,Step-1,Increment      4: Step Time =    1.000,"PART-1-1",            33,          -15.,           30.,            0.,NA,NA,"",       37.0581,       36.3484,       7.21795,   381.006E-06
C:/temp/dataset/7/18_10.odb,Step-1,Increment      4: Step Time =    1.000,"PART-1-1",            34,          -15.,          22.5,            0.,NA,NA,"",       32.6810,       31.3977,       9.06818,   10.2646E-03
C:/temp/dataset/7/18_10.odb,Step-1,Increment      4: Step Time =    1.000,"PART-1-1",            35,            5.,       15.8333,            0.,NA,NA,"",       21.6830,       21.5426,      -2.46360,   22.4223E-03
C:/temp/dataset/7/18_10.odb,Step-1,Increment      4: Step Time =    1.000,"PART-1-1",            36,            5.,       17.9167,            0.,NA,NA,"",       23.1756,       22.9818,      -2.99067,   16.5570E-03
C:/temp/dataset/7/18_10.odb,Step-1,Increment      4: Step Time =    1.000,"PART-1-1",            37,            5.,       9.58333,            0.,NA,NA,"",       17.3084,       17.2784,      -1.01994,   40.4932E-03
C:/temp/dataset/7/18_10.odb,Step-1,Increment      4: Step Time =    1.000,"PART-1-1",            38,            5.,       11.6667,            0.,NA,NA,"",       18.7461,       18.6879,      -1.47546,   34.2417E-03
C:/temp/dataset/7/18_10.odb,Step-1,Increment      4: Step Time =    1.000,"PART-1-1",            39,            5.,       3.33333,            0.,NA,NA,"",       13.1715,       13.1706,   153.910E-03,   59.6249E-03
C:/temp/dataset/7/18_10.odb,Step-1,Increment      4: Step Time =    1.000,"PART-1-1",            40,            5.,       5.41667,            0.,NA,NA,"",       14.5165,       14.5151,  -202.195E-03,   53.2231E-03
C:/temp/dataset/7/18_10.odb,Step-1,Increment      4: Step Time =    1.000,"PART-1-1",            41,            5.,      -2.91667,            0.,NA,NA,"",       9.39857,       9.34741,   979.291E-03,   78.8184E-03
C:/temp/dataset/7/18_10.odb,Step-1,Increment      4: Step Time =    1.000,"PART-1-1",            42,            5.,  -833.333E-03,            0.,NA,NA,"",       10.6076,       10.5813,   746.961E-03,   72.4441E-03
C:/temp/dataset/7/18_10.odb,Step-1,Increment      4: Step Time =    1.000,"PART-1-1",            43,            5.,      -9.16667,            0.,NA,NA,"",       6.12214,       5.96009,       1.39929,   97.8559E-03
C:/temp/dataset/7/18_10.odb,Step-1,Increment      4: Step Time =    1.000,"PART-1-1",            44,            5.,      -7.08333,            0.,NA,NA,"",       7.15090,       7.03052,       1.30659,   91.4669E-03
C:/temp/dataset/7/18_10.odb,Step-1,Increment      4: Step Time =    1.000,"PART-1-1",            45,            5.,      -15.4167,            0.,NA,NA,"",       3.47299,       3.18228,       1.39096,   116.587E-03
C:/temp/dataset/7/18_10.odb,Step-1,Increment      4: Step Time =    1.000,"PART-1-1",            46,            5.,      -13.3333,            0.,NA,NA,"",       4.27887,       4.02896,       1.44089,   110.389E-03
C:/temp/dataset/7/18_10.odb,Step-1,Increment      4: Step Time =    1.000,"PART-1-1",            47,            5.,      -21.6667,            0.,NA,NA,"",       1.55361,       1.20460,   981.145E-03,   134.267E-03
C:/temp/dataset/7/18_10.odb,Step-1,Increment      4: Step Time =    1.000,"PART-1-1",            48,            5.,      -19.5833,            0.,NA,NA,"",       2.10910,       1.76287,       1.15783,   128.832E-03
C:/temp/dataset/7/18_10.odb,Step-1,Increment      4: Step Time =    1.000,"PART-1-1",            49,            5.,      -27.9167,            0.,NA,NA,"",   344.343E-03,   202.259E-03,   278.681E-03,   150.262E-03
C:/temp/dataset/7/18_10.odb,Step-1,Increment      4: Step Time =    1.000,"PART-1-1",            50,            5.,      -25.8333,            0.,NA,NA,"",   680.225E-03,   424.387E-03,   531.603E-03,   140.875E-03
C:/temp/dataset/7/18_10.odb,Step-1,Increment      4: Step Time =    1.000,"PART-1-1",            51,          12.5,          -30.,            0.,NA,NA,"",            0.,   59.1681E-39,  -129.748E-39,   54.4691E-03
C:/temp/dataset/7/18_10.odb,Step-1,Increment      4: Step Time =    1.000,"PART-1-1",            52,           10.,          -30.,            0.,NA,NA,"",            0.,  -29.8271E-39,  -8.27391E-39,   20.6238E-03
C:/temp/dataset/7/18_10.odb,Step-1,Increment      4: Step Time =    1.000,"PART-1-1",            53,           7.5,          -30.,            0.,NA,NA,"",            0.,  -7.55739E-39,   158.470E-39,   56.0435E-03
C:/temp/dataset/7/18_10.odb,Step-1,Increment      4: Step Time =    1.000,"PART-1-1",            54,           15.,          -25.,            0.,NA,NA,"",   766.916E-03,   415.850E-03,  -644.382E-03,   136.475E-03
C:/temp/dataset/7/18_10.odb,Step-1,Increment      4: Step Time =    1.000,"PART-1-1",            55,           15.,         -27.5,            0.,NA,NA,"",   367.675E-03,   180.689E-03,  -320.213E-03,   148.577E-03
C:/temp/dataset/7/18_10.odb,Step-1,Increment      4: Step Time =    1.000,"PART-1-1",            56,           15.,         -17.5,            0.,NA,NA,"",       2.56509,       1.93287,      -1.68634,   118.102E-03
C:/temp/dataset/7/18_10.odb,Step-1,Increment      4: Step Time =    1.000,"PART-1-1",            57,           15.,          -20.,            0.,NA,NA,"",       1.85309,       1.29821,      -1.32234,   124.867E-03
C:/temp/dataset/7/18_10.odb,Step-1,Increment      4: Step Time =    1.000,"PART-1-1",            58,           15.,          -10.,            0.,NA,NA,"",       5.39295,       4.52683,      -2.93116,   97.0358E-03
C:/temp/dataset/7/18_10.odb,Step-1,Increment      4: Step Time =    1.000,"PART-1-1",            59,           15.,         -12.5,            0.,NA,NA,"",       4.33859,       3.55459,      -2.48762,   104.158E-03
C:/temp/dataset/7/18_10.odb,Step-1,Increment      4: Step Time =    1.000,"PART-1-1",            60,           15.,          -2.5,            0.,NA,NA,"",       9.15362,       7.99955,      -4.44926,   75.1920E-03
C:/temp/dataset/7/18_10.odb,Step-1,Increment      4: Step Time =    1.000,"PART-1-1",            61,           15.,           -5.,            0.,NA,NA,"",       7.80736,       6.75665,      -3.91185,   82.5129E-03
C:/temp/dataset/7/18_10.odb,Step-1,Increment      4: Step Time =    1.000,"PART-1-1",            62,           15.,            5.,            0.,NA,NA,"",       13.6598,       12.1543,      -6.23392,   53.0973E-03
C:/temp/dataset/7/18_10.odb,Step-1,Increment      4: Step Time =    1.000,"PART-1-1",            63,           15.,           2.5,            0.,NA,NA,"",       12.0874,       10.7053,      -5.61253,   60.4903E-03
C:/temp/dataset/7/18_10.odb,Step-1,Increment      4: Step Time =    1.000,"PART-1-1",            64,           15.,          12.5,            0.,NA,NA,"",       18.7085,       16.8073,      -8.21719,   30.6513E-03
C:/temp/dataset/7/18_10.odb,Step-1,Increment      4: Step Time =    1.000,"PART-1-1",            65,           15.,           10.,            0.,NA,NA,"",       16.9780,       15.2117,      -7.54032,   38.2134E-03
C:/temp/dataset/7/18_10.odb,Step-1,Increment      4: Step Time =    1.000,"PART-1-1",            66,           15.,           20.,            0.,NA,NA,"",       24.0883,       21.7846,      -10.2800,   8.13065E-03
C:/temp/dataset/7/18_10.odb,Step-1,Increment      4: Step Time =    1.000,"PART-1-1",            67,           15.,          17.5,            0.,NA,NA,"",       22.2729,       20.1012,      -9.59278,   15.1764E-03
C:/temp/dataset/7/18_10.odb,Step-1,Increment      4: Step Time =    1.000,"PART-1-1",            68,           15.,          27.5,            0.,NA,NA,"",       29.5631,       26.8824,      -12.3011,   168.797E-06
C:/temp/dataset/7/18_10.odb,Step-1,Increment      4: Step Time =    1.000,"PART-1-1",            69,           15.,           25.,            0.,NA,NA,"",       27.7390,       25.1817,      -11.6333,   563.265E-06
C:/temp/dataset/7/18_10.odb,Step-1,Increment      4: Step Time =    1.000,"PART-1-1",            70,        13.125,           30.,            0.,NA,NA,"",       31.3436,       29.0809,      -11.6928,   145.095E-06
C:/temp/dataset/7/18_10.odb,Step-1,Increment      4: Step Time =    1.000,"PART-1-1",            71,         9.375,           30.,            0.,NA,NA,"",       31.4380,       30.0780,      -9.14644,   220.254E-06
C:/temp/dataset/7/18_10.odb,Step-1,Increment      4: Step Time =    1.000,"PART-1-1",            72,         5.625,           30.,            0.,NA,NA,"",       31.7669,       31.0730,      -6.60350,   216.405E-06
C:/temp/dataset/7/18_10.odb,Step-1,Increment      4: Step Time =    1.000,"PART-1-1",            73,         1.875,           30.,            0.,NA,NA,"",       32.3169,       32.0603,      -4.06406,   1.42514E-03
C:/temp/dataset/7/18_10.odb,Step-1,Increment      4: Step Time =    1.000,"PART-1-1",            74,        -1.875,           30.,            0.,NA,NA,"",       33.0701,       33.0346,      -1.53342,   2.11150E-03
C:/temp/dataset/7/18_10.odb,Step-1,Increment      4: Step Time =    1.000,"PART-1-1",            75,        -5.625,           30.,            0.,NA,NA,"",       34.0096,       33.9954,   984.555E-03,   2.36582E-03
C:/temp/dataset/7/18_10.odb,Step-1,Increment      4: Step Time =    1.000,"PART-1-1",            76,        -9.375,           30.,            0.,NA,NA,"",       35.1169,       34.9431,       3.48866,   2.37866E-03
C:/temp/dataset/7/18_10.odb,Step-1,Increment      4: Step Time =    1.000,"PART-1-1",            77,       -13.125,           30.,            0.,NA,NA,"",       36.3746,       35.8800,       5.97764,   835.792E-06
C:/temp/dataset/7/18_10.odb,Step-1,Increment      4: Step Time =    1.000,"PART-1-1",            78,          -15.,          27.5,            0.,NA,NA,"",       35.5693,       34.6939,       7.84273,   2.28774E-03
C:/temp/dataset/7/18_10.odb,Step-1,Increment      4: Step Time =    1.000,"PART-1-1",            79,      -7.07467,       28.0475,            0.,NA,NA,"",       33.1529,       33.0620,       2.45222,   488.706E-06
C:/temp/dataset/7/18_10.odb,Step-1,Increment      4: Step Time =    1.000,"PART-1-1",            80,      -10.7971,       27.6072,            0.,NA,NA,"",       34.0871,       33.7129,       5.03713,   806.757E-06
C:/temp/dataset/7/18_10.odb,Step-1,Increment      4: Step Time =    1.000,"PART-1-1",            81,      -3.50976,       28.2242,            0.,NA,NA,"",       32.2653,       32.2653,   24.4342E-03,   353.196E-06
C:/temp/dataset/7/18_10.odb,Step-1,Increment      4: Step Time =    1.000,"PART-1-1",            82,       11.3028,       27.6605,            0.,NA,NA,"",       29.6537,       27.9762,      -9.83248,   956.203E-06
C:/temp/dataset/7/18_10.odb,Step-1,Increment      4: Step Time =    1.000,"PART-1-1",            83,       7.46624,       27.7175,            0.,NA,NA,"",       29.9270,       29.0362,      -7.24735,   1.61424E-03
C:/temp/dataset/7/18_10.odb,Step-1,Increment      4: Step Time =    1.000,"PART-1-1",            84,   523.838E-03,       28.1559,            0.,NA,NA,"",       31.2844,       31.1704,      -2.66882,   830.336E-06
C:/temp/dataset/7/18_10.odb,Step-1,Increment      4: Step Time =    1.000,"PART-1-1",            85,       13.1724,       27.5829,            0.,NA,NA,"",       29.5798,       27.4258,      -11.0811,   370.167E-06
C:/temp/dataset/7/18_10.odb,Step-1,Increment      4: Step Time =    1.000,"PART-1-1",            86,       9.41586,       27.7284,            0.,NA,NA,"",       29.7845,       28.5246,      -8.57109,   1.33946E-03
C:/temp/dataset/7/18_10.odb,Step-1,Increment      4: Step Time =    1.000,"PART-1-1",            87,       5.17501,       27.3177,            0.,NA,NA,"",       29.9023,       29.3750,      -5.59082,   2.13432E-03
C:/temp/dataset/7/18_10.odb,Step-1,Increment      4: Step Time =    1.000,"PART-1-1",            88,       1.85763,       28.7412,            0.,NA,NA,"",       31.4363,       31.2152,      -3.72183,   542.422E-06
C:/temp/dataset/7/18_10.odb,Step-1,Increment      4: Step Time =    1.000,"PART-1-1",            89,      -1.45910,       27.7280,            0.,NA,NA,"",       31.4242,       31.4004,      -1.22327,   1.13011E-03
C:/temp/dataset/7/18_10.odb,Step-1,Increment      4: Step Time =    1.000,"PART-1-1",            90,      -5.31380,       28.2250,            0.,NA,NA,"",       32.7533,       32.7301,       1.23162,   288.641E-06
C:/temp/dataset/7/18_10.odb,Step-1,Increment      4: Step Time =    1.000,"PART-1-1",            91,      -8.92632,       27.8484,            0.,NA,NA,"",       33.6085,       33.4003,       3.73499,   721.270E-06
C:/temp/dataset/7/18_10.odb,Step-1,Increment      4: Step Time =    1.000,"PART-1-1",            92,       7.03655,   996.185E-03,            0.,NA,NA,"",       11.3016,       11.2831,  -646.417E-03,   41.3900E-03
C:/temp/dataset/7/18_10.odb,Step-1,Increment      4: Step Time =    1.000,"PART-1-1",            93,       6.93081,       13.7923,            0.,NA,NA,"",       19.9020,       19.6368,      -3.23808,   18.9421E-03
C:/temp/dataset/7/18_10.odb,Step-1,Increment      4: Step Time =    1.000,"PART-1-1",            94,       7.08682,       7.47611,            0.,NA,NA,"",       15.4889,       15.3735,      -1.88699,   29.1594E-03
C:/temp/dataset/7/18_10.odb,Step-1,Increment      4: Step Time =    1.000,"PART-1-1",            95,       6.96700,      -1.15199,            0.,NA,NA,"",       10.0160,       10.0120,  -283.903E-03,   46.3100E-03
C:/temp/dataset/7/18_10.odb,Step-1,Increment      4: Step Time =    1.000,"PART-1-1",            96,       6.47578,      -21.8661,            0.,NA,NA,"",       1.24850,       1.05331,   670.305E-03,   97.6223E-03
C:/temp/dataset/7/18_10.odb,Step-1,Increment      4: Step Time =    1.000,"PART-1-1",            97,       7.14087,      -13.1040,            0.,NA,NA,"",       3.93821,       3.88484,   646.179E-03,   65.6438E-03
C:/temp/dataset/7/18_10.odb,Step-1,Increment      4: Step Time =    1.000,"PART-1-1",            98,       6.53104,      -7.08024,            0.,NA,NA,"",       6.81987,       6.79440,   588.956E-03,   65.1079E-03
C:/temp/dataset/7/18_10.odb,Step-1,Increment      4: Step Time =    1.000,"PART-1-1",            99,       6.85322,      -3.24169,            0.,NA,NA,"",       8.82713,       8.82699,   49.1810E-03,   51.9944E-03
C:/temp/dataset/7/18_10.odb,Step-1,Increment      4: Step Time =    1.000,"PART-1-1",           100,       6.74184,      -8.96518,            0.,NA,NA,"",       5.84721,       5.81374,   624.802E-03,   65.3176E-03
C:/temp/dataset/7/18_10.odb,Step-1,Increment      4: Step Time =    1.000,"PART-1-1",           101,       6.94703,      -23.6171,            0.,NA,NA,"",   815.330E-03,   661.560E-03,   476.551E-03,   88.8366E-03
C:/temp/dataset/7/18_10.odb,Step-1,Increment      4: Step Time =    1.000,"PART-1-1",           102,       7.44695,      -27.8442,            0.,NA,NA,"",   165.344E-03,   93.7290E-03,   136.212E-03,   84.4679E-03
C:/temp/dataset/7/18_10.odb,Step-1,Increment      4: Step Time =    1.000,"PART-1-1",           103,       7.35225,      -17.6578,            0.,NA,NA,"",       2.25436,       2.16927,   613.507E-03,   68.9968E-03
C:/temp/dataset/7/18_10.odb,Step-1,Increment      4: Step Time =    1.000,"PART-1-1",           104,       7.23832,      -15.2967,            0.,NA,NA,"",       3.07579,       3.00610,   651.030E-03,   67.5192E-03
C:/temp/dataset/7/18_10.odb,Step-1,Increment      4: Step Time =    1.000,"PART-1-1",           105,       7.10099,       17.6583,            0.,NA,NA,"",       22.6582,       22.2393,      -4.33657,   13.3240E-03
C:/temp/dataset/7/18_10.odb,Step-1,Increment      4: Step Time =    1.000,"PART-1-1",           106,       6.86948,       15.7920,            0.,NA,NA,"",       21.3413,       21.0183,      -3.69892,   15.6018E-03
C:/temp/dataset/7/18_10.odb,Step-1,Increment      4: Step Time =    1.000,"PART-1-1",           107,       7.06799,       9.62990,            0.,NA,NA,"",       16.9622,       16.7994,      -2.34466,   25.5310E-03
C:/temp/dataset/7/18_10.odb,Step-1,Increment      4: Step Time =    1.000,"PART-1-1",           108,       7.09093,       5.31052,            0.,NA,NA,"",       14.0444,       13.9694,      -1.44880,   32.9592E-03
C:/temp/dataset/7/18_10.odb,Step-1,Increment      4: Step Time =    1.000,"PART-1-1",           109,       6.65187,      -5.22056,            0.,NA,NA,"",       7.77201,       7.76334,   367.049E-03,   59.0745E-03
C:/temp/dataset/7/18_10.odb,Step-1,Increment      4: Step Time =    1.000,"PART-1-1",           110,       7.26954,      -25.7037,            0.,NA,NA,"",   432.803E-03,   316.509E-03,   295.195E-03,   86.5334E-03
C:/temp/dataset/7/18_10.odb,Step-1,Increment      4: Step Time =    1.000,"PART-1-1",           111,       7.53271,      -20.3934,            0.,NA,NA,"",       1.44600,       1.35181,   513.343E-03,   69.1542E-03
C:/temp/dataset/7/18_10.odb,Step-1,Increment      4: Step Time =    1.000,"PART-1-1",           112,       7.01178,       11.7341,            0.,NA,NA,"",       18.4353,       18.2223,      -2.79395,   22.1864E-03
C:/temp/dataset/7/18_10.odb,Step-1,Increment      4: Step Time =    1.000,"PART-1-1",           113,       7.07643,       3.14767,            0.,NA,NA,"",       12.6447,       12.6023,      -1.03480,   36.9912E-03
C:/temp/dataset/7/18_10.odb,Step-1,Increment      4: Step Time =    1.000,"PART-1-1",           114,       6.98190,      -10.9751,            0.,NA,NA,"",       4.87358,       4.83260,   630.704E-03,   64.8342E-03
C:/temp/dataset/7/18_10.odb,Step-1,Increment      4: Step Time =    1.000,"PART-1-1",           115,       13.1254,       22.8014,            0.,NA,NA,"",       26.0815,       24.1841,      -9.76603,   4.50456E-03
C:/temp/dataset/7/18_10.odb,Step-1,Increment      4: Step Time =    1.000,"PART-1-1",           116,       12.8923,      -4.74502,            0.,NA,NA,"",       7.67705,       7.13105,      -2.84345,   46.5717E-03
C:/temp/dataset/7/18_10.odb,Step-1,Increment      4: Step Time =    1.000,"PART-1-1",           117,       13.0513,      -12.4505,            0.,NA,NA,"",       4.03721,       3.66923,      -1.68399,   61.4902E-03
C:/temp/dataset/7/18_10.odb,Step-1,Increment      4: Step Time =    1.000,"PART-1-1",           118,       12.2427,       17.8341,            0.,NA,NA,"",       22.4418,       21.0360,      -7.81793,   12.4988E-03
C:/temp/dataset/7/18_10.odb,Step-1,Increment      4: Step Time =    1.000,"PART-1-1",           119,       13.0441,       9.90429,            0.,NA,NA,"",       16.7944,       15.5959,      -6.23058,   24.7221E-03
C:/temp/dataset/7/18_10.odb,Step-1,Increment      4: Step Time =    1.000,"PART-1-1",           120,       13.0522,       2.62582,            0.,NA,NA,"",       11.9861,       11.1271,      -4.45585,   36.9258E-03
C:/temp/dataset/7/18_10.odb,Step-1,Increment      4: Step Time =    1.000,"PART-1-1",           121,       13.2006,      -19.7745,            0.,NA,NA,"",       1.58926,       1.33019,  -869.682E-03,   76.3739E-03
C:/temp/dataset/7/18_10.odb,Step-1,Increment      4: Step Time =    1.000,"PART-1-1",           122,       9.90112,      -27.6522,            0.,NA,NA,"",   49.3735E-03,   47.4076E-03,   13.7935E-03,   18.2913E-03
C:/temp/dataset/7/18_10.odb,Step-1,Increment      4: Step Time =    1.000,"PART-1-1",           123,       13.0591,      -22.1191,            0.,NA,NA,"",       1.01591,   808.860E-03,  -614.677E-03,   76.2468E-03
C:/temp/dataset/7/18_10.odb,Step-1,Increment      4: Step Time =    1.000,"PART-1-1",           124,       13.1139,      -14.9356,            0.,NA,NA,"",       3.08789,       2.76033,      -1.38407,   66.7488E-03
C:/temp/dataset/7/18_10.odb,Step-1,Increment      4: Step Time =    1.000,"PART-1-1",           125,       13.1678,      -17.3995,            0.,NA,NA,"",       2.26572,       1.97367,      -1.11271,   71.8351E-03
C:/temp/dataset/7/18_10.odb,Step-1,Increment      4: Step Time =    1.000,"PART-1-1",           126,       12.7891,      -7.32383,            0.,NA,NA,"",       6.33715,       5.88889,      -2.34104,   48.7072E-03
C:/temp/dataset/7/18_10.odb,Step-1,Increment      4: Step Time =    1.000,"PART-1-1",           127,       12.9162,      -9.94117,            0.,NA,NA,"",       5.10455,       4.70194,      -1.98702,   54.9207E-03
C:/temp/dataset/7/18_10.odb,Step-1,Increment      4: Step Time =    1.000,"PART-1-1",           128,       13.0283,   193.158E-03,            0.,NA,NA,"",       10.4931,       9.74015,      -3.90314,   40.6756E-03
C:/temp/dataset/7/18_10.odb,Step-1,Increment      4: Step Time =    1.000,"PART-1-1",           129,       12.9794,      -2.25409,            0.,NA,NA,"",       9.05955,       8.41024,      -3.36798,   43.9999E-03
C:/temp/dataset/7/18_10.odb,Step-1,Increment      4: Step Time =    1.000,"PART-1-1",           130,       13.0689,       7.48049,            0.,NA,NA,"",       15.1436,       14.0584,      -5.62924,   28.9294E-03
C:/temp/dataset/7/18_10.odb,Step-1,Increment      4: Step Time =    1.000,"PART-1-1",           131,       13.0764,       5.05734,            0.,NA,NA,"",       13.5407,       12.5679,      -5.03980,   33.0866E-03
C:/temp/dataset/7/18_10.odb,Step-1,Increment      4: Step Time =    1.000,"PART-1-1",           132,       12.6962,       14.9270,            0.,NA,NA,"",       20.3343,       18.9662,      -7.33257,   16.0446E-03
C:/temp/dataset/7/18_10.odb,Step-1,Increment      4: Step Time =    1.000,"PART-1-1",           133,       12.9459,       12.3607,            0.,NA,NA,"",       18.5078,       17.2091,      -6.81063,   20.2964E-03
C:/temp/dataset/7/18_10.odb,Step-1,Increment      4: Step Time =    1.000,"PART-1-1",           134,       12.9476,       20.4489,            0.,NA,NA,"",       24.3557,       22.6292,      -9.00663,   8.20518E-03
C:/temp/dataset/7/18_10.odb,Step-1,Increment      4: Step Time =    1.000,"PART-1-1",           135,       13.1802,       25.1793,            0.,NA,NA,"",       27.8232,       25.7888,      -10.4436,   1.85436E-03
C:/temp/dataset/7/18_10.odb,Step-1,Increment      4: Step Time =    1.000,"PART-1-1",           136,      -12.4062,       24.9250,            0.,NA,NA,"",       33.0435,       32.3425,       6.76990,   5.76778E-03
C:/temp/dataset/7/18_10.odb,Step-1,Increment      4: Step Time =    1.000,"PART-1-1",           137,       11.3078,       25.3904,            0.,NA,NA,"",       27.9956,       26.4302,      -9.23022,   2.69605E-03
C:/temp/dataset/7/18_10.odb,Step-1,Increment      4: Step Time =    1.000,"PART-1-1",           138,      -10.1009,       25.2443,            0.,NA,NA,"",       32.3827,       31.9675,       5.16897,   4.53656E-03
C:/temp/dataset/7/18_10.odb,Step-1,Increment      4: Step Time =    1.000,"PART-1-1",           139,      -4.83291,       26.5053,            0.,NA,NA,"",       31.4846,       31.4557,       1.35055,   2.77208E-03
C:/temp/dataset/7/18_10.odb,Step-1,Increment      4: Step Time =    1.000,"PART-1-1",           140,       1.72347,       26.1851,            0.,NA,NA,"",       29.6732,       29.5249,      -2.96302,   3.06285E-03
C:/temp/dataset/7/18_10.odb,Step-1,Increment      4: Step Time =    1.000,"PART-1-1",           141,       6.12189,       25.7754,            0.,NA,NA,"",       28.6740,       28.0760,      -5.82517,   3.70749E-03
C:/temp/dataset/7/18_10.odb,Step-1,Increment      4: Step Time =    1.000,"PART-1-1",           142,       7.62725,       25.7499,            0.,NA,NA,"",       28.4884,       27.6560,      -6.83604,   3.56303E-03
C:/temp/dataset/7/18_10.odb,Step-1,Increment      4: Step Time =    1.000,"PART-1-1",           143,       3.76931,       25.0880,            0.,NA,NA,"",       28.5286,       28.2388,      -4.05547,   4.16850E-03
C:/temp/dataset/7/18_10.odb,Step-1,Increment      4: Step Time =    1.000,"PART-1-1",           144,  -231.428E-03,       26.1188,            0.,NA,NA,"",       30.0401,       29.9958,      -1.63068,   3.16774E-03
C:/temp/dataset/7/18_10.odb,Step-1,Increment      4: Step Time =    1.000,"PART-1-1",           145,      -2.48530,       25.9891,            0.,NA,NA,"",       30.4994,       30.4992,  -85.9407E-03,   3.46730E-03
C:/temp/dataset/7/18_10.odb,Step-1,Increment      4: Step Time =    1.000,"PART-1-1",           146,      -3.63425,       26.9302,            0.,NA,NA,"",       31.4331,       31.4300,   440.742E-03,   2.16155E-03
C:/temp/dataset/7/18_10.odb,Step-1,Increment      4: Step Time =    1.000,"PART-1-1",           147,      -8.31738,       25.8431,            0.,NA,NA,"",       32.1400,       31.9101,       3.83727,   3.64510E-03
C:/temp/dataset/7/18_10.odb,Step-1,Increment      4: Step Time =    1.000,"PART-1-1",           148,       9.04714,   705.037E-03,            0.,NA,NA,"",       10.8638,       10.7247,      -1.73281,   19.3899E-03
C:/temp/dataset/7/18_10.odb,Step-1,Increment      4: Step Time =    1.000,"PART-1-1",           149,       7.85197,      -7.06885,            0.,NA,NA,"",       6.60996,       6.60989,  -30.1698E-03,   42.7615E-03
C:/temp/dataset/7/18_10.odb,Step-1,Increment      4: Step Time =    1.000,"PART-1-1",           150,       8.74205,      -22.9842,            0.,NA,NA,"",   730.586E-03,   699.271E-03,   211.606E-03,   43.2145E-03
C:/temp/dataset/7/18_10.odb,Step-1,Increment      4: Step Time =    1.000,"PART-1-1",           151,       9.28078,      -15.1075,            0.,NA,NA,"",       2.91066,       2.91043,  -36.4243E-03,   24.9624E-03
C:/temp/dataset/7/18_10.odb,Step-1,Increment      4: Step Time =    1.000,"PART-1-1",           152,       8.97855,      -1.55139,            0.,NA,NA,"",       9.51536,       9.42432,      -1.31307,   21.4113E-03
C:/temp/dataset/7/18_10.odb,Step-1,Increment      4: Step Time =    1.000,"PART-1-1",           153,       9.09422,       9.69450,            0.,NA,NA,"",       16.7637,       16.3626,      -3.64523,   15.0676E-03
C:/temp/dataset/7/18_10.odb,Step-1,Increment      4: Step Time =    1.000,"PART-1-1",           154,       8.44946,       15.5970,            0.,NA,NA,"",       21.0101,       20.4787,      -4.69559,   13.6983E-03
C:/temp/dataset/7/18_10.odb,Step-1,Increment      4: Step Time =    1.000,"PART-1-1",           155,       9.11701,       7.46178,            0.,NA,NA,"",       15.2315,       14.9035,      -3.14375,   15.8043E-03
C:/temp/dataset/7/18_10.odb,Step-1,Increment      4: Step Time =    1.000,"PART-1-1",           156,       8.83101,       13.9442,            0.,NA,NA,"",       19.7848,       19.2612,      -4.52186,   14.0381E-03
C:/temp/dataset/7/18_10.odb,Step-1,Increment      4: Step Time =    1.000,"PART-1-1",           157,       9.61385,      -19.9311,            0.,NA,NA,"",       1.36808,       1.36773,   30.7295E-03,   20.9038E-03
C:/temp/dataset/7/18_10.odb,Step-1,Increment      4: Step Time =    1.000,"PART-1-1",           158,       9.10031,       2.95854,            0.,NA,NA,"",       12.2690,       12.0728,      -2.18500,   17.8098E-03
C:/temp/dataset/7/18_10.odb,Step-1,Increment      4: Step Time =    1.000,"PART-1-1",           159,       9.17986,      -12.8049,            0.,NA,NA,"",       3.81418,       3.81188,  -132.512E-03,   25.4594E-03
C:/temp/dataset/7/18_10.odb,Step-1,Increment      4: Step Time =    1.000,"PART-1-1",           160,       8.54844,      -8.43147,            0.,NA,NA,"",       5.84401,       5.83988,  -219.662E-03,   32.7527E-03
C:/temp/dataset/7/18_10.odb,Step-1,Increment      4: Step Time =    1.000,"PART-1-1",           161,       8.46228,      -5.79934,            0.,NA,NA,"",       7.19393,       7.17936,  -457.566E-03,   31.6255E-03
C:/temp/dataset/7/18_10.odb,Step-1,Increment      4: Step Time =    1.000,"PART-1-1",           162,       8.97830,      -10.5487,            0.,NA,NA,"",       4.80565,       4.80064,  -219.457E-03,   27.4369E-03
C:/temp/dataset/7/18_10.odb,Step-1,Increment      4: Step Time =    1.000,"PART-1-1",           163,       8.84007,      -3.76868,            0.,NA,NA,"",       8.25883,       8.20880,  -907.686E-03,   24.5819E-03
C:/temp/dataset/7/18_10.odb,Step-1,Increment      4: Step Time =    1.000,"PART-1-1",           164,       9.12644,       5.21383,            0.,NA,NA,"",       13.7287,       13.4686,      -2.65931,   16.6451E-03
C:/temp/dataset/7/18_10.odb,Step-1,Increment      4: Step Time =    1.000,"PART-1-1",           165,       9.36869,      -17.5094,            0.,NA,NA,"",       2.08382,       2.08356,   32.8850E-03,   24.6374E-03
C:/temp/dataset/7/18_10.odb,Step-1,Increment      4: Step Time =    1.000,"PART-1-1",           166,       9.01212,       11.8707,            0.,NA,NA,"",       18.2938,       17.8240,      -4.11941,   14.5070E-03
C:/temp/dataset/7/18_10.odb,Step-1,Increment      4: Step Time =    1.000,"PART-1-1",           167,       9.60003,       16.9835,            0.,NA,NA,"",       21.9189,       21.1310,      -5.82372,   13.6519E-03
C:/temp/dataset/7/18_10.odb,Step-1,Increment      4: Step Time =    1.000,"PART-1-1",           168,       7.13047,       19.6676,            0.,NA,NA,"",       24.1198,       23.6188,      -4.89052,   15.0338E-03
C:/temp/dataset/7/18_10.odb,Step-1,Increment      4: Step Time =    1.000,"PART-1-1",           169,       9.55406,      -25.2995,            0.,NA,NA,"",   299.217E-03,   292.445E-03,   63.2981E-03,   25.0364E-03
C:/temp/dataset/7/18_10.odb,Step-1,Increment      4: Step Time =    1.000,"PART-1-1",           170,       12.3800,      -27.4389,            0.,NA,NA,"",   157.323E-03,   78.6816E-03,  -136.234E-03,   66.9468E-03
C:/temp/dataset/7/18_10.odb,Step-1,Increment      4: Step Time =    1.000,"PART-1-1",           171,      -11.9351,       22.4166,            0.,NA,NA,"",       31.3671,       30.5576,       7.08019,   9.88186E-03
C:/temp/dataset/7/18_10.odb,Step-1,Increment      4: Step Time =    1.000,"PART-1-1",           172,       10.9842,      -1.93535,            0.,NA,NA,"",       9.18433,       8.88257,      -2.33491,   18.0062E-03
C:/temp/dataset/7/18_10.odb,Step-1,Increment      4: Step Time =    1.000,"PART-1-1",           173,       11.2234,      -14.9909,            0.,NA,NA,"",       2.91583,       2.82838,  -708.747E-03,   26.1206E-03
C:/temp/dataset/7/18_10.odb,Step-1,Increment      4: Step Time =    1.000,"PART-1-1",           174,       11.0574,       21.1283,            0.,NA,NA,"",       24.8799,       23.5871,      -7.91560,   8.95198E-03
C:/temp/dataset/7/18_10.odb,Step-1,Increment      4: Step Time =    1.000,"PART-1-1",           175,       10.7466,       19.4847,            0.,NA,NA,"",       23.6854,       22.5446,      -7.26217,   11.3103E-03
C:/temp/dataset/7/18_10.odb,Step-1,Increment      4: Step Time =    1.000,"PART-1-1",           176,       11.0568,   433.028E-03,            0.,NA,NA,"",       10.5901,       10.2075,      -2.82091,   17.9361E-03
C:/temp/dataset/7/18_10.odb,Step-1,Increment      4: Step Time =    1.000,"PART-1-1",           177,       10.9662,       12.1205,            0.,NA,NA,"",       18.3500,       17.5219,      -5.45013,   14.2975E-03
C:/temp/dataset/7/18_10.odb,Step-1,Increment      4: Step Time =    1.000,"PART-1-1",           178,       11.6216,      -21.4567,            0.,NA,NA,"",       1.01453,   946.993E-03,  -363.962E-03,   37.9401E-03
C:/temp/dataset/7/18_10.odb,Step-1,Increment      4: Step Time =    1.000,"PART-1-1",           179,       11.2975,      -17.3958,            0.,NA,NA,"",       2.09815,       2.02714,  -541.259E-03,   28.5894E-03
C:/temp/dataset/7/18_10.odb,Step-1,Increment      4: Step Time =    1.000,"PART-1-1",           180,       10.6273,       14.4803,            0.,NA,NA,"",       20.0478,       19.1778,      -5.84157,   13.6310E-03
C:/temp/dataset/7/18_10.odb,Step-1,Increment      4: Step Time =    1.000,"PART-1-1",           181,       11.1012,       2.78293,            0.,NA,NA,"",       12.0489,       11.5805,      -3.32701,   17.4751E-03
C:/temp/dataset/7/18_10.odb,Step-1,Increment      4: Step Time =    1.000,"PART-1-1",           182,       11.1153,       7.46695,            0.,NA,NA,"",       15.1209,       14.4690,      -4.39178,   15.9361E-03
C:/temp/dataset/7/18_10.odb,Step-1,Increment      4: Step Time =    1.000,"PART-1-1",           183,       11.1247,      -12.5851,            0.,NA,NA,"",       3.84959,       3.74300,  -899.630E-03,   23.4497E-03
C:/temp/dataset/7/18_10.odb,Step-1,Increment      4: Step Time =    1.000,"PART-1-1",           184,       10.4094,      -7.19663,            0.,NA,NA,"",       6.33335,       6.21502,      -1.21857,   14.1723E-03
C:/temp/dataset/7/18_10.odb,Step-1,Increment      4: Step Time =    1.000,"PART-1-1",           185,       10.4303,      -22.2648,            0.,NA,NA,"",   798.761E-03,   793.447E-03,  -91.9858E-03,   14.2640E-03
C:/temp/dataset/7/18_10.odb,Step-1,Increment      4: Step Time =    1.000,"PART-1-1",           186,       10.9130,      -10.1038,            0.,NA,NA,"",       4.92629,       4.80543,      -1.08453,   19.3438E-03
C:/temp/dataset/7/18_10.odb,Step-1,Increment      4: Step Time =    1.000,"PART-1-1",           187,       10.8491,      -4.38491,            0.,NA,NA,"",       7.80592,       7.58418,      -1.84732,   17.3677E-03
C:/temp/dataset/7/18_10.odb,Step-1,Increment      4: Step Time =    1.000,"PART-1-1",           188,       11.1275,       5.13070,            0.,NA,NA,"",       13.5633,       13.0033,      -3.85716,   16.8084E-03
C:/temp/dataset/7/18_10.odb,Step-1,Increment      4: Step Time =    1.000,"PART-1-1",           189,       11.0819,       9.79848,            0.,NA,NA,"",       16.7191,       15.9732,      -4.93799,   15.0986E-03
C:/temp/dataset/7/18_10.odb,Step-1,Increment      4: Step Time =    1.000,"PART-1-1",           190,       12.1026,      -24.5603,            0.,NA,NA,"",   467.582E-03,   380.930E-03,  -271.155E-03,   53.7657E-03
C:/temp/dataset/7/18_10.odb,Step-1,Increment      4: Step Time =    1.000,"PART-1-1",           191,      -7.61069,       24.2264,            0.,NA,NA,"",       30.8814,       30.6496,       3.77643,   6.14295E-03
C:/temp/dataset/7/18_10.odb,Step-1,Increment      4: Step Time =    1.000,"PART-1-1",           192,      -5.77678,       24.2650,            0.,NA,NA,"",       30.3076,       30.2002,       2.54978,   6.03227E-03
C:/temp/dataset/7/18_10.odb,Step-1,Increment      4: Step Time =    1.000,"PART-1-1",           193,       1.00958,       23.8763,            0.,NA,NA,"",       28.2168,       28.1540,      -1.88143,   5.88796E-03
C:/temp/dataset/7/18_10.odb,Step-1,Increment      4: Step Time =    1.000,"PART-1-1",           194,      -3.86757,       24.8145,            0.,NA,NA,"",       30.0927,       30.0712,       1.13895,   5.16706E-03
C:/temp/dataset/7/18_10.odb,Step-1,Increment      4: Step Time =    1.000,"PART-1-1",           195,  -996.969E-03,       24.6602,            0.,NA,NA,"",       29.2237,       29.2144,  -739.648E-03,   5.22710E-03
C:/temp/dataset/7/18_10.odb,Step-1,Increment      4: Step Time =    1.000,"PART-1-1",           196,       7.19995,       21.7613,            0.,NA,NA,"",       25.6406,       25.0450,      -5.49425,   11.4520E-03
C:/temp/dataset/7/18_10.odb,Step-1,Increment      4: Step Time =    1.000,"PART-1-1",           197,       2.92747,       22.7842,            0.,NA,NA,"",       27.0561,       26.9019,      -2.88509,   6.89280E-03
C:/temp/dataset/7/18_10.odb,Step-1,Increment      4: Step Time =    1.000,"PART-1-1",           198,       5.53232,       24.2100,            0.,NA,NA,"",       27.6288,       27.1698,      -5.01514,   5.76130E-03
C:/temp/dataset/7/18_10.odb,Step-1,Increment      4: Step Time =    1.000,"PART-1-1",           199,       9.18626,       19.3402,            0.,NA,NA,"",       23.6717,       22.8512,      -6.17867,   12.9189E-03
C:/temp/dataset/7/18_10.odb,Step-1,Increment      4: Step Time =    1.000,"PART-1-1",           200,       11.2321,       23.1770,            0.,NA,NA,"",       26.3773,       24.9409,      -8.58569,   5.58927E-03
C:/temp/dataset/7/18_10.odb,Step-1,Increment      4: Step Time =    1.000,"PART-1-1",           201,       5.11021,       22.1378,            0.,NA,NA,"",       26.2080,       25.8716,      -4.18583,   8.42107E-03
C:/temp/dataset/7/18_10.odb,Step-1,Increment      4: Step Time =    1.000,"PART-1-1",           202,   167.280E-03,       22.2372,            0.,NA,NA,"",       27.2839,       27.2694,  -892.272E-03,   8.86828E-03
C:/temp/dataset/7/18_10.odb,Step-1,Increment      4: Step Time =    1.000,"PART-1-1",           203,      -2.32264,       22.6339,            0.,NA,NA,"",       28.2066,       28.1987,   667.112E-03,   8.33192E-03
C:/temp/dataset/7/18_10.odb,Step-1,Increment      4: Step Time =    1.000,"PART-1-1",           204,       9.17324,       21.4477,            0.,NA,NA,"",       25.2184,       24.3023,      -6.73539,   10.2618E-03
C:/temp/dataset/7/18_10.odb,Step-1,Increment      4: Step Time =    1.000,"PART-1-1",           205,       9.43619,       25.5889,            0.,NA,NA,"",       28.2259,       27.0636,      -8.01647,   3.27385E-03
C:/temp/dataset/7/18_10.odb,Step-1,Increment      4: Step Time =    1.000,"PART-1-1",           206,      -5.39738,       22.2321,            0.,NA,NA,"",       28.8756,       28.7382,       2.81319,   9.00437E-03
C:/temp/dataset/7/18_10.odb,Step-1,Increment      4: Step Time =    1.000,"PART-1-1",           207,      -8.66915,       22.6604,            0.,NA,NA,"",       30.2719,       29.8776,       4.86990,   8.48179E-03
C:/temp/dataset/7/18_10.odb,Step-1,Increment      4: Step Time =    1.000,"PART-1-1",           208,      -12.8188,       27.4435,            0.,NA,NA,"",       34.7097,       34.1114,       6.41642,   1.49753E-03
C:/temp/dataset/7/18_10.odb,Step-1,Increment      4: Step Time =    1.000,"PART-1-1",           209,       7.43992,       23.7550,            0.,NA,NA,"",       27.0621,       26.3464,      -6.18238,   6.45984E-03
C:/temp/dataset/7/18_10.odb,Step-1,Increment      4: Step Time =    1.000,"PART-1-1",           210,      -6.48406,       26.1481,            0.,NA,NA,"",       31.7447,       31.6428,       2.54194,   3.27528E-03
C:/temp/dataset/7/18_10.odb,Step-1,Increment      4: Step Time =    1.000,"PART-1-1",           211,       3.18484,       28.0088,            0.,NA,NA,"",       30.6916,       30.3707,      -4.42656,   1.37475E-03
C:/temp/dataset/7/18_10.odb,Step-1,Increment      4: Step Time =    1.000,"PART-1-1",           212,       11.4304,      -19.6429,            0.,NA,NA,"",       1.44910,       1.38476,  -427.000E-03,   32.4002E-03
C:/temp/dataset/7/18_10.odb,Step-1,Increment      4: Step Time =    1.000,"PART-1-1",           213,       9.33060,       23.4727,            0.,NA,NA,"",       26.6889,       25.6477,      -7.38194,   6.41740E-03
C:/temp/dataset/7/18_10.odb,Step-1,Increment      4: Step Time =    1.000,"PART-1-1",           214,      -12.1707,       23.6708,            0.,NA,NA,"",       32.2044,       31.4510,       6.92500,   8.09583E-03
C:/temp/dataset/7/18_10.odb,Step-1,Increment      4: Step Time =    1.000,"PART-1-1",           215,      -13.7031,       24.9625,            0.,NA,NA,"",       33.5713,       32.6963,       7.61492,   5.86824E-03
C:/temp/dataset/7/18_10.odb,Step-1,Increment      4: Step Time =    1.000,"PART-1-1",           216,          -15.,         23.75,            0.,NA,NA,"",       33.3941,       32.2251,       8.75823,   8.62341E-03
C:/temp/dataset/7/18_10.odb,Step-1,Increment      4: Step Time =    1.000,"PART-1-1",           217,      -13.4675,       22.4583,            0.,NA,NA,"",       32.0125,       30.9776,       8.07413,   10.1251E-03
C:/temp/dataset/7/18_10.odb,Step-1,Increment      4: Step Time =    1.000,"PART-1-1",           218,      -9.86170,       27.7278,            0.,NA,NA,"",       33.8425,       33.5570,       4.38653,   738.976E-06
C:/temp/dataset/7/18_10.odb,Step-1,Increment      4: Step Time =    1.000,"PART-1-1",           219,      -10.4490,       26.4258,            0.,NA,NA,"",       33.2351,       32.8409,       5.10327,   2.59483E-03
C:/temp/dataset/7/18_10.odb,Step-1,Increment      4: Step Time =    1.000,"PART-1-1",           220,      -9.20914,       25.5437,            0.,NA,NA,"",       32.2548,       31.9388,       4.50376,   4.09864E-03
C:/temp/dataset/7/18_10.odb,Step-1,Increment      4: Step Time =    1.000,"PART-1-1",           221,      -8.62185,       26.8458,            0.,NA,NA,"",       32.8745,       32.6557,       3.78618,   2.15807E-03
C:/temp/dataset/7/18_10.odb,Step-1,Increment      4: Step Time =    1.000,"PART-1-1",           222,      -9.15066,       28.9242,            0.,NA,NA,"",       34.3626,       34.1723,       3.61189,   824.400E-06
C:/temp/dataset/7/18_10.odb,Step-1,Increment      4: Step Time =    1.000,"PART-1-1",           223,      -10.3125,           30.,            0.,NA,NA,"",       35.4177,       35.1782,       4.11239,   2.20608E-03
C:/temp/dataset/7/18_10.odb,Step-1,Increment      4: Step Time =    1.000,"PART-1-1",           224,      -11.0235,       28.8036,            0.,NA,NA,"",       34.9069,       34.5632,       4.88615,   699.942E-06
C:/temp/dataset/7/18_10.odb,Step-1,Increment      4: Step Time =    1.000,"PART-1-1",           225,      -11.2536,       25.0847,            0.,NA,NA,"",       32.7049,       32.1553,       5.97030,   4.95744E-03
C:/temp/dataset/7/18_10.odb,Step-1,Increment      4: Step Time =    1.000,"PART-1-1",           226,      -10.3021,       22.5385,            0.,NA,NA,"",       30.8037,       30.2183,       5.97669,   9.01730E-03
C:/temp/dataset/7/18_10.odb,Step-1,Increment      4: Step Time =    1.000,"PART-1-1",           227,      -9.38503,       23.9523,            0.,NA,NA,"",       31.3288,       30.9242,       5.01920,   6.56006E-03
C:/temp/dataset/7/18_10.odb,Step-1,Increment      4: Step Time =    1.000,"PART-1-1",           228,      -12.9719,       28.7217,            0.,NA,NA,"",       35.5404,       34.9960,       6.19679,   1.05972E-03
C:/temp/dataset/7/18_10.odb,Step-1,Increment      4: Step Time =    1.000,"PART-1-1",           229,      -14.0625,           30.,            0.,NA,NA,"",       36.7119,       36.1142,       6.59797,   436.873E-06
C:/temp/dataset/7/18_10.odb,Step-1,Increment      4: Step Time =    1.000,"PART-1-1",           230,          -15.,         28.75,            0.,NA,NA,"",       36.3109,       35.5214,       7.53073,   539.028E-06
C:/temp/dataset/7/18_10.odb,Step-1,Increment      4: Step Time =    1.000,"PART-1-1",           231,      -13.9094,       27.4717,            0.,NA,NA,"",       35.1331,       34.4022,       7.12912,   1.54179E-03
C:/temp/dataset/7/18_10.odb,Step-1,Increment      4: Step Time =    1.000,"PART-1-1",           232,      -7.40072,       25.9956,            0.,NA,NA,"",       31.9364,       31.7767,       3.19013,   3.46920E-03
C:/temp/dataset/7/18_10.odb,Step-1,Increment      4: Step Time =    1.000,"PART-1-1",           233,      -7.96404,       25.0347,            0.,NA,NA,"",       31.5111,       31.2803,       3.80684,   4.92286E-03
C:/temp/dataset/7/18_10.odb,Step-1,Increment      4: Step Time =    1.000,"PART-1-1",           234,      -6.69374,       24.2457,            0.,NA,NA,"",       30.5892,       30.4252,       3.16354,   6.07502E-03
C:/temp/dataset/7/18_10.odb,Step-1,Increment      4: Step Time =    1.000,"PART-1-1",           235,      -6.13042,       25.2066,            0.,NA,NA,"",       31.0267,       30.9220,       2.54585,   4.64563E-03
C:/temp/dataset/7/18_10.odb,Step-1,Increment      4: Step Time =    1.000,"PART-1-1",           236,      -5.46940,       29.1125,            0.,NA,NA,"",       33.3815,       33.3631,       1.10819,   1.04462E-03
C:/temp/dataset/7/18_10.odb,Step-1,Increment      4: Step Time =    1.000,"PART-1-1",           237,      -4.41178,       28.2246,            0.,NA,NA,"",       32.5042,       32.4981,   628.421E-03,   323.347E-06
C:/temp/dataset/7/18_10.odb,Step-1,Increment      4: Step Time =    1.000,"PART-1-1",           238,      -3.62988,       29.1121,            0.,NA,NA,"",       32.8914,       32.8912,  -124.026E-03,   984.645E-06
C:/temp/dataset/7/18_10.odb,Step-1,Increment      4: Step Time =    1.000,"PART-1-1",           239,       -4.6875,           30.,            0.,NA,NA,"",       33.7583,       33.7564,   356.333E-03,   2.31850E-03
C:/temp/dataset/7/18_10.odb,Step-1,Increment      4: Step Time =    1.000,"PART-1-1",           240,  -467.629E-03,       27.9420,            0.,NA,NA,"",       31.3461,       31.2857,      -1.94542,   958.866E-06
C:/temp/dataset/7/18_10.odb,Step-1,Increment      4: Step Time =    1.000,"PART-1-1",           241,  -845.263E-03,       26.9234,            0.,NA,NA,"",       30.7320,       30.6988,      -1.42706,   2.15111E-03
C:/temp/dataset/7/18_10.odb,Step-1,Increment      4: Step Time =    1.000,"PART-1-1",           242,   746.021E-03,       26.1520,            0.,NA,NA,"",       29.8492,       29.7607,      -2.29632,   3.09716E-03
C:/temp/dataset/7/18_10.odb,Step-1,Increment      4: Step Time =    1.000,"PART-1-1",           243,       1.12365,       27.1705,            0.,NA,NA,"",       30.4788,       30.3484,      -2.81599,   1.91974E-03
C:/temp/dataset/7/18_10.odb,Step-1,Increment      4: Step Time =    1.000,"PART-1-1",           244,       14.0901,       25.0896,            0.,NA,NA,"",       27.7732,       25.4855,      -11.0380,   1.09173E-03
C:/temp/dataset/7/18_10.odb,Step-1,Increment      4: Step Time =    1.000,"PART-1-1",           245,       13.1528,       23.9903,            0.,NA,NA,"",       26.9528,       24.9866,      -10.1055,   3.16243E-03
C:/temp/dataset/7/18_10.odb,Step-1,Increment      4: Step Time =    1.000,"PART-1-1",           246,       14.0627,       22.6507,            0.,NA,NA,"",       25.9883,       23.8331,      -10.3622,   3.41519E-03
C:/temp/dataset/7/18_10.odb,Step-1,Increment      4: Step Time =    1.000,"PART-1-1",           247,           15.,         23.75,            0.,NA,NA,"",       26.8260,       24.3311,      -11.2976,   1.86439E-03
C:/temp/dataset/7/18_10.odb,Step-1,Increment      4: Step Time =    1.000,"PART-1-1",           248,       11.2764,       28.8302,            0.,NA,NA,"",       30.5077,       28.7782,      -10.1259,   468.150E-06
C:/temp/dataset/7/18_10.odb,Step-1,Increment      4: Step Time =    1.000,"PART-1-1",           249,       10.3125,           30.,            0.,NA,NA,"",       31.3921,       29.8289,      -9.78264,   105.719E-06
C:/temp/dataset/7/18_10.odb,Step-1,Increment      4: Step Time =    1.000,"PART-1-1",           250,       9.39543,       28.8642,            0.,NA,NA,"",       30.6114,       29.3016,      -8.85880,   760.969E-06
C:/temp/dataset/7/18_10.odb,Step-1,Increment      4: Step Time =    1.000,"PART-1-1",           251,       10.3594,       27.6945,            0.,NA,NA,"",       29.7112,       28.2504,      -9.20162,   1.13088E-03
C:/temp/dataset/7/18_10.odb,Step-1,Increment      4: Step Time =    1.000,"PART-1-1",           252,        8.4375,           30.,            0.,NA,NA,"",       31.4986,       30.3271,      -8.51047,   236.208E-06
C:/temp/dataset/7/18_10.odb,Step-1,Increment      4: Step Time =    1.000,"PART-1-1",           253,       7.48312,       28.8587,            0.,NA,NA,"",       30.7503,       29.8062,      -7.56086,   904.500E-06
C:/temp/dataset/7/18_10.odb,Step-1,Increment      4: Step Time =    1.000,"PART-1-1",           254,       8.44105,       27.7230,            0.,NA,NA,"",       29.8473,       28.7803,      -7.90911,   1.43940E-03
C:/temp/dataset/7/18_10.odb,Step-1,Increment      4: Step Time =    1.000,"PART-1-1",           255,       13.0365,       21.6252,            0.,NA,NA,"",       25.2186,       23.4065,      -9.38692,   6.32409E-03
C:/temp/dataset/7/18_10.odb,Step-1,Increment      4: Step Time =    1.000,"PART-1-1",           256,       13.9738,       20.2245,            0.,NA,NA,"",       24.2104,       22.2078,      -9.64155,   7.37700E-03
C:/temp/dataset/7/18_10.odb,Step-1,Increment      4: Step Time =    1.000,"PART-1-1",           257,           15.,         21.25,            0.,NA,NA,"",       25.0000,       22.6317,      -10.6211,   5.64574E-03
C:/temp/dataset/7/18_10.odb,Step-1,Increment      4: Step Time =    1.000,"PART-1-1",           258,       6.90015,       14.7921,            0.,NA,NA,"",       20.6198,       20.3264,      -3.46643,   17.2724E-03
C:/temp/dataset/7/18_10.odb,Step-1,Increment      4: Step Time =    1.000,"PART-1-1",           259,       5.93474,       15.8126,            0.,NA,NA,"",       21.5002,       21.2781,      -3.08236,   18.3678E-03
C:/temp/dataset/7/18_10.odb,Step-1,Increment      4: Step Time =    1.000,"PART-1-1",           260,            5.,       14.7917,            0.,NA,NA,"",       20.9422,       20.8255,      -2.20792,   25.2433E-03
C:/temp/dataset/7/18_10.odb,Step-1,Increment      4: Step Time =    1.000,"PART-1-1",           261,       5.96541,       13.7711,            0.,NA,NA,"",       20.0405,       19.8713,      -2.59888,   23.0255E-03
C:/temp/dataset/7/18_10.odb,Step-1,Increment      4: Step Time =    1.000,"PART-1-1",           262,       7.07741,       8.55300,            0.,NA,NA,"",       16.2216,       16.0835,      -2.11218,   27.3266E-03
C:/temp/dataset/7/18_10.odb,Step-1,Increment      4: Step Time =    1.000,"PART-1-1",           263,       6.03400,       9.60662,            0.,NA,NA,"",       17.1188,       17.0359,      -1.68308,   32.5798E-03
C:/temp/dataset/7/18_10.odb,Step-1,Increment      4: Step Time =    1.000,"PART-1-1",           264,            5.,       8.54167,            0.,NA,NA,"",       16.5992,       16.5797,  -803.235E-03,   43.6627E-03
C:/temp/dataset/7/18_10.odb,Step-1,Increment      4: Step Time =    1.000,"PART-1-1",           265,       6.04341,       7.48805,            0.,NA,NA,"",       15.6756,       15.6263,      -1.24165,   37.6159E-03
C:/temp/dataset/7/18_10.odb,Step-1,Increment      4: Step Time =    1.000,"PART-1-1",           266,            5.,         4.375,            0.,NA,NA,"",       13.8393,       13.8392,  -19.4385E-03,   56.4137E-03
C:/temp/dataset/7/18_10.odb,Step-1,Increment      4: Step Time =    1.000,"PART-1-1",           267,       6.03822,       3.24050,            0.,NA,NA,"",       12.8899,       12.8823,  -441.929E-03,   48.0176E-03
C:/temp/dataset/7/18_10.odb,Step-1,Increment      4: Step Time =    1.000,"PART-1-1",           268,       7.08368,       4.22909,            0.,NA,NA,"",       13.3392,       13.2817,      -1.23721,   34.9532E-03
C:/temp/dataset/7/18_10.odb,Step-1,Increment      4: Step Time =    1.000,"PART-1-1",           269,       6.04546,       5.36359,            0.,NA,NA,"",       14.2625,       14.2385,  -826.666E-03,   42.7553E-03
C:/temp/dataset/7/18_10.odb,Step-1,Increment      4: Step Time =    1.000,"PART-1-1",           270,            5.,       2.29167,            0.,NA,NA,"",       12.5139,       12.5098,   317.542E-03,   62.8133E-03
C:/temp/dataset/7/18_10.odb,Step-1,Increment      4: Step Time =    1.000,"PART-1-1",           271,       6.01828,       1.12309,            0.,NA,NA,"",       11.5663,       11.5659,  -89.4531E-03,   53.4637E-03
C:/temp/dataset/7/18_10.odb,Step-1,Increment      4: Step Time =    1.000,"PART-1-1",           272,       7.05649,       2.07193,            0.,NA,NA,"",       11.9672,       11.9380,  -835.580E-03,   39.1644E-03
C:/temp/dataset/7/18_10.odb,Step-1,Increment      4: Step Time =    1.000,"PART-1-1",           273,       7.00178,  -77.9012E-03,            0.,NA,NA,"",       10.6522,       10.6423,  -459.648E-03,   43.8179E-03
C:/temp/dataset/7/18_10.odb,Step-1,Increment      4: Step Time =    1.000,"PART-1-1",           274,            5.,   208.333E-03,            0.,NA,NA,"",       11.2313,       11.2145,   614.357E-03,   69.2174E-03
C:/temp/dataset/7/18_10.odb,Step-1,Increment      4: Step Time =    1.000,"PART-1-1",           275,       5.98350,  -992.661E-03,            0.,NA,NA,"",       10.2946,       10.2921,   229.388E-03,   59.1722E-03
C:/temp/dataset/7/18_10.odb,Step-1,Increment      4: Step Time =    1.000,"PART-1-1",           276,       6.59145,      -6.15040,            0.,NA,NA,"",       7.28959,       7.27356,   483.149E-03,   62.0504E-03
C:/temp/dataset/7/18_10.odb,Step-1,Increment      4: Step Time =    1.000,"PART-1-1",           277,       5.82593,      -5.11028,            0.,NA,NA,"",       7.99589,       7.95920,   765.108E-03,   71.9665E-03
C:/temp/dataset/7/18_10.odb,Step-1,Increment      4: Step Time =    1.000,"PART-1-1",           278,            5.,      -6.04167,            0.,NA,NA,"",       7.68994,       7.58892,       1.24233,   88.3180E-03
C:/temp/dataset/7/18_10.odb,Step-1,Increment      4: Step Time =    1.000,"PART-1-1",           279,       5.76552,      -7.08179,            0.,NA,NA,"",       6.97480,       6.91016,   947.340E-03,   78.2527E-03
C:/temp/dataset/7/18_10.odb,Step-1,Increment      4: Step Time =    1.000,"PART-1-1",           280,       8.25955,      -15.2021,            0.,NA,NA,"",       2.97028,       2.95408,   309.852E-03,   45.4232E-03
C:/temp/dataset/7/18_10.odb,Step-1,Increment      4: Step Time =    1.000,"PART-1-1",           281,       9.23032,      -13.9562,            0.,NA,NA,"",       3.34942,       3.34846,  -80.0310E-03,   25.1792E-03
C:/temp/dataset/7/18_10.odb,Step-1,Increment      4: Step Time =    1.000,"PART-1-1",           282,       8.16037,      -12.9544,            0.,NA,NA,"",       3.85353,       3.84473,   260.319E-03,   44.7796E-03
C:/temp/dataset/7/18_10.odb,Step-1,Increment      4: Step Time =    1.000,"PART-1-1",           283,       7.18960,      -14.2003,            0.,NA,NA,"",       3.49526,       3.43366,   653.316E-03,   66.5275E-03
C:/temp/dataset/7/18_10.odb,Step-1,Increment      4: Step Time =    1.000,"PART-1-1",           284,            5.,      -22.7083,            0.,NA,NA,"",       1.30706,   967.182E-03,   879.182E-03,   136.520E-03
C:/temp/dataset/7/18_10.odb,Step-1,Increment      4: Step Time =    1.000,"PART-1-1",           285,       5.97351,      -23.6835,            0.,NA,NA,"",   941.450E-03,   705.414E-03,   623.473E-03,   114.129E-03
C:/temp/dataset/7/18_10.odb,Step-1,Increment      4: Step Time =    1.000,"PART-1-1",           286,       6.71140,      -22.7416,            0.,NA,NA,"",       1.02153,   846.776E-03,   571.389E-03,   93.2531E-03
C:/temp/dataset/7/18_10.odb,Step-1,Increment      4: Step Time =    1.000,"PART-1-1",           287,       5.73789,      -21.7664,            0.,NA,NA,"",       1.39545,       1.12654,   823.519E-03,   115.659E-03
C:/temp/dataset/7/18_10.odb,Step-1,Increment      4: Step Time =    1.000,"PART-1-1",           288,       9.95056,      -28.8261,            0.,NA,NA,"",   7.38548E-03,  -6.19692E-03,   4.01790E-03,   7.40821E-03
C:/temp/dataset/7/18_10.odb,Step-1,Increment      4: Step Time =    1.000,"PART-1-1",           289,       8.67404,      -27.7482,            0.,NA,NA,"",   96.9506E-03,   62.1422E-03,   74.4162E-03,   48.6539E-03
C:/temp/dataset/7/18_10.odb,Step-1,Increment      4: Step Time =    1.000,"PART-1-1",           290,       7.47347,      -28.9221,            0.,NA,NA,"",   63.4636E-03,   20.7172E-03,   59.9869E-03,   69.4147E-03
C:/temp/dataset/7/18_10.odb,Step-1,Increment      4: Step Time =    1.000,"PART-1-1",           291,          8.75,          -30.,            0.,NA,NA,"",            0.,  -137.481E-42,  -641.028E-42,   32.3152E-03
C:/temp/dataset/7/18_10.odb,Step-1,Increment      4: Step Time =    1.000,"PART-1-1",           292,       9.14805,      -24.1419,            0.,NA,NA,"",   494.199E-03,   477.041E-03,   129.091E-03,   33.9309E-03
C:/temp/dataset/7/18_10.odb,Step-1,Increment      4: Step Time =    1.000,"PART-1-1",           293,       7.84454,      -23.3007,            0.,NA,NA,"",   761.869E-03,   676.302E-03,   350.800E-03,   65.5640E-03
C:/temp/dataset/7/18_10.odb,Step-1,Increment      4: Step Time =    1.000,"PART-1-1",           294,       7.10828,      -24.6604,            0.,NA,NA,"",   611.149E-03,   474.272E-03,   385.445E-03,   87.3226E-03
C:/temp/dataset/7/18_10.odb,Step-1,Increment      4: Step Time =    1.000,"PART-1-1",           295,       8.41180,      -25.5016,            0.,NA,NA,"",   350.182E-03,   297.522E-03,   184.684E-03,   54.7344E-03
C:/temp/dataset/7/18_10.odb,Step-1,Increment      4: Step Time =    1.000,"PART-1-1",           296,       7.00425,      -21.1298,            0.,NA,NA,"",       1.34012,       1.19693,   602.740E-03,   83.3300E-03
C:/temp/dataset/7/18_10.odb,Step-1,Increment      4: Step Time =    1.000,"PART-1-1",           297,       6.26636,      -19.9884,            0.,NA,NA,"",       1.75227,       1.54629,   824.292E-03,   98.7836E-03
C:/temp/dataset/7/18_10.odb,Step-1,Increment      4: Step Time =    1.000,"PART-1-1",           298,            5.,       -20.625,            0.,NA,NA,"",       1.82161,       1.47098,       1.07447,   131.480E-03
C:/temp/dataset/7/18_10.odb,Step-1,Increment      4: Step Time =    1.000,"PART-1-1",           299,       12.8526,      -8.63250,            0.,NA,NA,"",       5.70642,       5.28192,      -2.15974,   51.7823E-03
C:/temp/dataset/7/18_10.odb,Step-1,Increment      4: Step Time =    1.000,"PART-1-1",           300,       13.9581,      -9.97058,            0.,NA,NA,"",       5.22257,       4.61009,      -2.45403,   75.6735E-03
C:/temp/dataset/7/18_10.odb,Step-1,Increment      4: Step Time =    1.000,"PART-1-1",           301,           15.,         -8.75,            0.,NA,NA,"",       5.95959,       5.05001,      -3.16450,   93.3498E-03
C:/temp/dataset/7/18_10.odb,Step-1,Increment      4: Step Time =    1.000,"PART-1-1",           302,       13.8945,      -7.41192,            0.,NA,NA,"",       6.41531,       5.73818,      -2.86871,   68.9267E-03
C:/temp/dataset/7/18_10.odb,Step-1,Increment      4: Step Time =    1.000,"PART-1-1",           303,            5.,        10.625,            0.,NA,NA,"",       18.0243,       17.9813,      -1.24414,   37.3629E-03
C:/temp/dataset/7/18_10.odb,Step-1,Increment      4: Step Time =    1.000,"PART-1-1",           304,       7.03988,       10.6820,            0.,NA,NA,"",       17.6956,       17.5085,      -2.56632,   23.8473E-03
C:/temp/dataset/7/18_10.odb,Step-1,Increment      4: Step Time =    1.000,"PART-1-1",           305,       6.00589,       11.7004,            0.,NA,NA,"",       18.5756,       18.4525,      -2.13553,   27.7497E-03
C:/temp/dataset/7/18_10.odb,Step-1,Increment      4: Step Time =    1.000,"PART-1-1",           306,       2.74639,       25.6366,            0.,NA,NA,"",       29.0952,       28.8828,      -3.50906,   3.63155E-03
C:/temp/dataset/7/18_10.odb,Step-1,Increment      4: Step Time =    1.000,"PART-1-1",           307,       1.36653,       25.0307,            0.,NA,NA,"",       28.9410,       28.8395,      -2.42171,   4.35400E-03
C:/temp/dataset/7/18_10.odb,Step-1,Increment      4: Step Time =    1.000,"PART-1-1",           308,       1.96853,       23.3303,            0.,NA,NA,"",       27.6320,       27.5290,      -2.38329,   6.33757E-03
C:/temp/dataset/7/18_10.odb,Step-1,Increment      4: Step Time =    1.000,"PART-1-1",           309,       3.34839,       23.9361,            0.,NA,NA,"",       27.7881,       27.5706,      -3.46993,   5.76304E-03
C:/temp/dataset/7/18_10.odb,Step-1,Increment      4: Step Time =    1.000,"PART-1-1",           310,       4.47216,       26.2029,            0.,NA,NA,"",       29.2076,       28.8067,      -4.82254,   3.17431E-03
C:/temp/dataset/7/18_10.odb,Step-1,Increment      4: Step Time =    1.000,"PART-1-1",           311,       4.17993,       27.6633,            0.,NA,NA,"",       30.2903,       29.8734,      -5.00862,   1.73858E-03
C:/temp/dataset/7/18_10.odb,Step-1,Increment      4: Step Time =    1.000,"PART-1-1",           312,       2.45416,       27.0970,            0.,NA,NA,"",       30.1746,       29.9476,      -3.69399,   2.16708E-03
C:/temp/dataset/7/18_10.odb,Step-1,Increment      4: Step Time =    1.000,"PART-1-1",           313,      -1.66705,       28.8640,            0.,NA,NA,"",       32.2474,       32.2179,      -1.37816,   539.306E-06
C:/temp/dataset/7/18_10.odb,Step-1,Increment      4: Step Time =    1.000,"PART-1-1",           314,   261.919E-03,       29.0779,            0.,NA,NA,"",       31.9771,       31.8601,      -2.73295,   658.914E-06
C:/temp/dataset/7/18_10.odb,Step-1,Increment      4: Step Time =    1.000,"PART-1-1",           315,    -937.5E-03,           30.,            0.,NA,NA,"",       32.8637,       32.7923,      -2.16497,   1.97127E-03
C:/temp/dataset/7/18_10.odb,Step-1,Increment      4: Step Time =    1.000,"PART-1-1",           316,          -15.,         21.25,            0.,NA,NA,"",       31.9733,       30.5673,       9.37717,   9.70344E-03
C:/temp/dataset/7/18_10.odb,Step-1,Increment      4: Step Time =    1.000,"PART-1-1",           317,      -13.3250,           20.,            0.,NA,NA,"",       30.5391,       29.3066,       8.58815,   10.7170E-03
C:/temp/dataset/7/18_10.odb,Step-1,Increment      4: Step Time =    1.000,"PART-1-1",           318,      -11.7925,       21.2083,            0.,NA,NA,"",       30.5965,       29.7163,       7.28577,   10.6086E-03
C:/temp/dataset/7/18_10.odb,Step-1,Increment      4: Step Time =    1.000,"PART-1-1",           319,       10.1137,       15.7319,            0.,NA,NA,"",       20.9773,       20.1503,      -5.83224,   13.4084E-03
C:/temp/dataset/7/18_10.odb,Step-1,Increment      4: Step Time =    1.000,"PART-1-1",           320,       9.02474,       16.2903,            0.,NA,NA,"",       21.4590,       20.8049,      -5.25795,   13.3657E-03
C:/temp/dataset/7/18_10.odb,Step-1,Increment      4: Step Time =    1.000,"PART-1-1",           321,       8.64023,       14.7706,            0.,NA,NA,"",       20.3959,       19.8685,      -4.60807,   13.8080E-03
C:/temp/dataset/7/18_10.odb,Step-1,Increment      4: Step Time =    1.000,"PART-1-1",           322,       9.72917,       14.2122,            0.,NA,NA,"",       19.9053,       19.2194,      -5.18024,   12.9682E-03
C:/temp/dataset/7/18_10.odb,Step-1,Increment      4: Step Time =    1.000,"PART-1-1",           323,       12.8210,       13.6438,            0.,NA,NA,"",       19.4164,       18.0834,      -7.07033,   18.0794E-03
C:/temp/dataset/7/18_10.odb,Step-1,Increment      4: Step Time =    1.000,"PART-1-1",           324,       13.9730,       12.4303,            0.,NA,NA,"",       18.5936,       17.0093,      -7.51038,   24.8119E-03
C:/temp/dataset/7/18_10.odb,Step-1,Increment      4: Step Time =    1.000,"PART-1-1",           325,           15.,         13.75,            0.,NA,NA,"",       19.5883,       17.6192,      -8.55948,   26.7971E-03
C:/temp/dataset/7/18_10.odb,Step-1,Increment      4: Step Time =    1.000,"PART-1-1",           326,       13.8481,       14.9635,            0.,NA,NA,"",       20.3885,       18.7043,      -8.11422,   18.4297E-03
C:/temp/dataset/7/18_10.odb,Step-1,Increment      4: Step Time =    1.000,"PART-1-1",           327,       10.1008,       2.87074,            0.,NA,NA,"",       12.1407,       11.8240,      -2.75503,   12.9269E-03
C:/temp/dataset/7/18_10.odb,Step-1,Increment      4: Step Time =    1.000,"PART-1-1",           328,       9.07373,       1.83179,            0.,NA,NA,"",       11.5596,       11.3933,      -1.95392,   18.5556E-03
C:/temp/dataset/7/18_10.odb,Step-1,Increment      4: Step Time =    1.000,"PART-1-1",           329,       10.0520,   569.032E-03,            0.,NA,NA,"",       10.7075,       10.4627,      -2.27633,   12.9924E-03
C:/temp/dataset/7/18_10.odb,Step-1,Increment      4: Step Time =    1.000,"PART-1-1",           330,       11.0790,       1.60798,            0.,NA,NA,"",       11.3120,       10.8877,      -3.06929,   17.7006E-03
C:/temp/dataset/7/18_10.odb,Step-1,Increment      4: Step Time =    1.000,"PART-1-1",           331,       9.98138,      -1.74337,            0.,NA,NA,"",       9.32922,       9.14915,      -1.82412,   13.1971E-03
C:/temp/dataset/7/18_10.odb,Step-1,Increment      4: Step Time =    1.000,"PART-1-1",           332,       8.90931,      -2.66004,            0.,NA,NA,"",       8.87901,       8.81007,      -1.10431,   22.9082E-03
C:/temp/dataset/7/18_10.odb,Step-1,Increment      4: Step Time =    1.000,"PART-1-1",           333,       9.84458,      -4.07679,            0.,NA,NA,"",       8.01026,       7.89064,      -1.37914,   13.9908E-03
C:/temp/dataset/7/18_10.odb,Step-1,Increment      4: Step Time =    1.000,"PART-1-1",           334,       10.9167,      -3.16013,            0.,NA,NA,"",       8.48518,       8.22512,      -2.08464,   17.6198E-03
C:/temp/dataset/7/18_10.odb,Step-1,Increment      4: Step Time =    1.000,"PART-1-1",           335,            5.,      -3.95833,            0.,NA,NA,"",       8.81442,       8.74818,       1.07855,   81.9816E-03
C:/temp/dataset/7/18_10.odb,Step-1,Increment      4: Step Time =    1.000,"PART-1-1",           336,       6.75254,      -4.23112,            0.,NA,NA,"",       8.29259,       8.28982,   214.156E-03,   55.4866E-03
C:/temp/dataset/7/18_10.odb,Step-1,Increment      4: Step Time =    1.000,"PART-1-1",           337,       5.92661,      -3.07918,            0.,NA,NA,"",       9.09728,       9.08286,   512.044E-03,   65.2439E-03
C:/temp/dataset/7/18_10.odb,Step-1,Increment      4: Step Time =    1.000,"PART-1-1",           338,       7.06139,      -12.0396,            0.,NA,NA,"",       4.39543,       4.34821,   642.549E-03,   65.2123E-03
C:/temp/dataset/7/18_10.odb,Step-1,Increment      4: Step Time =    1.000,"PART-1-1",           339,       5.99095,      -11.1126,            0.,NA,NA,"",       5.00075,       4.89161,       1.03905,   84.3198E-03
C:/temp/dataset/7/18_10.odb,Step-1,Increment      4: Step Time =    1.000,"PART-1-1",           340,            5.,      -12.2917,            0.,NA,NA,"",       4.71151,       4.48337,       1.44837,   107.183E-03
C:/temp/dataset/7/18_10.odb,Step-1,Increment      4: Step Time =    1.000,"PART-1-1",           341,       6.07044,      -13.2187,            0.,NA,NA,"",       4.08851,       3.95270,       1.04504,   87.8312E-03
C:/temp/dataset/7/18_10.odb,Step-1,Increment      4: Step Time =    1.000,"PART-1-1",           342,       6.63644,      -8.02271,            0.,NA,NA,"",       6.32632,       6.29687,   609.755E-03,   65.2053E-03
C:/temp/dataset/7/18_10.odb,Step-1,Increment      4: Step Time =    1.000,"PART-1-1",           343,            5.,        -8.125,            0.,NA,NA,"",       6.62808,       6.48728,       1.35892,   94.6277E-03
C:/temp/dataset/7/18_10.odb,Step-1,Increment      4: Step Time =    1.000,"PART-1-1",           344,       5.87092,      -9.06592,            0.,NA,NA,"",       5.97087,       5.88433,       1.01290,   81.4279E-03
C:/temp/dataset/7/18_10.odb,Step-1,Increment      4: Step Time =    1.000,"PART-1-1",           345,       13.0826,      -13.6930,            0.,NA,NA,"",       3.54776,       3.20080,      -1.53019,   64.0914E-03
C:/temp/dataset/7/18_10.odb,Step-1,Increment      4: Step Time =    1.000,"PART-1-1",           346,       14.0569,      -14.9678,            0.,NA,NA,"",       3.21996,       2.71906,      -1.72478,   88.7531E-03
C:/temp/dataset/7/18_10.odb,Step-1,Increment      4: Step Time =    1.000,"PART-1-1",           347,           15.,        -13.75,            0.,NA,NA,"",       3.85240,       3.10743,      -2.27702,   107.569E-03
C:/temp/dataset/7/18_10.odb,Step-1,Increment      4: Step Time =    1.000,"PART-1-1",           348,       14.0257,      -12.4752,            0.,NA,NA,"",       4.16485,       3.60752,      -2.08129,   82.5860E-03
C:/temp/dataset/7/18_10.odb,Step-1,Increment      4: Step Time =    1.000,"PART-1-1",           349,       8.13738,      -21.6888,            0.,NA,NA,"",       1.06037,       1.00070,   350.676E-03,   56.1233E-03
C:/temp/dataset/7/18_10.odb,Step-1,Increment      4: Step Time =    1.000,"PART-1-1",           350,            5.,      -28.9583,            0.,NA,NA,"",   182.656E-03,   119.417E-03,   138.213E-03,   153.266E-03
C:/temp/dataset/7/18_10.odb,Step-1,Increment      4: Step Time =    1.000,"PART-1-1",           351,          6.25,          -30.,            0.,NA,NA,"",            0.,   47.8207E-42,  -1.52775E-39,   109.502E-03
C:/temp/dataset/7/18_10.odb,Step-1,Increment      4: Step Time =    1.000,"PART-1-1",           352,       6.22347,      -27.8804,            0.,NA,NA,"",   240.754E-03,   135.650E-03,   198.901E-03,   116.339E-03
C:/temp/dataset/7/18_10.odb,Step-1,Increment      4: Step Time =    1.000,"PART-1-1",           353,           15.,        -28.75,            0.,NA,NA,"",   190.175E-03,   109.998E-03,  -155.136E-03,   141.675E-03
C:/temp/dataset/7/18_10.odb,Step-1,Increment      4: Step Time =    1.000,"PART-1-1",           354,       13.6900,      -27.4695,            0.,NA,NA,"",   245.106E-03,   109.734E-03,  -219.171E-03,   105.618E-03
C:/temp/dataset/7/18_10.odb,Step-1,Increment      4: Step Time =    1.000,"PART-1-1",           355,       12.4400,      -28.7195,            0.,NA,NA,"",   62.1276E-03,   3.00163E-03,  -62.0551E-03,   60.0308E-03
C:/temp/dataset/7/18_10.odb,Step-1,Increment      4: Step Time =    1.000,"PART-1-1",           356,         13.75,          -30.,            0.,NA,NA,"",            0.,   474.761E-42,   3.34976E-39,   98.8828E-03
C:/temp/dataset/7/18_10.odb,Step-1,Increment      4: Step Time =    1.000,"PART-1-1",           357,       9.58617,      -22.6245,            0.,NA,NA,"",   745.183E-03,   742.093E-03,   67.7861E-03,   22.6016E-03
C:/temp/dataset/7/18_10.odb,Step-1,Increment      4: Step Time =    1.000,"PART-1-1",           358,       10.0221,      -21.0980,            0.,NA,NA,"",       1.06293,       1.06227,  -37.2005E-03,   15.3007E-03
C:/temp/dataset/7/18_10.odb,Step-1,Increment      4: Step Time =    1.000,"PART-1-1",           359,       8.57328,      -20.1623,            0.,NA,NA,"",       1.38318,       1.35495,   278.043E-03,   43.8590E-03
C:/temp/dataset/7/18_10.odb,Step-1,Increment      4: Step Time =    1.000,"PART-1-1",           360,       11.1406,      -27.5456,            0.,NA,NA,"",   74.4788E-03,   51.7005E-03,  -53.6112E-03,   29.8529E-03
C:/temp/dataset/7/18_10.odb,Step-1,Increment      4: Step Time =    1.000,"PART-1-1",           361,         11.25,          -30.,            0.,NA,NA,"",            0.,  -382.676E-42,   688.705E-42,   32.4546E-03
C:/temp/dataset/7/18_10.odb,Step-1,Increment      4: Step Time =    1.000,"PART-1-1",           362,       11.2605,      -16.1933,            0.,NA,NA,"",       2.49199,       2.41334,  -621.101E-03,   27.3479E-03
C:/temp/dataset/7/18_10.odb,Step-1,Increment      4: Step Time =    1.000,"PART-1-1",           363,       10.2521,      -15.0492,            0.,NA,NA,"",       2.88909,       2.86535,  -369.587E-03,   13.0827E-03
C:/temp/dataset/7/18_10.odb,Step-1,Increment      4: Step Time =    1.000,"PART-1-1",           364,       9.32474,      -16.3084,            0.,NA,NA,"",       2.48215,       2.48215,   2.80162E-03,   24.7666E-03
C:/temp/dataset/7/18_10.odb,Step-1,Increment      4: Step Time =    1.000,"PART-1-1",           365,       10.3331,      -17.4526,            0.,NA,NA,"",       2.06627,       2.05093,  -251.271E-03,   13.2757E-03
C:/temp/dataset/7/18_10.odb,Step-1,Increment      4: Step Time =    1.000,"PART-1-1",           366,       7.44248,      -19.0256,            0.,NA,NA,"",       1.82953,       1.73899,   568.414E-03,   69.0725E-03
C:/temp/dataset/7/18_10.odb,Step-1,Increment      4: Step Time =    1.000,"PART-1-1",           367,       6.17612,      -17.5789,            0.,NA,NA,"",       2.48022,       2.29031,   951.823E-03,   95.7283E-03
C:/temp/dataset/7/18_10.odb,Step-1,Increment      4: Step Time =    1.000,"PART-1-1",           368,            5.,      -18.5417,            0.,NA,NA,"",       2.41862,       2.08126,       1.23211,   125.601E-03
C:/temp/dataset/7/18_10.odb,Step-1,Increment      4: Step Time =    1.000,"PART-1-1",           369,       12.8407,      -6.03443,            0.,NA,NA,"",       6.99483,       6.49923,      -2.58604,   47.6235E-03
C:/temp/dataset/7/18_10.odb,Step-1,Increment      4: Step Time =    1.000,"PART-1-1",           370,           15.,         -6.25,            0.,NA,NA,"",       7.16767,       6.16586,      -3.65481,   86.0861E-03
C:/temp/dataset/7/18_10.odb,Step-1,Increment      4: Step Time =    1.000,"PART-1-1",           371,       13.9462,      -4.87251,            0.,NA,NA,"",       7.71661,       6.93994,      -3.37390,   64.2422E-03
C:/temp/dataset/7/18_10.odb,Step-1,Increment      4: Step Time =    1.000,"PART-1-1",           372,       7.64514,      -8.69832,            0.,NA,NA,"",       5.82844,       5.82477,   206.767E-03,   48.6917E-03
C:/temp/dataset/7/18_10.odb,Step-1,Increment      4: Step Time =    1.000,"PART-1-1",           373,       8.20020,      -7.75016,            0.,NA,NA,"",       6.22079,       6.21951,  -126.462E-03,   37.7558E-03
C:/temp/dataset/7/18_10.odb,Step-1,Increment      4: Step Time =    1.000,"PART-1-1",           374,       7.19150,      -7.07454,            0.,NA,NA,"",       6.70646,       6.70064,   279.410E-03,   53.6077E-03
C:/temp/dataset/7/18_10.odb,Step-1,Increment      4: Step Time =    1.000,"PART-1-1",           375,       7.97278,      -1.35169,            0.,NA,NA,"",       9.74634,       9.71346,  -799.935E-03,   33.1388E-03
C:/temp/dataset/7/18_10.odb,Step-1,Increment      4: Step Time =    1.000,"PART-1-1",           376,       9.01285,  -423.179E-03,            0.,NA,NA,"",       10.1821,       10.0683,      -1.51749,   20.3505E-03
C:/temp/dataset/7/18_10.odb,Step-1,Increment      4: Step Time =    1.000,"PART-1-1",           377,       8.04185,   850.611E-03,            0.,NA,NA,"",       11.0642,       10.9999,      -1.19040,   29.5541E-03
C:/temp/dataset/7/18_10.odb,Step-1,Increment      4: Step Time =    1.000,"PART-1-1",           378,       8.08837,       3.05311,            0.,NA,NA,"",       12.4388,       12.3342,      -1.61017,   26.4486E-03
C:/temp/dataset/7/18_10.odb,Step-1,Increment      4: Step Time =    1.000,"PART-1-1",           379,       9.11337,       4.08618,            0.,NA,NA,"",       12.9928,       12.7659,      -2.41770,   17.1934E-03
C:/temp/dataset/7/18_10.odb,Step-1,Increment      4: Step Time =    1.000,"PART-1-1",           380,       8.10868,       5.26217,            0.,NA,NA,"",       13.8691,       13.7162,      -2.05398,   23.7675E-03
C:/temp/dataset/7/18_10.odb,Step-1,Increment      4: Step Time =    1.000,"PART-1-1",           381,       7.08888,       6.39331,            0.,NA,NA,"",       14.7619,       14.6679,      -1.66375,   31.0400E-03
C:/temp/dataset/7/18_10.odb,Step-1,Increment      4: Step Time =    1.000,"PART-1-1",           382,            5.,       6.45833,            0.,NA,NA,"",       15.2026,       15.1975,  -393.981E-03,   50.0247E-03
C:/temp/dataset/7/18_10.odb,Step-1,Increment      4: Step Time =    1.000,"PART-1-1",           383,           15.,         16.25,            0.,NA,NA,"",       21.3717,       19.2671,      -9.24809,   19.0632E-03
C:/temp/dataset/7/18_10.odb,Step-1,Increment      4: Step Time =    1.000,"PART-1-1",           384,       13.6214,       17.6671,            0.,NA,NA,"",       22.3347,       20.5699,      -8.70157,   12.2641E-03
C:/temp/dataset/7/18_10.odb,Step-1,Increment      4: Step Time =    1.000,"PART-1-1",           385,       12.4694,       16.3805,            0.,NA,NA,"",       21.3835,       19.9970,      -7.57472,   14.0941E-03
C:/temp/dataset/7/18_10.odb,Step-1,Increment      4: Step Time =    1.000,"PART-1-1",           386,       10.0881,       9.74649,            0.,NA,NA,"",       16.7264,       16.1669,      -4.29012,   12.8770E-03
C:/temp/dataset/7/18_10.odb,Step-1,Increment      4: Step Time =    1.000,"PART-1-1",           387,       9.10561,       8.57814,            0.,NA,NA,"",       15.9932,       15.6296,      -3.39114,   15.4154E-03
C:/temp/dataset/7/18_10.odb,Step-1,Increment      4: Step Time =    1.000,"PART-1-1",           388,       10.1162,       7.46436,            0.,NA,NA,"",       15.1601,       14.6848,      -3.76634,   12.8868E-03
C:/temp/dataset/7/18_10.odb,Step-1,Increment      4: Step Time =    1.000,"PART-1-1",           389,       11.0986,       8.63272,            0.,NA,NA,"",       15.9150,       15.2169,      -4.66190,   15.5118E-03
C:/temp/dataset/7/18_10.odb,Step-1,Increment      4: Step Time =    1.000,"PART-1-1",           390,       9.96644,       19.4124,            0.,NA,NA,"",       23.6715,       22.6976,      -6.72016,   12.0056E-03
C:/temp/dataset/7/18_10.odb,Step-1,Increment      4: Step Time =    1.000,"PART-1-1",           391,       10.9020,       20.3065,            0.,NA,NA,"",       24.2822,       23.0659,      -7.58881,   10.1218E-03
C:/temp/dataset/7/18_10.odb,Step-1,Increment      4: Step Time =    1.000,"PART-1-1",           392,       10.1153,       21.2880,            0.,NA,NA,"",       25.0393,       23.9439,      -7.32512,   9.28267E-03
C:/temp/dataset/7/18_10.odb,Step-1,Increment      4: Step Time =    1.000,"PART-1-1",           393,       9.17975,       20.3940,            0.,NA,NA,"",       24.4450,       23.5767,      -6.45729,   11.5570E-03
C:/temp/dataset/7/18_10.odb,Step-1,Increment      4: Step Time =    1.000,"PART-1-1",           394,           15.,         28.75,            0.,NA,NA,"",       30.4744,       27.7321,      -12.6341,   76.4914E-06
C:/temp/dataset/7/18_10.odb,Step-1,Increment      4: Step Time =    1.000,"PART-1-1",           395,       14.0625,           30.,            0.,NA,NA,"",       31.3571,       28.8313,      -12.3299,   82.7493E-06
C:/temp/dataset/7/18_10.odb,Step-1,Increment      4: Step Time =    1.000,"PART-1-1",           396,       13.1487,       28.7914,            0.,NA,NA,"",       30.4618,       28.2535,      -11.3871,   127.206E-06
C:/temp/dataset/7/18_10.odb,Step-1,Increment      4: Step Time =    1.000,"PART-1-1",           397,       14.0862,       27.5414,            0.,NA,NA,"",       29.5639,       27.1541,      -11.6910,   133.147E-06
C:/temp/dataset/7/18_10.odb,Step-1,Increment      4: Step Time =    1.000,"PART-1-1",           398,       12.2440,       25.2848,            0.,NA,NA,"",       27.9010,       26.1095,      -9.83653,   2.18468E-03
C:/temp/dataset/7/18_10.odb,Step-1,Increment      4: Step Time =    1.000,"PART-1-1",           399,       13.1763,       26.3811,            0.,NA,NA,"",       28.7019,       26.6075,      -10.7628,   1.10259E-03
C:/temp/dataset/7/18_10.odb,Step-1,Increment      4: Step Time =    1.000,"PART-1-1",           400,       12.2376,       27.6217,            0.,NA,NA,"",       29.6089,       27.7010,      -10.4566,   651.502E-06
C:/temp/dataset/7/18_10.odb,Step-1,Increment      4: Step Time =    1.000,"PART-1-1",           401,       11.3053,       26.5254,            0.,NA,NA,"",       28.8251,       27.2036,      -9.53164,   1.79847E-03
C:/temp/dataset/7/18_10.odb,Step-1,Increment      4: Step Time =    1.000,"PART-1-1",           402,       12.1875,           30.,            0.,NA,NA,"",       31.3449,       29.3304,      -11.0558,   99.8031E-06
C:/temp/dataset/7/18_10.odb,Step-1,Increment      4: Step Time =    1.000,"PART-1-1",           403,        6.5625,           30.,            0.,NA,NA,"",       31.6633,       30.8247,      -7.23902,   100.609E-06
C:/temp/dataset/7/18_10.odb,Step-1,Increment      4: Step Time =    1.000,"PART-1-1",           404,       5.40000,       28.6589,            0.,NA,NA,"",       30.8327,       30.2239,      -6.09660,   1.00221E-03
C:/temp/dataset/7/18_10.odb,Step-1,Increment      4: Step Time =    1.000,"PART-1-1",           405,       6.32063,       27.5176,            0.,NA,NA,"",       29.9026,       29.2056,      -6.41883,   1.83739E-03
C:/temp/dataset/7/18_10.odb,Step-1,Increment      4: Step Time =    1.000,"PART-1-1",           406,        2.8125,           30.,            0.,NA,NA,"",       32.1596,       31.8146,      -4.69837,   1.10193E-03
C:/temp/dataset/7/18_10.odb,Step-1,Increment      4: Step Time =    1.000,"PART-1-1",           407,       1.86631,       29.3706,            0.,NA,NA,"",       31.8763,       31.6377,      -3.89280,   696.542E-06
C:/temp/dataset/7/18_10.odb,Step-1,Increment      4: Step Time =    1.000,"PART-1-1",           408,       2.52123,       28.3750,            0.,NA,NA,"",       31.0617,       30.7933,      -4.07415,   915.416E-06
C:/temp/dataset/7/18_10.odb,Step-1,Increment      4: Step Time =    1.000,"PART-1-1",           409,       3.46742,       29.0044,            0.,NA,NA,"",       31.3512,       30.9691,      -4.87933,   508.864E-06
C:/temp/dataset/7/18_10.odb,Step-1,Increment      4: Step Time =    1.000,"PART-1-1",           410,       1.19073,       28.4486,            0.,NA,NA,"",       31.3560,       31.1928,      -3.19499,   641.030E-06
C:/temp/dataset/7/18_10.odb,Step-1,Increment      4: Step Time =    1.000,"PART-1-1",           411,      -2.48443,       27.9761,            0.,NA,NA,"",       31.8392,       31.8336,  -599.119E-03,   739.969E-06
C:/temp/dataset/7/18_10.odb,Step-1,Increment      4: Step Time =    1.000,"PART-1-1",           412,       -2.8125,           30.,            0.,NA,NA,"",       33.2883,       33.2760,  -902.663E-03,   2.19601E-03
C:/temp/dataset/7/18_10.odb,Step-1,Increment      4: Step Time =    1.000,"PART-1-1",           413,      -7.28733,       29.0238,            0.,NA,NA,"",       33.8482,       33.7669,       2.34539,   956.942E-06
C:/temp/dataset/7/18_10.odb,Step-1,Increment      4: Step Time =    1.000,"PART-1-1",           414,      -6.19423,       28.1363,            0.,NA,NA,"",       32.9479,       32.8964,       1.84237,   383.717E-06
C:/temp/dataset/7/18_10.odb,Step-1,Increment      4: Step Time =    1.000,"PART-1-1",           415,       -6.5625,           30.,            0.,NA,NA,"",       34.2714,       34.2335,       1.61191,   2.38087E-03
C:/temp/dataset/7/18_10.odb,Step-1,Increment      4: Step Time =    1.000,"PART-1-1",           416,      -11.8079,       27.5253,            0.,NA,NA,"",       34.3929,       33.9127,       5.72709,   644.993E-06
C:/temp/dataset/7/18_10.odb,Step-1,Increment      4: Step Time =    1.000,"PART-1-1",           417,      -12.6125,       26.1842,            0.,NA,NA,"",       33.8755,       33.2276,       6.59391,   2.33828E-03
C:/temp/dataset/7/18_10.odb,Step-1,Increment      4: Step Time =    1.000,"PART-1-1",           418,      -8.13992,       23.4434,            0.,NA,NA,"",       30.5707,       30.2634,       4.32382,   7.32375E-03
C:/temp/dataset/7/18_10.odb,Step-1,Increment      4: Step Time =    1.000,"PART-1-1",           419,       -8.4375,           30.,            0.,NA,NA,"",       34.8254,       34.7074,       2.86399,   2.38601E-03
C:/temp/dataset/7/18_10.odb,Step-1,Increment      4: Step Time =    1.000,"PART-1-1",           420,      -8.00049,       27.9480,            0.,NA,NA,"",       33.3752,       33.2315,       3.09411,   593.686E-06
C:/temp/dataset/7/18_10.odb,Step-1,Increment      4: Step Time =    1.000,"PART-1-1",           421,      -12.1875,           30.,            0.,NA,NA,"",       36.0466,       35.6463,       5.35690,   1.48970E-03
C:/temp/dataset/7/18_10.odb,Step-1,Increment      4: Step Time =    1.000,"PART-1-1",           422,          -15.,         26.25,            0.,NA,NA,"",       34.8328,       33.8655,       8.15193,   2.17430E-03
C:/temp/dataset/7/18_10.odb,Step-1,Increment      4: Step Time =    1.000,"PART-1-1",           423,  -614.199E-03,       25.3895,            0.,NA,NA,"",       29.6287,       29.6050,      -1.18471,   4.19815E-03
C:/temp/dataset/7/18_10.odb,Step-1,Increment      4: Step Time =    1.000,"PART-1-1",           424,      -1.97220,       26.8586,            0.,NA,NA,"",       30.9566,       30.9497,  -653.957E-03,   2.27034E-03
C:/temp/dataset/7/18_10.odb,Step-1,Increment      4: Step Time =    1.000,"PART-1-1",           425,      -1.74113,       25.3247,            0.,NA,NA,"",       29.8604,       29.8576,  -412.875E-03,   4.32767E-03
C:/temp/dataset/7/18_10.odb,Step-1,Increment      4: Step Time =    1.000,"PART-1-1",           426,       8.18659,       21.6045,            0.,NA,NA,"",       25.4189,       24.6724,      -6.11498,   10.4549E-03
C:/temp/dataset/7/18_10.odb,Step-1,Increment      4: Step Time =    1.000,"PART-1-1",           427,       9.25192,       22.4602,            0.,NA,NA,"",       25.9540,       24.9757,      -7.05888,   8.24142E-03
C:/temp/dataset/7/18_10.odb,Step-1,Increment      4: Step Time =    1.000,"PART-1-1",           428,       8.38526,       23.6138,            0.,NA,NA,"",       26.8667,       25.9966,      -6.78231,   6.31220E-03
C:/temp/dataset/7/18_10.odb,Step-1,Increment      4: Step Time =    1.000,"PART-1-1",           429,       7.31993,       22.7581,            0.,NA,NA,"",       26.3518,       25.6969,      -5.83831,   8.75676E-03
C:/temp/dataset/7/18_10.odb,Step-1,Increment      4: Step Time =    1.000,"PART-1-1",           430,           15.,         26.25,            0.,NA,NA,"",       28.6513,       26.0322,      -11.9676,   200.366E-06
C:/temp/dataset/7/18_10.odb,Step-1,Increment      4: Step Time =    1.000,"PART-1-1",           431,        4.6875,           30.,            0.,NA,NA,"",       31.8843,       31.3208,      -5.96816,   490.255E-06
C:/temp/dataset/7/18_10.odb,Step-1,Increment      4: Step Time =    1.000,"PART-1-1",           432,       9.38339,       24.5308,            0.,NA,NA,"",       27.4579,       26.3563,      -7.69934,   4.78954E-03
C:/temp/dataset/7/18_10.odb,Step-1,Increment      4: Step Time =    1.000,"PART-1-1",           433,       8.53172,       25.6694,            0.,NA,NA,"",       28.3496,       27.3597,      -7.42620,   3.36125E-03
C:/temp/dataset/7/18_10.odb,Step-1,Increment      4: Step Time =    1.000,"PART-1-1",           434,       7.53359,       24.7524,            0.,NA,NA,"",       27.7753,       27.0018,      -6.50911,   5.00783E-03
C:/temp/dataset/7/18_10.odb,Step-1,Increment      4: Step Time =    1.000,"PART-1-1",           435,     937.5E-03,           30.,            0.,NA,NA,"",       32.4867,       32.3051,      -3.43035,   1.62805E-03
C:/temp/dataset/7/18_10.odb,Step-1,Increment      4: Step Time =    1.000,"PART-1-1",           436,       5.64845,       26.5466,            0.,NA,NA,"",       29.2876,       28.7260,      -5.70809,   2.89070E-03
C:/temp/dataset/7/18_10.odb,Step-1,Increment      4: Step Time =    1.000,"PART-1-1",           437,       4.65082,       24.6490,            0.,NA,NA,"",       28.0739,       27.7051,      -4.53545,   4.91056E-03
C:/temp/dataset/7/18_10.odb,Step-1,Increment      4: Step Time =    1.000,"PART-1-1",           438,       5.82711,       24.9927,            0.,NA,NA,"",       28.1498,       27.6230,      -5.41999,   4.71841E-03
C:/temp/dataset/7/18_10.odb,Step-1,Increment      4: Step Time =    1.000,"PART-1-1",           439,      -3.57200,       27.5772,            0.,NA,NA,"",       31.8485,       31.8477,   232.718E-03,   1.26417E-03
C:/temp/dataset/7/18_10.odb,Step-1,Increment      4: Step Time =    1.000,"PART-1-1",           440,      -3.05977,       26.4597,            0.,NA,NA,"",       30.9656,       30.9651,   177.361E-03,   2.81057E-03
C:/temp/dataset/7/18_10.odb,Step-1,Increment      4: Step Time =    1.000,"PART-1-1",           441,      -4.23358,       26.7178,            0.,NA,NA,"",       31.4556,       31.4429,   895.953E-03,   2.46008E-03
C:/temp/dataset/7/18_10.odb,Step-1,Increment      4: Step Time =    1.000,"PART-1-1",           442,      -5.07335,       27.3652,            0.,NA,NA,"",       32.1192,       32.0933,       1.29112,   1.51351E-03
C:/temp/dataset/7/18_10.odb,Step-1,Increment      4: Step Time =    1.000,"PART-1-1",           443,      -5.65848,       26.3267,            0.,NA,NA,"",       31.6094,       31.5494,       1.94672,   3.01341E-03
C:/temp/dataset/7/18_10.odb,Step-1,Increment      4: Step Time =    1.000,"PART-1-1",           444,      -6.77936,       27.0978,            0.,NA,NA,"",       32.4492,       32.3529,       2.49711,   1.87783E-03
C:/temp/dataset/7/18_10.odb,Step-1,Increment      4: Step Time =    1.000,"PART-1-1",           445,       13.0726,       6.26892,            0.,NA,NA,"",       14.3357,       13.3074,      -5.33141,   31.0063E-03
C:/temp/dataset/7/18_10.odb,Step-1,Increment      4: Step Time =    1.000,"PART-1-1",           446,       14.0382,       5.02867,            0.,NA,NA,"",       13.5838,       12.3606,      -5.63336,   42.7366E-03
C:/temp/dataset/7/18_10.odb,Step-1,Increment      4: Step Time =    1.000,"PART-1-1",           447,           15.,          6.25,            0.,NA,NA,"",       14.4691,       12.9000,      -6.55325,   49.3776E-03
C:/temp/dataset/7/18_10.odb,Step-1,Increment      4: Step Time =    1.000,"PART-1-1",           448,       14.0344,       7.49025,            0.,NA,NA,"",       15.2027,       13.8586,      -6.24999,   36.8952E-03
C:/temp/dataset/7/18_10.odb,Step-1,Increment      4: Step Time =    1.000,"PART-1-1",           449,            5.,       12.7083,            0.,NA,NA,"",       19.4733,       19.3978,      -1.71347,   31.1681E-03
C:/temp/dataset/7/18_10.odb,Step-1,Increment      4: Step Time =    1.000,"PART-1-1",           450,       6.97129,       12.7632,            0.,NA,NA,"",       19.1662,       18.9278,      -3.01356,   20.5623E-03
C:/temp/dataset/7/18_10.odb,Step-1,Increment      4: Step Time =    1.000,"PART-1-1",           451,       8.08110,       9.66220,            0.,NA,NA,"",       16.8472,       16.5790,      -2.99458,   19.2343E-03
C:/temp/dataset/7/18_10.odb,Step-1,Increment      4: Step Time =    1.000,"PART-1-1",           452,       8.10192,       7.46894,            0.,NA,NA,"",       15.3437,       15.1361,      -2.51510,   21.4200E-03
C:/temp/dataset/7/18_10.odb,Step-1,Increment      4: Step Time =    1.000,"PART-1-1",           453,            5.,        -1.875,            0.,NA,NA,"",       9.99651,       9.95870,   868.682E-03,   75.6063E-03
C:/temp/dataset/7/18_10.odb,Step-1,Increment      4: Step Time =    1.000,"PART-1-1",           454,       6.91011,      -2.19684,            0.,NA,NA,"",       9.41462,       9.41396,  -111.569E-03,   49.1167E-03
C:/temp/dataset/7/18_10.odb,Step-1,Increment      4: Step Time =    1.000,"PART-1-1",           455,       11.0205,  -751.161E-03,            0.,NA,NA,"",       9.87878,       9.53792,      -2.57261,   17.9625E-03
C:/temp/dataset/7/18_10.odb,Step-1,Increment      4: Step Time =    1.000,"PART-1-1",           456,       13.1408,      -16.1676,            0.,NA,NA,"",       2.66146,       2.35232,      -1.24497,   69.2480E-03
C:/temp/dataset/7/18_10.odb,Step-1,Increment      4: Step Time =    1.000,"PART-1-1",           457,       14.0839,      -17.4497,            0.,NA,NA,"",       2.39661,       1.94791,      -1.39620,   94.7863E-03
C:/temp/dataset/7/18_10.odb,Step-1,Increment      4: Step Time =    1.000,"PART-1-1",           458,           15.,        -16.25,            0.,NA,NA,"",       2.96517,       2.29563,      -1.87678,   114.519E-03
C:/temp/dataset/7/18_10.odb,Step-1,Increment      4: Step Time =    1.000,"PART-1-1",           459,            5.,       -14.375,            0.,NA,NA,"",       3.86588,       3.59496,       1.42172,   113.413E-03
C:/temp/dataset/7/18_10.odb,Step-1,Increment      4: Step Time =    1.000,"PART-1-1",           460,       6.11916,      -15.3567,            0.,NA,NA,"",       3.25364,       3.08915,       1.02144,   91.8704E-03
C:/temp/dataset/7/18_10.odb,Step-1,Increment      4: Step Time =    1.000,"PART-1-1",           461,       13.0403,       1.40949,            0.,NA,NA,"",       11.2314,       10.4264,      -4.17536,   38.7933E-03
C:/temp/dataset/7/18_10.odb,Step-1,Increment      4: Step Time =    1.000,"PART-1-1",           462,       14.0142,   96.5788E-03,            0.,NA,NA,"",       10.5179,       9.52709,      -4.45649,   53.9677E-03
C:/temp/dataset/7/18_10.odb,Step-1,Increment      4: Step Time =    1.000,"PART-1-1",           463,           15.,          1.25,            0.,NA,NA,"",       11.3261,       10.0036,      -5.31127,   64.1544E-03
C:/temp/dataset/7/18_10.odb,Step-1,Increment      4: Step Time =    1.000,"PART-1-1",           464,       14.0261,       2.56291,            0.,NA,NA,"",       12.0185,       10.9150,      -5.03065,   48.3832E-03
C:/temp/dataset/7/18_10.odb,Step-1,Increment      4: Step Time =    1.000,"PART-1-1",           465,            5.,      -10.2083,            0.,NA,NA,"",       5.63369,       5.44981,       1.42760,   100.915E-03
C:/temp/dataset/7/18_10.odb,Step-1,Increment      4: Step Time =    1.000,"PART-1-1",           466,       6.86187,      -9.97015,            0.,NA,NA,"",       5.35150,       5.31418,   630.899E-03,   65.0304E-03
C:/temp/dataset/7/18_10.odb,Step-1,Increment      4: Step Time =    1.000,"PART-1-1",           467,            5.,      -24.7917,            0.,NA,NA,"",   871.288E-03,   576.803E-03,   653.024E-03,   140.159E-03
C:/temp/dataset/7/18_10.odb,Step-1,Increment      4: Step Time =    1.000,"PART-1-1",           468,       6.13477,      -25.7685,            0.,NA,NA,"",   553.152E-03,   366.518E-03,   414.296E-03,   113.591E-03
C:/temp/dataset/7/18_10.odb,Step-1,Increment      4: Step Time =    1.000,"PART-1-1",           469,       13.1299,      -20.9468,            0.,NA,NA,"",       1.28777,       1.05556,  -737.655E-03,   76.0993E-03
C:/temp/dataset/7/18_10.odb,Step-1,Increment      4: Step Time =    1.000,"PART-1-1",           470,       14.0295,      -22.3095,            0.,NA,NA,"",       1.12222,   791.396E-03,  -795.658E-03,   103.898E-03
C:/temp/dataset/7/18_10.odb,Step-1,Increment      4: Step Time =    1.000,"PART-1-1",           471,           15.,        -21.25,            0.,NA,NA,"",       1.54043,       1.02784,      -1.14737,   128.188E-03
C:/temp/dataset/7/18_10.odb,Step-1,Increment      4: Step Time =    1.000,"PART-1-1",           472,       14.1003,      -19.8873,            0.,NA,NA,"",       1.70535,       1.30791,      -1.09434,   100.407E-03
C:/temp/dataset/7/18_10.odb,Step-1,Increment      4: Step Time =    1.000,"PART-1-1",           473,            5.,       -26.875,            0.,NA,NA,"",   508.600E-03,   303.832E-03,   407.873E-03,   144.341E-03
C:/temp/dataset/7/18_10.odb,Step-1,Increment      4: Step Time =    1.000,"PART-1-1",           474,       7.35824,      -26.7740,            0.,NA,NA,"",   285.332E-03,   188.231E-03,   214.438E-03,   83.2505E-03
C:/temp/dataset/7/18_10.odb,Step-1,Increment      4: Step Time =    1.000,"PART-1-1",           475,       11.2665,      -23.4125,            0.,NA,NA,"",   598.635E-03,   563.695E-03,  -201.524E-03,   30.9521E-03
C:/temp/dataset/7/18_10.odb,Step-1,Increment      4: Step Time =    1.000,"PART-1-1",           476,       10.8283,      -24.9299,            0.,NA,NA,"",   338.796E-03,   326.564E-03,  -90.2144E-03,   20.5746E-03
C:/temp/dataset/7/18_10.odb,Step-1,Increment      4: Step Time =    1.000,"PART-1-1",           477,            5.,      -16.4583,            0.,NA,NA,"",       3.10061,       2.79179,       1.34897,   119.567E-03
C:/temp/dataset/7/18_10.odb,Step-1,Increment      4: Step Time =    1.000,"PART-1-1",           478,       7.29529,      -16.4772,            0.,NA,NA,"",       2.65059,       2.57287,   637.159E-03,   68.1893E-03
C:/temp/dataset/7/18_10.odb,Step-1,Increment      4: Step Time =    1.000,"PART-1-1",           479,            5.,       18.9583,            0.,NA,NA,"",       23.9272,       23.7038,      -3.26184,   13.1709E-03
C:/temp/dataset/7/18_10.odb,Step-1,Increment      4: Step Time =    1.000,"PART-1-1",           480,       6.05050,       17.7875,            0.,NA,NA,"",       22.9030,       22.6077,      -3.66612,   13.2972E-03
C:/temp/dataset/7/18_10.odb,Step-1,Increment      4: Step Time =    1.000,"PART-1-1",           481,       7.11573,       18.6629,            0.,NA,NA,"",       23.3880,       22.9286,      -4.61311,   13.5867E-03
C:/temp/dataset/7/18_10.odb,Step-1,Increment      4: Step Time =    1.000,"PART-1-1",           482,       6.06524,       19.8338,            0.,NA,NA,"",       24.3892,       24.0212,      -4.22061,   14.0001E-03
C:/temp/dataset/7/18_10.odb,Step-1,Increment      4: Step Time =    1.000,"PART-1-1",           483,       6.98524,       16.7251,            0.,NA,NA,"",       21.9979,       21.6283,      -4.01589,   14.3157E-03
C:/temp/dataset/7/18_10.odb,Step-1,Increment      4: Step Time =    1.000,"PART-1-1",           484,            5.,        16.875,            0.,NA,NA,"",       22.4274,       22.2613,      -2.72429,   19.3311E-03
C:/temp/dataset/7/18_10.odb,Step-1,Increment      4: Step Time =    1.000,"PART-1-1",           485,       7.88091,       13.8682,            0.,NA,NA,"",       19.8308,       19.4475,      -3.87995,   15.6483E-03
C:/temp/dataset/7/18_10.odb,Step-1,Increment      4: Step Time =    1.000,"PART-1-1",           486,       7.65947,       15.6945,            0.,NA,NA,"",       21.1676,       20.7472,      -4.19791,   14.2145E-03
C:/temp/dataset/7/18_10.odb,Step-1,Increment      4: Step Time =    1.000,"PART-1-1",           487,       8.92157,       12.9075,            0.,NA,NA,"",       19.0367,       18.5403,      -4.31879,   14.2806E-03
C:/temp/dataset/7/18_10.odb,Step-1,Increment      4: Step Time =    1.000,"PART-1-1",           488,       9.98918,       11.9956,            0.,NA,NA,"",       18.3082,       17.6723,      -4.78326,   12.8890E-03
C:/temp/dataset/7/18_10.odb,Step-1,Increment      4: Step Time =    1.000,"PART-1-1",           489,       10.7968,       13.3004,            0.,NA,NA,"",       19.1950,       18.3464,      -5.64436,   13.8971E-03
C:/temp/dataset/7/18_10.odb,Step-1,Increment      4: Step Time =    1.000,"PART-1-1",           490,       13.0565,       8.69239,            0.,NA,NA,"",       15.9634,       14.8221,      -5.92733,   26.8247E-03
C:/temp/dataset/7/18_10.odb,Step-1,Increment      4: Step Time =    1.000,"PART-1-1",           491,           15.,          8.75,            0.,NA,NA,"",       16.1291,       14.4294,      -7.20696,   41.9405E-03
C:/temp/dataset/7/18_10.odb,Step-1,Increment      4: Step Time =    1.000,"PART-1-1",           492,       14.0220,       9.95215,            0.,NA,NA,"",       16.8718,       15.4044,      -6.88195,   30.9751E-03
C:/temp/dataset/7/18_10.odb,Step-1,Increment      4: Step Time =    1.000,"PART-1-1",           493,       8.15713,      -6.43409,            0.,NA,NA,"",       6.89729,       6.89314,  -239.301E-03,   37.0936E-03
C:/temp/dataset/7/18_10.odb,Step-1,Increment      4: Step Time =    1.000,"PART-1-1",           494,       7.55707,      -5.50995,            0.,NA,NA,"",       7.46626,       7.46610,  -48.0401E-03,   45.1274E-03
C:/temp/dataset/7/18_10.odb,Step-1,Increment      4: Step Time =    1.000,"PART-1-1",           495,       13.0039,      -1.03047,            0.,NA,NA,"",       9.76710,       9.06714,      -3.63087,   42.3277E-03
C:/temp/dataset/7/18_10.odb,Step-1,Increment      4: Step Time =    1.000,"PART-1-1",           496,       13.9897,      -2.37705,            0.,NA,NA,"",       9.08416,       8.20193,      -3.90517,   59.3086E-03
C:/temp/dataset/7/18_10.odb,Step-1,Increment      4: Step Time =    1.000,"PART-1-1",           497,           15.,         -1.25,            0.,NA,NA,"",       9.85832,       8.64984,      -4.72935,   71.4958E-03
C:/temp/dataset/7/18_10.odb,Step-1,Increment      4: Step Time =    1.000,"PART-1-1",           498,       11.0188,      -11.3444,            0.,NA,NA,"",       4.37360,       4.26042,  -988.503E-03,   21.3792E-03
C:/temp/dataset/7/18_10.odb,Step-1,Increment      4: Step Time =    1.000,"PART-1-1",           499,       9.94563,      -10.3262,            0.,NA,NA,"",       4.84397,       4.80064,  -646.396E-03,   13.8614E-03
C:/temp/dataset/7/18_10.odb,Step-1,Increment      4: Step Time =    1.000,"PART-1-1",           500,       9.07908,      -11.6768,            0.,NA,NA,"",       4.29804,       4.29459,  -172.367E-03,   26.4194E-03
C:/temp/dataset/7/18_10.odb,Step-1,Increment      4: Step Time =    1.000,"PART-1-1",           501,       10.1523,      -12.6950,            0.,NA,NA,"",       3.80862,       3.77402,  -512.194E-03,   13.0609E-03
C:/temp/dataset/7/18_10.odb,Step-1,Increment      4: Step Time =    1.000,"PART-1-1",           502,       11.2699,       24.2837,            0.,NA,NA,"",       27.1870,       25.6860,      -8.90836,   4.11756E-03
C:/temp/dataset/7/18_10.odb,Step-1,Increment      4: Step Time =    1.000,"PART-1-1",           503,       12.1787,       22.9892,            0.,NA,NA,"",       26.2202,       24.5624,      -9.17522,   4.81659E-03
C:/temp/dataset/7/18_10.odb,Step-1,Increment      4: Step Time =    1.000,"PART-1-1",           504,           15.,         -3.75,            0.,NA,NA,"",       8.46968,       7.36822,      -4.17670,   78.8092E-03
C:/temp/dataset/7/18_10.odb,Step-1,Increment      4: Step Time =    1.000,"PART-1-1",           505,       12.9359,      -3.49956,            0.,NA,NA,"",       8.35782,       7.76155,      -3.10025,   45.2751E-03
C:/temp/dataset/7/18_10.odb,Step-1,Increment      4: Step Time =    1.000,"PART-1-1",           506,           15.,        -11.25,            0.,NA,NA,"",       4.85235,       4.02805,      -2.70559,   100.518E-03
C:/temp/dataset/7/18_10.odb,Step-1,Increment      4: Step Time =    1.000,"PART-1-1",           507,       12.9838,      -11.1958,            0.,NA,NA,"",       4.55648,       4.17198,      -1.83198,   58.1800E-03
C:/temp/dataset/7/18_10.odb,Step-1,Increment      4: Step Time =    1.000,"PART-1-1",           508,           15.,         11.25,            0.,NA,NA,"",       17.8381,       16.0046,      -7.87726,   34.4290E-03
C:/temp/dataset/7/18_10.odb,Step-1,Increment      4: Step Time =    1.000,"PART-1-1",           509,       12.9950,       11.1325,            0.,NA,NA,"",       17.6461,       16.3980,      -6.51867,   22.4967E-03
C:/temp/dataset/7/18_10.odb,Step-1,Increment      4: Step Time =    1.000,"PART-1-1",           510,           15.,          3.75,            0.,NA,NA,"",       12.8656,       11.4225,      -5.92020,   56.7796E-03
C:/temp/dataset/7/18_10.odb,Step-1,Increment      4: Step Time =    1.000,"PART-1-1",           511,       13.0643,       3.84158,            0.,NA,NA,"",       12.7561,       11.8411,      -4.74410,   35.0057E-03
C:/temp/dataset/7/18_10.odb,Step-1,Increment      4: Step Time =    1.000,"PART-1-1",           512,           15.,        -18.75,            0.,NA,NA,"",       2.19436,       1.60006,      -1.50168,   121.337E-03
C:/temp/dataset/7/18_10.odb,Step-1,Increment      4: Step Time =    1.000,"PART-1-1",           513,       13.1842,      -18.5870,            0.,NA,NA,"",       1.91263,       1.63748,  -988.332E-03,   74.0669E-03
C:/temp/dataset/7/18_10.odb,Step-1,Increment      4: Step Time =    1.000,"PART-1-1",           514,       13.5513,      -24.7801,            0.,NA,NA,"",   596.665E-03,   381.895E-03,  -458.438E-03,   94.5975E-03
C:/temp/dataset/7/18_10.odb,Step-1,Increment      4: Step Time =    1.000,"PART-1-1",           515,       12.2413,      -25.9996,            0.,NA,NA,"",   288.052E-03,   201.468E-03,  -205.875E-03,   58.3242E-03
C:/temp/dataset/7/18_10.odb,Step-1,Increment      4: Step Time =    1.000,"PART-1-1",           516,           15.,        -26.25,            0.,NA,NA,"",   560.422E-03,   284.549E-03,  -482.810E-03,   140.413E-03
C:/temp/dataset/7/18_10.odb,Step-1,Increment      4: Step Time =    1.000,"PART-1-1",           517,           15.,        -23.75,            0.,NA,NA,"",   999.363E-03,   587.022E-03,  -808.784E-03,   133.679E-03
C:/temp/dataset/7/18_10.odb,Step-1,Increment      4: Step Time =    1.000,"PART-1-1",           518,       12.5809,      -23.3397,            0.,NA,NA,"",   719.392E-03,   579.980E-03,  -425.615E-03,   64.8971E-03
C:/temp/dataset/7/18_10.odb,Step-1,Increment      4: Step Time =    1.000,"PART-1-1",           519,       9.49127,      -18.7202,            0.,NA,NA,"",       1.70929,       1.70896,   33.7309E-03,   22.7818E-03
C:/temp/dataset/7/18_10.odb,Step-1,Increment      4: Step Time =    1.000,"PART-1-1",           520,       8.36047,      -17.5836,            0.,NA,NA,"",       2.14679,       2.12201,   325.236E-03,   45.9221E-03
C:/temp/dataset/7/18_10.odb,Step-1,Increment      4: Step Time =    1.000,"PART-1-1",           521,       11.5260,      -20.5498,            0.,NA,NA,"",       1.22173,       1.15603,  -395.242E-03,   35.1536E-03
C:/temp/dataset/7/18_10.odb,Step-1,Increment      4: Step Time =    1.000,"PART-1-1",           522,       10.5221,      -19.7870,            0.,NA,NA,"",       1.38584,       1.37223,  -193.694E-03,   14.7072E-03
C:/temp/dataset/7/18_10.odb,Step-1,Increment      4: Step Time =    1.000,"PART-1-1",           523,       11.0260,      -21.8608,            0.,NA,NA,"",   895.676E-03,   868.089E-03,  -220.581E-03,   23.6786E-03
C:/temp/dataset/7/18_10.odb,Step-1,Increment      4: Step Time =    1.000,"PART-1-1",           524,       7.98010,      -10.7619,            0.,NA,NA,"",       4.81825,       4.81367,   209.995E-03,   45.4735E-03
C:/temp/dataset/7/18_10.odb,Step-1,Increment      4: Step Time =    1.000,"PART-1-1",           525,       8.65118,      -4.78401,            0.,NA,NA,"",       7.71851,       7.68889,  -675.618E-03,   27.9904E-03
C:/temp/dataset/7/18_10.odb,Step-1,Increment      4: Step Time =    1.000,"PART-1-1",           526,       7.84665,      -3.50518,            0.,NA,NA,"",       8.52328,       8.51234,  -431.600E-03,   37.6933E-03
C:/temp/dataset/7/18_10.odb,Step-1,Increment      4: Step Time =    1.000,"PART-1-1",           527,       9.43586,      -6.49799,            0.,NA,NA,"",       6.73889,       6.68581,  -844.153E-03,   18.0944E-03
C:/temp/dataset/7/18_10.odb,Step-1,Increment      4: Step Time =    1.000,"PART-1-1",           528,       10.6293,      -5.79077,            0.,NA,NA,"",       7.05469,       6.88875,      -1.52107,   15.3843E-03
C:/temp/dataset/7/18_10.odb,Step-1,Increment      4: Step Time =    1.000,"PART-1-1",           529,       11.1144,       3.95682,            0.,NA,NA,"",       12.7995,       12.2863,      -3.58793,   17.1400E-03
C:/temp/dataset/7/18_10.odb,Step-1,Increment      4: Step Time =    1.000,"PART-1-1",           530,       10.1270,       5.17226,            0.,NA,NA,"",       13.6288,       13.2339,      -3.25697,   12.9031E-03
C:/temp/dataset/7/18_10.odb,Step-1,Increment      4: Step Time =    1.000,"PART-1-1",           531,       9.05317,       10.7826,            0.,NA,NA,"",       17.5253,       17.0904,      -3.87970,   14.7769E-03
C:/temp/dataset/7/18_10.odb,Step-1,Increment      4: Step Time =    1.000,"PART-1-1",           532,       8.01195,       11.8024,            0.,NA,NA,"",       18.3499,       18.0214,      -3.45636,   17.3439E-03
C:/temp/dataset/7/18_10.odb,Step-1,Increment      4: Step Time =    1.000,"PART-1-1",           533,       11.0241,       10.9595,            0.,NA,NA,"",       17.5303,       16.7438,      -5.19176,   14.6764E-03
C:/temp/dataset/7/18_10.odb,Step-1,Increment      4: Step Time =    1.000,"PART-1-1",           534,       8.35051,       17.3209,            0.,NA,NA,"",       22.2697,       21.6821,      -5.08169,   13.0210E-03
C:/temp/dataset/7/18_10.odb,Step-1,Increment      4: Step Time =    1.000,"PART-1-1",           535,       12.5952,       19.1415,            0.,NA,NA,"",       23.3967,       21.8323,      -8.41177,   10.4097E-03
C:/temp/dataset/7/18_10.odb,Step-1,Increment      4: Step Time =    1.000,"PART-1-1",           536,           15.,         18.75,            0.,NA,NA,"",       23.1788,       20.9406,      -9.93708,   11.6385E-03
C:/temp/dataset/7/18_10.odb,Step-1,Increment      4: Step Time =    1.000,"PART-1-1",           537,      -7.03326,       22.4462,            0.,NA,NA,"",       29.5602,       29.3094,       3.84258,   8.73305E-03
C:/temp/dataset/7/18_10.odb,Step-1,Increment      4: Step Time =    1.000,"PART-1-1",           538,      -8.48458,       21.3302,            0.,NA,NA,"",       29.3836,       28.9410,       5.08092,   10.4079E-03
C:/temp/dataset/7/18_10.odb,Step-1,Increment      4: Step Time =    1.000,"PART-1-1",           539,      -6.65000,           20.,            0.,NA,NA,"",       27.8885,       27.5697,       4.20422,   12.3110E-03
C:/temp/dataset/7/18_10.odb,Step-1,Increment      4: Step Time =    1.000,"PART-1-1",           540,      -5.19869,       21.1160,            0.,NA,NA,"",       28.0935,       27.9367,       2.96383,   10.6370E-03
C:/temp/dataset/7/18_10.odb,Step-1,Increment      4: Step Time =    1.000,"PART-1-1",           541,       9.42603,       26.6587,            0.,NA,NA,"",       29.0056,       27.7945,      -8.29387,   2.29363E-03
C:/temp/dataset/7/18_10.odb,Step-1,Increment      4: Step Time =    1.000,"PART-1-1",           542,       10.3720,       25.4897,            0.,NA,NA,"",       28.1024,       26.7467,      -8.62313,   2.90620E-03
C:/temp/dataset/7/18_10.odb,Step-1,Increment      4: Step Time =    1.000,"PART-1-1",           543,       6.87457,       25.7626,            0.,NA,NA,"",       28.5760,       27.8660,      -6.33057,   3.60878E-03
C:/temp/dataset/7/18_10.odb,Step-1,Increment      4: Step Time =    1.000,"PART-1-1",           544,       7.54675,       26.7337,            0.,NA,NA,"",       29.2080,       28.3465,      -7.04168,   2.58211E-03
C:/temp/dataset/7/18_10.odb,Step-1,Increment      4: Step Time =    1.000,"PART-1-1",           545,      -3.17643,       25.4018,            0.,NA,NA,"",       30.2897,       30.2851,   527.156E-03,   4.32179E-03
C:/temp/dataset/7/18_10.odb,Step-1,Increment      4: Step Time =    1.000,"PART-1-1",           546,      -4.35024,       25.6599,            0.,NA,NA,"",       30.7892,       30.7641,       1.24467,   3.97256E-03
C:/temp/dataset/7/18_10.odb,Step-1,Increment      4: Step Time =    1.000,"PART-1-1",           547,       4.01884,       22.4610,            0.,NA,NA,"",       26.6234,       26.3877,      -3.53482,   7.02826E-03
C:/temp/dataset/7/18_10.odb,Step-1,Increment      4: Step Time =    1.000,"PART-1-1",           548,       5.32127,       23.1739,            0.,NA,NA,"",       26.9173,       26.5212,      -4.60057,   6.97354E-03
C:/temp/dataset/7/18_10.odb,Step-1,Increment      4: Step Time =    1.000,"PART-1-1",           549,       11.1447,       22.1526,            0.,NA,NA,"",       25.6288,       24.2643,      -8.25095,   7.24936E-03
C:/temp/dataset/7/18_10.odb,Step-1,Increment      4: Step Time =    1.000,"PART-1-1",           550,       10.2813,       23.3249,            0.,NA,NA,"",       26.5239,       25.2939,      -7.98356,   5.79570E-03
C:/temp/dataset/7/18_10.odb,Step-1,Increment      4: Step Time =    1.000,"PART-1-1",           551,       6.15508,       21.9496,            0.,NA,NA,"",       25.9145,       25.4584,      -4.84065,   10.1444E-03
C:/temp/dataset/7/18_10.odb,Step-1,Increment      4: Step Time =    1.000,"PART-1-1",           552,       6.48612,       23.9825,            0.,NA,NA,"",       27.3377,       26.7582,      -5.59899,   5.98265E-03
C:/temp/dataset/7/18_10.odb,Step-1,Increment      4: Step Time =    1.000,"PART-1-1",           553,   6.30745E-03,       24.2683,            0.,NA,NA,"",       28.7148,       28.6849,      -1.31034,   5.58774E-03
C:/temp/dataset/7/18_10.odb,Step-1,Increment      4: Step Time =    1.000,"PART-1-1",           554,      -1.65981,       23.6471,            0.,NA,NA,"",       28.7064,       28.7063,  -35.1388E-03,   6.75019E-03
C:/temp/dataset/7/18_10.odb,Step-1,Increment      4: Step Time =    1.000,"PART-1-1",           555,      -1.07768,       22.4355,            0.,NA,NA,"",       27.7352,       27.7350,  -112.122E-03,   8.61186E-03
C:/temp/dataset/7/18_10.odb,Step-1,Increment      4: Step Time =    1.000,"PART-1-1",           556,   588.432E-03,       23.0567,            0.,NA,NA,"",       27.7465,       27.7118,      -1.38647,   7.40981E-03
C:/temp/dataset/7/18_10.odb,Step-1,Increment      4: Step Time =    1.000,"PART-1-1",           557,      -4.82218,       24.5397,            0.,NA,NA,"",       30.1922,       30.1358,       1.84506,   5.61281E-03
C:/temp/dataset/7/18_10.odb,Step-1,Increment      4: Step Time =    1.000,"PART-1-1",           558,      -3.09511,       23.7242,            0.,NA,NA,"",       29.1502,       29.1363,   902.825E-03,   6.75367E-03
C:/temp/dataset/7/18_10.odb,Step-1,Increment      4: Step Time =    1.000,"PART-1-1",           559,      -5.58708,       23.2486,            0.,NA,NA,"",       29.5913,       29.4696,       2.68156,   7.52862E-03
C:/temp/dataset/7/18_10.odb,Step-1,Increment      4: Step Time =    1.000,"PART-1-1",           560,       8.76337,      -9.49006,            0.,NA,NA,"",       5.31429,       5.30982,  -218.057E-03,   30.1232E-03
C:/temp/dataset/7/18_10.odb,Step-1,Increment      4: Step Time =    1.000,"PART-1-1",           561,       9.72759,      -26.4759,            0.,NA,NA,"",   154.816E-03,   150.821E-03,   34.9413E-03,   21.3197E-03
C:/temp/dataset/7/18_10.odb,Step-1,Increment      4: Step Time =    1.000,"PART-1-1",           562,       9.12173,       6.33780,            0.,NA,NA,"",       14.4749,       14.1819,      -2.89767,   16.2015E-03
C:/temp/dataset/7/18_10.odb,Step-1,Increment      4: Step Time =    1.000,"PART-1-1",           563,       11.1214,       6.29882,            0.,NA,NA,"",       14.3363,       13.7312,      -4.12096,   16.3666E-03
C:/temp/dataset/7/18_10.odb,Step-1,Increment      4: Step Time =    1.000,"PART-1-1",           564,       11.1740,      -13.7880,            0.,NA,NA,"",       3.36858,       3.27218,  -800.109E-03,   24.7839E-03
C:/temp/dataset/7/18_10.odb,Step-1,Increment      4: Step Time =    1.000,"PART-1-1",           565,       10.6612,      -8.65022,            0.,NA,NA,"",       5.61038,       5.49152,      -1.14872,   16.2968E-03
C:/temp/dataset/7/18_10.odb,Step-1,Increment      4: Step Time =    1.000,"PART-1-1",           566,       9.47894,      -7.81405,            0.,NA,NA,"",       6.06738,       6.02596,  -707.761E-03,   18.1884E-03
C:/temp/dataset/7/18_10.odb,Step-1,Increment      4: Step Time =    1.000,"PART-1-1",           567,       11.3640,      -18.5194,            0.,NA,NA,"",       1.75959,       1.69230,  -481.947E-03,   30.4734E-03
C:/temp/dataset/7/18_10.odb,Step-1,Increment      4: Step Time =    1.000,"PART-1-1",           568,       12.0025,       20.7886,            0.,NA,NA,"",       24.6079,       23.1078,      -8.46039,   8.18065E-03
C:/temp/dataset/7/18_10.odb,Step-1,Increment      4: Step Time =    1.000,"PART-1-1",           569,       11.4947,       18.6594,            0.,NA,NA,"",       23.0561,       21.7882,      -7.54045,   11.3959E-03
C:/temp/dataset/7/18_10.odb,Step-1,Increment      4: Step Time =    1.000,"PART-1-1",           570,       9.39315,       18.1618,            0.,NA,NA,"",       22.7934,       21.9893,      -6.00078,   13.3307E-03
C:/temp/dataset/7/18_10.odb,Step-1,Increment      4: Step Time =    1.000,"PART-1-1",           571,       10.9214,       17.4088,            0.,NA,NA,"",       22.1592,       21.0842,      -6.81812,   12.3307E-03
C:/temp/dataset/7/18_10.odb,Step-1,Increment      4: Step Time =    1.000,"PART-1-1",           572,      -9.97500,           20.,            0.,NA,NA,"",       29.1500,       28.4405,       6.39247,   12.0922E-03
C:/temp/dataset/7/18_10.odb,Step-1,Increment      4: Step Time =    1.000,"PART-1-1",           573,       11.9818,      -2.09472,            0.,NA,NA,"",       9.10053,       8.64277,      -2.84994,   29.8626E-03
C:/temp/dataset/7/18_10.odb,Step-1,Increment      4: Step Time =    1.000,"PART-1-1",           574,       12.0426,   313.093E-03,            0.,NA,NA,"",       10.5220,       9.97111,      -3.36013,   28.2351E-03
C:/temp/dataset/7/18_10.odb,Step-1,Increment      4: Step Time =    1.000,"PART-1-1",           575,       12.1686,      -14.9632,            0.,NA,NA,"",       2.97866,       2.79018,      -1.04276,   45.7087E-03
C:/temp/dataset/7/18_10.odb,Step-1,Increment      4: Step Time =    1.000,"PART-1-1",           576,       12.0880,      -12.5178,            0.,NA,NA,"",       3.91999,       3.70256,      -1.28737,   41.6099E-03
C:/temp/dataset/7/18_10.odb,Step-1,Increment      4: Step Time =    1.000,"PART-1-1",           577,       12.0767,       2.70437,            0.,NA,NA,"",       11.9996,       11.3519,      -3.88926,   26.1665E-03
C:/temp/dataset/7/18_10.odb,Step-1,Increment      4: Step Time =    1.000,"PART-1-1",           578,       11.6617,       14.7036,            0.,NA,NA,"",       20.1772,       19.0726,      -6.58457,   14.0204E-03
C:/temp/dataset/7/18_10.odb,Step-1,Increment      4: Step Time =    1.000,"PART-1-1",           579,       11.9561,       12.2406,            0.,NA,NA,"",       18.4153,       17.3658,      -6.12793,   16.3306E-03
C:/temp/dataset/7/18_10.odb,Step-1,Increment      4: Step Time =    1.000,"PART-1-1",           580,       12.3155,      -19.7087,            0.,NA,NA,"",       1.49915,       1.35222,  -647.264E-03,   54.0060E-03
C:/temp/dataset/7/18_10.odb,Step-1,Increment      4: Step Time =    1.000,"PART-1-1",           581,       12.3404,      -21.7879,            0.,NA,NA,"",       1.00228,   872.627E-03,  -493.034E-03,   56.4898E-03
C:/temp/dataset/7/18_10.odb,Step-1,Increment      4: Step Time =    1.000,"PART-1-1",           582,       12.2327,      -17.3977,            0.,NA,NA,"",       2.15906,       1.99563,  -823.997E-03,   49.5545E-03
C:/temp/dataset/7/18_10.odb,Step-1,Increment      4: Step Time =    1.000,"PART-1-1",           583,       12.1020,       5.09402,            0.,NA,NA,"",       13.5354,       12.7843,      -4.44611,   23.9218E-03
C:/temp/dataset/7/18_10.odb,Step-1,Increment      4: Step Time =    1.000,"PART-1-1",           584,       12.0630,       9.85139,            0.,NA,NA,"",       16.7422,       15.7843,      -5.58180,   18.8839E-03
C:/temp/dataset/7/18_10.odb,Step-1,Increment      4: Step Time =    1.000,"PART-1-1",           585,       12.0921,       7.47372,            0.,NA,NA,"",       15.1167,       14.2630,      -5.00804,   21.3953E-03
C:/temp/dataset/7/18_10.odb,Step-1,Increment      4: Step Time =    1.000,"PART-1-1",           586,       11.9146,      -10.0225,            0.,NA,NA,"",       4.99110,       4.75048,      -1.53101,   35.9239E-03
C:/temp/dataset/7/18_10.odb,Step-1,Increment      4: Step Time =    1.000,"PART-1-1",           587,       11.5993,      -7.26023,            0.,NA,NA,"",       6.30228,       6.04671,      -1.77651,   28.4006E-03
C:/temp/dataset/7/18_10.odb,Step-1,Increment      4: Step Time =    1.000,"PART-1-1",           588,       11.8707,      -4.56496,            0.,NA,NA,"",       7.71777,       7.35312,      -2.34425,   30.6364E-03
C:/temp/dataset/7/18_10.odb,Step-1,Increment      4: Step Time =    1.000,"PART-1-1",           589,      -3.86001,       22.4330,            0.,NA,NA,"",       28.5224,       28.4692,       1.74158,   8.66944E-03
C:/temp/dataset/7/18_10.odb,Step-1,Increment      4: Step Time =    1.000,"PART-1-1",           590,       3.35000,           20.,            0.,NA,NA,"",       25.0107,       24.8915,      -2.43883,   14.8181E-03
C:/temp/dataset/7/18_10.odb,Step-1,Increment      4: Step Time =    1.000,"PART-1-1",           591,       5.05511,       21.0689,            0.,NA,NA,"",       25.4511,       25.1556,      -3.86706,   11.8084E-03
C:/temp/dataset/7/18_10.odb,Step-1,Increment      4: Step Time =    1.000,"PART-1-1",           592,       2.31373,       21.3921,            0.,NA,NA,"",       26.2059,       26.1210,      -2.10871,   9.73339E-03
C:/temp/dataset/7/18_10.odb,Step-1,Increment      4: Step Time =    1.000,"PART-1-1",           593,      -1.98632,       21.3170,            0.,NA,NA,"",       27.2326,       27.2215,   780.194E-03,   10.2836E-03
C:/temp/dataset/7/18_10.odb,Step-1,Increment      4: Step Time =    1.000,"PART-1-1",           594,   25.0000E-03,           20.,            0.,NA,NA,"",       25.7941,       25.7931,  -221.479E-03,   12.2479E-03
C:/temp/dataset/7/18_10.odb,Step-1,Increment      4: Step Time =    1.000,"PART-1-1",           595,   933.640E-03,       21.1186,            0.,NA,NA,"",       26.3303,       26.3067,      -1.11550,   10.9225E-03
C:/temp/dataset/7/18_10.odb,Step-1,Increment      4: Step Time =    1.000,"PART-1-1",           596,       7.16521,       20.7144,            0.,NA,NA,"",       24.8811,       24.3332,      -5.19295,   13.5372E-03
C:/temp/dataset/7/18_10.odb,Step-1,Increment      4: Step Time =    1.000,"PART-1-1",           597,       8.15837,       19.5039,            0.,NA,NA,"",       23.8834,       23.2332,      -5.53503,   13.3725E-03
C:/temp/dataset/7/18_10.odb,Step-1,Increment      4: Step Time =    1.000,"PART-1-1",           598,      -3.32500,           20.,            0.,NA,NA,"",       26.7646,       26.6894,       2.00499,   12.2398E-03
