ODB Name,Step,Frame,Part Instance Name,    êﬂì_ÉâÉxÉã,X,Y,Z,Section Name,Material Name,Section Point,   U-Magnitude,          U-U1,          U-U2,       S-Mises
C:/temp/dataset/7/18_7.odb,Step-1,Increment      1: Step Time =    1.000,"PART-1-1",             1,          -15.,           20.,            0.,NA,NA,"",       22.0338,       20.2151,       8.76579,   6.83004E-03
C:/temp/dataset/7/18_7.odb,Step-1,Increment      1: Step Time =    1.000,"PART-1-1",             2,          -15.,           25.,            0.,NA,NA,"",       24.0642,       22.6429,       8.14763,   4.04042E-03
C:/temp/dataset/7/18_7.odb,Step-1,Increment      1: Step Time =    1.000,"PART-1-1",             3,      -11.6500,           20.,            0.,NA,NA,"",       21.0252,       19.7728,       7.14793,   8.17640E-03
C:/temp/dataset/7/18_7.odb,Step-1,Increment      1: Step Time =    1.000,"PART-1-1",             4,      -8.30000,           20.,            0.,NA,NA,"",       20.0989,       19.3244,       5.52568,   8.69096E-03
C:/temp/dataset/7/18_7.odb,Step-1,Increment      1: Step Time =    1.000,"PART-1-1",             5,           -5.,           20.,            0.,NA,NA,"",       19.2799,       18.8775,       3.91883,   8.61802E-03
C:/temp/dataset/7/18_7.odb,Step-1,Increment      1: Step Time =    1.000,"PART-1-1",             6,      -1.65000,           20.,            0.,NA,NA,"",       18.5592,       18.4188,       2.27873,   8.59387E-03
C:/temp/dataset/7/18_7.odb,Step-1,Increment      1: Step Time =    1.000,"PART-1-1",             7,       1.70000,           20.,            0.,NA,NA,"",       17.9663,       17.9553,   630.081E-03,   9.12043E-03
C:/temp/dataset/7/18_7.odb,Step-1,Increment      1: Step Time =    1.000,"PART-1-1",             8,            5.,           20.,            0.,NA,NA,"",       17.5140,       17.4853,      -1.00209,   10.3938E-03
C:/temp/dataset/7/18_7.odb,Step-1,Increment      1: Step Time =    1.000,"PART-1-1",             9,            5.,         13.75,            0.,NA,NA,"",       14.3151,       14.3133,  -223.880E-03,   19.4631E-03
C:/temp/dataset/7/18_7.odb,Step-1,Increment      1: Step Time =    1.000,"PART-1-1",            10,            5.,           7.5,            0.,NA,NA,"",       11.2476,       11.2398,   417.579E-03,   32.5175E-03
C:/temp/dataset/7/18_7.odb,Step-1,Increment      1: Step Time =    1.000,"PART-1-1",            11,            5.,          1.25,            0.,NA,NA,"",       8.38586,       8.33903,   884.949E-03,   45.8756E-03
C:/temp/dataset/7/18_7.odb,Step-1,Increment      1: Step Time =    1.000,"PART-1-1",            12,            5.,           -5.,            0.,NA,NA,"",       5.82124,       5.70784,       1.14337,   59.2388E-03
C:/temp/dataset/7/18_7.odb,Step-1,Increment      1: Step Time =    1.000,"PART-1-1",            13,            5.,        -11.25,            0.,NA,NA,"",       3.64542,       3.45204,       1.17155,   72.4686E-03
C:/temp/dataset/7/18_7.odb,Step-1,Increment      1: Step Time =    1.000,"PART-1-1",            14,            5.,         -17.5,            0.,NA,NA,"",       1.94344,       1.68567,   967.188E-03,   85.7094E-03
C:/temp/dataset/7/18_7.odb,Step-1,Increment      1: Step Time =    1.000,"PART-1-1",            15,            5.,        -23.75,            0.,NA,NA,"",   766.072E-03,   528.708E-03,   554.377E-03,   98.0344E-03
C:/temp/dataset/7/18_7.odb,Step-1,Increment      1: Step Time =    1.000,"PART-1-1",            16,            5.,          -30.,            0.,NA,NA,"",            0.,   34.0643E-39,   63.7278E-39,   125.268E-03
C:/temp/dataset/7/18_7.odb,Step-1,Increment      1: Step Time =    1.000,"PART-1-1",            17,           15.,          -30.,            0.,NA,NA,"",            0.,   31.1347E-39,  -58.7303E-39,   115.484E-03
C:/temp/dataset/7/18_7.odb,Step-1,Increment      1: Step Time =    1.000,"PART-1-1",            18,           15.,         -22.5,            0.,NA,NA,"",   910.820E-03,   593.613E-03,  -690.808E-03,   93.4102E-03
C:/temp/dataset/7/18_7.odb,Step-1,Increment      1: Step Time =    1.000,"PART-1-1",            19,           15.,          -15.,            0.,NA,NA,"",       2.44598,       1.99492,      -1.41530,   78.3492E-03
C:/temp/dataset/7/18_7.odb,Step-1,Increment      1: Step Time =    1.000,"PART-1-1",            20,           15.,          -7.5,            0.,NA,NA,"",       4.70544,       4.14325,      -2.23040,   63.0217E-03
C:/temp/dataset/7/18_7.odb,Step-1,Increment      1: Step Time =    1.000,"PART-1-1",            21,           15.,            0.,            0.,NA,NA,"",       7.58571,       6.89707,      -3.15806,   47.5339E-03
C:/temp/dataset/7/18_7.odb,Step-1,Increment      1: Step Time =    1.000,"PART-1-1",            22,           15.,           7.5,            0.,NA,NA,"",       10.9466,       10.1161,      -4.18254,   31.9353E-03
C:/temp/dataset/7/18_7.odb,Step-1,Increment      1: Step Time =    1.000,"PART-1-1",            23,           15.,           15.,            0.,NA,NA,"",       14.6402,       13.6632,      -5.25868,   15.9650E-03
C:/temp/dataset/7/18_7.odb,Step-1,Increment      1: Step Time =    1.000,"PART-1-1",            24,           15.,          22.5,            0.,NA,NA,"",       18.5049,       17.3934,      -6.31680,   2.16672E-03
C:/temp/dataset/7/18_7.odb,Step-1,Increment      1: Step Time =    1.000,"PART-1-1",            25,           15.,           30.,            0.,NA,NA,"",       22.3901,       21.1557,      -7.33158,   20.8082E-06
C:/temp/dataset/7/18_7.odb,Step-1,Increment      1: Step Time =    1.000,"PART-1-1",            26,         11.25,           30.,            0.,NA,NA,"",       22.3358,       21.6600,      -5.45287,   46.8683E-06
C:/temp/dataset/7/18_7.odb,Step-1,Increment      1: Step Time =    1.000,"PART-1-1",            27,           7.5,           30.,            0.,NA,NA,"",       22.4501,       22.1634,      -3.57682,   112.363E-06
C:/temp/dataset/7/18_7.odb,Step-1,Increment      1: Step Time =    1.000,"PART-1-1",            28,          3.75,           30.,            0.,NA,NA,"",       22.7281,       22.6642,      -1.70349,   613.292E-06
C:/temp/dataset/7/18_7.odb,Step-1,Increment      1: Step Time =    1.000,"PART-1-1",            29,            0.,           30.,            0.,NA,NA,"",       23.1589,       23.1583,   163.958E-03,   1.32932E-03
C:/temp/dataset/7/18_7.odb,Step-1,Increment      1: Step Time =    1.000,"PART-1-1",            30,         -3.75,           30.,            0.,NA,NA,"",       23.7311,       23.6448,       2.02147,   1.60868E-03
C:/temp/dataset/7/18_7.odb,Step-1,Increment      1: Step Time =    1.000,"PART-1-1",            31,          -7.5,           30.,            0.,NA,NA,"",       24.4325,       24.1244,       3.86774,   1.68722E-03
C:/temp/dataset/7/18_7.odb,Step-1,Increment      1: Step Time =    1.000,"PART-1-1",            32,        -11.25,           30.,            0.,NA,NA,"",       25.2498,       24.5975,       5.70225,   1.45042E-03
C:/temp/dataset/7/18_7.odb,Step-1,Increment      1: Step Time =    1.000,"PART-1-1",            33,          -15.,           30.,            0.,NA,NA,"",       26.1742,       25.0688,       7.52637,   269.267E-06
C:/temp/dataset/7/18_7.odb,Step-1,Increment      1: Step Time =    1.000,"PART-1-1",            34,          -15.,          22.5,            0.,NA,NA,"",       23.0420,       21.4341,       8.45653,   7.17311E-03
C:/temp/dataset/7/18_7.odb,Step-1,Increment      1: Step Time =    1.000,"PART-1-1",            35,            5.,       15.8333,            0.,NA,NA,"",       15.3685,       15.3614,  -468.948E-03,   15.4943E-03
C:/temp/dataset/7/18_7.odb,Step-1,Increment      1: Step Time =    1.000,"PART-1-1",            36,            5.,       17.9167,            0.,NA,NA,"",       16.4334,       16.4173,  -727.326E-03,   11.3701E-03
C:/temp/dataset/7/18_7.odb,Step-1,Increment      1: Step Time =    1.000,"PART-1-1",            37,            5.,       9.58333,            0.,NA,NA,"",       12.2516,       12.2496,   221.069E-03,   28.0956E-03
C:/temp/dataset/7/18_7.odb,Step-1,Increment      1: Step Time =    1.000,"PART-1-1",            38,            5.,       11.6667,            0.,NA,NA,"",       13.2752,       13.2752,   6.69944E-03,   23.7384E-03
C:/temp/dataset/7/18_7.odb,Step-1,Increment      1: Step Time =    1.000,"PART-1-1",            39,            5.,       3.33333,            0.,NA,NA,"",       9.31130,       9.28098,   750.891E-03,   41.4183E-03
C:/temp/dataset/7/18_7.odb,Step-1,Increment      1: Step Time =    1.000,"PART-1-1",            40,            5.,       5.41667,            0.,NA,NA,"",       10.2663,       10.2491,   594.665E-03,   36.9620E-03
C:/temp/dataset/7/18_7.odb,Step-1,Increment      1: Step Time =    1.000,"PART-1-1",            41,            5.,      -2.91667,            0.,NA,NA,"",       6.63741,       6.54861,       1.08210,   54.7806E-03
C:/temp/dataset/7/18_7.odb,Step-1,Increment      1: Step Time =    1.000,"PART-1-1",            42,            5.,  -833.333E-03,            0.,NA,NA,"",       7.49342,       7.42697,   995.680E-03,   50.3415E-03
C:/temp/dataset/7/18_7.odb,Step-1,Increment      1: Step Time =    1.000,"PART-1-1",            43,            5.,      -9.16667,            0.,NA,NA,"",       4.32196,       4.15537,       1.18837,   68.0774E-03
C:/temp/dataset/7/18_7.odb,Step-1,Increment      1: Step Time =    1.000,"PART-1-1",            44,            5.,      -7.08333,            0.,NA,NA,"",       5.04834,       4.90876,       1.17892,   63.6035E-03
C:/temp/dataset/7/18_7.odb,Step-1,Increment      1: Step Time =    1.000,"PART-1-1",            45,            5.,      -15.4167,            0.,NA,NA,"",       2.45370,       2.21277,       1.06032,   81.3143E-03
C:/temp/dataset/7/18_7.odb,Step-1,Increment      1: Step Time =    1.000,"PART-1-1",            46,            5.,      -13.3333,            0.,NA,NA,"",       3.02176,       2.80304,       1.12873,   76.9042E-03
C:/temp/dataset/7/18_7.odb,Step-1,Increment      1: Step Time =    1.000,"PART-1-1",            47,            5.,      -21.6667,            0.,NA,NA,"",       1.10045,   838.859E-03,   712.251E-03,   94.1860E-03
C:/temp/dataset/7/18_7.odb,Step-1,Increment      1: Step Time =    1.000,"PART-1-1",            48,            5.,      -19.5833,            0.,NA,NA,"",       1.49228,       1.22626,   850.415E-03,   90.1664E-03
C:/temp/dataset/7/18_7.odb,Step-1,Increment      1: Step Time =    1.000,"PART-1-1",            49,            5.,      -27.9167,            0.,NA,NA,"",   244.717E-03,   142.016E-03,   199.294E-03,   107.049E-03
C:/temp/dataset/7/18_7.odb,Step-1,Increment      1: Step Time =    1.000,"PART-1-1",            50,            5.,      -25.8333,            0.,NA,NA,"",   483.122E-03,   296.861E-03,   381.157E-03,   99.5175E-03
C:/temp/dataset/7/18_7.odb,Step-1,Increment      1: Step Time =    1.000,"PART-1-1",            51,          12.5,          -30.,            0.,NA,NA,"",            0.,   71.3646E-39,  -175.957E-39,   38.6961E-03
C:/temp/dataset/7/18_7.odb,Step-1,Increment      1: Step Time =    1.000,"PART-1-1",            52,           10.,          -30.,            0.,NA,NA,"",            0.,  -34.8612E-39,  -5.03890E-39,   13.9291E-03
C:/temp/dataset/7/18_7.odb,Step-1,Increment      1: Step Time =    1.000,"PART-1-1",            53,           7.5,          -30.,            0.,NA,NA,"",            0.,   456.267E-42,   203.943E-39,   39.5291E-03
C:/temp/dataset/7/18_7.odb,Step-1,Increment      1: Step Time =    1.000,"PART-1-1",            54,           15.,          -25.,            0.,NA,NA,"",   557.600E-03,   314.828E-03,  -460.219E-03,   97.0359E-03
C:/temp/dataset/7/18_7.odb,Step-1,Increment      1: Step Time =    1.000,"PART-1-1",            55,           15.,         -27.5,            0.,NA,NA,"",   269.285E-03,   137.565E-03,  -231.496E-03,   106.006E-03
C:/temp/dataset/7/18_7.odb,Step-1,Increment      1: Step Time =    1.000,"PART-1-1",            56,           15.,         -17.5,            0.,NA,NA,"",       1.85124,       1.43783,      -1.16609,   83.3831E-03
C:/temp/dataset/7/18_7.odb,Step-1,Increment      1: Step Time =    1.000,"PART-1-1",            57,           15.,          -20.,            0.,NA,NA,"",       1.33990,   968.933E-03,  -925.467E-03,   88.3279E-03
C:/temp/dataset/7/18_7.odb,Step-1,Increment      1: Step Time =    1.000,"PART-1-1",            58,           15.,          -10.,            0.,NA,NA,"",       3.87690,       3.35287,      -1.94643,   68.1950E-03
C:/temp/dataset/7/18_7.odb,Step-1,Increment      1: Step Time =    1.000,"PART-1-1",            59,           15.,         -12.5,            0.,NA,NA,"",       3.12231,       2.63500,      -1.67499,   73.2920E-03
C:/temp/dataset/7/18_7.odb,Step-1,Increment      1: Step Time =    1.000,"PART-1-1",            60,           15.,          -2.5,            0.,NA,NA,"",       6.56503,       5.92057,      -2.83664,   52.7030E-03
C:/temp/dataset/7/18_7.odb,Step-1,Increment      1: Step Time =    1.000,"PART-1-1",            61,           15.,           -5.,            0.,NA,NA,"",       5.60317,       5.00087,      -2.52722,   57.8784E-03
C:/temp/dataset/7/18_7.odb,Step-1,Increment      1: Step Time =    1.000,"PART-1-1",            62,           15.,            5.,            0.,NA,NA,"",       9.78196,       8.99991,      -3.83253,   37.1469E-03
C:/temp/dataset/7/18_7.odb,Step-1,Increment      1: Step Time =    1.000,"PART-1-1",            63,           15.,           2.5,            0.,NA,NA,"",       8.65983,       7.92523,      -3.49047,   42.3448E-03
C:/temp/dataset/7/18_7.odb,Step-1,Increment      1: Step Time =    1.000,"PART-1-1",            64,           15.,          12.5,            0.,NA,NA,"",       13.3814,       12.4527,      -4.89811,   21.3861E-03
C:/temp/dataset/7/18_7.odb,Step-1,Increment      1: Step Time =    1.000,"PART-1-1",            65,           15.,           10.,            0.,NA,NA,"",       12.1483,       11.2687,      -4.53851,   26.6940E-03
C:/temp/dataset/7/18_7.odb,Step-1,Increment      1: Step Time =    1.000,"PART-1-1",            66,           15.,           20.,            0.,NA,NA,"",       17.2089,       16.1401,      -5.97020,   5.60665E-03
C:/temp/dataset/7/18_7.odb,Step-1,Increment      1: Step Time =    1.000,"PART-1-1",            67,           15.,          17.5,            0.,NA,NA,"",       15.9184,       14.8945,      -5.61684,   10.5347E-03
C:/temp/dataset/7/18_7.odb,Step-1,Increment      1: Step Time =    1.000,"PART-1-1",            68,           15.,          27.5,            0.,NA,NA,"",       21.0963,       19.9028,      -6.99512,   123.843E-06
C:/temp/dataset/7/18_7.odb,Step-1,Increment      1: Step Time =    1.000,"PART-1-1",            69,           15.,           25.,            0.,NA,NA,"",       19.8014,       18.6486,      -6.65766,   360.031E-06
C:/temp/dataset/7/18_7.odb,Step-1,Increment      1: Step Time =    1.000,"PART-1-1",            70,        13.125,           30.,            0.,NA,NA,"",       22.3419,       21.4080,      -6.39202,   103.775E-06
C:/temp/dataset/7/18_7.odb,Step-1,Increment      1: Step Time =    1.000,"PART-1-1",            71,         9.375,           30.,            0.,NA,NA,"",       22.3720,       21.9118,      -4.51451,   112.729E-06
C:/temp/dataset/7/18_7.odb,Step-1,Increment      1: Step Time =    1.000,"PART-1-1",            72,         5.625,           30.,            0.,NA,NA,"",       22.5693,       22.4144,      -2.63971,   217.454E-06
C:/temp/dataset/7/18_7.odb,Step-1,Increment      1: Step Time =    1.000,"PART-1-1",            73,         1.875,           30.,            0.,NA,NA,"",       22.9251,       22.9122,  -768.687E-03,   1.06114E-03
C:/temp/dataset/7/18_7.odb,Step-1,Increment      1: Step Time =    1.000,"PART-1-1",            74,        -1.875,           30.,            0.,NA,NA,"",       23.4280,       23.4025,       1.09409,   1.50951E-03
C:/temp/dataset/7/18_7.odb,Step-1,Increment      1: Step Time =    1.000,"PART-1-1",            75,        -5.625,           30.,            0.,NA,NA,"",       24.0664,       23.8854,       2.94604,   1.66563E-03
C:/temp/dataset/7/18_7.odb,Step-1,Increment      1: Step Time =    1.000,"PART-1-1",            76,        -9.375,           30.,            0.,NA,NA,"",       24.8274,       24.3617,       4.78652,   1.66878E-03
C:/temp/dataset/7/18_7.odb,Step-1,Increment      1: Step Time =    1.000,"PART-1-1",            77,       -13.125,           30.,            0.,NA,NA,"",       25.6987,       24.8327,       6.61501,   585.796E-06
C:/temp/dataset/7/18_7.odb,Step-1,Increment      1: Step Time =    1.000,"PART-1-1",            78,          -15.,          27.5,            0.,NA,NA,"",       25.1089,       23.8531,       7.84128,   1.60560E-03
C:/temp/dataset/7/18_7.odb,Step-1,Increment      1: Step Time =    1.000,"PART-1-1",            79,      -7.07467,       28.0475,            0.,NA,NA,"",       23.4416,       23.1131,       3.91033,   340.895E-06
C:/temp/dataset/7/18_7.odb,Step-1,Increment      1: Step Time =    1.000,"PART-1-1",            80,      -10.7971,       27.6072,            0.,NA,NA,"",       24.0797,       23.3744,       5.78554,   565.698E-06
C:/temp/dataset/7/18_7.odb,Step-1,Increment      1: Step Time =    1.000,"PART-1-1",            81,      -3.50976,       28.2242,            0.,NA,NA,"",       22.8381,       22.7382,       2.13440,   231.446E-06
C:/temp/dataset/7/18_7.odb,Step-1,Increment      1: Step Time =    1.000,"PART-1-1",            82,       11.3028,       27.6605,            0.,NA,NA,"",       21.1221,       20.4809,      -5.16485,   635.448E-06
C:/temp/dataset/7/18_7.odb,Step-1,Increment      1: Step Time =    1.000,"PART-1-1",            83,       7.46624,       27.7175,            0.,NA,NA,"",       21.2769,       21.0264,      -3.25479,   1.09491E-03
C:/temp/dataset/7/18_7.odb,Step-1,Increment      1: Step Time =    1.000,"PART-1-1",            84,   523.838E-03,       28.1559,            0.,NA,NA,"",       22.1751,       22.1746,   147.174E-03,   545.513E-06
C:/temp/dataset/7/18_7.odb,Step-1,Increment      1: Step Time =    1.000,"PART-1-1",            85,       13.1724,       27.5829,            0.,NA,NA,"",       21.0890,       20.1904,      -6.09037,   237.850E-06
C:/temp/dataset/7/18_7.odb,Step-1,Increment      1: Step Time =    1.000,"PART-1-1",            86,       9.41586,       27.7284,            0.,NA,NA,"",       21.1956,       20.7691,      -4.23040,   900.132E-06
C:/temp/dataset/7/18_7.odb,Step-1,Increment      1: Step Time =    1.000,"PART-1-1",            87,       5.17501,       27.3177,            0.,NA,NA,"",       21.2355,       21.1356,      -2.05766,   1.46006E-03
C:/temp/dataset/7/18_7.odb,Step-1,Increment      1: Step Time =    1.000,"PART-1-1",            88,       1.85763,       28.7412,            0.,NA,NA,"",       22.2965,       22.2886,  -593.063E-03,   357.033E-06
C:/temp/dataset/7/18_7.odb,Step-1,Increment      1: Step Time =    1.000,"PART-1-1",            89,      -1.45910,       27.7280,            0.,NA,NA,"",       22.2559,       22.2243,       1.18607,   770.829E-06
C:/temp/dataset/7/18_7.odb,Step-1,Increment      1: Step Time =    1.000,"PART-1-1",            90,      -5.31380,       28.2250,            0.,NA,NA,"",       23.1710,       22.9729,       3.02282,   194.029E-06
C:/temp/dataset/7/18_7.odb,Step-1,Increment      1: Step Time =    1.000,"PART-1-1",            91,      -8.92632,       27.8484,            0.,NA,NA,"",       23.7522,       23.2534,       4.84213,   506.415E-06
C:/temp/dataset/7/18_7.odb,Step-1,Increment      1: Step Time =    1.000,"PART-1-1",            92,       7.03655,   996.185E-03,            0.,NA,NA,"",       8.00563,       8.00545,   54.1951E-03,   28.6066E-03
C:/temp/dataset/7/18_7.odb,Step-1,Increment      1: Step Time =    1.000,"PART-1-1",            93,       6.93081,       13.7923,            0.,NA,NA,"",       14.1244,       14.0761,      -1.16643,   13.1160E-03
C:/temp/dataset/7/18_7.odb,Step-1,Increment      1: Step Time =    1.000,"PART-1-1",            94,       7.08682,       7.47611,            0.,NA,NA,"",       10.9829,       10.9699,  -535.308E-03,   20.1796E-03
C:/temp/dataset/7/18_7.odb,Step-1,Increment      1: Step Time =    1.000,"PART-1-1",            95,       6.96700,      -1.15199,            0.,NA,NA,"",       7.09242,       7.08875,   227.900E-03,   32.0023E-03
C:/temp/dataset/7/18_7.odb,Step-1,Increment      1: Step Time =    1.000,"PART-1-1",            96,       6.47578,      -21.8661,            0.,NA,NA,"",   883.608E-03,   738.072E-03,   485.812E-03,   68.0636E-03
C:/temp/dataset/7/18_7.odb,Step-1,Increment      1: Step Time =    1.000,"PART-1-1",            97,       7.14087,      -13.1040,            0.,NA,NA,"",       2.78846,       2.73245,   556.090E-03,   45.3102E-03
C:/temp/dataset/7/18_7.odb,Step-1,Increment      1: Step Time =    1.000,"PART-1-1",            98,       6.53104,      -7.08024,            0.,NA,NA,"",       4.82370,       4.77890,   655.916E-03,   45.0630E-03
C:/temp/dataset/7/18_7.odb,Step-1,Increment      1: Step Time =    1.000,"PART-1-1",            99,       6.85322,      -3.24169,            0.,NA,NA,"",       6.24814,       6.23596,   390.090E-03,   35.9385E-03
C:/temp/dataset/7/18_7.odb,Step-1,Increment      1: Step Time =    1.000,"PART-1-1",           100,       6.74184,      -8.96518,            0.,NA,NA,"",       4.13681,       4.08857,   629.965E-03,   45.1633E-03
C:/temp/dataset/7/18_7.odb,Step-1,Increment      1: Step Time =    1.000,"PART-1-1",           101,       6.94703,      -23.6171,            0.,NA,NA,"",   576.893E-03,   464.956E-03,   341.499E-03,   61.8769E-03
C:/temp/dataset/7/18_7.odb,Step-1,Increment      1: Step Time =    1.000,"PART-1-1",           102,       7.44695,      -27.8442,            0.,NA,NA,"",   116.195E-03,   65.4168E-03,   96.0307E-03,   59.0688E-03
C:/temp/dataset/7/18_7.odb,Step-1,Increment      1: Step Time =    1.000,"PART-1-1",           103,       7.35225,      -17.6578,            0.,NA,NA,"",       1.59758,       1.52649,   471.275E-03,   47.6302E-03
C:/temp/dataset/7/18_7.odb,Step-1,Increment      1: Step Time =    1.000,"PART-1-1",           104,       7.23832,      -15.2967,            0.,NA,NA,"",       2.17865,       2.11432,   525.526E-03,   46.5990E-03
C:/temp/dataset/7/18_7.odb,Step-1,Increment      1: Step Time =    1.000,"PART-1-1",           105,       7.10099,       17.6583,            0.,NA,NA,"",       16.0921,       15.9980,      -1.73788,   9.29551E-03
C:/temp/dataset/7/18_7.odb,Step-1,Increment      1: Step Time =    1.000,"PART-1-1",           106,       6.86948,       15.7920,            0.,NA,NA,"",       15.1498,       15.0865,      -1.38388,   10.7967E-03
C:/temp/dataset/7/18_7.odb,Step-1,Increment      1: Step Time =    1.000,"PART-1-1",           107,       7.06799,       9.62990,            0.,NA,NA,"",       12.0315,       12.0080,  -752.626E-03,   17.6761E-03
C:/temp/dataset/7/18_7.odb,Step-1,Increment      1: Step Time =    1.000,"PART-1-1",           108,       7.09093,       5.31052,            0.,NA,NA,"",       9.95534,       9.94995,  -327.433E-03,   22.7980E-03
C:/temp/dataset/7/18_7.odb,Step-1,Increment      1: Step Time =    1.000,"PART-1-1",           109,       6.65187,      -5.22056,            0.,NA,NA,"",       5.49876,       5.47093,   552.594E-03,   40.8605E-03
C:/temp/dataset/7/18_7.odb,Step-1,Increment      1: Step Time =    1.000,"PART-1-1",           110,       7.26954,      -25.7037,            0.,NA,NA,"",   305.577E-03,   222.734E-03,   209.205E-03,   60.3785E-03
C:/temp/dataset/7/18_7.odb,Step-1,Increment      1: Step Time =    1.000,"PART-1-1",           111,       7.53271,      -20.3934,            0.,NA,NA,"",       1.02529,   952.762E-03,   378.763E-03,   47.7416E-03
C:/temp/dataset/7/18_7.odb,Step-1,Increment      1: Step Time =    1.000,"PART-1-1",           112,       7.01178,       11.7341,            0.,NA,NA,"",       13.0801,       13.0447,  -961.941E-03,   15.3639E-03
C:/temp/dataset/7/18_7.odb,Step-1,Increment      1: Step Time =    1.000,"PART-1-1",           113,       7.07643,       3.14767,            0.,NA,NA,"",       8.96012,       8.95917,  -130.931E-03,   25.5750E-03
C:/temp/dataset/7/18_7.odb,Step-1,Increment      1: Step Time =    1.000,"PART-1-1",           114,       6.98190,      -10.9751,            0.,NA,NA,"",       3.44940,       3.39915,   586.642E-03,   44.7805E-03
C:/temp/dataset/7/18_7.odb,Step-1,Increment      1: Step Time =    1.000,"PART-1-1",           115,       13.1254,       22.8014,            0.,NA,NA,"",       18.6025,       17.7961,      -5.41768,   3.10638E-03
C:/temp/dataset/7/18_7.odb,Step-1,Increment      1: Step Time =    1.000,"PART-1-1",           116,       12.8923,      -4.74502,            0.,NA,NA,"",       5.49249,       5.20467,      -1.75464,   33.0095E-03
C:/temp/dataset/7/18_7.odb,Step-1,Increment      1: Step Time =    1.000,"PART-1-1",           117,       13.0513,      -12.4505,            0.,NA,NA,"",       2.89981,       2.68113,      -1.10474,   43.8427E-03
C:/temp/dataset/7/18_7.odb,Step-1,Increment      1: Step Time =    1.000,"PART-1-1",           118,       12.2427,       17.8341,            0.,NA,NA,"",       16.0025,       15.4165,      -4.29082,   8.71840E-03
C:/temp/dataset/7/18_7.odb,Step-1,Increment      1: Step Time =    1.000,"PART-1-1",           119,       13.0441,       9.90429,            0.,NA,NA,"",       11.9909,       11.4420,      -3.58651,   17.3274E-03
C:/temp/dataset/7/18_7.odb,Step-1,Increment      1: Step Time =    1.000,"PART-1-1",           120,       13.0522,       2.62582,            0.,NA,NA,"",       8.56463,       8.14503,      -2.64788,   26.0088E-03
C:/temp/dataset/7/18_7.odb,Step-1,Increment      1: Step Time =    1.000,"PART-1-1",           121,       13.2006,      -19.7745,            0.,NA,NA,"",       1.15208,   980.009E-03,  -605.705E-03,   54.8665E-03
C:/temp/dataset/7/18_7.odb,Step-1,Increment      1: Step Time =    1.000,"PART-1-1",           122,       9.90112,      -27.6522,            0.,NA,NA,"",   36.8924E-03,   36.0008E-03,   8.06153E-03,   12.3411E-03
C:/temp/dataset/7/18_7.odb,Step-1,Increment      1: Step Time =    1.000,"PART-1-1",           123,       13.0591,      -22.1191,            0.,NA,NA,"",   740.727E-03,   599.429E-03,  -435.157E-03,   55.0440E-03
C:/temp/dataset/7/18_7.odb,Step-1,Increment      1: Step Time =    1.000,"PART-1-1",           124,       13.1139,      -14.9356,            0.,NA,NA,"",       2.22291,       2.02022,  -927.390E-03,   47.6954E-03
C:/temp/dataset/7/18_7.odb,Step-1,Increment      1: Step Time =    1.000,"PART-1-1",           125,       13.1678,      -17.3995,            0.,NA,NA,"",       1.63595,       1.44822,  -760.899E-03,   51.4564E-03
C:/temp/dataset/7/18_7.odb,Step-1,Increment      1: Step Time =    1.000,"PART-1-1",           126,       12.7891,      -7.32383,            0.,NA,NA,"",       4.53702,       4.29355,      -1.46628,   34.6313E-03
C:/temp/dataset/7/18_7.odb,Step-1,Increment      1: Step Time =    1.000,"PART-1-1",           127,       12.9162,      -9.94117,            0.,NA,NA,"",       3.65980,       3.43092,      -1.27395,   39.1059E-03
C:/temp/dataset/7/18_7.odb,Step-1,Increment      1: Step Time =    1.000,"PART-1-1",           128,       13.0283,   193.158E-03,            0.,NA,NA,"",       7.50038,       7.12357,      -2.34743,   28.7009E-03
C:/temp/dataset/7/18_7.odb,Step-1,Increment      1: Step Time =    1.000,"PART-1-1",           129,       12.9794,      -2.25409,            0.,NA,NA,"",       6.47836,       6.14505,      -2.05124,   31.1087E-03
C:/temp/dataset/7/18_7.odb,Step-1,Increment      1: Step Time =    1.000,"PART-1-1",           130,       13.0689,       7.48049,            0.,NA,NA,"",       10.8149,       10.3075,      -3.27379,   20.3096E-03
C:/temp/dataset/7/18_7.odb,Step-1,Increment      1: Step Time =    1.000,"PART-1-1",           131,       13.0764,       5.05734,            0.,NA,NA,"",       9.67281,       9.20796,      -2.96256,   23.2651E-03
C:/temp/dataset/7/18_7.odb,Step-1,Increment      1: Step Time =    1.000,"PART-1-1",           132,       12.6962,       14.9270,            0.,NA,NA,"",       14.5079,       13.9137,      -4.10951,   11.2072E-03
C:/temp/dataset/7/18_7.odb,Step-1,Increment      1: Step Time =    1.000,"PART-1-1",           133,       12.9459,       12.3607,            0.,NA,NA,"",       13.2103,       12.6290,      -3.87543,   14.2016E-03
C:/temp/dataset/7/18_7.odb,Step-1,Increment      1: Step Time =    1.000,"PART-1-1",           134,       12.9476,       20.4489,            0.,NA,NA,"",       17.3732,       16.6369,      -5.00441,   5.69494E-03
C:/temp/dataset/7/18_7.odb,Step-1,Increment      1: Step Time =    1.000,"PART-1-1",           135,       13.1802,       25.1793,            0.,NA,NA,"",       19.8409,       18.9836,      -5.76935,   1.25945E-03
C:/temp/dataset/7/18_7.odb,Step-1,Increment      1: Step Time =    1.000,"PART-1-1",           136,      -12.4062,       24.9250,            0.,NA,NA,"",       23.3204,       22.2749,       6.90457,   4.05195E-03
C:/temp/dataset/7/18_7.odb,Step-1,Increment      1: Step Time =    1.000,"PART-1-1",           137,       11.3078,       25.3904,            0.,NA,NA,"",       19.9430,       19.3414,      -4.86149,   1.84384E-03
C:/temp/dataset/7/18_7.odb,Step-1,Increment      1: Step Time =    1.000,"PART-1-1",           138,      -10.1009,       25.2443,            0.,NA,NA,"",       22.8656,       22.1321,       5.74488,   3.18871E-03
C:/temp/dataset/7/18_7.odb,Step-1,Increment      1: Step Time =    1.000,"PART-1-1",           139,      -4.83291,       26.5053,            0.,NA,NA,"",       22.2680,       22.0639,       3.00822,   1.94379E-03
C:/temp/dataset/7/18_7.odb,Step-1,Increment      1: Step Time =    1.000,"PART-1-1",           140,       1.72347,       26.1851,            0.,NA,NA,"",       21.0364,       21.0356,  -189.262E-03,   2.12723E-03
C:/temp/dataset/7/18_7.odb,Step-1,Increment      1: Step Time =    1.000,"PART-1-1",           141,       6.12189,       25.7754,            0.,NA,NA,"",       20.3699,       20.2367,      -2.32549,   2.56557E-03
C:/temp/dataset/7/18_7.odb,Step-1,Increment      1: Step Time =    1.000,"PART-1-1",           142,       7.62725,       25.7499,            0.,NA,NA,"",       20.2539,       20.0194,      -3.07299,   2.46230E-03
C:/temp/dataset/7/18_7.odb,Step-1,Increment      1: Step Time =    1.000,"PART-1-1",           143,       3.76931,       25.0880,            0.,NA,NA,"",       20.2408,       20.2129,      -1.06204,   2.89102E-03
C:/temp/dataset/7/18_7.odb,Step-1,Increment      1: Step Time =    1.000,"PART-1-1",           144,  -231.428E-03,       26.1188,            0.,NA,NA,"",       21.2788,       21.2642,   788.814E-03,   2.21185E-03
C:/temp/dataset/7/18_7.odb,Step-1,Increment      1: Step Time =    1.000,"PART-1-1",           145,      -2.48530,       25.9891,            0.,NA,NA,"",       21.5852,       21.4997,       1.91929,   2.43053E-03
C:/temp/dataset/7/18_7.odb,Step-1,Increment      1: Step Time =    1.000,"PART-1-1",           146,      -3.63425,       26.9302,            0.,NA,NA,"",       22.2420,       22.1161,       2.36363,   1.51044E-03
C:/temp/dataset/7/18_7.odb,Step-1,Increment      1: Step Time =    1.000,"PART-1-1",           147,      -8.31738,       25.8431,            0.,NA,NA,"",       22.7065,       22.1934,       4.79977,   2.56206E-03
C:/temp/dataset/7/18_7.odb,Step-1,Increment      1: Step Time =    1.000,"PART-1-1",           148,       9.04714,   705.037E-03,            0.,NA,NA,"",       7.71731,       7.68063,  -751.598E-03,   13.2818E-03
C:/temp/dataset/7/18_7.odb,Step-1,Increment      1: Step Time =    1.000,"PART-1-1",           149,       7.85197,      -7.06885,            0.,NA,NA,"",       4.68534,       4.68079,   206.461E-03,   29.3579E-03
C:/temp/dataset/7/18_7.odb,Step-1,Increment      1: Step Time =    1.000,"PART-1-1",           150,       8.74205,      -22.9842,            0.,NA,NA,"",   520.786E-03,   498.199E-03,   151.711E-03,   29.2452E-03
C:/temp/dataset/7/18_7.odb,Step-1,Increment      1: Step Time =    1.000,"PART-1-1",           151,       9.28078,      -15.1075,            0.,NA,NA,"",       2.07309,       2.07283,   32.6824E-03,   16.6392E-03
C:/temp/dataset/7/18_7.odb,Step-1,Increment      1: Step Time =    1.000,"PART-1-1",           152,       8.97855,      -1.55139,            0.,NA,NA,"",       6.75824,       6.73680,  -537.958E-03,   14.6201E-03
C:/temp/dataset/7/18_7.odb,Step-1,Increment      1: Step Time =    1.000,"PART-1-1",           153,       9.09422,       9.69450,            0.,NA,NA,"",       11.9166,       11.7940,      -1.70463,   10.4650E-03
C:/temp/dataset/7/18_7.odb,Step-1,Increment      1: Step Time =    1.000,"PART-1-1",           154,       8.44946,       15.5970,            0.,NA,NA,"",       14.9343,       14.7815,      -2.13041,   9.55640E-03
C:/temp/dataset/7/18_7.odb,Step-1,Increment      1: Step Time =    1.000,"PART-1-1",           155,       9.11701,       7.46178,            0.,NA,NA,"",       10.8257,       10.7270,      -1.45822,   10.9439E-03
C:/temp/dataset/7/18_7.odb,Step-1,Increment      1: Step Time =    1.000,"PART-1-1",           156,       8.83101,       13.9442,            0.,NA,NA,"",       14.0658,       13.9077,      -2.10267,   9.78940E-03
C:/temp/dataset/7/18_7.odb,Step-1,Increment      1: Step Time =    1.000,"PART-1-1",           157,       9.61385,      -19.9311,            0.,NA,NA,"",   979.026E-03,   978.421E-03,   34.4138E-03,   13.6614E-03
C:/temp/dataset/7/18_7.odb,Step-1,Increment      1: Step Time =    1.000,"PART-1-1",           158,       9.10031,       2.95854,            0.,NA,NA,"",       8.71714,       8.66176,  -981.023E-03,   12.2446E-03
C:/temp/dataset/7/18_7.odb,Step-1,Increment      1: Step Time =    1.000,"PART-1-1",           159,       9.17986,      -12.8049,            0.,NA,NA,"",       2.71352,       2.71352,  -611.375E-06,   17.0617E-03
C:/temp/dataset/7/18_7.odb,Step-1,Increment      1: Step Time =    1.000,"PART-1-1",           160,       8.54844,      -8.43147,            0.,NA,NA,"",       4.14818,       4.14806,   31.7303E-03,   22.2971E-03
C:/temp/dataset/7/18_7.odb,Step-1,Increment      1: Step Time =    1.000,"PART-1-1",           161,       8.46228,      -5.79934,            0.,NA,NA,"",       5.10487,       5.10445,  -65.3409E-03,   21.6059E-03
C:/temp/dataset/7/18_7.odb,Step-1,Increment      1: Step Time =    1.000,"PART-1-1",           162,       8.97830,      -10.5487,            0.,NA,NA,"",       3.41530,       3.41525,  -18.7893E-03,   18.5141E-03
C:/temp/dataset/7/18_7.odb,Step-1,Increment      1: Step Time =    1.000,"PART-1-1",           163,       8.84007,      -3.76868,            0.,NA,NA,"",       5.86436,       5.85535,  -324.955E-03,   16.7501E-03
C:/temp/dataset/7/18_7.odb,Step-1,Increment      1: Step Time =    1.000,"PART-1-1",           164,       9.12644,       5.21383,            0.,NA,NA,"",       9.75601,       9.67954,      -1.21912,   11.4870E-03
C:/temp/dataset/7/18_7.odb,Step-1,Increment      1: Step Time =    1.000,"PART-1-1",           165,       9.36869,      -17.5094,            0.,NA,NA,"",       1.48654,       1.48553,   54.7711E-03,   16.3210E-03
C:/temp/dataset/7/18_7.odb,Step-1,Increment      1: Step Time =    1.000,"PART-1-1",           166,       9.01212,       11.8707,            0.,NA,NA,"",       13.0056,       12.8618,      -1.92906,   10.0987E-03
C:/temp/dataset/7/18_7.odb,Step-1,Increment      1: Step Time =    1.000,"PART-1-1",           167,       9.60003,       16.9835,            0.,NA,NA,"",       15.5968,       15.3294,      -2.87571,   9.55846E-03
C:/temp/dataset/7/18_7.odb,Step-1,Increment      1: Step Time =    1.000,"PART-1-1",           168,       7.13047,       19.6676,            0.,NA,NA,"",       17.1352,       17.0158,      -2.01917,   10.5160E-03
C:/temp/dataset/7/18_7.odb,Step-1,Increment      1: Step Time =    1.000,"PART-1-1",           169,       9.55406,      -25.2995,            0.,NA,NA,"",   215.749E-03,   211.517E-03,   42.5210E-03,   16.3864E-03
C:/temp/dataset/7/18_7.odb,Step-1,Increment      1: Step Time =    1.000,"PART-1-1",           170,       12.3800,      -27.4389,            0.,NA,NA,"",   117.736E-03,   63.1865E-03,  -99.3436E-03,   49.3694E-03
C:/temp/dataset/7/18_7.odb,Step-1,Increment      1: Step Time =    1.000,"PART-1-1",           171,      -11.9351,       22.4166,            0.,NA,NA,"",       22.1238,       20.9915,       6.98705,   6.95334E-03
C:/temp/dataset/7/18_7.odb,Step-1,Increment      1: Step Time =    1.000,"PART-1-1",           172,       10.9842,      -1.93535,            0.,NA,NA,"",       6.54534,       6.41620,      -1.29379,   12.8770E-03
C:/temp/dataset/7/18_7.odb,Step-1,Increment      1: Step Time =    1.000,"PART-1-1",           173,       11.2234,      -14.9909,            0.,NA,NA,"",       2.08992,       2.04147,  -447.394E-03,   19.1866E-03
C:/temp/dataset/7/18_7.odb,Step-1,Increment      1: Step Time =    1.000,"PART-1-1",           174,       11.0574,       21.1283,            0.,NA,NA,"",       17.7235,       17.2288,      -4.15825,   6.22936E-03
C:/temp/dataset/7/18_7.odb,Step-1,Increment      1: Step Time =    1.000,"PART-1-1",           175,       10.7466,       19.4847,            0.,NA,NA,"",       16.8694,       16.4406,      -3.77950,   7.89415E-03
C:/temp/dataset/7/18_7.odb,Step-1,Increment      1: Step Time =    1.000,"PART-1-1",           176,       11.0568,   433.028E-03,            0.,NA,NA,"",       7.54642,       7.38466,      -1.55410,   12.7715E-03
C:/temp/dataset/7/18_7.odb,Step-1,Increment      1: Step Time =    1.000,"PART-1-1",           177,       10.9662,       12.1205,            0.,NA,NA,"",       13.0714,       12.7475,      -2.89162,   10.0280E-03
C:/temp/dataset/7/18_7.odb,Step-1,Increment      1: Step Time =    1.000,"PART-1-1",           178,       11.6216,      -21.4567,            0.,NA,NA,"",   736.864E-03,   691.348E-03,  -254.962E-03,   28.0748E-03
C:/temp/dataset/7/18_7.odb,Step-1,Increment      1: Step Time =    1.000,"PART-1-1",           179,       11.2975,      -17.3958,            0.,NA,NA,"",       1.50836,       1.46602,  -354.851E-03,   21.0955E-03
C:/temp/dataset/7/18_7.odb,Step-1,Increment      1: Step Time =    1.000,"PART-1-1",           180,       10.6273,       14.4803,            0.,NA,NA,"",       14.2766,       13.9490,      -3.04087,   9.54973E-03
C:/temp/dataset/7/18_7.odb,Step-1,Increment      1: Step Time =    1.000,"PART-1-1",           181,       11.1012,       2.78293,            0.,NA,NA,"",       8.58528,       8.38989,      -1.82119,   12.3942E-03
C:/temp/dataset/7/18_7.odb,Step-1,Increment      1: Step Time =    1.000,"PART-1-1",           182,       11.1153,       7.46695,            0.,NA,NA,"",       10.7730,       10.5088,      -2.37113,   11.2275E-03
C:/temp/dataset/7/18_7.odb,Step-1,Increment      1: Step Time =    1.000,"PART-1-1",           183,       11.1247,      -12.5851,            0.,NA,NA,"",       2.75337,       2.69841,  -547.365E-03,   17.1544E-03
C:/temp/dataset/7/18_7.odb,Step-1,Increment      1: Step Time =    1.000,"PART-1-1",           184,       10.4094,      -7.19663,            0.,NA,NA,"",       4.51248,       4.46447,  -656.456E-03,   10.0818E-03
C:/temp/dataset/7/18_7.odb,Step-1,Increment      1: Step Time =    1.000,"PART-1-1",           185,       10.4303,      -22.2648,            0.,NA,NA,"",   577.457E-03,   573.914E-03,  -63.8673E-03,   10.4628E-03
C:/temp/dataset/7/18_7.odb,Step-1,Increment      1: Step Time =    1.000,"PART-1-1",           186,       10.9130,      -10.1038,            0.,NA,NA,"",       3.51711,       3.45995,  -631.521E-03,   14.0901E-03
C:/temp/dataset/7/18_7.odb,Step-1,Increment      1: Step Time =    1.000,"PART-1-1",           187,       10.8491,      -4.38491,            0.,NA,NA,"",       5.56355,       5.46813,      -1.02594,   12.4720E-03
C:/temp/dataset/7/18_7.odb,Step-1,Increment      1: Step Time =    1.000,"PART-1-1",           188,       11.1275,       5.13070,            0.,NA,NA,"",       9.66387,       9.43340,      -2.09791,   11.8791E-03
C:/temp/dataset/7/18_7.odb,Step-1,Increment      1: Step Time =    1.000,"PART-1-1",           189,       11.0819,       9.79848,            0.,NA,NA,"",       11.9110,       11.6133,      -2.64649,   10.6100E-03
C:/temp/dataset/7/18_7.odb,Step-1,Increment      1: Step Time =    1.000,"PART-1-1",           190,       12.1026,      -24.5603,            0.,NA,NA,"",   345.146E-03,   284.225E-03,  -195.810E-03,   39.7118E-03
C:/temp/dataset/7/18_7.odb,Step-1,Increment      1: Step Time =    1.000,"PART-1-1",           191,      -7.61069,       24.2264,            0.,NA,NA,"",       21.8117,       21.3082,       4.65958,   4.31672E-03
C:/temp/dataset/7/18_7.odb,Step-1,Increment      1: Step Time =    1.000,"PART-1-1",           192,      -5.77678,       24.2650,            0.,NA,NA,"",       21.4174,       21.0851,       3.75814,   4.23967E-03
C:/temp/dataset/7/18_7.odb,Step-1,Increment      1: Step Time =    1.000,"PART-1-1",           193,       1.00958,       23.8763,            0.,NA,NA,"",       19.9887,       19.9832,   467.565E-03,   4.14232E-03
C:/temp/dataset/7/18_7.odb,Step-1,Increment      1: Step Time =    1.000,"PART-1-1",           194,      -3.86757,       24.8145,            0.,NA,NA,"",       21.2813,       21.1027,       2.75134,   3.63098E-03
C:/temp/dataset/7/18_7.odb,Step-1,Increment      1: Step Time =    1.000,"PART-1-1",           195,  -996.969E-03,       24.6602,            0.,NA,NA,"",       20.6877,       20.6432,       1.35731,   3.67558E-03
C:/temp/dataset/7/18_7.odb,Step-1,Increment      1: Step Time =    1.000,"PART-1-1",           196,       7.19995,       21.7613,            0.,NA,NA,"",       18.2202,       18.0704,      -2.33173,   7.97948E-03
C:/temp/dataset/7/18_7.odb,Step-1,Increment      1: Step Time =    1.000,"PART-1-1",           197,       2.92747,       22.7842,            0.,NA,NA,"",       19.1803,       19.1773,  -340.112E-03,   4.87347E-03
C:/temp/dataset/7/18_7.odb,Step-1,Increment      1: Step Time =    1.000,"PART-1-1",           198,       5.53232,       24.2100,            0.,NA,NA,"",       19.6183,       19.5333,      -1.82449,   4.00704E-03
C:/temp/dataset/7/18_7.odb,Step-1,Increment      1: Step Time =    1.000,"PART-1-1",           199,       9.18626,       19.3402,            0.,NA,NA,"",       16.8408,       16.5732,      -2.99020,   9.02912E-03
C:/temp/dataset/7/18_7.odb,Step-1,Increment      1: Step Time =    1.000,"PART-1-1",           200,       11.2321,       23.1770,            0.,NA,NA,"",       18.7910,       18.2383,      -4.52412,   3.86764E-03
C:/temp/dataset/7/18_7.odb,Step-1,Increment      1: Step Time =    1.000,"PART-1-1",           201,       5.11021,       22.1378,            0.,NA,NA,"",       18.6000,       18.5516,      -1.34093,   5.84650E-03
C:/temp/dataset/7/18_7.odb,Step-1,Increment      1: Step Time =    1.000,"PART-1-1",           202,   167.280E-03,       22.2372,            0.,NA,NA,"",       19.3129,       19.2817,       1.09718,   6.25833E-03
C:/temp/dataset/7/18_7.odb,Step-1,Increment      1: Step Time =    1.000,"PART-1-1",           203,      -2.32264,       22.6339,            0.,NA,NA,"",       19.9470,       19.8172,       2.27207,   5.86351E-03
C:/temp/dataset/7/18_7.odb,Step-1,Increment      1: Step Time =    1.000,"PART-1-1",           204,       9.17324,       21.4477,            0.,NA,NA,"",       17.9425,       17.6424,      -3.26789,   7.15176E-03
C:/temp/dataset/7/18_7.odb,Step-1,Increment      1: Step Time =    1.000,"PART-1-1",           205,       9.43619,       25.5889,            0.,NA,NA,"",       20.0865,       19.6935,      -3.95391,   2.25204E-03
C:/temp/dataset/7/18_7.odb,Step-1,Increment      1: Step Time =    1.000,"PART-1-1",           206,      -5.39738,       22.2321,            0.,NA,NA,"",       20.3958,       20.0328,       3.83085,   6.32717E-03
C:/temp/dataset/7/18_7.odb,Step-1,Increment      1: Step Time =    1.000,"PART-1-1",           207,      -8.66915,       22.6604,            0.,NA,NA,"",       21.3662,       20.6797,       5.37263,   5.95734E-03
C:/temp/dataset/7/18_7.odb,Step-1,Increment      1: Step Time =    1.000,"PART-1-1",           208,      -12.8188,       27.4435,            0.,NA,NA,"",       24.5097,       23.5505,       6.78982,   1.05498E-03
C:/temp/dataset/7/18_7.odb,Step-1,Increment      1: Step Time =    1.000,"PART-1-1",           209,       7.43992,       23.7550,            0.,NA,NA,"",       19.2357,       19.0432,      -2.71464,   4.48480E-03
C:/temp/dataset/7/18_7.odb,Step-1,Increment      1: Step Time =    1.000,"PART-1-1",           210,      -6.48406,       26.1481,            0.,NA,NA,"",       22.4394,       22.1042,       3.86420,   2.30019E-03
C:/temp/dataset/7/18_7.odb,Step-1,Increment      1: Step Time =    1.000,"PART-1-1",           211,       3.18484,       28.0088,            0.,NA,NA,"",       21.7782,       21.7474,      -1.15697,   922.935E-06
C:/temp/dataset/7/18_7.odb,Step-1,Increment      1: Step Time =    1.000,"PART-1-1",           212,       11.4304,      -19.6429,            0.,NA,NA,"",       1.04643,       1.00522,  -290.793E-03,   23.9795E-03
C:/temp/dataset/7/18_7.odb,Step-1,Increment      1: Step Time =    1.000,"PART-1-1",           213,       9.33060,       23.4727,            0.,NA,NA,"",       18.9913,       18.6435,      -3.61773,   4.45138E-03
C:/temp/dataset/7/18_7.odb,Step-1,Increment      1: Step Time =    1.000,"PART-1-1",           214,      -12.1707,       23.6708,            0.,NA,NA,"",       22.7216,       21.6339,       6.94593,   5.68925E-03
C:/temp/dataset/7/18_7.odb,Step-1,Increment      1: Step Time =    1.000,"PART-1-1",           215,      -13.7031,       24.9625,            0.,NA,NA,"",       23.6885,       22.4603,       7.52858,   4.10646E-03
C:/temp/dataset/7/18_7.odb,Step-1,Increment      1: Step Time =    1.000,"PART-1-1",           216,          -15.,         23.75,            0.,NA,NA,"",       23.5528,       22.0417,       8.30071,   6.02975E-03
C:/temp/dataset/7/18_7.odb,Step-1,Increment      1: Step Time =    1.000,"PART-1-1",           217,      -13.4675,       22.4583,            0.,NA,NA,"",       22.5745,       21.2128,       7.72177,   7.09925E-03
C:/temp/dataset/7/18_7.odb,Step-1,Increment      1: Step Time =    1.000,"PART-1-1",           218,      -9.86170,       27.7278,            0.,NA,NA,"",       23.9120,       23.3140,       5.31421,   518.288E-06
C:/temp/dataset/7/18_7.odb,Step-1,Increment      1: Step Time =    1.000,"PART-1-1",           219,      -10.4490,       26.4258,            0.,NA,NA,"",       23.4728,       22.7537,       5.76547,   1.82243E-03
C:/temp/dataset/7/18_7.odb,Step-1,Increment      1: Step Time =    1.000,"PART-1-1",           220,      -9.20914,       25.5437,            0.,NA,NA,"",       22.7813,       22.1627,       5.27277,   2.88106E-03
C:/temp/dataset/7/18_7.odb,Step-1,Increment      1: Step Time =    1.000,"PART-1-1",           221,      -8.62185,       26.8458,            0.,NA,NA,"",       23.2296,       22.7238,       4.82106,   1.51654E-03
C:/temp/dataset/7/18_7.odb,Step-1,Increment      1: Step Time =    1.000,"PART-1-1",           222,      -9.15066,       28.9242,            0.,NA,NA,"",       24.2898,       23.8079,       4.81445,   578.038E-06
C:/temp/dataset/7/18_7.odb,Step-1,Increment      1: Step Time =    1.000,"PART-1-1",           223,      -10.3125,           30.,            0.,NA,NA,"",       25.0353,       24.4797,       5.24478,   1.54820E-03
C:/temp/dataset/7/18_7.odb,Step-1,Increment      1: Step Time =    1.000,"PART-1-1",           224,      -11.0235,       28.8036,            0.,NA,NA,"",       24.6645,       23.9863,       5.74399,   490.807E-06
C:/temp/dataset/7/18_7.odb,Step-1,Increment      1: Step Time =    1.000,"PART-1-1",           225,      -11.2536,       25.0847,            0.,NA,NA,"",       23.0870,       22.2035,       6.32536,   3.48230E-03
C:/temp/dataset/7/18_7.odb,Step-1,Increment      1: Step Time =    1.000,"PART-1-1",           226,      -10.3021,       22.5385,            0.,NA,NA,"",       21.7334,       20.8359,       6.18108,   6.33528E-03
C:/temp/dataset/7/18_7.odb,Step-1,Increment      1: Step Time =    1.000,"PART-1-1",           227,      -9.38503,       23.9523,            0.,NA,NA,"",       22.1170,       21.4070,       5.55883,   4.61007E-03
C:/temp/dataset/7/18_7.odb,Step-1,Increment      1: Step Time =    1.000,"PART-1-1",           228,      -12.9719,       28.7217,            0.,NA,NA,"",       25.1031,       24.1918,       6.70230,   745.699E-06
C:/temp/dataset/7/18_7.odb,Step-1,Increment      1: Step Time =    1.000,"PART-1-1",           229,      -14.0625,           30.,            0.,NA,NA,"",       25.9333,       24.9507,       7.07081,   305.881E-06
C:/temp/dataset/7/18_7.odb,Step-1,Increment      1: Step Time =    1.000,"PART-1-1",           230,          -15.,         28.75,            0.,NA,NA,"",       25.6396,       24.4610,       7.68412,   378.203E-06
C:/temp/dataset/7/18_7.odb,Step-1,Increment      1: Step Time =    1.000,"PART-1-1",           231,      -13.9094,       27.4717,            0.,NA,NA,"",       24.8047,       23.7015,       7.31516,   1.08431E-03
C:/temp/dataset/7/18_7.odb,Step-1,Increment      1: Step Time =    1.000,"PART-1-1",           232,      -7.40072,       25.9956,            0.,NA,NA,"",       22.5686,       22.1489,       4.33238,   2.43732E-03
C:/temp/dataset/7/18_7.odb,Step-1,Increment      1: Step Time =    1.000,"PART-1-1",           233,      -7.96404,       25.0347,            0.,NA,NA,"",       22.2594,       21.7511,       4.72974,   3.45963E-03
C:/temp/dataset/7/18_7.odb,Step-1,Increment      1: Step Time =    1.000,"PART-1-1",           234,      -6.69374,       24.2457,            0.,NA,NA,"",       21.6107,       21.1968,       4.20920,   4.26922E-03
C:/temp/dataset/7/18_7.odb,Step-1,Increment      1: Step Time =    1.000,"PART-1-1",           235,      -6.13042,       25.2066,            0.,NA,NA,"",       21.9287,       21.5950,       3.81125,   3.26423E-03
C:/temp/dataset/7/18_7.odb,Step-1,Increment      1: Step Time =    1.000,"PART-1-1",           236,      -5.46940,       29.1125,            0.,NA,NA,"",       23.6187,       23.4294,       2.98455,   738.216E-06
C:/temp/dataset/7/18_7.odb,Step-1,Increment      1: Step Time =    1.000,"PART-1-1",           237,      -4.41178,       28.2246,            0.,NA,NA,"",       23.0008,       22.8557,       2.57893,   214.386E-06
C:/temp/dataset/7/18_7.odb,Step-1,Increment      1: Step Time =    1.000,"PART-1-1",           238,      -3.62988,       29.1121,            0.,NA,NA,"",       23.2846,       23.1916,       2.07806,   703.164E-06
C:/temp/dataset/7/18_7.odb,Step-1,Increment      1: Step Time =    1.000,"PART-1-1",           239,       -4.6875,           30.,            0.,NA,NA,"",       23.8948,       23.7653,       2.48412,   1.63691E-03
C:/temp/dataset/7/18_7.odb,Step-1,Increment      1: Step Time =    1.000,"PART-1-1",           240,  -467.629E-03,       27.9420,            0.,NA,NA,"",       22.2096,       22.1995,   667.095E-03,   642.025E-06
C:/temp/dataset/7/18_7.odb,Step-1,Increment      1: Step Time =    1.000,"PART-1-1",           241,  -845.263E-03,       26.9234,            0.,NA,NA,"",       21.7672,       21.7448,   987.491E-03,   1.49329E-03
C:/temp/dataset/7/18_7.odb,Step-1,Increment      1: Step Time =    1.000,"PART-1-1",           242,   746.021E-03,       26.1520,            0.,NA,NA,"",       21.1522,       21.1501,   300.202E-03,   2.15664E-03
C:/temp/dataset/7/18_7.odb,Step-1,Increment      1: Step Time =    1.000,"PART-1-1",           243,       1.12365,       27.1705,            0.,NA,NA,"",       21.6056,       21.6056,  -20.9737E-03,   1.31658E-03
C:/temp/dataset/7/18_7.odb,Step-1,Increment      1: Step Time =    1.000,"PART-1-1",           244,       14.0901,       25.0896,            0.,NA,NA,"",       19.8155,       18.8162,      -6.21319,   733.195E-06
C:/temp/dataset/7/18_7.odb,Step-1,Increment      1: Step Time =    1.000,"PART-1-1",           245,       13.1528,       23.9903,            0.,NA,NA,"",       19.2220,       18.3901,      -5.59395,   2.17101E-03
C:/temp/dataset/7/18_7.odb,Step-1,Increment      1: Step Time =    1.000,"PART-1-1",           246,       14.0627,       22.6507,            0.,NA,NA,"",       18.5472,       17.5950,      -5.86649,   2.33942E-03
C:/temp/dataset/7/18_7.odb,Step-1,Increment      1: Step Time =    1.000,"PART-1-1",           247,           15.,         23.75,            0.,NA,NA,"",       19.1533,       18.0210,      -6.48783,   1.25486E-03
C:/temp/dataset/7/18_7.odb,Step-1,Increment      1: Step Time =    1.000,"PART-1-1",           248,       11.2764,       28.8302,            0.,NA,NA,"",       21.7292,       21.0706,      -5.30891,   302.790E-06
C:/temp/dataset/7/18_7.odb,Step-1,Increment      1: Step Time =    1.000,"PART-1-1",           249,       10.3125,           30.,            0.,NA,NA,"",       22.3486,       21.7859,      -4.98360,   47.6114E-06
C:/temp/dataset/7/18_7.odb,Step-1,Increment      1: Step Time =    1.000,"PART-1-1",           250,       9.39543,       28.8642,            0.,NA,NA,"",       21.7839,       21.3406,      -4.37243,   494.072E-06
C:/temp/dataset/7/18_7.odb,Step-1,Increment      1: Step Time =    1.000,"PART-1-1",           251,       10.3594,       27.6945,            0.,NA,NA,"",       21.1532,       20.6250,      -4.69752,   756.440E-06
C:/temp/dataset/7/18_7.odb,Step-1,Increment      1: Step Time =    1.000,"PART-1-1",           252,        8.4375,           30.,            0.,NA,NA,"",       22.4059,       22.0376,      -4.04559,   115.459E-06
C:/temp/dataset/7/18_7.odb,Step-1,Increment      1: Step Time =    1.000,"PART-1-1",           253,       7.48312,       28.8587,            0.,NA,NA,"",       21.8635,       21.5950,      -3.41566,   585.043E-06
C:/temp/dataset/7/18_7.odb,Step-1,Increment      1: Step Time =    1.000,"PART-1-1",           254,       8.44105,       27.7230,            0.,NA,NA,"",       21.2302,       20.8978,      -3.74252,   972.318E-06
C:/temp/dataset/7/18_7.odb,Step-1,Increment      1: Step Time =    1.000,"PART-1-1",           255,       13.0365,       21.6252,            0.,NA,NA,"",       17.9880,       17.2165,      -5.21148,   4.37921E-03
C:/temp/dataset/7/18_7.odb,Step-1,Increment      1: Step Time =    1.000,"PART-1-1",           256,       13.9738,       20.2245,            0.,NA,NA,"",       17.2826,       16.3888,      -5.48596,   5.10086E-03
C:/temp/dataset/7/18_7.odb,Step-1,Increment      1: Step Time =    1.000,"PART-1-1",           257,           15.,         21.25,            0.,NA,NA,"",       17.8566,       16.7662,      -6.14432,   3.87685E-03
C:/temp/dataset/7/18_7.odb,Step-1,Increment      1: Step Time =    1.000,"PART-1-1",           258,       6.90015,       14.7921,            0.,NA,NA,"",       14.6357,       14.5801,      -1.27394,   11.9575E-03
C:/temp/dataset/7/18_7.odb,Step-1,Increment      1: Step Time =    1.000,"PART-1-1",           259,       5.93474,       15.8126,            0.,NA,NA,"",       15.2507,       15.2225,  -927.524E-03,   12.6784E-03
C:/temp/dataset/7/18_7.odb,Step-1,Increment      1: Step Time =    1.000,"PART-1-1",           260,            5.,       14.7917,            0.,NA,NA,"",       14.8402,       14.8362,  -344.702E-03,   17.4612E-03
C:/temp/dataset/7/18_7.odb,Step-1,Increment      1: Step Time =    1.000,"PART-1-1",           261,       5.96541,       13.7711,            0.,NA,NA,"",       14.2103,       14.1932,  -696.176E-03,   15.9279E-03
C:/temp/dataset/7/18_7.odb,Step-1,Increment      1: Step Time =    1.000,"PART-1-1",           262,       7.07741,       8.55300,            0.,NA,NA,"",       11.5043,       11.4864,  -641.924E-03,   18.9178E-03
C:/temp/dataset/7/18_7.odb,Step-1,Increment      1: Step Time =    1.000,"PART-1-1",           263,       6.03400,       9.60662,            0.,NA,NA,"",       12.1298,       12.1268,  -266.760E-03,   22.5742E-03
C:/temp/dataset/7/18_7.odb,Step-1,Increment      1: Step Time =    1.000,"PART-1-1",           264,            5.,       8.54167,            0.,NA,NA,"",       11.7470,       11.7426,   321.662E-03,   30.3055E-03
C:/temp/dataset/7/18_7.odb,Step-1,Increment      1: Step Time =    1.000,"PART-1-1",           265,       6.04341,       7.48805,            0.,NA,NA,"",       11.1028,       11.1026,  -59.9789E-03,   26.0707E-03
C:/temp/dataset/7/18_7.odb,Step-1,Increment      1: Step Time =    1.000,"PART-1-1",           266,            5.,         4.375,            0.,NA,NA,"",       9.78534,       9.76200,   675.475E-03,   39.1865E-03
C:/temp/dataset/7/18_7.odb,Step-1,Increment      1: Step Time =    1.000,"PART-1-1",           267,       6.03822,       3.24050,            0.,NA,NA,"",       9.12255,       9.11734,   308.405E-03,   33.2840E-03
C:/temp/dataset/7/18_7.odb,Step-1,Increment      1: Step Time =    1.000,"PART-1-1",           268,       7.08368,       4.22909,            0.,NA,NA,"",       9.45384,       9.45112,  -226.635E-03,   24.1760E-03
C:/temp/dataset/7/18_7.odb,Step-1,Increment      1: Step Time =    1.000,"PART-1-1",           269,       6.04546,       5.36359,            0.,NA,NA,"",       10.0979,       10.0970,   132.290E-03,   29.6356E-03
C:/temp/dataset/7/18_7.odb,Step-1,Increment      1: Step Time =    1.000,"PART-1-1",           270,            5.,       2.29167,            0.,NA,NA,"",       8.84467,       8.80650,   820.770E-03,   43.6422E-03
C:/temp/dataset/7/18_7.odb,Step-1,Increment      1: Step Time =    1.000,"PART-1-1",           271,       6.01828,       1.12309,            0.,NA,NA,"",       8.18270,       8.16932,   467.759E-03,   37.0596E-03
C:/temp/dataset/7/18_7.odb,Step-1,Increment      1: Step Time =    1.000,"PART-1-1",           272,       7.05649,       2.07193,            0.,NA,NA,"",       8.47853,       8.47846,  -35.5741E-03,   27.0786E-03
C:/temp/dataset/7/18_7.odb,Step-1,Increment      1: Step Time =    1.000,"PART-1-1",           273,       7.00178,  -77.9012E-03,            0.,NA,NA,"",       7.54420,       7.54282,   144.126E-03,   30.2897E-03
C:/temp/dataset/7/18_7.odb,Step-1,Increment      1: Step Time =    1.000,"PART-1-1",           274,            5.,   208.333E-03,            0.,NA,NA,"",       7.93530,       7.87903,   943.299E-03,   48.1014E-03
C:/temp/dataset/7/18_7.odb,Step-1,Increment      1: Step Time =    1.000,"PART-1-1",           275,       5.98350,  -992.661E-03,            0.,NA,NA,"",       7.28042,       7.25484,   609.744E-03,   41.0192E-03
C:/temp/dataset/7/18_7.odb,Step-1,Increment      1: Step Time =    1.000,"PART-1-1",           276,       6.59145,      -6.15040,            0.,NA,NA,"",       5.15665,       5.12078,   607.203E-03,   42.9430E-03
C:/temp/dataset/7/18_7.odb,Step-1,Increment      1: Step Time =    1.000,"PART-1-1",           277,       5.82593,      -5.11028,            0.,NA,NA,"",       5.65091,       5.58714,   846.529E-03,   49.9195E-03
C:/temp/dataset/7/18_7.odb,Step-1,Increment      1: Step Time =    1.000,"PART-1-1",           278,            5.,      -6.04167,            0.,NA,NA,"",       5.42916,       5.30283,       1.16438,   61.4195E-03
C:/temp/dataset/7/18_7.odb,Step-1,Increment      1: Step Time =    1.000,"PART-1-1",           279,       5.76552,      -7.08179,            0.,NA,NA,"",       4.92821,       4.84217,   916.877E-03,   54.3062E-03
C:/temp/dataset/7/18_7.odb,Step-1,Increment      1: Step Time =    1.000,"PART-1-1",           280,       8.25955,      -15.2021,            0.,NA,NA,"",       2.10907,       2.09032,   280.578E-03,   31.0019E-03
C:/temp/dataset/7/18_7.odb,Step-1,Increment      1: Step Time =    1.000,"PART-1-1",           281,       9.23032,      -13.9562,            0.,NA,NA,"",       2.38412,       2.38406,   18.0642E-03,   16.8385E-03
C:/temp/dataset/7/18_7.odb,Step-1,Increment      1: Step Time =    1.000,"PART-1-1",           282,       8.16037,      -12.9544,            0.,NA,NA,"",       2.73440,       2.72004,   279.871E-03,   30.6126E-03
C:/temp/dataset/7/18_7.odb,Step-1,Increment      1: Step Time =    1.000,"PART-1-1",           283,       7.18960,      -14.2003,            0.,NA,NA,"",       2.47528,       2.41496,   543.110E-03,   45.9380E-03
C:/temp/dataset/7/18_7.odb,Step-1,Increment      1: Step Time =    1.000,"PART-1-1",           284,            5.,      -22.7083,            0.,NA,NA,"",   926.375E-03,   674.106E-03,   635.415E-03,   95.9746E-03
C:/temp/dataset/7/18_7.odb,Step-1,Increment      1: Step Time =    1.000,"PART-1-1",           285,       5.97351,      -23.6835,            0.,NA,NA,"",   666.421E-03,   493.447E-03,   447.914E-03,   80.0090E-03
C:/temp/dataset/7/18_7.odb,Step-1,Increment      1: Step Time =    1.000,"PART-1-1",           286,       6.71140,      -22.7416,            0.,NA,NA,"",   722.948E-03,   594.234E-03,   411.752E-03,   65.0037E-03
C:/temp/dataset/7/18_7.odb,Step-1,Increment      1: Step Time =    1.000,"PART-1-1",           287,       5.73789,      -21.7664,            0.,NA,NA,"",   987.704E-03,   786.644E-03,   597.287E-03,   80.9203E-03
C:/temp/dataset/7/18_7.odb,Step-1,Increment      1: Step Time =    1.000,"PART-1-1",           288,       9.95056,      -28.8261,            0.,NA,NA,"",   3.94013E-03,  -3.24983E-03,   2.22782E-03,   4.08264E-03
C:/temp/dataset/7/18_7.odb,Step-1,Increment      1: Step Time =    1.000,"PART-1-1",           289,       8.67404,      -27.7482,            0.,NA,NA,"",   68.0663E-03,   44.4526E-03,   51.5460E-03,   33.3920E-03
C:/temp/dataset/7/18_7.odb,Step-1,Increment      1: Step Time =    1.000,"PART-1-1",           290,       7.47347,      -28.9221,            0.,NA,NA,"",   44.3932E-03,   13.7013E-03,   42.2260E-03,   48.7093E-03
C:/temp/dataset/7/18_7.odb,Step-1,Increment      1: Step Time =    1.000,"PART-1-1",           291,          8.75,          -30.,            0.,NA,NA,"",            0.,  -11.5939E-39,   40.9757E-39,   22.7621E-03
C:/temp/dataset/7/18_7.odb,Step-1,Increment      1: Step Time =    1.000,"PART-1-1",           292,       9.14805,      -24.1419,            0.,NA,NA,"",   353.659E-03,   341.889E-03,   90.4789E-03,   22.6212E-03
C:/temp/dataset/7/18_7.odb,Step-1,Increment      1: Step Time =    1.000,"PART-1-1",           293,       7.84454,      -23.3007,            0.,NA,NA,"",   540.223E-03,   478.251E-03,   251.231E-03,   45.2209E-03
C:/temp/dataset/7/18_7.odb,Step-1,Increment      1: Step Time =    1.000,"PART-1-1",           294,       7.10828,      -24.6604,            0.,NA,NA,"",   432.100E-03,   333.632E-03,   274.592E-03,   60.9061E-03
C:/temp/dataset/7/18_7.odb,Step-1,Increment      1: Step Time =    1.000,"PART-1-1",           295,       8.41180,      -25.5016,            0.,NA,NA,"",   248.266E-03,   211.769E-03,   129.576E-03,   37.5439E-03
C:/temp/dataset/7/18_7.odb,Step-1,Increment      1: Step Time =    1.000,"PART-1-1",           296,       7.00425,      -21.1298,            0.,NA,NA,"",   949.034E-03,   840.994E-03,   439.766E-03,   57.8958E-03
C:/temp/dataset/7/18_7.odb,Step-1,Increment      1: Step Time =    1.000,"PART-1-1",           297,       6.26636,      -19.9884,            0.,NA,NA,"",       1.23993,       1.08182,   605.878E-03,   68.7948E-03
C:/temp/dataset/7/18_7.odb,Step-1,Increment      1: Step Time =    1.000,"PART-1-1",           298,            5.,       -20.625,            0.,NA,NA,"",       1.28954,       1.02368,   784.212E-03,   92.1561E-03
C:/temp/dataset/7/18_7.odb,Step-1,Increment      1: Step Time =    1.000,"PART-1-1",           299,       12.8526,      -8.63250,            0.,NA,NA,"",       4.08818,       3.85233,      -1.36849,   36.8526E-03
C:/temp/dataset/7/18_7.odb,Step-1,Increment      1: Step Time =    1.000,"PART-1-1",           300,       13.9581,      -9.97058,            0.,NA,NA,"",       3.75051,       3.38868,      -1.60722,   53.4542E-03
C:/temp/dataset/7/18_7.odb,Step-1,Increment      1: Step Time =    1.000,"PART-1-1",           301,           15.,         -8.75,            0.,NA,NA,"",       4.28221,       3.73932,      -2.08683,   65.5959E-03
C:/temp/dataset/7/18_7.odb,Step-1,Increment      1: Step Time =    1.000,"PART-1-1",           302,       13.8945,      -7.41192,            0.,NA,NA,"",       4.60136,       4.21495,      -1.84573,   48.6266E-03
C:/temp/dataset/7/18_7.odb,Step-1,Increment      1: Step Time =    1.000,"PART-1-1",           303,            5.,        10.625,            0.,NA,NA,"",       12.7612,       12.7607,   116.015E-03,   25.9149E-03
C:/temp/dataset/7/18_7.odb,Step-1,Increment      1: Step Time =    1.000,"PART-1-1",           304,       7.03988,       10.6820,            0.,NA,NA,"",       12.5535,       12.5243,  -855.605E-03,   16.5142E-03
C:/temp/dataset/7/18_7.odb,Step-1,Increment      1: Step Time =    1.000,"PART-1-1",           305,       6.00589,       11.7004,            0.,NA,NA,"",       13.1669,       13.1582,  -478.591E-03,   19.2169E-03
C:/temp/dataset/7/18_7.odb,Step-1,Increment      1: Step Time =    1.000,"PART-1-1",           306,       2.74639,       25.6366,            0.,NA,NA,"",       20.6343,       20.6249,  -625.381E-03,   2.52238E-03
C:/temp/dataset/7/18_7.odb,Step-1,Increment      1: Step Time =    1.000,"PART-1-1",           307,       1.36653,       25.0307,            0.,NA,NA,"",       20.5098,       20.5093,   139.518E-03,   3.04942E-03
C:/temp/dataset/7/18_7.odb,Step-1,Increment      1: Step Time =    1.000,"PART-1-1",           308,       1.96853,       23.3303,            0.,NA,NA,"",       19.5811,       19.5810,   63.8765E-03,   4.46707E-03
C:/temp/dataset/7/18_7.odb,Step-1,Increment      1: Step Time =    1.000,"PART-1-1",           309,       3.34839,       23.9361,            0.,NA,NA,"",       19.7076,       19.6952,  -700.787E-03,   4.04052E-03
C:/temp/dataset/7/18_7.odb,Step-1,Increment      1: Step Time =    1.000,"PART-1-1",           310,       4.47216,       26.2029,            0.,NA,NA,"",       20.7328,       20.6740,      -1.55946,   2.19177E-03
C:/temp/dataset/7/18_7.odb,Step-1,Increment      1: Step Time =    1.000,"PART-1-1",           311,       4.17993,       27.6633,            0.,NA,NA,"",       21.5020,       21.4419,      -1.60717,   1.18029E-03
C:/temp/dataset/7/18_7.odb,Step-1,Increment      1: Step Time =    1.000,"PART-1-1",           312,       2.45416,       27.0970,            0.,NA,NA,"",       21.4018,       21.3913,  -672.584E-03,   1.48488E-03
C:/temp/dataset/7/18_7.odb,Step-1,Increment      1: Step Time =    1.000,"PART-1-1",           313,      -1.66705,       28.8640,            0.,NA,NA,"",       22.8421,       22.8137,       1.14027,   395.270E-06
C:/temp/dataset/7/18_7.odb,Step-1,Increment      1: Step Time =    1.000,"PART-1-1",           314,   261.919E-03,       29.0779,            0.,NA,NA,"",       22.6672,       22.6666,   155.692E-03,   491.242E-06
C:/temp/dataset/7/18_7.odb,Step-1,Increment      1: Step Time =    1.000,"PART-1-1",           315,    -937.5E-03,           30.,            0.,NA,NA,"",       23.2891,       23.2806,   629.363E-03,   1.41905E-03
C:/temp/dataset/7/18_7.odb,Step-1,Increment      1: Step Time =    1.000,"PART-1-1",           316,          -15.,         21.25,            0.,NA,NA,"",       22.5349,       20.8247,       8.61134,   6.75740E-03
C:/temp/dataset/7/18_7.odb,Step-1,Increment      1: Step Time =    1.000,"PART-1-1",           317,      -13.3250,           20.,            0.,NA,NA,"",       21.5195,       19.9944,       7.95675,   7.48412E-03
C:/temp/dataset/7/18_7.odb,Step-1,Increment      1: Step Time =    1.000,"PART-1-1",           318,      -11.7925,       21.2083,            0.,NA,NA,"",       21.5728,       20.3822,       7.06765,   7.45446E-03
C:/temp/dataset/7/18_7.odb,Step-1,Increment      1: Step Time =    1.000,"PART-1-1",           319,       10.1137,       15.7319,            0.,NA,NA,"",       14.9323,       14.6363,      -2.95864,   9.38569E-03
C:/temp/dataset/7/18_7.odb,Step-1,Increment      1: Step Time =    1.000,"PART-1-1",           320,       9.02474,       16.2903,            0.,NA,NA,"",       15.2617,       15.0552,      -2.50191,   9.34878E-03
C:/temp/dataset/7/18_7.odb,Step-1,Increment      1: Step Time =    1.000,"PART-1-1",           321,       8.64023,       14.7706,            0.,NA,NA,"",       14.4989,       14.3436,      -2.11631,   9.63004E-03
C:/temp/dataset/7/18_7.odb,Step-1,Increment      1: Step Time =    1.000,"PART-1-1",           322,       9.72917,       14.2122,            0.,NA,NA,"",       14.1633,       13.9281,      -2.57079,   9.07508E-03
C:/temp/dataset/7/18_7.odb,Step-1,Increment      1: Step Time =    1.000,"PART-1-1",           323,       12.8210,       13.6438,            0.,NA,NA,"",       13.8558,       13.2682,      -3.99226,   12.6364E-03
C:/temp/dataset/7/18_7.odb,Step-1,Increment      1: Step Time =    1.000,"PART-1-1",           324,       13.9730,       12.4303,            0.,NA,NA,"",       13.2854,       12.5411,      -4.38423,   17.3395E-03
C:/temp/dataset/7/18_7.odb,Step-1,Increment      1: Step Time =    1.000,"PART-1-1",           325,           15.,         13.75,            0.,NA,NA,"",       14.0080,       13.0550,      -5.07846,   18.6825E-03
C:/temp/dataset/7/18_7.odb,Step-1,Increment      1: Step Time =    1.000,"PART-1-1",           326,       13.8481,       14.9635,            0.,NA,NA,"",       14.5619,       13.7889,      -4.68131,   12.8558E-03
C:/temp/dataset/7/18_7.odb,Step-1,Increment      1: Step Time =    1.000,"PART-1-1",           327,       10.1008,       2.87074,            0.,NA,NA,"",       8.63819,       8.52386,      -1.40080,   9.02625E-03
C:/temp/dataset/7/18_7.odb,Step-1,Increment      1: Step Time =    1.000,"PART-1-1",           328,       9.07373,       1.83179,            0.,NA,NA,"",       8.21236,       8.16682,  -863.641E-03,   12.7395E-03
C:/temp/dataset/7/18_7.odb,Step-1,Increment      1: Step Time =    1.000,"PART-1-1",           329,       10.0520,   569.032E-03,            0.,NA,NA,"",       7.61796,       7.53021,      -1.15293,   9.04291E-03
C:/temp/dataset/7/18_7.odb,Step-1,Increment      1: Step Time =    1.000,"PART-1-1",           330,       11.0790,       1.60798,            0.,NA,NA,"",       8.06046,       7.88232,      -1.68529,   12.5814E-03
C:/temp/dataset/7/18_7.odb,Step-1,Increment      1: Step Time =    1.000,"PART-1-1",           331,       9.98138,      -1.74337,            0.,NA,NA,"",       6.63712,       6.57354,  -916.478E-03,   9.13053E-03
C:/temp/dataset/7/18_7.odb,Step-1,Increment      1: Step Time =    1.000,"PART-1-1",           332,       8.90931,      -2.66004,            0.,NA,NA,"",       6.30547,       6.29093,  -428.089E-03,   15.6349E-03
C:/temp/dataset/7/18_7.odb,Step-1,Increment      1: Step Time =    1.000,"PART-1-1",           333,       9.84458,      -4.07679,            0.,NA,NA,"",       5.69825,       5.65786,  -677.251E-03,   9.56641E-03
C:/temp/dataset/7/18_7.odb,Step-1,Increment      1: Step Time =    1.000,"PART-1-1",           334,       10.9167,      -3.16013,            0.,NA,NA,"",       6.04731,       5.93571,      -1.15641,   12.6386E-03
C:/temp/dataset/7/18_7.odb,Step-1,Increment      1: Step Time =    1.000,"PART-1-1",           335,            5.,      -3.95833,            0.,NA,NA,"",       6.22414,       6.12329,       1.11592,   56.9962E-03
C:/temp/dataset/7/18_7.odb,Step-1,Increment      1: Step Time =    1.000,"PART-1-1",           336,       6.75254,      -4.23112,            0.,NA,NA,"",       5.86839,       5.84915,   474.861E-03,   38.3763E-03
C:/temp/dataset/7/18_7.odb,Step-1,Increment      1: Step Time =    1.000,"PART-1-1",           337,       5.92661,      -3.07918,            0.,NA,NA,"",       6.43145,       6.38942,   734.066E-03,   45.2374E-03
C:/temp/dataset/7/18_7.odb,Step-1,Increment      1: Step Time =    1.000,"PART-1-1",           338,       7.06139,      -12.0396,            0.,NA,NA,"",       3.11154,       3.05828,   573.247E-03,   45.0428E-03
C:/temp/dataset/7/18_7.odb,Step-1,Increment      1: Step Time =    1.000,"PART-1-1",           339,       5.99095,      -11.1126,            0.,NA,NA,"",       3.53422,       3.42291,   879.999E-03,   58.5199E-03
C:/temp/dataset/7/18_7.odb,Step-1,Increment      1: Step Time =    1.000,"PART-1-1",           340,            5.,      -12.2917,            0.,NA,NA,"",       3.32681,       3.12048,       1.15339,   74.6644E-03
C:/temp/dataset/7/18_7.odb,Step-1,Increment      1: Step Time =    1.000,"PART-1-1",           341,       6.07044,      -13.2187,            0.,NA,NA,"",       2.89012,       2.76441,   843.100E-03,   60.9779E-03
C:/temp/dataset/7/18_7.odb,Step-1,Increment      1: Step Time =    1.000,"PART-1-1",           342,       6.63644,      -8.02271,            0.,NA,NA,"",       4.47515,       4.42855,   644.148E-03,   45.1159E-03
C:/temp/dataset/7/18_7.odb,Step-1,Increment      1: Step Time =    1.000,"PART-1-1",           343,            5.,        -8.125,            0.,NA,NA,"",       4.67912,       4.52607,       1.18691,   65.8337E-03
C:/temp/dataset/7/18_7.odb,Step-1,Increment      1: Step Time =    1.000,"PART-1-1",           344,       5.87092,      -9.06592,            0.,NA,NA,"",       4.21914,       4.11994,   909.508E-03,   56.5095E-03
C:/temp/dataset/7/18_7.odb,Step-1,Increment      1: Step Time =    1.000,"PART-1-1",           345,       13.0826,      -13.6930,            0.,NA,NA,"",       2.55090,       2.34047,      -1.01453,   45.7641E-03
C:/temp/dataset/7/18_7.odb,Step-1,Increment      1: Step Time =    1.000,"PART-1-1",           346,       14.0569,      -14.9678,            0.,NA,NA,"",       2.32020,       2.00418,      -1.16901,   62.8925E-03
C:/temp/dataset/7/18_7.odb,Step-1,Increment      1: Step Time =    1.000,"PART-1-1",           347,           15.,        -13.75,            0.,NA,NA,"",       2.77413,       2.30491,      -1.54374,   75.7868E-03
C:/temp/dataset/7/18_7.odb,Step-1,Increment      1: Step Time =    1.000,"PART-1-1",           348,       14.0257,      -12.4752,            0.,NA,NA,"",       2.99547,       2.65489,      -1.38722,   58.4172E-03
C:/temp/dataset/7/18_7.odb,Step-1,Increment      1: Step Time =    1.000,"PART-1-1",           349,       8.13738,      -21.6888,            0.,NA,NA,"",   753.322E-03,   708.618E-03,   255.645E-03,   38.4547E-03
C:/temp/dataset/7/18_7.odb,Step-1,Increment      1: Step Time =    1.000,"PART-1-1",           350,            5.,      -28.9583,            0.,NA,NA,"",   129.641E-03,   84.1690E-03,   98.6027E-03,   108.557E-03
C:/temp/dataset/7/18_7.odb,Step-1,Increment      1: Step Time =    1.000,"PART-1-1",           351,          6.25,          -30.,            0.,NA,NA,"",            0.,  -2.67613E-39,   121.466E-39,   77.3730E-03
C:/temp/dataset/7/18_7.odb,Step-1,Increment      1: Step Time =    1.000,"PART-1-1",           352,       6.22347,      -27.8804,            0.,NA,NA,"",   169.716E-03,   94.2944E-03,   141.111E-03,   82.2130E-03
C:/temp/dataset/7/18_7.odb,Step-1,Increment      1: Step Time =    1.000,"PART-1-1",           353,           15.,        -28.75,            0.,NA,NA,"",   139.821E-03,   82.6946E-03,  -112.745E-03,   102.358E-03
C:/temp/dataset/7/18_7.odb,Step-1,Increment      1: Step Time =    1.000,"PART-1-1",           354,       13.6900,      -27.4695,            0.,NA,NA,"",   180.818E-03,   86.9718E-03,  -158.528E-03,   76.1890E-03
C:/temp/dataset/7/18_7.odb,Step-1,Increment      1: Step Time =    1.000,"PART-1-1",           355,       12.4400,      -28.7195,            0.,NA,NA,"",   45.5665E-03,   5.98317E-03,  -45.1720E-03,   43.5941E-03
C:/temp/dataset/7/18_7.odb,Step-1,Increment      1: Step Time =    1.000,"PART-1-1",           356,         13.75,          -30.,            0.,NA,NA,"",            0.,  -9.76477E-39,  -116.866E-39,   71.8958E-03
C:/temp/dataset/7/18_7.odb,Step-1,Increment      1: Step Time =    1.000,"PART-1-1",           357,       9.58617,      -22.6245,            0.,NA,NA,"",   534.970E-03,   532.684E-03,   49.4015E-03,   14.7729E-03
C:/temp/dataset/7/18_7.odb,Step-1,Increment      1: Step Time =    1.000,"PART-1-1",           358,       10.0221,      -21.0980,            0.,NA,NA,"",   763.863E-03,   763.593E-03,  -20.3080E-03,   10.1444E-03
C:/temp/dataset/7/18_7.odb,Step-1,Increment      1: Step Time =    1.000,"PART-1-1",           359,       8.57328,      -20.1623,            0.,NA,NA,"",   984.522E-03,   961.736E-03,   210.588E-03,   29.7902E-03
C:/temp/dataset/7/18_7.odb,Step-1,Increment      1: Step Time =    1.000,"PART-1-1",           360,       11.1406,      -27.5456,            0.,NA,NA,"",   57.7594E-03,   41.5061E-03,  -40.1671E-03,   22.8643E-03
C:/temp/dataset/7/18_7.odb,Step-1,Increment      1: Step Time =    1.000,"PART-1-1",           361,         11.25,          -30.,            0.,NA,NA,"",            0.,  -14.5441E-39,  -41.1517E-39,   22.6928E-03
C:/temp/dataset/7/18_7.odb,Step-1,Increment      1: Step Time =    1.000,"PART-1-1",           362,       11.2605,      -16.1933,            0.,NA,NA,"",       1.78854,       1.74336,  -399.454E-03,   20.1366E-03
C:/temp/dataset/7/18_7.odb,Step-1,Increment      1: Step Time =    1.000,"PART-1-1",           363,       10.2521,      -15.0492,            0.,NA,NA,"",       2.06435,       2.05409,  -205.567E-03,   9.19912E-03
C:/temp/dataset/7/18_7.odb,Step-1,Increment      1: Step Time =    1.000,"PART-1-1",           364,       9.32474,      -16.3084,            0.,NA,NA,"",       1.76917,       1.76858,   45.8280E-03,   16.4684E-03
C:/temp/dataset/7/18_7.odb,Step-1,Increment      1: Step Time =    1.000,"PART-1-1",           365,       10.3331,      -17.4526,            0.,NA,NA,"",       1.47994,       1.47249,  -148.286E-03,   9.48376E-03
C:/temp/dataset/7/18_7.odb,Step-1,Increment      1: Step Time =    1.000,"PART-1-1",           366,       7.44248,      -19.0256,            0.,NA,NA,"",       1.29693,       1.22455,   427.208E-03,   47.7110E-03
C:/temp/dataset/7/18_7.odb,Step-1,Increment      1: Step Time =    1.000,"PART-1-1",           367,       6.17612,      -17.5789,            0.,NA,NA,"",       1.75435,       1.60126,   716.743E-03,   66.5715E-03
C:/temp/dataset/7/18_7.odb,Step-1,Increment      1: Step Time =    1.000,"PART-1-1",           368,            5.,      -18.5417,            0.,NA,NA,"",       1.71053,       1.44728,   911.759E-03,   87.8580E-03
C:/temp/dataset/7/18_7.odb,Step-1,Increment      1: Step Time =    1.000,"PART-1-1",           369,       12.8407,      -6.03443,            0.,NA,NA,"",       5.00598,       4.74091,      -1.60736,   33.8178E-03
C:/temp/dataset/7/18_7.odb,Step-1,Increment      1: Step Time =    1.000,"PART-1-1",           370,           15.,         -6.25,            0.,NA,NA,"",       5.14598,       4.56398,      -2.37721,   60.4315E-03
C:/temp/dataset/7/18_7.odb,Step-1,Increment      1: Step Time =    1.000,"PART-1-1",           371,       13.9462,      -4.87251,            0.,NA,NA,"",       5.53019,       5.09981,      -2.13890,   45.2460E-03
C:/temp/dataset/7/18_7.odb,Step-1,Increment      1: Step Time =    1.000,"PART-1-1",           372,       7.64514,      -8.69832,            0.,NA,NA,"",       4.12989,       4.11640,   333.559E-03,   33.4869E-03
C:/temp/dataset/7/18_7.odb,Step-1,Increment      1: Step Time =    1.000,"PART-1-1",           373,       8.20020,      -7.75016,            0.,NA,NA,"",       4.41241,       4.41085,   117.449E-03,   25.8220E-03
C:/temp/dataset/7/18_7.odb,Step-1,Increment      1: Step Time =    1.000,"PART-1-1",           374,       7.19150,      -7.07454,            0.,NA,NA,"",       4.74834,       4.72874,   431.047E-03,   36.9747E-03
C:/temp/dataset/7/18_7.odb,Step-1,Increment      1: Step Time =    1.000,"PART-1-1",           375,       7.97278,      -1.35169,            0.,NA,NA,"",       6.91140,       6.90963,  -156.598E-03,   22.7741E-03
C:/temp/dataset/7/18_7.odb,Step-1,Increment      1: Step Time =    1.000,"PART-1-1",           376,       9.01285,  -423.179E-03,            0.,NA,NA,"",       7.23235,       7.20381,  -641.838E-03,   13.9247E-03
C:/temp/dataset/7/18_7.odb,Step-1,Increment      1: Step Time =    1.000,"PART-1-1",           377,       8.04185,   850.611E-03,            0.,NA,NA,"",       7.84814,       7.84035,  -349.745E-03,   20.3279E-03
C:/temp/dataset/7/18_7.odb,Step-1,Increment      1: Step Time =    1.000,"PART-1-1",           378,       8.08837,       3.05311,            0.,NA,NA,"",       8.82571,       8.80814,  -556.610E-03,   18.2142E-03
C:/temp/dataset/7/18_7.odb,Step-1,Increment      1: Step Time =    1.000,"PART-1-1",           379,       9.11337,       4.08618,            0.,NA,NA,"",       9.23224,       9.16675,      -1.09771,   11.8478E-03
C:/temp/dataset/7/18_7.odb,Step-1,Increment      1: Step Time =    1.000,"PART-1-1",           380,       8.10868,       5.26217,            0.,NA,NA,"",       9.84319,       9.81275,  -773.618E-03,   16.3928E-03
C:/temp/dataset/7/18_7.odb,Step-1,Increment      1: Step Time =    1.000,"PART-1-1",           381,       7.08888,       6.39331,            0.,NA,NA,"",       10.4657,       10.4569,  -429.066E-03,   21.4791E-03
C:/temp/dataset/7/18_7.odb,Step-1,Increment      1: Step Time =    1.000,"PART-1-1",           382,            5.,       6.45833,            0.,NA,NA,"",       10.7539,       10.7419,   508.648E-03,   34.7374E-03
C:/temp/dataset/7/18_7.odb,Step-1,Increment      1: Step Time =    1.000,"PART-1-1",           383,           15.,         16.25,            0.,NA,NA,"",       15.2773,       14.2766,      -5.43825,   13.2584E-03
C:/temp/dataset/7/18_7.odb,Step-1,Increment      1: Step Time =    1.000,"PART-1-1",           384,       13.6214,       17.6671,            0.,NA,NA,"",       15.9441,       15.1559,      -4.95106,   8.53109E-03
C:/temp/dataset/7/18_7.odb,Step-1,Increment      1: Step Time =    1.000,"PART-1-1",           385,       12.4694,       16.3805,            0.,NA,NA,"",       15.2520,       14.6622,      -4.20044,   9.83365E-03
C:/temp/dataset/7/18_7.odb,Step-1,Increment      1: Step Time =    1.000,"PART-1-1",           386,       10.0881,       9.74649,            0.,NA,NA,"",       11.9031,       11.7027,      -2.17470,   9.01009E-03
C:/temp/dataset/7/18_7.odb,Step-1,Increment      1: Step Time =    1.000,"PART-1-1",           387,       9.10561,       8.57814,            0.,NA,NA,"",       11.3679,       11.2577,      -1.57967,   10.6936E-03
C:/temp/dataset/7/18_7.odb,Step-1,Increment      1: Step Time =    1.000,"PART-1-1",           388,       10.1162,       7.46436,            0.,NA,NA,"",       10.7878,       10.6167,      -1.91392,   9.01470E-03
C:/temp/dataset/7/18_7.odb,Step-1,Increment      1: Step Time =    1.000,"PART-1-1",           389,       11.0986,       8.63272,            0.,NA,NA,"",       11.3384,       11.0577,      -2.50740,   10.9135E-03
C:/temp/dataset/7/18_7.odb,Step-1,Increment      1: Step Time =    1.000,"PART-1-1",           390,       9.96644,       19.4124,            0.,NA,NA,"",       16.8501,       16.5067,      -3.38472,   8.38821E-03
C:/temp/dataset/7/18_7.odb,Step-1,Increment      1: Step Time =    1.000,"PART-1-1",           391,       10.9020,       20.3065,            0.,NA,NA,"",       17.2963,       16.8348,      -3.96881,   7.05544E-03
C:/temp/dataset/7/18_7.odb,Step-1,Increment      1: Step Time =    1.000,"PART-1-1",           392,       10.1153,       21.2880,            0.,NA,NA,"",       17.8259,       17.4350,      -3.71293,   6.46509E-03
C:/temp/dataset/7/18_7.odb,Step-1,Increment      1: Step Time =    1.000,"PART-1-1",           393,       9.17975,       20.3940,            0.,NA,NA,"",       17.3917,       17.1078,      -3.12923,   8.06442E-03
C:/temp/dataset/7/18_7.odb,Step-1,Increment      1: Step Time =    1.000,"PART-1-1",           394,           15.,         28.75,            0.,NA,NA,"",       21.7432,       20.5293,      -7.16337,   54.9572E-06
C:/temp/dataset/7/18_7.odb,Step-1,Increment      1: Step Time =    1.000,"PART-1-1",           395,       14.0625,           30.,            0.,NA,NA,"",       22.3607,       21.2819,      -6.86180,   57.9644E-06
C:/temp/dataset/7/18_7.odb,Step-1,Increment      1: Step Time =    1.000,"PART-1-1",           396,       13.1487,       28.7914,            0.,NA,NA,"",       21.7155,       20.7993,      -6.24126,   79.0293E-06
C:/temp/dataset/7/18_7.odb,Step-1,Increment      1: Step Time =    1.000,"PART-1-1",           397,       14.0862,       27.5414,            0.,NA,NA,"",       21.0873,       20.0466,      -6.54268,   84.0097E-06
C:/temp/dataset/7/18_7.odb,Step-1,Increment      1: Step Time =    1.000,"PART-1-1",           398,       12.2440,       25.2848,            0.,NA,NA,"",       19.8859,       19.1624,      -5.31515,   1.48979E-03
C:/temp/dataset/7/18_7.odb,Step-1,Increment      1: Step Time =    1.000,"PART-1-1",           399,       13.1763,       26.3811,            0.,NA,NA,"",       20.4653,       19.5873,      -5.93013,   741.246E-06
C:/temp/dataset/7/18_7.odb,Step-1,Increment      1: Step Time =    1.000,"PART-1-1",           400,       12.2376,       27.6217,            0.,NA,NA,"",       21.1000,       20.3357,      -5.62747,   429.096E-06
C:/temp/dataset/7/18_7.odb,Step-1,Increment      1: Step Time =    1.000,"PART-1-1",           401,       11.3053,       26.5254,            0.,NA,NA,"",       20.5329,       19.9115,      -5.01331,   1.22046E-03
C:/temp/dataset/7/18_7.odb,Step-1,Increment      1: Step Time =    1.000,"PART-1-1",           402,       12.1875,           30.,            0.,NA,NA,"",       22.3336,       21.5340,      -5.92236,   79.3643E-06
C:/temp/dataset/7/18_7.odb,Step-1,Increment      1: Step Time =    1.000,"PART-1-1",           403,        6.5625,           30.,            0.,NA,NA,"",       22.5047,       22.2890,      -3.10818,   77.5226E-06
C:/temp/dataset/7/18_7.odb,Step-1,Increment      1: Step Time =    1.000,"PART-1-1",           404,       5.40000,       28.6589,            0.,NA,NA,"",       21.9011,       21.7749,      -2.34831,   654.674E-06
C:/temp/dataset/7/18_7.odb,Step-1,Increment      1: Step Time =    1.000,"PART-1-1",           405,       6.32063,       27.5176,            0.,NA,NA,"",       21.2477,       21.0810,      -2.65604,   1.25372E-03
C:/temp/dataset/7/18_7.odb,Step-1,Increment      1: Step Time =    1.000,"PART-1-1",           406,        2.8125,           30.,            0.,NA,NA,"",       22.8219,       22.7885,      -1.23587,   840.441E-06
C:/temp/dataset/7/18_7.odb,Step-1,Increment      1: Step Time =    1.000,"PART-1-1",           407,       1.86631,       29.3706,            0.,NA,NA,"",       22.6106,       22.6004,  -680.779E-03,   533.903E-06
C:/temp/dataset/7/18_7.odb,Step-1,Increment      1: Step Time =    1.000,"PART-1-1",           408,       2.52123,       28.3750,            0.,NA,NA,"",       22.0356,       22.0183,  -874.930E-03,   603.945E-06
C:/temp/dataset/7/18_7.odb,Step-1,Increment      1: Step Time =    1.000,"PART-1-1",           409,       3.46742,       29.0044,            0.,NA,NA,"",       22.2516,       22.2056,      -1.42991,   336.101E-06
C:/temp/dataset/7/18_7.odb,Step-1,Increment      1: Step Time =    1.000,"PART-1-1",           410,       1.19073,       28.4486,            0.,NA,NA,"",       22.2327,       22.2316,  -222.705E-03,   413.063E-06
C:/temp/dataset/7/18_7.odb,Step-1,Increment      1: Step Time =    1.000,"PART-1-1",           411,      -2.48443,       27.9761,            0.,NA,NA,"",       22.5429,       22.4817,       1.66055,   500.164E-06
C:/temp/dataset/7/18_7.odb,Step-1,Increment      1: Step Time =    1.000,"PART-1-1",           412,       -2.8125,           30.,            0.,NA,NA,"",       23.5754,       23.5239,       1.55814,   1.56194E-03
C:/temp/dataset/7/18_7.odb,Step-1,Increment      1: Step Time =    1.000,"PART-1-1",           413,      -7.28733,       29.0238,            0.,NA,NA,"",       23.9371,       23.6190,       3.88916,   672.605E-06
C:/temp/dataset/7/18_7.odb,Step-1,Increment      1: Step Time =    1.000,"PART-1-1",           414,      -6.19423,       28.1363,            0.,NA,NA,"",       23.3025,       23.0432,       3.46693,   264.436E-06
C:/temp/dataset/7/18_7.odb,Step-1,Increment      1: Step Time =    1.000,"PART-1-1",           415,       -6.5625,           30.,            0.,NA,NA,"",       24.2457,       24.0051,       3.40725,   1.67387E-03
C:/temp/dataset/7/18_7.odb,Step-1,Increment      1: Step Time =    1.000,"PART-1-1",           416,      -11.8079,       27.5253,            0.,NA,NA,"",       24.2907,       23.4627,       6.28797,   450.534E-06
C:/temp/dataset/7/18_7.odb,Step-1,Increment      1: Step Time =    1.000,"PART-1-1",           417,      -12.6125,       26.1842,            0.,NA,NA,"",       23.9143,       22.9129,       6.84780,   1.64316E-03
C:/temp/dataset/7/18_7.odb,Step-1,Increment      1: Step Time =    1.000,"PART-1-1",           418,      -8.13992,       23.4434,            0.,NA,NA,"",       21.5847,       20.9937,       5.01652,   5.14538E-03
C:/temp/dataset/7/18_7.odb,Step-1,Increment      1: Step Time =    1.000,"PART-1-1",           419,       -8.4375,           30.,            0.,NA,NA,"",       24.6264,       24.2432,       4.32751,   1.67440E-03
C:/temp/dataset/7/18_7.odb,Step-1,Increment      1: Step Time =    1.000,"PART-1-1",           420,      -8.00049,       27.9480,            0.,NA,NA,"",       23.5929,       23.1834,       4.37662,   415.931E-06
C:/temp/dataset/7/18_7.odb,Step-1,Increment      1: Step Time =    1.000,"PART-1-1",           421,      -12.1875,           30.,            0.,NA,NA,"",       25.4709,       24.7151,       6.15900,   1.04612E-03
C:/temp/dataset/7/18_7.odb,Step-1,Increment      1: Step Time =    1.000,"PART-1-1",           422,          -15.,         26.25,            0.,NA,NA,"",       24.5818,       23.2449,       7.99634,   1.53116E-03
C:/temp/dataset/7/18_7.odb,Step-1,Increment      1: Step Time =    1.000,"PART-1-1",           423,  -614.199E-03,       25.3895,            0.,NA,NA,"",       20.9811,       20.9536,       1.07337,   2.94470E-03
C:/temp/dataset/7/18_7.odb,Step-1,Increment      1: Step Time =    1.000,"PART-1-1",           424,      -1.97220,       26.8586,            0.,NA,NA,"",       21.9169,       21.8618,       1.55310,   1.58147E-03
C:/temp/dataset/7/18_7.odb,Step-1,Increment      1: Step Time =    1.000,"PART-1-1",           425,      -1.74113,       25.3247,            0.,NA,NA,"",       21.1356,       21.0720,       1.63836,   3.03875E-03
C:/temp/dataset/7/18_7.odb,Step-1,Increment      1: Step Time =    1.000,"PART-1-1",           426,       8.18659,       21.6045,            0.,NA,NA,"",       18.0738,       17.8555,      -2.80010,   7.28691E-03
C:/temp/dataset/7/18_7.odb,Step-1,Increment      1: Step Time =    1.000,"PART-1-1",           427,       9.25192,       22.4602,            0.,NA,NA,"",       18.4672,       18.1434,      -3.44285,   5.73036E-03
C:/temp/dataset/7/18_7.odb,Step-1,Increment      1: Step Time =    1.000,"PART-1-1",           428,       8.38526,       23.6138,            0.,NA,NA,"",       19.1072,       18.8431,      -3.16636,   4.38285E-03
C:/temp/dataset/7/18_7.odb,Step-1,Increment      1: Step Time =    1.000,"PART-1-1",           429,       7.31993,       22.7581,            0.,NA,NA,"",       18.7284,       18.5576,      -2.52300,   6.09346E-03
C:/temp/dataset/7/18_7.odb,Step-1,Increment      1: Step Time =    1.000,"PART-1-1",           430,           15.,         26.25,            0.,NA,NA,"",       20.4490,       19.2759,      -6.82667,   120.375E-06
C:/temp/dataset/7/18_7.odb,Step-1,Increment      1: Step Time =    1.000,"PART-1-1",           431,        4.6875,           30.,            0.,NA,NA,"",       22.6438,       22.5395,      -2.17145,   416.438E-06
C:/temp/dataset/7/18_7.odb,Step-1,Increment      1: Step Time =    1.000,"PART-1-1",           432,       9.38339,       24.5308,            0.,NA,NA,"",       19.5392,       19.1690,      -3.78580,   3.31175E-03
C:/temp/dataset/7/18_7.odb,Step-1,Increment      1: Step Time =    1.000,"PART-1-1",           433,       8.53172,       25.6694,            0.,NA,NA,"",       20.1648,       19.8563,      -3.51343,   2.31846E-03
C:/temp/dataset/7/18_7.odb,Step-1,Increment      1: Step Time =    1.000,"PART-1-1",           434,       7.53359,       24.7524,            0.,NA,NA,"",       19.7449,       19.5317,      -2.89365,   3.47064E-03
C:/temp/dataset/7/18_7.odb,Step-1,Increment      1: Step Time =    1.000,"PART-1-1",           435,     937.5E-03,           30.,            0.,NA,NA,"",       23.0375,       23.0355,  -302.069E-03,   1.19478E-03
C:/temp/dataset/7/18_7.odb,Step-1,Increment      1: Step Time =    1.000,"PART-1-1",           436,       5.64845,       26.5466,            0.,NA,NA,"",       20.8023,       20.6865,      -2.19156,   1.99118E-03
C:/temp/dataset/7/18_7.odb,Step-1,Increment      1: Step Time =    1.000,"PART-1-1",           437,       4.65082,       24.6490,            0.,NA,NA,"",       19.9260,       19.8736,      -1.44325,   3.41271E-03
C:/temp/dataset/7/18_7.odb,Step-1,Increment      1: Step Time =    1.000,"PART-1-1",           438,       5.82711,       24.9927,            0.,NA,NA,"",       19.9930,       19.8850,      -2.07486,   3.27518E-03
C:/temp/dataset/7/18_7.odb,Step-1,Increment      1: Step Time =    1.000,"PART-1-1",           439,      -3.57200,       27.5772,            0.,NA,NA,"",       22.5396,       22.4271,       2.24910,   877.301E-06
C:/temp/dataset/7/18_7.odb,Step-1,Increment      1: Step Time =    1.000,"PART-1-1",           440,      -3.05977,       26.4597,            0.,NA,NA,"",       21.9131,       21.8082,       2.14150,   1.96805E-03
C:/temp/dataset/7/18_7.odb,Step-1,Increment      1: Step Time =    1.000,"PART-1-1",           441,      -4.23358,       26.7178,            0.,NA,NA,"",       22.2527,       22.0899,       2.68614,   1.72252E-03
C:/temp/dataset/7/18_7.odb,Step-1,Increment      1: Step Time =    1.000,"PART-1-1",           442,      -5.07335,       27.3652,            0.,NA,NA,"",       22.7197,       22.5186,       3.01560,   1.05817E-03
C:/temp/dataset/7/18_7.odb,Step-1,Increment      1: Step Time =    1.000,"PART-1-1",           443,      -5.65848,       26.3267,            0.,NA,NA,"",       22.3498,       22.0841,       3.43656,   2.11473E-03
C:/temp/dataset/7/18_7.odb,Step-1,Increment      1: Step Time =    1.000,"PART-1-1",           444,      -6.77936,       27.0978,            0.,NA,NA,"",       22.9407,       22.6090,       3.88736,   1.31784E-03
C:/temp/dataset/7/18_7.odb,Step-1,Increment      1: Step Time =    1.000,"PART-1-1",           445,       13.0726,       6.26892,            0.,NA,NA,"",       10.2393,       9.75336,      -3.11685,   21.7859E-03
C:/temp/dataset/7/18_7.odb,Step-1,Increment      1: Step Time =    1.000,"PART-1-1",           446,       14.0382,       5.02867,            0.,NA,NA,"",       9.71573,       9.10316,      -3.39528,   29.9670E-03
C:/temp/dataset/7/18_7.odb,Step-1,Increment      1: Step Time =    1.000,"PART-1-1",           447,           15.,          6.25,            0.,NA,NA,"",       10.3593,       9.55312,      -4.00665,   34.5374E-03
C:/temp/dataset/7/18_7.odb,Step-1,Increment      1: Step Time =    1.000,"PART-1-1",           448,       14.0344,       7.49025,            0.,NA,NA,"",       10.8699,       10.2114,      -3.72579,   25.8459E-03
C:/temp/dataset/7/18_7.odb,Step-1,Increment      1: Step Time =    1.000,"PART-1-1",           449,            5.,       12.7083,            0.,NA,NA,"",       13.7933,       13.7929,  -106.672E-03,   21.5943E-03
C:/temp/dataset/7/18_7.odb,Step-1,Increment      1: Step Time =    1.000,"PART-1-1",           450,       6.97129,       12.7632,            0.,NA,NA,"",       13.6004,       13.5588,      -1.06279,   14.2402E-03
C:/temp/dataset/7/18_7.odb,Step-1,Increment      1: Step Time =    1.000,"PART-1-1",           451,       8.08110,       9.66220,            0.,NA,NA,"",       11.9628,       11.8996,      -1.22868,   13.3106E-03
C:/temp/dataset/7/18_7.odb,Step-1,Increment      1: Step Time =    1.000,"PART-1-1",           452,       8.10192,       7.46894,            0.,NA,NA,"",       10.8925,       10.8468,  -996.922E-03,   14.7984E-03
C:/temp/dataset/7/18_7.odb,Step-1,Increment      1: Step Time =    1.000,"PART-1-1",           453,            5.,        -1.875,            0.,NA,NA,"",       7.06064,       6.98333,       1.04198,   52.5518E-03
C:/temp/dataset/7/18_7.odb,Step-1,Increment      1: Step Time =    1.000,"PART-1-1",           454,       6.91011,      -2.19684,            0.,NA,NA,"",       6.66523,       6.65792,   312.274E-03,   33.9553E-03
C:/temp/dataset/7/18_7.odb,Step-1,Increment      1: Step Time =    1.000,"PART-1-1",           455,       11.0205,  -751.161E-03,            0.,NA,NA,"",       7.03981,       6.89486,      -1.42122,   12.8229E-03
C:/temp/dataset/7/18_7.odb,Step-1,Increment      1: Step Time =    1.000,"PART-1-1",           456,       13.1408,      -16.1676,            0.,NA,NA,"",       1.91858,       1.72355,  -842.810E-03,   49.5634E-03
C:/temp/dataset/7/18_7.odb,Step-1,Increment      1: Step Time =    1.000,"PART-1-1",           457,       14.0839,      -17.4497,            0.,NA,NA,"",       1.73105,       1.43939,  -961.602E-03,   67.3080E-03
C:/temp/dataset/7/18_7.odb,Step-1,Increment      1: Step Time =    1.000,"PART-1-1",           458,           15.,        -16.25,            0.,NA,NA,"",       2.13825,       1.70567,      -1.28949,   80.8249E-03
C:/temp/dataset/7/18_7.odb,Step-1,Increment      1: Step Time =    1.000,"PART-1-1",           459,            5.,       -14.375,            0.,NA,NA,"",       2.73063,       2.50028,       1.09770,   79.0833E-03
C:/temp/dataset/7/18_7.odb,Step-1,Increment      1: Step Time =    1.000,"PART-1-1",           460,       6.11916,      -15.3567,            0.,NA,NA,"",       2.30058,       2.15965,   792.841E-03,   63.8278E-03
C:/temp/dataset/7/18_7.odb,Step-1,Increment      1: Step Time =    1.000,"PART-1-1",           461,       13.0403,       1.40949,            0.,NA,NA,"",       8.02662,       7.62875,      -2.49576,   27.3520E-03
C:/temp/dataset/7/18_7.odb,Step-1,Increment      1: Step Time =    1.000,"PART-1-1",           462,       14.0142,   96.5788E-03,            0.,NA,NA,"",       7.52904,       7.00857,      -2.75070,   37.9166E-03
C:/temp/dataset/7/18_7.odb,Step-1,Increment      1: Step Time =    1.000,"PART-1-1",           463,           15.,          1.25,            0.,NA,NA,"",       8.11643,       7.40502,      -3.32296,   44.9315E-03
C:/temp/dataset/7/18_7.odb,Step-1,Increment      1: Step Time =    1.000,"PART-1-1",           464,       14.0261,       2.56291,            0.,NA,NA,"",       8.59941,       8.03389,      -3.06699,   33.9593E-03
C:/temp/dataset/7/18_7.odb,Step-1,Increment      1: Step Time =    1.000,"PART-1-1",           465,            5.,      -10.2083,            0.,NA,NA,"",       3.97727,       3.79719,       1.18322,   70.2452E-03
C:/temp/dataset/7/18_7.odb,Step-1,Increment      1: Step Time =    1.000,"PART-1-1",           466,       6.86187,      -9.97015,            0.,NA,NA,"",       3.78682,       3.73744,   609.575E-03,   44.9506E-03
C:/temp/dataset/7/18_7.odb,Step-1,Increment      1: Step Time =    1.000,"PART-1-1",           467,            5.,      -24.7917,            0.,NA,NA,"",   618.381E-03,   402.966E-03,   469.056E-03,   98.8443E-03
C:/temp/dataset/7/18_7.odb,Step-1,Increment      1: Step Time =    1.000,"PART-1-1",           468,       6.13477,      -25.7685,            0.,NA,NA,"",   391.327E-03,   256.552E-03,   295.496E-03,   79.8691E-03
C:/temp/dataset/7/18_7.odb,Step-1,Increment      1: Step Time =    1.000,"PART-1-1",           469,       13.1299,      -20.9468,            0.,NA,NA,"",   935.947E-03,   779.538E-03,  -517.993E-03,   54.8316E-03
C:/temp/dataset/7/18_7.odb,Step-1,Increment      1: Step Time =    1.000,"PART-1-1",           470,       14.0295,      -22.3095,            0.,NA,NA,"",   816.471E-03,   590.912E-03,  -563.425E-03,   74.1884E-03
C:/temp/dataset/7/18_7.odb,Step-1,Increment      1: Step Time =    1.000,"PART-1-1",           471,           15.,        -21.25,            0.,NA,NA,"",       1.11505,   768.926E-03,  -807.516E-03,   90.8541E-03
C:/temp/dataset/7/18_7.odb,Step-1,Increment      1: Step Time =    1.000,"PART-1-1",           472,       14.1003,      -19.8873,            0.,NA,NA,"",       1.23551,   970.333E-03,  -764.809E-03,   71.4627E-03
C:/temp/dataset/7/18_7.odb,Step-1,Increment      1: Step Time =    1.000,"PART-1-1",           473,            5.,       -26.875,            0.,NA,NA,"",   361.485E-03,   212.948E-03,   292.104E-03,   102.340E-03
C:/temp/dataset/7/18_7.odb,Step-1,Increment      1: Step Time =    1.000,"PART-1-1",           474,       7.35824,      -26.7740,            0.,NA,NA,"",   200.954E-03,   132.158E-03,   151.383E-03,   58.1304E-03
C:/temp/dataset/7/18_7.odb,Step-1,Increment      1: Step Time =    1.000,"PART-1-1",           475,       11.2665,      -23.4125,            0.,NA,NA,"",   437.756E-03,   413.117E-03,  -144.791E-03,   23.2226E-03
C:/temp/dataset/7/18_7.odb,Step-1,Increment      1: Step Time =    1.000,"PART-1-1",           476,       10.8283,      -24.9299,            0.,NA,NA,"",   249.610E-03,   240.408E-03,  -67.1522E-03,   15.8425E-03
C:/temp/dataset/7/18_7.odb,Step-1,Increment      1: Step Time =    1.000,"PART-1-1",           477,            5.,      -16.4583,            0.,NA,NA,"",       2.19124,       1.94103,       1.01682,   83.4789E-03
C:/temp/dataset/7/18_7.odb,Step-1,Increment      1: Step Time =    1.000,"PART-1-1",           478,       7.29529,      -16.4772,            0.,NA,NA,"",       1.87793,       1.80994,   500.744E-03,   47.0969E-03
C:/temp/dataset/7/18_7.odb,Step-1,Increment      1: Step Time =    1.000,"PART-1-1",           479,            5.,       18.9583,            0.,NA,NA,"",       16.9699,       16.9481,  -861.385E-03,   8.99367E-03
C:/temp/dataset/7/18_7.odb,Step-1,Increment      1: Step Time =    1.000,"PART-1-1",           480,       6.05050,       17.7875,            0.,NA,NA,"",       16.2531,       16.2061,      -1.23479,   9.14690E-03
C:/temp/dataset/7/18_7.odb,Step-1,Increment      1: Step Time =    1.000,"PART-1-1",           481,       7.11573,       18.6629,            0.,NA,NA,"",       16.6131,       16.5065,      -1.87835,   9.49500E-03
C:/temp/dataset/7/18_7.odb,Step-1,Increment      1: Step Time =    1.000,"PART-1-1",           482,       6.06524,       19.8338,            0.,NA,NA,"",       17.3143,       17.2480,      -1.51351,   9.80107E-03
C:/temp/dataset/7/18_7.odb,Step-1,Increment      1: Step Time =    1.000,"PART-1-1",           483,       6.98524,       16.7251,            0.,NA,NA,"",       15.6196,       15.5416,      -1.55972,   9.93606E-03
C:/temp/dataset/7/18_7.odb,Step-1,Increment      1: Step Time =    1.000,"PART-1-1",           484,            5.,        16.875,            0.,NA,NA,"",       15.8995,       15.8883,  -596.326E-03,   13.3201E-03
C:/temp/dataset/7/18_7.odb,Step-1,Increment      1: Step Time =    1.000,"PART-1-1",           485,       7.88091,       13.8682,            0.,NA,NA,"",       14.0861,       13.9909,      -1.63477,   10.8583E-03
C:/temp/dataset/7/18_7.odb,Step-1,Increment      1: Step Time =    1.000,"PART-1-1",           486,       7.65947,       15.6945,            0.,NA,NA,"",       15.0363,       14.9332,      -1.75779,   9.87481E-03
C:/temp/dataset/7/18_7.odb,Step-1,Increment      1: Step Time =    1.000,"PART-1-1",           487,       8.92157,       12.9075,            0.,NA,NA,"",       13.5338,       13.3829,      -2.01495,   9.95060E-03
C:/temp/dataset/7/18_7.odb,Step-1,Increment      1: Step Time =    1.000,"PART-1-1",           488,       9.98918,       11.9956,            0.,NA,NA,"",       13.0287,       12.8040,      -2.40942,   9.01924E-03
C:/temp/dataset/7/18_7.odb,Step-1,Increment      1: Step Time =    1.000,"PART-1-1",           489,       10.7968,       13.3004,            0.,NA,NA,"",       13.6712,       13.3457,      -2.96577,   9.73802E-03
C:/temp/dataset/7/18_7.odb,Step-1,Increment      1: Step Time =    1.000,"PART-1-1",           490,       13.0565,       8.69239,            0.,NA,NA,"",       11.3989,       10.8709,      -3.42912,   18.8164E-03
C:/temp/dataset/7/18_7.odb,Step-1,Increment      1: Step Time =    1.000,"PART-1-1",           491,           15.,          8.75,            0.,NA,NA,"",       11.5432,       10.6881,      -4.35991,   29.3129E-03
C:/temp/dataset/7/18_7.odb,Step-1,Increment      1: Step Time =    1.000,"PART-1-1",           492,       14.0220,       9.95215,            0.,NA,NA,"",       12.0593,       11.3553,      -4.06006,   21.6752E-03
C:/temp/dataset/7/18_7.odb,Step-1,Increment      1: Step Time =    1.000,"PART-1-1",           493,       8.15713,      -6.43409,            0.,NA,NA,"",       4.89168,       4.89113,   73.5482E-03,   25.4165E-03
C:/temp/dataset/7/18_7.odb,Step-1,Increment      1: Step Time =    1.000,"PART-1-1",           494,       7.55707,      -5.50995,            0.,NA,NA,"",       5.28977,       5.28427,   241.128E-03,   31.0584E-03
C:/temp/dataset/7/18_7.odb,Step-1,Increment      1: Step Time =    1.000,"PART-1-1",           495,       13.0039,      -1.03047,            0.,NA,NA,"",       6.98278,       6.62812,      -2.19711,   29.9022E-03
C:/temp/dataset/7/18_7.odb,Step-1,Increment      1: Step Time =    1.000,"PART-1-1",           496,       13.9897,      -2.37705,            0.,NA,NA,"",       6.50615,       6.03047,      -2.44201,   41.7153E-03
C:/temp/dataset/7/18_7.odb,Step-1,Increment      1: Step Time =    1.000,"PART-1-1",           497,           15.,         -1.25,            0.,NA,NA,"",       7.06836,       6.40206,      -2.99589,   50.1068E-03
C:/temp/dataset/7/18_7.odb,Step-1,Increment      1: Step Time =    1.000,"PART-1-1",           498,       11.0188,      -11.3444,            0.,NA,NA,"",       3.12511,       3.06925,  -588.239E-03,   15.6031E-03
C:/temp/dataset/7/18_7.odb,Step-1,Increment      1: Step Time =    1.000,"PART-1-1",           499,       9.94563,      -10.3262,            0.,NA,NA,"",       3.45044,       3.43543,  -321.499E-03,   9.41581E-03
C:/temp/dataset/7/18_7.odb,Step-1,Increment      1: Step Time =    1.000,"PART-1-1",           500,       9.07908,      -11.6768,            0.,NA,NA,"",       3.05603,       3.05602,  -8.27296E-03,   17.7739E-03
C:/temp/dataset/7/18_7.odb,Step-1,Increment      1: Step Time =    1.000,"PART-1-1",           501,       10.1523,      -12.6950,            0.,NA,NA,"",       2.71687,       2.70326,  -271.585E-03,   9.04887E-03
C:/temp/dataset/7/18_7.odb,Step-1,Increment      1: Step Time =    1.000,"PART-1-1",           502,       11.2699,       24.2837,            0.,NA,NA,"",       19.3674,       18.7902,      -4.69301,   2.83787E-03
C:/temp/dataset/7/18_7.odb,Step-1,Increment      1: Step Time =    1.000,"PART-1-1",           503,       12.1787,       22.9892,            0.,NA,NA,"",       18.6901,       18.0171,      -4.97048,   3.32835E-03
C:/temp/dataset/7/18_7.odb,Step-1,Increment      1: Step Time =    1.000,"PART-1-1",           504,           15.,         -3.75,            0.,NA,NA,"",       6.07643,       5.45330,      -2.68038,   55.2741E-03
C:/temp/dataset/7/18_7.odb,Step-1,Increment      1: Step Time =    1.000,"PART-1-1",           505,       12.9359,      -3.49956,            0.,NA,NA,"",       5.97793,       5.66787,      -1.90024,   32.0592E-03
C:/temp/dataset/7/18_7.odb,Step-1,Increment      1: Step Time =    1.000,"PART-1-1",           506,           15.,        -11.25,            0.,NA,NA,"",       3.49008,       2.98454,      -1.80918,   70.7167E-03
C:/temp/dataset/7/18_7.odb,Step-1,Increment      1: Step Time =    1.000,"PART-1-1",           507,       12.9838,      -11.1958,            0.,NA,NA,"",       3.26963,       3.04611,      -1.18813,   41.4661E-03
C:/temp/dataset/7/18_7.odb,Step-1,Increment      1: Step Time =    1.000,"PART-1-1",           508,           15.,         11.25,            0.,NA,NA,"",       12.7613,       11.8571,      -4.71801,   24.0388E-03
C:/temp/dataset/7/18_7.odb,Step-1,Increment      1: Step Time =    1.000,"PART-1-1",           509,       12.9950,       11.1325,            0.,NA,NA,"",       12.5971,       12.0321,      -3.73033,   15.7531E-03
C:/temp/dataset/7/18_7.odb,Step-1,Increment      1: Step Time =    1.000,"PART-1-1",           510,           15.,          3.75,            0.,NA,NA,"",       9.21524,       8.45708,      -3.66039,   39.7411E-03
C:/temp/dataset/7/18_7.odb,Step-1,Increment      1: Step Time =    1.000,"PART-1-1",           511,       13.0643,       3.84158,            0.,NA,NA,"",       9.11349,       8.67156,      -2.80354,   24.6377E-03
C:/temp/dataset/7/18_7.odb,Step-1,Increment      1: Step Time =    1.000,"PART-1-1",           512,           15.,        -18.75,            0.,NA,NA,"",       1.58510,       1.19201,      -1.04482,   85.8052E-03
C:/temp/dataset/7/18_7.odb,Step-1,Increment      1: Step Time =    1.000,"PART-1-1",           513,       13.1842,      -18.5870,            0.,NA,NA,"",       1.38353,       1.20365,  -682.191E-03,   53.1588E-03
C:/temp/dataset/7/18_7.odb,Step-1,Increment      1: Step Time =    1.000,"PART-1-1",           514,       13.5513,      -24.7801,            0.,NA,NA,"",   437.809E-03,   288.823E-03,  -329.025E-03,   68.0726E-03
C:/temp/dataset/7/18_7.odb,Step-1,Increment      1: Step Time =    1.000,"PART-1-1",           515,       12.2413,      -25.9996,            0.,NA,NA,"",   214.598E-03,   153.685E-03,  -149.777E-03,   43.0304E-03
C:/temp/dataset/7/18_7.odb,Step-1,Increment      1: Step Time =    1.000,"PART-1-1",           516,           15.,        -26.25,            0.,NA,NA,"",   408.664E-03,   216.427E-03,  -346.649E-03,   100.110E-03
C:/temp/dataset/7/18_7.odb,Step-1,Increment      1: Step Time =    1.000,"PART-1-1",           517,           15.,        -23.75,            0.,NA,NA,"",   725.299E-03,   442.110E-03,  -574.976E-03,   95.0145E-03
C:/temp/dataset/7/18_7.odb,Step-1,Increment      1: Step Time =    1.000,"PART-1-1",           518,       12.5809,      -23.3397,            0.,NA,NA,"",   527.193E-03,   430.702E-03,  -304.020E-03,   47.3407E-03
C:/temp/dataset/7/18_7.odb,Step-1,Increment      1: Step Time =    1.000,"PART-1-1",           519,       9.49127,      -18.7202,            0.,NA,NA,"",       1.22106,       1.22023,   44.8929E-03,   15.0084E-03
C:/temp/dataset/7/18_7.odb,Step-1,Increment      1: Step Time =    1.000,"PART-1-1",           520,       8.36047,      -17.5836,            0.,NA,NA,"",       1.52567,       1.50262,   264.164E-03,   31.2917E-03
C:/temp/dataset/7/18_7.odb,Step-1,Increment      1: Step Time =    1.000,"PART-1-1",           521,       11.5260,      -20.5498,            0.,NA,NA,"",   884.565E-03,   841.311E-03,  -273.224E-03,   26.0089E-03
C:/temp/dataset/7/18_7.odb,Step-1,Increment      1: Step Time =    1.000,"PART-1-1",           522,       10.5221,      -19.7870,            0.,NA,NA,"",   996.679E-03,   988.776E-03,  -125.263E-03,   10.8894E-03
C:/temp/dataset/7/18_7.odb,Step-1,Increment      1: Step Time =    1.000,"PART-1-1",           523,       11.0260,      -21.8608,            0.,NA,NA,"",   649.470E-03,   630.875E-03,  -154.295E-03,   17.8915E-03
C:/temp/dataset/7/18_7.odb,Step-1,Increment      1: Step Time =    1.000,"PART-1-1",           524,       7.98010,      -10.7619,            0.,NA,NA,"",       3.41670,       3.40465,   286.705E-03,   31.1652E-03
C:/temp/dataset/7/18_7.odb,Step-1,Increment      1: Step Time =    1.000,"PART-1-1",           525,       8.65118,      -4.78401,            0.,NA,NA,"",       5.47892,       5.47560,  -190.935E-03,   19.1112E-03
C:/temp/dataset/7/18_7.odb,Step-1,Increment      1: Step Time =    1.000,"PART-1-1",           526,       7.84665,      -3.50518,            0.,NA,NA,"",       6.04207,       6.04200,   30.3041E-03,   25.8995E-03
C:/temp/dataset/7/18_7.odb,Step-1,Increment      1: Step Time =    1.000,"PART-1-1",           527,       9.43586,      -6.49799,            0.,NA,NA,"",       4.79118,       4.77716,  -366.323E-03,   12.1812E-03
C:/temp/dataset/7/18_7.odb,Step-1,Increment      1: Step Time =    1.000,"PART-1-1",           528,       10.6293,      -5.79077,            0.,NA,NA,"",       5.02724,       4.95754,  -834.247E-03,   11.0601E-03
C:/temp/dataset/7/18_7.odb,Step-1,Increment      1: Step Time =    1.000,"PART-1-1",           529,       11.1144,       3.95682,            0.,NA,NA,"",       9.11979,       8.90723,      -1.95748,   12.1361E-03
C:/temp/dataset/7/18_7.odb,Step-1,Increment      1: Step Time =    1.000,"PART-1-1",           530,       10.1270,       5.17226,            0.,NA,NA,"",       9.69767,       9.55489,      -1.65793,   9.02276E-03
C:/temp/dataset/7/18_7.odb,Step-1,Increment      1: Step Time =    1.000,"PART-1-1",           531,       9.05317,       10.7826,            0.,NA,NA,"",       12.4586,       12.3256,      -1.81550,   10.2769E-03
C:/temp/dataset/7/18_7.odb,Step-1,Increment      1: Step Time =    1.000,"PART-1-1",           532,       8.01195,       11.8024,            0.,NA,NA,"",       13.0324,       12.9520,      -1.44555,   12.0204E-03
C:/temp/dataset/7/18_7.odb,Step-1,Increment      1: Step Time =    1.000,"PART-1-1",           533,       11.0241,       10.9595,            0.,NA,NA,"",       12.4882,       12.1775,      -2.76804,   10.3015E-03
C:/temp/dataset/7/18_7.odb,Step-1,Increment      1: Step Time =    1.000,"PART-1-1",           534,       8.35051,       17.3209,            0.,NA,NA,"",       15.8310,       15.6618,      -2.30831,   9.10218E-03
C:/temp/dataset/7/18_7.odb,Step-1,Increment      1: Step Time =    1.000,"PART-1-1",           535,       12.5952,       19.1415,            0.,NA,NA,"",       16.6866,       16.0264,      -4.64734,   7.24662E-03
C:/temp/dataset/7/18_7.odb,Step-1,Increment      1: Step Time =    1.000,"PART-1-1",           536,           15.,         18.75,            0.,NA,NA,"",       16.5625,       15.5159,      -5.79434,   8.05967E-03
C:/temp/dataset/7/18_7.odb,Step-1,Increment      1: Step Time =    1.000,"PART-1-1",           537,      -7.03326,       22.4462,            0.,NA,NA,"",       20.8709,       20.3571,       4.60267,   6.13525E-03
C:/temp/dataset/7/18_7.odb,Step-1,Increment      1: Step Time =    1.000,"PART-1-1",           538,      -8.48458,       21.3302,            0.,NA,NA,"",       20.7315,       20.0025,       5.44940,   7.30372E-03
C:/temp/dataset/7/18_7.odb,Step-1,Increment      1: Step Time =    1.000,"PART-1-1",           539,      -6.65000,           20.,            0.,NA,NA,"",       19.6769,       19.1016,       4.72336,   8.63779E-03
C:/temp/dataset/7/18_7.odb,Step-1,Increment      1: Step Time =    1.000,"PART-1-1",           540,      -5.19869,       21.1160,            0.,NA,NA,"",       19.8376,       19.4555,       3.87499,   7.47116E-03
C:/temp/dataset/7/18_7.odb,Step-1,Increment      1: Step Time =    1.000,"PART-1-1",           541,       9.42603,       26.6587,            0.,NA,NA,"",       20.6413,       20.2316,      -4.09214,   1.56697E-03
C:/temp/dataset/7/18_7.odb,Step-1,Increment      1: Step Time =    1.000,"PART-1-1",           542,       10.3720,       25.4897,            0.,NA,NA,"",       20.0088,       19.5173,      -4.40757,   1.99393E-03
C:/temp/dataset/7/18_7.odb,Step-1,Increment      1: Step Time =    1.000,"PART-1-1",           543,       6.87457,       25.7626,            0.,NA,NA,"",       20.3082,       20.1280,      -2.69922,   2.49682E-03
C:/temp/dataset/7/18_7.odb,Step-1,Increment      1: Step Time =    1.000,"PART-1-1",           544,       7.54675,       26.7337,            0.,NA,NA,"",       20.7656,       20.5232,      -3.16381,   1.77298E-03
C:/temp/dataset/7/18_7.odb,Step-1,Increment      1: Step Time =    1.000,"PART-1-1",           545,      -3.17643,       25.4018,            0.,NA,NA,"",       21.4287,       21.3010,       2.33575,   3.03428E-03
C:/temp/dataset/7/18_7.odb,Step-1,Increment      1: Step Time =    1.000,"PART-1-1",           546,      -4.35024,       25.6599,            0.,NA,NA,"",       21.7750,       21.5837,       2.87982,   2.78937E-03
C:/temp/dataset/7/18_7.odb,Step-1,Increment      1: Step Time =    1.000,"PART-1-1",           547,       4.01884,       22.4610,            0.,NA,NA,"",       18.8837,       18.8650,  -839.892E-03,   4.92283E-03
C:/temp/dataset/7/18_7.odb,Step-1,Increment      1: Step Time =    1.000,"PART-1-1",           548,       5.32127,       23.1739,            0.,NA,NA,"",       19.1084,       19.0428,      -1.58270,   4.84991E-03
C:/temp/dataset/7/18_7.odb,Step-1,Increment      1: Step Time =    1.000,"PART-1-1",           549,       11.1447,       22.1526,            0.,NA,NA,"",       18.2575,       17.7338,      -4.34135,   5.03331E-03
C:/temp/dataset/7/18_7.odb,Step-1,Increment      1: Step Time =    1.000,"PART-1-1",           550,       10.2813,       23.3249,            0.,NA,NA,"",       18.8845,       18.4406,      -4.07081,   4.01578E-03
C:/temp/dataset/7/18_7.odb,Step-1,Increment      1: Step Time =    1.000,"PART-1-1",           551,       6.15508,       21.9496,            0.,NA,NA,"",       18.4030,       18.3112,      -1.83671,   7.06217E-03
C:/temp/dataset/7/18_7.odb,Step-1,Increment      1: Step Time =    1.000,"PART-1-1",           552,       6.48612,       23.9825,            0.,NA,NA,"",       19.4214,       19.2883,      -2.26970,   4.15684E-03
C:/temp/dataset/7/18_7.odb,Step-1,Increment      1: Step Time =    1.000,"PART-1-1",           553,   6.30745E-03,       24.2683,            0.,NA,NA,"",       20.3341,       20.3136,   912.682E-03,   3.93118E-03
C:/temp/dataset/7/18_7.odb,Step-1,Increment      1: Step Time =    1.000,"PART-1-1",           554,      -1.65981,       23.6471,            0.,NA,NA,"",       20.3111,       20.2299,       1.81544,   4.74887E-03
C:/temp/dataset/7/18_7.odb,Step-1,Increment      1: Step Time =    1.000,"PART-1-1",           555,      -1.07768,       22.4355,            0.,NA,NA,"",       19.6225,       19.5500,       1.68508,   6.06871E-03
C:/temp/dataset/7/18_7.odb,Step-1,Increment      1: Step Time =    1.000,"PART-1-1",           556,   588.432E-03,       23.0567,            0.,NA,NA,"",       19.6481,       19.6325,   782.657E-03,   5.22437E-03
C:/temp/dataset/7/18_7.odb,Step-1,Increment      1: Step Time =    1.000,"PART-1-1",           557,      -4.82218,       24.5397,            0.,NA,NA,"",       21.3436,       21.0939,       3.25523,   3.94469E-03
C:/temp/dataset/7/18_7.odb,Step-1,Increment      1: Step Time =    1.000,"PART-1-1",           558,      -3.09511,       23.7242,            0.,NA,NA,"",       20.6145,       20.4609,       2.51176,   4.75075E-03
C:/temp/dataset/7/18_7.odb,Step-1,Increment      1: Step Time =    1.000,"PART-1-1",           559,      -5.58708,       23.2486,            0.,NA,NA,"",       20.9065,       20.5592,       3.79460,   5.29058E-03
C:/temp/dataset/7/18_7.odb,Step-1,Increment      1: Step Time =    1.000,"PART-1-1",           560,       8.76337,      -9.49006,            0.,NA,NA,"",       3.77432,       3.77431,   6.45215E-03,   20.4208E-03
C:/temp/dataset/7/18_7.odb,Step-1,Increment      1: Step Time =    1.000,"PART-1-1",           561,       9.72759,      -26.4759,            0.,NA,NA,"",   112.639E-03,   110.384E-03,   22.4245E-03,   14.0941E-03
C:/temp/dataset/7/18_7.odb,Step-1,Increment      1: Step Time =    1.000,"PART-1-1",           562,       9.12173,       6.33780,            0.,NA,NA,"",       10.2871,       10.1999,      -1.33665,   11.2037E-03
C:/temp/dataset/7/18_7.odb,Step-1,Increment      1: Step Time =    1.000,"PART-1-1",           563,       11.1214,       6.29882,            0.,NA,NA,"",       10.2143,       9.96722,      -2.23282,   11.5487E-03
C:/temp/dataset/7/18_7.odb,Step-1,Increment      1: Step Time =    1.000,"PART-1-1",           564,       11.1740,      -13.7880,            0.,NA,NA,"",       2.41166,       2.36017,  -495.664E-03,   18.1689E-03
C:/temp/dataset/7/18_7.odb,Step-1,Increment      1: Step Time =    1.000,"PART-1-1",           565,       10.6612,      -8.65022,            0.,NA,NA,"",       4.00109,       3.94893,  -643.939E-03,   11.7642E-03
C:/temp/dataset/7/18_7.odb,Step-1,Increment      1: Step Time =    1.000,"PART-1-1",           566,       9.47894,      -7.81405,            0.,NA,NA,"",       4.31488,       4.30411,  -304.675E-03,   12.2708E-03
C:/temp/dataset/7/18_7.odb,Step-1,Increment      1: Step Time =    1.000,"PART-1-1",           567,       11.3640,      -18.5194,            0.,NA,NA,"",       1.26750,       1.22588,  -322.152E-03,   22.5185E-03
C:/temp/dataset/7/18_7.odb,Step-1,Increment      1: Step Time =    1.000,"PART-1-1",           568,       12.0025,       20.7886,            0.,NA,NA,"",       17.5412,       16.9325,      -4.58089,   5.68737E-03
C:/temp/dataset/7/18_7.odb,Step-1,Increment      1: Step Time =    1.000,"PART-1-1",           569,       11.4947,       18.6594,            0.,NA,NA,"",       16.4306,       15.9272,      -4.03574,   7.95073E-03
C:/temp/dataset/7/18_7.odb,Step-1,Increment      1: Step Time =    1.000,"PART-1-1",           570,       9.39315,       18.1618,            0.,NA,NA,"",       16.2175,       15.9501,      -2.93295,   9.32463E-03
C:/temp/dataset/7/18_7.odb,Step-1,Increment      1: Step Time =    1.000,"PART-1-1",           571,       10.9214,       17.4088,            0.,NA,NA,"",       15.7847,       15.3730,      -3.58134,   8.62841E-03
C:/temp/dataset/7/18_7.odb,Step-1,Increment      1: Step Time =    1.000,"PART-1-1",           572,      -9.97500,           20.,            0.,NA,NA,"",       20.5512,       19.5495,       6.33788,   8.47346E-03
C:/temp/dataset/7/18_7.odb,Step-1,Increment      1: Step Time =    1.000,"PART-1-1",           573,       11.9818,      -2.09472,            0.,NA,NA,"",       6.49680,       6.27798,      -1.67194,   21.2398E-03
C:/temp/dataset/7/18_7.odb,Step-1,Increment      1: Step Time =    1.000,"PART-1-1",           574,       12.0426,   313.093E-03,            0.,NA,NA,"",       7.50959,       7.25204,      -1.94984,   20.0230E-03
C:/temp/dataset/7/18_7.odb,Step-1,Increment      1: Step Time =    1.000,"PART-1-1",           575,       12.1686,      -14.9632,            0.,NA,NA,"",       2.14043,       2.02779,  -685.198E-03,   32.9902E-03
C:/temp/dataset/7/18_7.odb,Step-1,Increment      1: Step Time =    1.000,"PART-1-1",           576,       12.0880,      -12.5178,            0.,NA,NA,"",       2.81034,       2.68704,  -823.312E-03,   29.9602E-03
C:/temp/dataset/7/18_7.odb,Step-1,Increment      1: Step Time =    1.000,"PART-1-1",           577,       12.0767,       2.70437,            0.,NA,NA,"",       8.56227,       8.26588,      -2.23333,   18.5081E-03
C:/temp/dataset/7/18_7.odb,Step-1,Increment      1: Step Time =    1.000,"PART-1-1",           578,       11.6617,       14.7036,            0.,NA,NA,"",       14.3824,       13.9314,      -3.57341,   9.81902E-03
C:/temp/dataset/7/18_7.odb,Step-1,Increment      1: Step Time =    1.000,"PART-1-1",           579,       11.9561,       12.2406,            0.,NA,NA,"",       13.1311,       12.6881,      -3.38183,   11.4526E-03
C:/temp/dataset/7/18_7.odb,Step-1,Increment      1: Step Time =    1.000,"PART-1-1",           580,       12.3155,      -19.7087,            0.,NA,NA,"",       1.08566,   989.021E-03,  -447.776E-03,   39.1979E-03
C:/temp/dataset/7/18_7.odb,Step-1,Increment      1: Step Time =    1.000,"PART-1-1",           581,       12.3404,      -21.7879,            0.,NA,NA,"",   730.129E-03,   641.928E-03,  -347.875E-03,   41.1557E-03
C:/temp/dataset/7/18_7.odb,Step-1,Increment      1: Step Time =    1.000,"PART-1-1",           582,       12.2327,      -17.3977,            0.,NA,NA,"",       1.55648,       1.45374,  -556.120E-03,   35.8672E-03
C:/temp/dataset/7/18_7.odb,Step-1,Increment      1: Step Time =    1.000,"PART-1-1",           583,       12.1020,       5.09402,            0.,NA,NA,"",       9.65652,       9.31952,      -2.52881,   16.8797E-03
C:/temp/dataset/7/18_7.odb,Step-1,Increment      1: Step Time =    1.000,"PART-1-1",           584,       12.0630,       9.85139,            0.,NA,NA,"",       11.9406,       11.5271,      -3.11485,   13.2680E-03
C:/temp/dataset/7/18_7.odb,Step-1,Increment      1: Step Time =    1.000,"PART-1-1",           585,       12.0921,       7.47372,            0.,NA,NA,"",       10.7829,       10.4074,      -2.82089,   15.0640E-03
C:/temp/dataset/7/18_7.odb,Step-1,Increment      1: Step Time =    1.000,"PART-1-1",           586,       11.9146,      -10.0225,            0.,NA,NA,"",       3.57147,       3.44286,  -949.774E-03,   25.8388E-03
C:/temp/dataset/7/18_7.odb,Step-1,Increment      1: Step Time =    1.000,"PART-1-1",           587,       11.5993,      -7.26023,            0.,NA,NA,"",       4.50162,       4.37512,      -1.05967,   20.4202E-03
C:/temp/dataset/7/18_7.odb,Step-1,Increment      1: Step Time =    1.000,"PART-1-1",           588,       11.8707,      -4.56496,            0.,NA,NA,"",       5.51140,       5.33322,      -1.39005,   21.8720E-03
C:/temp/dataset/7/18_7.odb,Step-1,Increment      1: Step Time =    1.000,"PART-1-1",           589,      -3.86001,       22.4330,            0.,NA,NA,"",       20.1577,       19.9253,       3.05254,   6.09593E-03
C:/temp/dataset/7/18_7.odb,Step-1,Increment      1: Step Time =    1.000,"PART-1-1",           590,       3.35000,           20.,            0.,NA,NA,"",       17.7238,       17.7228,  -183.706E-03,   10.4986E-03
C:/temp/dataset/7/18_7.odb,Step-1,Increment      1: Step Time =    1.000,"PART-1-1",           591,       5.05511,       21.0689,            0.,NA,NA,"",       18.0592,       18.0211,      -1.17236,   8.28465E-03
C:/temp/dataset/7/18_7.odb,Step-1,Increment      1: Step Time =    1.000,"PART-1-1",           592,       2.31373,       21.3921,            0.,NA,NA,"",       18.5659,       18.5653,   147.009E-03,   6.87554E-03
C:/temp/dataset/7/18_7.odb,Step-1,Increment      1: Step Time =    1.000,"PART-1-1",           593,      -1.98632,       21.3170,            0.,NA,NA,"",       19.2535,       19.1186,       2.27560,   7.23542E-03
C:/temp/dataset/7/18_7.odb,Step-1,Increment      1: Step Time =    1.000,"PART-1-1",           594,   25.0000E-03,           20.,            0.,NA,NA,"",       18.2458,       18.1877,       1.45541,   8.62178E-03
C:/temp/dataset/7/18_7.odb,Step-1,Increment      1: Step Time =    1.000,"PART-1-1",           595,   933.640E-03,       21.1186,            0.,NA,NA,"",       18.6394,       18.6194,   863.741E-03,   7.70567E-03
C:/temp/dataset/7/18_7.odb,Step-1,Increment      1: Step Time =    1.000,"PART-1-1",           596,       7.16521,       20.7144,            0.,NA,NA,"",       17.6785,       17.5441,      -2.17567,   9.44790E-03
C:/temp/dataset/7/18_7.odb,Step-1,Increment      1: Step Time =    1.000,"PART-1-1",           597,       8.15837,       19.5039,            0.,NA,NA,"",       16.9792,       16.7934,      -2.50524,   9.35154E-03
C:/temp/dataset/7/18_7.odb,Step-1,Increment      1: Step Time =    1.000,"PART-1-1",           598,      -3.32500,           20.,            0.,NA,NA,"",       18.9046,       18.6487,       3.09987,   8.60201E-03
