ODB Name,Step,Frame,Part Instance Name,    êﬂì_ÉâÉxÉã,X,Y,Z,Section Name,Material Name,Section Point,   U-Magnitude,          U-U1,          U-U2,       S-Mises
C:/temp/dataset/7/20_10.odb,Step-1,Increment      3: Step Time =    1.000,"PART-1-1",             1,          -15.,           20.,            0.,NA,NA,"",       19.2846,       15.8747,       10.9493,   1.78668E-03
C:/temp/dataset/7/20_10.odb,Step-1,Increment      3: Step Time =    1.000,"PART-1-1",             2,          -15.,           25.,            0.,NA,NA,"",       21.1147,       18.4782,       10.2171,   352.890E-06
C:/temp/dataset/7/20_10.odb,Step-1,Increment      3: Step Time =    1.000,"PART-1-1",             3,      -11.6500,           20.,            0.,NA,NA,"",       17.9407,       15.3952,       9.21174,   5.39884E-03
C:/temp/dataset/7/20_10.odb,Step-1,Increment      3: Step Time =    1.000,"PART-1-1",             4,      -8.30000,           20.,            0.,NA,NA,"",       16.6577,       14.8958,       7.45598,   7.86572E-03
C:/temp/dataset/7/20_10.odb,Step-1,Increment      3: Step Time =    1.000,"PART-1-1",             5,           -5.,           20.,            0.,NA,NA,"",       15.5013,       14.4166,       5.69671,   10.9352E-03
C:/temp/dataset/7/20_10.odb,Step-1,Increment      3: Step Time =    1.000,"PART-1-1",             6,      -1.65000,           20.,            0.,NA,NA,"",       14.5033,       13.9605,       3.93058,   15.9383E-03
C:/temp/dataset/7/20_10.odb,Step-1,Increment      3: Step Time =    1.000,"PART-1-1",             7,       1.70000,           20.,            0.,NA,NA,"",       13.7032,       13.5286,       2.18065,   26.1169E-03
C:/temp/dataset/7/20_10.odb,Step-1,Increment      3: Step Time =    1.000,"PART-1-1",             8,            5.,           20.,            0.,NA,NA,"",       13.1433,       13.1367,   418.125E-03,   63.9639E-03
C:/temp/dataset/7/20_10.odb,Step-1,Increment      3: Step Time =    1.000,"PART-1-1",             9,            5.,         13.75,            0.,NA,NA,"",       10.4259,       10.4002,   731.263E-03,   45.6731E-03
C:/temp/dataset/7/20_10.odb,Step-1,Increment      3: Step Time =    1.000,"PART-1-1",            10,            5.,           7.5,            0.,NA,NA,"",       7.95086,       7.89120,   972.183E-03,   48.0862E-03
C:/temp/dataset/7/20_10.odb,Step-1,Increment      3: Step Time =    1.000,"PART-1-1",            11,            5.,          1.25,            0.,NA,NA,"",       5.77869,       5.67631,       1.08294,   50.7888E-03
C:/temp/dataset/7/20_10.odb,Step-1,Increment      3: Step Time =    1.000,"PART-1-1",            12,            5.,           -5.,            0.,NA,NA,"",       3.92985,       3.78131,       1.07023,   54.0866E-03
C:/temp/dataset/7/20_10.odb,Step-1,Increment      3: Step Time =    1.000,"PART-1-1",            13,            5.,        -11.25,            0.,NA,NA,"",       2.42549,       2.23529,   941.522E-03,   58.0364E-03
C:/temp/dataset/7/20_10.odb,Step-1,Increment      3: Step Time =    1.000,"PART-1-1",            14,            5.,         -17.5,            0.,NA,NA,"",       1.28523,       1.07316,   707.211E-03,   62.7908E-03
C:/temp/dataset/7/20_10.odb,Step-1,Increment      3: Step Time =    1.000,"PART-1-1",            15,            5.,        -23.75,            0.,NA,NA,"",   509.680E-03,   335.931E-03,   383.307E-03,   67.8713E-03
C:/temp/dataset/7/20_10.odb,Step-1,Increment      3: Step Time =    1.000,"PART-1-1",            16,            5.,          -30.,            0.,NA,NA,"",            0.,   1.42008E-39,   2.37822E-39,   84.7407E-03
C:/temp/dataset/7/20_10.odb,Step-1,Increment      3: Step Time =    1.000,"PART-1-1",            17,           15.,          -30.,            0.,NA,NA,"",            0.,   1.05807E-39,  -2.22347E-39,   69.7335E-03
C:/temp/dataset/7/20_10.odb,Step-1,Increment      3: Step Time =    1.000,"PART-1-1",            18,           15.,         -22.5,            0.,NA,NA,"",   571.073E-03,   383.150E-03,  -423.463E-03,   58.9245E-03
C:/temp/dataset/7/20_10.odb,Step-1,Increment      3: Step Time =    1.000,"PART-1-1",            19,           15.,          -15.,            0.,NA,NA,"",       1.58013,       1.32416,  -862.217E-03,   52.6168E-03
C:/temp/dataset/7/20_10.odb,Step-1,Increment      3: Step Time =    1.000,"PART-1-1",            20,           15.,          -7.5,            0.,NA,NA,"",       3.11714,       2.80697,      -1.35554,   47.5431E-03
C:/temp/dataset/7/20_10.odb,Step-1,Increment      3: Step Time =    1.000,"PART-1-1",            21,           15.,            0.,            0.,NA,NA,"",       5.15698,       4.77881,      -1.93841,   43.4893E-03
C:/temp/dataset/7/20_10.odb,Step-1,Increment      3: Step Time =    1.000,"PART-1-1",            22,           15.,           7.5,            0.,NA,NA,"",       7.66273,       7.19445,      -2.63767,   40.4149E-03
C:/temp/dataset/7/20_10.odb,Step-1,Increment      3: Step Time =    1.000,"PART-1-1",            23,           15.,           15.,            0.,NA,NA,"",       10.6045,       10.0178,      -3.47836,   38.7137E-03
C:/temp/dataset/7/20_10.odb,Step-1,Increment      3: Step Time =    1.000,"PART-1-1",            24,           15.,          22.5,            0.,NA,NA,"",       13.9852,       13.2534,      -4.46464,   22.5631E-03
C:/temp/dataset/7/20_10.odb,Step-1,Increment      3: Step Time =    1.000,"PART-1-1",            25,           15.,           30.,            0.,NA,NA,"",       17.6223,       16.7742,      -5.40109,   633.224E-06
C:/temp/dataset/7/20_10.odb,Step-1,Increment      3: Step Time =    1.000,"PART-1-1",            26,         11.25,           30.,            0.,NA,NA,"",       17.5963,       17.2138,      -3.64890,   6.07585E-03
C:/temp/dataset/7/20_10.odb,Step-1,Increment      3: Step Time =    1.000,"PART-1-1",            27,           7.5,           30.,            0.,NA,NA,"",       17.7923,       17.6887,      -1.91660,   20.3246E-03
C:/temp/dataset/7/20_10.odb,Step-1,Increment      3: Step Time =    1.000,"PART-1-1",            28,          3.75,           30.,            0.,NA,NA,"",       18.2280,       18.2274,  -147.513E-03,   26.2488E-03
C:/temp/dataset/7/20_10.odb,Step-1,Increment      3: Step Time =    1.000,"PART-1-1",            29,            0.,           30.,            0.,NA,NA,"",       18.8826,       18.8063,       1.69647,   21.0291E-03
C:/temp/dataset/7/20_10.odb,Step-1,Increment      3: Step Time =    1.000,"PART-1-1",            30,         -3.75,           30.,            0.,NA,NA,"",       19.7264,       19.3941,       3.60553,   12.3540E-03
C:/temp/dataset/7/20_10.odb,Step-1,Increment      3: Step Time =    1.000,"PART-1-1",            31,          -7.5,           30.,            0.,NA,NA,"",       20.7313,       19.9732,       5.55475,   4.66922E-03
C:/temp/dataset/7/20_10.odb,Step-1,Increment      3: Step Time =    1.000,"PART-1-1",            32,        -11.25,           30.,            0.,NA,NA,"",       21.8696,       20.5365,       7.51877,   462.859E-06
C:/temp/dataset/7/20_10.odb,Step-1,Increment      3: Step Time =    1.000,"PART-1-1",            33,          -15.,           30.,            0.,NA,NA,"",       23.1235,       21.0905,       9.48077,   30.4894E-06
C:/temp/dataset/7/20_10.odb,Step-1,Increment      3: Step Time =    1.000,"PART-1-1",            34,          -15.,          22.5,            0.,NA,NA,"",       20.1731,       17.1745,       10.5825,   1.77150E-03
C:/temp/dataset/7/20_10.odb,Step-1,Increment      3: Step Time =    1.000,"PART-1-1",            35,            5.,       15.8333,            0.,NA,NA,"",       11.3124,       11.2952,   622.273E-03,   43.7258E-03
C:/temp/dataset/7/20_10.odb,Step-1,Increment      3: Step Time =    1.000,"PART-1-1",            36,            5.,       17.9167,            0.,NA,NA,"",       12.2208,       12.2105,   500.529E-03,   50.0722E-03
C:/temp/dataset/7/20_10.odb,Step-1,Increment      3: Step Time =    1.000,"PART-1-1",            37,            5.,       9.58333,            0.,NA,NA,"",       8.74338,       8.69624,   906.673E-03,   47.2484E-03
C:/temp/dataset/7/20_10.odb,Step-1,Increment      3: Step Time =    1.000,"PART-1-1",            38,            5.,       11.6667,            0.,NA,NA,"",       9.56878,       9.53302,   826.452E-03,   46.2693E-03
C:/temp/dataset/7/20_10.odb,Step-1,Increment      3: Step Time =    1.000,"PART-1-1",            39,            5.,       3.33333,            0.,NA,NA,"",       6.46781,       6.38034,       1.06006,   49.8369E-03
C:/temp/dataset/7/20_10.odb,Step-1,Increment      3: Step Time =    1.000,"PART-1-1",            40,            5.,       5.41667,            0.,NA,NA,"",       7.19210,       7.11894,       1.02322,   48.9441E-03
C:/temp/dataset/7/20_10.odb,Step-1,Increment      3: Step Time =    1.000,"PART-1-1",            41,            5.,      -2.91667,            0.,NA,NA,"",       4.50894,       4.37576,       1.08777,   52.8991E-03
C:/temp/dataset/7/20_10.odb,Step-1,Increment      3: Step Time =    1.000,"PART-1-1",            42,            5.,  -833.333E-03,            0.,NA,NA,"",       5.12548,       5.00779,       1.09209,   51.8155E-03
C:/temp/dataset/7/20_10.odb,Step-1,Increment      3: Step Time =    1.000,"PART-1-1",            43,            5.,      -9.16667,            0.,NA,NA,"",       2.88734,       2.70983,   996.769E-03,   56.6472E-03
C:/temp/dataset/7/20_10.odb,Step-1,Increment      3: Step Time =    1.000,"PART-1-1",            44,            5.,      -7.08333,            0.,NA,NA,"",       3.38907,       3.22562,       1.03979,   55.2789E-03
C:/temp/dataset/7/20_10.odb,Step-1,Increment      3: Step Time =    1.000,"PART-1-1",            45,            5.,      -15.4167,            0.,NA,NA,"",       1.62406,       1.41549,   796.225E-03,   61.1238E-03
C:/temp/dataset/7/20_10.odb,Step-1,Increment      3: Step Time =    1.000,"PART-1-1",            46,            5.,      -13.3333,            0.,NA,NA,"",       2.00423,       1.80337,   874.530E-03,   59.5428E-03
C:/temp/dataset/7/20_10.odb,Step-1,Increment      3: Step Time =    1.000,"PART-1-1",            47,            5.,      -21.6667,            0.,NA,NA,"",   729.589E-03,   531.493E-03,   499.815E-03,   66.2240E-03
C:/temp/dataset/7/20_10.odb,Step-1,Increment      3: Step Time =    1.000,"PART-1-1",            48,            5.,      -19.5833,            0.,NA,NA,"",   987.390E-03,   777.986E-03,   608.010E-03,   64.5864E-03
C:/temp/dataset/7/20_10.odb,Step-1,Increment      3: Step Time =    1.000,"PART-1-1",            49,            5.,      -27.9167,            0.,NA,NA,"",   164.544E-03,   93.4931E-03,   135.402E-03,   72.7224E-03
C:/temp/dataset/7/20_10.odb,Step-1,Increment      3: Step Time =    1.000,"PART-1-1",            50,            5.,      -25.8333,            0.,NA,NA,"",   322.953E-03,   190.609E-03,   260.704E-03,   68.0087E-03
C:/temp/dataset/7/20_10.odb,Step-1,Increment      3: Step Time =    1.000,"PART-1-1",            51,          12.5,          -30.,            0.,NA,NA,"",            0.,   38.5229E-39,  -88.0026E-39,   23.2111E-03
C:/temp/dataset/7/20_10.odb,Step-1,Increment      3: Step Time =    1.000,"PART-1-1",            52,           10.,          -30.,            0.,NA,NA,"",            0.,  -16.5176E-39,   4.74448E-39,   10.0613E-03
C:/temp/dataset/7/20_10.odb,Step-1,Increment      3: Step Time =    1.000,"PART-1-1",            53,           7.5,          -30.,            0.,NA,NA,"",            0.,  -8.00578E-39,   133.778E-39,   28.0728E-03
C:/temp/dataset/7/20_10.odb,Step-1,Increment      3: Step Time =    1.000,"PART-1-1",            54,           15.,          -25.,            0.,NA,NA,"",   345.465E-03,   199.336E-03,  -282.155E-03,   60.6445E-03
C:/temp/dataset/7/20_10.odb,Step-1,Increment      3: Step Time =    1.000,"PART-1-1",            55,           15.,         -27.5,            0.,NA,NA,"",   164.577E-03,   84.2326E-03,  -141.388E-03,   65.2400E-03
C:/temp/dataset/7/20_10.odb,Step-1,Increment      3: Step Time =    1.000,"PART-1-1",            56,           15.,         -17.5,            0.,NA,NA,"",       1.18512,   947.424E-03,  -711.967E-03,   54.5468E-03
C:/temp/dataset/7/20_10.odb,Step-1,Increment      3: Step Time =    1.000,"PART-1-1",            57,           15.,          -20.,            0.,NA,NA,"",   849.336E-03,   632.955E-03,  -566.340E-03,   56.5933E-03
C:/temp/dataset/7/20_10.odb,Step-1,Increment      3: Step Time =    1.000,"PART-1-1",            58,           15.,          -10.,            0.,NA,NA,"",       2.54713,       2.25591,      -1.18267,   49.1386E-03
C:/temp/dataset/7/20_10.odb,Step-1,Increment      3: Step Time =    1.000,"PART-1-1",            59,           15.,         -12.5,            0.,NA,NA,"",       2.03440,       1.76100,      -1.01865,   50.8167E-03
C:/temp/dataset/7/20_10.odb,Step-1,Increment      3: Step Time =    1.000,"PART-1-1",            60,           15.,          -2.5,            0.,NA,NA,"",       4.42347,       4.07012,      -1.73240,   44.7341E-03
C:/temp/dataset/7/20_10.odb,Step-1,Increment      3: Step Time =    1.000,"PART-1-1",            61,           15.,           -5.,            0.,NA,NA,"",       3.74305,       3.41228,      -1.53844,   46.0938E-03
C:/temp/dataset/7/20_10.odb,Step-1,Increment      3: Step Time =    1.000,"PART-1-1",            62,           15.,            5.,            0.,NA,NA,"",       6.77787,       6.34243,      -2.39020,   41.3121E-03
C:/temp/dataset/7/20_10.odb,Step-1,Increment      3: Step Time =    1.000,"PART-1-1",            63,           15.,           2.5,            0.,NA,NA,"",       5.94221,       5.53675,      -2.15739,   42.3445E-03
C:/temp/dataset/7/20_10.odb,Step-1,Increment      3: Step Time =    1.000,"PART-1-1",            64,           15.,          12.5,            0.,NA,NA,"",       9.57624,       9.03264,      -3.18053,   39.2286E-03
C:/temp/dataset/7/20_10.odb,Step-1,Increment      3: Step Time =    1.000,"PART-1-1",            65,           15.,           10.,            0.,NA,NA,"",       8.59575,       8.09151,      -2.90075,   39.7090E-03
C:/temp/dataset/7/20_10.odb,Step-1,Increment      3: Step Time =    1.000,"PART-1-1",            66,           15.,           20.,            0.,NA,NA,"",       12.8103,       12.1273,      -4.12708,   31.7645E-03
C:/temp/dataset/7/20_10.odb,Step-1,Increment      3: Step Time =    1.000,"PART-1-1",            67,           15.,          17.5,            0.,NA,NA,"",       11.6822,       11.0486,      -3.79490,   36.5174E-03
C:/temp/dataset/7/20_10.odb,Step-1,Increment      3: Step Time =    1.000,"PART-1-1",            68,           15.,          27.5,            0.,NA,NA,"",       16.4105,       15.5960,      -5.10578,   1.81161E-03
C:/temp/dataset/7/20_10.odb,Step-1,Increment      3: Step Time =    1.000,"PART-1-1",            69,           15.,           25.,            0.,NA,NA,"",       15.1921,       14.4158,      -4.79432,   11.0579E-03
C:/temp/dataset/7/20_10.odb,Step-1,Increment      3: Step Time =    1.000,"PART-1-1",            70,        13.125,           30.,            0.,NA,NA,"",       17.5845,       16.9933,      -4.52113,   1.01245E-03
C:/temp/dataset/7/20_10.odb,Step-1,Increment      3: Step Time =    1.000,"PART-1-1",            71,         9.375,           30.,            0.,NA,NA,"",       17.6645,       17.4439,      -2.78320,   13.4545E-03
C:/temp/dataset/7/20_10.odb,Step-1,Increment      3: Step Time =    1.000,"PART-1-1",            72,         5.625,           30.,            0.,NA,NA,"",       17.9811,       17.9510,      -1.04041,   24.5693E-03
C:/temp/dataset/7/20_10.odb,Step-1,Increment      3: Step Time =    1.000,"PART-1-1",            73,         1.875,           30.,            0.,NA,NA,"",       18.5298,       18.5140,   764.754E-03,   24.6894E-03
C:/temp/dataset/7/20_10.odb,Step-1,Increment      3: Step Time =    1.000,"PART-1-1",            74,        -1.875,           30.,            0.,NA,NA,"",       19.2825,       19.1003,       2.64435,   16.7725E-03
C:/temp/dataset/7/20_10.odb,Step-1,Increment      3: Step Time =    1.000,"PART-1-1",            75,        -5.625,           30.,            0.,NA,NA,"",       20.2105,       19.6855,       4.57673,   8.27936E-03
C:/temp/dataset/7/20_10.odb,Step-1,Increment      3: Step Time =    1.000,"PART-1-1",            76,        -9.375,           30.,            0.,NA,NA,"",       21.2852,       20.2568,       6.53638,   1.95824E-03
C:/temp/dataset/7/20_10.odb,Step-1,Increment      3: Step Time =    1.000,"PART-1-1",            77,       -13.125,           30.,            0.,NA,NA,"",       22.4827,       20.8138,       8.50030,   116.917E-06
C:/temp/dataset/7/20_10.odb,Step-1,Increment      3: Step Time =    1.000,"PART-1-1",            78,          -15.,          27.5,            0.,NA,NA,"",       22.0997,       19.7835,       9.84934,   144.142E-06
C:/temp/dataset/7/20_10.odb,Step-1,Increment      3: Step Time =    1.000,"PART-1-1",            79,      -7.07467,       28.0475,            0.,NA,NA,"",       19.7045,       18.8872,       5.61628,   6.23548E-03
C:/temp/dataset/7/20_10.odb,Step-1,Increment      3: Step Time =    1.000,"PART-1-1",            80,      -10.7971,       27.6072,            0.,NA,NA,"",       20.6790,       19.2182,       7.63431,   2.35862E-03
C:/temp/dataset/7/20_10.odb,Step-1,Increment      3: Step Time =    1.000,"PART-1-1",            81,      -3.50976,       28.2242,            0.,NA,NA,"",       18.8068,       18.4330,       3.73076,   10.2015E-03
C:/temp/dataset/7/20_10.odb,Step-1,Increment      3: Step Time =    1.000,"PART-1-1",            82,       11.3028,       27.6605,            0.,NA,NA,"",       16.4563,       16.1011,      -3.40068,   11.9470E-03
C:/temp/dataset/7/20_10.odb,Step-1,Increment      3: Step Time =    1.000,"PART-1-1",            83,       7.46624,       27.7175,            0.,NA,NA,"",       16.6733,       16.5927,      -1.63755,   15.2864E-03
C:/temp/dataset/7/20_10.odb,Step-1,Increment      3: Step Time =    1.000,"PART-1-1",            84,   523.838E-03,       28.1559,            0.,NA,NA,"",       17.8625,       17.7838,       1.67514,   14.1222E-03
C:/temp/dataset/7/20_10.odb,Step-1,Increment      3: Step Time =    1.000,"PART-1-1",            85,       13.1724,       27.5829,            0.,NA,NA,"",       16.4099,       15.8481,      -4.25720,   7.23453E-03
C:/temp/dataset/7/20_10.odb,Step-1,Increment      3: Step Time =    1.000,"PART-1-1",            86,       9.41586,       27.7284,            0.,NA,NA,"",       16.5530,       16.3569,      -2.54058,   14.5444E-03
C:/temp/dataset/7/20_10.odb,Step-1,Increment      3: Step Time =    1.000,"PART-1-1",            87,       5.17501,       27.3177,            0.,NA,NA,"",       16.7057,       16.6979,  -509.086E-03,   13.4279E-03
C:/temp/dataset/7/20_10.odb,Step-1,Increment      3: Step Time =    1.000,"PART-1-1",            88,       1.85763,       28.7412,            0.,NA,NA,"",       17.9039,       17.8796,   932.681E-03,   17.6698E-03
C:/temp/dataset/7/20_10.odb,Step-1,Increment      3: Step Time =    1.000,"PART-1-1",            89,      -1.45910,       27.7280,            0.,NA,NA,"",       18.0743,       17.8652,       2.74113,   11.5046E-03
C:/temp/dataset/7/20_10.odb,Step-1,Increment      3: Step Time =    1.000,"PART-1-1",            90,      -5.31380,       28.2250,            0.,NA,NA,"",       19.2842,       18.7104,       4.66931,   8.10530E-03
C:/temp/dataset/7/20_10.odb,Step-1,Increment      3: Step Time =    1.000,"PART-1-1",            91,      -8.92632,       27.8484,            0.,NA,NA,"",       20.1796,       19.0639,       6.61706,   4.30619E-03
C:/temp/dataset/7/20_10.odb,Step-1,Increment      3: Step Time =    1.000,"PART-1-1",            92,       7.03655,   996.185E-03,            0.,NA,NA,"",       5.47497,       5.45556,   460.553E-03,   32.1805E-03
C:/temp/dataset/7/20_10.odb,Step-1,Increment      3: Step Time =    1.000,"PART-1-1",            93,       6.93081,       13.7923,            0.,NA,NA,"",       10.2221,       10.2220,  -42.6480E-03,   29.9723E-03
C:/temp/dataset/7/20_10.odb,Step-1,Increment      3: Step Time =    1.000,"PART-1-1",            94,       7.08682,       7.47611,            0.,NA,NA,"",       7.71034,       7.70690,   230.377E-03,   30.0522E-03
C:/temp/dataset/7/20_10.odb,Step-1,Increment      3: Step Time =    1.000,"PART-1-1",            95,       6.96700,      -1.15199,            0.,NA,NA,"",       4.81431,       4.78579,   523.301E-03,   33.4883E-03
C:/temp/dataset/7/20_10.odb,Step-1,Increment      3: Step Time =    1.000,"PART-1-1",            96,       6.47578,      -21.8661,            0.,NA,NA,"",   583.045E-03,   466.753E-03,   349.403E-03,   48.5860E-03
C:/temp/dataset/7/20_10.odb,Step-1,Increment      3: Step Time =    1.000,"PART-1-1",            97,       7.14087,      -13.1040,            0.,NA,NA,"",       1.83274,       1.76629,   489.060E-03,   36.2690E-03
C:/temp/dataset/7/20_10.odb,Step-1,Increment      3: Step Time =    1.000,"PART-1-1",            98,       6.53104,      -7.08024,            0.,NA,NA,"",       3.22015,       3.14887,   673.748E-03,   40.0115E-03
C:/temp/dataset/7/20_10.odb,Step-1,Increment      3: Step Time =    1.000,"PART-1-1",            99,       6.85322,      -3.24169,            0.,NA,NA,"",       4.21340,       4.17305,   581.755E-03,   35.2945E-03
C:/temp/dataset/7/20_10.odb,Step-1,Increment      3: Step Time =    1.000,"PART-1-1",           100,       6.74184,      -8.96518,            0.,NA,NA,"",       2.74645,       2.67689,   614.236E-03,   38.6574E-03
C:/temp/dataset/7/20_10.odb,Step-1,Increment      3: Step Time =    1.000,"PART-1-1",           101,       6.94703,      -23.6171,            0.,NA,NA,"",   381.750E-03,   293.350E-03,   244.293E-03,   43.8803E-03
C:/temp/dataset/7/20_10.odb,Step-1,Increment      3: Step Time =    1.000,"PART-1-1",           102,       7.44695,      -27.8442,            0.,NA,NA,"",   79.2115E-03,   41.1156E-03,   67.7050E-03,   41.1943E-03
C:/temp/dataset/7/20_10.odb,Step-1,Increment      3: Step Time =    1.000,"PART-1-1",           103,       7.35225,      -17.6578,            0.,NA,NA,"",       1.04382,   974.448E-03,   374.180E-03,   35.9627E-03
C:/temp/dataset/7/20_10.odb,Step-1,Increment      3: Step Time =    1.000,"PART-1-1",           104,       7.23832,      -15.2967,            0.,NA,NA,"",       1.42690,       1.35813,   437.607E-03,   36.1805E-03
C:/temp/dataset/7/20_10.odb,Step-1,Increment      3: Step Time =    1.000,"PART-1-1",           105,       7.10099,       17.6583,            0.,NA,NA,"",       11.8708,       11.8647,  -380.696E-03,   29.2588E-03
C:/temp/dataset/7/20_10.odb,Step-1,Increment      3: Step Time =    1.000,"PART-1-1",           106,       6.86948,       15.7920,            0.,NA,NA,"",       11.0784,       11.0774,  -146.081E-03,   31.7008E-03
C:/temp/dataset/7/20_10.odb,Step-1,Increment      3: Step Time =    1.000,"PART-1-1",           107,       7.06799,       9.62990,            0.,NA,NA,"",       8.52984,       8.52874,   137.226E-03,   29.7440E-03
C:/temp/dataset/7/20_10.odb,Step-1,Increment      3: Step Time =    1.000,"PART-1-1",           108,       7.09093,       5.31052,            0.,NA,NA,"",       6.92407,       6.91690,   315.016E-03,   30.5234E-03
C:/temp/dataset/7/20_10.odb,Step-1,Increment      3: Step Time =    1.000,"PART-1-1",           109,       6.65187,      -5.22056,            0.,NA,NA,"",       3.68821,       3.63121,   645.917E-03,   37.9864E-03
C:/temp/dataset/7/20_10.odb,Step-1,Increment      3: Step Time =    1.000,"PART-1-1",           110,       7.26954,      -25.7037,            0.,NA,NA,"",   204.179E-03,   140.226E-03,   148.411E-03,   42.4489E-03
C:/temp/dataset/7/20_10.odb,Step-1,Increment      3: Step Time =    1.000,"PART-1-1",           111,       7.53271,      -20.3934,            0.,NA,NA,"",   669.647E-03,   604.278E-03,   288.574E-03,   35.1434E-03
C:/temp/dataset/7/20_10.odb,Step-1,Increment      3: Step Time =    1.000,"PART-1-1",           112,       7.01178,       11.7341,            0.,NA,NA,"",       9.36810,       9.36798,   47.2782E-03,   29.8480E-03
C:/temp/dataset/7/20_10.odb,Step-1,Increment      3: Step Time =    1.000,"PART-1-1",           113,       7.07643,       3.14767,            0.,NA,NA,"",       6.17762,       6.16521,   391.315E-03,   31.2096E-03
C:/temp/dataset/7/20_10.odb,Step-1,Increment      3: Step Time =    1.000,"PART-1-1",           114,       6.98190,      -10.9751,            0.,NA,NA,"",       2.27771,       2.21145,   545.413E-03,   37.0454E-03
C:/temp/dataset/7/20_10.odb,Step-1,Increment      3: Step Time =    1.000,"PART-1-1",           115,       13.1254,       22.8014,            0.,NA,NA,"",       14.0681,       13.5914,      -3.63128,   17.5028E-03
C:/temp/dataset/7/20_10.odb,Step-1,Increment      3: Step Time =    1.000,"PART-1-1",           116,       12.8923,      -4.74502,            0.,NA,NA,"",       3.65656,       3.51974,  -990.891E-03,   24.6359E-03
C:/temp/dataset/7/20_10.odb,Step-1,Increment      3: Step Time =    1.000,"PART-1-1",           117,       13.0513,      -12.4505,            0.,NA,NA,"",       1.88345,       1.77283,  -635.955E-03,   29.1035E-03
C:/temp/dataset/7/20_10.odb,Step-1,Increment      3: Step Time =    1.000,"PART-1-1",           118,       12.2427,       17.8341,            0.,NA,NA,"",       11.7332,       11.4361,      -2.62380,   15.5021E-03
C:/temp/dataset/7/20_10.odb,Step-1,Increment      3: Step Time =    1.000,"PART-1-1",           119,       13.0441,       9.90429,            0.,NA,NA,"",       8.45224,       8.17776,      -2.13649,   22.3569E-03
C:/temp/dataset/7/20_10.odb,Step-1,Increment      3: Step Time =    1.000,"PART-1-1",           120,       13.0522,       2.62582,            0.,NA,NA,"",       5.85663,       5.65445,      -1.52555,   24.0716E-03
C:/temp/dataset/7/20_10.odb,Step-1,Increment      3: Step Time =    1.000,"PART-1-1",           121,       13.2006,      -19.7745,            0.,NA,NA,"",   729.250E-03,   634.757E-03,  -359.012E-03,   34.2541E-03
C:/temp/dataset/7/20_10.odb,Step-1,Increment      3: Step Time =    1.000,"PART-1-1",           122,       9.90112,      -27.6522,            0.,NA,NA,"",   23.4215E-03,   21.0378E-03,   10.2947E-03,   8.62183E-03
C:/temp/dataset/7/20_10.odb,Step-1,Increment      3: Step Time =    1.000,"PART-1-1",           123,       13.0591,      -22.1191,            0.,NA,NA,"",   463.542E-03,   384.500E-03,  -258.904E-03,   33.7920E-03
C:/temp/dataset/7/20_10.odb,Step-1,Increment      3: Step Time =    1.000,"PART-1-1",           124,       13.1139,      -14.9356,            0.,NA,NA,"",       1.43231,       1.32694,  -539.200E-03,   30.8757E-03
C:/temp/dataset/7/20_10.odb,Step-1,Increment      3: Step Time =    1.000,"PART-1-1",           125,       13.1678,      -17.3995,            0.,NA,NA,"",       1.04520,   944.839E-03,  -446.903E-03,   32.6430E-03
C:/temp/dataset/7/20_10.odb,Step-1,Increment      3: Step Time =    1.000,"PART-1-1",           126,       12.7891,      -7.32383,            0.,NA,NA,"",       2.99444,       2.87872,  -824.405E-03,   24.4186E-03
C:/temp/dataset/7/20_10.odb,Step-1,Increment      3: Step Time =    1.000,"PART-1-1",           127,       12.9162,      -9.94117,            0.,NA,NA,"",       2.39567,       2.28358,  -724.236E-03,   26.6587E-03
C:/temp/dataset/7/20_10.odb,Step-1,Increment      3: Step Time =    1.000,"PART-1-1",           128,       13.0283,   193.158E-03,            0.,NA,NA,"",       5.08181,       4.90134,      -1.34227,   24.5024E-03
C:/temp/dataset/7/20_10.odb,Step-1,Increment      3: Step Time =    1.000,"PART-1-1",           129,       12.9794,      -2.25409,            0.,NA,NA,"",       4.35054,       4.19154,      -1.16540,   24.7401E-03
C:/temp/dataset/7/20_10.odb,Step-1,Increment      3: Step Time =    1.000,"PART-1-1",           130,       13.0689,       7.48049,            0.,NA,NA,"",       7.54299,       7.29297,      -1.92594,   23.0711E-03
C:/temp/dataset/7/20_10.odb,Step-1,Increment      3: Step Time =    1.000,"PART-1-1",           131,       13.0764,       5.05734,            0.,NA,NA,"",       6.67872,       6.45237,      -1.72402,   23.6895E-03
C:/temp/dataset/7/20_10.odb,Step-1,Increment      3: Step Time =    1.000,"PART-1-1",           132,       12.6962,       14.9270,            0.,NA,NA,"",       10.4727,       10.1703,      -2.49853,   18.4697E-03
C:/temp/dataset/7/20_10.odb,Step-1,Increment      3: Step Time =    1.000,"PART-1-1",           133,       12.9459,       12.3607,            0.,NA,NA,"",       9.41732,       9.12295,      -2.33617,   21.0313E-03
C:/temp/dataset/7/20_10.odb,Step-1,Increment      3: Step Time =    1.000,"PART-1-1",           134,       12.9476,       20.4489,            0.,NA,NA,"",       12.9425,       12.5277,      -3.25040,   19.3097E-03
C:/temp/dataset/7/20_10.odb,Step-1,Increment      3: Step Time =    1.000,"PART-1-1",           135,       13.1802,       25.1793,            0.,NA,NA,"",       15.2299,       14.7056,      -3.96169,   13.3889E-03
C:/temp/dataset/7/20_10.odb,Step-1,Increment      3: Step Time =    1.000,"PART-1-1",           136,      -12.4062,       24.9250,            0.,NA,NA,"",       20.1214,       18.0589,       8.87395,   2.28720E-03
C:/temp/dataset/7/20_10.odb,Step-1,Increment      3: Step Time =    1.000,"PART-1-1",           137,       11.3078,       25.3904,            0.,NA,NA,"",       15.3358,       15.0140,      -3.12497,   16.3594E-03
C:/temp/dataset/7/20_10.odb,Step-1,Increment      3: Step Time =    1.000,"PART-1-1",           138,      -10.1009,       25.2443,            0.,NA,NA,"",       19.4408,       17.8864,       7.61704,   5.04605E-03
C:/temp/dataset/7/20_10.odb,Step-1,Increment      3: Step Time =    1.000,"PART-1-1",           139,      -4.83291,       26.5053,            0.,NA,NA,"",       18.3504,       17.7484,       4.66161,   8.81339E-03
C:/temp/dataset/7/20_10.odb,Step-1,Increment      3: Step Time =    1.000,"PART-1-1",           140,       1.72347,       26.1851,            0.,NA,NA,"",       16.6704,       16.6175,       1.32629,   9.30080E-03
C:/temp/dataset/7/20_10.odb,Step-1,Increment      3: Step Time =    1.000,"PART-1-1",           141,       6.12189,       25.7754,            0.,NA,NA,"",       15.8340,       15.8151,  -774.508E-03,   12.8005E-03
C:/temp/dataset/7/20_10.odb,Step-1,Increment      3: Step Time =    1.000,"PART-1-1",           142,       7.62725,       25.7499,            0.,NA,NA,"",       15.6838,       15.6141,      -1.47712,   15.2056E-03
C:/temp/dataset/7/20_10.odb,Step-1,Increment      3: Step Time =    1.000,"PART-1-1",           143,       3.76931,       25.0880,            0.,NA,NA,"",       15.7936,       15.7874,   444.604E-03,   9.81003E-03
C:/temp/dataset/7/20_10.odb,Step-1,Increment      3: Step Time =    1.000,"PART-1-1",           144,  -231.428E-03,       26.1188,            0.,NA,NA,"",       17.0260,       16.8660,       2.32833,   9.53377E-03
C:/temp/dataset/7/20_10.odb,Step-1,Increment      3: Step Time =    1.000,"PART-1-1",           145,      -2.48530,       25.9891,            0.,NA,NA,"",       17.4875,       17.1319,       3.50895,   9.20270E-03
C:/temp/dataset/7/20_10.odb,Step-1,Increment      3: Step Time =    1.000,"PART-1-1",           146,      -3.63425,       26.9302,            0.,NA,NA,"",       18.2247,       17.7857,       3.97592,   9.31389E-03
C:/temp/dataset/7/20_10.odb,Step-1,Increment      3: Step Time =    1.000,"PART-1-1",           147,      -8.31738,       25.8431,            0.,NA,NA,"",       19.1037,       17.9314,       6.58924,   6.85193E-03
C:/temp/dataset/7/20_10.odb,Step-1,Increment      3: Step Time =    1.000,"PART-1-1",           148,       9.04714,   705.037E-03,            0.,NA,NA,"",       5.24547,       5.24341,  -147.036E-03,   13.6007E-03
C:/temp/dataset/7/20_10.odb,Step-1,Increment      3: Step Time =    1.000,"PART-1-1",           149,       7.85197,      -7.06885,            0.,NA,NA,"",       3.11336,       3.09276,   357.594E-03,   26.6687E-03
C:/temp/dataset/7/20_10.odb,Step-1,Increment      3: Step Time =    1.000,"PART-1-1",           150,       8.74205,      -22.9842,            0.,NA,NA,"",   337.049E-03,   314.191E-03,   122.008E-03,   21.8116E-03
C:/temp/dataset/7/20_10.odb,Step-1,Increment      3: Step Time =    1.000,"PART-1-1",           151,       9.28078,      -15.1075,            0.,NA,NA,"",       1.34353,       1.33935,   105.990E-03,   13.4562E-03
C:/temp/dataset/7/20_10.odb,Step-1,Increment      3: Step Time =    1.000,"PART-1-1",           152,       8.97855,      -1.55139,            0.,NA,NA,"",       4.55679,       4.55654,  -47.8880E-03,   14.5320E-03
C:/temp/dataset/7/20_10.odb,Step-1,Increment      3: Step Time =    1.000,"PART-1-1",           153,       9.09422,       9.69450,            0.,NA,NA,"",       8.40874,       8.38562,  -623.122E-03,   12.4630E-03
C:/temp/dataset/7/20_10.odb,Step-1,Increment      3: Step Time =    1.000,"PART-1-1",           154,       8.44946,       15.5970,            0.,NA,NA,"",       10.8623,       10.8336,  -788.970E-03,   16.0190E-03
C:/temp/dataset/7/20_10.odb,Step-1,Increment      3: Step Time =    1.000,"PART-1-1",           155,       9.11701,       7.46178,            0.,NA,NA,"",       7.56211,       7.54591,  -494.752E-03,   12.3633E-03
C:/temp/dataset/7/20_10.odb,Step-1,Increment      3: Step Time =    1.000,"PART-1-1",           156,       8.83101,       13.9442,            0.,NA,NA,"",       10.1366,       10.1035,  -818.212E-03,   14.2371E-03
C:/temp/dataset/7/20_10.odb,Step-1,Increment      3: Step Time =    1.000,"PART-1-1",           157,       9.61385,      -19.9311,            0.,NA,NA,"",   627.120E-03,   623.984E-03,   62.6390E-03,   10.5151E-03
C:/temp/dataset/7/20_10.odb,Step-1,Increment      3: Step Time =    1.000,"PART-1-1",           158,       9.10031,       2.95854,            0.,NA,NA,"",       5.97600,       5.97045,  -257.494E-03,   12.8711E-03
C:/temp/dataset/7/20_10.odb,Step-1,Increment      3: Step Time =    1.000,"PART-1-1",           159,       9.17986,      -12.8049,            0.,NA,NA,"",       1.76861,       1.76502,   112.583E-03,   14.1732E-03
C:/temp/dataset/7/20_10.odb,Step-1,Increment      3: Step Time =    1.000,"PART-1-1",           160,       8.54844,      -8.43147,            0.,NA,NA,"",       2.73993,       2.73209,   207.062E-03,   19.8936E-03
C:/temp/dataset/7/20_10.odb,Step-1,Increment      3: Step Time =    1.000,"PART-1-1",           161,       8.46228,      -5.79934,            0.,NA,NA,"",       3.39847,       3.39301,   192.721E-03,   20.2415E-03
C:/temp/dataset/7/20_10.odb,Step-1,Increment      3: Step Time =    1.000,"PART-1-1",           162,       8.97830,      -10.5487,            0.,NA,NA,"",       2.24013,       2.23611,   134.258E-03,   15.9092E-03
C:/temp/dataset/7/20_10.odb,Step-1,Increment      3: Step Time =    1.000,"PART-1-1",           163,       8.84007,      -3.76868,            0.,NA,NA,"",       3.92556,       3.92520,   53.0203E-03,   16.1768E-03
C:/temp/dataset/7/20_10.odb,Step-1,Increment      3: Step Time =    1.000,"PART-1-1",           164,       9.12644,       5.21383,            0.,NA,NA,"",       6.74945,       6.73903,  -374.947E-03,   12.4342E-03
C:/temp/dataset/7/20_10.odb,Step-1,Increment      3: Step Time =    1.000,"PART-1-1",           165,       9.36869,      -17.5094,            0.,NA,NA,"",   958.244E-03,   953.426E-03,   95.9741E-03,   12.9029E-03
C:/temp/dataset/7/20_10.odb,Step-1,Increment      3: Step Time =    1.000,"PART-1-1",           166,       9.01212,       11.8707,            0.,NA,NA,"",       9.27367,       9.24421,  -738.497E-03,   13.0490E-03
C:/temp/dataset/7/20_10.odb,Step-1,Increment      3: Step Time =    1.000,"PART-1-1",           167,       9.60003,       16.9835,            0.,NA,NA,"",       11.4009,       11.3154,      -1.39385,   5.19851E-03
C:/temp/dataset/7/20_10.odb,Step-1,Increment      3: Step Time =    1.000,"PART-1-1",           168,       7.13047,       19.6676,            0.,NA,NA,"",       12.7686,       12.7563,  -559.804E-03,   16.9516E-03
C:/temp/dataset/7/20_10.odb,Step-1,Increment      3: Step Time =    1.000,"PART-1-1",           169,       9.55406,      -25.2995,            0.,NA,NA,"",   137.797E-03,   131.864E-03,   39.9983E-03,   12.3263E-03
C:/temp/dataset/7/20_10.odb,Step-1,Increment      3: Step Time =    1.000,"PART-1-1",           170,       12.3800,      -27.4389,            0.,NA,NA,"",   70.0392E-03,   38.1404E-03,  -58.7435E-03,   29.3670E-03
C:/temp/dataset/7/20_10.odb,Step-1,Increment      3: Step Time =    1.000,"PART-1-1",           171,      -11.9351,       22.4166,            0.,NA,NA,"",       18.9596,       16.6866,       9.00140,   5.19689E-03
C:/temp/dataset/7/20_10.odb,Step-1,Increment      3: Step Time =    1.000,"PART-1-1",           172,       10.9842,      -1.93535,            0.,NA,NA,"",       4.39613,       4.35371,  -609.294E-03,   5.61042E-03
C:/temp/dataset/7/20_10.odb,Step-1,Increment      3: Step Time =    1.000,"PART-1-1",           173,       11.2234,      -14.9909,            0.,NA,NA,"",       1.34658,       1.32888,  -217.573E-03,   9.73001E-03
C:/temp/dataset/7/20_10.odb,Step-1,Increment      3: Step Time =    1.000,"PART-1-1",           174,       11.0574,       21.1283,            0.,NA,NA,"",       13.2607,       13.0260,      -2.48381,   15.5699E-03
C:/temp/dataset/7/20_10.odb,Step-1,Increment      3: Step Time =    1.000,"PART-1-1",           175,       10.7466,       19.4847,            0.,NA,NA,"",       12.4940,       12.3071,      -2.15300,   11.3636E-03
C:/temp/dataset/7/20_10.odb,Step-1,Increment      3: Step Time =    1.000,"PART-1-1",           176,       11.0568,   433.028E-03,            0.,NA,NA,"",       5.11226,       5.05686,  -750.594E-03,   5.99890E-03
C:/temp/dataset/7/20_10.odb,Step-1,Increment      3: Step Time =    1.000,"PART-1-1",           177,       10.9662,       12.1205,            0.,NA,NA,"",       9.30682,       9.18092,      -1.52562,   4.03248E-03
C:/temp/dataset/7/20_10.odb,Step-1,Increment      3: Step Time =    1.000,"PART-1-1",           178,       11.6216,      -21.4567,            0.,NA,NA,"",   462.977E-03,   441.848E-03,  -138.270E-03,   15.6166E-03
C:/temp/dataset/7/20_10.odb,Step-1,Increment      3: Step Time =    1.000,"PART-1-1",           179,       11.2975,      -17.3958,            0.,NA,NA,"",   964.397E-03,   947.935E-03,  -177.428E-03,   10.9723E-03
C:/temp/dataset/7/20_10.odb,Step-1,Increment      3: Step Time =    1.000,"PART-1-1",           180,       10.6273,       14.4803,            0.,NA,NA,"",       10.2873,       10.1627,      -1.59590,   1.77610E-03
C:/temp/dataset/7/20_10.odb,Step-1,Increment      3: Step Time =    1.000,"PART-1-1",           181,       11.1012,       2.78293,            0.,NA,NA,"",       5.86858,       5.79939,  -898.514E-03,   6.14390E-03
C:/temp/dataset/7/20_10.odb,Step-1,Increment      3: Step Time =    1.000,"PART-1-1",           182,       11.1153,       7.46695,            0.,NA,NA,"",       7.50811,       7.40920,      -1.21471,   5.76939E-03
C:/temp/dataset/7/20_10.odb,Step-1,Increment      3: Step Time =    1.000,"PART-1-1",           183,       11.1247,      -12.5851,            0.,NA,NA,"",       1.78710,       1.76829,  -258.614E-03,   8.32559E-03
C:/temp/dataset/7/20_10.odb,Step-1,Increment      3: Step Time =    1.000,"PART-1-1",           184,       10.4094,      -7.19663,            0.,NA,NA,"",       2.97931,       2.96847,  -253.855E-03,   2.93130E-03
C:/temp/dataset/7/20_10.odb,Step-1,Increment      3: Step Time =    1.000,"PART-1-1",           185,       10.4303,      -22.2648,            0.,NA,NA,"",   364.405E-03,   364.019E-03,  -16.7632E-03,   4.43730E-03
C:/temp/dataset/7/20_10.odb,Step-1,Increment      3: Step Time =    1.000,"PART-1-1",           186,       10.9130,      -10.1038,            0.,NA,NA,"",       2.30028,       2.28276,  -283.332E-03,   5.92058E-03
C:/temp/dataset/7/20_10.odb,Step-1,Increment      3: Step Time =    1.000,"PART-1-1",           187,       10.8491,      -4.38491,            0.,NA,NA,"",       3.70549,       3.67627,  -464.449E-03,   4.73497E-03
C:/temp/dataset/7/20_10.odb,Step-1,Increment      3: Step Time =    1.000,"PART-1-1",           188,       11.1275,       5.13070,            0.,NA,NA,"",       6.66867,       6.58451,      -1.05611,   6.12793E-03
C:/temp/dataset/7/20_10.odb,Step-1,Increment      3: Step Time =    1.000,"PART-1-1",           189,       11.0819,       9.79848,            0.,NA,NA,"",       8.38814,       8.27390,      -1.37963,   5.21348E-03
C:/temp/dataset/7/20_10.odb,Step-1,Increment      3: Step Time =    1.000,"PART-1-1",           190,       12.1026,      -24.5603,            0.,NA,NA,"",   211.844E-03,   179.119E-03,  -113.113E-03,   23.1656E-03
C:/temp/dataset/7/20_10.odb,Step-1,Increment      3: Step Time =    1.000,"PART-1-1",           191,      -7.61069,       24.2264,            0.,NA,NA,"",       18.1746,       16.9907,       6.45236,   8.78442E-03
C:/temp/dataset/7/20_10.odb,Step-1,Increment      3: Step Time =    1.000,"PART-1-1",           192,      -5.77678,       24.2650,            0.,NA,NA,"",       17.6108,       16.7373,       5.47751,   9.20682E-03
C:/temp/dataset/7/20_10.odb,Step-1,Increment      3: Step Time =    1.000,"PART-1-1",           193,       1.00958,       23.8763,            0.,NA,NA,"",       15.6917,       15.5648,       1.99157,   9.77160E-03
C:/temp/dataset/7/20_10.odb,Step-1,Increment      3: Step Time =    1.000,"PART-1-1",           194,      -3.86757,       24.8145,            0.,NA,NA,"",       17.3038,       16.7364,       4.39473,   9.07770E-03
C:/temp/dataset/7/20_10.odb,Step-1,Increment      3: Step Time =    1.000,"PART-1-1",           195,  -996.969E-03,       24.6602,            0.,NA,NA,"",       16.5008,       16.2404,       2.92031,   9.20851E-03
C:/temp/dataset/7/20_10.odb,Step-1,Increment      3: Step Time =    1.000,"PART-1-1",           196,       7.19995,       21.7613,            0.,NA,NA,"",       13.7505,       13.7264,  -812.250E-03,   17.9690E-03
C:/temp/dataset/7/20_10.odb,Step-1,Increment      3: Step Time =    1.000,"PART-1-1",           197,       2.92747,       22.7842,            0.,NA,NA,"",       14.8106,       14.7653,       1.15777,   18.4164E-03
C:/temp/dataset/7/20_10.odb,Step-1,Increment      3: Step Time =    1.000,"PART-1-1",           198,       5.53232,       24.2100,            0.,NA,NA,"",       15.1253,       15.1221,  -307.724E-03,   11.1247E-03
C:/temp/dataset/7/20_10.odb,Step-1,Increment      3: Step Time =    1.000,"PART-1-1",           199,       9.18626,       19.3402,            0.,NA,NA,"",       12.4794,       12.3954,      -1.44565,   9.09539E-03
C:/temp/dataset/7/20_10.odb,Step-1,Increment      3: Step Time =    1.000,"PART-1-1",           200,       11.2321,       23.1770,            0.,NA,NA,"",       14.2478,       13.9671,      -2.81427,   17.8817E-03
C:/temp/dataset/7/20_10.odb,Step-1,Increment      3: Step Time =    1.000,"PART-1-1",           201,       5.11021,       22.1378,            0.,NA,NA,"",       14.1613,       14.1606,   136.553E-03,   18.5856E-03
C:/temp/dataset/7/20_10.odb,Step-1,Increment      3: Step Time =    1.000,"PART-1-1",           202,   167.280E-03,       22.2372,            0.,NA,NA,"",       15.0933,       14.8584,       2.65283,   14.7235E-03
C:/temp/dataset/7/20_10.odb,Step-1,Increment      3: Step Time =    1.000,"PART-1-1",           203,      -2.32264,       22.6339,            0.,NA,NA,"",       15.8848,       15.3996,       3.89599,   9.88373E-03
C:/temp/dataset/7/20_10.odb,Step-1,Increment      3: Step Time =    1.000,"PART-1-1",           204,       9.17324,       21.4477,            0.,NA,NA,"",       13.4708,       13.3663,      -1.67430,   15.1911E-03
C:/temp/dataset/7/20_10.odb,Step-1,Increment      3: Step Time =    1.000,"PART-1-1",           205,       9.43619,       25.5889,            0.,NA,NA,"",       15.4920,       15.3215,      -2.29195,   17.2236E-03
C:/temp/dataset/7/20_10.odb,Step-1,Increment      3: Step Time =    1.000,"PART-1-1",           206,      -5.39738,       22.2321,            0.,NA,NA,"",       16.5962,       15.6328,       5.57201,   7.50115E-03
C:/temp/dataset/7/20_10.odb,Step-1,Increment      3: Step Time =    1.000,"PART-1-1",           207,      -8.66915,       22.6604,            0.,NA,NA,"",       17.8739,       16.3391,       7.24632,   10.7845E-03
C:/temp/dataset/7/20_10.odb,Step-1,Increment      3: Step Time =    1.000,"PART-1-1",           208,      -12.8188,       27.4435,            0.,NA,NA,"",       21.2980,       19.4323,       8.71743,   765.600E-06
C:/temp/dataset/7/20_10.odb,Step-1,Increment      3: Step Time =    1.000,"PART-1-1",           209,       7.43992,       23.7550,            0.,NA,NA,"",       14.7087,       14.6635,      -1.15261,   16.6213E-03
C:/temp/dataset/7/20_10.odb,Step-1,Increment      3: Step Time =    1.000,"PART-1-1",           210,      -6.48406,       26.1481,            0.,NA,NA,"",       18.6669,       17.8135,       5.57937,   8.24239E-03
C:/temp/dataset/7/20_10.odb,Step-1,Increment      3: Step Time =    1.000,"PART-1-1",           211,       3.18484,       28.0088,            0.,NA,NA,"",       17.3220,       17.3181,   370.421E-03,   15.0040E-03
C:/temp/dataset/7/20_10.odb,Step-1,Increment      3: Step Time =    1.000,"PART-1-1",           212,       11.4304,      -19.6429,            0.,NA,NA,"",   663.405E-03,   645.920E-03,  -151.304E-03,   12.8945E-03
C:/temp/dataset/7/20_10.odb,Step-1,Increment      3: Step Time =    1.000,"PART-1-1",           213,       9.33060,       23.4727,            0.,NA,NA,"",       14.4496,       14.3125,      -1.98630,   18.1050E-03
C:/temp/dataset/7/20_10.odb,Step-1,Increment      3: Step Time =    1.000,"PART-1-1",           214,      -12.1707,       23.6708,            0.,NA,NA,"",       19.5363,       17.3723,       8.93692,   3.27332E-03
C:/temp/dataset/7/20_10.odb,Step-1,Increment      3: Step Time =    1.000,"PART-1-1",           215,      -13.7031,       24.9625,            0.,NA,NA,"",       20.6120,       18.2683,       9.54591,   977.379E-06
C:/temp/dataset/7/20_10.odb,Step-1,Increment      3: Step Time =    1.000,"PART-1-1",           216,          -15.,         23.75,            0.,NA,NA,"",       20.6381,       17.8259,       10.4005,   756.178E-06
C:/temp/dataset/7/20_10.odb,Step-1,Increment      3: Step Time =    1.000,"PART-1-1",           217,      -13.4675,       22.4583,            0.,NA,NA,"",       19.5582,       16.9300,       9.79265,   1.54909E-03
C:/temp/dataset/7/20_10.odb,Step-1,Increment      3: Step Time =    1.000,"PART-1-1",           218,      -9.86170,       27.7278,            0.,NA,NA,"",       20.4248,       19.1414,       7.12582,   3.29667E-03
C:/temp/dataset/7/20_10.odb,Step-1,Increment      3: Step Time =    1.000,"PART-1-1",           219,      -10.4490,       26.4258,            0.,NA,NA,"",       20.0574,       18.5513,       7.62557,   3.54844E-03
C:/temp/dataset/7/20_10.odb,Step-1,Increment      3: Step Time =    1.000,"PART-1-1",           220,      -9.20914,       25.5437,            0.,NA,NA,"",       19.2667,       17.9095,       7.10326,   5.94565E-03
C:/temp/dataset/7/20_10.odb,Step-1,Increment      3: Step Time =    1.000,"PART-1-1",           221,      -8.62185,       26.8458,            0.,NA,NA,"",       19.6401,       18.4967,       6.60335,   5.43064E-03
C:/temp/dataset/7/20_10.odb,Step-1,Increment      3: Step Time =    1.000,"PART-1-1",           222,      -9.15066,       28.9242,            0.,NA,NA,"",       20.7303,       19.6592,       6.57734,   2.73082E-03
C:/temp/dataset/7/20_10.odb,Step-1,Increment      3: Step Time =    1.000,"PART-1-1",           223,      -10.3125,           30.,            0.,NA,NA,"",       21.5737,       20.3970,       7.02763,   1.19201E-03
C:/temp/dataset/7/20_10.odb,Step-1,Increment      3: Step Time =    1.000,"PART-1-1",           224,      -11.0235,       28.8036,            0.,NA,NA,"",       21.2718,       19.8766,       7.57688,   1.22216E-03
C:/temp/dataset/7/20_10.odb,Step-1,Increment      3: Step Time =    1.000,"PART-1-1",           225,      -11.2536,       25.0847,            0.,NA,NA,"",       19.7745,       17.9731,       8.24612,   3.60070E-03
C:/temp/dataset/7/20_10.odb,Step-1,Increment      3: Step Time =    1.000,"PART-1-1",           226,      -10.3021,       22.5385,            0.,NA,NA,"",       18.4056,       16.5140,       8.12738,   7.71608E-03
C:/temp/dataset/7/20_10.odb,Step-1,Increment      3: Step Time =    1.000,"PART-1-1",           227,      -9.38503,       23.9523,            0.,NA,NA,"",       18.6559,       17.1119,       7.43144,   7.39957E-03
C:/temp/dataset/7/20_10.odb,Step-1,Increment      3: Step Time =    1.000,"PART-1-1",           228,      -12.9719,       28.7217,            0.,NA,NA,"",       21.8870,       20.1228,       8.60890,   280.536E-06
C:/temp/dataset/7/20_10.odb,Step-1,Increment      3: Step Time =    1.000,"PART-1-1",           229,      -14.0625,           30.,            0.,NA,NA,"",       22.7996,       20.9522,       8.99054,   77.5147E-06
C:/temp/dataset/7/20_10.odb,Step-1,Increment      3: Step Time =    1.000,"PART-1-1",           230,          -15.,         28.75,            0.,NA,NA,"",       22.6071,       20.4369,       9.66514,   96.8023E-06
C:/temp/dataset/7/20_10.odb,Step-1,Increment      3: Step Time =    1.000,"PART-1-1",           231,      -13.9094,       27.4717,            0.,NA,NA,"",       21.6947,       19.6080,       9.28359,   326.016E-06
C:/temp/dataset/7/20_10.odb,Step-1,Increment      3: Step Time =    1.000,"PART-1-1",           232,      -7.40072,       25.9956,            0.,NA,NA,"",       18.8800,       17.8728,       6.08403,   7.46123E-03
C:/temp/dataset/7/20_10.odb,Step-1,Increment      3: Step Time =    1.000,"PART-1-1",           233,      -7.96404,       25.0347,            0.,NA,NA,"",       18.6387,       17.4607,       6.52099,   7.79382E-03
C:/temp/dataset/7/20_10.odb,Step-1,Increment      3: Step Time =    1.000,"PART-1-1",           234,      -6.69374,       24.2457,            0.,NA,NA,"",       17.8877,       16.8639,       5.96462,   8.96710E-03
C:/temp/dataset/7/20_10.odb,Step-1,Increment      3: Step Time =    1.000,"PART-1-1",           235,      -6.13042,       25.2066,            0.,NA,NA,"",       18.1380,       17.2749,       5.52840,   8.54275E-03
C:/temp/dataset/7/20_10.odb,Step-1,Increment      3: Step Time =    1.000,"PART-1-1",           236,      -5.46940,       29.1125,            0.,NA,NA,"",       19.7453,       19.1964,       4.62371,   7.67955E-03
C:/temp/dataset/7/20_10.odb,Step-1,Increment      3: Step Time =    1.000,"PART-1-1",           237,      -4.41178,       28.2246,            0.,NA,NA,"",       19.0406,       18.5718,       4.19922,   9.09965E-03
C:/temp/dataset/7/20_10.odb,Step-1,Increment      3: Step Time =    1.000,"PART-1-1",           238,      -3.62988,       29.1121,            0.,NA,NA,"",       19.2644,       18.9118,       3.66878,   10.8543E-03
C:/temp/dataset/7/20_10.odb,Step-1,Increment      3: Step Time =    1.000,"PART-1-1",           239,       -4.6875,           30.,            0.,NA,NA,"",       19.9636,       19.5401,       4.09005,   10.3400E-03
C:/temp/dataset/7/20_10.odb,Step-1,Increment      3: Step Time =    1.000,"PART-1-1",           240,  -467.629E-03,       27.9420,            0.,NA,NA,"",       17.9604,       17.8244,       2.20569,   12.7416E-03
C:/temp/dataset/7/20_10.odb,Step-1,Increment      3: Step Time =    1.000,"PART-1-1",           241,  -845.263E-03,       26.9234,            0.,NA,NA,"",       17.5475,       17.3635,       2.53488,   10.2066E-03
C:/temp/dataset/7/20_10.odb,Step-1,Increment      3: Step Time =    1.000,"PART-1-1",           242,   746.021E-03,       26.1520,            0.,NA,NA,"",       16.8402,       16.7410,       1.82514,   9.38761E-03
C:/temp/dataset/7/20_10.odb,Step-1,Increment      3: Step Time =    1.000,"PART-1-1",           243,       1.12365,       27.1705,            0.,NA,NA,"",       17.2631,       17.1978,       1.50108,   11.4876E-03
C:/temp/dataset/7/20_10.odb,Step-1,Increment      3: Step Time =    1.000,"PART-1-1",           244,       14.0901,       25.0896,            0.,NA,NA,"",       15.2048,       14.5617,      -4.37506,   10.9651E-03
C:/temp/dataset/7/20_10.odb,Step-1,Increment      3: Step Time =    1.000,"PART-1-1",           245,       13.1528,       23.9903,            0.,NA,NA,"",       14.6470,       14.1463,      -3.79691,   15.3300E-03
C:/temp/dataset/7/20_10.odb,Step-1,Increment      3: Step Time =    1.000,"PART-1-1",           246,       14.0627,       22.6507,            0.,NA,NA,"",       14.0189,       13.4227,      -4.04497,   18.7911E-03
C:/temp/dataset/7/20_10.odb,Step-1,Increment      3: Step Time =    1.000,"PART-1-1",           247,           15.,         23.75,            0.,NA,NA,"",       14.5858,       13.8311,      -4.63115,   16.8394E-03
C:/temp/dataset/7/20_10.odb,Step-1,Increment      3: Step Time =    1.000,"PART-1-1",           248,       11.2764,       28.8302,            0.,NA,NA,"",       17.0299,       16.6607,      -3.52703,   7.94483E-03
C:/temp/dataset/7/20_10.odb,Step-1,Increment      3: Step Time =    1.000,"PART-1-1",           249,       10.3125,           30.,            0.,NA,NA,"",       17.6232,       17.3273,      -3.21569,   9.76834E-03
C:/temp/dataset/7/20_10.odb,Step-1,Increment      3: Step Time =    1.000,"PART-1-1",           250,       9.39543,       28.8642,            0.,NA,NA,"",       17.1123,       16.9036,      -2.66435,   12.5900E-03
C:/temp/dataset/7/20_10.odb,Step-1,Increment      3: Step Time =    1.000,"PART-1-1",           251,       10.3594,       27.6945,            0.,NA,NA,"",       16.4977,       16.2281,      -2.97054,   13.1464E-03
C:/temp/dataset/7/20_10.odb,Step-1,Increment      3: Step Time =    1.000,"PART-1-1",           252,        8.4375,           30.,            0.,NA,NA,"",       17.7209,       17.5644,      -2.35059,   16.8677E-03
C:/temp/dataset/7/20_10.odb,Step-1,Increment      3: Step Time =    1.000,"PART-1-1",           253,       7.48312,       28.8587,            0.,NA,NA,"",       17.2355,       17.1434,      -1.77941,   16.7982E-03
C:/temp/dataset/7/20_10.odb,Step-1,Increment      3: Step Time =    1.000,"PART-1-1",           254,       8.44105,       27.7230,            0.,NA,NA,"",       16.6053,       16.4732,      -2.09038,   14.7322E-03
C:/temp/dataset/7/20_10.odb,Step-1,Increment      3: Step Time =    1.000,"PART-1-1",           255,       13.0365,       21.6252,            0.,NA,NA,"",       13.5010,       13.0555,      -3.43956,   18.2951E-03
C:/temp/dataset/7/20_10.odb,Step-1,Increment      3: Step Time =    1.000,"PART-1-1",           256,       13.9738,       20.2245,            0.,NA,NA,"",       12.8660,       12.3265,      -3.68655,   24.7454E-03
C:/temp/dataset/7/20_10.odb,Step-1,Increment      3: Step Time =    1.000,"PART-1-1",           257,           15.,         21.25,            0.,NA,NA,"",       13.3927,       12.6850,      -4.29587,   27.1837E-03
C:/temp/dataset/7/20_10.odb,Step-1,Increment      3: Step Time =    1.000,"PART-1-1",           258,       6.90015,       14.7921,            0.,NA,NA,"",       10.6469,       10.6464,  -93.3170E-03,   30.4824E-03
C:/temp/dataset/7/20_10.odb,Step-1,Increment      3: Step Time =    1.000,"PART-1-1",           259,       5.93474,       15.8126,            0.,NA,NA,"",       11.1879,       11.1854,   237.527E-03,   37.9377E-03
C:/temp/dataset/7/20_10.odb,Step-1,Increment      3: Step Time =    1.000,"PART-1-1",           260,            5.,       14.7917,            0.,NA,NA,"",       10.8658,       10.8446,   678.658E-03,   44.8106E-03
C:/temp/dataset/7/20_10.odb,Step-1,Increment      3: Step Time =    1.000,"PART-1-1",           261,       5.96541,       13.7711,            0.,NA,NA,"",       10.3154,       10.3096,   345.167E-03,   37.7942E-03
C:/temp/dataset/7/20_10.odb,Step-1,Increment      3: Step Time =    1.000,"PART-1-1",           262,       7.07741,       8.55300,            0.,NA,NA,"",       8.11563,       8.11351,   185.562E-03,   29.8952E-03
C:/temp/dataset/7/20_10.odb,Step-1,Increment      3: Step Time =    1.000,"PART-1-1",           263,       6.03400,       9.60662,            0.,NA,NA,"",       8.62657,       8.61073,   522.512E-03,   38.4860E-03
C:/temp/dataset/7/20_10.odb,Step-1,Increment      3: Step Time =    1.000,"PART-1-1",           264,            5.,       8.54167,            0.,NA,NA,"",       8.34295,       8.28968,   941.253E-03,   47.6623E-03
C:/temp/dataset/7/20_10.odb,Step-1,Increment      3: Step Time =    1.000,"PART-1-1",           265,       6.04341,       7.48805,            0.,NA,NA,"",       7.82028,       7.79711,   601.544E-03,   39.0601E-03
C:/temp/dataset/7/20_10.odb,Step-1,Increment      3: Step Time =    1.000,"PART-1-1",           266,            5.,         4.375,            0.,NA,NA,"",       6.82560,       6.74538,       1.04340,   49.3844E-03
C:/temp/dataset/7/20_10.odb,Step-1,Increment      3: Step Time =    1.000,"PART-1-1",           267,       6.03822,       3.24050,            0.,NA,NA,"",       6.31232,       6.27052,   725.235E-03,   40.5156E-03
C:/temp/dataset/7/20_10.odb,Step-1,Increment      3: Step Time =    1.000,"PART-1-1",           268,       7.08368,       4.22909,            0.,NA,NA,"",       6.54616,       6.53652,   355.007E-03,   30.8631E-03
C:/temp/dataset/7/20_10.odb,Step-1,Increment      3: Step Time =    1.000,"PART-1-1",           269,       6.04546,       5.36359,            0.,NA,NA,"",       7.04763,       7.01581,   669.034E-03,   39.7262E-03
C:/temp/dataset/7/20_10.odb,Step-1,Increment      3: Step Time =    1.000,"PART-1-1",           270,            5.,       2.29167,            0.,NA,NA,"",       6.11881,       6.02395,       1.07323,   50.3067E-03
C:/temp/dataset/7/20_10.odb,Step-1,Increment      3: Step Time =    1.000,"PART-1-1",           271,       6.01828,       1.12309,            0.,NA,NA,"",       5.61677,       5.56361,   770.962E-03,   41.4766E-03
C:/temp/dataset/7/20_10.odb,Step-1,Increment      3: Step Time =    1.000,"PART-1-1",           272,       7.05649,       2.07193,            0.,NA,NA,"",       5.82155,       5.80581,   427.830E-03,   31.6913E-03
C:/temp/dataset/7/20_10.odb,Step-1,Increment      3: Step Time =    1.000,"PART-1-1",           273,       7.00178,  -77.9012E-03,            0.,NA,NA,"",       5.13980,       5.11602,   493.913E-03,   32.8300E-03
C:/temp/dataset/7/20_10.odb,Step-1,Increment      3: Step Time =    1.000,"PART-1-1",           274,            5.,   208.333E-03,            0.,NA,NA,"",       5.44756,       5.33755,       1.08922,   51.2949E-03
C:/temp/dataset/7/20_10.odb,Step-1,Increment      3: Step Time =    1.000,"PART-1-1",           275,       5.98350,  -992.661E-03,            0.,NA,NA,"",       4.96047,       4.89445,   806.608E-03,   42.6428E-03
C:/temp/dataset/7/20_10.odb,Step-1,Increment      3: Step Time =    1.000,"PART-1-1",           276,       6.59145,      -6.15040,            0.,NA,NA,"",       3.45035,       3.38634,   661.555E-03,   38.9967E-03
C:/temp/dataset/7/20_10.odb,Step-1,Increment      3: Step Time =    1.000,"PART-1-1",           277,       5.82593,      -5.11028,            0.,NA,NA,"",       3.80256,       3.70465,   857.336E-03,   45.9964E-03
C:/temp/dataset/7/20_10.odb,Step-1,Increment      3: Step Time =    1.000,"PART-1-1",           278,            5.,      -6.04167,            0.,NA,NA,"",       3.65462,       3.49855,       1.05659,   54.6815E-03
C:/temp/dataset/7/20_10.odb,Step-1,Increment      3: Step Time =    1.000,"PART-1-1",           279,       5.76552,      -7.08179,            0.,NA,NA,"",       3.29925,       3.18607,   856.740E-03,   47.6708E-03
C:/temp/dataset/7/20_10.odb,Step-1,Increment      3: Step Time =    1.000,"PART-1-1",           280,       8.25955,      -15.2021,            0.,NA,NA,"",       1.37372,       1.34634,   272.914E-03,   24.7206E-03
C:/temp/dataset/7/20_10.odb,Step-1,Increment      3: Step Time =    1.000,"PART-1-1",           281,       9.23032,      -13.9562,            0.,NA,NA,"",       1.54942,       1.54551,   110.014E-03,   13.8113E-03
C:/temp/dataset/7/20_10.odb,Step-1,Increment      3: Step Time =    1.000,"PART-1-1",           282,       8.16037,      -12.9544,            0.,NA,NA,"",       1.78915,       1.76339,   302.491E-03,   25.1421E-03
C:/temp/dataset/7/20_10.odb,Step-1,Increment      3: Step Time =    1.000,"PART-1-1",           283,       7.18960,      -14.2003,            0.,NA,NA,"",       1.62380,       1.55605,   464.163E-03,   36.2209E-03
C:/temp/dataset/7/20_10.odb,Step-1,Increment      3: Step Time =    1.000,"PART-1-1",           284,            5.,      -22.7083,            0.,NA,NA,"",   615.149E-03,   427.410E-03,   442.413E-03,   66.9763E-03
C:/temp/dataset/7/20_10.odb,Step-1,Increment      3: Step Time =    1.000,"PART-1-1",           285,       5.97351,      -23.6835,            0.,NA,NA,"",   442.834E-03,   312.262E-03,   313.998E-03,   55.9396E-03
C:/temp/dataset/7/20_10.odb,Step-1,Increment      3: Step Time =    1.000,"PART-1-1",           286,       6.71140,      -22.7416,            0.,NA,NA,"",   477.561E-03,   375.360E-03,   295.245E-03,   46.2608E-03
C:/temp/dataset/7/20_10.odb,Step-1,Increment      3: Step Time =    1.000,"PART-1-1",           287,       5.73789,      -21.7664,            0.,NA,NA,"",   653.698E-03,   497.889E-03,   423.589E-03,   57.2784E-03
C:/temp/dataset/7/20_10.odb,Step-1,Increment      3: Step Time =    1.000,"PART-1-1",           288,       9.95056,      -28.8261,            0.,NA,NA,"",   5.04488E-03,  -3.18807E-03,   3.90986E-03,   4.91339E-03
C:/temp/dataset/7/20_10.odb,Step-1,Increment      3: Step Time =    1.000,"PART-1-1",           289,       8.67404,      -27.7482,            0.,NA,NA,"",   47.0104E-03,   26.8160E-03,   38.6119E-03,   24.0348E-03
C:/temp/dataset/7/20_10.odb,Step-1,Increment      3: Step Time =    1.000,"PART-1-1",           290,       7.47347,      -28.9221,            0.,NA,NA,"",   30.8621E-03,   8.12865E-03,   29.7724E-03,   34.3089E-03
C:/temp/dataset/7/20_10.odb,Step-1,Increment      3: Step Time =    1.000,"PART-1-1",           291,          8.75,          -30.,            0.,NA,NA,"",            0.,  -60.4618E-42,   1.51696E-39,   17.3916E-03
C:/temp/dataset/7/20_10.odb,Step-1,Increment      3: Step Time =    1.000,"PART-1-1",           292,       9.14805,      -24.1419,            0.,NA,NA,"",   227.788E-03,   214.676E-03,   76.1676E-03,   17.0019E-03
C:/temp/dataset/7/20_10.odb,Step-1,Increment      3: Step Time =    1.000,"PART-1-1",           293,       7.84454,      -23.3007,            0.,NA,NA,"",   354.307E-03,   301.402E-03,   186.253E-03,   32.7145E-03
C:/temp/dataset/7/20_10.odb,Step-1,Increment      3: Step Time =    1.000,"PART-1-1",           294,       7.10828,      -24.6604,            0.,NA,NA,"",   287.110E-03,   210.285E-03,   195.480E-03,   43.0266E-03
C:/temp/dataset/7/20_10.odb,Step-1,Increment      3: Step Time =    1.000,"PART-1-1",           295,       8.41180,      -25.5016,            0.,NA,NA,"",   163.896E-03,   132.362E-03,   96.6543E-03,   27.1646E-03
C:/temp/dataset/7/20_10.odb,Step-1,Increment      3: Step Time =    1.000,"PART-1-1",           296,       7.00425,      -21.1298,            0.,NA,NA,"",   623.149E-03,   532.379E-03,   323.863E-03,   41.9134E-03
C:/temp/dataset/7/20_10.odb,Step-1,Increment      3: Step Time =    1.000,"PART-1-1",           297,       6.26636,      -19.9884,            0.,NA,NA,"",   816.465E-03,   686.068E-03,   442.636E-03,   49.8108E-03
C:/temp/dataset/7/20_10.odb,Step-1,Increment      3: Step Time =    1.000,"PART-1-1",           298,            5.,       -20.625,            0.,NA,NA,"",   853.941E-03,   648.805E-03,   555.218E-03,   65.4063E-03
C:/temp/dataset/7/20_10.odb,Step-1,Increment      3: Step Time =    1.000,"PART-1-1",           299,       12.8526,      -8.63250,            0.,NA,NA,"",       2.68706,       2.57332,  -773.513E-03,   25.5293E-03
C:/temp/dataset/7/20_10.odb,Step-1,Increment      3: Step Time =    1.000,"PART-1-1",           300,       13.9581,      -9.97058,            0.,NA,NA,"",       2.45893,       2.26697,  -952.446E-03,   37.8617E-03
C:/temp/dataset/7/20_10.odb,Step-1,Increment      3: Step Time =    1.000,"PART-1-1",           301,           15.,         -8.75,            0.,NA,NA,"",       2.82506,       2.52454,      -1.26793,   48.3350E-03
C:/temp/dataset/7/20_10.odb,Step-1,Increment      3: Step Time =    1.000,"PART-1-1",           302,       13.8945,      -7.41192,            0.,NA,NA,"",       3.04148,       2.83968,      -1.08942,   35.9680E-03
C:/temp/dataset/7/20_10.odb,Step-1,Increment      3: Step Time =    1.000,"PART-1-1",           303,            5.,        10.625,            0.,NA,NA,"",       9.15204,       9.11074,   868.436E-03,   46.7610E-03
C:/temp/dataset/7/20_10.odb,Step-1,Increment      3: Step Time =    1.000,"PART-1-1",           304,       7.03988,       10.6820,            0.,NA,NA,"",       8.94481,       8.94432,   93.7977E-03,   29.7916E-03
C:/temp/dataset/7/20_10.odb,Step-1,Increment      3: Step Time =    1.000,"PART-1-1",           305,       6.00589,       11.7004,            0.,NA,NA,"",       9.45906,       9.44895,   437.397E-03,   38.0548E-03
C:/temp/dataset/7/20_10.odb,Step-1,Increment      3: Step Time =    1.000,"PART-1-1",           306,       2.74639,       25.6366,            0.,NA,NA,"",       16.2247,       16.2006,   883.768E-03,   9.19261E-03
C:/temp/dataset/7/20_10.odb,Step-1,Increment      3: Step Time =    1.000,"PART-1-1",           307,       1.36653,       25.0307,            0.,NA,NA,"",       16.1770,       16.0919,       1.65708,   8.20672E-03
C:/temp/dataset/7/20_10.odb,Step-1,Increment      3: Step Time =    1.000,"PART-1-1",           308,       1.96853,       23.3303,            0.,NA,NA,"",       15.2432,       15.1617,       1.57454,   11.7692E-03
C:/temp/dataset/7/20_10.odb,Step-1,Increment      3: Step Time =    1.000,"PART-1-1",           309,       3.34839,       23.9361,            0.,NA,NA,"",       15.2971,       15.2764,   796.114E-03,   10.9571E-03
C:/temp/dataset/7/20_10.odb,Step-1,Increment      3: Step Time =    1.000,"PART-1-1",           310,       4.47216,       26.2029,            0.,NA,NA,"",       16.2433,       16.2433,  -35.3902E-03,   10.4072E-03
C:/temp/dataset/7/20_10.odb,Step-1,Increment      3: Step Time =    1.000,"PART-1-1",           311,       4.17993,       27.6633,            0.,NA,NA,"",       17.0053,       17.0052,  -72.0907E-03,   13.9317E-03
C:/temp/dataset/7/20_10.odb,Step-1,Increment      3: Step Time =    1.000,"PART-1-1",           312,       2.45416,       27.0970,            0.,NA,NA,"",       16.9893,       16.9683,   844.880E-03,   11.5910E-03
C:/temp/dataset/7/20_10.odb,Step-1,Increment      3: Step Time =    1.000,"PART-1-1",           313,      -1.66705,       28.8640,            0.,NA,NA,"",       18.6749,       18.4796,       2.69355,   13.5013E-03
C:/temp/dataset/7/20_10.odb,Step-1,Increment      3: Step Time =    1.000,"PART-1-1",           314,   261.919E-03,       29.0779,            0.,NA,NA,"",       18.3700,       18.2925,       1.68629,   17.2754E-03
C:/temp/dataset/7/20_10.odb,Step-1,Increment      3: Step Time =    1.000,"PART-1-1",           315,    -937.5E-03,           30.,            0.,NA,NA,"",       19.0769,       18.9532,       2.16855,   18.8717E-03
C:/temp/dataset/7/20_10.odb,Step-1,Increment      3: Step Time =    1.000,"PART-1-1",           316,          -15.,         21.25,            0.,NA,NA,"",       19.7228,       16.5259,       10.7650,   1.33167E-03
C:/temp/dataset/7/20_10.odb,Step-1,Increment      3: Step Time =    1.000,"PART-1-1",           317,      -13.3250,           20.,            0.,NA,NA,"",       18.5978,       15.6321,       10.0755,   757.957E-06
C:/temp/dataset/7/20_10.odb,Step-1,Increment      3: Step Time =    1.000,"PART-1-1",           318,      -11.7925,       21.2083,            0.,NA,NA,"",       18.4435,       16.0376,       9.10827,   5.27727E-03
C:/temp/dataset/7/20_10.odb,Step-1,Increment      3: Step Time =    1.000,"PART-1-1",           319,       10.1137,       15.7319,            0.,NA,NA,"",       10.8360,       10.7322,      -1.49603,   2.71286E-03
C:/temp/dataset/7/20_10.odb,Step-1,Increment      3: Step Time =    1.000,"PART-1-1",           320,       9.02474,       16.2903,            0.,NA,NA,"",       11.1267,       11.0734,      -1.08750,   10.9125E-03
C:/temp/dataset/7/20_10.odb,Step-1,Increment      3: Step Time =    1.000,"PART-1-1",           321,       8.64023,       14.7706,            0.,NA,NA,"",       10.4968,       10.4660,  -803.454E-03,   15.2115E-03
C:/temp/dataset/7/20_10.odb,Step-1,Increment      3: Step Time =    1.000,"PART-1-1",           322,       9.72917,       14.2122,            0.,NA,NA,"",       10.2036,       10.1323,      -1.20442,   6.63042E-03
C:/temp/dataset/7/20_10.odb,Step-1,Increment      3: Step Time =    1.000,"PART-1-1",           323,       12.8210,       13.6438,            0.,NA,NA,"",       9.93817,       9.64006,      -2.41589,   19.7849E-03
C:/temp/dataset/7/20_10.odb,Step-1,Increment      3: Step Time =    1.000,"PART-1-1",           324,       13.9730,       12.4303,            0.,NA,NA,"",       9.48545,       9.07603,      -2.75672,   30.1242E-03
C:/temp/dataset/7/20_10.odb,Step-1,Increment      3: Step Time =    1.000,"PART-1-1",           325,           15.,         13.75,            0.,NA,NA,"",       10.0844,       9.51971,      -3.32720,   38.9061E-03
C:/temp/dataset/7/20_10.odb,Step-1,Increment      3: Step Time =    1.000,"PART-1-1",           326,       13.8481,       14.9635,            0.,NA,NA,"",       10.5245,       10.0919,      -2.98655,   28.5089E-03
C:/temp/dataset/7/20_10.odb,Step-1,Increment      3: Step Time =    1.000,"PART-1-1",           327,       10.1008,       2.87074,            0.,NA,NA,"",       5.91103,       5.88270,  -577.988E-03,   4.01404E-03
C:/temp/dataset/7/20_10.odb,Step-1,Increment      3: Step Time =    1.000,"PART-1-1",           328,       9.07373,       1.83179,            0.,NA,NA,"",       5.60555,       5.60197,  -200.264E-03,   13.2345E-03
C:/temp/dataset/7/20_10.odb,Step-1,Increment      3: Step Time =    1.000,"PART-1-1",           329,       10.0520,   569.032E-03,            0.,NA,NA,"",       5.16724,       5.14768,  -449.225E-03,   4.50122E-03
C:/temp/dataset/7/20_10.odb,Step-1,Increment      3: Step Time =    1.000,"PART-1-1",           330,       11.0790,       1.60798,            0.,NA,NA,"",       5.48480,       5.42277,  -822.573E-03,   6.06740E-03
C:/temp/dataset/7/20_10.odb,Step-1,Increment      3: Step Time =    1.000,"PART-1-1",           331,       9.98138,      -1.74337,            0.,NA,NA,"",       4.46459,       4.45241,  -329.501E-03,   5.20850E-03
C:/temp/dataset/7/20_10.odb,Step-1,Increment      3: Step Time =    1.000,"PART-1-1",           332,       8.90931,      -2.66004,            0.,NA,NA,"",       4.23586,       4.23586,   4.82723E-03,   15.3422E-03
C:/temp/dataset/7/20_10.odb,Step-1,Increment      3: Step Time =    1.000,"PART-1-1",           333,       9.84458,      -4.07679,            0.,NA,NA,"",       3.80317,       3.79749,  -207.688E-03,   6.56536E-03
C:/temp/dataset/7/20_10.odb,Step-1,Increment      3: Step Time =    1.000,"PART-1-1",           334,       10.9167,      -3.16013,            0.,NA,NA,"",       4.04438,       4.00892,  -534.388E-03,   5.14442E-03
C:/temp/dataset/7/20_10.odb,Step-1,Increment      3: Step Time =    1.000,"PART-1-1",           335,            5.,      -3.95833,            0.,NA,NA,"",       4.21468,       4.07378,       1.08064,   53.4804E-03
C:/temp/dataset/7/20_10.odb,Step-1,Increment      3: Step Time =    1.000,"PART-1-1",           336,       6.75254,      -4.23112,            0.,NA,NA,"",       3.94642,       3.89804,   616.060E-03,   36.6306E-03
C:/temp/dataset/7/20_10.odb,Step-1,Increment      3: Step Time =    1.000,"PART-1-1",           337,       5.92661,      -3.07918,            0.,NA,NA,"",       4.35285,       4.27228,   833.619E-03,   44.0905E-03
C:/temp/dataset/7/20_10.odb,Step-1,Increment      3: Step Time =    1.000,"PART-1-1",           338,       7.06139,      -12.0396,            0.,NA,NA,"",       2.04965,       1.98317,   517.788E-03,   36.6591E-03
C:/temp/dataset/7/20_10.odb,Step-1,Increment      3: Step Time =    1.000,"PART-1-1",           339,       5.99095,      -11.1126,            0.,NA,NA,"",       2.34290,       2.22141,   744.642E-03,   47.5317E-03
C:/temp/dataset/7/20_10.odb,Step-1,Increment      3: Step Time =    1.000,"PART-1-1",           340,            5.,      -12.2917,            0.,NA,NA,"",       2.20976,       2.01392,   909.478E-03,   58.7799E-03
C:/temp/dataset/7/20_10.odb,Step-1,Increment      3: Step Time =    1.000,"PART-1-1",           341,       6.07044,      -13.2187,            0.,NA,NA,"",       1.90872,       1.78242,   682.786E-03,   47.8861E-03
C:/temp/dataset/7/20_10.odb,Step-1,Increment      3: Step Time =    1.000,"PART-1-1",           342,       6.63644,      -8.02271,            0.,NA,NA,"",       2.97909,       2.90860,   644.210E-03,   39.3315E-03
C:/temp/dataset/7/20_10.odb,Step-1,Increment      3: Step Time =    1.000,"PART-1-1",           343,            5.,        -8.125,            0.,NA,NA,"",       3.13326,       2.96265,       1.01982,   55.9656E-03
C:/temp/dataset/7/20_10.odb,Step-1,Increment      3: Step Time =    1.000,"PART-1-1",           344,       5.87092,      -9.06592,            0.,NA,NA,"",       2.81002,       2.69188,   806.225E-03,   47.6197E-03
C:/temp/dataset/7/20_10.odb,Step-1,Increment      3: Step Time =    1.000,"PART-1-1",           345,       13.0826,      -13.6930,            0.,NA,NA,"",       1.65029,       1.54241,  -586.877E-03,   29.9866E-03
C:/temp/dataset/7/20_10.odb,Step-1,Increment      3: Step Time =    1.000,"PART-1-1",           346,       14.0569,      -14.9678,            0.,NA,NA,"",       1.49680,       1.32306,  -699.937E-03,   41.7198E-03
C:/temp/dataset/7/20_10.odb,Step-1,Increment      3: Step Time =    1.000,"PART-1-1",           347,           15.,        -13.75,            0.,NA,NA,"",       1.79990,       1.53520,  -939.572E-03,   51.7042E-03
C:/temp/dataset/7/20_10.odb,Step-1,Increment      3: Step Time =    1.000,"PART-1-1",           348,       14.0257,      -12.4752,            0.,NA,NA,"",       1.94833,       1.76439,  -826.391E-03,   39.9336E-03
C:/temp/dataset/7/20_10.odb,Step-1,Increment      3: Step Time =    1.000,"PART-1-1",           349,       8.13738,      -21.6888,            0.,NA,NA,"",   490.119E-03,   448.307E-03,   198.086E-03,   28.4518E-03
C:/temp/dataset/7/20_10.odb,Step-1,Increment      3: Step Time =    1.000,"PART-1-1",           350,            5.,      -28.9583,            0.,NA,NA,"",   87.4599E-03,   56.4218E-03,   66.8267E-03,   73.3076E-03
C:/temp/dataset/7/20_10.odb,Step-1,Increment      3: Step Time =    1.000,"PART-1-1",           351,          6.25,          -30.,            0.,NA,NA,"",            0.,   298.981E-42,   4.47434E-39,   52.9340E-03
C:/temp/dataset/7/20_10.odb,Step-1,Increment      3: Step Time =    1.000,"PART-1-1",           352,       6.22347,      -27.8804,            0.,NA,NA,"",   114.522E-03,   60.7625E-03,   97.0728E-03,   56.3935E-03
C:/temp/dataset/7/20_10.odb,Step-1,Increment      3: Step Time =    1.000,"PART-1-1",           353,           15.,        -28.75,            0.,NA,NA,"",   84.8582E-03,   49.8539E-03,  -68.6695E-03,   62.7547E-03
C:/temp/dataset/7/20_10.odb,Step-1,Increment      3: Step Time =    1.000,"PART-1-1",           354,       13.6900,      -27.4695,            0.,NA,NA,"",   110.348E-03,   53.2744E-03,  -96.6363E-03,   46.5743E-03
C:/temp/dataset/7/20_10.odb,Step-1,Increment      3: Step Time =    1.000,"PART-1-1",           355,       12.4400,      -28.7195,            0.,NA,NA,"",   26.9188E-03,   2.88481E-03,  -26.7638E-03,   25.8753E-03
C:/temp/dataset/7/20_10.odb,Step-1,Increment      3: Step Time =    1.000,"PART-1-1",           356,         13.75,          -30.,            0.,NA,NA,"",            0.,  -460.872E-42,  -4.18820E-39,   43.1766E-03
C:/temp/dataset/7/20_10.odb,Step-1,Increment      3: Step Time =    1.000,"PART-1-1",           357,       9.58617,      -22.6245,            0.,NA,NA,"",   341.348E-03,   336.695E-03,   56.1696E-03,   11.4087E-03
C:/temp/dataset/7/20_10.odb,Step-1,Increment      3: Step Time =    1.000,"PART-1-1",           358,       10.0221,      -21.0980,            0.,NA,NA,"",   486.138E-03,   485.782E-03,   18.6136E-03,   6.49332E-03
C:/temp/dataset/7/20_10.odb,Step-1,Increment      3: Step Time =    1.000,"PART-1-1",           359,       8.57328,      -20.1623,            0.,NA,NA,"",   636.812E-03,   611.335E-03,   178.325E-03,   22.6606E-03
C:/temp/dataset/7/20_10.odb,Step-1,Increment      3: Step Time =    1.000,"PART-1-1",           360,       11.1406,      -27.5456,            0.,NA,NA,"",   32.2085E-03,   24.4470E-03,  -20.9698E-03,   12.1590E-03
C:/temp/dataset/7/20_10.odb,Step-1,Increment      3: Step Time =    1.000,"PART-1-1",           361,         11.25,          -30.,            0.,NA,NA,"",            0.,  -370.051E-42,  -1.40937E-39,   12.9140E-03
C:/temp/dataset/7/20_10.odb,Step-1,Increment      3: Step Time =    1.000,"PART-1-1",           362,       11.2605,      -16.1933,            0.,NA,NA,"",       1.14806,       1.13105,  -196.883E-03,   10.3471E-03
C:/temp/dataset/7/20_10.odb,Step-1,Increment      3: Step Time =    1.000,"PART-1-1",           363,       10.2521,      -15.0492,            0.,NA,NA,"",       1.33295,       1.33182,  -54.7571E-03,   3.94391E-03
C:/temp/dataset/7/20_10.odb,Step-1,Increment      3: Step Time =    1.000,"PART-1-1",           364,       9.32474,      -16.3084,            0.,NA,NA,"",       1.14342,       1.13889,   101.723E-03,   13.1720E-03
C:/temp/dataset/7/20_10.odb,Step-1,Increment      3: Step Time =    1.000,"PART-1-1",           365,       10.3331,      -17.4526,            0.,NA,NA,"",   949.139E-03,   948.307E-03,  -39.7405E-03,   3.77619E-03
C:/temp/dataset/7/20_10.odb,Step-1,Increment      3: Step Time =    1.000,"PART-1-1",           366,       7.44248,      -19.0256,            0.,NA,NA,"",   846.847E-03,   779.119E-03,   331.848E-03,   35.5784E-03
C:/temp/dataset/7/20_10.odb,Step-1,Increment      3: Step Time =    1.000,"PART-1-1",           367,       6.17612,      -17.5789,            0.,NA,NA,"",       1.15426,       1.02049,   539.352E-03,   49.3662E-03
C:/temp/dataset/7/20_10.odb,Step-1,Increment      3: Step Time =    1.000,"PART-1-1",           368,            5.,      -18.5417,            0.,NA,NA,"",       1.13129,   919.611E-03,   658.888E-03,   63.6491E-03
C:/temp/dataset/7/20_10.odb,Step-1,Increment      3: Step Time =    1.000,"PART-1-1",           369,       12.8407,      -6.03443,            0.,NA,NA,"",       3.31815,       3.19222,  -905.433E-03,   24.5185E-03
C:/temp/dataset/7/20_10.odb,Step-1,Increment      3: Step Time =    1.000,"PART-1-1",           370,           15.,         -6.25,            0.,NA,NA,"",       3.42320,       3.10295,      -1.44567,   46.8117E-03
C:/temp/dataset/7/20_10.odb,Step-1,Increment      3: Step Time =    1.000,"PART-1-1",           371,       13.9462,      -4.87251,            0.,NA,NA,"",       3.68671,       3.46307,      -1.26452,   35.3423E-03
C:/temp/dataset/7/20_10.odb,Step-1,Increment      3: Step Time =    1.000,"PART-1-1",           372,       7.64514,      -8.69832,            0.,NA,NA,"",       2.73426,       2.70289,   413.009E-03,   29.2914E-03
C:/temp/dataset/7/20_10.odb,Step-1,Increment      3: Step Time =    1.000,"PART-1-1",           373,       8.20020,      -7.75016,            0.,NA,NA,"",       2.92316,       2.90966,   280.681E-03,   23.3031E-03
C:/temp/dataset/7/20_10.odb,Step-1,Increment      3: Step Time =    1.000,"PART-1-1",           374,       7.19150,      -7.07454,            0.,NA,NA,"",       3.16233,       3.11999,   515.744E-03,   33.2180E-03
C:/temp/dataset/7/20_10.odb,Step-1,Increment      3: Step Time =    1.000,"PART-1-1",           375,       7.97278,      -1.35169,            0.,NA,NA,"",       4.67449,       4.66850,   236.501E-03,   23.9801E-03
C:/temp/dataset/7/20_10.odb,Step-1,Increment      3: Step Time =    1.000,"PART-1-1",           376,       9.01285,  -423.179E-03,            0.,NA,NA,"",       4.89580,       4.89487,  -95.4230E-03,   14.0657E-03
C:/temp/dataset/7/20_10.odb,Step-1,Increment      3: Step Time =    1.000,"PART-1-1",           377,       8.04185,   850.611E-03,            0.,NA,NA,"",       5.34934,       5.34706,   156.052E-03,   22.8620E-03
C:/temp/dataset/7/20_10.odb,Step-1,Increment      3: Step Time =    1.000,"PART-1-1",           378,       8.08837,       3.05311,            0.,NA,NA,"",       6.06597,       6.06561,   66.6619E-03,   22.0123E-03
C:/temp/dataset/7/20_10.odb,Step-1,Increment      3: Step Time =    1.000,"PART-1-1",           379,       9.11337,       4.08618,            0.,NA,NA,"",       6.35765,       6.34988,  -314.296E-03,   12.6516E-03
C:/temp/dataset/7/20_10.odb,Step-1,Increment      3: Step Time =    1.000,"PART-1-1",           380,       8.10868,       5.26217,            0.,NA,NA,"",       6.82598,       6.82591,  -29.8052E-03,   21.4531E-03
C:/temp/dataset/7/20_10.odb,Step-1,Increment      3: Step Time =    1.000,"PART-1-1",           381,       7.08888,       6.39331,            0.,NA,NA,"",       7.31260,       7.30744,   274.502E-03,   30.2844E-03
C:/temp/dataset/7/20_10.odb,Step-1,Increment      3: Step Time =    1.000,"PART-1-1",           382,            5.,       6.45833,            0.,NA,NA,"",       7.56721,       7.50092,   999.497E-03,   48.5097E-03
C:/temp/dataset/7/20_10.odb,Step-1,Increment      3: Step Time =    1.000,"PART-1-1",           383,           15.,         16.25,            0.,NA,NA,"",       11.1370,       10.5273,      -3.63456,   37.6801E-03
C:/temp/dataset/7/20_10.odb,Step-1,Increment      3: Step Time =    1.000,"PART-1-1",           384,       13.6214,       17.6671,            0.,NA,NA,"",       11.6882,       11.2395,      -3.20757,   25.6611E-03
C:/temp/dataset/7/20_10.odb,Step-1,Increment      3: Step Time =    1.000,"PART-1-1",           385,       12.4694,       16.3805,            0.,NA,NA,"",       11.0933,       10.7940,      -2.55941,   16.7947E-03
C:/temp/dataset/7/20_10.odb,Step-1,Increment      3: Step Time =    1.000,"PART-1-1",           386,       10.0881,       9.74649,            0.,NA,NA,"",       8.38799,       8.32814,      -1.00020,   4.01560E-03
C:/temp/dataset/7/20_10.odb,Step-1,Increment      3: Step Time =    1.000,"PART-1-1",           387,       9.10561,       8.57814,            0.,NA,NA,"",       7.98064,       7.96116,  -557.180E-03,   12.4096E-03
C:/temp/dataset/7/20_10.odb,Step-1,Increment      3: Step Time =    1.000,"PART-1-1",           388,       10.1162,       7.46436,            0.,NA,NA,"",       7.52434,       7.47572,  -853.962E-03,   3.78356E-03
C:/temp/dataset/7/20_10.odb,Step-1,Increment      3: Step Time =    1.000,"PART-1-1",           389,       11.0986,       8.63272,            0.,NA,NA,"",       7.94291,       7.83656,      -1.29540,   5.49451E-03
C:/temp/dataset/7/20_10.odb,Step-1,Increment      3: Step Time =    1.000,"PART-1-1",           390,       9.96644,       19.4124,            0.,NA,NA,"",       12.4812,       12.3507,      -1.79981,   8.89177E-03
C:/temp/dataset/7/20_10.odb,Step-1,Increment      3: Step Time =    1.000,"PART-1-1",           391,       10.9020,       20.3065,            0.,NA,NA,"",       12.8743,       12.6642,      -2.31675,   13.3888E-03
C:/temp/dataset/7/20_10.odb,Step-1,Increment      3: Step Time =    1.000,"PART-1-1",           392,       10.1153,       21.2880,            0.,NA,NA,"",       13.3582,       13.1953,      -2.07968,   14.8376E-03
C:/temp/dataset/7/20_10.odb,Step-1,Increment      3: Step Time =    1.000,"PART-1-1",           393,       9.17975,       20.3940,            0.,NA,NA,"",       12.9705,       12.8767,      -1.55740,   11.8064E-03
C:/temp/dataset/7/20_10.odb,Step-1,Increment      3: Step Time =    1.000,"PART-1-1",           394,           15.,         28.75,            0.,NA,NA,"",       17.0174,       16.1859,      -5.25451,   602.852E-06
C:/temp/dataset/7/20_10.odb,Step-1,Increment      3: Step Time =    1.000,"PART-1-1",           395,       14.0625,           30.,            0.,NA,NA,"",       17.5975,       16.8838,      -4.96065,   571.033E-06
C:/temp/dataset/7/20_10.odb,Step-1,Increment      3: Step Time =    1.000,"PART-1-1",           396,       13.1487,       28.7914,            0.,NA,NA,"",       16.9993,       16.4225,      -4.39084,   3.58948E-03
C:/temp/dataset/7/20_10.odb,Step-1,Increment      3: Step Time =    1.000,"PART-1-1",           397,       14.0862,       27.5414,            0.,NA,NA,"",       16.4044,       15.7227,      -4.67971,   4.03554E-03
C:/temp/dataset/7/20_10.odb,Step-1,Increment      3: Step Time =    1.000,"PART-1-1",           398,       12.2440,       25.2848,            0.,NA,NA,"",       15.2759,       14.8596,      -3.54196,   14.4454E-03
C:/temp/dataset/7/20_10.odb,Step-1,Increment      3: Step Time =    1.000,"PART-1-1",           399,       13.1763,       26.3811,            0.,NA,NA,"",       15.8204,       15.2769,      -4.11107,   10.2368E-03
C:/temp/dataset/7/20_10.odb,Step-1,Increment      3: Step Time =    1.000,"PART-1-1",           400,       12.2376,       27.6217,            0.,NA,NA,"",       16.4266,       15.9744,      -3.82774,   9.42380E-03
C:/temp/dataset/7/20_10.odb,Step-1,Increment      3: Step Time =    1.000,"PART-1-1",           401,       11.3053,       26.5254,            0.,NA,NA,"",       15.8968,       15.5581,      -3.26406,   13.8267E-03
C:/temp/dataset/7/20_10.odb,Step-1,Increment      3: Step Time =    1.000,"PART-1-1",           402,       12.1875,           30.,            0.,NA,NA,"",       17.5838,       17.1030,      -4.08391,   3.49658E-03
C:/temp/dataset/7/20_10.odb,Step-1,Increment      3: Step Time =    1.000,"PART-1-1",           403,        6.5625,           30.,            0.,NA,NA,"",       17.8793,       17.8180,      -1.48028,   22.5277E-03
C:/temp/dataset/7/20_10.odb,Step-1,Increment      3: Step Time =    1.000,"PART-1-1",           404,       5.40000,       28.6589,            0.,NA,NA,"",       17.3437,       17.3263,  -777.321E-03,   18.6407E-03
C:/temp/dataset/7/20_10.odb,Step-1,Increment      3: Step Time =    1.000,"PART-1-1",           405,       6.32063,       27.5176,            0.,NA,NA,"",       16.6782,       16.6433,      -1.07715,   14.1080E-03
C:/temp/dataset/7/20_10.odb,Step-1,Increment      3: Step Time =    1.000,"PART-1-1",           406,        2.8125,           30.,            0.,NA,NA,"",       18.3722,       18.3696,   306.342E-03,   25.4788E-03
C:/temp/dataset/7/20_10.odb,Step-1,Increment      3: Step Time =    1.000,"PART-1-1",           407,       1.86631,       29.3706,            0.,NA,NA,"",       18.2158,       18.1960,   848.635E-03,   20.9930E-03
C:/temp/dataset/7/20_10.odb,Step-1,Increment      3: Step Time =    1.000,"PART-1-1",           408,       2.52123,       28.3750,            0.,NA,NA,"",       17.6092,       17.5972,   650.807E-03,   16.2992E-03
C:/temp/dataset/7/20_10.odb,Step-1,Increment      3: Step Time =    1.000,"PART-1-1",           409,       3.46742,       29.0044,            0.,NA,NA,"",       17.7731,       17.7728,   109.718E-03,   20.4753E-03
C:/temp/dataset/7/20_10.odb,Step-1,Increment      3: Step Time =    1.000,"PART-1-1",           410,       1.19073,       28.4486,            0.,NA,NA,"",       17.8794,       17.8319,       1.30226,   15.8620E-03
C:/temp/dataset/7/20_10.odb,Step-1,Increment      3: Step Time =    1.000,"PART-1-1",           411,      -2.48443,       27.9761,            0.,NA,NA,"",       18.4342,       18.1482,       3.23498,   10.9010E-03
C:/temp/dataset/7/20_10.odb,Step-1,Increment      3: Step Time =    1.000,"PART-1-1",           412,       -2.8125,           30.,            0.,NA,NA,"",       19.4992,       19.2474,       3.12345,   14.5541E-03
C:/temp/dataset/7/20_10.odb,Step-1,Increment      3: Step Time =    1.000,"PART-1-1",           413,      -7.28733,       29.0238,            0.,NA,NA,"",       20.2159,       19.4287,       5.58629,   4.91692E-03
C:/temp/dataset/7/20_10.odb,Step-1,Increment      3: Step Time =    1.000,"PART-1-1",           414,      -6.19423,       28.1363,            0.,NA,NA,"",       19.4896,       18.7990,       5.14224,   7.14271E-03
C:/temp/dataset/7/20_10.odb,Step-1,Increment      3: Step Time =    1.000,"PART-1-1",           415,       -6.5625,           30.,            0.,NA,NA,"",       20.4665,       19.8298,       5.06511,   6.47895E-03
C:/temp/dataset/7/20_10.odb,Step-1,Increment      3: Step Time =    1.000,"PART-1-1",           416,      -11.8079,       27.5253,            0.,NA,NA,"",       20.9839,       19.3255,       8.17617,   1.52860E-03
C:/temp/dataset/7/20_10.odb,Step-1,Increment      3: Step Time =    1.000,"PART-1-1",           417,      -12.6125,       26.1842,            0.,NA,NA,"",       20.7060,       18.7451,       8.79538,   1.43988E-03
C:/temp/dataset/7/20_10.odb,Step-1,Increment      3: Step Time =    1.000,"PART-1-1",           418,      -8.13992,       23.4434,            0.,NA,NA,"",       18.0175,       16.6653,       6.84822,   9.09100E-03
C:/temp/dataset/7/20_10.odb,Step-1,Increment      3: Step Time =    1.000,"PART-1-1",           419,       -8.4375,           30.,            0.,NA,NA,"",       21.0043,       20.1155,       6.04534,   3.30866E-03
C:/temp/dataset/7/20_10.odb,Step-1,Increment      3: Step Time =    1.000,"PART-1-1",           420,      -8.00049,       27.9480,            0.,NA,NA,"",       19.9373,       18.9759,       6.11647,   5.24715E-03
C:/temp/dataset/7/20_10.odb,Step-1,Increment      3: Step Time =    1.000,"PART-1-1",           421,      -12.1875,           30.,            0.,NA,NA,"",       22.1726,       20.6754,       8.00967,   218.650E-06
C:/temp/dataset/7/20_10.odb,Step-1,Increment      3: Step Time =    1.000,"PART-1-1",           422,          -15.,         26.25,            0.,NA,NA,"",       21.6021,       19.1306,       10.0334,   136.541E-06
C:/temp/dataset/7/20_10.odb,Step-1,Increment      3: Step Time =    1.000,"PART-1-1",           423,  -614.199E-03,       25.3895,            0.,NA,NA,"",       16.7601,       16.5536,       2.62289,   8.86886E-03
C:/temp/dataset/7/20_10.odb,Step-1,Increment      3: Step Time =    1.000,"PART-1-1",           424,      -1.97220,       26.8586,            0.,NA,NA,"",       17.7753,       17.4987,       3.12373,   9.86109E-03
C:/temp/dataset/7/20_10.odb,Step-1,Increment      3: Step Time =    1.000,"PART-1-1",           425,      -1.74113,       25.3247,            0.,NA,NA,"",       16.9912,       16.6843,       3.21454,   9.04045E-03
C:/temp/dataset/7/20_10.odb,Step-1,Increment      3: Step Time =    1.000,"PART-1-1",           426,       8.18659,       21.6045,            0.,NA,NA,"",       13.6014,       13.5442,      -1.24567,   15.9197E-03
C:/temp/dataset/7/20_10.odb,Step-1,Increment      3: Step Time =    1.000,"PART-1-1",           427,       9.25192,       22.4602,            0.,NA,NA,"",       13.9572,       13.8368,      -1.82905,   16.8360E-03
C:/temp/dataset/7/20_10.odb,Step-1,Increment      3: Step Time =    1.000,"PART-1-1",           428,       8.38526,       23.6138,            0.,NA,NA,"",       14.5707,       14.4858,      -1.57141,   16.9562E-03
C:/temp/dataset/7/20_10.odb,Step-1,Increment      3: Step Time =    1.000,"PART-1-1",           429,       7.31993,       22.7581,            0.,NA,NA,"",       14.2271,       14.1932,  -980.838E-03,   16.6375E-03
C:/temp/dataset/7/20_10.odb,Step-1,Increment      3: Step Time =    1.000,"PART-1-1",           430,           15.,         26.25,            0.,NA,NA,"",       15.8013,       15.0051,      -4.95247,   6.41398E-03
C:/temp/dataset/7/20_10.odb,Step-1,Increment      3: Step Time =    1.000,"PART-1-1",           431,        4.6875,           30.,            0.,NA,NA,"",       18.0973,       18.0874,  -596.172E-03,   25.4733E-03
C:/temp/dataset/7/20_10.odb,Step-1,Increment      3: Step Time =    1.000,"PART-1-1",           432,       9.38339,       24.5308,            0.,NA,NA,"",       14.9696,       14.8161,      -2.13889,   17.5519E-03
C:/temp/dataset/7/20_10.odb,Step-1,Increment      3: Step Time =    1.000,"PART-1-1",           433,       8.53172,       25.6694,            0.,NA,NA,"",       15.5808,       15.4663,      -1.88592,   16.0624E-03
C:/temp/dataset/7/20_10.odb,Step-1,Increment      3: Step Time =    1.000,"PART-1-1",           434,       7.53359,       24.7524,            0.,NA,NA,"",       15.1958,       15.1389,      -1.31418,   15.6076E-03
C:/temp/dataset/7/20_10.odb,Step-1,Increment      3: Step Time =    1.000,"PART-1-1",           435,     937.5E-03,           30.,            0.,NA,NA,"",       18.7002,       18.6598,       1.22840,   22.8153E-03
C:/temp/dataset/7/20_10.odb,Step-1,Increment      3: Step Time =    1.000,"PART-1-1",           436,       5.64845,       26.5466,            0.,NA,NA,"",       16.2681,       16.2555,  -642.163E-03,   12.8200E-03
C:/temp/dataset/7/20_10.odb,Step-1,Increment      3: Step Time =    1.000,"PART-1-1",           437,       4.65082,       24.6490,            0.,NA,NA,"",       15.4527,       15.4526,   66.9122E-03,   9.74995E-03
C:/temp/dataset/7/20_10.odb,Step-1,Increment      3: Step Time =    1.000,"PART-1-1",           438,       5.82711,       24.9927,            0.,NA,NA,"",       15.4778,       15.4684,  -540.903E-03,   11.4149E-03
C:/temp/dataset/7/20_10.odb,Step-1,Increment      3: Step Time =    1.000,"PART-1-1",           439,      -3.57200,       27.5772,            0.,NA,NA,"",       18.5143,       18.1088,       3.85334,   9.47665E-03
C:/temp/dataset/7/20_10.odb,Step-1,Increment      3: Step Time =    1.000,"PART-1-1",           440,      -3.05977,       26.4597,            0.,NA,NA,"",       17.8545,       17.4579,       3.74247,   9.13743E-03
C:/temp/dataset/7/20_10.odb,Step-1,Increment      3: Step Time =    1.000,"PART-1-1",           441,      -4.23358,       26.7178,            0.,NA,NA,"",       18.2844,       17.7671,       4.31823,   8.98351E-03
C:/temp/dataset/7/20_10.odb,Step-1,Increment      3: Step Time =    1.000,"PART-1-1",           442,      -5.07335,       27.3652,            0.,NA,NA,"",       18.8159,       18.2283,       4.66575,   8.19333E-03
C:/temp/dataset/7/20_10.odb,Step-1,Increment      3: Step Time =    1.000,"PART-1-1",           443,      -5.65848,       26.3267,            0.,NA,NA,"",       18.5035,       17.7811,       5.11988,   8.48709E-03
C:/temp/dataset/7/20_10.odb,Step-1,Increment      3: Step Time =    1.000,"PART-1-1",           444,      -6.77936,       27.0978,            0.,NA,NA,"",       19.1843,       18.3493,       5.59815,   6.99275E-03
C:/temp/dataset/7/20_10.odb,Step-1,Increment      3: Step Time =    1.000,"PART-1-1",           445,       13.0726,       6.26892,            0.,NA,NA,"",       7.10513,       6.86725,      -1.82313,   23.3758E-03
C:/temp/dataset/7/20_10.odb,Step-1,Increment      3: Step Time =    1.000,"PART-1-1",           446,       14.0382,       5.02867,            0.,NA,NA,"",       6.71792,       6.39548,      -2.05627,   32.4931E-03
C:/temp/dataset/7/20_10.odb,Step-1,Increment      3: Step Time =    1.000,"PART-1-1",           447,           15.,          6.25,            0.,NA,NA,"",       7.21422,       6.76274,      -2.51204,   40.8570E-03
C:/temp/dataset/7/20_10.odb,Step-1,Increment      3: Step Time =    1.000,"PART-1-1",           448,       14.0344,       7.49025,            0.,NA,NA,"",       7.59258,       7.24194,      -2.28071,   31.7382E-03
C:/temp/dataset/7/20_10.odb,Step-1,Increment      3: Step Time =    1.000,"PART-1-1",           449,            5.,       12.7083,            0.,NA,NA,"",       9.99348,       9.96294,   780.623E-03,   45.9461E-03
C:/temp/dataset/7/20_10.odb,Step-1,Increment      3: Step Time =    1.000,"PART-1-1",           450,       6.97129,       12.7632,            0.,NA,NA,"",       9.79126,       9.79126,   3.72725E-03,   29.9314E-03
C:/temp/dataset/7/20_10.odb,Step-1,Increment      3: Step Time =    1.000,"PART-1-1",           451,       8.08110,       9.66220,            0.,NA,NA,"",       8.45897,       8.45550,  -242.089E-03,   21.0866E-03
C:/temp/dataset/7/20_10.odb,Step-1,Increment      3: Step Time =    1.000,"PART-1-1",           452,       8.10192,       7.46894,            0.,NA,NA,"",       7.62567,       7.62453,  -131.683E-03,   21.1874E-03
C:/temp/dataset/7/20_10.odb,Step-1,Increment      3: Step Time =    1.000,"PART-1-1",           453,            5.,        -1.875,            0.,NA,NA,"",       4.81258,       4.68715,       1.09160,   52.3497E-03
C:/temp/dataset/7/20_10.odb,Step-1,Increment      3: Step Time =    1.000,"PART-1-1",           454,       6.91011,      -2.19684,            0.,NA,NA,"",       4.50916,       4.47493,   554.585E-03,   34.3900E-03
C:/temp/dataset/7/20_10.odb,Step-1,Increment      3: Step Time =    1.000,"PART-1-1",           455,       11.0205,  -751.161E-03,            0.,NA,NA,"",       4.74834,       4.69971,  -677.857E-03,   5.79909E-03
C:/temp/dataset/7/20_10.odb,Step-1,Increment      3: Step Time =    1.000,"PART-1-1",           456,       13.1408,      -16.1676,            0.,NA,NA,"",       1.23111,       1.12831,  -492.497E-03,   31.7539E-03
C:/temp/dataset/7/20_10.odb,Step-1,Increment      3: Step Time =    1.000,"PART-1-1",           457,       14.0839,      -17.4497,            0.,NA,NA,"",       1.10705,   943.632E-03,  -578.887E-03,   43.5704E-03
C:/temp/dataset/7/20_10.odb,Step-1,Increment      3: Step Time =    1.000,"PART-1-1",           458,           15.,        -16.25,            0.,NA,NA,"",       1.37519,       1.12815,  -786.414E-03,   53.5684E-03
C:/temp/dataset/7/20_10.odb,Step-1,Increment      3: Step Time =    1.000,"PART-1-1",           459,            5.,       -14.375,            0.,NA,NA,"",       1.80898,       1.60382,   836.766E-03,   60.3225E-03
C:/temp/dataset/7/20_10.odb,Step-1,Increment      3: Step Time =    1.000,"PART-1-1",           460,       6.11916,      -15.3567,            0.,NA,NA,"",       1.51548,       1.38405,   617.308E-03,   48.6311E-03
C:/temp/dataset/7/20_10.odb,Step-1,Increment      3: Step Time =    1.000,"PART-1-1",           461,       13.0403,       1.40949,            0.,NA,NA,"",       5.46319,       5.27216,      -1.43204,   24.2816E-03
C:/temp/dataset/7/20_10.odb,Step-1,Increment      3: Step Time =    1.000,"PART-1-1",           462,       14.0142,   96.5788E-03,            0.,NA,NA,"",       5.10814,       4.83772,      -1.63997,   33.9840E-03
C:/temp/dataset/7/20_10.odb,Step-1,Increment      3: Step Time =    1.000,"PART-1-1",           463,           15.,          1.25,            0.,NA,NA,"",       5.54322,       5.15172,      -2.04622,   42.9098E-03
C:/temp/dataset/7/20_10.odb,Step-1,Increment      3: Step Time =    1.000,"PART-1-1",           464,       14.0261,       2.56291,            0.,NA,NA,"",       5.88861,       5.59347,      -1.84086,   33.1982E-03
C:/temp/dataset/7/20_10.odb,Step-1,Increment      3: Step Time =    1.000,"PART-1-1",           465,            5.,      -10.2083,            0.,NA,NA,"",       2.65139,       2.46733,   970.638E-03,   57.3274E-03
C:/temp/dataset/7/20_10.odb,Step-1,Increment      3: Step Time =    1.000,"PART-1-1",           466,       6.86187,      -9.97015,            0.,NA,NA,"",       2.50712,       2.43911,   579.993E-03,   37.8407E-03
C:/temp/dataset/7/20_10.odb,Step-1,Increment      3: Step Time =    1.000,"PART-1-1",           467,            5.,      -24.7917,            0.,NA,NA,"",   412.333E-03,   257.046E-03,   322.406E-03,   67.9963E-03
C:/temp/dataset/7/20_10.odb,Step-1,Increment      3: Step Time =    1.000,"PART-1-1",           468,       6.13477,      -25.7685,            0.,NA,NA,"",   261.970E-03,   163.150E-03,   204.964E-03,   55.2251E-03
C:/temp/dataset/7/20_10.odb,Step-1,Increment      3: Step Time =    1.000,"PART-1-1",           469,       13.1299,      -20.9468,            0.,NA,NA,"",   589.292E-03,   502.645E-03,  -307.592E-03,   33.9517E-03
C:/temp/dataset/7/20_10.odb,Step-1,Increment      3: Step Time =    1.000,"PART-1-1",           470,       14.0295,      -22.3095,            0.,NA,NA,"",   511.583E-03,   380.363E-03,  -342.114E-03,   46.3688E-03
C:/temp/dataset/7/20_10.odb,Step-1,Increment      3: Step Time =    1.000,"PART-1-1",           471,           15.,        -21.25,            0.,NA,NA,"",   703.054E-03,   499.595E-03,  -494.661E-03,   57.7689E-03
C:/temp/dataset/7/20_10.odb,Step-1,Increment      3: Step Time =    1.000,"PART-1-1",           472,       14.1003,      -19.8873,            0.,NA,NA,"",   782.674E-03,   631.189E-03,  -462.794E-03,   45.3764E-03
C:/temp/dataset/7/20_10.odb,Step-1,Increment      3: Step Time =    1.000,"PART-1-1",           473,            5.,       -26.875,            0.,NA,NA,"",   242.371E-03,   138.250E-03,   199.074E-03,   69.6815E-03
C:/temp/dataset/7/20_10.odb,Step-1,Increment      3: Step Time =    1.000,"PART-1-1",           474,       7.35824,      -26.7740,            0.,NA,NA,"",   135.421E-03,   83.1159E-03,   106.914E-03,   40.7706E-03
C:/temp/dataset/7/20_10.odb,Step-1,Increment      3: Step Time =    1.000,"PART-1-1",           475,       11.2665,      -23.4125,            0.,NA,NA,"",   272.072E-03,   261.420E-03,  -75.3858E-03,   12.0944E-03
C:/temp/dataset/7/20_10.odb,Step-1,Increment      3: Step Time =    1.000,"PART-1-1",           476,       10.8283,      -24.9299,            0.,NA,NA,"",   153.519E-03,   150.438E-03,  -30.6005E-03,   7.36720E-03
C:/temp/dataset/7/20_10.odb,Step-1,Increment      3: Step Time =    1.000,"PART-1-1",           477,            5.,      -16.4583,            0.,NA,NA,"",       1.44949,       1.23853,   753.043E-03,   61.9430E-03
C:/temp/dataset/7/20_10.odb,Step-1,Increment      3: Step Time =    1.000,"PART-1-1",           478,       7.29529,      -16.4772,            0.,NA,NA,"",       1.22820,       1.15892,   406.661E-03,   36.0723E-03
C:/temp/dataset/7/20_10.odb,Step-1,Increment      3: Step Time =    1.000,"PART-1-1",           479,            5.,       18.9583,            0.,NA,NA,"",       12.6893,       12.6813,   451.037E-03,   62.8055E-03
C:/temp/dataset/7/20_10.odb,Step-1,Increment      3: Step Time =    1.000,"PART-1-1",           480,       6.05050,       17.7875,            0.,NA,NA,"",       12.0359,       12.0358,   67.9162E-03,   37.8093E-03
C:/temp/dataset/7/20_10.odb,Step-1,Increment      3: Step Time =    1.000,"PART-1-1",           481,       7.11573,       18.6629,            0.,NA,NA,"",       12.3129,       12.3043,  -461.158E-03,   19.1888E-03
C:/temp/dataset/7/20_10.odb,Step-1,Increment      3: Step Time =    1.000,"PART-1-1",           482,       6.06524,       19.8338,            0.,NA,NA,"",       12.9400,       12.9398,  -83.6143E-03,   36.6563E-03
C:/temp/dataset/7/20_10.odb,Step-1,Increment      3: Step Time =    1.000,"PART-1-1",           483,       6.98524,       16.7251,            0.,NA,NA,"",       11.4714,       11.4685,  -259.775E-03,   28.7891E-03
C:/temp/dataset/7/20_10.odb,Step-1,Increment      3: Step Time =    1.000,"PART-1-1",           484,            5.,        16.875,            0.,NA,NA,"",       11.7656,       11.7523,   560.210E-03,   46.1584E-03
C:/temp/dataset/7/20_10.odb,Step-1,Increment      3: Step Time =    1.000,"PART-1-1",           485,       7.88091,       13.8682,            0.,NA,NA,"",       10.1705,       10.1615,  -429.022E-03,   22.1380E-03
C:/temp/dataset/7/20_10.odb,Step-1,Increment      3: Step Time =    1.000,"PART-1-1",           486,       7.65947,       15.6945,            0.,NA,NA,"",       10.9639,       10.9539,  -468.060E-03,   23.4781E-03
C:/temp/dataset/7/20_10.odb,Step-1,Increment      3: Step Time =    1.000,"PART-1-1",           487,       8.92157,       12.9075,            0.,NA,NA,"",       9.70111,       9.66991,  -777.324E-03,   13.6440E-03
C:/temp/dataset/7/20_10.odb,Step-1,Increment      3: Step Time =    1.000,"PART-1-1",           488,       9.98918,       11.9956,            0.,NA,NA,"",       9.28033,       9.21123,      -1.13039,   4.79149E-03
C:/temp/dataset/7/20_10.odb,Step-1,Increment      3: Step Time =    1.000,"PART-1-1",           489,       10.7968,       13.3004,            0.,NA,NA,"",       9.79148,       9.66642,      -1.55991,   2.81047E-03
C:/temp/dataset/7/20_10.odb,Step-1,Increment      3: Step Time =    1.000,"PART-1-1",           490,       13.0565,       8.69239,            0.,NA,NA,"",       7.99198,       7.73003,      -2.02935,   22.7093E-03
C:/temp/dataset/7/20_10.odb,Step-1,Increment      3: Step Time =    1.000,"PART-1-1",           491,           15.,          8.75,            0.,NA,NA,"",       8.12328,       7.63743,      -2.76720,   40.0517E-03
C:/temp/dataset/7/20_10.odb,Step-1,Increment      3: Step Time =    1.000,"PART-1-1",           492,       14.0220,       9.95215,            0.,NA,NA,"",       8.51360,       8.13294,      -2.51725,   31.0300E-03
C:/temp/dataset/7/20_10.odb,Step-1,Increment      3: Step Time =    1.000,"PART-1-1",           493,       8.15713,      -6.43409,            0.,NA,NA,"",       3.25330,       3.24145,   277.448E-03,   23.4618E-03
C:/temp/dataset/7/20_10.odb,Step-1,Increment      3: Step Time =    1.000,"PART-1-1",           494,       7.55707,      -5.50995,            0.,NA,NA,"",       3.53425,       3.50951,   417.394E-03,   29.1478E-03
C:/temp/dataset/7/20_10.odb,Step-1,Increment      3: Step Time =    1.000,"PART-1-1",           495,       13.0039,      -1.03047,            0.,NA,NA,"",       4.70991,       4.54049,      -1.25191,   24.6172E-03
C:/temp/dataset/7/20_10.odb,Step-1,Increment      3: Step Time =    1.000,"PART-1-1",           496,       13.9897,      -2.37705,            0.,NA,NA,"",       4.37503,       4.12821,      -1.44873,   34.7238E-03
C:/temp/dataset/7/20_10.odb,Step-1,Increment      3: Step Time =    1.000,"PART-1-1",           497,           15.,         -1.25,            0.,NA,NA,"",       4.78368,       4.41822,      -1.83384,   44.1027E-03
C:/temp/dataset/7/20_10.odb,Step-1,Increment      3: Step Time =    1.000,"PART-1-1",           498,       11.0188,      -11.3444,            0.,NA,NA,"",       2.03611,       2.01803,  -270.778E-03,   7.11253E-03
C:/temp/dataset/7/20_10.odb,Step-1,Increment      3: Step Time =    1.000,"PART-1-1",           499,       9.94563,      -10.3262,            0.,NA,NA,"",       2.25866,       2.25751,  -71.9510E-03,   6.06012E-03
C:/temp/dataset/7/20_10.odb,Step-1,Increment      3: Step Time =    1.000,"PART-1-1",           500,       9.07908,      -11.6768,            0.,NA,NA,"",       1.99806,       1.99423,   123.707E-03,   15.0305E-03
C:/temp/dataset/7/20_10.odb,Step-1,Increment      3: Step Time =    1.000,"PART-1-1",           501,       10.1523,      -12.6950,            0.,NA,NA,"",       1.76594,       1.76449,  -71.4853E-03,   4.44067E-03
C:/temp/dataset/7/20_10.odb,Step-1,Increment      3: Step Time =    1.000,"PART-1-1",           502,       11.2699,       24.2837,            0.,NA,NA,"",       14.7902,       14.4890,      -2.96962,   17.0092E-03
C:/temp/dataset/7/20_10.odb,Step-1,Increment      3: Step Time =    1.000,"PART-1-1",           503,       12.1787,       22.9892,            0.,NA,NA,"",       14.1503,       13.7787,      -3.22168,   17.0134E-03
C:/temp/dataset/7/20_10.odb,Step-1,Increment      3: Step Time =    1.000,"PART-1-1",           504,           15.,         -3.75,            0.,NA,NA,"",       4.07655,       3.73475,      -1.63397,   45.4036E-03
C:/temp/dataset/7/20_10.odb,Step-1,Increment      3: Step Time =    1.000,"PART-1-1",           505,       12.9359,      -3.49956,            0.,NA,NA,"",       3.99688,       3.84931,      -1.07603,   24.6850E-03
C:/temp/dataset/7/20_10.odb,Step-1,Increment      3: Step Time =    1.000,"PART-1-1",           506,           15.,        -11.25,            0.,NA,NA,"",       2.28353,       2.00133,      -1.09963,   49.9658E-03
C:/temp/dataset/7/20_10.odb,Step-1,Increment      3: Step Time =    1.000,"PART-1-1",           507,       12.9838,      -11.1958,            0.,NA,NA,"",       2.13195,       2.02072,  -679.627E-03,   27.8767E-03
C:/temp/dataset/7/20_10.odb,Step-1,Increment      3: Step Time =    1.000,"PART-1-1",           508,           15.,         11.25,            0.,NA,NA,"",       9.08009,       8.55662,      -3.03849,   39.4408E-03
C:/temp/dataset/7/20_10.odb,Step-1,Increment      3: Step Time =    1.000,"PART-1-1",           509,       12.9950,       11.1325,            0.,NA,NA,"",       8.92893,       8.64478,      -2.23463,   21.6958E-03
C:/temp/dataset/7/20_10.odb,Step-1,Increment      3: Step Time =    1.000,"PART-1-1",           510,           15.,          3.75,            0.,NA,NA,"",       6.35382,       5.93371,      -2.27201,   41.8222E-03
C:/temp/dataset/7/20_10.odb,Step-1,Increment      3: Step Time =    1.000,"PART-1-1",           511,       13.0643,       3.84158,            0.,NA,NA,"",       6.26180,       6.04785,      -1.62285,   23.8760E-03
C:/temp/dataset/7/20_10.odb,Step-1,Increment      3: Step Time =    1.000,"PART-1-1",           512,           15.,        -18.75,            0.,NA,NA,"",       1.00986,   782.248E-03,  -638.672E-03,   55.5566E-03
C:/temp/dataset/7/20_10.odb,Step-1,Increment      3: Step Time =    1.000,"PART-1-1",           513,       13.1842,      -18.5870,            0.,NA,NA,"",   879.999E-03,   782.544E-03,  -402.520E-03,   33.4520E-03
C:/temp/dataset/7/20_10.odb,Step-1,Increment      3: Step Time =    1.000,"PART-1-1",           514,       13.5513,      -24.7801,            0.,NA,NA,"",   270.282E-03,   182.598E-03,  -199.274E-03,   41.7781E-03
C:/temp/dataset/7/20_10.odb,Step-1,Increment      3: Step Time =    1.000,"PART-1-1",           515,       12.2413,      -25.9996,            0.,NA,NA,"",   129.735E-03,   95.5279E-03,  -87.7810E-03,   25.3459E-03
C:/temp/dataset/7/20_10.odb,Step-1,Increment      3: Step Time =    1.000,"PART-1-1",           516,           15.,        -26.25,            0.,NA,NA,"",   251.426E-03,   134.926E-03,  -212.155E-03,   62.1500E-03
C:/temp/dataset/7/20_10.odb,Step-1,Increment      3: Step Time =    1.000,"PART-1-1",           517,           15.,        -23.75,            0.,NA,NA,"",   452.103E-03,   282.959E-03,  -352.607E-03,   59.6741E-03
C:/temp/dataset/7/20_10.odb,Step-1,Increment      3: Step Time =    1.000,"PART-1-1",           518,       12.5809,      -23.3397,            0.,NA,NA,"",   327.200E-03,   274.060E-03,  -178.748E-03,   28.4874E-03
C:/temp/dataset/7/20_10.odb,Step-1,Increment      3: Step Time =    1.000,"PART-1-1",           519,       9.49127,      -18.7202,            0.,NA,NA,"",   784.674E-03,   780.703E-03,   78.8458E-03,   11.7143E-03
C:/temp/dataset/7/20_10.odb,Step-1,Increment      3: Step Time =    1.000,"PART-1-1",           520,       8.36047,      -17.5836,            0.,NA,NA,"",   990.018E-03,   961.501E-03,   235.905E-03,   24.2971E-03
C:/temp/dataset/7/20_10.odb,Step-1,Increment      3: Step Time =    1.000,"PART-1-1",           521,       11.5260,      -20.5498,            0.,NA,NA,"",   558.433E-03,   539.204E-03,  -145.280E-03,   14.2520E-03
C:/temp/dataset/7/20_10.odb,Step-1,Increment      3: Step Time =    1.000,"PART-1-1",           522,       10.5221,      -19.7870,            0.,NA,NA,"",   634.197E-03,   632.769E-03,  -42.5286E-03,   4.06806E-03
C:/temp/dataset/7/20_10.odb,Step-1,Increment      3: Step Time =    1.000,"PART-1-1",           523,       11.0260,      -21.8608,            0.,NA,NA,"",   408.419E-03,   401.619E-03,  -74.2172E-03,   8.63213E-03
C:/temp/dataset/7/20_10.odb,Step-1,Increment      3: Step Time =    1.000,"PART-1-1",           524,       7.98010,      -10.7619,            0.,NA,NA,"",       2.24790,       2.22172,   342.102E-03,   26.4126E-03
C:/temp/dataset/7/20_10.odb,Step-1,Increment      3: Step Time =    1.000,"PART-1-1",           525,       8.65118,      -4.78401,            0.,NA,NA,"",       3.65721,       3.65504,   125.842E-03,   18.2255E-03
C:/temp/dataset/7/20_10.odb,Step-1,Increment      3: Step Time =    1.000,"PART-1-1",           526,       7.84665,      -3.50518,            0.,NA,NA,"",       4.05849,       4.04620,   315.575E-03,   25.6982E-03
C:/temp/dataset/7/20_10.odb,Step-1,Increment      3: Step Time =    1.000,"PART-1-1",           527,       9.43586,      -6.49799,            0.,NA,NA,"",       3.17534,       3.17514,  -35.6042E-03,   10.5987E-03
C:/temp/dataset/7/20_10.odb,Step-1,Increment      3: Step Time =    1.000,"PART-1-1",           528,       10.6293,      -5.79077,            0.,NA,NA,"",       3.33334,       3.31447,  -354.178E-03,   3.25886E-03
C:/temp/dataset/7/20_10.odb,Step-1,Increment      3: Step Time =    1.000,"PART-1-1",           529,       11.1144,       3.95682,            0.,NA,NA,"",       6.26314,       6.18673,  -975.366E-03,   6.13309E-03
C:/temp/dataset/7/20_10.odb,Step-1,Increment      3: Step Time =    1.000,"PART-1-1",           530,       10.1270,       5.17226,            0.,NA,NA,"",       6.69803,       6.65975,  -715.122E-03,   3.73574E-03
C:/temp/dataset/7/20_10.odb,Step-1,Increment      3: Step Time =    1.000,"PART-1-1",           531,       9.05317,       10.7826,            0.,NA,NA,"",       8.83672,       8.81057,  -679.329E-03,   12.7567E-03
C:/temp/dataset/7/20_10.odb,Step-1,Increment      3: Step Time =    1.000,"PART-1-1",           532,       8.01195,       11.8024,            0.,NA,NA,"",       9.31096,       9.30458,  -344.538E-03,   21.4436E-03
C:/temp/dataset/7/20_10.odb,Step-1,Increment      3: Step Time =    1.000,"PART-1-1",           533,       11.0241,       10.9595,            0.,NA,NA,"",       8.84231,       8.72243,      -1.45112,   4.64117E-03
C:/temp/dataset/7/20_10.odb,Step-1,Increment      3: Step Time =    1.000,"PART-1-1",           534,       8.35051,       17.3209,            0.,NA,NA,"",       11.6204,       11.5863,  -888.810E-03,   16.2243E-03
C:/temp/dataset/7/20_10.odb,Step-1,Increment      3: Step Time =    1.000,"PART-1-1",           535,       12.5952,       19.1415,            0.,NA,NA,"",       12.3301,       11.9764,      -2.93205,   17.4293E-03
C:/temp/dataset/7/20_10.odb,Step-1,Increment      3: Step Time =    1.000,"PART-1-1",           536,           15.,         18.75,            0.,NA,NA,"",       12.2400,       11.5819,      -3.95937,   34.2071E-03
C:/temp/dataset/7/20_10.odb,Step-1,Increment      3: Step Time =    1.000,"PART-1-1",           537,      -7.03326,       22.4462,            0.,NA,NA,"",       17.2221,       15.9855,       6.40833,   9.03949E-03
C:/temp/dataset/7/20_10.odb,Step-1,Increment      3: Step Time =    1.000,"PART-1-1",           538,      -8.48458,       21.3302,            0.,NA,NA,"",       17.2651,       15.6233,       7.34813,   9.67559E-03
C:/temp/dataset/7/20_10.odb,Step-1,Increment      3: Step Time =    1.000,"PART-1-1",           539,      -6.65000,           20.,            0.,NA,NA,"",       16.0568,       14.6504,       6.57172,   7.32537E-03
C:/temp/dataset/7/20_10.odb,Step-1,Increment      3: Step Time =    1.000,"PART-1-1",           540,      -5.19869,       21.1160,            0.,NA,NA,"",       16.0464,       15.0251,       5.63301,   7.92605E-03
C:/temp/dataset/7/20_10.odb,Step-1,Increment      3: Step Time =    1.000,"PART-1-1",           541,       9.42603,       26.6587,            0.,NA,NA,"",       16.0232,       15.8399,      -2.41706,   15.5048E-03
C:/temp/dataset/7/20_10.odb,Step-1,Increment      3: Step Time =    1.000,"PART-1-1",           542,       10.3720,       25.4897,            0.,NA,NA,"",       15.4067,       15.1667,      -2.70854,   16.5721E-03
C:/temp/dataset/7/20_10.odb,Step-1,Increment      3: Step Time =    1.000,"PART-1-1",           543,       6.87457,       25.7626,            0.,NA,NA,"",       15.7537,       15.7133,      -1.12733,   13.7388E-03
C:/temp/dataset/7/20_10.odb,Step-1,Increment      3: Step Time =    1.000,"PART-1-1",           544,       7.54675,       26.7337,            0.,NA,NA,"",       16.1790,       16.1038,      -1.55768,   14.9472E-03
C:/temp/dataset/7/20_10.odb,Step-1,Increment      3: Step Time =    1.000,"PART-1-1",           545,      -3.17643,       25.4018,            0.,NA,NA,"",       17.3892,       16.9345,       3.95070,   9.07485E-03
C:/temp/dataset/7/20_10.odb,Step-1,Increment      3: Step Time =    1.000,"PART-1-1",           546,      -4.35024,       25.6599,            0.,NA,NA,"",       17.8261,       17.2413,       4.52825,   8.78182E-03
C:/temp/dataset/7/20_10.odb,Step-1,Increment      3: Step Time =    1.000,"PART-1-1",           547,       4.01884,       22.4610,            0.,NA,NA,"",       14.4748,       14.4608,   637.949E-03,   15.3314E-03
C:/temp/dataset/7/20_10.odb,Step-1,Increment      3: Step Time =    1.000,"PART-1-1",           548,       5.32127,       23.1739,            0.,NA,NA,"",       14.6410,       14.6407,  -83.8239E-03,   13.2026E-03
C:/temp/dataset/7/20_10.odb,Step-1,Increment      3: Step Time =    1.000,"PART-1-1",           549,       11.1447,       22.1526,            0.,NA,NA,"",       13.7510,       13.4937,      -2.64781,   16.6485E-03
C:/temp/dataset/7/20_10.odb,Step-1,Increment      3: Step Time =    1.000,"PART-1-1",           550,       10.2813,       23.3249,            0.,NA,NA,"",       14.3409,       14.1385,      -2.40065,   17.6030E-03
C:/temp/dataset/7/20_10.odb,Step-1,Increment      3: Step Time =    1.000,"PART-1-1",           551,       6.15508,       21.9496,            0.,NA,NA,"",       13.9423,       13.9380,  -344.674E-03,   17.9021E-03
C:/temp/dataset/7/20_10.odb,Step-1,Increment      3: Step Time =    1.000,"PART-1-1",           552,       6.48612,       23.9825,            0.,NA,NA,"",       14.9086,       14.8905,  -733.811E-03,   13.3304E-03
C:/temp/dataset/7/20_10.odb,Step-1,Increment      3: Step Time =    1.000,"PART-1-1",           553,   6.30745E-03,       24.2683,            0.,NA,NA,"",       16.0893,       15.9009,       2.45516,   9.22907E-03
C:/temp/dataset/7/20_10.odb,Step-1,Increment      3: Step Time =    1.000,"PART-1-1",           554,      -1.65981,       23.6471,            0.,NA,NA,"",       16.1841,       15.8217,       3.40541,   8.88532E-03
C:/temp/dataset/7/20_10.odb,Step-1,Increment      3: Step Time =    1.000,"PART-1-1",           555,      -1.07768,       22.4355,            0.,NA,NA,"",       15.4764,       15.1262,       3.27339,   12.0752E-03
C:/temp/dataset/7/20_10.odb,Step-1,Increment      3: Step Time =    1.000,"PART-1-1",           556,   588.432E-03,       23.0567,            0.,NA,NA,"",       15.3881,       15.2121,       2.32087,   12.1044E-03
C:/temp/dataset/7/20_10.odb,Step-1,Increment      3: Step Time =    1.000,"PART-1-1",           557,      -4.82218,       24.5397,            0.,NA,NA,"",       17.4492,       16.7368,       4.93503,   9.04814E-03
C:/temp/dataset/7/20_10.odb,Step-1,Increment      3: Step Time =    1.000,"PART-1-1",           558,      -3.09511,       23.7242,            0.,NA,NA,"",       16.5921,       16.0661,       4.14463,   8.72428E-03
C:/temp/dataset/7/20_10.odb,Step-1,Increment      3: Step Time =    1.000,"PART-1-1",           559,      -5.58708,       23.2486,            0.,NA,NA,"",       17.1025,       16.1858,       5.52420,   8.47817E-03
C:/temp/dataset/7/20_10.odb,Step-1,Increment      3: Step Time =    1.000,"PART-1-1",           560,       8.76337,      -9.49006,            0.,NA,NA,"",       2.48421,       2.47840,   169.873E-03,   17.9275E-03
C:/temp/dataset/7/20_10.odb,Step-1,Increment      3: Step Time =    1.000,"PART-1-1",           561,       9.72759,      -26.4759,            0.,NA,NA,"",   71.6276E-03,   67.8487E-03,   22.9578E-03,   10.3903E-03
C:/temp/dataset/7/20_10.odb,Step-1,Increment      3: Step Time =    1.000,"PART-1-1",           562,       9.12173,       6.33780,            0.,NA,NA,"",       7.15083,       7.13771,  -433.050E-03,   12.3979E-03
C:/temp/dataset/7/20_10.odb,Step-1,Increment      3: Step Time =    1.000,"PART-1-1",           563,       11.1214,       6.29882,            0.,NA,NA,"",       7.08306,       6.99176,      -1.13360,   5.94771E-03
C:/temp/dataset/7/20_10.odb,Step-1,Increment      3: Step Time =    1.000,"PART-1-1",           564,       11.1740,      -13.7880,            0.,NA,NA,"",       1.55962,       1.54144,  -237.457E-03,   9.02624E-03
C:/temp/dataset/7/20_10.odb,Step-1,Increment      3: Step Time =    1.000,"PART-1-1",           565,       10.6612,      -8.65022,            0.,NA,NA,"",       2.62908,       2.61521,  -269.689E-03,   3.81529E-03
C:/temp/dataset/7/20_10.odb,Step-1,Increment      3: Step Time =    1.000,"PART-1-1",           566,       9.47894,      -7.81405,            0.,NA,NA,"",       2.84806,       2.84801,  -17.3746E-03,   10.3937E-03
C:/temp/dataset/7/20_10.odb,Step-1,Increment      3: Step Time =    1.000,"PART-1-1",           567,       11.3640,      -18.5194,            0.,NA,NA,"",   807.139E-03,   790.230E-03,  -164.348E-03,   11.9249E-03
C:/temp/dataset/7/20_10.odb,Step-1,Increment      3: Step Time =    1.000,"PART-1-1",           568,       12.0025,       20.7886,            0.,NA,NA,"",       13.0933,       12.7755,      -2.86707,   16.7191E-03
C:/temp/dataset/7/20_10.odb,Step-1,Increment      3: Step Time =    1.000,"PART-1-1",           569,       11.4947,       18.6594,            0.,NA,NA,"",       12.1055,       11.8672,      -2.38998,   12.6434E-03
C:/temp/dataset/7/20_10.odb,Step-1,Increment      3: Step Time =    1.000,"PART-1-1",           570,       9.39315,       18.1618,            0.,NA,NA,"",       11.9346,       11.8501,      -1.41831,   6.23183E-03
C:/temp/dataset/7/20_10.odb,Step-1,Increment      3: Step Time =    1.000,"PART-1-1",           571,       10.9214,       17.4088,            0.,NA,NA,"",       11.5493,       11.3741,      -2.00417,   6.48224E-03
C:/temp/dataset/7/20_10.odb,Step-1,Increment      3: Step Time =    1.000,"PART-1-1",           572,      -9.97500,           20.,            0.,NA,NA,"",       17.2991,       15.1519,       8.34749,   8.18139E-03
C:/temp/dataset/7/20_10.odb,Step-1,Increment      3: Step Time =    1.000,"PART-1-1",           573,       11.9818,      -2.09472,            0.,NA,NA,"",       4.36129,       4.26998,  -887.760E-03,   15.0224E-03
C:/temp/dataset/7/20_10.odb,Step-1,Increment      3: Step Time =    1.000,"PART-1-1",           574,       12.0426,   313.093E-03,            0.,NA,NA,"",       5.08556,       4.97672,      -1.04649,   15.1331E-03
C:/temp/dataset/7/20_10.odb,Step-1,Increment      3: Step Time =    1.000,"PART-1-1",           575,       12.1686,      -14.9632,            0.,NA,NA,"",       1.37828,       1.32561,  -377.367E-03,   20.1547E-03
C:/temp/dataset/7/20_10.odb,Step-1,Increment      3: Step Time =    1.000,"PART-1-1",           576,       12.0880,      -12.5178,            0.,NA,NA,"",       1.82367,       1.76833,  -445.857E-03,   18.5452E-03
C:/temp/dataset/7/20_10.odb,Step-1,Increment      3: Step Time =    1.000,"PART-1-1",           577,       12.0767,       2.70437,            0.,NA,NA,"",       5.85162,       5.72478,      -1.21175,   15.0133E-03
C:/temp/dataset/7/20_10.odb,Step-1,Increment      3: Step Time =    1.000,"PART-1-1",           578,       11.6617,       14.7036,            0.,NA,NA,"",       10.3688,       10.1653,      -2.04438,   9.88931E-03
C:/temp/dataset/7/20_10.odb,Step-1,Increment      3: Step Time =    1.000,"PART-1-1",           579,       11.9561,       12.2406,            0.,NA,NA,"",       9.35165,       9.15053,      -1.92906,   12.4501E-03
C:/temp/dataset/7/20_10.odb,Step-1,Increment      3: Step Time =    1.000,"PART-1-1",           580,       12.3155,      -19.7087,            0.,NA,NA,"",   687.112E-03,   637.947E-03,  -255.236E-03,   23.5177E-03
C:/temp/dataset/7/20_10.odb,Step-1,Increment      3: Step Time =    1.000,"PART-1-1",           581,       12.3404,      -21.7879,            0.,NA,NA,"",   457.434E-03,   411.026E-03,  -200.758E-03,   24.4783E-03
C:/temp/dataset/7/20_10.odb,Step-1,Increment      3: Step Time =    1.000,"PART-1-1",           582,       12.2327,      -17.3977,            0.,NA,NA,"",   994.038E-03,   943.988E-03,  -311.443E-03,   21.6604E-03
C:/temp/dataset/7/20_10.odb,Step-1,Increment      3: Step Time =    1.000,"PART-1-1",           583,       12.1020,       5.09402,            0.,NA,NA,"",       6.66297,       6.51648,      -1.38946,   14.8287E-03
C:/temp/dataset/7/20_10.odb,Step-1,Increment      3: Step Time =    1.000,"PART-1-1",           584,       12.0630,       9.85139,            0.,NA,NA,"",       8.40973,       8.22420,      -1.75675,   13.7123E-03
C:/temp/dataset/7/20_10.odb,Step-1,Increment      3: Step Time =    1.000,"PART-1-1",           585,       12.0921,       7.47372,            0.,NA,NA,"",       7.51499,       7.34930,      -1.56938,   14.3459E-03
C:/temp/dataset/7/20_10.odb,Step-1,Increment      3: Step Time =    1.000,"PART-1-1",           586,       11.9146,      -10.0225,            0.,NA,NA,"",       2.33554,       2.28092,  -502.155E-03,   16.0438E-03
C:/temp/dataset/7/20_10.odb,Step-1,Increment      3: Step Time =    1.000,"PART-1-1",           587,       11.5993,      -7.26023,            0.,NA,NA,"",       2.96947,       2.92020,  -538.675E-03,   12.2080E-03
C:/temp/dataset/7/20_10.odb,Step-1,Increment      3: Step Time =    1.000,"PART-1-1",           588,       11.8707,      -4.56496,            0.,NA,NA,"",       3.66816,       3.59512,  -728.346E-03,   14.4459E-03
C:/temp/dataset/7/20_10.odb,Step-1,Increment      3: Step Time =    1.000,"PART-1-1",           589,      -3.86001,       22.4330,            0.,NA,NA,"",       16.2201,       15.5145,       4.73214,   8.51065E-03
C:/temp/dataset/7/20_10.odb,Step-1,Increment      3: Step Time =    1.000,"PART-1-1",           590,       3.35000,           20.,            0.,NA,NA,"",       13.4010,       13.3364,       1.31376,   37.4765E-03
C:/temp/dataset/7/20_10.odb,Step-1,Increment      3: Step Time =    1.000,"PART-1-1",           591,       5.05511,       21.0689,            0.,NA,NA,"",       13.6481,       13.6453,   276.054E-03,   31.8802E-03
C:/temp/dataset/7/20_10.odb,Step-1,Increment      3: Step Time =    1.000,"PART-1-1",           592,       2.31373,       21.3921,            0.,NA,NA,"",       14.2514,       14.1548,       1.65615,   18.2069E-03
C:/temp/dataset/7/20_10.odb,Step-1,Increment      3: Step Time =    1.000,"PART-1-1",           593,      -1.98632,       21.3170,            0.,NA,NA,"",       15.1925,       14.6804,       3.91129,   12.2331E-03
C:/temp/dataset/7/20_10.odb,Step-1,Increment      3: Step Time =    1.000,"PART-1-1",           594,   25.0000E-03,           20.,            0.,NA,NA,"",       14.0774,       13.7421,       3.05426,   17.8625E-03
C:/temp/dataset/7/20_10.odb,Step-1,Increment      3: Step Time =    1.000,"PART-1-1",           595,   933.640E-03,       21.1186,            0.,NA,NA,"",       14.3978,       14.1937,       2.41518,   18.2598E-03
C:/temp/dataset/7/20_10.odb,Step-1,Increment      3: Step Time =    1.000,"PART-1-1",           596,       7.16521,       20.7144,            0.,NA,NA,"",       13.2505,       13.2331,  -680.094E-03,   16.7053E-03
C:/temp/dataset/7/20_10.odb,Step-1,Increment      3: Step Time =    1.000,"PART-1-1",           597,       8.15837,       19.5039,            0.,NA,NA,"",       12.6144,       12.5742,      -1.00660,   11.2418E-03
C:/temp/dataset/7/20_10.odb,Step-1,Increment      3: Step Time =    1.000,"PART-1-1",           598,      -3.32500,           20.,            0.,NA,NA,"",       14.9788,       14.1850,       4.81137,   13.4309E-03
