ODB Name,Step,Frame,Part Instance Name,    êﬂì_ÉâÉxÉã,X,Y,Z,Section Name,Material Name,Section Point,   U-Magnitude,          U-U1,          U-U2,       S-Mises
C:/temp/dataset/7/20_2.odb,Step-1,Increment      1: Step Time =    1.000,"PART-1-1",             1,          -15.,           20.,            0.,NA,NA,"",       2.98241,       1.98861,       2.22265,   360.694E-06
C:/temp/dataset/7/20_2.odb,Step-1,Increment      1: Step Time =    1.000,"PART-1-1",             2,          -15.,           25.,            0.,NA,NA,"",       3.29436,       2.45118,       2.20103,   70.2434E-06
C:/temp/dataset/7/20_2.odb,Step-1,Increment      1: Step Time =    1.000,"PART-1-1",             3,      -11.6500,           20.,            0.,NA,NA,"",       2.75132,       1.97555,       1.91493,   1.08493E-03
C:/temp/dataset/7/20_2.odb,Step-1,Increment      1: Step Time =    1.000,"PART-1-1",             4,      -8.30000,           20.,            0.,NA,NA,"",       2.53188,       1.96047,       1.60218,   1.57288E-03
C:/temp/dataset/7/20_2.odb,Step-1,Increment      1: Step Time =    1.000,"PART-1-1",             5,           -5.,           20.,            0.,NA,NA,"",       2.33846,       1.95056,       1.28985,   2.18039E-03
C:/temp/dataset/7/20_2.odb,Step-1,Increment      1: Step Time =    1.000,"PART-1-1",             6,      -1.65000,           20.,            0.,NA,NA,"",       2.17675,       1.94418,   978.993E-03,   3.17615E-03
C:/temp/dataset/7/20_2.odb,Step-1,Increment      1: Step Time =    1.000,"PART-1-1",             7,       1.70000,           20.,            0.,NA,NA,"",       2.05405,       1.94065,   673.044E-03,   5.24424E-03
C:/temp/dataset/7/20_2.odb,Step-1,Increment      1: Step Time =    1.000,"PART-1-1",             8,            5.,           20.,            0.,NA,NA,"",       1.98035,       1.94603,   367.081E-03,   12.5844E-03
C:/temp/dataset/7/20_2.odb,Step-1,Increment      1: Step Time =    1.000,"PART-1-1",             9,            5.,         13.75,            0.,NA,NA,"",       1.54596,       1.51099,   326.982E-03,   8.70662E-03
C:/temp/dataset/7/20_2.odb,Step-1,Increment      1: Step Time =    1.000,"PART-1-1",            10,            5.,           7.5,            0.,NA,NA,"",       1.15571,       1.11874,   289.964E-03,   8.86934E-03
C:/temp/dataset/7/20_2.odb,Step-1,Increment      1: Step Time =    1.000,"PART-1-1",            11,            5.,          1.25,            0.,NA,NA,"",   822.523E-03,   784.007E-03,   248.749E-03,   8.98409E-03
C:/temp/dataset/7/20_2.odb,Step-1,Increment      1: Step Time =    1.000,"PART-1-1",            12,            5.,           -5.,            0.,NA,NA,"",   547.277E-03,   507.819E-03,   204.041E-03,   9.11166E-03
C:/temp/dataset/7/20_2.odb,Step-1,Increment      1: Step Time =    1.000,"PART-1-1",            13,            5.,        -11.25,            0.,NA,NA,"",   330.354E-03,   291.072E-03,   156.240E-03,   9.25526E-03
C:/temp/dataset/7/20_2.odb,Step-1,Increment      1: Step Time =    1.000,"PART-1-1",            14,            5.,         -17.5,            0.,NA,NA,"",   171.364E-03,   134.842E-03,   105.750E-03,   9.42844E-03
C:/temp/dataset/7/20_2.odb,Step-1,Increment      1: Step Time =    1.000,"PART-1-1",            15,            5.,        -23.75,            0.,NA,NA,"",   66.7220E-03,   40.4094E-03,   53.0934E-03,   9.58069E-03
C:/temp/dataset/7/20_2.odb,Step-1,Increment      1: Step Time =    1.000,"PART-1-1",            16,            5.,          -30.,            0.,NA,NA,"",            0.,   2.91180E-39,   5.62726E-39,   10.9642E-03
C:/temp/dataset/7/20_2.odb,Step-1,Increment      1: Step Time =    1.000,"PART-1-1",            17,           15.,          -30.,            0.,NA,NA,"",            0.,   2.44017E-39,  -4.60255E-39,   8.76160E-03
C:/temp/dataset/7/20_2.odb,Step-1,Increment      1: Step Time =    1.000,"PART-1-1",            18,           15.,         -22.5,            0.,NA,NA,"",   74.6622E-03,   50.3298E-03,  -55.1484E-03,   8.22791E-03
C:/temp/dataset/7/20_2.odb,Step-1,Increment      1: Step Time =    1.000,"PART-1-1",            19,           15.,          -15.,            0.,NA,NA,"",   214.801E-03,   183.949E-03,  -110.917E-03,   7.97515E-03
C:/temp/dataset/7/20_2.odb,Step-1,Increment      1: Step Time =    1.000,"PART-1-1",            20,           15.,          -7.5,            0.,NA,NA,"",   437.722E-03,   404.491E-03,  -167.294E-03,   7.78124E-03
C:/temp/dataset/7/20_2.odb,Step-1,Increment      1: Step Time =    1.000,"PART-1-1",            21,           15.,            0.,            0.,NA,NA,"",   744.944E-03,   709.995E-03,  -225.496E-03,   7.62540E-03
C:/temp/dataset/7/20_2.odb,Step-1,Increment      1: Step Time =    1.000,"PART-1-1",            22,           15.,           7.5,            0.,NA,NA,"",       1.13561,       1.09884,  -286.651E-03,   7.51379E-03
C:/temp/dataset/7/20_2.odb,Step-1,Increment      1: Step Time =    1.000,"PART-1-1",            23,           15.,           15.,            0.,NA,NA,"",       1.60927,       1.57023,  -352.315E-03,   7.54995E-03
C:/temp/dataset/7/20_2.odb,Step-1,Increment      1: Step Time =    1.000,"PART-1-1",            24,           15.,          22.5,            0.,NA,NA,"",       2.16942,       2.12874,  -418.165E-03,   4.56231E-03
C:/temp/dataset/7/20_2.odb,Step-1,Increment      1: Step Time =    1.000,"PART-1-1",            25,           15.,           30.,            0.,NA,NA,"",       2.77478,       2.73747,  -453.518E-03,   128.992E-06
C:/temp/dataset/7/20_2.odb,Step-1,Increment      1: Step Time =    1.000,"PART-1-1",            26,         11.25,           30.,            0.,NA,NA,"",       2.75473,       2.75049,  -152.843E-03,   1.24880E-03
C:/temp/dataset/7/20_2.odb,Step-1,Increment      1: Step Time =    1.000,"PART-1-1",            27,           7.5,           30.,            0.,NA,NA,"",       2.77563,       2.77172,   147.175E-03,   4.12464E-03
C:/temp/dataset/7/20_2.odb,Step-1,Increment      1: Step Time =    1.000,"PART-1-1",            28,          3.75,           30.,            0.,NA,NA,"",       2.83913,       2.80170,   459.436E-03,   5.29905E-03
C:/temp/dataset/7/20_2.odb,Step-1,Increment      1: Step Time =    1.000,"PART-1-1",            29,            0.,           30.,            0.,NA,NA,"",       2.94057,       2.83274,   788.997E-03,   4.23565E-03
C:/temp/dataset/7/20_2.odb,Step-1,Increment      1: Step Time =    1.000,"PART-1-1",            30,         -3.75,           30.,            0.,NA,NA,"",       3.07541,       2.85977,       1.13131,   2.48981E-03
C:/temp/dataset/7/20_2.odb,Step-1,Increment      1: Step Time =    1.000,"PART-1-1",            31,          -7.5,           30.,            0.,NA,NA,"",       3.23964,       2.88170,       1.48022,   944.159E-06
C:/temp/dataset/7/20_2.odb,Step-1,Increment      1: Step Time =    1.000,"PART-1-1",            32,        -11.25,           30.,            0.,NA,NA,"",       3.42890,       2.89946,       1.83043,   95.1684E-06
C:/temp/dataset/7/20_2.odb,Step-1,Increment      1: Step Time =    1.000,"PART-1-1",            33,          -15.,           30.,            0.,NA,NA,"",       3.64025,       2.91570,       2.17947,   6.29976E-06
C:/temp/dataset/7/20_2.odb,Step-1,Increment      1: Step Time =    1.000,"PART-1-1",            34,          -15.,          22.5,            0.,NA,NA,"",       3.13331,       2.21962,       2.21154,   353.806E-06
C:/temp/dataset/7/20_2.odb,Step-1,Increment      1: Step Time =    1.000,"PART-1-1",            35,            5.,       15.8333,            0.,NA,NA,"",       1.68794,       1.65370,   338.255E-03,   8.37616E-03
C:/temp/dataset/7/20_2.odb,Step-1,Increment      1: Step Time =    1.000,"PART-1-1",            36,            5.,       17.9167,            0.,NA,NA,"",       1.83412,       1.80066,   348.749E-03,   9.80745E-03
C:/temp/dataset/7/20_2.odb,Step-1,Increment      1: Step Time =    1.000,"PART-1-1",            37,            5.,       9.58333,            0.,NA,NA,"",       1.27954,       1.24319,   302.829E-03,   8.82047E-03
C:/temp/dataset/7/20_2.odb,Step-1,Increment      1: Step Time =    1.000,"PART-1-1",            38,            5.,       11.6667,            0.,NA,NA,"",       1.40967,       1.37398,   315.191E-03,   8.73049E-03
C:/temp/dataset/7/20_2.odb,Step-1,Increment      1: Step Time =    1.000,"PART-1-1",            39,            5.,       3.33333,            0.,NA,NA,"",   927.171E-03,   889.118E-03,   262.897E-03,   8.94730E-03
C:/temp/dataset/7/20_2.odb,Step-1,Increment      1: Step Time =    1.000,"PART-1-1",            40,            5.,       5.41667,            0.,NA,NA,"",       1.03824,       1.00071,   276.643E-03,   8.91064E-03
C:/temp/dataset/7/20_2.odb,Step-1,Increment      1: Step Time =    1.000,"PART-1-1",            41,            5.,      -2.91667,            0.,NA,NA,"",   632.560E-03,   593.327E-03,   219.307E-03,   9.06346E-03
C:/temp/dataset/7/20_2.odb,Step-1,Increment      1: Step Time =    1.000,"PART-1-1",            42,            5.,  -833.333E-03,            0.,NA,NA,"",   724.313E-03,   685.400E-03,   234.214E-03,   9.02379E-03
C:/temp/dataset/7/20_2.odb,Step-1,Increment      1: Step Time =    1.000,"PART-1-1",            43,            5.,      -9.16667,            0.,NA,NA,"",   396.177E-03,   356.653E-03,   172.496E-03,   9.20648E-03
C:/temp/dataset/7/20_2.odb,Step-1,Increment      1: Step Time =    1.000,"PART-1-1",            44,            5.,      -7.08333,            0.,NA,NA,"",   468.487E-03,   428.920E-03,   188.434E-03,   9.14972E-03
C:/temp/dataset/7/20_2.odb,Step-1,Increment      1: Step Time =    1.000,"PART-1-1",            45,            5.,      -15.4167,            0.,NA,NA,"",   218.028E-03,   180.123E-03,   122.850E-03,   9.36956E-03
C:/temp/dataset/7/20_2.odb,Step-1,Increment      1: Step Time =    1.000,"PART-1-1",            46,            5.,      -13.3333,            0.,NA,NA,"",   270.991E-03,   232.213E-03,   139.689E-03,   9.31189E-03
C:/temp/dataset/7/20_2.odb,Step-1,Increment      1: Step Time =    1.000,"PART-1-1",            47,            5.,      -21.6667,            0.,NA,NA,"",   96.0646E-03,   64.9015E-03,   70.8252E-03,   9.54656E-03
C:/temp/dataset/7/20_2.odb,Step-1,Increment      1: Step Time =    1.000,"PART-1-1",            48,            5.,      -19.5833,            0.,NA,NA,"",   130.800E-03,   96.4281E-03,   88.3757E-03,   9.49339E-03
C:/temp/dataset/7/20_2.odb,Step-1,Increment      1: Step Time =    1.000,"PART-1-1",            49,            5.,      -27.9167,            0.,NA,NA,"",   21.1744E-03,   11.2403E-03,   17.9446E-03,   9.82961E-03
C:/temp/dataset/7/20_2.odb,Step-1,Increment      1: Step Time =    1.000,"PART-1-1",            50,            5.,      -25.8333,            0.,NA,NA,"",   42.0007E-03,   22.6574E-03,   35.3653E-03,   9.40586E-03
C:/temp/dataset/7/20_2.odb,Step-1,Increment      1: Step Time =    1.000,"PART-1-1",            51,          12.5,          -30.,            0.,NA,NA,"",            0.,   1.64641E-39,  -6.29170E-39,   3.11300E-03
C:/temp/dataset/7/20_2.odb,Step-1,Increment      1: Step Time =    1.000,"PART-1-1",            52,           10.,          -30.,            0.,NA,NA,"",            0.,  -1.71691E-39,   579.308E-42,   1.70946E-03
C:/temp/dataset/7/20_2.odb,Step-1,Increment      1: Step Time =    1.000,"PART-1-1",            53,           7.5,          -30.,            0.,NA,NA,"",            0.,  -371.240E-42,   10.0712E-39,   3.93910E-03
C:/temp/dataset/7/20_2.odb,Step-1,Increment      1: Step Time =    1.000,"PART-1-1",            54,           15.,          -25.,            0.,NA,NA,"",   44.5148E-03,   25.4153E-03,  -36.5462E-03,   8.24329E-03
C:/temp/dataset/7/20_2.odb,Step-1,Increment      1: Step Time =    1.000,"PART-1-1",            55,           15.,         -27.5,            0.,NA,NA,"",   20.8456E-03,   10.3822E-03,  -18.0762E-03,   8.51375E-03
C:/temp/dataset/7/20_2.odb,Step-1,Increment      1: Step Time =    1.000,"PART-1-1",            56,           15.,         -17.5,            0.,NA,NA,"",   159.155E-03,   129.638E-03,  -92.3279E-03,   8.04834E-03
C:/temp/dataset/7/20_2.odb,Step-1,Increment      1: Step Time =    1.000,"PART-1-1",            57,           15.,          -20.,            0.,NA,NA,"",   112.591E-03,   85.0642E-03,  -73.7626E-03,   8.12487E-03
C:/temp/dataset/7/20_2.odb,Step-1,Increment      1: Step Time =    1.000,"PART-1-1",            58,           15.,          -10.,            0.,NA,NA,"",   354.030E-03,   321.447E-03,  -148.355E-03,   7.84424E-03
C:/temp/dataset/7/20_2.odb,Step-1,Increment      1: Step Time =    1.000,"PART-1-1",            59,           15.,         -12.5,            0.,NA,NA,"",   279.731E-03,   247.910E-03,  -129.577E-03,   7.90699E-03
C:/temp/dataset/7/20_2.odb,Step-1,Increment      1: Step Time =    1.000,"PART-1-1",            60,           15.,          -2.5,            0.,NA,NA,"",   633.210E-03,   598.825E-03,  -205.824E-03,   7.67395E-03
C:/temp/dataset/7/20_2.odb,Step-1,Increment      1: Step Time =    1.000,"PART-1-1",            61,           15.,           -5.,            0.,NA,NA,"",   530.790E-03,   496.971E-03,  -186.436E-03,   7.72734E-03
C:/temp/dataset/7/20_2.odb,Step-1,Increment      1: Step Time =    1.000,"PART-1-1",            62,           15.,            5.,            0.,NA,NA,"",   996.185E-03,   960.053E-03,  -265.864E-03,   7.54156E-03
C:/temp/dataset/7/20_2.odb,Step-1,Increment      1: Step Time =    1.000,"PART-1-1",            63,           15.,           2.5,            0.,NA,NA,"",   865.950E-03,   830.422E-03,  -245.495E-03,   7.58048E-03
C:/temp/dataset/7/20_2.odb,Step-1,Increment      1: Step Time =    1.000,"PART-1-1",            64,           15.,          12.5,            0.,NA,NA,"",       1.44202,       1.40380,  -329.787E-03,   7.53767E-03
C:/temp/dataset/7/20_2.odb,Step-1,Increment      1: Step Time =    1.000,"PART-1-1",            65,           15.,           10.,            0.,NA,NA,"",       1.28420,       1.24674,  -307.926E-03,   7.50933E-03
C:/temp/dataset/7/20_2.odb,Step-1,Increment      1: Step Time =    1.000,"PART-1-1",            66,           15.,           20.,            0.,NA,NA,"",       1.97349,       1.93294,  -397.987E-03,   6.35679E-03
C:/temp/dataset/7/20_2.odb,Step-1,Increment      1: Step Time =    1.000,"PART-1-1",            67,           15.,          17.5,            0.,NA,NA,"",       1.78639,       1.74651,  -375.357E-03,   7.21883E-03
C:/temp/dataset/7/20_2.odb,Step-1,Increment      1: Step Time =    1.000,"PART-1-1",            68,           15.,          27.5,            0.,NA,NA,"",       2.57378,       2.53497,  -445.244E-03,   380.231E-06
C:/temp/dataset/7/20_2.odb,Step-1,Increment      1: Step Time =    1.000,"PART-1-1",            69,           15.,           25.,            0.,NA,NA,"",       2.37094,       2.33086,  -434.099E-03,   2.26142E-03
C:/temp/dataset/7/20_2.odb,Step-1,Increment      1: Step Time =    1.000,"PART-1-1",            70,        13.125,           30.,            0.,NA,NA,"",       2.76016,       2.74353,  -302.525E-03,   211.473E-06
C:/temp/dataset/7/20_2.odb,Step-1,Increment      1: Step Time =    1.000,"PART-1-1",            71,         9.375,           30.,            0.,NA,NA,"",       2.75977,       2.75976,  -3.55014E-03,   2.74284E-03
C:/temp/dataset/7/20_2.odb,Step-1,Increment      1: Step Time =    1.000,"PART-1-1",            72,         5.625,           30.,            0.,NA,NA,"",       2.80233,       2.78610,   301.152E-03,   4.97066E-03
C:/temp/dataset/7/20_2.odb,Step-1,Increment      1: Step Time =    1.000,"PART-1-1",            73,         1.875,           30.,            0.,NA,NA,"",       2.88542,       2.81755,   622.183E-03,   4.97569E-03
C:/temp/dataset/7/20_2.odb,Step-1,Increment      1: Step Time =    1.000,"PART-1-1",            74,        -1.875,           30.,            0.,NA,NA,"",       3.00404,       2.84687,   958.952E-03,   3.37806E-03
C:/temp/dataset/7/20_2.odb,Step-1,Increment      1: Step Time =    1.000,"PART-1-1",            75,        -5.625,           30.,            0.,NA,NA,"",       3.15413,       2.87137,       1.30530,   1.67039E-03
C:/temp/dataset/7/20_2.odb,Step-1,Increment      1: Step Time =    1.000,"PART-1-1",            76,        -9.375,           30.,            0.,NA,NA,"",       3.33137,       2.89096,       1.65542,   397.784E-06
C:/temp/dataset/7/20_2.odb,Step-1,Increment      1: Step Time =    1.000,"PART-1-1",            77,       -13.125,           30.,            0.,NA,NA,"",       3.53191,       2.90759,       2.00507,   23.2058E-06
C:/temp/dataset/7/20_2.odb,Step-1,Increment      1: Step Time =    1.000,"PART-1-1",            78,          -15.,          27.5,            0.,NA,NA,"",       3.46368,       2.68325,       2.19025,   28.6835E-06
C:/temp/dataset/7/20_2.odb,Step-1,Increment      1: Step Time =    1.000,"PART-1-1",            79,      -7.07467,       28.0475,            0.,NA,NA,"",       3.06228,       2.69823,       1.44814,   1.25188E-03
C:/temp/dataset/7/20_2.odb,Step-1,Increment      1: Step Time =    1.000,"PART-1-1",            80,      -10.7971,       27.6072,            0.,NA,NA,"",       3.22335,       2.67495,       1.79850,   476.090E-06
C:/temp/dataset/7/20_2.odb,Step-1,Increment      1: Step Time =    1.000,"PART-1-1",            81,      -3.50976,       28.2242,            0.,NA,NA,"",       2.91662,       2.69512,       1.11490,   2.05019E-03
C:/temp/dataset/7/20_2.odb,Step-1,Increment      1: Step Time =    1.000,"PART-1-1",            82,       11.3028,       27.6605,            0.,NA,NA,"",       2.56473,       2.56032,  -150.302E-03,   2.41116E-03
C:/temp/dataset/7/20_2.odb,Step-1,Increment      1: Step Time =    1.000,"PART-1-1",            83,       7.46624,       27.7175,            0.,NA,NA,"",       2.58748,       2.58287,   154.295E-03,   3.08010E-03
C:/temp/dataset/7/20_2.odb,Step-1,Increment      1: Step Time =    1.000,"PART-1-1",            84,   523.838E-03,       28.1559,            0.,NA,NA,"",       2.76671,       2.66413,   746.408E-03,   2.85659E-03
C:/temp/dataset/7/20_2.odb,Step-1,Increment      1: Step Time =    1.000,"PART-1-1",            85,       13.1724,       27.5829,            0.,NA,NA,"",       2.56482,       2.54742,  -298.278E-03,   1.47431E-03
C:/temp/dataset/7/20_2.odb,Step-1,Increment      1: Step Time =    1.000,"PART-1-1",            86,       9.41586,       27.7284,            0.,NA,NA,"",       2.57393,       2.57393,  -1.48016E-03,   2.92244E-03
C:/temp/dataset/7/20_2.odb,Step-1,Increment      1: Step Time =    1.000,"PART-1-1",            87,       5.17501,       27.3177,            0.,NA,NA,"",       2.58516,       2.56224,   343.517E-03,   2.73348E-03
C:/temp/dataset/7/20_2.odb,Step-1,Increment      1: Step Time =    1.000,"PART-1-1",            88,       1.85763,       28.7412,            0.,NA,NA,"",       2.77822,       2.70673,   626.214E-03,   3.57990E-03
C:/temp/dataset/7/20_2.odb,Step-1,Increment      1: Step Time =    1.000,"PART-1-1",            89,      -1.45910,       27.7280,            0.,NA,NA,"",       2.79651,       2.63820,   927.561E-03,   2.31708E-03
C:/temp/dataset/7/20_2.odb,Step-1,Increment      1: Step Time =    1.000,"PART-1-1",            90,      -5.31380,       28.2250,            0.,NA,NA,"",       2.99406,       2.70535,       1.28275,   1.62737E-03
C:/temp/dataset/7/20_2.odb,Step-1,Increment      1: Step Time =    1.000,"PART-1-1",            91,      -8.92632,       27.8484,            0.,NA,NA,"",       3.14039,       2.68881,       1.62246,   866.104E-06
C:/temp/dataset/7/20_2.odb,Step-1,Increment      1: Step Time =    1.000,"PART-1-1",            92,       7.03655,   996.185E-03,            0.,NA,NA,"",   777.123E-03,   762.631E-03,   149.382E-03,   5.62171E-03
C:/temp/dataset/7/20_2.odb,Step-1,Increment      1: Step Time =    1.000,"PART-1-1",            93,       6.93081,       13.7923,            0.,NA,NA,"",       1.51644,       1.50335,   198.802E-03,   5.65915E-03
C:/temp/dataset/7/20_2.odb,Step-1,Increment      1: Step Time =    1.000,"PART-1-1",            94,       7.08682,       7.47611,            0.,NA,NA,"",       1.12013,       1.10718,   169.868E-03,   5.47646E-03
C:/temp/dataset/7/20_2.odb,Step-1,Increment      1: Step Time =    1.000,"PART-1-1",            95,       6.96700,      -1.15199,            0.,NA,NA,"",   677.864E-03,   662.400E-03,   143.962E-03,   5.76078E-03
C:/temp/dataset/7/20_2.odb,Step-1,Increment      1: Step Time =    1.000,"PART-1-1",            96,       6.47578,      -21.8661,            0.,NA,NA,"",   75.6127E-03,   56.6984E-03,   50.0258E-03,   6.95023E-03
C:/temp/dataset/7/20_2.odb,Step-1,Increment      1: Step Time =    1.000,"PART-1-1",            97,       7.14087,      -13.1040,            0.,NA,NA,"",   245.451E-03,   230.436E-03,   84.5323E-03,   5.63067E-03
C:/temp/dataset/7/20_2.odb,Step-1,Increment      1: Step Time =    1.000,"PART-1-1",            98,       6.53104,      -7.08024,            0.,NA,NA,"",   443.256E-03,   422.643E-03,   133.599E-03,   6.58105E-03
C:/temp/dataset/7/20_2.odb,Step-1,Increment      1: Step Time =    1.000,"PART-1-1",            99,       6.85322,      -3.24169,            0.,NA,NA,"",   588.550E-03,   571.698E-03,   139.834E-03,   5.97840E-03
C:/temp/dataset/7/20_2.odb,Step-1,Increment      1: Step Time =    1.000,"PART-1-1",           100,       6.74184,      -8.96518,            0.,NA,NA,"",   374.979E-03,   356.379E-03,   116.633E-03,   6.24659E-03
C:/temp/dataset/7/20_2.odb,Step-1,Increment      1: Step Time =    1.000,"PART-1-1",           101,       6.94703,      -23.6171,            0.,NA,NA,"",   48.9201E-03,   34.7891E-03,   34.3932E-03,   6.15559E-03
C:/temp/dataset/7/20_2.odb,Step-1,Increment      1: Step Time =    1.000,"PART-1-1",           102,       7.44695,      -27.8442,            0.,NA,NA,"",   10.0928E-03,   4.07566E-03,   9.23327E-03,   5.54583E-03
C:/temp/dataset/7/20_2.odb,Step-1,Increment      1: Step Time =    1.000,"PART-1-1",           103,       7.35225,      -17.6578,            0.,NA,NA,"",   136.595E-03,   123.449E-03,   58.4678E-03,   5.33610E-03
C:/temp/dataset/7/20_2.odb,Step-1,Increment      1: Step Time =    1.000,"PART-1-1",           104,       7.23832,      -15.2967,            0.,NA,NA,"",   189.056E-03,   174.875E-03,   71.8377E-03,   5.49781E-03
C:/temp/dataset/7/20_2.odb,Step-1,Increment      1: Step Time =    1.000,"PART-1-1",           105,       7.10099,       17.6583,            0.,NA,NA,"",       1.78234,       1.77151,   196.133E-03,   5.70352E-03
C:/temp/dataset/7/20_2.odb,Step-1,Increment      1: Step Time =    1.000,"PART-1-1",           106,       6.86948,       15.7920,            0.,NA,NA,"",       1.65366,       1.64042,   208.833E-03,   6.08571E-03
C:/temp/dataset/7/20_2.odb,Step-1,Increment      1: Step Time =    1.000,"PART-1-1",           107,       7.06799,       9.62990,            0.,NA,NA,"",       1.24832,       1.23560,   177.776E-03,   5.48851E-03
C:/temp/dataset/7/20_2.odb,Step-1,Increment      1: Step Time =    1.000,"PART-1-1",           108,       7.09093,       5.31052,            0.,NA,NA,"",   998.319E-03,   985.021E-03,   162.403E-03,   5.48842E-03
C:/temp/dataset/7/20_2.odb,Step-1,Increment      1: Step Time =    1.000,"PART-1-1",           109,       6.65187,      -5.22056,            0.,NA,NA,"",   511.338E-03,   492.202E-03,   138.576E-03,   6.34052E-03
C:/temp/dataset/7/20_2.odb,Step-1,Increment      1: Step Time =    1.000,"PART-1-1",           110,       7.26954,      -25.7037,            0.,NA,NA,"",   25.9159E-03,   15.8299E-03,   20.5195E-03,   5.81855E-03
C:/temp/dataset/7/20_2.odb,Step-1,Increment      1: Step Time =    1.000,"PART-1-1",           111,       7.53271,      -20.3934,            0.,NA,NA,"",   86.2328E-03,   74.7737E-03,   42.9533E-03,   5.06662E-03
C:/temp/dataset/7/20_2.odb,Step-1,Increment      1: Step Time =    1.000,"PART-1-1",           112,       7.01178,       11.7341,            0.,NA,NA,"",       1.38059,       1.36778,   187.611E-03,   5.57423E-03
C:/temp/dataset/7/20_2.odb,Step-1,Increment      1: Step Time =    1.000,"PART-1-1",           113,       7.07643,       3.14767,            0.,NA,NA,"",   883.814E-03,   870.026E-03,   155.509E-03,   5.53311E-03
C:/temp/dataset/7/20_2.odb,Step-1,Increment      1: Step Time =    1.000,"PART-1-1",           114,       6.98190,      -10.9751,            0.,NA,NA,"",   308.129E-03,   291.739E-03,   99.1541E-03,   5.87144E-03
C:/temp/dataset/7/20_2.odb,Step-1,Increment      1: Step Time =    1.000,"PART-1-1",           115,       13.1254,       22.8014,            0.,NA,NA,"",       2.17286,       2.15575,  -272.133E-03,   3.49614E-03
C:/temp/dataset/7/20_2.odb,Step-1,Increment      1: Step Time =    1.000,"PART-1-1",           116,       12.8923,      -4.74502,            0.,NA,NA,"",   513.781E-03,   502.945E-03,  -104.960E-03,   4.16673E-03
C:/temp/dataset/7/20_2.odb,Step-1,Increment      1: Step Time =    1.000,"PART-1-1",           117,       13.0513,      -12.4505,            0.,NA,NA,"",   256.034E-03,   244.567E-03,  -75.7653E-03,   4.54724E-03
C:/temp/dataset/7/20_2.odb,Step-1,Increment      1: Step Time =    1.000,"PART-1-1",           118,       12.2427,       17.8341,            0.,NA,NA,"",       1.78056,       1.77175,  -176.846E-03,   3.10871E-03
C:/temp/dataset/7/20_2.odb,Step-1,Increment      1: Step Time =    1.000,"PART-1-1",           119,       13.0441,       9.90429,            0.,NA,NA,"",       1.25344,       1.23941,  -186.963E-03,   4.27350E-03
C:/temp/dataset/7/20_2.odb,Step-1,Increment      1: Step Time =    1.000,"PART-1-1",           120,       13.0522,       2.62582,            0.,NA,NA,"",   846.999E-03,   833.993E-03,  -147.861E-03,   4.35019E-03
C:/temp/dataset/7/20_2.odb,Step-1,Increment      1: Step Time =    1.000,"PART-1-1",           121,       13.2006,      -19.7745,            0.,NA,NA,"",   95.4535E-03,   83.6195E-03,  -46.0343E-03,   4.94130E-03
C:/temp/dataset/7/20_2.odb,Step-1,Increment      1: Step Time =    1.000,"PART-1-1",           122,       9.90112,      -27.6522,            0.,NA,NA,"",   2.14364E-03,   1.52173E-03,   1.50982E-03,   940.877E-06
C:/temp/dataset/7/20_2.odb,Step-1,Increment      1: Step Time =    1.000,"PART-1-1",           123,       13.0591,      -22.1191,            0.,NA,NA,"",   59.7345E-03,   49.4073E-03,  -33.5728E-03,   4.74350E-03
C:/temp/dataset/7/20_2.odb,Step-1,Increment      1: Step Time =    1.000,"PART-1-1",           124,       13.1139,      -14.9356,            0.,NA,NA,"",   192.396E-03,   180.637E-03,  -66.2300E-03,   4.69710E-03
C:/temp/dataset/7/20_2.odb,Step-1,Increment      1: Step Time =    1.000,"PART-1-1",           125,       13.1678,      -17.3995,            0.,NA,NA,"",   138.623E-03,   126.689E-03,  -56.2695E-03,   4.83462E-03
C:/temp/dataset/7/20_2.odb,Step-1,Increment      1: Step Time =    1.000,"PART-1-1",           126,       12.7891,      -7.32383,            0.,NA,NA,"",   416.033E-03,   406.231E-03,  -89.7751E-03,   4.02610E-03
C:/temp/dataset/7/20_2.odb,Step-1,Increment      1: Step Time =    1.000,"PART-1-1",           127,       12.9162,      -9.94117,            0.,NA,NA,"",   329.241E-03,   318.657E-03,  -82.8103E-03,   4.27710E-03
C:/temp/dataset/7/20_2.odb,Step-1,Increment      1: Step Time =    1.000,"PART-1-1",           128,       13.0283,   193.158E-03,            0.,NA,NA,"",   728.334E-03,   715.841E-03,  -134.319E-03,   4.33665E-03
C:/temp/dataset/7/20_2.odb,Step-1,Increment      1: Step Time =    1.000,"PART-1-1",           129,       12.9794,      -2.25409,            0.,NA,NA,"",   617.612E-03,   605.812E-03,  -120.153E-03,   4.28294E-03
C:/temp/dataset/7/20_2.odb,Step-1,Increment      1: Step Time =    1.000,"PART-1-1",           130,       13.0689,       7.48049,            0.,NA,NA,"",       1.10965,       1.09580,  -174.794E-03,   4.33243E-03
C:/temp/dataset/7/20_2.odb,Step-1,Increment      1: Step Time =    1.000,"PART-1-1",           131,       13.0764,       5.05734,            0.,NA,NA,"",   974.363E-03,   960.806E-03,  -161.972E-03,   4.36625E-03
C:/temp/dataset/7/20_2.odb,Step-1,Increment      1: Step Time =    1.000,"PART-1-1",           132,       12.6962,       14.9270,            0.,NA,NA,"",       1.57674,       1.56490,  -192.853E-03,   3.66347E-03
C:/temp/dataset/7/20_2.odb,Step-1,Increment      1: Step Time =    1.000,"PART-1-1",           133,       12.9459,       12.3607,            0.,NA,NA,"",       1.40734,       1.39378,  -194.868E-03,   4.09231E-03
C:/temp/dataset/7/20_2.odb,Step-1,Increment      1: Step Time =    1.000,"PART-1-1",           134,       12.9476,       20.4489,            0.,NA,NA,"",       1.98416,       1.96904,  -244.467E-03,   3.85608E-03
C:/temp/dataset/7/20_2.odb,Step-1,Increment      1: Step Time =    1.000,"PART-1-1",           135,       13.1802,       25.1793,            0.,NA,NA,"",       2.36759,       2.34990,  -288.831E-03,   2.69026E-03
C:/temp/dataset/7/20_2.odb,Step-1,Increment      1: Step Time =    1.000,"PART-1-1",           136,      -12.4062,       24.9250,            0.,NA,NA,"",       3.12496,       2.43329,       1.96073,   460.924E-06
C:/temp/dataset/7/20_2.odb,Step-1,Increment      1: Step Time =    1.000,"PART-1-1",           137,       11.3078,       25.3904,            0.,NA,NA,"",       2.37684,       2.37256,  -142.695E-03,   3.28195E-03
C:/temp/dataset/7/20_2.odb,Step-1,Increment      1: Step Time =    1.000,"PART-1-1",           138,      -10.1009,       25.2443,            0.,NA,NA,"",       3.01033,       2.45353,       1.74421,   1.01360E-03
C:/temp/dataset/7/20_2.odb,Step-1,Increment      1: Step Time =    1.000,"PART-1-1",           139,      -4.83291,       26.5053,            0.,NA,NA,"",       2.83356,       2.54569,       1.24439,   1.76554E-03
C:/temp/dataset/7/20_2.odb,Step-1,Increment      1: Step Time =    1.000,"PART-1-1",           140,       1.72347,       26.1851,            0.,NA,NA,"",       2.56644,       2.48415,   644.686E-03,   1.89555E-03
C:/temp/dataset/7/20_2.odb,Step-1,Increment      1: Step Time =    1.000,"PART-1-1",           141,       6.12189,       25.7754,            0.,NA,NA,"",       2.44080,       2.42604,   267.957E-03,   2.59759E-03
C:/temp/dataset/7/20_2.odb,Step-1,Increment      1: Step Time =    1.000,"PART-1-1",           142,       7.62725,       25.7499,            0.,NA,NA,"",       2.42102,       2.41662,   145.834E-03,   3.05978E-03
C:/temp/dataset/7/20_2.odb,Step-1,Increment      1: Step Time =    1.000,"PART-1-1",           143,       3.76931,       25.0880,            0.,NA,NA,"",       2.42472,       2.37916,   467.823E-03,   2.02697E-03
C:/temp/dataset/7/20_2.odb,Step-1,Increment      1: Step Time =    1.000,"PART-1-1",           144,  -231.428E-03,       26.1188,            0.,NA,NA,"",       2.62007,       2.48816,   820.885E-03,   1.92425E-03
C:/temp/dataset/7/20_2.odb,Step-1,Increment      1: Step Time =    1.000,"PART-1-1",           145,      -2.48530,       25.9891,            0.,NA,NA,"",       2.69164,       2.48758,       1.02805,   1.84705E-03
C:/temp/dataset/7/20_2.odb,Step-1,Increment      1: Step Time =    1.000,"PART-1-1",           146,      -3.63425,       26.9302,            0.,NA,NA,"",       2.81542,       2.57824,       1.13106,   1.86793E-03
C:/temp/dataset/7/20_2.odb,Step-1,Increment      1: Step Time =    1.000,"PART-1-1",           147,      -8.31738,       25.8431,            0.,NA,NA,"",       2.95529,       2.50121,       1.57407,   1.37399E-03
C:/temp/dataset/7/20_2.odb,Step-1,Increment      1: Step Time =    1.000,"PART-1-1",           148,       9.04714,   705.037E-03,            0.,NA,NA,"",   744.599E-03,   742.732E-03,   52.7015E-03,   2.29080E-03
C:/temp/dataset/7/20_2.odb,Step-1,Increment      1: Step Time =    1.000,"PART-1-1",           149,       7.85197,      -7.06885,            0.,NA,NA,"",   427.764E-03,   418.962E-03,   86.3269E-03,   4.34346E-03
C:/temp/dataset/7/20_2.odb,Step-1,Increment      1: Step Time =    1.000,"PART-1-1",           150,       8.74205,      -22.9842,            0.,NA,NA,"",   41.8174E-03,   37.7762E-03,   17.9347E-03,   3.00612E-03
C:/temp/dataset/7/20_2.odb,Step-1,Increment      1: Step Time =    1.000,"PART-1-1",           151,       9.28078,      -15.1075,            0.,NA,NA,"",   177.073E-03,   175.335E-03,   24.7531E-03,   1.96091E-03
C:/temp/dataset/7/20_2.odb,Step-1,Increment      1: Step Time =    1.000,"PART-1-1",           152,       8.97855,      -1.55139,            0.,NA,NA,"",   641.029E-03,   638.794E-03,   53.4782E-03,   2.41480E-03
C:/temp/dataset/7/20_2.odb,Step-1,Increment      1: Step Time =    1.000,"PART-1-1",           153,       9.09422,       9.69450,            0.,NA,NA,"",       1.23348,       1.23226,   54.8852E-03,   2.21795E-03
C:/temp/dataset/7/20_2.odb,Step-1,Increment      1: Step Time =    1.000,"PART-1-1",           154,       8.44946,       15.5970,            0.,NA,NA,"",       1.62311,       1.62011,   98.6284E-03,   2.99268E-03
C:/temp/dataset/7/20_2.odb,Step-1,Increment      1: Step Time =    1.000,"PART-1-1",           155,       9.11701,       7.46178,            0.,NA,NA,"",       1.10074,       1.09946,   53.0895E-03,   2.16845E-03
C:/temp/dataset/7/20_2.odb,Step-1,Increment      1: Step Time =    1.000,"PART-1-1",           156,       8.83101,       13.9442,            0.,NA,NA,"",       1.50754,       1.50581,   72.1934E-03,   2.62748E-03
C:/temp/dataset/7/20_2.odb,Step-1,Increment      1: Step Time =    1.000,"PART-1-1",           157,       9.61385,      -19.9311,            0.,NA,NA,"",   79.6580E-03,   78.7667E-03,   11.8834E-03,   1.40384E-03
C:/temp/dataset/7/20_2.odb,Step-1,Increment      1: Step Time =    1.000,"PART-1-1",           158,       9.10031,       2.95854,            0.,NA,NA,"",   855.702E-03,   854.129E-03,   51.8657E-03,   2.19627E-03
C:/temp/dataset/7/20_2.odb,Step-1,Increment      1: Step Time =    1.000,"PART-1-1",           159,       9.17986,      -12.8049,            0.,NA,NA,"",   236.244E-03,   234.231E-03,   30.7728E-03,   2.12470E-03
C:/temp/dataset/7/20_2.odb,Step-1,Increment      1: Step Time =    1.000,"PART-1-1",           160,       8.54844,      -8.43147,            0.,NA,NA,"",   374.073E-03,   369.497E-03,   58.3297E-03,   3.17086E-03
C:/temp/dataset/7/20_2.odb,Step-1,Increment      1: Step Time =    1.000,"PART-1-1",           161,       8.46228,      -5.79934,            0.,NA,NA,"",   469.463E-03,   464.608E-03,   67.3476E-03,   3.29997E-03
C:/temp/dataset/7/20_2.odb,Step-1,Increment      1: Step Time =    1.000,"PART-1-1",           162,       8.97830,      -10.5487,            0.,NA,NA,"",   302.767E-03,   300.079E-03,   40.2563E-03,   2.45734E-03
C:/temp/dataset/7/20_2.odb,Step-1,Increment      1: Step Time =    1.000,"PART-1-1",           163,       8.84007,      -3.76868,            0.,NA,NA,"",   547.131E-03,   544.221E-03,   56.3520E-03,   2.65559E-03
C:/temp/dataset/7/20_2.odb,Step-1,Increment      1: Step Time =    1.000,"PART-1-1",           164,       9.12644,       5.21383,            0.,NA,NA,"",   974.583E-03,   973.208E-03,   51.7474E-03,   2.15004E-03
C:/temp/dataset/7/20_2.odb,Step-1,Increment      1: Step Time =    1.000,"PART-1-1",           165,       9.36869,      -17.5094,            0.,NA,NA,"",   124.262E-03,   122.744E-03,   19.3609E-03,   1.82205E-03
C:/temp/dataset/7/20_2.odb,Step-1,Increment      1: Step Time =    1.000,"PART-1-1",           166,       9.01212,       11.8707,            0.,NA,NA,"",       1.37022,       1.36890,   60.2113E-03,   2.35983E-03
C:/temp/dataset/7/20_2.odb,Step-1,Increment      1: Step Time =    1.000,"PART-1-1",           167,       9.60003,       16.9835,            0.,NA,NA,"",       1.71446,       1.71438,   16.5093E-03,   951.138E-06
C:/temp/dataset/7/20_2.odb,Step-1,Increment      1: Step Time =    1.000,"PART-1-1",           168,       7.13047,       19.6676,            0.,NA,NA,"",       1.92884,       1.91885,   196.042E-03,   3.37348E-03
C:/temp/dataset/7/20_2.odb,Step-1,Increment      1: Step Time =    1.000,"PART-1-1",           169,       9.55406,      -25.2995,            0.,NA,NA,"",   16.0283E-03,   14.9194E-03,   5.85814E-03,   1.55904E-03
C:/temp/dataset/7/20_2.odb,Step-1,Increment      1: Step Time =    1.000,"PART-1-1",           170,       12.3800,      -27.4389,            0.,NA,NA,"",   8.72598E-03,   4.09940E-03,  -7.70309E-03,   3.90821E-03
C:/temp/dataset/7/20_2.odb,Step-1,Increment      1: Step Time =    1.000,"PART-1-1",           171,      -11.9351,       22.4166,            0.,NA,NA,"",       2.92547,       2.19921,       1.92921,   1.04459E-03
C:/temp/dataset/7/20_2.odb,Step-1,Increment      1: Step Time =    1.000,"PART-1-1",           172,       10.9842,      -1.93535,            0.,NA,NA,"",   620.184E-03,   619.225E-03,  -34.4747E-03,   943.826E-06
C:/temp/dataset/7/20_2.odb,Step-1,Increment      1: Step Time =    1.000,"PART-1-1",           173,       11.2234,      -14.9909,            0.,NA,NA,"",   178.536E-03,   177.287E-03,  -21.0846E-03,   1.41873E-03
C:/temp/dataset/7/20_2.odb,Step-1,Increment      1: Step Time =    1.000,"PART-1-1",           174,       11.0574,       21.1283,            0.,NA,NA,"",       2.02793,       2.02520,  -105.240E-03,   3.09252E-03
C:/temp/dataset/7/20_2.odb,Step-1,Increment      1: Step Time =    1.000,"PART-1-1",           175,       10.7466,       19.4847,            0.,NA,NA,"",       1.89902,       1.89755,  -74.8162E-03,   2.27083E-03
C:/temp/dataset/7/20_2.odb,Step-1,Increment      1: Step Time =    1.000,"PART-1-1",           176,       11.0568,   433.028E-03,            0.,NA,NA,"",   728.176E-03,   726.944E-03,  -42.3485E-03,   1.05445E-03
C:/temp/dataset/7/20_2.odb,Step-1,Increment      1: Step Time =    1.000,"PART-1-1",           177,       10.9662,       12.1205,            0.,NA,NA,"",       1.38180,       1.38024,  -65.6457E-03,   823.447E-06
C:/temp/dataset/7/20_2.odb,Step-1,Increment      1: Step Time =    1.000,"PART-1-1",           178,       11.6216,      -21.4567,            0.,NA,NA,"",   58.6076E-03,   56.0934E-03,  -16.9819E-03,   2.17086E-03
C:/temp/dataset/7/20_2.odb,Step-1,Increment      1: Step Time =    1.000,"PART-1-1",           179,       11.2975,      -17.3958,            0.,NA,NA,"",   125.908E-03,   124.480E-03,  -18.9089E-03,   1.56438E-03
C:/temp/dataset/7/20_2.odb,Step-1,Increment      1: Step Time =    1.000,"PART-1-1",           180,       10.6273,       14.4803,            0.,NA,NA,"",       1.53795,       1.53715,  -49.6461E-03,   341.603E-06
C:/temp/dataset/7/20_2.odb,Step-1,Increment      1: Step Time =    1.000,"PART-1-1",           181,       11.1012,       2.78293,            0.,NA,NA,"",   843.531E-03,   842.069E-03,  -49.6390E-03,   1.11810E-03
C:/temp/dataset/7/20_2.odb,Step-1,Increment      1: Step Time =    1.000,"PART-1-1",           182,       11.1153,       7.46695,            0.,NA,NA,"",       1.09767,       1.09592,  -61.9955E-03,   1.11245E-03
C:/temp/dataset/7/20_2.odb,Step-1,Increment      1: Step Time =    1.000,"PART-1-1",           183,       11.1247,      -12.5851,            0.,NA,NA,"",   240.138E-03,   239.109E-03,  -22.2121E-03,   1.23466E-03
C:/temp/dataset/7/20_2.odb,Step-1,Increment      1: Step Time =    1.000,"PART-1-1",           184,       10.4094,      -7.19663,            0.,NA,NA,"",   410.201E-03,   410.167E-03,  -5.28231E-03,   109.003E-06
C:/temp/dataset/7/20_2.odb,Step-1,Increment      1: Step Time =    1.000,"PART-1-1",           185,       10.4303,      -22.2648,            0.,NA,NA,"",   45.0195E-03,   45.0125E-03,  -791.429E-06,   195.516E-06
C:/temp/dataset/7/20_2.odb,Step-1,Increment      1: Step Time =    1.000,"PART-1-1",           186,       10.9130,      -10.1038,            0.,NA,NA,"",   312.844E-03,   312.242E-03,  -19.4001E-03,   859.778E-06
C:/temp/dataset/7/20_2.odb,Step-1,Increment      1: Step Time =    1.000,"PART-1-1",           187,       10.8491,      -4.38491,            0.,NA,NA,"",   517.241E-03,   516.644E-03,  -24.8383E-03,   728.862E-06
C:/temp/dataset/7/20_2.odb,Step-1,Increment      1: Step Time =    1.000,"PART-1-1",           188,       11.1275,       5.13070,            0.,NA,NA,"",   966.911E-03,   965.250E-03,  -56.6467E-03,   1.14943E-03
C:/temp/dataset/7/20_2.odb,Step-1,Increment      1: Step Time =    1.000,"PART-1-1",           189,       11.0819,       9.79848,            0.,NA,NA,"",       1.23611,       1.23433,  -66.3802E-03,   1.03352E-03
C:/temp/dataset/7/20_2.odb,Step-1,Increment      1: Step Time =    1.000,"PART-1-1",           190,       12.1026,      -24.5603,            0.,NA,NA,"",   26.2807E-03,   21.7830E-03,  -14.7030E-03,   3.14443E-03
C:/temp/dataset/7/20_2.odb,Step-1,Increment      1: Step Time =    1.000,"PART-1-1",           191,      -7.61069,       24.2264,            0.,NA,NA,"",       2.79599,       2.34992,       1.51507,   1.75984E-03
C:/temp/dataset/7/20_2.odb,Step-1,Increment      1: Step Time =    1.000,"PART-1-1",           192,      -5.77678,       24.2650,            0.,NA,NA,"",       2.70278,       2.34593,       1.34224,   1.84392E-03
C:/temp/dataset/7/20_2.odb,Step-1,Increment      1: Step Time =    1.000,"PART-1-1",           193,       1.00958,       23.8763,            0.,NA,NA,"",       2.39532,       2.28566,   716.455E-03,   1.96937E-03
C:/temp/dataset/7/20_2.odb,Step-1,Increment      1: Step Time =    1.000,"PART-1-1",           194,      -3.86757,       24.8145,            0.,NA,NA,"",       2.65524,       2.38791,       1.16112,   1.81867E-03
C:/temp/dataset/7/20_2.odb,Step-1,Increment      1: Step Time =    1.000,"PART-1-1",           195,  -996.969E-03,       24.6602,            0.,NA,NA,"",       2.52653,       2.36223,   896.206E-03,   1.84959E-03
C:/temp/dataset/7/20_2.odb,Step-1,Increment      1: Step Time =    1.000,"PART-1-1",           196,       7.19995,       21.7613,            0.,NA,NA,"",       2.09301,       2.08458,   187.643E-03,   3.72301E-03
C:/temp/dataset/7/20_2.odb,Step-1,Increment      1: Step Time =    1.000,"PART-1-1",           197,       2.92747,       22.7842,            0.,NA,NA,"",       2.25281,       2.18492,   548.897E-03,   3.73514E-03
C:/temp/dataset/7/20_2.odb,Step-1,Increment      1: Step Time =    1.000,"PART-1-1",           198,       5.53232,       24.2100,            0.,NA,NA,"",       2.31834,       2.29621,   319.608E-03,   2.27802E-03
C:/temp/dataset/7/20_2.odb,Step-1,Increment      1: Step Time =    1.000,"PART-1-1",           199,       9.18626,       19.3402,            0.,NA,NA,"",       1.88961,       1.88915,   41.6694E-03,   1.80842E-03
C:/temp/dataset/7/20_2.odb,Step-1,Increment      1: Step Time =    1.000,"PART-1-1",           200,       11.2321,       23.1770,            0.,NA,NA,"",       2.19390,       2.19018,  -127.705E-03,   3.56641E-03
C:/temp/dataset/7/20_2.odb,Step-1,Increment      1: Step Time =    1.000,"PART-1-1",           201,       5.11021,       22.1378,            0.,NA,NA,"",       2.15303,       2.12307,   357.909E-03,   3.82643E-03
C:/temp/dataset/7/20_2.odb,Step-1,Increment      1: Step Time =    1.000,"PART-1-1",           202,   167.280E-03,       22.2372,            0.,NA,NA,"",       2.28803,       2.14347,   800.378E-03,   2.94738E-03
C:/temp/dataset/7/20_2.odb,Step-1,Increment      1: Step Time =    1.000,"PART-1-1",           203,      -2.32264,       22.6339,            0.,NA,NA,"",       2.41459,       2.18515,       1.02731,   1.97457E-03
C:/temp/dataset/7/20_2.odb,Step-1,Increment      1: Step Time =    1.000,"PART-1-1",           204,       9.17324,       21.4477,            0.,NA,NA,"",       2.05454,       2.05422,   36.2488E-03,   3.06693E-03
C:/temp/dataset/7/20_2.odb,Step-1,Increment      1: Step Time =    1.000,"PART-1-1",           205,       9.43619,       25.5889,            0.,NA,NA,"",       2.39553,       2.39553,   2.98039E-03,   3.45692E-03
C:/temp/dataset/7/20_2.odb,Step-1,Increment      1: Step Time =    1.000,"PART-1-1",           206,      -5.39738,       22.2321,            0.,NA,NA,"",       2.52787,       2.15845,       1.31575,   1.50377E-03
C:/temp/dataset/7/20_2.odb,Step-1,Increment      1: Step Time =    1.000,"PART-1-1",           207,      -8.66915,       22.6604,            0.,NA,NA,"",       2.74193,       2.21001,       1.62297,   2.16175E-03
C:/temp/dataset/7/20_2.odb,Step-1,Increment      1: Step Time =    1.000,"PART-1-1",           208,      -12.8188,       27.4435,            0.,NA,NA,"",       3.32749,       2.66856,       1.98769,   155.785E-06
C:/temp/dataset/7/20_2.odb,Step-1,Increment      1: Step Time =    1.000,"PART-1-1",           209,       7.43992,       23.7550,            0.,NA,NA,"",       2.25555,       2.24950,   165.087E-03,   3.38049E-03
C:/temp/dataset/7/20_2.odb,Step-1,Increment      1: Step Time =    1.000,"PART-1-1",           210,      -6.48406,       26.1481,            0.,NA,NA,"",       2.88388,       2.52097,       1.40052,   1.65114E-03
C:/temp/dataset/7/20_2.odb,Step-1,Increment      1: Step Time =    1.000,"PART-1-1",           211,       3.18484,       28.0088,            0.,NA,NA,"",       2.68317,       2.63391,   511.785E-03,   3.05689E-03
C:/temp/dataset/7/20_2.odb,Step-1,Increment      1: Step Time =    1.000,"PART-1-1",           212,       11.4304,      -19.6429,            0.,NA,NA,"",   85.1985E-03,   83.3719E-03,  -17.5470E-03,   1.80846E-03
C:/temp/dataset/7/20_2.odb,Step-1,Increment      1: Step Time =    1.000,"PART-1-1",           213,       9.33060,       23.4727,            0.,NA,NA,"",       2.21960,       2.21952,   17.7387E-03,   3.62991E-03
C:/temp/dataset/7/20_2.odb,Step-1,Increment      1: Step Time =    1.000,"PART-1-1",           214,      -12.1707,       23.6708,            0.,NA,NA,"",       3.02443,       2.31624,       1.94479,   658.504E-06
C:/temp/dataset/7/20_2.odb,Step-1,Increment      1: Step Time =    1.000,"PART-1-1",           215,      -13.7031,       24.9625,            0.,NA,NA,"",       3.20849,       2.44215,       2.08093,   198.403E-06
C:/temp/dataset/7/20_2.odb,Step-1,Increment      1: Step Time =    1.000,"PART-1-1",           216,          -15.,         23.75,            0.,NA,NA,"",       3.21271,       2.33525,       2.20638,   150.411E-06
C:/temp/dataset/7/20_2.odb,Step-1,Increment      1: Step Time =    1.000,"PART-1-1",           217,      -13.4675,       22.4583,            0.,NA,NA,"",       3.02781,       2.20926,       2.07046,   312.695E-06
C:/temp/dataset/7/20_2.odb,Step-1,Increment      1: Step Time =    1.000,"PART-1-1",           218,      -9.86170,       27.7278,            0.,NA,NA,"",       3.18100,       2.68194,       1.71054,   663.916E-06
C:/temp/dataset/7/20_2.odb,Step-1,Increment      1: Step Time =    1.000,"PART-1-1",           219,      -10.4490,       26.4258,            0.,NA,NA,"",       3.11637,       2.56406,       1.77124,   713.836E-06
C:/temp/dataset/7/20_2.odb,Step-1,Increment      1: Step Time =    1.000,"PART-1-1",           220,      -9.20914,       25.5437,            0.,NA,NA,"",       2.98174,       2.47746,       1.65921,   1.19303E-03
C:/temp/dataset/7/20_2.odb,Step-1,Increment      1: Step Time =    1.000,"PART-1-1",           221,      -8.62185,       26.8458,            0.,NA,NA,"",       3.04754,       2.59483,       1.59822,   1.09024E-03
C:/temp/dataset/7/20_2.odb,Step-1,Increment      1: Step Time =    1.000,"PART-1-1",           222,      -9.15066,       28.9242,            0.,NA,NA,"",       3.23545,       2.78962,       1.63895,   551.152E-06
C:/temp/dataset/7/20_2.odb,Step-1,Increment      1: Step Time =    1.000,"PART-1-1",           223,      -10.3125,           30.,            0.,NA,NA,"",       3.37943,       2.89527,       1.74297,   242.819E-06
C:/temp/dataset/7/20_2.odb,Step-1,Increment      1: Step Time =    1.000,"PART-1-1",           224,      -11.0235,       28.8036,            0.,NA,NA,"",       3.32563,       2.78704,       1.81446,   247.400E-06
C:/temp/dataset/7/20_2.odb,Step-1,Increment      1: Step Time =    1.000,"PART-1-1",           225,      -11.2536,       25.0847,            0.,NA,NA,"",       3.06635,       2.44342,       1.85262,   724.230E-06
C:/temp/dataset/7/20_2.odb,Step-1,Increment      1: Step Time =    1.000,"PART-1-1",           226,      -10.3021,       22.5385,            0.,NA,NA,"",       2.83143,       2.20452,       1.77682,   1.54993E-03
C:/temp/dataset/7/20_2.odb,Step-1,Increment      1: Step Time =    1.000,"PART-1-1",           227,      -9.38503,       23.9523,            0.,NA,NA,"",       2.87586,       2.33163,       1.68347,   1.48360E-03
C:/temp/dataset/7/20_2.odb,Step-1,Increment      1: Step Time =    1.000,"PART-1-1",           228,      -12.9719,       28.7217,            0.,NA,NA,"",       3.42908,       2.78802,       1.99637,   57.4274E-06
C:/temp/dataset/7/20_2.odb,Step-1,Increment      1: Step Time =    1.000,"PART-1-1",           229,      -14.0625,           30.,            0.,NA,NA,"",       3.58543,       2.91164,       2.09227,   15.5633E-06
C:/temp/dataset/7/20_2.odb,Step-1,Increment      1: Step Time =    1.000,"PART-1-1",           230,          -15.,         28.75,            0.,NA,NA,"",       3.55113,       2.79945,       2.18487,   19.3152E-06
C:/temp/dataset/7/20_2.odb,Step-1,Increment      1: Step Time =    1.000,"PART-1-1",           231,      -13.9094,       27.4717,            0.,NA,NA,"",       3.39478,       2.67591,       2.08902,   66.8342E-06
C:/temp/dataset/7/20_2.odb,Step-1,Increment      1: Step Time =    1.000,"PART-1-1",           232,      -7.40072,       25.9956,            0.,NA,NA,"",       2.91856,       2.51118,       1.48728,   1.49508E-03
C:/temp/dataset/7/20_2.odb,Step-1,Increment      1: Step Time =    1.000,"PART-1-1",           233,      -7.96404,       25.0347,            0.,NA,NA,"",       2.87554,       2.42549,       1.54457,   1.56184E-03
C:/temp/dataset/7/20_2.odb,Step-1,Increment      1: Step Time =    1.000,"PART-1-1",           234,      -6.69374,       24.2457,            0.,NA,NA,"",       2.74841,       2.34795,       1.42859,   1.79591E-03
C:/temp/dataset/7/20_2.odb,Step-1,Increment      1: Step Time =    1.000,"PART-1-1",           235,      -6.13042,       25.2066,            0.,NA,NA,"",       2.79317,       2.43337,       1.37133,   1.71097E-03
C:/temp/dataset/7/20_2.odb,Step-1,Increment      1: Step Time =    1.000,"PART-1-1",           236,      -5.46940,       29.1125,            0.,NA,NA,"",       3.07368,       2.78802,       1.29401,   1.54764E-03
C:/temp/dataset/7/20_2.odb,Step-1,Increment      1: Step Time =    1.000,"PART-1-1",           237,      -4.41178,       28.2246,            0.,NA,NA,"",       2.95441,       2.70032,       1.19868,   1.82771E-03
C:/temp/dataset/7/20_2.odb,Step-1,Increment      1: Step Time =    1.000,"PART-1-1",           238,      -3.62988,       29.1121,            0.,NA,NA,"",       2.99557,       2.77708,       1.12307,   2.18737E-03
C:/temp/dataset/7/20_2.odb,Step-1,Increment      1: Step Time =    1.000,"PART-1-1",           239,       -4.6875,           30.,            0.,NA,NA,"",       3.11388,       2.86573,       1.21814,   2.08500E-03
C:/temp/dataset/7/20_2.odb,Step-1,Increment      1: Step Time =    1.000,"PART-1-1",           240,  -467.629E-03,       27.9420,            0.,NA,NA,"",       2.78020,       2.65136,   836.529E-03,   2.57094E-03
C:/temp/dataset/7/20_2.odb,Step-1,Increment      1: Step Time =    1.000,"PART-1-1",           241,  -845.263E-03,       26.9234,            0.,NA,NA,"",       2.70774,       2.56278,   874.069E-03,   2.05998E-03
C:/temp/dataset/7/20_2.odb,Step-1,Increment      1: Step Time =    1.000,"PART-1-1",           242,   746.021E-03,       26.1520,            0.,NA,NA,"",       2.59182,       2.48620,   732.325E-03,   1.90180E-03
C:/temp/dataset/7/20_2.odb,Step-1,Increment      1: Step Time =    1.000,"PART-1-1",           243,       1.12365,       27.1705,            0.,NA,NA,"",       2.66587,       2.57359,   695.373E-03,   2.33306E-03
C:/temp/dataset/7/20_2.odb,Step-1,Increment      1: Step Time =    1.000,"PART-1-1",           244,       14.0901,       25.0896,            0.,NA,NA,"",       2.36798,       2.34033,  -360.848E-03,   2.22520E-03
C:/temp/dataset/7/20_2.odb,Step-1,Increment      1: Step Time =    1.000,"PART-1-1",           245,       13.1528,       23.9903,            0.,NA,NA,"",       2.26985,       2.25242,  -280.741E-03,   3.06563E-03
C:/temp/dataset/7/20_2.odb,Step-1,Increment      1: Step Time =    1.000,"PART-1-1",           246,       14.0627,       22.6507,            0.,NA,NA,"",       2.16960,       2.14206,  -344.602E-03,   3.79172E-03
C:/temp/dataset/7/20_2.odb,Step-1,Increment      1: Step Time =    1.000,"PART-1-1",           247,           15.,         23.75,            0.,NA,NA,"",       2.26973,       2.22926,  -426.713E-03,   3.41816E-03
C:/temp/dataset/7/20_2.odb,Step-1,Increment      1: Step Time =    1.000,"PART-1-1",           248,       11.2764,       28.8302,            0.,NA,NA,"",       2.66051,       2.65618,  -151.733E-03,   1.61338E-03
C:/temp/dataset/7/20_2.odb,Step-1,Increment      1: Step Time =    1.000,"PART-1-1",           249,       10.3125,           30.,            0.,NA,NA,"",       2.75593,       2.75482,  -78.2601E-03,   1.99673E-03
C:/temp/dataset/7/20_2.odb,Step-1,Increment      1: Step Time =    1.000,"PART-1-1",           250,       9.39543,       28.8642,            0.,NA,NA,"",       2.66763,       2.66763,  -2.71207E-03,   2.55142E-03
C:/temp/dataset/7/20_2.odb,Step-1,Increment      1: Step Time =    1.000,"PART-1-1",           251,       10.3594,       27.6945,            0.,NA,NA,"",       2.56806,       2.56694,  -75.9578E-03,   2.64524E-03
C:/temp/dataset/7/20_2.odb,Step-1,Increment      1: Step Time =    1.000,"PART-1-1",           252,        8.4375,           30.,            0.,NA,NA,"",       2.76637,       2.76544,   71.5185E-03,   3.42930E-03
C:/temp/dataset/7/20_2.odb,Step-1,Increment      1: Step Time =    1.000,"PART-1-1",           253,       7.48312,       28.8587,            0.,NA,NA,"",       2.68219,       2.67796,   150.528E-03,   3.40525E-03
C:/temp/dataset/7/20_2.odb,Step-1,Increment      1: Step Time =    1.000,"PART-1-1",           254,       8.44105,       27.7230,            0.,NA,NA,"",       2.57933,       2.57821,   76.0274E-03,   2.96063E-03
C:/temp/dataset/7/20_2.odb,Step-1,Increment      1: Step Time =    1.000,"PART-1-1",           255,       13.0365,       21.6252,            0.,NA,NA,"",       2.07766,       2.06153,  -258.381E-03,   3.64813E-03
C:/temp/dataset/7/20_2.odb,Step-1,Increment      1: Step Time =    1.000,"PART-1-1",           256,       13.9738,       20.2245,            0.,NA,NA,"",       1.97689,       1.95066,  -320.941E-03,   4.96159E-03
C:/temp/dataset/7/20_2.odb,Step-1,Increment      1: Step Time =    1.000,"PART-1-1",           257,           15.,         21.25,            0.,NA,NA,"",       2.07052,       2.02983,  -408.480E-03,   5.46431E-03
C:/temp/dataset/7/20_2.odb,Step-1,Increment      1: Step Time =    1.000,"PART-1-1",           258,       6.90015,       14.7921,            0.,NA,NA,"",       1.58440,       1.57124,   203.768E-03,   5.79740E-03
C:/temp/dataset/7/20_2.odb,Step-1,Increment      1: Step Time =    1.000,"PART-1-1",           259,       5.93474,       15.8126,            0.,NA,NA,"",       1.66946,       1.64692,   273.404E-03,   7.27262E-03
C:/temp/dataset/7/20_2.odb,Step-1,Increment      1: Step Time =    1.000,"PART-1-1",           260,            5.,       14.7917,            0.,NA,NA,"",       1.61629,       1.58167,   332.734E-03,   8.56024E-03
C:/temp/dataset/7/20_2.odb,Step-1,Increment      1: Step Time =    1.000,"PART-1-1",           261,       5.96541,       13.7711,            0.,NA,NA,"",       1.52959,       1.50681,   262.979E-03,   7.17755E-03
C:/temp/dataset/7/20_2.odb,Step-1,Increment      1: Step Time =    1.000,"PART-1-1",           262,       7.07741,       8.55300,            0.,NA,NA,"",       1.18338,       1.17054,   173.863E-03,   5.48251E-03
C:/temp/dataset/7/20_2.odb,Step-1,Increment      1: Step Time =    1.000,"PART-1-1",           263,       6.03400,       9.60662,            0.,NA,NA,"",       1.26211,       1.23902,   240.341E-03,   7.15353E-03
C:/temp/dataset/7/20_2.odb,Step-1,Increment      1: Step Time =    1.000,"PART-1-1",           264,            5.,       8.54167,            0.,NA,NA,"",       1.21683,       1.18017,   296.456E-03,   8.84490E-03
C:/temp/dataset/7/20_2.odb,Step-1,Increment      1: Step Time =    1.000,"PART-1-1",           265,       6.04341,       7.48805,            0.,NA,NA,"",       1.13607,       1.11257,   229.901E-03,   7.17222E-03
C:/temp/dataset/7/20_2.odb,Step-1,Increment      1: Step Time =    1.000,"PART-1-1",           266,            5.,         4.375,            0.,NA,NA,"",   981.905E-03,   944.104E-03,   269.822E-03,   8.92883E-03
C:/temp/dataset/7/20_2.odb,Step-1,Increment      1: Step Time =    1.000,"PART-1-1",           267,       6.03822,       3.24050,            0.,NA,NA,"",   903.684E-03,   879.168E-03,   209.065E-03,   7.24006E-03
C:/temp/dataset/7/20_2.odb,Step-1,Increment      1: Step Time =    1.000,"PART-1-1",           268,       7.08368,       4.22909,            0.,NA,NA,"",   940.201E-03,   926.656E-03,   159.019E-03,   5.51074E-03
C:/temp/dataset/7/20_2.odb,Step-1,Increment      1: Step Time =    1.000,"PART-1-1",           269,       6.04546,       5.36359,            0.,NA,NA,"",       1.01643,   992.462E-03,   219.447E-03,   7.19928E-03
C:/temp/dataset/7/20_2.odb,Step-1,Increment      1: Step Time =    1.000,"PART-1-1",           270,            5.,       2.29167,            0.,NA,NA,"",   874.043E-03,   835.752E-03,   255.873E-03,   8.96561E-03
C:/temp/dataset/7/20_2.odb,Step-1,Increment      1: Step Time =    1.000,"PART-1-1",           271,       6.01828,       1.12309,            0.,NA,NA,"",   798.096E-03,   772.921E-03,   198.876E-03,   7.30281E-03
C:/temp/dataset/7/20_2.odb,Step-1,Increment      1: Step Time =    1.000,"PART-1-1",           272,       7.05649,       2.07193,            0.,NA,NA,"",   829.608E-03,   815.467E-03,   152.525E-03,   5.57738E-03
C:/temp/dataset/7/20_2.odb,Step-1,Increment      1: Step Time =    1.000,"PART-1-1",           273,       7.00178,  -77.9012E-03,            0.,NA,NA,"",   726.631E-03,   711.653E-03,   146.773E-03,   5.69124E-03
C:/temp/dataset/7/20_2.odb,Step-1,Increment      1: Step Time =    1.000,"PART-1-1",           274,            5.,   208.333E-03,            0.,NA,NA,"",   772.612E-03,   733.889E-03,   241.529E-03,   9.00372E-03
C:/temp/dataset/7/20_2.odb,Step-1,Increment      1: Step Time =    1.000,"PART-1-1",           275,       5.98350,  -992.661E-03,            0.,NA,NA,"",   699.494E-03,   673.517E-03,   188.855E-03,   7.39216E-03
C:/temp/dataset/7/20_2.odb,Step-1,Increment      1: Step Time =    1.000,"PART-1-1",           276,       6.59145,      -6.15040,            0.,NA,NA,"",   476.652E-03,   456.775E-03,   136.214E-03,   6.46146E-03
C:/temp/dataset/7/20_2.odb,Step-1,Increment      1: Step Time =    1.000,"PART-1-1",           277,       5.82593,      -5.11028,            0.,NA,NA,"",   528.246E-03,   499.744E-03,   171.170E-03,   7.72089E-03
C:/temp/dataset/7/20_2.odb,Step-1,Increment      1: Step Time =    1.000,"PART-1-1",           278,            5.,      -6.04167,            0.,NA,NA,"",   507.070E-03,   467.542E-03,   196.278E-03,   9.13148E-03
C:/temp/dataset/7/20_2.odb,Step-1,Increment      1: Step Time =    1.000,"PART-1-1",           279,       5.76552,      -7.08179,            0.,NA,NA,"",   455.009E-03,   425.568E-03,   161.013E-03,   7.87048E-03
C:/temp/dataset/7/20_2.odb,Step-1,Increment      1: Step Time =    1.000,"PART-1-1",           280,       8.25955,      -15.2021,            0.,NA,NA,"",   181.291E-03,   174.699E-03,   48.4452E-03,   3.72825E-03
C:/temp/dataset/7/20_2.odb,Step-1,Increment      1: Step Time =    1.000,"PART-1-1",           281,       9.23032,      -13.9562,            0.,NA,NA,"",   205.625E-03,   203.751E-03,   27.7013E-03,   2.04250E-03
C:/temp/dataset/7/20_2.odb,Step-1,Increment      1: Step Time =    1.000,"PART-1-1",           282,       8.16037,      -12.9544,            0.,NA,NA,"",   239.039E-03,   231.924E-03,   57.8868E-03,   3.87703E-03
C:/temp/dataset/7/20_2.odb,Step-1,Increment      1: Step Time =    1.000,"PART-1-1",           283,       7.18960,      -14.2003,            0.,NA,NA,"",   216.322E-03,   201.717E-03,   78.1350E-03,   5.56447E-03
C:/temp/dataset/7/20_2.odb,Step-1,Increment      1: Step Time =    1.000,"PART-1-1",           284,            5.,      -22.7083,            0.,NA,NA,"",   80.7619E-03,   51.7979E-03,   61.9634E-03,   9.55500E-03
C:/temp/dataset/7/20_2.odb,Step-1,Increment      1: Step Time =    1.000,"PART-1-1",           285,       5.97351,      -23.6835,            0.,NA,NA,"",   57.4974E-03,   37.2159E-03,   43.8284E-03,   7.87875E-03
C:/temp/dataset/7/20_2.odb,Step-1,Increment      1: Step Time =    1.000,"PART-1-1",           286,       6.71140,      -22.7416,            0.,NA,NA,"",   61.5742E-03,   45.1112E-03,   41.9090E-03,   6.55833E-03
C:/temp/dataset/7/20_2.odb,Step-1,Increment      1: Step Time =    1.000,"PART-1-1",           287,       5.73789,      -21.7664,            0.,NA,NA,"",   85.4971E-03,   60.6028E-03,   60.3080E-03,   8.22991E-03
C:/temp/dataset/7/20_2.odb,Step-1,Increment      1: Step Time =    1.000,"PART-1-1",           288,       9.95056,      -28.8261,            0.,NA,NA,"",   1.22814E-03,  -1.06805E-03,   606.311E-06,   928.510E-06
C:/temp/dataset/7/20_2.odb,Step-1,Increment      1: Step Time =    1.000,"PART-1-1",           289,       8.67404,      -27.7482,            0.,NA,NA,"",   5.77086E-03,   2.18547E-03,   5.34102E-03,   3.19183E-03
C:/temp/dataset/7/20_2.odb,Step-1,Increment      1: Step Time =    1.000,"PART-1-1",           290,       7.47347,      -28.9221,            0.,NA,NA,"",   4.06858E-03,   373.372E-06,   4.05141E-03,   4.68345E-03
C:/temp/dataset/7/20_2.odb,Step-1,Increment      1: Step Time =    1.000,"PART-1-1",           291,          8.75,          -30.,            0.,NA,NA,"",            0.,  -1.41539E-39,   4.57637E-39,   2.59662E-03
C:/temp/dataset/7/20_2.odb,Step-1,Increment      1: Step Time =    1.000,"PART-1-1",           292,       9.14805,      -24.1419,            0.,NA,NA,"",   27.5770E-03,   25.2267E-03,   11.1403E-03,   2.27808E-03
C:/temp/dataset/7/20_2.odb,Step-1,Increment      1: Step Time =    1.000,"PART-1-1",           293,       7.84454,      -23.3007,            0.,NA,NA,"",   44.6922E-03,   35.9031E-03,   26.6150E-03,   4.57013E-03
C:/temp/dataset/7/20_2.odb,Step-1,Increment      1: Step Time =    1.000,"PART-1-1",           294,       7.10828,      -24.6604,            0.,NA,NA,"",   36.6048E-03,   24.4386E-03,   27.2519E-03,   5.97188E-03
C:/temp/dataset/7/20_2.odb,Step-1,Increment      1: Step Time =    1.000,"PART-1-1",           295,       8.41180,      -25.5016,            0.,NA,NA,"",   20.0774E-03,   14.8247E-03,   13.5399E-03,   3.68937E-03
C:/temp/dataset/7/20_2.odb,Step-1,Increment      1: Step Time =    1.000,"PART-1-1",           296,       7.00425,      -21.1298,            0.,NA,NA,"",   80.4965E-03,   65.2372E-03,   47.1571E-03,   6.02134E-03
C:/temp/dataset/7/20_2.odb,Step-1,Increment      1: Step Time =    1.000,"PART-1-1",           297,       6.26636,      -19.9884,            0.,NA,NA,"",   106.817E-03,   84.8655E-03,   64.8677E-03,   7.27636E-03
C:/temp/dataset/7/20_2.odb,Step-1,Increment      1: Step Time =    1.000,"PART-1-1",           298,            5.,       -20.625,            0.,NA,NA,"",   112.782E-03,   79.8348E-03,   79.6628E-03,   9.52171E-03
C:/temp/dataset/7/20_2.odb,Step-1,Increment      1: Step Time =    1.000,"PART-1-1",           299,       12.8526,      -8.63250,            0.,NA,NA,"",   371.326E-03,   361.138E-03,  -86.3819E-03,   4.15099E-03
C:/temp/dataset/7/20_2.odb,Step-1,Increment      1: Step Time =    1.000,"PART-1-1",           300,       13.9581,      -9.97058,            0.,NA,NA,"",   339.886E-03,   319.626E-03,  -115.592E-03,   6.05911E-03
C:/temp/dataset/7/20_2.odb,Step-1,Increment      1: Step Time =    1.000,"PART-1-1",           301,           15.,         -8.75,            0.,NA,NA,"",   394.703E-03,   361.786E-03,  -157.803E-03,   7.81318E-03
C:/temp/dataset/7/20_2.odb,Step-1,Increment      1: Step Time =    1.000,"PART-1-1",           302,       13.8945,      -7.41192,            0.,NA,NA,"",   424.823E-03,   404.878E-03,  -128.641E-03,   5.90581E-03
C:/temp/dataset/7/20_2.odb,Step-1,Increment      1: Step Time =    1.000,"PART-1-1",           303,            5.,        10.625,            0.,NA,NA,"",       1.34383,       1.30780,   309.080E-03,   8.77657E-03
C:/temp/dataset/7/20_2.odb,Step-1,Increment      1: Step Time =    1.000,"PART-1-1",           304,       7.03988,       10.6820,            0.,NA,NA,"",       1.31365,       1.30089,   182.703E-03,   5.53103E-03
C:/temp/dataset/7/20_2.odb,Step-1,Increment      1: Step Time =    1.000,"PART-1-1",           305,       6.00589,       11.7004,            0.,NA,NA,"",       1.39341,       1.37054,   251.437E-03,   7.15210E-03
C:/temp/dataset/7/20_2.odb,Step-1,Increment      1: Step Time =    1.000,"PART-1-1",           306,       2.74639,       25.6366,            0.,NA,NA,"",       2.49418,       2.43146,   555.793E-03,   1.88581E-03
C:/temp/dataset/7/20_2.odb,Step-1,Increment      1: Step Time =    1.000,"PART-1-1",           307,       1.36653,       25.0307,            0.,NA,NA,"",       2.48033,       2.38521,   680.296E-03,   1.66398E-03
C:/temp/dataset/7/20_2.odb,Step-1,Increment      1: Step Time =    1.000,"PART-1-1",           308,       1.96853,       23.3303,            0.,NA,NA,"",       2.32244,       2.23469,   632.364E-03,   2.36872E-03
C:/temp/dataset/7/20_2.odb,Step-1,Increment      1: Step Time =    1.000,"PART-1-1",           309,       3.34839,       23.9361,            0.,NA,NA,"",       2.33821,       2.28248,   507.422E-03,   2.23137E-03
C:/temp/dataset/7/20_2.odb,Step-1,Increment      1: Step Time =    1.000,"PART-1-1",           310,       4.47216,       26.2029,            0.,NA,NA,"",       2.50407,       2.47108,   405.144E-03,   2.13231E-03
C:/temp/dataset/7/20_2.odb,Step-1,Increment      1: Step Time =    1.000,"PART-1-1",           311,       4.17993,       27.6633,            0.,NA,NA,"",       2.63263,       2.59779,   426.904E-03,   2.83720E-03
C:/temp/dataset/7/20_2.odb,Step-1,Increment      1: Step Time =    1.000,"PART-1-1",           312,       2.45416,       27.0970,            0.,NA,NA,"",       2.62379,       2.55942,   577.638E-03,   2.36231E-03
C:/temp/dataset/7/20_2.odb,Step-1,Increment      1: Step Time =    1.000,"PART-1-1",           313,      -1.66705,       28.8640,            0.,NA,NA,"",       2.89957,       2.74190,   943.133E-03,   2.72338E-03
C:/temp/dataset/7/20_2.odb,Step-1,Increment      1: Step Time =    1.000,"PART-1-1",           314,   261.919E-03,       29.0779,            0.,NA,NA,"",       2.85313,       2.74794,   767.577E-03,   3.48855E-03
C:/temp/dataset/7/20_2.odb,Step-1,Increment      1: Step Time =    1.000,"PART-1-1",           315,    -937.5E-03,           30.,            0.,NA,NA,"",       2.97129,       2.83996,   873.628E-03,   3.80099E-03
C:/temp/dataset/7/20_2.odb,Step-1,Increment      1: Step Time =    1.000,"PART-1-1",           316,          -15.,         21.25,            0.,NA,NA,"",       3.05678,       2.10443,       2.21705,   267.140E-06
C:/temp/dataset/7/20_2.odb,Step-1,Increment      1: Step Time =    1.000,"PART-1-1",           317,      -13.3250,           20.,            0.,NA,NA,"",       2.86416,       1.98201,       2.06763,   153.052E-06
C:/temp/dataset/7/20_2.odb,Step-1,Increment      1: Step Time =    1.000,"PART-1-1",           318,      -11.7925,       21.2083,            0.,NA,NA,"",       2.83697,       2.08663,       1.92208,   1.06009E-03
C:/temp/dataset/7/20_2.odb,Step-1,Increment      1: Step Time =    1.000,"PART-1-1",           319,       10.1137,       15.7319,            0.,NA,NA,"",       1.62470,       1.62460,  -17.2450E-03,   427.730E-06
C:/temp/dataset/7/20_2.odb,Step-1,Increment      1: Step Time =    1.000,"PART-1-1",           320,       9.02474,       16.2903,            0.,NA,NA,"",       1.66779,       1.66678,   58.2022E-03,   2.01919E-03
C:/temp/dataset/7/20_2.odb,Step-1,Increment      1: Step Time =    1.000,"PART-1-1",           321,       8.64023,       14.7706,            0.,NA,NA,"",       1.56482,       1.56249,   85.2610E-03,   2.82902E-03
C:/temp/dataset/7/20_2.odb,Step-1,Increment      1: Step Time =    1.000,"PART-1-1",           322,       9.72917,       14.2122,            0.,NA,NA,"",       1.52119,       1.52115,   11.6992E-03,   1.15194E-03
C:/temp/dataset/7/20_2.odb,Step-1,Increment      1: Step Time =    1.000,"PART-1-1",           323,       12.8210,       13.6438,            0.,NA,NA,"",       1.49072,       1.47804,  -194.014E-03,   3.88278E-03
C:/temp/dataset/7/20_2.odb,Step-1,Increment      1: Step Time =    1.000,"PART-1-1",           324,       13.9730,       12.4303,            0.,NA,NA,"",       1.42276,       1.39839,  -262.195E-03,   5.81514E-03
C:/temp/dataset/7/20_2.odb,Step-1,Increment      1: Step Time =    1.000,"PART-1-1",           325,           15.,         13.75,            0.,NA,NA,"",       1.52446,       1.48583,  -340.980E-03,   7.53132E-03
C:/temp/dataset/7/20_2.odb,Step-1,Increment      1: Step Time =    1.000,"PART-1-1",           326,       13.8481,       14.9635,            0.,NA,NA,"",       1.59058,       1.56707,  -272.444E-03,   5.59323E-03
C:/temp/dataset/7/20_2.odb,Step-1,Increment      1: Step Time =    1.000,"PART-1-1",           327,       10.1008,       2.87074,            0.,NA,NA,"",   847.716E-03,   847.715E-03,   1.00284E-03,   545.375E-06
C:/temp/dataset/7/20_2.odb,Step-1,Increment      1: Step Time =    1.000,"PART-1-1",           328,       9.07373,       1.83179,            0.,NA,NA,"",   799.206E-03,   797.488E-03,   52.3765E-03,   2.24358E-03
C:/temp/dataset/7/20_2.odb,Step-1,Increment      1: Step Time =    1.000,"PART-1-1",           329,       10.0520,   569.032E-03,            0.,NA,NA,"",   734.455E-03,   734.438E-03,   4.99110E-03,   624.552E-06
C:/temp/dataset/7/20_2.odb,Step-1,Increment      1: Step Time =    1.000,"PART-1-1",           330,       11.0790,       1.60798,            0.,NA,NA,"",   784.829E-03,   783.485E-03,  -45.9071E-03,   1.08625E-03
C:/temp/dataset/7/20_2.odb,Step-1,Increment      1: Step Time =    1.000,"PART-1-1",           331,       9.98138,      -1.74337,            0.,NA,NA,"",   628.660E-03,   628.592E-03,   9.23255E-03,   742.217E-06
C:/temp/dataset/7/20_2.odb,Step-1,Increment      1: Step Time =    1.000,"PART-1-1",           332,       8.90931,      -2.66004,            0.,NA,NA,"",   593.148E-03,   590.586E-03,   55.0718E-03,   2.53369E-03
C:/temp/dataset/7/20_2.odb,Step-1,Increment      1: Step Time =    1.000,"PART-1-1",           333,       9.84458,      -4.07679,            0.,NA,NA,"",   530.192E-03,   529.971E-03,   15.3029E-03,   971.850E-06
C:/temp/dataset/7/20_2.odb,Step-1,Increment      1: Step Time =    1.000,"PART-1-1",           334,       10.9167,      -3.16013,            0.,NA,NA,"",   567.584E-03,   566.818E-03,  -29.4864E-03,   834.999E-06
C:/temp/dataset/7/20_2.odb,Step-1,Increment      1: Step Time =    1.000,"PART-1-1",           335,            5.,      -3.95833,            0.,NA,NA,"",   589.111E-03,   549.752E-03,   211.719E-03,   9.08629E-03
C:/temp/dataset/7/20_2.odb,Step-1,Increment      1: Step Time =    1.000,"PART-1-1",           336,       6.75254,      -4.23112,            0.,NA,NA,"",   549.192E-03,   531.208E-03,   139.391E-03,   6.15841E-03
C:/temp/dataset/7/20_2.odb,Step-1,Increment      1: Step Time =    1.000,"PART-1-1",           337,       5.92661,      -3.07918,            0.,NA,NA,"",   609.167E-03,   582.169E-03,   179.343E-03,   7.52148E-03
C:/temp/dataset/7/20_2.odb,Step-1,Increment      1: Step Time =    1.000,"PART-1-1",           338,       7.06139,      -12.0396,            0.,NA,NA,"",   275.906E-03,   260.206E-03,   91.7455E-03,   5.75204E-03
C:/temp/dataset/7/20_2.odb,Step-1,Increment      1: Step Time =    1.000,"PART-1-1",           339,       5.99095,      -11.1126,            0.,NA,NA,"",   317.892E-03,   291.029E-03,   127.896E-03,   7.56411E-03
C:/temp/dataset/7/20_2.odb,Step-1,Increment      1: Step Time =    1.000,"PART-1-1",           340,            5.,      -12.2917,            0.,NA,NA,"",   299.869E-03,   260.800E-03,   148.002E-03,   9.28348E-03
C:/temp/dataset/7/20_2.odb,Step-1,Increment      1: Step Time =    1.000,"PART-1-1",           341,       6.07044,      -13.2187,            0.,NA,NA,"",   256.740E-03,   230.884E-03,   112.285E-03,   7.47118E-03
C:/temp/dataset/7/20_2.odb,Step-1,Increment      1: Step Time =    1.000,"PART-1-1",           342,       6.63644,      -8.02271,            0.,NA,NA,"",   408.424E-03,   388.830E-03,   124.985E-03,   6.41330E-03
C:/temp/dataset/7/20_2.odb,Step-1,Increment      1: Step Time =    1.000,"PART-1-1",           343,            5.,        -8.125,            0.,NA,NA,"",   431.520E-03,   391.953E-03,   180.505E-03,   9.18008E-03
C:/temp/dataset/7/20_2.odb,Step-1,Increment      1: Step Time =    1.000,"PART-1-1",           344,       5.87092,      -9.06592,            0.,NA,NA,"",   384.491E-03,   356.228E-03,   144.687E-03,   7.72254E-03
C:/temp/dataset/7/20_2.odb,Step-1,Increment      1: Step Time =    1.000,"PART-1-1",           345,       13.0826,      -13.6930,            0.,NA,NA,"",   223.025E-03,   211.409E-03,  -71.0388E-03,   4.62263E-03
C:/temp/dataset/7/20_2.odb,Step-1,Increment      1: Step Time =    1.000,"PART-1-1",           346,       14.0569,      -14.9678,            0.,NA,NA,"",   202.360E-03,   181.938E-03,  -88.5895E-03,   6.33591E-03
C:/temp/dataset/7/20_2.odb,Step-1,Increment      1: Step Time =    1.000,"PART-1-1",           347,           15.,        -13.75,            0.,NA,NA,"",   246.099E-03,   214.728E-03,  -120.235E-03,   7.94085E-03
C:/temp/dataset/7/20_2.odb,Step-1,Increment      1: Step Time =    1.000,"PART-1-1",           348,       14.0257,      -12.4752,            0.,NA,NA,"",   266.442E-03,   245.864E-03,  -102.675E-03,   6.22700E-03
C:/temp/dataset/7/20_2.odb,Step-1,Increment      1: Step Time =    1.000,"PART-1-1",           349,       8.13738,      -21.6888,            0.,NA,NA,"",   62.1229E-03,   54.8029E-03,   29.2559E-03,   4.03244E-03
C:/temp/dataset/7/20_2.odb,Step-1,Increment      1: Step Time =    1.000,"PART-1-1",           350,            5.,      -28.9583,            0.,NA,NA,"",   11.2105E-03,   6.99649E-03,   8.75931E-03,   9.64775E-03
C:/temp/dataset/7/20_2.odb,Step-1,Increment      1: Step Time =    1.000,"PART-1-1",           351,          6.25,          -30.,            0.,NA,NA,"",            0.,  -459.655E-42,   11.2642E-39,   6.92334E-03
C:/temp/dataset/7/20_2.odb,Step-1,Increment      1: Step Time =    1.000,"PART-1-1",           352,       6.22347,      -27.8804,            0.,NA,NA,"",   14.7266E-03,   6.73334E-03,   13.0972E-03,   7.62544E-03
C:/temp/dataset/7/20_2.odb,Step-1,Increment      1: Step Time =    1.000,"PART-1-1",           353,           15.,        -28.75,            0.,NA,NA,"",   10.6725E-03,   6.15138E-03,  -8.72136E-03,   8.09282E-03
C:/temp/dataset/7/20_2.odb,Step-1,Increment      1: Step Time =    1.000,"PART-1-1",           354,       13.6900,      -27.4695,            0.,NA,NA,"",   14.1336E-03,   6.32006E-03,  -12.6418E-03,   6.15922E-03
C:/temp/dataset/7/20_2.odb,Step-1,Increment      1: Step Time =    1.000,"PART-1-1",           355,       12.4400,      -28.7195,            0.,NA,NA,"",   3.50581E-03,  -21.8444E-06,  -3.50574E-03,   3.43464E-03
C:/temp/dataset/7/20_2.odb,Step-1,Increment      1: Step Time =    1.000,"PART-1-1",           356,         13.75,          -30.,            0.,NA,NA,"",            0.,  -985.631E-42,  -8.97226E-39,   5.47580E-03
C:/temp/dataset/7/20_2.odb,Step-1,Increment      1: Step Time =    1.000,"PART-1-1",           357,       9.58617,      -22.6245,            0.,NA,NA,"",   42.0008E-03,   41.0137E-03,   9.05200E-03,   1.49144E-03
C:/temp/dataset/7/20_2.odb,Step-1,Increment      1: Step Time =    1.000,"PART-1-1",           358,       10.0221,      -21.0980,            0.,NA,NA,"",   60.9556E-03,   60.7652E-03,   4.81373E-03,   703.701E-06
C:/temp/dataset/7/20_2.odb,Step-1,Increment      1: Step Time =    1.000,"PART-1-1",           359,       8.57328,      -20.1623,            0.,NA,NA,"",   81.2193E-03,   76.3119E-03,   27.8041E-03,   3.23398E-03
C:/temp/dataset/7/20_2.odb,Step-1,Increment      1: Step Time =    1.000,"PART-1-1",           360,       11.1406,      -27.5456,            0.,NA,NA,"",   3.44138E-03,   2.12357E-03,  -2.70805E-03,   1.53791E-03
C:/temp/dataset/7/20_2.odb,Step-1,Increment      1: Step Time =    1.000,"PART-1-1",           361,         11.25,          -30.,            0.,NA,NA,"",            0.,  -1.65195E-39,  -2.51697E-39,   1.82422E-03
C:/temp/dataset/7/20_2.odb,Step-1,Increment      1: Step Time =    1.000,"PART-1-1",           362,       11.2605,      -16.1933,            0.,NA,NA,"",   151.091E-03,   149.755E-03,  -20.0456E-03,   1.49099E-03
C:/temp/dataset/7/20_2.odb,Step-1,Increment      1: Step Time =    1.000,"PART-1-1",           363,       10.2521,      -15.0492,            0.,NA,NA,"",   175.954E-03,   175.943E-03,   1.93351E-03,   298.248E-06
C:/temp/dataset/7/20_2.odb,Step-1,Increment      1: Step Time =    1.000,"PART-1-1",           364,       9.32474,      -16.3084,            0.,NA,NA,"",   149.535E-03,   147.908E-03,   22.0015E-03,   1.89031E-03
C:/temp/dataset/7/20_2.odb,Step-1,Increment      1: Step Time =    1.000,"PART-1-1",           365,       10.3331,      -17.4526,            0.,NA,NA,"",   123.246E-03,   123.245E-03,   319.819E-06,   182.803E-06
C:/temp/dataset/7/20_2.odb,Step-1,Increment      1: Step Time =    1.000,"PART-1-1",           366,       7.44248,      -19.0256,            0.,NA,NA,"",   109.957E-03,   97.6411E-03,   50.5642E-03,   5.20527E-03
C:/temp/dataset/7/20_2.odb,Step-1,Increment      1: Step Time =    1.000,"PART-1-1",           367,       6.17612,      -17.5789,            0.,NA,NA,"",   152.500E-03,   128.616E-03,   81.9399E-03,   7.38314E-03
C:/temp/dataset/7/20_2.odb,Step-1,Increment      1: Step Time =    1.000,"PART-1-1",           368,            5.,      -18.5417,            0.,NA,NA,"",   150.341E-03,   114.779E-03,   97.0995E-03,   9.45857E-03
C:/temp/dataset/7/20_2.odb,Step-1,Increment      1: Step Time =    1.000,"PART-1-1",           369,       12.8407,      -6.03443,            0.,NA,NA,"",   463.648E-03,   453.338E-03,  -97.2325E-03,   4.09557E-03
C:/temp/dataset/7/20_2.odb,Step-1,Increment      1: Step Time =    1.000,"PART-1-1",           370,           15.,         -6.25,            0.,NA,NA,"",   483.085E-03,   449.555E-03,  -176.837E-03,   7.75497E-03
C:/temp/dataset/7/20_2.odb,Step-1,Increment      1: Step Time =    1.000,"PART-1-1",           371,       13.9462,      -4.87251,            0.,NA,NA,"",   520.371E-03,   499.510E-03,  -145.864E-03,   5.94601E-03
C:/temp/dataset/7/20_2.odb,Step-1,Increment      1: Step Time =    1.000,"PART-1-1",           372,       7.64514,      -8.69832,            0.,NA,NA,"",   373.081E-03,   362.593E-03,   87.8401E-03,   4.71710E-03
C:/temp/dataset/7/20_2.odb,Step-1,Increment      1: Step Time =    1.000,"PART-1-1",           373,       8.20020,      -7.75016,            0.,NA,NA,"",   400.358E-03,   393.836E-03,   71.9681E-03,   3.76107E-03
C:/temp/dataset/7/20_2.odb,Step-1,Increment      1: Step Time =    1.000,"PART-1-1",           374,       7.19150,      -7.07454,            0.,NA,NA,"",   434.789E-03,   420.652E-03,   109.968E-03,   5.44334E-03
C:/temp/dataset/7/20_2.odb,Step-1,Increment      1: Step Time =    1.000,"PART-1-1",           375,       7.97278,      -1.35169,            0.,NA,NA,"",   657.589E-03,   650.180E-03,   98.4301E-03,   4.08753E-03
C:/temp/dataset/7/20_2.odb,Step-1,Increment      1: Step Time =    1.000,"PART-1-1",           376,       9.01285,  -423.179E-03,            0.,NA,NA,"",   691.862E-03,   689.814E-03,   53.1942E-03,   2.35301E-03
C:/temp/dataset/7/20_2.odb,Step-1,Increment      1: Step Time =    1.000,"PART-1-1",           377,       8.04185,   850.611E-03,            0.,NA,NA,"",   759.011E-03,   752.283E-03,   100.834E-03,   3.95609E-03
C:/temp/dataset/7/20_2.odb,Step-1,Increment      1: Step Time =    1.000,"PART-1-1",           378,       8.08837,       3.05311,            0.,NA,NA,"",   867.889E-03,   861.688E-03,   103.558E-03,   3.86451E-03
C:/temp/dataset/7/20_2.odb,Step-1,Increment      1: Step Time =    1.000,"PART-1-1",           379,       9.11337,       4.08618,            0.,NA,NA,"",   914.202E-03,   912.729E-03,   51.8788E-03,   2.17318E-03
C:/temp/dataset/7/20_2.odb,Step-1,Increment      1: Step Time =    1.000,"PART-1-1",           380,       8.10868,       5.26217,            0.,NA,NA,"",   984.565E-03,   978.731E-03,   107.017E-03,   3.81912E-03
C:/temp/dataset/7/20_2.odb,Step-1,Increment      1: Step Time =    1.000,"PART-1-1",           381,       7.08888,       6.39331,            0.,NA,NA,"",       1.05836,       1.04523,   166.186E-03,   5.48239E-03
C:/temp/dataset/7/20_2.odb,Step-1,Increment      1: Step Time =    1.000,"PART-1-1",           382,            5.,       6.45833,            0.,NA,NA,"",       1.09618,       1.05892,   283.359E-03,   8.88990E-03
C:/temp/dataset/7/20_2.odb,Step-1,Increment      1: Step Time =    1.000,"PART-1-1",           383,           15.,         16.25,            0.,NA,NA,"",       1.69657,       1.65710,  -363.851E-03,   7.39808E-03
C:/temp/dataset/7/20_2.odb,Step-1,Increment      1: Step Time =    1.000,"PART-1-1",           384,       13.6214,       17.6671,            0.,NA,NA,"",       1.78006,       1.75852,  -276.047E-03,   5.10785E-03
C:/temp/dataset/7/20_2.odb,Step-1,Increment      1: Step Time =    1.000,"PART-1-1",           385,       12.4694,       16.3805,            0.,NA,NA,"",       1.67676,       1.66651,  -185.156E-03,   3.34677E-03
C:/temp/dataset/7/20_2.odb,Step-1,Increment      1: Step Time =    1.000,"PART-1-1",           386,       10.0881,       9.74649,            0.,NA,NA,"",       1.23295,       1.23293,  -5.63760E-03,   596.106E-06
C:/temp/dataset/7/20_2.odb,Step-1,Increment      1: Step Time =    1.000,"PART-1-1",           387,       9.10561,       8.57814,            0.,NA,NA,"",       1.16620,       1.16494,   54.0203E-03,   2.19264E-03
C:/temp/dataset/7/20_2.odb,Step-1,Increment      1: Step Time =    1.000,"PART-1-1",           388,       10.1162,       7.46436,            0.,NA,NA,"",       1.09733,       1.09732,  -4.42445E-03,   532.940E-06
C:/temp/dataset/7/20_2.odb,Step-1,Increment      1: Step Time =    1.000,"PART-1-1",           389,       11.0986,       8.63272,            0.,NA,NA,"",       1.16589,       1.16413,  -64.1630E-03,   1.07382E-03
C:/temp/dataset/7/20_2.odb,Step-1,Increment      1: Step Time =    1.000,"PART-1-1",           390,       9.96644,       19.4124,            0.,NA,NA,"",       1.89337,       1.89330,  -16.6960E-03,   1.78536E-03
C:/temp/dataset/7/20_2.odb,Step-1,Increment      1: Step Time =    1.000,"PART-1-1",           391,       10.9020,       20.3065,            0.,NA,NA,"",       1.96287,       1.96081,  -89.9118E-03,   2.66219E-03
C:/temp/dataset/7/20_2.odb,Step-1,Increment      1: Step Time =    1.000,"PART-1-1",           392,       10.1153,       21.2880,            0.,NA,NA,"",       2.03990,       2.03961,  -34.6670E-03,   2.96922E-03
C:/temp/dataset/7/20_2.odb,Step-1,Increment      1: Step Time =    1.000,"PART-1-1",           393,       9.17975,       20.3940,            0.,NA,NA,"",       1.97110,       1.97071,   39.1133E-03,   2.36489E-03
C:/temp/dataset/7/20_2.odb,Step-1,Increment      1: Step Time =    1.000,"PART-1-1",           394,           15.,         28.75,            0.,NA,NA,"",       2.67450,       2.63645,  -449.521E-03,   126.515E-06
C:/temp/dataset/7/20_2.odb,Step-1,Increment      1: Step Time =    1.000,"PART-1-1",           395,       14.0625,           30.,            0.,NA,NA,"",       2.76641,       2.74047,  -377.933E-03,   117.133E-06
C:/temp/dataset/7/20_2.odb,Step-1,Increment      1: Step Time =    1.000,"PART-1-1",           396,       13.1487,       28.7914,            0.,NA,NA,"",       2.66296,       2.64594,  -300.570E-03,   735.349E-06
C:/temp/dataset/7/20_2.odb,Step-1,Increment      1: Step Time =    1.000,"PART-1-1",           397,       14.0862,       27.5414,            0.,NA,NA,"",       2.56817,       2.54117,  -371.374E-03,   827.332E-06
C:/temp/dataset/7/20_2.odb,Step-1,Increment      1: Step Time =    1.000,"PART-1-1",           398,       12.2440,       25.2848,            0.,NA,NA,"",       2.37090,       2.36109,  -215.530E-03,   2.90002E-03
C:/temp/dataset/7/20_2.odb,Step-1,Increment      1: Step Time =    1.000,"PART-1-1",           399,       13.1763,       26.3811,            0.,NA,NA,"",       2.46635,       2.44879,  -293.852E-03,   2.06559E-03
C:/temp/dataset/7/20_2.odb,Step-1,Increment      1: Step Time =    1.000,"PART-1-1",           400,       12.2376,       27.6217,            0.,NA,NA,"",       2.56354,       2.55373,  -224.092E-03,   1.90864E-03
C:/temp/dataset/7/20_2.odb,Step-1,Increment      1: Step Time =    1.000,"PART-1-1",           401,       11.3053,       26.5254,            0.,NA,NA,"",       2.47098,       2.46662,  -146.689E-03,   2.77901E-03
C:/temp/dataset/7/20_2.odb,Step-1,Increment      1: Step Time =    1.000,"PART-1-1",           402,       12.1875,           30.,            0.,NA,NA,"",       2.75622,       2.74681,  -227.529E-03,   721.838E-06
C:/temp/dataset/7/20_2.odb,Step-1,Increment      1: Step Time =    1.000,"PART-1-1",           403,        6.5625,           30.,            0.,NA,NA,"",       2.78769,       2.77871,   223.674E-03,   4.56360E-03
C:/temp/dataset/7/20_2.odb,Step-1,Increment      1: Step Time =    1.000,"PART-1-1",           404,       5.40000,       28.6589,            0.,NA,NA,"",       2.69401,       2.67470,   322.026E-03,   3.78211E-03
C:/temp/dataset/7/20_2.odb,Step-1,Increment      1: Step Time =    1.000,"PART-1-1",           405,       6.32063,       27.5176,            0.,NA,NA,"",       2.58442,       2.57249,   248.030E-03,   2.85260E-03
C:/temp/dataset/7/20_2.odb,Step-1,Increment      1: Step Time =    1.000,"PART-1-1",           406,        2.8125,           30.,            0.,NA,NA,"",       2.86109,       2.80962,   540.294E-03,   5.13905E-03
C:/temp/dataset/7/20_2.odb,Step-1,Increment      1: Step Time =    1.000,"PART-1-1",           407,       1.86631,       29.3706,            0.,NA,NA,"",       2.83164,       2.76200,   624.122E-03,   4.24116E-03
C:/temp/dataset/7/20_2.odb,Step-1,Increment      1: Step Time =    1.000,"PART-1-1",           408,       2.52123,       28.3750,            0.,NA,NA,"",       2.72998,       2.67008,   568.723E-03,   3.30881E-03
C:/temp/dataset/7/20_2.odb,Step-1,Increment      1: Step Time =    1.000,"PART-1-1",           409,       3.46742,       29.0044,            0.,NA,NA,"",       2.76094,       2.71796,   485.308E-03,   4.14650E-03
C:/temp/dataset/7/20_2.odb,Step-1,Increment      1: Step Time =    1.000,"PART-1-1",           410,       1.19073,       28.4486,            0.,NA,NA,"",       2.77184,       2.68560,   686.025E-03,   3.21040E-03
C:/temp/dataset/7/20_2.odb,Step-1,Increment      1: Step Time =    1.000,"PART-1-1",           411,      -2.48443,       27.9761,            0.,NA,NA,"",       2.85535,       2.66657,       1.02097,   2.19326E-03
C:/temp/dataset/7/20_2.odb,Step-1,Increment      1: Step Time =    1.000,"PART-1-1",           412,       -2.8125,           30.,            0.,NA,NA,"",       3.03878,       2.85349,       1.04488,   2.93170E-03
C:/temp/dataset/7/20_2.odb,Step-1,Increment      1: Step Time =    1.000,"PART-1-1",           413,      -7.28733,       29.0238,            0.,NA,NA,"",       3.15054,       2.78964,       1.46419,   991.262E-06
C:/temp/dataset/7/20_2.odb,Step-1,Increment      1: Step Time =    1.000,"PART-1-1",           414,      -6.19423,       28.1363,            0.,NA,NA,"",       3.02728,       2.70189,       1.36537,   1.43374E-03
C:/temp/dataset/7/20_2.odb,Step-1,Increment      1: Step Time =    1.000,"PART-1-1",           415,       -6.5625,           30.,            0.,NA,NA,"",       3.19607,       2.87668,       1.39268,   1.30829E-03
C:/temp/dataset/7/20_2.odb,Step-1,Increment      1: Step Time =    1.000,"PART-1-1",           416,      -11.8079,       27.5253,            0.,NA,NA,"",       3.27454,       2.67179,       1.89318,   309.188E-06
C:/temp/dataset/7/20_2.odb,Step-1,Increment      1: Step Time =    1.000,"PART-1-1",           417,      -12.6125,       26.1842,            0.,NA,NA,"",       3.22553,       2.55086,       1.97411,   290.752E-06
C:/temp/dataset/7/20_2.odb,Step-1,Increment      1: Step Time =    1.000,"PART-1-1",           418,      -8.13992,       23.4434,            0.,NA,NA,"",       2.76772,       2.28013,       1.56885,   1.82054E-03
C:/temp/dataset/7/20_2.odb,Step-1,Increment      1: Step Time =    1.000,"PART-1-1",           419,       -8.4375,           30.,            0.,NA,NA,"",       3.28475,       2.88644,       1.56782,   669.990E-06
C:/temp/dataset/7/20_2.odb,Step-1,Increment      1: Step Time =    1.000,"PART-1-1",           420,      -8.00049,       27.9480,            0.,NA,NA,"",       3.10043,       2.69361,       1.53530,   1.05406E-03
C:/temp/dataset/7/20_2.odb,Step-1,Increment      1: Step Time =    1.000,"PART-1-1",           421,      -12.1875,           30.,            0.,NA,NA,"",       3.47973,       2.90355,       1.91780,   45.1400E-06
C:/temp/dataset/7/20_2.odb,Step-1,Increment      1: Step Time =    1.000,"PART-1-1",           422,          -15.,         26.25,            0.,NA,NA,"",       3.37805,       2.56716,       2.19566,   26.0921E-06
C:/temp/dataset/7/20_2.odb,Step-1,Increment      1: Step Time =    1.000,"PART-1-1",           423,  -614.199E-03,       25.3895,            0.,NA,NA,"",       2.57279,       2.42539,   858.318E-03,   1.78404E-03
C:/temp/dataset/7/20_2.odb,Step-1,Increment      1: Step Time =    1.000,"PART-1-1",           424,      -1.97220,       26.8586,            0.,NA,NA,"",       2.74314,       2.56304,   977.584E-03,   1.98280E-03
C:/temp/dataset/7/20_2.odb,Step-1,Increment      1: Step Time =    1.000,"PART-1-1",           425,      -1.74113,       25.3247,            0.,NA,NA,"",       2.60845,       2.42459,   961.960E-03,   1.81649E-03
C:/temp/dataset/7/20_2.odb,Step-1,Increment      1: Step Time =    1.000,"PART-1-1",           426,       8.18659,       21.6045,            0.,NA,NA,"",       2.07217,       2.06918,   111.341E-03,   3.24826E-03
C:/temp/dataset/7/20_2.odb,Step-1,Increment      1: Step Time =    1.000,"PART-1-1",           427,       9.25192,       22.4602,            0.,NA,NA,"",       2.13647,       2.13630,   27.0038E-03,   3.38359E-03
C:/temp/dataset/7/20_2.odb,Step-1,Increment      1: Step Time =    1.000,"PART-1-1",           428,       8.38526,       23.6138,            0.,NA,NA,"",       2.23610,       2.23425,   90.8811E-03,   3.42006E-03
C:/temp/dataset/7/20_2.odb,Step-1,Increment      1: Step Time =    1.000,"PART-1-1",           429,       7.31993,       22.7581,            0.,NA,NA,"",       2.17377,       2.16659,   176.502E-03,   3.39120E-03
C:/temp/dataset/7/20_2.odb,Step-1,Increment      1: Step Time =    1.000,"PART-1-1",           430,           15.,         26.25,            0.,NA,NA,"",       2.47245,       2.43295,  -440.181E-03,   1.31753E-03
C:/temp/dataset/7/20_2.odb,Step-1,Increment      1: Step Time =    1.000,"PART-1-1",           431,        4.6875,           30.,            0.,NA,NA,"",       2.81946,       2.79377,   379.737E-03,   5.14832E-03
C:/temp/dataset/7/20_2.odb,Step-1,Increment      1: Step Time =    1.000,"PART-1-1",           432,       9.38339,       24.5308,            0.,NA,NA,"",       2.30736,       2.30734,   10.3171E-03,   3.51987E-03
C:/temp/dataset/7/20_2.odb,Step-1,Increment      1: Step Time =    1.000,"PART-1-1",           433,       8.53172,       25.6694,            0.,NA,NA,"",       2.40704,       2.40590,   74.0206E-03,   3.22483E-03
C:/temp/dataset/7/20_2.odb,Step-1,Increment      1: Step Time =    1.000,"PART-1-1",           434,       7.53359,       24.7524,            0.,NA,NA,"",       2.33821,       2.33303,   155.587E-03,   3.15509E-03
C:/temp/dataset/7/20_2.odb,Step-1,Increment      1: Step Time =    1.000,"PART-1-1",           435,     937.5E-03,           30.,            0.,NA,NA,"",       2.91193,       2.82526,   705.151E-03,   4.59685E-03
C:/temp/dataset/7/20_2.odb,Step-1,Increment      1: Step Time =    1.000,"PART-1-1",           436,       5.64845,       26.5466,            0.,NA,NA,"",       2.51263,       2.49398,   305.579E-03,   2.60317E-03
C:/temp/dataset/7/20_2.odb,Step-1,Increment      1: Step Time =    1.000,"PART-1-1",           437,       4.65082,       24.6490,            0.,NA,NA,"",       2.37026,       2.33741,   393.252E-03,   2.00131E-03
C:/temp/dataset/7/20_2.odb,Step-1,Increment      1: Step Time =    1.000,"PART-1-1",           438,       5.82711,       24.9927,            0.,NA,NA,"",       2.37928,       2.36107,   293.806E-03,   2.32606E-03
C:/temp/dataset/7/20_2.odb,Step-1,Increment      1: Step Time =    1.000,"PART-1-1",           439,      -3.57200,       27.5772,            0.,NA,NA,"",       2.86576,       2.63658,       1.12294,   1.90329E-03
C:/temp/dataset/7/20_2.odb,Step-1,Increment      1: Step Time =    1.000,"PART-1-1",           440,      -3.05977,       26.4597,            0.,NA,NA,"",       2.75320,       2.53274,       1.07949,   1.83395E-03
C:/temp/dataset/7/20_2.odb,Step-1,Increment      1: Step Time =    1.000,"PART-1-1",           441,      -4.23358,       26.7178,            0.,NA,NA,"",       2.82391,       2.56203,       1.18764,   1.80025E-03
C:/temp/dataset/7/20_2.odb,Step-1,Increment      1: Step Time =    1.000,"PART-1-1",           442,      -5.07335,       27.3652,            0.,NA,NA,"",       2.91354,       2.62530,       1.26353,   1.64371E-03
C:/temp/dataset/7/20_2.odb,Step-1,Increment      1: Step Time =    1.000,"PART-1-1",           443,      -5.65848,       26.3267,            0.,NA,NA,"",       2.85776,       2.53341,       1.32236,   1.69969E-03
C:/temp/dataset/7/20_2.odb,Step-1,Increment      1: Step Time =    1.000,"PART-1-1",           444,      -6.77936,       27.0978,            0.,NA,NA,"",       2.97279,       2.60938,       1.42430,   1.40234E-03
C:/temp/dataset/7/20_2.odb,Step-1,Increment      1: Step Time =    1.000,"PART-1-1",           445,       13.0726,       6.26892,            0.,NA,NA,"",       1.04093,       1.02723,  -168.335E-03,   4.34929E-03
C:/temp/dataset/7/20_2.odb,Step-1,Increment      1: Step Time =    1.000,"PART-1-1",           446,       14.0382,       5.02867,            0.,NA,NA,"",   983.624E-03,   960.079E-03,  -213.928E-03,   5.95406E-03
C:/temp/dataset/7/20_2.odb,Step-1,Increment      1: Step Time =    1.000,"PART-1-1",           447,           15.,          6.25,            0.,NA,NA,"",       1.06475,       1.02830,  -276.201E-03,   7.52763E-03
C:/temp/dataset/7/20_2.odb,Step-1,Increment      1: Step Time =    1.000,"PART-1-1",           448,       14.0344,       7.49025,            0.,NA,NA,"",       1.12096,       1.09697,  -230.681E-03,   5.92359E-03
C:/temp/dataset/7/20_2.odb,Step-1,Increment      1: Step Time =    1.000,"PART-1-1",           449,            5.,       12.7083,            0.,NA,NA,"",       1.47706,       1.44173,   321.143E-03,   8.71441E-03
C:/temp/dataset/7/20_2.odb,Step-1,Increment      1: Step Time =    1.000,"PART-1-1",           450,       6.97129,       12.7632,            0.,NA,NA,"",       1.44777,       1.43482,   193.205E-03,   5.62085E-03
C:/temp/dataset/7/20_2.odb,Step-1,Increment      1: Step Time =    1.000,"PART-1-1",           451,       8.08110,       9.66220,            0.,NA,NA,"",       1.23904,       1.23356,   116.404E-03,   3.85349E-03
C:/temp/dataset/7/20_2.odb,Step-1,Increment      1: Step Time =    1.000,"PART-1-1",           452,       8.10192,       7.46894,            0.,NA,NA,"",       1.10857,       1.10295,   111.484E-03,   3.82282E-03
C:/temp/dataset/7/20_2.odb,Step-1,Increment      1: Step Time =    1.000,"PART-1-1",           453,            5.,        -1.875,            0.,NA,NA,"",   677.628E-03,   638.545E-03,   226.806E-03,   9.04340E-03
C:/temp/dataset/7/20_2.odb,Step-1,Increment      1: Step Time =    1.000,"PART-1-1",           454,       6.91011,      -2.19684,            0.,NA,NA,"",   632.385E-03,   616.230E-03,   142.030E-03,   5.87040E-03
C:/temp/dataset/7/20_2.odb,Step-1,Increment      1: Step Time =    1.000,"PART-1-1",           455,       11.0205,  -751.161E-03,            0.,NA,NA,"",   673.132E-03,   672.042E-03,  -38.3022E-03,   999.135E-06
C:/temp/dataset/7/20_2.odb,Step-1,Increment      1: Step Time =    1.000,"PART-1-1",           456,       13.1408,      -16.1676,            0.,NA,NA,"",   164.339E-03,   152.484E-03,  -61.2882E-03,   4.76610E-03
C:/temp/dataset/7/20_2.odb,Step-1,Increment      1: Step Time =    1.000,"PART-1-1",           457,       14.0839,      -17.4497,            0.,NA,NA,"",   147.870E-03,   127.825E-03,  -74.3403E-03,   6.44153E-03
C:/temp/dataset/7/20_2.odb,Step-1,Increment      1: Step Time =    1.000,"PART-1-1",           458,           15.,        -16.25,            0.,NA,NA,"",   185.826E-03,   155.581E-03,  -101.617E-03,   8.01168E-03
C:/temp/dataset/7/20_2.odb,Step-1,Increment      1: Step Time =    1.000,"PART-1-1",           459,            5.,       -14.375,            0.,NA,NA,"",   243.714E-03,   205.319E-03,   131.305E-03,   9.34042E-03
C:/temp/dataset/7/20_2.odb,Step-1,Increment      1: Step Time =    1.000,"PART-1-1",           460,       6.11916,      -15.3567,            0.,NA,NA,"",   202.063E-03,   177.021E-03,   97.4326E-03,   7.43381E-03
C:/temp/dataset/7/20_2.odb,Step-1,Increment      1: Step Time =    1.000,"PART-1-1",           461,       13.0403,       1.40949,            0.,NA,NA,"",   786.569E-03,   773.824E-03,  -141.022E-03,   4.34332E-03
C:/temp/dataset/7/20_2.odb,Step-1,Increment      1: Step Time =    1.000,"PART-1-1",           462,       14.0142,   96.5788E-03,            0.,NA,NA,"",   734.924E-03,   712.536E-03,  -180.016E-03,   5.98099E-03
C:/temp/dataset/7/20_2.odb,Step-1,Increment      1: Step Time =    1.000,"PART-1-1",           463,           15.,          1.25,            0.,NA,NA,"",   804.291E-03,   769.055E-03,  -235.452E-03,   7.60293E-03
C:/temp/dataset/7/20_2.odb,Step-1,Increment      1: Step Time =    1.000,"PART-1-1",           464,       14.0261,       2.56291,            0.,NA,NA,"",   854.790E-03,   831.842E-03,  -196.736E-03,   5.96538E-03
C:/temp/dataset/7/20_2.odb,Step-1,Increment      1: Step Time =    1.000,"PART-1-1",           465,            5.,      -10.2083,            0.,NA,NA,"",   362.457E-03,   323.027E-03,   164.405E-03,   9.22988E-03
C:/temp/dataset/7/20_2.odb,Step-1,Increment      1: Step Time =    1.000,"PART-1-1",           466,       6.86187,      -9.97015,            0.,NA,NA,"",   340.751E-03,   323.270E-03,   107.740E-03,   6.05798E-03
C:/temp/dataset/7/20_2.odb,Step-1,Increment      1: Step Time =    1.000,"PART-1-1",           467,            5.,      -24.7917,            0.,NA,NA,"",   53.8105E-03,   30.7077E-03,   44.1883E-03,   9.49964E-03
C:/temp/dataset/7/20_2.odb,Step-1,Increment      1: Step Time =    1.000,"PART-1-1",           468,       6.13477,      -25.7685,            0.,NA,NA,"",   33.8257E-03,   18.8698E-03,   28.0733E-03,   7.61683E-03
C:/temp/dataset/7/20_2.odb,Step-1,Increment      1: Step Time =    1.000,"PART-1-1",           469,       13.1299,      -20.9468,            0.,NA,NA,"",   76.5460E-03,   65.4629E-03,  -39.6724E-03,   4.83493E-03
C:/temp/dataset/7/20_2.odb,Step-1,Increment      1: Step Time =    1.000,"PART-1-1",           470,       14.0295,      -22.3095,            0.,NA,NA,"",   66.6014E-03,   49.4454E-03,  -44.6195E-03,   6.49049E-03
C:/temp/dataset/7/20_2.odb,Step-1,Increment      1: Step Time =    1.000,"PART-1-1",           471,           15.,        -21.25,            0.,NA,NA,"",   92.5680E-03,   66.4286E-03,  -64.4676E-03,   8.17947E-03
C:/temp/dataset/7/20_2.odb,Step-1,Increment      1: Step Time =    1.000,"PART-1-1",           472,       14.1003,      -19.8873,            0.,NA,NA,"",   103.246E-03,   84.0015E-03,  -60.0297E-03,   6.52995E-03
C:/temp/dataset/7/20_2.odb,Step-1,Increment      1: Step Time =    1.000,"PART-1-1",           473,            5.,       -26.875,            0.,NA,NA,"",   31.3790E-03,   16.4584E-03,   26.7163E-03,   9.51980E-03
C:/temp/dataset/7/20_2.odb,Step-1,Increment      1: Step Time =    1.000,"PART-1-1",           474,       7.35824,      -26.7740,            0.,NA,NA,"",   17.1805E-03,   8.95309E-03,   14.6632E-03,   5.55096E-03
C:/temp/dataset/7/20_2.odb,Step-1,Increment      1: Step Time =    1.000,"PART-1-1",           475,       11.2665,      -23.4125,            0.,NA,NA,"",   33.3987E-03,   32.0777E-03,  -9.30043E-03,   1.57983E-03
C:/temp/dataset/7/20_2.odb,Step-1,Increment      1: Step Time =    1.000,"PART-1-1",           476,       10.8283,      -24.9299,            0.,NA,NA,"",   17.9981E-03,   17.6213E-03,  -3.66344E-03,   829.325E-06
C:/temp/dataset/7/20_2.odb,Step-1,Increment      1: Step Time =    1.000,"PART-1-1",           477,            5.,      -16.4583,            0.,NA,NA,"",   193.920E-03,   156.629E-03,   114.334E-03,   9.39808E-03
C:/temp/dataset/7/20_2.odb,Step-1,Increment      1: Step Time =    1.000,"PART-1-1",           478,       7.29529,      -16.4772,            0.,NA,NA,"",   161.742E-03,   148.069E-03,   65.0831E-03,   5.41847E-03
C:/temp/dataset/7/20_2.odb,Step-1,Increment      1: Step Time =    1.000,"PART-1-1",           479,            5.,       18.9583,            0.,NA,NA,"",       1.90925,       1.87557,   357.043E-03,   12.1502E-03
C:/temp/dataset/7/20_2.odb,Step-1,Increment      1: Step Time =    1.000,"PART-1-1",           480,       6.05050,       17.7875,            0.,NA,NA,"",       1.80600,       1.78512,   273.870E-03,   7.33801E-03
C:/temp/dataset/7/20_2.odb,Step-1,Increment      1: Step Time =    1.000,"PART-1-1",           481,       7.11573,       18.6629,            0.,NA,NA,"",       1.85383,       1.84330,   197.322E-03,   3.70769E-03
C:/temp/dataset/7/20_2.odb,Step-1,Increment      1: Step Time =    1.000,"PART-1-1",           482,       6.06524,       19.8338,            0.,NA,NA,"",       1.95217,       1.93215,   278.853E-03,   7.24137E-03
C:/temp/dataset/7/20_2.odb,Step-1,Increment      1: Step Time =    1.000,"PART-1-1",           483,       6.98524,       16.7251,            0.,NA,NA,"",       1.71728,       1.70524,   202.969E-03,   5.52768E-03
C:/temp/dataset/7/20_2.odb,Step-1,Increment      1: Step Time =    1.000,"PART-1-1",           484,            5.,        16.875,            0.,NA,NA,"",       1.76100,       1.72723,   343.212E-03,   8.91219E-03
C:/temp/dataset/7/20_2.odb,Step-1,Increment      1: Step Time =    1.000,"PART-1-1",           485,       7.88091,       13.8682,            0.,NA,NA,"",       1.51036,       1.50425,   135.694E-03,   4.14887E-03
C:/temp/dataset/7/20_2.odb,Step-1,Increment      1: Step Time =    1.000,"PART-1-1",           486,       7.65947,       15.6945,            0.,NA,NA,"",       1.63721,       1.62999,   153.531E-03,   4.46654E-03
C:/temp/dataset/7/20_2.odb,Step-1,Increment      1: Step Time =    1.000,"PART-1-1",           487,       8.92157,       12.9075,            0.,NA,NA,"",       1.43810,       1.43658,   66.1234E-03,   2.49291E-03
C:/temp/dataset/7/20_2.odb,Step-1,Increment      1: Step Time =    1.000,"PART-1-1",           488,       9.98918,       11.9956,            0.,NA,NA,"",       1.37422,       1.37422,  -2.50334E-03,   767.826E-06
C:/temp/dataset/7/20_2.odb,Step-1,Increment      1: Step Time =    1.000,"PART-1-1",           489,       10.7968,       13.3004,            0.,NA,NA,"",       1.45881,       1.45766,  -57.8443E-03,   583.992E-06
C:/temp/dataset/7/20_2.odb,Step-1,Increment      1: Step Time =    1.000,"PART-1-1",           490,       13.0565,       8.69239,            0.,NA,NA,"",       1.18046,       1.16653,  -180.842E-03,   4.30268E-03
C:/temp/dataset/7/20_2.odb,Step-1,Increment      1: Step Time =    1.000,"PART-1-1",           491,           15.,          8.75,            0.,NA,NA,"",       1.20876,       1.17165,  -297.222E-03,   7.51074E-03
C:/temp/dataset/7/20_2.odb,Step-1,Increment      1: Step Time =    1.000,"PART-1-1",           492,       14.0220,       9.95215,            0.,NA,NA,"",       1.26710,       1.24272,  -247.351E-03,   5.89200E-03
C:/temp/dataset/7/20_2.odb,Step-1,Increment      1: Step Time =    1.000,"PART-1-1",           493,       8.15713,      -6.43409,            0.,NA,NA,"",   448.166E-03,   441.474E-03,   77.1583E-03,   3.82471E-03
C:/temp/dataset/7/20_2.odb,Step-1,Increment      1: Step Time =    1.000,"PART-1-1",           494,       7.55707,      -5.50995,            0.,NA,NA,"",   488.912E-03,   478.029E-03,   102.582E-03,   4.82915E-03
C:/temp/dataset/7/20_2.odb,Step-1,Increment      1: Step Time =    1.000,"PART-1-1",           495,       13.0039,      -1.03047,            0.,NA,NA,"",   671.855E-03,   659.714E-03,  -127.148E-03,   4.31005E-03
C:/temp/dataset/7/20_2.odb,Step-1,Increment      1: Step Time =    1.000,"PART-1-1",           496,       13.9897,      -2.37705,            0.,NA,NA,"",   623.625E-03,   601.909E-03,  -163.139E-03,   5.97851E-03
C:/temp/dataset/7/20_2.odb,Step-1,Increment      1: Step Time =    1.000,"PART-1-1",           497,           15.,         -1.25,            0.,NA,NA,"",   687.916E-03,   653.251E-03,  -215.621E-03,   7.64940E-03
C:/temp/dataset/7/20_2.odb,Step-1,Increment      1: Step Time =    1.000,"PART-1-1",           498,       11.0188,      -11.3444,            0.,NA,NA,"",   275.289E-03,   274.489E-03,  -20.9776E-03,   1.04606E-03
C:/temp/dataset/7/20_2.odb,Step-1,Increment      1: Step Time =    1.000,"PART-1-1",           499,       9.94563,      -10.3262,            0.,NA,NA,"",   305.973E-03,   305.783E-03,   10.7759E-03,   808.951E-06
C:/temp/dataset/7/20_2.odb,Step-1,Increment      1: Step Time =    1.000,"PART-1-1",           500,       9.07908,      -11.6768,            0.,NA,NA,"",   268.505E-03,   266.165E-03,   35.3720E-03,   2.28936E-03
C:/temp/dataset/7/20_2.odb,Step-1,Increment      1: Step Time =    1.000,"PART-1-1",           501,       10.1523,      -12.6950,            0.,NA,NA,"",   236.340E-03,   236.298E-03,   4.45539E-03,   461.010E-06
C:/temp/dataset/7/20_2.odb,Step-1,Increment      1: Step Time =    1.000,"PART-1-1",           502,       11.2699,       24.2837,            0.,NA,NA,"",       2.28509,       2.28108,  -135.326E-03,   3.39704E-03
C:/temp/dataset/7/20_2.odb,Step-1,Increment      1: Step Time =    1.000,"PART-1-1",           503,       12.1787,       22.9892,            0.,NA,NA,"",       2.18195,       2.17279,  -199.763E-03,   3.39569E-03
C:/temp/dataset/7/20_2.odb,Step-1,Increment      1: Step Time =    1.000,"PART-1-1",           504,           15.,         -3.75,            0.,NA,NA,"",   580.834E-03,   546.731E-03,  -196.097E-03,   7.70033E-03
C:/temp/dataset/7/20_2.odb,Step-1,Increment      1: Step Time =    1.000,"PART-1-1",           505,       12.9359,      -3.49956,            0.,NA,NA,"",   564.527E-03,   553.217E-03,  -112.435E-03,   4.22529E-03
C:/temp/dataset/7/20_2.odb,Step-1,Increment      1: Step Time =    1.000,"PART-1-1",           506,           15.,        -11.25,            0.,NA,NA,"",   315.708E-03,   283.487E-03,  -138.949E-03,   7.87531E-03
C:/temp/dataset/7/20_2.odb,Step-1,Increment      1: Step Time =    1.000,"PART-1-1",           507,       12.9838,      -11.1958,            0.,NA,NA,"",   291.422E-03,   280.399E-03,  -79.3927E-03,   4.41250E-03
C:/temp/dataset/7/20_2.odb,Step-1,Increment      1: Step Time =    1.000,"PART-1-1",           508,           15.,         11.25,            0.,NA,NA,"",       1.36195,       1.32412,  -318.779E-03,   7.51910E-03
C:/temp/dataset/7/20_2.odb,Step-1,Increment      1: Step Time =    1.000,"PART-1-1",           509,       12.9950,       11.1325,            0.,NA,NA,"",       1.32926,       1.31547,  -190.940E-03,   4.18318E-03
C:/temp/dataset/7/20_2.odb,Step-1,Increment      1: Step Time =    1.000,"PART-1-1",           510,           15.,          3.75,            0.,NA,NA,"",   929.917E-03,   894.091E-03,  -255.630E-03,   7.56107E-03
C:/temp/dataset/7/20_2.odb,Step-1,Increment      1: Step Time =    1.000,"PART-1-1",           511,       13.0643,       3.84158,            0.,NA,NA,"",   909.590E-03,   896.313E-03,  -154.844E-03,   4.35818E-03
C:/temp/dataset/7/20_2.odb,Step-1,Increment      1: Step Time =    1.000,"PART-1-1",           512,           15.,        -18.75,            0.,NA,NA,"",   134.756E-03,   106.125E-03,  -83.0454E-03,   8.08705E-03
C:/temp/dataset/7/20_2.odb,Step-1,Increment      1: Step Time =    1.000,"PART-1-1",           513,       13.1842,      -18.5870,            0.,NA,NA,"",   115.958E-03,   104.053E-03,  -51.1775E-03,   4.88960E-03
C:/temp/dataset/7/20_2.odb,Step-1,Increment      1: Step Time =    1.000,"PART-1-1",           514,       13.5513,      -24.7801,            0.,NA,NA,"",   34.6292E-03,   22.7894E-03,  -26.0735E-03,   5.69018E-03
C:/temp/dataset/7/20_2.odb,Step-1,Increment      1: Step Time =    1.000,"PART-1-1",           515,       12.2413,      -25.9996,            0.,NA,NA,"",   16.0336E-03,   11.1582E-03,  -11.5139E-03,   3.41422E-03
C:/temp/dataset/7/20_2.odb,Step-1,Increment      1: Step Time =    1.000,"PART-1-1",           516,           15.,        -26.25,            0.,NA,NA,"",   32.1147E-03,   16.8943E-03,  -27.3118E-03,   8.29038E-03
C:/temp/dataset/7/20_2.odb,Step-1,Increment      1: Step Time =    1.000,"PART-1-1",           517,           15.,        -23.75,            0.,NA,NA,"",   58.6847E-03,   36.6495E-03,  -45.8334E-03,   8.22346E-03
C:/temp/dataset/7/20_2.odb,Step-1,Increment      1: Step Time =    1.000,"PART-1-1",           518,       12.5809,      -23.3397,            0.,NA,NA,"",   41.5003E-03,   34.4097E-03,  -23.2002E-03,   3.95209E-03
C:/temp/dataset/7/20_2.odb,Step-1,Increment      1: Step Time =    1.000,"PART-1-1",           519,       9.49127,      -18.7202,            0.,NA,NA,"",   100.778E-03,   99.5925E-03,   15.4097E-03,   1.61326E-03
C:/temp/dataset/7/20_2.odb,Step-1,Increment      1: Step Time =    1.000,"PART-1-1",           520,       8.36047,      -17.5836,            0.,NA,NA,"",   128.757E-03,   122.701E-03,   39.0243E-03,   3.57626E-03
C:/temp/dataset/7/20_2.odb,Step-1,Increment      1: Step Time =    1.000,"PART-1-1",           521,       11.5260,      -20.5498,            0.,NA,NA,"",   71.2137E-03,   69.0571E-03,  -17.3928E-03,   1.99193E-03
C:/temp/dataset/7/20_2.odb,Step-1,Increment      1: Step Time =    1.000,"PART-1-1",           522,       10.5221,      -19.7870,            0.,NA,NA,"",   80.7726E-03,   80.7304E-03,  -2.61079E-03,   239.679E-06
C:/temp/dataset/7/20_2.odb,Step-1,Increment      1: Step Time =    1.000,"PART-1-1",           523,       11.0260,      -21.8608,            0.,NA,NA,"",   51.0370E-03,   50.3329E-03,  -8.44812E-03,   1.11117E-03
C:/temp/dataset/7/20_2.odb,Step-1,Increment      1: Step Time =    1.000,"PART-1-1",           524,       7.98010,      -10.7619,            0.,NA,NA,"",   303.690E-03,   295.504E-03,   70.0376E-03,   4.16273E-03
C:/temp/dataset/7/20_2.odb,Step-1,Increment      1: Step Time =    1.000,"PART-1-1",           525,       8.65118,      -4.78401,            0.,NA,NA,"",   507.467E-03,   503.644E-03,   62.1712E-03,   2.98222E-03
C:/temp/dataset/7/20_2.odb,Step-1,Increment      1: Step Time =    1.000,"PART-1-1",           526,       7.84665,      -3.50518,            0.,NA,NA,"",   566.019E-03,   557.523E-03,   97.7039E-03,   4.31566E-03
C:/temp/dataset/7/20_2.odb,Step-1,Increment      1: Step Time =    1.000,"PART-1-1",           527,       9.43586,      -6.49799,            0.,NA,NA,"",   437.677E-03,   436.646E-03,   30.0256E-03,   1.65749E-03
C:/temp/dataset/7/20_2.odb,Step-1,Increment      1: Step Time =    1.000,"PART-1-1",           528,       10.6293,      -5.79077,            0.,NA,NA,"",   462.156E-03,   461.927E-03,  -14.5399E-03,   369.296E-06
C:/temp/dataset/7/20_2.odb,Step-1,Increment      1: Step Time =    1.000,"PART-1-1",           529,       11.1144,       3.95682,            0.,NA,NA,"",   904.203E-03,   902.645E-03,  -53.0696E-03,   1.13371E-03
C:/temp/dataset/7/20_2.odb,Step-1,Increment      1: Step Time =    1.000,"PART-1-1",           530,       10.1270,       5.17226,            0.,NA,NA,"",   968.858E-03,   968.855E-03,  -2.48929E-03,   506.156E-06
C:/temp/dataset/7/20_2.odb,Step-1,Increment      1: Step Time =    1.000,"PART-1-1",           531,       9.05317,       10.7826,            0.,NA,NA,"",       1.30098,       1.29971,   57.5355E-03,   2.28931E-03
C:/temp/dataset/7/20_2.odb,Step-1,Increment      1: Step Time =    1.000,"PART-1-1",           532,       8.01195,       11.8024,            0.,NA,NA,"",       1.37360,       1.36799,   124.028E-03,   3.96945E-03
C:/temp/dataset/7/20_2.odb,Step-1,Increment      1: Step Time =    1.000,"PART-1-1",           533,       11.0241,       10.9595,            0.,NA,NA,"",       1.30796,       1.30629,  -66.0511E-03,   933.206E-06
C:/temp/dataset/7/20_2.odb,Step-1,Increment      1: Step Time =    1.000,"PART-1-1",           534,       8.35051,       17.3209,            0.,NA,NA,"",       1.74559,       1.74238,   105.813E-03,   3.09394E-03
C:/temp/dataset/7/20_2.odb,Step-1,Increment      1: Step Time =    1.000,"PART-1-1",           535,       12.5952,       19.1415,            0.,NA,NA,"",       1.88077,       1.86899,  -210.148E-03,   3.47970E-03
C:/temp/dataset/7/20_2.odb,Step-1,Increment      1: Step Time =    1.000,"PART-1-1",           536,           15.,         18.75,            0.,NA,NA,"",       1.87871,       1.83846,  -386.803E-03,   6.80186E-03
C:/temp/dataset/7/20_2.odb,Step-1,Increment      1: Step Time =    1.000,"PART-1-1",           537,      -7.03326,       22.4462,            0.,NA,NA,"",       2.63235,       2.18422,       1.46917,   1.81266E-03
C:/temp/dataset/7/20_2.odb,Step-1,Increment      1: Step Time =    1.000,"PART-1-1",           538,      -8.48458,       21.3302,            0.,NA,NA,"",       2.63706,       2.08656,       1.61255,   1.93590E-03
C:/temp/dataset/7/20_2.odb,Step-1,Increment      1: Step Time =    1.000,"PART-1-1",           539,      -6.65000,           20.,            0.,NA,NA,"",       2.43076,       1.95488,       1.44466,   1.46259E-03
C:/temp/dataset/7/20_2.odb,Step-1,Increment      1: Step Time =    1.000,"PART-1-1",           540,      -5.19869,       21.1160,            0.,NA,NA,"",       2.43281,       2.05471,       1.30259,   1.58104E-03
C:/temp/dataset/7/20_2.odb,Step-1,Increment      1: Step Time =    1.000,"PART-1-1",           541,       9.42603,       26.6587,            0.,NA,NA,"",       2.48491,       2.48491,   654.205E-06,   3.11240E-03
C:/temp/dataset/7/20_2.odb,Step-1,Increment      1: Step Time =    1.000,"PART-1-1",           542,       10.3720,       25.4897,            0.,NA,NA,"",       2.38488,       2.38386,  -69.9598E-03,   3.32309E-03
C:/temp/dataset/7/20_2.odb,Step-1,Increment      1: Step Time =    1.000,"PART-1-1",           543,       6.87457,       25.7626,            0.,NA,NA,"",       2.43002,       2.42123,   206.512E-03,   2.77290E-03
C:/temp/dataset/7/20_2.odb,Step-1,Increment      1: Step Time =    1.000,"PART-1-1",           544,       7.54675,       26.7337,            0.,NA,NA,"",       2.50435,       2.49985,   150.034E-03,   3.01024E-03
C:/temp/dataset/7/20_2.odb,Step-1,Increment      1: Step Time =    1.000,"PART-1-1",           545,      -3.17643,       25.4018,            0.,NA,NA,"",       2.67228,       2.43790,       1.09441,   1.81877E-03
C:/temp/dataset/7/20_2.odb,Step-1,Increment      1: Step Time =    1.000,"PART-1-1",           546,      -4.35024,       25.6599,            0.,NA,NA,"",       2.74418,       2.46660,       1.20268,   1.75967E-03
C:/temp/dataset/7/20_2.odb,Step-1,Increment      1: Step Time =    1.000,"PART-1-1",           547,       4.01884,       22.4610,            0.,NA,NA,"",       2.20117,       2.15437,   451.470E-03,   3.10744E-03
C:/temp/dataset/7/20_2.odb,Step-1,Increment      1: Step Time =    1.000,"PART-1-1",           548,       5.32127,       23.1739,            0.,NA,NA,"",       2.23526,       2.20940,   339.036E-03,   2.71375E-03
C:/temp/dataset/7/20_2.odb,Step-1,Increment      1: Step Time =    1.000,"PART-1-1",           549,       11.1447,       22.1526,            0.,NA,NA,"",       2.11026,       2.10705,  -116.479E-03,   3.30837E-03
C:/temp/dataset/7/20_2.odb,Step-1,Increment      1: Step Time =    1.000,"PART-1-1",           550,       10.2813,       23.3249,            0.,NA,NA,"",       2.20533,       2.20464,  -55.1502E-03,   3.51971E-03
C:/temp/dataset/7/20_2.odb,Step-1,Increment      1: Step Time =    1.000,"PART-1-1",           551,       6.15508,       21.9496,            0.,NA,NA,"",       2.12068,       2.10330,   270.998E-03,   3.63204E-03
C:/temp/dataset/7/20_2.odb,Step-1,Increment      1: Step Time =    1.000,"PART-1-1",           552,       6.48612,       23.9825,            0.,NA,NA,"",       2.28552,       2.27273,   241.482E-03,   2.71312E-03
C:/temp/dataset/7/20_2.odb,Step-1,Increment      1: Step Time =    1.000,"PART-1-1",           553,   6.30745E-03,       24.2683,            0.,NA,NA,"",       2.45955,       2.32372,   806.051E-03,   1.85670E-03
C:/temp/dataset/7/20_2.odb,Step-1,Increment      1: Step Time =    1.000,"PART-1-1",           554,      -1.65981,       23.6471,            0.,NA,NA,"",       2.46911,       2.27425,   961.410E-03,   1.77746E-03
C:/temp/dataset/7/20_2.odb,Step-1,Increment      1: Step Time =    1.000,"PART-1-1",           555,      -1.07768,       22.4355,            0.,NA,NA,"",       2.34879,       2.16391,   913.426E-03,   2.41452E-03
C:/temp/dataset/7/20_2.odb,Step-1,Increment      1: Step Time =    1.000,"PART-1-1",           556,   588.432E-03,       23.0567,            0.,NA,NA,"",       2.34097,       2.21478,   758.213E-03,   2.42347E-03
C:/temp/dataset/7/20_2.odb,Step-1,Increment      1: Step Time =    1.000,"PART-1-1",           557,      -4.82218,       24.5397,            0.,NA,NA,"",       2.67749,       2.36701,       1.25148,   1.81198E-03
C:/temp/dataset/7/20_2.odb,Step-1,Increment      1: Step Time =    1.000,"PART-1-1",           558,      -3.09511,       23.7242,            0.,NA,NA,"",       2.53448,       2.28625,       1.09392,   1.74759E-03
C:/temp/dataset/7/20_2.odb,Step-1,Increment      1: Step Time =    1.000,"PART-1-1",           559,      -5.58708,       23.2486,            0.,NA,NA,"",       2.61521,       2.25238,       1.32896,   1.69839E-03
C:/temp/dataset/7/20_2.odb,Step-1,Increment      1: Step Time =    1.000,"PART-1-1",           560,       8.76337,      -9.49006,            0.,NA,NA,"",   337.486E-03,   333.913E-03,   48.9788E-03,   2.81865E-03
C:/temp/dataset/7/20_2.odb,Step-1,Increment      1: Step Time =    1.000,"PART-1-1",           561,       9.72759,      -26.4759,            0.,NA,NA,"",   7.81862E-03,   7.06989E-03,   3.33879E-03,   1.25207E-03
C:/temp/dataset/7/20_2.odb,Step-1,Increment      1: Step Time =    1.000,"PART-1-1",           562,       9.12173,       6.33780,            0.,NA,NA,"",       1.03673,       1.03540,   52.4621E-03,   2.15925E-03
C:/temp/dataset/7/20_2.odb,Step-1,Increment      1: Step Time =    1.000,"PART-1-1",           563,       11.1214,       6.29882,            0.,NA,NA,"",       1.03129,       1.02958,  -59.2798E-03,   1.13108E-03
C:/temp/dataset/7/20_2.odb,Step-1,Increment      1: Step Time =    1.000,"PART-1-1",           564,       11.1740,      -13.7880,            0.,NA,NA,"",   208.212E-03,   207.076E-03,  -21.7153E-03,   1.32641E-03
C:/temp/dataset/7/20_2.odb,Step-1,Increment      1: Step Time =    1.000,"PART-1-1",           565,       10.6612,      -8.65022,            0.,NA,NA,"",   359.797E-03,   359.568E-03,  -12.8446E-03,   433.405E-06
C:/temp/dataset/7/20_2.odb,Step-1,Increment      1: Step Time =    1.000,"PART-1-1",           566,       9.47894,      -7.81405,            0.,NA,NA,"",   390.232E-03,   389.268E-03,   27.4188E-03,   1.59209E-03
C:/temp/dataset/7/20_2.odb,Step-1,Increment      1: Step Time =    1.000,"PART-1-1",           567,       11.3640,      -18.5194,            0.,NA,NA,"",   104.550E-03,   102.930E-03,  -18.3295E-03,   1.68715E-03
C:/temp/dataset/7/20_2.odb,Step-1,Increment      1: Step Time =    1.000,"PART-1-1",           568,       12.0025,       20.7886,            0.,NA,NA,"",       2.00453,       1.99688,  -174.954E-03,   3.33519E-03
C:/temp/dataset/7/20_2.odb,Step-1,Increment      1: Step Time =    1.000,"PART-1-1",           569,       11.4947,       18.6594,            0.,NA,NA,"",       1.83831,       1.83396,  -126.430E-03,   2.53447E-03
C:/temp/dataset/7/20_2.odb,Step-1,Increment      1: Step Time =    1.000,"PART-1-1",           570,       9.39315,       18.1618,            0.,NA,NA,"",       1.80090,       1.80067,   28.9635E-03,   1.19420E-03
C:/temp/dataset/7/20_2.odb,Step-1,Increment      1: Step Time =    1.000,"PART-1-1",           571,       10.9214,       17.4088,            0.,NA,NA,"",       1.74426,       1.74245,  -79.4541E-03,   1.34134E-03
C:/temp/dataset/7/20_2.odb,Step-1,Increment      1: Step Time =    1.000,"PART-1-1",           572,      -9.97500,           20.,            0.,NA,NA,"",       2.64119,       1.96795,       1.76156,   1.64417E-03
C:/temp/dataset/7/20_2.odb,Step-1,Increment      1: Step Time =    1.000,"PART-1-1",           573,       11.9818,      -2.09472,            0.,NA,NA,"",   617.002E-03,   612.112E-03,  -77.5261E-03,   2.61223E-03
C:/temp/dataset/7/20_2.odb,Step-1,Increment      1: Step Time =    1.000,"PART-1-1",           574,       12.0426,   313.093E-03,            0.,NA,NA,"",   726.417E-03,   721.008E-03,  -88.4844E-03,   2.69458E-03
C:/temp/dataset/7/20_2.odb,Step-1,Increment      1: Step Time =    1.000,"PART-1-1",           575,       12.1686,      -14.9632,            0.,NA,NA,"",   183.855E-03,   178.611E-03,  -43.5960E-03,   3.05670E-03
C:/temp/dataset/7/20_2.odb,Step-1,Increment      1: Step Time =    1.000,"PART-1-1",           576,       12.0880,      -12.5178,            0.,NA,NA,"",   246.370E-03,   241.475E-03,  -48.8671E-03,   2.88941E-03
C:/temp/dataset/7/20_2.odb,Step-1,Increment      1: Step Time =    1.000,"PART-1-1",           577,       12.0767,       2.70437,            0.,NA,NA,"",   843.475E-03,   837.664E-03,  -98.8380E-03,   2.73341E-03
C:/temp/dataset/7/20_2.odb,Step-1,Increment      1: Step Time =    1.000,"PART-1-1",           578,       11.6617,       14.7036,            0.,NA,NA,"",       1.55532,       1.55061,  -120.840E-03,   2.00112E-03
C:/temp/dataset/7/20_2.odb,Step-1,Increment      1: Step Time =    1.000,"PART-1-1",           579,       11.9561,       12.2406,            0.,NA,NA,"",       1.39274,       1.38665,  -130.041E-03,   2.45765E-03
C:/temp/dataset/7/20_2.odb,Step-1,Increment      1: Step Time =    1.000,"PART-1-1",           580,       12.3155,      -19.7087,            0.,NA,NA,"",   89.0729E-03,   83.1739E-03,  -31.8760E-03,   3.38396E-03
C:/temp/dataset/7/20_2.odb,Step-1,Increment      1: Step Time =    1.000,"PART-1-1",           581,       12.3404,      -21.7879,            0.,NA,NA,"",   58.4189E-03,   52.4909E-03,  -25.6412E-03,   3.43438E-03
C:/temp/dataset/7/20_2.odb,Step-1,Increment      1: Step Time =    1.000,"PART-1-1",           582,       12.2327,      -17.3977,            0.,NA,NA,"",   130.752E-03,   125.238E-03,  -37.5704E-03,   3.19775E-03
C:/temp/dataset/7/20_2.odb,Step-1,Increment      1: Step Time =    1.000,"PART-1-1",           583,       12.1020,       5.09402,            0.,NA,NA,"",   968.859E-03,   962.670E-03,  -109.336E-03,   2.75717E-03
C:/temp/dataset/7/20_2.odb,Step-1,Increment      1: Step Time =    1.000,"PART-1-1",           584,       12.0630,       9.85139,            0.,NA,NA,"",       1.24297,       1.23651,  -126.562E-03,   2.65239E-03
C:/temp/dataset/7/20_2.odb,Step-1,Increment      1: Step Time =    1.000,"PART-1-1",           585,       12.0921,       7.47372,            0.,NA,NA,"",       1.10188,       1.09550,  -118.357E-03,   2.72166E-03
C:/temp/dataset/7/20_2.odb,Step-1,Increment      1: Step Time =    1.000,"PART-1-1",           586,       11.9146,      -10.0225,            0.,NA,NA,"",   319.157E-03,   315.063E-03,  -50.9534E-03,   2.56801E-03
C:/temp/dataset/7/20_2.odb,Step-1,Increment      1: Step Time =    1.000,"PART-1-1",           587,       11.5993,      -7.26023,            0.,NA,NA,"",   410.427E-03,   407.656E-03,  -47.6118E-03,   2.00452E-03
C:/temp/dataset/7/20_2.odb,Step-1,Increment      1: Step Time =    1.000,"PART-1-1",           588,       11.8707,      -4.56496,            0.,NA,NA,"",   513.513E-03,   509.363E-03,  -65.1544E-03,   2.44697E-03
C:/temp/dataset/7/20_2.odb,Step-1,Increment      1: Step Time =    1.000,"PART-1-1",           589,      -3.86001,       22.4330,            0.,NA,NA,"",       2.46728,       2.17166,       1.17105,   1.70153E-03
C:/temp/dataset/7/20_2.odb,Step-1,Increment      1: Step Time =    1.000,"PART-1-1",           590,       3.35000,           20.,            0.,NA,NA,"",       2.01219,       1.94299,   523.174E-03,   7.36207E-03
C:/temp/dataset/7/20_2.odb,Step-1,Increment      1: Step Time =    1.000,"PART-1-1",           591,       5.05511,       21.0689,            0.,NA,NA,"",       2.06614,       2.03419,   361.937E-03,   6.36514E-03
C:/temp/dataset/7/20_2.odb,Step-1,Increment      1: Step Time =    1.000,"PART-1-1",           592,       2.31373,       21.3921,            0.,NA,NA,"",       2.15332,       2.06534,   609.247E-03,   3.64739E-03
C:/temp/dataset/7/20_2.odb,Step-1,Increment      1: Step Time =    1.000,"PART-1-1",           593,      -1.98632,       21.3170,            0.,NA,NA,"",       2.29553,       2.06490,       1.00282,   2.43757E-03
C:/temp/dataset/7/20_2.odb,Step-1,Increment      1: Step Time =    1.000,"PART-1-1",           594,   25.0000E-03,           20.,            0.,NA,NA,"",       2.11029,       1.94209,   825.586E-03,   3.55122E-03
C:/temp/dataset/7/20_2.odb,Step-1,Increment      1: Step Time =    1.000,"PART-1-1",           595,   933.640E-03,       21.1186,            0.,NA,NA,"",       2.17099,       2.04226,   736.457E-03,   3.63592E-03
C:/temp/dataset/7/20_2.odb,Step-1,Increment      1: Step Time =    1.000,"PART-1-1",           596,       7.16521,       20.7144,            0.,NA,NA,"",       2.00885,       1.99963,   192.233E-03,   3.34756E-03
C:/temp/dataset/7/20_2.odb,Step-1,Increment      1: Step Time =    1.000,"PART-1-1",           597,       8.15837,       19.5039,            0.,NA,NA,"",       1.90766,       1.90400,   118.041E-03,   2.23103E-03
C:/temp/dataset/7/20_2.odb,Step-1,Increment      1: Step Time =    1.000,"PART-1-1",           598,      -3.32500,           20.,            0.,NA,NA,"",       2.25295,       1.94693,       1.13370,   2.67928E-03
