ODB Name,Step,Frame,Part Instance Name,    êﬂì_ÉâÉxÉã,X,Y,Z,Section Name,Material Name,Section Point,   U-Magnitude,          U-U1,          U-U2,       S-Mises
C:/temp/dataset/7/23_3.odb,Step-1,Increment      1: Step Time =    1.000,"PART-1-1",             1,          -15.,           20.,            0.,NA,NA,"",       2.22099,       1.52161,       1.61787,   5.77517E-06
C:/temp/dataset/7/23_3.odb,Step-1,Increment      1: Step Time =    1.000,"PART-1-1",             2,          -15.,           25.,            0.,NA,NA,"",       2.44561,       1.84304,       1.60755,   8.42652E-06
C:/temp/dataset/7/23_3.odb,Step-1,Increment      1: Step Time =    1.000,"PART-1-1",             3,      -11.6500,           20.,            0.,NA,NA,"",       2.06427,       1.51467,       1.40249,   13.8834E-06
C:/temp/dataset/7/23_3.odb,Step-1,Increment      1: Step Time =    1.000,"PART-1-1",             4,      -8.30000,           20.,            0.,NA,NA,"",       1.91915,       1.50790,       1.18716,   117.482E-06
C:/temp/dataset/7/23_3.odb,Step-1,Increment      1: Step Time =    1.000,"PART-1-1",             5,           -5.,           20.,            0.,NA,NA,"",       1.79033,       1.50130,   975.381E-03,   519.517E-06
C:/temp/dataset/7/23_3.odb,Step-1,Increment      1: Step Time =    1.000,"PART-1-1",             6,      -1.65000,           20.,            0.,NA,NA,"",       1.67999,       1.49604,   764.362E-03,   1.72534E-03
C:/temp/dataset/7/23_3.odb,Step-1,Increment      1: Step Time =    1.000,"PART-1-1",             7,       1.70000,           20.,            0.,NA,NA,"",       1.58351,       1.48715,   543.958E-03,   2.88387E-03
C:/temp/dataset/7/23_3.odb,Step-1,Increment      1: Step Time =    1.000,"PART-1-1",             8,            5.,           20.,            0.,NA,NA,"",       1.52012,       1.48818,   309.996E-03,   9.24736E-03
C:/temp/dataset/7/23_3.odb,Step-1,Increment      1: Step Time =    1.000,"PART-1-1",             9,            5.,         13.75,            0.,NA,NA,"",       1.18848,       1.15653,   273.723E-03,   7.04366E-03
C:/temp/dataset/7/23_3.odb,Step-1,Increment      1: Step Time =    1.000,"PART-1-1",            10,            5.,           7.5,            0.,NA,NA,"",   891.626E-03,   858.424E-03,   241.051E-03,   7.15106E-03
C:/temp/dataset/7/23_3.odb,Step-1,Increment      1: Step Time =    1.000,"PART-1-1",            11,            5.,          1.25,            0.,NA,NA,"",   637.503E-03,   603.377E-03,   205.782E-03,   7.25689E-03
C:/temp/dataset/7/23_3.odb,Step-1,Increment      1: Step Time =    1.000,"PART-1-1",            12,            5.,           -5.,            0.,NA,NA,"",   426.867E-03,   392.308E-03,   168.256E-03,   7.38127E-03
C:/temp/dataset/7/23_3.odb,Step-1,Increment      1: Step Time =    1.000,"PART-1-1",            13,            5.,        -11.25,            0.,NA,NA,"",   260.114E-03,   226.085E-03,   128.626E-03,   7.52655E-03
C:/temp/dataset/7/23_3.odb,Step-1,Increment      1: Step Time =    1.000,"PART-1-1",            14,            5.,         -17.5,            0.,NA,NA,"",   136.983E-03,   105.777E-03,   87.0380E-03,   7.70276E-03
C:/temp/dataset/7/23_3.odb,Step-1,Increment      1: Step Time =    1.000,"PART-1-1",            15,            5.,        -23.75,            0.,NA,NA,"",   54.6231E-03,   32.6648E-03,   43.7801E-03,   7.84955E-03
C:/temp/dataset/7/23_3.odb,Step-1,Increment      1: Step Time =    1.000,"PART-1-1",            16,            5.,          -30.,            0.,NA,NA,"",            0.,   2.47918E-39,   4.75232E-39,   9.26408E-03
C:/temp/dataset/7/23_3.odb,Step-1,Increment      1: Step Time =    1.000,"PART-1-1",            17,           15.,          -30.,            0.,NA,NA,"",            0.,   1.69150E-39,  -3.22556E-39,   6.15144E-03
C:/temp/dataset/7/23_3.odb,Step-1,Increment      1: Step Time =    1.000,"PART-1-1",            18,           15.,         -22.5,            0.,NA,NA,"",   55.0934E-03,   38.3470E-03,  -39.5574E-03,   5.86342E-03
C:/temp/dataset/7/23_3.odb,Step-1,Increment      1: Step Time =    1.000,"PART-1-1",            19,           15.,          -15.,            0.,NA,NA,"",   162.413E-03,   141.997E-03,  -78.8338E-03,   5.59541E-03
C:/temp/dataset/7/23_3.odb,Step-1,Increment      1: Step Time =    1.000,"PART-1-1",            20,           15.,          -7.5,            0.,NA,NA,"",   333.588E-03,   312.089E-03,  -117.820E-03,   5.39919E-03
C:/temp/dataset/7/23_3.odb,Step-1,Increment      1: Step Time =    1.000,"PART-1-1",            21,           15.,            0.,            0.,NA,NA,"",   568.855E-03,   546.653E-03,  -157.374E-03,   5.24482E-03
C:/temp/dataset/7/23_3.odb,Step-1,Increment      1: Step Time =    1.000,"PART-1-1",            22,           15.,           7.5,            0.,NA,NA,"",   867.079E-03,   844.108E-03,  -198.262E-03,   5.13658E-03
C:/temp/dataset/7/23_3.odb,Step-1,Increment      1: Step Time =    1.000,"PART-1-1",            23,           15.,           15.,            0.,NA,NA,"",       1.22764,       1.20365,  -241.491E-03,   5.11291E-03
C:/temp/dataset/7/23_3.odb,Step-1,Increment      1: Step Time =    1.000,"PART-1-1",            24,           15.,          22.5,            0.,NA,NA,"",       1.65181,       1.62734,  -283.295E-03,   2.93063E-03
C:/temp/dataset/7/23_3.odb,Step-1,Increment      1: Step Time =    1.000,"PART-1-1",            25,           15.,           30.,            0.,NA,NA,"",       2.10832,       2.08626,  -304.160E-03,   80.2665E-06
C:/temp/dataset/7/23_3.odb,Step-1,Increment      1: Step Time =    1.000,"PART-1-1",            26,         11.25,           30.,            0.,NA,NA,"",       2.09521,       2.09380,  -76.7049E-03,   782.728E-06
C:/temp/dataset/7/23_3.odb,Step-1,Increment      1: Step Time =    1.000,"PART-1-1",            27,           7.5,           30.,            0.,NA,NA,"",       2.11153,       2.10611,   151.203E-03,   2.21623E-03
C:/temp/dataset/7/23_3.odb,Step-1,Increment      1: Step Time =    1.000,"PART-1-1",            28,          3.75,           30.,            0.,NA,NA,"",       2.15646,       2.12144,   387.060E-03,   1.96229E-03
C:/temp/dataset/7/23_3.odb,Step-1,Increment      1: Step Time =    1.000,"PART-1-1",            29,            0.,           30.,            0.,NA,NA,"",       2.22458,       2.13351,   629.975E-03,   547.204E-06
C:/temp/dataset/7/23_3.odb,Step-1,Increment      1: Step Time =    1.000,"PART-1-1",            30,         -3.75,           30.,            0.,NA,NA,"",       2.31294,       2.14173,   873.305E-03,   115.706E-06
C:/temp/dataset/7/23_3.odb,Step-1,Increment      1: Step Time =    1.000,"PART-1-1",            31,          -7.5,           30.,            0.,NA,NA,"",       2.42118,       2.14915,       1.11502,   81.9132E-06
C:/temp/dataset/7/23_3.odb,Step-1,Increment      1: Step Time =    1.000,"PART-1-1",            32,        -11.25,           30.,            0.,NA,NA,"",       2.54770,       2.15677,       1.35615,   15.9307E-06
C:/temp/dataset/7/23_3.odb,Step-1,Increment      1: Step Time =    1.000,"PART-1-1",            33,          -15.,           30.,            0.,NA,NA,"",       2.69003,       2.16451,       1.59723,   753.702E-09
C:/temp/dataset/7/23_3.odb,Step-1,Increment      1: Step Time =    1.000,"PART-1-1",            34,          -15.,          22.5,            0.,NA,NA,"",       2.33045,       1.68232,       1.61270,   7.71799E-06
C:/temp/dataset/7/23_3.odb,Step-1,Increment      1: Step Time =    1.000,"PART-1-1",            35,            5.,       15.8333,            0.,NA,NA,"",       1.29639,       1.26489,   284.029E-03,   6.84670E-03
C:/temp/dataset/7/23_3.odb,Step-1,Increment      1: Step Time =    1.000,"PART-1-1",            36,            5.,       17.9167,            0.,NA,NA,"",       1.40758,       1.37656,   293.874E-03,   7.92921E-03
C:/temp/dataset/7/23_3.odb,Step-1,Increment      1: Step Time =    1.000,"PART-1-1",            37,            5.,       9.58333,            0.,NA,NA,"",   985.901E-03,   953.082E-03,   252.261E-03,   7.11157E-03
C:/temp/dataset/7/23_3.odb,Step-1,Increment      1: Step Time =    1.000,"PART-1-1",            38,            5.,       11.6667,            0.,NA,NA,"",       1.08488,       1.05248,   263.163E-03,   7.04746E-03
C:/temp/dataset/7/23_3.odb,Step-1,Increment      1: Step Time =    1.000,"PART-1-1",            39,            5.,       3.33333,            0.,NA,NA,"",   717.403E-03,   683.543E-03,   217.797E-03,   7.22159E-03
C:/temp/dataset/7/23_3.odb,Step-1,Increment      1: Step Time =    1.000,"PART-1-1",            40,            5.,       5.41667,            0.,NA,NA,"",   802.117E-03,   768.567E-03,   229.557E-03,   7.18738E-03
C:/temp/dataset/7/23_3.odb,Step-1,Increment      1: Step Time =    1.000,"PART-1-1",            41,            5.,      -2.91667,            0.,NA,NA,"",   492.219E-03,   457.729E-03,   181.006E-03,   7.33460E-03
C:/temp/dataset/7/23_3.odb,Step-1,Increment      1: Step Time =    1.000,"PART-1-1",            42,            5.,  -833.333E-03,            0.,NA,NA,"",   562.436E-03,   528.096E-03,   193.516E-03,   7.29531E-03
C:/temp/dataset/7/23_3.odb,Step-1,Increment      1: Step Time =    1.000,"PART-1-1",            43,            5.,      -9.16667,            0.,NA,NA,"",   310.814E-03,   276.448E-03,   142.064E-03,   7.47639E-03
C:/temp/dataset/7/23_3.odb,Step-1,Increment      1: Step Time =    1.000,"PART-1-1",            44,            5.,      -7.08333,            0.,NA,NA,"",   366.401E-03,   331.872E-03,   155.275E-03,   7.42122E-03
C:/temp/dataset/7/23_3.odb,Step-1,Increment      1: Step Time =    1.000,"PART-1-1",            45,            5.,      -15.4167,            0.,NA,NA,"",   173.263E-03,   140.705E-03,   101.105E-03,   7.64268E-03
C:/temp/dataset/7/23_3.odb,Step-1,Increment      1: Step Time =    1.000,"PART-1-1",            46,            5.,      -13.3333,            0.,NA,NA,"",   214.279E-03,   180.822E-03,   114.973E-03,   7.58375E-03
C:/temp/dataset/7/23_3.odb,Step-1,Increment      1: Step Time =    1.000,"PART-1-1",            47,            5.,      -21.6667,            0.,NA,NA,"",   77.9400E-03,   51.6854E-03,   58.3375E-03,   7.81749E-03
C:/temp/dataset/7/23_3.odb,Step-1,Increment      1: Step Time =    1.000,"PART-1-1",            48,            5.,      -19.5833,            0.,NA,NA,"",   105.281E-03,   76.0955E-03,   72.7565E-03,   7.76675E-03
C:/temp/dataset/7/23_3.odb,Step-1,Increment      1: Step Time =    1.000,"PART-1-1",            49,            5.,      -27.9167,            0.,NA,NA,"",   17.7785E-03,   9.60425E-03,   14.9611E-03,   8.10298E-03
C:/temp/dataset/7/23_3.odb,Step-1,Increment      1: Step Time =    1.000,"PART-1-1",            50,            5.,      -25.8333,            0.,NA,NA,"",   34.7478E-03,   18.7708E-03,   29.2415E-03,   7.70353E-03
C:/temp/dataset/7/23_3.odb,Step-1,Increment      1: Step Time =    1.000,"PART-1-1",            51,          12.5,          -30.,            0.,NA,NA,"",            0.,   1.14412E-39,  -4.72013E-39,   2.11984E-03
C:/temp/dataset/7/23_3.odb,Step-1,Increment      1: Step Time =    1.000,"PART-1-1",            52,           10.,          -30.,            0.,NA,NA,"",            0.,  -1.18157E-39,   1.58244E-39,   1.46146E-03
C:/temp/dataset/7/23_3.odb,Step-1,Increment      1: Step Time =    1.000,"PART-1-1",            53,           7.5,          -30.,            0.,NA,NA,"",            0.,  -345.038E-42,   10.4341E-39,   3.36433E-03
C:/temp/dataset/7/23_3.odb,Step-1,Increment      1: Step Time =    1.000,"PART-1-1",            54,           15.,          -25.,            0.,NA,NA,"",   32.3770E-03,   18.9443E-03,  -26.2561E-03,   5.92625E-03
C:/temp/dataset/7/23_3.odb,Step-1,Increment      1: Step Time =    1.000,"PART-1-1",            55,           15.,         -27.5,            0.,NA,NA,"",   14.8617E-03,   7.34521E-03,  -12.9197E-03,   6.14307E-03
C:/temp/dataset/7/23_3.odb,Step-1,Increment      1: Step Time =    1.000,"PART-1-1",            56,           15.,         -17.5,            0.,NA,NA,"",   119.680E-03,   99.9507E-03,  -65.8267E-03,   5.67095E-03
C:/temp/dataset/7/23_3.odb,Step-1,Increment      1: Step Time =    1.000,"PART-1-1",            57,           15.,          -20.,            0.,NA,NA,"",   83.9985E-03,   65.3661E-03,  -52.7543E-03,   5.75415E-03
C:/temp/dataset/7/23_3.odb,Step-1,Increment      1: Step Time =    1.000,"PART-1-1",            58,           15.,          -10.,            0.,NA,NA,"",   269.362E-03,   248.139E-03,  -104.800E-03,   5.46188E-03
C:/temp/dataset/7/23_3.odb,Step-1,Increment      1: Step Time =    1.000,"PART-1-1",            59,           15.,         -12.5,            0.,NA,NA,"",   212.298E-03,   191.418E-03,  -91.8140E-03,   5.52577E-03
C:/temp/dataset/7/23_3.odb,Step-1,Increment      1: Step Time =    1.000,"PART-1-1",            60,           15.,          -2.5,            0.,NA,NA,"",   483.377E-03,   461.405E-03,  -144.080E-03,   5.29222E-03
C:/temp/dataset/7/23_3.odb,Step-1,Increment      1: Step Time =    1.000,"PART-1-1",            61,           15.,           -5.,            0.,NA,NA,"",   404.940E-03,   383.198E-03,  -130.904E-03,   5.34477E-03
C:/temp/dataset/7/23_3.odb,Step-1,Increment      1: Step Time =    1.000,"PART-1-1",            62,           15.,            5.,            0.,NA,NA,"",   760.747E-03,   738.052E-03,  -184.434E-03,   5.16440E-03
C:/temp/dataset/7/23_3.odb,Step-1,Increment      1: Step Time =    1.000,"PART-1-1",            63,           15.,           2.5,            0.,NA,NA,"",   661.326E-03,   638.885E-03,  -170.816E-03,   5.20164E-03
C:/temp/dataset/7/23_3.odb,Step-1,Increment      1: Step Time =    1.000,"PART-1-1",            64,           15.,          12.5,            0.,NA,NA,"",       1.10044,       1.07682,  -226.746E-03,   5.13306E-03
C:/temp/dataset/7/23_3.odb,Step-1,Increment      1: Step Time =    1.000,"PART-1-1",            65,           15.,           10.,            0.,NA,NA,"",   980.300E-03,   957.026E-03,  -212.346E-03,   5.12529E-03
C:/temp/dataset/7/23_3.odb,Step-1,Increment      1: Step Time =    1.000,"PART-1-1",            66,           15.,           20.,            0.,NA,NA,"",       1.50387,       1.47928,  -270.803E-03,   4.17225E-03
C:/temp/dataset/7/23_3.odb,Step-1,Increment      1: Step Time =    1.000,"PART-1-1",            67,           15.,          17.5,            0.,NA,NA,"",       1.36214,       1.33779,  -256.411E-03,   4.82939E-03
C:/temp/dataset/7/23_3.odb,Step-1,Increment      1: Step Time =    1.000,"PART-1-1",            68,           15.,          27.5,            0.,NA,NA,"",       1.95647,       1.93342,  -299.421E-03,   257.514E-06
C:/temp/dataset/7/23_3.odb,Step-1,Increment      1: Step Time =    1.000,"PART-1-1",            69,           15.,           25.,            0.,NA,NA,"",       1.80361,       1.77967,  -292.883E-03,   1.44248E-03
C:/temp/dataset/7/23_3.odb,Step-1,Increment      1: Step Time =    1.000,"PART-1-1",            70,        13.125,           30.,            0.,NA,NA,"",       2.09835,       2.08973,  -190.069E-03,   144.204E-06
C:/temp/dataset/7/23_3.odb,Step-1,Increment      1: Step Time =    1.000,"PART-1-1",            71,         9.375,           30.,            0.,NA,NA,"",       2.09959,       2.09927,   36.6589E-03,   1.61204E-03
C:/temp/dataset/7/23_3.odb,Step-1,Increment      1: Step Time =    1.000,"PART-1-1",            72,         5.625,           30.,            0.,NA,NA,"",       2.13077,       2.11385,   267.928E-03,   2.29806E-03
C:/temp/dataset/7/23_3.odb,Step-1,Increment      1: Step Time =    1.000,"PART-1-1",            73,         1.875,           30.,            0.,NA,NA,"",       2.18792,       2.12811,   508.071E-03,   1.24011E-03
C:/temp/dataset/7/23_3.odb,Step-1,Increment      1: Step Time =    1.000,"PART-1-1",            74,        -1.875,           30.,            0.,NA,NA,"",       2.26624,       2.13789,   751.846E-03,   106.475E-06
C:/temp/dataset/7/23_3.odb,Step-1,Increment      1: Step Time =    1.000,"PART-1-1",            75,        -5.625,           30.,            0.,NA,NA,"",       2.36464,       2.14543,   994.301E-03,   124.401E-06
C:/temp/dataset/7/23_3.odb,Step-1,Increment      1: Step Time =    1.000,"PART-1-1",            76,        -9.375,           30.,            0.,NA,NA,"",       2.48230,       2.15293,       1.23560,   41.7275E-06
C:/temp/dataset/7/23_3.odb,Step-1,Increment      1: Step Time =    1.000,"PART-1-1",            77,       -13.125,           30.,            0.,NA,NA,"",       2.61704,       2.16063,       1.47668,   3.21119E-06
C:/temp/dataset/7/23_3.odb,Step-1,Increment      1: Step Time =    1.000,"PART-1-1",            78,          -15.,          27.5,            0.,NA,NA,"",       2.56570,       2.00378,       1.60240,   4.54192E-06
C:/temp/dataset/7/23_3.odb,Step-1,Increment      1: Step Time =    1.000,"PART-1-1",            79,      -7.07467,       28.0475,            0.,NA,NA,"",       2.29844,       2.02260,       1.09174,   43.3932E-06
C:/temp/dataset/7/23_3.odb,Step-1,Increment      1: Step Time =    1.000,"PART-1-1",            80,      -10.7971,       27.6072,            0.,NA,NA,"",       2.40459,       2.00197,       1.33199,   26.8742E-06
C:/temp/dataset/7/23_3.odb,Step-1,Increment      1: Step Time =    1.000,"PART-1-1",            81,      -3.50976,       28.2242,            0.,NA,NA,"",       2.20214,       2.02662,   861.520E-03,   145.944E-06
C:/temp/dataset/7/23_3.odb,Step-1,Increment      1: Step Time =    1.000,"PART-1-1",            82,       11.3028,       27.6605,            0.,NA,NA,"",       1.95180,       1.95032,  -76.1258E-03,   1.40569E-03
C:/temp/dataset/7/23_3.odb,Step-1,Increment      1: Step Time =    1.000,"PART-1-1",            83,       7.46624,       27.7175,            0.,NA,NA,"",       1.97042,       1.96425,   155.785E-03,   1.49511E-03
C:/temp/dataset/7/23_3.odb,Step-1,Increment      1: Step Time =    1.000,"PART-1-1",            84,   523.838E-03,       28.1559,            0.,NA,NA,"",       2.10046,       2.01316,   599.266E-03,   1.00122E-03
C:/temp/dataset/7/23_3.odb,Step-1,Increment      1: Step Time =    1.000,"PART-1-1",            85,       13.1724,       27.5829,            0.,NA,NA,"",       1.95085,       1.94174,  -188.371E-03,   910.342E-06
C:/temp/dataset/7/23_3.odb,Step-1,Increment      1: Step Time =    1.000,"PART-1-1",            86,       9.41586,       27.7284,            0.,NA,NA,"",       1.95958,       1.95922,   37.1277E-03,   1.56274E-03
C:/temp/dataset/7/23_3.odb,Step-1,Increment      1: Step Time =    1.000,"PART-1-1",            87,       5.17501,       27.3177,            0.,NA,NA,"",       1.96941,       1.94653,   299.351E-03,   1.42580E-03
C:/temp/dataset/7/23_3.odb,Step-1,Increment      1: Step Time =    1.000,"PART-1-1",            88,       1.85763,       28.7412,            0.,NA,NA,"",       2.10986,       2.04700,   511.199E-03,   1.23737E-03
C:/temp/dataset/7/23_3.odb,Step-1,Increment      1: Step Time =    1.000,"PART-1-1",            89,      -1.45910,       27.7280,            0.,NA,NA,"",       2.11982,       1.99033,   729.527E-03,   611.150E-06
C:/temp/dataset/7/23_3.odb,Step-1,Increment      1: Step Time =    1.000,"PART-1-1",            90,      -5.31380,       28.2250,            0.,NA,NA,"",       2.25367,       2.03041,   977.996E-03,   26.8726E-06
C:/temp/dataset/7/23_3.odb,Step-1,Increment      1: Step Time =    1.000,"PART-1-1",            91,      -8.92632,       27.8484,            0.,NA,NA,"",       2.34983,       2.01361,       1.21123,   40.7720E-06
C:/temp/dataset/7/23_3.odb,Step-1,Increment      1: Step Time =    1.000,"PART-1-1",            92,       7.03655,   996.185E-03,            0.,NA,NA,"",   601.248E-03,   587.100E-03,   129.660E-03,   4.72681E-03
C:/temp/dataset/7/23_3.odb,Step-1,Increment      1: Step Time =    1.000,"PART-1-1",            93,       6.93081,       13.7923,            0.,NA,NA,"",       1.16454,       1.15113,   176.199E-03,   4.73696E-03
C:/temp/dataset/7/23_3.odb,Step-1,Increment      1: Step Time =    1.000,"PART-1-1",            94,       7.08682,       7.47611,            0.,NA,NA,"",   862.898E-03,   849.856E-03,   149.463E-03,   4.60556E-03
C:/temp/dataset/7/23_3.odb,Step-1,Increment      1: Step Time =    1.000,"PART-1-1",            95,       6.96700,      -1.15199,            0.,NA,NA,"",   525.414E-03,   510.508E-03,   124.264E-03,   4.83689E-03
C:/temp/dataset/7/23_3.odb,Step-1,Increment      1: Step Time =    1.000,"PART-1-1",            96,       6.47578,      -21.8661,            0.,NA,NA,"",   61.6714E-03,   45.0608E-03,   42.1057E-03,   5.82826E-03
C:/temp/dataset/7/23_3.odb,Step-1,Increment      1: Step Time =    1.000,"PART-1-1",            97,       7.14087,      -13.1040,            0.,NA,NA,"",   193.312E-03,   179.174E-03,   72.5691E-03,   4.77793E-03
C:/temp/dataset/7/23_3.odb,Step-1,Increment      1: Step Time =    1.000,"PART-1-1",            98,       6.53104,      -7.08024,            0.,NA,NA,"",   345.978E-03,   326.946E-03,   113.169E-03,   5.47597E-03
C:/temp/dataset/7/23_3.odb,Step-1,Increment      1: Step Time =    1.000,"PART-1-1",            99,       6.85322,      -3.24169,            0.,NA,NA,"",   457.141E-03,   441.125E-03,   119.944E-03,   5.00702E-03
C:/temp/dataset/7/23_3.odb,Step-1,Increment      1: Step Time =    1.000,"PART-1-1",           100,       6.74184,      -8.96518,            0.,NA,NA,"",   293.359E-03,   276.073E-03,   99.2135E-03,   5.22978E-03
C:/temp/dataset/7/23_3.odb,Step-1,Increment      1: Step Time =    1.000,"PART-1-1",           101,       6.94703,      -23.6171,            0.,NA,NA,"",   40.4535E-03,   27.9426E-03,   29.2524E-03,   5.22799E-03
C:/temp/dataset/7/23_3.odb,Step-1,Increment      1: Step Time =    1.000,"PART-1-1",           102,       7.44695,      -27.8442,            0.,NA,NA,"",   8.74958E-03,   3.63889E-03,   7.95698E-03,   4.77758E-03
C:/temp/dataset/7/23_3.odb,Step-1,Increment      1: Step Time =    1.000,"PART-1-1",           103,       7.35225,      -17.6578,            0.,NA,NA,"",   108.967E-03,   96.5973E-03,   50.4261E-03,   4.57192E-03
C:/temp/dataset/7/23_3.odb,Step-1,Increment      1: Step Time =    1.000,"PART-1-1",           104,       7.23832,      -15.2967,            0.,NA,NA,"",   149.680E-03,   136.330E-03,   61.7905E-03,   4.68548E-03
C:/temp/dataset/7/23_3.odb,Step-1,Increment      1: Step Time =    1.000,"PART-1-1",           105,       7.10099,       17.6583,            0.,NA,NA,"",       1.36645,       1.35489,   177.347E-03,   4.67533E-03
C:/temp/dataset/7/23_3.odb,Step-1,Increment      1: Step Time =    1.000,"PART-1-1",           106,       6.86948,       15.7920,            0.,NA,NA,"",       1.26885,       1.25522,   185.455E-03,   5.04904E-03
C:/temp/dataset/7/23_3.odb,Step-1,Increment      1: Step Time =    1.000,"PART-1-1",           107,       7.06799,       9.62990,            0.,NA,NA,"",   960.527E-03,   947.606E-03,   157.017E-03,   4.61188E-03
C:/temp/dataset/7/23_3.odb,Step-1,Increment      1: Step Time =    1.000,"PART-1-1",           108,       7.09093,       5.31052,            0.,NA,NA,"",   770.047E-03,   756.784E-03,   142.308E-03,   4.61793E-03
C:/temp/dataset/7/23_3.odb,Step-1,Increment      1: Step Time =    1.000,"PART-1-1",           109,       6.65187,      -5.22056,            0.,NA,NA,"",   398.127E-03,   380.260E-03,   117.931E-03,   5.28705E-03
C:/temp/dataset/7/23_3.odb,Step-1,Increment      1: Step Time =    1.000,"PART-1-1",           110,       7.26954,      -25.7037,            0.,NA,NA,"",   21.9016E-03,   13.0485E-03,   17.5903E-03,   4.99489E-03
C:/temp/dataset/7/23_3.odb,Step-1,Increment      1: Step Time =    1.000,"PART-1-1",           111,       7.53271,      -20.3934,            0.,NA,NA,"",   69.6784E-03,   58.8894E-03,   37.2440E-03,   4.37814E-03
C:/temp/dataset/7/23_3.odb,Step-1,Increment      1: Step Time =    1.000,"PART-1-1",           112,       7.01178,       11.7341,            0.,NA,NA,"",       1.06120,       1.04812,   166.074E-03,   4.67400E-03
C:/temp/dataset/7/23_3.odb,Step-1,Increment      1: Step Time =    1.000,"PART-1-1",           113,       7.07643,       3.14767,            0.,NA,NA,"",   682.698E-03,   669.085E-03,   135.656E-03,   4.65551E-03
C:/temp/dataset/7/23_3.odb,Step-1,Increment      1: Step Time =    1.000,"PART-1-1",           114,       6.98190,      -10.9751,            0.,NA,NA,"",   241.741E-03,   226.374E-03,   84.8149E-03,   4.95275E-03
C:/temp/dataset/7/23_3.odb,Step-1,Increment      1: Step Time =    1.000,"PART-1-1",           115,       13.1254,       22.8014,            0.,NA,NA,"",       1.65606,       1.64703,  -172.754E-03,   2.16847E-03
C:/temp/dataset/7/23_3.odb,Step-1,Increment      1: Step Time =    1.000,"PART-1-1",           116,       12.8923,      -4.74502,            0.,NA,NA,"",   394.005E-03,   388.031E-03,  -68.3530E-03,   2.65653E-03
C:/temp/dataset/7/23_3.odb,Step-1,Increment      1: Step Time =    1.000,"PART-1-1",           117,       13.0513,      -12.4505,            0.,NA,NA,"",   195.792E-03,   189.195E-03,  -50.3957E-03,   2.97235E-03
C:/temp/dataset/7/23_3.odb,Step-1,Increment      1: Step Time =    1.000,"PART-1-1",           118,       12.2427,       17.8341,            0.,NA,NA,"",       1.36046,       1.35635,  -105.677E-03,   1.86189E-03
C:/temp/dataset/7/23_3.odb,Step-1,Increment      1: Step Time =    1.000,"PART-1-1",           119,       13.0441,       9.90429,            0.,NA,NA,"",   958.859E-03,   951.269E-03,  -120.413E-03,   2.70537E-03
C:/temp/dataset/7/23_3.odb,Step-1,Increment      1: Step Time =    1.000,"PART-1-1",           120,       13.0522,       2.62582,            0.,NA,NA,"",   648.847E-03,   641.671E-03,  -96.2327E-03,   2.77557E-03
C:/temp/dataset/7/23_3.odb,Step-1,Increment      1: Step Time =    1.000,"PART-1-1",           121,       13.2006,      -19.7745,            0.,NA,NA,"",   71.7818E-03,   64.6455E-03,  -31.2024E-03,   3.30888E-03
C:/temp/dataset/7/23_3.odb,Step-1,Increment      1: Step Time =    1.000,"PART-1-1",           122,       9.90112,      -27.6522,            0.,NA,NA,"",   2.38654E-03,   1.32432E-03,   1.98539E-03,   1.16341E-03
C:/temp/dataset/7/23_3.odb,Step-1,Increment      1: Step Time =    1.000,"PART-1-1",           123,       13.0591,      -22.1191,            0.,NA,NA,"",   44.3135E-03,   38.0738E-03,  -22.6731E-03,   3.17330E-03
C:/temp/dataset/7/23_3.odb,Step-1,Increment      1: Step Time =    1.000,"PART-1-1",           124,       13.1139,      -14.9356,            0.,NA,NA,"",   146.684E-03,   139.813E-03,  -44.3694E-03,   3.09735E-03
C:/temp/dataset/7/23_3.odb,Step-1,Increment      1: Step Time =    1.000,"PART-1-1",           125,       13.1678,      -17.3995,            0.,NA,NA,"",   105.141E-03,   98.0563E-03,  -37.9423E-03,   3.21447E-03
C:/temp/dataset/7/23_3.odb,Step-1,Increment      1: Step Time =    1.000,"PART-1-1",           126,       12.7891,      -7.32383,            0.,NA,NA,"",   319.103E-03,   313.737E-03,  -58.2715E-03,   2.55836E-03
C:/temp/dataset/7/23_3.odb,Step-1,Increment      1: Step Time =    1.000,"PART-1-1",           127,       12.9162,      -9.94117,            0.,NA,NA,"",   252.271E-03,   246.329E-03,  -54.4297E-03,   2.75746E-03
C:/temp/dataset/7/23_3.odb,Step-1,Increment      1: Step Time =    1.000,"PART-1-1",           128,       13.0283,   193.158E-03,            0.,NA,NA,"",   558.166E-03,   551.249E-03,  -87.5962E-03,   2.77104E-03
C:/temp/dataset/7/23_3.odb,Step-1,Increment      1: Step Time =    1.000,"PART-1-1",           129,       12.9794,      -2.25409,            0.,NA,NA,"",   473.480E-03,   466.944E-03,  -78.3991E-03,   2.73702E-03
C:/temp/dataset/7/23_3.odb,Step-1,Increment      1: Step Time =    1.000,"PART-1-1",           130,       13.0689,       7.48049,            0.,NA,NA,"",   849.266E-03,   841.700E-03,  -113.110E-03,   2.75308E-03
C:/temp/dataset/7/23_3.odb,Step-1,Increment      1: Step Time =    1.000,"PART-1-1",           131,       13.0764,       5.05734,            0.,NA,NA,"",   746.069E-03,   738.614E-03,  -105.208E-03,   2.78270E-03
C:/temp/dataset/7/23_3.odb,Step-1,Increment      1: Step Time =    1.000,"PART-1-1",           132,       12.6962,       14.9270,            0.,NA,NA,"",       1.20523,       1.19919,  -120.537E-03,   2.24859E-03
C:/temp/dataset/7/23_3.odb,Step-1,Increment      1: Step Time =    1.000,"PART-1-1",           133,       12.9459,       12.3607,            0.,NA,NA,"",       1.07613,       1.06893,  -124.343E-03,   2.56645E-03
C:/temp/dataset/7/23_3.odb,Step-1,Increment      1: Step Time =    1.000,"PART-1-1",           134,       12.9476,       20.4489,            0.,NA,NA,"",       1.51393,       1.50605,  -154.253E-03,   2.41180E-03
C:/temp/dataset/7/23_3.odb,Step-1,Increment      1: Step Time =    1.000,"PART-1-1",           135,       13.1802,       25.1793,            0.,NA,NA,"",       1.80246,       1.79313,  -183.117E-03,   1.64240E-03
C:/temp/dataset/7/23_3.odb,Step-1,Increment      1: Step Time =    1.000,"PART-1-1",           136,      -12.4062,       24.9250,            0.,NA,NA,"",       2.33144,       1.83284,       1.44095,   15.8317E-06
C:/temp/dataset/7/23_3.odb,Step-1,Increment      1: Step Time =    1.000,"PART-1-1",           137,       11.3078,       25.3904,            0.,NA,NA,"",       1.81077,       1.80933,  -72.1201E-03,   1.92903E-03
C:/temp/dataset/7/23_3.odb,Step-1,Increment      1: Step Time =    1.000,"PART-1-1",           138,      -10.1009,       25.2443,            0.,NA,NA,"",       2.25537,       1.84856,       1.29209,   36.0236E-06
C:/temp/dataset/7/23_3.odb,Step-1,Increment      1: Step Time =    1.000,"PART-1-1",           139,      -4.83291,       26.5053,            0.,NA,NA,"",       2.14127,       1.91866,   950.664E-03,   98.4678E-06
C:/temp/dataset/7/23_3.odb,Step-1,Increment      1: Step Time =    1.000,"PART-1-1",           140,       1.72347,       26.1851,            0.,NA,NA,"",       1.95664,       1.88501,   524.565E-03,   1.77785E-03
C:/temp/dataset/7/23_3.odb,Step-1,Increment      1: Step Time =    1.000,"PART-1-1",           141,       6.12189,       25.7754,            0.,NA,NA,"",       1.86244,       1.84678,   241.015E-03,   1.55204E-03
C:/temp/dataset/7/23_3.odb,Step-1,Increment      1: Step Time =    1.000,"PART-1-1",           142,       7.62725,       25.7499,            0.,NA,NA,"",       1.84655,       1.84062,   147.954E-03,   1.62901E-03
C:/temp/dataset/7/23_3.odb,Step-1,Increment      1: Step Time =    1.000,"PART-1-1",           143,       3.76931,       25.0880,            0.,NA,NA,"",       1.85276,       1.81080,   392.049E-03,   2.14317E-03
C:/temp/dataset/7/23_3.odb,Step-1,Increment      1: Step Time =    1.000,"PART-1-1",           144,  -231.428E-03,       26.1188,            0.,NA,NA,"",       1.99481,       1.88487,   653.082E-03,   1.23878E-03
C:/temp/dataset/7/23_3.odb,Step-1,Increment      1: Step Time =    1.000,"PART-1-1",           145,      -2.48530,       25.9891,            0.,NA,NA,"",       2.04397,       1.88082,   800.206E-03,   537.466E-06
C:/temp/dataset/7/23_3.odb,Step-1,Increment      1: Step Time =    1.000,"PART-1-1",           146,      -3.63425,       26.9302,            0.,NA,NA,"",       2.13038,       1.94357,   872.382E-03,   231.596E-06
C:/temp/dataset/7/23_3.odb,Step-1,Increment      1: Step Time =    1.000,"PART-1-1",           147,      -8.31738,       25.8431,            0.,NA,NA,"",       2.22045,       1.88333,       1.17621,   46.0899E-06
C:/temp/dataset/7/23_3.odb,Step-1,Increment      1: Step Time =    1.000,"PART-1-1",           148,       9.04714,   705.037E-03,            0.,NA,NA,"",   574.606E-03,   571.910E-03,   55.5996E-03,   2.21924E-03
C:/temp/dataset/7/23_3.odb,Step-1,Increment      1: Step Time =    1.000,"PART-1-1",           149,       7.85197,      -7.06885,            0.,NA,NA,"",   333.018E-03,   324.017E-03,   76.8997E-03,   3.78112E-03
C:/temp/dataset/7/23_3.odb,Step-1,Increment      1: Step Time =    1.000,"PART-1-1",           150,       8.74205,      -22.9842,            0.,NA,NA,"",   34.2914E-03,   29.9261E-03,   16.7430E-03,   2.81284E-03
C:/temp/dataset/7/23_3.odb,Step-1,Increment      1: Step Time =    1.000,"PART-1-1",           151,       9.28078,      -15.1075,            0.,NA,NA,"",   138.754E-03,   136.372E-03,   25.5988E-03,   1.98495E-03
C:/temp/dataset/7/23_3.odb,Step-1,Increment      1: Step Time =    1.000,"PART-1-1",           152,       8.97855,      -1.55139,            0.,NA,NA,"",   495.451E-03,   492.410E-03,   54.8141E-03,   2.31461E-03
C:/temp/dataset/7/23_3.odb,Step-1,Increment      1: Step Time =    1.000,"PART-1-1",           153,       9.09422,       9.69450,            0.,NA,NA,"",   947.471E-03,   945.343E-03,   63.4749E-03,   2.15500E-03
C:/temp/dataset/7/23_3.odb,Step-1,Increment      1: Step Time =    1.000,"PART-1-1",           154,       8.44946,       15.5970,            0.,NA,NA,"",       1.24434,       1.24020,   101.440E-03,   2.70049E-03
C:/temp/dataset/7/23_3.odb,Step-1,Increment      1: Step Time =    1.000,"PART-1-1",           155,       9.11701,       7.46178,            0.,NA,NA,"",   846.344E-03,   844.182E-03,   60.4520E-03,   2.12199E-03
C:/temp/dataset/7/23_3.odb,Step-1,Increment      1: Step Time =    1.000,"PART-1-1",           156,       8.83101,       13.9442,            0.,NA,NA,"",       1.15619,       1.15342,   79.9845E-03,   2.43910E-03
C:/temp/dataset/7/23_3.odb,Step-1,Increment      1: Step Time =    1.000,"PART-1-1",           157,       9.61385,      -19.9311,            0.,NA,NA,"",   63.0485E-03,   61.6003E-03,   13.4359E-03,   1.56843E-03
C:/temp/dataset/7/23_3.odb,Step-1,Increment      1: Step Time =    1.000,"PART-1-1",           158,       9.10031,       2.95854,            0.,NA,NA,"",   659.441E-03,   657.024E-03,   56.4079E-03,   2.14650E-03
C:/temp/dataset/7/23_3.odb,Step-1,Increment      1: Step Time =    1.000,"PART-1-1",           159,       9.17986,      -12.8049,            0.,NA,NA,"",   184.502E-03,   181.821E-03,   31.3412E-03,   2.10678E-03
C:/temp/dataset/7/23_3.odb,Step-1,Increment      1: Step Time =    1.000,"PART-1-1",           160,       8.54844,      -8.43147,            0.,NA,NA,"",   291.160E-03,   285.973E-03,   54.7107E-03,   2.89514E-03
C:/temp/dataset/7/23_3.odb,Step-1,Increment      1: Step Time =    1.000,"PART-1-1",           161,       8.46228,      -5.79934,            0.,NA,NA,"",   364.477E-03,   358.988E-03,   63.0189E-03,   2.98884E-03
C:/temp/dataset/7/23_3.odb,Step-1,Increment      1: Step Time =    1.000,"PART-1-1",           162,       8.97830,      -10.5487,            0.,NA,NA,"",   235.927E-03,   232.554E-03,   39.7516E-03,   2.35688E-03
C:/temp/dataset/7/23_3.odb,Step-1,Increment      1: Step Time =    1.000,"PART-1-1",           163,       8.84007,      -3.76868,            0.,NA,NA,"",   423.675E-03,   419.995E-03,   55.7218E-03,   2.49867E-03
C:/temp/dataset/7/23_3.odb,Step-1,Increment      1: Step Time =    1.000,"PART-1-1",           164,       9.12644,       5.21383,            0.,NA,NA,"",   750.147E-03,   747.914E-03,   57.8382E-03,   2.11023E-03
C:/temp/dataset/7/23_3.odb,Step-1,Increment      1: Step Time =    1.000,"PART-1-1",           165,       9.36869,      -17.5094,            0.,NA,NA,"",   97.8443E-03,   95.7114E-03,   20.3182E-03,   1.88279E-03
C:/temp/dataset/7/23_3.odb,Step-1,Increment      1: Step Time =    1.000,"PART-1-1",           166,       9.01212,       11.8707,            0.,NA,NA,"",       1.05161,       1.04933,   69.2109E-03,   2.25329E-03
C:/temp/dataset/7/23_3.odb,Step-1,Increment      1: Step Time =    1.000,"PART-1-1",           167,       9.60003,       16.9835,            0.,NA,NA,"",       1.31276,       1.31214,   40.2099E-03,   1.08649E-03
C:/temp/dataset/7/23_3.odb,Step-1,Increment      1: Step Time =    1.000,"PART-1-1",           168,       7.13047,       19.6676,            0.,NA,NA,"",       1.47800,       1.46711,   179.125E-03,   2.75079E-03
C:/temp/dataset/7/23_3.odb,Step-1,Increment      1: Step Time =    1.000,"PART-1-1",           169,       9.55406,      -25.2995,            0.,NA,NA,"",   13.5089E-03,   11.9234E-03,   6.35003E-03,   1.69984E-03
C:/temp/dataset/7/23_3.odb,Step-1,Increment      1: Step Time =    1.000,"PART-1-1",           170,       12.3800,      -27.4389,            0.,NA,NA,"",   5.81294E-03,   2.93925E-03,  -5.01508E-03,   2.54610E-03
C:/temp/dataset/7/23_3.odb,Step-1,Increment      1: Step Time =    1.000,"PART-1-1",           171,      -11.9351,       22.4166,            0.,NA,NA,"",       2.18986,       1.67061,       1.41582,   21.0591E-06
C:/temp/dataset/7/23_3.odb,Step-1,Increment      1: Step Time =    1.000,"PART-1-1",           172,       10.9842,      -1.93535,            0.,NA,NA,"",   477.516E-03,   477.348E-03,  -12.6812E-03,   231.121E-06
C:/temp/dataset/7/23_3.odb,Step-1,Increment      1: Step Time =    1.000,"PART-1-1",           173,       11.2234,      -14.9909,            0.,NA,NA,"",   137.899E-03,   137.562E-03,  -9.63757E-03,   604.328E-06
C:/temp/dataset/7/23_3.odb,Step-1,Increment      1: Step Time =    1.000,"PART-1-1",           174,       11.0574,       21.1283,            0.,NA,NA,"",       1.54879,       1.54805,  -48.0518E-03,   1.90410E-03
C:/temp/dataset/7/23_3.odb,Step-1,Increment      1: Step Time =    1.000,"PART-1-1",           175,       10.7466,       19.4847,            0.,NA,NA,"",       1.45167,       1.45143,  -26.7089E-03,   1.37967E-03
C:/temp/dataset/7/23_3.odb,Step-1,Increment      1: Step Time =    1.000,"PART-1-1",           176,       11.0568,   433.028E-03,            0.,NA,NA,"",   560.077E-03,   559.813E-03,  -17.1870E-03,   307.404E-06
C:/temp/dataset/7/23_3.odb,Step-1,Increment      1: Step Time =    1.000,"PART-1-1",           177,       10.9662,       12.1205,            0.,NA,NA,"",       1.05863,       1.05830,  -26.3193E-03,   137.922E-06
C:/temp/dataset/7/23_3.odb,Step-1,Increment      1: Step Time =    1.000,"PART-1-1",           178,       11.6216,      -21.4567,            0.,NA,NA,"",   44.6224E-03,   43.5877E-03,  -9.55369E-03,   1.18569E-03
C:/temp/dataset/7/23_3.odb,Step-1,Increment      1: Step Time =    1.000,"PART-1-1",           179,       11.2975,      -17.3958,            0.,NA,NA,"",   97.1386E-03,   96.7083E-03,  -9.13337E-03,   718.701E-06
C:/temp/dataset/7/23_3.odb,Step-1,Increment      1: Step Time =    1.000,"PART-1-1",           180,       10.6273,       14.4803,            0.,NA,NA,"",       1.17771,       1.17765,  -12.1872E-03,   258.238E-06
C:/temp/dataset/7/23_3.odb,Step-1,Increment      1: Step Time =    1.000,"PART-1-1",           181,       11.1012,       2.78293,            0.,NA,NA,"",   648.196E-03,   647.850E-03,  -21.1770E-03,   350.990E-06
C:/temp/dataset/7/23_3.odb,Step-1,Increment      1: Step Time =    1.000,"PART-1-1",           182,       11.1153,       7.46695,            0.,NA,NA,"",   842.095E-03,   841.655E-03,  -27.2172E-03,   342.463E-06
C:/temp/dataset/7/23_3.odb,Step-1,Increment      1: Step Time =    1.000,"PART-1-1",           183,       11.1247,      -12.5851,            0.,NA,NA,"",   185.529E-03,   185.296E-03,  -9.29215E-03,   462.558E-06
C:/temp/dataset/7/23_3.odb,Step-1,Increment      1: Step Time =    1.000,"PART-1-1",           184,       10.4094,      -7.19663,            0.,NA,NA,"",   317.099E-03,   317.031E-03,   6.57699E-03,   513.916E-06
C:/temp/dataset/7/23_3.odb,Step-1,Increment      1: Step Time =    1.000,"PART-1-1",           185,       10.4303,      -22.2648,            0.,NA,NA,"",   35.3107E-03,   35.2163E-03,   2.58052E-03,   515.523E-06
C:/temp/dataset/7/23_3.odb,Step-1,Increment      1: Step Time =    1.000,"PART-1-1",           186,       10.9130,      -10.1038,            0.,NA,NA,"",   241.742E-03,   241.671E-03,  -5.83439E-03,   191.972E-06
C:/temp/dataset/7/23_3.odb,Step-1,Increment      1: Step Time =    1.000,"PART-1-1",           187,       10.8491,      -4.38491,            0.,NA,NA,"",   398.782E-03,   398.724E-03,  -6.79495E-03,   108.697E-06
C:/temp/dataset/7/23_3.odb,Step-1,Increment      1: Step Time =    1.000,"PART-1-1",           188,       11.1275,       5.13070,            0.,NA,NA,"",   742.362E-03,   741.945E-03,  -24.8681E-03,   371.532E-06
C:/temp/dataset/7/23_3.odb,Step-1,Increment      1: Step Time =    1.000,"PART-1-1",           189,       11.0819,       9.79848,            0.,NA,NA,"",   947.612E-03,   947.176E-03,  -28.7512E-03,   284.493E-06
C:/temp/dataset/7/23_3.odb,Step-1,Increment      1: Step Time =    1.000,"PART-1-1",           190,       12.1026,      -24.5603,            0.,NA,NA,"",   19.1189E-03,   16.7562E-03,  -9.20653E-03,   1.93881E-03
C:/temp/dataset/7/23_3.odb,Step-1,Increment      1: Step Time =    1.000,"PART-1-1",           191,      -7.61069,       24.2264,            0.,NA,NA,"",       2.10880,       1.77787,       1.13411,   57.2014E-06
C:/temp/dataset/7/23_3.odb,Step-1,Increment      1: Step Time =    1.000,"PART-1-1",           192,      -5.77678,       24.2650,            0.,NA,NA,"",       2.04660,       1.77650,       1.01616,   99.1828E-06
C:/temp/dataset/7/23_3.odb,Step-1,Increment      1: Step Time =    1.000,"PART-1-1",           193,       1.00958,       23.8763,            0.,NA,NA,"",       1.83376,       1.74052,   577.275E-03,   2.33232E-03
C:/temp/dataset/7/23_3.odb,Step-1,Increment      1: Step Time =    1.000,"PART-1-1",           194,      -3.86757,       24.8145,            0.,NA,NA,"",       2.01615,       1.80796,   892.256E-03,   296.802E-06
C:/temp/dataset/7/23_3.odb,Step-1,Increment      1: Step Time =    1.000,"PART-1-1",           195,  -996.969E-03,       24.6602,            0.,NA,NA,"",       1.92747,       1.79314,   706.959E-03,   1.34348E-03
C:/temp/dataset/7/23_3.odb,Step-1,Increment      1: Step Time =    1.000,"PART-1-1",           196,       7.19995,       21.7613,            0.,NA,NA,"",       1.60236,       1.59275,   175.276E-03,   2.84843E-03
C:/temp/dataset/7/23_3.odb,Step-1,Increment      1: Step Time =    1.000,"PART-1-1",           197,       2.92747,       22.7842,            0.,NA,NA,"",       1.72854,       1.66847,   451.729E-03,   3.93900E-03
C:/temp/dataset/7/23_3.odb,Step-1,Increment      1: Step Time =    1.000,"PART-1-1",           198,       5.53232,       24.2100,            0.,NA,NA,"",       1.77269,       1.75061,   278.929E-03,   2.10774E-03
C:/temp/dataset/7/23_3.odb,Step-1,Increment      1: Step Time =    1.000,"PART-1-1",           199,       9.18626,       19.3402,            0.,NA,NA,"",       1.44611,       1.44480,   61.5124E-03,   1.48212E-03
C:/temp/dataset/7/23_3.odb,Step-1,Increment      1: Step Time =    1.000,"PART-1-1",           200,       11.2321,       23.1770,            0.,NA,NA,"",       1.67355,       1.67237,  -62.9028E-03,   2.16220E-03
C:/temp/dataset/7/23_3.odb,Step-1,Increment      1: Step Time =    1.000,"PART-1-1",           201,       5.11021,       22.1378,            0.,NA,NA,"",       1.65066,       1.62212,   305.602E-03,   3.83197E-03
C:/temp/dataset/7/23_3.odb,Step-1,Increment      1: Step Time =    1.000,"PART-1-1",           202,   167.280E-03,       22.2372,            0.,NA,NA,"",       1.75749,       1.63709,   639.295E-03,   3.46869E-03
C:/temp/dataset/7/23_3.odb,Step-1,Increment      1: Step Time =    1.000,"PART-1-1",           203,      -2.32264,       22.6339,            0.,NA,NA,"",       1.84662,       1.66495,   798.732E-03,   1.13428E-03
C:/temp/dataset/7/23_3.odb,Step-1,Increment      1: Step Time =    1.000,"PART-1-1",           204,       9.17324,       21.4477,            0.,NA,NA,"",       1.57086,       1.56972,   59.7236E-03,   2.03453E-03
C:/temp/dataset/7/23_3.odb,Step-1,Increment      1: Step Time =    1.000,"PART-1-1",           205,       9.43619,       25.5889,            0.,NA,NA,"",       1.82614,       1.82573,   38.9080E-03,   1.92302E-03
C:/temp/dataset/7/23_3.odb,Step-1,Increment      1: Step Time =    1.000,"PART-1-1",           206,      -5.39738,       22.2321,            0.,NA,NA,"",       1.92319,       1.64522,   995.943E-03,   277.330E-06
C:/temp/dataset/7/23_3.odb,Step-1,Increment      1: Step Time =    1.000,"PART-1-1",           207,      -8.66915,       22.6604,            0.,NA,NA,"",       2.06725,       1.67949,       1.20533,   63.1403E-06
C:/temp/dataset/7/23_3.odb,Step-1,Increment      1: Step Time =    1.000,"PART-1-1",           208,      -12.8188,       27.4435,            0.,NA,NA,"",       2.47402,       1.99562,       1.46228,   12.7902E-06
C:/temp/dataset/7/23_3.odb,Step-1,Increment      1: Step Time =    1.000,"PART-1-1",           209,       7.43992,       23.7550,            0.,NA,NA,"",       1.72371,       1.71621,   160.613E-03,   2.26828E-03
C:/temp/dataset/7/23_3.odb,Step-1,Increment      1: Step Time =    1.000,"PART-1-1",           210,      -6.48406,       26.1481,            0.,NA,NA,"",       2.17377,       1.89910,       1.05770,   43.6784E-06
C:/temp/dataset/7/23_3.odb,Step-1,Increment      1: Step Time =    1.000,"PART-1-1",           211,       3.18484,       28.0088,            0.,NA,NA,"",       2.04136,       1.99638,   426.184E-03,   1.48682E-03
C:/temp/dataset/7/23_3.odb,Step-1,Increment      1: Step Time =    1.000,"PART-1-1",           212,       11.4304,      -19.6429,            0.,NA,NA,"",   65.4618E-03,   64.8195E-03,  -9.14774E-03,   908.485E-06
C:/temp/dataset/7/23_3.odb,Step-1,Increment      1: Step Time =    1.000,"PART-1-1",           213,       9.33060,       23.4727,            0.,NA,NA,"",       1.69468,       1.69400,   47.9977E-03,   2.20435E-03
C:/temp/dataset/7/23_3.odb,Step-1,Increment      1: Step Time =    1.000,"PART-1-1",           214,      -12.1707,       23.6708,            0.,NA,NA,"",       2.26027,       1.75172,       1.42838,   13.5727E-06
C:/temp/dataset/7/23_3.odb,Step-1,Increment      1: Step Time =    1.000,"PART-1-1",           215,      -13.7031,       24.9625,            0.,NA,NA,"",       2.38775,       1.83794,       1.52425,   11.4708E-06
C:/temp/dataset/7/23_3.odb,Step-1,Increment      1: Step Time =    1.000,"PART-1-1",           216,          -15.,         23.75,            0.,NA,NA,"",       2.38737,       1.76268,       1.61013,   6.93969E-06
C:/temp/dataset/7/23_3.odb,Step-1,Increment      1: Step Time =    1.000,"PART-1-1",           217,      -13.4675,       22.4583,            0.,NA,NA,"",       2.25910,       1.67647,       1.51427,   11.0170E-06
C:/temp/dataset/7/23_3.odb,Step-1,Increment      1: Step Time =    1.000,"PART-1-1",           218,      -9.86170,       27.7278,            0.,NA,NA,"",       2.37660,       2.00779,       1.27161,   33.2517E-06
C:/temp/dataset/7/23_3.odb,Step-1,Increment      1: Step Time =    1.000,"PART-1-1",           219,      -10.4490,       26.4258,            0.,NA,NA,"",       2.32983,       1.92526,       1.31205,   26.3889E-06
C:/temp/dataset/7/23_3.odb,Step-1,Increment      1: Step Time =    1.000,"PART-1-1",           220,      -9.20914,       25.5437,            0.,NA,NA,"",       2.23716,       1.86594,       1.23415,   38.1109E-06
C:/temp/dataset/7/23_3.odb,Step-1,Increment      1: Step Time =    1.000,"PART-1-1",           221,      -8.62185,       26.8458,            0.,NA,NA,"",       2.28506,       1.94847,       1.19373,   38.0474E-06
C:/temp/dataset/7/23_3.odb,Step-1,Increment      1: Step Time =    1.000,"PART-1-1",           222,      -9.15066,       28.9242,            0.,NA,NA,"",       2.41596,       2.08329,       1.22342,   31.5575E-06
C:/temp/dataset/7/23_3.odb,Step-1,Increment      1: Step Time =    1.000,"PART-1-1",           223,      -10.3125,           30.,            0.,NA,NA,"",       2.51449,       2.15484,       1.29588,   28.5768E-06
C:/temp/dataset/7/23_3.odb,Step-1,Increment      1: Step Time =    1.000,"PART-1-1",           224,      -11.0235,       28.8036,            0.,NA,NA,"",       2.47595,       2.07938,       1.34407,   16.4225E-06
C:/temp/dataset/7/23_3.odb,Step-1,Increment      1: Step Time =    1.000,"PART-1-1",           225,      -11.2536,       25.0847,            0.,NA,NA,"",       2.29250,       1.84070,       1.36652,   24.2057E-06
C:/temp/dataset/7/23_3.odb,Step-1,Increment      1: Step Time =    1.000,"PART-1-1",           226,      -10.3021,       22.5385,            0.,NA,NA,"",       2.12684,       1.67506,       1.31058,   33.7163E-06
C:/temp/dataset/7/23_3.odb,Step-1,Increment      1: Step Time =    1.000,"PART-1-1",           227,      -9.38503,       23.9523,            0.,NA,NA,"",       2.16125,       1.76401,       1.24871,   36.0894E-06
C:/temp/dataset/7/23_3.odb,Step-1,Increment      1: Step Time =    1.000,"PART-1-1",           228,      -12.9719,       28.7217,            0.,NA,NA,"",       2.54519,       2.07813,       1.46948,   6.92541E-06
C:/temp/dataset/7/23_3.odb,Step-1,Increment      1: Step Time =    1.000,"PART-1-1",           229,      -14.0625,           30.,            0.,NA,NA,"",       2.65310,       2.16257,       1.53695,   1.48880E-06
C:/temp/dataset/7/23_3.odb,Step-1,Increment      1: Step Time =    1.000,"PART-1-1",           230,          -15.,         28.75,            0.,NA,NA,"",       2.62737,       2.08414,       1.59981,   1.58905E-06
C:/temp/dataset/7/23_3.odb,Step-1,Increment      1: Step Time =    1.000,"PART-1-1",           231,      -13.9094,       27.4717,            0.,NA,NA,"",       2.51930,       1.99970,       1.53234,   7.87851E-06
C:/temp/dataset/7/23_3.odb,Step-1,Increment      1: Step Time =    1.000,"PART-1-1",           232,      -7.40072,       25.9956,            0.,NA,NA,"",       2.19642,       1.89121,       1.11697,   43.2334E-06
C:/temp/dataset/7/23_3.odb,Step-1,Increment      1: Step Time =    1.000,"PART-1-1",           233,      -7.96404,       25.0347,            0.,NA,NA,"",       2.16459,       1.83059,       1.15516,   43.2133E-06
C:/temp/dataset/7/23_3.odb,Step-1,Increment      1: Step Time =    1.000,"PART-1-1",           234,      -6.69374,       24.2457,            0.,NA,NA,"",       2.07709,       1.77720,       1.07511,   57.7906E-06
C:/temp/dataset/7/23_3.odb,Step-1,Increment      1: Step Time =    1.000,"PART-1-1",           235,      -6.13042,       25.2066,            0.,NA,NA,"",       2.11013,       1.83778,       1.03692,   63.0380E-06
C:/temp/dataset/7/23_3.odb,Step-1,Increment      1: Step Time =    1.000,"PART-1-1",           236,      -5.46940,       29.1125,            0.,NA,NA,"",       2.30910,       2.08793,   986.155E-03,   71.8714E-06
C:/temp/dataset/7/23_3.odb,Step-1,Increment      1: Step Time =    1.000,"PART-1-1",           237,      -4.41178,       28.2246,            0.,NA,NA,"",       2.22732,       2.02852,   919.816E-03,   76.1249E-06
C:/temp/dataset/7/23_3.odb,Step-1,Increment      1: Step Time =    1.000,"PART-1-1",           238,      -3.62988,       29.1121,            0.,NA,NA,"",       2.25746,       2.08415,   867.420E-03,   78.3567E-06
C:/temp/dataset/7/23_3.odb,Step-1,Increment      1: Step Time =    1.000,"PART-1-1",           239,       -4.6875,           30.,            0.,NA,NA,"",       2.33817,       2.14359,   933.843E-03,   114.524E-06
C:/temp/dataset/7/23_3.odb,Step-1,Increment      1: Step Time =    1.000,"PART-1-1",           240,  -467.629E-03,       27.9420,            0.,NA,NA,"",       2.10923,       2.00184,   664.443E-03,   797.351E-06
C:/temp/dataset/7/23_3.odb,Step-1,Increment      1: Step Time =    1.000,"PART-1-1",           241,  -845.263E-03,       26.9234,            0.,NA,NA,"",       2.05710,       1.93747,   691.297E-03,   900.503E-06
C:/temp/dataset/7/23_3.odb,Step-1,Increment      1: Step Time =    1.000,"PART-1-1",           242,   746.021E-03,       26.1520,            0.,NA,NA,"",       1.97488,       1.88504,   588.872E-03,   1.48898E-03
C:/temp/dataset/7/23_3.odb,Step-1,Increment      1: Step Time =    1.000,"PART-1-1",           243,       1.12365,       27.1705,            0.,NA,NA,"",       2.02824,       1.94884,   561.965E-03,   1.33984E-03
C:/temp/dataset/7/23_3.odb,Step-1,Increment      1: Step Time =    1.000,"PART-1-1",           244,       14.0901,       25.0896,            0.,NA,NA,"",       1.80209,       1.78635,  -237.620E-03,   1.37610E-03
C:/temp/dataset/7/23_3.odb,Step-1,Increment      1: Step Time =    1.000,"PART-1-1",           245,       13.1528,       23.9903,            0.,NA,NA,"",       1.72901,       1.71981,  -178.094E-03,   1.88905E-03
C:/temp/dataset/7/23_3.odb,Step-1,Increment      1: Step Time =    1.000,"PART-1-1",           246,       14.0627,       22.6507,            0.,NA,NA,"",       1.65280,       1.63704,  -227.676E-03,   2.38140E-03
C:/temp/dataset/7/23_3.odb,Step-1,Increment      1: Step Time =    1.000,"PART-1-1",           247,           15.,         23.75,            0.,NA,NA,"",       1.72740,       1.70314,  -288.472E-03,   2.18844E-03
C:/temp/dataset/7/23_3.odb,Step-1,Increment      1: Step Time =    1.000,"PART-1-1",           248,       11.2764,       28.8302,            0.,NA,NA,"",       2.02395,       2.02250,  -76.4952E-03,   966.269E-06
C:/temp/dataset/7/23_3.odb,Step-1,Increment      1: Step Time =    1.000,"PART-1-1",           249,       10.3125,           30.,            0.,NA,NA,"",       2.09646,       2.09637,  -20.1000E-03,   1.19808E-03
C:/temp/dataset/7/23_3.odb,Step-1,Increment      1: Step Time =    1.000,"PART-1-1",           250,       9.39543,       28.8642,            0.,NA,NA,"",       2.02997,       2.02964,   36.8079E-03,   1.44694E-03
C:/temp/dataset/7/23_3.odb,Step-1,Increment      1: Step Time =    1.000,"PART-1-1",           251,       10.3594,       27.6945,            0.,NA,NA,"",       1.95477,       1.95467,  -19.5864E-03,   1.46608E-03
C:/temp/dataset/7/23_3.odb,Step-1,Increment      1: Step Time =    1.000,"PART-1-1",           252,        8.4375,           30.,            0.,NA,NA,"",       2.10465,       2.10256,   93.7174E-03,   1.91088E-03
C:/temp/dataset/7/23_3.odb,Step-1,Increment      1: Step Time =    1.000,"PART-1-1",           253,       7.48312,       28.8587,            0.,NA,NA,"",       2.04119,       2.03541,   153.429E-03,   1.78778E-03
C:/temp/dataset/7/23_3.odb,Step-1,Increment      1: Step Time =    1.000,"PART-1-1",           254,       8.44105,       27.7230,            0.,NA,NA,"",       1.96400,       1.96165,   96.1681E-03,   1.48711E-03
C:/temp/dataset/7/23_3.odb,Step-1,Increment      1: Step Time =    1.000,"PART-1-1",           255,       13.0365,       21.6252,            0.,NA,NA,"",       1.58442,       1.57595,  -163.559E-03,   2.27398E-03
C:/temp/dataset/7/23_3.odb,Step-1,Increment      1: Step Time =    1.000,"PART-1-1",           256,       13.9738,       20.2245,            0.,NA,NA,"",       1.50745,       1.49242,  -212.337E-03,   3.17835E-03
C:/temp/dataset/7/23_3.odb,Step-1,Increment      1: Step Time =    1.000,"PART-1-1",           257,           15.,         21.25,            0.,NA,NA,"",       1.57719,       1.55261,  -277.342E-03,   3.55281E-03
C:/temp/dataset/7/23_3.odb,Step-1,Increment      1: Step Time =    1.000,"PART-1-1",           258,       6.90015,       14.7921,            0.,NA,NA,"",       1.21620,       1.20269,   180.784E-03,   4.83685E-03
C:/temp/dataset/7/23_3.odb,Step-1,Increment      1: Step Time =    1.000,"PART-1-1",           259,       5.93474,       15.8126,            0.,NA,NA,"",       1.28160,       1.25994,   234.641E-03,   5.98145E-03
C:/temp/dataset/7/23_3.odb,Step-1,Increment      1: Step Time =    1.000,"PART-1-1",           260,            5.,       14.7917,            0.,NA,NA,"",       1.24193,       1.21020,   278.942E-03,   6.95974E-03
C:/temp/dataset/7/23_3.odb,Step-1,Increment      1: Step Time =    1.000,"PART-1-1",           261,       5.96541,       13.7711,            0.,NA,NA,"",       1.17530,       1.15356,   225.031E-03,   5.88690E-03
C:/temp/dataset/7/23_3.odb,Step-1,Increment      1: Step Time =    1.000,"PART-1-1",           262,       7.07741,       8.55300,            0.,NA,NA,"",   911.076E-03,   898.093E-03,   153.262E-03,   4.60877E-03
C:/temp/dataset/7/23_3.odb,Step-1,Increment      1: Step Time =    1.000,"PART-1-1",           263,       6.03400,       9.60662,            0.,NA,NA,"",   971.852E-03,   950.057E-03,   204.663E-03,   5.86121E-03
C:/temp/dataset/7/23_3.odb,Step-1,Increment      1: Step Time =    1.000,"PART-1-1",           264,            5.,       8.54167,            0.,NA,NA,"",   938.170E-03,   905.155E-03,   246.692E-03,   7.13139E-03
C:/temp/dataset/7/23_3.odb,Step-1,Increment      1: Step Time =    1.000,"PART-1-1",           265,       6.04341,       7.48805,            0.,NA,NA,"",   875.883E-03,   853.846E-03,   195.240E-03,   5.87789E-03
C:/temp/dataset/7/23_3.odb,Step-1,Increment      1: Step Time =    1.000,"PART-1-1",           266,            5.,         4.375,            0.,NA,NA,"",   759.160E-03,   725.450E-03,   223.710E-03,   7.20440E-03
C:/temp/dataset/7/23_3.odb,Step-1,Increment      1: Step Time =    1.000,"PART-1-1",           267,       6.03822,       3.24050,            0.,NA,NA,"",   698.701E-03,   676.010E-03,   176.616E-03,   5.93844E-03
C:/temp/dataset/7/23_3.odb,Step-1,Increment      1: Step Time =    1.000,"PART-1-1",           268,       7.08368,       4.22909,            0.,NA,NA,"",   725.723E-03,   712.283E-03,   139.022E-03,   4.63671E-03
C:/temp/dataset/7/23_3.odb,Step-1,Increment      1: Step Time =    1.000,"PART-1-1",           269,       6.04546,       5.36359,            0.,NA,NA,"",   784.705E-03,   762.374E-03,   185.868E-03,   5.90248E-03
C:/temp/dataset/7/23_3.odb,Step-1,Increment      1: Step Time =    1.000,"PART-1-1",           270,            5.,       2.29167,            0.,NA,NA,"",   676.850E-03,   642.851E-03,   211.821E-03,   7.23919E-03
C:/temp/dataset/7/23_3.odb,Step-1,Increment      1: Step Time =    1.000,"PART-1-1",           271,       6.01828,       1.12309,            0.,NA,NA,"",   618.088E-03,   594.940E-03,   167.571E-03,   5.99177E-03
C:/temp/dataset/7/23_3.odb,Step-1,Increment      1: Step Time =    1.000,"PART-1-1",           272,       7.05649,       2.07193,            0.,NA,NA,"",   641.327E-03,   627.445E-03,   132.712E-03,   4.69114E-03
C:/temp/dataset/7/23_3.odb,Step-1,Increment      1: Step Time =    1.000,"PART-1-1",           273,       7.00178,  -77.9012E-03,            0.,NA,NA,"",   562.682E-03,   548.155E-03,   127.033E-03,   4.78185E-03
C:/temp/dataset/7/23_3.odb,Step-1,Increment      1: Step Time =    1.000,"PART-1-1",           274,            5.,   208.333E-03,            0.,NA,NA,"",   599.364E-03,   565.124E-03,   199.679E-03,   7.27594E-03
C:/temp/dataset/7/23_3.odb,Step-1,Increment      1: Step Time =    1.000,"PART-1-1",           275,       5.98350,  -992.661E-03,            0.,NA,NA,"",   542.737E-03,   519.014E-03,   158.707E-03,   6.06598E-03
C:/temp/dataset/7/23_3.odb,Step-1,Increment      1: Step Time =    1.000,"PART-1-1",           276,       6.59145,      -6.15040,            0.,NA,NA,"",   371.567E-03,   353.113E-03,   115.643E-03,   5.38200E-03
C:/temp/dataset/7/23_3.odb,Step-1,Increment      1: Step Time =    1.000,"PART-1-1",           277,       5.82593,      -5.11028,            0.,NA,NA,"",   411.709E-03,   386.083E-03,   142.984E-03,   6.33018E-03
C:/temp/dataset/7/23_3.odb,Step-1,Increment      1: Step Time =    1.000,"PART-1-1",           278,            5.,      -6.04167,            0.,NA,NA,"",   396.023E-03,   361.465E-03,   161.794E-03,   7.40187E-03
C:/temp/dataset/7/23_3.odb,Step-1,Increment      1: Step Time =    1.000,"PART-1-1",           279,       5.76552,      -7.08179,            0.,NA,NA,"",   355.552E-03,   329.247E-03,   134.215E-03,   6.45244E-03
C:/temp/dataset/7/23_3.odb,Step-1,Increment      1: Step Time =    1.000,"PART-1-1",           280,       8.25955,      -15.2021,            0.,NA,NA,"",   142.918E-03,   136.040E-03,   43.8045E-03,   3.33430E-03
C:/temp/dataset/7/23_3.odb,Step-1,Increment      1: Step Time =    1.000,"PART-1-1",           281,       9.23032,      -13.9562,            0.,NA,NA,"",   160.841E-03,   158.311E-03,   28.4191E-03,   2.04564E-03
C:/temp/dataset/7/23_3.odb,Step-1,Increment      1: Step Time =    1.000,"PART-1-1",           282,       8.16037,      -12.9544,            0.,NA,NA,"",   187.573E-03,   180.184E-03,   52.1288E-03,   3.44179E-03
C:/temp/dataset/7/23_3.odb,Step-1,Increment      1: Step Time =    1.000,"PART-1-1",           283,       7.18960,      -14.2003,            0.,NA,NA,"",   170.789E-03,   157.038E-03,   67.1397E-03,   4.73189E-03
C:/temp/dataset/7/23_3.odb,Step-1,Increment      1: Step Time =    1.000,"PART-1-1",           284,            5.,      -22.7083,            0.,NA,NA,"",   65.8107E-03,   41.5180E-03,   51.0618E-03,   7.82754E-03
C:/temp/dataset/7/23_3.odb,Step-1,Increment      1: Step Time =    1.000,"PART-1-1",           285,       5.97351,      -23.6835,            0.,NA,NA,"",   47.3106E-03,   30.0075E-03,   36.5766E-03,   6.54724E-03
C:/temp/dataset/7/23_3.odb,Step-1,Increment      1: Step Time =    1.000,"PART-1-1",           286,       6.71140,      -22.7416,            0.,NA,NA,"",   50.5369E-03,   36.0184E-03,   35.4493E-03,   5.53188E-03
C:/temp/dataset/7/23_3.odb,Step-1,Increment      1: Step Time =    1.000,"PART-1-1",           287,       5.73789,      -21.7664,            0.,NA,NA,"",   69.5578E-03,   48.2222E-03,   50.1289E-03,   6.80857E-03
C:/temp/dataset/7/23_3.odb,Step-1,Increment      1: Step Time =    1.000,"PART-1-1",           288,       9.95056,      -28.8261,            0.,NA,NA,"",   1.14128E-03,  -757.536E-06,   853.609E-06,   1.03119E-03
C:/temp/dataset/7/23_3.odb,Step-1,Increment      1: Step Time =    1.000,"PART-1-1",           289,       8.67404,      -27.7482,            0.,NA,NA,"",   5.31461E-03,   2.00186E-03,   4.92317E-03,   2.93206E-03
C:/temp/dataset/7/23_3.odb,Step-1,Increment      1: Step Time =    1.000,"PART-1-1",           290,       7.47347,      -28.9221,            0.,NA,NA,"",   3.53642E-03,   515.217E-06,   3.49868E-03,   4.03905E-03
C:/temp/dataset/7/23_3.odb,Step-1,Increment      1: Step Time =    1.000,"PART-1-1",           291,          8.75,          -30.,            0.,NA,NA,"",            0.,  -1.01162E-39,   4.29452E-39,   2.32211E-03
C:/temp/dataset/7/23_3.odb,Step-1,Increment      1: Step Time =    1.000,"PART-1-1",           292,       9.14805,      -24.1419,            0.,NA,NA,"",   22.8597E-03,   20.0610E-03,   10.9601E-03,   2.25315E-03
C:/temp/dataset/7/23_3.odb,Step-1,Increment      1: Step Time =    1.000,"PART-1-1",           293,       7.84454,      -23.3007,            0.,NA,NA,"",   36.9445E-03,   28.6417E-03,   23.3356E-03,   4.01246E-03
C:/temp/dataset/7/23_3.odb,Step-1,Increment      1: Step Time =    1.000,"PART-1-1",           294,       7.10828,      -24.6604,            0.,NA,NA,"",   30.5750E-03,   19.8353E-03,   23.2678E-03,   5.09752E-03
C:/temp/dataset/7/23_3.odb,Step-1,Increment      1: Step Time =    1.000,"PART-1-1",           295,       8.41180,      -25.5016,            0.,NA,NA,"",   17.1796E-03,   12.0624E-03,   12.2327E-03,   3.34508E-03
C:/temp/dataset/7/23_3.odb,Step-1,Increment      1: Step Time =    1.000,"PART-1-1",           296,       7.00425,      -21.1298,            0.,NA,NA,"",   65.3940E-03,   51.5898E-03,   40.1855E-03,   5.11326E-03
C:/temp/dataset/7/23_3.odb,Step-1,Increment      1: Step Time =    1.000,"PART-1-1",           297,       6.26636,      -19.9884,            0.,NA,NA,"",   86.2371E-03,   66.9308E-03,   54.3792E-03,   6.06915E-03
C:/temp/dataset/7/23_3.odb,Step-1,Increment      1: Step Time =    1.000,"PART-1-1",           298,            5.,       -20.625,            0.,NA,NA,"",   91.1255E-03,   63.2545E-03,   65.5951E-03,   7.79338E-03
C:/temp/dataset/7/23_3.odb,Step-1,Increment      1: Step Time =    1.000,"PART-1-1",           299,       12.8526,      -8.63250,            0.,NA,NA,"",   284.692E-03,   279.043E-03,  -56.4285E-03,   2.65742E-03
C:/temp/dataset/7/23_3.odb,Step-1,Increment      1: Step Time =    1.000,"PART-1-1",           300,       13.9581,      -9.97058,            0.,NA,NA,"",   259.432E-03,   246.913E-03,  -79.6180E-03,   4.10830E-03
C:/temp/dataset/7/23_3.odb,Step-1,Increment      1: Step Time =    1.000,"PART-1-1",           301,           15.,         -8.75,            0.,NA,NA,"",   300.582E-03,   279.215E-03,  -111.304E-03,   5.43090E-03
C:/temp/dataset/7/23_3.odb,Step-1,Increment      1: Step Time =    1.000,"PART-1-1",           302,       13.8945,      -7.41192,            0.,NA,NA,"",   324.736E-03,   312.550E-03,  -88.1231E-03,   3.98023E-03
C:/temp/dataset/7/23_3.odb,Step-1,Increment      1: Step Time =    1.000,"PART-1-1",           303,            5.,        10.625,            0.,NA,NA,"",       1.03481,       1.00219,   257.755E-03,   7.08049E-03
C:/temp/dataset/7/23_3.odb,Step-1,Increment      1: Step Time =    1.000,"PART-1-1",           304,       7.03988,       10.6820,            0.,NA,NA,"",       1.01026,   997.265E-03,   161.544E-03,   4.64266E-03
C:/temp/dataset/7/23_3.odb,Step-1,Increment      1: Step Time =    1.000,"PART-1-1",           305,       6.00589,       11.7004,            0.,NA,NA,"",       1.07176,       1.05005,   214.644E-03,   5.86116E-03
C:/temp/dataset/7/23_3.odb,Step-1,Increment      1: Step Time =    1.000,"PART-1-1",           306,       2.74639,       25.6366,            0.,NA,NA,"",       1.90405,       1.84805,   458.362E-03,   1.94174E-03
C:/temp/dataset/7/23_3.odb,Step-1,Increment      1: Step Time =    1.000,"PART-1-1",           307,       1.36653,       25.0307,            0.,NA,NA,"",       1.89471,       1.81292,   550.660E-03,   1.94670E-03
C:/temp/dataset/7/23_3.odb,Step-1,Increment      1: Step Time =    1.000,"PART-1-1",           308,       1.96853,       23.3303,            0.,NA,NA,"",       1.78036,       1.70430,   514.832E-03,   2.87257E-03
C:/temp/dataset/7/23_3.odb,Step-1,Increment      1: Step Time =    1.000,"PART-1-1",           309,       3.34839,       23.9361,            0.,NA,NA,"",       1.79015,       1.73990,   421.206E-03,   2.83023E-03
C:/temp/dataset/7/23_3.odb,Step-1,Increment      1: Step Time =    1.000,"PART-1-1",           310,       4.47216,       26.2029,            0.,NA,NA,"",       1.91019,       1.87871,   345.379E-03,   1.63845E-03
C:/temp/dataset/7/23_3.odb,Step-1,Increment      1: Step Time =    1.000,"PART-1-1",           311,       4.17993,       27.6633,            0.,NA,NA,"",       2.00446,       1.97142,   362.431E-03,   1.43807E-03
C:/temp/dataset/7/23_3.odb,Step-1,Increment      1: Step Time =    1.000,"PART-1-1",           312,       2.45416,       27.0970,            0.,NA,NA,"",       1.99807,       1.94077,   475.065E-03,   1.51932E-03
C:/temp/dataset/7/23_3.odb,Step-1,Increment      1: Step Time =    1.000,"PART-1-1",           313,      -1.66705,       28.8640,            0.,NA,NA,"",       2.19280,       2.06392,   740.677E-03,   318.267E-06
C:/temp/dataset/7/23_3.odb,Step-1,Increment      1: Step Time =    1.000,"PART-1-1",           314,   261.919E-03,       29.0779,            0.,NA,NA,"",       2.16226,       2.07307,   614.627E-03,   681.043E-06
C:/temp/dataset/7/23_3.odb,Step-1,Increment      1: Step Time =    1.000,"PART-1-1",           315,    -937.5E-03,           30.,            0.,NA,NA,"",       2.24478,       2.13579,   690.953E-03,   318.217E-06
C:/temp/dataset/7/23_3.odb,Step-1,Increment      1: Step Time =    1.000,"PART-1-1",           316,          -15.,         21.25,            0.,NA,NA,"",       2.27496,       1.60196,       1.61528,   1.83401E-06
C:/temp/dataset/7/23_3.odb,Step-1,Increment      1: Step Time =    1.000,"PART-1-1",           317,      -13.3250,           20.,            0.,NA,NA,"",       2.14136,       1.51814,       1.51019,   2.61257E-06
C:/temp/dataset/7/23_3.odb,Step-1,Increment      1: Step Time =    1.000,"PART-1-1",           318,      -11.7925,       21.2083,            0.,NA,NA,"",       2.12657,       1.59266,       1.40916,   15.0622E-06
C:/temp/dataset/7/23_3.odb,Step-1,Increment      1: Step Time =    1.000,"PART-1-1",           319,       10.1137,       15.7319,            0.,NA,NA,"",       1.24410,       1.24403,   13.4917E-03,   716.195E-06
C:/temp/dataset/7/23_3.odb,Step-1,Increment      1: Step Time =    1.000,"PART-1-1",           320,       9.02474,       16.2903,            0.,NA,NA,"",       1.27780,       1.27581,   71.2889E-03,   1.96189E-03
C:/temp/dataset/7/23_3.odb,Step-1,Increment      1: Step Time =    1.000,"PART-1-1",           321,       8.64023,       14.7706,            0.,NA,NA,"",       1.19988,       1.19646,   90.5951E-03,   2.58493E-03
C:/temp/dataset/7/23_3.odb,Step-1,Increment      1: Step Time =    1.000,"PART-1-1",           322,       9.72917,       14.2122,            0.,NA,NA,"",       1.16578,       1.16528,   34.2058E-03,   1.33323E-03
C:/temp/dataset/7/23_3.odb,Step-1,Increment      1: Step Time =    1.000,"PART-1-1",           323,       12.8210,       13.6438,            0.,NA,NA,"",       1.13970,       1.13309,  -122.569E-03,   2.41078E-03
C:/temp/dataset/7/23_3.odb,Step-1,Increment      1: Step Time =    1.000,"PART-1-1",           324,       13.9730,       12.4303,            0.,NA,NA,"",       1.08683,       1.07258,  -175.445E-03,   3.84945E-03
C:/temp/dataset/7/23_3.odb,Step-1,Increment      1: Step Time =    1.000,"PART-1-1",           325,           15.,         13.75,            0.,NA,NA,"",       1.16315,       1.13935,  -234.088E-03,   5.11447E-03
C:/temp/dataset/7/23_3.odb,Step-1,Increment      1: Step Time =    1.000,"PART-1-1",           326,       13.8481,       14.9635,            0.,NA,NA,"",       1.21461,       1.20106,  -180.904E-03,   3.66956E-03
C:/temp/dataset/7/23_3.odb,Step-1,Increment      1: Step Time =    1.000,"PART-1-1",           327,       10.1008,       2.87074,            0.,NA,NA,"",   652.385E-03,   652.149E-03,   17.5291E-03,   903.567E-06
C:/temp/dataset/7/23_3.odb,Step-1,Increment      1: Step Time =    1.000,"PART-1-1",           328,       9.07373,       1.83179,            0.,NA,NA,"",   616.314E-03,   613.758E-03,   56.0657E-03,   2.18290E-03
C:/temp/dataset/7/23_3.odb,Step-1,Increment      1: Step Time =    1.000,"PART-1-1",           329,       10.0520,   569.032E-03,            0.,NA,NA,"",   565.883E-03,   565.562E-03,   19.0635E-03,   963.284E-06
C:/temp/dataset/7/23_3.odb,Step-1,Increment      1: Step Time =    1.000,"PART-1-1",           330,       11.0790,       1.60798,            0.,NA,NA,"",   603.365E-03,   603.062E-03,  -19.1261E-03,   329.075E-06
C:/temp/dataset/7/23_3.odb,Step-1,Increment      1: Step Time =    1.000,"PART-1-1",           331,       9.98138,      -1.74337,            0.,NA,NA,"",   485.015E-03,   484.566E-03,   20.8602E-03,   1.05225E-03
C:/temp/dataset/7/23_3.odb,Step-1,Increment      1: Step Time =    1.000,"PART-1-1",           332,       8.90931,      -2.66004,            0.,NA,NA,"",   458.861E-03,   455.507E-03,   55.3797E-03,   2.40553E-03
C:/temp/dataset/7/23_3.odb,Step-1,Increment      1: Step Time =    1.000,"PART-1-1",           333,       9.84458,      -4.07679,            0.,NA,NA,"",   409.725E-03,   409.014E-03,   24.1171E-03,   1.22614E-03
C:/temp/dataset/7/23_3.odb,Step-1,Increment      1: Step Time =    1.000,"PART-1-1",           334,       10.9167,      -3.16013,            0.,NA,NA,"",   437.298E-03,   437.192E-03,  -9.61856E-03,   160.892E-06
C:/temp/dataset/7/23_3.odb,Step-1,Increment      1: Step Time =    1.000,"PART-1-1",           335,            5.,      -3.95833,            0.,NA,NA,"",   458.936E-03,   424.400E-03,   174.662E-03,   7.35699E-03
C:/temp/dataset/7/23_3.odb,Step-1,Increment      1: Step Time =    1.000,"PART-1-1",           336,       6.75254,      -4.23112,            0.,NA,NA,"",   427.067E-03,   410.131E-03,   119.075E-03,   5.14626E-03
C:/temp/dataset/7/23_3.odb,Step-1,Increment      1: Step Time =    1.000,"PART-1-1",           337,       5.92661,      -3.07918,            0.,NA,NA,"",   473.648E-03,   449.169E-03,   150.297E-03,   6.17119E-03
C:/temp/dataset/7/23_3.odb,Step-1,Increment      1: Step Time =    1.000,"PART-1-1",           338,       7.06139,      -12.0396,            0.,NA,NA,"",   216.857E-03,   202.105E-03,   78.6152E-03,   4.86611E-03
C:/temp/dataset/7/23_3.odb,Step-1,Increment      1: Step Time =    1.000,"PART-1-1",           339,       5.99095,      -11.1126,            0.,NA,NA,"",   249.938E-03,   225.941E-03,   106.864E-03,   6.24023E-03
C:/temp/dataset/7/23_3.odb,Step-1,Increment      1: Step Time =    1.000,"PART-1-1",           340,            5.,      -12.2917,            0.,NA,NA,"",   236.591E-03,   202.814E-03,   121.827E-03,   7.55508E-03
C:/temp/dataset/7/23_3.odb,Step-1,Increment      1: Step Time =    1.000,"PART-1-1",           341,       6.07044,      -13.2187,            0.,NA,NA,"",   202.717E-03,   179.660E-03,   93.8949E-03,   6.18072E-03
C:/temp/dataset/7/23_3.odb,Step-1,Increment      1: Step Time =    1.000,"PART-1-1",           342,       6.63644,      -8.02271,            0.,NA,NA,"",   319.145E-03,   300.996E-03,   106.089E-03,   5.35251E-03
C:/temp/dataset/7/23_3.odb,Step-1,Increment      1: Step Time =    1.000,"PART-1-1",           343,            5.,        -8.125,            0.,NA,NA,"",   337.996E-03,   303.530E-03,   148.697E-03,   7.45031E-03
C:/temp/dataset/7/23_3.odb,Step-1,Increment      1: Step Time =    1.000,"PART-1-1",           344,       5.87092,      -9.06592,            0.,NA,NA,"",   301.286E-03,   276.041E-03,   120.726E-03,   6.35009E-03
C:/temp/dataset/7/23_3.odb,Step-1,Increment      1: Step Time =    1.000,"PART-1-1",           345,       13.0826,      -13.6930,            0.,NA,NA,"",   170.329E-03,   163.595E-03,  -47.4222E-03,   3.03523E-03
C:/temp/dataset/7/23_3.odb,Step-1,Increment      1: Step Time =    1.000,"PART-1-1",           346,       14.0569,      -14.9678,            0.,NA,NA,"",   153.539E-03,   140.636E-03,  -61.6095E-03,   4.34608E-03
C:/temp/dataset/7/23_3.odb,Step-1,Increment      1: Step Time =    1.000,"PART-1-1",           347,           15.,        -13.75,            0.,NA,NA,"",   186.459E-03,   165.791E-03,  -85.3256E-03,   5.56047E-03
C:/temp/dataset/7/23_3.odb,Step-1,Increment      1: Step Time =    1.000,"PART-1-1",           348,       14.0257,      -12.4752,            0.,NA,NA,"",   202.891E-03,   190.023E-03,  -71.1040E-03,   4.24881E-03
C:/temp/dataset/7/23_3.odb,Step-1,Increment      1: Step Time =    1.000,"PART-1-1",           349,       8.13738,      -21.6888,            0.,NA,NA,"",   50.5320E-03,   43.2817E-03,   26.0802E-03,   3.59203E-03
C:/temp/dataset/7/23_3.odb,Step-1,Increment      1: Step Time =    1.000,"PART-1-1",           350,            5.,      -28.9583,            0.,NA,NA,"",   9.48613E-03,   6.01246E-03,   7.33737E-03,   8.03812E-03
C:/temp/dataset/7/23_3.odb,Step-1,Increment      1: Step Time =    1.000,"PART-1-1",           351,          6.25,          -30.,            0.,NA,NA,"",            0.,  -256.683E-42,   9.52823E-39,   5.90155E-03
C:/temp/dataset/7/23_3.odb,Step-1,Increment      1: Step Time =    1.000,"PART-1-1",           352,       6.22347,      -27.8804,            0.,NA,NA,"",   12.4574E-03,   5.86850E-03,   10.9885E-03,   6.38222E-03
C:/temp/dataset/7/23_3.odb,Step-1,Increment      1: Step Time =    1.000,"PART-1-1",           353,           15.,        -28.75,            0.,NA,NA,"",   7.50686E-03,   4.23250E-03,  -6.19991E-03,   5.78409E-03
C:/temp/dataset/7/23_3.odb,Step-1,Increment      1: Step Time =    1.000,"PART-1-1",           354,       13.6900,      -27.4695,            0.,NA,NA,"",   9.88226E-03,   4.45235E-03,  -8.82245E-03,   4.30904E-03
C:/temp/dataset/7/23_3.odb,Step-1,Increment      1: Step Time =    1.000,"PART-1-1",           355,       12.4400,      -28.7195,            0.,NA,NA,"",   2.29556E-03,  -145.247E-06,  -2.29096E-03,   2.25227E-03
C:/temp/dataset/7/23_3.odb,Step-1,Increment      1: Step Time =    1.000,"PART-1-1",           356,         13.75,          -30.,            0.,NA,NA,"",            0.,  -819.793E-42,  -6.21893E-39,   3.77325E-03
C:/temp/dataset/7/23_3.odb,Step-1,Increment      1: Step Time =    1.000,"PART-1-1",           357,       9.58617,      -22.6245,            0.,NA,NA,"",   33.7987E-03,   32.2775E-03,   10.0258E-03,   1.64556E-03
C:/temp/dataset/7/23_3.odb,Step-1,Increment      1: Step Time =    1.000,"PART-1-1",           358,       10.0221,      -21.0980,            0.,NA,NA,"",   48.1261E-03,   47.5470E-03,   7.44356E-03,   1.03051E-03
C:/temp/dataset/7/23_3.odb,Step-1,Increment      1: Step Time =    1.000,"PART-1-1",           359,       8.57328,      -20.1623,            0.,NA,NA,"",   65.1455E-03,   59.8915E-03,   25.6310E-03,   2.97261E-03
C:/temp/dataset/7/23_3.odb,Step-1,Increment      1: Step Time =    1.000,"PART-1-1",           360,       11.1406,      -27.5456,            0.,NA,NA,"",   2.03553E-03,   1.61942E-03,  -1.23323E-03,   755.021E-06
C:/temp/dataset/7/23_3.odb,Step-1,Increment      1: Step Time =    1.000,"PART-1-1",           361,         11.25,          -30.,            0.,NA,NA,"",            0.,  -1.29804E-39,  -1.21119E-39,   1.20766E-03
C:/temp/dataset/7/23_3.odb,Step-1,Increment      1: Step Time =    1.000,"PART-1-1",           362,       11.2605,      -16.1933,            0.,NA,NA,"",   116.655E-03,   116.273E-03,  -9.42799E-03,   661.031E-06
C:/temp/dataset/7/23_3.odb,Step-1,Increment      1: Step Time =    1.000,"PART-1-1",           363,       10.2521,      -15.0492,            0.,NA,NA,"",   136.923E-03,   136.686E-03,   8.05525E-03,   705.437E-06
C:/temp/dataset/7/23_3.odb,Step-1,Increment      1: Step Time =    1.000,"PART-1-1",           364,       9.32474,      -16.3084,            0.,NA,NA,"",   117.435E-03,   115.178E-03,   22.9128E-03,   1.93297E-03
C:/temp/dataset/7/23_3.odb,Step-1,Increment      1: Step Time =    1.000,"PART-1-1",           365,       10.3331,      -17.4526,            0.,NA,NA,"",   96.0959E-03,   95.9289E-03,   5.66307E-03,   600.586E-06
C:/temp/dataset/7/23_3.odb,Step-1,Increment      1: Step Time =    1.000,"PART-1-1",           366,       7.44248,      -19.0256,            0.,NA,NA,"",   88.2152E-03,   76.6178E-03,   43.7223E-03,   4.47795E-03
C:/temp/dataset/7/23_3.odb,Step-1,Increment      1: Step Time =    1.000,"PART-1-1",           367,       6.17612,      -17.5789,            0.,NA,NA,"",   121.909E-03,   100.781E-03,   68.5923E-03,   6.13791E-03
C:/temp/dataset/7/23_3.odb,Step-1,Increment      1: Step Time =    1.000,"PART-1-1",           368,            5.,      -18.5417,            0.,NA,NA,"",   120.577E-03,   90.2817E-03,   79.9257E-03,   7.73294E-03
C:/temp/dataset/7/23_3.odb,Step-1,Increment      1: Step Time =    1.000,"PART-1-1",           369,       12.8407,      -6.03443,            0.,NA,NA,"",   355.602E-03,   349.937E-03,  -63.2206E-03,   2.60682E-03
C:/temp/dataset/7/23_3.odb,Step-1,Increment      1: Step Time =    1.000,"PART-1-1",           370,           15.,         -6.25,            0.,NA,NA,"",   368.375E-03,   346.752E-03,  -124.352E-03,   5.37249E-03
C:/temp/dataset/7/23_3.odb,Step-1,Increment      1: Step Time =    1.000,"PART-1-1",           371,       13.9462,      -4.87251,            0.,NA,NA,"",   397.982E-03,   385.279E-03,  -99.7515E-03,   3.99979E-03
C:/temp/dataset/7/23_3.odb,Step-1,Increment      1: Step Time =    1.000,"PART-1-1",           372,       7.64514,      -8.69832,            0.,NA,NA,"",   291.187E-03,   280.759E-03,   77.2296E-03,   4.06878E-03
C:/temp/dataset/7/23_3.odb,Step-1,Increment      1: Step Time =    1.000,"PART-1-1",           373,       8.20020,      -7.75016,            0.,NA,NA,"",   311.666E-03,   304.700E-03,   65.5297E-03,   3.34115E-03
C:/temp/dataset/7/23_3.odb,Step-1,Increment      1: Step Time =    1.000,"PART-1-1",           374,       7.19150,      -7.07454,            0.,NA,NA,"",   338.962E-03,   325.367E-03,   95.0351E-03,   4.61417E-03
C:/temp/dataset/7/23_3.odb,Step-1,Increment      1: Step Time =    1.000,"PART-1-1",           375,       7.97278,      -1.35169,            0.,NA,NA,"",   509.043E-03,   501.146E-03,   89.3152E-03,   3.57555E-03
C:/temp/dataset/7/23_3.odb,Step-1,Increment      1: Step Time =    1.000,"PART-1-1",           376,       9.01285,  -423.179E-03,            0.,NA,NA,"",   534.312E-03,   531.445E-03,   55.2782E-03,   2.26709E-03
C:/temp/dataset/7/23_3.odb,Step-1,Increment      1: Step Time =    1.000,"PART-1-1",           377,       8.04185,   850.611E-03,            0.,NA,NA,"",   586.541E-03,   579.206E-03,   92.4684E-03,   3.47290E-03
C:/temp/dataset/7/23_3.odb,Step-1,Increment      1: Step Time =    1.000,"PART-1-1",           378,       8.08837,       3.05311,            0.,NA,NA,"",   669.669E-03,   662.762E-03,   95.9297E-03,   3.40089E-03
C:/temp/dataset/7/23_3.odb,Step-1,Increment      1: Step Time =    1.000,"PART-1-1",           379,       9.11337,       4.08618,            0.,NA,NA,"",   704.088E-03,   701.763E-03,   57.1688E-03,   2.12837E-03
C:/temp/dataset/7/23_3.odb,Step-1,Increment      1: Step Time =    1.000,"PART-1-1",           380,       8.10868,       5.26217,            0.,NA,NA,"",   758.684E-03,   752.061E-03,   100.024E-03,   3.36401E-03
C:/temp/dataset/7/23_3.odb,Step-1,Increment      1: Step Time =    1.000,"PART-1-1",           381,       7.08888,       6.39331,            0.,NA,NA,"",   815.825E-03,   802.670E-03,   145.915E-03,   4.61172E-03
C:/temp/dataset/7/23_3.odb,Step-1,Increment      1: Step Time =    1.000,"PART-1-1",           382,            5.,       6.45833,            0.,NA,NA,"",   846.274E-03,   812.893E-03,   235.338E-03,   7.16919E-03
C:/temp/dataset/7/23_3.odb,Step-1,Increment      1: Step Time =    1.000,"PART-1-1",           383,           15.,         16.25,            0.,NA,NA,"",       1.29397,       1.26979,  -248.988E-03,   4.98226E-03
C:/temp/dataset/7/23_3.odb,Step-1,Increment      1: Step Time =    1.000,"PART-1-1",           384,       13.6214,       17.6671,            0.,NA,NA,"",       1.35873,       1.34662,  -181.004E-03,   3.29321E-03
C:/temp/dataset/7/23_3.odb,Step-1,Increment      1: Step Time =    1.000,"PART-1-1",           385,       12.4694,       16.3805,            0.,NA,NA,"",       1.28146,       1.27644,  -113.357E-03,   2.02058E-03
C:/temp/dataset/7/23_3.odb,Step-1,Increment      1: Step Time =    1.000,"PART-1-1",           386,       10.0881,       9.74649,            0.,NA,NA,"",   946.150E-03,   945.989E-03,   17.4396E-03,   938.063E-06
C:/temp/dataset/7/23_3.odb,Step-1,Increment      1: Step Time =    1.000,"PART-1-1",           387,       9.10561,       8.57814,            0.,NA,NA,"",   896.223E-03,   894.077E-03,   61.9795E-03,   2.13806E-03
C:/temp/dataset/7/23_3.odb,Step-1,Increment      1: Step Time =    1.000,"PART-1-1",           388,       10.1162,       7.46436,            0.,NA,NA,"",   842.808E-03,   842.644E-03,   16.6350E-03,   893.453E-06
C:/temp/dataset/7/23_3.odb,Step-1,Increment      1: Step Time =    1.000,"PART-1-1",           389,       11.0986,       8.63272,            0.,NA,NA,"",   894.106E-03,   893.668E-03,  -27.9756E-03,   314.105E-06
C:/temp/dataset/7/23_3.odb,Step-1,Increment      1: Step Time =    1.000,"PART-1-1",           390,       9.96644,       19.4124,            0.,NA,NA,"",       1.44817,       1.44807,   17.3025E-03,   1.20405E-03
C:/temp/dataset/7/23_3.odb,Step-1,Increment      1: Step Time =    1.000,"PART-1-1",           391,       10.9020,       20.3065,            0.,NA,NA,"",       1.49981,       1.49935,  -37.2997E-03,   1.63370E-03
C:/temp/dataset/7/23_3.odb,Step-1,Increment      1: Step Time =    1.000,"PART-1-1",           392,       10.1153,       21.2880,            0.,NA,NA,"",       1.55878,       1.55877,   5.67715E-03,   1.86177E-03
C:/temp/dataset/7/23_3.odb,Step-1,Increment      1: Step Time =    1.000,"PART-1-1",           393,       9.17975,       20.3940,            0.,NA,NA,"",       1.50783,       1.50660,   60.6998E-03,   1.67527E-03
C:/temp/dataset/7/23_3.odb,Step-1,Increment      1: Step Time =    1.000,"PART-1-1",           394,           15.,         28.75,            0.,NA,NA,"",       2.03252,       2.00998,  -301.880E-03,   87.1858E-06
C:/temp/dataset/7/23_3.odb,Step-1,Increment      1: Step Time =    1.000,"PART-1-1",           395,       14.0625,           30.,            0.,NA,NA,"",       2.10254,       2.08797,  -247.059E-03,   75.2343E-06
C:/temp/dataset/7/23_3.odb,Step-1,Increment      1: Step Time =    1.000,"PART-1-1",           396,       13.1487,       28.7914,            0.,NA,NA,"",       2.02489,       2.01602,  -189.317E-03,   462.863E-06
C:/temp/dataset/7/23_3.odb,Step-1,Increment      1: Step Time =    1.000,"PART-1-1",           397,       14.0862,       27.5414,            0.,NA,NA,"",       1.95282,       1.93756,  -243.659E-03,   517.688E-06
C:/temp/dataset/7/23_3.odb,Step-1,Increment      1: Step Time =    1.000,"PART-1-1",           398,       12.2440,       25.2848,            0.,NA,NA,"",       1.80563,       1.80112,  -127.502E-03,   1.72286E-03
C:/temp/dataset/7/23_3.odb,Step-1,Increment      1: Step Time =    1.000,"PART-1-1",           399,       13.1763,       26.3811,            0.,NA,NA,"",       1.87673,       1.86750,  -185.915E-03,   1.26466E-03
C:/temp/dataset/7/23_3.odb,Step-1,Increment      1: Step Time =    1.000,"PART-1-1",           400,       12.2376,       27.6217,            0.,NA,NA,"",       1.95042,       1.94594,  -132.152E-03,   1.13556E-03
C:/temp/dataset/7/23_3.odb,Step-1,Increment      1: Step Time =    1.000,"PART-1-1",           401,       11.3053,       26.5254,            0.,NA,NA,"",       1.88138,       1.87992,  -74.2036E-03,   1.62910E-03
C:/temp/dataset/7/23_3.odb,Step-1,Increment      1: Step Time =    1.000,"PART-1-1",           402,       12.1875,           30.,            0.,NA,NA,"",       2.09589,       2.09164,  -133.312E-03,   459.098E-06
C:/temp/dataset/7/23_3.odb,Step-1,Increment      1: Step Time =    1.000,"PART-1-1",           403,        6.5625,           30.,            0.,NA,NA,"",       2.12031,       2.10996,   209.266E-03,   2.27026E-03
C:/temp/dataset/7/23_3.odb,Step-1,Increment      1: Step Time =    1.000,"PART-1-1",           404,       5.40000,       28.6589,            0.,NA,NA,"",       2.04983,       2.03013,   283.548E-03,   1.77847E-03
C:/temp/dataset/7/23_3.odb,Step-1,Increment      1: Step Time =    1.000,"PART-1-1",           405,       6.32063,       27.5176,            0.,NA,NA,"",       1.96851,       1.95538,   226.997E-03,   1.34834E-03
C:/temp/dataset/7/23_3.odb,Step-1,Increment      1: Step Time =    1.000,"PART-1-1",           406,        2.8125,           30.,            0.,NA,NA,"",       2.17149,       2.12490,   447.399E-03,   1.60531E-03
C:/temp/dataset/7/23_3.odb,Step-1,Increment      1: Step Time =    1.000,"PART-1-1",           407,       1.86631,       29.3706,            0.,NA,NA,"",       2.14870,       2.08739,   509.629E-03,   1.15736E-03
C:/temp/dataset/7/23_3.odb,Step-1,Increment      1: Step Time =    1.000,"PART-1-1",           408,       2.52123,       28.3750,            0.,NA,NA,"",       2.07524,       2.02163,   468.641E-03,   1.32627E-03
C:/temp/dataset/7/23_3.odb,Step-1,Increment      1: Step Time =    1.000,"PART-1-1",           409,       3.46742,       29.0044,            0.,NA,NA,"",       2.09846,       2.05871,   406.503E-03,   1.59380E-03
C:/temp/dataset/7/23_3.odb,Step-1,Increment      1: Step Time =    1.000,"PART-1-1",           410,       1.19073,       28.4486,            0.,NA,NA,"",       2.10470,       2.03015,   555.200E-03,   1.10017E-03
C:/temp/dataset/7/23_3.odb,Step-1,Increment      1: Step Time =    1.000,"PART-1-1",           411,      -2.48443,       27.9761,            0.,NA,NA,"",       2.16033,       2.00848,   795.633E-03,   369.461E-06
C:/temp/dataset/7/23_3.odb,Step-1,Increment      1: Step Time =    1.000,"PART-1-1",           412,       -2.8125,           30.,            0.,NA,NA,"",       2.28898,       2.13988,   812.639E-03,   19.9397E-06
C:/temp/dataset/7/23_3.odb,Step-1,Increment      1: Step Time =    1.000,"PART-1-1",           413,      -7.28733,       29.0238,            0.,NA,NA,"",       2.35975,       2.08589,       1.10339,   52.8945E-06
C:/temp/dataset/7/23_3.odb,Step-1,Increment      1: Step Time =    1.000,"PART-1-1",           414,      -6.19423,       28.1363,            0.,NA,NA,"",       2.27546,       2.02650,       1.03490,   27.0459E-06
C:/temp/dataset/7/23_3.odb,Step-1,Increment      1: Step Time =    1.000,"PART-1-1",           415,       -6.5625,           30.,            0.,NA,NA,"",       2.39232,       2.14728,       1.05468,   100.866E-06
C:/temp/dataset/7/23_3.odb,Step-1,Increment      1: Step Time =    1.000,"PART-1-1",           416,      -11.8079,       27.5253,            0.,NA,NA,"",       2.43868,       1.99879,       1.39713,   19.3546E-06
C:/temp/dataset/7/23_3.odb,Step-1,Increment      1: Step Time =    1.000,"PART-1-1",           417,      -12.6125,       26.1842,            0.,NA,NA,"",       2.40239,       1.91423,       1.45162,   12.0589E-06
C:/temp/dataset/7/23_3.odb,Step-1,Increment      1: Step Time =    1.000,"PART-1-1",           418,      -8.13992,       23.4434,            0.,NA,NA,"",       2.08724,       1.72869,       1.16971,   54.9342E-06
C:/temp/dataset/7/23_3.odb,Step-1,Increment      1: Step Time =    1.000,"PART-1-1",           419,       -8.4375,           30.,            0.,NA,NA,"",       2.45118,       2.15103,       1.17532,   60.6546E-06
C:/temp/dataset/7/23_3.odb,Step-1,Increment      1: Step Time =    1.000,"PART-1-1",           420,      -8.00049,       27.9480,            0.,NA,NA,"",       2.32351,       2.01811,       1.15150,   41.6867E-06
C:/temp/dataset/7/23_3.odb,Step-1,Increment      1: Step Time =    1.000,"PART-1-1",           421,      -12.1875,           30.,            0.,NA,NA,"",       2.58190,       2.15870,       1.41641,   9.80248E-06
C:/temp/dataset/7/23_3.odb,Step-1,Increment      1: Step Time =    1.000,"PART-1-1",           422,          -15.,         26.25,            0.,NA,NA,"",       2.50508,       1.92341,       1.60497,   7.09511E-06
C:/temp/dataset/7/23_3.odb,Step-1,Increment      1: Step Time =    1.000,"PART-1-1",           423,  -614.199E-03,       25.3895,            0.,NA,NA,"",       1.96076,       1.83909,   679.948E-03,   1.23173E-03
C:/temp/dataset/7/23_3.odb,Step-1,Increment      1: Step Time =    1.000,"PART-1-1",           424,      -1.97220,       26.8586,            0.,NA,NA,"",       2.08124,       1.93561,   764.845E-03,   556.437E-06
C:/temp/dataset/7/23_3.odb,Step-1,Increment      1: Step Time =    1.000,"PART-1-1",           425,      -1.74113,       25.3247,            0.,NA,NA,"",       1.98543,       1.83686,   753.593E-03,   918.944E-06
C:/temp/dataset/7/23_3.odb,Step-1,Increment      1: Step Time =    1.000,"PART-1-1",           426,       8.18659,       21.6045,            0.,NA,NA,"",       1.58533,       1.58100,   117.001E-03,   2.30217E-03
C:/temp/dataset/7/23_3.odb,Step-1,Increment      1: Step Time =    1.000,"PART-1-1",           427,       9.25192,       22.4602,            0.,NA,NA,"",       1.63242,       1.63153,   53.8837E-03,   2.15683E-03
C:/temp/dataset/7/23_3.odb,Step-1,Increment      1: Step Time =    1.000,"PART-1-1",           428,       8.38526,       23.6138,            0.,NA,NA,"",       1.70807,       1.70491,   103.872E-03,   2.10857E-03
C:/temp/dataset/7/23_3.odb,Step-1,Increment      1: Step Time =    1.000,"PART-1-1",           429,       7.31993,       22.7581,            0.,NA,NA,"",       1.66278,       1.65427,   168.094E-03,   2.48619E-03
C:/temp/dataset/7/23_3.odb,Step-1,Increment      1: Step Time =    1.000,"PART-1-1",           430,           15.,         26.25,            0.,NA,NA,"",       1.88007,       1.85655,  -296.472E-03,   849.806E-06
C:/temp/dataset/7/23_3.odb,Step-1,Increment      1: Step Time =    1.000,"PART-1-1",           431,        4.6875,           30.,            0.,NA,NA,"",       2.14282,       2.11768,   327.216E-03,   2.14239E-03
C:/temp/dataset/7/23_3.odb,Step-1,Increment      1: Step Time =    1.000,"PART-1-1",           432,       9.38339,       24.5308,            0.,NA,NA,"",       1.76030,       1.75976,   43.4814E-03,   2.05403E-03
C:/temp/dataset/7/23_3.odb,Step-1,Increment      1: Step Time =    1.000,"PART-1-1",           433,       8.53172,       25.6694,            0.,NA,NA,"",       1.83543,       1.83306,   93.1294E-03,   1.72179E-03
C:/temp/dataset/7/23_3.odb,Step-1,Increment      1: Step Time =    1.000,"PART-1-1",           434,       7.53359,       24.7524,            0.,NA,NA,"",       1.78511,       1.77841,   154.456E-03,   1.90905E-03
C:/temp/dataset/7/23_3.odb,Step-1,Increment      1: Step Time =    1.000,"PART-1-1",           435,     937.5E-03,           30.,            0.,NA,NA,"",       2.20560,       2.13094,   568.975E-03,   882.119E-06
C:/temp/dataset/7/23_3.odb,Step-1,Increment      1: Step Time =    1.000,"PART-1-1",           436,       5.64845,       26.5466,            0.,NA,NA,"",       1.91576,       1.89662,   270.155E-03,   1.47894E-03
C:/temp/dataset/7/23_3.odb,Step-1,Increment      1: Step Time =    1.000,"PART-1-1",           437,       4.65082,       24.6490,            0.,NA,NA,"",       1.81200,       1.78071,   335.307E-03,   2.00869E-03
C:/temp/dataset/7/23_3.odb,Step-1,Increment      1: Step Time =    1.000,"PART-1-1",           438,       5.82711,       24.9927,            0.,NA,NA,"",       1.81734,       1.79864,   260.023E-03,   1.78619E-03
C:/temp/dataset/7/23_3.odb,Step-1,Increment      1: Step Time =    1.000,"PART-1-1",           439,      -3.57200,       27.5772,            0.,NA,NA,"",       2.16612,       1.98507,   866.937E-03,   196.782E-06
C:/temp/dataset/7/23_3.odb,Step-1,Increment      1: Step Time =    1.000,"PART-1-1",           440,      -3.05977,       26.4597,            0.,NA,NA,"",       2.08703,       1.91215,   836.285E-03,   373.316E-06
C:/temp/dataset/7/23_3.odb,Step-1,Increment      1: Step Time =    1.000,"PART-1-1",           441,      -4.23358,       26.7178,            0.,NA,NA,"",       2.13545,       1.93112,   911.552E-03,   162.799E-06
C:/temp/dataset/7/23_3.odb,Step-1,Increment      1: Step Time =    1.000,"PART-1-1",           442,      -5.07335,       27.3652,            0.,NA,NA,"",       2.19742,       1.97452,   964.316E-03,   60.0390E-06
C:/temp/dataset/7/23_3.odb,Step-1,Increment      1: Step Time =    1.000,"PART-1-1",           443,      -5.65848,       26.3267,            0.,NA,NA,"",       2.15690,       1.90887,       1.00421,   57.3863E-06
C:/temp/dataset/7/23_3.odb,Step-1,Increment      1: Step Time =    1.000,"PART-1-1",           444,      -6.77936,       27.0978,            0.,NA,NA,"",       2.23605,       1.96085,       1.07472,   35.4535E-06
C:/temp/dataset/7/23_3.odb,Step-1,Increment      1: Step Time =    1.000,"PART-1-1",           445,       13.0726,       6.26892,            0.,NA,NA,"",   796.857E-03,   789.349E-03,  -109.135E-03,   2.76787E-03
C:/temp/dataset/7/23_3.odb,Step-1,Increment      1: Step Time =    1.000,"PART-1-1",           446,       14.0382,       5.02867,            0.,NA,NA,"",   752.147E-03,   738.071E-03,  -144.829E-03,   3.97364E-03
C:/temp/dataset/7/23_3.odb,Step-1,Increment      1: Step Time =    1.000,"PART-1-1",           447,           15.,          6.25,            0.,NA,NA,"",   813.051E-03,   790.221E-03,  -191.319E-03,   5.15042E-03
C:/temp/dataset/7/23_3.odb,Step-1,Increment      1: Step Time =    1.000,"PART-1-1",           448,       14.0344,       7.49025,            0.,NA,NA,"",   856.899E-03,   842.643E-03,  -155.656E-03,   3.94513E-03
C:/temp/dataset/7/23_3.odb,Step-1,Increment      1: Step Time =    1.000,"PART-1-1",           449,            5.,       12.7083,            0.,NA,NA,"",       1.13612,       1.10394,   268.473E-03,   7.04269E-03
C:/temp/dataset/7/23_3.odb,Step-1,Increment      1: Step Time =    1.000,"PART-1-1",           450,       6.97129,       12.7632,            0.,NA,NA,"",       1.11231,       1.09907,   171.126E-03,   4.70871E-03
C:/temp/dataset/7/23_3.odb,Step-1,Increment      1: Step Time =    1.000,"PART-1-1",           451,       8.08110,       9.66220,            0.,NA,NA,"",   952.605E-03,   946.198E-03,   110.296E-03,   3.38359E-03
C:/temp/dataset/7/23_3.odb,Step-1,Increment      1: Step Time =    1.000,"PART-1-1",           452,       8.10192,       7.46894,            0.,NA,NA,"",   853.218E-03,   846.738E-03,   104.956E-03,   3.36404E-03
C:/temp/dataset/7/23_3.odb,Step-1,Increment      1: Step Time =    1.000,"PART-1-1",           453,            5.,        -1.875,            0.,NA,NA,"",   526.720E-03,   492.297E-03,   187.291E-03,   7.31479E-03
C:/temp/dataset/7/23_3.odb,Step-1,Increment      1: Step Time =    1.000,"PART-1-1",           454,       6.91011,      -2.19684,            0.,NA,NA,"",   490.659E-03,   475.199E-03,   122.198E-03,   4.92258E-03
C:/temp/dataset/7/23_3.odb,Step-1,Increment      1: Step Time =    1.000,"PART-1-1",           455,       11.0205,  -751.161E-03,            0.,NA,NA,"",   518.007E-03,   517.794E-03,  -14.8606E-03,   268.979E-06
C:/temp/dataset/7/23_3.odb,Step-1,Increment      1: Step Time =    1.000,"PART-1-1",           456,       13.1408,      -16.1676,            0.,NA,NA,"",   125.015E-03,   118.033E-03,  -41.1930E-03,   3.15611E-03
C:/temp/dataset/7/23_3.odb,Step-1,Increment      1: Step Time =    1.000,"PART-1-1",           457,       14.0839,      -17.4497,            0.,NA,NA,"",   111.559E-03,   98.7457E-03,  -51.9109E-03,   4.44261E-03
C:/temp/dataset/7/23_3.odb,Step-1,Increment      1: Step Time =    1.000,"PART-1-1",           458,           15.,        -16.25,            0.,NA,NA,"",   140.156E-03,   120.047E-03,  -72.3361E-03,   5.63320E-03
C:/temp/dataset/7/23_3.odb,Step-1,Increment      1: Step Time =    1.000,"PART-1-1",           459,            5.,       -14.375,            0.,NA,NA,"",   193.173E-03,   160.117E-03,   108.066E-03,   7.61297E-03
C:/temp/dataset/7/23_3.odb,Step-1,Increment      1: Step Time =    1.000,"PART-1-1",           460,       6.11916,      -15.3567,            0.,NA,NA,"",   160.402E-03,   138.151E-03,   81.5059E-03,   6.16411E-03
C:/temp/dataset/7/23_3.odb,Step-1,Increment      1: Step Time =    1.000,"PART-1-1",           461,       13.0403,       1.40949,            0.,NA,NA,"",   602.680E-03,   595.636E-03,  -91.8741E-03,   2.77323E-03
C:/temp/dataset/7/23_3.odb,Step-1,Increment      1: Step Time =    1.000,"PART-1-1",           462,       14.0142,   96.5788E-03,            0.,NA,NA,"",   562.189E-03,   548.666E-03,  -122.566E-03,   4.00786E-03
C:/temp/dataset/7/23_3.odb,Step-1,Increment      1: Step Time =    1.000,"PART-1-1",           463,           15.,          1.25,            0.,NA,NA,"",   614.219E-03,   591.899E-03,  -164.075E-03,   5.22323E-03
C:/temp/dataset/7/23_3.odb,Step-1,Increment      1: Step Time =    1.000,"PART-1-1",           464,       14.0261,       2.56291,            0.,NA,NA,"",   653.795E-03,   640.005E-03,  -133.568E-03,   3.98860E-03
C:/temp/dataset/7/23_3.odb,Step-1,Increment      1: Step Time =    1.000,"PART-1-1",           465,            5.,      -10.2083,            0.,NA,NA,"",   284.855E-03,   250.633E-03,   135.371E-03,   7.50071E-03
C:/temp/dataset/7/23_3.odb,Step-1,Increment      1: Step Time =    1.000,"PART-1-1",           466,       6.86187,      -9.97015,            0.,NA,NA,"",   266.943E-03,   250.627E-03,   91.8952E-03,   5.09046E-03
C:/temp/dataset/7/23_3.odb,Step-1,Increment      1: Step Time =    1.000,"PART-1-1",           467,            5.,      -24.7917,            0.,NA,NA,"",   44.2739E-03,   25.0931E-03,   36.4763E-03,   7.78266E-03
C:/temp/dataset/7/23_3.odb,Step-1,Increment      1: Step Time =    1.000,"PART-1-1",           468,       6.13477,      -25.7685,            0.,NA,NA,"",   28.2333E-03,   15.6322E-03,   23.5107E-03,   6.35439E-03
C:/temp/dataset/7/23_3.odb,Step-1,Increment      1: Step Time =    1.000,"PART-1-1",           469,       13.1299,      -20.9468,            0.,NA,NA,"",   57.2364E-03,   50.5515E-03,  -26.8432E-03,   3.23481E-03
C:/temp/dataset/7/23_3.odb,Step-1,Increment      1: Step Time =    1.000,"PART-1-1",           470,       14.0295,      -22.3095,            0.,NA,NA,"",   49.1466E-03,   37.8867E-03,  -31.3048E-03,   4.52148E-03
C:/temp/dataset/7/23_3.odb,Step-1,Increment      1: Step Time =    1.000,"PART-1-1",           471,           15.,        -21.25,            0.,NA,NA,"",   68.7095E-03,   50.8795E-03,  -46.1766E-03,   5.81081E-03
C:/temp/dataset/7/23_3.odb,Step-1,Increment      1: Step Time =    1.000,"PART-1-1",           472,       14.1003,      -19.8873,            0.,NA,NA,"",   77.2144E-03,   64.7454E-03,  -42.0725E-03,   4.52907E-03
C:/temp/dataset/7/23_3.odb,Step-1,Increment      1: Step Time =    1.000,"PART-1-1",           473,            5.,       -26.875,            0.,NA,NA,"",   26.1405E-03,   13.8596E-03,   22.1639E-03,   7.81967E-03
C:/temp/dataset/7/23_3.odb,Step-1,Increment      1: Step Time =    1.000,"PART-1-1",           474,       7.35824,      -26.7740,            0.,NA,NA,"",   14.7051E-03,   7.58486E-03,   12.5981E-03,   4.77556E-03
C:/temp/dataset/7/23_3.odb,Step-1,Increment      1: Step Time =    1.000,"PART-1-1",           475,       11.2665,      -23.4125,            0.,NA,NA,"",   25.3716E-03,   24.9661E-03,  -4.51809E-03,   738.192E-06
C:/temp/dataset/7/23_3.odb,Step-1,Increment      1: Step Time =    1.000,"PART-1-1",           476,       10.8283,      -24.9299,            0.,NA,NA,"",   13.8021E-03,   13.7762E-03,  -845.587E-06,   253.926E-06
C:/temp/dataset/7/23_3.odb,Step-1,Increment      1: Step Time =    1.000,"PART-1-1",           477,            5.,      -16.4583,            0.,NA,NA,"",   154.541E-03,   122.590E-03,   94.0976E-03,   7.67196E-03
C:/temp/dataset/7/23_3.odb,Step-1,Increment      1: Step Time =    1.000,"PART-1-1",           478,       7.29529,      -16.4772,            0.,NA,NA,"",   128.500E-03,   115.630E-03,   56.0536E-03,   4.62990E-03
C:/temp/dataset/7/23_3.odb,Step-1,Increment      1: Step Time =    1.000,"PART-1-1",           479,            5.,       18.9583,            0.,NA,NA,"",       1.46492,       1.43360,   301.305E-03,   9.74747E-03
C:/temp/dataset/7/23_3.odb,Step-1,Increment      1: Step Time =    1.000,"PART-1-1",           480,       6.05050,       17.7875,            0.,NA,NA,"",       1.38535,       1.36498,   236.695E-03,   6.01773E-03
C:/temp/dataset/7/23_3.odb,Step-1,Increment      1: Step Time =    1.000,"PART-1-1",           481,       7.11573,       18.6629,            0.,NA,NA,"",       1.42093,       1.40959,   179.095E-03,   3.16515E-03
C:/temp/dataset/7/23_3.odb,Step-1,Increment      1: Step Time =    1.000,"PART-1-1",           482,       6.06524,       19.8338,            0.,NA,NA,"",       1.49702,       1.47730,   242.217E-03,   5.61534E-03
C:/temp/dataset/7/23_3.odb,Step-1,Increment      1: Step Time =    1.000,"PART-1-1",           483,       6.98524,       16.7251,            0.,NA,NA,"",       1.31710,       1.30449,   181.761E-03,   4.62515E-03
C:/temp/dataset/7/23_3.odb,Step-1,Increment      1: Step Time =    1.000,"PART-1-1",           484,            5.,        16.875,            0.,NA,NA,"",       1.35193,       1.32074,   288.725E-03,   7.27111E-03
C:/temp/dataset/7/23_3.odb,Step-1,Increment      1: Step Time =    1.000,"PART-1-1",           485,       7.88091,       13.8682,            0.,NA,NA,"",       1.15913,       1.15202,   128.232E-03,   3.59172E-03
C:/temp/dataset/7/23_3.odb,Step-1,Increment      1: Step Time =    1.000,"PART-1-1",           486,       7.65947,       15.6945,            0.,NA,NA,"",       1.25571,       1.24751,   143.287E-03,   3.81869E-03
C:/temp/dataset/7/23_3.odb,Step-1,Increment      1: Step Time =    1.000,"PART-1-1",           487,       8.92157,       12.9075,            0.,NA,NA,"",       1.10331,       1.10079,   74.5327E-03,   2.34589E-03
C:/temp/dataset/7/23_3.odb,Step-1,Increment      1: Step Time =    1.000,"PART-1-1",           488,       9.98918,       11.9956,            0.,NA,NA,"",       1.05377,       1.05355,   21.5992E-03,   1.05970E-03
C:/temp/dataset/7/23_3.odb,Step-1,Increment      1: Step Time =    1.000,"PART-1-1",           489,       10.7968,       13.3004,            0.,NA,NA,"",       1.11737,       1.11720,  -19.4105E-03,   73.6263E-06
C:/temp/dataset/7/23_3.odb,Step-1,Increment      1: Step Time =    1.000,"PART-1-1",           490,       13.0565,       8.69239,            0.,NA,NA,"",   903.253E-03,   895.676E-03,  -116.746E-03,   2.72904E-03
C:/temp/dataset/7/23_3.odb,Step-1,Increment      1: Step Time =    1.000,"PART-1-1",           491,           15.,          8.75,            0.,NA,NA,"",   922.829E-03,   899.710E-03,  -205.269E-03,   5.13027E-03
C:/temp/dataset/7/23_3.odb,Step-1,Increment      1: Step Time =    1.000,"PART-1-1",           492,       14.0220,       9.95215,            0.,NA,NA,"",   968.269E-03,   953.879E-03,  -166.311E-03,   3.91560E-03
C:/temp/dataset/7/23_3.odb,Step-1,Increment      1: Step Time =    1.000,"PART-1-1",           493,       8.15713,      -6.43409,            0.,NA,NA,"",   348.411E-03,   341.265E-03,   70.2003E-03,   3.38719E-03
C:/temp/dataset/7/23_3.odb,Step-1,Increment      1: Step Time =    1.000,"PART-1-1",           494,       7.55707,      -5.50995,            0.,NA,NA,"",   380.193E-03,   369.342E-03,   90.1830E-03,   4.14464E-03
C:/temp/dataset/7/23_3.odb,Step-1,Increment      1: Step Time =    1.000,"PART-1-1",           495,       13.0039,      -1.03047,            0.,NA,NA,"",   514.980E-03,   508.257E-03,  -82.9422E-03,   2.75423E-03
C:/temp/dataset/7/23_3.odb,Step-1,Increment      1: Step Time =    1.000,"PART-1-1",           496,       13.9897,      -2.37705,            0.,NA,NA,"",   477.047E-03,   463.869E-03,  -111.352E-03,   4.01461E-03
C:/temp/dataset/7/23_3.odb,Step-1,Increment      1: Step Time =    1.000,"PART-1-1",           497,           15.,         -1.25,            0.,NA,NA,"",   525.240E-03,   503.153E-03,  -150.710E-03,   5.26833E-03
C:/temp/dataset/7/23_3.odb,Step-1,Increment      1: Step Time =    1.000,"PART-1-1",           498,       11.0188,      -11.3444,            0.,NA,NA,"",   212.722E-03,   212.583E-03,  -7.70067E-03,   322.259E-06
C:/temp/dataset/7/23_3.odb,Step-1,Increment      1: Step Time =    1.000,"PART-1-1",           499,       9.94563,      -10.3262,            0.,NA,NA,"",   237.450E-03,   236.825E-03,   17.2209E-03,   1.10376E-03
C:/temp/dataset/7/23_3.odb,Step-1,Increment      1: Step Time =    1.000,"PART-1-1",           500,       9.07908,      -11.6768,            0.,NA,NA,"",   209.455E-03,   206.436E-03,   35.4337E-03,   2.23059E-03
C:/temp/dataset/7/23_3.odb,Step-1,Increment      1: Step Time =    1.000,"PART-1-1",           501,       10.1523,      -12.6950,            0.,NA,NA,"",   183.614E-03,   183.275E-03,   11.1563E-03,   835.995E-06
C:/temp/dataset/7/23_3.odb,Step-1,Increment      1: Step Time =    1.000,"PART-1-1",           502,       11.2699,       24.2837,            0.,NA,NA,"",       1.74198,       1.74067,  -67.5646E-03,   2.03135E-03
C:/temp/dataset/7/23_3.odb,Step-1,Increment      1: Step Time =    1.000,"PART-1-1",           503,       12.1787,       22.9892,            0.,NA,NA,"",       1.66373,       1.65955,  -117.762E-03,   2.05528E-03
C:/temp/dataset/7/23_3.odb,Step-1,Increment      1: Step Time =    1.000,"PART-1-1",           504,           15.,         -3.75,            0.,NA,NA,"",   443.276E-03,   421.419E-03,  -137.479E-03,   5.31827E-03
C:/temp/dataset/7/23_3.odb,Step-1,Increment      1: Step Time =    1.000,"PART-1-1",           505,       12.9359,      -3.49956,            0.,NA,NA,"",   432.860E-03,   426.609E-03,  -73.2950E-03,   2.69714E-03
C:/temp/dataset/7/23_3.odb,Step-1,Increment      1: Step Time =    1.000,"PART-1-1",           506,           15.,        -11.25,            0.,NA,NA,"",   239.934E-03,   218.871E-03,  -98.3046E-03,   5.49363E-03
C:/temp/dataset/7/23_3.odb,Step-1,Increment      1: Step Time =    1.000,"PART-1-1",           507,       12.9838,      -11.1958,            0.,NA,NA,"",   223.105E-03,   216.840E-03,  -52.5014E-03,   2.86516E-03
C:/temp/dataset/7/23_3.odb,Step-1,Increment      1: Step Time =    1.000,"PART-1-1",           508,           15.,         11.25,            0.,NA,NA,"",       1.03950,       1.01606,  -219.505E-03,   5.12591E-03
C:/temp/dataset/7/23_3.odb,Step-1,Increment      1: Step Time =    1.000,"PART-1-1",           509,       12.9950,       11.1325,            0.,NA,NA,"",       1.01665,       1.00925,  -122.409E-03,   2.63624E-03
C:/temp/dataset/7/23_3.odb,Step-1,Increment      1: Step Time =    1.000,"PART-1-1",           510,           15.,          3.75,            0.,NA,NA,"",   710.171E-03,   687.605E-03,  -177.601E-03,   5.18305E-03
C:/temp/dataset/7/23_3.odb,Step-1,Increment      1: Step Time =    1.000,"PART-1-1",           511,       13.0643,       3.84158,            0.,NA,NA,"",   696.638E-03,   689.325E-03,  -100.677E-03,   2.77911E-03
C:/temp/dataset/7/23_3.odb,Step-1,Increment      1: Step Time =    1.000,"PART-1-1",           512,           15.,        -18.75,            0.,NA,NA,"",   100.967E-03,   81.7172E-03,  -59.3014E-03,   5.71295E-03
C:/temp/dataset/7/23_3.odb,Step-1,Increment      1: Step Time =    1.000,"PART-1-1",           513,       13.1842,      -18.5870,            0.,NA,NA,"",   87.6266E-03,   80.5068E-03,  -34.5988E-03,   3.26293E-03
C:/temp/dataset/7/23_3.odb,Step-1,Increment      1: Step Time =    1.000,"PART-1-1",           514,       13.5513,      -24.7801,            0.,NA,NA,"",   24.9506E-03,   17.2135E-03,  -18.0617E-03,   3.92546E-03
C:/temp/dataset/7/23_3.odb,Step-1,Increment      1: Step Time =    1.000,"PART-1-1",           515,       12.2413,      -25.9996,            0.,NA,NA,"",   11.2045E-03,   8.44278E-03,  -7.36616E-03,   2.15948E-03
C:/temp/dataset/7/23_3.odb,Step-1,Increment      1: Step Time =    1.000,"PART-1-1",           516,           15.,        -26.25,            0.,NA,NA,"",   23.1417E-03,   12.3137E-03,  -19.5936E-03,   5.97197E-03
C:/temp/dataset/7/23_3.odb,Step-1,Increment      1: Step Time =    1.000,"PART-1-1",           517,           15.,        -23.75,            0.,NA,NA,"",   43.0111E-03,   27.6909E-03,  -32.9115E-03,   5.88428E-03
C:/temp/dataset/7/23_3.odb,Step-1,Increment      1: Step Time =    1.000,"PART-1-1",           518,       12.5809,      -23.3397,            0.,NA,NA,"",   30.5524E-03,   26.4952E-03,  -15.2137E-03,   2.56170E-03
C:/temp/dataset/7/23_3.odb,Step-1,Increment      1: Step Time =    1.000,"PART-1-1",           519,       9.49127,      -18.7202,            0.,NA,NA,"",   79.5414E-03,   77.7660E-03,   16.7121E-03,   1.72578E-03
C:/temp/dataset/7/23_3.odb,Step-1,Increment      1: Step Time =    1.000,"PART-1-1",           520,       8.36047,      -17.5836,            0.,NA,NA,"",   102.196E-03,   95.8502E-03,   35.4517E-03,   3.22515E-03
C:/temp/dataset/7/23_3.odb,Step-1,Increment      1: Step Time =    1.000,"PART-1-1",           521,       11.5260,      -20.5498,            0.,NA,NA,"",   54.5104E-03,   53.6848E-03,  -9.45130E-03,   1.04763E-03
C:/temp/dataset/7/23_3.odb,Step-1,Increment      1: Step Time =    1.000,"PART-1-1",           522,       10.5221,      -19.7870,            0.,NA,NA,"",   62.9911E-03,   62.9487E-03,   2.31276E-03,   368.367E-06
C:/temp/dataset/7/23_3.odb,Step-1,Increment      1: Step Time =    1.000,"PART-1-1",           523,       11.0260,      -21.8608,            0.,NA,NA,"",   39.3583E-03,   39.2320E-03,  -3.15052E-03,   392.538E-06
C:/temp/dataset/7/23_3.odb,Step-1,Increment      1: Step Time =    1.000,"PART-1-1",           524,       7.98010,      -10.7619,            0.,NA,NA,"",   237.532E-03,   229.154E-03,   62.5310E-03,   3.65351E-03
C:/temp/dataset/7/23_3.odb,Step-1,Increment      1: Step Time =    1.000,"PART-1-1",           525,       8.65118,      -4.78401,            0.,NA,NA,"",   393.449E-03,   388.908E-03,   59.6086E-03,   2.74708E-03
C:/temp/dataset/7/23_3.odb,Step-1,Increment      1: Step Time =    1.000,"PART-1-1",           526,       7.84665,      -3.50518,            0.,NA,NA,"",   439.047E-03,   430.233E-03,   87.5336E-03,   3.75180E-03
C:/temp/dataset/7/23_3.odb,Step-1,Increment      1: Step Time =    1.000,"PART-1-1",           527,       9.43586,      -6.49799,            0.,NA,NA,"",   339.167E-03,   337.455E-03,   34.0302E-03,   1.74581E-03
C:/temp/dataset/7/23_3.odb,Step-1,Increment      1: Step Time =    1.000,"PART-1-1",           528,       10.6293,      -5.79077,            0.,NA,NA,"",   356.756E-03,   356.756E-03,   274.261E-06,   243.571E-06
C:/temp/dataset/7/23_3.odb,Step-1,Increment      1: Step Time =    1.000,"PART-1-1",           529,       11.1144,       3.95682,            0.,NA,NA,"",   694.514E-03,   694.134E-03,  -22.9774E-03,   361.191E-06
C:/temp/dataset/7/23_3.odb,Step-1,Increment      1: Step Time =    1.000,"PART-1-1",           530,       10.1270,       5.17226,            0.,NA,NA,"",   744.831E-03,   744.649E-03,   16.4518E-03,   873.965E-06
C:/temp/dataset/7/23_3.odb,Step-1,Increment      1: Step Time =    1.000,"PART-1-1",           531,       9.05317,       10.7826,            0.,NA,NA,"",   998.892E-03,   996.688E-03,   66.3256E-03,   2.20440E-03
C:/temp/dataset/7/23_3.odb,Step-1,Increment      1: Step Time =    1.000,"PART-1-1",           532,       8.01195,       11.8024,            0.,NA,NA,"",       1.05505,       1.04846,   117.725E-03,   3.46509E-03
C:/temp/dataset/7/23_3.odb,Step-1,Increment      1: Step Time =    1.000,"PART-1-1",           533,       11.0241,       10.9595,            0.,NA,NA,"",       1.00237,       1.00199,  -27.5730E-03,   213.343E-06
C:/temp/dataset/7/23_3.odb,Step-1,Increment      1: Step Time =    1.000,"PART-1-1",           534,       8.35051,       17.3209,            0.,NA,NA,"",       1.33748,       1.33309,   108.351E-03,   2.75016E-03
C:/temp/dataset/7/23_3.odb,Step-1,Increment      1: Step Time =    1.000,"PART-1-1",           535,       12.5952,       19.1415,            0.,NA,NA,"",       1.43606,       1.43020,  -129.611E-03,   2.13861E-03
C:/temp/dataset/7/23_3.odb,Step-1,Increment      1: Step Time =    1.000,"PART-1-1",           536,           15.,         18.75,            0.,NA,NA,"",       1.43213,       1.40763,  -263.728E-03,   4.51057E-03
C:/temp/dataset/7/23_3.odb,Step-1,Increment      1: Step Time =    1.000,"PART-1-1",           537,      -7.03326,       22.4462,            0.,NA,NA,"",       1.99366,       1.66232,       1.10063,   95.5995E-06
C:/temp/dataset/7/23_3.odb,Step-1,Increment      1: Step Time =    1.000,"PART-1-1",           538,      -8.48458,       21.3302,            0.,NA,NA,"",       1.99266,       1.59367,       1.19621,   52.8903E-06
C:/temp/dataset/7/23_3.odb,Step-1,Increment      1: Step Time =    1.000,"PART-1-1",           539,      -6.65000,           20.,            0.,NA,NA,"",       1.85272,       1.50458,       1.08112,   113.241E-06
C:/temp/dataset/7/23_3.odb,Step-1,Increment      1: Step Time =    1.000,"PART-1-1",           540,      -5.19869,       21.1160,            0.,NA,NA,"",       1.85663,       1.57336,   985.701E-03,   276.641E-06
C:/temp/dataset/7/23_3.odb,Step-1,Increment      1: Step Time =    1.000,"PART-1-1",           541,       9.42603,       26.6587,            0.,NA,NA,"",       1.89294,       1.89256,   38.0217E-03,   1.70652E-03
C:/temp/dataset/7/23_3.odb,Step-1,Increment      1: Step Time =    1.000,"PART-1-1",           542,       10.3720,       25.4897,            0.,NA,NA,"",       1.81747,       1.81740,  -16.7234E-03,   1.88213E-03
C:/temp/dataset/7/23_3.odb,Step-1,Increment      1: Step Time =    1.000,"PART-1-1",           543,       6.87457,       25.7626,            0.,NA,NA,"",       1.85384,       1.84364,   194.215E-03,   1.52137E-03
C:/temp/dataset/7/23_3.odb,Step-1,Increment      1: Step Time =    1.000,"PART-1-1",           544,       7.54675,       26.7337,            0.,NA,NA,"",       1.90852,       1.90247,   151.926E-03,   1.54805E-03
C:/temp/dataset/7/23_3.odb,Step-1,Increment      1: Step Time =    1.000,"PART-1-1",           545,      -3.17643,       25.4018,            0.,NA,NA,"",       2.02928,       1.84438,   846.308E-03,   397.474E-06
C:/temp/dataset/7/23_3.odb,Step-1,Increment      1: Step Time =    1.000,"PART-1-1",           546,      -4.35024,       25.6599,            0.,NA,NA,"",       2.07866,       1.86328,   921.413E-03,   190.331E-06
C:/temp/dataset/7/23_3.odb,Step-1,Increment      1: Step Time =    1.000,"PART-1-1",           547,       4.01884,       22.4610,            0.,NA,NA,"",       1.68859,       1.64585,   377.510E-03,   3.34031E-03
C:/temp/dataset/7/23_3.odb,Step-1,Increment      1: Step Time =    1.000,"PART-1-1",           548,       5.32127,       23.1739,            0.,NA,NA,"",       1.71158,       1.68640,   292.550E-03,   2.76627E-03
C:/temp/dataset/7/23_3.odb,Step-1,Increment      1: Step Time =    1.000,"PART-1-1",           549,       11.1447,       22.1526,            0.,NA,NA,"",       1.61074,       1.60979,  -55.4742E-03,   2.02367E-03
C:/temp/dataset/7/23_3.odb,Step-1,Increment      1: Step Time =    1.000,"PART-1-1",           550,       10.2813,       23.3249,            0.,NA,NA,"",       1.68303,       1.68301,  -7.62057E-03,   2.10235E-03
C:/temp/dataset/7/23_3.odb,Step-1,Increment      1: Step Time =    1.000,"PART-1-1",           551,       6.15508,       21.9496,            0.,NA,NA,"",       1.62474,       1.60705,   239.110E-03,   3.21740E-03
C:/temp/dataset/7/23_3.odb,Step-1,Increment      1: Step Time =    1.000,"PART-1-1",           552,       6.48612,       23.9825,            0.,NA,NA,"",       1.74717,       1.73338,   219.131E-03,   1.99299E-03
C:/temp/dataset/7/23_3.odb,Step-1,Increment      1: Step Time =    1.000,"PART-1-1",           553,   6.30745E-03,       24.2683,            0.,NA,NA,"",       1.88001,       1.76680,   642.516E-03,   1.72028E-03
C:/temp/dataset/7/23_3.odb,Step-1,Increment      1: Step Time =    1.000,"PART-1-1",           554,      -1.65981,       23.6471,            0.,NA,NA,"",       1.88606,       1.72920,   753.069E-03,   1.01914E-03
C:/temp/dataset/7/23_3.odb,Step-1,Increment      1: Step Time =    1.000,"PART-1-1",           555,      -1.07768,       22.4355,            0.,NA,NA,"",       1.80054,       1.65060,   719.347E-03,   2.23142E-03
C:/temp/dataset/7/23_3.odb,Step-1,Increment      1: Step Time =    1.000,"PART-1-1",           556,   588.432E-03,       23.0567,            0.,NA,NA,"",       1.79487,       1.68869,   608.164E-03,   2.84503E-03
C:/temp/dataset/7/23_3.odb,Step-1,Increment      1: Step Time =    1.000,"PART-1-1",           557,      -4.82218,       24.5397,            0.,NA,NA,"",       2.03042,       1.79219,   954.270E-03,   145.604E-06
C:/temp/dataset/7/23_3.odb,Step-1,Increment      1: Step Time =    1.000,"PART-1-1",           558,      -3.09511,       23.7242,            0.,NA,NA,"",       1.93125,       1.73643,   845.283E-03,   593.027E-06
C:/temp/dataset/7/23_3.odb,Step-1,Increment      1: Step Time =    1.000,"PART-1-1",           559,      -5.58708,       23.2486,            0.,NA,NA,"",       1.98469,       1.71079,       1.00608,   89.5340E-06
C:/temp/dataset/7/23_3.odb,Step-1,Increment      1: Step Time =    1.000,"PART-1-1",           560,       8.76337,      -9.49006,            0.,NA,NA,"",   262.837E-03,   258.603E-03,   46.9884E-03,   2.62948E-03
C:/temp/dataset/7/23_3.odb,Step-1,Increment      1: Step Time =    1.000,"PART-1-1",           561,       9.72759,      -26.4759,            0.,NA,NA,"",   6.92588E-03,   5.73120E-03,   3.88860E-03,   1.44308E-03
C:/temp/dataset/7/23_3.odb,Step-1,Increment      1: Step Time =    1.000,"PART-1-1",           562,       9.12173,       6.33780,            0.,NA,NA,"",   797.548E-03,   795.350E-03,   59.1691E-03,   2.11609E-03
C:/temp/dataset/7/23_3.odb,Step-1,Increment      1: Step Time =    1.000,"PART-1-1",           563,       11.1214,       6.29882,            0.,NA,NA,"",   791.476E-03,   791.048E-03,  -26.0217E-03,   357.119E-06
C:/temp/dataset/7/23_3.odb,Step-1,Increment      1: Step Time =    1.000,"PART-1-1",           564,       11.1740,      -13.7880,            0.,NA,NA,"",   160.857E-03,   160.575E-03,  -9.52188E-03,   532.976E-06
C:/temp/dataset/7/23_3.odb,Step-1,Increment      1: Step Time =    1.000,"PART-1-1",           565,       10.6612,      -8.65022,            0.,NA,NA,"",   278.114E-03,   278.114E-03,  -20.7057E-06,   202.126E-06
C:/temp/dataset/7/23_3.odb,Step-1,Increment      1: Step Time =    1.000,"PART-1-1",           566,       9.47894,      -7.81405,            0.,NA,NA,"",   302.693E-03,   301.069E-03,   31.3181E-03,   1.69819E-03
C:/temp/dataset/7/23_3.odb,Step-1,Increment      1: Step Time =    1.000,"PART-1-1",           567,       11.3640,      -18.5194,            0.,NA,NA,"",   80.5313E-03,   80.0015E-03,  -9.22228E-03,   813.201E-06
C:/temp/dataset/7/23_3.odb,Step-1,Increment      1: Step Time =    1.000,"PART-1-1",           568,       12.0025,       20.7886,            0.,NA,NA,"",       1.53021,       1.52685,  -101.259E-03,   2.03032E-03
C:/temp/dataset/7/23_3.odb,Step-1,Increment      1: Step Time =    1.000,"PART-1-1",           569,       11.4947,       18.6594,            0.,NA,NA,"",       1.40497,       1.40339,  -66.6601E-03,   1.46974E-03
C:/temp/dataset/7/23_3.odb,Step-1,Increment      1: Step Time =    1.000,"PART-1-1",           570,       9.39315,       18.1618,            0.,NA,NA,"",       1.37859,       1.37765,   50.7318E-03,   1.14690E-03
C:/temp/dataset/7/23_3.odb,Step-1,Increment      1: Step Time =    1.000,"PART-1-1",           571,       10.9214,       17.4088,            0.,NA,NA,"",       1.33418,       1.33379,  -32.2343E-03,   645.900E-06
C:/temp/dataset/7/23_3.odb,Step-1,Increment      1: Step Time =    1.000,"PART-1-1",           572,      -9.97500,           20.,            0.,NA,NA,"",       1.99006,       1.51125,       1.29478,   47.7369E-06
C:/temp/dataset/7/23_3.odb,Step-1,Increment      1: Step Time =    1.000,"PART-1-1",           573,       11.9818,      -2.09472,            0.,NA,NA,"",   474.050E-03,   471.842E-03,  -45.7014E-03,   1.47774E-03
C:/temp/dataset/7/23_3.odb,Step-1,Increment      1: Step Time =    1.000,"PART-1-1",           574,       12.0426,   313.093E-03,            0.,NA,NA,"",   557.721E-03,   555.243E-03,  -52.5063E-03,   1.53534E-03
C:/temp/dataset/7/23_3.odb,Step-1,Increment      1: Step Time =    1.000,"PART-1-1",           575,       12.1686,      -14.9632,            0.,NA,NA,"",   141.020E-03,   138.420E-03,  -26.9549E-03,   1.84695E-03
C:/temp/dataset/7/23_3.odb,Step-1,Increment      1: Step Time =    1.000,"PART-1-1",           576,       12.0880,      -12.5178,            0.,NA,NA,"",   189.322E-03,   186.970E-03,  -29.7501E-03,   1.71219E-03
C:/temp/dataset/7/23_3.odb,Step-1,Increment      1: Step Time =    1.000,"PART-1-1",           577,       12.0767,       2.70437,            0.,NA,NA,"",   647.160E-03,   644.486E-03,  -58.7727E-03,   1.56063E-03
C:/temp/dataset/7/23_3.odb,Step-1,Increment      1: Step Time =    1.000,"PART-1-1",           578,       11.6617,       14.7036,            0.,NA,NA,"",       1.18994,       1.18811,  -66.0664E-03,   1.02019E-03
C:/temp/dataset/7/23_3.odb,Step-1,Increment      1: Step Time =    1.000,"PART-1-1",           579,       11.9561,       12.2406,            0.,NA,NA,"",       1.06600,       1.06334,  -75.1746E-03,   1.34958E-03
C:/temp/dataset/7/23_3.odb,Step-1,Increment      1: Step Time =    1.000,"PART-1-1",           580,       12.3155,      -19.7087,            0.,NA,NA,"",   67.5869E-03,   64.4858E-03,  -20.2379E-03,   2.11293E-03
C:/temp/dataset/7/23_3.odb,Step-1,Increment      1: Step Time =    1.000,"PART-1-1",           581,       12.3404,      -21.7879,            0.,NA,NA,"",   43.8139E-03,   40.6314E-03,  -16.3936E-03,   2.16106E-03
C:/temp/dataset/7/23_3.odb,Step-1,Increment      1: Step Time =    1.000,"PART-1-1",           582,       12.2327,      -17.3977,            0.,NA,NA,"",   99.9255E-03,   97.1177E-03,  -23.5212E-03,   1.96253E-03
C:/temp/dataset/7/23_3.odb,Step-1,Increment      1: Step Time =    1.000,"PART-1-1",           583,       12.1020,       5.09402,            0.,NA,NA,"",   742.866E-03,   740.011E-03,  -65.0600E-03,   1.57510E-03
C:/temp/dataset/7/23_3.odb,Step-1,Increment      1: Step Time =    1.000,"PART-1-1",           584,       12.0630,       9.85139,            0.,NA,NA,"",   951.875E-03,   948.955E-03,  -74.5031E-03,   1.49316E-03
C:/temp/dataset/7/23_3.odb,Step-1,Increment      1: Step Time =    1.000,"PART-1-1",           585,       12.0921,       7.47372,            0.,NA,NA,"",   844.330E-03,   841.412E-03,  -70.1379E-03,   1.54597E-03
C:/temp/dataset/7/23_3.odb,Step-1,Increment      1: Step Time =    1.000,"PART-1-1",           586,       11.9146,      -10.0225,            0.,NA,NA,"",   245.549E-03,   243.707E-03,  -30.0163E-03,   1.46151E-03
C:/temp/dataset/7/23_3.odb,Step-1,Increment      1: Step Time =    1.000,"PART-1-1",           587,       11.5993,      -7.26023,            0.,NA,NA,"",   316.038E-03,   314.974E-03,  -25.9108E-03,   1.02938E-03
C:/temp/dataset/7/23_3.odb,Step-1,Increment      1: Step Time =    1.000,"PART-1-1",           588,       11.8707,      -4.56496,            0.,NA,NA,"",   394.864E-03,   393.054E-03,  -37.7675E-03,   1.35806E-03
C:/temp/dataset/7/23_3.odb,Step-1,Increment      1: Step Time =    1.000,"PART-1-1",           589,      -3.86001,       22.4330,            0.,NA,NA,"",       1.88254,       1.65489,   897.384E-03,   377.297E-06
C:/temp/dataset/7/23_3.odb,Step-1,Increment      1: Step Time =    1.000,"PART-1-1",           590,       3.35000,           20.,            0.,NA,NA,"",       1.54754,       1.48696,   428.738E-03,   4.11565E-03
C:/temp/dataset/7/23_3.odb,Step-1,Increment      1: Step Time =    1.000,"PART-1-1",           591,       5.05511,       21.0689,            0.,NA,NA,"",       1.58553,       1.55545,   307.408E-03,   4.99114E-03
C:/temp/dataset/7/23_3.odb,Step-1,Increment      1: Step Time =    1.000,"PART-1-1",           592,       2.31373,       21.3921,            0.,NA,NA,"",       1.65659,       1.58046,   496.437E-03,   2.38805E-03
C:/temp/dataset/7/23_3.odb,Step-1,Increment      1: Step Time =    1.000,"PART-1-1",           593,      -1.98632,       21.3170,            0.,NA,NA,"",       1.76216,       1.57954,   781.201E-03,   1.45215E-03
C:/temp/dataset/7/23_3.odb,Step-1,Increment      1: Step Time =    1.000,"PART-1-1",           594,   25.0000E-03,           20.,            0.,NA,NA,"",       1.63057,       1.49166,   658.570E-03,   2.28383E-03
C:/temp/dataset/7/23_3.odb,Step-1,Increment      1: Step Time =    1.000,"PART-1-1",           595,   933.640E-03,       21.1186,            0.,NA,NA,"",       1.67260,       1.56406,   592.690E-03,   3.02532E-03
C:/temp/dataset/7/23_3.odb,Step-1,Increment      1: Step Time =    1.000,"PART-1-1",           596,       7.16521,       20.7144,            0.,NA,NA,"",       1.53878,       1.52852,   177.406E-03,   2.80380E-03
C:/temp/dataset/7/23_3.odb,Step-1,Increment      1: Step Time =    1.000,"PART-1-1",           597,       8.15837,       19.5039,            0.,NA,NA,"",       1.46083,       1.45592,   119.673E-03,   1.92047E-03
C:/temp/dataset/7/23_3.odb,Step-1,Increment      1: Step Time =    1.000,"PART-1-1",           598,      -3.32500,           20.,            0.,NA,NA,"",       1.73194,       1.49864,   868.164E-03,   367.607E-06
