ODB Name,Step,Frame,Part Instance Name,    êﬂì_ÉâÉxÉã,X,Y,Z,Section Name,Material Name,Section Point,   U-Magnitude,          U-U1,          U-U2,       S-Mises
C:/temp/dataset/7/23_5.odb,Step-1,Increment      1: Step Time =    1.000,"PART-1-1",             1,          -15.,           20.,            0.,NA,NA,"",       3.90851,       2.76677,       2.76069,   9.60926E-06
C:/temp/dataset/7/23_5.odb,Step-1,Increment      1: Step Time =    1.000,"PART-1-1",             2,          -15.,           25.,            0.,NA,NA,"",       4.30061,       3.32328,       2.72966,   14.0115E-06
C:/temp/dataset/7/23_5.odb,Step-1,Increment      1: Step Time =    1.000,"PART-1-1",             3,      -11.6500,           20.,            0.,NA,NA,"",       3.63892,       2.74593,       2.38779,   23.1023E-06
C:/temp/dataset/7/23_5.odb,Step-1,Increment      1: Step Time =    1.000,"PART-1-1",             4,      -8.30000,           20.,            0.,NA,NA,"",       3.38938,       2.72539,       2.01497,   195.576E-06
C:/temp/dataset/7/23_5.odb,Step-1,Increment      1: Step Time =    1.000,"PART-1-1",             5,           -5.,           20.,            0.,NA,NA,"",       3.16787,       2.70530,       1.64826,   865.383E-06
C:/temp/dataset/7/23_5.odb,Step-1,Increment      1: Step Time =    1.000,"PART-1-1",             6,      -1.65000,           20.,            0.,NA,NA,"",       2.97791,       2.68759,       1.28248,   2.87233E-03
C:/temp/dataset/7/23_5.odb,Step-1,Increment      1: Step Time =    1.000,"PART-1-1",             7,       1.70000,           20.,            0.,NA,NA,"",       2.81154,       2.66313,   901.377E-03,   4.79608E-03
C:/temp/dataset/7/23_5.odb,Step-1,Increment      1: Step Time =    1.000,"PART-1-1",             8,            5.,           20.,            0.,NA,NA,"",       2.70020,       2.65402,   497.208E-03,   15.4386E-03
C:/temp/dataset/7/23_5.odb,Step-1,Increment      1: Step Time =    1.000,"PART-1-1",             9,            5.,         13.75,            0.,NA,NA,"",       2.11948,       2.07145,   448.682E-03,   11.8206E-03
C:/temp/dataset/7/23_5.odb,Step-1,Increment      1: Step Time =    1.000,"PART-1-1",            10,            5.,           7.5,            0.,NA,NA,"",       1.59761,       1.54577,   403.711E-03,   12.0781E-03
C:/temp/dataset/7/23_5.odb,Step-1,Increment      1: Step Time =    1.000,"PART-1-1",            11,            5.,          1.25,            0.,NA,NA,"",       1.14801,       1.09291,   351.386E-03,   12.3638E-03
C:/temp/dataset/7/23_5.odb,Step-1,Increment      1: Step Time =    1.000,"PART-1-1",            12,            5.,           -5.,            0.,NA,NA,"",   772.675E-03,   715.226E-03,   292.366E-03,   12.7112E-03
C:/temp/dataset/7/23_5.odb,Step-1,Increment      1: Step Time =    1.000,"PART-1-1",            13,            5.,        -11.25,            0.,NA,NA,"",   473.227E-03,   415.213E-03,   227.029E-03,   13.1255E-03
C:/temp/dataset/7/23_5.odb,Step-1,Increment      1: Step Time =    1.000,"PART-1-1",            14,            5.,         -17.5,            0.,NA,NA,"",   250.316E-03,   195.930E-03,   155.787E-03,   13.6283E-03
C:/temp/dataset/7/23_5.odb,Step-1,Increment      1: Step Time =    1.000,"PART-1-1",            15,            5.,        -23.75,            0.,NA,NA,"",   100.120E-03,   61.0510E-03,   79.3519E-03,   14.1124E-03
C:/temp/dataset/7/23_5.odb,Step-1,Increment      1: Step Time =    1.000,"PART-1-1",            16,            5.,          -30.,            0.,NA,NA,"",            0.,   4.56910E-39,   8.75423E-39,   16.9771E-03
C:/temp/dataset/7/23_5.odb,Step-1,Increment      1: Step Time =    1.000,"PART-1-1",            17,           15.,          -30.,            0.,NA,NA,"",            0.,   3.21173E-39,  -6.08686E-39,   11.6855E-03
C:/temp/dataset/7/23_5.odb,Step-1,Increment      1: Step Time =    1.000,"PART-1-1",            18,           15.,         -22.5,            0.,NA,NA,"",   102.695E-03,   71.6701E-03,  -73.5497E-03,   10.7198E-03
C:/temp/dataset/7/23_5.odb,Step-1,Increment      1: Step Time =    1.000,"PART-1-1",            19,           15.,          -15.,            0.,NA,NA,"",   298.320E-03,   260.342E-03,  -145.660E-03,   9.99533E-03
C:/temp/dataset/7/23_5.odb,Step-1,Increment      1: Step Time =    1.000,"PART-1-1",            20,           15.,          -7.5,            0.,NA,NA,"",   606.440E-03,   566.114E-03,  -217.451E-03,   9.44219E-03
C:/temp/dataset/7/23_5.odb,Step-1,Increment      1: Step Time =    1.000,"PART-1-1",            21,           15.,            0.,            0.,NA,NA,"",       1.02570,   983.452E-03,  -291.340E-03,   9.00695E-03
C:/temp/dataset/7/23_5.odb,Step-1,Increment      1: Step Time =    1.000,"PART-1-1",            22,           15.,           7.5,            0.,NA,NA,"",       1.55252,       1.50791,  -369.455E-03,   8.69371E-03
C:/temp/dataset/7/23_5.odb,Step-1,Increment      1: Step Time =    1.000,"PART-1-1",            23,           15.,           15.,            0.,NA,NA,"",       2.18451,       2.13676,  -454.267E-03,   8.56221E-03
C:/temp/dataset/7/23_5.odb,Step-1,Increment      1: Step Time =    1.000,"PART-1-1",            24,           15.,          22.5,            0.,NA,NA,"",       2.92310,       2.87270,  -540.439E-03,   4.87780E-03
C:/temp/dataset/7/23_5.odb,Step-1,Increment      1: Step Time =    1.000,"PART-1-1",            25,           15.,           30.,            0.,NA,NA,"",       3.71644,       3.66864,  -594.157E-03,   133.474E-06
C:/temp/dataset/7/23_5.odb,Step-1,Increment      1: Step Time =    1.000,"PART-1-1",            26,         11.25,           30.,            0.,NA,NA,"",       3.69592,       3.69054,  -199.329E-03,   1.30023E-03
C:/temp/dataset/7/23_5.odb,Step-1,Increment      1: Step Time =    1.000,"PART-1-1",            27,           7.5,           30.,            0.,NA,NA,"",       3.72555,       3.72040,   195.877E-03,   3.68490E-03
C:/temp/dataset/7/23_5.odb,Step-1,Increment      1: Step Time =    1.000,"PART-1-1",            28,          3.75,           30.,            0.,NA,NA,"",       3.80413,       3.75587,   604.043E-03,   3.26160E-03
C:/temp/dataset/7/23_5.odb,Step-1,Increment      1: Step Time =    1.000,"PART-1-1",            29,            0.,           30.,            0.,NA,NA,"",       3.92254,       3.78648,       1.02417,   907.592E-06
C:/temp/dataset/7/23_5.odb,Step-1,Increment      1: Step Time =    1.000,"PART-1-1",            30,         -3.75,           30.,            0.,NA,NA,"",       4.07559,       3.81072,       1.44527,   193.554E-06
C:/temp/dataset/7/23_5.odb,Step-1,Increment      1: Step Time =    1.000,"PART-1-1",            31,          -7.5,           30.,            0.,NA,NA,"",       4.26254,       3.83350,       1.86374,   136.446E-06
C:/temp/dataset/7/23_5.odb,Step-1,Increment      1: Step Time =    1.000,"PART-1-1",            32,        -11.25,           30.,            0.,NA,NA,"",       4.48075,       3.85657,       2.28123,   26.5033E-06
C:/temp/dataset/7/23_5.odb,Step-1,Increment      1: Step Time =    1.000,"PART-1-1",            33,          -15.,           30.,            0.,NA,NA,"",       4.72608,       3.87986,       2.69862,   1.24702E-06
C:/temp/dataset/7/23_5.odb,Step-1,Increment      1: Step Time =    1.000,"PART-1-1",            34,          -15.,          22.5,            0.,NA,NA,"",       4.09976,       3.04502,       2.74516,   12.8467E-06
C:/temp/dataset/7/23_5.odb,Step-1,Increment      1: Step Time =    1.000,"PART-1-1",            35,            5.,       15.8333,            0.,NA,NA,"",       2.30850,       2.26178,   462.047E-03,   11.4770E-03
C:/temp/dataset/7/23_5.odb,Step-1,Increment      1: Step Time =    1.000,"PART-1-1",            36,            5.,       17.9167,            0.,NA,NA,"",       2.50304,       2.45768,   474.386E-03,   13.2490E-03
C:/temp/dataset/7/23_5.odb,Step-1,Increment      1: Step Time =    1.000,"PART-1-1",            37,            5.,       9.58333,            0.,NA,NA,"",       1.76369,       1.71306,   419.572E-03,   11.9827E-03
C:/temp/dataset/7/23_5.odb,Step-1,Increment      1: Step Time =    1.000,"PART-1-1",            38,            5.,       11.6667,            0.,NA,NA,"",       1.93771,       1.88835,   434.581E-03,   11.8498E-03
C:/temp/dataset/7/23_5.odb,Step-1,Increment      1: Step Time =    1.000,"PART-1-1",            39,            5.,       3.33333,            0.,NA,NA,"",       1.28971,       1.23561,   369.592E-03,   12.2651E-03
C:/temp/dataset/7/23_5.odb,Step-1,Increment      1: Step Time =    1.000,"PART-1-1",            40,            5.,       5.41667,            0.,NA,NA,"",       1.43960,       1.38659,   387.040E-03,   12.1717E-03
C:/temp/dataset/7/23_5.odb,Step-1,Increment      1: Step Time =    1.000,"PART-1-1",            41,            5.,      -2.91667,            0.,NA,NA,"",   889.430E-03,   832.627E-03,   312.760E-03,   12.5833E-03
C:/temp/dataset/7/23_5.odb,Step-1,Increment      1: Step Time =    1.000,"PART-1-1",            42,            5.,  -833.333E-03,            0.,NA,NA,"",       1.01456,   958.550E-03,   332.437E-03,   12.4712E-03
C:/temp/dataset/7/23_5.odb,Step-1,Increment      1: Step Time =    1.000,"PART-1-1",            43,            5.,      -9.16667,            0.,NA,NA,"",   564.532E-03,   506.410E-03,   249.490E-03,   12.9807E-03
C:/temp/dataset/7/23_5.odb,Step-1,Increment      1: Step Time =    1.000,"PART-1-1",            44,            5.,      -7.08333,            0.,NA,NA,"",   664.365E-03,   606.459E-03,   271.273E-03,   12.8309E-03
C:/temp/dataset/7/23_5.odb,Step-1,Increment      1: Step Time =    1.000,"PART-1-1",            45,            5.,      -15.4167,            0.,NA,NA,"",   316.188E-03,   259.843E-03,   180.156E-03,   13.4543E-03
C:/temp/dataset/7/23_5.odb,Step-1,Increment      1: Step Time =    1.000,"PART-1-1",            46,            5.,      -13.3333,            0.,NA,NA,"",   390.458E-03,   332.980E-03,   203.916E-03,   13.2864E-03
C:/temp/dataset/7/23_5.odb,Step-1,Increment      1: Step Time =    1.000,"PART-1-1",            47,            5.,      -21.6667,            0.,NA,NA,"",   142.734E-03,   96.3468E-03,   105.311E-03,   13.9764E-03
C:/temp/dataset/7/23_5.odb,Step-1,Increment      1: Step Time =    1.000,"PART-1-1",            48,            5.,      -19.5833,            0.,NA,NA,"",   192.611E-03,   141.397E-03,   130.790E-03,   13.8156E-03
C:/temp/dataset/7/23_5.odb,Step-1,Increment      1: Step Time =    1.000,"PART-1-1",            49,            5.,      -27.9167,            0.,NA,NA,"",   32.6566E-03,   17.8568E-03,   27.3420E-03,   14.7481E-03
C:/temp/dataset/7/23_5.odb,Step-1,Increment      1: Step Time =    1.000,"PART-1-1",            50,            5.,      -25.8333,            0.,NA,NA,"",   63.7493E-03,   35.1044E-03,   53.2133E-03,   13.9291E-03
C:/temp/dataset/7/23_5.odb,Step-1,Increment      1: Step Time =    1.000,"PART-1-1",            51,          12.5,          -30.,            0.,NA,NA,"",            0.,   3.07783E-39,  -10.7304E-39,   3.92716E-03
C:/temp/dataset/7/23_5.odb,Step-1,Increment      1: Step Time =    1.000,"PART-1-1",            52,           10.,          -30.,            0.,NA,NA,"",            0.,  -2.39585E-39,   3.00854E-39,   2.49836E-03
C:/temp/dataset/7/23_5.odb,Step-1,Increment      1: Step Time =    1.000,"PART-1-1",            53,           7.5,          -30.,            0.,NA,NA,"",            0.,  -736.674E-42,   22.1273E-39,   6.03927E-03
C:/temp/dataset/7/23_5.odb,Step-1,Increment      1: Step Time =    1.000,"PART-1-1",            54,           15.,          -25.,            0.,NA,NA,"",   60.7398E-03,   35.8755E-03,  -49.0129E-03,   10.9144E-03
C:/temp/dataset/7/23_5.odb,Step-1,Increment      1: Step Time =    1.000,"PART-1-1",            55,           15.,         -27.5,            0.,NA,NA,"",   28.1293E-03,   14.1756E-03,  -24.2963E-03,   11.4435E-03
C:/temp/dataset/7/23_5.odb,Step-1,Increment      1: Step Time =    1.000,"PART-1-1",            56,           15.,         -17.5,            0.,NA,NA,"",   220.766E-03,   184.125E-03,  -121.801E-03,   10.2078E-03
C:/temp/dataset/7/23_5.odb,Step-1,Increment      1: Step Time =    1.000,"PART-1-1",            57,           15.,          -20.,            0.,NA,NA,"",   155.700E-03,   121.142E-03,  -97.8119E-03,   10.4381E-03
C:/temp/dataset/7/23_5.odb,Step-1,Increment      1: Step Time =    1.000,"PART-1-1",            58,           15.,          -10.,            0.,NA,NA,"",   491.216E-03,   451.543E-03,  -193.397E-03,   9.61688E-03
C:/temp/dataset/7/23_5.odb,Step-1,Increment      1: Step Time =    1.000,"PART-1-1",            59,           15.,         -12.5,            0.,NA,NA,"",   388.478E-03,   349.552E-03,  -169.495E-03,   9.79856E-03
C:/temp/dataset/7/23_5.odb,Step-1,Increment      1: Step Time =    1.000,"PART-1-1",            60,           15.,          -2.5,            0.,NA,NA,"",   873.817E-03,   832.236E-03,  -266.346E-03,   9.13999E-03
C:/temp/dataset/7/23_5.odb,Step-1,Increment      1: Step Time =    1.000,"PART-1-1",            61,           15.,           -5.,            0.,NA,NA,"",   734.018E-03,   693.068E-03,  -241.741E-03,   9.28696E-03
C:/temp/dataset/7/23_5.odb,Step-1,Increment      1: Step Time =    1.000,"PART-1-1",            62,           15.,            5.,            0.,NA,NA,"",       1.36517,       1.32142,  -342.814E-03,   8.77953E-03
C:/temp/dataset/7/23_5.odb,Step-1,Increment      1: Step Time =    1.000,"PART-1-1",            63,           15.,           2.5,            0.,NA,NA,"",       1.18952,       1.14656,  -316.805E-03,   8.88583E-03
C:/temp/dataset/7/23_5.odb,Step-1,Increment      1: Step Time =    1.000,"PART-1-1",            64,           15.,          12.5,            0.,NA,NA,"",       1.96208,       1.91549,  -425.073E-03,   8.62241E-03
C:/temp/dataset/7/23_5.odb,Step-1,Increment      1: Step Time =    1.000,"PART-1-1",            65,           15.,           10.,            0.,NA,NA,"",       1.75149,       1.70594,  -396.832E-03,   8.64007E-03
C:/temp/dataset/7/23_5.odb,Step-1,Increment      1: Step Time =    1.000,"PART-1-1",            66,           15.,           20.,            0.,NA,NA,"",       2.66590,       2.61595,  -513.672E-03,   6.95486E-03
C:/temp/dataset/7/23_5.odb,Step-1,Increment      1: Step Time =    1.000,"PART-1-1",            67,           15.,          17.5,            0.,NA,NA,"",       2.41916,       2.37021,  -484.177E-03,   8.06710E-03
C:/temp/dataset/7/23_5.odb,Step-1,Increment      1: Step Time =    1.000,"PART-1-1",            68,           15.,          27.5,            0.,NA,NA,"",       3.45245,       3.40339,  -579.944E-03,   426.918E-06
C:/temp/dataset/7/23_5.odb,Step-1,Increment      1: Step Time =    1.000,"PART-1-1",            69,           15.,           25.,            0.,NA,NA,"",       3.18684,       3.13677,  -562.677E-03,   2.39752E-03
C:/temp/dataset/7/23_5.odb,Step-1,Increment      1: Step Time =    1.000,"PART-1-1",            70,        13.125,           30.,            0.,NA,NA,"",       3.70037,       3.67911,  -396.117E-03,   239.149E-06
C:/temp/dataset/7/23_5.odb,Step-1,Increment      1: Step Time =    1.000,"PART-1-1",            71,         9.375,           30.,            0.,NA,NA,"",       3.70428,       3.70428,  -2.65211E-03,   2.67969E-03
C:/temp/dataset/7/23_5.odb,Step-1,Increment      1: Step Time =    1.000,"PART-1-1",            72,         5.625,           30.,            0.,NA,NA,"",       3.75929,       3.73817,   397.958E-03,   3.82081E-03
C:/temp/dataset/7/23_5.odb,Step-1,Increment      1: Step Time =    1.000,"PART-1-1",            73,         1.875,           30.,            0.,NA,NA,"",       3.85888,       3.77220,   813.318E-03,   2.05974E-03
C:/temp/dataset/7/23_5.odb,Step-1,Increment      1: Step Time =    1.000,"PART-1-1",            74,        -1.875,           30.,            0.,NA,NA,"",       3.99478,       3.79907,       1.23504,   175.272E-06
C:/temp/dataset/7/23_5.odb,Step-1,Increment      1: Step Time =    1.000,"PART-1-1",            75,        -5.625,           30.,            0.,NA,NA,"",       4.16493,       3.82211,       1.65474,   207.442E-06
C:/temp/dataset/7/23_5.odb,Step-1,Increment      1: Step Time =    1.000,"PART-1-1",            76,        -9.375,           30.,            0.,NA,NA,"",       4.36799,       3.84499,       2.07252,   69.4637E-06
C:/temp/dataset/7/23_5.odb,Step-1,Increment      1: Step Time =    1.000,"PART-1-1",            77,       -13.125,           30.,            0.,NA,NA,"",       4.60029,       3.86821,       2.48992,   5.33949E-06
C:/temp/dataset/7/23_5.odb,Step-1,Increment      1: Step Time =    1.000,"PART-1-1",            78,          -15.,          27.5,            0.,NA,NA,"",       4.50976,       3.60157,       2.71415,   7.55396E-06
C:/temp/dataset/7/23_5.odb,Step-1,Increment      1: Step Time =    1.000,"PART-1-1",            79,      -7.07467,       28.0475,            0.,NA,NA,"",       4.04965,       3.61330,       1.82860,   72.5044E-06
C:/temp/dataset/7/23_5.odb,Step-1,Increment      1: Step Time =    1.000,"PART-1-1",            80,      -10.7971,       27.6072,            0.,NA,NA,"",       4.23231,       3.58737,       2.24570,   44.7595E-06
C:/temp/dataset/7/23_5.odb,Step-1,Increment      1: Step Time =    1.000,"PART-1-1",            81,      -3.50976,       28.2242,            0.,NA,NA,"",       3.88352,       3.61082,       1.42958,   241.949E-06
C:/temp/dataset/7/23_5.odb,Step-1,Increment      1: Step Time =    1.000,"PART-1-1",            82,       11.3028,       27.6605,            0.,NA,NA,"",       3.44678,       3.44139,  -192.645E-03,   2.33936E-03
C:/temp/dataset/7/23_5.odb,Step-1,Increment      1: Step Time =    1.000,"PART-1-1",            83,       7.46624,       27.7175,            0.,NA,NA,"",       3.48066,       3.47434,   209.610E-03,   2.48707E-03
C:/temp/dataset/7/23_5.odb,Step-1,Increment      1: Step Time =    1.000,"PART-1-1",            84,   523.838E-03,       28.1559,            0.,NA,NA,"",       3.70747,       3.57671,   975.972E-03,   1.66532E-03
C:/temp/dataset/7/23_5.odb,Step-1,Increment      1: Step Time =    1.000,"PART-1-1",            85,       13.1724,       27.5829,            0.,NA,NA,"",       3.44404,       3.42218,  -387.369E-03,   1.51357E-03
C:/temp/dataset/7/23_5.odb,Step-1,Increment      1: Step Time =    1.000,"PART-1-1",            86,       9.41586,       27.7284,            0.,NA,NA,"",       3.46114,       3.46113,   3.78480E-03,   2.60125E-03
C:/temp/dataset/7/23_5.odb,Step-1,Increment      1: Step Time =    1.000,"PART-1-1",            87,       5.17501,       27.3177,            0.,NA,NA,"",       3.47956,       3.44911,   459.316E-03,   2.37173E-03
C:/temp/dataset/7/23_5.odb,Step-1,Increment      1: Step Time =    1.000,"PART-1-1",            88,       1.85763,       28.7412,            0.,NA,NA,"",       3.72366,       3.63177,   822.107E-03,   2.05799E-03
C:/temp/dataset/7/23_5.odb,Step-1,Increment      1: Step Time =    1.000,"PART-1-1",            89,      -1.45910,       27.7280,            0.,NA,NA,"",       3.74102,       3.54251,       1.20245,   1.01585E-03
C:/temp/dataset/7/23_5.odb,Step-1,Increment      1: Step Time =    1.000,"PART-1-1",            90,      -5.31380,       28.2250,            0.,NA,NA,"",       3.97252,       3.62217,       1.63120,   44.8458E-06
C:/temp/dataset/7/23_5.odb,Step-1,Increment      1: Step Time =    1.000,"PART-1-1",            91,      -8.92632,       27.8484,            0.,NA,NA,"",       4.13813,       3.60261,       2.03599,   67.9680E-06
C:/temp/dataset/7/23_5.odb,Step-1,Increment      1: Step Time =    1.000,"PART-1-1",            92,       7.03655,   996.185E-03,            0.,NA,NA,"",       1.08439,       1.06247,   216.959E-03,   8.05737E-03
C:/temp/dataset/7/23_5.odb,Step-1,Increment      1: Step Time =    1.000,"PART-1-1",            93,       6.93081,       13.7923,            0.,NA,NA,"",       2.07784,       2.05913,   278.211E-03,   7.95720E-03
C:/temp/dataset/7/23_5.odb,Step-1,Increment      1: Step Time =    1.000,"PART-1-1",            94,       7.08682,       7.47611,            0.,NA,NA,"",       1.54754,       1.52839,   242.752E-03,   7.78514E-03
C:/temp/dataset/7/23_5.odb,Step-1,Increment      1: Step Time =    1.000,"PART-1-1",            95,       6.96700,      -1.15199,            0.,NA,NA,"",   949.449E-03,   925.954E-03,   209.912E-03,   8.27205E-03
C:/temp/dataset/7/23_5.odb,Step-1,Increment      1: Step Time =    1.000,"PART-1-1",            96,       6.47578,      -21.8661,            0.,NA,NA,"",   113.253E-03,   84.2774E-03,   75.6549E-03,   10.4055E-03
C:/temp/dataset/7/23_5.odb,Step-1,Increment      1: Step Time =    1.000,"PART-1-1",            97,       7.14087,      -13.1040,            0.,NA,NA,"",   353.474E-03,   329.761E-03,   127.285E-03,   8.35097E-03
C:/temp/dataset/7/23_5.odb,Step-1,Increment      1: Step Time =    1.000,"PART-1-1",            98,       6.53104,      -7.08024,            0.,NA,NA,"",   628.438E-03,   597.106E-03,   195.956E-03,   9.46275E-03
C:/temp/dataset/7/23_5.odb,Step-1,Increment      1: Step Time =    1.000,"PART-1-1",            99,       6.85322,      -3.24169,            0.,NA,NA,"",   827.618E-03,   801.965E-03,   204.463E-03,   8.59252E-03
C:/temp/dataset/7/23_5.odb,Step-1,Increment      1: Step Time =    1.000,"PART-1-1",           100,       6.74184,      -8.96518,            0.,NA,NA,"",   533.941E-03,   505.316E-03,   172.479E-03,   9.06878E-03
C:/temp/dataset/7/23_5.odb,Step-1,Increment      1: Step Time =    1.000,"PART-1-1",           101,       6.94703,      -23.6171,            0.,NA,NA,"",   74.3800E-03,   52.5705E-03,   52.6187E-03,   9.36369E-03
C:/temp/dataset/7/23_5.odb,Step-1,Increment      1: Step Time =    1.000,"PART-1-1",           102,       7.44695,      -27.8442,            0.,NA,NA,"",   16.0031E-03,   7.06728E-03,   14.3580E-03,   8.63118E-03
C:/temp/dataset/7/23_5.odb,Step-1,Increment      1: Step Time =    1.000,"PART-1-1",           103,       7.35225,      -17.6578,            0.,NA,NA,"",   200.203E-03,   179.144E-03,   89.3778E-03,   8.06744E-03
C:/temp/dataset/7/23_5.odb,Step-1,Increment      1: Step Time =    1.000,"PART-1-1",           104,       7.23832,      -15.2967,            0.,NA,NA,"",   274.329E-03,   251.767E-03,   108.950E-03,   8.22639E-03
C:/temp/dataset/7/23_5.odb,Step-1,Increment      1: Step Time =    1.000,"PART-1-1",           105,       7.10099,       17.6583,            0.,NA,NA,"",       2.43121,       2.41594,   272.060E-03,   7.81902E-03
C:/temp/dataset/7/23_5.odb,Step-1,Increment      1: Step Time =    1.000,"PART-1-1",           106,       6.86948,       15.7920,            0.,NA,NA,"",       2.26055,       2.24185,   290.206E-03,   8.46048E-03
C:/temp/dataset/7/23_5.odb,Step-1,Increment      1: Step Time =    1.000,"PART-1-1",           107,       7.06799,       9.62990,            0.,NA,NA,"",       1.71955,       1.70092,   252.426E-03,   7.77779E-03
C:/temp/dataset/7/23_5.odb,Step-1,Increment      1: Step Time =    1.000,"PART-1-1",           108,       7.09093,       5.31052,            0.,NA,NA,"",       1.38358,       1.36373,   233.484E-03,   7.82609E-03
C:/temp/dataset/7/23_5.odb,Step-1,Increment      1: Step Time =    1.000,"PART-1-1",           109,       6.65187,      -5.22056,            0.,NA,NA,"",   721.992E-03,   692.923E-03,   202.805E-03,   9.10484E-03
C:/temp/dataset/7/23_5.odb,Step-1,Increment      1: Step Time =    1.000,"PART-1-1",           110,       7.26954,      -25.7037,            0.,NA,NA,"",   40.2392E-03,   24.8003E-03,   31.6881E-03,   8.98694E-03
C:/temp/dataset/7/23_5.odb,Step-1,Increment      1: Step Time =    1.000,"PART-1-1",           111,       7.53271,      -20.3934,            0.,NA,NA,"",   128.361E-03,   109.880E-03,   66.3543E-03,   7.77034E-03
C:/temp/dataset/7/23_5.odb,Step-1,Increment      1: Step Time =    1.000,"PART-1-1",           112,       7.01178,       11.7341,            0.,NA,NA,"",       1.89653,       1.87800,   264.498E-03,   7.86596E-03
C:/temp/dataset/7/23_5.odb,Step-1,Increment      1: Step Time =    1.000,"PART-1-1",           113,       7.07643,       3.14767,            0.,NA,NA,"",       1.22895,       1.20821,   224.794E-03,   7.91187E-03
C:/temp/dataset/7/23_5.odb,Step-1,Increment      1: Step Time =    1.000,"PART-1-1",           114,       6.98190,      -10.9751,            0.,NA,NA,"",   440.990E-03,   415.398E-03,   148.043E-03,   8.62051E-03
C:/temp/dataset/7/23_5.odb,Step-1,Increment      1: Step Time =    1.000,"PART-1-1",           115,       13.1254,       22.8014,            0.,NA,NA,"",       2.93211,       2.91128,  -348.892E-03,   3.61522E-03
C:/temp/dataset/7/23_5.odb,Step-1,Increment      1: Step Time =    1.000,"PART-1-1",           116,       12.8923,      -4.74502,            0.,NA,NA,"",   715.114E-03,   703.211E-03,  -129.933E-03,   4.63419E-03
C:/temp/dataset/7/23_5.odb,Step-1,Increment      1: Step Time =    1.000,"PART-1-1",           117,       13.0513,      -12.4505,            0.,NA,NA,"",   358.974E-03,   346.287E-03,  -94.5914E-03,   5.30347E-03
C:/temp/dataset/7/23_5.odb,Step-1,Increment      1: Step Time =    1.000,"PART-1-1",           118,       12.2427,       17.8341,            0.,NA,NA,"",       2.41848,       2.40830,  -221.686E-03,   3.10831E-03
C:/temp/dataset/7/23_5.odb,Step-1,Increment      1: Step Time =    1.000,"PART-1-1",           119,       13.0441,       9.90429,            0.,NA,NA,"",       1.71512,       1.69894,  -235.037E-03,   4.56099E-03
C:/temp/dataset/7/23_5.odb,Step-1,Increment      1: Step Time =    1.000,"PART-1-1",           120,       13.0522,       2.62582,            0.,NA,NA,"",       1.16836,       1.15367,  -184.662E-03,   4.74864E-03
C:/temp/dataset/7/23_5.odb,Step-1,Increment      1: Step Time =    1.000,"PART-1-1",           121,       13.2006,      -19.7745,            0.,NA,NA,"",   133.496E-03,   120.068E-03,  -58.3514E-03,   6.04376E-03
C:/temp/dataset/7/23_5.odb,Step-1,Increment      1: Step Time =    1.000,"PART-1-1",           122,       9.90112,      -27.6522,            0.,NA,NA,"",   4.48974E-03,   2.93858E-03,   3.39449E-03,   2.06251E-03
C:/temp/dataset/7/23_5.odb,Step-1,Increment      1: Step Time =    1.000,"PART-1-1",           123,       13.0591,      -22.1191,            0.,NA,NA,"",   83.0174E-03,   71.3213E-03,  -42.4872E-03,   5.85147E-03
C:/temp/dataset/7/23_5.odb,Step-1,Increment      1: Step Time =    1.000,"PART-1-1",           124,       13.1139,      -14.9356,            0.,NA,NA,"",   270.031E-03,   256.930E-03,  -83.0890E-03,   5.56915E-03
C:/temp/dataset/7/23_5.odb,Step-1,Increment      1: Step Time =    1.000,"PART-1-1",           125,       13.1678,      -17.3995,            0.,NA,NA,"",   194.466E-03,   181.055E-03,  -70.9667E-03,   5.82517E-03
C:/temp/dataset/7/23_5.odb,Step-1,Increment      1: Step Time =    1.000,"PART-1-1",           126,       12.7891,      -7.32383,            0.,NA,NA,"",   581.012E-03,   570.387E-03,  -110.607E-03,   4.49955E-03
C:/temp/dataset/7/23_5.odb,Step-1,Increment      1: Step Time =    1.000,"PART-1-1",           127,       12.9162,      -9.94117,            0.,NA,NA,"",   460.878E-03,   449.301E-03,  -102.652E-03,   4.88534E-03
C:/temp/dataset/7/23_5.odb,Step-1,Increment      1: Step Time =    1.000,"PART-1-1",           128,       13.0283,   193.158E-03,            0.,NA,NA,"",       1.00754,   993.539E-03,  -167.385E-03,   4.76866E-03
C:/temp/dataset/7/23_5.odb,Step-1,Increment      1: Step Time =    1.000,"PART-1-1",           129,       12.9794,      -2.25409,            0.,NA,NA,"",   856.914E-03,   843.803E-03,  -149.329E-03,   4.74053E-03
C:/temp/dataset/7/23_5.odb,Step-1,Increment      1: Step Time =    1.000,"PART-1-1",           130,       13.0689,       7.48049,            0.,NA,NA,"",       1.52231,       1.50643,  -219.287E-03,   4.66212E-03
C:/temp/dataset/7/23_5.odb,Step-1,Increment      1: Step Time =    1.000,"PART-1-1",           131,       13.0764,       5.05734,            0.,NA,NA,"",       1.34029,       1.32486,  -202.789E-03,   4.73530E-03
C:/temp/dataset/7/23_5.odb,Step-1,Increment      1: Step Time =    1.000,"PART-1-1",           132,       12.6962,       14.9270,            0.,NA,NA,"",       2.14714,       2.13340,  -242.519E-03,   3.76089E-03
C:/temp/dataset/7/23_5.odb,Step-1,Increment      1: Step Time =    1.000,"PART-1-1",           133,       12.9459,       12.3607,            0.,NA,NA,"",       1.92098,       1.90526,  -245.253E-03,   4.30909E-03
C:/temp/dataset/7/23_5.odb,Step-1,Increment      1: Step Time =    1.000,"PART-1-1",           134,       12.9476,       20.4489,            0.,NA,NA,"",       2.68519,       2.66706,  -311.564E-03,   4.02358E-03
C:/temp/dataset/7/23_5.odb,Step-1,Increment      1: Step Time =    1.000,"PART-1-1",           135,       13.1802,       25.1793,            0.,NA,NA,"",       3.18632,       3.16448,  -372.453E-03,   2.73525E-03
C:/temp/dataset/7/23_5.odb,Step-1,Increment      1: Step Time =    1.000,"PART-1-1",           136,      -12.4062,       24.9250,            0.,NA,NA,"",       4.10396,       3.29879,       2.44142,   26.3625E-06
C:/temp/dataset/7/23_5.odb,Step-1,Increment      1: Step Time =    1.000,"PART-1-1",           137,       11.3078,       25.3904,            0.,NA,NA,"",       3.20193,       3.19686,  -180.092E-03,   3.21298E-03
C:/temp/dataset/7/23_5.odb,Step-1,Increment      1: Step Time =    1.000,"PART-1-1",           138,      -10.1009,       25.2443,            0.,NA,NA,"",       3.97327,       3.31994,       2.18285,   60.0404E-06
C:/temp/dataset/7/23_5.odb,Step-1,Increment      1: Step Time =    1.000,"PART-1-1",           139,      -4.83291,       26.5053,            0.,NA,NA,"",       3.77762,       3.42744,       1.58842,   163.259E-06
C:/temp/dataset/7/23_5.odb,Step-1,Increment      1: Step Time =    1.000,"PART-1-1",           140,       1.72347,       26.1851,            0.,NA,NA,"",       3.45804,       3.35147,   851.857E-03,   2.95891E-03
C:/temp/dataset/7/23_5.odb,Step-1,Increment      1: Step Time =    1.000,"PART-1-1",           141,       6.12189,       25.7754,            0.,NA,NA,"",       3.29374,       3.27376,   362.307E-03,   2.58420E-03
C:/temp/dataset/7/23_5.odb,Step-1,Increment      1: Step Time =    1.000,"PART-1-1",           142,       7.62725,       25.7499,            0.,NA,NA,"",       3.26570,       3.25950,   201.089E-03,   2.71275E-03
C:/temp/dataset/7/23_5.odb,Step-1,Increment      1: Step Time =    1.000,"PART-1-1",           143,       3.76931,       25.0880,            0.,NA,NA,"",       3.27755,       3.21731,   625.484E-03,   3.56740E-03
C:/temp/dataset/7/23_5.odb,Step-1,Increment      1: Step Time =    1.000,"PART-1-1",           144,  -231.428E-03,       26.1188,            0.,NA,NA,"",       3.52432,       3.35658,       1.07435,   2.06136E-03
C:/temp/dataset/7/23_5.odb,Step-1,Increment      1: Step Time =    1.000,"PART-1-1",           145,      -2.48530,       25.9891,            0.,NA,NA,"",       3.60938,       3.35568,       1.32931,   893.331E-06
C:/temp/dataset/7/23_5.odb,Step-1,Increment      1: Step Time =    1.000,"PART-1-1",           146,      -3.63425,       26.9302,            0.,NA,NA,"",       3.75905,       3.46738,       1.45179,   384.455E-06
C:/temp/dataset/7/23_5.odb,Step-1,Increment      1: Step Time =    1.000,"PART-1-1",           147,      -8.31738,       25.8431,            0.,NA,NA,"",       3.91364,       3.37544,       1.98065,   76.8915E-06
C:/temp/dataset/7/23_5.odb,Step-1,Increment      1: Step Time =    1.000,"PART-1-1",           148,       9.04714,   705.037E-03,            0.,NA,NA,"",       1.03741,       1.03383,   86.1351E-03,   3.77992E-03
C:/temp/dataset/7/23_5.odb,Step-1,Increment      1: Step Time =    1.000,"PART-1-1",           149,       7.85197,      -7.06885,            0.,NA,NA,"",   605.688E-03,   591.329E-03,   131.103E-03,   6.52523E-03
C:/temp/dataset/7/23_5.odb,Step-1,Increment      1: Step Time =    1.000,"PART-1-1",           150,       8.74205,      -22.9842,            0.,NA,NA,"",   63.7023E-03,   56.3894E-03,   29.6346E-03,   4.98994E-03
C:/temp/dataset/7/23_5.odb,Step-1,Increment      1: Step Time =    1.000,"PART-1-1",           151,       9.28078,      -15.1075,            0.,NA,NA,"",   255.298E-03,   251.567E-03,   43.4894E-03,   3.45153E-03
C:/temp/dataset/7/23_5.odb,Step-1,Increment      1: Step Time =    1.000,"PART-1-1",           152,       8.97855,      -1.55139,            0.,NA,NA,"",   896.518E-03,   892.285E-03,   87.0227E-03,   3.95355E-03
C:/temp/dataset/7/23_5.odb,Step-1,Increment      1: Step Time =    1.000,"PART-1-1",           153,       9.09422,       9.69450,            0.,NA,NA,"",       1.69657,       1.69428,   88.1938E-03,   3.63864E-03
C:/temp/dataset/7/23_5.odb,Step-1,Increment      1: Step Time =    1.000,"PART-1-1",           154,       8.44946,       15.5970,            0.,NA,NA,"",       2.21750,       2.21282,   144.047E-03,   4.53710E-03
C:/temp/dataset/7/23_5.odb,Step-1,Increment      1: Step Time =    1.000,"PART-1-1",           155,       9.11701,       7.46178,            0.,NA,NA,"",       1.51843,       1.51598,   86.2564E-03,   3.58980E-03
C:/temp/dataset/7/23_5.odb,Step-1,Increment      1: Step Time =    1.000,"PART-1-1",           156,       8.83101,       13.9442,            0.,NA,NA,"",       2.06306,       2.06014,   109.775E-03,   4.10213E-03
C:/temp/dataset/7/23_5.odb,Step-1,Increment      1: Step Time =    1.000,"PART-1-1",           157,       9.61385,      -19.9311,            0.,NA,NA,"",   117.105E-03,   114.835E-03,   22.9445E-03,   2.73459E-03
C:/temp/dataset/7/23_5.odb,Step-1,Increment      1: Step Time =    1.000,"PART-1-1",           158,       9.10031,       2.95854,            0.,NA,NA,"",       1.18800,       1.18495,   85.0303E-03,   3.64684E-03
C:/temp/dataset/7/23_5.odb,Step-1,Increment      1: Step Time =    1.000,"PART-1-1",           159,       9.17986,      -12.8049,            0.,NA,NA,"",   338.308E-03,   334.151E-03,   52.8732E-03,   3.65298E-03
C:/temp/dataset/7/23_5.odb,Step-1,Increment      1: Step Time =    1.000,"PART-1-1",           160,       8.54844,      -8.43147,            0.,NA,NA,"",   530.666E-03,   522.563E-03,   92.3794E-03,   4.99933E-03
C:/temp/dataset/7/23_5.odb,Step-1,Increment      1: Step Time =    1.000,"PART-1-1",           161,       8.46228,      -5.79934,            0.,NA,NA,"",   662.319E-03,   653.891E-03,   105.324E-03,   5.14211E-03
C:/temp/dataset/7/23_5.odb,Step-1,Increment      1: Step Time =    1.000,"PART-1-1",           162,       8.97830,      -10.5487,            0.,NA,NA,"",   431.245E-03,   426.033E-03,   66.8481E-03,   4.07724E-03
C:/temp/dataset/7/23_5.odb,Step-1,Increment      1: Step Time =    1.000,"PART-1-1",           163,       8.84007,      -3.76868,            0.,NA,NA,"",   768.373E-03,   763.008E-03,   90.6454E-03,   4.28180E-03
C:/temp/dataset/7/23_5.odb,Step-1,Increment      1: Step Time =    1.000,"PART-1-1",           164,       9.12644,       5.21383,            0.,NA,NA,"",       1.34857,       1.34591,   84.7447E-03,   3.57719E-03
C:/temp/dataset/7/23_5.odb,Step-1,Increment      1: Step Time =    1.000,"PART-1-1",           165,       9.36869,      -17.5094,            0.,NA,NA,"",   180.753E-03,   177.378E-03,   34.7660E-03,   3.28381E-03
C:/temp/dataset/7/23_5.odb,Step-1,Increment      1: Step Time =    1.000,"PART-1-1",           166,       9.01212,       11.8707,            0.,NA,NA,"",       1.87961,       1.87722,   94.6522E-03,   3.79765E-03
C:/temp/dataset/7/23_5.odb,Step-1,Increment      1: Step Time =    1.000,"PART-1-1",           167,       9.60003,       16.9835,            0.,NA,NA,"",       2.33675,       2.33649,   34.4661E-03,   1.83034E-03
C:/temp/dataset/7/23_5.odb,Step-1,Increment      1: Step Time =    1.000,"PART-1-1",           168,       7.13047,       19.6676,            0.,NA,NA,"",       2.62591,       2.61193,   270.642E-03,   4.59836E-03
C:/temp/dataset/7/23_5.odb,Step-1,Increment      1: Step Time =    1.000,"PART-1-1",           169,       9.55406,      -25.2995,            0.,NA,NA,"",   25.4419E-03,   22.9102E-03,   11.0639E-03,   2.99672E-03
C:/temp/dataset/7/23_5.odb,Step-1,Increment      1: Step Time =    1.000,"PART-1-1",           170,       12.3800,      -27.4389,            0.,NA,NA,"",   11.2311E-03,   5.99964E-03,  -9.49429E-03,   4.80964E-03
C:/temp/dataset/7/23_5.odb,Step-1,Increment      1: Step Time =    1.000,"PART-1-1",           171,      -11.9351,       22.4166,            0.,NA,NA,"",       3.85772,       3.01667,       2.40451,   35.0542E-06
C:/temp/dataset/7/23_5.odb,Step-1,Increment      1: Step Time =    1.000,"PART-1-1",           172,       10.9842,      -1.93535,            0.,NA,NA,"",   864.545E-03,   863.931E-03,  -32.5886E-03,   462.988E-06
C:/temp/dataset/7/23_5.odb,Step-1,Increment      1: Step Time =    1.000,"PART-1-1",           173,       11.2234,      -14.9909,            0.,NA,NA,"",   254.136E-03,   253.330E-03,  -20.2141E-03,   1.17791E-03
C:/temp/dataset/7/23_5.odb,Step-1,Increment      1: Step Time =    1.000,"PART-1-1",           174,       11.0574,       21.1283,            0.,NA,NA,"",       2.74712,       2.74413,  -128.095E-03,   3.18083E-03
C:/temp/dataset/7/23_5.odb,Step-1,Increment      1: Step Time =    1.000,"PART-1-1",           175,       10.7466,       19.4847,            0.,NA,NA,"",       2.57837,       2.57689,  -87.3256E-03,   2.30828E-03
C:/temp/dataset/7/23_5.odb,Step-1,Increment      1: Step Time =    1.000,"PART-1-1",           176,       11.0568,   433.028E-03,            0.,NA,NA,"",       1.01148,       1.01058,  -42.6113E-03,   572.710E-06
C:/temp/dataset/7/23_5.odb,Step-1,Increment      1: Step Time =    1.000,"PART-1-1",           177,       10.9662,       12.1205,            0.,NA,NA,"",       1.89134,       1.88993,  -73.0920E-03,   246.180E-06
C:/temp/dataset/7/23_5.odb,Step-1,Increment      1: Step Time =    1.000,"PART-1-1",           178,       11.6216,      -21.4567,            0.,NA,NA,"",   83.6682E-03,   81.5762E-03,  -18.5924E-03,   2.26644E-03
C:/temp/dataset/7/23_5.odb,Step-1,Increment      1: Step Time =    1.000,"PART-1-1",           179,       11.2975,      -17.3958,            0.,NA,NA,"",   179.904E-03,   178.936E-03,  -18.6439E-03,   1.39806E-03
C:/temp/dataset/7/23_5.odb,Step-1,Increment      1: Step Time =    1.000,"PART-1-1",           180,       10.6273,       14.4803,            0.,NA,NA,"",       2.10017,       2.09952,  -52.3101E-03,   452.828E-06
C:/temp/dataset/7/23_5.odb,Step-1,Increment      1: Step Time =    1.000,"PART-1-1",           181,       11.1012,       2.78293,            0.,NA,NA,"",       1.16785,       1.16669,  -51.9486E-03,   631.728E-06
C:/temp/dataset/7/23_5.odb,Step-1,Increment      1: Step Time =    1.000,"PART-1-1",           182,       11.1153,       7.46695,            0.,NA,NA,"",       1.51052,       1.50899,  -68.0042E-03,   595.305E-06
C:/temp/dataset/7/23_5.odb,Step-1,Increment      1: Step Time =    1.000,"PART-1-1",           183,       11.1247,      -12.5851,            0.,NA,NA,"",   340.510E-03,   339.898E-03,  -20.4088E-03,   916.441E-06
C:/temp/dataset/7/23_5.odb,Step-1,Increment      1: Step Time =    1.000,"PART-1-1",           184,       10.4094,      -7.19663,            0.,NA,NA,"",   577.614E-03,   577.589E-03,   5.44604E-03,   880.008E-06
C:/temp/dataset/7/23_5.odb,Step-1,Increment      1: Step Time =    1.000,"PART-1-1",           185,       10.4303,      -22.2648,            0.,NA,NA,"",   66.2959E-03,   66.1937E-03,   3.67993E-03,   904.306E-06
C:/temp/dataset/7/23_5.odb,Step-1,Increment      1: Step Time =    1.000,"PART-1-1",           186,       10.9130,      -10.1038,            0.,NA,NA,"",   442.048E-03,   441.785E-03,  -15.2370E-03,   454.001E-06
C:/temp/dataset/7/23_5.odb,Step-1,Increment      1: Step Time =    1.000,"PART-1-1",           187,       10.8491,      -4.38491,            0.,NA,NA,"",   723.984E-03,   723.700E-03,  -20.2733E-03,   293.939E-06
C:/temp/dataset/7/23_5.odb,Step-1,Increment      1: Step Time =    1.000,"PART-1-1",           188,       11.1275,       5.13070,            0.,NA,NA,"",       1.33449,       1.33309,  -61.0216E-03,   654.092E-06
C:/temp/dataset/7/23_5.odb,Step-1,Increment      1: Step Time =    1.000,"PART-1-1",           189,       11.0819,       9.79848,            0.,NA,NA,"",       1.69631,       1.69470,  -73.8620E-03,   489.744E-06
C:/temp/dataset/7/23_5.odb,Step-1,Increment      1: Step Time =    1.000,"PART-1-1",           190,       12.1026,      -24.5603,            0.,NA,NA,"",   36.4219E-03,   31.9383E-03,  -17.5071E-03,   3.67021E-03
C:/temp/dataset/7/23_5.odb,Step-1,Increment      1: Step Time =    1.000,"PART-1-1",           191,      -7.61069,       24.2264,            0.,NA,NA,"",       3.72000,       3.19101,       1.91202,   95.4501E-06
C:/temp/dataset/7/23_5.odb,Step-1,Increment      1: Step Time =    1.000,"PART-1-1",           192,      -5.77678,       24.2650,            0.,NA,NA,"",       3.61289,       3.18382,       1.70771,   165.218E-06
C:/temp/dataset/7/23_5.odb,Step-1,Increment      1: Step Time =    1.000,"PART-1-1",           193,       1.00958,       23.8763,            0.,NA,NA,"",       3.24500,       3.10318,   948.858E-03,   3.88374E-03
C:/temp/dataset/7/23_5.odb,Step-1,Increment      1: Step Time =    1.000,"PART-1-1",           194,      -3.86757,       24.8145,            0.,NA,NA,"",       3.56079,       3.23325,       1.49173,   492.941E-06
C:/temp/dataset/7/23_5.odb,Step-1,Increment      1: Step Time =    1.000,"PART-1-1",           195,  -996.969E-03,       24.6602,            0.,NA,NA,"",       3.40752,       3.19987,       1.17132,   2.23564E-03
C:/temp/dataset/7/23_5.odb,Step-1,Increment      1: Step Time =    1.000,"PART-1-1",           196,       7.19995,       21.7613,            0.,NA,NA,"",       2.84208,       2.83027,   258.851E-03,   4.73943E-03
C:/temp/dataset/7/23_5.odb,Step-1,Increment      1: Step Time =    1.000,"PART-1-1",           197,       2.92747,       22.7842,            0.,NA,NA,"",       3.06227,       2.97288,   734.499E-03,   6.55376E-03
C:/temp/dataset/7/23_5.odb,Step-1,Increment      1: Step Time =    1.000,"PART-1-1",           198,       5.53232,       24.2100,            0.,NA,NA,"",       3.13821,       3.10833,   432.045E-03,   3.51104E-03
C:/temp/dataset/7/23_5.odb,Step-1,Increment      1: Step Time =    1.000,"PART-1-1",           199,       9.18626,       19.3402,            0.,NA,NA,"",       2.56953,       2.56866,   66.6776E-03,   2.48272E-03
C:/temp/dataset/7/23_5.odb,Step-1,Increment      1: Step Time =    1.000,"PART-1-1",           200,       11.2321,       23.1770,            0.,NA,NA,"",       2.96376,       2.95951,  -158.696E-03,   3.60588E-03
C:/temp/dataset/7/23_5.odb,Step-1,Increment      1: Step Time =    1.000,"PART-1-1",           201,       5.11021,       22.1378,            0.,NA,NA,"",       2.92660,       2.88635,   483.708E-03,   6.37187E-03
C:/temp/dataset/7/23_5.odb,Step-1,Increment      1: Step Time =    1.000,"PART-1-1",           202,   167.280E-03,       22.2372,            0.,NA,NA,"",       3.11279,       2.92667,       1.06023,   5.77654E-03
C:/temp/dataset/7/23_5.odb,Step-1,Increment      1: Step Time =    1.000,"PART-1-1",           203,      -2.32264,       22.6339,            0.,NA,NA,"",       3.26705,       2.98165,       1.33543,   1.88773E-03
C:/temp/dataset/7/23_5.odb,Step-1,Increment      1: Step Time =    1.000,"PART-1-1",           204,       9.17324,       21.4477,            0.,NA,NA,"",       2.78652,       2.78590,   58.7557E-03,   3.39447E-03
C:/temp/dataset/7/23_5.odb,Step-1,Increment      1: Step Time =    1.000,"PART-1-1",           205,       9.43619,       25.5889,            0.,NA,NA,"",       3.22955,       3.22953,   12.2730E-03,   3.20274E-03
C:/temp/dataset/7/23_5.odb,Step-1,Increment      1: Step Time =    1.000,"PART-1-1",           206,      -5.39738,       22.2321,            0.,NA,NA,"",       3.39865,       2.95550,       1.67804,   462.223E-06
C:/temp/dataset/7/23_5.odb,Step-1,Increment      1: Step Time =    1.000,"PART-1-1",           207,      -8.66915,       22.6604,            0.,NA,NA,"",       3.64700,       3.02346,       2.03944,   105.172E-06
C:/temp/dataset/7/23_5.odb,Step-1,Increment      1: Step Time =    1.000,"PART-1-1",           208,      -12.8188,       27.4435,            0.,NA,NA,"",       4.35179,       3.58171,       2.47172,   21.2827E-06
C:/temp/dataset/7/23_5.odb,Step-1,Increment      1: Step Time =    1.000,"PART-1-1",           209,       7.43992,       23.7550,            0.,NA,NA,"",       3.05262,       3.04408,   228.227E-03,   3.77775E-03
C:/temp/dataset/7/23_5.odb,Step-1,Increment      1: Step Time =    1.000,"PART-1-1",           210,      -6.48406,       26.1481,            0.,NA,NA,"",       3.83345,       3.39793,       1.77467,   72.9324E-06
C:/temp/dataset/7/23_5.odb,Step-1,Increment      1: Step Time =    1.000,"PART-1-1",           211,       3.18484,       28.0088,            0.,NA,NA,"",       3.60473,       3.54059,   676.982E-03,   2.47383E-03
C:/temp/dataset/7/23_5.odb,Step-1,Increment      1: Step Time =    1.000,"PART-1-1",           212,       11.4304,      -19.6429,            0.,NA,NA,"",   121.959E-03,   120.597E-03,  -18.1767E-03,   1.75454E-03
C:/temp/dataset/7/23_5.odb,Step-1,Increment      1: Step Time =    1.000,"PART-1-1",           213,       9.33060,       23.4727,            0.,NA,NA,"",       3.00146,       3.00127,   33.3978E-03,   3.67485E-03
C:/temp/dataset/7/23_5.odb,Step-1,Increment      1: Step Time =    1.000,"PART-1-1",           214,      -12.1707,       23.6708,            0.,NA,NA,"",       3.98020,       3.15772,       2.42296,   22.5976E-06
C:/temp/dataset/7/23_5.odb,Step-1,Increment      1: Step Time =    1.000,"PART-1-1",           215,      -13.7031,       24.9625,            0.,NA,NA,"",       4.20095,       3.31104,       2.58554,   19.0944E-06
C:/temp/dataset/7/23_5.odb,Step-1,Increment      1: Step Time =    1.000,"PART-1-1",           216,          -15.,         23.75,            0.,NA,NA,"",       4.19907,       3.18414,       2.73741,   11.5382E-06
C:/temp/dataset/7/23_5.odb,Step-1,Increment      1: Step Time =    1.000,"PART-1-1",           217,      -13.4675,       22.4583,            0.,NA,NA,"",       3.97692,       3.03085,       2.57485,   18.3379E-06
C:/temp/dataset/7/23_5.odb,Step-1,Increment      1: Step Time =    1.000,"PART-1-1",           218,      -9.86170,       27.7278,            0.,NA,NA,"",       4.18416,       3.59499,       2.14085,   55.4134E-06
C:/temp/dataset/7/23_5.odb,Step-1,Increment      1: Step Time =    1.000,"PART-1-1",           219,      -10.4490,       26.4258,            0.,NA,NA,"",       4.10253,       3.45365,       2.21429,   43.9679E-06
C:/temp/dataset/7/23_5.odb,Step-1,Increment      1: Step Time =    1.000,"PART-1-1",           220,      -9.20914,       25.5437,            0.,NA,NA,"",       3.94217,       3.34769,       2.08175,   63.5609E-06
C:/temp/dataset/7/23_5.odb,Step-1,Increment      1: Step Time =    1.000,"PART-1-1",           221,      -8.62185,       26.8458,            0.,NA,NA,"",       4.02575,       3.48902,       2.00833,   63.4608E-06
C:/temp/dataset/7/23_5.odb,Step-1,Increment      1: Step Time =    1.000,"PART-1-1",           222,      -9.15066,       28.9242,            0.,NA,NA,"",       4.25287,       3.72383,       2.05426,   52.5695E-06
C:/temp/dataset/7/23_5.odb,Step-1,Increment      1: Step Time =    1.000,"PART-1-1",           223,      -10.3125,           30.,            0.,NA,NA,"",       4.42349,       3.85078,       2.17688,   47.5643E-06
C:/temp/dataset/7/23_5.odb,Step-1,Increment      1: Step Time =    1.000,"PART-1-1",           224,      -11.0235,       28.8036,            0.,NA,NA,"",       4.35620,       3.72199,       2.26347,   27.3415E-06
C:/temp/dataset/7/23_5.odb,Step-1,Increment      1: Step Time =    1.000,"PART-1-1",           225,      -11.2536,       25.0847,            0.,NA,NA,"",       4.03706,       3.30937,       2.31213,   40.3301E-06
C:/temp/dataset/7/23_5.odb,Step-1,Increment      1: Step Time =    1.000,"PART-1-1",           226,      -10.3021,       22.5385,            0.,NA,NA,"",       3.74941,       3.02008,       2.22198,   56.1663E-06
C:/temp/dataset/7/23_5.odb,Step-1,Increment      1: Step Time =    1.000,"PART-1-1",           227,      -9.38503,       23.9523,            0.,NA,NA,"",       3.81004,       3.17166,       2.11115,   60.1684E-06
C:/temp/dataset/7/23_5.odb,Step-1,Increment      1: Step Time =    1.000,"PART-1-1",           228,      -12.9719,       28.7217,            0.,NA,NA,"",       4.47547,       3.72497,       2.48082,   11.5228E-06
C:/temp/dataset/7/23_5.odb,Step-1,Increment      1: Step Time =    1.000,"PART-1-1",           229,      -14.0625,           30.,            0.,NA,NA,"",       4.66244,       3.87403,       2.59427,   2.47585E-06
C:/temp/dataset/7/23_5.odb,Step-1,Increment      1: Step Time =    1.000,"PART-1-1",           230,          -15.,         28.75,            0.,NA,NA,"",       4.61709,       3.74071,       2.70639,   2.64450E-06
C:/temp/dataset/7/23_5.odb,Step-1,Increment      1: Step Time =    1.000,"PART-1-1",           231,      -13.9094,       27.4717,            0.,NA,NA,"",       4.42980,       3.59164,       2.59293,   13.1087E-06
C:/temp/dataset/7/23_5.odb,Step-1,Increment      1: Step Time =    1.000,"PART-1-1",           232,      -7.40072,       25.9956,            0.,NA,NA,"",       3.87237,       3.38668,       1.87768,   72.2184E-06
C:/temp/dataset/7/23_5.odb,Step-1,Increment      1: Step Time =    1.000,"PART-1-1",           233,      -7.96404,       25.0347,            0.,NA,NA,"",       3.81677,       3.28321,       1.94633,   72.1137E-06
C:/temp/dataset/7/23_5.odb,Step-1,Increment      1: Step Time =    1.000,"PART-1-1",           234,      -6.69374,       24.2457,            0.,NA,NA,"",       3.66540,       3.18743,       1.80982,   96.3804E-06
C:/temp/dataset/7/23_5.odb,Step-1,Increment      1: Step Time =    1.000,"PART-1-1",           235,      -6.13042,       25.2066,            0.,NA,NA,"",       3.72308,       3.29084,       1.74117,   105.128E-06
C:/temp/dataset/7/23_5.odb,Step-1,Increment      1: Step Time =    1.000,"PART-1-1",           236,      -5.46940,       29.1125,            0.,NA,NA,"",       4.06863,       3.72215,       1.64298,   119.935E-06
C:/temp/dataset/7/23_5.odb,Step-1,Increment      1: Step Time =    1.000,"PART-1-1",           237,      -4.41178,       28.2246,            0.,NA,NA,"",       3.92703,       3.61651,       1.53049,   126.016E-06
C:/temp/dataset/7/23_5.odb,Step-1,Increment      1: Step Time =    1.000,"PART-1-1",           238,      -3.62988,       29.1121,            0.,NA,NA,"",       3.97942,       3.71073,       1.43744,   130.401E-06
C:/temp/dataset/7/23_5.odb,Step-1,Increment      1: Step Time =    1.000,"PART-1-1",           239,       -4.6875,           30.,            0.,NA,NA,"",       4.11921,       3.81643,       1.55007,   191.290E-06
C:/temp/dataset/7/23_5.odb,Step-1,Increment      1: Step Time =    1.000,"PART-1-1",           240,  -467.629E-03,       27.9420,            0.,NA,NA,"",       3.72270,       3.55977,       1.08928,   1.32593E-03
C:/temp/dataset/7/23_5.odb,Step-1,Increment      1: Step Time =    1.000,"PART-1-1",           241,  -845.263E-03,       26.9234,            0.,NA,NA,"",       3.63233,       3.44932,       1.13840,   1.49791E-03
C:/temp/dataset/7/23_5.odb,Step-1,Increment      1: Step Time =    1.000,"PART-1-1",           242,   746.021E-03,       26.1520,            0.,NA,NA,"",       3.48975,       3.35419,   963.177E-03,   2.47793E-03
C:/temp/dataset/7/23_5.odb,Step-1,Increment      1: Step Time =    1.000,"PART-1-1",           243,       1.12365,       27.1705,            0.,NA,NA,"",       3.58225,       3.46368,   914.015E-03,   2.22951E-03
C:/temp/dataset/7/23_5.odb,Step-1,Increment      1: Step Time =    1.000,"PART-1-1",           244,       14.0901,       25.0896,            0.,NA,NA,"",       3.18498,       3.15057,  -466.928E-03,   2.28910E-03
C:/temp/dataset/7/23_5.odb,Step-1,Increment      1: Step Time =    1.000,"PART-1-1",           245,       13.1528,       23.9903,            0.,NA,NA,"",       3.05879,       3.03742,  -360.917E-03,   3.14848E-03
C:/temp/dataset/7/23_5.odb,Step-1,Increment      1: Step Time =    1.000,"PART-1-1",           246,       14.0627,       22.6507,            0.,NA,NA,"",       2.92568,       2.89178,  -444.071E-03,   3.96480E-03
C:/temp/dataset/7/23_5.odb,Step-1,Increment      1: Step Time =    1.000,"PART-1-1",           247,           15.,         23.75,            0.,NA,NA,"",       3.05443,       3.00411,  -552.168E-03,   3.64077E-03
C:/temp/dataset/7/23_5.odb,Step-1,Increment      1: Step Time =    1.000,"PART-1-1",           248,       11.2764,       28.8302,            0.,NA,NA,"",       3.57209,       3.56670,  -196.153E-03,   1.60709E-03
C:/temp/dataset/7/23_5.odb,Step-1,Increment      1: Step Time =    1.000,"PART-1-1",           249,       10.3125,           30.,            0.,NA,NA,"",       3.69850,       3.69712,  -101.105E-03,   1.99109E-03
C:/temp/dataset/7/23_5.odb,Step-1,Increment      1: Step Time =    1.000,"PART-1-1",           250,       9.39543,       28.8642,            0.,NA,NA,"",       3.58335,       3.58335,   395.473E-06,   2.40666E-03
C:/temp/dataset/7/23_5.odb,Step-1,Increment      1: Step Time =    1.000,"PART-1-1",           251,       10.3594,       27.6945,            0.,NA,NA,"",       3.45238,       3.45108,  -94.5670E-03,   2.44032E-03
C:/temp/dataset/7/23_5.odb,Step-1,Increment      1: Step Time =    1.000,"PART-1-1",           252,        8.4375,           30.,            0.,NA,NA,"",       3.71335,       3.71211,   96.2681E-03,   3.17697E-03
C:/temp/dataset/7/23_5.odb,Step-1,Increment      1: Step Time =    1.000,"PART-1-1",           253,       7.48312,       28.8587,            0.,NA,NA,"",       3.60345,       3.59775,   202.617E-03,   2.97296E-03
C:/temp/dataset/7/23_5.odb,Step-1,Increment      1: Step Time =    1.000,"PART-1-1",           254,       8.44105,       27.7230,            0.,NA,NA,"",       3.46919,       3.46756,   106.226E-03,   2.47492E-03
C:/temp/dataset/7/23_5.odb,Step-1,Increment      1: Step Time =    1.000,"PART-1-1",           255,       13.0365,       21.6252,            0.,NA,NA,"",       2.80769,       2.78819,  -330.277E-03,   3.79328E-03
C:/temp/dataset/7/23_5.odb,Step-1,Increment      1: Step Time =    1.000,"PART-1-1",           256,       13.9738,       20.2245,            0.,NA,NA,"",       2.67309,       2.64110,  -412.276E-03,   5.29756E-03
C:/temp/dataset/7/23_5.odb,Step-1,Increment      1: Step Time =    1.000,"PART-1-1",           257,           15.,         21.25,            0.,NA,NA,"",       2.79340,       2.74315,  -527.496E-03,   5.91857E-03
C:/temp/dataset/7/23_5.odb,Step-1,Increment      1: Step Time =    1.000,"PART-1-1",           258,       6.90015,       14.7921,            0.,NA,NA,"",       2.16838,       2.14967,   284.171E-03,   8.11613E-03
C:/temp/dataset/7/23_5.odb,Step-1,Increment      1: Step Time =    1.000,"PART-1-1",           259,       5.93474,       15.8126,            0.,NA,NA,"",       2.28279,       2.25161,   375.958E-03,   10.0255E-03
C:/temp/dataset/7/23_5.odb,Step-1,Increment      1: Step Time =    1.000,"PART-1-1",           260,            5.,       14.7917,            0.,NA,NA,"",       2.21314,       2.16576,   455.512E-03,   11.6736E-03
C:/temp/dataset/7/23_5.odb,Step-1,Increment      1: Step Time =    1.000,"PART-1-1",           261,       5.96541,       13.7711,            0.,NA,NA,"",       2.09661,       2.06484,   363.572E-03,   9.88325E-03
C:/temp/dataset/7/23_5.odb,Step-1,Increment      1: Step Time =    1.000,"PART-1-1",           262,       7.07741,       8.55300,            0.,NA,NA,"",       1.63247,       1.61358,   247.667E-03,   7.78153E-03
C:/temp/dataset/7/23_5.odb,Step-1,Increment      1: Step Time =    1.000,"PART-1-1",           263,       6.03400,       9.60662,            0.,NA,NA,"",       1.73929,       1.70651,   336.044E-03,   9.87929E-03
C:/temp/dataset/7/23_5.odb,Step-1,Increment      1: Step Time =    1.000,"PART-1-1",           264,            5.,       8.54167,            0.,NA,NA,"",       1.67965,       1.62840,   411.744E-03,   12.0305E-03
C:/temp/dataset/7/23_5.odb,Step-1,Increment      1: Step Time =    1.000,"PART-1-1",           265,       6.04341,       7.48805,            0.,NA,NA,"",       1.57021,       1.53658,   323.205E-03,   9.93083E-03
C:/temp/dataset/7/23_5.odb,Step-1,Increment      1: Step Time =    1.000,"PART-1-1",           266,            5.,         4.375,            0.,NA,NA,"",       1.36363,       1.31007,   378.412E-03,   12.2182E-03
C:/temp/dataset/7/23_5.odb,Step-1,Increment      1: Step Time =    1.000,"PART-1-1",           267,       6.03822,       3.24050,            0.,NA,NA,"",       1.25699,       1.22140,   297.003E-03,   10.0882E-03
C:/temp/dataset/7/23_5.odb,Step-1,Increment      1: Step Time =    1.000,"PART-1-1",           268,       7.08368,       4.22909,            0.,NA,NA,"",       1.30516,       1.28487,   229.247E-03,   7.86894E-03
C:/temp/dataset/7/23_5.odb,Step-1,Increment      1: Step Time =    1.000,"PART-1-1",           269,       6.04546,       5.36359,            0.,NA,NA,"",       1.40921,       1.37465,   310.155E-03,   9.99848E-03
C:/temp/dataset/7/23_5.odb,Step-1,Increment      1: Step Time =    1.000,"PART-1-1",           270,            5.,       2.29167,            0.,NA,NA,"",       1.21783,       1.16322,   360.582E-03,   12.3143E-03
C:/temp/dataset/7/23_5.odb,Step-1,Increment      1: Step Time =    1.000,"PART-1-1",           271,       6.01828,       1.12309,            0.,NA,NA,"",       1.11396,       1.07718,   283.914E-03,   10.2103E-03
C:/temp/dataset/7/23_5.odb,Step-1,Increment      1: Step Time =    1.000,"PART-1-1",           272,       7.05649,       2.07193,            0.,NA,NA,"",       1.15557,       1.13424,   221.006E-03,   7.98457E-03
C:/temp/dataset/7/23_5.odb,Step-1,Increment      1: Step Time =    1.000,"PART-1-1",           273,       7.00178,  -77.9012E-03,            0.,NA,NA,"",       1.01581,   993.102E-03,   213.593E-03,   8.16467E-03
C:/temp/dataset/7/23_5.odb,Step-1,Increment      1: Step Time =    1.000,"PART-1-1",           274,            5.,   208.333E-03,            0.,NA,NA,"",       1.08025,       1.02468,   342.003E-03,   12.4172E-03
C:/temp/dataset/7/23_5.odb,Step-1,Increment      1: Step Time =    1.000,"PART-1-1",           275,       5.98350,  -992.661E-03,            0.,NA,NA,"",   979.933E-03,   941.757E-03,   270.858E-03,   10.3712E-03
C:/temp/dataset/7/23_5.odb,Step-1,Increment      1: Step Time =    1.000,"PART-1-1",           276,       6.59145,      -6.15040,            0.,NA,NA,"",   674.372E-03,   644.167E-03,   199.566E-03,   9.28450E-03
C:/temp/dataset/7/23_5.odb,Step-1,Increment      1: Step Time =    1.000,"PART-1-1",           277,       5.82593,      -5.11028,            0.,NA,NA,"",   745.945E-03,   703.727E-03,   247.389E-03,   10.9008E-03
C:/temp/dataset/7/23_5.odb,Step-1,Increment      1: Step Time =    1.000,"PART-1-1",           278,            5.,      -6.04167,            0.,NA,NA,"",   717.461E-03,   659.757E-03,   281.904E-03,   12.7722E-03
C:/temp/dataset/7/23_5.odb,Step-1,Increment      1: Step Time =    1.000,"PART-1-1",           279,       5.76552,      -7.08179,            0.,NA,NA,"",   645.270E-03,   601.504E-03,   233.594E-03,   11.1534E-03
C:/temp/dataset/7/23_5.odb,Step-1,Increment      1: Step Time =    1.000,"PART-1-1",           280,       8.25955,      -15.2021,            0.,NA,NA,"",   262.488E-03,   251.120E-03,   76.4102E-03,   5.83517E-03
C:/temp/dataset/7/23_5.odb,Step-1,Increment      1: Step Time =    1.000,"PART-1-1",           281,       9.23032,      -13.9562,            0.,NA,NA,"",   295.416E-03,   291.471E-03,   48.1167E-03,   3.55177E-03
C:/temp/dataset/7/23_5.odb,Step-1,Increment      1: Step Time =    1.000,"PART-1-1",           282,       8.16037,      -12.9544,            0.,NA,NA,"",   343.514E-03,   331.411E-03,   90.3819E-03,   5.99921E-03
C:/temp/dataset/7/23_5.odb,Step-1,Increment      1: Step Time =    1.000,"PART-1-1",           283,       7.18960,      -14.2003,            0.,NA,NA,"",   312.654E-03,   289.500E-03,   118.076E-03,   8.28897E-03
C:/temp/dataset/7/23_5.odb,Step-1,Increment      1: Step Time =    1.000,"PART-1-1",           284,            5.,      -22.7083,            0.,NA,NA,"",   120.574E-03,   77.5052E-03,   92.3641E-03,   14.0338E-03
C:/temp/dataset/7/23_5.odb,Step-1,Increment      1: Step Time =    1.000,"PART-1-1",           285,       5.97351,      -23.6835,            0.,NA,NA,"",   86.7885E-03,   56.2810E-03,   66.0658E-03,   11.7536E-03
C:/temp/dataset/7/23_5.odb,Step-1,Increment      1: Step Time =    1.000,"PART-1-1",           286,       6.71140,      -22.7416,            0.,NA,NA,"",   92.8694E-03,   67.5468E-03,   63.7350E-03,   9.89098E-03
C:/temp/dataset/7/23_5.odb,Step-1,Increment      1: Step Time =    1.000,"PART-1-1",           287,       5.73789,      -21.7664,            0.,NA,NA,"",   127.522E-03,   90.0440E-03,   90.2993E-03,   12.1654E-03
C:/temp/dataset/7/23_5.odb,Step-1,Increment      1: Step Time =    1.000,"PART-1-1",           288,       9.95056,      -28.8261,            0.,NA,NA,"",   1.84006E-03,  -1.13717E-03,   1.44661E-03,   1.71665E-03
C:/temp/dataset/7/23_5.odb,Step-1,Increment      1: Step Time =    1.000,"PART-1-1",           289,       8.67404,      -27.7482,            0.,NA,NA,"",   9.70613E-03,   4.13311E-03,   8.78216E-03,   5.26116E-03
C:/temp/dataset/7/23_5.odb,Step-1,Increment      1: Step Time =    1.000,"PART-1-1",           290,       7.47347,      -28.9221,            0.,NA,NA,"",   6.41407E-03,   1.13133E-03,   6.31351E-03,   7.27969E-03
C:/temp/dataset/7/23_5.odb,Step-1,Increment      1: Step Time =    1.000,"PART-1-1",           291,          8.75,          -30.,            0.,NA,NA,"",            0.,  -1.75095E-39,   7.64717E-39,   4.10211E-03
C:/temp/dataset/7/23_5.odb,Step-1,Increment      1: Step Time =    1.000,"PART-1-1",           292,       9.14805,      -24.1419,            0.,NA,NA,"",   42.6869E-03,   38.0768E-03,   19.2958E-03,   3.98635E-03
C:/temp/dataset/7/23_5.odb,Step-1,Increment      1: Step Time =    1.000,"PART-1-1",           293,       7.84454,      -23.3007,            0.,NA,NA,"",   68.2092E-03,   53.9552E-03,   41.7292E-03,   7.16072E-03
C:/temp/dataset/7/23_5.odb,Step-1,Increment      1: Step Time =    1.000,"PART-1-1",           294,       7.10828,      -24.6604,            0.,NA,NA,"",   56.2100E-03,   37.4792E-03,   41.8911E-03,   9.14943E-03
C:/temp/dataset/7/23_5.odb,Step-1,Increment      1: Step Time =    1.000,"PART-1-1",           295,       8.41180,      -25.5016,            0.,NA,NA,"",   31.7848E-03,   23.0882E-03,   21.8451E-03,   5.98242E-03
C:/temp/dataset/7/23_5.odb,Step-1,Increment      1: Step Time =    1.000,"PART-1-1",           296,       7.00425,      -21.1298,            0.,NA,NA,"",   120.268E-03,   96.3894E-03,   71.9276E-03,   9.10485E-03
C:/temp/dataset/7/23_5.odb,Step-1,Increment      1: Step Time =    1.000,"PART-1-1",           297,       6.26636,      -19.9884,            0.,NA,NA,"",   158.195E-03,   124.635E-03,   97.4268E-03,   10.7860E-03
C:/temp/dataset/7/23_5.odb,Step-1,Increment      1: Step Time =    1.000,"PART-1-1",           298,            5.,       -20.625,            0.,NA,NA,"",   166.799E-03,   117.724E-03,   118.164E-03,   13.8980E-03
C:/temp/dataset/7/23_5.odb,Step-1,Increment      1: Step Time =    1.000,"PART-1-1",           299,       12.8526,      -8.63250,            0.,NA,NA,"",   519.212E-03,   508.121E-03,  -106.742E-03,   4.69149E-03
C:/temp/dataset/7/23_5.odb,Step-1,Increment      1: Step Time =    1.000,"PART-1-1",           300,       13.9581,      -9.97058,            0.,NA,NA,"",   473.574E-03,   449.856E-03,  -147.993E-03,   7.24772E-03
C:/temp/dataset/7/23_5.odb,Step-1,Increment      1: Step Time =    1.000,"PART-1-1",           301,           15.,         -8.75,            0.,NA,NA,"",   547.276E-03,   507.269E-03,  -205.401E-03,   9.53017E-03
C:/temp/dataset/7/23_5.odb,Step-1,Increment      1: Step Time =    1.000,"PART-1-1",           302,       13.8945,      -7.41192,            0.,NA,NA,"",   590.863E-03,   567.611E-03,  -164.123E-03,   6.97249E-03
C:/temp/dataset/7/23_5.odb,Step-1,Increment      1: Step Time =    1.000,"PART-1-1",           303,            5.,        10.625,            0.,NA,NA,"",       1.84972,       1.79971,   427.190E-03,   11.9179E-03
C:/temp/dataset/7/23_5.odb,Step-1,Increment      1: Step Time =    1.000,"PART-1-1",           304,       7.03988,       10.6820,            0.,NA,NA,"",       1.80703,       1.78845,   258.499E-03,   7.82138E-03
C:/temp/dataset/7/23_5.odb,Step-1,Increment      1: Step Time =    1.000,"PART-1-1",           305,       6.00589,       11.7004,            0.,NA,NA,"",       1.91493,       1.88275,   349.587E-03,   9.85864E-03
C:/temp/dataset/7/23_5.odb,Step-1,Increment      1: Step Time =    1.000,"PART-1-1",           306,       2.74639,       25.6366,            0.,NA,NA,"",       3.36669,       3.28464,   738.749E-03,   3.23236E-03
C:/temp/dataset/7/23_5.odb,Step-1,Increment      1: Step Time =    1.000,"PART-1-1",           307,       1.36653,       25.0307,            0.,NA,NA,"",       3.35067,       3.22756,   899.913E-03,   3.24095E-03
C:/temp/dataset/7/23_5.odb,Step-1,Increment      1: Step Time =    1.000,"PART-1-1",           308,       1.96853,       23.3303,            0.,NA,NA,"",       3.15233,       3.03773,   842.244E-03,   4.78249E-03
C:/temp/dataset/7/23_5.odb,Step-1,Increment      1: Step Time =    1.000,"PART-1-1",           309,       3.34839,       23.9361,            0.,NA,NA,"",       3.16903,       3.09547,   678.840E-03,   4.71143E-03
C:/temp/dataset/7/23_5.odb,Step-1,Increment      1: Step Time =    1.000,"PART-1-1",           310,       4.47216,       26.2029,            0.,NA,NA,"",       3.37700,       3.33325,   541.865E-03,   2.72779E-03
C:/temp/dataset/7/23_5.odb,Step-1,Increment      1: Step Time =    1.000,"PART-1-1",           311,       4.17993,       27.6633,            0.,NA,NA,"",       3.54056,       3.49476,   567.593E-03,   2.39270E-03
C:/temp/dataset/7/23_5.odb,Step-1,Increment      1: Step Time =    1.000,"PART-1-1",           312,       2.45416,       27.0970,            0.,NA,NA,"",       3.52979,       3.44614,   763.899E-03,   2.52894E-03
C:/temp/dataset/7/23_5.odb,Step-1,Increment      1: Step Time =    1.000,"PART-1-1",           313,      -1.66705,       28.8640,            0.,NA,NA,"",       3.86752,       3.67047,       1.21875,   528.586E-06
C:/temp/dataset/7/23_5.odb,Step-1,Increment      1: Step Time =    1.000,"PART-1-1",           314,   261.919E-03,       29.0779,            0.,NA,NA,"",       3.81458,       3.68114,       1.00010,   1.13156E-03
C:/temp/dataset/7/23_5.odb,Step-1,Increment      1: Step Time =    1.000,"PART-1-1",           315,    -937.5E-03,           30.,            0.,NA,NA,"",       3.95758,       3.79293,       1.12967,   527.060E-06
C:/temp/dataset/7/23_5.odb,Step-1,Increment      1: Step Time =    1.000,"PART-1-1",           316,          -15.,         21.25,            0.,NA,NA,"",       4.00284,       2.90589,       2.75292,   3.05465E-06
C:/temp/dataset/7/23_5.odb,Step-1,Increment      1: Step Time =    1.000,"PART-1-1",           317,      -13.3250,           20.,            0.,NA,NA,"",       3.77151,       2.75635,       2.57426,   4.35516E-06
C:/temp/dataset/7/23_5.odb,Step-1,Increment      1: Step Time =    1.000,"PART-1-1",           318,      -11.7925,       21.2083,            0.,NA,NA,"",       3.74748,       2.88133,       2.39615,   25.0707E-06
C:/temp/dataset/7/23_5.odb,Step-1,Increment      1: Step Time =    1.000,"PART-1-1",           319,       10.1137,       15.7319,            0.,NA,NA,"",       2.21655,       2.21652,  -9.73620E-03,   1.21325E-03
C:/temp/dataset/7/23_5.odb,Step-1,Increment      1: Step Time =    1.000,"PART-1-1",           320,       9.02474,       16.2903,            0.,NA,NA,"",       2.27587,       2.27409,   90.0567E-03,   3.29768E-03
C:/temp/dataset/7/23_5.odb,Step-1,Increment      1: Step Time =    1.000,"PART-1-1",           321,       8.64023,       14.7706,            0.,NA,NA,"",       2.13964,       2.13588,   126.738E-03,   4.34438E-03
C:/temp/dataset/7/23_5.odb,Step-1,Increment      1: Step Time =    1.000,"PART-1-1",           322,       9.72917,       14.2122,            0.,NA,NA,"",       2.07963,       2.07943,   29.2624E-03,   2.24802E-03
C:/temp/dataset/7/23_5.odb,Step-1,Increment      1: Step Time =    1.000,"PART-1-1",           323,       12.8210,       13.6438,            0.,NA,NA,"",       2.03240,       2.01770,  -244.044E-03,   4.04083E-03
C:/temp/dataset/7/23_5.odb,Step-1,Increment      1: Step Time =    1.000,"PART-1-1",           324,       13.9730,       12.4303,            0.,NA,NA,"",       1.93903,       1.90988,  -334.967E-03,   6.46514E-03
C:/temp/dataset/7/23_5.odb,Step-1,Increment      1: Step Time =    1.000,"PART-1-1",           325,           15.,         13.75,            0.,NA,NA,"",       2.07182,       2.02465,  -439.570E-03,   8.57818E-03
C:/temp/dataset/7/23_5.odb,Step-1,Increment      1: Step Time =    1.000,"PART-1-1",           326,       13.8481,       14.9635,            0.,NA,NA,"",       2.16269,       2.13448,  -348.174E-03,   6.14235E-03
C:/temp/dataset/7/23_5.odb,Step-1,Increment      1: Step Time =    1.000,"PART-1-1",           327,       10.1008,       2.87074,            0.,NA,NA,"",       1.17544,       1.17533,   16.4089E-03,   1.53378E-03
C:/temp/dataset/7/23_5.odb,Step-1,Increment      1: Step Time =    1.000,"PART-1-1",           328,       9.07373,       1.83179,            0.,NA,NA,"",       1.11150,       1.10819,   85.7259E-03,   3.71342E-03
C:/temp/dataset/7/23_5.odb,Step-1,Increment      1: Step Time =    1.000,"PART-1-1",           329,       10.0520,   569.032E-03,            0.,NA,NA,"",       1.02191,       1.02169,   21.5324E-03,   1.63656E-03
C:/temp/dataset/7/23_5.odb,Step-1,Increment      1: Step Time =    1.000,"PART-1-1",           330,       11.0790,       1.60798,            0.,NA,NA,"",       1.08835,       1.08733,  -47.1490E-03,   601.764E-06
C:/temp/dataset/7/23_5.odb,Step-1,Increment      1: Step Time =    1.000,"PART-1-1",           331,       9.98138,      -1.74337,            0.,NA,NA,"",   877.973E-03,   877.561E-03,   26.8770E-03,   1.79017E-03
C:/temp/dataset/7/23_5.odb,Step-1,Increment      1: Step Time =    1.000,"PART-1-1",           332,       8.90931,      -2.66004,            0.,NA,NA,"",   831.240E-03,   826.455E-03,   89.0600E-03,   4.11576E-03
C:/temp/dataset/7/23_5.odb,Step-1,Increment      1: Step Time =    1.000,"PART-1-1",           333,       9.84458,      -4.07679,            0.,NA,NA,"",   743.550E-03,   742.745E-03,   34.6031E-03,   2.09118E-03
C:/temp/dataset/7/23_5.odb,Step-1,Increment      1: Step Time =    1.000,"PART-1-1",           334,       10.9167,      -3.16013,            0.,NA,NA,"",   792.803E-03,   792.371E-03,  -26.1910E-03,   362.676E-06
C:/temp/dataset/7/23_5.odb,Step-1,Increment      1: Step Time =    1.000,"PART-1-1",           335,            5.,      -3.95833,            0.,NA,NA,"",   830.005E-03,   772.857E-03,   302.653E-03,   12.6456E-03
C:/temp/dataset/7/23_5.odb,Step-1,Increment      1: Step Time =    1.000,"PART-1-1",           336,       6.75254,      -4.23112,            0.,NA,NA,"",   773.826E-03,   746.480E-03,   203.900E-03,   8.84737E-03
C:/temp/dataset/7/23_5.odb,Step-1,Increment      1: Step Time =    1.000,"PART-1-1",           337,       5.92661,      -3.07918,            0.,NA,NA,"",   856.716E-03,   816.850E-03,   258.300E-03,   10.5882E-03
C:/temp/dataset/7/23_5.odb,Step-1,Increment      1: Step Time =    1.000,"PART-1-1",           338,       7.06139,      -12.0396,            0.,NA,NA,"",   396.057E-03,   371.401E-03,   137.559E-03,   8.48708E-03
C:/temp/dataset/7/23_5.odb,Step-1,Increment      1: Step Time =    1.000,"PART-1-1",           339,       5.99095,      -11.1126,            0.,NA,NA,"",   455.329E-03,   414.808E-03,   187.773E-03,   10.8737E-03
C:/temp/dataset/7/23_5.odb,Step-1,Increment      1: Step Time =    1.000,"PART-1-1",           340,            5.,      -12.2917,            0.,NA,NA,"",   430.778E-03,   372.969E-03,   215.555E-03,   13.2058E-03
C:/temp/dataset/7/23_5.odb,Step-1,Increment      1: Step Time =    1.000,"PART-1-1",           341,       6.07044,      -13.2187,            0.,NA,NA,"",   370.011E-03,   330.785E-03,   165.799E-03,   10.8180E-03
C:/temp/dataset/7/23_5.odb,Step-1,Increment      1: Step Time =    1.000,"PART-1-1",           342,       6.63644,      -8.02271,            0.,NA,NA,"",   580.279E-03,   550.313E-03,   184.065E-03,   9.26528E-03
C:/temp/dataset/7/23_5.odb,Step-1,Increment      1: Step Time =    1.000,"PART-1-1",           343,            5.,        -8.125,            0.,NA,NA,"",   613.383E-03,   555.335E-03,   260.466E-03,   12.9083E-03
C:/temp/dataset/7/23_5.odb,Step-1,Increment      1: Step Time =    1.000,"PART-1-1",           344,       5.87092,      -9.06592,            0.,NA,NA,"",   547.805E-03,   505.486E-03,   211.126E-03,   11.0194E-03
C:/temp/dataset/7/23_5.odb,Step-1,Increment      1: Step Time =    1.000,"PART-1-1",           345,       13.0826,      -13.6930,            0.,NA,NA,"",   312.902E-03,   300.008E-03,  -88.8969E-03,   5.43697E-03
C:/temp/dataset/7/23_5.odb,Step-1,Increment      1: Step Time =    1.000,"PART-1-1",           346,       14.0569,      -14.9678,            0.,NA,NA,"",   282.349E-03,   258.155E-03,  -114.356E-03,   7.78080E-03
C:/temp/dataset/7/23_5.odb,Step-1,Increment      1: Step Time =    1.000,"PART-1-1",           347,           15.,        -13.75,            0.,NA,NA,"",   341.824E-03,   303.337E-03,  -157.575E-03,   9.89667E-03
C:/temp/dataset/7/23_5.odb,Step-1,Increment      1: Step Time =    1.000,"PART-1-1",           348,       14.0257,      -12.4752,            0.,NA,NA,"",   371.651E-03,   347.417E-03,  -132.008E-03,   7.54966E-03
C:/temp/dataset/7/23_5.odb,Step-1,Increment      1: Step Time =    1.000,"PART-1-1",           349,       8.13738,      -21.6888,            0.,NA,NA,"",   93.4158E-03,   81.0944E-03,   46.3704E-03,   6.37428E-03
C:/temp/dataset/7/23_5.odb,Step-1,Increment      1: Step Time =    1.000,"PART-1-1",           350,            5.,      -28.9583,            0.,NA,NA,"",   17.4212E-03,   11.0944E-03,   13.4318E-03,   14.6906E-03
C:/temp/dataset/7/23_5.odb,Step-1,Increment      1: Step Time =    1.000,"PART-1-1",           351,          6.25,          -30.,            0.,NA,NA,"",            0.,  -457.097E-42,   17.3754E-39,   10.7711E-03
C:/temp/dataset/7/23_5.odb,Step-1,Increment      1: Step Time =    1.000,"PART-1-1",           352,       6.22347,      -27.8804,            0.,NA,NA,"",   22.8225E-03,   11.0859E-03,   19.9491E-03,   11.5769E-03
C:/temp/dataset/7/23_5.odb,Step-1,Increment      1: Step Time =    1.000,"PART-1-1",           353,           15.,        -28.75,            0.,NA,NA,"",   14.2791E-03,   8.17505E-03,  -11.7073E-03,   10.8588E-03
C:/temp/dataset/7/23_5.odb,Step-1,Increment      1: Step Time =    1.000,"PART-1-1",           354,       13.6900,      -27.4695,            0.,NA,NA,"",   18.7251E-03,   8.78610E-03,  -16.5358E-03,   8.04587E-03
C:/temp/dataset/7/23_5.odb,Step-1,Increment      1: Step Time =    1.000,"PART-1-1",           355,       12.4400,      -28.7195,            0.,NA,NA,"",   4.33675E-03,   11.1538E-06,  -4.33673E-03,   4.23322E-03
C:/temp/dataset/7/23_5.odb,Step-1,Increment      1: Step Time =    1.000,"PART-1-1",           356,         13.75,          -30.,            0.,NA,NA,"",            0.,  -1.41916E-39,  -11.7093E-39,   7.16122E-03
C:/temp/dataset/7/23_5.odb,Step-1,Increment      1: Step Time =    1.000,"PART-1-1",           357,       9.58617,      -22.6245,            0.,NA,NA,"",   63.1851E-03,   60.7655E-03,   17.3179E-03,   2.88509E-03
C:/temp/dataset/7/23_5.odb,Step-1,Increment      1: Step Time =    1.000,"PART-1-1",           358,       10.0221,      -21.0980,            0.,NA,NA,"",   89.8039E-03,   88.9562E-03,   12.3099E-03,   1.78323E-03
C:/temp/dataset/7/23_5.odb,Step-1,Increment      1: Step Time =    1.000,"PART-1-1",           359,       8.57328,      -20.1623,            0.,NA,NA,"",   120.513E-03,   111.730E-03,   45.1666E-03,   5.24817E-03
C:/temp/dataset/7/23_5.odb,Step-1,Increment      1: Step Time =    1.000,"PART-1-1",           360,       11.1406,      -27.5456,            0.,NA,NA,"",   4.32890E-03,   3.52579E-03,  -2.51161E-03,   1.54569E-03
C:/temp/dataset/7/23_5.odb,Step-1,Increment      1: Step Time =    1.000,"PART-1-1",           361,         11.25,          -30.,            0.,NA,NA,"",            0.,  -2.23831E-39,  -2.47952E-39,   2.16415E-03
C:/temp/dataset/7/23_5.odb,Step-1,Increment      1: Step Time =    1.000,"PART-1-1",           362,       11.2605,      -16.1933,            0.,NA,NA,"",   215.487E-03,   214.604E-03,  -19.4882E-03,   1.28703E-03
C:/temp/dataset/7/23_5.odb,Step-1,Increment      1: Step Time =    1.000,"PART-1-1",           363,       10.2521,      -15.0492,            0.,NA,NA,"",   252.228E-03,   251.953E-03,   11.7791E-03,   1.20574E-03
C:/temp/dataset/7/23_5.odb,Step-1,Increment      1: Step Time =    1.000,"PART-1-1",           364,       9.32474,      -16.3084,            0.,NA,NA,"",   216.492E-03,   212.937E-03,   39.0707E-03,   3.36597E-03
C:/temp/dataset/7/23_5.odb,Step-1,Increment      1: Step Time =    1.000,"PART-1-1",           365,       10.3331,      -17.4526,            0.,NA,NA,"",   177.846E-03,   177.657E-03,   8.19580E-03,   1.02741E-03
C:/temp/dataset/7/23_5.odb,Step-1,Increment      1: Step Time =    1.000,"PART-1-1",           366,       7.44248,      -19.0256,            0.,NA,NA,"",   162.302E-03,   142.493E-03,   77.7020E-03,   7.92412E-03
C:/temp/dataset/7/23_5.odb,Step-1,Increment      1: Step Time =    1.000,"PART-1-1",           367,       6.17612,      -17.5789,            0.,NA,NA,"",   223.295E-03,   186.821E-03,   122.307E-03,   10.8486E-03
C:/temp/dataset/7/23_5.odb,Step-1,Increment      1: Step Time =    1.000,"PART-1-1",           368,            5.,      -18.5417,            0.,NA,NA,"",   220.472E-03,   167.489E-03,   143.371E-03,   13.7184E-03
C:/temp/dataset/7/23_5.odb,Step-1,Increment      1: Step Time =    1.000,"PART-1-1",           369,       12.8407,      -6.03443,            0.,NA,NA,"",   646.420E-03,   635.168E-03,  -120.084E-03,   4.56585E-03
C:/temp/dataset/7/23_5.odb,Step-1,Increment      1: Step Time =    1.000,"PART-1-1",           370,           15.,         -6.25,            0.,NA,NA,"",   668.693E-03,   628.054E-03,  -229.561E-03,   9.36531E-03
C:/temp/dataset/7/23_5.odb,Step-1,Increment      1: Step Time =    1.000,"PART-1-1",           371,       13.9462,      -4.87251,            0.,NA,NA,"",   721.926E-03,   697.550E-03,  -186.012E-03,   6.95855E-03
C:/temp/dataset/7/23_5.odb,Step-1,Increment      1: Step Time =    1.000,"PART-1-1",           372,       7.64514,      -8.69832,            0.,NA,NA,"",   530.407E-03,   513.489E-03,   132.894E-03,   7.04419E-03
C:/temp/dataset/7/23_5.odb,Step-1,Increment      1: Step Time =    1.000,"PART-1-1",           373,       8.20020,      -7.75016,            0.,NA,NA,"",   567.440E-03,   556.423E-03,   111.274E-03,   5.76759E-03
C:/temp/dataset/7/23_5.odb,Step-1,Increment      1: Step Time =    1.000,"PART-1-1",           374,       7.19150,      -7.07454,            0.,NA,NA,"",   616.119E-03,   594.021E-03,   163.528E-03,   7.96879E-03
C:/temp/dataset/7/23_5.odb,Step-1,Increment      1: Step Time =    1.000,"PART-1-1",           375,       7.97278,      -1.35169,            0.,NA,NA,"",   920.566E-03,   908.576E-03,   148.088E-03,   6.11185E-03
C:/temp/dataset/7/23_5.odb,Step-1,Increment      1: Step Time =    1.000,"PART-1-1",           376,       9.01285,  -423.179E-03,            0.,NA,NA,"",   965.741E-03,   961.838E-03,   86.7371E-03,   3.86703E-03
C:/temp/dataset/7/23_5.odb,Step-1,Increment      1: Step Time =    1.000,"PART-1-1",           377,       8.04185,   850.611E-03,            0.,NA,NA,"",       1.05850,       1.04763,   151.277E-03,   5.91788E-03
C:/temp/dataset/7/23_5.odb,Step-1,Increment      1: Step Time =    1.000,"PART-1-1",           378,       8.08837,       3.05311,            0.,NA,NA,"",       1.20605,       1.19608,   154.745E-03,   5.77861E-03
C:/temp/dataset/7/23_5.odb,Step-1,Increment      1: Step Time =    1.000,"PART-1-1",           379,       9.11337,       4.08618,            0.,NA,NA,"",       1.26709,       1.26423,   85.0044E-03,   3.61202E-03
C:/temp/dataset/7/23_5.odb,Step-1,Increment      1: Step Time =    1.000,"PART-1-1",           380,       8.10868,       5.26217,            0.,NA,NA,"",       1.36364,       1.35433,   159.041E-03,   5.70104E-03
C:/temp/dataset/7/23_5.odb,Step-1,Increment      1: Step Time =    1.000,"PART-1-1",           381,       7.08888,       6.39331,            0.,NA,NA,"",       1.46446,       1.44496,   238.209E-03,   7.80554E-03
C:/temp/dataset/7/23_5.odb,Step-1,Increment      1: Step Time =    1.000,"PART-1-1",           382,            5.,       6.45833,            0.,NA,NA,"",       1.51759,       1.46516,   395.475E-03,   12.1248E-03
C:/temp/dataset/7/23_5.odb,Step-1,Increment      1: Step Time =    1.000,"PART-1-1",           383,           15.,         16.25,            0.,NA,NA,"",       2.30030,       2.25193,  -469.228E-03,   8.33313E-03
C:/temp/dataset/7/23_5.odb,Step-1,Increment      1: Step Time =    1.000,"PART-1-1",           384,       13.6214,       17.6671,            0.,NA,NA,"",       2.41443,       2.38851,  -352.823E-03,   5.49730E-03
C:/temp/dataset/7/23_5.odb,Step-1,Increment      1: Step Time =    1.000,"PART-1-1",           385,       12.4694,       16.3805,            0.,NA,NA,"",       2.28049,       2.26861,  -232.436E-03,   3.37709E-03
C:/temp/dataset/7/23_5.odb,Step-1,Increment      1: Step Time =    1.000,"PART-1-1",           386,       10.0881,       9.74649,            0.,NA,NA,"",       1.69405,       1.69404,   7.31302E-03,   1.58840E-03
C:/temp/dataset/7/23_5.odb,Step-1,Increment      1: Step Time =    1.000,"PART-1-1",           387,       9.10561,       8.57814,            0.,NA,NA,"",       1.60635,       1.60398,   87.2934E-03,   3.61349E-03
C:/temp/dataset/7/23_5.odb,Step-1,Increment      1: Step Time =    1.000,"PART-1-1",           388,       10.1162,       7.46436,            0.,NA,NA,"",       1.51205,       1.51202,   9.17184E-03,   1.51446E-03
C:/temp/dataset/7/23_5.odb,Step-1,Increment      1: Step Time =    1.000,"PART-1-1",           389,       11.0986,       8.63272,            0.,NA,NA,"",       1.60215,       1.60059,  -70.8770E-03,   543.511E-06
C:/temp/dataset/7/23_5.odb,Step-1,Increment      1: Step Time =    1.000,"PART-1-1",           390,       9.96644,       19.4124,            0.,NA,NA,"",       2.57272,       2.57269,  -10.4867E-03,   2.01647E-03
C:/temp/dataset/7/23_5.odb,Step-1,Increment      1: Step Time =    1.000,"PART-1-1",           391,       10.9020,       20.3065,            0.,NA,NA,"",       2.66205,       2.65987,  -107.547E-03,   2.73131E-03
C:/temp/dataset/7/23_5.odb,Step-1,Increment      1: Step Time =    1.000,"PART-1-1",           392,       10.1153,       21.2880,            0.,NA,NA,"",       2.76503,       2.76481,  -34.9273E-03,   3.10834E-03
C:/temp/dataset/7/23_5.odb,Step-1,Increment      1: Step Time =    1.000,"PART-1-1",           393,       9.17975,       20.3940,            0.,NA,NA,"",       2.67693,       2.67619,   62.9003E-03,   2.80168E-03
C:/temp/dataset/7/23_5.odb,Step-1,Increment      1: Step Time =    1.000,"PART-1-1",           394,           15.,         28.75,            0.,NA,NA,"",       3.58466,       3.53624,  -587.210E-03,   144.527E-06
C:/temp/dataset/7/23_5.odb,Step-1,Increment      1: Step Time =    1.000,"PART-1-1",           395,       14.0625,           30.,            0.,NA,NA,"",       3.70704,       3.67384,  -495.043E-03,   124.961E-06
C:/temp/dataset/7/23_5.odb,Step-1,Increment      1: Step Time =    1.000,"PART-1-1",           396,       13.1487,       28.7914,            0.,NA,NA,"",       3.57268,       3.55112,  -391.926E-03,   769.182E-06
C:/temp/dataset/7/23_5.odb,Step-1,Increment      1: Step Time =    1.000,"PART-1-1",           397,       14.0862,       27.5414,            0.,NA,NA,"",       3.44682,       3.41277,  -483.261E-03,   860.171E-06
C:/temp/dataset/7/23_5.odb,Step-1,Increment      1: Step Time =    1.000,"PART-1-1",           398,       12.2440,       25.2848,            0.,NA,NA,"",       3.19246,       3.18050,  -276.070E-03,   2.86941E-03
C:/temp/dataset/7/23_5.odb,Step-1,Increment      1: Step Time =    1.000,"PART-1-1",           399,       13.1763,       26.3811,            0.,NA,NA,"",       3.31529,       3.29342,  -380.200E-03,   2.10511E-03
C:/temp/dataset/7/23_5.odb,Step-1,Increment      1: Step Time =    1.000,"PART-1-1",           400,       12.2376,       27.6217,            0.,NA,NA,"",       3.44386,       3.43164,  -289.839E-03,   1.88914E-03
C:/temp/dataset/7/23_5.odb,Step-1,Increment      1: Step Time =    1.000,"PART-1-1",           401,       11.3053,       26.5254,            0.,NA,NA,"",       3.32451,       3.31928,  -186.509E-03,   2.71271E-03
C:/temp/dataset/7/23_5.odb,Step-1,Increment      1: Step Time =    1.000,"PART-1-1",           402,       12.1875,           30.,            0.,NA,NA,"",       3.69663,       3.68463,  -297.589E-03,   762.285E-06
C:/temp/dataset/7/23_5.odb,Step-1,Increment      1: Step Time =    1.000,"PART-1-1",           403,        6.5625,           30.,            0.,NA,NA,"",       3.74099,       3.72922,   296.422E-03,   3.77470E-03
C:/temp/dataset/7/23_5.odb,Step-1,Increment      1: Step Time =    1.000,"PART-1-1",           404,       5.40000,       28.6589,            0.,NA,NA,"",       3.61898,       3.59352,   428.490E-03,   2.95719E-03
C:/temp/dataset/7/23_5.odb,Step-1,Increment      1: Step Time =    1.000,"PART-1-1",           405,       6.32063,       27.5176,            0.,NA,NA,"",       3.47770,       3.46167,   333.516E-03,   2.24285E-03
C:/temp/dataset/7/23_5.odb,Step-1,Increment      1: Step Time =    1.000,"PART-1-1",           406,        2.8125,           30.,            0.,NA,NA,"",       3.83030,       3.76422,   708.395E-03,   2.66751E-03
C:/temp/dataset/7/23_5.odb,Step-1,Increment      1: Step Time =    1.000,"PART-1-1",           407,       1.86631,       29.3706,            0.,NA,NA,"",       3.79094,       3.70170,   817.716E-03,   1.92321E-03
C:/temp/dataset/7/23_5.odb,Step-1,Increment      1: Step Time =    1.000,"PART-1-1",           408,       2.52123,       28.3750,            0.,NA,NA,"",       3.66357,       3.58609,   749.466E-03,   2.20640E-03
C:/temp/dataset/7/23_5.odb,Step-1,Increment      1: Step Time =    1.000,"PART-1-1",           409,       3.46742,       29.0044,            0.,NA,NA,"",       3.70366,       3.64789,   640.331E-03,   2.64980E-03
C:/temp/dataset/7/23_5.odb,Step-1,Increment      1: Step Time =    1.000,"PART-1-1",           410,       1.19073,       28.4486,            0.,NA,NA,"",       3.71477,       3.60435,   898.980E-03,   1.82988E-03
C:/temp/dataset/7/23_5.odb,Step-1,Increment      1: Step Time =    1.000,"PART-1-1",           411,      -2.48443,       27.9761,            0.,NA,NA,"",       3.81117,       3.57668,       1.31620,   613.749E-06
C:/temp/dataset/7/23_5.odb,Step-1,Increment      1: Step Time =    1.000,"PART-1-1",           412,       -2.8125,           30.,            0.,NA,NA,"",       4.03415,       3.80500,       1.34026,   33.9954E-06
C:/temp/dataset/7/23_5.odb,Step-1,Increment      1: Step Time =    1.000,"PART-1-1",           413,      -7.28733,       29.0238,            0.,NA,NA,"",       4.15600,       3.72343,       1.84618,   88.1823E-06
C:/temp/dataset/7/23_5.odb,Step-1,Increment      1: Step Time =    1.000,"PART-1-1",           414,      -6.19423,       28.1363,            0.,NA,NA,"",       4.01008,       3.61773,       1.72994,   45.3597E-06
C:/temp/dataset/7/23_5.odb,Step-1,Increment      1: Step Time =    1.000,"PART-1-1",           415,       -6.5625,           30.,            0.,NA,NA,"",       4.21273,       3.82779,       1.75928,   168.131E-06
C:/temp/dataset/7/23_5.odb,Step-1,Increment      1: Step Time =    1.000,"PART-1-1",           416,      -11.8079,       27.5253,            0.,NA,NA,"",       4.29097,       3.58454,       2.35871,   32.2261E-06
C:/temp/dataset/7/23_5.odb,Step-1,Increment      1: Step Time =    1.000,"PART-1-1",           417,      -12.6125,       26.1842,            0.,NA,NA,"",       4.22730,       3.44025,       2.45657,   20.0744E-06
C:/temp/dataset/7/23_5.odb,Step-1,Increment      1: Step Time =    1.000,"PART-1-1",           418,      -8.13992,       23.4434,            0.,NA,NA,"",       3.68217,       3.10724,       1.97571,   91.6152E-06
C:/temp/dataset/7/23_5.odb,Step-1,Increment      1: Step Time =    1.000,"PART-1-1",           419,       -8.4375,           30.,            0.,NA,NA,"",       4.31432,       3.83923,       1.96815,   101.014E-06
C:/temp/dataset/7/23_5.odb,Step-1,Increment      1: Step Time =    1.000,"PART-1-1",           420,      -8.00049,       27.9480,            0.,NA,NA,"",       4.09282,       3.60795,       1.93231,   69.5779E-06
C:/temp/dataset/7/23_5.odb,Step-1,Increment      1: Step Time =    1.000,"PART-1-1",           421,      -12.1875,           30.,            0.,NA,NA,"",       4.53971,       3.86239,       2.38557,   16.3072E-06
C:/temp/dataset/7/23_5.odb,Step-1,Increment      1: Step Time =    1.000,"PART-1-1",           422,          -15.,         26.25,            0.,NA,NA,"",       4.40422,       3.46242,       2.72191,   11.8009E-06
C:/temp/dataset/7/23_5.odb,Step-1,Increment      1: Step Time =    1.000,"PART-1-1",           423,  -614.199E-03,       25.3895,            0.,NA,NA,"",       3.46528,       3.27836,       1.12271,   2.04966E-03
C:/temp/dataset/7/23_5.odb,Step-1,Increment      1: Step Time =    1.000,"PART-1-1",           424,      -1.97220,       26.8586,            0.,NA,NA,"",       3.67410,       3.44915,       1.26584,   924.959E-06
C:/temp/dataset/7/23_5.odb,Step-1,Increment      1: Step Time =    1.000,"PART-1-1",           425,      -1.74113,       25.3247,            0.,NA,NA,"",       3.50797,       3.27757,       1.25034,   1.52853E-03
C:/temp/dataset/7/23_5.odb,Step-1,Increment      1: Step Time =    1.000,"PART-1-1",           426,       8.18659,       21.6045,            0.,NA,NA,"",       2.81211,       2.80767,   157.990E-03,   3.83618E-03
C:/temp/dataset/7/23_5.odb,Step-1,Increment      1: Step Time =    1.000,"PART-1-1",           427,       9.25192,       22.4602,            0.,NA,NA,"",       2.89340,       2.89304,   46.1423E-03,   3.59674E-03
C:/temp/dataset/7/23_5.odb,Step-1,Increment      1: Step Time =    1.000,"PART-1-1",           428,       8.38526,       23.6138,            0.,NA,NA,"",       3.02511,       3.02231,   130.105E-03,   3.51404E-03
C:/temp/dataset/7/23_5.odb,Step-1,Increment      1: Step Time =    1.000,"PART-1-1",           429,       7.31993,       22.7581,            0.,NA,NA,"",       2.94694,       2.93683,   243.806E-03,   4.14323E-03
C:/temp/dataset/7/23_5.odb,Step-1,Increment      1: Step Time =    1.000,"PART-1-1",           430,           15.,         26.25,            0.,NA,NA,"",       3.31969,       3.27007,  -571.842E-03,   1.41183E-03
C:/temp/dataset/7/23_5.odb,Step-1,Increment      1: Step Time =    1.000,"PART-1-1",           431,        4.6875,           30.,            0.,NA,NA,"",       3.78034,       3.74706,   500.536E-03,   3.56151E-03
C:/temp/dataset/7/23_5.odb,Step-1,Increment      1: Step Time =    1.000,"PART-1-1",           432,       9.38339,       24.5308,            0.,NA,NA,"",       3.11532,       3.11524,   22.8923E-03,   3.42267E-03
C:/temp/dataset/7/23_5.odb,Step-1,Increment      1: Step Time =    1.000,"PART-1-1",           433,       8.53172,       25.6694,            0.,NA,NA,"",       3.24605,       3.24431,   106.188E-03,   2.86775E-03
C:/temp/dataset/7/23_5.odb,Step-1,Increment      1: Step Time =    1.000,"PART-1-1",           434,       7.53359,       24.7524,            0.,NA,NA,"",       3.15912,       3.15180,   214.946E-03,   3.17964E-03
C:/temp/dataset/7/23_5.odb,Step-1,Increment      1: Step Time =    1.000,"PART-1-1",           435,     937.5E-03,           30.,            0.,NA,NA,"",       3.88960,       3.77955,   918.655E-03,   1.46444E-03
C:/temp/dataset/7/23_5.odb,Step-1,Increment      1: Step Time =    1.000,"PART-1-1",           436,       5.64845,       26.5466,            0.,NA,NA,"",       3.38638,       3.36138,   410.768E-03,   2.46157E-03
C:/temp/dataset/7/23_5.odb,Step-1,Increment      1: Step Time =    1.000,"PART-1-1",           437,       4.65082,       24.6490,            0.,NA,NA,"",       3.20665,       3.16281,   528.463E-03,   3.34556E-03
C:/temp/dataset/7/23_5.odb,Step-1,Increment      1: Step Time =    1.000,"PART-1-1",           438,       5.82711,       24.9927,            0.,NA,NA,"",       3.21559,       3.19095,   397.266E-03,   2.97540E-03
C:/temp/dataset/7/23_5.odb,Step-1,Increment      1: Step Time =    1.000,"PART-1-1",           439,      -3.57200,       27.5772,            0.,NA,NA,"",       3.82105,       3.53906,       1.44066,   326.578E-06
C:/temp/dataset/7/23_5.odb,Step-1,Increment      1: Step Time =    1.000,"PART-1-1",           440,      -3.05977,       26.4597,            0.,NA,NA,"",       3.68396,       3.41145,       1.39054,   620.251E-06
C:/temp/dataset/7/23_5.odb,Step-1,Increment      1: Step Time =    1.000,"PART-1-1",           441,      -4.23358,       26.7178,            0.,NA,NA,"",       3.76769,       3.44741,       1.52015,   270.119E-06
C:/temp/dataset/7/23_5.odb,Step-1,Increment      1: Step Time =    1.000,"PART-1-1",           442,      -5.07335,       27.3652,            0.,NA,NA,"",       3.87498,       3.52478,       1.60979,   99.5256E-06
C:/temp/dataset/7/23_5.odb,Step-1,Increment      1: Step Time =    1.000,"PART-1-1",           443,      -5.65848,       26.3267,            0.,NA,NA,"",       3.80448,       3.41267,       1.68159,   95.2518E-06
C:/temp/dataset/7/23_5.odb,Step-1,Increment      1: Step Time =    1.000,"PART-1-1",           444,      -6.77936,       27.0978,            0.,NA,NA,"",       3.94147,       3.50561,       1.80163,   59.2652E-06
C:/temp/dataset/7/23_5.odb,Step-1,Increment      1: Step Time =    1.000,"PART-1-1",           445,       13.0726,       6.26892,            0.,NA,NA,"",       1.42993,       1.41428,  -210.960E-03,   4.69861E-03
C:/temp/dataset/7/23_5.odb,Step-1,Increment      1: Step Time =    1.000,"PART-1-1",           446,       14.0382,       5.02867,            0.,NA,NA,"",       1.35053,       1.32269,  -272.788E-03,   6.75735E-03
C:/temp/dataset/7/23_5.odb,Step-1,Increment      1: Step Time =    1.000,"PART-1-1",           447,           15.,          6.25,            0.,NA,NA,"",       1.45739,       1.41322,  -356.050E-03,   8.73645E-03
C:/temp/dataset/7/23_5.odb,Step-1,Increment      1: Step Time =    1.000,"PART-1-1",           448,       14.0344,       7.49025,            0.,NA,NA,"",       1.53520,       1.50673,  -294.293E-03,   6.67826E-03
C:/temp/dataset/7/23_5.odb,Step-1,Increment      1: Step Time =    1.000,"PART-1-1",           449,            5.,       12.7083,            0.,NA,NA,"",       2.02765,       1.97895,   441.722E-03,   11.8304E-03
C:/temp/dataset/7/23_5.odb,Step-1,Increment      1: Step Time =    1.000,"PART-1-1",           450,       6.97129,       12.7632,            0.,NA,NA,"",       1.98625,       1.96763,   271.376E-03,   7.91703E-03
C:/temp/dataset/7/23_5.odb,Step-1,Increment      1: Step Time =    1.000,"PART-1-1",           451,       8.08110,       9.66220,            0.,NA,NA,"",       1.70567,       1.69714,   170.405E-03,   5.70817E-03
C:/temp/dataset/7/23_5.odb,Step-1,Increment      1: Step Time =    1.000,"PART-1-1",           452,       8.10192,       7.46894,            0.,NA,NA,"",       1.53058,       1.52171,   164.512E-03,   5.68751E-03
C:/temp/dataset/7/23_5.odb,Step-1,Increment      1: Step Time =    1.000,"PART-1-1",           453,            5.,        -1.875,            0.,NA,NA,"",   950.952E-03,   894.529E-03,   322.688E-03,   12.5269E-03
C:/temp/dataset/7/23_5.odb,Step-1,Increment      1: Step Time =    1.000,"PART-1-1",           454,       6.91011,      -2.19684,            0.,NA,NA,"",   887.471E-03,   862.900E-03,   207.384E-03,   8.43326E-03
C:/temp/dataset/7/23_5.odb,Step-1,Increment      1: Step Time =    1.000,"PART-1-1",           455,       11.0205,  -751.161E-03,            0.,NA,NA,"",   936.663E-03,   935.914E-03,  -37.4399E-03,   516.805E-06
C:/temp/dataset/7/23_5.odb,Step-1,Increment      1: Step Time =    1.000,"PART-1-1",           456,       13.1408,      -16.1676,            0.,NA,NA,"",   230.658E-03,   217.396E-03,  -77.0849E-03,   5.69748E-03
C:/temp/dataset/7/23_5.odb,Step-1,Increment      1: Step Time =    1.000,"PART-1-1",           457,       14.0839,      -17.4497,            0.,NA,NA,"",   206.064E-03,   182.125E-03,  -96.3993E-03,   8.01542E-03
C:/temp/dataset/7/23_5.odb,Step-1,Increment      1: Step Time =    1.000,"PART-1-1",           458,           15.,        -16.25,            0.,NA,NA,"",   257.969E-03,   220.594E-03,  -133.740E-03,   10.1015E-03
C:/temp/dataset/7/23_5.odb,Step-1,Increment      1: Step Time =    1.000,"PART-1-1",           459,            5.,       -14.375,            0.,NA,NA,"",   352.264E-03,   295.265E-03,   192.116E-03,   13.3699E-03
C:/temp/dataset/7/23_5.odb,Step-1,Increment      1: Step Time =    1.000,"PART-1-1",           460,       6.11916,      -15.3567,            0.,NA,NA,"",   293.304E-03,   255.163E-03,   144.633E-03,   10.8398E-03
C:/temp/dataset/7/23_5.odb,Step-1,Increment      1: Step Time =    1.000,"PART-1-1",           461,       13.0403,       1.40949,            0.,NA,NA,"",       1.08654,       1.07221,  -175.922E-03,   4.75847E-03
C:/temp/dataset/7/23_5.odb,Step-1,Increment      1: Step Time =    1.000,"PART-1-1",           462,       14.0142,   96.5788E-03,            0.,NA,NA,"",       1.01430,   988.000E-03,  -229.470E-03,   6.88733E-03
C:/temp/dataset/7/23_5.odb,Step-1,Increment      1: Step Time =    1.000,"PART-1-1",           463,           15.,          1.25,            0.,NA,NA,"",       1.10613,       1.06353,  -304.009E-03,   8.94633E-03
C:/temp/dataset/7/23_5.odb,Step-1,Increment      1: Step Time =    1.000,"PART-1-1",           464,       14.0261,       2.56291,            0.,NA,NA,"",       1.17668,       1.14965,  -250.778E-03,   6.81695E-03
C:/temp/dataset/7/23_5.odb,Step-1,Increment      1: Step Time =    1.000,"PART-1-1",           465,            5.,      -10.2083,            0.,NA,NA,"",   517.814E-03,   459.700E-03,   238.341E-03,   13.0517E-03
C:/temp/dataset/7/23_5.odb,Step-1,Increment      1: Step Time =    1.000,"PART-1-1",           466,       6.86187,      -9.97015,            0.,NA,NA,"",   486.406E-03,   459.309E-03,   160.081E-03,   8.84318E-03
C:/temp/dataset/7/23_5.odb,Step-1,Increment      1: Step Time =    1.000,"PART-1-1",           467,            5.,      -24.7917,            0.,NA,NA,"",   81.1874E-03,   46.9350E-03,   66.2457E-03,   14.0320E-03
C:/temp/dataset/7/23_5.odb,Step-1,Increment      1: Step Time =    1.000,"PART-1-1",           468,       6.13477,      -25.7685,            0.,NA,NA,"",   51.7791E-03,   29.4542E-03,   42.5855E-03,   11.4660E-03
C:/temp/dataset/7/23_5.odb,Step-1,Increment      1: Step Time =    1.000,"PART-1-1",           469,       13.1299,      -20.9468,            0.,NA,NA,"",   106.806E-03,   94.2483E-03,  -50.2480E-03,   5.93585E-03
C:/temp/dataset/7/23_5.odb,Step-1,Increment      1: Step Time =    1.000,"PART-1-1",           470,       14.0295,      -22.3095,            0.,NA,NA,"",   91.8076E-03,   70.9001E-03,  -58.3251E-03,   8.29052E-03
C:/temp/dataset/7/23_5.odb,Step-1,Increment      1: Step Time =    1.000,"PART-1-1",           471,           15.,        -21.25,            0.,NA,NA,"",   127.705E-03,   94.6549E-03,  -85.7261E-03,   10.5829E-03
C:/temp/dataset/7/23_5.odb,Step-1,Increment      1: Step Time =    1.000,"PART-1-1",           472,       14.1003,      -19.8873,            0.,NA,NA,"",   143.352E-03,   120.131E-03,  -78.2203E-03,   8.23556E-03
C:/temp/dataset/7/23_5.odb,Step-1,Increment      1: Step Time =    1.000,"PART-1-1",           473,            5.,       -26.875,            0.,NA,NA,"",   47.9857E-03,   25.8684E-03,   40.4161E-03,   14.1868E-03
C:/temp/dataset/7/23_5.odb,Step-1,Increment      1: Step Time =    1.000,"PART-1-1",           474,       7.35824,      -26.7740,            0.,NA,NA,"",   26.9678E-03,   14.5358E-03,   22.7151E-03,   8.60405E-03
C:/temp/dataset/7/23_5.odb,Step-1,Increment      1: Step Time =    1.000,"PART-1-1",           475,       11.2665,      -23.4125,            0.,NA,NA,"",   48.0680E-03,   47.2016E-03,  -9.08536E-03,   1.49807E-03
C:/temp/dataset/7/23_5.odb,Step-1,Increment      1: Step Time =    1.000,"PART-1-1",           476,       10.8283,      -24.9299,            0.,NA,NA,"",   26.4912E-03,   26.4042E-03,  -2.14536E-03,   655.036E-06
C:/temp/dataset/7/23_5.odb,Step-1,Increment      1: Step Time =    1.000,"PART-1-1",           477,            5.,      -16.4583,            0.,NA,NA,"",   282.215E-03,   226.725E-03,   168.050E-03,   13.5400E-03
C:/temp/dataset/7/23_5.odb,Step-1,Increment      1: Step Time =    1.000,"PART-1-1",           478,       7.29529,      -16.4772,            0.,NA,NA,"",   235.805E-03,   213.970E-03,   99.0985E-03,   8.14894E-03
C:/temp/dataset/7/23_5.odb,Step-1,Increment      1: Step Time =    1.000,"PART-1-1",           479,            5.,       18.9583,            0.,NA,NA,"",       2.60335,       2.55784,   484.648E-03,   16.3091E-03
C:/temp/dataset/7/23_5.odb,Step-1,Increment      1: Step Time =    1.000,"PART-1-1",           480,       6.05050,       17.7875,            0.,NA,NA,"",       2.46436,       2.43565,   375.063E-03,   10.0680E-03
C:/temp/dataset/7/23_5.odb,Step-1,Increment      1: Step Time =    1.000,"PART-1-1",           481,       7.11573,       18.6629,            0.,NA,NA,"",       2.52645,       2.51167,   272.879E-03,   5.30134E-03
C:/temp/dataset/7/23_5.odb,Step-1,Increment      1: Step Time =    1.000,"PART-1-1",           482,       6.06524,       19.8338,            0.,NA,NA,"",       2.65953,       2.63224,   380.026E-03,   9.37688E-03
C:/temp/dataset/7/23_5.odb,Step-1,Increment      1: Step Time =    1.000,"PART-1-1",           483,       6.98524,       16.7251,            0.,NA,NA,"",       2.34497,       2.32798,   281.771E-03,   7.74909E-03
C:/temp/dataset/7/23_5.odb,Step-1,Increment      1: Step Time =    1.000,"PART-1-1",           484,            5.,        16.875,            0.,NA,NA,"",       2.40566,       2.35973,   467.844E-03,   12.1732E-03
C:/temp/dataset/7/23_5.odb,Step-1,Increment      1: Step Time =    1.000,"PART-1-1",           485,       7.88091,       13.8682,            0.,NA,NA,"",       2.06836,       2.05922,   194.238E-03,   6.03627E-03
C:/temp/dataset/7/23_5.odb,Step-1,Increment      1: Step Time =    1.000,"PART-1-1",           486,       7.65947,       15.6945,            0.,NA,NA,"",       2.23752,       2.22698,   216.869E-03,   6.40459E-03
C:/temp/dataset/7/23_5.odb,Step-1,Increment      1: Step Time =    1.000,"PART-1-1",           487,       8.92157,       12.9075,            0.,NA,NA,"",       1.97036,       1.96771,   102.142E-03,   3.94958E-03
C:/temp/dataset/7/23_5.odb,Step-1,Increment      1: Step Time =    1.000,"PART-1-1",           488,       9.98918,       11.9956,            0.,NA,NA,"",       1.88317,       1.88314,   11.0541E-03,   1.79140E-03
C:/temp/dataset/7/23_5.odb,Step-1,Increment      1: Step Time =    1.000,"PART-1-1",           489,       10.7968,       13.3004,            0.,NA,NA,"",       1.99441,       1.99342,  -62.9172E-03,   157.073E-06
C:/temp/dataset/7/23_5.odb,Step-1,Increment      1: Step Time =    1.000,"PART-1-1",           490,       13.0565,       8.69239,            0.,NA,NA,"",       1.61735,       1.60133,  -227.096E-03,   4.61123E-03
C:/temp/dataset/7/23_5.odb,Step-1,Increment      1: Step Time =    1.000,"PART-1-1",           491,           15.,          8.75,            0.,NA,NA,"",       1.65055,       1.60549,  -383.044E-03,   8.66573E-03
C:/temp/dataset/7/23_5.odb,Step-1,Increment      1: Step Time =    1.000,"PART-1-1",           492,       14.0220,       9.95215,            0.,NA,NA,"",       1.73104,       1.70199,  -315.791E-03,   6.60089E-03
C:/temp/dataset/7/23_5.odb,Step-1,Increment      1: Step Time =    1.000,"PART-1-1",           493,       8.15713,      -6.43409,            0.,NA,NA,"",   633.417E-03,   622.207E-03,   118.641E-03,   5.83713E-03
C:/temp/dataset/7/23_5.odb,Step-1,Increment      1: Step Time =    1.000,"PART-1-1",           494,       7.55707,      -5.50995,            0.,NA,NA,"",   690.210E-03,   672.911E-03,   153.560E-03,   7.13453E-03
C:/temp/dataset/7/23_5.odb,Step-1,Increment      1: Step Time =    1.000,"PART-1-1",           495,       13.0039,      -1.03047,            0.,NA,NA,"",   930.786E-03,   917.238E-03,  -158.232E-03,   4.75487E-03
C:/temp/dataset/7/23_5.odb,Step-1,Increment      1: Step Time =    1.000,"PART-1-1",           496,       13.9897,      -2.37705,            0.,NA,NA,"",   862.927E-03,   837.484E-03,  -207.997E-03,   6.93982E-03
C:/temp/dataset/7/23_5.odb,Step-1,Increment      1: Step Time =    1.000,"PART-1-1",           497,           15.,         -1.25,            0.,NA,NA,"",   948.258E-03,   906.349E-03,  -278.789E-03,   9.07308E-03
C:/temp/dataset/7/23_5.odb,Step-1,Increment      1: Step Time =    1.000,"PART-1-1",           498,       11.0188,      -11.3444,            0.,NA,NA,"",   389.677E-03,   389.259E-03,  -18.0388E-03,   673.209E-06
C:/temp/dataset/7/23_5.odb,Step-1,Increment      1: Step Time =    1.000,"PART-1-1",           499,       9.94563,      -10.3262,            0.,NA,NA,"",   434.209E-03,   433.413E-03,   26.2747E-03,   1.89131E-03
C:/temp/dataset/7/23_5.odb,Step-1,Increment      1: Step Time =    1.000,"PART-1-1",           500,       9.07908,      -11.6768,            0.,NA,NA,"",   383.445E-03,   378.770E-03,   59.6897E-03,   3.86294E-03
C:/temp/dataset/7/23_5.odb,Step-1,Increment      1: Step Time =    1.000,"PART-1-1",           501,       10.1523,      -12.6950,            0.,NA,NA,"",   336.932E-03,   336.529E-03,   16.4740E-03,   1.42955E-03
C:/temp/dataset/7/23_5.odb,Step-1,Increment      1: Step Time =    1.000,"PART-1-1",           502,       11.2699,       24.2837,            0.,NA,NA,"",       3.08254,       3.07788,  -169.467E-03,   3.38626E-03
C:/temp/dataset/7/23_5.odb,Step-1,Increment      1: Step Time =    1.000,"PART-1-1",           503,       12.1787,       22.9892,            0.,NA,NA,"",       2.94610,       2.93516,  -253.671E-03,   3.42702E-03
C:/temp/dataset/7/23_5.odb,Step-1,Increment      1: Step Time =    1.000,"PART-1-1",           504,           15.,         -3.75,            0.,NA,NA,"",   802.400E-03,   761.138E-03,  -253.999E-03,   9.21300E-03
C:/temp/dataset/7/23_5.odb,Step-1,Increment      1: Step Time =    1.000,"PART-1-1",           505,       12.9359,      -3.49956,            0.,NA,NA,"",   784.498E-03,   772.002E-03,  -139.463E-03,   4.68796E-03
C:/temp/dataset/7/23_5.odb,Step-1,Increment      1: Step Time =    1.000,"PART-1-1",           506,           15.,        -11.25,            0.,NA,NA,"",   438.281E-03,   398.965E-03,  -181.433E-03,   9.70734E-03
C:/temp/dataset/7/23_5.odb,Step-1,Increment      1: Step Time =    1.000,"PART-1-1",           507,       12.9838,      -11.1958,            0.,NA,NA,"",   408.303E-03,   396.179E-03,  -98.7593E-03,   5.09475E-03
C:/temp/dataset/7/23_5.odb,Step-1,Increment      1: Step Time =    1.000,"PART-1-1",           508,           15.,         11.25,            0.,NA,NA,"",       1.85533,       1.80927,  -410.840E-03,   8.62576E-03
C:/temp/dataset/7/23_5.odb,Step-1,Increment      1: Step Time =    1.000,"PART-1-1",           509,       12.9950,       11.1325,            0.,NA,NA,"",       1.81663,       1.80068,  -240.152E-03,   4.43571E-03
C:/temp/dataset/7/23_5.odb,Step-1,Increment      1: Step Time =    1.000,"PART-1-1",           510,           15.,          3.75,            0.,NA,NA,"",       1.27588,       1.23253,  -329.736E-03,   8.83268E-03
C:/temp/dataset/7/23_5.odb,Step-1,Increment      1: Step Time =    1.000,"PART-1-1",           511,       13.0643,       3.84158,            0.,NA,NA,"",       1.25293,       1.23788,  -193.617E-03,   4.74189E-03
C:/temp/dataset/7/23_5.odb,Step-1,Increment      1: Step Time =    1.000,"PART-1-1",           512,           15.,        -18.75,            0.,NA,NA,"",   186.684E-03,   150.959E-03,  -109.829E-03,   10.3236E-03
C:/temp/dataset/7/23_5.odb,Step-1,Increment      1: Step Time =    1.000,"PART-1-1",           513,       13.1842,      -18.5870,            0.,NA,NA,"",   162.494E-03,   149.057E-03,  -64.7018E-03,   5.93676E-03
C:/temp/dataset/7/23_5.odb,Step-1,Increment      1: Step Time =    1.000,"PART-1-1",           514,       13.5513,      -24.7801,            0.,NA,NA,"",   47.0516E-03,   32.7379E-03,  -33.7947E-03,   7.27564E-03
C:/temp/dataset/7/23_5.odb,Step-1,Increment      1: Step Time =    1.000,"PART-1-1",           515,       12.2413,      -25.9996,            0.,NA,NA,"",   21.5449E-03,   16.4082E-03,  -13.9626E-03,   4.08085E-03
C:/temp/dataset/7/23_5.odb,Step-1,Increment      1: Step Time =    1.000,"PART-1-1",           516,           15.,        -26.25,            0.,NA,NA,"",   43.5955E-03,   23.5389E-03,  -36.6945E-03,   11.0587E-03
C:/temp/dataset/7/23_5.odb,Step-1,Increment      1: Step Time =    1.000,"PART-1-1",           517,           15.,        -23.75,            0.,NA,NA,"",   80.4214E-03,   52.0542E-03,  -61.3022E-03,   10.7984E-03
C:/temp/dataset/7/23_5.odb,Step-1,Increment      1: Step Time =    1.000,"PART-1-1",           518,       12.5809,      -23.3397,            0.,NA,NA,"",   57.6252E-03,   49.9832E-03,  -28.6765E-03,   4.76908E-03
C:/temp/dataset/7/23_5.odb,Step-1,Increment      1: Step Time =    1.000,"PART-1-1",           519,       9.49127,      -18.7202,            0.,NA,NA,"",   147.313E-03,   144.514E-03,   28.5807E-03,   3.00983E-03
C:/temp/dataset/7/23_5.odb,Step-1,Increment      1: Step Time =    1.000,"PART-1-1",           520,       8.36047,      -17.5836,            0.,NA,NA,"",   188.296E-03,   177.724E-03,   62.2083E-03,   5.66859E-03
C:/temp/dataset/7/23_5.odb,Step-1,Increment      1: Step Time =    1.000,"PART-1-1",           521,       11.5260,      -20.5498,            0.,NA,NA,"",   101.859E-03,   100.154E-03,  -18.5598E-03,   2.00986E-03
C:/temp/dataset/7/23_5.odb,Step-1,Increment      1: Step Time =    1.000,"PART-1-1",           522,       10.5221,      -19.7870,            0.,NA,NA,"",   117.281E-03,   117.250E-03,   2.69442E-03,   649.949E-06
C:/temp/dataset/7/23_5.odb,Step-1,Increment      1: Step Time =    1.000,"PART-1-1",           523,       11.0260,      -21.8608,            0.,NA,NA,"",   73.9007E-03,   73.5833E-03,  -6.84253E-03,   872.264E-06
C:/temp/dataset/7/23_5.odb,Step-1,Increment      1: Step Time =    1.000,"PART-1-1",           524,       7.98010,      -10.7619,            0.,NA,NA,"",   433.809E-03,   420.182E-03,   107.877E-03,   6.34534E-03
C:/temp/dataset/7/23_5.odb,Step-1,Increment      1: Step Time =    1.000,"PART-1-1",           525,       8.65118,      -4.78401,            0.,NA,NA,"",   714.264E-03,   707.450E-03,   98.4236E-03,   4.71751E-03
C:/temp/dataset/7/23_5.odb,Step-1,Increment      1: Step Time =    1.000,"PART-1-1",           526,       7.84665,      -3.50518,            0.,NA,NA,"",   795.620E-03,   781.914E-03,   147.043E-03,   6.43462E-03
C:/temp/dataset/7/23_5.odb,Step-1,Increment      1: Step Time =    1.000,"PART-1-1",           527,       9.43586,      -6.49799,            0.,NA,NA,"",   617.125E-03,   614.751E-03,   54.0721E-03,   2.99164E-03
C:/temp/dataset/7/23_5.odb,Step-1,Increment      1: Step Time =    1.000,"PART-1-1",           528,       10.6293,      -5.79077,            0.,NA,NA,"",   648.757E-03,   648.722E-03,  -6.70676E-03,   443.656E-06
C:/temp/dataset/7/23_5.odb,Step-1,Increment      1: Step Time =    1.000,"PART-1-1",           529,       11.1144,       3.95682,            0.,NA,NA,"",       1.24987,       1.24860,  -56.3707E-03,   642.681E-06
C:/temp/dataset/7/23_5.odb,Step-1,Increment      1: Step Time =    1.000,"PART-1-1",           530,       10.1270,       5.17226,            0.,NA,NA,"",       1.33907,       1.33902,   11.8209E-03,   1.48261E-03
C:/temp/dataset/7/23_5.odb,Step-1,Increment      1: Step Time =    1.000,"PART-1-1",           531,       9.05317,       10.7826,            0.,NA,NA,"",       1.78700,       1.78466,   91.4345E-03,   3.71854E-03
C:/temp/dataset/7/23_5.odb,Step-1,Increment      1: Step Time =    1.000,"PART-1-1",           532,       8.01195,       11.8024,            0.,NA,NA,"",       1.88575,       1.87717,   179.725E-03,   5.83391E-03
C:/temp/dataset/7/23_5.odb,Step-1,Increment      1: Step Time =    1.000,"PART-1-1",           533,       11.0241,       10.9595,            0.,NA,NA,"",       1.79257,       1.79106,  -73.4969E-03,   369.430E-06
C:/temp/dataset/7/23_5.odb,Step-1,Increment      1: Step Time =    1.000,"PART-1-1",           534,       8.35051,       17.3209,            0.,NA,NA,"",       2.38037,       2.37547,   152.571E-03,   4.61027E-03
C:/temp/dataset/7/23_5.odb,Step-1,Increment      1: Step Time =    1.000,"PART-1-1",           535,       12.5952,       19.1415,            0.,NA,NA,"",       2.54995,       2.53604,  -265.963E-03,   3.57024E-03
C:/temp/dataset/7/23_5.odb,Step-1,Increment      1: Step Time =    1.000,"PART-1-1",           536,           15.,         18.75,            0.,NA,NA,"",       2.54106,       2.49157,  -499.067E-03,   7.52717E-03
C:/temp/dataset/7/23_5.odb,Step-1,Increment      1: Step Time =    1.000,"PART-1-1",           537,      -7.03326,       22.4462,            0.,NA,NA,"",       3.52016,       2.98942,       1.85874,   159.528E-06
C:/temp/dataset/7/23_5.odb,Step-1,Increment      1: Step Time =    1.000,"PART-1-1",           538,      -8.48458,       21.3302,            0.,NA,NA,"",       3.51729,       2.87437,       2.02715,   88.0801E-06
C:/temp/dataset/7/23_5.odb,Step-1,Increment      1: Step Time =    1.000,"PART-1-1",           539,      -6.65000,           20.,            0.,NA,NA,"",       3.27517,       2.71530,       1.83136,   188.787E-06
C:/temp/dataset/7/23_5.odb,Step-1,Increment      1: Step Time =    1.000,"PART-1-1",           540,      -5.19869,       21.1160,            0.,NA,NA,"",       3.28304,       2.83056,       1.66321,   460.915E-06
C:/temp/dataset/7/23_5.odb,Step-1,Increment      1: Step Time =    1.000,"PART-1-1",           541,       9.42603,       26.6587,            0.,NA,NA,"",       3.34548,       3.34548,   8.02973E-03,   2.84166E-03
C:/temp/dataset/7/23_5.odb,Step-1,Increment      1: Step Time =    1.000,"PART-1-1",           542,       10.3720,       25.4897,            0.,NA,NA,"",       3.21407,       3.21297,  -84.0943E-03,   3.13496E-03
C:/temp/dataset/7/23_5.odb,Step-1,Increment      1: Step Time =    1.000,"PART-1-1",           543,       6.87457,       25.7626,            0.,NA,NA,"",       3.27860,       3.26651,   281.254E-03,   2.53359E-03
C:/temp/dataset/7/23_5.odb,Step-1,Increment      1: Step Time =    1.000,"PART-1-1",           544,       7.54675,       26.7337,            0.,NA,NA,"",       3.37324,       3.36698,   205.442E-03,   2.57667E-03
C:/temp/dataset/7/23_5.odb,Step-1,Increment      1: Step Time =    1.000,"PART-1-1",           545,      -3.17643,       25.4018,            0.,NA,NA,"",       3.58376,       3.29445,       1.41065,   660.400E-06
C:/temp/dataset/7/23_5.odb,Step-1,Increment      1: Step Time =    1.000,"PART-1-1",           546,      -4.35024,       25.6599,            0.,NA,NA,"",       3.66912,       3.33029,       1.54000,   316.041E-06
C:/temp/dataset/7/23_5.odb,Step-1,Increment      1: Step Time =    1.000,"PART-1-1",           547,       4.01884,       22.4610,            0.,NA,NA,"",       2.99267,       2.93044,   607.146E-03,   5.56073E-03
C:/temp/dataset/7/23_5.odb,Step-1,Increment      1: Step Time =    1.000,"PART-1-1",           548,       5.32127,       23.1739,            0.,NA,NA,"",       3.03225,       2.99741,   458.348E-03,   4.60608E-03
C:/temp/dataset/7/23_5.odb,Step-1,Increment      1: Step Time =    1.000,"PART-1-1",           549,       11.1447,       22.1526,            0.,NA,NA,"",       2.85473,       2.85113,  -143.358E-03,   3.37828E-03
C:/temp/dataset/7/23_5.odb,Step-1,Increment      1: Step Time =    1.000,"PART-1-1",           550,       10.2813,       23.3249,            0.,NA,NA,"",       2.98076,       2.98009,  -62.9160E-03,   3.50545E-03
C:/temp/dataset/7/23_5.odb,Step-1,Increment      1: Step Time =    1.000,"PART-1-1",           551,       6.15508,       21.9496,            0.,NA,NA,"",       2.88132,       2.85758,   369.111E-03,   5.36340E-03
C:/temp/dataset/7/23_5.odb,Step-1,Increment      1: Step Time =    1.000,"PART-1-1",           552,       6.48612,       23.9825,            0.,NA,NA,"",       3.09365,       3.07610,   329.075E-03,   3.32097E-03
C:/temp/dataset/7/23_5.odb,Step-1,Increment      1: Step Time =    1.000,"PART-1-1",           553,   6.30745E-03,       24.2683,            0.,NA,NA,"",       3.32524,       3.15151,       1.06076,   2.86383E-03
C:/temp/dataset/7/23_5.odb,Step-1,Increment      1: Step Time =    1.000,"PART-1-1",           554,      -1.65981,       23.6471,            0.,NA,NA,"",       3.33562,       3.09103,       1.25374,   1.69566E-03
C:/temp/dataset/7/23_5.odb,Step-1,Increment      1: Step Time =    1.000,"PART-1-1",           555,      -1.07768,       22.4355,            0.,NA,NA,"",       3.18736,       2.95348,       1.19842,   3.71346E-03
C:/temp/dataset/7/23_5.odb,Step-1,Increment      1: Step Time =    1.000,"PART-1-1",           556,   588.432E-03,       23.0567,            0.,NA,NA,"",       3.17762,       3.01472,       1.00435,   4.73835E-03
C:/temp/dataset/7/23_5.odb,Step-1,Increment      1: Step Time =    1.000,"PART-1-1",           557,      -4.82218,       24.5397,            0.,NA,NA,"",       3.58522,       3.20848,       1.59983,   241.578E-06
C:/temp/dataset/7/23_5.odb,Step-1,Increment      1: Step Time =    1.000,"PART-1-1",           558,      -3.09511,       23.7242,            0.,NA,NA,"",       3.41367,       3.10740,       1.41324,   986.030E-06
C:/temp/dataset/7/23_5.odb,Step-1,Increment      1: Step Time =    1.000,"PART-1-1",           559,      -5.58708,       23.2486,            0.,NA,NA,"",       3.50544,       3.06955,       1.69292,   149.367E-06
C:/temp/dataset/7/23_5.odb,Step-1,Increment      1: Step Time =    1.000,"PART-1-1",           560,       8.76337,      -9.49006,            0.,NA,NA,"",   479.721E-03,   473.135E-03,   79.2162E-03,   4.54429E-03
C:/temp/dataset/7/23_5.odb,Step-1,Increment      1: Step Time =    1.000,"PART-1-1",           561,       9.72759,      -26.4759,            0.,NA,NA,"",   13.1446E-03,   11.2910E-03,   6.73005E-03,   2.54455E-03
C:/temp/dataset/7/23_5.odb,Step-1,Increment      1: Step Time =    1.000,"PART-1-1",           562,       9.12173,       6.33780,            0.,NA,NA,"",       1.43232,       1.42976,   85.5815E-03,   3.58346E-03
C:/temp/dataset/7/23_5.odb,Step-1,Increment      1: Step Time =    1.000,"PART-1-1",           563,       11.1214,       6.29882,            0.,NA,NA,"",       1.42123,       1.41977,  -64.4380E-03,   624.864E-06
C:/temp/dataset/7/23_5.odb,Step-1,Increment      1: Step Time =    1.000,"PART-1-1",           564,       11.1740,      -13.7880,            0.,NA,NA,"",   295.812E-03,   295.108E-03,  -20.3921E-03,   1.04607E-03
C:/temp/dataset/7/23_5.odb,Step-1,Increment      1: Step Time =    1.000,"PART-1-1",           565,       10.6612,      -8.65022,            0.,NA,NA,"",   507.550E-03,   507.519E-03,  -5.53729E-03,   390.839E-06
C:/temp/dataset/7/23_5.odb,Step-1,Increment      1: Step Time =    1.000,"PART-1-1",           566,       9.47894,      -7.81405,            0.,NA,NA,"",   551.627E-03,   549.347E-03,   50.0997E-03,   2.91857E-03
C:/temp/dataset/7/23_5.odb,Step-1,Increment      1: Step Time =    1.000,"PART-1-1",           567,       11.3640,      -18.5194,            0.,NA,NA,"",   149.559E-03,   148.405E-03,  -18.5453E-03,   1.57435E-03
C:/temp/dataset/7/23_5.odb,Step-1,Increment      1: Step Time =    1.000,"PART-1-1",           568,       12.0025,       20.7886,            0.,NA,NA,"",       2.71419,       2.70526,  -219.991E-03,   3.38838E-03
C:/temp/dataset/7/23_5.odb,Step-1,Increment      1: Step Time =    1.000,"PART-1-1",           569,       11.4947,       18.6594,            0.,NA,NA,"",       2.49656,       2.49172,  -155.253E-03,   2.45547E-03
C:/temp/dataset/7/23_5.odb,Step-1,Increment      1: Step Time =    1.000,"PART-1-1",           570,       9.39315,       18.1618,            0.,NA,NA,"",       2.45172,       2.45121,   50.4121E-03,   1.93064E-03
C:/temp/dataset/7/23_5.odb,Step-1,Increment      1: Step Time =    1.000,"PART-1-1",           571,       10.9214,       17.4088,            0.,NA,NA,"",       2.37348,       2.37166,  -92.7412E-03,   1.08057E-03
C:/temp/dataset/7/23_5.odb,Step-1,Increment      1: Step Time =    1.000,"PART-1-1",           572,      -9.97500,           20.,            0.,NA,NA,"",       3.51131,       2.73561,       2.20131,   79.4802E-06
C:/temp/dataset/7/23_5.odb,Step-1,Increment      1: Step Time =    1.000,"PART-1-1",           573,       11.9818,      -2.09472,            0.,NA,NA,"",   858.195E-03,   853.334E-03,  -91.2127E-03,   2.57593E-03
C:/temp/dataset/7/23_5.odb,Step-1,Increment      1: Step Time =    1.000,"PART-1-1",           574,       12.0426,   313.093E-03,            0.,NA,NA,"",       1.00707,       1.00156,  -105.172E-03,   2.65426E-03
C:/temp/dataset/7/23_5.odb,Step-1,Increment      1: Step Time =    1.000,"PART-1-1",           575,       12.1686,      -14.9632,            0.,NA,NA,"",   259.820E-03,   254.656E-03,  -51.5448E-03,   3.35772E-03
C:/temp/dataset/7/23_5.odb,Step-1,Increment      1: Step Time =    1.000,"PART-1-1",           576,       12.0880,      -12.5178,            0.,NA,NA,"",   347.369E-03,   342.608E-03,  -57.3138E-03,   3.08926E-03
C:/temp/dataset/7/23_5.odb,Step-1,Increment      1: Step Time =    1.000,"PART-1-1",           577,       12.0767,       2.70437,            0.,NA,NA,"",       1.16574,       1.15971,  -118.399E-03,   2.67852E-03
C:/temp/dataset/7/23_5.odb,Step-1,Increment      1: Step Time =    1.000,"PART-1-1",           578,       11.6617,       14.7036,            0.,NA,NA,"",       2.12106,       2.11596,  -146.895E-03,   1.70299E-03
C:/temp/dataset/7/23_5.odb,Step-1,Increment      1: Step Time =    1.000,"PART-1-1",           579,       11.9561,       12.2406,            0.,NA,NA,"",       1.90379,       1.89715,  -158.888E-03,   2.26403E-03
C:/temp/dataset/7/23_5.odb,Step-1,Increment      1: Step Time =    1.000,"PART-1-1",           580,       12.3155,      -19.7087,            0.,NA,NA,"",   125.873E-03,   119.886E-03,  -38.3585E-03,   3.90003E-03
C:/temp/dataset/7/23_5.odb,Step-1,Increment      1: Step Time =    1.000,"PART-1-1",           581,       12.3404,      -21.7879,            0.,NA,NA,"",   82.1662E-03,   76.0815E-03,  -31.0304E-03,   4.02236E-03
C:/temp/dataset/7/23_5.odb,Step-1,Increment      1: Step Time =    1.000,"PART-1-1",           582,       12.2327,      -17.3977,            0.,NA,NA,"",   185.016E-03,   179.521E-03,  -44.7549E-03,   3.59627E-03
C:/temp/dataset/7/23_5.odb,Step-1,Increment      1: Step Time =    1.000,"PART-1-1",           583,       12.1020,       5.09402,            0.,NA,NA,"",       1.33505,       1.32852,  -131.921E-03,   2.68571E-03
C:/temp/dataset/7/23_5.odb,Step-1,Increment      1: Step Time =    1.000,"PART-1-1",           584,       12.0630,       9.85139,            0.,NA,NA,"",       1.70337,       1.69637,  -154.295E-03,   2.51758E-03
C:/temp/dataset/7/23_5.odb,Step-1,Increment      1: Step Time =    1.000,"PART-1-1",           585,       12.0921,       7.47372,            0.,NA,NA,"",       1.51408,       1.50726,  -143.581E-03,   2.62066E-03
C:/temp/dataset/7/23_5.odb,Step-1,Increment      1: Step Time =    1.000,"PART-1-1",           586,       11.9146,      -10.0225,            0.,NA,NA,"",   448.890E-03,   445.032E-03,  -58.7203E-03,   2.62226E-03
C:/temp/dataset/7/23_5.odb,Step-1,Increment      1: Step Time =    1.000,"PART-1-1",           587,       11.5993,      -7.26023,            0.,NA,NA,"",   575.684E-03,   573.270E-03,  -52.6632E-03,   1.84736E-03
C:/temp/dataset/7/23_5.odb,Step-1,Increment      1: Step Time =    1.000,"PART-1-1",           588,       11.8707,      -4.56496,            0.,NA,NA,"",   716.864E-03,   712.887E-03,  -75.4139E-03,   2.39213E-03
C:/temp/dataset/7/23_5.odb,Step-1,Increment      1: Step Time =    1.000,"PART-1-1",           589,      -3.86001,       22.4330,            0.,NA,NA,"",       3.32883,       2.96826,       1.50683,   627.452E-06
C:/temp/dataset/7/23_5.odb,Step-1,Increment      1: Step Time =    1.000,"PART-1-1",           590,       3.35000,           20.,            0.,NA,NA,"",       2.74874,       2.65752,   702.251E-03,   6.87756E-03
C:/temp/dataset/7/23_5.odb,Step-1,Increment      1: Step Time =    1.000,"PART-1-1",           591,       5.05511,       21.0689,            0.,NA,NA,"",       2.81358,       2.77063,   489.788E-03,   8.31765E-03
C:/temp/dataset/7/23_5.odb,Step-1,Increment      1: Step Time =    1.000,"PART-1-1",           592,       2.31373,       21.3921,            0.,NA,NA,"",       2.93772,       2.82229,   815.382E-03,   3.97624E-03
C:/temp/dataset/7/23_5.odb,Step-1,Increment      1: Step Time =    1.000,"PART-1-1",           593,      -1.98632,       21.3170,            0.,NA,NA,"",       3.12057,       2.83300,       1.30846,   2.41751E-03
C:/temp/dataset/7/23_5.odb,Step-1,Increment      1: Step Time =    1.000,"PART-1-1",           594,   25.0000E-03,           20.,            0.,NA,NA,"",       2.89282,       2.67582,       1.09927,   3.80190E-03
C:/temp/dataset/7/23_5.odb,Step-1,Increment      1: Step Time =    1.000,"PART-1-1",           595,   933.640E-03,       21.1186,            0.,NA,NA,"",       2.96566,       2.79822,   982.414E-03,   5.04060E-03
C:/temp/dataset/7/23_5.odb,Step-1,Increment      1: Step Time =    1.000,"PART-1-1",           596,       7.16521,       20.7144,            0.,NA,NA,"",       2.73170,       2.71879,   265.202E-03,   4.68383E-03
C:/temp/dataset/7/23_5.odb,Step-1,Increment      1: Step Time =    1.000,"PART-1-1",           597,       8.15837,       19.5039,            0.,NA,NA,"",       2.59561,       2.59019,   167.583E-03,   3.21558E-03
C:/temp/dataset/7/23_5.odb,Step-1,Increment      1: Step Time =    1.000,"PART-1-1",           598,      -3.32500,           20.,            0.,NA,NA,"",       3.06738,       2.69626,       1.46253,   612.216E-06
