ODB Name,Step,Frame,Part Instance Name,    êﬂì_ÉâÉxÉã,X,Y,Z,Section Name,Material Name,Section Point,   U-Magnitude,          U-U1,          U-U2,       S-Mises
C:/temp/dataset/7/25_5.odb,Step-1,Increment      1: Step Time =    1.000,"PART-1-1",             1,          -15.,           20.,            0.,NA,NA,"",       16.0992,       14.4736,       7.04983,   61.7514E-09
C:/temp/dataset/7/25_5.odb,Step-1,Increment      1: Step Time =    1.000,"PART-1-1",             2,          -15.,           25.,            0.,NA,NA,"",       17.6028,       16.2715,       6.71538,   234.605E-09
C:/temp/dataset/7/25_5.odb,Step-1,Increment      1: Step Time =    1.000,"PART-1-1",             3,      -11.6500,           20.,            0.,NA,NA,"",       15.4018,       14.2495,       5.84520,   302.646E-09
C:/temp/dataset/7/25_5.odb,Step-1,Increment      1: Step Time =    1.000,"PART-1-1",             4,      -8.30000,           20.,            0.,NA,NA,"",       14.7732,       14.0254,       4.64058,   1.35639E-06
C:/temp/dataset/7/25_5.odb,Step-1,Increment      1: Step Time =    1.000,"PART-1-1",             5,           -5.,           20.,            0.,NA,NA,"",       14.2302,       13.8047,       3.45393,   6.08176E-06
C:/temp/dataset/7/25_5.odb,Step-1,Increment      1: Step Time =    1.000,"PART-1-1",             6,      -1.65000,           20.,            0.,NA,NA,"",       13.7656,       13.5806,       2.24928,   6.90636E-06
C:/temp/dataset/7/25_5.odb,Step-1,Increment      1: Step Time =    1.000,"PART-1-1",             7,       1.70000,           20.,            0.,NA,NA,"",       13.3971,       13.3563,       1.04447,   251.979E-06
C:/temp/dataset/7/25_5.odb,Step-1,Increment      1: Step Time =    1.000,"PART-1-1",             8,            5.,           20.,            0.,NA,NA,"",       13.1385,       13.1377,  -143.255E-03,   2.47880E-03
C:/temp/dataset/7/25_5.odb,Step-1,Increment      1: Step Time =    1.000,"PART-1-1",             9,            5.,         13.75,            0.,NA,NA,"",       10.8693,       10.8659,   271.583E-03,   7.09201E-03
C:/temp/dataset/7/25_5.odb,Step-1,Increment      1: Step Time =    1.000,"PART-1-1",            10,            5.,           7.5,            0.,NA,NA,"",       8.60941,       8.58657,   626.601E-03,   17.8535E-03
C:/temp/dataset/7/25_5.odb,Step-1,Increment      1: Step Time =    1.000,"PART-1-1",            11,            5.,          1.25,            0.,NA,NA,"",       6.47132,       6.41175,   876.005E-03,   29.5389E-03
C:/temp/dataset/7/25_5.odb,Step-1,Increment      1: Step Time =    1.000,"PART-1-1",            12,            5.,           -5.,            0.,NA,NA,"",       4.52659,       4.41609,   994.058E-03,   41.4013E-03
C:/temp/dataset/7/25_5.odb,Step-1,Increment      1: Step Time =    1.000,"PART-1-1",            13,            5.,        -11.25,            0.,NA,NA,"",       2.85568,       2.68861,   962.449E-03,   53.1919E-03
C:/temp/dataset/7/25_5.odb,Step-1,Increment      1: Step Time =    1.000,"PART-1-1",            14,            5.,         -17.5,            0.,NA,NA,"",       1.53373,       1.32370,   774.680E-03,   65.0752E-03
C:/temp/dataset/7/25_5.odb,Step-1,Increment      1: Step Time =    1.000,"PART-1-1",            15,            5.,        -23.75,            0.,NA,NA,"",   609.121E-03,   420.208E-03,   440.969E-03,   76.4147E-03
C:/temp/dataset/7/25_5.odb,Step-1,Increment      1: Step Time =    1.000,"PART-1-1",            16,            5.,          -30.,            0.,NA,NA,"",            0.,   27.2161E-39,   51.2931E-39,   99.9089E-03
C:/temp/dataset/7/25_5.odb,Step-1,Increment      1: Step Time =    1.000,"PART-1-1",            17,           15.,          -30.,            0.,NA,NA,"",            0.,   25.5501E-39,  -47.5576E-39,   93.5702E-03
C:/temp/dataset/7/25_5.odb,Step-1,Increment      1: Step Time =    1.000,"PART-1-1",            18,           15.,         -22.5,            0.,NA,NA,"",   732.722E-03,   489.815E-03,  -544.943E-03,   72.9155E-03
C:/temp/dataset/7/25_5.odb,Step-1,Increment      1: Step Time =    1.000,"PART-1-1",            19,           15.,          -15.,            0.,NA,NA,"",       1.94785,       1.61920,      -1.08273,   59.2072E-03
C:/temp/dataset/7/25_5.odb,Step-1,Increment      1: Step Time =    1.000,"PART-1-1",            20,           15.,          -7.5,            0.,NA,NA,"",       3.71077,       3.32702,      -1.64340,   45.3699E-03
C:/temp/dataset/7/25_5.odb,Step-1,Increment      1: Step Time =    1.000,"PART-1-1",            21,           15.,            0.,            0.,NA,NA,"",       5.92314,       5.48625,      -2.23262,   31.4613E-03
C:/temp/dataset/7/25_5.odb,Step-1,Increment      1: Step Time =    1.000,"PART-1-1",            22,           15.,           7.5,            0.,NA,NA,"",       8.45732,       7.96950,      -2.83079,   17.3456E-03
C:/temp/dataset/7/25_5.odb,Step-1,Increment      1: Step Time =    1.000,"PART-1-1",            23,           15.,           15.,            0.,NA,NA,"",       11.1729,       10.6439,      -3.39719,   3.64055E-03
C:/temp/dataset/7/25_5.odb,Step-1,Increment      1: Step Time =    1.000,"PART-1-1",            24,           15.,          22.5,            0.,NA,NA,"",       13.9209,       13.3605,      -3.90993,   591.207E-06
C:/temp/dataset/7/25_5.odb,Step-1,Increment      1: Step Time =    1.000,"PART-1-1",            25,           15.,           30.,            0.,NA,NA,"",       16.6581,       16.0631,      -4.41209,   17.8994E-06
C:/temp/dataset/7/25_5.odb,Step-1,Increment      1: Step Time =    1.000,"PART-1-1",            26,         11.25,           30.,            0.,NA,NA,"",       16.5994,       16.3147,      -3.06112,   176.886E-06
C:/temp/dataset/7/25_5.odb,Step-1,Increment      1: Step Time =    1.000,"PART-1-1",            27,           7.5,           30.,            0.,NA,NA,"",       16.6535,       16.5654,      -1.71047,   311.879E-06
C:/temp/dataset/7/25_5.odb,Step-1,Increment      1: Step Time =    1.000,"PART-1-1",            28,          3.75,           30.,            0.,NA,NA,"",       16.8195,       16.8156,  -361.242E-03,   160.461E-06
C:/temp/dataset/7/25_5.odb,Step-1,Increment      1: Step Time =    1.000,"PART-1-1",            29,            0.,           30.,            0.,NA,NA,"",       17.0947,       17.0662,   987.192E-03,   23.5796E-06
C:/temp/dataset/7/25_5.odb,Step-1,Increment      1: Step Time =    1.000,"PART-1-1",            30,         -3.75,           30.,            0.,NA,NA,"",       17.4738,       17.3170,       2.33558,   4.37816E-06
C:/temp/dataset/7/25_5.odb,Step-1,Increment      1: Step Time =    1.000,"PART-1-1",            31,          -7.5,           30.,            0.,NA,NA,"",       17.9499,       17.5678,       3.68402,   2.20459E-06
C:/temp/dataset/7/25_5.odb,Step-1,Increment      1: Step Time =    1.000,"PART-1-1",            32,        -11.25,           30.,            0.,NA,NA,"",       18.5157,       17.8186,       5.03247,   390.829E-09
C:/temp/dataset/7/25_5.odb,Step-1,Increment      1: Step Time =    1.000,"PART-1-1",            33,          -15.,           30.,            0.,NA,NA,"",       19.1630,       18.0695,       6.38093,   22.4907E-09
C:/temp/dataset/7/25_5.odb,Step-1,Increment      1: Step Time =    1.000,"PART-1-1",            34,          -15.,          22.5,            0.,NA,NA,"",       16.8430,       15.3726,       6.88261,   90.6055E-09
C:/temp/dataset/7/25_5.odb,Step-1,Increment      1: Step Time =    1.000,"PART-1-1",            35,            5.,       15.8333,            0.,NA,NA,"",       11.6346,       11.6339,   132.773E-03,   5.56414E-03
C:/temp/dataset/7/25_5.odb,Step-1,Increment      1: Step Time =    1.000,"PART-1-1",            36,            5.,       17.9167,            0.,NA,NA,"",       12.3917,       12.3917,  -6.20507E-03,   5.12834E-03
C:/temp/dataset/7/25_5.odb,Step-1,Increment      1: Step Time =    1.000,"PART-1-1",            37,            5.,       9.58333,            0.,NA,NA,"",       9.35150,       9.33710,   518.826E-03,   14.1465E-03
C:/temp/dataset/7/25_5.odb,Step-1,Increment      1: Step Time =    1.000,"PART-1-1",            38,            5.,       11.6667,            0.,NA,NA,"",       10.1042,       10.0963,   400.381E-03,   10.6262E-03
C:/temp/dataset/7/25_5.odb,Step-1,Increment      1: Step Time =    1.000,"PART-1-1",            39,            5.,       3.33333,            0.,NA,NA,"",       7.16651,       7.12101,   806.281E-03,   25.5981E-03
C:/temp/dataset/7/25_5.odb,Step-1,Increment      1: Step Time =    1.000,"PART-1-1",            40,            5.,       5.41667,            0.,NA,NA,"",       7.88019,       7.84697,   722.807E-03,   21.6886E-03
C:/temp/dataset/7/25_5.odb,Step-1,Increment      1: Step Time =    1.000,"PART-1-1",            41,            5.,      -2.91667,            0.,NA,NA,"",       5.14836,       5.05603,   970.640E-03,   37.4433E-03
C:/temp/dataset/7/25_5.odb,Step-1,Increment      1: Step Time =    1.000,"PART-1-1",            42,            5.,  -833.333E-03,            0.,NA,NA,"",       5.79760,       5.72235,   931.057E-03,   33.4989E-03
C:/temp/dataset/7/25_5.odb,Step-1,Increment      1: Step Time =    1.000,"PART-1-1",            43,            5.,      -9.16667,            0.,NA,NA,"",       3.37736,       3.22891,   990.320E-03,   49.2696E-03
C:/temp/dataset/7/25_5.odb,Step-1,Increment      1: Step Time =    1.000,"PART-1-1",            44,            5.,      -7.08333,            0.,NA,NA,"",       3.93530,       3.80593,       1.00076,   45.2932E-03
C:/temp/dataset/7/25_5.odb,Step-1,Increment      1: Step Time =    1.000,"PART-1-1",            45,            5.,      -15.4167,            0.,NA,NA,"",       1.93162,       1.73238,   854.415E-03,   61.1197E-03
C:/temp/dataset/7/25_5.odb,Step-1,Increment      1: Step Time =    1.000,"PART-1-1",            46,            5.,      -13.3333,            0.,NA,NA,"",       2.37295,       2.18856,   917.129E-03,   57.1581E-03
C:/temp/dataset/7/25_5.odb,Step-1,Increment      1: Step Time =    1.000,"PART-1-1",            47,            5.,      -21.6667,            0.,NA,NA,"",   872.813E-03,   663.648E-03,   566.899E-03,   72.8208E-03
C:/temp/dataset/7/25_5.odb,Step-1,Increment      1: Step Time =    1.000,"PART-1-1",            48,            5.,      -19.5833,            0.,NA,NA,"",       1.18063,   966.273E-03,   678.375E-03,   69.1284E-03
C:/temp/dataset/7/25_5.odb,Step-1,Increment      1: Step Time =    1.000,"PART-1-1",            49,            5.,      -27.9167,            0.,NA,NA,"",   195.591E-03,   113.723E-03,   159.132E-03,   84.9971E-03
C:/temp/dataset/7/25_5.odb,Step-1,Increment      1: Step Time =    1.000,"PART-1-1",            50,            5.,      -25.8333,            0.,NA,NA,"",   385.145E-03,   237.060E-03,   303.544E-03,   78.1661E-03
C:/temp/dataset/7/25_5.odb,Step-1,Increment      1: Step Time =    1.000,"PART-1-1",            51,          12.5,          -30.,            0.,NA,NA,"",            0.,   42.7197E-39,  -107.548E-39,   30.5036E-03
C:/temp/dataset/7/25_5.odb,Step-1,Increment      1: Step Time =    1.000,"PART-1-1",            52,           10.,          -30.,            0.,NA,NA,"",            0.,  -20.2501E-39,  -3.03824E-39,   10.0811E-03
C:/temp/dataset/7/25_5.odb,Step-1,Increment      1: Step Time =    1.000,"PART-1-1",            53,           7.5,          -30.,            0.,NA,NA,"",            0.,   2.55696E-39,   120.730E-39,   31.0236E-03
C:/temp/dataset/7/25_5.odb,Step-1,Increment      1: Step Time =    1.000,"PART-1-1",            54,           15.,          -25.,            0.,NA,NA,"",   450.297E-03,   262.108E-03,  -366.151E-03,   76.3936E-03
C:/temp/dataset/7/25_5.odb,Step-1,Increment      1: Step Time =    1.000,"PART-1-1",            55,           15.,         -27.5,            0.,NA,NA,"",   218.864E-03,   115.152E-03,  -186.122E-03,   84.2824E-03
C:/temp/dataset/7/25_5.odb,Step-1,Increment      1: Step Time =    1.000,"PART-1-1",            56,           15.,         -17.5,            0.,NA,NA,"",       1.47912,       1.17220,  -902.067E-03,   63.7811E-03
C:/temp/dataset/7/25_5.odb,Step-1,Increment      1: Step Time =    1.000,"PART-1-1",            57,           15.,          -20.,            0.,NA,NA,"",       1.07416,   794.146E-03,  -723.298E-03,   68.2860E-03
C:/temp/dataset/7/25_5.odb,Step-1,Increment      1: Step Time =    1.000,"PART-1-1",            58,           15.,          -10.,            0.,NA,NA,"",       3.06731,       2.70130,      -1.45305,   50.0235E-03
C:/temp/dataset/7/25_5.odb,Step-1,Increment      1: Step Time =    1.000,"PART-1-1",            59,           15.,         -12.5,            0.,NA,NA,"",       2.47833,       2.13045,      -1.26621,   54.6265E-03
C:/temp/dataset/7/25_5.odb,Step-1,Increment      1: Step Time =    1.000,"PART-1-1",            60,           15.,          -2.5,            0.,NA,NA,"",       5.14340,       4.72421,      -2.03381,   36.0976E-03
C:/temp/dataset/7/25_5.odb,Step-1,Increment      1: Step Time =    1.000,"PART-1-1",            61,           15.,           -5.,            0.,NA,NA,"",       4.40433,       4.00287,      -1.83716,   40.7420E-03
C:/temp/dataset/7/25_5.odb,Step-1,Increment      1: Step Time =    1.000,"PART-1-1",            62,           15.,            5.,            0.,NA,NA,"",       7.58510,       7.11363,      -2.63250,   22.1123E-03
C:/temp/dataset/7/25_5.odb,Step-1,Increment      1: Step Time =    1.000,"PART-1-1",            63,           15.,           2.5,            0.,NA,NA,"",       6.73869,       6.28430,      -2.43260,   26.8037E-03
C:/temp/dataset/7/25_5.odb,Step-1,Increment      1: Step Time =    1.000,"PART-1-1",            64,           15.,          12.5,            0.,NA,NA,"",       10.2574,       9.74052,      -3.21495,   7.71146E-03
C:/temp/dataset/7/25_5.odb,Step-1,Increment      1: Step Time =    1.000,"PART-1-1",            65,           15.,           10.,            0.,NA,NA,"",       9.35004,       8.84696,      -3.02564,   12.4891E-03
C:/temp/dataset/7/25_5.odb,Step-1,Increment      1: Step Time =    1.000,"PART-1-1",            66,           15.,           20.,            0.,NA,NA,"",       13.0069,       12.4569,      -3.74229,   481.064E-06
C:/temp/dataset/7/25_5.odb,Step-1,Increment      1: Step Time =    1.000,"PART-1-1",            67,           15.,          17.5,            0.,NA,NA,"",       12.0906,       11.5508,      -3.57217,   942.199E-06
C:/temp/dataset/7/25_5.odb,Step-1,Increment      1: Step Time =    1.000,"PART-1-1",            68,           15.,          27.5,            0.,NA,NA,"",       15.7455,       15.1627,      -4.24435,   82.7261E-06
C:/temp/dataset/7/25_5.odb,Step-1,Increment      1: Step Time =    1.000,"PART-1-1",            69,           15.,           25.,            0.,NA,NA,"",       14.8334,       14.2621,      -4.07700,   351.168E-06
C:/temp/dataset/7/25_5.odb,Step-1,Increment      1: Step Time =    1.000,"PART-1-1",            70,        13.125,           30.,            0.,NA,NA,"",       16.6147,       16.1890,      -3.73667,   46.7713E-06
C:/temp/dataset/7/25_5.odb,Step-1,Increment      1: Step Time =    1.000,"PART-1-1",            71,         9.375,           30.,            0.,NA,NA,"",       16.6124,       16.4402,      -2.38565,   286.468E-06
C:/temp/dataset/7/25_5.odb,Step-1,Increment      1: Step Time =    1.000,"PART-1-1",            72,         5.625,           30.,            0.,NA,NA,"",       16.7226,       16.6905,      -1.03569,   253.193E-06
C:/temp/dataset/7/25_5.odb,Step-1,Increment      1: Step Time =    1.000,"PART-1-1",            73,         1.875,           30.,            0.,NA,NA,"",       16.9437,       16.9408,   313.007E-03,   68.3160E-06
C:/temp/dataset/7/25_5.odb,Step-1,Increment      1: Step Time =    1.000,"PART-1-1",            74,        -1.875,           30.,            0.,NA,NA,"",       17.2716,       17.1916,       1.66138,   3.57011E-06
C:/temp/dataset/7/25_5.odb,Step-1,Increment      1: Step Time =    1.000,"PART-1-1",            75,        -5.625,           30.,            0.,NA,NA,"",       17.7002,       17.4424,       3.00979,   3.72598E-06
C:/temp/dataset/7/25_5.odb,Step-1,Increment      1: Step Time =    1.000,"PART-1-1",            76,        -9.375,           30.,            0.,NA,NA,"",       18.2221,       17.6932,       4.35825,   1.03403E-06
C:/temp/dataset/7/25_5.odb,Step-1,Increment      1: Step Time =    1.000,"PART-1-1",            77,       -13.125,           30.,            0.,NA,NA,"",       18.8297,       17.9441,       5.70671,   73.3950E-09
C:/temp/dataset/7/25_5.odb,Step-1,Increment      1: Step Time =    1.000,"PART-1-1",            78,          -15.,          27.5,            0.,NA,NA,"",       18.3767,       17.1705,       6.54816,   96.6465E-09
C:/temp/dataset/7/25_5.odb,Step-1,Increment      1: Step Time =    1.000,"PART-1-1",            79,      -7.07467,       28.0475,            0.,NA,NA,"",       17.2308,       16.8373,       3.66167,   1.41357E-06
C:/temp/dataset/7/25_5.odb,Step-1,Increment      1: Step Time =    1.000,"PART-1-1",            80,      -10.7971,       27.6072,            0.,NA,NA,"",       17.6593,       16.9279,       5.02966,   674.593E-09
C:/temp/dataset/7/25_5.odb,Step-1,Increment      1: Step Time =    1.000,"PART-1-1",            81,      -3.50976,       28.2242,            0.,NA,NA,"",       16.8298,       16.6623,       2.36797,   4.34840E-06
C:/temp/dataset/7/25_5.odb,Step-1,Increment      1: Step Time =    1.000,"PART-1-1",            82,       11.3028,       27.6605,            0.,NA,NA,"",       15.7425,       15.4688,      -2.92306,   215.029E-06
C:/temp/dataset/7/25_5.odb,Step-1,Increment      1: Step Time =    1.000,"PART-1-1",            83,       7.46624,       27.7175,            0.,NA,NA,"",       15.8219,       15.7463,      -1.54514,   141.961E-06
C:/temp/dataset/7/25_5.odb,Step-1,Increment      1: Step Time =    1.000,"PART-1-1",            84,   523.838E-03,       28.1559,            0.,NA,NA,"",       16.3940,       16.3680,   922.203E-03,   57.1942E-06
C:/temp/dataset/7/25_5.odb,Step-1,Increment      1: Step Time =    1.000,"PART-1-1",            85,       13.1724,       27.5829,            0.,NA,NA,"",       15.7308,       15.3153,      -3.59154,   188.630E-06
C:/temp/dataset/7/25_5.odb,Step-1,Increment      1: Step Time =    1.000,"PART-1-1",            86,       9.41586,       27.7284,            0.,NA,NA,"",       15.7806,       15.6197,      -2.24782,   169.426E-06
C:/temp/dataset/7/25_5.odb,Step-1,Increment      1: Step Time =    1.000,"PART-1-1",            87,       5.17501,       27.3177,            0.,NA,NA,"",       15.7709,       15.7556,  -694.036E-03,   164.729E-06
C:/temp/dataset/7/25_5.odb,Step-1,Increment      1: Step Time =    1.000,"PART-1-1",            88,       1.85763,       28.7412,            0.,NA,NA,"",       16.4943,       16.4894,   403.482E-03,   80.4274E-06
C:/temp/dataset/7/25_5.odb,Step-1,Increment      1: Step Time =    1.000,"PART-1-1",            89,      -1.45910,       27.7280,            0.,NA,NA,"",       16.4312,       16.3468,       1.66379,   22.8346E-06
C:/temp/dataset/7/25_5.odb,Step-1,Increment      1: Step Time =    1.000,"PART-1-1",            90,      -5.31380,       28.2250,            0.,NA,NA,"",       17.0523,       16.7833,       3.01661,   951.334E-09
C:/temp/dataset/7/25_5.odb,Step-1,Increment      1: Step Time =    1.000,"PART-1-1",            91,      -8.92632,       27.8484,            0.,NA,NA,"",       17.4384,       16.8895,       4.34082,   1.07125E-06
C:/temp/dataset/7/25_5.odb,Step-1,Increment      1: Step Time =    1.000,"PART-1-1",            92,       7.03655,   996.185E-03,            0.,NA,NA,"",       6.20159,       6.19719,   233.621E-03,   18.7650E-03
C:/temp/dataset/7/25_5.odb,Step-1,Increment      1: Step Time =    1.000,"PART-1-1",            93,       6.93081,       13.7923,            0.,NA,NA,"",       10.7508,       10.7422,  -429.207E-03,   8.57154E-03
C:/temp/dataset/7/25_5.odb,Step-1,Increment      1: Step Time =    1.000,"PART-1-1",            94,       7.08682,       7.47611,            0.,NA,NA,"",       8.43522,       8.43468,  -95.3532E-03,   11.6940E-03
C:/temp/dataset/7/25_5.odb,Step-1,Increment      1: Step Time =    1.000,"PART-1-1",            95,       6.96700,      -1.15199,            0.,NA,NA,"",       5.50860,       5.49847,   333.920E-03,   21.5541E-03
C:/temp/dataset/7/25_5.odb,Step-1,Increment      1: Step Time =    1.000,"PART-1-1",            96,       6.47578,      -21.8661,            0.,NA,NA,"",   702.492E-03,   587.286E-03,   385.475E-03,   52.4796E-03
C:/temp/dataset/7/25_5.odb,Step-1,Increment      1: Step Time =    1.000,"PART-1-1",            97,       7.14087,      -13.1040,            0.,NA,NA,"",       2.19896,       2.14878,   467.107E-03,   33.5519E-03
C:/temp/dataset/7/25_5.odb,Step-1,Increment      1: Step Time =    1.000,"PART-1-1",            98,       6.53104,      -7.08024,            0.,NA,NA,"",       3.77101,       3.72419,   592.358E-03,   32.0657E-03
C:/temp/dataset/7/25_5.odb,Step-1,Increment      1: Step Time =    1.000,"PART-1-1",            99,       6.85322,      -3.24169,            0.,NA,NA,"",       4.86461,       4.84555,   430.178E-03,   24.7395E-03
C:/temp/dataset/7/25_5.odb,Step-1,Increment      1: Step Time =    1.000,"PART-1-1",           100,       6.74184,      -8.96518,            0.,NA,NA,"",       3.24280,       3.19502,   554.612E-03,   32.5990E-03
C:/temp/dataset/7/25_5.odb,Step-1,Increment      1: Step Time =    1.000,"PART-1-1",           101,       6.94703,      -23.6171,            0.,NA,NA,"",   459.875E-03,   372.322E-03,   269.928E-03,   47.9633E-03
C:/temp/dataset/7/25_5.odb,Step-1,Increment      1: Step Time =    1.000,"PART-1-1",           102,       7.44695,      -27.8442,            0.,NA,NA,"",   92.5688E-03,   53.4362E-03,   75.5881E-03,   46.3914E-03
C:/temp/dataset/7/25_5.odb,Step-1,Increment      1: Step Time =    1.000,"PART-1-1",           103,       7.35225,      -17.6578,            0.,NA,NA,"",       1.26786,       1.20930,   380.872E-03,   36.0444E-03
C:/temp/dataset/7/25_5.odb,Step-1,Increment      1: Step Time =    1.000,"PART-1-1",           104,       7.23832,      -15.2967,            0.,NA,NA,"",       1.72325,       1.66820,   432.090E-03,   34.8878E-03
C:/temp/dataset/7/25_5.odb,Step-1,Increment      1: Step Time =    1.000,"PART-1-1",           105,       7.10099,       17.6583,            0.,NA,NA,"",       12.1712,       12.1484,  -744.072E-03,   5.43152E-03
C:/temp/dataset/7/25_5.odb,Step-1,Increment      1: Step Time =    1.000,"PART-1-1",           106,       6.86948,       15.7920,            0.,NA,NA,"",       11.4959,       11.4833,  -538.716E-03,   7.18800E-03
C:/temp/dataset/7/25_5.odb,Step-1,Increment      1: Step Time =    1.000,"PART-1-1",           107,       7.06799,       9.62990,            0.,NA,NA,"",       9.21243,       9.20996,  -213.617E-03,   9.59964E-03
C:/temp/dataset/7/25_5.odb,Step-1,Increment      1: Step Time =    1.000,"PART-1-1",           108,       7.09093,       5.31052,            0.,NA,NA,"",       7.66881,       7.66879,   19.0419E-03,   13.9172E-03
C:/temp/dataset/7/25_5.odb,Step-1,Increment      1: Step Time =    1.000,"PART-1-1",           109,       6.65187,      -5.22056,            0.,NA,NA,"",       4.29003,       4.25693,   531.901E-03,   28.6282E-03
C:/temp/dataset/7/25_5.odb,Step-1,Increment      1: Step Time =    1.000,"PART-1-1",           110,       7.26954,      -25.7037,            0.,NA,NA,"",   243.920E-03,   179.873E-03,   164.750E-03,   47.1486E-03
C:/temp/dataset/7/25_5.odb,Step-1,Increment      1: Step Time =    1.000,"PART-1-1",           111,       7.53271,      -20.3934,            0.,NA,NA,"",   817.016E-03,   759.227E-03,   301.811E-03,   36.5196E-03
C:/temp/dataset/7/25_5.odb,Step-1,Increment      1: Step Time =    1.000,"PART-1-1",           112,       7.01178,       11.7341,            0.,NA,NA,"",       9.98471,       9.97945,  -324.126E-03,   7.83885E-03
C:/temp/dataset/7/25_5.odb,Step-1,Increment      1: Step Time =    1.000,"PART-1-1",           113,       7.07643,       3.14767,            0.,NA,NA,"",       6.92200,       6.92080,   128.616E-03,   16.2492E-03
C:/temp/dataset/7/25_5.odb,Step-1,Increment      1: Step Time =    1.000,"PART-1-1",           114,       6.98190,      -10.9751,            0.,NA,NA,"",       2.71199,       2.66459,   504.834E-03,   32.7571E-03
C:/temp/dataset/7/25_5.odb,Step-1,Increment      1: Step Time =    1.000,"PART-1-1",           115,       13.1254,       22.8014,            0.,NA,NA,"",       13.9798,       13.5958,      -3.25394,   182.736E-06
C:/temp/dataset/7/25_5.odb,Step-1,Increment      1: Step Time =    1.000,"PART-1-1",           116,       12.8923,      -4.74502,            0.,NA,NA,"",       4.31716,       4.13508,      -1.24055,   23.6273E-03
C:/temp/dataset/7/25_5.odb,Step-1,Increment      1: Step Time =    1.000,"PART-1-1",           117,       13.0513,      -12.4505,            0.,NA,NA,"",       2.30538,       2.15339,  -823.221E-03,   33.0666E-03
C:/temp/dataset/7/25_5.odb,Step-1,Increment      1: Step Time =    1.000,"PART-1-1",           118,       12.2427,       17.8341,            0.,NA,NA,"",       12.1394,       11.8579,      -2.59920,   2.70059E-03
C:/temp/dataset/7/25_5.odb,Step-1,Increment      1: Step Time =    1.000,"PART-1-1",           119,       13.0441,       9.90429,            0.,NA,NA,"",       9.22851,       8.93193,      -2.32080,   9.59788E-03
C:/temp/dataset/7/25_5.odb,Step-1,Increment      1: Step Time =    1.000,"PART-1-1",           120,       13.0522,       2.62582,            0.,NA,NA,"",       6.66280,       6.41733,      -1.79187,   16.9645E-03
C:/temp/dataset/7/25_5.odb,Step-1,Increment      1: Step Time =    1.000,"PART-1-1",           121,       13.2006,      -19.7745,            0.,NA,NA,"",   928.047E-03,   799.272E-03,  -471.631E-03,   42.8135E-03
C:/temp/dataset/7/25_5.odb,Step-1,Increment      1: Step Time =    1.000,"PART-1-1",           122,       9.90112,      -27.6522,            0.,NA,NA,"",   32.4173E-03,   31.9368E-03,   5.56071E-03,   10.2833E-03
C:/temp/dataset/7/25_5.odb,Step-1,Increment      1: Step Time =    1.000,"PART-1-1",           123,       13.0591,      -22.1191,            0.,NA,NA,"",   600.211E-03,   492.776E-03,  -342.673E-03,   43.4128E-03
C:/temp/dataset/7/25_5.odb,Step-1,Increment      1: Step Time =    1.000,"PART-1-1",           124,       13.1139,      -14.9356,            0.,NA,NA,"",       1.77443,       1.62953,  -702.285E-03,   36.4318E-03
C:/temp/dataset/7/25_5.odb,Step-1,Increment      1: Step Time =    1.000,"PART-1-1",           125,       13.1678,      -17.3995,            0.,NA,NA,"",       1.31162,       1.17401,  -584.839E-03,   39.7502E-03
C:/temp/dataset/7/25_5.odb,Step-1,Increment      1: Step Time =    1.000,"PART-1-1",           126,       12.7891,      -7.32383,            0.,NA,NA,"",       3.57921,       3.42096,      -1.05251,   25.3663E-03
C:/temp/dataset/7/25_5.odb,Step-1,Increment      1: Step Time =    1.000,"PART-1-1",           127,       12.9162,      -9.94117,            0.,NA,NA,"",       2.89839,       2.74433,  -932.375E-03,   29.1028E-03
C:/temp/dataset/7/25_5.odb,Step-1,Increment      1: Step Time =    1.000,"PART-1-1",           128,       13.0283,   193.158E-03,            0.,NA,NA,"",       5.85492,       5.62860,      -1.61212,   19.4137E-03
C:/temp/dataset/7/25_5.odb,Step-1,Increment      1: Step Time =    1.000,"PART-1-1",           129,       12.9794,      -2.25409,            0.,NA,NA,"",       5.07441,       4.86892,      -1.42941,   21.6920E-03
C:/temp/dataset/7/25_5.odb,Step-1,Increment      1: Step Time =    1.000,"PART-1-1",           130,       13.0689,       7.48049,            0.,NA,NA,"",       8.35434,       8.07267,      -2.15105,   12.0015E-03
C:/temp/dataset/7/25_5.odb,Step-1,Increment      1: Step Time =    1.000,"PART-1-1",           131,       13.0764,       5.05734,            0.,NA,NA,"",       7.49876,       7.23375,      -1.97591,   14.5045E-03
C:/temp/dataset/7/25_5.odb,Step-1,Increment      1: Step Time =    1.000,"PART-1-1",           132,       12.6962,       14.9270,            0.,NA,NA,"",       11.0699,       10.7698,      -2.55983,   5.07181E-03
C:/temp/dataset/7/25_5.odb,Step-1,Increment      1: Step Time =    1.000,"PART-1-1",           133,       12.9459,       12.3607,            0.,NA,NA,"",       10.1263,       9.82164,      -2.46540,   7.28747E-03
C:/temp/dataset/7/25_5.odb,Step-1,Increment      1: Step Time =    1.000,"PART-1-1",           134,       12.9476,       20.4489,            0.,NA,NA,"",       13.1134,       12.7582,      -3.03127,   584.620E-06
C:/temp/dataset/7/25_5.odb,Step-1,Increment      1: Step Time =    1.000,"PART-1-1",           135,       13.1802,       25.1793,            0.,NA,NA,"",       14.8514,       14.4492,      -3.43321,   259.626E-06
C:/temp/dataset/7/25_5.odb,Step-1,Increment      1: Step Time =    1.000,"PART-1-1",           136,      -12.4062,       24.9250,            0.,NA,NA,"",       17.0815,       16.0711,       5.78770,   340.518E-09
C:/temp/dataset/7/25_5.odb,Step-1,Increment      1: Step Time =    1.000,"PART-1-1",           137,       11.3078,       25.3904,            0.,NA,NA,"",       14.9111,       14.6511,      -2.77249,   230.372E-06
C:/temp/dataset/7/25_5.odb,Step-1,Increment      1: Step Time =    1.000,"PART-1-1",           138,      -10.1009,       25.2443,            0.,NA,NA,"",       16.7748,       16.0317,       4.93738,   912.601E-09
C:/temp/dataset/7/25_5.odb,Step-1,Increment      1: Step Time =    1.000,"PART-1-1",           139,      -4.83291,       26.5053,            0.,NA,NA,"",       16.4018,       16.1328,       2.95872,   3.44930E-06
C:/temp/dataset/7/25_5.odb,Step-1,Increment      1: Step Time =    1.000,"PART-1-1",           140,       1.72347,       26.1851,            0.,NA,NA,"",       15.5915,       15.5790,   622.715E-03,   112.421E-06
C:/temp/dataset/7/25_5.odb,Step-1,Increment      1: Step Time =    1.000,"PART-1-1",           141,       6.12189,       25.7754,            0.,NA,NA,"",       15.1659,       15.1373,  -931.186E-03,   193.486E-06
C:/temp/dataset/7/25_5.odb,Step-1,Increment      1: Step Time =    1.000,"PART-1-1",           142,       7.62725,       25.7499,            0.,NA,NA,"",       15.0992,       15.0274,      -1.47104,   144.821E-06
C:/temp/dataset/7/25_5.odb,Step-1,Increment      1: Step Time =    1.000,"PART-1-1",           143,       3.76931,       25.0880,            0.,NA,NA,"",       15.0475,       15.0474,  -39.3887E-03,   284.538E-06
C:/temp/dataset/7/25_5.odb,Step-1,Increment      1: Step Time =    1.000,"PART-1-1",           144,  -231.428E-03,       26.1188,            0.,NA,NA,"",       15.7422,       15.6860,       1.33000,   64.2946E-06
C:/temp/dataset/7/25_5.odb,Step-1,Increment      1: Step Time =    1.000,"PART-1-1",           145,      -2.48530,       25.9891,            0.,NA,NA,"",       15.9357,       15.7901,       2.14908,   19.3504E-06
C:/temp/dataset/7/25_5.odb,Step-1,Increment      1: Step Time =    1.000,"PART-1-1",           146,      -3.63425,       26.9302,            0.,NA,NA,"",       16.3970,       16.2054,       2.49928,   5.58227E-06
C:/temp/dataset/7/25_5.odb,Step-1,Increment      1: Step Time =    1.000,"PART-1-1",           147,      -8.31738,       25.8431,            0.,NA,NA,"",       16.6798,       16.1277,       4.25599,   1.32737E-06
C:/temp/dataset/7/25_5.odb,Step-1,Increment      1: Step Time =    1.000,"PART-1-1",           148,       9.04714,   705.037E-03,            0.,NA,NA,"",       5.99908,       5.98655,  -387.449E-03,   10.1026E-03
C:/temp/dataset/7/25_5.odb,Step-1,Increment      1: Step Time =    1.000,"PART-1-1",           149,       7.85197,      -7.06885,            0.,NA,NA,"",       3.67231,       3.66426,   243.005E-03,   21.0660E-03
C:/temp/dataset/7/25_5.odb,Step-1,Increment      1: Step Time =    1.000,"PART-1-1",           150,       8.74205,      -22.9842,            0.,NA,NA,"",   419.600E-03,   402.287E-03,   119.286E-03,   22.5401E-03
C:/temp/dataset/7/25_5.odb,Step-1,Increment      1: Step Time =    1.000,"PART-1-1",           151,       9.28078,      -15.1075,            0.,NA,NA,"",       1.64866,       1.64802,   46.1014E-03,   12.8721E-03
C:/temp/dataset/7/25_5.odb,Step-1,Increment      1: Step Time =    1.000,"PART-1-1",           152,       8.97855,      -1.55139,            0.,NA,NA,"",       5.26896,       5.26253,  -260.386E-03,   10.9801E-03
C:/temp/dataset/7/25_5.odb,Step-1,Increment      1: Step Time =    1.000,"PART-1-1",           153,       9.09422,       9.69450,            0.,NA,NA,"",       9.14766,       9.10077,  -925.049E-03,   8.38753E-03
C:/temp/dataset/7/25_5.odb,Step-1,Increment      1: Step Time =    1.000,"PART-1-1",           154,       8.44946,       15.5970,            0.,NA,NA,"",       11.3527,       11.3002,      -1.09047,   7.00129E-03
C:/temp/dataset/7/25_5.odb,Step-1,Increment      1: Step Time =    1.000,"PART-1-1",           155,       9.11701,       7.46178,            0.,NA,NA,"",       8.33750,       8.29991,  -790.776E-03,   8.60784E-03
C:/temp/dataset/7/25_5.odb,Step-1,Increment      1: Step Time =    1.000,"PART-1-1",           156,       8.83101,       13.9442,            0.,NA,NA,"",       10.7255,       10.6674,      -1.11556,   8.06020E-03
C:/temp/dataset/7/25_5.odb,Step-1,Increment      1: Step Time =    1.000,"PART-1-1",           157,       9.61385,      -19.9311,            0.,NA,NA,"",   786.993E-03,   786.393E-03,   30.7257E-03,   10.8743E-03
C:/temp/dataset/7/25_5.odb,Step-1,Increment      1: Step Time =    1.000,"PART-1-1",           158,       9.10031,       2.95854,            0.,NA,NA,"",       6.75602,       6.73583,  -521.839E-03,   9.44857E-03
C:/temp/dataset/7/25_5.odb,Step-1,Increment      1: Step Time =    1.000,"PART-1-1",           159,       9.17986,      -12.8049,            0.,NA,NA,"",       2.14956,       2.14930,   33.2507E-03,   13.0867E-03
C:/temp/dataset/7/25_5.odb,Step-1,Increment      1: Step Time =    1.000,"PART-1-1",           160,       8.54844,      -8.43147,            0.,NA,NA,"",       3.26148,       3.26014,   93.6763E-03,   16.3881E-03
C:/temp/dataset/7/25_5.odb,Step-1,Increment      1: Step Time =    1.000,"PART-1-1",           161,       8.46228,      -5.79934,            0.,NA,NA,"",       3.99906,       3.99879,   46.4552E-03,   15.6817E-03
C:/temp/dataset/7/25_5.odb,Step-1,Increment      1: Step Time =    1.000,"PART-1-1",           162,       8.97830,      -10.5487,            0.,NA,NA,"",       2.69540,       2.69516,   35.5981E-03,   13.9758E-03
C:/temp/dataset/7/25_5.odb,Step-1,Increment      1: Step Time =    1.000,"PART-1-1",           163,       8.84007,      -3.76868,            0.,NA,NA,"",       4.58461,       4.58281,  -128.454E-03,   12.3956E-03
C:/temp/dataset/7/25_5.odb,Step-1,Increment      1: Step Time =    1.000,"PART-1-1",           164,       9.12644,       5.21383,            0.,NA,NA,"",       7.53779,       7.50901,  -658.096E-03,   8.96911E-03
C:/temp/dataset/7/25_5.odb,Step-1,Increment      1: Step Time =    1.000,"PART-1-1",           165,       9.36869,      -17.5094,            0.,NA,NA,"",       1.18759,       1.18639,   53.4059E-03,   12.7063E-03
C:/temp/dataset/7/25_5.odb,Step-1,Increment      1: Step Time =    1.000,"PART-1-1",           166,       9.01212,       11.8707,            0.,NA,NA,"",       9.95051,       9.89600,      -1.04013,   8.43143E-03
C:/temp/dataset/7/25_5.odb,Step-1,Increment      1: Step Time =    1.000,"PART-1-1",           167,       9.60003,       16.9835,            0.,NA,NA,"",       11.8355,       11.7277,      -1.59390,   4.99610E-03
C:/temp/dataset/7/25_5.odb,Step-1,Increment      1: Step Time =    1.000,"PART-1-1",           168,       7.13047,       19.6676,            0.,NA,NA,"",       12.9035,       12.8730,  -886.075E-03,   2.84296E-03
C:/temp/dataset/7/25_5.odb,Step-1,Increment      1: Step Time =    1.000,"PART-1-1",           169,       9.55406,      -25.2995,            0.,NA,NA,"",   177.109E-03,   174.153E-03,   32.2207E-03,   12.9308E-03
C:/temp/dataset/7/25_5.odb,Step-1,Increment      1: Step Time =    1.000,"PART-1-1",           170,       12.3800,      -27.4389,            0.,NA,NA,"",   97.2501E-03,   55.6884E-03,  -79.7270E-03,   39.9332E-03
C:/temp/dataset/7/25_5.odb,Step-1,Increment      1: Step Time =    1.000,"PART-1-1",           171,      -11.9351,       22.4166,            0.,NA,NA,"",       16.2057,       15.1376,       5.78608,   413.216E-09
C:/temp/dataset/7/25_5.odb,Step-1,Increment      1: Step Time =    1.000,"PART-1-1",           172,       10.9842,      -1.93535,            0.,NA,NA,"",       5.11823,       5.04796,  -845.164E-03,   10.3329E-03
C:/temp/dataset/7/25_5.odb,Step-1,Increment      1: Step Time =    1.000,"PART-1-1",           173,       11.2234,      -14.9909,            0.,NA,NA,"",       1.66791,       1.63525,  -328.433E-03,   15.4649E-03
C:/temp/dataset/7/25_5.odb,Step-1,Increment      1: Step Time =    1.000,"PART-1-1",           174,       11.0574,       21.1283,            0.,NA,NA,"",       13.3483,       13.1315,      -2.39586,   773.113E-06
C:/temp/dataset/7/25_5.odb,Step-1,Increment      1: Step Time =    1.000,"PART-1-1",           175,       10.7466,       19.4847,            0.,NA,NA,"",       12.7449,       12.5582,      -2.17329,   1.91222E-03
C:/temp/dataset/7/25_5.odb,Step-1,Increment      1: Step Time =    1.000,"PART-1-1",           176,       11.0568,   433.028E-03,            0.,NA,NA,"",       5.88193,       5.79562,      -1.00396,   10.1140E-03
C:/temp/dataset/7/25_5.odb,Step-1,Increment      1: Step Time =    1.000,"PART-1-1",           177,       10.9662,       12.1205,            0.,NA,NA,"",       10.0140,       9.86058,      -1.74601,   8.03877E-03
C:/temp/dataset/7/25_5.odb,Step-1,Increment      1: Step Time =    1.000,"PART-1-1",           178,       11.6216,      -21.4567,            0.,NA,NA,"",   598.032E-03,   563.674E-03,  -199.786E-03,   22.6665E-03
C:/temp/dataset/7/25_5.odb,Step-1,Increment      1: Step Time =    1.000,"PART-1-1",           179,       11.2975,      -17.3958,            0.,NA,NA,"",       1.20991,       1.18002,  -267.253E-03,   17.0516E-03
C:/temp/dataset/7/25_5.odb,Step-1,Increment      1: Step Time =    1.000,"PART-1-1",           180,       10.6273,       14.4803,            0.,NA,NA,"",       10.8915,       10.7434,      -1.79000,   6.87030E-03
C:/temp/dataset/7/25_5.odb,Step-1,Increment      1: Step Time =    1.000,"PART-1-1",           181,       11.1012,       2.78293,            0.,NA,NA,"",       6.66984,       6.56774,      -1.16258,   9.74803E-03
C:/temp/dataset/7/25_5.odb,Step-1,Increment      1: Step Time =    1.000,"PART-1-1",           182,       11.1153,       7.46695,            0.,NA,NA,"",       8.31323,       8.18123,      -1.47557,   8.95836E-03
C:/temp/dataset/7/25_5.odb,Step-1,Increment      1: Step Time =    1.000,"PART-1-1",           183,       11.1247,      -12.5851,            0.,NA,NA,"",       2.18770,       2.15244,  -391.179E-03,   13.8407E-03
C:/temp/dataset/7/25_5.odb,Step-1,Increment      1: Step Time =    1.000,"PART-1-1",           184,       10.4094,      -7.19663,            0.,NA,NA,"",       3.55262,       3.52694,  -426.363E-03,   8.86505E-03
C:/temp/dataset/7/25_5.odb,Step-1,Increment      1: Step Time =    1.000,"PART-1-1",           185,       10.4303,      -22.2648,            0.,NA,NA,"",   469.422E-03,   466.710E-03,  -50.3850E-03,   9.34281E-03
C:/temp/dataset/7/25_5.odb,Step-1,Increment      1: Step Time =    1.000,"PART-1-1",           186,       10.9130,      -10.1038,            0.,NA,NA,"",       2.78271,       2.74826,  -436.469E-03,   11.5674E-03
C:/temp/dataset/7/25_5.odb,Step-1,Increment      1: Step Time =    1.000,"PART-1-1",           187,       10.8491,      -4.38491,            0.,NA,NA,"",       4.36487,       4.31220,  -675.986E-03,   10.2444E-03
C:/temp/dataset/7/25_5.odb,Step-1,Increment      1: Step Time =    1.000,"PART-1-1",           188,       11.1275,       5.13070,            0.,NA,NA,"",       7.48285,       7.36497,      -1.32298,   9.34906E-03
C:/temp/dataset/7/25_5.odb,Step-1,Increment      1: Step Time =    1.000,"PART-1-1",           189,       11.0819,       9.79848,            0.,NA,NA,"",       9.15905,       9.01382,      -1.62460,   8.59807E-03
C:/temp/dataset/7/25_5.odb,Step-1,Increment      1: Step Time =    1.000,"PART-1-1",           190,       12.1026,      -24.5603,            0.,NA,NA,"",   283.421E-03,   236.576E-03,  -156.075E-03,   32.0527E-03
C:/temp/dataset/7/25_5.odb,Step-1,Increment      1: Step Time =    1.000,"PART-1-1",           191,      -7.61069,       24.2264,            0.,NA,NA,"",       16.0348,       15.4991,       4.11001,   1.71379E-06
C:/temp/dataset/7/25_5.odb,Step-1,Increment      1: Step Time =    1.000,"PART-1-1",           192,      -5.77678,       24.2650,            0.,NA,NA,"",       15.7718,       15.3903,       3.44797,   1.81103E-06
C:/temp/dataset/7/25_5.odb,Step-1,Increment      1: Step Time =    1.000,"PART-1-1",           193,       1.00958,       23.8763,            0.,NA,NA,"",       14.8325,       14.7964,       1.03362,   165.799E-06
C:/temp/dataset/7/25_5.odb,Step-1,Increment      1: Step Time =    1.000,"PART-1-1",           194,      -3.86757,       24.8145,            0.,NA,NA,"",       15.6984,       15.4602,       2.72469,   8.71488E-06
C:/temp/dataset/7/25_5.odb,Step-1,Increment      1: Step Time =    1.000,"PART-1-1",           195,  -996.969E-03,       24.6602,            0.,NA,NA,"",       15.3077,       15.2127,       1.70278,   36.1852E-06
C:/temp/dataset/7/25_5.odb,Step-1,Increment      1: Step Time =    1.000,"PART-1-1",           196,       7.19995,       21.7613,            0.,NA,NA,"",       13.6613,       13.6209,      -1.04974,   602.515E-06
C:/temp/dataset/7/25_5.odb,Step-1,Increment      1: Step Time =    1.000,"PART-1-1",           197,       2.92747,       22.7842,            0.,NA,NA,"",       14.2813,       14.2752,   417.082E-03,   414.401E-06
C:/temp/dataset/7/25_5.odb,Step-1,Increment      1: Step Time =    1.000,"PART-1-1",           198,       5.53232,       24.2100,            0.,NA,NA,"",       14.6264,       14.6135,  -614.310E-03,   244.805E-06
C:/temp/dataset/7/25_5.odb,Step-1,Increment      1: Step Time =    1.000,"PART-1-1",           199,       9.18626,       19.3402,            0.,NA,NA,"",       12.7140,       12.6125,      -1.60290,   2.51101E-03
C:/temp/dataset/7/25_5.odb,Step-1,Increment      1: Step Time =    1.000,"PART-1-1",           200,       11.2321,       23.1770,            0.,NA,NA,"",       14.1000,       13.8589,      -2.59655,   184.224E-06
C:/temp/dataset/7/25_5.odb,Step-1,Increment      1: Step Time =    1.000,"PART-1-1",           201,       5.11021,       22.1378,            0.,NA,NA,"",       13.9003,       13.8966,  -324.160E-03,   677.071E-06
C:/temp/dataset/7/25_5.odb,Step-1,Increment      1: Step Time =    1.000,"PART-1-1",           202,   167.280E-03,       22.2372,            0.,NA,NA,"",       14.3366,       14.2635,       1.44603,   166.701E-06
C:/temp/dataset/7/25_5.odb,Step-1,Increment      1: Step Time =    1.000,"PART-1-1",           203,      -2.32264,       22.6339,            0.,NA,NA,"",       14.7555,       14.5727,       2.31498,   18.3649E-06
C:/temp/dataset/7/25_5.odb,Step-1,Increment      1: Step Time =    1.000,"PART-1-1",           204,       9.17324,       21.4477,            0.,NA,NA,"",       13.4871,       13.3745,      -1.73887,   835.130E-06
C:/temp/dataset/7/25_5.odb,Step-1,Increment      1: Step Time =    1.000,"PART-1-1",           205,       9.43619,       25.5889,            0.,NA,NA,"",       14.9976,       14.8482,      -2.11150,   171.070E-06
C:/temp/dataset/7/25_5.odb,Step-1,Increment      1: Step Time =    1.000,"PART-1-1",           206,      -5.39738,       22.2321,            0.,NA,NA,"",       15.0345,       14.6339,       3.44752,   1.82745E-06
C:/temp/dataset/7/25_5.odb,Step-1,Increment      1: Step Time =    1.000,"PART-1-1",           207,      -8.66915,       22.6604,            0.,NA,NA,"",       15.6946,       15.0068,       4.59537,   1.45227E-06
C:/temp/dataset/7/25_5.odb,Step-1,Increment      1: Step Time =    1.000,"PART-1-1",           208,      -12.8188,       27.4435,            0.,NA,NA,"",       17.9558,       17.0043,       5.76759,   313.428E-09
C:/temp/dataset/7/25_5.odb,Step-1,Increment      1: Step Time =    1.000,"PART-1-1",           209,       7.43992,       23.7550,            0.,NA,NA,"",       14.3782,       14.3220,      -1.26974,   240.405E-06
C:/temp/dataset/7/25_5.odb,Step-1,Increment      1: Step Time =    1.000,"PART-1-1",           210,      -6.48406,       26.1481,            0.,NA,NA,"",       16.5068,       16.1148,       3.57634,   1.67257E-06
C:/temp/dataset/7/25_5.odb,Step-1,Increment      1: Step Time =    1.000,"PART-1-1",           211,       3.18484,       28.0088,            0.,NA,NA,"",       16.1373,       16.1373,  -24.6903E-03,   138.344E-06
C:/temp/dataset/7/25_5.odb,Step-1,Increment      1: Step Time =    1.000,"PART-1-1",           212,       11.4304,      -19.6429,            0.,NA,NA,"",   844.307E-03,   813.998E-03,  -224.193E-03,   19.3983E-03
C:/temp/dataset/7/25_5.odb,Step-1,Increment      1: Step Time =    1.000,"PART-1-1",           213,       9.33060,       23.4727,            0.,NA,NA,"",       14.2251,       14.0934,      -1.93133,   250.197E-06
C:/temp/dataset/7/25_5.odb,Step-1,Increment      1: Step Time =    1.000,"PART-1-1",           214,      -12.1707,       23.6708,            0.,NA,NA,"",       16.6428,       15.6043,       5.78689,   353.257E-09
C:/temp/dataset/7/25_5.odb,Step-1,Increment      1: Step Time =    1.000,"PART-1-1",           215,      -13.7031,       24.9625,            0.,NA,NA,"",       17.3376,       16.1713,       6.25154,   272.580E-09
C:/temp/dataset/7/25_5.odb,Step-1,Increment      1: Step Time =    1.000,"PART-1-1",           216,          -15.,         23.75,            0.,NA,NA,"",       17.2210,       15.8220,       6.79899,   169.173E-09
C:/temp/dataset/7/25_5.odb,Step-1,Increment      1: Step Time =    1.000,"PART-1-1",           217,      -13.4675,       22.4583,            0.,NA,NA,"",       16.5179,       15.2551,       6.33434,   233.288E-09
C:/temp/dataset/7/25_5.odb,Step-1,Increment      1: Step Time =    1.000,"PART-1-1",           218,      -9.86170,       27.7278,            0.,NA,NA,"",       17.5458,       16.9087,       4.68524,   867.529E-09
C:/temp/dataset/7/25_5.odb,Step-1,Increment      1: Step Time =    1.000,"PART-1-1",           219,      -10.4490,       26.4258,            0.,NA,NA,"",       17.2168,       16.4798,       4.98352,   654.935E-09
C:/temp/dataset/7/25_5.odb,Step-1,Increment      1: Step Time =    1.000,"PART-1-1",           220,      -9.20914,       25.5437,            0.,NA,NA,"",       16.7238,       16.0797,       4.59668,   1.10280E-06
C:/temp/dataset/7/25_5.odb,Step-1,Increment      1: Step Time =    1.000,"PART-1-1",           221,      -8.62185,       26.8458,            0.,NA,NA,"",       17.0590,       16.5086,       4.29840,   1.05847E-06
C:/temp/dataset/7/25_5.odb,Step-1,Increment      1: Step Time =    1.000,"PART-1-1",           222,      -9.15066,       28.9242,            0.,NA,NA,"",       17.8300,       17.2914,       4.34953,   822.373E-09
C:/temp/dataset/7/25_5.odb,Step-1,Increment      1: Step Time =    1.000,"PART-1-1",           223,      -10.3125,           30.,            0.,NA,NA,"",       18.3663,       17.7559,       4.69536,   717.786E-09
C:/temp/dataset/7/25_5.odb,Step-1,Increment      1: Step Time =    1.000,"PART-1-1",           224,      -11.0235,       28.8036,            0.,NA,NA,"",       18.0871,       17.3733,       5.03107,   400.924E-09
C:/temp/dataset/7/25_5.odb,Step-1,Increment      1: Step Time =    1.000,"PART-1-1",           225,      -11.2536,       25.0847,            0.,NA,NA,"",       16.9235,       16.0514,       5.36254,   600.103E-09
C:/temp/dataset/7/25_5.odb,Step-1,Increment      1: Step Time =    1.000,"PART-1-1",           226,      -10.3021,       22.5385,            0.,NA,NA,"",       15.9409,       15.0722,       5.19073,   867.279E-09
C:/temp/dataset/7/25_5.odb,Step-1,Increment      1: Step Time =    1.000,"PART-1-1",           227,      -9.38503,       23.9523,            0.,NA,NA,"",       16.2347,       15.5192,       4.76637,   880.277E-09
C:/temp/dataset/7/25_5.odb,Step-1,Increment      1: Step Time =    1.000,"PART-1-1",           228,      -12.9719,       28.7217,            0.,NA,NA,"",       18.3919,       17.4742,       5.73715,   164.301E-09
C:/temp/dataset/7/25_5.odb,Step-1,Increment      1: Step Time =    1.000,"PART-1-1",           229,      -14.0625,           30.,            0.,NA,NA,"",       18.9940,       18.0068,       6.04382,   32.8669E-09
C:/temp/dataset/7/25_5.odb,Step-1,Increment      1: Step Time =    1.000,"PART-1-1",           230,          -15.,         28.75,            0.,NA,NA,"",       18.7684,       17.6200,       6.46455,   33.8402E-09
C:/temp/dataset/7/25_5.odb,Step-1,Increment      1: Step Time =    1.000,"PART-1-1",           231,      -13.9094,       27.4717,            0.,NA,NA,"",       18.1631,       17.0874,       6.15787,   189.988E-09
C:/temp/dataset/7/25_5.odb,Step-1,Increment      1: Step Time =    1.000,"PART-1-1",           232,      -7.40072,       25.9956,            0.,NA,NA,"",       16.5901,       16.1212,       3.91617,   1.35910E-06
C:/temp/dataset/7/25_5.odb,Step-1,Increment      1: Step Time =    1.000,"PART-1-1",           233,      -7.96404,       25.0347,            0.,NA,NA,"",       16.3573,       15.8134,       4.18300,   1.42895E-06
C:/temp/dataset/7/25_5.odb,Step-1,Increment      1: Step Time =    1.000,"PART-1-1",           234,      -6.69374,       24.2457,            0.,NA,NA,"",       15.9003,       15.4447,       3.77899,   1.38180E-06
C:/temp/dataset/7/25_5.odb,Step-1,Increment      1: Step Time =    1.000,"PART-1-1",           235,      -6.13042,       25.2066,            0.,NA,NA,"",       16.1393,       15.7525,       3.51216,   1.35355E-06
C:/temp/dataset/7/25_5.odb,Step-1,Increment      1: Step Time =    1.000,"PART-1-1",           236,      -5.46940,       29.1125,            0.,NA,NA,"",       17.3761,       17.1128,       3.01320,   2.11361E-06
C:/temp/dataset/7/25_5.odb,Step-1,Increment      1: Step Time =    1.000,"PART-1-1",           237,      -4.41178,       28.2246,            0.,NA,NA,"",       16.9382,       16.7228,       2.69229,   1.88404E-06
C:/temp/dataset/7/25_5.odb,Step-1,Increment      1: Step Time =    1.000,"PART-1-1",           238,      -3.62988,       29.1121,            0.,NA,NA,"",       17.1516,       16.9896,       2.35177,   2.17753E-06
C:/temp/dataset/7/25_5.odb,Step-1,Increment      1: Step Time =    1.000,"PART-1-1",           239,       -4.6875,           30.,            0.,NA,NA,"",       17.5840,       17.3797,       2.67268,   3.81975E-06
C:/temp/dataset/7/25_5.odb,Step-1,Increment      1: Step Time =    1.000,"PART-1-1",           240,  -467.629E-03,       27.9420,            0.,NA,NA,"",       16.4084,       16.3574,       1.29300,   38.9071E-06
C:/temp/dataset/7/25_5.odb,Step-1,Increment      1: Step Time =    1.000,"PART-1-1",           241,  -845.263E-03,       26.9234,            0.,NA,NA,"",       16.0862,       16.0164,       1.49690,   40.7423E-06
C:/temp/dataset/7/25_5.odb,Step-1,Increment      1: Step Time =    1.000,"PART-1-1",           242,   746.021E-03,       26.1520,            0.,NA,NA,"",       15.6629,       15.6325,   976.343E-03,   83.9747E-06
C:/temp/dataset/7/25_5.odb,Step-1,Increment      1: Step Time =    1.000,"PART-1-1",           243,       1.12365,       27.1705,            0.,NA,NA,"",       15.9922,       15.9735,   772.461E-03,   80.8664E-06
C:/temp/dataset/7/25_5.odb,Step-1,Increment      1: Step Time =    1.000,"PART-1-1",           244,       14.0901,       25.0896,            0.,NA,NA,"",       14.8387,       14.3556,      -3.75517,   264.196E-06
C:/temp/dataset/7/25_5.odb,Step-1,Increment      1: Step Time =    1.000,"PART-1-1",           245,       13.1528,       23.9903,            0.,NA,NA,"",       14.4158,       14.0226,      -3.34363,   201.003E-06
C:/temp/dataset/7/25_5.odb,Step-1,Increment      1: Step Time =    1.000,"PART-1-1",           246,       14.0627,       22.6507,            0.,NA,NA,"",       13.9460,       13.4782,      -3.58193,   364.547E-06
C:/temp/dataset/7/25_5.odb,Step-1,Increment      1: Step Time =    1.000,"PART-1-1",           247,           15.,         23.75,            0.,NA,NA,"",       14.3772,       13.8115,      -3.99348,   463.113E-06
C:/temp/dataset/7/25_5.odb,Step-1,Increment      1: Step Time =    1.000,"PART-1-1",           248,       11.2764,       28.8302,            0.,NA,NA,"",       16.1709,       15.8917,      -2.99206,   169.934E-06
C:/temp/dataset/7/25_5.odb,Step-1,Increment      1: Step Time =    1.000,"PART-1-1",           249,       10.3125,           30.,            0.,NA,NA,"",       16.6024,       16.3775,      -2.72336,   233.259E-06
C:/temp/dataset/7/25_5.odb,Step-1,Increment      1: Step Time =    1.000,"PART-1-1",           250,       9.39543,       28.8642,            0.,NA,NA,"",       16.1965,       16.0299,      -2.31671,   212.366E-06
C:/temp/dataset/7/25_5.odb,Step-1,Increment      1: Step Time =    1.000,"PART-1-1",           251,       10.3594,       27.6945,            0.,NA,NA,"",       15.7578,       15.5443,      -2.58540,   186.528E-06
C:/temp/dataset/7/25_5.odb,Step-1,Increment      1: Step Time =    1.000,"PART-1-1",           252,        8.4375,           30.,            0.,NA,NA,"",       16.6294,       16.5028,      -2.04801,   300.825E-06
C:/temp/dataset/7/25_5.odb,Step-1,Increment      1: Step Time =    1.000,"PART-1-1",           253,       7.48312,       28.8587,            0.,NA,NA,"",       16.2377,       16.1559,      -1.62780,   219.374E-06
C:/temp/dataset/7/25_5.odb,Step-1,Increment      1: Step Time =    1.000,"PART-1-1",           254,       8.44105,       27.7230,            0.,NA,NA,"",       15.7973,       15.6830,      -1.89642,   140.078E-06
C:/temp/dataset/7/25_5.odb,Step-1,Increment      1: Step Time =    1.000,"PART-1-1",           255,       13.0365,       21.6252,            0.,NA,NA,"",       13.5469,       13.1773,      -3.14277,   263.076E-06
C:/temp/dataset/7/25_5.odb,Step-1,Increment      1: Step Time =    1.000,"PART-1-1",           256,       13.9738,       20.2245,            0.,NA,NA,"",       13.0546,       12.6077,      -3.38657,   352.040E-06
C:/temp/dataset/7/25_5.odb,Step-1,Increment      1: Step Time =    1.000,"PART-1-1",           257,           15.,         21.25,            0.,NA,NA,"",       13.4641,       12.9090,      -3.82629,   518.734E-06
C:/temp/dataset/7/25_5.odb,Step-1,Increment      1: Step Time =    1.000,"PART-1-1",           258,       6.90015,       14.7921,            0.,NA,NA,"",       11.1236,       11.1131,  -484.019E-03,   8.00624E-03
C:/temp/dataset/7/25_5.odb,Step-1,Increment      1: Step Time =    1.000,"PART-1-1",           259,       5.93474,       15.8126,            0.,NA,NA,"",       11.5601,       11.5583,  -203.897E-03,   6.10295E-03
C:/temp/dataset/7/25_5.odb,Step-1,Increment      1: Step Time =    1.000,"PART-1-1",           260,            5.,       14.7917,            0.,NA,NA,"",       11.2541,       11.2523,   202.132E-03,   6.17336E-03
C:/temp/dataset/7/25_5.odb,Step-1,Increment      1: Step Time =    1.000,"PART-1-1",           261,       5.96541,       13.7711,            0.,NA,NA,"",       10.8031,       10.8028,  -81.6192E-03,   7.54872E-03
C:/temp/dataset/7/25_5.odb,Step-1,Increment      1: Step Time =    1.000,"PART-1-1",           262,       7.07741,       8.55300,            0.,NA,NA,"",       8.82227,       8.82094,  -153.353E-03,   10.6295E-03
C:/temp/dataset/7/25_5.odb,Step-1,Increment      1: Step Time =    1.000,"PART-1-1",           263,       6.03400,       9.60662,            0.,NA,NA,"",       9.27350,       9.27226,   151.294E-03,   11.4074E-03
C:/temp/dataset/7/25_5.odb,Step-1,Increment      1: Step Time =    1.000,"PART-1-1",           264,            5.,       8.54167,            0.,NA,NA,"",       8.97899,       8.96062,   574.102E-03,   16.0013E-03
C:/temp/dataset/7/25_5.odb,Step-1,Increment      1: Step Time =    1.000,"PART-1-1",           265,       6.04341,       7.48805,            0.,NA,NA,"",       8.51332,       8.50922,   264.273E-03,   14.3960E-03
C:/temp/dataset/7/25_5.odb,Step-1,Increment      1: Step Time =    1.000,"PART-1-1",           266,            5.,         4.375,            0.,NA,NA,"",       7.52123,       7.48210,   766.205E-03,   23.6431E-03
C:/temp/dataset/7/25_5.odb,Step-1,Increment      1: Step Time =    1.000,"PART-1-1",           267,       6.03822,       3.24050,            0.,NA,NA,"",       7.03456,       7.01912,   465.783E-03,   20.6514E-03
C:/temp/dataset/7/25_5.odb,Step-1,Increment      1: Step Time =    1.000,"PART-1-1",           268,       7.08368,       4.22909,            0.,NA,NA,"",       7.29302,       7.29263,   75.2861E-03,   15.0719E-03
C:/temp/dataset/7/25_5.odb,Step-1,Increment      1: Step Time =    1.000,"PART-1-1",           269,       6.04546,       5.36359,            0.,NA,NA,"",       7.76507,       7.75627,   369.419E-03,   17.4830E-03
C:/temp/dataset/7/25_5.odb,Step-1,Increment      1: Step Time =    1.000,"PART-1-1",           270,            5.,       2.29167,            0.,NA,NA,"",       6.81642,       6.76410,   842.924E-03,   27.5674E-03
C:/temp/dataset/7/25_5.odb,Step-1,Increment      1: Step Time =    1.000,"PART-1-1",           271,       6.01828,       1.12309,            0.,NA,NA,"",       6.32675,       6.30254,   552.997E-03,   23.9248E-03
C:/temp/dataset/7/25_5.odb,Step-1,Increment      1: Step Time =    1.000,"PART-1-1",           272,       7.05649,       2.07193,            0.,NA,NA,"",       6.55899,       6.55645,   182.761E-03,   17.4961E-03
C:/temp/dataset/7/25_5.odb,Step-1,Increment      1: Step Time =    1.000,"PART-1-1",           273,       7.00178,  -77.9012E-03,            0.,NA,NA,"",       5.85186,       5.84488,   285.631E-03,   20.1478E-03
C:/temp/dataset/7/25_5.odb,Step-1,Increment      1: Step Time =    1.000,"PART-1-1",           274,            5.,   208.333E-03,            0.,NA,NA,"",       6.13159,       6.06437,   905.420E-03,   31.5166E-03
C:/temp/dataset/7/25_5.odb,Step-1,Increment      1: Step Time =    1.000,"PART-1-1",           275,       5.98350,  -992.661E-03,            0.,NA,NA,"",       5.64371,       5.60838,   630.535E-03,   27.3397E-03
C:/temp/dataset/7/25_5.odb,Step-1,Increment      1: Step Time =    1.000,"PART-1-1",           276,       6.59145,      -6.15040,            0.,NA,NA,"",       4.02721,       3.98751,   564.049E-03,   30.3329E-03
C:/temp/dataset/7/25_5.odb,Step-1,Increment      1: Step Time =    1.000,"PART-1-1",           277,       5.82593,      -5.11028,            0.,NA,NA,"",       4.40130,       4.33491,   761.578E-03,   34.8805E-03
C:/temp/dataset/7/25_5.odb,Step-1,Increment      1: Step Time =    1.000,"PART-1-1",           278,            5.,      -6.04167,            0.,NA,NA,"",       4.22695,       4.10707,   999.518E-03,   43.3514E-03
C:/temp/dataset/7/25_5.odb,Step-1,Increment      1: Step Time =    1.000,"PART-1-1",           279,       5.76552,      -7.08179,            0.,NA,NA,"",       3.84703,       3.76380,   795.878E-03,   38.6318E-03
C:/temp/dataset/7/25_5.odb,Step-1,Increment      1: Step Time =    1.000,"PART-1-1",           280,       8.25955,      -15.2021,            0.,NA,NA,"",       1.67280,       1.65550,   239.962E-03,   23.2411E-03
C:/temp/dataset/7/25_5.odb,Step-1,Increment      1: Step Time =    1.000,"PART-1-1",           281,       9.23032,      -13.9562,            0.,NA,NA,"",       1.89223,       1.89179,   40.7975E-03,   12.9715E-03
C:/temp/dataset/7/25_5.odb,Step-1,Increment      1: Step Time =    1.000,"PART-1-1",           282,       8.16037,      -12.9544,            0.,NA,NA,"",       2.16134,       2.14666,   251.507E-03,   22.7249E-03
C:/temp/dataset/7/25_5.odb,Step-1,Increment      1: Step Time =    1.000,"PART-1-1",           283,       7.18960,      -14.2003,            0.,NA,NA,"",       1.95491,       1.90217,   451.020E-03,   34.2130E-03
C:/temp/dataset/7/25_5.odb,Step-1,Increment      1: Step Time =    1.000,"PART-1-1",           284,            5.,      -22.7083,            0.,NA,NA,"",   735.657E-03,   534.488E-03,   505.483E-03,   74.5311E-03
C:/temp/dataset/7/25_5.odb,Step-1,Increment      1: Step Time =    1.000,"PART-1-1",           285,       5.97351,      -23.6835,            0.,NA,NA,"",   530.014E-03,   393.432E-03,   355.143E-03,   62.2218E-03
C:/temp/dataset/7/25_5.odb,Step-1,Increment      1: Step Time =    1.000,"PART-1-1",           286,       6.71140,      -22.7416,            0.,NA,NA,"",   575.541E-03,   474.255E-03,   326.082E-03,   50.2482E-03
C:/temp/dataset/7/25_5.odb,Step-1,Increment      1: Step Time =    1.000,"PART-1-1",           287,       5.73789,      -21.7664,            0.,NA,NA,"",   783.991E-03,   623.991E-03,   474.633E-03,   62.4815E-03
C:/temp/dataset/7/25_5.odb,Step-1,Increment      1: Step Time =    1.000,"PART-1-1",           288,       9.95056,      -28.8261,            0.,NA,NA,"",   1.70963E-03,  -877.435E-06,   1.46729E-03,   2.45293E-03
C:/temp/dataset/7/25_5.odb,Step-1,Increment      1: Step Time =    1.000,"PART-1-1",           289,       8.67404,      -27.7482,            0.,NA,NA,"",   54.9862E-03,   37.6485E-03,   40.0758E-03,   26.0974E-03
C:/temp/dataset/7/25_5.odb,Step-1,Increment      1: Step Time =    1.000,"PART-1-1",           290,       7.47347,      -28.9221,            0.,NA,NA,"",   35.1317E-03,   11.4061E-03,   33.2285E-03,   38.2813E-03
C:/temp/dataset/7/25_5.odb,Step-1,Increment      1: Step Time =    1.000,"PART-1-1",           291,          8.75,          -30.,            0.,NA,NA,"",            0.,  -8.55878E-39,   32.4435E-39,   17.6778E-03
C:/temp/dataset/7/25_5.odb,Step-1,Increment      1: Step Time =    1.000,"PART-1-1",           292,       9.14805,      -24.1419,            0.,NA,NA,"",   286.965E-03,   278.222E-03,   70.2962E-03,   17.5197E-03
C:/temp/dataset/7/25_5.odb,Step-1,Increment      1: Step Time =    1.000,"PART-1-1",           293,       7.84454,      -23.3007,            0.,NA,NA,"",   432.534E-03,   384.515E-03,   198.076E-03,   34.9268E-03
C:/temp/dataset/7/25_5.odb,Step-1,Increment      1: Step Time =    1.000,"PART-1-1",           294,       7.10828,      -24.6604,            0.,NA,NA,"",   344.756E-03,   268.195E-03,   216.630E-03,   47.3876E-03
C:/temp/dataset/7/25_5.odb,Step-1,Increment      1: Step Time =    1.000,"PART-1-1",           295,       8.41180,      -25.5016,            0.,NA,NA,"",   200.129E-03,   172.618E-03,   101.264E-03,   29.1699E-03
C:/temp/dataset/7/25_5.odb,Step-1,Increment      1: Step Time =    1.000,"PART-1-1",           296,       7.00425,      -21.1298,            0.,NA,NA,"",   755.264E-03,   669.618E-03,   349.336E-03,   44.4885E-03
C:/temp/dataset/7/25_5.odb,Step-1,Increment      1: Step Time =    1.000,"PART-1-1",           297,       6.26636,      -19.9884,            0.,NA,NA,"",   983.504E-03,   856.864E-03,   482.768E-03,   52.6566E-03
C:/temp/dataset/7/25_5.odb,Step-1,Increment      1: Step Time =    1.000,"PART-1-1",           298,            5.,       -20.625,            0.,NA,NA,"",       1.02150,   808.177E-03,   624.742E-03,   70.9634E-03
C:/temp/dataset/7/25_5.odb,Step-1,Increment      1: Step Time =    1.000,"PART-1-1",           299,       12.8526,      -8.63250,            0.,NA,NA,"",       3.23133,       3.07530,  -991.975E-03,   27.2226E-03
C:/temp/dataset/7/25_5.odb,Step-1,Increment      1: Step Time =    1.000,"PART-1-1",           300,       13.9581,      -9.97058,            0.,NA,NA,"",       2.96956,       2.72051,      -1.19043,   39.3672E-03
C:/temp/dataset/7/25_5.odb,Step-1,Increment      1: Step Time =    1.000,"PART-1-1",           301,           15.,         -8.75,            0.,NA,NA,"",       3.38249,       3.00759,      -1.54779,   47.6962E-03
C:/temp/dataset/7/25_5.odb,Step-1,Increment      1: Step Time =    1.000,"PART-1-1",           302,       13.8945,      -7.41192,            0.,NA,NA,"",       3.63031,       3.37158,      -1.34595,   35.1525E-03
C:/temp/dataset/7/25_5.odb,Step-1,Increment      1: Step Time =    1.000,"PART-1-1",           303,            5.,        10.625,            0.,NA,NA,"",       9.72660,       9.71567,   460.898E-03,   12.3582E-03
C:/temp/dataset/7/25_5.odb,Step-1,Increment      1: Step Time =    1.000,"PART-1-1",           304,       7.03988,       10.6820,            0.,NA,NA,"",       9.59739,       9.59365,  -267.912E-03,   8.67079E-03
C:/temp/dataset/7/25_5.odb,Step-1,Increment      1: Step Time =    1.000,"PART-1-1",           305,       6.00589,       11.7004,            0.,NA,NA,"",       10.0369,       10.0368,   36.8588E-03,   8.39311E-03
C:/temp/dataset/7/25_5.odb,Step-1,Increment      1: Step Time =    1.000,"PART-1-1",           306,       2.74639,       25.6366,            0.,NA,NA,"",       15.3160,       15.3132,   291.647E-03,   177.871E-06
C:/temp/dataset/7/25_5.odb,Step-1,Increment      1: Step Time =    1.000,"PART-1-1",           307,       1.36653,       25.0307,            0.,NA,NA,"",       15.2103,       15.1877,   828.202E-03,   135.391E-06
C:/temp/dataset/7/25_5.odb,Step-1,Increment      1: Step Time =    1.000,"PART-1-1",           308,       1.96853,       23.3303,            0.,NA,NA,"",       14.5539,       14.5358,   725.347E-03,   263.084E-06
C:/temp/dataset/7/25_5.odb,Step-1,Increment      1: Step Time =    1.000,"PART-1-1",           309,       3.34839,       23.9361,            0.,NA,NA,"",       14.6625,       14.6612,   188.861E-03,   194.689E-06
C:/temp/dataset/7/25_5.odb,Step-1,Increment      1: Step Time =    1.000,"PART-1-1",           310,       4.47216,       26.2029,            0.,NA,NA,"",       15.4059,       15.4015,  -366.630E-03,   194.127E-06
C:/temp/dataset/7/25_5.odb,Step-1,Increment      1: Step Time =    1.000,"PART-1-1",           311,       4.17993,       27.6633,            0.,NA,NA,"",       15.9505,       15.9464,  -359.350E-03,   152.385E-06
C:/temp/dataset/7/25_5.odb,Step-1,Increment      1: Step Time =    1.000,"PART-1-1",           312,       2.45416,       27.0970,            0.,NA,NA,"",       15.8609,       15.8581,   299.031E-03,   113.913E-06
C:/temp/dataset/7/25_5.odb,Step-1,Increment      1: Step Time =    1.000,"PART-1-1",           313,      -1.66705,       28.8640,            0.,NA,NA,"",       16.8514,       16.7692,       1.66258,   11.7680E-06
C:/temp/dataset/7/25_5.odb,Step-1,Increment      1: Step Time =    1.000,"PART-1-1",           314,   261.919E-03,       29.0779,            0.,NA,NA,"",       16.7444,       16.7171,   954.693E-03,   33.6444E-06
C:/temp/dataset/7/25_5.odb,Step-1,Increment      1: Step Time =    1.000,"PART-1-1",           315,    -937.5E-03,           30.,            0.,NA,NA,"",       17.1800,       17.1289,       1.32428,   13.7639E-06
C:/temp/dataset/7/25_5.odb,Step-1,Increment      1: Step Time =    1.000,"PART-1-1",           316,          -15.,         21.25,            0.,NA,NA,"",       16.4689,       14.9231,       6.96622,   53.7176E-09
C:/temp/dataset/7/25_5.odb,Step-1,Increment      1: Step Time =    1.000,"PART-1-1",           317,      -13.3250,           20.,            0.,NA,NA,"",       15.7424,       14.3615,       6.44752,   126.356E-09
C:/temp/dataset/7/25_5.odb,Step-1,Increment      1: Step Time =    1.000,"PART-1-1",           318,      -11.7925,       21.2083,            0.,NA,NA,"",       15.8026,       14.6935,       5.81564,   263.729E-09
C:/temp/dataset/7/25_5.odb,Step-1,Increment      1: Step Time =    1.000,"PART-1-1",           319,       10.1137,       15.7319,            0.,NA,NA,"",       11.3623,       11.2355,      -1.69281,   5.79848E-03
C:/temp/dataset/7/25_5.odb,Step-1,Increment      1: Step Time =    1.000,"PART-1-1",           320,       9.02474,       16.2903,            0.,NA,NA,"",       11.5921,       11.5141,      -1.34197,   5.99994E-03
C:/temp/dataset/7/25_5.odb,Step-1,Increment      1: Step Time =    1.000,"PART-1-1",           321,       8.64023,       14.7706,            0.,NA,NA,"",       11.0390,       10.9837,      -1.10325,   7.44860E-03
C:/temp/dataset/7/25_5.odb,Step-1,Increment      1: Step Time =    1.000,"PART-1-1",           322,       9.72917,       14.2122,            0.,NA,NA,"",       10.8033,       10.7052,      -1.45246,   7.35774E-03
C:/temp/dataset/7/25_5.odb,Step-1,Increment      1: Step Time =    1.000,"PART-1-1",           323,       12.8210,       13.6438,            0.,NA,NA,"",       10.5973,       10.2950,      -2.51324,   6.12582E-03
C:/temp/dataset/7/25_5.odb,Step-1,Increment      1: Step Time =    1.000,"PART-1-1",           324,       13.9730,       12.4303,            0.,NA,NA,"",       10.1849,       9.78142,      -2.83839,   6.92255E-03
C:/temp/dataset/7/25_5.odb,Step-1,Increment      1: Step Time =    1.000,"PART-1-1",           325,           15.,         13.75,            0.,NA,NA,"",       10.7145,       10.1914,      -3.30696,   5.67605E-03
C:/temp/dataset/7/25_5.odb,Step-1,Increment      1: Step Time =    1.000,"PART-1-1",           326,       13.8481,       14.9635,            0.,NA,NA,"",       11.1133,       10.7072,      -2.97686,   3.79116E-03
C:/temp/dataset/7/25_5.odb,Step-1,Increment      1: Step Time =    1.000,"PART-1-1",           327,       10.1008,       2.87074,            0.,NA,NA,"",       6.70365,       6.65054,  -842.148E-03,   8.03652E-03
C:/temp/dataset/7/25_5.odb,Step-1,Increment      1: Step Time =    1.000,"PART-1-1",           328,       9.07373,       1.83179,            0.,NA,NA,"",       6.37439,       6.35825,  -453.204E-03,   9.75633E-03
C:/temp/dataset/7/25_5.odb,Step-1,Increment      1: Step Time =    1.000,"PART-1-1",           329,       10.0520,   569.032E-03,            0.,NA,NA,"",       5.93048,       5.88951,  -695.916E-03,   8.03349E-03
C:/temp/dataset/7/25_5.odb,Step-1,Increment      1: Step Time =    1.000,"PART-1-1",           330,       11.0790,       1.60798,            0.,NA,NA,"",       6.27238,       6.17832,      -1.08218,   9.92939E-03
C:/temp/dataset/7/25_5.odb,Step-1,Increment      1: Step Time =    1.000,"PART-1-1",           331,       9.98138,      -1.74337,            0.,NA,NA,"",       5.18291,       5.15329,  -553.381E-03,   8.05758E-03
C:/temp/dataset/7/25_5.odb,Step-1,Increment      1: Step Time =    1.000,"PART-1-1",           332,       8.90931,      -2.66004,            0.,NA,NA,"",       4.92273,       4.91897,  -192.423E-03,   11.6481E-03
C:/temp/dataset/7/25_5.odb,Step-1,Increment      1: Step Time =    1.000,"PART-1-1",           333,       9.84458,      -4.07679,            0.,NA,NA,"",       4.46323,       4.44493,  -403.723E-03,   8.25326E-03
C:/temp/dataset/7/25_5.odb,Step-1,Increment      1: Step Time =    1.000,"PART-1-1",           334,       10.9167,      -3.16013,            0.,NA,NA,"",       4.73657,       4.67542,  -758.687E-03,   10.2668E-03
C:/temp/dataset/7/25_5.odb,Step-1,Increment      1: Step Time =    1.000,"PART-1-1",           335,            5.,      -3.95833,            0.,NA,NA,"",       4.83386,       4.73256,   984.406E-03,   39.4169E-03
C:/temp/dataset/7/25_5.odb,Step-1,Increment      1: Step Time =    1.000,"PART-1-1",           336,       6.75254,      -4.23112,            0.,NA,NA,"",       4.57370,       4.54809,   483.308E-03,   26.6672E-03
C:/temp/dataset/7/25_5.odb,Step-1,Increment      1: Step Time =    1.000,"PART-1-1",           337,       5.92661,      -3.07918,            0.,NA,NA,"",       4.99788,       4.94883,   698.514E-03,   30.9437E-03
C:/temp/dataset/7/25_5.odb,Step-1,Increment      1: Step Time =    1.000,"PART-1-1",           338,       7.06139,      -12.0396,            0.,NA,NA,"",       2.45002,       2.40112,   487.062E-03,   33.1575E-03
C:/temp/dataset/7/25_5.odb,Step-1,Increment      1: Step Time =    1.000,"PART-1-1",           339,       5.99095,      -11.1126,            0.,NA,NA,"",       2.77327,       2.67440,   733.905E-03,   42.8594E-03
C:/temp/dataset/7/25_5.odb,Step-1,Increment      1: Step Time =    1.000,"PART-1-1",           340,            5.,      -12.2917,            0.,NA,NA,"",       2.60930,       2.43333,   941.981E-03,   55.1660E-03
C:/temp/dataset/7/25_5.odb,Step-1,Increment      1: Step Time =    1.000,"PART-1-1",           341,       6.07044,      -13.2187,            0.,NA,NA,"",       2.27386,       2.16595,   692.186E-03,   45.2178E-03
C:/temp/dataset/7/25_5.odb,Step-1,Increment      1: Step Time =    1.000,"PART-1-1",           342,       6.63644,      -8.02271,            0.,NA,NA,"",       3.50325,       3.45589,   574.121E-03,   32.3386E-03
C:/temp/dataset/7/25_5.odb,Step-1,Increment      1: Step Time =    1.000,"PART-1-1",           343,            5.,        -8.125,            0.,NA,NA,"",       3.65197,       3.51305,   997.697E-03,   47.2810E-03
C:/temp/dataset/7/25_5.odb,Step-1,Increment      1: Step Time =    1.000,"PART-1-1",           344,       5.87092,      -9.06592,            0.,NA,NA,"",       3.30193,       3.21033,   772.375E-03,   40.8234E-03
C:/temp/dataset/7/25_5.odb,Step-1,Increment      1: Step Time =    1.000,"PART-1-1",           345,       13.0826,      -13.6930,            0.,NA,NA,"",       2.03203,       1.88367,  -762.199E-03,   34.7514E-03
C:/temp/dataset/7/25_5.odb,Step-1,Increment      1: Step Time =    1.000,"PART-1-1",           346,       14.0569,      -14.9678,            0.,NA,NA,"",       1.85037,       1.62190,  -890.687E-03,   47.6924E-03
C:/temp/dataset/7/25_5.odb,Step-1,Increment      1: Step Time =    1.000,"PART-1-1",           347,           15.,        -13.75,            0.,NA,NA,"",       2.20555,       1.86709,      -1.17407,   56.9027E-03
C:/temp/dataset/7/25_5.odb,Step-1,Increment      1: Step Time =    1.000,"PART-1-1",           348,       14.0257,      -12.4752,            0.,NA,NA,"",       2.38015,       2.13962,      -1.04268,   43.6977E-03
C:/temp/dataset/7/25_5.odb,Step-1,Increment      1: Step Time =    1.000,"PART-1-1",           349,       8.13738,      -21.6888,            0.,NA,NA,"",   603.072E-03,   568.001E-03,   202.658E-03,   29.4855E-03
C:/temp/dataset/7/25_5.odb,Step-1,Increment      1: Step Time =    1.000,"PART-1-1",           350,            5.,      -28.9583,            0.,NA,NA,"",   103.606E-03,   67.3129E-03,   78.7606E-03,   86.2670E-03
C:/temp/dataset/7/25_5.odb,Step-1,Increment      1: Step Time =    1.000,"PART-1-1",           351,          6.25,          -30.,            0.,NA,NA,"",            0.,  -2.30343E-39,   96.8769E-39,   61.5267E-03
C:/temp/dataset/7/25_5.odb,Step-1,Increment      1: Step Time =    1.000,"PART-1-1",           352,       6.22347,      -27.8804,            0.,NA,NA,"",   134.949E-03,   75.7627E-03,   111.674E-03,   64.9114E-03
C:/temp/dataset/7/25_5.odb,Step-1,Increment      1: Step Time =    1.000,"PART-1-1",           353,           15.,        -28.75,            0.,NA,NA,"",   113.975E-03,   68.5381E-03,  -91.0649E-03,   82.2433E-03
C:/temp/dataset/7/25_5.odb,Step-1,Increment      1: Step Time =    1.000,"PART-1-1",           354,       13.6900,      -27.4695,            0.,NA,NA,"",   147.413E-03,   75.0259E-03,  -126.892E-03,   60.8246E-03
C:/temp/dataset/7/25_5.odb,Step-1,Increment      1: Step Time =    1.000,"PART-1-1",           355,       12.4400,      -28.7195,            0.,NA,NA,"",   37.0023E-03,   7.51626E-03,  -36.2309E-03,   34.9139E-03
C:/temp/dataset/7/25_5.odb,Step-1,Increment      1: Step Time =    1.000,"PART-1-1",           356,         13.75,          -30.,            0.,NA,NA,"",            0.,  -7.08867E-39,  -93.4543E-39,   58.0952E-03
C:/temp/dataset/7/25_5.odb,Step-1,Increment      1: Step Time =    1.000,"PART-1-1",           357,       9.58617,      -22.6245,            0.,NA,NA,"",   433.449E-03,   431.724E-03,   38.6316E-03,   11.6754E-03
C:/temp/dataset/7/25_5.odb,Step-1,Increment      1: Step Time =    1.000,"PART-1-1",           358,       10.0221,      -21.0980,            0.,NA,NA,"",   617.150E-03,   616.979E-03,  -14.5021E-03,   8.70004E-03
C:/temp/dataset/7/25_5.odb,Step-1,Increment      1: Step Time =    1.000,"PART-1-1",           359,       8.57328,      -20.1623,            0.,NA,NA,"",   788.007E-03,   769.634E-03,   169.169E-03,   22.7653E-03
C:/temp/dataset/7/25_5.odb,Step-1,Increment      1: Step Time =    1.000,"PART-1-1",           360,       11.1406,      -27.5456,            0.,NA,NA,"",   49.6718E-03,   37.4337E-03,  -32.6498E-03,   19.1117E-03
C:/temp/dataset/7/25_5.odb,Step-1,Increment      1: Step Time =    1.000,"PART-1-1",           361,         11.25,          -30.,            0.,NA,NA,"",            0.,  -10.4069E-39,  -32.7646E-39,   17.5799E-03
C:/temp/dataset/7/25_5.odb,Step-1,Increment      1: Step Time =    1.000,"PART-1-1",           362,       11.2605,      -16.1933,            0.,NA,NA,"",       1.43086,       1.39969,  -297.045E-03,   16.2540E-03
C:/temp/dataset/7/25_5.odb,Step-1,Increment      1: Step Time =    1.000,"PART-1-1",           363,       10.2521,      -15.0492,            0.,NA,NA,"",       1.64522,       1.63926,  -139.932E-03,   8.20217E-03
C:/temp/dataset/7/25_5.odb,Step-1,Increment      1: Step Time =    1.000,"PART-1-1",           364,       9.32474,      -16.3084,            0.,NA,NA,"",       1.41005,       1.40913,   50.9383E-03,   12.7828E-03
C:/temp/dataset/7/25_5.odb,Step-1,Increment      1: Step Time =    1.000,"PART-1-1",           365,       10.3331,      -17.4526,            0.,NA,NA,"",       1.18537,       1.18065,  -105.690E-03,   8.45249E-03
C:/temp/dataset/7/25_5.odb,Step-1,Increment      1: Step Time =    1.000,"PART-1-1",           366,       7.44248,      -19.0256,            0.,NA,NA,"",       1.03135,   972.780E-03,   342.624E-03,   36.3066E-03
C:/temp/dataset/7/25_5.odb,Step-1,Increment      1: Step Time =    1.000,"PART-1-1",           367,       6.17612,      -17.5789,            0.,NA,NA,"",       1.38761,       1.26270,   575.374E-03,   50.4481E-03
C:/temp/dataset/7/25_5.odb,Step-1,Increment      1: Step Time =    1.000,"PART-1-1",           368,            5.,      -18.5417,            0.,NA,NA,"",       1.35161,       1.13840,   728.634E-03,   67.0566E-03
C:/temp/dataset/7/25_5.odb,Step-1,Increment      1: Step Time =    1.000,"PART-1-1",           369,       12.8407,      -6.03443,            0.,NA,NA,"",       3.94191,       3.77195,      -1.14500,   24.5006E-03
C:/temp/dataset/7/25_5.odb,Step-1,Increment      1: Step Time =    1.000,"PART-1-1",           370,           15.,         -6.25,            0.,NA,NA,"",       4.05158,       3.65898,      -1.73988,   43.0477E-03
C:/temp/dataset/7/25_5.odb,Step-1,Increment      1: Step Time =    1.000,"PART-1-1",           371,       13.9462,      -4.87251,            0.,NA,NA,"",       4.34781,       4.06697,      -1.53727,   31.9703E-03
C:/temp/dataset/7/25_5.odb,Step-1,Increment      1: Step Time =    1.000,"PART-1-1",           372,       7.64514,      -8.69832,            0.,NA,NA,"",       3.24237,       3.22595,   325.860E-03,   24.2165E-03
C:/temp/dataset/7/25_5.odb,Step-1,Increment      1: Step Time =    1.000,"PART-1-1",           373,       8.20020,      -7.75016,            0.,NA,NA,"",       3.46377,       3.45975,   166.938E-03,   18.7084E-03
C:/temp/dataset/7/25_5.odb,Step-1,Increment      1: Step Time =    1.000,"PART-1-1",           374,       7.19150,      -7.07454,            0.,NA,NA,"",       3.71690,       3.69338,   417.418E-03,   26.3561E-03
C:/temp/dataset/7/25_5.odb,Step-1,Increment      1: Step Time =    1.000,"PART-1-1",           375,       7.97278,      -1.35169,            0.,NA,NA,"",       5.37853,       5.37842,   35.3051E-03,   15.7042E-03
C:/temp/dataset/7/25_5.odb,Step-1,Increment      1: Step Time =    1.000,"PART-1-1",           376,       9.01285,  -423.179E-03,            0.,NA,NA,"",       5.63036,       5.62113,  -322.267E-03,   10.5193E-03
C:/temp/dataset/7/25_5.odb,Step-1,Increment      1: Step Time =    1.000,"PART-1-1",           377,       8.04185,   850.611E-03,            0.,NA,NA,"",       6.09061,       6.09011,  -77.9862E-03,   13.8117E-03
C:/temp/dataset/7/25_5.odb,Step-1,Increment      1: Step Time =    1.000,"PART-1-1",           378,       8.08837,       3.05311,            0.,NA,NA,"",       6.82968,       6.82683,  -197.397E-03,   12.1818E-03
C:/temp/dataset/7/25_5.odb,Step-1,Increment      1: Step Time =    1.000,"PART-1-1",           379,       9.11337,       4.08618,            0.,NA,NA,"",       7.14423,       7.11993,  -588.751E-03,   9.19457E-03
C:/temp/dataset/7/25_5.odb,Step-1,Increment      1: Step Time =    1.000,"PART-1-1",           380,       8.10868,       5.26217,            0.,NA,NA,"",       7.59438,       7.58763,  -320.131E-03,   10.7659E-03
C:/temp/dataset/7/25_5.odb,Step-1,Increment      1: Step Time =    1.000,"PART-1-1",           381,       7.08888,       6.39331,            0.,NA,NA,"",       8.05005,       8.04997,  -36.8676E-03,   12.7939E-03
C:/temp/dataset/7/25_5.odb,Step-1,Increment      1: Step Time =    1.000,"PART-1-1",           382,            5.,       6.45833,            0.,NA,NA,"",       8.24303,       8.21525,   676.228E-03,   19.7697E-03
C:/temp/dataset/7/25_5.odb,Step-1,Increment      1: Step Time =    1.000,"PART-1-1",           383,           15.,         16.25,            0.,NA,NA,"",       11.6318,       11.0973,      -3.48546,   2.24368E-03
C:/temp/dataset/7/25_5.odb,Step-1,Increment      1: Step Time =    1.000,"PART-1-1",           384,       13.6214,       17.6671,            0.,NA,NA,"",       12.1041,       11.7045,      -3.08457,   1.58582E-03
C:/temp/dataset/7/25_5.odb,Step-1,Increment      1: Step Time =    1.000,"PART-1-1",           385,       12.4694,       16.3805,            0.,NA,NA,"",       11.6045,       11.3140,      -2.58029,   3.86587E-03
C:/temp/dataset/7/25_5.odb,Step-1,Increment      1: Step Time =    1.000,"PART-1-1",           386,       10.0881,       9.74649,            0.,NA,NA,"",       9.14602,       9.05678,      -1.27452,   8.08201E-03
C:/temp/dataset/7/25_5.odb,Step-1,Increment      1: Step Time =    1.000,"PART-1-1",           387,       9.10561,       8.57814,            0.,NA,NA,"",       8.74087,       8.69874,  -857.108E-03,   8.48796E-03
C:/temp/dataset/7/25_5.odb,Step-1,Increment      1: Step Time =    1.000,"PART-1-1",           388,       10.1162,       7.46436,            0.,NA,NA,"",       8.31735,       8.23984,      -1.13287,   8.05331E-03
C:/temp/dataset/7/25_5.odb,Step-1,Increment      1: Step Time =    1.000,"PART-1-1",           389,       11.0986,       8.63272,            0.,NA,NA,"",       8.73427,       8.59570,      -1.54970,   8.76113E-03
C:/temp/dataset/7/25_5.odb,Step-1,Increment      1: Step Time =    1.000,"PART-1-1",           390,       9.96644,       19.4124,            0.,NA,NA,"",       12.7260,       12.5852,      -1.88806,   2.13921E-03
C:/temp/dataset/7/25_5.odb,Step-1,Increment      1: Step Time =    1.000,"PART-1-1",           391,       10.9020,       20.3065,            0.,NA,NA,"",       13.0466,       12.8451,      -2.28455,   1.30866E-03
C:/temp/dataset/7/25_5.odb,Step-1,Increment      1: Step Time =    1.000,"PART-1-1",           392,       10.1153,       21.2880,            0.,NA,NA,"",       13.4133,       13.2530,      -2.06730,   764.521E-06
C:/temp/dataset/7/25_5.odb,Step-1,Increment      1: Step Time =    1.000,"PART-1-1",           393,       9.17975,       20.3940,            0.,NA,NA,"",       13.1009,       12.9940,      -1.67080,   1.58741E-03
C:/temp/dataset/7/25_5.odb,Step-1,Increment      1: Step Time =    1.000,"PART-1-1",           394,           15.,         28.75,            0.,NA,NA,"",       16.2017,       15.6129,      -4.32819,   29.7720E-06
C:/temp/dataset/7/25_5.odb,Step-1,Increment      1: Step Time =    1.000,"PART-1-1",           395,       14.0625,           30.,            0.,NA,NA,"",       16.6328,       16.1261,      -4.07439,   20.5719E-06
C:/temp/dataset/7/25_5.odb,Step-1,Increment      1: Step Time =    1.000,"PART-1-1",           396,       13.1487,       28.7914,            0.,NA,NA,"",       16.1726,       15.7521,      -3.66407,   103.466E-06
C:/temp/dataset/7/25_5.odb,Step-1,Increment      1: Step Time =    1.000,"PART-1-1",           397,       14.0862,       27.5414,            0.,NA,NA,"",       15.7346,       15.2390,      -3.91799,   117.329E-06
C:/temp/dataset/7/25_5.odb,Step-1,Increment      1: Step Time =    1.000,"PART-1-1",           398,       12.2440,       25.2848,            0.,NA,NA,"",       14.8773,       14.5502,      -3.10284,   228.177E-06
C:/temp/dataset/7/25_5.odb,Step-1,Increment      1: Step Time =    1.000,"PART-1-1",           399,       13.1763,       26.3811,            0.,NA,NA,"",       15.2911,       14.8823,      -3.51237,   217.544E-06
C:/temp/dataset/7/25_5.odb,Step-1,Increment      1: Step Time =    1.000,"PART-1-1",           400,       12.2376,       27.6217,            0.,NA,NA,"",       15.7329,       15.3920,      -3.25730,   197.173E-06
C:/temp/dataset/7/25_5.odb,Step-1,Increment      1: Step Time =    1.000,"PART-1-1",           401,       11.3053,       26.5254,            0.,NA,NA,"",       15.3268,       15.0599,      -2.84778,   213.845E-06
C:/temp/dataset/7/25_5.odb,Step-1,Increment      1: Step Time =    1.000,"PART-1-1",           402,       12.1875,           30.,            0.,NA,NA,"",       16.6035,       16.2519,      -3.39890,   112.551E-06
C:/temp/dataset/7/25_5.odb,Step-1,Increment      1: Step Time =    1.000,"PART-1-1",           403,        6.5625,           30.,            0.,NA,NA,"",       16.6846,       16.6280,      -1.37304,   284.542E-06
C:/temp/dataset/7/25_5.odb,Step-1,Increment      1: Step Time =    1.000,"PART-1-1",           404,       5.40000,       28.6589,            0.,NA,NA,"",       16.2461,       16.2231,  -864.847E-03,   176.297E-06
C:/temp/dataset/7/25_5.odb,Step-1,Increment      1: Step Time =    1.000,"PART-1-1",           405,       6.32063,       27.5176,            0.,NA,NA,"",       15.7907,       15.7509,      -1.11951,   135.647E-06
C:/temp/dataset/7/25_5.odb,Step-1,Increment      1: Step Time =    1.000,"PART-1-1",           406,        2.8125,           30.,            0.,NA,NA,"",       16.8782,       16.8782,  -24.1023E-03,   113.029E-06
C:/temp/dataset/7/25_5.odb,Step-1,Increment      1: Step Time =    1.000,"PART-1-1",           407,       1.86631,       29.3706,            0.,NA,NA,"",       16.7190,       16.7151,   358.241E-03,   67.6062E-06
C:/temp/dataset/7/25_5.odb,Step-1,Increment      1: Step Time =    1.000,"PART-1-1",           408,       2.52123,       28.3750,            0.,NA,NA,"",       16.3144,       16.3133,   189.390E-03,   108.808E-06
C:/temp/dataset/7/25_5.odb,Step-1,Increment      1: Step Time =    1.000,"PART-1-1",           409,       3.46742,       29.0044,            0.,NA,NA,"",       16.4776,       16.4765,  -192.960E-03,   123.933E-06
C:/temp/dataset/7/25_5.odb,Step-1,Increment      1: Step Time =    1.000,"PART-1-1",           410,       1.19073,       28.4486,            0.,NA,NA,"",       16.4421,       16.4287,   662.845E-03,   68.8327E-06
C:/temp/dataset/7/25_5.odb,Step-1,Increment      1: Step Time =    1.000,"PART-1-1",           411,      -2.48443,       27.9761,            0.,NA,NA,"",       16.6272,       16.5045,       2.01588,   12.3628E-06
C:/temp/dataset/7/25_5.odb,Step-1,Increment      1: Step Time =    1.000,"PART-1-1",           412,       -2.8125,           30.,            0.,NA,NA,"",       17.3696,       17.2543,       1.99847,   1.29584E-06
C:/temp/dataset/7/25_5.odb,Step-1,Increment      1: Step Time =    1.000,"PART-1-1",           413,      -7.28733,       29.0238,            0.,NA,NA,"",       17.5903,       17.2025,       3.67284,   1.48149E-06
C:/temp/dataset/7/25_5.odb,Step-1,Increment      1: Step Time =    1.000,"PART-1-1",           414,      -6.19423,       28.1363,            0.,NA,NA,"",       17.1387,       16.8103,       3.33914,   998.826E-09
C:/temp/dataset/7/25_5.odb,Step-1,Increment      1: Step Time =    1.000,"PART-1-1",           415,       -6.5625,           30.,            0.,NA,NA,"",       17.8222,       17.5051,       3.34690,   2.89435E-06
C:/temp/dataset/7/25_5.odb,Step-1,Increment      1: Step Time =    1.000,"PART-1-1",           416,      -11.8079,       27.5253,            0.,NA,NA,"",       17.8043,       16.9661,       5.39863,   485.424E-09
C:/temp/dataset/7/25_5.odb,Step-1,Increment      1: Step Time =    1.000,"PART-1-1",           417,      -12.6125,       26.1842,            0.,NA,NA,"",       17.5179,       16.5377,       5.77764,   284.406E-09
C:/temp/dataset/7/25_5.odb,Step-1,Increment      1: Step Time =    1.000,"PART-1-1",           418,      -8.13992,       23.4434,            0.,NA,NA,"",       15.8618,       15.2529,       4.35269,   1.30231E-06
C:/temp/dataset/7/25_5.odb,Step-1,Increment      1: Step Time =    1.000,"PART-1-1",           419,       -8.4375,           30.,            0.,NA,NA,"",       18.0833,       17.6305,       4.02113,   1.61344E-06
C:/temp/dataset/7/25_5.odb,Step-1,Increment      1: Step Time =    1.000,"PART-1-1",           420,      -8.00049,       27.9480,            0.,NA,NA,"",       17.3316,       16.8634,       4.00124,   1.22160E-06
C:/temp/dataset/7/25_5.odb,Step-1,Increment      1: Step Time =    1.000,"PART-1-1",           421,      -12.1875,           30.,            0.,NA,NA,"",       18.6702,       17.8813,       5.36959,   231.419E-09
C:/temp/dataset/7/25_5.odb,Step-1,Increment      1: Step Time =    1.000,"PART-1-1",           422,          -15.,         26.25,            0.,NA,NA,"",       17.9881,       16.7210,       6.63177,   175.138E-09
C:/temp/dataset/7/25_5.odb,Step-1,Increment      1: Step Time =    1.000,"PART-1-1",           423,  -614.199E-03,       25.3895,            0.,NA,NA,"",       15.5235,       15.4493,       1.51637,   41.9653E-06
C:/temp/dataset/7/25_5.odb,Step-1,Increment      1: Step Time =    1.000,"PART-1-1",           424,      -1.97220,       26.8586,            0.,NA,NA,"",       16.1811,       16.0684,       1.90644,   19.6934E-06
C:/temp/dataset/7/25_5.odb,Step-1,Increment      1: Step Time =    1.000,"PART-1-1",           425,      -1.74113,       25.3247,            0.,NA,NA,"",       15.6206,       15.5014,       1.92593,   27.6533E-06
C:/temp/dataset/7/25_5.odb,Step-1,Increment      1: Step Time =    1.000,"PART-1-1",           426,       8.18659,       21.6045,            0.,NA,NA,"",       13.5697,       13.4979,      -1.39424,   675.556E-06
C:/temp/dataset/7/25_5.odb,Step-1,Increment      1: Step Time =    1.000,"PART-1-1",           427,       9.25192,       22.4602,            0.,NA,NA,"",       13.8561,       13.7341,      -1.83504,   495.385E-06
C:/temp/dataset/7/25_5.odb,Step-1,Increment      1: Step Time =    1.000,"PART-1-1",           428,       8.38526,       23.6138,            0.,NA,NA,"",       14.2976,       14.2078,      -1.60044,   225.164E-06
C:/temp/dataset/7/25_5.odb,Step-1,Increment      1: Step Time =    1.000,"PART-1-1",           429,       7.31993,       22.7581,            0.,NA,NA,"",       14.0194,       13.9714,      -1.15969,   360.242E-06
C:/temp/dataset/7/25_5.odb,Step-1,Increment      1: Step Time =    1.000,"PART-1-1",           430,           15.,         26.25,            0.,NA,NA,"",       15.2895,       14.7125,      -4.16062,   214.841E-06
C:/temp/dataset/7/25_5.odb,Step-1,Increment      1: Step Time =    1.000,"PART-1-1",           431,        4.6875,           30.,            0.,NA,NA,"",       16.7676,       16.7531,  -698.432E-03,   204.704E-06
C:/temp/dataset/7/25_5.odb,Step-1,Increment      1: Step Time =    1.000,"PART-1-1",           432,       9.38339,       24.5308,            0.,NA,NA,"",       14.6114,       14.4709,      -2.02142,   180.986E-06
C:/temp/dataset/7/25_5.odb,Step-1,Increment      1: Step Time =    1.000,"PART-1-1",           433,       8.53172,       25.6694,            0.,NA,NA,"",       15.0448,       14.9378,      -1.79120,   138.692E-06
C:/temp/dataset/7/25_5.odb,Step-1,Increment      1: Step Time =    1.000,"PART-1-1",           434,       7.53359,       24.7524,            0.,NA,NA,"",       14.7385,       14.6747,      -1.37037,   177.457E-06
C:/temp/dataset/7/25_5.odb,Step-1,Increment      1: Step Time =    1.000,"PART-1-1",           435,     937.5E-03,           30.,            0.,NA,NA,"",       17.0159,       17.0035,   650.102E-03,   45.7200E-06
C:/temp/dataset/7/25_5.odb,Step-1,Increment      1: Step Time =    1.000,"PART-1-1",           436,       5.64845,       26.5466,            0.,NA,NA,"",       15.4678,       15.4465,  -812.623E-03,   171.887E-06
C:/temp/dataset/7/25_5.odb,Step-1,Increment      1: Step Time =    1.000,"PART-1-1",           437,       4.65082,       24.6490,            0.,NA,NA,"",       14.8340,       14.8304,  -326.829E-03,   259.642E-06
C:/temp/dataset/7/25_5.odb,Step-1,Increment      1: Step Time =    1.000,"PART-1-1",           438,       5.82711,       24.9927,            0.,NA,NA,"",       14.8954,       14.8754,  -772.713E-03,   192.495E-06
C:/temp/dataset/7/25_5.odb,Step-1,Increment      1: Step Time =    1.000,"PART-1-1",           439,      -3.57200,       27.5772,            0.,NA,NA,"",       16.6131,       16.4338,       2.43362,   5.31528E-06
C:/temp/dataset/7/25_5.odb,Step-1,Increment      1: Step Time =    1.000,"PART-1-1",           440,      -3.05977,       26.4597,            0.,NA,NA,"",       16.1657,       15.9977,       2.32418,   11.7900E-06
C:/temp/dataset/7/25_5.odb,Step-1,Increment      1: Step Time =    1.000,"PART-1-1",           441,      -4.23358,       26.7178,            0.,NA,NA,"",       16.3977,       16.1691,       2.72900,   4.38883E-06
C:/temp/dataset/7/25_5.odb,Step-1,Increment      1: Step Time =    1.000,"PART-1-1",           442,      -5.07335,       27.3652,            0.,NA,NA,"",       16.7270,       16.4580,       2.98766,   1.23767E-06
C:/temp/dataset/7/25_5.odb,Step-1,Increment      1: Step Time =    1.000,"PART-1-1",           443,      -5.65848,       26.3267,            0.,NA,NA,"",       16.4515,       16.1238,       3.26753,   1.35019E-06
C:/temp/dataset/7/25_5.odb,Step-1,Increment      1: Step Time =    1.000,"PART-1-1",           444,      -6.77936,       27.0978,            0.,NA,NA,"",       16.8688,       16.4760,       3.61901,   1.15949E-06
C:/temp/dataset/7/25_5.odb,Step-1,Increment      1: Step Time =    1.000,"PART-1-1",           445,       13.0726,       6.26892,            0.,NA,NA,"",       7.92388,       7.65053,      -2.06329,   13.2417E-03
C:/temp/dataset/7/25_5.odb,Step-1,Increment      1: Step Time =    1.000,"PART-1-1",           446,       14.0382,       5.02867,            0.,NA,NA,"",       7.53374,       7.17329,      -2.30243,   18.0028E-03
C:/temp/dataset/7/25_5.odb,Step-1,Increment      1: Step Time =    1.000,"PART-1-1",           447,           15.,          6.25,            0.,NA,NA,"",       8.01831,       7.53855,      -2.73195,   19.7305E-03
C:/temp/dataset/7/25_5.odb,Step-1,Increment      1: Step Time =    1.000,"PART-1-1",           448,       14.0344,       7.49025,            0.,NA,NA,"",       8.39831,       8.02098,      -2.48908,   14.2948E-03
C:/temp/dataset/7/25_5.odb,Step-1,Increment      1: Step Time =    1.000,"PART-1-1",           449,            5.,       12.7083,            0.,NA,NA,"",       10.4843,       10.4789,   337.850E-03,   8.62824E-03
C:/temp/dataset/7/25_5.odb,Step-1,Increment      1: Step Time =    1.000,"PART-1-1",           450,       6.97129,       12.7632,            0.,NA,NA,"",       10.3669,       10.3601,  -376.238E-03,   8.01339E-03
C:/temp/dataset/7/25_5.odb,Step-1,Increment      1: Step Time =    1.000,"PART-1-1",           451,       8.08110,       9.66220,            0.,NA,NA,"",       9.17218,       9.15446,  -569.869E-03,   8.43546E-03
C:/temp/dataset/7/25_5.odb,Step-1,Increment      1: Step Time =    1.000,"PART-1-1",           452,       8.10192,       7.46894,            0.,NA,NA,"",       8.37799,       8.36624,  -443.579E-03,   9.51468E-03
C:/temp/dataset/7/25_5.odb,Step-1,Increment      1: Step Time =    1.000,"PART-1-1",           453,            5.,        -1.875,            0.,NA,NA,"",       5.46973,       5.38610,   952.825E-03,   35.4677E-03
C:/temp/dataset/7/25_5.odb,Step-1,Increment      1: Step Time =    1.000,"PART-1-1",           454,       6.91011,      -2.19684,            0.,NA,NA,"",       5.18311,       5.16886,   384.091E-03,   23.1350E-03
C:/temp/dataset/7/25_5.odb,Step-1,Increment      1: Step Time =    1.000,"PART-1-1",           455,       11.0205,  -751.161E-03,            0.,NA,NA,"",       5.49597,       5.41788,  -923.190E-03,   10.2246E-03
C:/temp/dataset/7/25_5.odb,Step-1,Increment      1: Step Time =    1.000,"PART-1-1",           456,       13.1408,      -16.1676,            0.,NA,NA,"",       1.53478,       1.39355,  -643.094E-03,   38.0883E-03
C:/temp/dataset/7/25_5.odb,Step-1,Increment      1: Step Time =    1.000,"PART-1-1",           457,       14.0839,      -17.4497,            0.,NA,NA,"",       1.38580,       1.17044,  -741.954E-03,   51.6572E-03
C:/temp/dataset/7/25_5.odb,Step-1,Increment      1: Step Time =    1.000,"PART-1-1",           458,           15.,        -16.25,            0.,NA,NA,"",       1.70560,       1.38737,  -992.094E-03,   61.4759E-03
C:/temp/dataset/7/25_5.odb,Step-1,Increment      1: Step Time =    1.000,"PART-1-1",           459,            5.,       -14.375,            0.,NA,NA,"",       2.14697,       1.95475,   887.942E-03,   59.1277E-03
C:/temp/dataset/7/25_5.odb,Step-1,Increment      1: Step Time =    1.000,"PART-1-1",           460,       6.11916,      -15.3567,            0.,NA,NA,"",       1.81476,       1.69713,   642.726E-03,   47.8667E-03
C:/temp/dataset/7/25_5.odb,Step-1,Increment      1: Step Time =    1.000,"PART-1-1",           461,       13.0403,       1.40949,            0.,NA,NA,"",       6.25501,       6.01918,      -1.70137,   18.1866E-03
C:/temp/dataset/7/25_5.odb,Step-1,Increment      1: Step Time =    1.000,"PART-1-1",           462,       14.0142,   96.5788E-03,            0.,NA,NA,"",       5.87894,       5.55632,      -1.92076,   25.2053E-03
C:/temp/dataset/7/25_5.odb,Step-1,Increment      1: Step Time =    1.000,"PART-1-1",           463,           15.,          1.25,            0.,NA,NA,"",       6.32675,       5.88108,      -2.33253,   29.1297E-03
C:/temp/dataset/7/25_5.odb,Step-1,Increment      1: Step Time =    1.000,"PART-1-1",           464,       14.0261,       2.56291,            0.,NA,NA,"",       6.69162,       6.35008,      -2.11052,   21.6219E-03
C:/temp/dataset/7/25_5.odb,Step-1,Increment      1: Step Time =    1.000,"PART-1-1",           465,            5.,      -10.2083,            0.,NA,NA,"",       3.11182,       2.95396,   978.558E-03,   51.2156E-03
C:/temp/dataset/7/25_5.odb,Step-1,Increment      1: Step Time =    1.000,"PART-1-1",           466,       6.86187,      -9.97015,            0.,NA,NA,"",       2.97283,       2.92514,   530.371E-03,   32.6643E-03
C:/temp/dataset/7/25_5.odb,Step-1,Increment      1: Step Time =    1.000,"PART-1-1",           467,            5.,      -24.7917,            0.,NA,NA,"",   492.328E-03,   321.061E-03,   373.238E-03,   77.3482E-03
C:/temp/dataset/7/25_5.odb,Step-1,Increment      1: Step Time =    1.000,"PART-1-1",           468,       6.13477,      -25.7685,            0.,NA,NA,"",   311.600E-03,   205.712E-03,   234.045E-03,   62.5724E-03
C:/temp/dataset/7/25_5.odb,Step-1,Increment      1: Step Time =    1.000,"PART-1-1",           469,       13.1299,      -20.9468,            0.,NA,NA,"",   756.056E-03,   638.017E-03,  -405.655E-03,   43.0220E-03
C:/temp/dataset/7/25_5.odb,Step-1,Increment      1: Step Time =    1.000,"PART-1-1",           470,       14.0295,      -22.3095,            0.,NA,NA,"",   659.167E-03,   487.141E-03,  -444.066E-03,   58.1189E-03
C:/temp/dataset/7/25_5.odb,Step-1,Increment      1: Step Time =    1.000,"PART-1-1",           471,           15.,        -21.25,            0.,NA,NA,"",   895.448E-03,   632.213E-03,  -634.141E-03,   70.6090E-03
C:/temp/dataset/7/25_5.odb,Step-1,Increment      1: Step Time =    1.000,"PART-1-1",           472,       14.1003,      -19.8873,            0.,NA,NA,"",   993.022E-03,   793.671E-03,  -596.808E-03,   55.4270E-03
C:/temp/dataset/7/25_5.odb,Step-1,Increment      1: Step Time =    1.000,"PART-1-1",           473,            5.,       -26.875,            0.,NA,NA,"",   288.600E-03,   170.396E-03,   232.928E-03,   80.7982E-03
C:/temp/dataset/7/25_5.odb,Step-1,Increment      1: Step Time =    1.000,"PART-1-1",           474,       7.35824,      -26.7740,            0.,NA,NA,"",   160.271E-03,   107.251E-03,   119.096E-03,   45.4901E-03
C:/temp/dataset/7/25_5.odb,Step-1,Increment      1: Step Time =    1.000,"PART-1-1",           475,       11.2665,      -23.4125,            0.,NA,NA,"",   358.471E-03,   339.452E-03,  -115.210E-03,   19.1536E-03
C:/temp/dataset/7/25_5.odb,Step-1,Increment      1: Step Time =    1.000,"PART-1-1",           476,       10.8283,      -24.9299,            0.,NA,NA,"",   206.729E-03,   199.411E-03,  -54.5167E-03,   13.5644E-03
C:/temp/dataset/7/25_5.odb,Step-1,Increment      1: Step Time =    1.000,"PART-1-1",           477,            5.,      -16.4583,            0.,NA,NA,"",       1.72714,       1.52186,   816.680E-03,   63.0825E-03
C:/temp/dataset/7/25_5.odb,Step-1,Increment      1: Step Time =    1.000,"PART-1-1",           478,       7.29529,      -16.4772,            0.,NA,NA,"",       1.48786,       1.43084,   407.930E-03,   35.4605E-03
C:/temp/dataset/7/25_5.odb,Step-1,Increment      1: Step Time =    1.000,"PART-1-1",           479,            5.,       18.9583,            0.,NA,NA,"",       12.7676,       12.7674,  -75.7705E-03,   4.01036E-03
C:/temp/dataset/7/25_5.odb,Step-1,Increment      1: Step Time =    1.000,"PART-1-1",           480,       6.05050,       17.7875,            0.,NA,NA,"",       12.2757,       12.2699,  -375.497E-03,   5.07337E-03
C:/temp/dataset/7/25_5.odb,Step-1,Increment      1: Step Time =    1.000,"PART-1-1",           481,       7.11573,       18.6629,            0.,NA,NA,"",       12.5379,       12.5114,  -814.769E-03,   4.20661E-03
C:/temp/dataset/7/25_5.odb,Step-1,Increment      1: Step Time =    1.000,"PART-1-1",           482,       6.06524,       19.8338,            0.,NA,NA,"",       13.0163,       13.0062,  -513.833E-03,   2.69405E-03
C:/temp/dataset/7/25_5.odb,Step-1,Increment      1: Step Time =    1.000,"PART-1-1",           483,       6.98524,       16.7251,            0.,NA,NA,"",       11.8339,       11.8165,  -641.392E-03,   6.03892E-03
C:/temp/dataset/7/25_5.odb,Step-1,Increment      1: Step Time =    1.000,"PART-1-1",           484,            5.,        16.875,            0.,NA,NA,"",       12.0140,       12.0138,   63.2440E-03,   4.93281E-03
C:/temp/dataset/7/25_5.odb,Step-1,Increment      1: Step Time =    1.000,"PART-1-1",           485,       7.88091,       13.8682,            0.,NA,NA,"",       10.7321,       10.7042,  -772.979E-03,   8.01066E-03
C:/temp/dataset/7/25_5.odb,Step-1,Increment      1: Step Time =    1.000,"PART-1-1",           486,       7.65947,       15.6945,            0.,NA,NA,"",       11.4203,       11.3912,  -815.058E-03,   6.95374E-03
C:/temp/dataset/7/25_5.odb,Step-1,Increment      1: Step Time =    1.000,"PART-1-1",           487,       8.92157,       12.9075,            0.,NA,NA,"",       10.3374,       10.2811,      -1.07783,   8.23406E-03
C:/temp/dataset/7/25_5.odb,Step-1,Increment      1: Step Time =    1.000,"PART-1-1",           488,       9.98918,       11.9956,            0.,NA,NA,"",       9.97568,       9.87797,      -1.39280,   8.02751E-03
C:/temp/dataset/7/25_5.odb,Step-1,Increment      1: Step Time =    1.000,"PART-1-1",           489,       10.7968,       13.3004,            0.,NA,NA,"",       10.4520,       10.3013,      -1.76838,   7.39240E-03
C:/temp/dataset/7/25_5.odb,Step-1,Increment      1: Step Time =    1.000,"PART-1-1",           490,       13.0565,       8.69239,            0.,NA,NA,"",       8.78938,       8.50021,      -2.23597,   10.7777E-03
C:/temp/dataset/7/25_5.odb,Step-1,Increment      1: Step Time =    1.000,"PART-1-1",           491,           15.,          8.75,            0.,NA,NA,"",       8.90147,       8.40586,      -2.92876,   14.9248E-03
C:/temp/dataset/7/25_5.odb,Step-1,Increment      1: Step Time =    1.000,"PART-1-1",           492,       14.0220,       9.95215,            0.,NA,NA,"",       9.28231,       8.88961,      -2.67136,   10.5665E-03
C:/temp/dataset/7/25_5.odb,Step-1,Increment      1: Step Time =    1.000,"PART-1-1",           493,       8.15713,      -6.43409,            0.,NA,NA,"",       3.83309,       3.83028,   146.762E-03,   18.3026E-03
C:/temp/dataset/7/25_5.odb,Step-1,Increment      1: Step Time =    1.000,"PART-1-1",           494,       7.55707,      -5.50995,            0.,NA,NA,"",       4.13551,       4.12553,   287.038E-03,   21.9304E-03
C:/temp/dataset/7/25_5.odb,Step-1,Increment      1: Step Time =    1.000,"PART-1-1",           495,       13.0039,      -1.03047,            0.,NA,NA,"",       5.46019,       5.24439,      -1.51988,   20.5524E-03
C:/temp/dataset/7/25_5.odb,Step-1,Increment      1: Step Time =    1.000,"PART-1-1",           496,       13.9897,      -2.37705,            0.,NA,NA,"",       5.09760,       4.79503,      -1.73009,   28.6807E-03
C:/temp/dataset/7/25_5.odb,Step-1,Increment      1: Step Time =    1.000,"PART-1-1",           497,           15.,         -1.25,            0.,NA,NA,"",       5.52849,       5.10045,      -2.13300,   33.7749E-03
C:/temp/dataset/7/25_5.odb,Step-1,Increment      1: Step Time =    1.000,"PART-1-1",           498,       11.0188,      -11.3444,            0.,NA,NA,"",       2.47770,       2.44295,  -413.492E-03,   12.6789E-03
C:/temp/dataset/7/25_5.odb,Step-1,Increment      1: Step Time =    1.000,"PART-1-1",           499,       9.94563,      -10.3262,            0.,NA,NA,"",       2.72712,       2.71993,  -197.871E-03,   8.17708E-03
C:/temp/dataset/7/25_5.odb,Step-1,Increment      1: Step Time =    1.000,"PART-1-1",           500,       9.07908,      -11.6768,            0.,NA,NA,"",       2.41628,       2.41603,   35.0771E-03,   13.5225E-03
C:/temp/dataset/7/25_5.odb,Step-1,Increment      1: Step Time =    1.000,"PART-1-1",           501,       10.1523,      -12.6950,            0.,NA,NA,"",       2.15605,       2.14875,  -177.299E-03,   8.04424E-03
C:/temp/dataset/7/25_5.odb,Step-1,Increment      1: Step Time =    1.000,"PART-1-1",           502,       11.2699,       24.2837,            0.,NA,NA,"",       14.5056,       14.2551,      -2.68454,   173.393E-06
C:/temp/dataset/7/25_5.odb,Step-1,Increment      1: Step Time =    1.000,"PART-1-1",           503,       12.1787,       22.9892,            0.,NA,NA,"",       14.0356,       13.7274,      -2.92518,   152.687E-06
C:/temp/dataset/7/25_5.odb,Step-1,Increment      1: Step Time =    1.000,"PART-1-1",           504,           15.,         -3.75,            0.,NA,NA,"",       4.76849,       4.35817,      -1.93516,   38.4124E-03
C:/temp/dataset/7/25_5.odb,Step-1,Increment      1: Step Time =    1.000,"PART-1-1",           505,       12.9359,      -3.49956,            0.,NA,NA,"",       4.69055,       4.49693,      -1.33374,   22.6639E-03
C:/temp/dataset/7/25_5.odb,Step-1,Increment      1: Step Time =    1.000,"PART-1-1",           506,           15.,        -11.25,            0.,NA,NA,"",       2.76575,       2.40872,      -1.35919,   52.3149E-03
C:/temp/dataset/7/25_5.odb,Step-1,Increment      1: Step Time =    1.000,"PART-1-1",           507,       12.9838,      -11.1958,            0.,NA,NA,"",       2.59433,       2.44141,  -877.538E-03,   31.0811E-03
C:/temp/dataset/7/25_5.odb,Step-1,Increment      1: Step Time =    1.000,"PART-1-1",           508,           15.,         11.25,            0.,NA,NA,"",       9.80227,       9.29211,      -3.12108,   10.1107E-03
C:/temp/dataset/7/25_5.odb,Step-1,Increment      1: Step Time =    1.000,"PART-1-1",           509,       12.9950,       11.1325,            0.,NA,NA,"",       9.67601,       9.37532,      -2.39344,   8.40289E-03
C:/temp/dataset/7/25_5.odb,Step-1,Increment      1: Step Time =    1.000,"PART-1-1",           510,           15.,          3.75,            0.,NA,NA,"",       7.15835,       6.69535,      -2.53265,   24.4569E-03
C:/temp/dataset/7/25_5.odb,Step-1,Increment      1: Step Time =    1.000,"PART-1-1",           511,       13.0643,       3.84158,            0.,NA,NA,"",       7.07752,       6.82231,      -1.88344,   15.7322E-03
C:/temp/dataset/7/25_5.odb,Step-1,Increment      1: Step Time =    1.000,"PART-1-1",           512,           15.,        -18.75,            0.,NA,NA,"",       1.26859,   974.249E-03,  -812.501E-03,   66.0117E-03
C:/temp/dataset/7/25_5.odb,Step-1,Increment      1: Step Time =    1.000,"PART-1-1",           513,       13.1842,      -18.5870,            0.,NA,NA,"",       1.11179,   978.498E-03,  -527.845E-03,   41.2889E-03
C:/temp/dataset/7/25_5.odb,Step-1,Increment      1: Step Time =    1.000,"PART-1-1",           514,       13.5513,      -24.7801,            0.,NA,NA,"",   356.023E-03,   241.370E-03,  -261.711E-03,   53.9444E-03
C:/temp/dataset/7/25_5.odb,Step-1,Increment      1: Step Time =    1.000,"PART-1-1",           515,       12.2413,      -25.9996,            0.,NA,NA,"",   177.122E-03,   130.347E-03,  -119.924E-03,   34.7436E-03
C:/temp/dataset/7/25_5.odb,Step-1,Increment      1: Step Time =    1.000,"PART-1-1",           516,           15.,        -26.25,            0.,NA,NA,"",   330.948E-03,   180.928E-03,  -277.113E-03,   79.2399E-03
C:/temp/dataset/7/25_5.odb,Step-1,Increment      1: Step Time =    1.000,"PART-1-1",           517,           15.,        -23.75,            0.,NA,NA,"",   584.548E-03,   366.307E-03,  -455.539E-03,   74.5223E-03
C:/temp/dataset/7/25_5.odb,Step-1,Increment      1: Step Time =    1.000,"PART-1-1",           518,       12.5809,      -23.3397,            0.,NA,NA,"",   429.597E-03,   355.785E-03,  -240.770E-03,   37.7008E-03
C:/temp/dataset/7/25_5.odb,Step-1,Increment      1: Step Time =    1.000,"PART-1-1",           519,       9.49127,      -18.7202,            0.,NA,NA,"",   978.326E-03,   977.428E-03,   41.9068E-03,   11.8060E-03
C:/temp/dataset/7/25_5.odb,Step-1,Increment      1: Step Time =    1.000,"PART-1-1",           520,       8.36047,      -17.5836,            0.,NA,NA,"",       1.21482,       1.19513,   217.786E-03,   23.6752E-03
C:/temp/dataset/7/25_5.odb,Step-1,Increment      1: Step Time =    1.000,"PART-1-1",           521,       11.5260,      -20.5498,            0.,NA,NA,"",   715.707E-03,   683.439E-03,  -212.478E-03,   21.0040E-03
C:/temp/dataset/7/25_5.odb,Step-1,Increment      1: Step Time =    1.000,"PART-1-1",           522,       10.5221,      -19.7870,            0.,NA,NA,"",   803.358E-03,   797.776E-03,  -94.5409E-03,   9.57647E-03
C:/temp/dataset/7/25_5.odb,Step-1,Increment      1: Step Time =    1.000,"PART-1-1",           523,       11.0260,      -21.8608,            0.,NA,NA,"",   527.822E-03,   513.735E-03,  -121.132E-03,   14.9400E-03
C:/temp/dataset/7/25_5.odb,Step-1,Increment      1: Step Time =    1.000,"PART-1-1",           524,       7.98010,      -10.7619,            0.,NA,NA,"",       2.69154,       2.67776,   271.996E-03,   22.8648E-03
C:/temp/dataset/7/25_5.odb,Step-1,Increment      1: Step Time =    1.000,"PART-1-1",           525,       8.65118,      -4.78401,            0.,NA,NA,"",       4.28773,       4.28756,  -38.2920E-03,   13.9696E-03
C:/temp/dataset/7/25_5.odb,Step-1,Increment      1: Step Time =    1.000,"PART-1-1",           526,       7.84665,      -3.50518,            0.,NA,NA,"",       4.71408,       4.71173,   148.879E-03,   18.0894E-03
C:/temp/dataset/7/25_5.odb,Step-1,Increment      1: Step Time =    1.000,"PART-1-1",           527,       9.43586,      -6.49799,            0.,NA,NA,"",       3.76301,       3.75799,  -194.290E-03,   9.65987E-03
C:/temp/dataset/7/25_5.odb,Step-1,Increment      1: Step Time =    1.000,"PART-1-1",           528,       10.6293,      -5.79077,            0.,NA,NA,"",       3.95100,       3.91297,  -546.869E-03,   9.43934E-03
C:/temp/dataset/7/25_5.odb,Step-1,Increment      1: Step Time =    1.000,"PART-1-1",           529,       11.1144,       3.95682,            0.,NA,NA,"",       7.07337,       6.96349,      -1.24191,   9.54503E-03
C:/temp/dataset/7/25_5.odb,Step-1,Increment      1: Step Time =    1.000,"PART-1-1",           530,       10.1270,       5.17226,            0.,NA,NA,"",       7.50168,       7.43602,  -990.302E-03,   8.04239E-03
C:/temp/dataset/7/25_5.odb,Step-1,Increment      1: Step Time =    1.000,"PART-1-1",           531,       9.05317,       10.7826,            0.,NA,NA,"",       9.54786,       9.49722,  -982.109E-03,   8.39025E-03
C:/temp/dataset/7/25_5.odb,Step-1,Increment      1: Step Time =    1.000,"PART-1-1",           532,       8.01195,       11.8024,            0.,NA,NA,"",       9.96054,       9.93711,  -682.817E-03,   7.98126E-03
C:/temp/dataset/7/25_5.odb,Step-1,Increment      1: Step Time =    1.000,"PART-1-1",           533,       11.0241,       10.9595,            0.,NA,NA,"",       9.58523,       9.43592,      -1.68525,   8.29053E-03
C:/temp/dataset/7/25_5.odb,Step-1,Increment      1: Step Time =    1.000,"PART-1-1",           534,       8.35051,       17.3209,            0.,NA,NA,"",       11.9945,       11.9374,      -1.16944,   4.93381E-03
C:/temp/dataset/7/25_5.odb,Step-1,Increment      1: Step Time =    1.000,"PART-1-1",           535,       12.5952,       19.1415,            0.,NA,NA,"",       12.6265,       12.3086,      -2.81544,   1.60507E-03
C:/temp/dataset/7/25_5.odb,Step-1,Increment      1: Step Time =    1.000,"PART-1-1",           536,           15.,         18.75,            0.,NA,NA,"",       12.5490,       12.0041,      -3.65781,   253.498E-06
C:/temp/dataset/7/25_5.odb,Step-1,Increment      1: Step Time =    1.000,"PART-1-1",           537,      -7.03326,       22.4462,            0.,NA,NA,"",       15.3562,       14.8203,       4.02145,   1.45445E-06
C:/temp/dataset/7/25_5.odb,Step-1,Increment      1: Step Time =    1.000,"PART-1-1",           538,      -8.48458,       21.3302,            0.,NA,NA,"",       15.2329,       14.5161,       4.61798,   1.05126E-06
C:/temp/dataset/7/25_5.odb,Step-1,Increment      1: Step Time =    1.000,"PART-1-1",           539,      -6.65000,           20.,            0.,NA,NA,"",       14.4917,       13.9151,       4.04726,   3.27556E-06
C:/temp/dataset/7/25_5.odb,Step-1,Increment      1: Step Time =    1.000,"PART-1-1",           540,      -5.19869,       21.1160,            0.,NA,NA,"",       14.6320,       14.2193,       3.45073,   2.59709E-06
C:/temp/dataset/7/25_5.odb,Step-1,Increment      1: Step Time =    1.000,"PART-1-1",           541,       9.42603,       26.6587,            0.,NA,NA,"",       15.3891,       15.2340,      -2.17967,   159.759E-06
C:/temp/dataset/7/25_5.odb,Step-1,Increment      1: Step Time =    1.000,"PART-1-1",           542,       10.3720,       25.4897,            0.,NA,NA,"",       14.9505,       14.7497,      -2.44194,   189.081E-06
C:/temp/dataset/7/25_5.odb,Step-1,Increment      1: Step Time =    1.000,"PART-1-1",           543,       6.87457,       25.7626,            0.,NA,NA,"",       15.1301,       15.0823,      -1.20107,   155.053E-06
C:/temp/dataset/7/25_5.odb,Step-1,Increment      1: Step Time =    1.000,"PART-1-1",           544,       7.54675,       26.7337,            0.,NA,NA,"",       15.4606,       15.3868,      -1.50810,   132.081E-06
C:/temp/dataset/7/25_5.odb,Step-1,Increment      1: Step Time =    1.000,"PART-1-1",           545,      -3.17643,       25.4018,            0.,NA,NA,"",       15.8140,       15.6251,       2.43688,   11.2179E-06
C:/temp/dataset/7/25_5.odb,Step-1,Increment      1: Step Time =    1.000,"PART-1-1",           546,      -4.35024,       25.6599,            0.,NA,NA,"",       16.0500,       15.7965,       2.84170,   4.99805E-06
C:/temp/dataset/7/25_5.odb,Step-1,Increment      1: Step Time =    1.000,"PART-1-1",           547,       4.01884,       22.4610,            0.,NA,NA,"",       14.0860,       14.0859,   46.2462E-03,   487.176E-06
C:/temp/dataset/7/25_5.odb,Step-1,Increment      1: Step Time =    1.000,"PART-1-1",           548,       5.32127,       23.1739,            0.,NA,NA,"",       14.2627,       14.2549,  -469.102E-03,   350.005E-06
C:/temp/dataset/7/25_5.odb,Step-1,Increment      1: Step Time =    1.000,"PART-1-1",           549,       11.1447,       22.1526,            0.,NA,NA,"",       13.7243,       13.4954,      -2.49621,   426.796E-06
C:/temp/dataset/7/25_5.odb,Step-1,Increment      1: Step Time =    1.000,"PART-1-1",           550,       10.2813,       23.3249,            0.,NA,NA,"",       14.1583,       13.9762,      -2.26388,   222.240E-06
C:/temp/dataset/7/25_5.odb,Step-1,Increment      1: Step Time =    1.000,"PART-1-1",           551,       6.15508,       21.9496,            0.,NA,NA,"",       13.7759,       13.7588,  -686.866E-03,   357.472E-06
C:/temp/dataset/7/25_5.odb,Step-1,Increment      1: Step Time =    1.000,"PART-1-1",           552,       6.48612,       23.9825,            0.,NA,NA,"",       14.4984,       14.4678,  -941.957E-03,   243.246E-06
C:/temp/dataset/7/25_5.odb,Step-1,Increment      1: Step Time =    1.000,"PART-1-1",           553,   6.30745E-03,       24.2683,            0.,NA,NA,"",       15.0668,       15.0046,       1.36820,   84.4350E-06
C:/temp/dataset/7/25_5.odb,Step-1,Increment      1: Step Time =    1.000,"PART-1-1",           554,      -1.65981,       23.6471,            0.,NA,NA,"",       15.0276,       14.8927,       2.00886,   28.3463E-06
C:/temp/dataset/7/25_5.odb,Step-1,Increment      1: Step Time =    1.000,"PART-1-1",           555,      -1.07768,       22.4355,            0.,NA,NA,"",       14.5402,       14.4181,       1.88052,   77.6685E-06
C:/temp/dataset/7/25_5.odb,Step-1,Increment      1: Step Time =    1.000,"PART-1-1",           556,   588.432E-03,       23.0567,            0.,NA,NA,"",       14.5827,       14.5299,       1.23984,   129.887E-06
C:/temp/dataset/7/25_5.odb,Step-1,Increment      1: Step Time =    1.000,"PART-1-1",           557,      -4.82218,       24.5397,            0.,NA,NA,"",       15.7310,       15.4252,       3.08633,   3.11400E-06
C:/temp/dataset/7/25_5.odb,Step-1,Increment      1: Step Time =    1.000,"PART-1-1",           558,      -3.09511,       23.7242,            0.,NA,NA,"",       15.2264,       15.0165,       2.51983,   10.2394E-06
C:/temp/dataset/7/25_5.odb,Step-1,Increment      1: Step Time =    1.000,"PART-1-1",           559,      -5.58708,       23.2486,            0.,NA,NA,"",       15.4029,       15.0121,       3.44775,   1.61415E-06
C:/temp/dataset/7/25_5.odb,Step-1,Increment      1: Step Time =    1.000,"PART-1-1",           560,       8.76337,      -9.49006,            0.,NA,NA,"",       2.97305,       2.97236,   64.2448E-03,   15.1828E-03
C:/temp/dataset/7/25_5.odb,Step-1,Increment      1: Step Time =    1.000,"PART-1-1",           561,       9.72759,      -26.4759,            0.,NA,NA,"",   94.0236E-03,   92.5579E-03,   16.5370E-03,   11.3884E-03
C:/temp/dataset/7/25_5.odb,Step-1,Increment      1: Step Time =    1.000,"PART-1-1",           562,       9.12173,       6.33780,            0.,NA,NA,"",       7.93546,       7.90242,  -723.450E-03,   8.78020E-03
C:/temp/dataset/7/25_5.odb,Step-1,Increment      1: Step Time =    1.000,"PART-1-1",           563,       11.1214,       6.29882,            0.,NA,NA,"",       7.89562,       7.77075,      -1.39866,   9.14248E-03
C:/temp/dataset/7/25_5.odb,Step-1,Increment      1: Step Time =    1.000,"PART-1-1",           564,       11.1740,      -13.7880,            0.,NA,NA,"",       1.92030,       1.88644,  -359.018E-03,   14.6492E-03
C:/temp/dataset/7/25_5.odb,Step-1,Increment      1: Step Time =    1.000,"PART-1-1",           565,       10.6612,      -8.65022,            0.,NA,NA,"",       3.15770,       3.12798,  -432.170E-03,   9.98022E-03
C:/temp/dataset/7/25_5.odb,Step-1,Increment      1: Step Time =    1.000,"PART-1-1",           566,       9.47894,      -7.81405,            0.,NA,NA,"",       3.39534,       3.39153,  -160.986E-03,   9.80348E-03
C:/temp/dataset/7/25_5.odb,Step-1,Increment      1: Step Time =    1.000,"PART-1-1",           567,       11.3640,      -18.5194,            0.,NA,NA,"",       1.01952,   989.503E-03,  -245.585E-03,   18.2019E-03
C:/temp/dataset/7/25_5.odb,Step-1,Increment      1: Step Time =    1.000,"PART-1-1",           568,       12.0025,       20.7886,            0.,NA,NA,"",       13.2262,       12.9449,      -2.71344,   680.771E-06
C:/temp/dataset/7/25_5.odb,Step-1,Increment      1: Step Time =    1.000,"PART-1-1",           569,       11.4947,       18.6594,            0.,NA,NA,"",       12.4392,       12.2081,      -2.38653,   2.18521E-03
C:/temp/dataset/7/25_5.odb,Step-1,Increment      1: Step Time =    1.000,"PART-1-1",           570,       9.39315,       18.1618,            0.,NA,NA,"",       12.2755,       12.1709,      -1.59872,   3.64131E-03
C:/temp/dataset/7/25_5.odb,Step-1,Increment      1: Step Time =    1.000,"PART-1-1",           571,       10.9214,       17.4088,            0.,NA,NA,"",       11.9772,       11.7925,      -2.09572,   3.71387E-03
C:/temp/dataset/7/25_5.odb,Step-1,Increment      1: Step Time =    1.000,"PART-1-1",           572,      -9.97500,           20.,            0.,NA,NA,"",       15.0783,       14.1375,       5.24289,   721.121E-09
C:/temp/dataset/7/25_5.odb,Step-1,Increment      1: Step Time =    1.000,"PART-1-1",           573,       11.9818,      -2.09472,            0.,NA,NA,"",       5.08541,       4.95669,      -1.13689,   15.3117E-03
C:/temp/dataset/7/25_5.odb,Step-1,Increment      1: Step Time =    1.000,"PART-1-1",           574,       12.0426,   313.093E-03,            0.,NA,NA,"",       5.85851,       5.71078,      -1.30737,   14.1020E-03
C:/temp/dataset/7/25_5.odb,Step-1,Increment      1: Step Time =    1.000,"PART-1-1",           575,       12.1686,      -14.9632,            0.,NA,NA,"",       1.70912,       1.63009,  -513.724E-03,   25.5265E-03
C:/temp/dataset/7/25_5.odb,Step-1,Increment      1: Step Time =    1.000,"PART-1-1",           576,       12.0880,      -12.5178,            0.,NA,NA,"",       2.23437,       2.15085,  -605.179E-03,   22.9517E-03
C:/temp/dataset/7/25_5.odb,Step-1,Increment      1: Step Time =    1.000,"PART-1-1",           577,       12.0767,       2.70437,            0.,NA,NA,"",       6.65733,       6.49156,      -1.47636,   12.7272E-03
C:/temp/dataset/7/25_5.odb,Step-1,Increment      1: Step Time =    1.000,"PART-1-1",           578,       11.6617,       14.7036,            0.,NA,NA,"",       10.9741,       10.7566,      -2.17401,   5.78631E-03
C:/temp/dataset/7/25_5.odb,Step-1,Increment      1: Step Time =    1.000,"PART-1-1",           579,       11.9561,       12.2406,            0.,NA,NA,"",       10.0636,       9.84106,      -2.10471,   7.36264E-03
C:/temp/dataset/7/25_5.odb,Step-1,Increment      1: Step Time =    1.000,"PART-1-1",           580,       12.3155,      -19.7087,            0.,NA,NA,"",   875.845E-03,   803.937E-03,  -347.548E-03,   30.8766E-03
C:/temp/dataset/7/25_5.odb,Step-1,Increment      1: Step Time =    1.000,"PART-1-1",           581,       12.3404,      -21.7879,            0.,NA,NA,"",   592.508E-03,   525.656E-03,  -273.406E-03,   32.6976E-03
C:/temp/dataset/7/25_5.odb,Step-1,Increment      1: Step Time =    1.000,"PART-1-1",           582,       12.2327,      -17.3977,            0.,NA,NA,"",       1.24891,       1.17447,  -424.719E-03,   28.0194E-03
C:/temp/dataset/7/25_5.odb,Step-1,Increment      1: Step Time =    1.000,"PART-1-1",           583,       12.1020,       5.09402,            0.,NA,NA,"",       7.48253,       7.29870,      -1.64843,   11.3332E-03
C:/temp/dataset/7/25_5.odb,Step-1,Increment      1: Step Time =    1.000,"PART-1-1",           584,       12.0630,       9.85139,            0.,NA,NA,"",       9.18676,       8.97269,      -1.97163,   8.67185E-03
C:/temp/dataset/7/25_5.odb,Step-1,Increment      1: Step Time =    1.000,"PART-1-1",           585,       12.0921,       7.47372,            0.,NA,NA,"",       8.32616,       8.12655,      -1.81223,   9.94751E-03
C:/temp/dataset/7/25_5.odb,Step-1,Increment      1: Step Time =    1.000,"PART-1-1",           586,       11.9146,      -10.0225,            0.,NA,NA,"",       2.82788,       2.74434,  -682.274E-03,   19.6402E-03
C:/temp/dataset/7/25_5.odb,Step-1,Increment      1: Step Time =    1.000,"PART-1-1",           587,       11.5993,      -7.26023,            0.,NA,NA,"",       3.54881,       3.47116,  -738.293E-03,   15.5332E-03
C:/temp/dataset/7/25_5.odb,Step-1,Increment      1: Step Time =    1.000,"PART-1-1",           588,       11.8707,      -4.56496,            0.,NA,NA,"",       4.32886,       4.22149,  -958.139E-03,   16.1432E-03
C:/temp/dataset/7/25_5.odb,Step-1,Increment      1: Step Time =    1.000,"PART-1-1",           589,      -3.86001,       22.4330,            0.,NA,NA,"",       14.8848,       14.6033,       2.88125,   4.99852E-06
C:/temp/dataset/7/25_5.odb,Step-1,Increment      1: Step Time =    1.000,"PART-1-1",           590,       3.35000,           20.,            0.,NA,NA,"",       13.2544,       13.2467,   450.482E-03,   985.655E-06
C:/temp/dataset/7/25_5.odb,Step-1,Increment      1: Step Time =    1.000,"PART-1-1",           591,       5.05511,       21.0689,            0.,NA,NA,"",       13.5182,       13.5162,  -233.394E-03,   542.840E-06
C:/temp/dataset/7/25_5.odb,Step-1,Increment      1: Step Time =    1.000,"PART-1-1",           592,       2.31373,       21.3921,            0.,NA,NA,"",       13.8353,       13.8161,   730.362E-03,   162.775E-06
C:/temp/dataset/7/25_5.odb,Step-1,Increment      1: Step Time =    1.000,"PART-1-1",           593,      -1.98632,       21.3170,            0.,NA,NA,"",       14.2604,       14.0767,       2.28212,   8.77759E-06
C:/temp/dataset/7/25_5.odb,Step-1,Increment      1: Step Time =    1.000,"PART-1-1",           594,   25.0000E-03,           20.,            0.,NA,NA,"",       13.5688,       13.4685,       1.64692,   32.0630E-06
C:/temp/dataset/7/25_5.odb,Step-1,Increment      1: Step Time =    1.000,"PART-1-1",           595,   933.640E-03,       21.1186,            0.,NA,NA,"",       13.8660,       13.8100,       1.24525,   115.141E-06
C:/temp/dataset/7/25_5.odb,Step-1,Increment      1: Step Time =    1.000,"PART-1-1",           596,       7.16521,       20.7144,            0.,NA,NA,"",       13.2823,       13.2471,  -967.553E-03,   1.53676E-03
C:/temp/dataset/7/25_5.odb,Step-1,Increment      1: Step Time =    1.000,"PART-1-1",           597,       8.15837,       19.5039,            0.,NA,NA,"",       12.8034,       12.7428,      -1.24453,   2.52471E-03
C:/temp/dataset/7/25_5.odb,Step-1,Increment      1: Step Time =    1.000,"PART-1-1",           598,      -3.32500,           20.,            0.,NA,NA,"",       13.9864,       13.6926,       2.85161,   3.15276E-06
