ODB Name,Step,Frame,Part Instance Name,    êﬂì_ÉâÉxÉã,X,Y,Z,Section Name,Material Name,Section Point,   U-Magnitude,          U-U1,          U-U2,       S-Mises
C:/temp/dataset/7/26_6.odb,Step-1,Increment      1: Step Time =    1.000,"PART-1-1",             1,          -15.,           20.,            0.,NA,NA,"",       15.1169,       13.6869,       6.41807,   5.53307E-09
C:/temp/dataset/7/26_6.odb,Step-1,Increment      1: Step Time =    1.000,"PART-1-1",             2,          -15.,           25.,            0.,NA,NA,"",       16.5062,       15.3202,       6.14377,   11.7087E-09
C:/temp/dataset/7/26_6.odb,Step-1,Increment      1: Step Time =    1.000,"PART-1-1",             3,      -11.6500,           20.,            0.,NA,NA,"",       14.5147,       13.5031,       5.32374,   17.0112E-09
C:/temp/dataset/7/26_6.odb,Step-1,Increment      1: Step Time =    1.000,"PART-1-1",             4,      -8.30000,           20.,            0.,NA,NA,"",       13.9747,       13.3193,       4.22942,   42.1995E-09
C:/temp/dataset/7/26_6.odb,Step-1,Increment      1: Step Time =    1.000,"PART-1-1",             5,           -5.,           20.,            0.,NA,NA,"",       13.5109,       13.1383,       3.15143,   306.162E-09
C:/temp/dataset/7/26_6.odb,Step-1,Increment      1: Step Time =    1.000,"PART-1-1",             6,      -1.65000,           20.,            0.,NA,NA,"",       13.1168,       12.9545,       2.05711,   1.37226E-06
C:/temp/dataset/7/26_6.odb,Step-1,Increment      1: Step Time =    1.000,"PART-1-1",             7,       1.70000,           20.,            0.,NA,NA,"",       12.8069,       12.7707,   962.778E-03,   19.5199E-06
C:/temp/dataset/7/26_6.odb,Step-1,Increment      1: Step Time =    1.000,"PART-1-1",             8,            5.,           20.,            0.,NA,NA,"",       12.5901,       12.5895,  -115.345E-03,   155.483E-06
C:/temp/dataset/7/26_6.odb,Step-1,Increment      1: Step Time =    1.000,"PART-1-1",             9,            5.,         13.75,            0.,NA,NA,"",       10.5582,       10.5559,   219.363E-03,   3.19329E-03
C:/temp/dataset/7/26_6.odb,Step-1,Increment      1: Step Time =    1.000,"PART-1-1",            10,            5.,           7.5,            0.,NA,NA,"",       8.50844,       8.49018,   557.040E-03,   8.55448E-03
C:/temp/dataset/7/26_6.odb,Step-1,Increment      1: Step Time =    1.000,"PART-1-1",            11,            5.,          1.25,            0.,NA,NA,"",       6.47137,       6.41911,   820.755E-03,   21.4726E-03
C:/temp/dataset/7/26_6.odb,Step-1,Increment      1: Step Time =    1.000,"PART-1-1",            12,            5.,           -5.,            0.,NA,NA,"",       4.58109,       4.47887,   962.353E-03,   35.4831E-03
C:/temp/dataset/7/26_6.odb,Step-1,Increment      1: Step Time =    1.000,"PART-1-1",            13,            5.,        -11.25,            0.,NA,NA,"",       2.92222,       2.76166,   955.286E-03,   49.6510E-03
C:/temp/dataset/7/26_6.odb,Step-1,Increment      1: Step Time =    1.000,"PART-1-1",            14,            5.,         -17.5,            0.,NA,NA,"",       1.58567,       1.37788,   784.726E-03,   63.9762E-03
C:/temp/dataset/7/26_6.odb,Step-1,Increment      1: Step Time =    1.000,"PART-1-1",            15,            5.,        -23.75,            0.,NA,NA,"",   635.690E-03,   444.453E-03,   454.492E-03,   77.7528E-03
C:/temp/dataset/7/26_6.odb,Step-1,Increment      1: Step Time =    1.000,"PART-1-1",            16,            5.,          -30.,            0.,NA,NA,"",            0.,   28.6416E-39,   53.8096E-39,   104.917E-03
C:/temp/dataset/7/26_6.odb,Step-1,Increment      1: Step Time =    1.000,"PART-1-1",            17,           15.,          -30.,            0.,NA,NA,"",            0.,   26.8689E-39,  -49.8120E-39,   98.1754E-03
C:/temp/dataset/7/26_6.odb,Step-1,Increment      1: Step Time =    1.000,"PART-1-1",            18,           15.,         -22.5,            0.,NA,NA,"",   763.618E-03,   516.271E-03,  -562.651E-03,   73.7117E-03
C:/temp/dataset/7/26_6.odb,Step-1,Increment      1: Step Time =    1.000,"PART-1-1",            19,           15.,          -15.,            0.,NA,NA,"",       2.00839,       1.67926,      -1.10168,   57.1612E-03
C:/temp/dataset/7/26_6.odb,Step-1,Increment      1: Step Time =    1.000,"PART-1-1",            20,           15.,          -7.5,            0.,NA,NA,"",       3.78115,       3.40566,      -1.64274,   40.4842E-03
C:/temp/dataset/7/26_6.odb,Step-1,Increment      1: Step Time =    1.000,"PART-1-1",            21,           15.,            0.,            0.,NA,NA,"",       5.95735,       5.54391,      -2.18063,   23.6270E-03
C:/temp/dataset/7/26_6.odb,Step-1,Increment      1: Step Time =    1.000,"PART-1-1",            22,           15.,           7.5,            0.,NA,NA,"",       8.37736,       7.93732,      -2.67939,   6.56998E-03
C:/temp/dataset/7/26_6.odb,Step-1,Increment      1: Step Time =    1.000,"PART-1-1",            23,           15.,           15.,            0.,NA,NA,"",       10.8599,       10.4054,      -3.10887,   533.010E-06
C:/temp/dataset/7/26_6.odb,Step-1,Increment      1: Step Time =    1.000,"PART-1-1",            24,           15.,          22.5,            0.,NA,NA,"",       13.3308,       12.8580,      -3.51897,   55.4798E-06
C:/temp/dataset/7/26_6.odb,Step-1,Increment      1: Step Time =    1.000,"PART-1-1",            25,           15.,           30.,            0.,NA,NA,"",       15.8043,       15.3078,      -3.93027,   516.787E-09
C:/temp/dataset/7/26_6.odb,Step-1,Increment      1: Step Time =    1.000,"PART-1-1",            26,         11.25,           30.,            0.,NA,NA,"",       15.7476,       15.5135,      -2.70534,   2.00190E-06
C:/temp/dataset/7/26_6.odb,Step-1,Increment      1: Step Time =    1.000,"PART-1-1",            27,           7.5,           30.,            0.,NA,NA,"",       15.7887,       15.7192,      -1.48040,   1.52585E-06
C:/temp/dataset/7/26_6.odb,Step-1,Increment      1: Step Time =    1.000,"PART-1-1",            28,          3.75,           30.,            0.,NA,NA,"",       15.9269,       15.9249,  -255.458E-03,   3.77663E-06
C:/temp/dataset/7/26_6.odb,Step-1,Increment      1: Step Time =    1.000,"PART-1-1",            29,            0.,           30.,            0.,NA,NA,"",       16.1597,       16.1306,   969.514E-03,   2.41603E-06
C:/temp/dataset/7/26_6.odb,Step-1,Increment      1: Step Time =    1.000,"PART-1-1",            30,         -3.75,           30.,            0.,NA,NA,"",       16.4831,       16.3363,       2.19450,   465.875E-09
C:/temp/dataset/7/26_6.odb,Step-1,Increment      1: Step Time =    1.000,"PART-1-1",            31,          -7.5,           30.,            0.,NA,NA,"",       16.8918,       16.5420,       3.41949,   24.2440E-09
C:/temp/dataset/7/26_6.odb,Step-1,Increment      1: Step Time =    1.000,"PART-1-1",            32,        -11.25,           30.,            0.,NA,NA,"",       17.3798,       16.7478,       4.64448,   12.5836E-09
C:/temp/dataset/7/26_6.odb,Step-1,Increment      1: Step Time =    1.000,"PART-1-1",            33,          -15.,           30.,            0.,NA,NA,"",       17.9408,       16.9535,       5.86947,   798.683E-12
C:/temp/dataset/7/26_6.odb,Step-1,Increment      1: Step Time =    1.000,"PART-1-1",            34,          -15.,          22.5,            0.,NA,NA,"",       15.8051,       14.5035,       6.28092,   7.11720E-09
C:/temp/dataset/7/26_6.odb,Step-1,Increment      1: Step Time =    1.000,"PART-1-1",            35,            5.,       15.8333,            0.,NA,NA,"",       11.2301,       11.2295,   110.727E-03,   1.41651E-03
C:/temp/dataset/7/26_6.odb,Step-1,Increment      1: Step Time =    1.000,"PART-1-1",            36,            5.,       17.9167,            0.,NA,NA,"",       11.9090,       11.9090,  -1.87221E-03,   533.244E-06
C:/temp/dataset/7/26_6.odb,Step-1,Increment      1: Step Time =    1.000,"PART-1-1",            37,            5.,       9.58333,            0.,NA,NA,"",       9.20201,       9.19125,   444.829E-03,   6.81402E-03
C:/temp/dataset/7/26_6.odb,Step-1,Increment      1: Step Time =    1.000,"PART-1-1",            38,            5.,       11.6667,            0.,NA,NA,"",       9.88596,       9.88038,   332.021E-03,   5.90698E-03
C:/temp/dataset/7/26_6.odb,Step-1,Increment      1: Step Time =    1.000,"PART-1-1",            39,            5.,       3.33333,            0.,NA,NA,"",       7.13687,       7.09786,   745.137E-03,   17.0327E-03
C:/temp/dataset/7/26_6.odb,Step-1,Increment      1: Step Time =    1.000,"PART-1-1",            40,            5.,       5.41667,            0.,NA,NA,"",       7.81517,       7.78751,   657.043E-03,   12.7854E-03
C:/temp/dataset/7/26_6.odb,Step-1,Increment      1: Step Time =    1.000,"PART-1-1",            41,            5.,      -2.91667,            0.,NA,NA,"",       5.19015,       5.10606,   930.519E-03,   30.7601E-03
C:/temp/dataset/7/26_6.odb,Step-1,Increment      1: Step Time =    1.000,"PART-1-1",            42,            5.,  -833.333E-03,            0.,NA,NA,"",       5.82141,       5.75406,   882.968E-03,   26.0836E-03
C:/temp/dataset/7/26_6.odb,Step-1,Increment      1: Step Time =    1.000,"PART-1-1",            43,            5.,      -9.16667,            0.,NA,NA,"",       3.44364,       3.30261,   975.409E-03,   44.9286E-03
C:/temp/dataset/7/26_6.odb,Step-1,Increment      1: Step Time =    1.000,"PART-1-1",            44,            5.,      -7.08333,            0.,NA,NA,"",       3.99776,       3.87640,   977.567E-03,   40.1635E-03
C:/temp/dataset/7/26_6.odb,Step-1,Increment      1: Step Time =    1.000,"PART-1-1",            45,            5.,      -15.4167,            0.,NA,NA,"",       1.99039,       1.79501,   859.993E-03,   59.2018E-03
C:/temp/dataset/7/26_6.odb,Step-1,Increment      1: Step Time =    1.000,"PART-1-1",            46,            5.,      -13.3333,            0.,NA,NA,"",       2.43679,       2.25771,   916.887E-03,   54.4242E-03
C:/temp/dataset/7/26_6.odb,Step-1,Increment      1: Step Time =    1.000,"PART-1-1",            47,            5.,      -21.6667,            0.,NA,NA,"",   908.135E-03,   697.899E-03,   581.073E-03,   73.3614E-03
C:/temp/dataset/7/26_6.odb,Step-1,Increment      1: Step Time =    1.000,"PART-1-1",            48,            5.,      -19.5833,            0.,NA,NA,"",       1.22456,       1.01075,   691.332E-03,   68.8747E-03
C:/temp/dataset/7/26_6.odb,Step-1,Increment      1: Step Time =    1.000,"PART-1-1",            49,            5.,      -27.9167,            0.,NA,NA,"",   205.587E-03,   121.228E-03,   166.041E-03,   88.1128E-03
C:/temp/dataset/7/26_6.odb,Step-1,Increment      1: Step Time =    1.000,"PART-1-1",            50,            5.,      -25.8333,            0.,NA,NA,"",   403.217E-03,   252.207E-03,   314.604E-03,   80.2296E-03
C:/temp/dataset/7/26_6.odb,Step-1,Increment      1: Step Time =    1.000,"PART-1-1",            51,          12.5,          -30.,            0.,NA,NA,"",            0.,   45.7665E-39,  -111.790E-39,   31.1983E-03
C:/temp/dataset/7/26_6.odb,Step-1,Increment      1: Step Time =    1.000,"PART-1-1",            52,           10.,          -30.,            0.,NA,NA,"",            0.,  -18.8566E-39,  -1.31419E-39,   9.35197E-03
C:/temp/dataset/7/26_6.odb,Step-1,Increment      1: Step Time =    1.000,"PART-1-1",            53,           7.5,          -30.,            0.,NA,NA,"",            0.,   5.11463E-39,   123.114E-39,   31.9208E-03
C:/temp/dataset/7/26_6.odb,Step-1,Increment      1: Step Time =    1.000,"PART-1-1",            54,           15.,          -25.,            0.,NA,NA,"",   470.841E-03,   278.133E-03,  -379.912E-03,   78.0967E-03
C:/temp/dataset/7/26_6.odb,Step-1,Increment      1: Step Time =    1.000,"PART-1-1",            55,           15.,         -27.5,            0.,NA,NA,"",   229.790E-03,   122.646E-03,  -194.323E-03,   87.3346E-03
C:/temp/dataset/7/26_6.odb,Step-1,Increment      1: Step Time =    1.000,"PART-1-1",            56,           15.,         -17.5,            0.,NA,NA,"",       1.53074,       1.22153,  -922.519E-03,   62.6837E-03
C:/temp/dataset/7/26_6.odb,Step-1,Increment      1: Step Time =    1.000,"PART-1-1",            57,           15.,          -20.,            0.,NA,NA,"",       1.11562,   831.973E-03,  -743.263E-03,   68.1333E-03
C:/temp/dataset/7/26_6.odb,Step-1,Increment      1: Step Time =    1.000,"PART-1-1",            58,           15.,          -10.,            0.,NA,NA,"",       3.13820,       2.77693,      -1.46183,   46.0849E-03
C:/temp/dataset/7/26_6.odb,Step-1,Increment      1: Step Time =    1.000,"PART-1-1",            59,           15.,         -12.5,            0.,NA,NA,"",       2.54561,       2.19958,      -1.28140,   51.6349E-03
C:/temp/dataset/7/26_6.odb,Step-1,Increment      1: Step Time =    1.000,"PART-1-1",            60,           15.,          -2.5,            0.,NA,NA,"",       5.19647,       4.79479,      -2.00331,   29.2877E-03
C:/temp/dataset/7/26_6.odb,Step-1,Increment      1: Step Time =    1.000,"PART-1-1",            61,           15.,           -5.,            0.,NA,NA,"",       4.46911,       4.08013,      -1.82358,   34.9019E-03
C:/temp/dataset/7/26_6.odb,Step-1,Increment      1: Step Time =    1.000,"PART-1-1",            62,           15.,            5.,            0.,NA,NA,"",       7.55481,       7.12187,      -2.52077,   12.0124E-03
C:/temp/dataset/7/26_6.odb,Step-1,Increment      1: Step Time =    1.000,"PART-1-1",            63,           15.,           2.5,            0.,NA,NA,"",       6.74568,       6.32168,      -2.35382,   17.8461E-03
C:/temp/dataset/7/26_6.odb,Step-1,Increment      1: Step Time =    1.000,"PART-1-1",            64,           15.,          12.5,            0.,NA,NA,"",       10.0340,       9.58411,      -2.97099,   128.060E-06
C:/temp/dataset/7/26_6.odb,Step-1,Increment      1: Step Time =    1.000,"PART-1-1",            65,           15.,           10.,            0.,NA,NA,"",       9.20572,       8.76028,      -2.82893,   2.38113E-03
C:/temp/dataset/7/26_6.odb,Step-1,Increment      1: Step Time =    1.000,"PART-1-1",            66,           15.,           20.,            0.,NA,NA,"",       12.5072,       12.0413,      -3.38207,   183.213E-06
C:/temp/dataset/7/26_6.odb,Step-1,Increment      1: Step Time =    1.000,"PART-1-1",            67,           15.,          17.5,            0.,NA,NA,"",       11.6839,       11.2241,      -3.24545,   407.182E-06
C:/temp/dataset/7/26_6.odb,Step-1,Increment      1: Step Time =    1.000,"PART-1-1",            68,           15.,          27.5,            0.,NA,NA,"",       14.9794,       14.4911,      -3.79314,   828.312E-09
C:/temp/dataset/7/26_6.odb,Step-1,Increment      1: Step Time =    1.000,"PART-1-1",            69,           15.,           25.,            0.,NA,NA,"",       14.1549,       13.6746,      -3.65602,   11.5176E-06
C:/temp/dataset/7/26_6.odb,Step-1,Increment      1: Step Time =    1.000,"PART-1-1",            70,        13.125,           30.,            0.,NA,NA,"",       15.7637,       15.4106,      -3.31781,   706.928E-09
C:/temp/dataset/7/26_6.odb,Step-1,Increment      1: Step Time =    1.000,"PART-1-1",            71,         9.375,           30.,            0.,NA,NA,"",       15.7559,       15.6163,      -2.09287,   3.33495E-06
C:/temp/dataset/7/26_6.odb,Step-1,Increment      1: Step Time =    1.000,"PART-1-1",            72,         5.625,           30.,            0.,NA,NA,"",       15.8458,       15.8220,  -867.933E-03,   1.35355E-06
C:/temp/dataset/7/26_6.odb,Step-1,Increment      1: Step Time =    1.000,"PART-1-1",            73,         1.875,           30.,            0.,NA,NA,"",       16.0317,       16.0277,   357.025E-03,   3.65043E-06
C:/temp/dataset/7/26_6.odb,Step-1,Increment      1: Step Time =    1.000,"PART-1-1",            74,        -1.875,           30.,            0.,NA,NA,"",       16.3104,       16.2335,       1.58201,   1.26874E-06
C:/temp/dataset/7/26_6.odb,Step-1,Increment      1: Step Time =    1.000,"PART-1-1",            75,        -5.625,           30.,            0.,NA,NA,"",       16.6771,       16.4392,       2.80700,   153.580E-09
C:/temp/dataset/7/26_6.odb,Step-1,Increment      1: Step Time =    1.000,"PART-1-1",            76,        -9.375,           30.,            0.,NA,NA,"",       17.1263,       16.6449,       4.03199,   10.5771E-09
C:/temp/dataset/7/26_6.odb,Step-1,Increment      1: Step Time =    1.000,"PART-1-1",            77,       -13.125,           30.,            0.,NA,NA,"",       17.6516,       16.8506,       5.25698,   4.48157E-09
C:/temp/dataset/7/26_6.odb,Step-1,Increment      1: Step Time =    1.000,"PART-1-1",            78,          -15.,          27.5,            0.,NA,NA,"",       17.2185,       16.1368,       6.00662,   6.30176E-09
C:/temp/dataset/7/26_6.odb,Step-1,Increment      1: Step Time =    1.000,"PART-1-1",            79,      -7.07467,       28.0475,            0.,NA,NA,"",       16.2382,       15.8809,       3.38766,   131.760E-09
C:/temp/dataset/7/26_6.odb,Step-1,Increment      1: Step Time =    1.000,"PART-1-1",            80,      -10.7971,       27.6072,            0.,NA,NA,"",       16.5994,       15.9413,       4.62780,   7.59934E-09
C:/temp/dataset/7/26_6.odb,Step-1,Increment      1: Step Time =    1.000,"PART-1-1",            81,      -3.50976,       28.2242,            0.,NA,NA,"",       15.8979,       15.7430,       2.21345,   627.524E-09
C:/temp/dataset/7/26_6.odb,Step-1,Increment      1: Step Time =    1.000,"PART-1-1",            82,       11.3028,       27.6605,            0.,NA,NA,"",       14.9728,       14.7464,      -2.59427,   8.16770E-06
C:/temp/dataset/7/26_6.odb,Step-1,Increment      1: Step Time =    1.000,"PART-1-1",            83,       7.46624,       27.7175,            0.,NA,NA,"",       15.0356,       14.9754,      -1.34416,   8.25809E-06
C:/temp/dataset/7/26_6.odb,Step-1,Increment      1: Step Time =    1.000,"PART-1-1",            84,   523.838E-03,       28.1559,            0.,NA,NA,"",       15.5255,       15.4995,   899.560E-03,   1.55330E-06
C:/temp/dataset/7/26_6.odb,Step-1,Increment      1: Step Time =    1.000,"PART-1-1",            85,       13.1724,       27.5829,            0.,NA,NA,"",       14.9648,       14.6185,      -3.20071,   5.15143E-06
C:/temp/dataset/7/26_6.odb,Step-1,Increment      1: Step Time =    1.000,"PART-1-1",            86,       9.41586,       27.7284,            0.,NA,NA,"",       15.0035,       14.8721,      -1.98161,   8.21152E-06
C:/temp/dataset/7/26_6.odb,Step-1,Increment      1: Step Time =    1.000,"PART-1-1",            87,       5.17501,       27.3177,            0.,NA,NA,"",       14.9815,       14.9705,  -573.804E-03,   6.44068E-06
C:/temp/dataset/7/26_6.odb,Step-1,Increment      1: Step Time =    1.000,"PART-1-1",            88,       1.85763,       28.7412,            0.,NA,NA,"",       15.6235,       15.6175,   431.752E-03,   1.85599E-06
C:/temp/dataset/7/26_6.odb,Step-1,Increment      1: Step Time =    1.000,"PART-1-1",            89,      -1.45910,       27.7280,            0.,NA,NA,"",       15.5480,       15.4685,       1.57079,   1.24372E-06
C:/temp/dataset/7/26_6.odb,Step-1,Increment      1: Step Time =    1.000,"PART-1-1",            90,      -5.31380,       28.2250,            0.,NA,NA,"",       16.0883,       15.8423,       2.80271,   304.054E-09
C:/temp/dataset/7/26_6.odb,Step-1,Increment      1: Step Time =    1.000,"PART-1-1",            91,      -8.92632,       27.8484,            0.,NA,NA,"",       16.4132,       15.9175,       4.00345,   40.7382E-09
C:/temp/dataset/7/26_6.odb,Step-1,Increment      1: Step Time =    1.000,"PART-1-1",            92,       7.03655,   996.185E-03,            0.,NA,NA,"",       6.22394,       6.22075,   199.276E-03,   14.4924E-03
C:/temp/dataset/7/26_6.odb,Step-1,Increment      1: Step Time =    1.000,"PART-1-1",            93,       6.93081,       13.7923,            0.,NA,NA,"",       10.4685,       10.4606,  -407.807E-03,   3.36039E-03
C:/temp/dataset/7/26_6.odb,Step-1,Increment      1: Step Time =    1.000,"PART-1-1",            94,       7.08682,       7.47611,            0.,NA,NA,"",       8.35665,       8.35570,  -125.793E-03,   10.3686E-03
C:/temp/dataset/7/26_6.odb,Step-1,Increment      1: Step Time =    1.000,"PART-1-1",            95,       6.96700,      -1.15199,            0.,NA,NA,"",       5.55159,       5.54341,   301.316E-03,   17.5054E-03
C:/temp/dataset/7/26_6.odb,Step-1,Increment      1: Step Time =    1.000,"PART-1-1",            96,       6.47578,      -21.8661,            0.,NA,NA,"",   734.168E-03,   619.529E-03,   393.938E-03,   52.9832E-03
C:/temp/dataset/7/26_6.odb,Step-1,Increment      1: Step Time =    1.000,"PART-1-1",            97,       7.14087,      -13.1040,            0.,NA,NA,"",       2.26701,       2.21958,   461.307E-03,   32.1130E-03
C:/temp/dataset/7/26_6.odb,Step-1,Increment      1: Step Time =    1.000,"PART-1-1",            98,       6.53104,      -7.08024,            0.,NA,NA,"",       3.84095,       3.79825,   571.114E-03,   28.6096E-03
C:/temp/dataset/7/26_6.odb,Step-1,Increment      1: Step Time =    1.000,"PART-1-1",            99,       6.85322,      -3.24169,            0.,NA,NA,"",       4.92170,       4.90537,   400.516E-03,   20.8846E-03
C:/temp/dataset/7/26_6.odb,Step-1,Increment      1: Step Time =    1.000,"PART-1-1",           100,       6.74184,      -8.96518,            0.,NA,NA,"",       3.31553,       3.27145,   538.824E-03,   29.8516E-03
C:/temp/dataset/7/26_6.odb,Step-1,Increment      1: Step Time =    1.000,"PART-1-1",           101,       6.94703,      -23.6171,            0.,NA,NA,"",   482.897E-03,   395.653E-03,   276.855E-03,   48.8928E-03
C:/temp/dataset/7/26_6.odb,Step-1,Increment      1: Step Time =    1.000,"PART-1-1",           102,       7.44695,      -27.8442,            0.,NA,NA,"",   97.9254E-03,   58.9973E-03,   78.1582E-03,   48.1602E-03
C:/temp/dataset/7/26_6.odb,Step-1,Increment      1: Step Time =    1.000,"PART-1-1",           103,       7.35225,      -17.6578,            0.,NA,NA,"",       1.31897,       1.26218,   382.859E-03,   35.6942E-03
C:/temp/dataset/7/26_6.odb,Step-1,Increment      1: Step Time =    1.000,"PART-1-1",           104,       7.23832,      -15.2967,            0.,NA,NA,"",       1.78419,       1.73146,   430.554E-03,   33.9816E-03
C:/temp/dataset/7/26_6.odb,Step-1,Increment      1: Step Time =    1.000,"PART-1-1",           105,       7.10099,       17.6583,            0.,NA,NA,"",       11.7289,       11.7096,  -672.922E-03,   230.101E-06
C:/temp/dataset/7/26_6.odb,Step-1,Increment      1: Step Time =    1.000,"PART-1-1",           106,       6.86948,       15.7920,            0.,NA,NA,"",       11.1247,       11.1136,  -495.246E-03,   628.029E-06
C:/temp/dataset/7/26_6.odb,Step-1,Increment      1: Step Time =    1.000,"PART-1-1",           107,       7.06799,       9.62990,            0.,NA,NA,"",       9.08358,       9.08057,  -233.727E-03,   8.61139E-03
C:/temp/dataset/7/26_6.odb,Step-1,Increment      1: Step Time =    1.000,"PART-1-1",           108,       7.09093,       5.31052,            0.,NA,NA,"",       7.62958,       7.62957,  -14.5934E-03,   9.51886E-03
C:/temp/dataset/7/26_6.odb,Step-1,Increment      1: Step Time =    1.000,"PART-1-1",           109,       6.65187,      -5.22056,            0.,NA,NA,"",       4.35537,       4.32588,   505.944E-03,   24.8883E-03
C:/temp/dataset/7/26_6.odb,Step-1,Increment      1: Step Time =    1.000,"PART-1-1",           110,       7.26954,      -25.7037,            0.,NA,NA,"",   257.367E-03,   193.532E-03,   169.656E-03,   48.5724E-03
C:/temp/dataset/7/26_6.odb,Step-1,Increment      1: Step Time =    1.000,"PART-1-1",           111,       7.53271,      -20.3934,            0.,NA,NA,"",   855.116E-03,   798.437E-03,   306.140E-03,   36.7771E-03
C:/temp/dataset/7/26_6.odb,Step-1,Increment      1: Step Time =    1.000,"PART-1-1",           112,       7.01178,       11.7341,            0.,NA,NA,"",       9.78811,       9.78268,  -326.098E-03,   6.44161E-03
C:/temp/dataset/7/26_6.odb,Step-1,Increment      1: Step Time =    1.000,"PART-1-1",           113,       7.07643,       3.14767,            0.,NA,NA,"",       6.91702,       6.91638,   94.0000E-03,   11.7887E-03
C:/temp/dataset/7/26_6.odb,Step-1,Increment      1: Step Time =    1.000,"PART-1-1",           114,       6.98190,      -10.9751,            0.,NA,NA,"",       2.78418,       2.73997,   494.231E-03,   30.7161E-03
C:/temp/dataset/7/26_6.odb,Step-1,Increment      1: Step Time =    1.000,"PART-1-1",           115,       13.1254,       22.8014,            0.,NA,NA,"",       13.3824,       13.0593,      -2.92310,   62.2939E-06
C:/temp/dataset/7/26_6.odb,Step-1,Increment      1: Step Time =    1.000,"PART-1-1",           116,       12.8923,      -4.74502,            0.,NA,NA,"",       4.39094,       4.21350,      -1.23564,   20.7747E-03
C:/temp/dataset/7/26_6.odb,Step-1,Increment      1: Step Time =    1.000,"PART-1-1",           117,       13.0513,      -12.4505,            0.,NA,NA,"",       2.37710,       2.22564,  -834.957E-03,   31.5404E-03
C:/temp/dataset/7/26_6.odb,Step-1,Increment      1: Step Time =    1.000,"PART-1-1",           118,       12.2427,       17.8341,            0.,NA,NA,"",       11.7255,       11.4851,      -2.36208,   193.339E-06
C:/temp/dataset/7/26_6.odb,Step-1,Increment      1: Step Time =    1.000,"PART-1-1",           119,       13.0441,       9.90429,            0.,NA,NA,"",       9.10047,       8.83522,      -2.18116,   4.26704E-03
C:/temp/dataset/7/26_6.odb,Step-1,Increment      1: Step Time =    1.000,"PART-1-1",           120,       13.0522,       2.62582,            0.,NA,NA,"",       6.68094,       6.45027,      -1.74038,   12.6841E-03
C:/temp/dataset/7/26_6.odb,Step-1,Increment      1: Step Time =    1.000,"PART-1-1",           121,       13.2006,      -19.7745,            0.,NA,NA,"",   968.985E-03,   839.442E-03,  -484.015E-03,   42.8187E-03
C:/temp/dataset/7/26_6.odb,Step-1,Increment      1: Step Time =    1.000,"PART-1-1",           122,       9.90112,      -27.6522,            0.,NA,NA,"",   37.5022E-03,   37.0514E-03,   5.79775E-03,   11.8296E-03
C:/temp/dataset/7/26_6.odb,Step-1,Increment      1: Step Time =    1.000,"PART-1-1",           123,       13.0591,      -22.1191,            0.,NA,NA,"",   629.468E-03,   521.392E-03,  -352.676E-03,   43.9685E-03
C:/temp/dataset/7/26_6.odb,Step-1,Increment      1: Step Time =    1.000,"PART-1-1",           124,       13.1139,      -14.9356,            0.,NA,NA,"",       1.83751,       1.69248,  -715.493E-03,   35.3947E-03
C:/temp/dataset/7/26_6.odb,Step-1,Increment      1: Step Time =    1.000,"PART-1-1",           125,       13.1678,      -17.3995,            0.,NA,NA,"",       1.36399,       1.22583,  -598.182E-03,   39.2290E-03
C:/temp/dataset/7/26_6.odb,Step-1,Increment      1: Step Time =    1.000,"PART-1-1",           126,       12.7891,      -7.32383,            0.,NA,NA,"",       3.65800,       3.50224,      -1.05606,   23.1400E-03
C:/temp/dataset/7/26_6.odb,Step-1,Increment      1: Step Time =    1.000,"PART-1-1",           127,       12.9162,      -9.94117,            0.,NA,NA,"",       2.97579,       2.82309,  -941.024E-03,   27.2028E-03
C:/temp/dataset/7/26_6.odb,Step-1,Increment      1: Step Time =    1.000,"PART-1-1",           128,       13.0283,   193.158E-03,            0.,NA,NA,"",       5.89921,       5.68368,      -1.58001,   15.4885E-03
C:/temp/dataset/7/26_6.odb,Step-1,Increment      1: Step Time =    1.000,"PART-1-1",           129,       12.9794,      -2.25409,            0.,NA,NA,"",       5.13689,       4.93883,      -1.41266,   18.2498E-03
C:/temp/dataset/7/26_6.odb,Step-1,Increment      1: Step Time =    1.000,"PART-1-1",           130,       13.0689,       7.48049,            0.,NA,NA,"",       8.28881,       8.03236,      -2.04586,   7.07966E-03
C:/temp/dataset/7/26_6.odb,Step-1,Increment      1: Step Time =    1.000,"PART-1-1",           131,       13.0764,       5.05734,            0.,NA,NA,"",       7.48100,       7.23568,      -1.90005,   9.90689E-03
C:/temp/dataset/7/26_6.odb,Step-1,Increment      1: Step Time =    1.000,"PART-1-1",           132,       12.6962,       14.9270,            0.,NA,NA,"",       10.7685,       10.5089,      -2.35038,   394.664E-06
C:/temp/dataset/7/26_6.odb,Step-1,Increment      1: Step Time =    1.000,"PART-1-1",           133,       12.9459,       12.3607,            0.,NA,NA,"",       9.91956,       9.65178,      -2.28929,   1.87673E-03
C:/temp/dataset/7/26_6.odb,Step-1,Increment      1: Step Time =    1.000,"PART-1-1",           134,       12.9476,       20.4489,            0.,NA,NA,"",       12.6013,       12.3007,      -2.73603,   149.181E-06
C:/temp/dataset/7/26_6.odb,Step-1,Increment      1: Step Time =    1.000,"PART-1-1",           135,       13.1802,       25.1793,            0.,NA,NA,"",       14.1698,       13.8329,      -3.07141,   21.7387E-06
C:/temp/dataset/7/26_6.odb,Step-1,Increment      1: Step Time =    1.000,"PART-1-1",           136,      -12.4062,       24.9250,            0.,NA,NA,"",       16.0537,       15.1534,       5.30059,   5.59491E-09
C:/temp/dataset/7/26_6.odb,Step-1,Increment      1: Step Time =    1.000,"PART-1-1",           137,       11.3078,       25.3904,            0.,NA,NA,"",       14.2210,       14.0046,      -2.47134,   24.7505E-06
C:/temp/dataset/7/26_6.odb,Step-1,Increment      1: Step Time =    1.000,"PART-1-1",           138,      -10.1009,       25.2443,            0.,NA,NA,"",       15.7948,       15.1312,       4.53001,   30.2993E-09
C:/temp/dataset/7/26_6.odb,Step-1,Increment      1: Step Time =    1.000,"PART-1-1",           139,      -4.83291,       26.5053,            0.,NA,NA,"",       15.4983,       15.2541,       2.73997,   484.667E-09
C:/temp/dataset/7/26_6.odb,Step-1,Increment      1: Step Time =    1.000,"PART-1-1",           140,       1.72347,       26.1851,            0.,NA,NA,"",       14.8027,       14.7899,   615.796E-03,   1.72727E-06
C:/temp/dataset/7/26_6.odb,Step-1,Increment      1: Step Time =    1.000,"PART-1-1",           141,       6.12189,       25.7754,            0.,NA,NA,"",       14.4369,       14.4148,  -798.493E-03,   15.3475E-06
C:/temp/dataset/7/26_6.odb,Step-1,Increment      1: Step Time =    1.000,"PART-1-1",           142,       7.62725,       25.7499,            0.,NA,NA,"",       14.3817,       14.3239,      -1.28881,   19.3912E-06
C:/temp/dataset/7/26_6.odb,Step-1,Increment      1: Step Time =    1.000,"PART-1-1",           143,       3.76931,       25.0880,            0.,NA,NA,"",       14.3193,       14.3193,   7.68474E-03,   8.76225E-06
C:/temp/dataset/7/26_6.odb,Step-1,Increment      1: Step Time =    1.000,"PART-1-1",           144,  -231.428E-03,       26.1188,            0.,NA,NA,"",       14.9286,       14.8755,       1.25803,   1.31721E-06
C:/temp/dataset/7/26_6.odb,Step-1,Increment      1: Step Time =    1.000,"PART-1-1",           145,      -2.48530,       25.9891,            0.,NA,NA,"",       15.0900,       14.9567,       2.00140,   1.07830E-06
C:/temp/dataset/7/26_6.odb,Step-1,Increment      1: Step Time =    1.000,"PART-1-1",           146,      -3.63425,       26.9302,            0.,NA,NA,"",       15.5025,       15.3272,       2.32510,   715.980E-09
C:/temp/dataset/7/26_6.odb,Step-1,Increment      1: Step Time =    1.000,"PART-1-1",           147,      -8.31738,       25.8431,            0.,NA,NA,"",       15.7240,       15.2290,       3.91455,   89.8864E-09
C:/temp/dataset/7/26_6.odb,Step-1,Increment      1: Step Time =    1.000,"PART-1-1",           148,       9.04714,   705.037E-03,            0.,NA,NA,"",       6.03730,       6.02406,  -399.597E-03,   10.5079E-03
C:/temp/dataset/7/26_6.odb,Step-1,Increment      1: Step Time =    1.000,"PART-1-1",           149,       7.85197,      -7.06885,            0.,NA,NA,"",       3.74777,       3.74103,   224.709E-03,   19.3855E-03
C:/temp/dataset/7/26_6.odb,Step-1,Increment      1: Step Time =    1.000,"PART-1-1",           150,       8.74205,      -22.9842,            0.,NA,NA,"",   444.660E-03,   427.749E-03,   121.463E-03,   23.4298E-03
C:/temp/dataset/7/26_6.odb,Step-1,Increment      1: Step Time =    1.000,"PART-1-1",           151,       9.28078,      -15.1075,            0.,NA,NA,"",       1.71255,       1.71208,   40.1491E-03,   13.6918E-03
C:/temp/dataset/7/26_6.odb,Step-1,Increment      1: Step Time =    1.000,"PART-1-1",           152,       8.97855,      -1.55139,            0.,NA,NA,"",       5.32630,       5.31914,  -275.984E-03,   11.2045E-03
C:/temp/dataset/7/26_6.odb,Step-1,Increment      1: Step Time =    1.000,"PART-1-1",           153,       9.09422,       9.69450,            0.,NA,NA,"",       9.02763,       8.98351,  -891.382E-03,   7.72317E-03
C:/temp/dataset/7/26_6.odb,Step-1,Increment      1: Step Time =    1.000,"PART-1-1",           154,       8.44946,       15.5970,            0.,NA,NA,"",       11.0088,       10.9633,  -999.941E-03,   719.589E-06
C:/temp/dataset/7/26_6.odb,Step-1,Increment      1: Step Time =    1.000,"PART-1-1",           155,       9.11701,       7.46178,            0.,NA,NA,"",       8.27275,       8.23623,  -776.405E-03,   9.73761E-03
C:/temp/dataset/7/26_6.odb,Step-1,Increment      1: Step Time =    1.000,"PART-1-1",           156,       8.83101,       13.9442,            0.,NA,NA,"",       10.4535,       10.4022,      -1.03476,   2.08251E-03
C:/temp/dataset/7/26_6.odb,Step-1,Increment      1: Step Time =    1.000,"PART-1-1",           157,       9.61385,      -19.9311,            0.,NA,NA,"",   827.744E-03,   827.238E-03,   28.9312E-03,   12.1589E-03
C:/temp/dataset/7/26_6.odb,Step-1,Increment      1: Step Time =    1.000,"PART-1-1",           158,       9.10031,       2.95854,            0.,NA,NA,"",       6.76802,       6.74738,  -528.205E-03,   10.1071E-03
C:/temp/dataset/7/26_6.odb,Step-1,Increment      1: Step Time =    1.000,"PART-1-1",           159,       9.17986,      -12.8049,            0.,NA,NA,"",       2.22184,       2.22171,   24.5808E-03,   13.7199E-03
C:/temp/dataset/7/26_6.odb,Step-1,Increment      1: Step Time =    1.000,"PART-1-1",           160,       8.54844,      -8.43147,            0.,NA,NA,"",       3.34002,       3.33909,   79.0008E-03,   15.9098E-03
C:/temp/dataset/7/26_6.odb,Step-1,Increment      1: Step Time =    1.000,"PART-1-1",           161,       8.46228,      -5.79934,            0.,NA,NA,"",       4.07431,       4.07421,   28.4324E-03,   14.9337E-03
C:/temp/dataset/7/26_6.odb,Step-1,Increment      1: Step Time =    1.000,"PART-1-1",           162,       8.97830,      -10.5487,            0.,NA,NA,"",       2.77293,       2.77283,   24.1302E-03,   14.2585E-03
C:/temp/dataset/7/26_6.odb,Step-1,Increment      1: Step Time =    1.000,"PART-1-1",           163,       8.84007,      -3.76868,            0.,NA,NA,"",       4.65421,       4.65193,  -145.750E-03,   12.3290E-03
C:/temp/dataset/7/26_6.odb,Step-1,Increment      1: Step Time =    1.000,"PART-1-1",           164,       9.12644,       5.21383,            0.,NA,NA,"",       7.51581,       7.48712,  -656.067E-03,   10.1209E-03
C:/temp/dataset/7/26_6.odb,Step-1,Increment      1: Step Time =    1.000,"PART-1-1",           165,       9.36869,      -17.5094,            0.,NA,NA,"",       1.24057,       1.23956,   49.9955E-03,   13.6829E-03
C:/temp/dataset/7/26_6.odb,Step-1,Increment      1: Step Time =    1.000,"PART-1-1",           166,       9.01212,       11.8707,            0.,NA,NA,"",       9.76005,       9.71049,  -982.304E-03,   4.74725E-03
C:/temp/dataset/7/26_6.odb,Step-1,Increment      1: Step Time =    1.000,"PART-1-1",           167,       9.60003,       16.9835,            0.,NA,NA,"",       11.4449,       11.3525,      -1.45154,   266.038E-06
C:/temp/dataset/7/26_6.odb,Step-1,Increment      1: Step Time =    1.000,"PART-1-1",           168,       7.13047,       19.6676,            0.,NA,NA,"",       12.3895,       12.3641,  -792.763E-03,   220.988E-06
C:/temp/dataset/7/26_6.odb,Step-1,Increment      1: Step Time =    1.000,"PART-1-1",           169,       9.55406,      -25.2995,            0.,NA,NA,"",   191.248E-03,   188.384E-03,   32.9741E-03,   14.2970E-03
C:/temp/dataset/7/26_6.odb,Step-1,Increment      1: Step Time =    1.000,"PART-1-1",           170,       12.3800,      -27.4389,            0.,NA,NA,"",   102.831E-03,   61.6553E-03,  -82.2970E-03,   41.3407E-03
C:/temp/dataset/7/26_6.odb,Step-1,Increment      1: Step Time =    1.000,"PART-1-1",           171,      -11.9351,       22.4166,            0.,NA,NA,"",       15.2527,       14.3081,       5.28430,   15.5858E-09
C:/temp/dataset/7/26_6.odb,Step-1,Increment      1: Step Time =    1.000,"PART-1-1",           172,       10.9842,      -1.93535,            0.,NA,NA,"",       5.18230,       5.11311,  -843.985E-03,   11.0514E-03
C:/temp/dataset/7/26_6.odb,Step-1,Increment      1: Step Time =    1.000,"PART-1-1",           173,       11.2234,      -14.9909,            0.,NA,NA,"",       1.73257,       1.69932,  -337.788E-03,   16.0058E-03
C:/temp/dataset/7/26_6.odb,Step-1,Increment      1: Step Time =    1.000,"PART-1-1",           174,       11.0574,       21.1283,            0.,NA,NA,"",       12.8089,       12.6262,      -2.15561,   134.349E-06
C:/temp/dataset/7/26_6.odb,Step-1,Increment      1: Step Time =    1.000,"PART-1-1",           175,       10.7466,       19.4847,            0.,NA,NA,"",       12.2647,       12.1065,      -1.96374,   185.358E-06
C:/temp/dataset/7/26_6.odb,Step-1,Increment      1: Step Time =    1.000,"PART-1-1",           176,       11.0568,   433.028E-03,            0.,NA,NA,"",       5.92770,       5.84386,  -993.432E-03,   10.7949E-03
C:/temp/dataset/7/26_6.odb,Step-1,Increment      1: Step Time =    1.000,"PART-1-1",           177,       10.9662,       12.1205,            0.,NA,NA,"",       9.81857,       9.68225,      -1.63044,   3.22775E-03
C:/temp/dataset/7/26_6.odb,Step-1,Increment      1: Step Time =    1.000,"PART-1-1",           178,       11.6216,      -21.4567,            0.,NA,NA,"",   630.530E-03,   595.981E-03,  -205.850E-03,   23.3307E-03
C:/temp/dataset/7/26_6.odb,Step-1,Increment      1: Step Time =    1.000,"PART-1-1",           179,       11.2975,      -17.3958,            0.,NA,NA,"",       1.26344,       1.23308,  -275.344E-03,   17.6396E-03
C:/temp/dataset/7/26_6.odb,Step-1,Increment      1: Step Time =    1.000,"PART-1-1",           180,       10.6273,       14.4803,            0.,NA,NA,"",       10.6062,       10.4771,      -1.64973,   1.09297E-03
C:/temp/dataset/7/26_6.odb,Step-1,Increment      1: Step Time =    1.000,"PART-1-1",           181,       11.1012,       2.78293,            0.,NA,NA,"",       6.68970,       6.59191,      -1.13964,   10.4587E-03
C:/temp/dataset/7/26_6.odb,Step-1,Increment      1: Step Time =    1.000,"PART-1-1",           182,       11.1153,       7.46695,            0.,NA,NA,"",       8.25264,       8.13030,      -1.41574,   8.50116E-03
C:/temp/dataset/7/26_6.odb,Step-1,Increment      1: Step Time =    1.000,"PART-1-1",           183,       11.1247,      -12.5851,            0.,NA,NA,"",       2.26139,       2.22549,  -401.318E-03,   14.4115E-03
C:/temp/dataset/7/26_6.odb,Step-1,Increment      1: Step Time =    1.000,"PART-1-1",           184,       10.4094,      -7.19663,            0.,NA,NA,"",       3.63388,       3.60751,  -436.967E-03,   10.3988E-03
C:/temp/dataset/7/26_6.odb,Step-1,Increment      1: Step Time =    1.000,"PART-1-1",           185,       10.4303,      -22.2648,            0.,NA,NA,"",   498.027E-03,   495.234E-03,  -52.6705E-03,   10.8795E-03
C:/temp/dataset/7/26_6.odb,Step-1,Increment      1: Step Time =    1.000,"PART-1-1",           186,       10.9130,      -10.1038,            0.,NA,NA,"",       2.86252,       2.82744,  -446.814E-03,   12.3951E-03
C:/temp/dataset/7/26_6.odb,Step-1,Increment      1: Step Time =    1.000,"PART-1-1",           187,       10.8491,      -4.38491,            0.,NA,NA,"",       4.44064,       4.38802,  -681.605E-03,   11.1602E-03
C:/temp/dataset/7/26_6.odb,Step-1,Increment      1: Step Time =    1.000,"PART-1-1",           188,       11.1275,       5.13070,            0.,NA,NA,"",       7.46789,       7.35671,      -1.28382,   9.88336E-03
C:/temp/dataset/7/26_6.odb,Step-1,Increment      1: Step Time =    1.000,"PART-1-1",           189,       11.0819,       9.79848,            0.,NA,NA,"",       9.03882,       8.90696,      -1.53831,   6.05574E-03
C:/temp/dataset/7/26_6.odb,Step-1,Increment      1: Step Time =    1.000,"PART-1-1",           190,       12.1026,      -24.5603,            0.,NA,NA,"",   300.402E-03,   253.740E-03,  -160.803E-03,   33.0384E-03
C:/temp/dataset/7/26_6.odb,Step-1,Increment      1: Step Time =    1.000,"PART-1-1",           191,      -7.61069,       24.2264,            0.,NA,NA,"",       15.1396,       14.6621,       3.77239,   130.338E-09
C:/temp/dataset/7/26_6.odb,Step-1,Increment      1: Step Time =    1.000,"PART-1-1",           192,      -5.77678,       24.2650,            0.,NA,NA,"",       14.9151,       14.5741,       3.17120,   336.536E-09
C:/temp/dataset/7/26_6.odb,Step-1,Increment      1: Step Time =    1.000,"PART-1-1",           193,       1.00958,       23.8763,            0.,NA,NA,"",       14.1086,       14.0748,   975.657E-03,   2.93678E-06
C:/temp/dataset/7/26_6.odb,Step-1,Increment      1: Step Time =    1.000,"PART-1-1",           194,      -3.86757,       24.8145,            0.,NA,NA,"",       14.8636,       14.6488,       2.51738,   760.512E-09
C:/temp/dataset/7/26_6.odb,Step-1,Increment      1: Step Time =    1.000,"PART-1-1",           195,  -996.969E-03,       24.6602,            0.,NA,NA,"",       14.5281,       14.4410,       1.58812,   1.90145E-06
C:/temp/dataset/7/26_6.odb,Step-1,Increment      1: Step Time =    1.000,"PART-1-1",           196,       7.19995,       21.7613,            0.,NA,NA,"",       13.0774,       13.0443,  -930.375E-03,   102.331E-06
C:/temp/dataset/7/26_6.odb,Step-1,Increment      1: Step Time =    1.000,"PART-1-1",           197,       2.92747,       22.7842,            0.,NA,NA,"",       13.6190,       13.6129,   409.067E-03,   15.0909E-06
C:/temp/dataset/7/26_6.odb,Step-1,Increment      1: Step Time =    1.000,"PART-1-1",           198,       5.53232,       24.2100,            0.,NA,NA,"",       13.9454,       13.9357,  -520.041E-03,   23.3616E-06
C:/temp/dataset/7/26_6.odb,Step-1,Increment      1: Step Time =    1.000,"PART-1-1",           199,       9.18626,       19.3402,            0.,NA,NA,"",       12.2305,       12.1447,      -1.44599,   222.481E-06
C:/temp/dataset/7/26_6.odb,Step-1,Increment      1: Step Time =    1.000,"PART-1-1",           200,       11.2321,       23.1770,            0.,NA,NA,"",       13.4877,       13.2858,      -2.32516,   64.3212E-06
C:/temp/dataset/7/26_6.odb,Step-1,Increment      1: Step Time =    1.000,"PART-1-1",           201,       5.11021,       22.1378,            0.,NA,NA,"",       13.2847,       13.2819,  -268.516E-03,   49.4221E-06
C:/temp/dataset/7/26_6.odb,Step-1,Increment      1: Step Time =    1.000,"PART-1-1",           202,   167.280E-03,       22.2372,            0.,NA,NA,"",       13.6516,       13.5856,       1.34073,   3.32603E-06
C:/temp/dataset/7/26_6.odb,Step-1,Increment      1: Step Time =    1.000,"PART-1-1",           203,      -2.32264,       22.6339,            0.,NA,NA,"",       14.0150,       13.8518,       2.13234,   1.53940E-06
C:/temp/dataset/7/26_6.odb,Step-1,Increment      1: Step Time =    1.000,"PART-1-1",           204,       9.17324,       21.4477,            0.,NA,NA,"",       12.9280,       12.8338,      -1.55762,   120.211E-06
C:/temp/dataset/7/26_6.odb,Step-1,Increment      1: Step Time =    1.000,"PART-1-1",           205,       9.43619,       25.5889,            0.,NA,NA,"",       14.2950,       14.1721,      -1.87086,   23.1311E-06
C:/temp/dataset/7/26_6.odb,Step-1,Increment      1: Step Time =    1.000,"PART-1-1",           206,      -5.39738,       22.2321,            0.,NA,NA,"",       14.2439,       13.8892,       3.15879,   307.351E-09
C:/temp/dataset/7/26_6.odb,Step-1,Increment      1: Step Time =    1.000,"PART-1-1",           207,      -8.66915,       22.6604,            0.,NA,NA,"",       14.8175,       14.2086,       4.20406,   64.6411E-09
C:/temp/dataset/7/26_6.odb,Step-1,Increment      1: Step Time =    1.000,"PART-1-1",           208,      -12.8188,       27.4435,            0.,NA,NA,"",       16.8529,       15.9987,       5.29719,   7.81845E-09
C:/temp/dataset/7/26_6.odb,Step-1,Increment      1: Step Time =    1.000,"PART-1-1",           209,       7.43992,       23.7550,            0.,NA,NA,"",       13.7281,       13.6825,      -1.11816,   40.8684E-06
C:/temp/dataset/7/26_6.odb,Step-1,Increment      1: Step Time =    1.000,"PART-1-1",           210,      -6.48406,       26.1481,            0.,NA,NA,"",       15.5813,       15.2280,       3.29893,   231.869E-09
C:/temp/dataset/7/26_6.odb,Step-1,Increment      1: Step Time =    1.000,"PART-1-1",           211,       3.18484,       28.0088,            0.,NA,NA,"",       15.3055,       15.3054,   38.3825E-03,   1.26596E-06
C:/temp/dataset/7/26_6.odb,Step-1,Increment      1: Step Time =    1.000,"PART-1-1",           212,       11.4304,      -19.6429,            0.,NA,NA,"",   886.335E-03,   855.689E-03,  -231.056E-03,   20.0280E-03
C:/temp/dataset/7/26_6.odb,Step-1,Increment      1: Step Time =    1.000,"PART-1-1",           213,       9.33060,       23.4727,            0.,NA,NA,"",       13.5959,       13.4866,      -1.72023,   57.5640E-06
C:/temp/dataset/7/26_6.odb,Step-1,Increment      1: Step Time =    1.000,"PART-1-1",           214,      -12.1707,       23.6708,            0.,NA,NA,"",       15.6526,       14.7308,       5.29244,   4.06028E-09
C:/temp/dataset/7/26_6.odb,Step-1,Increment      1: Step Time =    1.000,"PART-1-1",           215,      -13.7031,       24.9625,            0.,NA,NA,"",       16.2758,       15.2368,       5.72218,   3.97409E-09
C:/temp/dataset/7/26_6.odb,Step-1,Increment      1: Step Time =    1.000,"PART-1-1",           216,          -15.,         23.75,            0.,NA,NA,"",       16.1541,       14.9118,       6.21234,   9.79572E-09
C:/temp/dataset/7/26_6.odb,Step-1,Increment      1: Step Time =    1.000,"PART-1-1",           217,      -13.4675,       22.4583,            0.,NA,NA,"",       15.5231,       14.4058,       5.78261,   7.47958E-09
C:/temp/dataset/7/26_6.odb,Step-1,Increment      1: Step Time =    1.000,"PART-1-1",           218,      -9.86170,       27.7278,            0.,NA,NA,"",       16.5036,       15.9294,       4.31563,   23.6183E-09
C:/temp/dataset/7/26_6.odb,Step-1,Increment      1: Step Time =    1.000,"PART-1-1",           219,      -10.4490,       26.4258,            0.,NA,NA,"",       16.1970,       15.5363,       4.57890,   17.3812E-09
C:/temp/dataset/7/26_6.odb,Step-1,Increment      1: Step Time =    1.000,"PART-1-1",           220,      -9.20914,       25.5437,            0.,NA,NA,"",       15.7564,       15.1801,       4.22228,   59.4999E-09
C:/temp/dataset/7/26_6.odb,Step-1,Increment      1: Step Time =    1.000,"PART-1-1",           221,      -8.62185,       26.8458,            0.,NA,NA,"",       16.0686,       15.5732,       3.95900,   60.2879E-09
C:/temp/dataset/7/26_6.odb,Step-1,Increment      1: Step Time =    1.000,"PART-1-1",           222,      -9.15066,       28.9242,            0.,NA,NA,"",       16.7696,       16.2812,       4.01772,   16.9484E-09
C:/temp/dataset/7/26_6.odb,Step-1,Increment      1: Step Time =    1.000,"PART-1-1",           223,      -10.3125,           30.,            0.,NA,NA,"",       17.2507,       16.6963,       4.33823,   10.8648E-09
C:/temp/dataset/7/26_6.odb,Step-1,Increment      1: Step Time =    1.000,"PART-1-1",           224,      -11.0235,       28.8036,            0.,NA,NA,"",       16.9893,       16.3445,       4.63614,   5.15888E-09
C:/temp/dataset/7/26_6.odb,Step-1,Increment      1: Step Time =    1.000,"PART-1-1",           225,      -11.2536,       25.0847,            0.,NA,NA,"",       15.9201,       15.1423,       4.91530,   13.5081E-09
C:/temp/dataset/7/26_6.odb,Step-1,Increment      1: Step Time =    1.000,"PART-1-1",           226,      -10.3021,       22.5385,            0.,NA,NA,"",       15.0269,       14.2584,       4.74418,   29.4140E-09
C:/temp/dataset/7/26_6.odb,Step-1,Increment      1: Step Time =    1.000,"PART-1-1",           227,      -9.38503,       23.9523,            0.,NA,NA,"",       15.3061,       14.6699,       4.36703,   41.1426E-09
C:/temp/dataset/7/26_6.odb,Step-1,Increment      1: Step Time =    1.000,"PART-1-1",           228,      -12.9719,       28.7217,            0.,NA,NA,"",       17.2516,       16.4247,       5.27708,   5.53614E-09
C:/temp/dataset/7/26_6.odb,Step-1,Increment      1: Step Time =    1.000,"PART-1-1",           229,      -14.0625,           30.,            0.,NA,NA,"",       17.7941,       16.9021,       5.56322,   1.83795E-09
C:/temp/dataset/7/26_6.odb,Step-1,Increment      1: Step Time =    1.000,"PART-1-1",           230,          -15.,         28.75,            0.,NA,NA,"",       17.5785,       16.5452,       5.93805,   2.32272E-09
C:/temp/dataset/7/26_6.odb,Step-1,Increment      1: Step Time =    1.000,"PART-1-1",           231,      -13.9094,       27.4717,            0.,NA,NA,"",       17.0328,       16.0678,       5.65190,   5.60374E-09
C:/temp/dataset/7/26_6.odb,Step-1,Increment      1: Step Time =    1.000,"PART-1-1",           232,      -7.40072,       25.9956,            0.,NA,NA,"",       15.6498,       15.2285,       3.60674,   158.450E-09
C:/temp/dataset/7/26_6.odb,Step-1,Increment      1: Step Time =    1.000,"PART-1-1",           233,      -7.96404,       25.0347,            0.,NA,NA,"",       15.4318,       14.9455,       3.84347,   105.199E-09
C:/temp/dataset/7/26_6.odb,Step-1,Increment      1: Step Time =    1.000,"PART-1-1",           234,      -6.69374,       24.2457,            0.,NA,NA,"",       15.0247,       14.6181,       3.47179,   233.739E-09
C:/temp/dataset/7/26_6.odb,Step-1,Increment      1: Step Time =    1.000,"PART-1-1",           235,      -6.13042,       25.2066,            0.,NA,NA,"",       15.2482,       14.9011,       3.23506,   258.419E-09
C:/temp/dataset/7/26_6.odb,Step-1,Increment      1: Step Time =    1.000,"PART-1-1",           236,      -5.46940,       29.1125,            0.,NA,NA,"",       16.3826,       16.1407,       2.80486,   187.419E-09
C:/temp/dataset/7/26_6.odb,Step-1,Increment      1: Step Time =    1.000,"PART-1-1",           237,      -4.41178,       28.2246,            0.,NA,NA,"",       15.9906,       15.7927,       2.50808,   460.226E-09
C:/temp/dataset/7/26_6.odb,Step-1,Increment      1: Step Time =    1.000,"PART-1-1",           238,      -3.62988,       29.1121,            0.,NA,NA,"",       16.1904,       16.0397,       2.20397,   468.263E-09
C:/temp/dataset/7/26_6.odb,Step-1,Increment      1: Step Time =    1.000,"PART-1-1",           239,       -4.6875,           30.,            0.,NA,NA,"",       16.5775,       16.3878,       2.50075,   315.625E-09
C:/temp/dataset/7/26_6.odb,Step-1,Increment      1: Step Time =    1.000,"PART-1-1",           240,  -467.629E-03,       27.9420,            0.,NA,NA,"",       15.5332,       15.4840,       1.23517,   1.33621E-06
C:/temp/dataset/7/26_6.odb,Step-1,Increment      1: Step Time =    1.000,"PART-1-1",           241,  -845.263E-03,       26.9234,            0.,NA,NA,"",       15.2377,       15.1720,       1.41441,   1.16444E-06
C:/temp/dataset/7/26_6.odb,Step-1,Increment      1: Step Time =    1.000,"PART-1-1",           242,   746.021E-03,       26.1520,            0.,NA,NA,"",       14.8622,       14.8327,   936.913E-03,   1.54710E-06
C:/temp/dataset/7/26_6.odb,Step-1,Increment      1: Step Time =    1.000,"PART-1-1",           243,       1.12365,       27.1705,            0.,NA,NA,"",       15.1636,       15.1447,   757.678E-03,   1.47316E-06
C:/temp/dataset/7/26_6.odb,Step-1,Increment      1: Step Time =    1.000,"PART-1-1",           244,       14.0901,       25.0896,            0.,NA,NA,"",       14.1591,       13.7537,      -3.36372,   13.8863E-06
C:/temp/dataset/7/26_6.odb,Step-1,Increment      1: Step Time =    1.000,"PART-1-1",           245,       13.1528,       23.9903,            0.,NA,NA,"",       13.7761,       13.4461,      -2.99726,   41.1890E-06
C:/temp/dataset/7/26_6.odb,Step-1,Increment      1: Step Time =    1.000,"PART-1-1",           246,       14.0627,       22.6507,            0.,NA,NA,"",       13.3529,       12.9586,      -3.22105,   49.1738E-06
C:/temp/dataset/7/26_6.odb,Step-1,Increment      1: Step Time =    1.000,"PART-1-1",           247,           15.,         23.75,            0.,NA,NA,"",       13.7428,       13.2663,      -3.58748,   33.9693E-06
C:/temp/dataset/7/26_6.odb,Step-1,Increment      1: Step Time =    1.000,"PART-1-1",           248,       11.2764,       28.8302,            0.,NA,NA,"",       15.3602,       15.1299,      -2.64980,   5.06136E-06
C:/temp/dataset/7/26_6.odb,Step-1,Increment      1: Step Time =    1.000,"PART-1-1",           249,       10.3125,           30.,            0.,NA,NA,"",       15.7487,       15.5649,      -2.39911,   2.74946E-06
C:/temp/dataset/7/26_6.odb,Step-1,Increment      1: Step Time =    1.000,"PART-1-1",           250,       9.39543,       28.8642,            0.,NA,NA,"",       15.3797,       15.2442,      -2.03724,   5.72591E-06
C:/temp/dataset/7/26_6.odb,Step-1,Increment      1: Step Time =    1.000,"PART-1-1",           251,       10.3594,       27.6945,            0.,NA,NA,"",       14.9849,       14.8092,      -2.28794,   7.69253E-06
C:/temp/dataset/7/26_6.odb,Step-1,Increment      1: Step Time =    1.000,"PART-1-1",           252,        8.4375,           30.,            0.,NA,NA,"",       15.7693,       15.6677,      -1.78664,   2.56629E-06
C:/temp/dataset/7/26_6.odb,Step-1,Increment      1: Step Time =    1.000,"PART-1-1",           253,       7.48312,       28.8587,            0.,NA,NA,"",       15.4121,       15.3473,      -1.41228,   4.81703E-06
C:/temp/dataset/7/26_6.odb,Step-1,Increment      1: Step Time =    1.000,"PART-1-1",           254,       8.44105,       27.7230,            0.,NA,NA,"",       15.0161,       14.9237,      -1.66289,   7.65209E-06
C:/temp/dataset/7/26_6.odb,Step-1,Increment      1: Step Time =    1.000,"PART-1-1",           255,       13.0365,       21.6252,            0.,NA,NA,"",       12.9919,       12.6800,      -2.82957,   102.546E-06
C:/temp/dataset/7/26_6.odb,Step-1,Increment      1: Step Time =    1.000,"PART-1-1",           256,       13.9738,       20.2245,            0.,NA,NA,"",       12.5495,       12.1710,      -3.05909,   131.063E-06
C:/temp/dataset/7/26_6.odb,Step-1,Increment      1: Step Time =    1.000,"PART-1-1",           257,           15.,         21.25,            0.,NA,NA,"",       12.9190,       12.4496,      -3.45049,   115.777E-06
C:/temp/dataset/7/26_6.odb,Step-1,Increment      1: Step Time =    1.000,"PART-1-1",           258,       6.90015,       14.7921,            0.,NA,NA,"",       10.7966,       10.7872,  -451.146E-03,   1.54921E-03
C:/temp/dataset/7/26_6.odb,Step-1,Increment      1: Step Time =    1.000,"PART-1-1",           259,       5.93474,       15.8126,            0.,NA,NA,"",       11.1731,       11.1715,  -192.366E-03,   607.217E-06
C:/temp/dataset/7/26_6.odb,Step-1,Increment      1: Step Time =    1.000,"PART-1-1",           260,            5.,       14.7917,            0.,NA,NA,"",       10.8917,       10.8904,   165.784E-03,   1.03185E-03
C:/temp/dataset/7/26_6.odb,Step-1,Increment      1: Step Time =    1.000,"PART-1-1",           261,       5.96541,       13.7711,            0.,NA,NA,"",       10.5092,       10.5088,  -92.4550E-03,   3.38066E-03
C:/temp/dataset/7/26_6.odb,Step-1,Increment      1: Step Time =    1.000,"PART-1-1",           262,       7.07741,       8.55300,            0.,NA,NA,"",       8.72049,       8.71864,  -179.817E-03,   9.66159E-03
C:/temp/dataset/7/26_6.odb,Step-1,Increment      1: Step Time =    1.000,"PART-1-1",           263,       6.03400,       9.60662,            0.,NA,NA,"",       9.13609,       9.13549,   104.277E-03,   7.32948E-03
C:/temp/dataset/7/26_6.odb,Step-1,Increment      1: Step Time =    1.000,"PART-1-1",           264,            5.,       8.54167,            0.,NA,NA,"",       8.85779,       8.84361,   500.963E-03,   7.52204E-03
C:/temp/dataset/7/26_6.odb,Step-1,Increment      1: Step Time =    1.000,"PART-1-1",           265,       6.04341,       7.48805,            0.,NA,NA,"",       8.42393,       8.42126,   211.817E-03,   9.09478E-03
C:/temp/dataset/7/26_6.odb,Step-1,Increment      1: Step Time =    1.000,"PART-1-1",           266,            5.,         4.375,            0.,NA,NA,"",       7.47449,       7.44139,   702.617E-03,   14.8545E-03
C:/temp/dataset/7/26_6.odb,Step-1,Increment      1: Step Time =    1.000,"PART-1-1",           267,       6.03822,       3.24050,            0.,NA,NA,"",       7.01803,       7.00560,   417.557E-03,   13.8696E-03
C:/temp/dataset/7/26_6.odb,Step-1,Increment      1: Step Time =    1.000,"PART-1-1",           268,       7.08368,       4.22909,            0.,NA,NA,"",       7.27170,       7.27158,   40.9709E-03,   10.6038E-03
C:/temp/dataset/7/26_6.odb,Step-1,Increment      1: Step Time =    1.000,"PART-1-1",           269,       6.04546,       5.36359,            0.,NA,NA,"",       7.71387,       7.70726,   319.339E-03,   10.1398E-03
C:/temp/dataset/7/26_6.odb,Step-1,Increment      1: Step Time =    1.000,"PART-1-1",           270,            5.,       2.29167,            0.,NA,NA,"",       6.80235,       6.75696,   784.560E-03,   19.2510E-03
C:/temp/dataset/7/26_6.odb,Step-1,Increment      1: Step Time =    1.000,"PART-1-1",           271,       6.01828,       1.12309,            0.,NA,NA,"",       6.33868,       6.31829,   507.964E-03,   17.5681E-03
C:/temp/dataset/7/26_6.odb,Step-1,Increment      1: Step Time =    1.000,"PART-1-1",           272,       7.05649,       2.07193,            0.,NA,NA,"",       6.56850,       6.56683,   148.065E-03,   13.1151E-03
C:/temp/dataset/7/26_6.odb,Step-1,Increment      1: Step Time =    1.000,"PART-1-1",           273,       7.00178,  -77.9012E-03,            0.,NA,NA,"",       5.88530,       5.87991,   251.941E-03,   15.9786E-03
C:/temp/dataset/7/26_6.odb,Step-1,Increment      1: Step Time =    1.000,"PART-1-1",           274,            5.,   208.333E-03,            0.,NA,NA,"",       6.14427,       6.08468,   853.622E-03,   23.7752E-03
C:/temp/dataset/7/26_6.odb,Step-1,Increment      1: Step Time =    1.000,"PART-1-1",           275,       5.98350,  -992.661E-03,            0.,NA,NA,"",       5.67770,       5.64697,   589.976E-03,   21.4676E-03
C:/temp/dataset/7/26_6.odb,Step-1,Increment      1: Step Time =    1.000,"PART-1-1",           276,       6.59145,      -6.15040,            0.,NA,NA,"",       4.09525,       4.05944,   540.359E-03,   26.7292E-03
C:/temp/dataset/7/26_6.odb,Step-1,Increment      1: Step Time =    1.000,"PART-1-1",           277,       5.82593,      -5.11028,            0.,NA,NA,"",       4.46144,       4.40089,   732.554E-03,   29.9860E-03
C:/temp/dataset/7/26_6.odb,Step-1,Increment      1: Step Time =    1.000,"PART-1-1",           278,            5.,      -6.04167,            0.,NA,NA,"",       4.28598,       4.17429,   972.076E-03,   37.8297E-03
C:/temp/dataset/7/26_6.odb,Step-1,Increment      1: Step Time =    1.000,"PART-1-1",           279,       5.76552,      -7.08179,            0.,NA,NA,"",       3.91330,       3.83611,   773.426E-03,   34.2884E-03
C:/temp/dataset/7/26_6.odb,Step-1,Increment      1: Step Time =    1.000,"PART-1-1",           280,       8.25955,      -15.2021,            0.,NA,NA,"",       1.73533,       1.71920,   236.035E-03,   22.9847E-03
C:/temp/dataset/7/26_6.odb,Step-1,Increment      1: Step Time =    1.000,"PART-1-1",           281,       9.23032,      -13.9562,            0.,NA,NA,"",       1.96062,       1.96033,   33.5141E-03,   13.6962E-03
C:/temp/dataset/7/26_6.odb,Step-1,Increment      1: Step Time =    1.000,"PART-1-1",           282,       8.16037,      -12.9544,            0.,NA,NA,"",       2.23169,       2.21831,   244.029E-03,   22.1141E-03
C:/temp/dataset/7/26_6.odb,Step-1,Increment      1: Step Time =    1.000,"PART-1-1",           283,       7.18960,      -14.2003,            0.,NA,NA,"",       2.01969,       1.96950,   447.458E-03,   33.0398E-03
C:/temp/dataset/7/26_6.odb,Step-1,Increment      1: Step Time =    1.000,"PART-1-1",           284,            5.,      -22.7083,            0.,NA,NA,"",   766.587E-03,   563.661E-03,   519.560E-03,   75.4726E-03
C:/temp/dataset/7/26_6.odb,Step-1,Increment      1: Step Time =    1.000,"PART-1-1",           285,       5.97351,      -23.6835,            0.,NA,NA,"",   554.349E-03,   417.142E-03,   365.097E-03,   63.3326E-03
C:/temp/dataset/7/26_6.odb,Step-1,Increment      1: Step Time =    1.000,"PART-1-1",           286,       6.71140,      -22.7416,            0.,NA,NA,"",   602.868E-03,   501.989E-03,   333.852E-03,   50.9606E-03
C:/temp/dataset/7/26_6.odb,Step-1,Increment      1: Step Time =    1.000,"PART-1-1",           287,       5.73789,      -21.7664,            0.,NA,NA,"",   817.247E-03,   657.208E-03,   485.768E-03,   62.9888E-03
C:/temp/dataset/7/26_6.odb,Step-1,Increment      1: Step Time =    1.000,"PART-1-1",           288,       9.95056,      -28.8261,            0.,NA,NA,"",   1.89713E-03,   1.08698E-03,   1.55485E-03,   2.58872E-03
C:/temp/dataset/7/26_6.odb,Step-1,Increment      1: Step Time =    1.000,"PART-1-1",           289,       8.67404,      -27.7482,            0.,NA,NA,"",   59.5576E-03,   42.8592E-03,   41.3546E-03,   27.3872E-03
C:/temp/dataset/7/26_6.odb,Step-1,Increment      1: Step Time =    1.000,"PART-1-1",           290,       7.47347,      -28.9221,            0.,NA,NA,"",   36.9683E-03,   13.5588E-03,   34.3920E-03,   39.6730E-03
C:/temp/dataset/7/26_6.odb,Step-1,Increment      1: Step Time =    1.000,"PART-1-1",           291,          8.75,          -30.,            0.,NA,NA,"",            0.,  -7.80458E-39,   33.5492E-39,   17.9447E-03
C:/temp/dataset/7/26_6.odb,Step-1,Increment      1: Step Time =    1.000,"PART-1-1",           292,       9.14805,      -24.1419,            0.,NA,NA,"",   306.403E-03,   297.888E-03,   71.7296E-03,   18.6167E-03
C:/temp/dataset/7/26_6.odb,Step-1,Increment      1: Step Time =    1.000,"PART-1-1",           293,       7.84454,      -23.3007,            0.,NA,NA,"",   456.274E-03,   408.846E-03,   202.561E-03,   35.7459E-03
C:/temp/dataset/7/26_6.odb,Step-1,Increment      1: Step Time =    1.000,"PART-1-1",           294,       7.10828,      -24.6604,            0.,NA,NA,"",   362.881E-03,   286.534E-03,   222.668E-03,   48.5514E-03
C:/temp/dataset/7/26_6.odb,Step-1,Increment      1: Step Time =    1.000,"PART-1-1",           295,       8.41180,      -25.5016,            0.,NA,NA,"",   213.518E-03,   186.450E-03,   104.049E-03,   30.3109E-03
C:/temp/dataset/7/26_6.odb,Step-1,Increment      1: Step Time =    1.000,"PART-1-1",           296,       7.00425,      -21.1298,            0.,NA,NA,"",   789.945E-03,   705.294E-03,   355.771E-03,   44.8372E-03
C:/temp/dataset/7/26_6.odb,Step-1,Increment      1: Step Time =    1.000,"PART-1-1",           297,       6.26636,      -19.9884,            0.,NA,NA,"",       1.02406,   898.680E-03,   490.991E-03,   52.5940E-03
C:/temp/dataset/7/26_6.odb,Step-1,Increment      1: Step Time =    1.000,"PART-1-1",           298,            5.,       -20.625,            0.,NA,NA,"",       1.06117,   847.560E-03,   638.529E-03,   71.1023E-03
C:/temp/dataset/7/26_6.odb,Step-1,Increment      1: Step Time =    1.000,"PART-1-1",           299,       12.8526,      -8.63250,            0.,NA,NA,"",       3.31008,       3.15593,  -998.344E-03,   25.1555E-03
C:/temp/dataset/7/26_6.odb,Step-1,Increment      1: Step Time =    1.000,"PART-1-1",           300,       13.9581,      -9.97058,            0.,NA,NA,"",       3.04404,       2.79804,      -1.19882,   36.3512E-03
C:/temp/dataset/7/26_6.odb,Step-1,Increment      1: Step Time =    1.000,"PART-1-1",           301,           15.,         -8.75,            0.,NA,NA,"",       3.45370,       3.08521,      -1.55226,   43.2868E-03
C:/temp/dataset/7/26_6.odb,Step-1,Increment      1: Step Time =    1.000,"PART-1-1",           302,       13.8945,      -7.41192,            0.,NA,NA,"",       3.70548,       3.45198,      -1.34701,   31.4631E-03
C:/temp/dataset/7/26_6.odb,Step-1,Increment      1: Step Time =    1.000,"PART-1-1",           303,            5.,        10.625,            0.,NA,NA,"",       9.54501,       9.53709,   388.586E-03,   5.78173E-03
C:/temp/dataset/7/26_6.odb,Step-1,Increment      1: Step Time =    1.000,"PART-1-1",           304,       7.03988,       10.6820,            0.,NA,NA,"",       9.43690,       9.43275,  -279.961E-03,   7.20478E-03
C:/temp/dataset/7/26_6.odb,Step-1,Increment      1: Step Time =    1.000,"PART-1-1",           305,       6.00589,       11.7004,            0.,NA,NA,"",       9.83143,       9.83143,   2.17995E-03,   6.02489E-03
C:/temp/dataset/7/26_6.odb,Step-1,Increment      1: Step Time =    1.000,"PART-1-1",           306,       2.74639,       25.6366,            0.,NA,NA,"",       14.5579,       14.5546,   311.740E-03,   4.12027E-06
C:/temp/dataset/7/26_6.odb,Step-1,Increment      1: Step Time =    1.000,"PART-1-1",           307,       1.36653,       25.0307,            0.,NA,NA,"",       14.4543,       14.4324,   795.727E-03,   2.15507E-06
C:/temp/dataset/7/26_6.odb,Step-1,Increment      1: Step Time =    1.000,"PART-1-1",           308,       1.96853,       23.3303,            0.,NA,NA,"",       13.8612,       13.8439,   692.362E-03,   4.23603E-06
C:/temp/dataset/7/26_6.odb,Step-1,Increment      1: Step Time =    1.000,"PART-1-1",           309,       3.34839,       23.9361,            0.,NA,NA,"",       13.9676,       13.9661,   208.370E-03,   7.14921E-06
C:/temp/dataset/7/26_6.odb,Step-1,Increment      1: Step Time =    1.000,"PART-1-1",           310,       4.47216,       26.2029,            0.,NA,NA,"",       14.6476,       14.6449,  -283.060E-03,   6.16077E-06
C:/temp/dataset/7/26_6.odb,Step-1,Increment      1: Step Time =    1.000,"PART-1-1",           311,       4.17993,       27.6633,            0.,NA,NA,"",       15.1403,       15.1380,  -267.713E-03,   3.35402E-06
C:/temp/dataset/7/26_6.odb,Step-1,Increment      1: Step Time =    1.000,"PART-1-1",           312,       2.45416,       27.0970,            0.,NA,NA,"",       15.0512,       15.0477,   327.089E-03,   903.492E-09
C:/temp/dataset/7/26_6.odb,Step-1,Increment      1: Step Time =    1.000,"PART-1-1",           313,      -1.66705,       28.8640,            0.,NA,NA,"",       15.9292,       15.8510,       1.57640,   960.089E-09
C:/temp/dataset/7/26_6.odb,Step-1,Increment      1: Step Time =    1.000,"PART-1-1",           314,   261.919E-03,       29.0779,            0.,NA,NA,"",       15.8426,       15.8150,   934.537E-03,   1.70476E-06
C:/temp/dataset/7/26_6.odb,Step-1,Increment      1: Step Time =    1.000,"PART-1-1",           315,    -937.5E-03,           30.,            0.,NA,NA,"",       16.2322,       16.1820,       1.27576,   1.80767E-06
C:/temp/dataset/7/26_6.odb,Step-1,Increment      1: Step Time =    1.000,"PART-1-1",           316,          -15.,         21.25,            0.,NA,NA,"",       15.4593,       14.0952,       6.34949,   2.40469E-09
C:/temp/dataset/7/26_6.odb,Step-1,Increment      1: Step Time =    1.000,"PART-1-1",           317,      -13.3250,           20.,            0.,NA,NA,"",       14.8085,       13.5950,       5.87090,   3.78240E-09
C:/temp/dataset/7/26_6.odb,Step-1,Increment      1: Step Time =    1.000,"PART-1-1",           318,      -11.7925,       21.2083,            0.,NA,NA,"",       14.8828,       13.9056,       5.30402,   10.6368E-09
C:/temp/dataset/7/26_6.odb,Step-1,Increment      1: Step Time =    1.000,"PART-1-1",           319,       10.1137,       15.7319,            0.,NA,NA,"",       11.0248,       10.9152,      -1.55061,   527.193E-06
C:/temp/dataset/7/26_6.odb,Step-1,Increment      1: Step Time =    1.000,"PART-1-1",           320,       9.02474,       16.2903,            0.,NA,NA,"",       11.2249,       11.1578,      -1.22562,   429.166E-06
C:/temp/dataset/7/26_6.odb,Step-1,Increment      1: Step Time =    1.000,"PART-1-1",           321,       8.64023,       14.7706,            0.,NA,NA,"",       10.7313,       10.6830,      -1.01724,   1.27698E-03
C:/temp/dataset/7/26_6.odb,Step-1,Increment      1: Step Time =    1.000,"PART-1-1",           322,       9.72917,       14.2122,            0.,NA,NA,"",       10.5253,       10.4394,      -1.34207,   1.54219E-03
C:/temp/dataset/7/26_6.odb,Step-1,Increment      1: Step Time =    1.000,"PART-1-1",           323,       12.8210,       13.6438,            0.,NA,NA,"",       10.3444,       10.0809,      -2.32017,   1.10946E-03
C:/temp/dataset/7/26_6.odb,Step-1,Increment      1: Step Time =    1.000,"PART-1-1",           324,       13.9730,       12.4303,            0.,NA,NA,"",       9.97109,       9.61810,      -2.62960,   956.387E-06
C:/temp/dataset/7/26_6.odb,Step-1,Increment      1: Step Time =    1.000,"PART-1-1",           325,           15.,         13.75,            0.,NA,NA,"",       10.4473,       9.99514,      -3.04026,   226.092E-06
C:/temp/dataset/7/26_6.odb,Step-1,Increment      1: Step Time =    1.000,"PART-1-1",           326,       13.8481,       14.9635,            0.,NA,NA,"",       10.8076,       10.4572,      -2.72949,   297.242E-06
C:/temp/dataset/7/26_6.odb,Step-1,Increment      1: Step Time =    1.000,"PART-1-1",           327,       10.1008,       2.87074,            0.,NA,NA,"",       6.72075,       6.66881,  -833.938E-03,   9.69269E-03
C:/temp/dataset/7/26_6.odb,Step-1,Increment      1: Step Time =    1.000,"PART-1-1",           328,       9.07373,       1.83179,            0.,NA,NA,"",       6.40041,       6.38366,  -462.790E-03,   10.2846E-03
C:/temp/dataset/7/26_6.odb,Step-1,Increment      1: Step Time =    1.000,"PART-1-1",           329,       10.0520,   569.032E-03,            0.,NA,NA,"",       5.97356,       5.93280,  -696.707E-03,   9.64753E-03
C:/temp/dataset/7/26_6.odb,Step-1,Increment      1: Step Time =    1.000,"PART-1-1",           330,       11.0790,       1.60798,            0.,NA,NA,"",       6.30623,       6.21549,      -1.06591,   10.6145E-03
C:/temp/dataset/7/26_6.odb,Step-1,Increment      1: Step Time =    1.000,"PART-1-1",           331,       9.98138,      -1.74337,            0.,NA,NA,"",       5.24461,       5.21458,  -560.489E-03,   9.64371E-03
C:/temp/dataset/7/26_6.odb,Step-1,Increment      1: Step Time =    1.000,"PART-1-1",           332,       8.90931,      -2.66004,            0.,NA,NA,"",       4.98693,       4.98254,  -209.152E-03,   11.7211E-03
C:/temp/dataset/7/26_6.odb,Step-1,Increment      1: Step Time =    1.000,"PART-1-1",           333,       9.84458,      -4.07679,            0.,NA,NA,"",       4.53684,       4.51782,  -414.961E-03,   9.75921E-03
C:/temp/dataset/7/26_6.odb,Step-1,Increment      1: Step Time =    1.000,"PART-1-1",           334,       10.9167,      -3.16013,            0.,NA,NA,"",       4.80736,       4.74669,  -761.323E-03,   11.0858E-03
C:/temp/dataset/7/26_6.odb,Step-1,Increment      1: Step Time =    1.000,"PART-1-1",           335,            5.,      -3.95833,            0.,NA,NA,"",       4.88263,       4.78963,   948.458E-03,   33.1192E-03
C:/temp/dataset/7/26_6.odb,Step-1,Increment      1: Step Time =    1.000,"PART-1-1",           336,       6.75254,      -4.23112,            0.,NA,NA,"",       4.63542,       4.61301,   455.319E-03,   22.8633E-03
C:/temp/dataset/7/26_6.odb,Step-1,Increment      1: Step Time =    1.000,"PART-1-1",           337,       5.92661,      -3.07918,            0.,NA,NA,"",       5.04775,       5.00396,   663.432E-03,   25.5696E-03
C:/temp/dataset/7/26_6.odb,Step-1,Increment      1: Step Time =    1.000,"PART-1-1",           338,       7.06139,      -12.0396,            0.,NA,NA,"",       2.52052,       2.47459,   478.952E-03,   31.4176E-03
C:/temp/dataset/7/26_6.odb,Step-1,Increment      1: Step Time =    1.000,"PART-1-1",           339,       5.99095,      -11.1126,            0.,NA,NA,"",       2.84253,       2.74862,   724.604E-03,   40.0025E-03
C:/temp/dataset/7/26_6.odb,Step-1,Increment      1: Step Time =    1.000,"PART-1-1",           340,            5.,      -12.2917,            0.,NA,NA,"",       2.67481,       2.50480,   938.399E-03,   52.0301E-03
C:/temp/dataset/7/26_6.odb,Step-1,Increment      1: Step Time =    1.000,"PART-1-1",           341,       6.07044,      -13.2187,            0.,NA,NA,"",       2.33959,       2.23592,   688.738E-03,   43.0621E-03
C:/temp/dataset/7/26_6.odb,Step-1,Increment      1: Step Time =    1.000,"PART-1-1",           342,       6.63644,      -8.02271,            0.,NA,NA,"",       3.57502,       3.53157,   555.674E-03,   29.2398E-03
C:/temp/dataset/7/26_6.odb,Step-1,Increment      1: Step Time =    1.000,"PART-1-1",           343,            5.,        -8.125,            0.,NA,NA,"",       3.71682,       3.58566,   978.691E-03,   42.5452E-03
C:/temp/dataset/7/26_6.odb,Step-1,Increment      1: Step Time =    1.000,"PART-1-1",           344,       5.87092,      -9.06592,            0.,NA,NA,"",       3.37142,       3.28541,   756.684E-03,   37.2275E-03
C:/temp/dataset/7/26_6.odb,Step-1,Increment      1: Step Time =    1.000,"PART-1-1",           345,       13.0826,      -13.6930,            0.,NA,NA,"",       2.09977,       1.95157,  -774.853E-03,   33.4717E-03
C:/temp/dataset/7/26_6.odb,Step-1,Increment      1: Step Time =    1.000,"PART-1-1",           346,       14.0569,      -14.9678,            0.,NA,NA,"",       1.91209,       1.68358,  -906.447E-03,   46.0917E-03
C:/temp/dataset/7/26_6.odb,Step-1,Increment      1: Step Time =    1.000,"PART-1-1",           347,           15.,        -13.75,            0.,NA,NA,"",       2.26979,       1.93195,      -1.19145,   54.3860E-03
C:/temp/dataset/7/26_6.odb,Step-1,Increment      1: Step Time =    1.000,"PART-1-1",           348,       14.0257,      -12.4752,            0.,NA,NA,"",       2.44975,       2.21055,      -1.05582,   41.3663E-03
C:/temp/dataset/7/26_6.odb,Step-1,Increment      1: Step Time =    1.000,"PART-1-1",           349,       8.13738,      -21.6888,            0.,NA,NA,"",   634.647E-03,   600.292E-03,   205.976E-03,   30.0447E-03
C:/temp/dataset/7/26_6.odb,Step-1,Increment      1: Step Time =    1.000,"PART-1-1",           350,            5.,      -28.9583,            0.,NA,NA,"",   109.043E-03,   71.3998E-03,   82.4159E-03,   90.0507E-03
C:/temp/dataset/7/26_6.odb,Step-1,Increment      1: Step Time =    1.000,"PART-1-1",           351,          6.25,          -30.,            0.,NA,NA,"",            0.,  -1.83603E-39,   100.723E-39,   64.4839E-03
C:/temp/dataset/7/26_6.odb,Step-1,Increment      1: Step Time =    1.000,"PART-1-1",           352,       6.22347,      -27.8804,            0.,NA,NA,"",   141.813E-03,   81.9270E-03,   115.754E-03,   67.2299E-03
C:/temp/dataset/7/26_6.odb,Step-1,Increment      1: Step Time =    1.000,"PART-1-1",           353,           15.,        -28.75,            0.,NA,NA,"",   119.793E-03,   72.5645E-03,  -95.3138E-03,   85.6907E-03
C:/temp/dataset/7/26_6.odb,Step-1,Increment      1: Step Time =    1.000,"PART-1-1",           354,       13.6900,      -27.4695,            0.,NA,NA,"",   154.473E-03,   81.2383E-03,  -131.386E-03,   62.8233E-03
C:/temp/dataset/7/26_6.odb,Step-1,Increment      1: Step Time =    1.000,"PART-1-1",           355,       12.4400,      -28.7195,            0.,NA,NA,"",   38.5947E-03,   9.56469E-03,  -37.3908E-03,   35.9875E-03
C:/temp/dataset/7/26_6.odb,Step-1,Increment      1: Step Time =    1.000,"PART-1-1",           356,         13.75,          -30.,            0.,NA,NA,"",            0.,  -7.10991E-39,  -97.4421E-39,   60.6978E-03
C:/temp/dataset/7/26_6.odb,Step-1,Increment      1: Step Time =    1.000,"PART-1-1",           357,       9.58617,      -22.6245,            0.,NA,NA,"",   460.305E-03,   458.683E-03,   38.6132E-03,   12.9367E-03
C:/temp/dataset/7/26_6.odb,Step-1,Increment      1: Step Time =    1.000,"PART-1-1",           358,       10.0221,      -21.0980,            0.,NA,NA,"",   651.839E-03,   651.630E-03,  -16.4970E-03,   10.3467E-03
C:/temp/dataset/7/26_6.odb,Step-1,Increment      1: Step Time =    1.000,"PART-1-1",           359,       8.57328,      -20.1623,            0.,NA,NA,"",   827.359E-03,   809.637E-03,   170.328E-03,   23.2753E-03
C:/temp/dataset/7/26_6.odb,Step-1,Increment      1: Step Time =    1.000,"PART-1-1",           360,       11.1406,      -27.5456,            0.,NA,NA,"",   54.3825E-03,   42.8066E-03,  -33.5418E-03,   20.1648E-03
C:/temp/dataset/7/26_6.odb,Step-1,Increment      1: Step Time =    1.000,"PART-1-1",           361,         11.25,          -30.,            0.,NA,NA,"",            0.,  -9.78591E-39,  -33.9765E-39,   17.7190E-03
C:/temp/dataset/7/26_6.odb,Step-1,Increment      1: Step Time =    1.000,"PART-1-1",           362,       11.2605,      -16.1933,            0.,NA,NA,"",       1.49016,       1.45845,  -305.810E-03,   16.8171E-03
C:/temp/dataset/7/26_6.odb,Step-1,Increment      1: Step Time =    1.000,"PART-1-1",           363,       10.2521,      -15.0492,            0.,NA,NA,"",       1.70980,       1.70342,  -147.591E-03,   9.78065E-03
C:/temp/dataset/7/26_6.odb,Step-1,Increment      1: Step Time =    1.000,"PART-1-1",           364,       9.32474,      -16.3084,            0.,NA,NA,"",       1.46870,       1.46797,   46.3114E-03,   13.6809E-03
C:/temp/dataset/7/26_6.odb,Step-1,Increment      1: Step Time =    1.000,"PART-1-1",           365,       10.3331,      -17.4526,            0.,NA,NA,"",       1.23883,       1.23381,  -111.420E-03,   9.98236E-03
C:/temp/dataset/7/26_6.odb,Step-1,Increment      1: Step Time =    1.000,"PART-1-1",           366,       7.44248,      -19.0256,            0.,NA,NA,"",       1.07610,       1.01896,   346.008E-03,   36.2584E-03
C:/temp/dataset/7/26_6.odb,Step-1,Increment      1: Step Time =    1.000,"PART-1-1",           367,       6.17612,      -17.5789,            0.,NA,NA,"",       1.43874,       1.31621,   581.003E-03,   49.6628E-03
C:/temp/dataset/7/26_6.odb,Step-1,Increment      1: Step Time =    1.000,"PART-1-1",           368,            5.,      -18.5417,            0.,NA,NA,"",       1.39967,       1.18784,   740.352E-03,   66.3812E-03
C:/temp/dataset/7/26_6.odb,Step-1,Increment      1: Step Time =    1.000,"PART-1-1",           369,       12.8407,      -6.03443,            0.,NA,NA,"",       4.01899,       3.85250,      -1.14478,   21.9652E-03
C:/temp/dataset/7/26_6.odb,Step-1,Increment      1: Step Time =    1.000,"PART-1-1",           370,           15.,         -6.25,            0.,NA,NA,"",       4.11985,       3.73753,      -1.73323,   37.6850E-03
C:/temp/dataset/7/26_6.odb,Step-1,Increment      1: Step Time =    1.000,"PART-1-1",           371,       13.9462,      -4.87251,            0.,NA,NA,"",       4.41781,       4.14529,      -1.52763,   27.4840E-03
C:/temp/dataset/7/26_6.odb,Step-1,Increment      1: Step Time =    1.000,"PART-1-1",           372,       7.64514,      -8.69832,            0.,NA,NA,"",       3.31823,       3.30369,   310.256E-03,   22.4549E-03
C:/temp/dataset/7/26_6.odb,Step-1,Increment      1: Step Time =    1.000,"PART-1-1",           373,       8.20020,      -7.75016,            0.,NA,NA,"",       3.54109,       3.53789,   150.589E-03,   17.6144E-03
C:/temp/dataset/7/26_6.odb,Step-1,Increment      1: Step Time =    1.000,"PART-1-1",           374,       7.19150,      -7.07454,            0.,NA,NA,"",       3.78975,       3.76884,   397.521E-03,   23.7387E-03
C:/temp/dataset/7/26_6.odb,Step-1,Increment      1: Step Time =    1.000,"PART-1-1",           375,       7.97278,      -1.35169,            0.,NA,NA,"",       5.42956,       5.42954,   11.1584E-03,   13.6445E-03
C:/temp/dataset/7/26_6.odb,Step-1,Increment      1: Step Time =    1.000,"PART-1-1",           376,       9.01285,  -423.179E-03,            0.,NA,NA,"",       5.67899,       5.66901,  -336.433E-03,   10.8297E-03
C:/temp/dataset/7/26_6.odb,Step-1,Increment      1: Step Time =    1.000,"PART-1-1",           377,       8.04185,   850.611E-03,            0.,NA,NA,"",       6.12183,       6.12099,  -101.350E-03,   11.7887E-03
C:/temp/dataset/7/26_6.odb,Step-1,Increment      1: Step Time =    1.000,"PART-1-1",           378,       8.08837,       3.05311,            0.,NA,NA,"",       6.83420,       6.83071,  -218.139E-03,   10.2905E-03
C:/temp/dataset/7/26_6.odb,Step-1,Increment      1: Step Time =    1.000,"PART-1-1",           379,       9.11337,       4.08618,            0.,NA,NA,"",       7.14021,       7.11568,  -591.361E-03,   10.0774E-03
C:/temp/dataset/7/26_6.odb,Step-1,Increment      1: Step Time =    1.000,"PART-1-1",           380,       8.10868,       5.26217,            0.,NA,NA,"",       7.56499,       7.55750,  -336.358E-03,   9.59865E-03
C:/temp/dataset/7/26_6.odb,Step-1,Increment      1: Step Time =    1.000,"PART-1-1",           381,       7.08888,       6.39331,            0.,NA,NA,"",       7.99199,       7.99169,  -69.5812E-03,   9.68751E-03
C:/temp/dataset/7/26_6.odb,Step-1,Increment      1: Step Time =    1.000,"PART-1-1",           382,            5.,       6.45833,            0.,NA,NA,"",       8.15884,       8.13606,   609.240E-03,   10.3897E-03
C:/temp/dataset/7/26_6.odb,Step-1,Increment      1: Step Time =    1.000,"PART-1-1",           383,           15.,         16.25,            0.,NA,NA,"",       11.2720,       10.8150,      -3.17722,   461.102E-06
C:/temp/dataset/7/26_6.odb,Step-1,Increment      1: Step Time =    1.000,"PART-1-1",           384,       13.6214,       17.6671,            0.,NA,NA,"",       11.6957,       11.3547,      -2.80379,   217.501E-06
C:/temp/dataset/7/26_6.odb,Step-1,Increment      1: Step Time =    1.000,"PART-1-1",           385,       12.4694,       16.3805,            0.,NA,NA,"",       11.2470,       10.9974,      -2.35633,   136.592E-06
C:/temp/dataset/7/26_6.odb,Step-1,Increment      1: Step Time =    1.000,"PART-1-1",           386,       10.0881,       9.74649,            0.,NA,NA,"",       9.02681,       8.94473,      -1.21458,   6.72890E-03
C:/temp/dataset/7/26_6.odb,Step-1,Increment      1: Step Time =    1.000,"PART-1-1",           387,       9.10561,       8.57814,            0.,NA,NA,"",       8.65041,       8.61010,  -834.117E-03,   8.68439E-03
C:/temp/dataset/7/26_6.odb,Step-1,Increment      1: Step Time =    1.000,"PART-1-1",           388,       10.1162,       7.46436,            0.,NA,NA,"",       8.25581,       8.18276,      -1.09585,   8.91485E-03
C:/temp/dataset/7/26_6.odb,Step-1,Increment      1: Step Time =    1.000,"PART-1-1",           389,       11.0986,       8.63272,            0.,NA,NA,"",       8.64580,       8.51863,      -1.47741,   7.25988E-03
C:/temp/dataset/7/26_6.odb,Step-1,Increment      1: Step Time =    1.000,"PART-1-1",           390,       9.96644,       19.4124,            0.,NA,NA,"",       12.2449,       12.1256,      -1.70484,   188.899E-06
C:/temp/dataset/7/26_6.odb,Step-1,Increment      1: Step Time =    1.000,"PART-1-1",           391,       10.9020,       20.3065,            0.,NA,NA,"",       12.5367,       12.3663,      -2.05968,   160.163E-06
C:/temp/dataset/7/26_6.odb,Step-1,Increment      1: Step Time =    1.000,"PART-1-1",           392,       10.1153,       21.2880,            0.,NA,NA,"",       12.8647,       12.7300,      -1.85658,   115.768E-06
C:/temp/dataset/7/26_6.odb,Step-1,Increment      1: Step Time =    1.000,"PART-1-1",           393,       9.17975,       20.3940,            0.,NA,NA,"",       12.5792,       12.4892,      -1.50183,   169.394E-06
C:/temp/dataset/7/26_6.odb,Step-1,Increment      1: Step Time =    1.000,"PART-1-1",           394,           15.,         28.75,            0.,NA,NA,"",       15.3918,       14.8995,      -3.86170,   214.045E-09
C:/temp/dataset/7/26_6.odb,Step-1,Increment      1: Step Time =    1.000,"PART-1-1",           395,       14.0625,           30.,            0.,NA,NA,"",       15.7809,       15.3592,      -3.62404,   560.545E-09
C:/temp/dataset/7/26_6.odb,Step-1,Increment      1: Step Time =    1.000,"PART-1-1",           396,       13.1487,       28.7914,            0.,NA,NA,"",       15.3642,       15.0145,      -3.25926,   2.47321E-06
C:/temp/dataset/7/26_6.odb,Step-1,Increment      1: Step Time =    1.000,"PART-1-1",           397,       14.0862,       27.5414,            0.,NA,NA,"",       14.9690,       14.5548,      -3.49693,   2.38037E-06
C:/temp/dataset/7/26_6.odb,Step-1,Increment      1: Step Time =    1.000,"PART-1-1",           398,       12.2440,       25.2848,            0.,NA,NA,"",       14.1920,       13.9188,      -2.77138,   21.3367E-06
C:/temp/dataset/7/26_6.odb,Step-1,Increment      1: Step Time =    1.000,"PART-1-1",           399,       13.1763,       26.3811,            0.,NA,NA,"",       14.5673,       14.2257,      -3.13606,   13.4247E-06
C:/temp/dataset/7/26_6.odb,Step-1,Increment      1: Step Time =    1.000,"PART-1-1",           400,       12.2376,       27.6217,            0.,NA,NA,"",       14.9656,       14.6824,      -2.89749,   6.47482E-06
C:/temp/dataset/7/26_6.odb,Step-1,Increment      1: Step Time =    1.000,"PART-1-1",           401,       11.3053,       26.5254,            0.,NA,NA,"",       14.5969,       14.3755,      -2.53281,   16.3944E-06
C:/temp/dataset/7/26_6.odb,Step-1,Increment      1: Step Time =    1.000,"PART-1-1",           402,       12.1875,           30.,            0.,NA,NA,"",       15.7526,       15.4620,      -3.01158,   942.680E-09
C:/temp/dataset/7/26_6.odb,Step-1,Increment      1: Step Time =    1.000,"PART-1-1",           403,        6.5625,           30.,            0.,NA,NA,"",       15.8142,       15.7706,      -1.17417,   210.740E-09
C:/temp/dataset/7/26_6.odb,Step-1,Increment      1: Step Time =    1.000,"PART-1-1",           404,       5.40000,       28.6589,            0.,NA,NA,"",       15.4131,       15.3963,  -720.869E-03,   3.27820E-06
C:/temp/dataset/7/26_6.odb,Step-1,Increment      1: Step Time =    1.000,"PART-1-1",           405,       6.32063,       27.5176,            0.,NA,NA,"",       15.0036,       14.9730,  -958.984E-03,   7.05569E-06
C:/temp/dataset/7/26_6.odb,Step-1,Increment      1: Step Time =    1.000,"PART-1-1",           406,        2.8125,           30.,            0.,NA,NA,"",       15.9764,       15.9763,   50.7825E-03,   3.69987E-06
C:/temp/dataset/7/26_6.odb,Step-1,Increment      1: Step Time =    1.000,"PART-1-1",           407,       1.86631,       29.3706,            0.,NA,NA,"",       15.8275,       15.8226,   394.388E-03,   2.61757E-06
C:/temp/dataset/7/26_6.odb,Step-1,Increment      1: Step Time =    1.000,"PART-1-1",           408,       2.52123,       28.3750,            0.,NA,NA,"",       15.4633,       15.4615,   235.066E-03,   1.10640E-06
C:/temp/dataset/7/26_6.odb,Step-1,Increment      1: Step Time =    1.000,"PART-1-1",           409,       3.46742,       29.0044,            0.,NA,NA,"",       15.6155,       15.6152,  -108.538E-03,   2.14123E-06
C:/temp/dataset/7/26_6.odb,Step-1,Increment      1: Step Time =    1.000,"PART-1-1",           410,       1.19073,       28.4486,            0.,NA,NA,"",       15.5727,       15.5585,   665.655E-03,   1.56786E-06
C:/temp/dataset/7/26_6.odb,Step-1,Increment      1: Step Time =    1.000,"PART-1-1",           411,      -2.48443,       27.9761,            0.,NA,NA,"",       15.7200,       15.6058,       1.89212,   918.069E-09
C:/temp/dataset/7/26_6.odb,Step-1,Increment      1: Step Time =    1.000,"PART-1-1",           412,       -2.8125,           30.,            0.,NA,NA,"",       16.3940,       16.2849,       1.88825,   846.308E-09
C:/temp/dataset/7/26_6.odb,Step-1,Increment      1: Step Time =    1.000,"PART-1-1",           413,      -7.28733,       29.0238,            0.,NA,NA,"",       16.5649,       16.2115,       3.40358,   65.7694E-09
C:/temp/dataset/7/26_6.odb,Step-1,Increment      1: Step Time =    1.000,"PART-1-1",           414,      -6.19423,       28.1363,            0.,NA,NA,"",       16.1608,       15.8616,       3.09519,   218.809E-09
C:/temp/dataset/7/26_6.odb,Step-1,Increment      1: Step Time =    1.000,"PART-1-1",           415,       -6.5625,           30.,            0.,NA,NA,"",       16.7819,       16.4906,       3.11324,   90.3902E-09
C:/temp/dataset/7/26_6.odb,Step-1,Increment      1: Step Time =    1.000,"PART-1-1",           416,      -11.8079,       27.5253,            0.,NA,NA,"",       16.7232,       15.9700,       4.96249,   3.78756E-09
C:/temp/dataset/7/26_6.odb,Step-1,Increment      1: Step Time =    1.000,"PART-1-1",           417,      -12.6125,       26.1842,            0.,NA,NA,"",       16.4527,       15.5760,       5.29889,   4.28290E-09
C:/temp/dataset/7/26_6.odb,Step-1,Increment      1: Step Time =    1.000,"PART-1-1",           418,      -8.13992,       23.4434,            0.,NA,NA,"",       14.9761,       14.4353,       3.98822,   83.8578E-09
C:/temp/dataset/7/26_6.odb,Step-1,Increment      1: Step Time =    1.000,"PART-1-1",           419,       -8.4375,           30.,            0.,NA,NA,"",       17.0066,       16.5935,       3.72574,   8.90022E-09
C:/temp/dataset/7/26_6.odb,Step-1,Increment      1: Step Time =    1.000,"PART-1-1",           420,      -8.00049,       27.9480,            0.,NA,NA,"",       16.3230,       15.8992,       3.69556,   85.8621E-09
C:/temp/dataset/7/26_6.odb,Step-1,Increment      1: Step Time =    1.000,"PART-1-1",           421,      -12.1875,           30.,            0.,NA,NA,"",       17.5135,       16.7992,       4.95073,   8.19892E-09
C:/temp/dataset/7/26_6.odb,Step-1,Increment      1: Step Time =    1.000,"PART-1-1",           422,          -15.,         26.25,            0.,NA,NA,"",       16.8610,       15.7285,       6.07520,   9.13090E-09
C:/temp/dataset/7/26_6.odb,Step-1,Increment      1: Step Time =    1.000,"PART-1-1",           423,  -614.199E-03,       25.3895,            0.,NA,NA,"",       14.7271,       14.6582,       1.42308,   1.42607E-06
C:/temp/dataset/7/26_6.odb,Step-1,Increment      1: Step Time =    1.000,"PART-1-1",           424,      -1.97220,       26.8586,            0.,NA,NA,"",       15.3171,       15.2126,       1.78609,   1.06577E-06
C:/temp/dataset/7/26_6.odb,Step-1,Increment      1: Step Time =    1.000,"PART-1-1",           425,      -1.74113,       25.3247,            0.,NA,NA,"",       14.8080,       14.6989,       1.79476,   1.39218E-06
C:/temp/dataset/7/26_6.odb,Step-1,Increment      1: Step Time =    1.000,"PART-1-1",           426,       8.18659,       21.6045,            0.,NA,NA,"",       12.9987,       12.9390,      -1.24398,   103.231E-06
C:/temp/dataset/7/26_6.odb,Step-1,Increment      1: Step Time =    1.000,"PART-1-1",           427,       9.25192,       22.4602,            0.,NA,NA,"",       13.2619,       13.1602,      -1.63894,   88.8991E-06
C:/temp/dataset/7/26_6.odb,Step-1,Increment      1: Step Time =    1.000,"PART-1-1",           428,       8.38526,       23.6138,            0.,NA,NA,"",       13.6585,       13.5845,      -1.41919,   46.0454E-06
C:/temp/dataset/7/26_6.odb,Step-1,Increment      1: Step Time =    1.000,"PART-1-1",           429,       7.31993,       22.7581,            0.,NA,NA,"",       13.4026,       13.3634,      -1.02427,   67.7116E-06
C:/temp/dataset/7/26_6.odb,Step-1,Increment      1: Step Time =    1.000,"PART-1-1",           430,           15.,         26.25,            0.,NA,NA,"",       14.5671,       14.0828,      -3.72458,   6.14960E-06
C:/temp/dataset/7/26_6.odb,Step-1,Increment      1: Step Time =    1.000,"PART-1-1",           431,        4.6875,           30.,            0.,NA,NA,"",       15.8834,       15.8734,  -561.696E-03,   2.66151E-06
C:/temp/dataset/7/26_6.odb,Step-1,Increment      1: Step Time =    1.000,"PART-1-1",           432,       9.38339,       24.5308,            0.,NA,NA,"",       13.9454,       13.8294,      -1.79555,   40.3249E-06
C:/temp/dataset/7/26_6.odb,Step-1,Increment      1: Step Time =    1.000,"PART-1-1",           433,       8.53172,       25.6694,            0.,NA,NA,"",       14.3353,       14.2480,      -1.57983,   19.8944E-06
C:/temp/dataset/7/26_6.odb,Step-1,Increment      1: Step Time =    1.000,"PART-1-1",           434,       7.53359,       24.7524,            0.,NA,NA,"",       14.0548,       14.0032,      -1.20348,   30.1455E-06
C:/temp/dataset/7/26_6.odb,Step-1,Increment      1: Step Time =    1.000,"PART-1-1",           435,     937.5E-03,           30.,            0.,NA,NA,"",       16.0928,       16.0792,   663.269E-03,   3.02838E-06
C:/temp/dataset/7/26_6.odb,Step-1,Increment      1: Step Time =    1.000,"PART-1-1",           436,       5.64845,       26.5466,            0.,NA,NA,"",       14.7086,       14.6926,  -686.150E-03,   10.6247E-06
C:/temp/dataset/7/26_6.odb,Step-1,Increment      1: Step Time =    1.000,"PART-1-1",           437,       4.65082,       24.6490,            0.,NA,NA,"",       14.1298,       14.1275,  -256.181E-03,   14.4581E-06
C:/temp/dataset/7/26_6.odb,Step-1,Increment      1: Step Time =    1.000,"PART-1-1",           438,       5.82711,       24.9927,            0.,NA,NA,"",       14.1906,       14.1752,  -659.264E-03,   17.7907E-06
C:/temp/dataset/7/26_6.odb,Step-1,Increment      1: Step Time =    1.000,"PART-1-1",           439,      -3.57200,       27.5772,            0.,NA,NA,"",       15.7000,       15.5351,       2.26927,   638.502E-09
C:/temp/dataset/7/26_6.odb,Step-1,Increment      1: Step Time =    1.000,"PART-1-1",           440,      -3.05977,       26.4597,            0.,NA,NA,"",       15.2957,       15.1420,       2.16325,   864.258E-09
C:/temp/dataset/7/26_6.odb,Step-1,Increment      1: Step Time =    1.000,"PART-1-1",           441,      -4.23358,       26.7178,            0.,NA,NA,"",       15.4990,       15.2907,       2.53253,   592.225E-09
C:/temp/dataset/7/26_6.odb,Step-1,Increment      1: Step Time =    1.000,"PART-1-1",           442,      -5.07335,       27.3652,            0.,NA,NA,"",       15.7933,       15.5482,       2.77134,   356.212E-09
C:/temp/dataset/7/26_6.odb,Step-1,Increment      1: Step Time =    1.000,"PART-1-1",           443,      -5.65848,       26.3267,            0.,NA,NA,"",       15.5373,       15.2411,       3.01945,   351.998E-09
C:/temp/dataset/7/26_6.odb,Step-1,Increment      1: Step Time =    1.000,"PART-1-1",           444,      -6.77936,       27.0978,            0.,NA,NA,"",       15.9097,       15.5545,       3.34330,   167.470E-09
C:/temp/dataset/7/26_6.odb,Step-1,Increment      1: Step Time =    1.000,"PART-1-1",           445,       13.0726,       6.26892,            0.,NA,NA,"",       7.88393,       7.63294,      -1.97348,   8.46468E-03
C:/temp/dataset/7/26_6.odb,Step-1,Increment      1: Step Time =    1.000,"PART-1-1",           446,       14.0382,       5.02867,            0.,NA,NA,"",       7.51092,       7.17890,      -2.20847,   10.3466E-03
C:/temp/dataset/7/26_6.odb,Step-1,Increment      1: Step Time =    1.000,"PART-1-1",           447,           15.,          6.25,            0.,NA,NA,"",       7.96490,       7.52818,      -2.60118,   9.29524E-03
C:/temp/dataset/7/26_6.odb,Step-1,Increment      1: Step Time =    1.000,"PART-1-1",           448,       14.0344,       7.49025,            0.,NA,NA,"",       8.32685,       7.98513,      -2.36095,   6.22198E-03
C:/temp/dataset/7/26_6.odb,Step-1,Increment      1: Step Time =    1.000,"PART-1-1",           449,            5.,       12.7083,            0.,NA,NA,"",       10.2249,       10.2212,   274.809E-03,   5.02493E-03
C:/temp/dataset/7/26_6.odb,Step-1,Increment      1: Step Time =    1.000,"PART-1-1",           450,       6.97129,       12.7632,            0.,NA,NA,"",       10.1294,       10.1227,  -366.763E-03,   4.84143E-03
C:/temp/dataset/7/26_6.odb,Step-1,Increment      1: Step Time =    1.000,"PART-1-1",           451,       8.08110,       9.66220,            0.,NA,NA,"",       9.04883,       9.03129,  -563.011E-03,   8.04828E-03
C:/temp/dataset/7/26_6.odb,Step-1,Increment      1: Step Time =    1.000,"PART-1-1",           452,       8.10192,       7.46894,            0.,NA,NA,"",       8.30747,       8.29517,  -451.930E-03,   9.64535E-03
C:/temp/dataset/7/26_6.odb,Step-1,Increment      1: Step Time =    1.000,"PART-1-1",           453,            5.,        -1.875,            0.,NA,NA,"",       5.50322,       5.42769,   908.642E-03,   28.4205E-03
C:/temp/dataset/7/26_6.odb,Step-1,Increment      1: Step Time =    1.000,"PART-1-1",           454,       6.91011,      -2.19684,            0.,NA,NA,"",       5.23380,       5.22190,   352.765E-03,   19.1736E-03
C:/temp/dataset/7/26_6.odb,Step-1,Increment      1: Step Time =    1.000,"PART-1-1",           455,       11.0205,  -751.161E-03,            0.,NA,NA,"",       5.55181,       5.47543,  -917.751E-03,   10.9205E-03
C:/temp/dataset/7/26_6.odb,Step-1,Increment      1: Step Time =    1.000,"PART-1-1",           456,       13.1408,      -16.1676,            0.,NA,NA,"",       1.59271,       1.45111,  -656.516E-03,   37.3110E-03
C:/temp/dataset/7/26_6.odb,Step-1,Increment      1: Step Time =    1.000,"PART-1-1",           457,       14.0839,      -17.4497,            0.,NA,NA,"",       1.43754,       1.22113,  -758.524E-03,   50.7981E-03
C:/temp/dataset/7/26_6.odb,Step-1,Increment      1: Step Time =    1.000,"PART-1-1",           458,           15.,        -16.25,            0.,NA,NA,"",       1.76189,       1.44222,      -1.01206,   59.9056E-03
C:/temp/dataset/7/26_6.odb,Step-1,Increment      1: Step Time =    1.000,"PART-1-1",           459,            5.,       -14.375,            0.,NA,NA,"",       2.20853,       2.02093,   890.765E-03,   56.8031E-03
C:/temp/dataset/7/26_6.odb,Step-1,Increment      1: Step Time =    1.000,"PART-1-1",           460,       6.11916,      -15.3567,            0.,NA,NA,"",       1.87430,       1.76006,   644.338E-03,   46.3877E-03
C:/temp/dataset/7/26_6.odb,Step-1,Increment      1: Step Time =    1.000,"PART-1-1",           461,       13.0403,       1.40949,            0.,NA,NA,"",       6.28733,       6.06419,      -1.66014,   14.0689E-03
C:/temp/dataset/7/26_6.odb,Step-1,Increment      1: Step Time =    1.000,"PART-1-1",           462,       14.0142,   96.5788E-03,            0.,NA,NA,"",       5.91915,       5.61320,      -1.87837,   19.1198E-03
C:/temp/dataset/7/26_6.odb,Step-1,Increment      1: Step Time =    1.000,"PART-1-1",           463,           15.,          1.25,            0.,NA,NA,"",       6.34848,       5.92959,      -2.26786,   20.7407E-03
C:/temp/dataset/7/26_6.odb,Step-1,Increment      1: Step Time =    1.000,"PART-1-1",           464,       14.0261,       2.56291,            0.,NA,NA,"",       6.70527,       6.38579,      -2.04510,   14.7358E-03
C:/temp/dataset/7/26_6.odb,Step-1,Increment      1: Step Time =    1.000,"PART-1-1",           465,            5.,      -10.2083,            0.,NA,NA,"",       3.17863,       3.02778,   967.606E-03,   47.2757E-03
C:/temp/dataset/7/26_6.odb,Step-1,Increment      1: Step Time =    1.000,"PART-1-1",           466,       6.86187,      -9.97015,            0.,NA,NA,"",       3.04572,       3.00148,   517.265E-03,   30.2695E-03
C:/temp/dataset/7/26_6.odb,Step-1,Increment      1: Step Time =    1.000,"PART-1-1",           467,            5.,      -24.7917,            0.,NA,NA,"",   514.601E-03,   340.611E-03,   385.744E-03,   79.0531E-03
C:/temp/dataset/7/26_6.odb,Step-1,Increment      1: Step Time =    1.000,"PART-1-1",           468,       6.13477,      -25.7685,            0.,NA,NA,"",   326.879E-03,   220.051E-03,   241.718E-03,   64.2758E-03
C:/temp/dataset/7/26_6.odb,Step-1,Increment      1: Step Time =    1.000,"PART-1-1",           469,       13.1299,      -20.9468,            0.,NA,NA,"",   791.164E-03,   672.388E-03,  -416.935E-03,   43.2957E-03
C:/temp/dataset/7/26_6.odb,Step-1,Increment      1: Step Time =    1.000,"PART-1-1",           470,       14.0295,      -22.3095,            0.,NA,NA,"",   688.634E-03,   514.651E-03,  -457.549E-03,   58.7539E-03
C:/temp/dataset/7/26_6.odb,Step-1,Increment      1: Step Time =    1.000,"PART-1-1",           471,           15.,        -21.25,            0.,NA,NA,"",   931.623E-03,   664.282E-03,  -653.185E-03,   70.9313E-03
C:/temp/dataset/7/26_6.odb,Step-1,Increment      1: Step Time =    1.000,"PART-1-1",           472,       14.1003,      -19.8873,            0.,NA,NA,"",       1.03381,   832.718E-03,  -612.655E-03,   55.3102E-03
C:/temp/dataset/7/26_6.odb,Step-1,Increment      1: Step Time =    1.000,"PART-1-1",           473,            5.,       -26.875,            0.,NA,NA,"",   302.720E-03,   181.631E-03,   242.177E-03,   83.3545E-03
C:/temp/dataset/7/26_6.odb,Step-1,Increment      1: Step Time =    1.000,"PART-1-1",           474,       7.35824,      -26.7740,            0.,NA,NA,"",   169.372E-03,   116.555E-03,   122.889E-03,   47.0130E-03
C:/temp/dataset/7/26_6.odb,Step-1,Increment      1: Step Time =    1.000,"PART-1-1",           475,       11.2665,      -23.4125,            0.,NA,NA,"",   381.069E-03,   362.066E-03,  -118.836E-03,   20.1204E-03
C:/temp/dataset/7/26_6.odb,Step-1,Increment      1: Step Time =    1.000,"PART-1-1",           476,       10.8283,      -24.9299,            0.,NA,NA,"",   222.236E-03,   215.004E-03,  -56.2363E-03,   14.7041E-03
C:/temp/dataset/7/26_6.odb,Step-1,Increment      1: Step Time =    1.000,"PART-1-1",           477,            5.,      -16.4583,            0.,NA,NA,"",       1.78268,       1.58046,   824.677E-03,   61.5756E-03
C:/temp/dataset/7/26_6.odb,Step-1,Increment      1: Step Time =    1.000,"PART-1-1",           478,       7.29529,      -16.4772,            0.,NA,NA,"",       1.54411,       1.48915,   408.306E-03,   34.8300E-03
C:/temp/dataset/7/26_6.odb,Step-1,Increment      1: Step Time =    1.000,"PART-1-1",           479,            5.,       18.9583,            0.,NA,NA,"",       12.2494,       12.2492,  -58.5138E-03,   382.783E-06
C:/temp/dataset/7/26_6.odb,Step-1,Increment      1: Step Time =    1.000,"PART-1-1",           480,       6.05050,       17.7875,            0.,NA,NA,"",       11.8140,       11.8092,  -337.405E-03,   288.761E-06
C:/temp/dataset/7/26_6.odb,Step-1,Increment      1: Step Time =    1.000,"PART-1-1",           481,       7.11573,       18.6629,            0.,NA,NA,"",       12.0591,       12.0368,  -732.830E-03,   228.927E-06
C:/temp/dataset/7/26_6.odb,Step-1,Increment      1: Step Time =    1.000,"PART-1-1",           482,       6.06524,       19.8338,            0.,NA,NA,"",       12.4850,       12.4768,  -454.154E-03,   149.873E-06
C:/temp/dataset/7/26_6.odb,Step-1,Increment      1: Step Time =    1.000,"PART-1-1",           483,       6.98524,       16.7251,            0.,NA,NA,"",       11.4264,       11.4115,  -584.030E-03,   243.182E-06
C:/temp/dataset/7/26_6.odb,Step-1,Increment      1: Step Time =    1.000,"PART-1-1",           484,            5.,        16.875,            0.,NA,NA,"",       11.5692,       11.5690,   54.6324E-03,   727.234E-06
C:/temp/dataset/7/26_6.odb,Step-1,Increment      1: Step Time =    1.000,"PART-1-1",           485,       7.88091,       13.8682,            0.,NA,NA,"",       10.4561,       10.4312,  -721.136E-03,   2.49449E-03
C:/temp/dataset/7/26_6.odb,Step-1,Increment      1: Step Time =    1.000,"PART-1-1",           486,       7.65947,       15.6945,            0.,NA,NA,"",       11.0639,       11.0387,  -747.493E-03,   535.877E-06
C:/temp/dataset/7/26_6.odb,Step-1,Increment      1: Step Time =    1.000,"PART-1-1",           487,       8.92157,       12.9075,            0.,NA,NA,"",       10.1076,       10.0571,      -1.00849,   3.32105E-03
C:/temp/dataset/7/26_6.odb,Step-1,Increment      1: Step Time =    1.000,"PART-1-1",           488,       9.98918,       11.9956,            0.,NA,NA,"",       9.78354,       9.69597,      -1.30610,   3.88246E-03
C:/temp/dataset/7/26_6.odb,Step-1,Increment      1: Step Time =    1.000,"PART-1-1",           489,       10.7968,       13.3004,            0.,NA,NA,"",       10.2129,       10.0803,      -1.64027,   2.10282E-03
C:/temp/dataset/7/26_6.odb,Step-1,Increment      1: Step Time =    1.000,"PART-1-1",           490,       13.0565,       8.69239,            0.,NA,NA,"",       8.69456,       8.43360,      -2.11417,   5.65175E-03
C:/temp/dataset/7/26_6.odb,Step-1,Increment      1: Step Time =    1.000,"PART-1-1",           491,           15.,          8.75,            0.,NA,NA,"",       8.79125,       8.34835,      -2.75523,   4.46310E-03
C:/temp/dataset/7/26_6.odb,Step-1,Increment      1: Step Time =    1.000,"PART-1-1",           492,       14.0220,       9.95215,            0.,NA,NA,"",       9.14739,       8.79802,      -2.50391,   2.93206E-03
C:/temp/dataset/7/26_6.odb,Step-1,Increment      1: Step Time =    1.000,"PART-1-1",           493,       8.15713,      -6.43409,            0.,NA,NA,"",       3.90861,       3.90650,   128.364E-03,   17.0524E-03
C:/temp/dataset/7/26_6.odb,Step-1,Increment      1: Step Time =    1.000,"PART-1-1",           494,       7.55707,      -5.50995,            0.,NA,NA,"",       4.20634,       4.19798,   265.056E-03,   19.5522E-03
C:/temp/dataset/7/26_6.odb,Step-1,Increment      1: Step Time =    1.000,"PART-1-1",           495,       13.0039,      -1.03047,            0.,NA,NA,"",       5.51454,       5.30775,      -1.49597,   16.8628E-03
C:/temp/dataset/7/26_6.odb,Step-1,Increment      1: Step Time =    1.000,"PART-1-1",           496,       13.9897,      -2.37705,            0.,NA,NA,"",       5.15621,       4.86577,      -1.70610,   23.3915E-03
C:/temp/dataset/7/26_6.odb,Step-1,Increment      1: Step Time =    1.000,"PART-1-1",           497,           15.,         -1.25,            0.,NA,NA,"",       5.57310,       5.16541,      -2.09236,   26.4557E-03
C:/temp/dataset/7/26_6.odb,Step-1,Increment      1: Step Time =    1.000,"PART-1-1",           498,       11.0188,      -11.3444,            0.,NA,NA,"",       2.55493,       2.51953,  -423.795E-03,   13.3678E-03
C:/temp/dataset/7/26_6.odb,Step-1,Increment      1: Step Time =    1.000,"PART-1-1",           499,       9.94563,      -10.3262,            0.,NA,NA,"",       2.80627,       2.79848,  -208.953E-03,   9.74232E-03
C:/temp/dataset/7/26_6.odb,Step-1,Increment      1: Step Time =    1.000,"PART-1-1",           500,       9.07908,      -11.6768,            0.,NA,NA,"",       2.49160,       2.49148,   25.0400E-03,   13.9825E-03
C:/temp/dataset/7/26_6.odb,Step-1,Increment      1: Step Time =    1.000,"PART-1-1",           501,       10.1523,      -12.6950,            0.,NA,NA,"",       2.22943,       2.22159,  -186.764E-03,   9.65306E-03
C:/temp/dataset/7/26_6.odb,Step-1,Increment      1: Step Time =    1.000,"PART-1-1",           502,       11.2699,       24.2837,            0.,NA,NA,"",       13.8543,       13.6452,      -2.39826,   44.1397E-06
C:/temp/dataset/7/26_6.odb,Step-1,Increment      1: Step Time =    1.000,"PART-1-1",           503,       12.1787,       22.9892,            0.,NA,NA,"",       13.4314,       13.1725,      -2.62413,   57.7328E-06
C:/temp/dataset/7/26_6.odb,Step-1,Increment      1: Step Time =    1.000,"PART-1-1",           504,           15.,         -3.75,            0.,NA,NA,"",       4.82824,       4.43281,      -1.91365,   32.0887E-03
C:/temp/dataset/7/26_6.odb,Step-1,Increment      1: Step Time =    1.000,"PART-1-1",           505,       12.9359,      -3.49956,            0.,NA,NA,"",       4.75955,       4.57186,      -1.32341,   19.5172E-03
C:/temp/dataset/7/26_6.odb,Step-1,Increment      1: Step Time =    1.000,"PART-1-1",           506,           15.,        -11.25,            0.,NA,NA,"",       2.83528,       2.48148,      -1.37153,   48.8524E-03
C:/temp/dataset/7/26_6.odb,Step-1,Increment      1: Step Time =    1.000,"PART-1-1",           507,       12.9838,      -11.1958,            0.,NA,NA,"",       2.66936,       2.51735,  -887.925E-03,   29.3669E-03
C:/temp/dataset/7/26_6.odb,Step-1,Increment      1: Step Time =    1.000,"PART-1-1",           508,           15.,         11.25,            0.,NA,NA,"",       9.62013,       9.17239,      -2.90070,   1.22515E-03
C:/temp/dataset/7/26_6.odb,Step-1,Increment      1: Step Time =    1.000,"PART-1-1",           509,       12.9950,       11.1325,            0.,NA,NA,"",       9.51043,       9.24388,      -2.23580,   3.04833E-03
C:/temp/dataset/7/26_6.odb,Step-1,Increment      1: Step Time =    1.000,"PART-1-1",           510,           15.,          3.75,            0.,NA,NA,"",       7.14809,       6.71940,      -2.43819,   14.9399E-03
C:/temp/dataset/7/26_6.odb,Step-1,Increment      1: Step Time =    1.000,"PART-1-1",           511,       13.0643,       3.84158,            0.,NA,NA,"",       7.07907,       6.84099,      -1.82044,   11.2716E-03
C:/temp/dataset/7/26_6.odb,Step-1,Increment      1: Step Time =    1.000,"PART-1-1",           512,           15.,        -18.75,            0.,NA,NA,"",       1.31523,       1.01787,  -832.939E-03,   65.3871E-03
C:/temp/dataset/7/26_6.odb,Step-1,Increment      1: Step Time =    1.000,"PART-1-1",           513,       13.1842,      -18.5870,            0.,NA,NA,"",       1.15853,       1.02455,  -540.822E-03,   41.0329E-03
C:/temp/dataset/7/26_6.odb,Step-1,Increment      1: Step Time =    1.000,"PART-1-1",           514,       13.5513,      -24.7801,            0.,NA,NA,"",   373.556E-03,   257.826E-03,  -270.315E-03,   55.1709E-03
C:/temp/dataset/7/26_6.odb,Step-1,Increment      1: Step Time =    1.000,"PART-1-1",           515,       12.2413,      -25.9996,            0.,NA,NA,"",   187.838E-03,   141.428E-03,  -123.617E-03,   35.8559E-03
C:/temp/dataset/7/26_6.odb,Step-1,Increment      1: Step Time =    1.000,"PART-1-1",           516,           15.,        -26.25,            0.,NA,NA,"",   346.755E-03,   192.527E-03,  -288.396E-03,   81.5499E-03
C:/temp/dataset/7/26_6.odb,Step-1,Increment      1: Step Time =    1.000,"PART-1-1",           517,           15.,        -23.75,            0.,NA,NA,"",   610.213E-03,   387.393E-03,  -471.473E-03,   75.7695E-03
C:/temp/dataset/7/26_6.odb,Step-1,Increment      1: Step Time =    1.000,"PART-1-1",           518,       12.5809,      -23.3397,            0.,NA,NA,"",   452.610E-03,   378.612E-03,  -248.010E-03,   38.4413E-03
C:/temp/dataset/7/26_6.odb,Step-1,Increment      1: Step Time =    1.000,"PART-1-1",           519,       9.49127,      -18.7202,            0.,NA,NA,"",       1.02530,       1.02454,   39.3856E-03,   12.9413E-03
C:/temp/dataset/7/26_6.odb,Step-1,Increment      1: Step Time =    1.000,"PART-1-1",           520,       8.36047,      -17.5836,            0.,NA,NA,"",       1.26688,       1.24817,   216.929E-03,   23.7711E-03
C:/temp/dataset/7/26_6.odb,Step-1,Increment      1: Step Time =    1.000,"PART-1-1",           521,       11.5260,      -20.5498,            0.,NA,NA,"",   752.962E-03,   720.427E-03,  -218.945E-03,   21.6325E-03
C:/temp/dataset/7/26_6.odb,Step-1,Increment      1: Step Time =    1.000,"PART-1-1",           522,       10.5221,      -19.7870,            0.,NA,NA,"",   844.860E-03,   839.060E-03,  -98.8276E-03,   10.9479E-03
C:/temp/dataset/7/26_6.odb,Step-1,Increment      1: Step Time =    1.000,"PART-1-1",           523,       11.0260,      -21.8608,            0.,NA,NA,"",   558.378E-03,   544.154E-03,  -125.231E-03,   15.8815E-03
C:/temp/dataset/7/26_6.odb,Step-1,Increment      1: Step Time =    1.000,"PART-1-1",           524,       7.98010,      -10.7619,            0.,NA,NA,"",       2.76665,       2.75435,   260.637E-03,   21.7950E-03
C:/temp/dataset/7/26_6.odb,Step-1,Increment      1: Step Time =    1.000,"PART-1-1",           525,       8.65118,      -4.78401,            0.,NA,NA,"",       4.36068,       4.36031,  -56.2673E-03,   13.5320E-03
C:/temp/dataset/7/26_6.odb,Step-1,Increment      1: Step Time =    1.000,"PART-1-1",           526,       7.84665,      -3.50518,            0.,NA,NA,"",       4.77820,       4.77655,   125.415E-03,   15.9592E-03
C:/temp/dataset/7/26_6.odb,Step-1,Increment      1: Step Time =    1.000,"PART-1-1",           527,       9.43586,      -6.49799,            0.,NA,NA,"",       3.84224,       3.83660,  -208.160E-03,   10.6221E-03
C:/temp/dataset/7/26_6.odb,Step-1,Increment      1: Step Time =    1.000,"PART-1-1",           528,       10.6293,      -5.79077,            0.,NA,NA,"",       4.03049,       3.99201,  -555.599E-03,   10.7096E-03
C:/temp/dataset/7/26_6.odb,Step-1,Increment      1: Step Time =    1.000,"PART-1-1",           529,       11.1144,       3.95682,            0.,NA,NA,"",       7.07705,       6.97260,      -1.21144,   10.1564E-03
C:/temp/dataset/7/26_6.odb,Step-1,Increment      1: Step Time =    1.000,"PART-1-1",           530,       10.1270,       5.17226,            0.,NA,NA,"",       7.48444,       7.42133,  -969.853E-03,   9.68473E-03
C:/temp/dataset/7/26_6.odb,Step-1,Increment      1: Step Time =    1.000,"PART-1-1",           531,       9.05317,       10.7826,            0.,NA,NA,"",       9.39476,       9.34791,  -937.056E-03,   6.13062E-03
C:/temp/dataset/7/26_6.odb,Step-1,Increment      1: Step Time =    1.000,"PART-1-1",           532,       8.01195,       11.8024,            0.,NA,NA,"",       9.76801,       9.74607,  -654.226E-03,   5.39238E-03
C:/temp/dataset/7/26_6.odb,Step-1,Increment      1: Step Time =    1.000,"PART-1-1",           533,       11.0241,       10.9595,            0.,NA,NA,"",       9.42931,       9.29519,      -1.58475,   4.59896E-03
C:/temp/dataset/7/26_6.odb,Step-1,Increment      1: Step Time =    1.000,"PART-1-1",           534,       8.35051,       17.3209,            0.,NA,NA,"",       11.5799,       11.5311,      -1.06207,   195.626E-06
C:/temp/dataset/7/26_6.odb,Step-1,Increment      1: Step Time =    1.000,"PART-1-1",           535,       12.5952,       19.1415,            0.,NA,NA,"",       12.1631,       11.8930,      -2.54911,   163.342E-06
C:/temp/dataset/7/26_6.odb,Step-1,Increment      1: Step Time =    1.000,"PART-1-1",           536,           15.,         18.75,            0.,NA,NA,"",       12.0956,       11.6328,      -3.31374,   287.453E-06
C:/temp/dataset/7/26_6.odb,Step-1,Increment      1: Step Time =    1.000,"PART-1-1",           537,      -7.03326,       22.4462,            0.,NA,NA,"",       14.5232,       14.0489,       3.68142,   171.276E-09
C:/temp/dataset/7/26_6.odb,Step-1,Increment      1: Step Time =    1.000,"PART-1-1",           538,      -8.48458,       21.3302,            0.,NA,NA,"",       14.3954,       13.7639,       4.21674,   36.4355E-09
C:/temp/dataset/7/26_6.odb,Step-1,Increment      1: Step Time =    1.000,"PART-1-1",           539,      -6.65000,           20.,            0.,NA,NA,"",       13.7339,       13.2288,       3.69042,   151.993E-09
C:/temp/dataset/7/26_6.odb,Step-1,Increment      1: Step Time =    1.000,"PART-1-1",           540,      -5.19869,       21.1160,            0.,NA,NA,"",       13.8772,       13.5137,       3.15511,   212.089E-09
C:/temp/dataset/7/26_6.odb,Step-1,Increment      1: Step Time =    1.000,"PART-1-1",           541,       9.42603,       26.6587,            0.,NA,NA,"",       14.6493,       14.5221,      -1.92624,   15.7663E-06
C:/temp/dataset/7/26_6.odb,Step-1,Increment      1: Step Time =    1.000,"PART-1-1",           542,       10.3720,       25.4897,            0.,NA,NA,"",       14.2547,       14.0883,      -2.17110,   22.3382E-06
C:/temp/dataset/7/26_6.odb,Step-1,Increment      1: Step Time =    1.000,"PART-1-1",           543,       6.87457,       25.7626,            0.,NA,NA,"",       14.4072,       14.3693,      -1.04365,   16.5019E-06
C:/temp/dataset/7/26_6.odb,Step-1,Increment      1: Step Time =    1.000,"PART-1-1",           544,       7.54675,       26.7337,            0.,NA,NA,"",       14.7087,       14.6496,      -1.31649,   13.8738E-06
C:/temp/dataset/7/26_6.odb,Step-1,Increment      1: Step Time =    1.000,"PART-1-1",           545,      -3.17643,       25.4018,            0.,NA,NA,"",       14.9742,       14.8028,       2.25939,   893.235E-09
C:/temp/dataset/7/26_6.odb,Step-1,Increment      1: Step Time =    1.000,"PART-1-1",           546,      -4.35024,       25.6599,            0.,NA,NA,"",       15.1808,       14.9515,       2.62867,   565.097E-09
C:/temp/dataset/7/26_6.odb,Step-1,Increment      1: Step Time =    1.000,"PART-1-1",           547,       4.01884,       22.4610,            0.,NA,NA,"",       13.4476,       13.4474,   70.2597E-03,   16.9171E-06
C:/temp/dataset/7/26_6.odb,Step-1,Increment      1: Step Time =    1.000,"PART-1-1",           548,       5.32127,       23.1739,            0.,NA,NA,"",       13.6145,       13.6088,  -394.269E-03,   33.7743E-06
C:/temp/dataset/7/26_6.odb,Step-1,Increment      1: Step Time =    1.000,"PART-1-1",           549,       11.1447,       22.1526,            0.,NA,NA,"",       13.1483,       12.9560,      -2.24040,   95.3122E-06
C:/temp/dataset/7/26_6.odb,Step-1,Increment      1: Step Time =    1.000,"PART-1-1",           550,       10.2813,       23.3249,            0.,NA,NA,"",       13.5382,       13.3862,      -2.02269,   55.7281E-06
C:/temp/dataset/7/26_6.odb,Step-1,Increment      1: Step Time =    1.000,"PART-1-1",           551,       6.15508,       21.9496,            0.,NA,NA,"",       13.1768,       13.1631,  -599.458E-03,   65.7742E-06
C:/temp/dataset/7/26_6.odb,Step-1,Increment      1: Step Time =    1.000,"PART-1-1",           552,       6.48612,       23.9825,            0.,NA,NA,"",       13.8334,       13.8091,  -819.103E-03,   30.8103E-06
C:/temp/dataset/7/26_6.odb,Step-1,Increment      1: Step Time =    1.000,"PART-1-1",           553,   6.30745E-03,       24.2683,            0.,NA,NA,"",       14.3154,       14.2579,       1.28189,   2.03365E-06
C:/temp/dataset/7/26_6.odb,Step-1,Increment      1: Step Time =    1.000,"PART-1-1",           554,      -1.65981,       23.6471,            0.,NA,NA,"",       14.2682,       14.1464,       1.86023,   1.26521E-06
C:/temp/dataset/7/26_6.odb,Step-1,Increment      1: Step Time =    1.000,"PART-1-1",           555,      -1.07768,       22.4355,            0.,NA,NA,"",       13.8282,       13.7187,       1.73654,   2.37737E-06
C:/temp/dataset/7/26_6.odb,Step-1,Increment      1: Step Time =    1.000,"PART-1-1",           556,   588.432E-03,       23.0567,            0.,NA,NA,"",       13.8786,       13.8302,       1.15820,   1.99175E-06
C:/temp/dataset/7/26_6.odb,Step-1,Increment      1: Step Time =    1.000,"PART-1-1",           557,      -4.82218,       24.5397,            0.,NA,NA,"",       14.8857,       14.6115,       2.84429,   528.712E-09
C:/temp/dataset/7/26_6.odb,Step-1,Increment      1: Step Time =    1.000,"PART-1-1",           558,      -3.09511,       23.7242,            0.,NA,NA,"",       14.4387,       14.2503,       2.32486,   934.789E-09
C:/temp/dataset/7/26_6.odb,Step-1,Increment      1: Step Time =    1.000,"PART-1-1",           559,      -5.58708,       23.2486,            0.,NA,NA,"",       14.5793,       14.2317,       3.16499,   322.579E-09
C:/temp/dataset/7/26_6.odb,Step-1,Increment      1: Step Time =    1.000,"PART-1-1",           560,       8.76337,      -9.49006,            0.,NA,NA,"",       3.05158,       3.05115,   51.2732E-03,   15.0773E-03
C:/temp/dataset/7/26_6.odb,Step-1,Increment      1: Step Time =    1.000,"PART-1-1",           561,       9.72759,      -26.4759,            0.,NA,NA,"",   103.333E-03,   101.919E-03,   17.0342E-03,   12.8648E-03
C:/temp/dataset/7/26_6.odb,Step-1,Increment      1: Step Time =    1.000,"PART-1-1",           562,       9.12173,       6.33780,            0.,NA,NA,"",       7.89338,       7.86083,  -716.028E-03,   9.91151E-03
C:/temp/dataset/7/26_6.odb,Step-1,Increment      1: Step Time =    1.000,"PART-1-1",           563,       11.1214,       6.29882,            0.,NA,NA,"",       7.85941,       7.74261,      -1.34991,   9.18325E-03
C:/temp/dataset/7/26_6.odb,Step-1,Increment      1: Step Time =    1.000,"PART-1-1",           564,       11.1740,      -13.7880,            0.,NA,NA,"",       1.98980,       1.95532,  -368.831E-03,   15.2020E-03
C:/temp/dataset/7/26_6.odb,Step-1,Increment      1: Step Time =    1.000,"PART-1-1",           565,       10.6612,      -8.65022,            0.,NA,NA,"",       3.23913,       3.20875,  -442.613E-03,   11.1894E-03
C:/temp/dataset/7/26_6.odb,Step-1,Increment      1: Step Time =    1.000,"PART-1-1",           566,       9.47894,      -7.81405,            0.,NA,NA,"",       3.47581,       3.47144,  -174.221E-03,   10.8314E-03
C:/temp/dataset/7/26_6.odb,Step-1,Increment      1: Step Time =    1.000,"PART-1-1",           567,       11.3640,      -18.5194,            0.,NA,NA,"",       1.06738,       1.03695,  -253.075E-03,   18.8010E-03
C:/temp/dataset/7/26_6.odb,Step-1,Increment      1: Step Time =    1.000,"PART-1-1",           568,       12.0025,       20.7886,            0.,NA,NA,"",       12.7012,       12.4635,      -2.44579,   121.794E-06
C:/temp/dataset/7/26_6.odb,Step-1,Increment      1: Step Time =    1.000,"PART-1-1",           569,       11.4947,       18.6594,            0.,NA,NA,"",       11.9925,       11.7959,      -2.16286,   164.741E-06
C:/temp/dataset/7/26_6.odb,Step-1,Increment      1: Step Time =    1.000,"PART-1-1",           570,       9.39315,       18.1618,            0.,NA,NA,"",       11.8376,       11.7486,      -1.44876,   209.784E-06
C:/temp/dataset/7/26_6.odb,Step-1,Increment      1: Step Time =    1.000,"PART-1-1",           571,       10.9214,       17.4088,            0.,NA,NA,"",       11.5769,       11.4188,      -1.90670,   203.944E-06
C:/temp/dataset/7/26_6.odb,Step-1,Increment      1: Step Time =    1.000,"PART-1-1",           572,      -9.97500,           20.,            0.,NA,NA,"",       14.2364,       13.4112,       4.77658,   19.8368E-09
C:/temp/dataset/7/26_6.odb,Step-1,Increment      1: Step Time =    1.000,"PART-1-1",           573,       11.9818,      -2.09472,            0.,NA,NA,"",       5.14966,       5.02466,      -1.12770,   13.8246E-03
C:/temp/dataset/7/26_6.odb,Step-1,Increment      1: Step Time =    1.000,"PART-1-1",           574,       12.0426,   313.093E-03,            0.,NA,NA,"",       5.90462,       5.76291,      -1.28588,   12.4225E-03
C:/temp/dataset/7/26_6.odb,Step-1,Increment      1: Step Time =    1.000,"PART-1-1",           575,       12.1686,      -14.9632,            0.,NA,NA,"",       1.77319,       1.69373,  -524.855E-03,   25.1224E-03
C:/temp/dataset/7/26_6.odb,Step-1,Increment      1: Step Time =    1.000,"PART-1-1",           576,       12.0880,      -12.5178,            0.,NA,NA,"",       2.30743,       2.22368,  -616.012E-03,   22.2996E-03
C:/temp/dataset/7/26_6.odb,Step-1,Increment      1: Step Time =    1.000,"PART-1-1",           577,       12.0767,       2.70437,            0.,NA,NA,"",       6.67749,       6.52058,      -1.43905,   10.9870E-03
C:/temp/dataset/7/26_6.odb,Step-1,Increment      1: Step Time =    1.000,"PART-1-1",           578,       11.6617,       14.7036,            0.,NA,NA,"",       10.6817,       10.4929,      -1.99984,   726.660E-06
C:/temp/dataset/7/26_6.odb,Step-1,Increment      1: Step Time =    1.000,"PART-1-1",           579,       11.9561,       12.2406,            0.,NA,NA,"",       9.86342,       9.66684,      -1.95941,   2.47583E-03
C:/temp/dataset/7/26_6.odb,Step-1,Increment      1: Step Time =    1.000,"PART-1-1",           580,       12.3155,      -19.7087,            0.,NA,NA,"",   917.224E-03,   844.899E-03,  -356.994E-03,   31.0752E-03
C:/temp/dataset/7/26_6.odb,Step-1,Increment      1: Step Time =    1.000,"PART-1-1",           581,       12.3404,      -21.7879,            0.,NA,NA,"",   623.200E-03,   556.091E-03,  -281.321E-03,   33.2417E-03
C:/temp/dataset/7/26_6.odb,Step-1,Increment      1: Step Time =    1.000,"PART-1-1",           582,       12.2327,      -17.3977,            0.,NA,NA,"",       1.30191,       1.22699,  -435.257E-03,   27.9108E-03
C:/temp/dataset/7/26_6.odb,Step-1,Increment      1: Step Time =    1.000,"PART-1-1",           583,       12.1020,       5.09402,            0.,NA,NA,"",       7.46737,       7.29593,      -1.59092,   9.45301E-03
C:/temp/dataset/7/26_6.odb,Step-1,Increment      1: Step Time =    1.000,"PART-1-1",           584,       12.0630,       9.85139,            0.,NA,NA,"",       9.06360,       8.87090,      -1.85899,   4.98096E-03
C:/temp/dataset/7/26_6.odb,Step-1,Increment      1: Step Time =    1.000,"PART-1-1",           585,       12.0921,       7.47372,            0.,NA,NA,"",       8.26423,       8.08116,      -1.72984,   7.49094E-03
C:/temp/dataset/7/26_6.odb,Step-1,Increment      1: Step Time =    1.000,"PART-1-1",           586,       11.9146,      -10.0225,            0.,NA,NA,"",       2.90702,       2.82353,  -691.716E-03,   18.9016E-03
C:/temp/dataset/7/26_6.odb,Step-1,Increment      1: Step Time =    1.000,"PART-1-1",           587,       11.5993,      -7.26023,            0.,NA,NA,"",       3.62980,       3.55248,  -745.220E-03,   15.0475E-03
C:/temp/dataset/7/26_6.odb,Step-1,Increment      1: Step Time =    1.000,"PART-1-1",           588,       11.8707,      -4.56496,            0.,NA,NA,"",       4.40452,       4.29902,  -958.243E-03,   15.0157E-03
C:/temp/dataset/7/26_6.odb,Step-1,Increment      1: Step Time =    1.000,"PART-1-1",           589,      -3.86001,       22.4330,            0.,NA,NA,"",       14.1205,       13.8705,       2.64556,   885.502E-09
C:/temp/dataset/7/26_6.odb,Step-1,Increment      1: Step Time =    1.000,"PART-1-1",           590,       3.35000,           20.,            0.,NA,NA,"",       12.6872,       12.6801,   423.770E-03,   27.6950E-06
C:/temp/dataset/7/26_6.odb,Step-1,Increment      1: Step Time =    1.000,"PART-1-1",           591,       5.05511,       21.0689,            0.,NA,NA,"",       12.9372,       12.9358,  -191.925E-03,   81.6510E-06
C:/temp/dataset/7/26_6.odb,Step-1,Increment      1: Step Time =    1.000,"PART-1-1",           592,       2.31373,       21.3921,            0.,NA,NA,"",       13.2096,       13.1918,   685.917E-03,   11.3197E-06
C:/temp/dataset/7/26_6.odb,Step-1,Increment      1: Step Time =    1.000,"PART-1-1",           593,      -1.98632,       21.3170,            0.,NA,NA,"",       13.5658,       13.4031,       2.09472,   1.11019E-06
C:/temp/dataset/7/26_6.odb,Step-1,Increment      1: Step Time =    1.000,"PART-1-1",           594,   25.0000E-03,           20.,            0.,NA,NA,"",       12.9509,       12.8626,       1.50994,   4.09977E-06
C:/temp/dataset/7/26_6.odb,Step-1,Increment      1: Step Time =    1.000,"PART-1-1",           595,   933.640E-03,       21.1186,            0.,NA,NA,"",       13.2284,       13.1781,       1.15176,   2.52123E-06
C:/temp/dataset/7/26_6.odb,Step-1,Increment      1: Step Time =    1.000,"PART-1-1",           596,       7.16521,       20.7144,            0.,NA,NA,"",       12.7334,       12.7042,  -861.563E-03,   156.431E-06
C:/temp/dataset/7/26_6.odb,Step-1,Increment      1: Step Time =    1.000,"PART-1-1",           597,       8.15837,       19.5039,            0.,NA,NA,"",       12.3054,       12.2544,      -1.11935,   184.889E-06
C:/temp/dataset/7/26_6.odb,Step-1,Increment      1: Step Time =    1.000,"PART-1-1",           598,      -3.32500,           20.,            0.,NA,NA,"",       13.3038,       13.0464,       2.60427,   687.095E-09
