ODB Name,Step,Frame,Part Instance Name,    êﬂì_ÉâÉxÉã,X,Y,Z,Section Name,Material Name,Section Point,   U-Magnitude,          U-U1,          U-U2,       S-Mises
C:/temp/dataset/7/26_8.odb,Step-1,Increment      4: Step Time =    1.000,"PART-1-1",             1,          -15.,           20.,            0.,NA,NA,"",       20.1227,       18.6181,       7.63467,   11.4868E-09
C:/temp/dataset/7/26_8.odb,Step-1,Increment      4: Step Time =    1.000,"PART-1-1",             2,          -15.,           25.,            0.,NA,NA,"",       21.9588,       20.7615,       7.15196,   22.2732E-09
C:/temp/dataset/7/26_8.odb,Step-1,Increment      4: Step Time =    1.000,"PART-1-1",             3,      -11.6500,           20.,            0.,NA,NA,"",       19.3162,       18.2947,       6.19860,   28.7508E-09
C:/temp/dataset/7/26_8.odb,Step-1,Increment      4: Step Time =    1.000,"PART-1-1",             4,      -8.30000,           20.,            0.,NA,NA,"",       18.5916,       17.9712,       4.76253,   56.9952E-09
C:/temp/dataset/7/26_8.odb,Step-1,Increment      4: Step Time =    1.000,"PART-1-1",             5,           -5.,           20.,            0.,NA,NA,"",       17.9673,       17.6527,       3.34789,   407.837E-09
C:/temp/dataset/7/26_8.odb,Step-1,Increment      4: Step Time =    1.000,"PART-1-1",             6,      -1.65000,           20.,            0.,NA,NA,"",       17.4344,       17.3292,       1.91183,   1.81999E-06
C:/temp/dataset/7/26_8.odb,Step-1,Increment      4: Step Time =    1.000,"PART-1-1",             7,       1.70000,           20.,            0.,NA,NA,"",       17.0125,       17.0058,   475.754E-03,   25.9839E-06
C:/temp/dataset/7/26_8.odb,Step-1,Increment      4: Step Time =    1.000,"PART-1-1",             8,            5.,           20.,            0.,NA,NA,"",       16.7134,       16.6870,  -939.041E-03,   206.990E-06
C:/temp/dataset/7/26_8.odb,Step-1,Increment      4: Step Time =    1.000,"PART-1-1",             9,            5.,         13.75,            0.,NA,NA,"",       14.0215,       14.0172,  -347.618E-03,   4.25778E-03
C:/temp/dataset/7/26_8.odb,Step-1,Increment      4: Step Time =    1.000,"PART-1-1",            10,            5.,           7.5,            0.,NA,NA,"",       11.3081,       11.3053,   252.261E-03,   11.4338E-03
C:/temp/dataset/7/26_8.odb,Step-1,Increment      4: Step Time =    1.000,"PART-1-1",            11,            5.,          1.25,            0.,NA,NA,"",       8.60903,       8.57589,   754.685E-03,   28.6903E-03
C:/temp/dataset/7/26_8.odb,Step-1,Increment      4: Step Time =    1.000,"PART-1-1",            12,            5.,           -5.,            0.,NA,NA,"",       6.09995,       6.00434,       1.07575,   47.4433E-03
C:/temp/dataset/7/26_8.odb,Step-1,Increment      4: Step Time =    1.000,"PART-1-1",            13,            5.,        -11.25,            0.,NA,NA,"",       3.89373,       3.71395,       1.16948,   66.4267E-03
C:/temp/dataset/7/26_8.odb,Step-1,Increment      4: Step Time =    1.000,"PART-1-1",            14,            5.,         -17.5,            0.,NA,NA,"",       2.11308,       1.85697,       1.00833,   85.5799E-03
C:/temp/dataset/7/26_8.odb,Step-1,Increment      4: Step Time =    1.000,"PART-1-1",            15,            5.,        -23.75,            0.,NA,NA,"",   846.440E-03,   598.971E-03,   598.075E-03,   103.745E-03
C:/temp/dataset/7/26_8.odb,Step-1,Increment      4: Step Time =    1.000,"PART-1-1",            16,            5.,          -30.,            0.,NA,NA,"",            0.,   25.3046E-42,  -12.3104E-42,   139.965E-03
C:/temp/dataset/7/26_8.odb,Step-1,Increment      4: Step Time =    1.000,"PART-1-1",            17,           15.,          -30.,            0.,NA,NA,"",            0.,  -415.472E-42,   679.742E-42,   128.796E-03
C:/temp/dataset/7/26_8.odb,Step-1,Increment      4: Step Time =    1.000,"PART-1-1",            18,           15.,         -22.5,            0.,NA,NA,"",       1.00378,   665.650E-03,  -751.315E-03,   97.8413E-03
C:/temp/dataset/7/26_8.odb,Step-1,Increment      4: Step Time =    1.000,"PART-1-1",            19,           15.,          -15.,            0.,NA,NA,"",       2.64698,       2.17640,      -1.50658,   75.9954E-03
C:/temp/dataset/7/26_8.odb,Step-1,Increment      4: Step Time =    1.000,"PART-1-1",            20,           15.,          -7.5,            0.,NA,NA,"",       4.99135,       4.42313,      -2.31291,   53.8700E-03
C:/temp/dataset/7/26_8.odb,Step-1,Increment      4: Step Time =    1.000,"PART-1-1",            21,           15.,            0.,            0.,NA,NA,"",       7.87333,       7.21041,      -3.16218,   31.4411E-03
C:/temp/dataset/7/26_8.odb,Step-1,Increment      4: Step Time =    1.000,"PART-1-1",            22,           15.,           7.5,            0.,NA,NA,"",       11.0832,       10.3387,      -3.99379,   8.72909E-03
C:/temp/dataset/7/26_8.odb,Step-1,Increment      4: Step Time =    1.000,"PART-1-1",            23,           15.,           15.,            0.,NA,NA,"",       14.3803,       13.5751,      -4.74434,   711.208E-06
C:/temp/dataset/7/26_8.odb,Step-1,Increment      4: Step Time =    1.000,"PART-1-1",            24,           15.,          22.5,            0.,NA,NA,"",       17.6613,       16.7938,      -5.46701,   73.8344E-06
C:/temp/dataset/7/26_8.odb,Step-1,Increment      4: Step Time =    1.000,"PART-1-1",            25,           15.,           30.,            0.,NA,NA,"",       20.9445,       20.0087,      -6.19086,   679.010E-09
C:/temp/dataset/7/26_8.odb,Step-1,Increment      4: Step Time =    1.000,"PART-1-1",            26,         11.25,           30.,            0.,NA,NA,"",       20.8799,       20.3707,      -4.58340,   2.66206E-06
C:/temp/dataset/7/26_8.odb,Step-1,Increment      4: Step Time =    1.000,"PART-1-1",            27,           7.5,           30.,            0.,NA,NA,"",       20.9451,       20.7327,      -2.97592,   2.02328E-06
C:/temp/dataset/7/26_8.odb,Step-1,Increment      4: Step Time =    1.000,"PART-1-1",            28,          3.75,           30.,            0.,NA,NA,"",       21.1390,       21.0947,      -1.36844,   5.02915E-06
C:/temp/dataset/7/26_8.odb,Step-1,Increment      4: Step Time =    1.000,"PART-1-1",            29,            0.,           30.,            0.,NA,NA,"",       21.4580,       21.4567,   239.082E-03,   3.21297E-06
C:/temp/dataset/7/26_8.odb,Step-1,Increment      4: Step Time =    1.000,"PART-1-1",            30,         -3.75,           30.,            0.,NA,NA,"",       21.8968,       21.8188,       1.84662,   615.758E-09
C:/temp/dataset/7/26_8.odb,Step-1,Increment      4: Step Time =    1.000,"PART-1-1",            31,          -7.5,           30.,            0.,NA,NA,"",       22.4481,       22.1808,       3.45416,   30.9862E-09
C:/temp/dataset/7/26_8.odb,Step-1,Increment      4: Step Time =    1.000,"PART-1-1",            32,        -11.25,           30.,            0.,NA,NA,"",       23.1041,       22.5428,       5.06170,   23.7005E-09
C:/temp/dataset/7/26_8.odb,Step-1,Increment      4: Step Time =    1.000,"PART-1-1",            33,          -15.,           30.,            0.,NA,NA,"",       23.8561,       22.9049,       6.66924,   8.84816E-09
C:/temp/dataset/7/26_8.odb,Step-1,Increment      4: Step Time =    1.000,"PART-1-1",            34,          -15.,          22.5,            0.,NA,NA,"",       21.0321,       19.6898,       7.39331,   16.4026E-09
C:/temp/dataset/7/26_8.odb,Step-1,Increment      4: Step Time =    1.000,"PART-1-1",            35,            5.,       15.8333,            0.,NA,NA,"",       14.9118,       14.9020,  -540.263E-03,   1.88709E-03
C:/temp/dataset/7/26_8.odb,Step-1,Increment      4: Step Time =    1.000,"PART-1-1",            36,            5.,       17.9167,            0.,NA,NA,"",       15.8112,       15.7939,  -739.000E-03,   710.252E-06
C:/temp/dataset/7/26_8.odb,Step-1,Increment      4: Step Time =    1.000,"PART-1-1",            37,            5.,       9.58333,            0.,NA,NA,"",       12.2260,       12.2259,   50.9470E-03,   9.09797E-03
C:/temp/dataset/7/26_8.odb,Step-1,Increment      4: Step Time =    1.000,"PART-1-1",            38,            5.,       11.6667,            0.,NA,NA,"",       13.1314,       13.1305,  -149.424E-03,   7.87226E-03
C:/temp/dataset/7/26_8.odb,Step-1,Increment      4: Step Time =    1.000,"PART-1-1",            39,            5.,       3.33333,            0.,NA,NA,"",       9.49132,       9.47200,   605.273E-03,   22.7543E-03
C:/temp/dataset/7/26_8.odb,Step-1,Increment      4: Step Time =    1.000,"PART-1-1",            40,            5.,       5.41667,            0.,NA,NA,"",       10.3901,       10.3809,   437.661E-03,   17.0797E-03
C:/temp/dataset/7/26_8.odb,Step-1,Increment      4: Step Time =    1.000,"PART-1-1",            41,            5.,      -2.91667,            0.,NA,NA,"",       6.90893,       6.83736,   991.913E-03,   41.1188E-03
C:/temp/dataset/7/26_8.odb,Step-1,Increment      4: Step Time =    1.000,"PART-1-1",            42,            5.,  -833.333E-03,            0.,NA,NA,"",       7.74684,       7.69621,   884.271E-03,   34.8589E-03
C:/temp/dataset/7/26_8.odb,Step-1,Increment      4: Step Time =    1.000,"PART-1-1",            43,            5.,      -9.16667,            0.,NA,NA,"",       4.58766,       4.43707,       1.16577,   60.0999E-03
C:/temp/dataset/7/26_8.odb,Step-1,Increment      4: Step Time =    1.000,"PART-1-1",            44,            5.,      -7.08333,            0.,NA,NA,"",       5.32465,       5.20245,       1.13416,   53.7156E-03
C:/temp/dataset/7/26_8.odb,Step-1,Increment      4: Step Time =    1.000,"PART-1-1",            45,            5.,      -15.4167,            0.,NA,NA,"",       2.65254,       2.41784,       1.09089,   79.2023E-03
C:/temp/dataset/7/26_8.odb,Step-1,Increment      4: Step Time =    1.000,"PART-1-1",            46,            5.,      -13.3333,            0.,NA,NA,"",       3.24731,       3.03887,       1.14465,   72.8171E-03
C:/temp/dataset/7/26_8.odb,Step-1,Increment      4: Step Time =    1.000,"PART-1-1",            47,            5.,      -21.6667,            0.,NA,NA,"",       1.20966,   940.856E-03,   760.304E-03,   98.0025E-03
C:/temp/dataset/7/26_8.odb,Step-1,Increment      4: Step Time =    1.000,"PART-1-1",            48,            5.,      -19.5833,            0.,NA,NA,"",       1.63161,       1.36258,   897.501E-03,   92.0709E-03
C:/temp/dataset/7/26_8.odb,Step-1,Increment      4: Step Time =    1.000,"PART-1-1",            49,            5.,      -27.9167,            0.,NA,NA,"",   273.721E-03,   163.026E-03,   219.876E-03,   116.852E-03
C:/temp/dataset/7/26_8.odb,Step-1,Increment      4: Step Time =    1.000,"PART-1-1",            50,            5.,      -25.8333,            0.,NA,NA,"",   536.676E-03,   339.713E-03,   415.472E-03,   106.881E-03
C:/temp/dataset/7/26_8.odb,Step-1,Increment      4: Step Time =    1.000,"PART-1-1",            51,          12.5,          -30.,            0.,NA,NA,"",            0.,   25.4701E-39,  -53.3213E-39,   41.2797E-03
C:/temp/dataset/7/26_8.odb,Step-1,Increment      4: Step Time =    1.000,"PART-1-1",            52,           10.,          -30.,            0.,NA,NA,"",            0.,  -9.52266E-39,  -1.28481E-39,   12.7584E-03
C:/temp/dataset/7/26_8.odb,Step-1,Increment      4: Step Time =    1.000,"PART-1-1",            53,           7.5,          -30.,            0.,NA,NA,"",            0.,  -759.481E-42,   60.6602E-39,   42.6501E-03
C:/temp/dataset/7/26_8.odb,Step-1,Increment      4: Step Time =    1.000,"PART-1-1",            54,           15.,          -25.,            0.,NA,NA,"",   617.945E-03,   357.109E-03,  -504.311E-03,   103.594E-03
C:/temp/dataset/7/26_8.odb,Step-1,Increment      4: Step Time =    1.000,"PART-1-1",            55,           15.,         -27.5,            0.,NA,NA,"",   300.449E-03,   157.026E-03,  -256.149E-03,   115.872E-03
C:/temp/dataset/7/26_8.odb,Step-1,Increment      4: Step Time =    1.000,"PART-1-1",            56,           15.,         -17.5,            0.,NA,NA,"",       2.01603,       1.58136,      -1.25047,   83.2964E-03
C:/temp/dataset/7/26_8.odb,Step-1,Increment      4: Step Time =    1.000,"PART-1-1",            57,           15.,          -20.,            0.,NA,NA,"",       1.46805,       1.07532,  -999.434E-03,   90.4962E-03
C:/temp/dataset/7/26_8.odb,Step-1,Increment      4: Step Time =    1.000,"PART-1-1",            58,           15.,          -10.,            0.,NA,NA,"",       4.14069,       3.60452,      -2.03783,   61.3118E-03
C:/temp/dataset/7/26_8.odb,Step-1,Increment      4: Step Time =    1.000,"PART-1-1",            59,           15.,         -12.5,            0.,NA,NA,"",       3.35704,       2.85318,      -1.76892,   68.6758E-03
C:/temp/dataset/7/26_8.odb,Step-1,Increment      4: Step Time =    1.000,"PART-1-1",            60,           15.,          -2.5,            0.,NA,NA,"",       6.86521,       6.23328,      -2.87705,   38.9771E-03
C:/temp/dataset/7/26_8.odb,Step-1,Increment      4: Step Time =    1.000,"PART-1-1",            61,           15.,           -5.,            0.,NA,NA,"",       5.90198,       5.30175,      -2.59322,   46.4473E-03
C:/temp/dataset/7/26_8.odb,Step-1,Increment      4: Step Time =    1.000,"PART-1-1",            62,           15.,            5.,            0.,NA,NA,"",       9.99158,       9.27158,      -3.72418,   15.9731E-03
C:/temp/dataset/7/26_8.odb,Step-1,Increment      4: Step Time =    1.000,"PART-1-1",            63,           15.,           2.5,            0.,NA,NA,"",       8.91836,       8.22581,      -3.44575,   23.7420E-03
C:/temp/dataset/7/26_8.odb,Step-1,Increment      4: Step Time =    1.000,"PART-1-1",            64,           15.,          12.5,            0.,NA,NA,"",       13.2833,       12.4974,      -4.50135,   166.365E-06
C:/temp/dataset/7/26_8.odb,Step-1,Increment      4: Step Time =    1.000,"PART-1-1",            65,           15.,           10.,            0.,NA,NA,"",       12.1832,       11.4169,      -4.25245,   3.15840E-03
C:/temp/dataset/7/26_8.odb,Step-1,Increment      4: Step Time =    1.000,"PART-1-1",            66,           15.,           20.,            0.,NA,NA,"",       16.5678,       15.7220,      -5.22598,   243.898E-06
C:/temp/dataset/7/26_8.odb,Step-1,Increment      4: Step Time =    1.000,"PART-1-1",            67,           15.,          17.5,            0.,NA,NA,"",       15.4746,       14.6496,      -4.98525,   542.412E-06
C:/temp/dataset/7/26_8.odb,Step-1,Increment      4: Step Time =    1.000,"PART-1-1",            68,           15.,          27.5,            0.,NA,NA,"",       19.8497,       18.9370,      -5.94953,   1.10111E-06
C:/temp/dataset/7/26_8.odb,Step-1,Increment      4: Step Time =    1.000,"PART-1-1",            69,           15.,           25.,            0.,NA,NA,"",       18.7552,       17.8654,      -5.70823,   15.3164E-06
C:/temp/dataset/7/26_8.odb,Step-1,Increment      4: Step Time =    1.000,"PART-1-1",            70,        13.125,           30.,            0.,NA,NA,"",       20.8960,       20.1897,      -5.38713,   939.131E-09
C:/temp/dataset/7/26_8.odb,Step-1,Increment      4: Step Time =    1.000,"PART-1-1",            71,         9.375,           30.,            0.,NA,NA,"",       20.8963,       20.5517,      -3.77966,   4.43201E-06
C:/temp/dataset/7/26_8.odb,Step-1,Increment      4: Step Time =    1.000,"PART-1-1",            72,         5.625,           30.,            0.,NA,NA,"",       21.0262,       20.9137,      -2.17218,   1.80557E-06
C:/temp/dataset/7/26_8.odb,Step-1,Increment      4: Step Time =    1.000,"PART-1-1",            73,         1.875,           30.,            0.,NA,NA,"",       21.2832,       21.2757,  -564.681E-03,   4.85787E-06
C:/temp/dataset/7/26_8.odb,Step-1,Increment      4: Step Time =    1.000,"PART-1-1",            74,        -1.875,           30.,            0.,NA,NA,"",       21.6628,       21.6377,       1.04285,   1.68475E-06
C:/temp/dataset/7/26_8.odb,Step-1,Increment      4: Step Time =    1.000,"PART-1-1",            75,        -5.625,           30.,            0.,NA,NA,"",       22.1588,       21.9998,       2.65039,   200.486E-09
C:/temp/dataset/7/26_8.odb,Step-1,Increment      4: Step Time =    1.000,"PART-1-1",            76,        -9.375,           30.,            0.,NA,NA,"",       22.7636,       22.3618,       4.25793,   22.4503E-09
C:/temp/dataset/7/26_8.odb,Step-1,Increment      4: Step Time =    1.000,"PART-1-1",            77,       -13.125,           30.,            0.,NA,NA,"",       23.4686,       22.7238,       5.86547,   13.8775E-09
C:/temp/dataset/7/26_8.odb,Step-1,Increment      4: Step Time =    1.000,"PART-1-1",            78,          -15.,          27.5,            0.,NA,NA,"",       22.9007,       21.8332,       6.91060,   16.2733E-09
C:/temp/dataset/7/26_8.odb,Step-1,Increment      4: Step Time =    1.000,"PART-1-1",            79,      -7.07467,       28.0475,            0.,NA,NA,"",       21.5820,       21.3027,       3.46033,   172.755E-09
C:/temp/dataset/7/26_8.odb,Step-1,Increment      4: Step Time =    1.000,"PART-1-1",            80,      -10.7971,       27.6072,            0.,NA,NA,"",       22.0704,       21.4734,       5.09855,   5.52258E-09
C:/temp/dataset/7/26_8.odb,Step-1,Increment      4: Step Time =    1.000,"PART-1-1",            81,      -3.50976,       28.2242,            0.,NA,NA,"",       21.1213,       21.0343,       1.91508,   833.023E-09
C:/temp/dataset/7/26_8.odb,Step-1,Increment      4: Step Time =    1.000,"PART-1-1",            82,       11.3028,       27.6605,            0.,NA,NA,"",       19.8520,       19.3627,      -4.38020,   10.8679E-06
C:/temp/dataset/7/26_8.odb,Step-1,Increment      4: Step Time =    1.000,"PART-1-1",            83,       7.46624,       27.7175,            0.,NA,NA,"",       19.9467,       19.7575,      -2.74110,   10.9914E-06
C:/temp/dataset/7/26_8.odb,Step-1,Increment      4: Step Time =    1.000,"PART-1-1",            84,   523.838E-03,       28.1559,            0.,NA,NA,"",       20.6165,       20.6156,   192.556E-03,   2.06812E-06
C:/temp/dataset/7/26_8.odb,Step-1,Increment      4: Step Time =    1.000,"PART-1-1",            85,       13.1724,       27.5829,            0.,NA,NA,"",       19.8357,       19.1490,      -5.17413,   6.85254E-06
C:/temp/dataset/7/26_8.odb,Step-1,Increment      4: Step Time =    1.000,"PART-1-1",            86,       9.41586,       27.7284,            0.,NA,NA,"",       19.8983,       19.5740,      -3.57788,   10.9297E-06
C:/temp/dataset/7/26_8.odb,Step-1,Increment      4: Step Time =    1.000,"PART-1-1",            87,       5.17501,       27.3177,            0.,NA,NA,"",       19.8819,       19.8073,      -1.72035,   8.57125E-06
C:/temp/dataset/7/26_8.odb,Step-1,Increment      4: Step Time =    1.000,"PART-1-1",            88,       1.85763,       28.7412,            0.,NA,NA,"",       20.7424,       20.7378,  -435.715E-03,   2.47056E-06
C:/temp/dataset/7/26_8.odb,Step-1,Increment      4: Step Time =    1.000,"PART-1-1",            89,      -1.45910,       27.7280,            0.,NA,NA,"",       20.6521,       20.6236,       1.08390,   1.65546E-06
C:/temp/dataset/7/26_8.odb,Step-1,Increment      4: Step Time =    1.000,"PART-1-1",            90,      -5.31380,       28.2250,            0.,NA,NA,"",       21.3785,       21.2088,       2.68835,   402.166E-09
C:/temp/dataset/7/26_8.odb,Step-1,Increment      4: Step Time =    1.000,"PART-1-1",            91,      -8.92632,       27.8484,            0.,NA,NA,"",       21.8187,       21.3962,       4.27331,   51.2881E-09
C:/temp/dataset/7/26_8.odb,Step-1,Increment      4: Step Time =    1.000,"PART-1-1",            92,       7.03655,   996.185E-03,            0.,NA,NA,"",       8.27003,       8.26986,  -53.6315E-03,   19.3785E-03
C:/temp/dataset/7/26_8.odb,Step-1,Increment      4: Step Time =    1.000,"PART-1-1",            93,       6.93081,       13.7923,            0.,NA,NA,"",       13.8950,       13.8455,      -1.17116,   4.47194E-03
C:/temp/dataset/7/26_8.odb,Step-1,Increment      4: Step Time =    1.000,"PART-1-1",            94,       7.08682,       7.47611,            0.,NA,NA,"",       11.0957,       11.0771,  -641.364E-03,   13.8227E-03
C:/temp/dataset/7/26_8.odb,Step-1,Increment      4: Step Time =    1.000,"PART-1-1",            95,       6.96700,      -1.15199,            0.,NA,NA,"",       7.37884,       7.37770,   129.238E-03,   23.4279E-03
C:/temp/dataset/7/26_8.odb,Step-1,Increment      4: Step Time =    1.000,"PART-1-1",            96,       6.47578,      -21.8661,            0.,NA,NA,"",   978.747E-03,   831.912E-03,   515.625E-03,   71.0733E-03
C:/temp/dataset/7/26_8.odb,Step-1,Increment      4: Step Time =    1.000,"PART-1-1",            97,       7.14087,      -13.1040,            0.,NA,NA,"",       3.01660,       2.96710,   544.256E-03,   43.1776E-03
C:/temp/dataset/7/26_8.odb,Step-1,Increment      4: Step Time =    1.000,"PART-1-1",            98,       6.53104,      -7.08024,            0.,NA,NA,"",       5.11043,       5.07493,   601.372E-03,   38.3450E-03
C:/temp/dataset/7/26_8.odb,Step-1,Increment      4: Step Time =    1.000,"PART-1-1",            99,       6.85322,      -3.24169,            0.,NA,NA,"",       6.54376,       6.53669,   304.168E-03,   27.9703E-03
C:/temp/dataset/7/26_8.odb,Step-1,Increment      4: Step Time =    1.000,"PART-1-1",           100,       6.74184,      -8.96518,            0.,NA,NA,"",       4.41155,       4.37190,   590.172E-03,   40.0492E-03
C:/temp/dataset/7/26_8.odb,Step-1,Increment      4: Step Time =    1.000,"PART-1-1",           101,       6.94703,      -23.6171,            0.,NA,NA,"",   644.263E-03,   530.766E-03,   365.189E-03,   65.6836E-03
C:/temp/dataset/7/26_8.odb,Step-1,Increment      4: Step Time =    1.000,"PART-1-1",           102,       7.44695,      -27.8442,            0.,NA,NA,"",   131.465E-03,   79.8976E-03,   104.400E-03,   64.6963E-03
C:/temp/dataset/7/26_8.odb,Step-1,Increment      4: Step Time =    1.000,"PART-1-1",           103,       7.35225,      -17.6578,            0.,NA,NA,"",       1.75558,       1.68814,   481.925E-03,   48.0727E-03
C:/temp/dataset/7/26_8.odb,Step-1,Increment      4: Step Time =    1.000,"PART-1-1",           104,       7.23832,      -15.2967,            0.,NA,NA,"",       2.37442,       2.31538,   526.188E-03,   45.7308E-03
C:/temp/dataset/7/26_8.odb,Step-1,Increment      4: Step Time =    1.000,"PART-1-1",           105,       7.10099,       17.6583,            0.,NA,NA,"",       15.5646,       15.4808,      -1.61329,   306.826E-06
C:/temp/dataset/7/26_8.odb,Step-1,Increment      4: Step Time =    1.000,"PART-1-1",           106,       6.86948,       15.7920,            0.,NA,NA,"",       14.7648,       14.7043,      -1.33446,   834.881E-06
C:/temp/dataset/7/26_8.odb,Step-1,Increment      4: Step Time =    1.000,"PART-1-1",           107,       7.06799,       9.62990,            0.,NA,NA,"",       12.0589,       12.0296,  -838.778E-03,   11.4776E-03
C:/temp/dataset/7/26_8.odb,Step-1,Increment      4: Step Time =    1.000,"PART-1-1",           108,       7.09093,       5.31052,            0.,NA,NA,"",       10.1326,       10.1230,  -439.701E-03,   12.7014E-03
C:/temp/dataset/7/26_8.odb,Step-1,Increment      4: Step Time =    1.000,"PART-1-1",           109,       6.65187,      -5.22056,            0.,NA,NA,"",       5.79303,       5.77296,   481.862E-03,   33.3475E-03
C:/temp/dataset/7/26_8.odb,Step-1,Increment      4: Step Time =    1.000,"PART-1-1",           110,       7.26954,      -25.7037,            0.,NA,NA,"",   344.124E-03,   259.847E-03,   225.613E-03,   65.2546E-03
C:/temp/dataset/7/26_8.odb,Step-1,Increment      4: Step Time =    1.000,"PART-1-1",           111,       7.53271,      -20.3934,            0.,NA,NA,"",       1.13855,       1.06768,   395.403E-03,   49.5886E-03
C:/temp/dataset/7/26_8.odb,Step-1,Increment      4: Step Time =    1.000,"PART-1-1",           112,       7.01178,       11.7341,            0.,NA,NA,"",       12.9928,       12.9532,      -1.01330,   8.58247E-03
C:/temp/dataset/7/26_8.odb,Step-1,Increment      4: Step Time =    1.000,"PART-1-1",           113,       7.07643,       3.14767,            0.,NA,NA,"",       9.18850,       9.18528,  -243.331E-03,   15.7480E-03
C:/temp/dataset/7/26_8.odb,Step-1,Increment      4: Step Time =    1.000,"PART-1-1",           114,       6.98190,      -10.9751,            0.,NA,NA,"",       3.70457,       3.66185,   560.972E-03,   41.2556E-03
C:/temp/dataset/7/26_8.odb,Step-1,Increment      4: Step Time =    1.000,"PART-1-1",           115,       13.1254,       22.8014,            0.,NA,NA,"",       17.7360,       17.1040,      -4.69246,   82.9383E-06
C:/temp/dataset/7/26_8.odb,Step-1,Increment      4: Step Time =    1.000,"PART-1-1",           116,       12.8923,      -4.74502,            0.,NA,NA,"",       5.80847,       5.51591,      -1.82017,   27.5642E-03
C:/temp/dataset/7/26_8.odb,Step-1,Increment      4: Step Time =    1.000,"PART-1-1",           117,       13.0513,      -12.4505,            0.,NA,NA,"",       3.13898,       2.91053,      -1.17560,   41.7037E-03
C:/temp/dataset/7/26_8.odb,Step-1,Increment      4: Step Time =    1.000,"PART-1-1",           118,       12.2427,       17.8341,            0.,NA,NA,"",       15.5405,       15.0600,      -3.83429,   257.889E-06
C:/temp/dataset/7/26_8.odb,Step-1,Increment      4: Step Time =    1.000,"PART-1-1",           119,       13.0441,       9.90429,            0.,NA,NA,"",       12.0532,       11.5638,      -3.39982,   5.67877E-03
C:/temp/dataset/7/26_8.odb,Step-1,Increment      4: Step Time =    1.000,"PART-1-1",           120,       13.0522,       2.62582,            0.,NA,NA,"",       8.84349,       8.43989,      -2.64113,   16.8859E-03
C:/temp/dataset/7/26_8.odb,Step-1,Increment      4: Step Time =    1.000,"PART-1-1",           121,       13.2006,      -19.7745,            0.,NA,NA,"",       1.27401,       1.09353,  -653.675E-03,   56.4096E-03
C:/temp/dataset/7/26_8.odb,Step-1,Increment      4: Step Time =    1.000,"PART-1-1",           122,       9.90112,      -27.6522,            0.,NA,NA,"",   49.0437E-03,   48.2262E-03,   8.91686E-03,   16.0678E-03
C:/temp/dataset/7/26_8.odb,Step-1,Increment      4: Step Time =    1.000,"PART-1-1",           123,       13.0591,      -22.1191,            0.,NA,NA,"",   825.205E-03,   677.530E-03,  -471.080E-03,   57.7931E-03
C:/temp/dataset/7/26_8.odb,Step-1,Increment      4: Step Time =    1.000,"PART-1-1",           124,       13.1139,      -14.9356,            0.,NA,NA,"",       2.42399,       2.21151,  -992.438E-03,   46.7478E-03
C:/temp/dataset/7/26_8.odb,Step-1,Increment      4: Step Time =    1.000,"PART-1-1",           125,       13.1678,      -17.3995,            0.,NA,NA,"",       1.79682,       1.59980,  -818.063E-03,   51.7503E-03
C:/temp/dataset/7/26_8.odb,Step-1,Increment      4: Step Time =    1.000,"PART-1-1",           126,       12.7891,      -7.32383,            0.,NA,NA,"",       4.83749,       4.58638,      -1.53834,   30.6552E-03
C:/temp/dataset/7/26_8.odb,Step-1,Increment      4: Step Time =    1.000,"PART-1-1",           127,       12.9162,      -9.94117,            0.,NA,NA,"",       3.93280,       3.69485,      -1.34719,   35.9994E-03
C:/temp/dataset/7/26_8.odb,Step-1,Increment      4: Step Time =    1.000,"PART-1-1",           128,       13.0283,   193.158E-03,            0.,NA,NA,"",       7.80712,       7.43724,      -2.37458,   20.5984E-03
C:/temp/dataset/7/26_8.odb,Step-1,Increment      4: Step Time =    1.000,"PART-1-1",           129,       12.9794,      -2.25409,            0.,NA,NA,"",       6.79679,       6.46356,      -2.10206,   24.2442E-03
C:/temp/dataset/7/26_8.odb,Step-1,Increment      4: Step Time =    1.000,"PART-1-1",           130,       13.0689,       7.48049,            0.,NA,NA,"",       10.9761,       10.5110,      -3.16121,   9.43053E-03
C:/temp/dataset/7/26_8.odb,Step-1,Increment      4: Step Time =    1.000,"PART-1-1",           131,       13.0764,       5.05734,            0.,NA,NA,"",       9.90441,       9.46743,      -2.90949,   13.1978E-03
C:/temp/dataset/7/26_8.odb,Step-1,Increment      4: Step Time =    1.000,"PART-1-1",           132,       12.6962,       14.9270,            0.,NA,NA,"",       14.2686,       13.7678,      -3.74732,   523.453E-06
C:/temp/dataset/7/26_8.odb,Step-1,Increment      4: Step Time =    1.000,"PART-1-1",           133,       12.9459,       12.3607,            0.,NA,NA,"",       13.1408,       12.6371,      -3.60338,   2.49452E-03
C:/temp/dataset/7/26_8.odb,Step-1,Increment      4: Step Time =    1.000,"PART-1-1",           134,       12.9476,       20.4489,            0.,NA,NA,"",       16.7000,       16.1129,      -4.38922,   198.690E-06
C:/temp/dataset/7/26_8.odb,Step-1,Increment      4: Step Time =    1.000,"PART-1-1",           135,       13.1802,       25.1793,            0.,NA,NA,"",       18.7808,       18.1180,      -4.94545,   28.9318E-06
C:/temp/dataset/7/26_8.odb,Step-1,Increment      4: Step Time =    1.000,"PART-1-1",           136,      -12.4062,       24.9250,            0.,NA,NA,"",       21.3531,       20.4789,       6.04730,   7.65516E-09
C:/temp/dataset/7/26_8.odb,Step-1,Increment      4: Step Time =    1.000,"PART-1-1",           137,       11.3078,       25.3904,            0.,NA,NA,"",       18.8546,       18.3892,      -4.16317,   32.9464E-06
C:/temp/dataset/7/26_8.odb,Step-1,Increment      4: Step Time =    1.000,"PART-1-1",           138,      -10.1009,       25.2443,            0.,NA,NA,"",       21.0040,       20.3932,       5.02824,   37.2592E-09
C:/temp/dataset/7/26_8.odb,Step-1,Increment      4: Step Time =    1.000,"PART-1-1",           139,      -4.83291,       26.5053,            0.,NA,NA,"",       20.5962,       20.4252,       2.64822,   644.365E-09
C:/temp/dataset/7/26_8.odb,Step-1,Increment      4: Step Time =    1.000,"PART-1-1",           140,       1.72347,       26.1851,            0.,NA,NA,"",       19.6554,       19.6550,  -131.441E-03,   2.30635E-06
C:/temp/dataset/7/26_8.odb,Step-1,Increment      4: Step Time =    1.000,"PART-1-1",           141,       6.12189,       25.7754,            0.,NA,NA,"",       19.1571,       19.0547,      -1.97734,   20.4296E-06
C:/temp/dataset/7/26_8.odb,Step-1,Increment      4: Step Time =    1.000,"PART-1-1",           142,       7.62725,       25.7499,            0.,NA,NA,"",       19.0793,       18.8985,      -2.62015,   25.8143E-06
C:/temp/dataset/7/26_8.odb,Step-1,Increment      4: Step Time =    1.000,"PART-1-1",           143,       3.76931,       25.0880,            0.,NA,NA,"",       19.0086,       18.9872,  -902.525E-03,   11.6651E-06
C:/temp/dataset/7/26_8.odb,Step-1,Increment      4: Step Time =    1.000,"PART-1-1",           144,  -231.428E-03,       26.1188,            0.,NA,NA,"",       19.8281,       19.8153,   712.983E-03,   1.75864E-06
C:/temp/dataset/7/26_8.odb,Step-1,Increment      4: Step Time =    1.000,"PART-1-1",           145,      -2.48530,       25.9891,            0.,NA,NA,"",       20.0488,       19.9773,       1.69169,   1.43688E-06
C:/temp/dataset/7/26_8.odb,Step-1,Increment      4: Step Time =    1.000,"PART-1-1",           146,      -3.63425,       26.9302,            0.,NA,NA,"",       20.5983,       20.4916,       2.09337,   952.553E-09
C:/temp/dataset/7/26_8.odb,Step-1,Increment      4: Step Time =    1.000,"PART-1-1",           147,      -8.31738,       25.8431,            0.,NA,NA,"",       20.9052,       20.4777,       4.20587,   117.298E-09
C:/temp/dataset/7/26_8.odb,Step-1,Increment      4: Step Time =    1.000,"PART-1-1",           148,       9.04714,   705.037E-03,            0.,NA,NA,"",       8.01179,       7.96837,  -833.004E-03,   14.0396E-03
C:/temp/dataset/7/26_8.odb,Step-1,Increment      4: Step Time =    1.000,"PART-1-1",           149,       7.85197,      -7.06885,            0.,NA,NA,"",       4.98084,       4.97870,   146.258E-03,   26.0555E-03
C:/temp/dataset/7/26_8.odb,Step-1,Increment      4: Step Time =    1.000,"PART-1-1",           150,       8.74205,      -22.9842,            0.,NA,NA,"",   590.916E-03,   568.959E-03,   159.584E-03,   31.9855E-03
C:/temp/dataset/7/26_8.odb,Step-1,Increment      4: Step Time =    1.000,"PART-1-1",           151,       9.28078,      -15.1075,            0.,NA,NA,"",       2.27238,       2.27235,   10.1172E-03,   18.6429E-03
C:/temp/dataset/7/26_8.odb,Step-1,Increment      4: Step Time =    1.000,"PART-1-1",           152,       8.97855,      -1.55139,            0.,NA,NA,"",       7.06943,       7.04218,  -620.035E-03,   14.9976E-03
C:/temp/dataset/7/26_8.odb,Step-1,Increment      4: Step Time =    1.000,"PART-1-1",           153,       9.09422,       9.69450,            0.,NA,NA,"",       11.9752,       11.8536,      -1.70225,   10.2915E-03
C:/temp/dataset/7/26_8.odb,Step-1,Increment      4: Step Time =    1.000,"PART-1-1",           154,       8.44946,       15.5970,            0.,NA,NA,"",       14.6048,       14.4683,      -1.99197,   957.130E-06
C:/temp/dataset/7/26_8.odb,Step-1,Increment      4: Step Time =    1.000,"PART-1-1",           155,       9.11701,       7.46178,            0.,NA,NA,"",       10.9744,       10.8722,      -1.49412,   12.9827E-03
C:/temp/dataset/7/26_8.odb,Step-1,Increment      4: Step Time =    1.000,"PART-1-1",           156,       8.83101,       13.9442,            0.,NA,NA,"",       13.8671,       13.7225,      -1.99705,   2.77107E-03
C:/temp/dataset/7/26_8.odb,Step-1,Increment      4: Step Time =    1.000,"PART-1-1",           157,       9.61385,      -19.9311,            0.,NA,NA,"",       1.09660,       1.09625,   27.8436E-03,   16.6983E-03
C:/temp/dataset/7/26_8.odb,Step-1,Increment      4: Step Time =    1.000,"PART-1-1",           158,       9.10031,       2.95854,            0.,NA,NA,"",       8.98015,       8.91792,      -1.05532,   13.4867E-03
C:/temp/dataset/7/26_8.odb,Step-1,Increment      4: Step Time =    1.000,"PART-1-1",           159,       9.17986,      -12.8049,            0.,NA,NA,"",       2.94900,       2.94880,  -34.2126E-03,   18.6167E-03
C:/temp/dataset/7/26_8.odb,Step-1,Increment      4: Step Time =    1.000,"PART-1-1",           160,       8.54844,      -8.43147,            0.,NA,NA,"",       4.43633,       4.43627,  -22.6913E-03,   21.4460E-03
C:/temp/dataset/7/26_8.odb,Step-1,Increment      4: Step Time =    1.000,"PART-1-1",           161,       8.46228,      -5.79934,            0.,NA,NA,"",       5.41131,       5.40964,  -134.469E-03,   20.0689E-03
C:/temp/dataset/7/26_8.odb,Step-1,Increment      4: Step Time =    1.000,"PART-1-1",           162,       8.97830,      -10.5487,            0.,NA,NA,"",       3.68153,       3.68098,  -63.3997E-03,   19.2824E-03
C:/temp/dataset/7/26_8.odb,Step-1,Increment      4: Step Time =    1.000,"PART-1-1",           163,       8.84007,      -3.76868,            0.,NA,NA,"",       6.17877,       6.16564,  -402.563E-03,   16.5419E-03
C:/temp/dataset/7/26_8.odb,Step-1,Increment      4: Step Time =    1.000,"PART-1-1",           164,       9.12644,       5.21383,            0.,NA,NA,"",       9.97110,       9.88874,      -1.27897,   13.4989E-03
C:/temp/dataset/7/26_8.odb,Step-1,Increment      4: Step Time =    1.000,"PART-1-1",           165,       9.36869,      -17.5094,            0.,NA,NA,"",       1.64539,       1.64485,   42.1701E-03,   18.7102E-03
C:/temp/dataset/7/26_8.odb,Step-1,Increment      4: Step Time =    1.000,"PART-1-1",           166,       9.01212,       11.8707,            0.,NA,NA,"",       12.9468,       12.8100,      -1.87668,   6.32146E-03
C:/temp/dataset/7/26_8.odb,Step-1,Increment      4: Step Time =    1.000,"PART-1-1",           167,       9.60003,       16.9835,            0.,NA,NA,"",       15.1784,       14.9509,      -2.61854,   354.331E-06
C:/temp/dataset/7/26_8.odb,Step-1,Increment      4: Step Time =    1.000,"PART-1-1",           168,       7.13047,       19.6676,            0.,NA,NA,"",       16.4400,       16.3390,      -1.81985,   294.364E-06
C:/temp/dataset/7/26_8.odb,Step-1,Increment      4: Step Time =    1.000,"PART-1-1",           169,       9.55406,      -25.2995,            0.,NA,NA,"",   252.997E-03,   248.920E-03,   45.2374E-03,   19.8015E-03
C:/temp/dataset/7/26_8.odb,Step-1,Increment      4: Step Time =    1.000,"PART-1-1",           170,       12.3800,      -27.4389,            0.,NA,NA,"",   132.630E-03,   77.4342E-03,  -107.678E-03,   53.6724E-03
C:/temp/dataset/7/26_8.odb,Step-1,Increment      4: Step Time =    1.000,"PART-1-1",           171,      -11.9351,       22.4166,            0.,NA,NA,"",       20.2927,       19.3581,       6.08751,   23.5834E-09
C:/temp/dataset/7/26_8.odb,Step-1,Increment      4: Step Time =    1.000,"PART-1-1",           172,       10.9842,      -1.93535,            0.,NA,NA,"",       6.86771,       6.73189,      -1.35912,   14.7000E-03
C:/temp/dataset/7/26_8.odb,Step-1,Increment      4: Step Time =    1.000,"PART-1-1",           173,       11.2234,      -14.9909,            0.,NA,NA,"",       2.29124,       2.23808,  -490.668E-03,   20.9330E-03
C:/temp/dataset/7/26_8.odb,Step-1,Increment      4: Step Time =    1.000,"PART-1-1",           174,       11.0574,       21.1283,            0.,NA,NA,"",       16.9822,       16.5865,      -3.64422,   178.935E-06
C:/temp/dataset/7/26_8.odb,Step-1,Increment      4: Step Time =    1.000,"PART-1-1",           175,       10.7466,       19.4847,            0.,NA,NA,"",       16.2614,       15.9121,      -3.35208,   247.021E-06
C:/temp/dataset/7/26_8.odb,Step-1,Increment      4: Step Time =    1.000,"PART-1-1",           176,       11.0568,   433.028E-03,            0.,NA,NA,"",       7.85564,       7.68939,      -1.60759,   14.3789E-03
C:/temp/dataset/7/26_8.odb,Step-1,Increment      4: Step Time =    1.000,"PART-1-1",           177,       10.9662,       12.1205,            0.,NA,NA,"",       13.0157,       12.7255,      -2.73292,   4.29526E-03
C:/temp/dataset/7/26_8.odb,Step-1,Increment      4: Step Time =    1.000,"PART-1-1",           178,       11.6216,      -21.4567,            0.,NA,NA,"",   828.826E-03,   780.986E-03,  -277.513E-03,   30.2810E-03
C:/temp/dataset/7/26_8.odb,Step-1,Increment      4: Step Time =    1.000,"PART-1-1",           179,       11.2975,      -17.3958,            0.,NA,NA,"",       1.66875,       1.62275,  -389.109E-03,   22.9854E-03
C:/temp/dataset/7/26_8.odb,Step-1,Increment      4: Step Time =    1.000,"PART-1-1",           180,       10.6273,       14.4803,            0.,NA,NA,"",       14.0619,       13.7769,      -2.81698,   1.45315E-03
C:/temp/dataset/7/26_8.odb,Step-1,Increment      4: Step Time =    1.000,"PART-1-1",           181,       11.1012,       2.78293,            0.,NA,NA,"",       8.86568,       8.66952,      -1.85461,   13.9440E-03
C:/temp/dataset/7/26_8.odb,Step-1,Increment      4: Step Time =    1.000,"PART-1-1",           182,       11.1153,       7.46695,            0.,NA,NA,"",       10.9379,       10.6862,      -2.33335,   11.3326E-03
C:/temp/dataset/7/26_8.odb,Step-1,Increment      4: Step Time =    1.000,"PART-1-1",           183,       11.1247,      -12.5851,            0.,NA,NA,"",       2.99311,       2.93249,  -599.352E-03,   18.9160E-03
C:/temp/dataset/7/26_8.odb,Step-1,Increment      4: Step Time =    1.000,"PART-1-1",           184,       10.4094,      -7.19663,            0.,NA,NA,"",       4.81719,       4.76267,  -722.713E-03,   13.8250E-03
C:/temp/dataset/7/26_8.odb,Step-1,Increment      4: Step Time =    1.000,"PART-1-1",           185,       10.4303,      -22.2648,            0.,NA,NA,"",   656.672E-03,   652.695E-03,  -72.1580E-03,   14.1807E-03
C:/temp/dataset/7/26_8.odb,Step-1,Increment      4: Step Time =    1.000,"PART-1-1",           186,       10.9130,      -10.1038,            0.,NA,NA,"",       3.79149,       3.72800,  -690.979E-03,   16.3407E-03
C:/temp/dataset/7/26_8.odb,Step-1,Increment      4: Step Time =    1.000,"PART-1-1",           187,       10.8491,      -4.38491,            0.,NA,NA,"",       5.88495,       5.78202,      -1.09589,   14.8215E-03
C:/temp/dataset/7/26_8.odb,Step-1,Increment      4: Step Time =    1.000,"PART-1-1",           188,       11.1275,       5.13070,            0.,NA,NA,"",       9.89729,       9.67164,      -2.10138,   13.1808E-03
C:/temp/dataset/7/26_8.odb,Step-1,Increment      4: Step Time =    1.000,"PART-1-1",           189,       11.0819,       9.79848,            0.,NA,NA,"",       11.9808,       11.7055,      -2.55345,   8.06599E-03
C:/temp/dataset/7/26_8.odb,Step-1,Increment      4: Step Time =    1.000,"PART-1-1",           190,       12.1026,      -24.5603,            0.,NA,NA,"",   391.494E-03,   329.105E-03,  -212.031E-03,   42.9026E-03
C:/temp/dataset/7/26_8.odb,Step-1,Increment      4: Step Time =    1.000,"PART-1-1",           191,      -7.61069,       24.2264,            0.,NA,NA,"",       20.1299,       19.7164,       4.05901,   171.262E-09
C:/temp/dataset/7/26_8.odb,Step-1,Increment      4: Step Time =    1.000,"PART-1-1",           192,      -5.77678,       24.2650,            0.,NA,NA,"",       19.8273,       19.5560,       3.26912,   446.977E-09
C:/temp/dataset/7/26_8.odb,Step-1,Increment      4: Step Time =    1.000,"PART-1-1",           193,       1.00958,       23.8763,            0.,NA,NA,"",       18.7384,       18.7342,   397.484E-03,   3.91436E-06
C:/temp/dataset/7/26_8.odb,Step-1,Increment      4: Step Time =    1.000,"PART-1-1",           194,      -3.86757,       24.8145,            0.,NA,NA,"",       19.7532,       19.6072,       2.39764,   1.01330E-06
C:/temp/dataset/7/26_8.odb,Step-1,Increment      4: Step Time =    1.000,"PART-1-1",           195,  -996.969E-03,       24.6602,            0.,NA,NA,"",       19.3002,       19.2639,       1.18197,   2.53493E-06
C:/temp/dataset/7/26_8.odb,Step-1,Increment      4: Step Time =    1.000,"PART-1-1",           196,       7.19995,       21.7613,            0.,NA,NA,"",       17.3516,       17.2299,      -2.05185,   136.245E-06
C:/temp/dataset/7/26_8.odb,Step-1,Increment      4: Step Time =    1.000,"PART-1-1",           197,       2.92747,       22.7842,            0.,NA,NA,"",       18.0837,       18.0809,  -319.234E-03,   20.0942E-06
C:/temp/dataset/7/26_8.odb,Step-1,Increment      4: Step Time =    1.000,"PART-1-1",           198,       5.53232,       24.2100,            0.,NA,NA,"",       18.5076,       18.4406,      -1.57350,   31.1012E-06
C:/temp/dataset/7/26_8.odb,Step-1,Increment      4: Step Time =    1.000,"PART-1-1",           199,       9.18626,       19.3402,            0.,NA,NA,"",       16.2217,       16.0006,      -2.66909,   296.355E-06
C:/temp/dataset/7/26_8.odb,Step-1,Increment      4: Step Time =    1.000,"PART-1-1",           200,       11.2321,       23.1770,            0.,NA,NA,"",       17.8820,       17.4478,      -3.91700,   85.6416E-06
C:/temp/dataset/7/26_8.odb,Step-1,Increment      4: Step Time =    1.000,"PART-1-1",           201,       5.11021,       22.1378,            0.,NA,NA,"",       17.6334,       17.5930,      -1.19255,   65.7912E-06
C:/temp/dataset/7/26_8.odb,Step-1,Increment      4: Step Time =    1.000,"PART-1-1",           202,   167.280E-03,       22.2372,            0.,NA,NA,"",       18.1360,       18.1128,   916.815E-03,   4.43350E-06
C:/temp/dataset/7/26_8.odb,Step-1,Increment      4: Step Time =    1.000,"PART-1-1",           203,      -2.32264,       22.6339,            0.,NA,NA,"",       18.6252,       18.5233,       1.94589,   2.04867E-06
C:/temp/dataset/7/26_8.odb,Step-1,Increment      4: Step Time =    1.000,"PART-1-1",           204,       9.17324,       21.4477,            0.,NA,NA,"",       17.1466,       16.9052,      -2.86730,   160.100E-06
C:/temp/dataset/7/26_8.odb,Step-1,Increment      4: Step Time =    1.000,"PART-1-1",           205,       9.43619,       25.5889,            0.,NA,NA,"",       18.9587,       18.6549,      -3.38003,   30.7942E-06
C:/temp/dataset/7/26_8.odb,Step-1,Increment      4: Step Time =    1.000,"PART-1-1",           206,      -5.39738,       22.2321,            0.,NA,NA,"",       18.9381,       18.6479,       3.30275,   405.775E-09
C:/temp/dataset/7/26_8.odb,Step-1,Increment      4: Step Time =    1.000,"PART-1-1",           207,      -8.66915,       22.6604,            0.,NA,NA,"",       19.7072,       19.1473,       4.66394,   82.5524E-09
C:/temp/dataset/7/26_8.odb,Step-1,Increment      4: Step Time =    1.000,"PART-1-1",           208,      -12.8188,       27.4435,            0.,NA,NA,"",       22.4112,       21.5983,       5.98101,   13.8678E-09
C:/temp/dataset/7/26_8.odb,Step-1,Increment      4: Step Time =    1.000,"PART-1-1",           209,       7.43992,       23.7550,            0.,NA,NA,"",       18.2133,       18.0614,      -2.34723,   54.4127E-06
C:/temp/dataset/7/26_8.odb,Step-1,Increment      4: Step Time =    1.000,"PART-1-1",           210,      -6.48406,       26.1481,            0.,NA,NA,"",       20.7109,       20.4315,       3.39052,   307.117E-09
C:/temp/dataset/7/26_8.odb,Step-1,Increment      4: Step Time =    1.000,"PART-1-1",           211,       3.18484,       28.0088,            0.,NA,NA,"",       20.3172,       20.2957,  -933.948E-03,   1.68653E-06
C:/temp/dataset/7/26_8.odb,Step-1,Increment      4: Step Time =    1.000,"PART-1-1",           212,       11.4304,      -19.6429,            0.,NA,NA,"",       1.16831,       1.12426,  -317.797E-03,   26.0209E-03
C:/temp/dataset/7/26_8.odb,Step-1,Increment      4: Step Time =    1.000,"PART-1-1",           213,       9.33060,       23.4727,            0.,NA,NA,"",       18.0318,       17.7580,      -3.13040,   76.6456E-06
C:/temp/dataset/7/26_8.odb,Step-1,Increment      4: Step Time =    1.000,"PART-1-1",           214,      -12.1707,       23.6708,            0.,NA,NA,"",       20.8221,       19.9185,       6.06740,   8.53168E-09
C:/temp/dataset/7/26_8.odb,Step-1,Increment      4: Step Time =    1.000,"PART-1-1",           215,      -13.7031,       24.9625,            0.,NA,NA,"",       21.6506,       20.6202,       6.59963,   12.6827E-09
C:/temp/dataset/7/26_8.odb,Step-1,Increment      4: Step Time =    1.000,"PART-1-1",           216,          -15.,         23.75,            0.,NA,NA,"",       21.4934,       20.2256,       7.27263,   19.7284E-09
C:/temp/dataset/7/26_8.odb,Step-1,Increment      4: Step Time =    1.000,"PART-1-1",           217,      -13.4675,       22.4583,            0.,NA,NA,"",       20.6547,       19.5240,       6.74041,   14.8432E-09
C:/temp/dataset/7/26_8.odb,Step-1,Increment      4: Step Time =    1.000,"PART-1-1",           218,      -9.86170,       27.7278,            0.,NA,NA,"",       21.9410,       21.4348,       4.68593,   28.2486E-09
C:/temp/dataset/7/26_8.odb,Step-1,Increment      4: Step Time =    1.000,"PART-1-1",           219,      -10.4490,       26.4258,            0.,NA,NA,"",       21.5370,       20.9333,       5.06340,   19.9709E-09
C:/temp/dataset/7/26_8.odb,Step-1,Increment      4: Step Time =    1.000,"PART-1-1",           220,      -9.20914,       25.5437,            0.,NA,NA,"",       20.9506,       20.4355,       4.61705,   76.4558E-09
C:/temp/dataset/7/26_8.odb,Step-1,Increment      4: Step Time =    1.000,"PART-1-1",           221,      -8.62185,       26.8458,            0.,NA,NA,"",       21.3619,       20.9369,       4.23959,   77.3412E-09
C:/temp/dataset/7/26_8.odb,Step-1,Increment      4: Step Time =    1.000,"PART-1-1",           222,      -9.15066,       28.9242,            0.,NA,NA,"",       22.2909,       21.8790,       4.26562,   22.4119E-09
C:/temp/dataset/7/26_8.odb,Step-1,Increment      4: Step Time =    1.000,"PART-1-1",           223,      -10.3125,           30.,            0.,NA,NA,"",       22.9308,       22.4523,       4.65982,   22.2020E-09
C:/temp/dataset/7/26_8.odb,Step-1,Increment      4: Step Time =    1.000,"PART-1-1",           224,      -11.0235,       28.8036,            0.,NA,NA,"",       22.5868,       22.0081,       5.08013,   12.4790E-09
C:/temp/dataset/7/26_8.odb,Step-1,Increment      4: Step Time =    1.000,"PART-1-1",           225,      -11.2536,       25.0847,            0.,NA,NA,"",       21.1731,       20.4361,       5.53777,   14.1644E-09
C:/temp/dataset/7/26_8.odb,Step-1,Increment      4: Step Time =    1.000,"PART-1-1",           226,      -10.3021,       22.5385,            0.,NA,NA,"",       19.9891,       19.2527,       5.37572,   36.7068E-09
C:/temp/dataset/7/26_8.odb,Step-1,Increment      4: Step Time =    1.000,"PART-1-1",           227,      -9.38503,       23.9523,            0.,NA,NA,"",       20.3556,       19.7703,       4.84609,   50.7619E-09
C:/temp/dataset/7/26_8.odb,Step-1,Increment      4: Step Time =    1.000,"PART-1-1",           228,      -12.9719,       28.7217,            0.,NA,NA,"",       22.9390,       22.1611,       5.92324,   13.3456E-09
C:/temp/dataset/7/26_8.odb,Step-1,Increment      4: Step Time =    1.000,"PART-1-1",           229,      -14.0625,           30.,            0.,NA,NA,"",       23.6595,       22.8143,       6.26736,   11.0380E-09
C:/temp/dataset/7/26_8.odb,Step-1,Increment      4: Step Time =    1.000,"PART-1-1",           230,          -15.,         28.75,            0.,NA,NA,"",       23.3768,       22.3690,       6.78992,   11.6595E-09
C:/temp/dataset/7/26_8.odb,Step-1,Increment      4: Step Time =    1.000,"PART-1-1",           231,      -13.9094,       27.4717,            0.,NA,NA,"",       22.6522,       21.7158,       6.44580,   13.6686E-09
C:/temp/dataset/7/26_8.odb,Step-1,Increment      4: Step Time =    1.000,"PART-1-1",           232,      -7.40072,       25.9956,            0.,NA,NA,"",       20.8043,       20.4546,       3.79820,   209.075E-09
C:/temp/dataset/7/26_8.odb,Step-1,Increment      4: Step Time =    1.000,"PART-1-1",           233,      -7.96404,       25.0347,            0.,NA,NA,"",       20.5176,       20.0971,       4.13244,   137.590E-09
C:/temp/dataset/7/26_8.odb,Step-1,Increment      4: Step Time =    1.000,"PART-1-1",           234,      -6.69374,       24.2457,            0.,NA,NA,"",       19.9751,       19.6362,       3.66407,   309.900E-09
C:/temp/dataset/7/26_8.odb,Step-1,Increment      4: Step Time =    1.000,"PART-1-1",           235,      -6.13042,       25.2066,            0.,NA,NA,"",       20.2691,       19.9937,       3.32982,   342.695E-09
C:/temp/dataset/7/26_8.odb,Step-1,Increment      4: Step Time =    1.000,"PART-1-1",           236,      -5.46940,       29.1125,            0.,NA,NA,"",       21.7686,       21.6043,       2.66937,   245.613E-09
C:/temp/dataset/7/26_8.odb,Step-1,Increment      4: Step Time =    1.000,"PART-1-1",           237,      -4.41178,       28.2246,            0.,NA,NA,"",       21.2466,       21.1216,       2.30171,   610.275E-09
C:/temp/dataset/7/26_8.odb,Step-1,Increment      4: Step Time =    1.000,"PART-1-1",           238,      -3.62988,       29.1121,            0.,NA,NA,"",       21.5089,       21.4265,       1.88085,   619.300E-09
C:/temp/dataset/7/26_8.odb,Step-1,Increment      4: Step Time =    1.000,"PART-1-1",           239,       -4.6875,           30.,            0.,NA,NA,"",       22.0243,       21.9093,       2.24850,   415.579E-09
C:/temp/dataset/7/26_8.odb,Step-1,Increment      4: Step Time =    1.000,"PART-1-1",           240,  -467.629E-03,       27.9420,            0.,NA,NA,"",       20.6295,       20.6196,   638.229E-03,   1.77857E-06
C:/temp/dataset/7/26_8.odb,Step-1,Increment      4: Step Time =    1.000,"PART-1-1",           241,  -845.263E-03,       26.9234,            0.,NA,NA,"",       20.2394,       20.2195,   898.443E-03,   1.55221E-06
C:/temp/dataset/7/26_8.odb,Step-1,Increment      4: Step Time =    1.000,"PART-1-1",           242,   746.021E-03,       26.1520,            0.,NA,NA,"",       19.7373,       19.7351,   290.771E-03,   2.06567E-06
C:/temp/dataset/7/26_8.odb,Step-1,Increment      4: Step Time =    1.000,"PART-1-1",           243,       1.12365,       27.1705,            0.,NA,NA,"",       20.1353,       20.1353,   30.5574E-03,   1.96714E-06
C:/temp/dataset/7/26_8.odb,Step-1,Increment      4: Step Time =    1.000,"PART-1-1",           244,       14.0901,       25.0896,            0.,NA,NA,"",       18.7637,       17.9917,      -5.32685,   18.4782E-06
C:/temp/dataset/7/26_8.odb,Step-1,Increment      4: Step Time =    1.000,"PART-1-1",           245,       13.1528,       23.9903,            0.,NA,NA,"",       18.2584,       17.6110,      -4.81895,   54.8343E-06
C:/temp/dataset/7/26_8.odb,Step-1,Increment      4: Step Time =    1.000,"PART-1-1",           246,       14.0627,       22.6507,            0.,NA,NA,"",       17.6938,       16.9489,      -5.07976,   65.4578E-06
C:/temp/dataset/7/26_8.odb,Step-1,Increment      4: Step Time =    1.000,"PART-1-1",           247,           15.,         23.75,            0.,NA,NA,"",       18.2082,       17.3296,      -5.58760,   45.2042E-06
C:/temp/dataset/7/26_8.odb,Step-1,Increment      4: Step Time =    1.000,"PART-1-1",           248,       11.2764,       28.8302,            0.,NA,NA,"",       20.3660,       19.8667,      -4.48180,   6.73354E-06
C:/temp/dataset/7/26_8.odb,Step-1,Increment      4: Step Time =    1.000,"PART-1-1",           249,       10.3125,           30.,            0.,NA,NA,"",       20.8841,       20.4612,      -4.18153,   3.65474E-06
C:/temp/dataset/7/26_8.odb,Step-1,Increment      4: Step Time =    1.000,"PART-1-1",           250,       9.39543,       28.8642,            0.,NA,NA,"",       20.3973,       20.0628,      -3.67877,   7.61758E-06
C:/temp/dataset/7/26_8.odb,Step-1,Increment      4: Step Time =    1.000,"PART-1-1",           251,       10.3594,       27.6945,            0.,NA,NA,"",       19.8708,       19.4684,      -3.97904,   10.2377E-06
C:/temp/dataset/7/26_8.odb,Step-1,Increment      4: Step Time =    1.000,"PART-1-1",           252,        8.4375,           30.,            0.,NA,NA,"",       20.9167,       20.6422,      -3.37779,   3.40864E-06
C:/temp/dataset/7/26_8.odb,Step-1,Increment      4: Step Time =    1.000,"PART-1-1",           253,       7.48312,       28.8587,            0.,NA,NA,"",       20.4459,       20.2451,      -2.85851,   6.40846E-06
C:/temp/dataset/7/26_8.odb,Step-1,Increment      4: Step Time =    1.000,"PART-1-1",           254,       8.44105,       27.7230,            0.,NA,NA,"",       19.9179,       19.6657,      -3.15949,   10.1856E-06
C:/temp/dataset/7/26_8.odb,Step-1,Increment      4: Step Time =    1.000,"PART-1-1",           255,       13.0365,       21.6252,            0.,NA,NA,"",       17.2180,       16.6084,      -4.54085,   136.566E-06
C:/temp/dataset/7/26_8.odb,Step-1,Increment      4: Step Time =    1.000,"PART-1-1",           256,       13.9738,       20.2245,            0.,NA,NA,"",       16.6277,       15.9175,      -4.80766,   174.525E-06
C:/temp/dataset/7/26_8.odb,Step-1,Increment      4: Step Time =    1.000,"PART-1-1",           257,           15.,         21.25,            0.,NA,NA,"",       17.1145,       16.2580,      -5.34646,   154.120E-06
C:/temp/dataset/7/26_8.odb,Step-1,Increment      4: Step Time =    1.000,"PART-1-1",           258,       6.90015,       14.7921,            0.,NA,NA,"",       14.3299,       14.2751,      -1.25232,   2.06013E-03
C:/temp/dataset/7/26_8.odb,Step-1,Increment      4: Step Time =    1.000,"PART-1-1",           259,       5.93474,       15.8126,            0.,NA,NA,"",       14.8327,       14.8030,  -937.485E-03,   808.802E-06
C:/temp/dataset/7/26_8.odb,Step-1,Increment      4: Step Time =    1.000,"PART-1-1",           260,            5.,       14.7917,            0.,NA,NA,"",       14.4635,       14.4567,  -442.632E-03,   1.37404E-03
C:/temp/dataset/7/26_8.odb,Step-1,Increment      4: Step Time =    1.000,"PART-1-1",           261,       5.96541,       13.7711,            0.,NA,NA,"",       13.9530,       13.9324,  -757.142E-03,   4.50354E-03
C:/temp/dataset/7/26_8.odb,Step-1,Increment      4: Step Time =    1.000,"PART-1-1",           262,       7.07741,       8.55300,            0.,NA,NA,"",       11.5777,       11.5540,  -740.216E-03,   12.8807E-03
C:/temp/dataset/7/26_8.odb,Step-1,Increment      4: Step Time =    1.000,"PART-1-1",           263,       6.03400,       9.60662,            0.,NA,NA,"",       12.1335,       12.1270,  -395.539E-03,   9.77946E-03
C:/temp/dataset/7/26_8.odb,Step-1,Increment      4: Step Time =    1.000,"PART-1-1",           264,            5.,       8.54167,            0.,NA,NA,"",       11.7704,       11.7694,   151.211E-03,   10.0484E-03
C:/temp/dataset/7/26_8.odb,Step-1,Increment      4: Step Time =    1.000,"PART-1-1",           265,       6.04341,       7.48805,            0.,NA,NA,"",       11.1902,       11.1884,  -199.324E-03,   12.1484E-03
C:/temp/dataset/7/26_8.odb,Step-1,Increment      4: Step Time =    1.000,"PART-1-1",           266,            5.,         4.375,            0.,NA,NA,"",       9.93874,       9.92494,   523.689E-03,   19.8424E-03
C:/temp/dataset/7/26_8.odb,Step-1,Increment      4: Step Time =    1.000,"PART-1-1",           267,       6.03822,       3.24050,            0.,NA,NA,"",       9.32806,       9.32635,   178.534E-03,   18.5384E-03
C:/temp/dataset/7/26_8.odb,Step-1,Increment      4: Step Time =    1.000,"PART-1-1",           268,       7.08368,       4.22909,            0.,NA,NA,"",       9.65845,       9.65248,  -339.622E-03,   14.1567E-03
C:/temp/dataset/7/26_8.odb,Step-1,Increment      4: Step Time =    1.000,"PART-1-1",           269,       6.04546,       5.36359,            0.,NA,NA,"",       10.2500,       10.2500,  -3.32552E-03,   13.5503E-03
C:/temp/dataset/7/26_8.odb,Step-1,Increment      4: Step Time =    1.000,"PART-1-1",           270,            5.,       2.29167,            0.,NA,NA,"",       9.04790,       9.02214,   682.351E-03,   25.7195E-03
C:/temp/dataset/7/26_8.odb,Step-1,Increment      4: Step Time =    1.000,"PART-1-1",           271,       6.01828,       1.12309,            0.,NA,NA,"",       8.42763,       8.42044,   348.047E-03,   23.4909E-03
C:/temp/dataset/7/26_8.odb,Step-1,Increment      4: Step Time =    1.000,"PART-1-1",           272,       7.05649,       2.07193,            0.,NA,NA,"",       8.72669,       8.72546,  -146.327E-03,   17.5264E-03
C:/temp/dataset/7/26_8.odb,Step-1,Increment      4: Step Time =    1.000,"PART-1-1",           273,       7.00178,  -77.9012E-03,            0.,NA,NA,"",       7.82122,       7.82112,   40.3057E-03,   21.3727E-03
C:/temp/dataset/7/26_8.odb,Step-1,Increment      4: Step Time =    1.000,"PART-1-1",           274,            5.,   208.333E-03,            0.,NA,NA,"",       8.17519,       8.13375,   822.096E-03,   31.7698E-03
C:/temp/dataset/7/26_8.odb,Step-1,Increment      4: Step Time =    1.000,"PART-1-1",           275,       5.98350,  -992.661E-03,            0.,NA,NA,"",       7.55120,       7.53435,   504.135E-03,   28.7172E-03
C:/temp/dataset/7/26_8.odb,Step-1,Increment      4: Step Time =    1.000,"PART-1-1",           276,       6.59145,      -6.15040,            0.,NA,NA,"",       5.44792,       5.42065,   544.394E-03,   35.8158E-03
C:/temp/dataset/7/26_8.odb,Step-1,Increment      4: Step Time =    1.000,"PART-1-1",           277,       5.82593,      -5.11028,            0.,NA,NA,"",       5.93757,       5.88653,   776.888E-03,   40.1367E-03
C:/temp/dataset/7/26_8.odb,Step-1,Increment      4: Step Time =    1.000,"PART-1-1",           278,            5.,      -6.04167,            0.,NA,NA,"",       5.70778,       5.59917,       1.10821,   50.5849E-03
C:/temp/dataset/7/26_8.odb,Step-1,Increment      4: Step Time =    1.000,"PART-1-1",           279,       5.76552,      -7.08179,            0.,NA,NA,"",       5.20961,       5.13701,   866.707E-03,   45.9039E-03
C:/temp/dataset/7/26_8.odb,Step-1,Increment      4: Step Time =    1.000,"PART-1-1",           280,       8.25955,      -15.2021,            0.,NA,NA,"",       2.30636,       2.29059,   269.291E-03,   31.0975E-03
C:/temp/dataset/7/26_8.odb,Step-1,Increment      4: Step Time =    1.000,"PART-1-1",           281,       9.23032,      -13.9562,            0.,NA,NA,"",       2.60195,       2.60193,  -9.85122E-03,   18.6122E-03
C:/temp/dataset/7/26_8.odb,Step-1,Increment      4: Step Time =    1.000,"PART-1-1",           282,       8.16037,      -12.9544,            0.,NA,NA,"",       2.96615,       2.95502,   256.696E-03,   29.8610E-03
C:/temp/dataset/7/26_8.odb,Step-1,Increment      4: Step Time =    1.000,"PART-1-1",           283,       7.18960,      -14.2003,            0.,NA,NA,"",       2.68767,       2.63330,   537.866E-03,   44.4352E-03
C:/temp/dataset/7/26_8.odb,Step-1,Increment      4: Step Time =    1.000,"PART-1-1",           284,            5.,      -22.7083,            0.,NA,NA,"",       1.02094,   759.795E-03,   681.930E-03,   100.734E-03
C:/temp/dataset/7/26_8.odb,Step-1,Increment      4: Step Time =    1.000,"PART-1-1",           285,       5.97351,      -23.6835,            0.,NA,NA,"",   739.182E-03,   561.238E-03,   481.042E-03,   84.7231E-03
C:/temp/dataset/7/26_8.odb,Step-1,Increment      4: Step Time =    1.000,"PART-1-1",           286,       6.71140,      -22.7416,            0.,NA,NA,"",   803.950E-03,   673.718E-03,   438.679E-03,   68.4042E-03
C:/temp/dataset/7/26_8.odb,Step-1,Increment      4: Step Time =    1.000,"PART-1-1",           287,       5.73789,      -21.7664,            0.,NA,NA,"",       1.08924,   884.436E-03,   635.789E-03,   84.3001E-03
C:/temp/dataset/7/26_8.odb,Step-1,Increment      4: Step Time =    1.000,"PART-1-1",           288,       9.95056,      -28.8261,            0.,NA,NA,"",   2.69157E-03,   943.973E-06,   2.52060E-03,   4.11188E-03
C:/temp/dataset/7/26_8.odb,Step-1,Increment      4: Step Time =    1.000,"PART-1-1",           289,       8.67404,      -27.7482,            0.,NA,NA,"",   80.0963E-03,   57.3812E-03,   55.8821E-03,   37.2407E-03
C:/temp/dataset/7/26_8.odb,Step-1,Increment      4: Step Time =    1.000,"PART-1-1",           290,       7.47347,      -28.9221,            0.,NA,NA,"",   49.8041E-03,   19.0841E-03,   46.0026E-03,   53.2011E-03
C:/temp/dataset/7/26_8.odb,Step-1,Increment      4: Step Time =    1.000,"PART-1-1",           291,          8.75,          -30.,            0.,NA,NA,"",            0.,  -5.32073E-42,  -106.053E-42,   23.9456E-03
C:/temp/dataset/7/26_8.odb,Step-1,Increment      4: Step Time =    1.000,"PART-1-1",           292,       9.14805,      -24.1419,            0.,NA,NA,"",   406.584E-03,   395.178E-03,   95.6297E-03,   25.6371E-03
C:/temp/dataset/7/26_8.odb,Step-1,Increment      4: Step Time =    1.000,"PART-1-1",           293,       7.84454,      -23.3007,            0.,NA,NA,"",   608.088E-03,   546.326E-03,   267.018E-03,   48.2998E-03
C:/temp/dataset/7/26_8.odb,Step-1,Increment      4: Step Time =    1.000,"PART-1-1",           294,       7.10828,      -24.6604,            0.,NA,NA,"",   484.560E-03,   384.439E-03,   294.966E-03,   65.2114E-03
C:/temp/dataset/7/26_8.odb,Step-1,Increment      4: Step Time =    1.000,"PART-1-1",           295,       8.41180,      -25.5016,            0.,NA,NA,"",   284.963E-03,   248.671E-03,   139.164E-03,   41.1491E-03
C:/temp/dataset/7/26_8.odb,Step-1,Increment      4: Step Time =    1.000,"PART-1-1",           296,       7.00425,      -21.1298,            0.,NA,NA,"",       1.05264,   945.184E-03,   463.327E-03,   60.2516E-03
C:/temp/dataset/7/26_8.odb,Step-1,Increment      4: Step Time =    1.000,"PART-1-1",           297,       6.26636,      -19.9884,            0.,NA,NA,"",       1.36471,       1.20711,   636.647E-03,   70.5441E-03
C:/temp/dataset/7/26_8.odb,Step-1,Increment      4: Step Time =    1.000,"PART-1-1",           298,            5.,       -20.625,            0.,NA,NA,"",       1.41372,       1.14266,   832.430E-03,   95.0046E-03
C:/temp/dataset/7/26_8.odb,Step-1,Increment      4: Step Time =    1.000,"PART-1-1",           299,       12.8526,      -8.63250,            0.,NA,NA,"",       4.37608,       4.13177,      -1.44171,   33.3076E-03
C:/temp/dataset/7/26_8.odb,Step-1,Increment      4: Step Time =    1.000,"PART-1-1",           300,       13.9581,      -9.97058,            0.,NA,NA,"",       4.01925,       3.64726,      -1.68873,   48.2502E-03
C:/temp/dataset/7/26_8.odb,Step-1,Increment      4: Step Time =    1.000,"PART-1-1",           301,           15.,         -8.75,            0.,NA,NA,"",       4.55807,       4.00586,      -2.17465,   57.5876E-03
C:/temp/dataset/7/26_8.odb,Step-1,Increment      4: Step Time =    1.000,"PART-1-1",           302,       13.8945,      -7.41192,            0.,NA,NA,"",       4.89548,       4.50235,      -1.92213,   41.7821E-03
C:/temp/dataset/7/26_8.odb,Step-1,Increment      4: Step Time =    1.000,"PART-1-1",           303,            5.,        10.625,            0.,NA,NA,"",       12.6800,       12.6799,  -49.2126E-03,   7.71316E-03
C:/temp/dataset/7/26_8.odb,Step-1,Increment      4: Step Time =    1.000,"PART-1-1",           304,       7.03988,       10.6820,            0.,NA,NA,"",       12.5272,       12.4929,  -926.269E-03,   9.60159E-03
C:/temp/dataset/7/26_8.odb,Step-1,Increment      4: Step Time =    1.000,"PART-1-1",           305,       6.00589,       11.7004,            0.,NA,NA,"",       13.0546,       13.0416,  -582.382E-03,   8.03050E-03
C:/temp/dataset/7/26_8.odb,Step-1,Increment      4: Step Time =    1.000,"PART-1-1",           306,       2.74639,       25.6366,            0.,NA,NA,"",       19.3280,       19.3211,  -516.983E-03,   5.48970E-06
C:/temp/dataset/7/26_8.odb,Step-1,Increment      4: Step Time =    1.000,"PART-1-1",           307,       1.36653,       25.0307,            0.,NA,NA,"",       19.1950,       19.1946,   133.022E-03,   2.87930E-06
C:/temp/dataset/7/26_8.odb,Step-1,Increment      4: Step Time =    1.000,"PART-1-1",           308,       1.96853,       23.3303,            0.,NA,NA,"",       18.4076,       18.4075,   39.1245E-03,   5.64783E-06
C:/temp/dataset/7/26_8.odb,Step-1,Increment      4: Step Time =    1.000,"PART-1-1",           309,       3.34839,       23.9361,            0.,NA,NA,"",       18.5441,       18.5340,  -610.888E-03,   9.52096E-06
C:/temp/dataset/7/26_8.odb,Step-1,Increment      4: Step Time =    1.000,"PART-1-1",           310,       4.47216,       26.2029,            0.,NA,NA,"",       19.4415,       19.3972,      -1.31144,   8.20118E-06
C:/temp/dataset/7/26_8.odb,Step-1,Increment      4: Step Time =    1.000,"PART-1-1",           311,       4.17993,       27.6633,            0.,NA,NA,"",       20.0954,       20.0515,      -1.32715,   4.46315E-06
C:/temp/dataset/7/26_8.odb,Step-1,Increment      4: Step Time =    1.000,"PART-1-1",           312,       2.45416,       27.0970,            0.,NA,NA,"",       19.9824,       19.9753,  -532.696E-03,   1.20794E-06
C:/temp/dataset/7/26_8.odb,Step-1,Increment      4: Step Time =    1.000,"PART-1-1",           313,      -1.66705,       28.8640,            0.,NA,NA,"",       21.1574,       21.1307,       1.06338,   1.27490E-06
C:/temp/dataset/7/26_8.odb,Step-1,Increment      4: Step Time =    1.000,"PART-1-1",           314,   261.919E-03,       29.0779,            0.,NA,NA,"",       21.0373,       21.0362,   215.819E-03,   2.26678E-06
C:/temp/dataset/7/26_8.odb,Step-1,Increment      4: Step Time =    1.000,"PART-1-1",           315,    -937.5E-03,           30.,            0.,NA,NA,"",       21.5568,       21.5472,   640.965E-03,   2.40267E-06
C:/temp/dataset/7/26_8.odb,Step-1,Increment      4: Step Time =    1.000,"PART-1-1",           316,          -15.,         21.25,            0.,NA,NA,"",       20.5751,       19.1539,       7.51399,   12.0493E-09
C:/temp/dataset/7/26_8.odb,Step-1,Increment      4: Step Time =    1.000,"PART-1-1",           317,      -13.3250,           20.,            0.,NA,NA,"",       19.7098,       18.4564,       6.91663,   11.0487E-09
C:/temp/dataset/7/26_8.odb,Step-1,Increment      4: Step Time =    1.000,"PART-1-1",           318,      -11.7925,       21.2083,            0.,NA,NA,"",       19.8033,       18.8264,       6.14305,   19.0885E-09
C:/temp/dataset/7/26_8.odb,Step-1,Increment      4: Step Time =    1.000,"PART-1-1",           319,       10.1137,       15.7319,            0.,NA,NA,"",       14.6193,       14.3645,      -2.71780,   700.783E-06
C:/temp/dataset/7/26_8.odb,Step-1,Increment      4: Step Time =    1.000,"PART-1-1",           320,       9.02474,       16.2903,            0.,NA,NA,"",       14.8890,       14.7095,      -2.30508,   570.709E-06
C:/temp/dataset/7/26_8.odb,Step-1,Increment      4: Step Time =    1.000,"PART-1-1",           321,       8.64023,       14.7706,            0.,NA,NA,"",       14.2362,       14.0958,      -1.99440,   1.69875E-03
C:/temp/dataset/7/26_8.odb,Step-1,Increment      4: Step Time =    1.000,"PART-1-1",           322,       9.72917,       14.2122,            0.,NA,NA,"",       13.9585,       13.7494,      -2.40674,   2.05145E-03
C:/temp/dataset/7/26_8.odb,Step-1,Increment      4: Step Time =    1.000,"PART-1-1",           323,       12.8210,       13.6438,            0.,NA,NA,"",       13.7052,       13.2031,      -3.67586,   1.47404E-03
C:/temp/dataset/7/26_8.odb,Step-1,Increment      4: Step Time =    1.000,"PART-1-1",           324,       13.9730,       12.4303,            0.,NA,NA,"",       13.2045,       12.5675,      -4.05167,   1.27002E-03
C:/temp/dataset/7/26_8.odb,Step-1,Increment      4: Step Time =    1.000,"PART-1-1",           325,           15.,         13.75,            0.,NA,NA,"",       13.8323,       13.0367,      -4.62334,   304.225E-06
C:/temp/dataset/7/26_8.odb,Step-1,Increment      4: Step Time =    1.000,"PART-1-1",           326,       13.8481,       14.9635,            0.,NA,NA,"",       14.3156,       13.6716,      -4.24566,   395.816E-06
C:/temp/dataset/7/26_8.odb,Step-1,Increment      4: Step Time =    1.000,"PART-1-1",           327,       10.1008,       2.87074,            0.,NA,NA,"",       8.91217,       8.79262,      -1.45486,   12.9293E-03
C:/temp/dataset/7/26_8.odb,Step-1,Increment      4: Step Time =    1.000,"PART-1-1",           328,       9.07373,       1.83179,            0.,NA,NA,"",       8.49302,       8.44057,  -942.383E-03,   13.7293E-03
C:/temp/dataset/7/26_8.odb,Step-1,Increment      4: Step Time =    1.000,"PART-1-1",           329,       10.0520,   569.032E-03,            0.,NA,NA,"",       7.92188,       7.82731,      -1.22039,   12.8729E-03
C:/temp/dataset/7/26_8.odb,Step-1,Increment      4: Step Time =    1.000,"PART-1-1",           330,       11.0790,       1.60798,            0.,NA,NA,"",       8.35738,       8.17638,      -1.72991,   14.1460E-03
C:/temp/dataset/7/26_8.odb,Step-1,Increment      4: Step Time =    1.000,"PART-1-1",           331,       9.98138,      -1.74337,            0.,NA,NA,"",       6.95573,       6.88492,  -990.033E-03,   12.8766E-03
C:/temp/dataset/7/26_8.odb,Step-1,Increment      4: Step Time =    1.000,"PART-1-1",           332,       8.90931,      -2.66004,            0.,NA,NA,"",       6.61972,       6.60015,  -508.600E-03,   15.7019E-03
C:/temp/dataset/7/26_8.odb,Step-1,Increment      4: Step Time =    1.000,"PART-1-1",           333,       9.84458,      -4.07679,            0.,NA,NA,"",       6.01783,       5.97083,  -750.647E-03,   13.0560E-03
C:/temp/dataset/7/26_8.odb,Step-1,Increment      4: Step Time =    1.000,"PART-1-1",           334,       10.9167,      -3.16013,            0.,NA,NA,"",       6.37090,       6.25201,      -1.22501,   14.7306E-03
C:/temp/dataset/7/26_8.odb,Step-1,Increment      4: Step Time =    1.000,"PART-1-1",           335,            5.,      -3.95833,            0.,NA,NA,"",       6.50054,       6.41730,       1.03691,   44.2760E-03
C:/temp/dataset/7/26_8.odb,Step-1,Increment      4: Step Time =    1.000,"PART-1-1",           336,       6.75254,      -4.23112,            0.,NA,NA,"",       6.16433,       6.15159,   396.149E-03,   30.6237E-03
C:/temp/dataset/7/26_8.odb,Step-1,Increment      4: Step Time =    1.000,"PART-1-1",           337,       5.92661,      -3.07918,            0.,NA,NA,"",       6.71556,       6.68447,   645.517E-03,   34.2168E-03
C:/temp/dataset/7/26_8.odb,Step-1,Increment      4: Step Time =    1.000,"PART-1-1",           338,       7.06139,      -12.0396,            0.,NA,NA,"",       3.35385,       3.30765,   554.766E-03,   42.2148E-03
C:/temp/dataset/7/26_8.odb,Step-1,Increment      4: Step Time =    1.000,"PART-1-1",           339,       5.99095,      -11.1126,            0.,NA,NA,"",       3.78530,       3.68508,   865.262E-03,   53.6034E-03
C:/temp/dataset/7/26_8.odb,Step-1,Increment      4: Step Time =    1.000,"PART-1-1",           340,            5.,      -12.2917,            0.,NA,NA,"",       3.56432,       3.37004,       1.16068,   69.6039E-03
C:/temp/dataset/7/26_8.odb,Step-1,Increment      4: Step Time =    1.000,"PART-1-1",           341,       6.07044,      -13.2187,            0.,NA,NA,"",       3.11603,       2.99948,   844.257E-03,   57.7267E-03
C:/temp/dataset/7/26_8.odb,Step-1,Increment      4: Step Time =    1.000,"PART-1-1",           342,       6.63644,      -8.02271,            0.,NA,NA,"",       4.75674,       4.71911,   597.126E-03,   39.2075E-03
C:/temp/dataset/7/26_8.odb,Step-1,Increment      4: Step Time =    1.000,"PART-1-1",           343,            5.,        -8.125,            0.,NA,NA,"",       4.95105,       4.81484,       1.15338,   56.9017E-03
C:/temp/dataset/7/26_8.odb,Step-1,Increment      4: Step Time =    1.000,"PART-1-1",           344,       5.87092,      -9.06592,            0.,NA,NA,"",       4.48898,       4.40236,   877.588E-03,   49.8608E-03
C:/temp/dataset/7/26_8.odb,Step-1,Increment      4: Step Time =    1.000,"PART-1-1",           345,       13.0826,      -13.6930,            0.,NA,NA,"",       2.77147,       2.55120,      -1.08279,   44.2277E-03
C:/temp/dataset/7/26_8.odb,Step-1,Increment      4: Step Time =    1.000,"PART-1-1",           346,       14.0569,      -14.9678,            0.,NA,NA,"",       2.52066,       2.19096,      -1.24636,   61.1097E-03
C:/temp/dataset/7/26_8.odb,Step-1,Increment      4: Step Time =    1.000,"PART-1-1",           347,           15.,        -13.75,            0.,NA,NA,"",       2.99244,       2.50502,      -1.63693,   72.3070E-03
C:/temp/dataset/7/26_8.odb,Step-1,Increment      4: Step Time =    1.000,"PART-1-1",           348,       14.0257,      -12.4752,            0.,NA,NA,"",       3.23226,       2.87924,      -1.46883,   54.8802E-03
C:/temp/dataset/7/26_8.odb,Step-1,Increment      4: Step Time =    1.000,"PART-1-1",           349,       8.13738,      -21.6888,            0.,NA,NA,"",   844.474E-03,   800.843E-03,   267.932E-03,   40.7313E-03
C:/temp/dataset/7/26_8.odb,Step-1,Increment      4: Step Time =    1.000,"PART-1-1",           350,            5.,      -28.9583,            0.,NA,NA,"",   145.364E-03,   95.7568E-03,   109.368E-03,   120.032E-03
C:/temp/dataset/7/26_8.odb,Step-1,Increment      4: Step Time =    1.000,"PART-1-1",           351,          6.25,          -30.,            0.,NA,NA,"",            0.,   82.3389E-42,  -204.655E-42,   86.1784E-03
C:/temp/dataset/7/26_8.odb,Step-1,Increment      4: Step Time =    1.000,"PART-1-1",           352,       6.22347,      -27.8804,            0.,NA,NA,"",   189.885E-03,   111.047E-03,   154.029E-03,   89.6645E-03
C:/temp/dataset/7/26_8.odb,Step-1,Increment      4: Step Time =    1.000,"PART-1-1",           353,           15.,        -28.75,            0.,NA,NA,"",   156.238E-03,   93.4271E-03,  -125.227E-03,   112.807E-03
C:/temp/dataset/7/26_8.odb,Step-1,Increment      4: Step Time =    1.000,"PART-1-1",           354,       13.6900,      -27.4695,            0.,NA,NA,"",   200.737E-03,   102.170E-03,  -172.790E-03,   82.6958E-03
C:/temp/dataset/7/26_8.odb,Step-1,Increment      4: Step Time =    1.000,"PART-1-1",           355,       12.4400,      -28.7195,            0.,NA,NA,"",   49.9905E-03,   10.2315E-03,  -48.9322E-03,   47.0496E-03
C:/temp/dataset/7/26_8.odb,Step-1,Increment      4: Step Time =    1.000,"PART-1-1",           356,         13.75,          -30.,            0.,NA,NA,"",            0.,   22.3255E-42,   594.771E-42,   79.5457E-03
C:/temp/dataset/7/26_8.odb,Step-1,Increment      4: Step Time =    1.000,"PART-1-1",           357,       9.58617,      -22.6245,            0.,NA,NA,"",   609.326E-03,   607.316E-03,   49.4522E-03,   17.8337E-03
C:/temp/dataset/7/26_8.odb,Step-1,Increment      4: Step Time =    1.000,"PART-1-1",           358,       10.0221,      -21.0980,            0.,NA,NA,"",   861.902E-03,   861.458E-03,  -27.6787E-03,   14.0074E-03
C:/temp/dataset/7/26_8.odb,Step-1,Increment      4: Step Time =    1.000,"PART-1-1",           359,       8.57328,      -20.1623,            0.,NA,NA,"",       1.09931,       1.07797,   215.525E-03,   31.6496E-03
C:/temp/dataset/7/26_8.odb,Step-1,Increment      4: Step Time =    1.000,"PART-1-1",           360,       11.1406,      -27.5456,            0.,NA,NA,"",   69.2322E-03,   54.1533E-03,  -43.1337E-03,   25.6528E-03
C:/temp/dataset/7/26_8.odb,Step-1,Increment      4: Step Time =    1.000,"PART-1-1",           361,         11.25,          -30.,            0.,NA,NA,"",            0.,  -123.531E-42,   95.7942E-42,   23.6273E-03
C:/temp/dataset/7/26_8.odb,Step-1,Increment      4: Step Time =    1.000,"PART-1-1",           362,       11.2605,      -16.1933,            0.,NA,NA,"",       1.96957,       1.92021,  -438.185E-03,   21.9532E-03
C:/temp/dataset/7/26_8.odb,Step-1,Increment      4: Step Time =    1.000,"PART-1-1",           363,       10.2521,      -15.0492,            0.,NA,NA,"",       2.26487,       2.25229,  -238.428E-03,   12.9880E-03
C:/temp/dataset/7/26_8.odb,Step-1,Increment      4: Step Time =    1.000,"PART-1-1",           364,       9.32474,      -16.3084,            0.,NA,NA,"",       1.94844,       1.94823,   28.5073E-03,   18.6625E-03
C:/temp/dataset/7/26_8.odb,Step-1,Increment      4: Step Time =    1.000,"PART-1-1",           365,       10.3331,      -17.4526,            0.,NA,NA,"",       1.63956,       1.63056,  -171.593E-03,   13.1816E-03
C:/temp/dataset/7/26_8.odb,Step-1,Increment      4: Step Time =    1.000,"PART-1-1",           366,       7.44248,      -19.0256,            0.,NA,NA,"",       1.43249,       1.36274,   441.551E-03,   48.8510E-03
C:/temp/dataset/7/26_8.odb,Step-1,Increment      4: Step Time =    1.000,"PART-1-1",           367,       6.17612,      -17.5789,            0.,NA,NA,"",       1.91684,       1.76750,   741.766E-03,   66.6062E-03
C:/temp/dataset/7/26_8.odb,Step-1,Increment      4: Step Time =    1.000,"PART-1-1",           368,            5.,      -18.5417,            0.,NA,NA,"",       1.86508,       1.60113,   956.510E-03,   88.7433E-03
C:/temp/dataset/7/26_8.odb,Step-1,Increment      4: Step Time =    1.000,"PART-1-1",           369,       12.8407,      -6.03443,            0.,NA,NA,"",       5.31571,       5.04420,      -1.67715,   29.1199E-03
C:/temp/dataset/7/26_8.odb,Step-1,Increment      4: Step Time =    1.000,"PART-1-1",           370,           15.,         -6.25,            0.,NA,NA,"",       5.43964,       4.85539,      -2.45250,   50.1434E-03
C:/temp/dataset/7/26_8.odb,Step-1,Increment      4: Step Time =    1.000,"PART-1-1",           371,       13.9462,      -4.87251,            0.,NA,NA,"",       5.83889,       5.40702,      -2.20381,   36.5213E-03
C:/temp/dataset/7/26_8.odb,Step-1,Increment      4: Step Time =    1.000,"PART-1-1",           372,       7.64514,      -8.69832,            0.,NA,NA,"",       4.41144,       4.40218,   285.711E-03,   30.1872E-03
C:/temp/dataset/7/26_8.odb,Step-1,Increment      4: Step Time =    1.000,"PART-1-1",           373,       8.20020,      -7.75016,            0.,NA,NA,"",       4.70485,       4.70446,   60.3723E-03,   23.7118E-03
C:/temp/dataset/7/26_8.odb,Step-1,Increment      4: Step Time =    1.000,"PART-1-1",           374,       7.19150,      -7.07454,            0.,NA,NA,"",       5.03958,       5.02573,   373.393E-03,   31.8616E-03
C:/temp/dataset/7/26_8.odb,Step-1,Increment      4: Step Time =    1.000,"PART-1-1",           375,       7.97278,      -1.35169,            0.,NA,NA,"",       7.21170,       7.20747,  -247.161E-03,   18.2802E-03
C:/temp/dataset/7/26_8.odb,Step-1,Increment      4: Step Time =    1.000,"PART-1-1",           376,       9.01285,  -423.179E-03,            0.,NA,NA,"",       7.53691,       7.50202,  -724.342E-03,   14.4785E-03
C:/temp/dataset/7/26_8.odb,Step-1,Increment      4: Step Time =    1.000,"PART-1-1",           377,       8.04185,   850.611E-03,            0.,NA,NA,"",       8.12926,       8.11709,  -444.694E-03,   15.7694E-03
C:/temp/dataset/7/26_8.odb,Step-1,Increment      4: Step Time =    1.000,"PART-1-1",           378,       8.08837,       3.05311,            0.,NA,NA,"",       9.07327,       9.04992,  -650.530E-03,   13.7451E-03
C:/temp/dataset/7/26_8.odb,Step-1,Increment      4: Step Time =    1.000,"PART-1-1",           379,       9.11337,       4.08618,            0.,NA,NA,"",       9.47338,       9.40136,      -1.16588,   13.4425E-03
C:/temp/dataset/7/26_8.odb,Step-1,Increment      4: Step Time =    1.000,"PART-1-1",           380,       8.10868,       5.26217,            0.,NA,NA,"",       10.0416,       10.0046,  -860.573E-03,   12.8058E-03
C:/temp/dataset/7/26_8.odb,Step-1,Increment      4: Step Time =    1.000,"PART-1-1",           381,       7.08888,       6.39331,            0.,NA,NA,"",       10.6126,       10.5989,  -539.575E-03,   12.9188E-03
C:/temp/dataset/7/26_8.odb,Step-1,Increment      4: Step Time =    1.000,"PART-1-1",           382,            5.,       6.45833,            0.,NA,NA,"",       10.8453,       10.8397,   348.296E-03,   13.8770E-03
C:/temp/dataset/7/26_8.odb,Step-1,Increment      4: Step Time =    1.000,"PART-1-1",           383,           15.,         16.25,            0.,NA,NA,"",       14.9277,       14.1127,      -4.86491,   614.825E-06
C:/temp/dataset/7/26_8.odb,Step-1,Increment      4: Step Time =    1.000,"PART-1-1",           384,       13.6214,       17.6671,            0.,NA,NA,"",       15.4956,       14.8549,      -4.40982,   289.849E-06
C:/temp/dataset/7/26_8.odb,Step-1,Increment      4: Step Time =    1.000,"PART-1-1",           385,       12.4694,       16.3805,            0.,NA,NA,"",       14.9045,       14.4144,      -3.79099,   181.118E-06
C:/temp/dataset/7/26_8.odb,Step-1,Increment      4: Step Time =    1.000,"PART-1-1",           386,       10.0881,       9.74649,            0.,NA,NA,"",       11.9695,       11.7789,      -2.12742,   8.96494E-03
C:/temp/dataset/7/26_8.odb,Step-1,Increment      4: Step Time =    1.000,"PART-1-1",           387,       9.10561,       8.57814,            0.,NA,NA,"",       11.4751,       11.3632,      -1.59852,   11.5768E-03
C:/temp/dataset/7/26_8.odb,Step-1,Increment      4: Step Time =    1.000,"PART-1-1",           388,       10.1162,       7.46436,            0.,NA,NA,"",       10.9470,       10.7785,      -1.91337,   11.8858E-03
C:/temp/dataset/7/26_8.odb,Step-1,Increment      4: Step Time =    1.000,"PART-1-1",           389,       11.0986,       8.63272,            0.,NA,NA,"",       11.4594,       11.1958,      -2.44391,   9.67537E-03
C:/temp/dataset/7/26_8.odb,Step-1,Increment      4: Step Time =    1.000,"PART-1-1",           390,       9.96644,       19.4124,            0.,NA,NA,"",       16.2379,       15.9564,      -3.01055,   251.682E-06
C:/temp/dataset/7/26_8.odb,Step-1,Increment      4: Step Time =    1.000,"PART-1-1",           391,       10.9020,       20.3065,            0.,NA,NA,"",       16.6216,       16.2493,      -3.49815,   213.386E-06
C:/temp/dataset/7/26_8.odb,Step-1,Increment      4: Step Time =    1.000,"PART-1-1",           392,       10.1153,       21.2880,            0.,NA,NA,"",       17.0594,       16.7459,      -3.25572,   154.180E-06
C:/temp/dataset/7/26_8.odb,Step-1,Increment      4: Step Time =    1.000,"PART-1-1",           393,       9.17975,       20.3940,            0.,NA,NA,"",       16.6841,       16.4529,      -2.76822,   225.626E-06
C:/temp/dataset/7/26_8.odb,Step-1,Increment      4: Step Time =    1.000,"PART-1-1",           394,           15.,         28.75,            0.,NA,NA,"",       20.3970,       19.4729,      -6.07019,   283.872E-09
C:/temp/dataset/7/26_8.odb,Step-1,Increment      4: Step Time =    1.000,"PART-1-1",           395,       14.0625,           30.,            0.,NA,NA,"",       20.9162,       20.0992,      -5.78900,   742.780E-09
C:/temp/dataset/7/26_8.odb,Step-1,Increment      4: Step Time =    1.000,"PART-1-1",           396,       13.1487,       28.7914,            0.,NA,NA,"",       20.3658,       19.6693,      -5.28063,   3.29105E-06
C:/temp/dataset/7/26_8.odb,Step-1,Increment      4: Step Time =    1.000,"PART-1-1",           397,       14.0862,       27.5414,            0.,NA,NA,"",       19.8386,       19.0430,      -5.56183,   3.16699E-06
C:/temp/dataset/7/26_8.odb,Step-1,Increment      4: Step Time =    1.000,"PART-1-1",           398,       12.2440,       25.2848,            0.,NA,NA,"",       18.8132,       18.2536,      -4.55431,   28.4002E-06
C:/temp/dataset/7/26_8.odb,Step-1,Increment      4: Step Time =    1.000,"PART-1-1",           399,       13.1763,       26.3811,            0.,NA,NA,"",       19.3082,       18.6335,      -5.05979,   17.8653E-06
C:/temp/dataset/7/26_8.odb,Step-1,Increment      4: Step Time =    1.000,"PART-1-1",           400,       12.2376,       27.6217,            0.,NA,NA,"",       19.8396,       19.2559,      -4.77717,   8.61439E-06
C:/temp/dataset/7/26_8.odb,Step-1,Increment      4: Step Time =    1.000,"PART-1-1",           401,       11.3053,       26.5254,            0.,NA,NA,"",       19.3533,       18.8760,      -4.27169,   21.8210E-06
C:/temp/dataset/7/26_8.odb,Step-1,Increment      4: Step Time =    1.000,"PART-1-1",           402,       12.1875,           30.,            0.,NA,NA,"",       20.8839,       20.2802,      -4.98527,   1.25341E-06
C:/temp/dataset/7/26_8.odb,Step-1,Increment      4: Step Time =    1.000,"PART-1-1",           403,        6.5625,           30.,            0.,NA,NA,"",       20.9817,       20.8232,      -2.57405,   274.144E-09
C:/temp/dataset/7/26_8.odb,Step-1,Increment      4: Step Time =    1.000,"PART-1-1",           404,       5.40000,       28.6589,            0.,NA,NA,"",       20.4533,       20.3605,      -1.94627,   4.36206E-06
C:/temp/dataset/7/26_8.odb,Step-1,Increment      4: Step Time =    1.000,"PART-1-1",           405,       6.32063,       27.5176,            0.,NA,NA,"",       19.9078,       19.7824,      -2.23072,   9.39077E-06
C:/temp/dataset/7/26_8.odb,Step-1,Increment      4: Step Time =    1.000,"PART-1-1",           406,        2.8125,           30.,            0.,NA,NA,"",       21.2072,       21.1852,  -966.559E-03,   4.92546E-06
C:/temp/dataset/7/26_8.odb,Step-1,Increment      4: Step Time =    1.000,"PART-1-1",           407,       1.86631,       29.3706,            0.,NA,NA,"",       21.0127,       21.0067,  -500.198E-03,   3.48297E-06
C:/temp/dataset/7/26_8.odb,Step-1,Increment      4: Step Time =    1.000,"PART-1-1",           408,       2.52123,       28.3750,            0.,NA,NA,"",       20.5282,       20.5167,  -684.832E-03,   1.47242E-06
C:/temp/dataset/7/26_8.odb,Step-1,Increment      4: Step Time =    1.000,"PART-1-1",           409,       3.46742,       29.0044,            0.,NA,NA,"",       20.7272,       20.6952,      -1.15119,   2.85052E-06
C:/temp/dataset/7/26_8.odb,Step-1,Increment      4: Step Time =    1.000,"PART-1-1",           410,       1.19073,       28.4486,            0.,NA,NA,"",       20.6771,       20.6767,  -121.580E-03,   2.08698E-06
C:/temp/dataset/7/26_8.odb,Step-1,Increment      4: Step Time =    1.000,"PART-1-1",           411,      -2.48443,       27.9761,            0.,NA,NA,"",       20.8829,       20.8290,       1.49949,   1.22073E-06
C:/temp/dataset/7/26_8.odb,Step-1,Increment      4: Step Time =    1.000,"PART-1-1",           412,       -2.8125,           30.,            0.,NA,NA,"",       21.7762,       21.7282,       1.44473,   1.12232E-06
C:/temp/dataset/7/26_8.odb,Step-1,Increment      4: Step Time =    1.000,"PART-1-1",           413,      -7.28733,       29.0238,            0.,NA,NA,"",       22.0149,       21.7418,       3.45724,   84.5575E-09
C:/temp/dataset/7/26_8.odb,Step-1,Increment      4: Step Time =    1.000,"PART-1-1",           414,      -6.19423,       28.1363,            0.,NA,NA,"",       21.4770,       21.2558,       3.07434,   288.674E-09
C:/temp/dataset/7/26_8.odb,Step-1,Increment      4: Step Time =    1.000,"PART-1-1",           415,       -6.5625,           30.,            0.,NA,NA,"",       22.3002,       22.0903,       3.05228,   116.774E-09
C:/temp/dataset/7/26_8.odb,Step-1,Increment      4: Step Time =    1.000,"PART-1-1",           416,      -11.8079,       27.5253,            0.,NA,NA,"",       22.2370,       21.5359,       5.53978,   6.89163E-09
C:/temp/dataset/7/26_8.odb,Step-1,Increment      4: Step Time =    1.000,"PART-1-1",           417,      -12.6125,       26.1842,            0.,NA,NA,"",       21.8814,       21.0386,       6.01415,   9.01116E-09
C:/temp/dataset/7/26_8.odb,Step-1,Increment      4: Step Time =    1.000,"PART-1-1",           418,      -8.13992,       23.4434,            0.,NA,NA,"",       19.9153,       19.4319,       4.36147,   108.752E-09
C:/temp/dataset/7/26_8.odb,Step-1,Increment      4: Step Time =    1.000,"PART-1-1",           419,       -8.4375,           30.,            0.,NA,NA,"",       22.6026,       22.2713,       3.85605,   15.1030E-09
C:/temp/dataset/7/26_8.odb,Step-1,Increment      4: Step Time =    1.000,"PART-1-1",           420,      -8.00049,       27.9480,            0.,NA,NA,"",       21.6968,       21.3495,       3.86682,   111.609E-09
C:/temp/dataset/7/26_8.odb,Step-1,Increment      4: Step Time =    1.000,"PART-1-1",           421,      -12.1875,           30.,            0.,NA,NA,"",       23.2834,       22.6333,       5.46359,   18.1608E-09
C:/temp/dataset/7/26_8.odb,Step-1,Increment      4: Step Time =    1.000,"PART-1-1",           422,          -15.,         26.25,            0.,NA,NA,"",       22.4280,       21.2973,       7.03128,   19.0905E-09
C:/temp/dataset/7/26_8.odb,Step-1,Increment      4: Step Time =    1.000,"PART-1-1",           423,  -614.199E-03,       25.3895,            0.,NA,NA,"",       19.5626,       19.5396,   947.476E-03,   1.90218E-06
C:/temp/dataset/7/26_8.odb,Step-1,Increment      4: Step Time =    1.000,"PART-1-1",           424,      -1.97220,       26.8586,            0.,NA,NA,"",       20.3478,       20.3005,       1.38780,   1.41963E-06
C:/temp/dataset/7/26_8.odb,Step-1,Increment      4: Step Time =    1.000,"PART-1-1",           425,      -1.74113,       25.3247,            0.,NA,NA,"",       19.6732,       19.6206,       1.43683,   1.85605E-06
C:/temp/dataset/7/26_8.odb,Step-1,Increment      4: Step Time =    1.000,"PART-1-1",           426,       8.18659,       21.6045,            0.,NA,NA,"",       17.2438,       17.0675,      -2.45955,   137.469E-06
C:/temp/dataset/7/26_8.odb,Step-1,Increment      4: Step Time =    1.000,"PART-1-1",           427,       9.25192,       22.4602,            0.,NA,NA,"",       17.5891,       17.3316,      -2.99887,   118.388E-06
C:/temp/dataset/7/26_8.odb,Step-1,Increment      4: Step Time =    1.000,"PART-1-1",           428,       8.38526,       23.6138,            0.,NA,NA,"",       18.1179,       17.9097,      -2.73881,   61.3077E-06
C:/temp/dataset/7/26_8.odb,Step-1,Increment      4: Step Time =    1.000,"PART-1-1",           429,       7.31993,       22.7581,            0.,NA,NA,"",       17.7822,       17.6456,      -2.19954,   90.1580E-06
C:/temp/dataset/7/26_8.odb,Step-1,Increment      4: Step Time =    1.000,"PART-1-1",           430,           15.,         26.25,            0.,NA,NA,"",       19.3024,       18.4012,      -5.82887,   8.17861E-06
C:/temp/dataset/7/26_8.odb,Step-1,Increment      4: Step Time =    1.000,"PART-1-1",           431,        4.6875,           30.,            0.,NA,NA,"",       21.0786,       21.0042,      -1.77031,   3.54604E-06
C:/temp/dataset/7/26_8.odb,Step-1,Increment      4: Step Time =    1.000,"PART-1-1",           432,       9.38339,       24.5308,            0.,NA,NA,"",       18.4952,       18.2065,      -3.25523,   53.6890E-06
C:/temp/dataset/7/26_8.odb,Step-1,Increment      4: Step Time =    1.000,"PART-1-1",           433,       8.53172,       25.6694,            0.,NA,NA,"",       19.0149,       18.7767,      -3.00009,   26.4858E-06
C:/temp/dataset/7/26_8.odb,Step-1,Increment      4: Step Time =    1.000,"PART-1-1",           434,       7.53359,       24.7524,            0.,NA,NA,"",       18.6461,       18.4800,      -2.48369,   40.1354E-06
C:/temp/dataset/7/26_8.odb,Step-1,Increment      4: Step Time =    1.000,"PART-1-1",           435,     937.5E-03,           30.,            0.,NA,NA,"",       21.3668,       21.3662,  -162.800E-03,   4.02893E-06
C:/temp/dataset/7/26_8.odb,Step-1,Increment      4: Step Time =    1.000,"PART-1-1",           436,       5.64845,       26.5466,            0.,NA,NA,"",       19.5188,       19.4310,      -1.84885,   14.1419E-06
C:/temp/dataset/7/26_8.odb,Step-1,Increment      4: Step Time =    1.000,"PART-1-1",           437,       4.65082,       24.6490,            0.,NA,NA,"",       18.7548,       18.7139,      -1.23801,   19.2452E-06
C:/temp/dataset/7/26_8.odb,Step-1,Increment      4: Step Time =    1.000,"PART-1-1",           438,       5.82711,       24.9927,            0.,NA,NA,"",       18.8315,       18.7477,      -1.77542,   23.6840E-06
C:/temp/dataset/7/26_8.odb,Step-1,Increment      4: Step Time =    1.000,"PART-1-1",           439,      -3.57200,       27.5772,            0.,NA,NA,"",       20.8595,       20.7630,       2.00422,   848.565E-09
C:/temp/dataset/7/26_8.odb,Step-1,Increment      4: Step Time =    1.000,"PART-1-1",           440,      -3.05977,       26.4597,            0.,NA,NA,"",       20.3228,       20.2345,       1.89253,   1.15114E-06
C:/temp/dataset/7/26_8.odb,Step-1,Increment      4: Step Time =    1.000,"PART-1-1",           441,      -4.23358,       26.7178,            0.,NA,NA,"",       20.5953,       20.4584,       2.37079,   787.757E-09
C:/temp/dataset/7/26_8.odb,Step-1,Increment      4: Step Time =    1.000,"PART-1-1",           442,      -5.07335,       27.3652,            0.,NA,NA,"",       20.9873,       20.8170,       2.66828,   472.492E-09
C:/temp/dataset/7/26_8.odb,Step-1,Increment      4: Step Time =    1.000,"PART-1-1",           443,      -5.65848,       26.3267,            0.,NA,NA,"",       20.6503,       20.4284,       3.01937,   467.608E-09
C:/temp/dataset/7/26_8.odb,Step-1,Increment      4: Step Time =    1.000,"PART-1-1",           444,      -6.77936,       27.0978,            0.,NA,NA,"",       21.1464,       20.8671,       3.42542,   220.894E-09
C:/temp/dataset/7/26_8.odb,Step-1,Increment      4: Step Time =    1.000,"PART-1-1",           445,       13.0726,       6.26892,            0.,NA,NA,"",       10.4389,       9.98773,      -3.03588,   11.2778E-03
C:/temp/dataset/7/26_8.odb,Step-1,Increment      4: Step Time =    1.000,"PART-1-1",           446,       14.0382,       5.02867,            0.,NA,NA,"",       9.93884,       9.36996,      -3.31427,   13.7615E-03
C:/temp/dataset/7/26_8.odb,Step-1,Increment      4: Step Time =    1.000,"PART-1-1",           447,           15.,          6.25,            0.,NA,NA,"",       10.5358,       9.80311,      -3.86024,   12.3563E-03
C:/temp/dataset/7/26_8.odb,Step-1,Increment      4: Step Time =    1.000,"PART-1-1",           448,       14.0344,       7.49025,            0.,NA,NA,"",       11.0215,       10.4255,      -3.57532,   8.27396E-03
C:/temp/dataset/7/26_8.odb,Step-1,Increment      4: Step Time =    1.000,"PART-1-1",           449,            5.,       12.7083,            0.,NA,NA,"",       13.5801,       13.5778,  -250.131E-03,   6.69217E-03
C:/temp/dataset/7/26_8.odb,Step-1,Increment      4: Step Time =    1.000,"PART-1-1",           450,       6.97129,       12.7632,            0.,NA,NA,"",       13.4453,       13.4009,      -1.09214,   6.44714E-03
C:/temp/dataset/7/26_8.odb,Step-1,Increment      4: Step Time =    1.000,"PART-1-1",           451,       8.08110,       9.66220,            0.,NA,NA,"",       12.0080,       11.9406,      -1.27101,   10.7265E-03
C:/temp/dataset/7/26_8.odb,Step-1,Increment      4: Step Time =    1.000,"PART-1-1",           452,       8.10192,       7.46894,            0.,NA,NA,"",       11.0254,       10.9735,      -1.06872,   12.8644E-03
C:/temp/dataset/7/26_8.odb,Step-1,Increment      4: Step Time =    1.000,"PART-1-1",           453,            5.,        -1.875,            0.,NA,NA,"",       7.32455,       7.26386,   940.952E-03,   37.9856E-03
C:/temp/dataset/7/26_8.odb,Step-1,Increment      4: Step Time =    1.000,"PART-1-1",           454,       6.91011,      -2.19684,            0.,NA,NA,"",       6.95759,       6.95412,   219.513E-03,   25.6663E-03
C:/temp/dataset/7/26_8.odb,Step-1,Increment      4: Step Time =    1.000,"PART-1-1",           455,       11.0205,  -751.161E-03,            0.,NA,NA,"",       7.35746,       7.20673,      -1.48165,   14.5356E-03
C:/temp/dataset/7/26_8.odb,Step-1,Increment      4: Step Time =    1.000,"PART-1-1",           456,       13.1408,      -16.1676,            0.,NA,NA,"",       2.09972,       1.89509,  -904.122E-03,   49.2418E-03
C:/temp/dataset/7/26_8.odb,Step-1,Increment      4: Step Time =    1.000,"PART-1-1",           457,       14.0839,      -17.4497,            0.,NA,NA,"",       1.89292,       1.58716,      -1.03154,   67.2990E-03
C:/temp/dataset/7/26_8.odb,Step-1,Increment      4: Step Time =    1.000,"PART-1-1",           458,           15.,        -16.25,            0.,NA,NA,"",       2.32132,       1.86821,      -1.37780,   79.6065E-03
C:/temp/dataset/7/26_8.odb,Step-1,Increment      4: Step Time =    1.000,"PART-1-1",           459,            5.,       -14.375,            0.,NA,NA,"",       2.94323,       2.72122,       1.12141,   75.9866E-03
C:/temp/dataset/7/26_8.odb,Step-1,Increment      4: Step Time =    1.000,"PART-1-1",           460,       6.11916,      -15.3567,            0.,NA,NA,"",       2.49673,       2.36251,   807.593E-03,   62.2007E-03
C:/temp/dataset/7/26_8.odb,Step-1,Increment      4: Step Time =    1.000,"PART-1-1",           461,       13.0403,       1.40949,            0.,NA,NA,"",       8.32165,       7.93491,      -2.50738,   18.7210E-03
C:/temp/dataset/7/26_8.odb,Step-1,Increment      4: Step Time =    1.000,"PART-1-1",           462,       14.0142,   96.5788E-03,            0.,NA,NA,"",       7.82814,       7.32330,      -2.76568,   25.4253E-03
C:/temp/dataset/7/26_8.odb,Step-1,Increment      4: Step Time =    1.000,"PART-1-1",           463,           15.,          1.25,            0.,NA,NA,"",       8.39176,       7.71380,      -3.30436,   27.5964E-03
C:/temp/dataset/7/26_8.odb,Step-1,Increment      4: Step Time =    1.000,"PART-1-1",           464,       14.0261,       2.56291,            0.,NA,NA,"",       8.87034,       8.33288,      -3.04073,   19.5988E-03
C:/temp/dataset/7/26_8.odb,Step-1,Increment      4: Step Time =    1.000,"PART-1-1",           465,            5.,      -10.2083,            0.,NA,NA,"",       4.23503,       4.06988,       1.17115,   63.2389E-03
C:/temp/dataset/7/26_8.odb,Step-1,Increment      4: Step Time =    1.000,"PART-1-1",           466,       6.86187,      -9.97015,            0.,NA,NA,"",       4.05258,       4.01129,   577.061E-03,   40.6304E-03
C:/temp/dataset/7/26_8.odb,Step-1,Increment      4: Step Time =    1.000,"PART-1-1",           467,            5.,      -24.7917,            0.,NA,NA,"",   685.054E-03,   458.897E-03,   508.638E-03,   105.391E-03
C:/temp/dataset/7/26_8.odb,Step-1,Increment      4: Step Time =    1.000,"PART-1-1",           468,       6.13477,      -25.7685,            0.,NA,NA,"",   436.309E-03,   296.342E-03,   320.230E-03,   85.9068E-03
C:/temp/dataset/7/26_8.odb,Step-1,Increment      4: Step Time =    1.000,"PART-1-1",           469,       13.1299,      -20.9468,            0.,NA,NA,"",       1.03887,   875.037E-03,  -559.973E-03,   56.9554E-03
C:/temp/dataset/7/26_8.odb,Step-1,Increment      4: Step Time =    1.000,"PART-1-1",           470,       14.0295,      -22.3095,            0.,NA,NA,"",   903.460E-03,   665.761E-03,  -610.739E-03,   77.6860E-03
C:/temp/dataset/7/26_8.odb,Step-1,Increment      4: Step Time =    1.000,"PART-1-1",           471,           15.,        -21.25,            0.,NA,NA,"",       1.22531,   857.655E-03,  -875.103E-03,   94.1493E-03
C:/temp/dataset/7/26_8.odb,Step-1,Increment      4: Step Time =    1.000,"PART-1-1",           472,       14.1003,      -19.8873,            0.,NA,NA,"",       1.35927,       1.08030,  -824.960E-03,   73.2195E-03
C:/temp/dataset/7/26_8.odb,Step-1,Increment      4: Step Time =    1.000,"PART-1-1",           473,            5.,       -26.875,            0.,NA,NA,"",   402.860E-03,   244.463E-03,   320.209E-03,   110.839E-03
C:/temp/dataset/7/26_8.odb,Step-1,Increment      4: Step Time =    1.000,"PART-1-1",           474,       7.35824,      -26.7740,            0.,NA,NA,"",   226.942E-03,   156.936E-03,   163.932E-03,   63.1774E-03
C:/temp/dataset/7/26_8.odb,Step-1,Increment      4: Step Time =    1.000,"PART-1-1",           475,       11.2665,      -23.4125,            0.,NA,NA,"",   499.455E-03,   473.936E-03,  -157.606E-03,   25.9537E-03
C:/temp/dataset/7/26_8.odb,Step-1,Increment      4: Step Time =    1.000,"PART-1-1",           476,       10.8283,      -24.9299,            0.,NA,NA,"",   290.462E-03,   281.139E-03,  -73.0002E-03,   18.7303E-03
C:/temp/dataset/7/26_8.odb,Step-1,Increment      4: Step Time =    1.000,"PART-1-1",           477,            5.,      -16.4583,            0.,NA,NA,"",       2.37570,       2.12947,       1.05324,   82.3604E-03
C:/temp/dataset/7/26_8.odb,Step-1,Increment      4: Step Time =    1.000,"PART-1-1",           478,       7.29529,      -16.4772,            0.,NA,NA,"",       2.05506,       1.99157,   506.879E-03,   46.8775E-03
C:/temp/dataset/7/26_8.odb,Step-1,Increment      4: Step Time =    1.000,"PART-1-1",           479,            5.,       18.9583,            0.,NA,NA,"",       16.2621,       16.2404,  -838.887E-03,   509.740E-06
C:/temp/dataset/7/26_8.odb,Step-1,Increment      4: Step Time =    1.000,"PART-1-1",           480,       6.05050,       17.7875,            0.,NA,NA,"",       15.6814,       15.6372,      -1.17614,   384.770E-06
C:/temp/dataset/7/26_8.odb,Step-1,Increment      4: Step Time =    1.000,"PART-1-1",           481,       7.11573,       18.6629,            0.,NA,NA,"",       16.0021,       15.9098,      -1.71654,   305.138E-06
C:/temp/dataset/7/26_8.odb,Step-1,Increment      4: Step Time =    1.000,"PART-1-1",           482,       6.06524,       19.8338,            0.,NA,NA,"",       16.5704,       16.5129,      -1.37957,   199.587E-06
C:/temp/dataset/7/26_8.odb,Step-1,Increment      4: Step Time =    1.000,"PART-1-1",           483,       6.98524,       16.7251,            0.,NA,NA,"",       15.1641,       15.0924,      -1.47378,   323.584E-06
C:/temp/dataset/7/26_8.odb,Step-1,Increment      4: Step Time =    1.000,"PART-1-1",           484,            5.,        16.875,            0.,NA,NA,"",       15.3609,       15.3476,  -639.323E-03,   968.518E-06
C:/temp/dataset/7/26_8.odb,Step-1,Increment      4: Step Time =    1.000,"PART-1-1",           485,       7.88091,       13.8682,            0.,NA,NA,"",       13.8746,       13.7839,      -1.58389,   3.32037E-03
C:/temp/dataset/7/26_8.odb,Step-1,Increment      4: Step Time =    1.000,"PART-1-1",           486,       7.65947,       15.6945,            0.,NA,NA,"",       14.6811,       14.5866,      -1.66311,   712.213E-06
C:/temp/dataset/7/26_8.odb,Step-1,Increment      4: Step Time =    1.000,"PART-1-1",           487,       8.92157,       12.9075,            0.,NA,NA,"",       13.4080,       13.2673,      -1.93693,   4.42123E-03
C:/temp/dataset/7/26_8.odb,Step-1,Increment      4: Step Time =    1.000,"PART-1-1",           488,       9.98918,       11.9956,            0.,NA,NA,"",       12.9736,       12.7673,      -2.30438,   5.16854E-03
C:/temp/dataset/7/26_8.odb,Step-1,Increment      4: Step Time =    1.000,"PART-1-1",           489,       10.7968,       13.3004,            0.,NA,NA,"",       13.5396,       13.2521,      -2.77530,   2.79763E-03
C:/temp/dataset/7/26_8.odb,Step-1,Increment      4: Step Time =    1.000,"PART-1-1",           490,       13.0565,       8.69239,            0.,NA,NA,"",       11.5145,       11.0371,      -3.28135,   7.52654E-03
C:/temp/dataset/7/26_8.odb,Step-1,Increment      4: Step Time =    1.000,"PART-1-1",           491,           15.,          8.75,            0.,NA,NA,"",       11.6328,       10.8770,      -4.12447,   5.92712E-03
C:/temp/dataset/7/26_8.odb,Step-1,Increment      4: Step Time =    1.000,"PART-1-1",           492,       14.0220,       9.95215,            0.,NA,NA,"",       12.1107,       11.4909,      -3.82467,   3.89700E-03
C:/temp/dataset/7/26_8.odb,Step-1,Increment      4: Step Time =    1.000,"PART-1-1",           493,       8.15713,      -6.43409,            0.,NA,NA,"",       5.19290,       5.19289,   8.42399E-03,   22.9172E-03
C:/temp/dataset/7/26_8.odb,Step-1,Increment      4: Step Time =    1.000,"PART-1-1",           494,       7.55707,      -5.50995,            0.,NA,NA,"",       5.59096,       5.58834,   171.127E-03,   26.2470E-03
C:/temp/dataset/7/26_8.odb,Step-1,Increment      4: Step Time =    1.000,"PART-1-1",           495,       13.0039,      -1.03047,            0.,NA,NA,"",       7.29728,       6.94583,      -2.23735,   22.4142E-03
C:/temp/dataset/7/26_8.odb,Step-1,Increment      4: Step Time =    1.000,"PART-1-1",           496,       13.9897,      -2.37705,            0.,NA,NA,"",       6.81706,       6.34727,      -2.48686,   31.0968E-03
C:/temp/dataset/7/26_8.odb,Step-1,Increment      4: Step Time =    1.000,"PART-1-1",           497,           15.,         -1.25,            0.,NA,NA,"",       7.36416,       6.71661,      -3.01961,   35.2054E-03
C:/temp/dataset/7/26_8.odb,Step-1,Increment      4: Step Time =    1.000,"PART-1-1",           498,       11.0188,      -11.3444,            0.,NA,NA,"",       3.38297,       3.32109,  -644.040E-03,   17.5876E-03
C:/temp/dataset/7/26_8.odb,Step-1,Increment      4: Step Time =    1.000,"PART-1-1",           499,       9.94563,      -10.3262,            0.,NA,NA,"",       3.72137,       3.70255,  -373.823E-03,   13.0547E-03
C:/temp/dataset/7/26_8.odb,Step-1,Increment      4: Step Time =    1.000,"PART-1-1",           500,       9.07908,      -11.6768,            0.,NA,NA,"",       3.30759,       3.30725,  -47.2509E-03,   18.9391E-03
C:/temp/dataset/7/26_8.odb,Step-1,Increment      4: Step Time =    1.000,"PART-1-1",           501,       10.1523,      -12.6950,            0.,NA,NA,"",       2.95491,       2.93813,  -314.436E-03,   12.8739E-03
C:/temp/dataset/7/26_8.odb,Step-1,Increment      4: Step Time =    1.000,"PART-1-1",           502,       11.2699,       24.2837,            0.,NA,NA,"",       18.3683,       17.9185,      -4.04009,   58.7672E-06
C:/temp/dataset/7/26_8.odb,Step-1,Increment      4: Step Time =    1.000,"PART-1-1",           503,       12.1787,       22.9892,            0.,NA,NA,"",       17.8041,       17.2759,      -4.30473,   76.8700E-06
C:/temp/dataset/7/26_8.odb,Step-1,Increment      4: Step Time =    1.000,"PART-1-1",           504,           15.,         -3.75,            0.,NA,NA,"",       6.37752,       5.76138,      -2.73482,   42.7015E-03
C:/temp/dataset/7/26_8.odb,Step-1,Increment      4: Step Time =    1.000,"PART-1-1",           505,       12.9359,      -3.49956,            0.,NA,NA,"",       6.29683,       5.98416,      -1.95956,   25.9106E-03
C:/temp/dataset/7/26_8.odb,Step-1,Increment      4: Step Time =    1.000,"PART-1-1",           506,           15.,        -11.25,            0.,NA,NA,"",       3.74006,       3.21998,      -1.90257,   64.9745E-03
C:/temp/dataset/7/26_8.odb,Step-1,Increment      4: Step Time =    1.000,"PART-1-1",           507,       12.9838,      -11.1958,            0.,NA,NA,"",       3.52646,       3.29346,      -1.26055,   38.8448E-03
C:/temp/dataset/7/26_8.odb,Step-1,Increment      4: Step Time =    1.000,"PART-1-1",           508,           15.,         11.25,            0.,NA,NA,"",       12.7336,       11.9573,      -4.37791,   1.62271E-03
C:/temp/dataset/7/26_8.odb,Step-1,Increment      4: Step Time =    1.000,"PART-1-1",           509,       12.9950,       11.1325,            0.,NA,NA,"",       12.5975,       12.1009,      -3.50242,   4.05532E-03
C:/temp/dataset/7/26_8.odb,Step-1,Increment      4: Step Time =    1.000,"PART-1-1",           510,           15.,          3.75,            0.,NA,NA,"",       9.45203,       8.74544,      -3.58582,   19.8715E-03
C:/temp/dataset/7/26_8.odb,Step-1,Increment      4: Step Time =    1.000,"PART-1-1",           511,       13.0643,       3.84158,            0.,NA,NA,"",       9.37140,       8.95102,      -2.77532,   15.0122E-03
C:/temp/dataset/7/26_8.odb,Step-1,Increment      4: Step Time =    1.000,"PART-1-1",           512,           15.,        -18.75,            0.,NA,NA,"",       1.73150,       1.31675,      -1.12439,   86.8434E-03
C:/temp/dataset/7/26_8.odb,Step-1,Increment      4: Step Time =    1.000,"PART-1-1",           513,       13.1842,      -18.5870,            0.,NA,NA,"",       1.52482,       1.33605,  -734.888E-03,   54.0815E-03
C:/temp/dataset/7/26_8.odb,Step-1,Increment      4: Step Time =    1.000,"PART-1-1",           514,       13.5513,      -24.7801,            0.,NA,NA,"",   487.792E-03,   331.732E-03,  -357.623E-03,   72.6713E-03
C:/temp/dataset/7/26_8.odb,Step-1,Increment      4: Step Time =    1.000,"PART-1-1",           515,       12.2413,      -25.9996,            0.,NA,NA,"",   243.400E-03,   181.591E-03,  -162.075E-03,   46.5524E-03
C:/temp/dataset/7/26_8.odb,Step-1,Increment      4: Step Time =    1.000,"PART-1-1",           516,           15.,        -26.25,            0.,NA,NA,"",   454.438E-03,   246.665E-03,  -381.668E-03,   108.112E-03
C:/temp/dataset/7/26_8.odb,Step-1,Increment      4: Step Time =    1.000,"PART-1-1",           517,           15.,        -23.75,            0.,NA,NA,"",   801.588E-03,   498.633E-03,  -627.621E-03,   100.486E-03
C:/temp/dataset/7/26_8.odb,Step-1,Increment      4: Step Time =    1.000,"PART-1-1",           518,       12.5809,      -23.3397,            0.,NA,NA,"",   591.910E-03,   491.803E-03,  -329.374E-03,   50.2319E-03
C:/temp/dataset/7/26_8.odb,Step-1,Increment      4: Step Time =    1.000,"PART-1-1",           519,       9.49127,      -18.7202,            0.,NA,NA,"",       1.35920,       1.35873,   35.6023E-03,   17.7337E-03
C:/temp/dataset/7/26_8.odb,Step-1,Increment      4: Step Time =    1.000,"PART-1-1",           520,       8.36047,      -17.5836,            0.,NA,NA,"",       1.68370,       1.66304,   262.928E-03,   32.2294E-03
C:/temp/dataset/7/26_8.odb,Step-1,Increment      4: Step Time =    1.000,"PART-1-1",           521,       11.5260,      -20.5498,            0.,NA,NA,"",   991.277E-03,   945.438E-03,  -297.953E-03,   28.0933E-03
C:/temp/dataset/7/26_8.odb,Step-1,Increment      4: Step Time =    1.000,"PART-1-1",           522,       10.5221,      -19.7870,            0.,NA,NA,"",       1.11624,       1.10719,  -141.849E-03,   14.2635E-03
C:/temp/dataset/7/26_8.odb,Step-1,Increment      4: Step Time =    1.000,"PART-1-1",           523,       11.0260,      -21.8608,            0.,NA,NA,"",   734.859E-03,   715.071E-03,  -169.387E-03,   20.4259E-03
C:/temp/dataset/7/26_8.odb,Step-1,Increment      4: Step Time =    1.000,"PART-1-1",           524,       7.98010,      -10.7619,            0.,NA,NA,"",       3.67747,       3.66890,   250.943E-03,   29.3666E-03
C:/temp/dataset/7/26_8.odb,Step-1,Increment      4: Step Time =    1.000,"PART-1-1",           525,       8.65118,      -4.78401,            0.,NA,NA,"",       5.79033,       5.78427,  -264.964E-03,   18.1645E-03
C:/temp/dataset/7/26_8.odb,Step-1,Increment      4: Step Time =    1.000,"PART-1-1",           526,       7.84665,      -3.50518,            0.,NA,NA,"",       6.34837,       6.34816,  -51.5316E-03,   21.4115E-03
C:/temp/dataset/7/26_8.odb,Step-1,Increment      4: Step Time =    1.000,"PART-1-1",           527,       9.43586,      -6.49799,            0.,NA,NA,"",       5.09852,       5.08008,  -433.238E-03,   14.2920E-03
C:/temp/dataset/7/26_8.odb,Step-1,Increment      4: Step Time =    1.000,"PART-1-1",           528,       10.6293,      -5.79077,            0.,NA,NA,"",       5.34214,       5.26516,  -903.640E-03,   14.2147E-03
C:/temp/dataset/7/26_8.odb,Step-1,Increment      4: Step Time =    1.000,"PART-1-1",           529,       11.1144,       3.95682,            0.,NA,NA,"",       9.37916,       9.16836,      -1.97735,   13.5446E-03
C:/temp/dataset/7/26_8.odb,Step-1,Increment      4: Step Time =    1.000,"PART-1-1",           530,       10.1270,       5.17226,            0.,NA,NA,"",       9.92438,       9.77943,      -1.68997,   12.9171E-03
C:/temp/dataset/7/26_8.odb,Step-1,Increment      4: Step Time =    1.000,"PART-1-1",           531,       9.05317,       10.7826,            0.,NA,NA,"",       12.4622,       12.3330,      -1.78988,   8.16726E-03
C:/temp/dataset/7/26_8.odb,Step-1,Increment      4: Step Time =    1.000,"PART-1-1",           532,       8.01195,       11.8024,            0.,NA,NA,"",       12.9617,       12.8809,      -1.44495,   7.18298E-03
C:/temp/dataset/7/26_8.odb,Step-1,Increment      4: Step Time =    1.000,"PART-1-1",           533,       11.0241,       10.9595,            0.,NA,NA,"",       12.4991,       12.2163,      -2.64376,   6.12382E-03
C:/temp/dataset/7/26_8.odb,Step-1,Increment      4: Step Time =    1.000,"PART-1-1",           534,       8.35051,       17.3209,            0.,NA,NA,"",       15.3623,       15.2160,      -2.11572,   260.749E-06
C:/temp/dataset/7/26_8.odb,Step-1,Increment      4: Step Time =    1.000,"PART-1-1",           535,       12.5952,       19.1415,            0.,NA,NA,"",       16.1197,       15.5865,      -4.11184,   217.747E-06
C:/temp/dataset/7/26_8.odb,Step-1,Increment      4: Step Time =    1.000,"PART-1-1",           536,           15.,         18.75,            0.,NA,NA,"",       16.0212,       15.1859,      -5.10560,   382.858E-06
C:/temp/dataset/7/26_8.odb,Step-1,Increment      4: Step Time =    1.000,"PART-1-1",           537,      -7.03326,       22.4462,            0.,NA,NA,"",       19.3128,       18.8976,       3.98334,   225.437E-09
C:/temp/dataset/7/26_8.odb,Step-1,Increment      4: Step Time =    1.000,"PART-1-1",           538,      -8.48458,       21.3302,            0.,NA,NA,"",       19.1484,       18.5593,       4.71323,   47.0896E-09
C:/temp/dataset/7/26_8.odb,Step-1,Increment      4: Step Time =    1.000,"PART-1-1",           539,      -6.65000,           20.,            0.,NA,NA,"",       18.2677,       17.8120,       4.05521,   198.969E-09
C:/temp/dataset/7/26_8.odb,Step-1,Increment      4: Step Time =    1.000,"PART-1-1",           540,      -5.19869,       21.1160,            0.,NA,NA,"",       18.4524,       18.1503,       3.32532,   278.710E-09
C:/temp/dataset/7/26_8.odb,Step-1,Increment      4: Step Time =    1.000,"PART-1-1",           541,       9.42603,       26.6587,            0.,NA,NA,"",       19.4285,       19.1145,      -3.47896,   20.9882E-06
C:/temp/dataset/7/26_8.odb,Step-1,Increment      4: Step Time =    1.000,"PART-1-1",           542,       10.3720,       25.4897,            0.,NA,NA,"",       18.9022,       18.5221,      -3.77160,   29.7380E-06
C:/temp/dataset/7/26_8.odb,Step-1,Increment      4: Step Time =    1.000,"PART-1-1",           543,       6.87457,       25.7626,            0.,NA,NA,"",       19.1153,       18.9766,      -2.29874,   21.9682E-06
C:/temp/dataset/7/26_8.odb,Step-1,Increment      4: Step Time =    1.000,"PART-1-1",           544,       7.54675,       26.7337,            0.,NA,NA,"",       19.5130,       19.3280,      -2.68063,   18.4683E-06
C:/temp/dataset/7/26_8.odb,Step-1,Increment      4: Step Time =    1.000,"PART-1-1",           545,      -3.17643,       25.4018,            0.,NA,NA,"",       19.8976,       19.7922,       2.04467,   1.18988E-06
C:/temp/dataset/7/26_8.odb,Step-1,Increment      4: Step Time =    1.000,"PART-1-1",           546,      -4.35024,       25.6599,            0.,NA,NA,"",       20.1746,       20.0162,       2.52293,   752.283E-09
C:/temp/dataset/7/26_8.odb,Step-1,Increment      4: Step Time =    1.000,"PART-1-1",           547,       4.01884,       22.4610,            0.,NA,NA,"",       17.8529,       17.8369,  -755.911E-03,   22.5175E-06
C:/temp/dataset/7/26_8.odb,Step-1,Increment      4: Step Time =    1.000,"PART-1-1",           548,       5.32127,       23.1739,            0.,NA,NA,"",       18.0698,       18.0168,      -1.38301,   44.9637E-06
C:/temp/dataset/7/26_8.odb,Step-1,Increment      4: Step Time =    1.000,"PART-1-1",           549,       11.1447,       22.1526,            0.,NA,NA,"",       17.4320,       17.0171,      -3.78062,   126.936E-06
C:/temp/dataset/7/26_8.odb,Step-1,Increment      4: Step Time =    1.000,"PART-1-1",           550,       10.2813,       23.3249,            0.,NA,NA,"",       17.9521,       17.6029,      -3.52369,   74.2022E-06
C:/temp/dataset/7/26_8.odb,Step-1,Increment      4: Step Time =    1.000,"PART-1-1",           551,       6.15508,       21.9496,            0.,NA,NA,"",       17.4868,       17.4114,      -1.62221,   87.5761E-06
C:/temp/dataset/7/26_8.odb,Step-1,Increment      4: Step Time =    1.000,"PART-1-1",           552,       6.48612,       23.9825,            0.,NA,NA,"",       18.3560,       18.2510,      -1.96037,   41.0188E-06
C:/temp/dataset/7/26_8.odb,Step-1,Increment      4: Step Time =    1.000,"PART-1-1",           553,   6.30745E-03,       24.2683,            0.,NA,NA,"",       19.0155,       18.9991,   789.728E-03,   2.71414E-06
C:/temp/dataset/7/26_8.odb,Step-1,Increment      4: Step Time =    1.000,"PART-1-1",           554,      -1.65981,       23.6471,            0.,NA,NA,"",       18.9582,       18.8936,       1.56393,   1.68667E-06
C:/temp/dataset/7/26_8.odb,Step-1,Increment      4: Step Time =    1.000,"PART-1-1",           555,      -1.07768,       22.4355,            0.,NA,NA,"",       18.3739,       18.3181,       1.43135,   3.16755E-06
C:/temp/dataset/7/26_8.odb,Step-1,Increment      4: Step Time =    1.000,"PART-1-1",           556,   588.432E-03,       23.0567,            0.,NA,NA,"",       18.4352,       18.4235,   657.150E-03,   2.65681E-06
C:/temp/dataset/7/26_8.odb,Step-1,Increment      4: Step Time =    1.000,"PART-1-1",           557,      -4.82218,       24.5397,            0.,NA,NA,"",       19.7855,       19.5816,       2.83338,   703.695E-09
C:/temp/dataset/7/26_8.odb,Step-1,Increment      4: Step Time =    1.000,"PART-1-1",           558,      -3.09511,       23.7242,            0.,NA,NA,"",       19.1885,       19.0652,       2.17176,   1.24435E-06
C:/temp/dataset/7/26_8.odb,Step-1,Increment      4: Step Time =    1.000,"PART-1-1",           559,      -5.58708,       23.2486,            0.,NA,NA,"",       19.3825,       19.1019,       3.28594,   428.219E-09
C:/temp/dataset/7/26_8.odb,Step-1,Increment      4: Step Time =    1.000,"PART-1-1",           560,       8.76337,      -9.49006,            0.,NA,NA,"",       4.05243,       4.05220,  -42.8587E-03,   20.3613E-03
C:/temp/dataset/7/26_8.odb,Step-1,Increment      4: Step Time =    1.000,"PART-1-1",           561,       9.72759,      -26.4759,            0.,NA,NA,"",   136.276E-03,   134.110E-03,   24.2012E-03,   17.6924E-03
C:/temp/dataset/7/26_8.odb,Step-1,Increment      4: Step Time =    1.000,"PART-1-1",           562,       9.12173,       6.33780,            0.,NA,NA,"",       10.4715,       10.3794,      -1.38614,   13.2182E-03
C:/temp/dataset/7/26_8.odb,Step-1,Increment      4: Step Time =    1.000,"PART-1-1",           563,       11.1214,       6.29882,            0.,NA,NA,"",       10.4165,       10.1777,      -2.21740,   12.2464E-03
C:/temp/dataset/7/26_8.odb,Step-1,Increment      4: Step Time =    1.000,"PART-1-1",           564,       11.1740,      -13.7880,            0.,NA,NA,"",       2.63264,       2.57597,  -543.335E-03,   19.9180E-03
C:/temp/dataset/7/26_8.odb,Step-1,Increment      4: Step Time =    1.000,"PART-1-1",           565,       10.6612,      -8.65022,            0.,NA,NA,"",       4.29229,       4.23370,  -706.763E-03,   14.8196E-03
C:/temp/dataset/7/26_8.odb,Step-1,Increment      4: Step Time =    1.000,"PART-1-1",           566,       9.47894,      -7.81405,            0.,NA,NA,"",       4.61209,       4.59754,  -366.134E-03,   14.5611E-03
C:/temp/dataset/7/26_8.odb,Step-1,Increment      4: Step Time =    1.000,"PART-1-1",           567,       11.3640,      -18.5194,            0.,NA,NA,"",       1.40855,       1.36367,  -352.705E-03,   24.4634E-03
C:/temp/dataset/7/26_8.odb,Step-1,Increment      4: Step Time =    1.000,"PART-1-1",           568,       12.0025,       20.7886,            0.,NA,NA,"",       16.8359,       16.3497,      -4.01669,   162.224E-06
C:/temp/dataset/7/26_8.odb,Step-1,Increment      4: Step Time =    1.000,"PART-1-1",           569,       11.4947,       18.6594,            0.,NA,NA,"",       15.8975,       15.4862,      -3.59313,   219.671E-06
C:/temp/dataset/7/26_8.odb,Step-1,Increment      4: Step Time =    1.000,"PART-1-1",           570,       9.39315,       18.1618,            0.,NA,NA,"",       15.7000,       15.4758,      -2.64381,   279.608E-06
C:/temp/dataset/7/26_8.odb,Step-1,Increment      4: Step Time =    1.000,"PART-1-1",           571,       10.9214,       17.4088,            0.,NA,NA,"",       15.3484,       15.0054,      -3.22627,   271.761E-06
C:/temp/dataset/7/26_8.odb,Step-1,Increment      4: Step Time =    1.000,"PART-1-1",           572,      -9.97500,           20.,            0.,NA,NA,"",       18.9431,       18.1330,       5.48056,   31.8985E-09
C:/temp/dataset/7/26_8.odb,Step-1,Increment      4: Step Time =    1.000,"PART-1-1",           573,       11.9818,      -2.09472,            0.,NA,NA,"",       6.81906,       6.59607,      -1.72957,   18.3571E-03
C:/temp/dataset/7/26_8.odb,Step-1,Increment      4: Step Time =    1.000,"PART-1-1",           574,       12.0426,   313.093E-03,            0.,NA,NA,"",       7.81969,       7.56228,      -1.98983,   16.5222E-03
C:/temp/dataset/7/26_8.odb,Step-1,Increment      4: Step Time =    1.000,"PART-1-1",           575,       12.1686,      -14.9632,            0.,NA,NA,"",       2.34165,       2.22200,  -738.942E-03,   33.0270E-03
C:/temp/dataset/7/26_8.odb,Step-1,Increment      4: Step Time =    1.000,"PART-1-1",           576,       12.0880,      -12.5178,            0.,NA,NA,"",       3.05020,       2.91916,  -884.417E-03,   29.3641E-03
C:/temp/dataset/7/26_8.odb,Step-1,Increment      4: Step Time =    1.000,"PART-1-1",           577,       12.0767,       2.70437,            0.,NA,NA,"",       8.84424,       8.55417,      -2.24651,   14.6324E-03
C:/temp/dataset/7/26_8.odb,Step-1,Increment      4: Step Time =    1.000,"PART-1-1",           578,       11.6617,       14.7036,            0.,NA,NA,"",       14.1578,       13.7722,      -3.28185,   965.610E-06
C:/temp/dataset/7/26_8.odb,Step-1,Increment      4: Step Time =    1.000,"PART-1-1",           579,       11.9561,       12.2406,            0.,NA,NA,"",       13.0708,       12.6812,      -3.16752,   3.29337E-03
C:/temp/dataset/7/26_8.odb,Step-1,Increment      4: Step Time =    1.000,"PART-1-1",           580,       12.3155,      -19.7087,            0.,NA,NA,"",       1.20694,       1.10529,  -484.813E-03,   40.7160E-03
C:/temp/dataset/7/26_8.odb,Step-1,Increment      4: Step Time =    1.000,"PART-1-1",           581,       12.3404,      -21.7879,            0.,NA,NA,"",   817.667E-03,   725.625E-03,  -376.893E-03,   43.4767E-03
C:/temp/dataset/7/26_8.odb,Step-1,Increment      4: Step Time =    1.000,"PART-1-1",           582,       12.2327,      -17.3977,            0.,NA,NA,"",       1.71680,       1.60803,  -601.350E-03,   36.6287E-03
C:/temp/dataset/7/26_8.odb,Step-1,Increment      4: Step Time =    1.000,"PART-1-1",           583,       12.1020,       5.09402,            0.,NA,NA,"",       9.89153,       9.56934,      -2.50404,   12.5985E-03
C:/temp/dataset/7/26_8.odb,Step-1,Increment      4: Step Time =    1.000,"PART-1-1",           584,       12.0630,       9.85139,            0.,NA,NA,"",       12.0090,       11.6345,      -2.97561,   6.63206E-03
C:/temp/dataset/7/26_8.odb,Step-1,Increment      4: Step Time =    1.000,"PART-1-1",           585,       12.0921,       7.47372,            0.,NA,NA,"",       10.9484,       10.5985,      -2.74598,   9.98202E-03
C:/temp/dataset/7/26_8.odb,Step-1,Increment      4: Step Time =    1.000,"PART-1-1",           586,       11.9146,      -10.0225,            0.,NA,NA,"",       3.84593,       3.70933,      -1.01593,   24.9237E-03
C:/temp/dataset/7/26_8.odb,Step-1,Increment      4: Step Time =    1.000,"PART-1-1",           587,       11.5993,      -7.26023,            0.,NA,NA,"",       4.80584,       4.67147,      -1.12849,   19.8828E-03
C:/temp/dataset/7/26_8.odb,Step-1,Increment      4: Step Time =    1.000,"PART-1-1",           588,       11.8707,      -4.56496,            0.,NA,NA,"",       5.83171,       5.64669,      -1.45728,   19.9011E-03
C:/temp/dataset/7/26_8.odb,Step-1,Increment      4: Step Time =    1.000,"PART-1-1",           589,      -3.86001,       22.4330,            0.,NA,NA,"",       18.7699,       18.5856,       2.62432,   1.17854E-06
C:/temp/dataset/7/26_8.odb,Step-1,Increment      4: Step Time =    1.000,"PART-1-1",           590,       3.35000,           20.,            0.,NA,NA,"",       16.8481,       16.8465,  -231.578E-03,   36.8817E-06
C:/temp/dataset/7/26_8.odb,Step-1,Increment      4: Step Time =    1.000,"PART-1-1",           591,       5.05511,       21.0689,            0.,NA,NA,"",       17.1732,       17.1401,      -1.06579,   108.702E-06
C:/temp/dataset/7/26_8.odb,Step-1,Increment      4: Step Time =    1.000,"PART-1-1",           592,       2.31373,       21.3921,            0.,NA,NA,"",       17.5435,       17.5433,   78.2532E-03,   15.0731E-06
C:/temp/dataset/7/26_8.odb,Step-1,Increment      4: Step Time =    1.000,"PART-1-1",           593,      -1.98632,       21.3170,            0.,NA,NA,"",       18.0297,       17.9263,       1.92886,   1.47468E-06
C:/temp/dataset/7/26_8.odb,Step-1,Increment      4: Step Time =    1.000,"PART-1-1",           594,   25.0000E-03,           20.,            0.,NA,NA,"",       17.2090,       17.1675,       1.19379,   5.45543E-06
C:/temp/dataset/7/26_8.odb,Step-1,Increment      4: Step Time =    1.000,"PART-1-1",           595,   933.640E-03,       21.1186,            0.,NA,NA,"",       17.5731,       17.5593,   696.286E-03,   3.35125E-06
C:/temp/dataset/7/26_8.odb,Step-1,Increment      4: Step Time =    1.000,"PART-1-1",           596,       7.16521,       20.7144,            0.,NA,NA,"",       16.8957,       16.7844,      -1.93584,   208.340E-06
C:/temp/dataset/7/26_8.odb,Step-1,Increment      4: Step Time =    1.000,"PART-1-1",           597,       8.15837,       19.5039,            0.,NA,NA,"",       16.3248,       16.1698,      -2.24443,   246.315E-06
C:/temp/dataset/7/26_8.odb,Step-1,Increment      4: Step Time =    1.000,"PART-1-1",           598,      -3.32500,           20.,            0.,NA,NA,"",       17.6875,       17.4909,       2.62986,   909.330E-09
