ODB Name,Step,Frame,Part Instance Name,    êﬂì_ÉâÉxÉã,X,Y,Z,Section Name,Material Name,Section Point,   U-Magnitude,          U-U1,          U-U2,       S-Mises
C:/temp/dataset/7/28_7.odb,Step-1,Increment      1: Step Time =    1.000,"PART-1-1",             1,          -15.,           20.,            0.,NA,NA,"",       9.21967,       8.31030,       3.99266,   146.736E-09
C:/temp/dataset/7/28_7.odb,Step-1,Increment      1: Step Time =    1.000,"PART-1-1",             2,          -15.,           25.,            0.,NA,NA,"",       10.0322,       9.24084,       3.90531,   139.404E-09
C:/temp/dataset/7/28_7.odb,Step-1,Increment      1: Step Time =    1.000,"PART-1-1",             3,      -11.6500,           20.,            0.,NA,NA,"",       8.91309,       8.25177,       3.36920,   147.695E-09
C:/temp/dataset/7/28_7.odb,Step-1,Increment      1: Step Time =    1.000,"PART-1-1",             4,      -8.30000,           20.,            0.,NA,NA,"",       8.64108,       8.19324,       2.74574,   149.634E-09
C:/temp/dataset/7/28_7.odb,Step-1,Increment      1: Step Time =    1.000,"PART-1-1",             5,           -5.,           20.,            0.,NA,NA,"",       8.41020,       8.13559,       2.13158,   151.150E-09
C:/temp/dataset/7/28_7.odb,Step-1,Increment      1: Step Time =    1.000,"PART-1-1",             6,      -1.65000,           20.,            0.,NA,NA,"",       8.21665,       8.07706,       1.50811,   155.787E-09
C:/temp/dataset/7/28_7.odb,Step-1,Increment      1: Step Time =    1.000,"PART-1-1",             7,       1.70000,           20.,            0.,NA,NA,"",       8.06719,       8.01854,   884.651E-03,   220.690E-09
C:/temp/dataset/7/28_7.odb,Step-1,Increment      1: Step Time =    1.000,"PART-1-1",             8,            5.,           20.,            0.,NA,NA,"",       7.96548,       7.96088,   270.495E-03,   754.793E-09
C:/temp/dataset/7/28_7.odb,Step-1,Increment      1: Step Time =    1.000,"PART-1-1",             9,            5.,         13.75,            0.,NA,NA,"",       6.80827,       6.79768,   379.702E-03,   2.21002E-06
C:/temp/dataset/7/28_7.odb,Step-1,Increment      1: Step Time =    1.000,"PART-1-1",            10,            5.,           7.5,            0.,NA,NA,"",       5.65541,       5.63427,   488.548E-03,   248.280E-06
C:/temp/dataset/7/28_7.odb,Step-1,Increment      1: Step Time =    1.000,"PART-1-1",            11,            5.,          1.25,            0.,NA,NA,"",       4.52025,       4.48161,   589.764E-03,   3.92160E-03
C:/temp/dataset/7/28_7.odb,Step-1,Increment      1: Step Time =    1.000,"PART-1-1",            12,            5.,           -5.,            0.,NA,NA,"",       3.36289,       3.29159,   688.835E-03,   9.88245E-03
C:/temp/dataset/7/28_7.odb,Step-1,Increment      1: Step Time =    1.000,"PART-1-1",            13,            5.,        -11.25,            0.,NA,NA,"",       2.22165,       2.10796,   701.586E-03,   24.9780E-03
C:/temp/dataset/7/28_7.odb,Step-1,Increment      1: Step Time =    1.000,"PART-1-1",            14,            5.,         -17.5,            0.,NA,NA,"",       1.24836,       1.09715,   595.545E-03,   41.4070E-03
C:/temp/dataset/7/28_7.odb,Step-1,Increment      1: Step Time =    1.000,"PART-1-1",            15,            5.,        -23.75,            0.,NA,NA,"",   516.439E-03,   372.020E-03,   358.204E-03,   57.7869E-03
C:/temp/dataset/7/28_7.odb,Step-1,Increment      1: Step Time =    1.000,"PART-1-1",            16,            5.,          -30.,            0.,NA,NA,"",            0.,   23.7196E-39,   44.4907E-39,   86.6795E-03
C:/temp/dataset/7/28_7.odb,Step-1,Increment      1: Step Time =    1.000,"PART-1-1",            17,           15.,          -30.,            0.,NA,NA,"",            0.,   23.0586E-39,  -42.0827E-39,   82.1504E-03
C:/temp/dataset/7/28_7.odb,Step-1,Increment      1: Step Time =    1.000,"PART-1-1",            18,           15.,         -22.5,            0.,NA,NA,"",   624.645E-03,   444.621E-03,  -438.741E-03,   53.7418E-03
C:/temp/dataset/7/28_7.odb,Step-1,Increment      1: Step Time =    1.000,"PART-1-1",            19,           15.,          -15.,            0.,NA,NA,"",       1.58102,       1.36649,  -795.189E-03,   34.1886E-03
C:/temp/dataset/7/28_7.odb,Step-1,Increment      1: Step Time =    1.000,"PART-1-1",            20,           15.,          -7.5,            0.,NA,NA,"",       2.84765,       2.63920,      -1.06946,   13.9965E-03
C:/temp/dataset/7/28_7.odb,Step-1,Increment      1: Step Time =    1.000,"PART-1-1",            21,           15.,            0.,            0.,NA,NA,"",       4.24210,       4.05586,      -1.24316,   124.723E-06
C:/temp/dataset/7/28_7.odb,Step-1,Increment      1: Step Time =    1.000,"PART-1-1",            22,           15.,           7.5,            0.,NA,NA,"",       5.62981,       5.45992,      -1.37258,   214.614E-06
C:/temp/dataset/7/28_7.odb,Step-1,Increment      1: Step Time =    1.000,"PART-1-1",            23,           15.,           15.,            0.,NA,NA,"",       7.01852,       6.85565,      -1.50323,   1.64603E-06
C:/temp/dataset/7/28_7.odb,Step-1,Increment      1: Step Time =    1.000,"PART-1-1",            24,           15.,          22.5,            0.,NA,NA,"",       8.41173,       8.25145,      -1.63427,   410.151E-09
C:/temp/dataset/7/28_7.odb,Step-1,Increment      1: Step Time =    1.000,"PART-1-1",            25,           15.,           30.,            0.,NA,NA,"",       9.80744,       9.64726,      -1.76530,   111.921E-09
C:/temp/dataset/7/28_7.odb,Step-1,Increment      1: Step Time =    1.000,"PART-1-1",            26,         11.25,           30.,            0.,NA,NA,"",       9.77125,       9.71277,      -1.06739,   85.8409E-09
C:/temp/dataset/7/28_7.odb,Step-1,Increment      1: Step Time =    1.000,"PART-1-1",            27,           7.5,           30.,            0.,NA,NA,"",       9.78527,       9.77829,  -369.485E-03,   91.1853E-09
C:/temp/dataset/7/28_7.odb,Step-1,Increment      1: Step Time =    1.000,"PART-1-1",            28,          3.75,           30.,            0.,NA,NA,"",       9.84928,       9.84381,   328.422E-03,   99.5049E-09
C:/temp/dataset/7/28_7.odb,Step-1,Increment      1: Step Time =    1.000,"PART-1-1",            29,            0.,           30.,            0.,NA,NA,"",       9.96233,       9.90932,       1.02633,   112.000E-09
C:/temp/dataset/7/28_7.odb,Step-1,Increment      1: Step Time =    1.000,"PART-1-1",            30,         -3.75,           30.,            0.,NA,NA,"",       10.1228,       9.97484,       1.72424,   120.605E-09
C:/temp/dataset/7/28_7.odb,Step-1,Increment      1: Step Time =    1.000,"PART-1-1",            31,          -7.5,           30.,            0.,NA,NA,"",       10.3284,       10.0404,       2.42214,   128.880E-09
C:/temp/dataset/7/28_7.odb,Step-1,Increment      1: Step Time =    1.000,"PART-1-1",            32,        -11.25,           30.,            0.,NA,NA,"",       10.5765,       10.1059,       3.12005,   136.203E-09
C:/temp/dataset/7/28_7.odb,Step-1,Increment      1: Step Time =    1.000,"PART-1-1",            33,          -15.,           30.,            0.,NA,NA,"",       10.8643,       10.1714,       3.81796,   149.033E-09
C:/temp/dataset/7/28_7.odb,Step-1,Increment      1: Step Time =    1.000,"PART-1-1",            34,          -15.,          22.5,            0.,NA,NA,"",       9.62315,       8.77557,       3.94899,   137.833E-09
C:/temp/dataset/7/28_7.odb,Step-1,Increment      1: Step Time =    1.000,"PART-1-1",            35,            5.,       15.8333,            0.,NA,NA,"",       7.19362,       7.18542,   343.299E-03,   2.39852E-06
C:/temp/dataset/7/28_7.odb,Step-1,Increment      1: Step Time =    1.000,"PART-1-1",            36,            5.,       17.9167,            0.,NA,NA,"",       7.57937,       7.57316,   306.895E-03,   2.02640E-06
C:/temp/dataset/7/28_7.odb,Step-1,Increment      1: Step Time =    1.000,"PART-1-1",            37,            5.,       9.58333,            0.,NA,NA,"",       6.03906,       6.02209,   452.412E-03,   85.0748E-06
C:/temp/dataset/7/28_7.odb,Step-1,Increment      1: Step Time =    1.000,"PART-1-1",            38,            5.,       11.6667,            0.,NA,NA,"",       6.42339,       6.40990,   416.092E-03,   21.9253E-06
C:/temp/dataset/7/28_7.odb,Step-1,Increment      1: Step Time =    1.000,"PART-1-1",            39,            5.,       3.33333,            0.,NA,NA,"",       4.89250,       4.86050,   558.663E-03,   1.61653E-03
C:/temp/dataset/7/28_7.odb,Step-1,Increment      1: Step Time =    1.000,"PART-1-1",            40,            5.,       5.41667,            0.,NA,NA,"",       5.27283,       5.24672,   524.101E-03,   594.793E-06
C:/temp/dataset/7/28_7.odb,Step-1,Increment      1: Step Time =    1.000,"PART-1-1",            41,            5.,      -2.91667,            0.,NA,NA,"",       3.76070,       3.70261,   658.459E-03,   7.90582E-03
C:/temp/dataset/7/28_7.odb,Step-1,Increment      1: Step Time =    1.000,"PART-1-1",            42,            5.,  -833.333E-03,            0.,NA,NA,"",       4.14746,       4.10007,   625.187E-03,   6.85905E-03
C:/temp/dataset/7/28_7.odb,Step-1,Increment      1: Step Time =    1.000,"PART-1-1",            43,            5.,      -9.16667,            0.,NA,NA,"",       2.58621,       2.48695,   709.620E-03,   19.8257E-03
C:/temp/dataset/7/28_7.odb,Step-1,Increment      1: Step Time =    1.000,"PART-1-1",            44,            5.,      -7.08333,            0.,NA,NA,"",       2.96576,       2.88073,   705.057E-03,   15.1128E-03
C:/temp/dataset/7/28_7.odb,Step-1,Increment      1: Step Time =    1.000,"PART-1-1",            45,            5.,      -15.4167,            0.,NA,NA,"",       1.54945,       1.40870,   645.251E-03,   35.8571E-03
C:/temp/dataset/7/28_7.odb,Step-1,Increment      1: Step Time =    1.000,"PART-1-1",            46,            5.,      -13.3333,            0.,NA,NA,"",       1.87498,       1.74716,   680.433E-03,   30.3521E-03
C:/temp/dataset/7/28_7.odb,Step-1,Increment      1: Step Time =    1.000,"PART-1-1",            47,            5.,      -21.6667,            0.,NA,NA,"",   730.398E-03,   573.783E-03,   451.945E-03,   52.4855E-03
C:/temp/dataset/7/28_7.odb,Step-1,Increment      1: Step Time =    1.000,"PART-1-1",            48,            5.,      -19.5833,            0.,NA,NA,"",   974.613E-03,   817.296E-03,   530.942E-03,   47.1592E-03
C:/temp/dataset/7/28_7.odb,Step-1,Increment      1: Step Time =    1.000,"PART-1-1",            49,            5.,      -27.9167,            0.,NA,NA,"",   170.726E-03,   103.997E-03,   135.396E-03,   70.2693E-03
C:/temp/dataset/7/28_7.odb,Step-1,Increment      1: Step Time =    1.000,"PART-1-1",            50,            5.,      -25.8333,            0.,NA,NA,"",   330.967E-03,   214.886E-03,   251.720E-03,   61.5875E-03
C:/temp/dataset/7/28_7.odb,Step-1,Increment      1: Step Time =    1.000,"PART-1-1",            51,          12.5,          -30.,            0.,NA,NA,"",            0.,   42.2743E-39,  -93.4510E-39,   23.9963E-03
C:/temp/dataset/7/28_7.odb,Step-1,Increment      1: Step Time =    1.000,"PART-1-1",            52,           10.,          -30.,            0.,NA,NA,"",            0.,  -9.97830E-39,   2.94522E-39,   4.38676E-03
C:/temp/dataset/7/28_7.odb,Step-1,Increment      1: Step Time =    1.000,"PART-1-1",            53,           7.5,          -30.,            0.,NA,NA,"",            0.,   9.92323E-39,   96.1511E-39,   24.7326E-03
C:/temp/dataset/7/28_7.odb,Step-1,Increment      1: Step Time =    1.000,"PART-1-1",            54,           15.,          -25.,            0.,NA,NA,"",   389.843E-03,   245.309E-03,  -302.986E-03,   59.3388E-03
C:/temp/dataset/7/28_7.odb,Step-1,Increment      1: Step Time =    1.000,"PART-1-1",            55,           15.,         -27.5,            0.,NA,NA,"",   193.308E-03,   109.632E-03,  -159.213E-03,   69.4367E-03
C:/temp/dataset/7/28_7.odb,Step-1,Increment      1: Step Time =    1.000,"PART-1-1",            56,           15.,         -17.5,            0.,NA,NA,"",       1.22118,       1.01110,  -684.801E-03,   40.7340E-03
C:/temp/dataset/7/28_7.odb,Step-1,Increment      1: Step Time =    1.000,"PART-1-1",            57,           15.,          -20.,            0.,NA,NA,"",   901.445E-03,   701.582E-03,  -566.026E-03,   47.1882E-03
C:/temp/dataset/7/28_7.odb,Step-1,Increment      1: Step Time =    1.000,"PART-1-1",            58,           15.,          -10.,            0.,NA,NA,"",       2.40079,       2.18778,  -988.657E-03,   20.8233E-03
C:/temp/dataset/7/28_7.odb,Step-1,Increment      1: Step Time =    1.000,"PART-1-1",            59,           15.,         -12.5,            0.,NA,NA,"",       1.97621,       1.76101,  -896.785E-03,   27.5773E-03
C:/temp/dataset/7/28_7.odb,Step-1,Increment      1: Step Time =    1.000,"PART-1-1",            60,           15.,          -2.5,            0.,NA,NA,"",       3.77557,       3.58145,      -1.19503,   2.74924E-03
C:/temp/dataset/7/28_7.odb,Step-1,Increment      1: Step Time =    1.000,"PART-1-1",            61,           15.,           -5.,            0.,NA,NA,"",       3.30867,       3.10676,      -1.13814,   7.63771E-03
C:/temp/dataset/7/28_7.odb,Step-1,Increment      1: Step Time =    1.000,"PART-1-1",            62,           15.,            5.,            0.,NA,NA,"",       5.16807,       4.99411,      -1.32958,   496.399E-06
C:/temp/dataset/7/28_7.odb,Step-1,Increment      1: Step Time =    1.000,"PART-1-1",            63,           15.,           2.5,            0.,NA,NA,"",       4.70601,       4.52663,      -1.28689,   665.062E-06
C:/temp/dataset/7/28_7.odb,Step-1,Increment      1: Step Time =    1.000,"PART-1-1",            64,           15.,          12.5,            0.,NA,NA,"",       6.55498,       6.39042,      -1.45956,   10.4156E-06
C:/temp/dataset/7/28_7.odb,Step-1,Increment      1: Step Time =    1.000,"PART-1-1",            65,           15.,           10.,            0.,NA,NA,"",       6.09205,       5.92521,      -1.41597,   62.9153E-06
C:/temp/dataset/7/28_7.odb,Step-1,Increment      1: Step Time =    1.000,"PART-1-1",            66,           15.,           20.,            0.,NA,NA,"",       7.94698,       7.78618,      -1.59059,   1.16856E-06
C:/temp/dataset/7/28_7.odb,Step-1,Increment      1: Step Time =    1.000,"PART-1-1",            67,           15.,          17.5,            0.,NA,NA,"",       7.48256,       7.32091,      -1.54691,   2.17955E-06
C:/temp/dataset/7/28_7.odb,Step-1,Increment      1: Step Time =    1.000,"PART-1-1",            68,           15.,          27.5,            0.,NA,NA,"",       9.34200,       9.18199,      -1.72162,   98.3154E-09
C:/temp/dataset/7/28_7.odb,Step-1,Increment      1: Step Time =    1.000,"PART-1-1",            69,           15.,           25.,            0.,NA,NA,"",       8.87675,       8.71672,      -1.67794,   132.055E-09
C:/temp/dataset/7/28_7.odb,Step-1,Increment      1: Step Time =    1.000,"PART-1-1",            70,        13.125,           30.,            0.,NA,NA,"",       9.78308,       9.68002,      -1.41634,   102.633E-09
C:/temp/dataset/7/28_7.odb,Step-1,Increment      1: Step Time =    1.000,"PART-1-1",            71,         9.375,           30.,            0.,NA,NA,"",       9.77198,       9.74553,  -718.438E-03,   87.6069E-09
C:/temp/dataset/7/28_7.odb,Step-1,Increment      1: Step Time =    1.000,"PART-1-1",            72,         5.625,           30.,            0.,NA,NA,"",       9.81107,       9.81105,  -20.5313E-03,   94.6144E-09
C:/temp/dataset/7/28_7.odb,Step-1,Increment      1: Step Time =    1.000,"PART-1-1",            73,         1.875,           30.,            0.,NA,NA,"",       9.89977,       9.87656,   677.375E-03,   106.621E-09
C:/temp/dataset/7/28_7.odb,Step-1,Increment      1: Step Time =    1.000,"PART-1-1",            74,        -1.875,           30.,            0.,NA,NA,"",       10.0367,       9.94208,       1.37528,   116.394E-09
C:/temp/dataset/7/28_7.odb,Step-1,Increment      1: Step Time =    1.000,"PART-1-1",            75,        -5.625,           30.,            0.,NA,NA,"",       10.2201,       10.0076,       2.07319,   124.820E-09
C:/temp/dataset/7/28_7.odb,Step-1,Increment      1: Step Time =    1.000,"PART-1-1",            76,        -9.375,           30.,            0.,NA,NA,"",       10.4473,       10.0731,       2.77110,   132.767E-09
C:/temp/dataset/7/28_7.odb,Step-1,Increment      1: Step Time =    1.000,"PART-1-1",            77,       -13.125,           30.,            0.,NA,NA,"",       10.7157,       10.1386,       3.46900,   138.631E-09
C:/temp/dataset/7/28_7.odb,Step-1,Increment      1: Step Time =    1.000,"PART-1-1",            78,          -15.,          27.5,            0.,NA,NA,"",       10.4461,       9.70611,       3.86163,   144.503E-09
C:/temp/dataset/7/28_7.odb,Step-1,Increment      1: Step Time =    1.000,"PART-1-1",            79,      -7.07467,       28.0475,            0.,NA,NA,"",       9.95745,       9.66955,       2.37710,   130.263E-09
C:/temp/dataset/7/28_7.odb,Step-1,Increment      1: Step Time =    1.000,"PART-1-1",            80,      -10.7971,       27.6072,            0.,NA,NA,"",       10.1314,       9.65263,       3.07756,   136.984E-09
C:/temp/dataset/7/28_7.odb,Step-1,Increment      1: Step Time =    1.000,"PART-1-1",            81,      -3.50976,       28.2242,            0.,NA,NA,"",       9.79072,       9.64014,       1.71055,   122.452E-09
C:/temp/dataset/7/28_7.odb,Step-1,Increment      1: Step Time =    1.000,"PART-1-1",            82,       11.3028,       27.6605,            0.,NA,NA,"",       9.33416,       9.27645,      -1.03635,   119.972E-09
C:/temp/dataset/7/28_7.odb,Step-1,Increment      1: Step Time =    1.000,"PART-1-1",            83,       7.46624,       27.7175,            0.,NA,NA,"",       9.35967,       9.35408,  -323.325E-03,   105.774E-09
C:/temp/dataset/7/28_7.odb,Step-1,Increment      1: Step Time =    1.000,"PART-1-1",            84,   523.838E-03,       28.1559,            0.,NA,NA,"",       9.60517,       9.55696,   961.056E-03,   111.345E-09
C:/temp/dataset/7/28_7.odb,Step-1,Increment      1: Step Time =    1.000,"PART-1-1",            85,       13.1724,       27.5829,            0.,NA,NA,"",       9.33238,       9.22934,      -1.38294,   104.005E-09
C:/temp/dataset/7/28_7.odb,Step-1,Increment      1: Step Time =    1.000,"PART-1-1",            86,       9.41586,       27.7284,            0.,NA,NA,"",       9.34730,       9.32206,  -686.357E-03,   111.914E-09
C:/temp/dataset/7/28_7.odb,Step-1,Increment      1: Step Time =    1.000,"PART-1-1",            87,       5.17501,       27.3177,            0.,NA,NA,"",       9.32037,       9.31972,   110.077E-03,   102.601E-09
C:/temp/dataset/7/28_7.odb,Step-1,Increment      1: Step Time =    1.000,"PART-1-1",            88,       1.85763,       28.7412,            0.,NA,NA,"",       9.66817,       9.64260,   702.600E-03,   105.814E-09
C:/temp/dataset/7/28_7.odb,Step-1,Increment      1: Step Time =    1.000,"PART-1-1",            89,      -1.45910,       27.7280,            0.,NA,NA,"",       9.60556,       9.51198,       1.33757,   118.188E-09
C:/temp/dataset/7/28_7.odb,Step-1,Increment      1: Step Time =    1.000,"PART-1-1",            90,      -5.31380,       28.2250,            0.,NA,NA,"",       9.88592,       9.67182,       2.04628,   126.473E-09
C:/temp/dataset/7/28_7.odb,Step-1,Increment      1: Step Time =    1.000,"PART-1-1",            91,      -8.92632,       27.8484,            0.,NA,NA,"",       10.0417,       9.66485,       2.72518,   133.821E-09
C:/temp/dataset/7/28_7.odb,Step-1,Increment      1: Step Time =    1.000,"PART-1-1",            92,       7.03655,   996.185E-03,            0.,NA,NA,"",       4.39998,       4.39444,   220.824E-03,   4.52400E-03
C:/temp/dataset/7/28_7.odb,Step-1,Increment      1: Step Time =    1.000,"PART-1-1",            93,       6.93081,       13.7923,            0.,NA,NA,"",       6.77184,       6.77181,   19.6115E-03,   12.4134E-06
C:/temp/dataset/7/28_7.odb,Step-1,Increment      1: Step Time =    1.000,"PART-1-1",            94,       7.08682,       7.47611,            0.,NA,NA,"",       5.59427,       5.59336,   101.000E-03,   225.391E-06
C:/temp/dataset/7/28_7.odb,Step-1,Increment      1: Step Time =    1.000,"PART-1-1",            95,       6.96700,      -1.15199,            0.,NA,NA,"",       4.00268,       3.99391,   264.821E-03,   7.88385E-03
C:/temp/dataset/7/28_7.odb,Step-1,Increment      1: Step Time =    1.000,"PART-1-1",            96,       6.47578,      -21.8661,            0.,NA,NA,"",   598.804E-03,   516.361E-03,   303.213E-03,   38.1432E-03
C:/temp/dataset/7/28_7.odb,Step-1,Increment      1: Step Time =    1.000,"PART-1-1",            97,       7.14087,      -13.1040,            0.,NA,NA,"",       1.77018,       1.73625,   344.912E-03,   18.8145E-03
C:/temp/dataset/7/28_7.odb,Step-1,Increment      1: Step Time =    1.000,"PART-1-1",            98,       6.53104,      -7.08024,            0.,NA,NA,"",       2.87725,       2.84608,   422.335E-03,   10.9718E-03
C:/temp/dataset/7/28_7.odb,Step-1,Increment      1: Step Time =    1.000,"PART-1-1",            99,       6.85322,      -3.24169,            0.,NA,NA,"",       3.60731,       3.59356,   314.660E-03,   10.5524E-03
C:/temp/dataset/7/28_7.odb,Step-1,Increment      1: Step Time =    1.000,"PART-1-1",           100,       6.74184,      -8.96518,            0.,NA,NA,"",       2.51616,       2.48413,   400.180E-03,   13.8572E-03
C:/temp/dataset/7/28_7.odb,Step-1,Increment      1: Step Time =    1.000,"PART-1-1",           101,       6.94703,      -23.6171,            0.,NA,NA,"",   399.670E-03,   337.468E-03,   214.129E-03,   36.4576E-03
C:/temp/dataset/7/28_7.odb,Step-1,Increment      1: Step Time =    1.000,"PART-1-1",           102,       7.44695,      -27.8442,            0.,NA,NA,"",   82.6913E-03,   55.4870E-03,   61.3111E-03,   38.2445E-03
C:/temp/dataset/7/28_7.odb,Step-1,Increment      1: Step Time =    1.000,"PART-1-1",           103,       7.35225,      -17.6578,            0.,NA,NA,"",       1.06128,       1.02124,   288.754E-03,   24.0566E-03
C:/temp/dataset/7/28_7.odb,Step-1,Increment      1: Step Time =    1.000,"PART-1-1",           104,       7.23832,      -15.2967,            0.,NA,NA,"",       1.41329,       1.37589,   322.974E-03,   21.4504E-03
C:/temp/dataset/7/28_7.odb,Step-1,Increment      1: Step Time =    1.000,"PART-1-1",           105,       7.10099,       17.6583,            0.,NA,NA,"",       7.48878,       7.48836,  -79.6075E-03,   475.474E-09
C:/temp/dataset/7/28_7.odb,Step-1,Increment      1: Step Time =    1.000,"PART-1-1",           106,       6.86948,       15.7920,            0.,NA,NA,"",       7.14506,       7.14506,  -3.91316E-03,   2.56824E-06
C:/temp/dataset/7/28_7.odb,Step-1,Increment      1: Step Time =    1.000,"PART-1-1",           107,       7.06799,       9.62990,            0.,NA,NA,"",       5.99499,       5.99462,   66.8297E-03,   104.457E-06
C:/temp/dataset/7/28_7.odb,Step-1,Increment      1: Step Time =    1.000,"PART-1-1",           108,       7.09093,       5.31052,            0.,NA,NA,"",       5.19229,       5.19045,   138.070E-03,   298.873E-06
C:/temp/dataset/7/28_7.odb,Step-1,Increment      1: Step Time =    1.000,"PART-1-1",           109,       6.65187,      -5.22056,            0.,NA,NA,"",       3.22989,       3.20768,   378.129E-03,   11.6997E-03
C:/temp/dataset/7/28_7.odb,Step-1,Increment      1: Step Time =    1.000,"PART-1-1",           110,       7.26954,      -25.7037,            0.,NA,NA,"",   215.961E-03,   170.999E-03,   131.904E-03,   37.5884E-03
C:/temp/dataset/7/28_7.odb,Step-1,Increment      1: Step Time =    1.000,"PART-1-1",           111,       7.53271,      -20.3934,            0.,NA,NA,"",   701.480E-03,   661.746E-03,   232.735E-03,   26.3697E-03
C:/temp/dataset/7/28_7.odb,Step-1,Increment      1: Step Time =    1.000,"PART-1-1",           112,       7.01178,       11.7341,            0.,NA,NA,"",       6.38742,       6.38729,   40.5117E-03,   40.8594E-06
C:/temp/dataset/7/28_7.odb,Step-1,Increment      1: Step Time =    1.000,"PART-1-1",           113,       7.07643,       3.14767,            0.,NA,NA,"",       4.79297,       4.78964,   178.561E-03,   835.315E-06
C:/temp/dataset/7/28_7.odb,Step-1,Increment      1: Step Time =    1.000,"PART-1-1",           114,       6.98190,      -10.9751,            0.,NA,NA,"",       2.14299,       2.11106,   368.555E-03,   16.2832E-03
C:/temp/dataset/7/28_7.odb,Step-1,Increment      1: Step Time =    1.000,"PART-1-1",           115,       13.1254,       22.8014,            0.,NA,NA,"",       8.43956,       8.34029,      -1.29065,   379.516E-09
C:/temp/dataset/7/28_7.odb,Step-1,Increment      1: Step Time =    1.000,"PART-1-1",           116,       12.8923,      -4.74502,            0.,NA,NA,"",       3.27389,       3.18653,  -751.245E-03,   8.07502E-03
C:/temp/dataset/7/28_7.odb,Step-1,Increment      1: Step Time =    1.000,"PART-1-1",           117,       13.0513,      -12.4505,            0.,NA,NA,"",       1.86738,       1.77635,  -575.929E-03,   18.3441E-03
C:/temp/dataset/7/28_7.odb,Step-1,Increment      1: Step Time =    1.000,"PART-1-1",           118,       12.2427,       17.8341,            0.,NA,NA,"",       7.50363,       7.43126,      -1.03960,   749.953E-09
C:/temp/dataset/7/28_7.odb,Step-1,Increment      1: Step Time =    1.000,"PART-1-1",           119,       13.0441,       9.90429,            0.,NA,NA,"",       6.03372,       5.94161,      -1.05023,   86.7618E-06
C:/temp/dataset/7/28_7.odb,Step-1,Increment      1: Step Time =    1.000,"PART-1-1",           120,       13.0522,       2.62582,            0.,NA,NA,"",       4.67727,       4.58499,  -924.525E-03,   299.814E-06
C:/temp/dataset/7/28_7.odb,Step-1,Increment      1: Step Time =    1.000,"PART-1-1",           121,       13.2006,      -19.7745,            0.,NA,NA,"",   796.982E-03,   708.536E-03,  -364.907E-03,   30.3038E-03
C:/temp/dataset/7/28_7.odb,Step-1,Increment      1: Step Time =    1.000,"PART-1-1",           122,       9.90112,      -27.6522,            0.,NA,NA,"",   40.6259E-03,   40.4297E-03,   3.98829E-03,   12.5208E-03
C:/temp/dataset/7/28_7.odb,Step-1,Increment      1: Step Time =    1.000,"PART-1-1",           123,       13.0591,      -22.1191,            0.,NA,NA,"",   526.654E-03,   451.159E-03,  -271.699E-03,   32.7063E-03
C:/temp/dataset/7/28_7.odb,Step-1,Increment      1: Step Time =    1.000,"PART-1-1",           124,       13.1139,      -14.9356,            0.,NA,NA,"",       1.46612,       1.37443,  -510.347E-03,   22.2493E-03
C:/temp/dataset/7/28_7.odb,Step-1,Increment      1: Step Time =    1.000,"PART-1-1",           125,       13.1678,      -17.3995,            0.,NA,NA,"",       1.10519,       1.01399,  -439.609E-03,   26.3219E-03
C:/temp/dataset/7/28_7.odb,Step-1,Increment      1: Step Time =    1.000,"PART-1-1",           126,       12.7891,      -7.32383,            0.,NA,NA,"",       2.78025,       2.69801,  -671.194E-03,   11.4021E-03
C:/temp/dataset/7/28_7.odb,Step-1,Increment      1: Step Time =    1.000,"PART-1-1",           127,       12.9162,      -9.94117,            0.,NA,NA,"",       2.30123,       2.21478,  -624.851E-03,   14.6370E-03
C:/temp/dataset/7/28_7.odb,Step-1,Increment      1: Step Time =    1.000,"PART-1-1",           128,       13.0283,   193.158E-03,            0.,NA,NA,"",       4.21940,       4.12740,  -876.343E-03,   1.83854E-03
C:/temp/dataset/7/28_7.odb,Step-1,Increment      1: Step Time =    1.000,"PART-1-1",           129,       12.9794,      -2.25409,            0.,NA,NA,"",       3.75316,       3.66242,  -820.317E-03,   4.62745E-03
C:/temp/dataset/7/28_7.odb,Step-1,Increment      1: Step Time =    1.000,"PART-1-1",           130,       13.0689,       7.48049,            0.,NA,NA,"",       5.58278,       5.49018,      -1.01256,   187.324E-06
C:/temp/dataset/7/28_7.odb,Step-1,Increment      1: Step Time =    1.000,"PART-1-1",           131,       13.0764,       5.05734,            0.,NA,NA,"",       5.13165,       5.03882,  -971.686E-03,   225.519E-06
C:/temp/dataset/7/28_7.odb,Step-1,Increment      1: Step Time =    1.000,"PART-1-1",           132,       12.6962,       14.9270,            0.,NA,NA,"",       6.96548,       6.88231,      -1.07320,   6.14537E-06
C:/temp/dataset/7/28_7.odb,Step-1,Increment      1: Step Time =    1.000,"PART-1-1",           133,       12.9459,       12.3607,            0.,NA,NA,"",       6.49001,       6.40038,      -1.07486,   28.6500E-06
C:/temp/dataset/7/28_7.odb,Step-1,Increment      1: Step Time =    1.000,"PART-1-1",           134,       12.9476,       20.4489,            0.,NA,NA,"",       7.99863,       7.90558,      -1.21646,   762.185E-09
C:/temp/dataset/7/28_7.odb,Step-1,Increment      1: Step Time =    1.000,"PART-1-1",           135,       13.1802,       25.1793,            0.,NA,NA,"",       8.88388,       8.78187,      -1.34239,   179.296E-09
C:/temp/dataset/7/28_7.odb,Step-1,Increment      1: Step Time =    1.000,"PART-1-1",           136,      -12.4062,       24.9250,            0.,NA,NA,"",       9.79920,       9.18157,       3.42389,   140.346E-09
C:/temp/dataset/7/28_7.odb,Step-1,Increment      1: Step Time =    1.000,"PART-1-1",           137,       11.3078,       25.3904,            0.,NA,NA,"",       8.90991,       8.85388,  -997.609E-03,   197.992E-09
C:/temp/dataset/7/28_7.odb,Step-1,Increment      1: Step Time =    1.000,"PART-1-1",           138,      -10.1009,       25.2443,            0.,NA,NA,"",       9.67414,       9.20072,       2.98928,   138.697E-09
C:/temp/dataset/7/28_7.odb,Step-1,Increment      1: Step Time =    1.000,"PART-1-1",           139,      -4.83291,       26.5053,            0.,NA,NA,"",       9.55227,       9.34336,       1.98683,   128.880E-09
C:/temp/dataset/7/28_7.odb,Step-1,Increment      1: Step Time =    1.000,"PART-1-1",           140,       1.72347,       26.1851,            0.,NA,NA,"",       9.20169,       9.16923,   772.225E-03,   110.659E-09
C:/temp/dataset/7/28_7.odb,Step-1,Increment      1: Step Time =    1.000,"PART-1-1",           141,       6.12189,       25.7754,            0.,NA,NA,"",       9.01622,       9.01614,  -39.2007E-03,   129.960E-09
C:/temp/dataset/7/28_7.odb,Step-1,Increment      1: Step Time =    1.000,"PART-1-1",           142,       7.62725,       25.7499,            0.,NA,NA,"",       8.99074,       8.98508,  -318.914E-03,   148.087E-09
C:/temp/dataset/7/28_7.odb,Step-1,Increment      1: Step Time =    1.000,"PART-1-1",           143,       3.76931,       25.0880,            0.,NA,NA,"",       8.93875,       8.92931,   410.644E-03,   110.897E-09
C:/temp/dataset/7/28_7.odb,Step-1,Increment      1: Step Time =    1.000,"PART-1-1",           144,  -231.428E-03,       26.1188,            0.,NA,NA,"",       9.26113,       9.19104,       1.13721,   117.014E-09
C:/temp/dataset/7/28_7.odb,Step-1,Increment      1: Step Time =    1.000,"PART-1-1",           145,      -2.48530,       25.9891,            0.,NA,NA,"",       9.33734,       9.20628,       1.55894,   124.876E-09
C:/temp/dataset/7/28_7.odb,Step-1,Increment      1: Step Time =    1.000,"PART-1-1",           146,      -3.63425,       26.9302,            0.,NA,NA,"",       9.56414,       9.40150,       1.75632,   125.400E-09
C:/temp/dataset/7/28_7.odb,Step-1,Increment      1: Step Time =    1.000,"PART-1-1",           147,      -8.31738,       25.8431,            0.,NA,NA,"",       9.65106,       9.28100,       2.64689,   135.966E-09
C:/temp/dataset/7/28_7.odb,Step-1,Increment      1: Step Time =    1.000,"PART-1-1",           148,       9.04714,   705.037E-03,            0.,NA,NA,"",       4.30135,       4.29885,  -146.731E-03,   3.37880E-03
C:/temp/dataset/7/28_7.odb,Step-1,Increment      1: Step Time =    1.000,"PART-1-1",           149,       7.85197,      -7.06885,            0.,NA,NA,"",       2.82835,       2.82221,   186.311E-03,   11.4766E-03
C:/temp/dataset/7/28_7.odb,Step-1,Increment      1: Step Time =    1.000,"PART-1-1",           150,       8.74205,      -22.9842,            0.,NA,NA,"",   379.675E-03,   368.321E-03,   92.1536E-03,   18.9113E-03
C:/temp/dataset/7/28_7.odb,Step-1,Increment      1: Step Time =    1.000,"PART-1-1",           151,       9.28078,      -15.1075,            0.,NA,NA,"",       1.37404,       1.37353,   37.2233E-03,   12.6190E-03
C:/temp/dataset/7/28_7.odb,Step-1,Increment      1: Step Time =    1.000,"PART-1-1",           152,       8.97855,      -1.55139,            0.,NA,NA,"",       3.87361,       3.87235,  -98.8804E-03,   7.15744E-03
C:/temp/dataset/7/28_7.odb,Step-1,Increment      1: Step Time =    1.000,"PART-1-1",           153,       9.09422,       9.69450,            0.,NA,NA,"",       5.97949,       5.97138,  -311.262E-03,   115.107E-06
C:/temp/dataset/7/28_7.odb,Step-1,Increment      1: Step Time =    1.000,"PART-1-1",           154,       8.44946,       15.5970,            0.,NA,NA,"",       7.08731,       7.08119,  -294.557E-03,   4.95427E-06
C:/temp/dataset/7/28_7.odb,Step-1,Increment      1: Step Time =    1.000,"PART-1-1",           155,       9.11701,       7.46178,            0.,NA,NA,"",       5.56235,       5.55549,  -276.234E-03,   223.556E-06
C:/temp/dataset/7/28_7.odb,Step-1,Increment      1: Step Time =    1.000,"PART-1-1",           156,       8.83101,       13.9442,            0.,NA,NA,"",       6.77527,       6.76690,  -336.680E-03,   15.4915E-06
C:/temp/dataset/7/28_7.odb,Step-1,Increment      1: Step Time =    1.000,"PART-1-1",           157,       9.61385,      -19.9311,            0.,NA,NA,"",   692.041E-03,   691.688E-03,   22.1104E-03,   12.3998E-03
C:/temp/dataset/7/28_7.odb,Step-1,Increment      1: Step Time =    1.000,"PART-1-1",           158,       9.10031,       2.95854,            0.,NA,NA,"",       4.72235,       4.71836,  -194.029E-03,   864.665E-06
C:/temp/dataset/7/28_7.odb,Step-1,Increment      1: Step Time =    1.000,"PART-1-1",           159,       9.17986,      -12.8049,            0.,NA,NA,"",       1.75306,       1.75277,   31.6500E-03,   12.3145E-03
C:/temp/dataset/7/28_7.odb,Step-1,Increment      1: Step Time =    1.000,"PART-1-1",           160,       8.54844,      -8.43147,            0.,NA,NA,"",       2.55154,       2.55018,   83.2842E-03,   11.6897E-03
C:/temp/dataset/7/28_7.odb,Step-1,Increment      1: Step Time =    1.000,"PART-1-1",           161,       8.46228,      -5.79934,            0.,NA,NA,"",       3.05748,       3.05689,   59.9761E-03,   11.7487E-03
C:/temp/dataset/7/28_7.odb,Step-1,Increment      1: Step Time =    1.000,"PART-1-1",           162,       8.97830,      -10.5487,            0.,NA,NA,"",       2.15255,       2.15221,   38.2998E-03,   12.0175E-03
C:/temp/dataset/7/28_7.odb,Step-1,Increment      1: Step Time =    1.000,"PART-1-1",           163,       8.84007,      -3.76868,            0.,NA,NA,"",       3.44629,       3.44606,  -39.3218E-03,   10.5072E-03
C:/temp/dataset/7/28_7.odb,Step-1,Increment      1: Step Time =    1.000,"PART-1-1",           164,       9.12644,       5.21383,            0.,NA,NA,"",       5.14270,       5.13718,  -238.306E-03,   319.220E-06
C:/temp/dataset/7/28_7.odb,Step-1,Increment      1: Step Time =    1.000,"PART-1-1",           165,       9.36869,      -17.5094,            0.,NA,NA,"",       1.01408,       1.01328,   40.3800E-03,   12.8580E-03
C:/temp/dataset/7/28_7.odb,Step-1,Increment      1: Step Time =    1.000,"PART-1-1",           166,       9.01212,       11.8707,            0.,NA,NA,"",       6.38659,       6.37784,  -334.121E-03,   45.9439E-06
C:/temp/dataset/7/28_7.odb,Step-1,Increment      1: Step Time =    1.000,"PART-1-1",           167,       9.60003,       16.9835,            0.,NA,NA,"",       7.33849,       7.31912,  -532.913E-03,   1.89213E-06
C:/temp/dataset/7/28_7.odb,Step-1,Increment      1: Step Time =    1.000,"PART-1-1",           168,       7.13047,       19.6676,            0.,NA,NA,"",       7.86272,       7.86180,  -120.198E-03,   853.501E-09
C:/temp/dataset/7/28_7.odb,Step-1,Increment      1: Step Time =    1.000,"PART-1-1",           169,       9.55406,      -25.2995,            0.,NA,NA,"",   173.075E-03,   171.350E-03,   24.3745E-03,   13.8200E-03
C:/temp/dataset/7/28_7.odb,Step-1,Increment      1: Step Time =    1.000,"PART-1-1",           170,       12.3800,      -27.4389,            0.,NA,NA,"",   90.1465E-03,   61.9737E-03,  -65.4649E-03,   33.6977E-03
C:/temp/dataset/7/28_7.odb,Step-1,Increment      1: Step Time =    1.000,"PART-1-1",           171,      -11.9351,       22.4166,            0.,NA,NA,"",       9.33958,       8.70650,       3.38004,   143.269E-09
C:/temp/dataset/7/28_7.odb,Step-1,Increment      1: Step Time =    1.000,"PART-1-1",           172,       10.9842,      -1.93535,            0.,NA,NA,"",       3.78674,       3.75880,  -459.160E-03,   6.04461E-03
C:/temp/dataset/7/28_7.odb,Step-1,Increment      1: Step Time =    1.000,"PART-1-1",           173,       11.2234,      -14.9909,            0.,NA,NA,"",       1.39360,       1.37341,  -236.326E-03,   13.6993E-03
C:/temp/dataset/7/28_7.odb,Step-1,Increment      1: Step Time =    1.000,"PART-1-1",           174,       11.0574,       21.1283,            0.,NA,NA,"",       8.11253,       8.06503,  -876.546E-03,   662.733E-09
C:/temp/dataset/7/28_7.odb,Step-1,Increment      1: Step Time =    1.000,"PART-1-1",           175,       10.7466,       19.4847,            0.,NA,NA,"",       7.80466,       7.76458,  -789.997E-03,   723.551E-09
C:/temp/dataset/7/28_7.odb,Step-1,Increment      1: Step Time =    1.000,"PART-1-1",           176,       11.0568,   433.028E-03,            0.,NA,NA,"",       4.23990,       4.20861,  -514.158E-03,   2.71110E-03
C:/temp/dataset/7/28_7.odb,Step-1,Increment      1: Step Time =    1.000,"PART-1-1",           177,       10.9662,       12.1205,            0.,NA,NA,"",       6.42871,       6.39024,  -702.182E-03,   40.3202E-06
C:/temp/dataset/7/28_7.odb,Step-1,Increment      1: Step Time =    1.000,"PART-1-1",           178,       11.6216,      -21.4567,            0.,NA,NA,"",   534.691E-03,   510.987E-03,  -157.437E-03,   18.9762E-03
C:/temp/dataset/7/28_7.odb,Step-1,Increment      1: Step Time =    1.000,"PART-1-1",           179,       11.2975,      -17.3958,            0.,NA,NA,"",       1.03494,       1.01545,  -199.926E-03,   14.8705E-03
C:/temp/dataset/7/28_7.odb,Step-1,Increment      1: Step Time =    1.000,"PART-1-1",           180,       10.6273,       14.4803,            0.,NA,NA,"",       6.86909,       6.83531,  -680.363E-03,   11.1502E-06
C:/temp/dataset/7/28_7.odb,Step-1,Increment      1: Step Time =    1.000,"PART-1-1",           181,       11.1012,       2.78293,            0.,NA,NA,"",       4.68330,       4.64930,  -563.317E-03,   657.329E-06
C:/temp/dataset/7/28_7.odb,Step-1,Increment      1: Step Time =    1.000,"PART-1-1",           182,       11.1153,       7.46695,            0.,NA,NA,"",       5.55969,       5.52176,  -648.335E-03,   212.347E-06
C:/temp/dataset/7/28_7.odb,Step-1,Increment      1: Step Time =    1.000,"PART-1-1",           183,       11.1247,      -12.5851,            0.,NA,NA,"",       1.78807,       1.76765,  -269.484E-03,   12.8052E-03
C:/temp/dataset/7/28_7.odb,Step-1,Increment      1: Step Time =    1.000,"PART-1-1",           184,       10.4094,      -7.19663,            0.,NA,NA,"",       2.76656,       2.75456,  -257.334E-03,   11.7381E-03
C:/temp/dataset/7/28_7.odb,Step-1,Increment      1: Step Time =    1.000,"PART-1-1",           185,       10.4303,      -22.2648,            0.,NA,NA,"",   429.164E-03,   427.170E-03,  -41.3266E-03,   12.2148E-03
C:/temp/dataset/7/28_7.odb,Step-1,Increment      1: Step Time =    1.000,"PART-1-1",           186,       10.9130,      -10.1038,            0.,NA,NA,"",       2.22475,       2.20635,  -285.561E-03,   12.1299E-03
C:/temp/dataset/7/28_7.odb,Step-1,Increment      1: Step Time =    1.000,"PART-1-1",           187,       10.8491,      -4.38491,            0.,NA,NA,"",       3.31160,       3.28863,  -389.370E-03,   9.54724E-03
C:/temp/dataset/7/28_7.odb,Step-1,Increment      1: Step Time =    1.000,"PART-1-1",           188,       11.1275,       5.13070,            0.,NA,NA,"",       5.12311,       5.08673,  -609.469E-03,   238.710E-06
C:/temp/dataset/7/28_7.odb,Step-1,Increment      1: Step Time =    1.000,"PART-1-1",           189,       11.0819,       9.79848,            0.,NA,NA,"",       5.99519,       5.95615,  -683.062E-03,   106.098E-06
C:/temp/dataset/7/28_7.odb,Step-1,Increment      1: Step Time =    1.000,"PART-1-1",           190,       12.1026,      -24.5603,            0.,NA,NA,"",   261.194E-03,   228.804E-03,  -125.980E-03,   26.6205E-03
C:/temp/dataset/7/28_7.odb,Step-1,Increment      1: Step Time =    1.000,"PART-1-1",           191,      -7.61069,       24.2264,            0.,NA,NA,"",       9.32152,       8.96776,       2.54361,   138.469E-09
C:/temp/dataset/7/28_7.odb,Step-1,Increment      1: Step Time =    1.000,"PART-1-1",           192,      -5.77678,       24.2650,            0.,NA,NA,"",       9.20994,       8.94292,       2.20163,   136.218E-09
C:/temp/dataset/7/28_7.odb,Step-1,Increment      1: Step Time =    1.000,"PART-1-1",           193,       1.00958,       23.8763,            0.,NA,NA,"",       8.80293,       8.75201,   945.422E-03,   121.660E-09
C:/temp/dataset/7/28_7.odb,Step-1,Increment      1: Step Time =    1.000,"PART-1-1",           194,      -3.86757,       24.8145,            0.,NA,NA,"",       9.19708,       9.01182,       1.83671,   131.334E-09
C:/temp/dataset/7/28_7.odb,Step-1,Increment      1: Step Time =    1.000,"PART-1-1",           195,  -996.969E-03,       24.6602,            0.,NA,NA,"",       9.02781,       8.93296,       1.30516,   124.815E-09
C:/temp/dataset/7/28_7.odb,Step-1,Increment      1: Step Time =    1.000,"PART-1-1",           196,       7.19995,       21.7613,            0.,NA,NA,"",       8.25198,       8.25024,  -169.706E-03,   515.271E-09
C:/temp/dataset/7/28_7.odb,Step-1,Increment      1: Step Time =    1.000,"PART-1-1",           197,       2.92747,       22.7842,            0.,NA,NA,"",       8.53690,       8.51526,   607.567E-03,   126.859E-09
C:/temp/dataset/7/28_7.odb,Step-1,Increment      1: Step Time =    1.000,"PART-1-1",           198,       5.53232,       24.2100,            0.,NA,NA,"",       8.73565,       8.73510,   97.8722E-03,   154.619E-09
C:/temp/dataset/7/28_7.odb,Step-1,Increment      1: Step Time =    1.000,"PART-1-1",           199,       9.18626,       19.3402,            0.,NA,NA,"",       7.78085,       7.76495,  -497.080E-03,   860.768E-09
C:/temp/dataset/7/28_7.odb,Step-1,Increment      1: Step Time =    1.000,"PART-1-1",           200,       11.2321,       23.1770,            0.,NA,NA,"",       8.49597,       8.44326,  -944.850E-03,   379.419E-09
C:/temp/dataset/7/28_7.odb,Step-1,Increment      1: Step Time =    1.000,"PART-1-1",           201,       5.11021,       22.1378,            0.,NA,NA,"",       8.35953,       8.35683,   212.633E-03,   295.799E-09
C:/temp/dataset/7/28_7.odb,Step-1,Increment      1: Step Time =    1.000,"PART-1-1",           202,   167.280E-03,       22.2372,            0.,NA,NA,"",       8.53690,       8.46167,       1.13082,   129.572E-09
C:/temp/dataset/7/28_7.odb,Step-1,Increment      1: Step Time =    1.000,"PART-1-1",           203,      -2.32264,       22.6339,            0.,NA,NA,"",       8.72461,       8.57901,       1.58728,   138.495E-09
C:/temp/dataset/7/28_7.odb,Step-1,Increment      1: Step Time =    1.000,"PART-1-1",           204,       9.17324,       21.4477,            0.,NA,NA,"",       8.17470,       8.15741,  -531.475E-03,   578.638E-09
C:/temp/dataset/7/28_7.odb,Step-1,Increment      1: Step Time =    1.000,"PART-1-1",           205,       9.43619,       25.5889,            0.,NA,NA,"",       8.94737,       8.92353,  -652.761E-03,   176.120E-09
C:/temp/dataset/7/28_7.odb,Step-1,Increment      1: Step Time =    1.000,"PART-1-1",           206,      -5.39738,       22.2321,            0.,NA,NA,"",       8.82792,       8.55794,       2.16654,   142.602E-09
C:/temp/dataset/7/28_7.odb,Step-1,Increment      1: Step Time =    1.000,"PART-1-1",           207,      -8.66915,       22.6604,            0.,NA,NA,"",       9.12477,       8.69481,       2.76796,   142.512E-09
C:/temp/dataset/7/28_7.odb,Step-1,Increment      1: Step Time =    1.000,"PART-1-1",           208,      -12.8188,       27.4435,            0.,NA,NA,"",       10.2575,       9.65748,       3.45667,   140.357E-09
C:/temp/dataset/7/28_7.odb,Step-1,Increment      1: Step Time =    1.000,"PART-1-1",           209,       7.43992,       23.7550,            0.,NA,NA,"",       8.62069,       8.61708,  -249.198E-03,   242.731E-09
C:/temp/dataset/7/28_7.odb,Step-1,Increment      1: Step Time =    1.000,"PART-1-1",           210,      -6.48406,       26.1481,            0.,NA,NA,"",       9.58584,       9.30574,       2.30036,   132.667E-09
C:/temp/dataset/7/28_7.odb,Step-1,Increment      1: Step Time =    1.000,"PART-1-1",           211,       3.18484,       28.0088,            0.,NA,NA,"",       9.49467,       9.48311,   468.389E-03,   101.278E-09
C:/temp/dataset/7/28_7.odb,Step-1,Increment      1: Step Time =    1.000,"PART-1-1",           212,       11.4304,      -19.6429,            0.,NA,NA,"",   739.654E-03,   719.126E-03,  -173.050E-03,   16.5994E-03
C:/temp/dataset/7/28_7.odb,Step-1,Increment      1: Step Time =    1.000,"PART-1-1",           213,       9.33060,       23.4727,            0.,NA,NA,"",       8.55233,       8.53153,  -596.138E-03,   327.115E-09
C:/temp/dataset/7/28_7.odb,Step-1,Increment      1: Step Time =    1.000,"PART-1-1",           214,      -12.1707,       23.6708,            0.,NA,NA,"",       9.56918,       8.94403,       3.40197,   141.577E-09
C:/temp/dataset/7/28_7.odb,Step-1,Increment      1: Step Time =    1.000,"PART-1-1",           215,      -13.7031,       24.9625,            0.,NA,NA,"",       9.91340,       9.21120,       3.66460,   139.885E-09
C:/temp/dataset/7/28_7.odb,Step-1,Increment      1: Step Time =    1.000,"PART-1-1",           216,          -15.,         23.75,            0.,NA,NA,"",       9.82702,       9.00820,       3.92715,   138.940E-09
C:/temp/dataset/7/28_7.odb,Step-1,Increment      1: Step Time =    1.000,"PART-1-1",           217,      -13.4675,       22.4583,            0.,NA,NA,"",       9.47810,       8.74103,       3.66451,   140.565E-09
C:/temp/dataset/7/28_7.odb,Step-1,Increment      1: Step Time =    1.000,"PART-1-1",           218,      -9.86170,       27.7278,            0.,NA,NA,"",       10.0851,       9.65874,       2.90137,   135.381E-09
C:/temp/dataset/7/28_7.odb,Step-1,Increment      1: Step Time =    1.000,"PART-1-1",           219,      -10.4490,       26.4258,            0.,NA,NA,"",       9.90272,       9.42668,       3.03342,   137.748E-09
C:/temp/dataset/7/28_7.odb,Step-1,Increment      1: Step Time =    1.000,"PART-1-1",           220,      -9.20914,       25.5437,            0.,NA,NA,"",       9.66101,       9.24086,       2.81808,   137.340E-09
C:/temp/dataset/7/28_7.odb,Step-1,Increment      1: Step Time =    1.000,"PART-1-1",           221,      -8.62185,       26.8458,            0.,NA,NA,"",       9.84637,       9.47292,       2.68603,   134.868E-09
C:/temp/dataset/7/28_7.odb,Step-1,Increment      1: Step Time =    1.000,"PART-1-1",           222,      -9.15066,       28.9242,            0.,NA,NA,"",       10.2445,       9.86898,       2.74814,   133.199E-09
C:/temp/dataset/7/28_7.odb,Step-1,Increment      1: Step Time =    1.000,"PART-1-1",           223,      -10.3125,           30.,            0.,NA,NA,"",       10.5107,       10.0895,       2.94557,   134.510E-09
C:/temp/dataset/7/28_7.odb,Step-1,Increment      1: Step Time =    1.000,"PART-1-1",           224,      -11.0235,       28.8036,            0.,NA,NA,"",       10.3538,       9.87925,       3.09880,   136.513E-09
C:/temp/dataset/7/28_7.odb,Step-1,Increment      1: Step Time =    1.000,"PART-1-1",           225,      -11.2536,       25.0847,            0.,NA,NA,"",       9.73444,       9.19114,       3.20659,   139.516E-09
C:/temp/dataset/7/28_7.odb,Step-1,Increment      1: Step Time =    1.000,"PART-1-1",           226,      -10.3021,       22.5385,            0.,NA,NA,"",       9.22772,       8.70065,       3.07400,   142.833E-09
C:/temp/dataset/7/28_7.odb,Step-1,Increment      1: Step Time =    1.000,"PART-1-1",           227,      -9.38503,       23.9523,            0.,NA,NA,"",       9.39941,       8.94777,       2.87862,   140.563E-09
C:/temp/dataset/7/28_7.odb,Step-1,Increment      1: Step Time =    1.000,"PART-1-1",           228,      -12.9719,       28.7217,            0.,NA,NA,"",       10.4863,       9.89805,       3.46284,   139.466E-09
C:/temp/dataset/7/28_7.odb,Step-1,Increment      1: Step Time =    1.000,"PART-1-1",           229,      -14.0625,           30.,            0.,NA,NA,"",       10.7888,       10.1550,       3.64348,   143.126E-09
C:/temp/dataset/7/28_7.odb,Step-1,Increment      1: Step Time =    1.000,"PART-1-1",           230,          -15.,         28.75,            0.,NA,NA,"",       10.6547,       9.93875,       3.83979,   147.172E-09
C:/temp/dataset/7/28_7.odb,Step-1,Increment      1: Step Time =    1.000,"PART-1-1",           231,      -13.9094,       27.4717,            0.,NA,NA,"",       10.3502,       9.68180,       3.65915,   142.524E-09
C:/temp/dataset/7/28_7.odb,Step-1,Increment      1: Step Time =    1.000,"PART-1-1",           232,      -7.40072,       25.9956,            0.,NA,NA,"",       9.61694,       9.29337,       2.47362,   134.313E-09
C:/temp/dataset/7/28_7.odb,Step-1,Increment      1: Step Time =    1.000,"PART-1-1",           233,      -7.96404,       25.0347,            0.,NA,NA,"",       9.48629,       9.12438,       2.59525,   137.131E-09
C:/temp/dataset/7/28_7.odb,Step-1,Increment      1: Step Time =    1.000,"PART-1-1",           234,      -6.69374,       24.2457,            0.,NA,NA,"",       9.26431,       8.95534,       2.37262,   137.330E-09
C:/temp/dataset/7/28_7.odb,Step-1,Increment      1: Step Time =    1.000,"PART-1-1",           235,      -6.13042,       25.2066,            0.,NA,NA,"",       9.39789,       9.12433,       2.25100,   134.392E-09
C:/temp/dataset/7/28_7.odb,Step-1,Increment      1: Step Time =    1.000,"PART-1-1",           236,      -5.46940,       29.1125,            0.,NA,NA,"",       10.0530,       9.83971,       2.05973,   125.530E-09
C:/temp/dataset/7/28_7.odb,Step-1,Increment      1: Step Time =    1.000,"PART-1-1",           237,      -4.41178,       28.2246,            0.,NA,NA,"",       9.83699,       9.65598,       1.87842,   124.458E-09
C:/temp/dataset/7/28_7.odb,Step-1,Increment      1: Step Time =    1.000,"PART-1-1",           238,      -3.62988,       29.1121,            0.,NA,NA,"",       9.95672,       9.80749,       1.71739,   121.461E-09
C:/temp/dataset/7/28_7.odb,Step-1,Increment      1: Step Time =    1.000,"PART-1-1",           239,       -4.6875,           30.,            0.,NA,NA,"",       10.1700,       9.99121,       1.89871,   122.652E-09
C:/temp/dataset/7/28_7.odb,Step-1,Increment      1: Step Time =    1.000,"PART-1-1",           240,  -467.629E-03,       27.9420,            0.,NA,NA,"",       9.60349,       9.53447,       1.14931,   114.794E-09
C:/temp/dataset/7/28_7.odb,Step-1,Increment      1: Step Time =    1.000,"PART-1-1",           241,  -845.263E-03,       26.9234,            0.,NA,NA,"",       9.43302,       9.35151,       1.23739,   117.833E-09
C:/temp/dataset/7/28_7.odb,Step-1,Increment      1: Step Time =    1.000,"PART-1-1",           242,   746.021E-03,       26.1520,            0.,NA,NA,"",       9.22965,       9.18014,   954.715E-03,   114.569E-09
C:/temp/dataset/7/28_7.odb,Step-1,Increment      1: Step Time =    1.000,"PART-1-1",           243,       1.12365,       27.1705,            0.,NA,NA,"",       9.40312,       9.36310,   866.640E-03,   109.127E-09
C:/temp/dataset/7/28_7.odb,Step-1,Increment      1: Step Time =    1.000,"PART-1-1",           244,       14.0901,       25.0896,            0.,NA,NA,"",       8.87867,       8.74930,      -1.51017,   128.892E-09
C:/temp/dataset/7/28_7.odb,Step-1,Increment      1: Step Time =    1.000,"PART-1-1",           245,       13.1528,       23.9903,            0.,NA,NA,"",       8.66172,       8.56108,      -1.31652,   270.513E-09
C:/temp/dataset/7/28_7.odb,Step-1,Increment      1: Step Time =    1.000,"PART-1-1",           246,       14.0627,       22.6507,            0.,NA,NA,"",       8.42379,       8.29587,      -1.46246,   325.163E-09
C:/temp/dataset/7/28_7.odb,Step-1,Increment      1: Step Time =    1.000,"PART-1-1",           247,           15.,         23.75,            0.,NA,NA,"",       8.64421,       8.48408,      -1.65610,   261.773E-09
C:/temp/dataset/7/28_7.odb,Step-1,Increment      1: Step Time =    1.000,"PART-1-1",           248,       11.2764,       28.8302,            0.,NA,NA,"",       9.55270,       9.49461,      -1.05187,   99.8738E-09
C:/temp/dataset/7/28_7.odb,Step-1,Increment      1: Step Time =    1.000,"PART-1-1",           249,       10.3125,           30.,            0.,NA,NA,"",       9.77004,       9.72915,  -892.914E-03,   84.9278E-09
C:/temp/dataset/7/28_7.odb,Step-1,Increment      1: Step Time =    1.000,"PART-1-1",           250,       9.39543,       28.8642,            0.,NA,NA,"",       9.55964,       9.53380,  -702.397E-03,   99.0927E-09
C:/temp/dataset/7/28_7.odb,Step-1,Increment      1: Step Time =    1.000,"PART-1-1",           251,       10.3594,       27.6945,            0.,NA,NA,"",       9.33906,       9.29925,  -861.354E-03,   114.389E-09
C:/temp/dataset/7/28_7.odb,Step-1,Increment      1: Step Time =    1.000,"PART-1-1",           252,        8.4375,           30.,            0.,NA,NA,"",       9.77705,       9.76191,  -543.961E-03,   89.3272E-09
C:/temp/dataset/7/28_7.odb,Step-1,Increment      1: Step Time =    1.000,"PART-1-1",           253,       7.48312,       28.8587,            0.,NA,NA,"",       9.57246,       9.56619,  -346.405E-03,   97.1824E-09
C:/temp/dataset/7/28_7.odb,Step-1,Increment      1: Step Time =    1.000,"PART-1-1",           254,       8.44105,       27.7230,            0.,NA,NA,"",       9.35171,       9.33807,  -504.841E-03,   105.658E-09
C:/temp/dataset/7/28_7.odb,Step-1,Increment      1: Step Time =    1.000,"PART-1-1",           255,       13.0365,       21.6252,            0.,NA,NA,"",       8.21909,       8.12294,      -1.25355,   543.303E-09
C:/temp/dataset/7/28_7.odb,Step-1,Increment      1: Step Time =    1.000,"PART-1-1",           256,       13.9738,       20.2245,            0.,NA,NA,"",       7.97043,       7.84588,      -1.40353,   736.065E-09
C:/temp/dataset/7/28_7.odb,Step-1,Increment      1: Step Time =    1.000,"PART-1-1",           257,           15.,         21.25,            0.,NA,NA,"",       8.17932,       8.01881,      -1.61243,   756.506E-09
C:/temp/dataset/7/28_7.odb,Step-1,Increment      1: Step Time =    1.000,"PART-1-1",           258,       6.90015,       14.7921,            0.,NA,NA,"",       6.95844,       6.95844,   7.84880E-03,   7.53570E-06
C:/temp/dataset/7/28_7.odb,Step-1,Increment      1: Step Time =    1.000,"PART-1-1",           259,       5.93474,       15.8126,            0.,NA,NA,"",       7.16725,       7.16524,   169.692E-03,   1.30643E-06
C:/temp/dataset/7/28_7.odb,Step-1,Increment      1: Step Time =    1.000,"PART-1-1",           260,            5.,       14.7917,            0.,NA,NA,"",       7.00089,       6.99155,   361.501E-03,   372.687E-09
C:/temp/dataset/7/28_7.odb,Step-1,Increment      1: Step Time =    1.000,"PART-1-1",           261,       5.96541,       13.7711,            0.,NA,NA,"",       6.78768,       6.78474,   199.653E-03,   6.41678E-06
C:/temp/dataset/7/28_7.odb,Step-1,Increment      1: Step Time =    1.000,"PART-1-1",           262,       7.07741,       8.55300,            0.,NA,NA,"",       5.79458,       5.79398,   83.9103E-03,   161.308E-06
C:/temp/dataset/7/28_7.odb,Step-1,Increment      1: Step Time =    1.000,"PART-1-1",           263,       6.03400,       9.60662,            0.,NA,NA,"",       6.01394,       6.00833,   259.596E-03,   74.6470E-06
C:/temp/dataset/7/28_7.odb,Step-1,Increment      1: Step Time =    1.000,"PART-1-1",           264,            5.,       8.54167,            0.,NA,NA,"",       5.84714,       5.82818,   470.521E-03,   164.935E-06
C:/temp/dataset/7/28_7.odb,Step-1,Increment      1: Step Time =    1.000,"PART-1-1",           265,       6.04341,       7.48805,            0.,NA,NA,"",       5.62149,       5.61376,   294.703E-03,   180.719E-06
C:/temp/dataset/7/28_7.odb,Step-1,Increment      1: Step Time =    1.000,"PART-1-1",           266,            5.,         4.375,            0.,NA,NA,"",       5.08220,       5.05326,   541.579E-03,   837.911E-06
C:/temp/dataset/7/28_7.odb,Step-1,Increment      1: Step Time =    1.000,"PART-1-1",           267,       6.03822,       3.24050,            0.,NA,NA,"",       4.83900,       4.82495,   368.515E-03,   650.350E-06
C:/temp/dataset/7/28_7.odb,Step-1,Increment      1: Step Time =    1.000,"PART-1-1",           268,       7.08368,       4.22909,            0.,NA,NA,"",       4.99229,       4.98977,   158.335E-03,   266.554E-06
C:/temp/dataset/7/28_7.odb,Step-1,Increment      1: Step Time =    1.000,"PART-1-1",           269,       6.04546,       5.36359,            0.,NA,NA,"",       5.22899,       5.21850,   331.063E-03,   341.567E-06
C:/temp/dataset/7/28_7.odb,Step-1,Increment      1: Step Time =    1.000,"PART-1-1",           270,            5.,       2.29167,            0.,NA,NA,"",       4.70355,       4.66831,   574.732E-03,   1.12053E-03
C:/temp/dataset/7/28_7.odb,Step-1,Increment      1: Step Time =    1.000,"PART-1-1",           271,       6.01828,       1.12309,            0.,NA,NA,"",       4.45756,       4.43890,   407.487E-03,   4.32670E-03
C:/temp/dataset/7/28_7.odb,Step-1,Increment      1: Step Time =    1.000,"PART-1-1",           272,       7.05649,       2.07193,            0.,NA,NA,"",       4.59654,       4.59218,   200.303E-03,   2.19085E-03
C:/temp/dataset/7/28_7.odb,Step-1,Increment      1: Step Time =    1.000,"PART-1-1",           273,       7.00178,  -77.9012E-03,            0.,NA,NA,"",       4.20256,       4.19552,   243.159E-03,   6.21232E-03
C:/temp/dataset/7/28_7.odb,Step-1,Increment      1: Step Time =    1.000,"PART-1-1",           274,            5.,   208.333E-03,            0.,NA,NA,"",       4.33718,       4.29452,   606.856E-03,   5.86658E-03
C:/temp/dataset/7/28_7.odb,Step-1,Increment      1: Step Time =    1.000,"PART-1-1",           275,       5.98350,  -992.661E-03,            0.,NA,NA,"",       4.07137,       4.04707,   444.214E-03,   7.11233E-03
C:/temp/dataset/7/28_7.odb,Step-1,Increment      1: Step Time =    1.000,"PART-1-1",           276,       6.59145,      -6.15040,            0.,NA,NA,"",       3.05230,       3.02585,   400.929E-03,   10.8149E-03
C:/temp/dataset/7/28_7.odb,Step-1,Increment      1: Step Time =    1.000,"PART-1-1",           277,       5.82593,      -5.11028,            0.,NA,NA,"",       3.29144,       3.24849,   529.984E-03,   10.3434E-03
C:/temp/dataset/7/28_7.odb,Step-1,Increment      1: Step Time =    1.000,"PART-1-1",           278,            5.,      -6.04167,            0.,NA,NA,"",       3.16085,       3.08258,   699.046E-03,   12.3007E-03
C:/temp/dataset/7/28_7.odb,Step-1,Increment      1: Step Time =    1.000,"PART-1-1",           279,       5.76552,      -7.08179,            0.,NA,NA,"",       2.91753,       2.86278,   562.535E-03,   12.3885E-03
C:/temp/dataset/7/28_7.odb,Step-1,Increment      1: Step Time =    1.000,"PART-1-1",           280,       8.25955,      -15.2021,            0.,NA,NA,"",       1.38473,       1.37299,   179.939E-03,   15.9476E-03
C:/temp/dataset/7/28_7.odb,Step-1,Increment      1: Step Time =    1.000,"PART-1-1",           281,       9.23032,      -13.9562,            0.,NA,NA,"",       1.55980,       1.55941,   35.0299E-03,   12.4567E-03
C:/temp/dataset/7/28_7.odb,Step-1,Increment      1: Step Time =    1.000,"PART-1-1",           282,       8.16037,      -12.9544,            0.,NA,NA,"",       1.75314,       1.74300,   188.231E-03,   14.5567E-03
C:/temp/dataset/7/28_7.odb,Step-1,Increment      1: Step Time =    1.000,"PART-1-1",           283,       7.18960,      -14.2003,            0.,NA,NA,"",       1.58840,       1.55267,   335.027E-03,   20.1222E-03
C:/temp/dataset/7/28_7.odb,Step-1,Increment      1: Step Time =    1.000,"PART-1-1",           284,            5.,      -22.7083,            0.,NA,NA,"",   619.665E-03,   467.499E-03,   406.731E-03,   55.0951E-03
C:/temp/dataset/7/28_7.odb,Step-1,Increment      1: Step Time =    1.000,"PART-1-1",           285,       5.97351,      -23.6835,            0.,NA,NA,"",   453.138E-03,   352.377E-03,   284.893E-03,   47.0298E-03
C:/temp/dataset/7/28_7.odb,Step-1,Increment      1: Step Time =    1.000,"PART-1-1",           286,       6.71140,      -22.7416,            0.,NA,NA,"",   495.230E-03,   422.951E-03,   257.615E-03,   37.3015E-03
C:/temp/dataset/7/28_7.odb,Step-1,Increment      1: Step Time =    1.000,"PART-1-1",           287,       5.73789,      -21.7664,            0.,NA,NA,"",   661.099E-03,   543.922E-03,   375.767E-03,   45.1166E-03
C:/temp/dataset/7/28_7.odb,Step-1,Increment      1: Step Time =    1.000,"PART-1-1",           288,       9.95056,      -28.8261,            0.,NA,NA,"",   6.48781E-03,   6.40245E-03,   1.04901E-03,   4.16252E-03
C:/temp/dataset/7/28_7.odb,Step-1,Increment      1: Step Time =    1.000,"PART-1-1",           289,       8.67404,      -27.7482,            0.,NA,NA,"",   54.2313E-03,   43.9019E-03,   31.8379E-03,   22.4570E-03
C:/temp/dataset/7/28_7.odb,Step-1,Increment      1: Step Time =    1.000,"PART-1-1",           290,       7.47347,      -28.9221,            0.,NA,NA,"",   30.7586E-03,   14.6873E-03,   27.0254E-03,   31.3847E-03
C:/temp/dataset/7/28_7.odb,Step-1,Increment      1: Step Time =    1.000,"PART-1-1",           291,          8.75,          -30.,            0.,NA,NA,"",            0.,  -3.46984E-39,   26.5603E-39,   13.5081E-03
C:/temp/dataset/7/28_7.odb,Step-1,Increment      1: Step Time =    1.000,"PART-1-1",           292,       9.14805,      -24.1419,            0.,NA,NA,"",   267.859E-03,   262.351E-03,   54.0411E-03,   16.1186E-03
C:/temp/dataset/7/28_7.odb,Step-1,Increment      1: Step Time =    1.000,"PART-1-1",           293,       7.84454,      -23.3007,            0.,NA,NA,"",   383.427E-03,   350.587E-03,   155.256E-03,   27.0761E-03
C:/temp/dataset/7/28_7.odb,Step-1,Increment      1: Step Time =    1.000,"PART-1-1",           294,       7.10828,      -24.6604,            0.,NA,NA,"",   302.438E-03,   248.257E-03,   172.734E-03,   36.8636E-03
C:/temp/dataset/7/28_7.odb,Step-1,Increment      1: Step Time =    1.000,"PART-1-1",           295,       8.41180,      -25.5016,            0.,NA,NA,"",   185.624E-03,   167.568E-03,   79.8571E-03,   24.1486E-03
C:/temp/dataset/7/28_7.odb,Step-1,Increment      1: Step Time =    1.000,"PART-1-1",           296,       7.00425,      -21.1298,            0.,NA,NA,"",   646.204E-03,   586.189E-03,   271.958E-03,   32.1210E-03
C:/temp/dataset/7/28_7.odb,Step-1,Increment      1: Step Time =    1.000,"PART-1-1",           297,       6.26636,      -19.9884,            0.,NA,NA,"",   825.539E-03,   735.462E-03,   374.979E-03,   36.3159E-03
C:/temp/dataset/7/28_7.odb,Step-1,Increment      1: Step Time =    1.000,"PART-1-1",           298,            5.,       -20.625,            0.,NA,NA,"",   849.009E-03,   690.889E-03,   493.446E-03,   49.8010E-03
C:/temp/dataset/7/28_7.odb,Step-1,Increment      1: Step Time =    1.000,"PART-1-1",           299,       12.8526,      -8.63250,            0.,NA,NA,"",       2.53807,       2.45371,  -648.932E-03,   12.9556E-03
C:/temp/dataset/7/28_7.odb,Step-1,Increment      1: Step Time =    1.000,"PART-1-1",           300,       13.9581,      -9.97058,            0.,NA,NA,"",       2.34295,       2.20067,  -804.053E-03,   17.0037E-03
C:/temp/dataset/7/28_7.odb,Step-1,Increment      1: Step Time =    1.000,"PART-1-1",           301,           15.,         -8.75,            0.,NA,NA,"",       2.62192,       2.41091,      -1.03051,   17.4224E-03
C:/temp/dataset/7/28_7.odb,Step-1,Increment      1: Step Time =    1.000,"PART-1-1",           302,       13.8945,      -7.41192,            0.,NA,NA,"",       2.80576,       2.66823,  -867.644E-03,   11.7453E-03
C:/temp/dataset/7/28_7.odb,Step-1,Increment      1: Step Time =    1.000,"PART-1-1",           303,            5.,        10.625,            0.,NA,NA,"",       6.23115,       6.21600,   434.267E-03,   54.5915E-06
C:/temp/dataset/7/28_7.odb,Step-1,Increment      1: Step Time =    1.000,"PART-1-1",           304,       7.03988,       10.6820,            0.,NA,NA,"",       6.19119,       6.19096,   53.6686E-03,   71.4993E-06
C:/temp/dataset/7/28_7.odb,Step-1,Increment      1: Step Time =    1.000,"PART-1-1",           305,       6.00589,       11.7004,            0.,NA,NA,"",       6.40266,       6.39859,   228.289E-03,   25.7371E-06
C:/temp/dataset/7/28_7.odb,Step-1,Increment      1: Step Time =    1.000,"PART-1-1",           306,       2.74639,       25.6366,            0.,NA,NA,"",       9.06858,       9.04927,   591.434E-03,   102.898E-09
C:/temp/dataset/7/28_7.odb,Step-1,Increment      1: Step Time =    1.000,"PART-1-1",           307,       1.36653,       25.0307,            0.,NA,NA,"",       9.00169,       8.96062,   858.823E-03,   111.888E-09
C:/temp/dataset/7/28_7.odb,Step-1,Increment      1: Step Time =    1.000,"PART-1-1",           308,       1.96853,       23.3303,            0.,NA,NA,"",       8.66848,       8.63363,   776.494E-03,   116.967E-09
C:/temp/dataset/7/28_7.odb,Step-1,Increment      1: Step Time =    1.000,"PART-1-1",           309,       3.34839,       23.9361,            0.,NA,NA,"",       8.73713,       8.72228,   509.105E-03,   113.379E-09
C:/temp/dataset/7/28_7.odb,Step-1,Increment      1: Step Time =    1.000,"PART-1-1",           310,       4.47216,       26.2029,            0.,NA,NA,"",       9.12823,       9.12452,   260.360E-03,   103.352E-09
C:/temp/dataset/7/28_7.odb,Step-1,Increment      1: Step Time =    1.000,"PART-1-1",           311,       4.17993,       27.6633,            0.,NA,NA,"",       9.40586,       9.40141,   289.233E-03,   101.264E-09
C:/temp/dataset/7/28_7.odb,Step-1,Increment      1: Step Time =    1.000,"PART-1-1",           312,       2.45416,       27.0970,            0.,NA,NA,"",       9.34678,       9.32617,   620.307E-03,   105.106E-09
C:/temp/dataset/7/28_7.odb,Step-1,Increment      1: Step Time =    1.000,"PART-1-1",           313,      -1.66705,       28.8640,            0.,NA,NA,"",       9.82115,       9.72703,       1.35643,   117.054E-09
C:/temp/dataset/7/28_7.odb,Step-1,Increment      1: Step Time =    1.000,"PART-1-1",           314,   261.919E-03,       29.0779,            0.,NA,NA,"",       9.78374,       9.73314,   993.692E-03,   111.419E-09
C:/temp/dataset/7/28_7.odb,Step-1,Increment      1: Step Time =    1.000,"PART-1-1",           315,    -937.5E-03,           30.,            0.,NA,NA,"",       9.99807,       9.92570,       1.20081,   114.089E-09
C:/temp/dataset/7/28_7.odb,Step-1,Increment      1: Step Time =    1.000,"PART-1-1",           316,          -15.,         21.25,            0.,NA,NA,"",       9.42068,       8.54293,       3.97082,   141.729E-09
C:/temp/dataset/7/28_7.odb,Step-1,Increment      1: Step Time =    1.000,"PART-1-1",           317,      -13.3250,           20.,            0.,NA,NA,"",       9.06227,       8.28103,       3.68093,   147.615E-09
C:/temp/dataset/7/28_7.odb,Step-1,Increment      1: Step Time =    1.000,"PART-1-1",           318,      -11.7925,       21.2083,            0.,NA,NA,"",       9.12600,       8.47914,       3.37462,   145.501E-09
C:/temp/dataset/7/28_7.odb,Step-1,Increment      1: Step Time =    1.000,"PART-1-1",           319,       10.1137,       15.7319,            0.,NA,NA,"",       7.10316,       7.07721,  -606.639E-03,   6.19240E-06
C:/temp/dataset/7/28_7.odb,Step-1,Increment      1: Step Time =    1.000,"PART-1-1",           320,       9.02474,       16.2903,            0.,NA,NA,"",       7.21203,       7.20015,  -413.735E-03,   3.29855E-06
C:/temp/dataset/7/28_7.odb,Step-1,Increment      1: Step Time =    1.000,"PART-1-1",           321,       8.64023,       14.7706,            0.,NA,NA,"",       6.93123,       6.92404,  -315.620E-03,   10.2393E-06
C:/temp/dataset/7/28_7.odb,Step-1,Increment      1: Step Time =    1.000,"PART-1-1",           322,       9.72917,       14.2122,            0.,NA,NA,"",       6.82009,       6.80111,  -508.521E-03,   12.5043E-06
C:/temp/dataset/7/28_7.odb,Step-1,Increment      1: Step Time =    1.000,"PART-1-1",           323,       12.8210,       13.6438,            0.,NA,NA,"",       6.72762,       6.64134,      -1.07402,   17.2820E-06
C:/temp/dataset/7/28_7.odb,Step-1,Increment      1: Step Time =    1.000,"PART-1-1",           324,       13.9730,       12.4303,            0.,NA,NA,"",       6.51974,       6.39540,      -1.26722,   16.0150E-06
C:/temp/dataset/7/28_7.odb,Step-1,Increment      1: Step Time =    1.000,"PART-1-1",           325,           15.,         13.75,            0.,NA,NA,"",       6.78669,       6.62303,      -1.48139,   5.00814E-06
C:/temp/dataset/7/28_7.odb,Step-1,Increment      1: Step Time =    1.000,"PART-1-1",           326,       13.8481,       14.9635,            0.,NA,NA,"",       6.98873,       6.86898,      -1.28822,   2.91624E-06
C:/temp/dataset/7/28_7.odb,Step-1,Increment      1: Step Time =    1.000,"PART-1-1",           327,       10.1008,       2.87074,            0.,NA,NA,"",       4.69911,       4.68383,  -378.578E-03,   711.292E-06
C:/temp/dataset/7/28_7.odb,Step-1,Increment      1: Step Time =    1.000,"PART-1-1",           328,       9.07373,       1.83179,            0.,NA,NA,"",       4.51232,       4.50911,  -170.029E-03,   1.98146E-03
C:/temp/dataset/7/28_7.odb,Step-1,Increment      1: Step Time =    1.000,"PART-1-1",           329,       10.0520,   569.032E-03,            0.,NA,NA,"",       4.26625,       4.25344,  -330.430E-03,   2.91009E-03
C:/temp/dataset/7/28_7.odb,Step-1,Increment      1: Step Time =    1.000,"PART-1-1",           330,       11.0790,       1.60798,            0.,NA,NA,"",       4.46220,       4.42957,  -538.704E-03,   1.61552E-03
C:/temp/dataset/7/28_7.odb,Step-1,Increment      1: Step Time =    1.000,"PART-1-1",           331,       9.98138,      -1.74337,            0.,NA,NA,"",       3.82513,       3.81493,  -279.102E-03,   6.38877E-03
C:/temp/dataset/7/28_7.odb,Step-1,Increment      1: Step Time =    1.000,"PART-1-1",           332,       8.90931,      -2.66004,            0.,NA,NA,"",       3.66083,       3.66017,  -69.1411E-03,   8.72140E-03
C:/temp/dataset/7/28_7.odb,Step-1,Increment      1: Step Time =    1.000,"PART-1-1",           333,       9.84458,      -4.07679,            0.,NA,NA,"",       3.37325,       3.36641,  -214.765E-03,   9.77430E-03
C:/temp/dataset/7/28_7.odb,Step-1,Increment      1: Step Time =    1.000,"PART-1-1",           334,       10.9167,      -3.16013,            0.,NA,NA,"",       3.54968,       3.52420,  -424.554E-03,   7.75035E-03
C:/temp/dataset/7/28_7.odb,Step-1,Increment      1: Step Time =    1.000,"PART-1-1",           335,            5.,      -3.95833,            0.,NA,NA,"",       3.56470,       3.50039,   674.055E-03,   8.77736E-03
C:/temp/dataset/7/28_7.odb,Step-1,Increment      1: Step Time =    1.000,"PART-1-1",           336,       6.75254,      -4.23112,            0.,NA,NA,"",       3.41875,       3.40115,   346.486E-03,   11.4035E-03
C:/temp/dataset/7/28_7.odb,Step-1,Increment      1: Step Time =    1.000,"PART-1-1",           337,       5.92661,      -3.07918,            0.,NA,NA,"",       3.68022,       3.64808,   485.317E-03,   8.72721E-03
C:/temp/dataset/7/28_7.odb,Step-1,Increment      1: Step Time =    1.000,"PART-1-1",           338,       7.06139,      -12.0396,            0.,NA,NA,"",       1.95403,       1.92104,   357.592E-03,   17.5455E-03
C:/temp/dataset/7/28_7.odb,Step-1,Increment      1: Step Time =    1.000,"PART-1-1",           339,       5.99095,      -11.1126,            0.,NA,NA,"",       2.17458,       2.10806,   533.746E-03,   20.1549E-03
C:/temp/dataset/7/28_7.odb,Step-1,Increment      1: Step Time =    1.000,"PART-1-1",           340,            5.,      -12.2917,            0.,NA,NA,"",       2.04589,       1.92505,   692.716E-03,   27.6657E-03
C:/temp/dataset/7/28_7.odb,Step-1,Increment      1: Step Time =    1.000,"PART-1-1",           341,       6.07044,      -13.2187,            0.,NA,NA,"",       1.81335,       1.73983,   511.091E-03,   24.1018E-03
C:/temp/dataset/7/28_7.odb,Step-1,Increment      1: Step Time =    1.000,"PART-1-1",           342,       6.63644,      -8.02271,            0.,NA,NA,"",       2.69547,       2.66381,   411.868E-03,   12.4905E-03
C:/temp/dataset/7/28_7.odb,Step-1,Increment      1: Step Time =    1.000,"PART-1-1",           343,            5.,        -8.125,            0.,NA,NA,"",       2.77415,       2.68206,   708.835E-03,   17.3640E-03
C:/temp/dataset/7/28_7.odb,Step-1,Increment      1: Step Time =    1.000,"PART-1-1",           344,       5.87092,      -9.06592,            0.,NA,NA,"",       2.54545,       2.48452,   553.574E-03,   16.4029E-03
C:/temp/dataset/7/28_7.odb,Step-1,Increment      1: Step Time =    1.000,"PART-1-1",           345,       13.0826,      -13.6930,            0.,NA,NA,"",       1.66243,       1.57100,  -543.729E-03,   20.2868E-03
C:/temp/dataset/7/28_7.odb,Step-1,Increment      1: Step Time =    1.000,"PART-1-1",           346,       14.0569,      -14.9678,            0.,NA,NA,"",       1.51594,       1.36927,  -650.513E-03,   27.8299E-03
C:/temp/dataset/7/28_7.odb,Step-1,Increment      1: Step Time =    1.000,"PART-1-1",           347,           15.,        -13.75,            0.,NA,NA,"",       1.77454,       1.55928,  -847.131E-03,   30.8840E-03
C:/temp/dataset/7/28_7.odb,Step-1,Increment      1: Step Time =    1.000,"PART-1-1",           348,       14.0257,      -12.4752,            0.,NA,NA,"",       1.91410,       1.76780,  -733.921E-03,   22.4511E-03
C:/temp/dataset/7/28_7.odb,Step-1,Increment      1: Step Time =    1.000,"PART-1-1",           349,       8.13738,      -21.6888,            0.,NA,NA,"",   529.904E-03,   506.206E-03,   156.697E-03,   22.5306E-03
C:/temp/dataset/7/28_7.odb,Step-1,Increment      1: Step Time =    1.000,"PART-1-1",           350,            5.,      -28.9583,            0.,NA,NA,"",   90.7620E-03,   60.4808E-03,   67.6743E-03,   73.0683E-03
C:/temp/dataset/7/28_7.odb,Step-1,Increment      1: Step Time =    1.000,"PART-1-1",           351,          6.25,          -30.,            0.,NA,NA,"",            0.,  -411.885E-42,   81.0574E-39,   52.8699E-03
C:/temp/dataset/7/28_7.odb,Step-1,Increment      1: Step Time =    1.000,"PART-1-1",           352,       6.22347,      -27.8804,            0.,NA,NA,"",   117.200E-03,   72.7330E-03,   91.9004E-03,   53.1721E-03
C:/temp/dataset/7/28_7.odb,Step-1,Increment      1: Step Time =    1.000,"PART-1-1",           353,           15.,        -28.75,            0.,NA,NA,"",   101.317E-03,   63.4723E-03,  -78.9704E-03,   69.9153E-03
C:/temp/dataset/7/28_7.odb,Step-1,Increment      1: Step Time =    1.000,"PART-1-1",           354,       13.6900,      -27.4695,            0.,NA,NA,"",   130.323E-03,   77.0867E-03,  -105.079E-03,   49.8524E-03
C:/temp/dataset/7/28_7.odb,Step-1,Increment      1: Step Time =    1.000,"PART-1-1",           355,       12.4400,      -28.7195,            0.,NA,NA,"",   32.7524E-03,   13.7291E-03,  -29.7361E-03,   28.7697E-03
C:/temp/dataset/7/28_7.odb,Step-1,Increment      1: Step Time =    1.000,"PART-1-1",           356,         13.75,          -30.,            0.,NA,NA,"",            0.,  -4.75262E-39,  -79.4143E-39,   50.2470E-03
C:/temp/dataset/7/28_7.odb,Step-1,Increment      1: Step Time =    1.000,"PART-1-1",           357,       9.58617,      -22.6245,            0.,NA,NA,"",   396.594E-03,   395.578E-03,   28.3726E-03,   12.7679E-03
C:/temp/dataset/7/28_7.odb,Step-1,Increment      1: Step Time =    1.000,"PART-1-1",           358,       10.0221,      -21.0980,            0.,NA,NA,"",   552.908E-03,   552.753E-03,  -13.0631E-03,   11.8256E-03
C:/temp/dataset/7/28_7.odb,Step-1,Increment      1: Step Time =    1.000,"PART-1-1",           359,       8.57328,      -20.1623,            0.,NA,NA,"",   686.519E-03,   674.299E-03,   128.951E-03,   17.9196E-03
C:/temp/dataset/7/28_7.odb,Step-1,Increment      1: Step Time =    1.000,"PART-1-1",           360,       11.1406,      -27.5456,            0.,NA,NA,"",   53.3245E-03,   46.1565E-03,  -26.7036E-03,   17.9791E-03
C:/temp/dataset/7/28_7.odb,Step-1,Increment      1: Step Time =    1.000,"PART-1-1",           361,         11.25,          -30.,            0.,NA,NA,"",            0.,  -4.80652E-39,  -27.0677E-39,   13.0541E-03
C:/temp/dataset/7/28_7.odb,Step-1,Increment      1: Step Time =    1.000,"PART-1-1",           362,       11.2605,      -16.1933,            0.,NA,NA,"",       1.20936,       1.18954,  -218.061E-03,   14.2696E-03
C:/temp/dataset/7/28_7.odb,Step-1,Increment      1: Step Time =    1.000,"PART-1-1",           363,       10.2521,      -15.0492,            0.,NA,NA,"",       1.37563,       1.37208,  -98.8221E-03,   11.3229E-03
C:/temp/dataset/7/28_7.odb,Step-1,Increment      1: Step Time =    1.000,"PART-1-1",           364,       9.32474,      -16.3084,            0.,NA,NA,"",       1.18916,       1.18851,   39.4665E-03,   12.7344E-03
C:/temp/dataset/7/28_7.odb,Step-1,Increment      1: Step Time =    1.000,"PART-1-1",           365,       10.3331,      -17.4526,            0.,NA,NA,"",       1.01579,       1.01272,  -78.9526E-03,   11.4082E-03
C:/temp/dataset/7/28_7.odb,Step-1,Increment      1: Step Time =    1.000,"PART-1-1",           366,       7.44248,      -19.0256,            0.,NA,NA,"",   874.131E-03,   833.956E-03,   261.958E-03,   25.2248E-03
C:/temp/dataset/7/28_7.odb,Step-1,Increment      1: Step Time =    1.000,"PART-1-1",           367,       6.17612,      -17.5789,            0.,NA,NA,"",       1.14407,       1.05653,   438.917E-03,   32.3327E-03
C:/temp/dataset/7/28_7.odb,Step-1,Increment      1: Step Time =    1.000,"PART-1-1",           368,            5.,      -18.5417,            0.,NA,NA,"",       1.10801,   953.007E-03,   565.211E-03,   44.2634E-03
C:/temp/dataset/7/28_7.odb,Step-1,Increment      1: Step Time =    1.000,"PART-1-1",           369,       12.8407,      -6.03443,            0.,NA,NA,"",       3.02608,       2.94114,  -711.921E-03,   9.72929E-03
C:/temp/dataset/7/28_7.odb,Step-1,Increment      1: Step Time =    1.000,"PART-1-1",           370,           15.,         -6.25,            0.,NA,NA,"",       3.07693,       2.87154,      -1.10532,   10.8160E-03
C:/temp/dataset/7/28_7.odb,Step-1,Increment      1: Step Time =    1.000,"PART-1-1",           371,       13.9462,      -4.87251,            0.,NA,NA,"",       3.28468,       3.14653,  -942.584E-03,   7.03995E-03
C:/temp/dataset/7/28_7.odb,Step-1,Increment      1: Step Time =    1.000,"PART-1-1",           372,       7.64514,      -8.69832,            0.,NA,NA,"",       2.52777,       2.51621,   241.461E-03,   12.0587E-03
C:/temp/dataset/7/28_7.odb,Step-1,Increment      1: Step Time =    1.000,"PART-1-1",           373,       8.20020,      -7.75016,            0.,NA,NA,"",       2.68868,       2.68533,   134.225E-03,   11.5553E-03
C:/temp/dataset/7/28_7.odb,Step-1,Increment      1: Step Time =    1.000,"PART-1-1",           374,       7.19150,      -7.07454,            0.,NA,NA,"",       2.85005,       2.83385,   303.449E-03,   11.0578E-03
C:/temp/dataset/7/28_7.odb,Step-1,Increment      1: Step Time =    1.000,"PART-1-1",           375,       7.97278,      -1.35169,            0.,NA,NA,"",       3.93354,       3.93267,   82.5169E-03,   7.25442E-03
C:/temp/dataset/7/28_7.odb,Step-1,Increment      1: Step Time =    1.000,"PART-1-1",           376,       9.01285,  -423.179E-03,            0.,NA,NA,"",       4.08859,       4.08675,  -122.601E-03,   5.17966E-03
C:/temp/dataset/7/28_7.odb,Step-1,Increment      1: Step Time =    1.000,"PART-1-1",           377,       8.04185,   850.611E-03,            0.,NA,NA,"",       4.34673,       4.34657,   37.0766E-03,   3.63833E-03
C:/temp/dataset/7/28_7.odb,Step-1,Increment      1: Step Time =    1.000,"PART-1-1",           378,       8.08837,       3.05311,            0.,NA,NA,"",       4.75425,       4.75424,  -7.57250E-03,   732.628E-06
C:/temp/dataset/7/28_7.odb,Step-1,Increment      1: Step Time =    1.000,"PART-1-1",           379,       9.11337,       4.08618,            0.,NA,NA,"",       4.93249,       4.92776,  -216.013E-03,   409.397E-06
C:/temp/dataset/7/28_7.odb,Step-1,Increment      1: Step Time =    1.000,"PART-1-1",           380,       8.10868,       5.26217,            0.,NA,NA,"",       5.16405,       5.16381,  -49.9771E-03,   253.441E-06
C:/temp/dataset/7/28_7.odb,Step-1,Increment      1: Step Time =    1.000,"PART-1-1",           381,       7.08888,       6.39331,            0.,NA,NA,"",       5.39315,       5.39183,   119.538E-03,   252.782E-06
C:/temp/dataset/7/28_7.odb,Step-1,Increment      1: Step Time =    1.000,"PART-1-1",           382,            5.,       6.45833,            0.,NA,NA,"",       5.46394,       5.44042,   506.418E-03,   415.251E-06
C:/temp/dataset/7/28_7.odb,Step-1,Increment      1: Step Time =    1.000,"PART-1-1",           383,           15.,         16.25,            0.,NA,NA,"",       7.25049,       7.08828,      -1.52507,   1.58457E-06
C:/temp/dataset/7/28_7.odb,Step-1,Increment      1: Step Time =    1.000,"PART-1-1",           384,       13.6214,       17.6671,            0.,NA,NA,"",       7.48860,       7.37609,      -1.29326,   959.861E-09
C:/temp/dataset/7/28_7.odb,Step-1,Increment      1: Step Time =    1.000,"PART-1-1",           385,       12.4694,       16.3805,            0.,NA,NA,"",       7.23433,       7.15678,      -1.05640,   3.13986E-06
C:/temp/dataset/7/28_7.odb,Step-1,Increment      1: Step Time =    1.000,"PART-1-1",           386,       10.0881,       9.74649,            0.,NA,NA,"",       5.98446,       5.96377,  -497.141E-03,   100.984E-06
C:/temp/dataset/7/28_7.odb,Step-1,Increment      1: Step Time =    1.000,"PART-1-1",           387,       9.10561,       8.57814,            0.,NA,NA,"",       5.77090,       5.76342,  -293.771E-03,   163.004E-06
C:/temp/dataset/7/28_7.odb,Step-1,Increment      1: Step Time =    1.000,"PART-1-1",           388,       10.1162,       7.46436,            0.,NA,NA,"",       5.55789,       5.53864,  -462.228E-03,   196.300E-06
C:/temp/dataset/7/28_7.odb,Step-1,Increment      1: Step Time =    1.000,"PART-1-1",           389,       11.0986,       8.63272,            0.,NA,NA,"",       5.77744,       5.73896,  -665.718E-03,   152.226E-06
C:/temp/dataset/7/28_7.odb,Step-1,Increment      1: Step Time =    1.000,"PART-1-1",           390,       9.96644,       19.4124,            0.,NA,NA,"",       7.79139,       7.76477,  -643.539E-03,   766.956E-09
C:/temp/dataset/7/28_7.odb,Step-1,Increment      1: Step Time =    1.000,"PART-1-1",           391,       10.9020,       20.3065,            0.,NA,NA,"",       7.95855,       7.91481,  -833.272E-03,   687.076E-09
C:/temp/dataset/7/28_7.odb,Step-1,Increment      1: Step Time =    1.000,"PART-1-1",           392,       10.1153,       21.2880,            0.,NA,NA,"",       8.14172,       8.11122,  -704.011E-03,   567.652E-09
C:/temp/dataset/7/28_7.odb,Step-1,Increment      1: Step Time =    1.000,"PART-1-1",           393,       9.17975,       20.3940,            0.,NA,NA,"",       7.97777,       7.96118,  -514.277E-03,   705.501E-09
C:/temp/dataset/7/28_7.odb,Step-1,Increment      1: Step Time =    1.000,"PART-1-1",           394,           15.,         28.75,            0.,NA,NA,"",       9.57469,       9.41462,      -1.74346,   102.169E-09
C:/temp/dataset/7/28_7.odb,Step-1,Increment      1: Step Time =    1.000,"PART-1-1",           395,       14.0625,           30.,            0.,NA,NA,"",       9.79370,       9.66364,      -1.59082,   106.914E-09
C:/temp/dataset/7/28_7.odb,Step-1,Increment      1: Step Time =    1.000,"PART-1-1",           396,       13.1487,       28.7914,            0.,NA,NA,"",       9.55772,       9.45468,      -1.39964,   98.5051E-09
C:/temp/dataset/7/28_7.odb,Step-1,Increment      1: Step Time =    1.000,"PART-1-1",           397,       14.0862,       27.5414,            0.,NA,NA,"",       9.33562,       9.20566,      -1.55228,   94.8706E-09
C:/temp/dataset/7/28_7.odb,Step-1,Increment      1: Step Time =    1.000,"PART-1-1",           398,       12.2440,       25.2848,            0.,NA,NA,"",       8.89516,       8.81788,      -1.17000,   176.186E-09
C:/temp/dataset/7/28_7.odb,Step-1,Increment      1: Step Time =    1.000,"PART-1-1",           399,       13.1763,       26.3811,            0.,NA,NA,"",       9.10812,       9.00561,      -1.36267,   134.598E-09
C:/temp/dataset/7/28_7.odb,Step-1,Increment      1: Step Time =    1.000,"PART-1-1",           400,       12.2376,       27.6217,            0.,NA,NA,"",       9.33163,       9.25289,      -1.20965,   110.817E-09
C:/temp/dataset/7/28_7.odb,Step-1,Increment      1: Step Time =    1.000,"PART-1-1",           401,       11.3053,       26.5254,            0.,NA,NA,"",       9.12203,       9.06516,      -1.01698,   156.406E-09
C:/temp/dataset/7/28_7.odb,Step-1,Increment      1: Step Time =    1.000,"PART-1-1",           402,       12.1875,           30.,            0.,NA,NA,"",       9.77560,       9.69640,      -1.24187,   93.7996E-09
C:/temp/dataset/7/28_7.odb,Step-1,Increment      1: Step Time =    1.000,"PART-1-1",           403,        6.5625,           30.,            0.,NA,NA,"",       9.79661,       9.79467,  -195.008E-03,   92.7997E-09
C:/temp/dataset/7/28_7.odb,Step-1,Increment      1: Step Time =    1.000,"PART-1-1",           404,       5.40000,       28.6589,            0.,NA,NA,"",       9.56549,       9.56538,   44.7726E-03,   96.5262E-09
C:/temp/dataset/7/28_7.odb,Step-1,Increment      1: Step Time =    1.000,"PART-1-1",           405,       6.32063,       27.5176,            0.,NA,NA,"",       9.33751,       9.33690,  -106.624E-03,   101.891E-09
C:/temp/dataset/7/28_7.odb,Step-1,Increment      1: Step Time =    1.000,"PART-1-1",           406,        2.8125,           30.,            0.,NA,NA,"",       9.87300,       9.86018,   502.899E-03,   102.842E-09
C:/temp/dataset/7/28_7.odb,Step-1,Increment      1: Step Time =    1.000,"PART-1-1",           407,       1.86631,       29.3706,            0.,NA,NA,"",       9.78394,       9.75958,   689.988E-03,   106.126E-09
C:/temp/dataset/7/28_7.odb,Step-1,Increment      1: Step Time =    1.000,"PART-1-1",           408,       2.52123,       28.3750,            0.,NA,NA,"",       9.58076,       9.56285,   585.495E-03,   103.822E-09
C:/temp/dataset/7/28_7.odb,Step-1,Increment      1: Step Time =    1.000,"PART-1-1",           409,       3.46742,       29.0044,            0.,NA,NA,"",       9.67166,       9.66346,   398.406E-03,   100.262E-09
C:/temp/dataset/7/28_7.odb,Step-1,Increment      1: Step Time =    1.000,"PART-1-1",           410,       1.19073,       28.4486,            0.,NA,NA,"",       9.63576,       9.59978,   831.828E-03,   108.655E-09
C:/temp/dataset/7/28_7.odb,Step-1,Increment      1: Step Time =    1.000,"PART-1-1",           411,      -2.48443,       27.9761,            0.,NA,NA,"",       9.69658,       9.57606,       1.52406,   120.398E-09
C:/temp/dataset/7/28_7.odb,Step-1,Increment      1: Step Time =    1.000,"PART-1-1",           412,       -2.8125,           30.,            0.,NA,NA,"",       10.0783,       9.95846,       1.54976,   118.487E-09
C:/temp/dataset/7/28_7.odb,Step-1,Increment      1: Step Time =    1.000,"PART-1-1",           413,      -7.28733,       29.0238,            0.,NA,NA,"",       10.1429,       9.85495,       2.39962,   129.490E-09
C:/temp/dataset/7/28_7.odb,Step-1,Increment      1: Step Time =    1.000,"PART-1-1",           414,      -6.19423,       28.1363,            0.,NA,NA,"",       9.92037,       9.67068,       2.21169,   128.343E-09
C:/temp/dataset/7/28_7.odb,Step-1,Increment      1: Step Time =    1.000,"PART-1-1",           415,       -6.5625,           30.,            0.,NA,NA,"",       10.2729,       10.0240,       2.24767,   126.831E-09
C:/temp/dataset/7/28_7.odb,Step-1,Increment      1: Step Time =    1.000,"PART-1-1",           416,      -11.8079,       27.5253,            0.,NA,NA,"",       10.1929,       9.65506,       3.26712,   138.519E-09
C:/temp/dataset/7/28_7.odb,Step-1,Increment      1: Step Time =    1.000,"PART-1-1",           417,      -12.6125,       26.1842,            0.,NA,NA,"",       10.0281,       9.41953,       3.44028,   140.276E-09
C:/temp/dataset/7/28_7.odb,Step-1,Increment      1: Step Time =    1.000,"PART-1-1",           418,      -8.13992,       23.4434,            0.,NA,NA,"",       9.22197,       8.83129,       2.65579,   140.476E-09
C:/temp/dataset/7/28_7.odb,Step-1,Increment      1: Step Time =    1.000,"PART-1-1",           419,       -8.4375,           30.,            0.,NA,NA,"",       10.3865,       10.0567,       2.59662,   130.806E-09
C:/temp/dataset/7/28_7.odb,Step-1,Increment      1: Step Time =    1.000,"PART-1-1",           420,      -8.00049,       27.9480,            0.,NA,NA,"",       9.99815,       9.66720,       2.55114,   132.049E-09
C:/temp/dataset/7/28_7.odb,Step-1,Increment      1: Step Time =    1.000,"PART-1-1",           421,      -12.1875,           30.,            0.,NA,NA,"",       10.6449,       10.1222,       3.29453,   138.012E-09
C:/temp/dataset/7/28_7.odb,Step-1,Increment      1: Step Time =    1.000,"PART-1-1",           422,          -15.,         26.25,            0.,NA,NA,"",       10.2386,       9.47348,       3.88347,   141.640E-09
C:/temp/dataset/7/28_7.odb,Step-1,Increment      1: Step Time =    1.000,"PART-1-1",           423,  -614.199E-03,       25.3895,            0.,NA,NA,"",       9.14391,       9.06200,       1.22118,   121.472E-09
C:/temp/dataset/7/28_7.odb,Step-1,Increment      1: Step Time =    1.000,"PART-1-1",           424,      -1.97220,       26.8586,            0.,NA,NA,"",       9.47052,       9.35913,       1.44825,   121.207E-09
C:/temp/dataset/7/28_7.odb,Step-1,Increment      1: Step Time =    1.000,"PART-1-1",           425,      -1.74113,       25.3247,            0.,NA,NA,"",       9.18198,       9.06962,       1.43205,   124.936E-09
C:/temp/dataset/7/28_7.odb,Step-1,Increment      1: Step Time =    1.000,"PART-1-1",           426,       8.18659,       21.6045,            0.,NA,NA,"",       8.21131,       8.20382,  -350.591E-03,   500.553E-09
C:/temp/dataset/7/28_7.odb,Step-1,Increment      1: Step Time =    1.000,"PART-1-1",           427,       9.25192,       22.4602,            0.,NA,NA,"",       8.36349,       8.34447,  -563.807E-03,   456.681E-09
C:/temp/dataset/7/28_7.odb,Step-1,Increment      1: Step Time =    1.000,"PART-1-1",           428,       8.38526,       23.6138,            0.,NA,NA,"",       8.58472,       8.57431,  -422.668E-03,   267.286E-09
C:/temp/dataset/7/28_7.odb,Step-1,Increment      1: Step Time =    1.000,"PART-1-1",           429,       7.31993,       22.7581,            0.,NA,NA,"",       8.43626,       8.43366,  -209.452E-03,   343.697E-09
C:/temp/dataset/7/28_7.odb,Step-1,Increment      1: Step Time =    1.000,"PART-1-1",           430,           15.,         26.25,            0.,NA,NA,"",       9.10934,       8.94935,      -1.69978,   100.204E-09
C:/temp/dataset/7/28_7.odb,Step-1,Increment      1: Step Time =    1.000,"PART-1-1",           431,        4.6875,           30.,            0.,NA,NA,"",       9.82863,       9.82743,   153.945E-03,   96.2758E-09
C:/temp/dataset/7/28_7.odb,Step-1,Increment      1: Step Time =    1.000,"PART-1-1",           432,       9.38339,       24.5308,            0.,NA,NA,"",       8.74984,       8.72753,  -624.449E-03,   250.470E-09
C:/temp/dataset/7/28_7.odb,Step-1,Increment      1: Step Time =    1.000,"PART-1-1",           433,       8.53172,       25.6694,            0.,NA,NA,"",       8.96747,       8.95430,  -485.837E-03,   154.900E-09
C:/temp/dataset/7/28_7.odb,Step-1,Increment      1: Step Time =    1.000,"PART-1-1",           434,       7.53359,       24.7524,            0.,NA,NA,"",       8.80567,       8.80108,  -284.056E-03,   188.396E-09
C:/temp/dataset/7/28_7.odb,Step-1,Increment      1: Step Time =    1.000,"PART-1-1",           435,     937.5E-03,           30.,            0.,NA,NA,"",       9.92955,       9.89294,   851.852E-03,   109.380E-09
C:/temp/dataset/7/28_7.odb,Step-1,Increment      1: Step Time =    1.000,"PART-1-1",           436,       5.64845,       26.5466,            0.,NA,NA,"",       9.16800,       9.16793,   35.4380E-03,   113.155E-09
C:/temp/dataset/7/28_7.odb,Step-1,Increment      1: Step Time =    1.000,"PART-1-1",           437,       4.65082,       24.6490,            0.,NA,NA,"",       8.83587,       8.83221,   254.258E-03,   129.377E-09
C:/temp/dataset/7/28_7.odb,Step-1,Increment      1: Step Time =    1.000,"PART-1-1",           438,       5.82711,       24.9927,            0.,NA,NA,"",       8.87567,       8.87562,   29.3358E-03,   131.333E-09
C:/temp/dataset/7/28_7.odb,Step-1,Increment      1: Step Time =    1.000,"PART-1-1",           439,      -3.57200,       27.5772,            0.,NA,NA,"",       9.67733,       9.52082,       1.73344,   123.928E-09
C:/temp/dataset/7/28_7.odb,Step-1,Increment      1: Step Time =    1.000,"PART-1-1",           440,      -3.05977,       26.4597,            0.,NA,NA,"",       9.45040,       9.30389,       1.65763,   125.064E-09
C:/temp/dataset/7/28_7.odb,Step-1,Increment      1: Step Time =    1.000,"PART-1-1",           441,      -4.23358,       26.7178,            0.,NA,NA,"",       9.55747,       9.37243,       1.87158,   127.079E-09
C:/temp/dataset/7/28_7.odb,Step-1,Increment      1: Step Time =    1.000,"PART-1-1",           442,      -5.07335,       27.3652,            0.,NA,NA,"",       9.71909,       9.50759,       2.01655,   127.611E-09
C:/temp/dataset/7/28_7.odb,Step-1,Increment      1: Step Time =    1.000,"PART-1-1",           443,      -5.65848,       26.3267,            0.,NA,NA,"",       9.56777,       9.32455,       2.14359,   130.727E-09
C:/temp/dataset/7/28_7.odb,Step-1,Increment      1: Step Time =    1.000,"PART-1-1",           444,      -6.77936,       27.0978,            0.,NA,NA,"",       9.77164,       9.48764,       2.33873,   131.408E-09
C:/temp/dataset/7/28_7.odb,Step-1,Increment      1: Step Time =    1.000,"PART-1-1",           445,       13.0726,       6.26892,            0.,NA,NA,"",       5.35727,       5.26460,  -992.133E-03,   197.529E-06
C:/temp/dataset/7/28_7.odb,Step-1,Increment      1: Step Time =    1.000,"PART-1-1",           446,       14.0382,       5.02867,            0.,NA,NA,"",       5.14678,       5.01650,      -1.15069,   307.513E-06
C:/temp/dataset/7/28_7.odb,Step-1,Increment      1: Step Time =    1.000,"PART-1-1",           447,           15.,          6.25,            0.,NA,NA,"",       5.39891,       5.22713,      -1.35103,   345.094E-06
C:/temp/dataset/7/28_7.odb,Step-1,Increment      1: Step Time =    1.000,"PART-1-1",           448,       14.0344,       7.49025,            0.,NA,NA,"",       5.60346,       5.47507,      -1.19262,   162.044E-06
C:/temp/dataset/7/28_7.odb,Step-1,Increment      1: Step Time =    1.000,"PART-1-1",           449,            5.,       12.7083,            0.,NA,NA,"",       6.61577,       6.60379,   397.901E-03,   12.3399E-06
C:/temp/dataset/7/28_7.odb,Step-1,Increment      1: Step Time =    1.000,"PART-1-1",           450,       6.97129,       12.7632,            0.,NA,NA,"",       6.57963,       6.57956,   30.0605E-03,   26.6667E-06
C:/temp/dataset/7/28_7.odb,Step-1,Increment      1: Step Time =    1.000,"PART-1-1",           451,       8.08110,       9.66220,            0.,NA,NA,"",       5.98423,       5.98299,  -122.201E-03,   98.0575E-06
C:/temp/dataset/7/28_7.odb,Step-1,Increment      1: Step Time =    1.000,"PART-1-1",           452,       8.10192,       7.46894,            0.,NA,NA,"",       5.57510,       5.57441,  -87.5780E-03,   191.597E-06
C:/temp/dataset/7/28_7.odb,Step-1,Increment      1: Step Time =    1.000,"PART-1-1",           453,            5.,        -1.875,            0.,NA,NA,"",       3.95522,       3.90275,   642.115E-03,   6.71167E-03
C:/temp/dataset/7/28_7.odb,Step-1,Increment      1: Step Time =    1.000,"PART-1-1",           454,       6.91011,      -2.19684,            0.,NA,NA,"",       3.80606,       3.79500,   289.984E-03,   8.84418E-03
C:/temp/dataset/7/28_7.odb,Step-1,Increment      1: Step Time =    1.000,"PART-1-1",           455,       11.0205,  -751.161E-03,            0.,NA,NA,"",       4.01418,       3.98455,  -486.800E-03,   4.32690E-03
C:/temp/dataset/7/28_7.odb,Step-1,Increment      1: Step Time =    1.000,"PART-1-1",           456,       13.1408,      -16.1676,            0.,NA,NA,"",       1.28062,       1.18906,  -475.521E-03,   24.2837E-03
C:/temp/dataset/7/28_7.odb,Step-1,Increment      1: Step Time =    1.000,"PART-1-1",           457,       14.0839,      -17.4497,            0.,NA,NA,"",       1.15587,       1.01106,  -560.176E-03,   33.2180E-03
C:/temp/dataset/7/28_7.odb,Step-1,Increment      1: Step Time =    1.000,"PART-1-1",           458,           15.,        -16.25,            0.,NA,NA,"",       1.39635,       1.18348,  -741.060E-03,   37.4563E-03
C:/temp/dataset/7/28_7.odb,Step-1,Increment      1: Step Time =    1.000,"PART-1-1",           459,            5.,       -14.375,            0.,NA,NA,"",       1.70936,       1.57485,   664.643E-03,   33.1043E-03
C:/temp/dataset/7/28_7.odb,Step-1,Increment      1: Step Time =    1.000,"PART-1-1",           460,       6.11916,      -15.3567,            0.,NA,NA,"",       1.47130,       1.39006,   482.147E-03,   28.1989E-03
C:/temp/dataset/7/28_7.odb,Step-1,Increment      1: Step Time =    1.000,"PART-1-1",           461,       13.0403,       1.40949,            0.,NA,NA,"",       4.44890,       4.35677,  -900.678E-03,   1.03173E-03
C:/temp/dataset/7/28_7.odb,Step-1,Increment      1: Step Time =    1.000,"PART-1-1",           462,       14.0142,   96.5788E-03,            0.,NA,NA,"",       4.22656,       4.09170,      -1.05917,   950.468E-06
C:/temp/dataset/7/28_7.odb,Step-1,Increment      1: Step Time =    1.000,"PART-1-1",           463,           15.,          1.25,            0.,NA,NA,"",       4.47439,       4.29174,      -1.26535,   304.132E-06
C:/temp/dataset/7/28_7.odb,Step-1,Increment      1: Step Time =    1.000,"PART-1-1",           464,       14.0261,       2.56291,            0.,NA,NA,"",       4.68810,       4.55587,      -1.10560,   353.689E-06
C:/temp/dataset/7/28_7.odb,Step-1,Increment      1: Step Time =    1.000,"PART-1-1",           465,            5.,      -10.2083,            0.,NA,NA,"",       2.40187,       2.29540,   707.189E-03,   22.4062E-03
C:/temp/dataset/7/28_7.odb,Step-1,Increment      1: Step Time =    1.000,"PART-1-1",           466,       6.86187,      -9.97015,            0.,NA,NA,"",       2.32778,       2.29573,   384.972E-03,   15.0465E-03
C:/temp/dataset/7/28_7.odb,Step-1,Increment      1: Step Time =    1.000,"PART-1-1",           467,            5.,      -24.7917,            0.,NA,NA,"",   420.210E-03,   287.753E-03,   306.227E-03,   59.7389E-03
C:/temp/dataset/7/28_7.odb,Step-1,Increment      1: Step Time =    1.000,"PART-1-1",           468,       6.13477,      -25.7685,            0.,NA,NA,"",   269.505E-03,   190.630E-03,   190.507E-03,   49.3402E-03
C:/temp/dataset/7/28_7.odb,Step-1,Increment      1: Step Time =    1.000,"PART-1-1",           469,       13.1299,      -20.9468,            0.,NA,NA,"",   656.224E-03,   574.102E-03,  -317.863E-03,   31.4266E-03
C:/temp/dataset/7/28_7.odb,Step-1,Increment      1: Step Time =    1.000,"PART-1-1",           470,       14.0295,      -22.3095,            0.,NA,NA,"",   568.830E-03,   445.016E-03,  -354.299E-03,   43.0114E-03
C:/temp/dataset/7/28_7.odb,Step-1,Increment      1: Step Time =    1.000,"PART-1-1",           471,           15.,        -21.25,            0.,NA,NA,"",   757.452E-03,   565.924E-03,  -503.452E-03,   50.4854E-03
C:/temp/dataset/7/28_7.odb,Step-1,Increment      1: Step Time =    1.000,"PART-1-1",           472,       14.1003,      -19.8873,            0.,NA,NA,"",   842.463E-03,   703.146E-03,  -464.037E-03,   38.4673E-03
C:/temp/dataset/7/28_7.odb,Step-1,Increment      1: Step Time =    1.000,"PART-1-1",           473,            5.,       -26.875,            0.,NA,NA,"",   249.958E-03,   155.710E-03,   195.533E-03,   65.2300E-03
C:/temp/dataset/7/28_7.odb,Step-1,Increment      1: Step Time =    1.000,"PART-1-1",           474,       7.35824,      -26.7740,            0.,NA,NA,"",   142.647E-03,   105.627E-03,   95.8698E-03,   36.7674E-03
C:/temp/dataset/7/28_7.odb,Step-1,Increment      1: Step Time =    1.000,"PART-1-1",           475,       11.2665,      -23.4125,            0.,NA,NA,"",   332.133E-03,   318.918E-03,  -92.7579E-03,   17.5765E-03
C:/temp/dataset/7/28_7.odb,Step-1,Increment      1: Step Time =    1.000,"PART-1-1",           476,       10.8283,      -24.9299,            0.,NA,NA,"",   200.542E-03,   195.468E-03,  -44.8241E-03,   14.2825E-03
C:/temp/dataset/7/28_7.odb,Step-1,Increment      1: Step Time =    1.000,"PART-1-1",           477,            5.,      -16.4583,            0.,NA,NA,"",       1.39566,       1.24925,   622.266E-03,   38.6301E-03
C:/temp/dataset/7/28_7.odb,Step-1,Increment      1: Step Time =    1.000,"PART-1-1",           478,       7.29529,      -16.4772,            0.,NA,NA,"",       1.23270,       1.19384,   307.058E-03,   22.7418E-03
C:/temp/dataset/7/28_7.odb,Step-1,Increment      1: Step Time =    1.000,"PART-1-1",           479,            5.,       18.9583,            0.,NA,NA,"",       7.77238,       7.76702,   288.695E-03,   1.55901E-06
C:/temp/dataset/7/28_7.odb,Step-1,Increment      1: Step Time =    1.000,"PART-1-1",           480,       6.05050,       17.7875,            0.,NA,NA,"",       7.53162,       7.53076,   113.644E-03,   898.473E-09
C:/temp/dataset/7/28_7.odb,Step-1,Increment      1: Step Time =    1.000,"PART-1-1",           481,       7.11573,       18.6629,            0.,NA,NA,"",       7.67573,       7.67508,  -99.9029E-03,   563.542E-09
C:/temp/dataset/7/28_7.odb,Step-1,Increment      1: Step Time =    1.000,"PART-1-1",           482,       6.06524,       19.8338,            0.,NA,NA,"",       7.91170,       7.91134,   75.1486E-03,   611.652E-09
C:/temp/dataset/7/28_7.odb,Step-1,Increment      1: Step Time =    1.000,"PART-1-1",           483,       6.98524,       16.7251,            0.,NA,NA,"",       7.31683,       7.31671,  -41.7606E-03,   1.44945E-06
C:/temp/dataset/7/28_7.odb,Step-1,Increment      1: Step Time =    1.000,"PART-1-1",           484,            5.,        16.875,            0.,NA,NA,"",       7.38645,       7.37929,   325.097E-03,   2.01813E-06
C:/temp/dataset/7/28_7.odb,Step-1,Increment      1: Step Time =    1.000,"PART-1-1",           485,       7.88091,       13.8682,            0.,NA,NA,"",       6.77121,       6.76935,  -158.534E-03,   13.2042E-06
C:/temp/dataset/7/28_7.odb,Step-1,Increment      1: Step Time =    1.000,"PART-1-1",           486,       7.65947,       15.6945,            0.,NA,NA,"",       7.11469,       7.11312,  -149.235E-03,   3.73705E-06
C:/temp/dataset/7/28_7.odb,Step-1,Increment      1: Step Time =    1.000,"PART-1-1",           487,       8.92157,       12.9075,            0.,NA,NA,"",       6.58093,       6.57237,  -335.407E-03,   30.4503E-06
C:/temp/dataset/7/28_7.odb,Step-1,Increment      1: Step Time =    1.000,"PART-1-1",           488,       9.98918,       11.9956,            0.,NA,NA,"",       6.40504,       6.38405,  -518.146E-03,   39.5917E-06
C:/temp/dataset/7/28_7.odb,Step-1,Increment      1: Step Time =    1.000,"PART-1-1",           489,       10.7968,       13.3004,            0.,NA,NA,"",       6.64881,       6.61277,  -691.277E-03,   25.4527E-06
C:/temp/dataset/7/28_7.odb,Step-1,Increment      1: Step Time =    1.000,"PART-1-1",           490,       13.0565,       8.69239,            0.,NA,NA,"",       5.80822,       5.71591,      -1.03139,   132.656E-06
C:/temp/dataset/7/28_7.odb,Step-1,Increment      1: Step Time =    1.000,"PART-1-1",           491,           15.,          8.75,            0.,NA,NA,"",       5.86085,       5.69259,      -1.39424,   135.906E-06
C:/temp/dataset/7/28_7.odb,Step-1,Increment      1: Step Time =    1.000,"PART-1-1",           492,       14.0220,       9.95215,            0.,NA,NA,"",       6.06020,       5.93342,      -1.23313,   59.7041E-06
C:/temp/dataset/7/28_7.odb,Step-1,Increment      1: Step Time =    1.000,"PART-1-1",           493,       8.15713,      -6.43409,            0.,NA,NA,"",       2.94187,       2.93928,   123.486E-03,   11.5254E-03
C:/temp/dataset/7/28_7.odb,Step-1,Increment      1: Step Time =    1.000,"PART-1-1",           494,       7.55707,      -5.50995,            0.,NA,NA,"",       3.13884,       3.13130,   217.423E-03,   11.3242E-03
C:/temp/dataset/7/28_7.odb,Step-1,Increment      1: Step Time =    1.000,"PART-1-1",           495,       13.0039,      -1.03047,            0.,NA,NA,"",       3.98693,       3.89552,  -848.843E-03,   3.20281E-03
C:/temp/dataset/7/28_7.odb,Step-1,Increment      1: Step Time =    1.000,"PART-1-1",           496,       13.9897,      -2.37705,            0.,NA,NA,"",       3.75916,       3.62196,      -1.00634,   3.22467E-03
C:/temp/dataset/7/28_7.odb,Step-1,Increment      1: Step Time =    1.000,"PART-1-1",           497,           15.,         -1.25,            0.,NA,NA,"",       4.00913,       3.81901,      -1.21994,   1.39416E-03
C:/temp/dataset/7/28_7.odb,Step-1,Increment      1: Step Time =    1.000,"PART-1-1",           498,       11.0188,      -11.3444,            0.,NA,NA,"",       2.00283,       1.98347,  -277.786E-03,   12.4150E-03
C:/temp/dataset/7/28_7.odb,Step-1,Increment      1: Step Time =    1.000,"PART-1-1",           499,       9.94563,      -10.3262,            0.,NA,NA,"",       2.18185,       2.17840,  -122.608E-03,   11.3007E-03
C:/temp/dataset/7/28_7.odb,Step-1,Increment      1: Step Time =    1.000,"PART-1-1",           500,       9.07908,      -11.6768,            0.,NA,NA,"",       1.94987,       1.94955,   35.3086E-03,   12.1744E-03
C:/temp/dataset/7/28_7.odb,Step-1,Increment      1: Step Time =    1.000,"PART-1-1",           501,       10.1523,      -12.6950,            0.,NA,NA,"",       1.76304,       1.75908,  -118.094E-03,   11.2779E-03
C:/temp/dataset/7/28_7.odb,Step-1,Increment      1: Step Time =    1.000,"PART-1-1",           502,       11.2699,       24.2837,            0.,NA,NA,"",       8.70294,       8.64857,  -971.229E-03,   284.468E-09
C:/temp/dataset/7/28_7.odb,Step-1,Increment      1: Step Time =    1.000,"PART-1-1",           503,       12.1787,       22.9892,            0.,NA,NA,"",       8.46589,       8.39178,      -1.11775,   342.164E-09
C:/temp/dataset/7/28_7.odb,Step-1,Increment      1: Step Time =    1.000,"PART-1-1",           504,           15.,         -3.75,            0.,NA,NA,"",       3.54187,       3.34377,      -1.16791,   5.17475E-03
C:/temp/dataset/7/28_7.odb,Step-1,Increment      1: Step Time =    1.000,"PART-1-1",           505,       12.9359,      -3.49956,            0.,NA,NA,"",       3.51369,       3.42454,  -786.496E-03,   6.33607E-03
C:/temp/dataset/7/28_7.odb,Step-1,Increment      1: Step Time =    1.000,"PART-1-1",           506,           15.,        -11.25,            0.,NA,NA,"",       2.18523,       1.97081,  -944.006E-03,   24.2096E-03
C:/temp/dataset/7/28_7.odb,Step-1,Increment      1: Step Time =    1.000,"PART-1-1",           507,       12.9838,      -11.1958,            0.,NA,NA,"",       2.08072,       1.99197,  -601.210E-03,   16.4384E-03
C:/temp/dataset/7/28_7.odb,Step-1,Increment      1: Step Time =    1.000,"PART-1-1",           508,           15.,         11.25,            0.,NA,NA,"",       6.32343,       6.15782,      -1.43775,   36.8823E-06
C:/temp/dataset/7/28_7.odb,Step-1,Increment      1: Step Time =    1.000,"PART-1-1",           509,       12.9950,       11.1325,            0.,NA,NA,"",       6.26180,       6.17099,      -1.06254,   56.4834E-06
C:/temp/dataset/7/28_7.odb,Step-1,Increment      1: Step Time =    1.000,"PART-1-1",           510,           15.,          3.75,            0.,NA,NA,"",       4.93717,       4.76068,      -1.30827,   568.418E-06
C:/temp/dataset/7/28_7.odb,Step-1,Increment      1: Step Time =    1.000,"PART-1-1",           511,       13.0643,       3.84158,            0.,NA,NA,"",       4.90473,       4.81221,  -948.180E-03,   100.774E-06
C:/temp/dataset/7/28_7.odb,Step-1,Increment      1: Step Time =    1.000,"PART-1-1",           512,           15.,        -18.75,            0.,NA,NA,"",       1.05604,   850.183E-03,  -626.432E-03,   43.9551E-03
C:/temp/dataset/7/28_7.odb,Step-1,Increment      1: Step Time =    1.000,"PART-1-1",           513,       13.1842,      -18.5870,            0.,NA,NA,"",   945.773E-03,   855.749E-03,  -402.717E-03,   28.3249E-03
C:/temp/dataset/7/28_7.odb,Step-1,Increment      1: Step Time =    1.000,"PART-1-1",           514,       13.5513,      -24.7801,            0.,NA,NA,"",   314.439E-03,   231.307E-03,  -213.000E-03,   42.3069E-03
C:/temp/dataset/7/28_7.odb,Step-1,Increment      1: Step Time =    1.000,"PART-1-1",           515,       12.2413,      -25.9996,            0.,NA,NA,"",   164.761E-03,   132.727E-03,  -97.6212E-03,   28.9767E-03
C:/temp/dataset/7/28_7.odb,Step-1,Increment      1: Step Time =    1.000,"PART-1-1",           516,           15.,        -26.25,            0.,NA,NA,"",   289.298E-03,   171.515E-03,  -232.972E-03,   63.4317E-03
C:/temp/dataset/7/28_7.odb,Step-1,Increment      1: Step Time =    1.000,"PART-1-1",           517,           15.,        -23.75,            0.,NA,NA,"",   502.175E-03,   337.541E-03,  -371.814E-03,   56.4643E-03
C:/temp/dataset/7/28_7.odb,Step-1,Increment      1: Step Time =    1.000,"PART-1-1",           518,       12.5809,      -23.3397,            0.,NA,NA,"",   385.061E-03,   333.349E-03,  -192.744E-03,   29.5536E-03
C:/temp/dataset/7/28_7.odb,Step-1,Increment      1: Step Time =    1.000,"PART-1-1",           519,       9.49127,      -18.7202,            0.,NA,NA,"",   847.169E-03,   846.600E-03,   31.0451E-03,   12.6497E-03
C:/temp/dataset/7/28_7.odb,Step-1,Increment      1: Step Time =    1.000,"PART-1-1",           520,       8.36047,      -17.5836,            0.,NA,NA,"",       1.02859,       1.01537,   164.390E-03,   17.2774E-03
C:/temp/dataset/7/28_7.odb,Step-1,Increment      1: Step Time =    1.000,"PART-1-1",           521,       11.5260,      -20.5498,            0.,NA,NA,"",   633.335E-03,   611.249E-03,  -165.795E-03,   17.6944E-03
C:/temp/dataset/7/28_7.odb,Step-1,Increment      1: Step Time =    1.000,"PART-1-1",           522,       10.5221,      -19.7870,            0.,NA,NA,"",   707.581E-03,   703.713E-03,  -73.8835E-03,   11.9003E-03
C:/temp/dataset/7/28_7.odb,Step-1,Increment      1: Step Time =    1.000,"PART-1-1",           523,       11.0260,      -21.8608,            0.,NA,NA,"",   477.820E-03,   467.992E-03,  -96.4144E-03,   14.5921E-03
C:/temp/dataset/7/28_7.odb,Step-1,Increment      1: Step Time =    1.000,"PART-1-1",           524,       7.98010,      -10.7619,            0.,NA,NA,"",       2.14005,       2.13036,   203.400E-03,   13.2586E-03
C:/temp/dataset/7/28_7.odb,Step-1,Increment      1: Step Time =    1.000,"PART-1-1",           525,       8.65118,      -4.78401,            0.,NA,NA,"",       3.25153,       3.25152,   10.5111E-03,   11.1434E-03
C:/temp/dataset/7/28_7.odb,Step-1,Increment      1: Step Time =    1.000,"PART-1-1",           526,       7.84665,      -3.50518,            0.,NA,NA,"",       3.52147,       3.51883,   136.462E-03,   10.2698E-03
C:/temp/dataset/7/28_7.odb,Step-1,Increment      1: Step Time =    1.000,"PART-1-1",           527,       9.43586,      -6.49799,            0.,NA,NA,"",       2.90582,       2.90409,  -100.377E-03,   11.4131E-03
C:/temp/dataset/7/28_7.odb,Step-1,Increment      1: Step Time =    1.000,"PART-1-1",           528,       10.6293,      -5.79077,            0.,NA,NA,"",       3.03792,       3.02070,  -323.025E-03,   10.7028E-03
C:/temp/dataset/7/28_7.odb,Step-1,Increment      1: Step Time =    1.000,"PART-1-1",           529,       11.1144,       3.95682,            0.,NA,NA,"",       4.90343,       4.86825,  -586.351E-03,   310.418E-06
C:/temp/dataset/7/28_7.odb,Step-1,Increment      1: Step Time =    1.000,"PART-1-1",           530,       10.1270,       5.17226,            0.,NA,NA,"",       5.12953,       5.11199,  -423.789E-03,   257.721E-06
C:/temp/dataset/7/28_7.odb,Step-1,Increment      1: Step Time =    1.000,"PART-1-1",           531,       9.05317,       10.7826,            0.,NA,NA,"",       6.18303,       6.17461,  -322.707E-03,   78.9785E-06
C:/temp/dataset/7/28_7.odb,Step-1,Increment      1: Step Time =    1.000,"PART-1-1",           532,       8.01195,       11.8024,            0.,NA,NA,"",       6.38425,       6.38256,  -146.802E-03,   39.3398E-06
C:/temp/dataset/7/28_7.odb,Step-1,Increment      1: Step Time =    1.000,"PART-1-1",           533,       11.0241,       10.9595,            0.,NA,NA,"",       6.21193,       6.17319,  -692.633E-03,   71.5627E-06
C:/temp/dataset/7/28_7.odb,Step-1,Increment      1: Step Time =    1.000,"PART-1-1",           534,       8.35051,       17.3209,            0.,NA,NA,"",       7.41007,       7.40374,  -306.261E-03,   1.16698E-06
C:/temp/dataset/7/28_7.odb,Step-1,Increment      1: Step Time =    1.000,"PART-1-1",           535,       12.5952,       19.1415,            0.,NA,NA,"",       7.75095,       7.66842,      -1.12803,   567.965E-09
C:/temp/dataset/7/28_7.odb,Step-1,Increment      1: Step Time =    1.000,"PART-1-1",           536,           15.,         18.75,            0.,NA,NA,"",       7.71472,       7.55354,      -1.56875,   1.57788E-06
C:/temp/dataset/7/28_7.odb,Step-1,Increment      1: Step Time =    1.000,"PART-1-1",           537,      -7.03326,       22.4462,            0.,NA,NA,"",       8.97227,       8.62638,       2.46725,   142.377E-09
C:/temp/dataset/7/28_7.odb,Step-1,Increment      1: Step Time =    1.000,"PART-1-1",           538,      -8.48458,       21.3302,            0.,NA,NA,"",       8.88267,       8.44403,       2.75685,   145.908E-09
C:/temp/dataset/7/28_7.odb,Step-1,Increment      1: Step Time =    1.000,"PART-1-1",           539,      -6.65000,           20.,            0.,NA,NA,"",       8.52084,       8.16442,       2.43866,   150.652E-09
C:/temp/dataset/7/28_7.odb,Step-1,Increment      1: Step Time =    1.000,"PART-1-1",           540,      -5.19869,       21.1160,            0.,NA,NA,"",       8.61899,       8.34677,       2.14906,   146.816E-09
C:/temp/dataset/7/28_7.odb,Step-1,Increment      1: Step Time =    1.000,"PART-1-1",           541,       9.42603,       26.6587,            0.,NA,NA,"",       9.14733,       9.12279,  -669.559E-03,   143.313E-09
C:/temp/dataset/7/28_7.odb,Step-1,Increment      1: Step Time =    1.000,"PART-1-1",           542,       10.3720,       25.4897,            0.,NA,NA,"",       8.92693,       8.88870,  -825.185E-03,   176.953E-09
C:/temp/dataset/7/28_7.odb,Step-1,Increment      1: Step Time =    1.000,"PART-1-1",           543,       6.87457,       25.7626,            0.,NA,NA,"",       9.00239,       9.00061,  -179.057E-03,   132.862E-09
C:/temp/dataset/7/28_7.odb,Step-1,Increment      1: Step Time =    1.000,"PART-1-1",           544,       7.54675,       26.7337,            0.,NA,NA,"",       9.17520,       9.16958,  -321.119E-03,   125.172E-09
C:/temp/dataset/7/28_7.odb,Step-1,Increment      1: Step Time =    1.000,"PART-1-1",           545,      -3.17643,       25.4018,            0.,NA,NA,"",       9.26593,       9.10905,       1.69782,   128.251E-09
C:/temp/dataset/7/28_7.odb,Step-1,Increment      1: Step Time =    1.000,"PART-1-1",           546,      -4.35024,       25.6599,            0.,NA,NA,"",       9.37459,       9.17759,       1.91177,   130.115E-09
C:/temp/dataset/7/28_7.odb,Step-1,Increment      1: Step Time =    1.000,"PART-1-1",           547,       4.01884,       22.4610,            0.,NA,NA,"",       8.44600,       8.43604,   410.100E-03,   147.650E-09
C:/temp/dataset/7/28_7.odb,Step-1,Increment      1: Step Time =    1.000,"PART-1-1",           548,       5.32127,       23.1739,            0.,NA,NA,"",       8.54737,       8.54596,   155.253E-03,   202.692E-09
C:/temp/dataset/7/28_7.odb,Step-1,Increment      1: Step Time =    1.000,"PART-1-1",           549,       11.1447,       22.1526,            0.,NA,NA,"",       8.30424,       8.25415,  -910.698E-03,   489.042E-09
C:/temp/dataset/7/28_7.odb,Step-1,Increment      1: Step Time =    1.000,"PART-1-1",           550,       10.2813,       23.3249,            0.,NA,NA,"",       8.52230,       8.48740,  -770.494E-03,   327.655E-09
C:/temp/dataset/7/28_7.odb,Step-1,Increment      1: Step Time =    1.000,"PART-1-1",           551,       6.15508,       21.9496,            0.,NA,NA,"",       8.30356,       8.30353,   21.4636E-03,   344.824E-09
C:/temp/dataset/7/28_7.odb,Step-1,Increment      1: Step Time =    1.000,"PART-1-1",           552,       6.48612,       23.9825,            0.,NA,NA,"",       8.67642,       8.67609,  -75.6631E-03,   190.665E-09
C:/temp/dataset/7/28_7.odb,Step-1,Increment      1: Step Time =    1.000,"PART-1-1",           553,   6.30745E-03,       24.2683,            0.,NA,NA,"",       8.91380,       8.84249,       1.12529,   122.184E-09
C:/temp/dataset/7/28_7.odb,Step-1,Increment      1: Step Time =    1.000,"PART-1-1",           554,      -1.65981,       23.6471,            0.,NA,NA,"",       8.87462,       8.75599,       1.44622,   131.245E-09
C:/temp/dataset/7/28_7.odb,Step-1,Increment      1: Step Time =    1.000,"PART-1-1",           555,      -1.07768,       22.4355,            0.,NA,NA,"",       8.62805,       8.52034,       1.35905,   135.336E-09
C:/temp/dataset/7/28_7.odb,Step-1,Increment      1: Step Time =    1.000,"PART-1-1",           556,   588.432E-03,       23.0567,            0.,NA,NA,"",       8.66922,       8.60684,       1.03812,   128.033E-09
C:/temp/dataset/7/28_7.odb,Step-1,Increment      1: Step Time =    1.000,"PART-1-1",           557,      -4.82218,       24.5397,            0.,NA,NA,"",       9.20164,       8.97737,       2.01917,   133.922E-09
C:/temp/dataset/7/28_7.odb,Step-1,Increment      1: Step Time =    1.000,"PART-1-1",           558,      -3.09511,       23.7242,            0.,NA,NA,"",       8.96048,       8.79541,       1.71200,   134.563E-09
C:/temp/dataset/7/28_7.odb,Step-1,Increment      1: Step Time =    1.000,"PART-1-1",           559,      -5.58708,       23.2486,            0.,NA,NA,"",       9.01888,       8.75043,       2.18408,   139.173E-09
C:/temp/dataset/7/28_7.odb,Step-1,Increment      1: Step Time =    1.000,"PART-1-1",           560,       8.76337,      -9.49006,            0.,NA,NA,"",       2.34984,       2.34906,   60.7056E-03,   11.8502E-03
C:/temp/dataset/7/28_7.odb,Step-1,Increment      1: Step Time =    1.000,"PART-1-1",           561,       9.72759,      -26.4759,            0.,NA,NA,"",   98.3313E-03,   97.5481E-03,   12.3860E-03,   13.0795E-03
C:/temp/dataset/7/28_7.odb,Step-1,Increment      1: Step Time =    1.000,"PART-1-1",           562,       9.12173,       6.33780,            0.,NA,NA,"",       5.35248,       5.34629,  -257.280E-03,   246.602E-06
C:/temp/dataset/7/28_7.odb,Step-1,Increment      1: Step Time =    1.000,"PART-1-1",           563,       11.1214,       6.29882,            0.,NA,NA,"",       5.34145,       5.30429,  -628.907E-03,   207.910E-06
C:/temp/dataset/7/28_7.odb,Step-1,Increment      1: Step Time =    1.000,"PART-1-1",           564,       11.1740,      -13.7880,            0.,NA,NA,"",       1.58672,       1.56644,  -252.897E-03,   13.2328E-03
C:/temp/dataset/7/28_7.odb,Step-1,Increment      1: Step Time =    1.000,"PART-1-1",           565,       10.6612,      -8.65022,            0.,NA,NA,"",       2.49184,       2.47692,  -272.282E-03,   11.8543E-03
C:/temp/dataset/7/28_7.odb,Step-1,Increment      1: Step Time =    1.000,"PART-1-1",           566,       9.47894,      -7.81405,            0.,NA,NA,"",       2.65296,       2.65158,  -85.6242E-03,   11.3049E-03
C:/temp/dataset/7/28_7.odb,Step-1,Increment      1: Step Time =    1.000,"PART-1-1",           567,       11.3640,      -18.5194,            0.,NA,NA,"",   882.279E-03,   862.289E-03,  -186.749E-03,   15.6804E-03
C:/temp/dataset/7/28_7.odb,Step-1,Increment      1: Step Time =    1.000,"PART-1-1",           568,       12.0025,       20.7886,            0.,NA,NA,"",       8.05359,       7.98531,      -1.04651,   577.065E-09
C:/temp/dataset/7/28_7.odb,Step-1,Increment      1: Step Time =    1.000,"PART-1-1",           569,       11.4947,       18.6594,            0.,NA,NA,"",       7.65279,       7.59792,  -914.800E-03,   648.803E-09
C:/temp/dataset/7/28_7.odb,Step-1,Increment      1: Step Time =    1.000,"PART-1-1",           570,       9.39315,       18.1618,            0.,NA,NA,"",       7.55960,       7.54204,  -514.997E-03,   1.04991E-06
C:/temp/dataset/7/28_7.odb,Step-1,Increment      1: Step Time =    1.000,"PART-1-1",           571,       10.9214,       17.4088,            0.,NA,NA,"",       7.41698,       7.37519,  -786.258E-03,   1.22574E-06
C:/temp/dataset/7/28_7.odb,Step-1,Increment      1: Step Time =    1.000,"PART-1-1",           572,      -9.97500,           20.,            0.,NA,NA,"",       8.77255,       8.22251,       3.05747,   148.153E-09
C:/temp/dataset/7/28_7.odb,Step-1,Increment      1: Step Time =    1.000,"PART-1-1",           573,       11.9818,      -2.09472,            0.,NA,NA,"",       3.76482,       3.71016,  -639.192E-03,   5.11986E-03
C:/temp/dataset/7/28_7.odb,Step-1,Increment      1: Step Time =    1.000,"PART-1-1",           574,       12.0426,   313.093E-03,            0.,NA,NA,"",       4.22532,       4.16777,  -694.944E-03,   2.18554E-03
C:/temp/dataset/7/28_7.odb,Step-1,Increment      1: Step Time =    1.000,"PART-1-1",           575,       12.1686,      -14.9632,            0.,NA,NA,"",       1.42217,       1.37271,  -371.784E-03,   17.2001E-03
C:/temp/dataset/7/28_7.odb,Step-1,Increment      1: Step Time =    1.000,"PART-1-1",           576,       12.0880,      -12.5178,            0.,NA,NA,"",       1.82045,       1.77109,  -421.040E-03,   14.8065E-03
C:/temp/dataset/7/28_7.odb,Step-1,Increment      1: Step Time =    1.000,"PART-1-1",           577,       12.0767,       2.70437,            0.,NA,NA,"",       4.67663,       4.61710,  -743.786E-03,   473.627E-06
C:/temp/dataset/7/28_7.odb,Step-1,Increment      1: Step Time =    1.000,"PART-1-1",           578,       11.6617,       14.7036,            0.,NA,NA,"",       6.91462,       6.85881,  -876.782E-03,   7.97988E-06
C:/temp/dataset/7/28_7.odb,Step-1,Increment      1: Step Time =    1.000,"PART-1-1",           579,       11.9561,       12.2406,            0.,NA,NA,"",       6.45675,       6.39532,  -888.520E-03,   31.4082E-06
C:/temp/dataset/7/28_7.odb,Step-1,Increment      1: Step Time =    1.000,"PART-1-1",           580,       12.3155,      -19.7087,            0.,NA,NA,"",   760.912E-03,   712.072E-03,  -268.218E-03,   22.8593E-03
C:/temp/dataset/7/28_7.odb,Step-1,Increment      1: Step Time =    1.000,"PART-1-1",           581,       12.3404,      -21.7879,            0.,NA,NA,"",   525.598E-03,   479.273E-03,  -215.755E-03,   25.3451E-03
C:/temp/dataset/7/28_7.odb,Step-1,Increment      1: Step Time =    1.000,"PART-1-1",           582,       12.2327,      -17.3977,            0.,NA,NA,"",       1.06205,       1.01322,  -318.338E-03,   19.8433E-03
C:/temp/dataset/7/28_7.odb,Step-1,Increment      1: Step Time =    1.000,"PART-1-1",           583,       12.1020,       5.09402,            0.,NA,NA,"",       5.12415,       5.06281,  -790.526E-03,   188.530E-06
C:/temp/dataset/7/28_7.odb,Step-1,Increment      1: Step Time =    1.000,"PART-1-1",           584,       12.0630,       9.85139,            0.,NA,NA,"",       6.01169,       5.94890,  -866.648E-03,   86.4935E-06
C:/temp/dataset/7/28_7.odb,Step-1,Increment      1: Step Time =    1.000,"PART-1-1",           585,       12.0921,       7.47372,            0.,NA,NA,"",       5.56827,       5.50600,  -830.432E-03,   173.505E-06
C:/temp/dataset/7/28_7.odb,Step-1,Increment      1: Step Time =    1.000,"PART-1-1",           586,       11.9146,      -10.0225,            0.,NA,NA,"",       2.25596,       2.20988,  -453.642E-03,   12.6792E-03
C:/temp/dataset/7/28_7.odb,Step-1,Increment      1: Step Time =    1.000,"PART-1-1",           587,       11.5993,      -7.26023,            0.,NA,NA,"",       2.76455,       2.72548,  -463.115E-03,   10.9490E-03
C:/temp/dataset/7/28_7.odb,Step-1,Increment      1: Step Time =    1.000,"PART-1-1",           588,       11.8707,      -4.56496,            0.,NA,NA,"",       3.28671,       3.23697,  -569.595E-03,   8.43866E-03
C:/temp/dataset/7/28_7.odb,Step-1,Increment      1: Step Time =    1.000,"PART-1-1",           589,      -3.86001,       22.4330,            0.,NA,NA,"",       8.77163,       8.56848,       1.87691,   140.245E-09
C:/temp/dataset/7/28_7.odb,Step-1,Increment      1: Step Time =    1.000,"PART-1-1",           590,       3.35000,           20.,            0.,NA,NA,"",       8.01056,       7.98971,   577.573E-03,   177.257E-09
C:/temp/dataset/7/28_7.odb,Step-1,Increment      1: Step Time =    1.000,"PART-1-1",           591,       5.05511,       21.0689,            0.,NA,NA,"",       8.16243,       8.15886,   241.564E-03,   397.217E-09
C:/temp/dataset/7/28_7.odb,Step-1,Increment      1: Step Time =    1.000,"PART-1-1",           592,       2.31373,       21.3921,            0.,NA,NA,"",       8.30050,       8.26690,   746.109E-03,   160.286E-09
C:/temp/dataset/7/28_7.odb,Step-1,Increment      1: Step Time =    1.000,"PART-1-1",           593,      -1.98632,       21.3170,            0.,NA,NA,"",       8.47063,       8.32804,       1.54770,   145.811E-09
C:/temp/dataset/7/28_7.odb,Step-1,Increment      1: Step Time =    1.000,"PART-1-1",           594,   25.0000E-03,           20.,            0.,NA,NA,"",       8.13624,       8.04780,       1.19638,   162.514E-09
C:/temp/dataset/7/28_7.odb,Step-1,Increment      1: Step Time =    1.000,"PART-1-1",           595,   933.640E-03,       21.1186,            0.,NA,NA,"",       8.30150,       8.24010,       1.00774,   150.538E-09
C:/temp/dataset/7/28_7.odb,Step-1,Increment      1: Step Time =    1.000,"PART-1-1",           596,       7.16521,       20.7144,            0.,NA,NA,"",       8.05732,       8.05602,  -144.952E-03,   644.607E-09
C:/temp/dataset/7/28_7.odb,Step-1,Increment      1: Step Time =    1.000,"PART-1-1",           597,       8.15837,       19.5039,            0.,NA,NA,"",       7.81947,       7.81338,  -308.639E-03,   700.359E-09
C:/temp/dataset/7/28_7.odb,Step-1,Increment      1: Step Time =    1.000,"PART-1-1",           598,      -3.32500,           20.,            0.,NA,NA,"",       8.30809,       8.10633,       1.81985,   152.848E-09
